# x y z rho theta phi s1 s2 stress_xx np intf bulk
-0.690047 -10.751239 -14.359333 17.951483 1.506701 2.497919 0.015187 -0.000563 -534988.000000 1 0 0
2.179453 -13.427239 -13.097533 18.883488 -1.409884 2.337267 0.016269 0.005191 1342800.000000 1 0 0
2.213253 -11.036339 -14.619533 18.450745 -1.372879 2.485455 0.015250 -0.002649 -266951.000000 1 0 0
-5.594047 -6.435139 -16.543533 18.611632 0.855205 2.665694 0.021149 -0.003638 954389.000000 1 0 0
4.583553 -14.037239 -11.578333 18.764616 -1.255183 2.235759 0.012845 0.001826 -303975.000000 1 0 0
14.046253 -10.556639 -8.000833 19.306817 -0.644500 1.998085 0.052726 -0.013086 -93694.700000 1 0 0
7.049553 10.785461 -10.852133 16.846102 0.991883 2.270763 0.041684 -0.022920 471806.000000 1 0 0
5.760153 -4.116039 -12.546233 14.405870 -0.620438 2.627850 0.008262 -0.004357 832221.000000 1 0 0
13.726953 0.615161 -9.944233 16.961587 0.044784 2.197255 0.041296 -0.006952 889853.000000 1 0 0
14.016953 5.054461 -10.345533 18.139807 0.346083 2.177694 0.036714 -0.014216 -536016.000000 1 0 0
4.077953 4.310061 -13.377933 14.634733 0.813063 2.724134 0.004279 -0.002931 2337800.000000 1 0 0
10.292953 -4.791839 -13.707933 17.799270 -0.435706 2.449857 0.037447 -0.003177 -596048.000000 1 0 0
2.635453 -7.449439 -12.024533 14.388507 -1.230759 2.560210 0.004116 0.000339 1780130.000000 1 0 0
-5.561947 -2.141639 -15.168533 16.297431 0.367554 2.767204 0.006481 -0.000383 1011200.000000 1 0 0
10.710753 0.176161 -9.584933 14.374359 0.016446 2.300713 0.016865 -0.005849 3077470.000000 1 0 0
-1.534647 -9.418639 -16.827933 19.345419 1.409278 2.625728 0.023128 -0.010254 389286.000000 1 0 0
8.621953 1.807961 -17.964433 20.008190 0.206698 2.685667 0.029508 -0.008643 82901.800000 1 0 0
16.562353 -5.876539 -8.802933 19.655454 -0.340956 2.035169 0.091533 -0.012353 -1312840.000000 1 0 0
10.061053 7.622161 -9.867533 16.021558 0.648342 2.234313 0.030788 -0.013466 669099.000000 1 0 0
13.957953 -2.208439 -10.689933 17.719377 -0.156920 2.218417 0.056673 -0.006989 -362841.000000 1 0 0
7.243253 -1.778439 -13.612533 15.521875 -0.240768 2.640359 0.020942 -0.007482 579886.000000 1 0 0
-2.829847 6.666961 -13.760433 15.550110 -1.169385 2.657095 0.002656 -0.006601 1716640.000000 1 0 0
11.297153 1.766261 -13.868733 17.974624 0.155090 2.452106 0.040375 -0.008304 2131810.000000 1 0 0
-2.369947 10.709561 -12.936133 16.960392 -1.353013 2.438314 0.006310 -0.004639 1736260.000000 1 0 0
2.805953 -1.027739 -15.181033 15.472342 -0.351096 2.947237 0.009901 -0.008591 1456970.000000 1 0 0
-9.037747 0.381061 -15.282633 17.759081 -0.042138 2.607151 0.016574 0.004105 -987930.000000 1 0 0
2.368853 -1.816939 -17.961933 18.208343 -0.654300 2.976890 0.027738 -0.018556 1079020.000000 1 0 0
0.970953 7.871661 -13.144233 15.351764 1.448068 2.598672 0.007936 -0.006373 -422729.000000 1 0 0
9.367753 -9.016539 -9.920133 16.354259 -0.766296 2.222545 0.025457 -0.001369 -276126.000000 1 0 0
3.865253 7.223961 -13.479233 15.773887 1.079496 2.595438 0.005161 -0.004385 1104960.000000 1 0 0
-2.769847 9.048661 -15.465133 18.130655 -1.273747 2.592470 0.002490 -0.005034 542800.000000 1 0 0
5.532553 -7.675239 -15.240533 17.938570 -0.946226 2.586015 0.026699 -0.007174 -1277640.000000 1 0 0
4.137653 7.271661 -16.387533 18.399687 1.053475 2.669551 0.007483 -0.002816 -602774.000000 1 0 0
-0.266347 5.117361 -13.431833 14.376107 -1.518795 2.777133 0.008801 -0.006998 1003940.000000 1 0 0
8.788353 4.352661 -16.547833 19.235685 0.459861 2.606590 0.022924 -0.004449 -599955.000000 1 0 0
5.306053 0.444661 -14.353833 15.309619 0.083607 2.786371 0.003595 -0.002853 1907070.000000 1 0 0
6.269653 7.859861 -11.551433 15.314097 0.897472 2.425385 0.009417 -0.007135 198492.000000 1 0 0
2.805453 -8.299439 -14.988133 17.360742 -1.244825 2.612637 0.019237 -0.006539 -26856.500000 1 0 0
3.937253 11.436161 -13.830733 18.373266 1.239225 2.423047 0.029344 -0.021401 -961431.000000 1 0 0
0.622153 -4.444739 -13.711133 14.426987 -1.431725 2.825254 0.008863 -0.006399 -254368.000000 1 0 0
8.548153 0.032461 -11.543333 14.363861 0.003797 2.504178 0.008279 -0.004985 -44666.600000 1 0 0
-0.965347 -4.993839 -16.204533 16.984028 1.379844 2.837451 0.012641 -0.015274 280025.000000 1 0 0
4.498353 0.995161 -11.671433 12.547823 0.217721 2.765634 0.003932 -0.006283 1622570.000000 1 0 0
-2.905047 -7.189739 -15.517833 17.347472 1.186799 2.678175 0.007767 -0.004984 2284450.000000 1 0 0
11.412253 -3.603339 -11.311433 16.467303 -0.305837 2.328015 0.031705 -0.003380 226214.000000 1 0 0
6.521753 -6.951539 -12.556033 15.764235 -0.817286 2.492262 0.017671 -0.000732 234542.000000 1 0 0
3.409753 -3.872539 -14.639433 15.522112 -0.848862 2.802732 0.014857 -0.009990 4618020.000000 1 0 0
-0.568247 -1.532539 -18.238133 18.311228 1.215723 3.052212 0.031410 -0.017956 671780.000000 1 0 0
14.936853 3.069261 -8.421833 17.420023 0.202662 2.075396 0.025601 -0.006181 -814706.000000 1 0 0
6.903653 4.399961 -14.249433 16.433698 0.567423 2.620119 0.002626 -0.001917 2485280.000000 1 0 0
10.351653 -9.616639 -13.883533 19.808810 -0.748606 2.347422 0.072630 -0.016315 -1171080.000000 1 0 0
9.008953 -3.033239 -15.640933 18.303020 -0.324770 2.595489 0.052387 -0.012608 -1078350.000000 1 0 0
-5.220447 -2.342139 -18.106733 18.989272 0.421728 2.835520 0.005870 0.010794 -114378.000000 1 0 0
5.128553 -9.020339 -11.116733 15.206917 -1.053820 2.390629 -0.001056 0.005229 660824.000000 1 0 0
-2.469147 3.962461 -17.172033 17.795407 -1.013539 2.876125 0.011853 0.004704 974925.000000 1 0 0
9.166953 9.585861 -14.468333 19.627899 0.807733 2.399611 0.071228 -0.017994 -574823.000000 1 0 0
9.791853 9.984561 -11.522233 18.119981 0.795142 2.259952 0.049671 -0.025070 -303748.000000 1 0 0
12.138453 -5.817439 -9.675133 16.576876 -0.446916 2.194016 0.037386 -0.002769 482129.000000 1 0 0
8.143153 6.991261 -13.645133 17.360251 0.709434 2.475106 0.015435 -0.004429 205516.000000 1 0 0
4.080653 -4.131439 -17.501133 18.439365 -0.791582 2.821220 0.042546 -0.023809 -893268.000000 1 0 0
9.367953 -7.335939 -12.407333 17.190592 -0.664344 2.377126 0.034245 -0.002651 346692.000000 1 0 0
11.997253 -8.629039 -8.863133 17.232223 -0.623530 2.111028 0.047934 -0.008275 532518.000000 1 0 0
-2.893447 -2.507039 -13.827933 14.348136 0.713969 2.871493 0.005468 -0.008077 -1930360.000000 1 0 0
-0.384347 6.141261 -17.497333 18.547762 -1.508293 2.803431 0.012118 -0.004176 395568.000000 1 0 0
1.119153 -8.323139 -17.398133 19.318959 -1.437135 2.691882 0.029825 -0.015436 1168670.000000 1 0 0
0.036653 8.540161 -15.870633 18.022561 1.566505 2.647919 0.008222 -0.002925 -103246.000000 1 0 0
1.762653 3.380561 -14.929433 15.408540 1.090169 2.891568 0.009427 -0.007287 2640380.000000 1 0 0
-1.930347 -0.450339 -15.747233 15.871496 0.229195 3.016376 0.010774 -0.007739 1013130.000000 1 0 0
14.259953 -4.194339 -8.475733 17.110721 -0.286067 2.089030 0.052007 -0.004770 1232080.000000 1 0 0
0.540453 0.650861 -14.459233 14.483961 0.877812 3.083150 0.006646 -0.007723 1647530.000000 1 0 0
8.842653 2.860961 -12.498533 15.575331 0.312912 2.502198 0.010876 -0.003943 1548150.000000 1 0 0
5.930653 1.111261 -17.194133 18.222123 0.185228 2.804093 0.019665 0.001067 -640498.000000 1 0 0
15.361053 1.681161 -12.256533 19.723358 0.109009 2.241353 0.087268 -0.024750 -1664240.000000 1 0 0
8.816453 -11.160339 -11.996933 18.606703 -0.902195 2.271511 0.045015 -0.003054 582169.000000 1 0 0
-4.693647 0.694261 -15.184233 15.908276 -0.146850 2.838729 0.007425 -0.001611 1435600.000000 1 0 0
2.356653 5.070661 -17.221533 18.106535 1.135734 2.827647 0.013794 -0.006516 515639.000000 1 0 0
5.965253 -11.627139 -12.402333 18.016450 -1.096767 2.330063 0.013377 0.003108 116860.000000 1 0 0
12.773953 7.211861 -8.694233 17.052111 0.513965 2.105821 0.021368 -0.014035 -58350.000000 1 0 0
-4.983247 3.518961 -15.704133 16.847422 -0.614847 2.771071 0.005158 0.003736 1183900.000000 1 0 0
-0.574247 -4.352939 -18.968233 19.469764 1.439632 2.914125 0.029614 -0.019448 -1641510.000000 1 0 0
9.721853 4.482661 -10.212633 14.795491 0.432039 2.332635 0.004379 -0.007264 881643.000000 1 0 0
13.258153 3.614261 -12.765633 18.756409 0.266140 2.319379 0.069373 -0.021770 -1105480.000000 1 0 0
-6.067247 5.861561 -17.222333 19.177543 -0.768157 2.686106 0.010465 0.009026 141197.000000 1 0 0
-10.088047 3.154661 -15.429333 18.702537 -0.303079 2.540974 0.034724 -0.000910 -765197.000000 1 0 0
10.733053 13.499561 -8.381333 19.175070 0.899071 2.023163 0.116018 -0.016442 -385024.000000 1 0 0
7.377553 13.256261 -12.459433 19.631460 1.062951 2.258373 0.083058 -0.027988 -8753.880000 1 0 0
5.222553 15.080461 -11.478733 19.658502 1.237410 2.194329 0.051014 -0.019602 -148195.000000 1 0 0
14.284553 9.435561 -9.824033 19.738032 0.583751 2.091766 0.101935 -0.027510 -363969.000000 1 0 0
8.477853 -17.090539 -2.062633 19.188928 -1.110309 1.678495 0.034812 -0.008697 -187077.000000 1 0 0
0.814953 -16.099939 -0.016933 16.120560 -1.520221 1.571847 0.020782 -0.009303 4740930.000000 1 0 0
-9.103047 -11.745539 7.565167 16.674978 0.911473 1.099902 0.030569 -0.007181 -1155190.000000 1 0 0
2.136653 -15.991839 -2.681533 16.355269 -1.437974 1.735495 0.024616 -0.010348 2014780.000000 1 0 0
-1.289447 -11.021939 -9.528033 14.626319 1.454337 2.280265 0.004935 0.000557 1434770.000000 1 0 0
-4.735747 -12.671439 -12.970933 18.741338 1.213136 2.335195 0.029801 -0.005549 -396615.000000 1 0 0
-8.288647 -17.889139 -1.755333 19.794043 1.136909 1.659593 0.035058 -0.017225 281659.000000 1 0 0
-11.308747 -7.215939 -8.870233 16.082244 0.567953 2.155023 0.027268 -0.009151 2653440.000000 1 0 0
-13.510447 -11.601939 -4.670833 18.410699 0.709545 1.827302 0.033507 -0.010206 -3300.240000 1 0 0
-5.688147 -13.439439 9.813267 17.586180 1.170415 0.978810 0.021227 -0.007553 -140548.000000 1 0 0
0.198853 -14.051839 -3.719033 14.537019 -1.556646 1.829504 0.019192 -0.003316 -380958.000000 1 0 0
-14.702647 -11.612639 1.965667 18.838393 0.668511 1.466262 0.024623 -0.000407 -109834.000000 1 0 0
-3.915547 -16.461139 -7.519733 18.516128 1.337270 1.988998 0.022040 -0.015551 208784.000000 1 0 0
0.621753 -15.370539 -9.348433 18.000923 -1.530367 2.116864 0.013000 0.002893 1607090.000000 1 0 0
4.655853 -14.252439 -2.665533 15.228724 -1.255054 1.746736 0.018255 -0.002196 -28503.100000 1 0 0
-3.490547 -18.192439 -2.517133 18.694510 1.381232 1.705852 0.030651 -0.021886 1828840.000000 1 0 0
-0.939247 -13.619039 0.642067 13.666479 1.501940 1.523798 0.014824 -0.004678 2998050.000000 1 0 0
-8.463147 -11.458239 -10.532533 17.715822 0.934626 2.207473 0.031873 -0.007889 1497820.000000 1 0 0
-3.727247 -14.227139 -0.477933 14.715035 1.314573 1.603281 0.009550 -0.000449 4891270.000000 1 0 0
-1.511547 -14.934839 -7.351233 16.714509 1.469930 2.026185 0.015978 -0.002954 18213.100000 1 0 0
-14.115347 -7.980139 -1.773233 16.311652 0.514553 1.679721 0.025924 -0.007792 2297900.000000 1 0 0
-10.678547 -7.401939 -11.702533 17.486262 0.606120 2.303984 0.034268 -0.007313 -996753.000000 1 0 0
-9.461047 -14.721339 6.816667 18.780207 0.999587 1.199342 0.024539 -0.001043 -56996.600000 1 0 0
-2.456347 -14.414039 -12.444533 19.200639 1.402004 2.275924 0.031239 -0.005705 -508876.000000 1 0 0
2.354353 -17.811439 -4.922133 18.628412 -1.439376 1.838199 0.038994 -0.017258 -727717.000000 1 0 0
-6.610247 -9.757339 -9.230233 14.969911 0.975356 2.235195 0.018483 -0.008945 -316052.000000 1 0 0
-10.992947 -15.466139 0.234867 18.976340 0.952875 1.558419 0.025058 -0.008435 -583521.000000 1 0 0
-12.596447 -11.038339 4.029667 17.226538 0.719569 1.334687 0.025571 -0.004217 1899030.000000 1 0 0
-16.925947 -8.920939 -1.547533 19.195460 0.485058 1.651504 0.029534 -0.008495 -1243660.000000 1 0 0
-1.258647 -19.208639 -4.014833 19.664050 1.505365 1.776413 0.047820 -0.029431 -1011900.000000 1 0 0
3.350453 -14.269139 -8.948933 17.173155 -1.340170 2.118936 0.014455 -0.001351 472816.000000 1 0 0
-4.313547 -7.982339 -13.007033 15.858983 1.075364 2.532501 0.008275 -0.002007 1247040.000000 1 0 0
5.661153 -16.647539 1.443967 17.642966 -1.243005 1.488861 0.034769 -0.004421 2994370.000000 1 0 0
-2.708147 -13.889939 -3.248333 14.519508 1.378240 1.796428 0.012792 -0.002409 -828968.000000 1 0 0
-0.333347 -13.991939 3.612367 14.454572 1.546977 1.318207 0.011506 -0.001242 -1842090.000000 1 0 0
1.283353 -16.107639 7.017867 17.616852 -1.491291 1.161067 0.027056 -0.011962 -228683.000000 1 0 0
-5.447447 -10.378439 -14.514833 18.656555 1.087442 2.462275 0.030320 -0.008451 -1417790.000000 1 0 0
-0.283147 -17.306939 -6.009633 18.322827 1.554437 1.904967 0.033067 -0.016604 289377.000000 1 0 0
-6.530347 -13.440239 -1.314233 15.000422 1.118508 1.658522 0.008946 -0.000357 1643350.000000 1 0 0
-1.701247 -17.772239 -0.164933 17.854241 1.475362 1.580034 0.025762 -0.015987 1721710.000000 1 0 0
-9.504547 -9.834939 -4.848933 14.511188 0.802480 1.911501 0.016947 -0.005716 1778780.000000 1 0 0
-0.678547 -16.650939 4.878267 17.364092 1.530068 1.286023 0.029486 -0.009554 1277670.000000 1 0 0
-6.835847 -10.012939 -6.371833 13.696277 0.971775 2.054684 0.011359 -0.008646 2606210.000000 1 0 0
-6.054747 -14.644839 -8.626733 18.043054 1.178759 2.069309 0.027254 -0.007546 62575.000000 1 0 0
-5.710647 -12.291339 -10.294233 17.019393 1.135861 2.220378 0.028036 -0.007102 1467840.000000 1 0 0
-10.762047 -12.215339 -8.754233 18.484392 0.848563 2.064172 0.046495 -0.018996 244537.000000 1 0 0
4.060553 -17.077739 6.671467 18.778864 -1.337362 1.207599 0.046371 -0.017524 -238113.000000 1 0 0
-6.680247 -14.375539 -4.134833 16.382267 1.135789 1.825953 0.019348 -0.011866 1539830.000000 1 0 0
-2.805947 -12.251139 -7.230633 14.499855 1.345644 2.092859 0.013371 -0.003573 3776680.000000 1 0 0
-7.028647 -12.856239 4.431767 15.307688 1.070482 1.277079 0.004241 -0.000572 452928.000000 1 0 0
2.728653 -16.350939 2.382667 16.747413 -1.405440 1.428041 0.026662 -0.011193 878014.000000 1 0 0
-6.171847 -12.111639 7.261967 15.411673 1.099514 1.080147 0.009660 0.000904 2092920.000000 1 0 0
-11.176247 -12.825639 -0.948933 17.038368 0.854010 1.626519 0.026334 -0.003306 1268570.000000 1 0 0
-14.178147 -8.703639 4.705067 17.289038 0.550561 1.295178 0.023864 -0.007431 -604255.000000 1 0 0
-7.987747 -15.669039 4.441067 18.139624 1.099356 1.323455 0.020416 0.006716 478775.000000 1 0 0
-16.415947 -9.180039 1.265567 18.850944 0.509890 1.503610 0.023475 -0.004555 -725179.000000 1 0 0
-6.648347 -17.069039 2.297867 18.461657 1.199377 1.446006 0.021737 -0.006445 734090.000000 1 0 0
-11.553447 -15.014039 -4.742433 19.529316 0.914926 1.816085 0.051903 -0.013179 671464.000000 1 0 0
-10.055547 -10.088439 -12.716533 19.094524 0.787031 2.299600 0.037843 -0.003251 383749.000000 1 0 0
-4.318447 -16.066639 -4.553033 17.248651 1.308219 1.837927 0.014364 -0.011081 -419722.000000 1 0 0
-11.742347 -8.321039 0.036967 14.391795 0.616498 1.568228 0.002910 0.000026 1980770.000000 1 0 0
-9.564347 -11.202539 3.545067 15.150614 0.864120 1.334618 0.006488 0.003342 2219920.000000 1 0 0
-14.119347 -12.944039 -0.603333 19.164240 0.741997 1.602284 0.024191 -0.004287 555786.000000 1 0 0
5.665253 -14.869739 -7.177233 17.456142 -1.206783 1.994520 0.015475 -0.011009 836855.000000 1 0 0
-7.414247 -10.591139 -1.261633 12.989804 0.960042 1.668075 0.005390 0.002617 1465410.000000 1 0 0
-11.661847 -8.263239 -6.057933 15.523477 0.616455 1.971692 0.017149 -0.008968 68772.800000 1 0 0
-14.356347 -6.651939 -9.229333 18.317576 0.433896 2.098848 0.043340 -0.017360 2990550.000000 1 0 0
-3.907047 -16.478239 1.415967 16.994185 1.337992 1.487379 0.021055 -0.010805 1589910.000000 1 0 0
-8.008647 -15.513639 0.099967 17.459135 1.094247 1.565071 0.025610 -0.010256 2013940.000000 1 0 0
1.102753 -18.456639 3.711367 18.858362 -1.511119 1.372701 0.037010 -0.017351 -686132.000000 1 0 0
-14.081047 -8.724139 -4.501233 17.165302 0.554682 1.836127 0.031275 -0.013452 -812907.000000 1 0 0
-3.254947 -14.494039 11.173267 18.588000 1.349890 0.925918 0.008633 -0.010173 1305940.000000 1 0 0
-10.814847 -12.270939 -3.782533 16.788222 0.848388 1.798056 0.033904 -0.011626 170231.000000 1 0 0
-9.889447 -10.781339 0.624767 14.643386 0.828519 1.528118 0.005780 0.005545 2352420.000000 1 0 0
-0.119747 -13.248539 -11.174733 17.332420 1.561758 2.271466 0.015499 -0.001510 796649.000000 1 0 0
-5.847547 -12.763739 -6.428033 15.441063 1.141196 2.000163 0.012907 -0.010834 1744990.000000 1 0 0
1.825353 -15.771039 9.805467 18.660245 -1.455568 1.017525 0.020721 -0.014253 632342.000000 1 0 0
-8.920347 -15.734239 -5.596633 18.933071 1.055042 1.870881 0.047632 -0.013878 386504.000000 1 0 0
-3.231647 -15.557439 5.854167 16.933656 1.365985 1.217799 0.011590 -0.000603 -1204430.000000 1 0 0
-17.340547 -5.509139 -6.541333 19.334793 0.307618 1.915927 0.030612 -0.011324 686213.000000 1 0 0
18.728953 5.704661 -2.894233 19.791246 0.295663 1.717561 0.021430 -0.002847 -1074520.000000 1 0 0
12.985153 -12.380139 -5.936733 18.897800 -0.761551 1.890357 0.047229 -0.005883 -342854.000000 1 0 0
11.130853 -13.408939 -1.629533 17.502883 -0.877965 1.664032 0.030367 -0.006237 3513050.000000 1 0 0
18.735153 -2.705439 4.484467 19.453426 -0.143413 1.338181 0.100814 -0.027214 -625912.000000 1 0 0
8.860853 -16.796339 5.052767 19.651009 -1.085355 1.310750 0.057186 -0.024417 1136870.000000 1 0 0
18.103353 -0.950539 6.630867 19.302935 -0.052458 1.220138 0.119824 -0.024736 -491599.000000 1 0 0
17.977953 -4.227239 -5.052333 19.146864 -0.230940 1.837831 0.091741 -0.014247 -327719.000000 1 0 0
5.308353 -11.831639 14.847867 19.713585 -1.149059 0.717914 0.004917 0.004806 -322109.000000 1 0 0
15.986553 -8.789439 -0.793933 18.260735 -0.502691 1.614288 0.044636 -0.006194 248173.000000 1 0 0
13.940453 -12.411139 -1.335333 18.712448 -0.727428 1.642218 0.041035 -0.007453 732041.000000 1 0 0
11.171853 -1.873639 13.919867 17.946685 -0.166164 0.683094 0.047819 -0.007328 -1727620.000000 1 0 0
16.965153 -6.039539 -1.437533 18.065407 -0.342007 1.650454 0.059132 -0.012619 -1271840.000000 1 0 0
17.714853 3.688161 -0.915733 18.117867 0.205264 1.621361 0.021196 -0.004172 86517.400000 1 0 0
9.816153 -10.893039 9.527867 17.487007 -0.837352 0.994581 0.022289 -0.006297 737321.000000 1 0 0
9.156753 -11.057839 4.280967 14.981609 -0.879168 1.281009 0.005027 -0.005659 -363844.000000 1 0 0
14.102053 -10.058839 6.849367 18.626915 -0.619589 1.194247 0.039723 -0.010638 342299.000000 1 0 0
16.297053 -0.470639 -4.777333 16.989360 -0.028871 1.855836 0.024829 -0.002604 -650791.000000 1 0 0
15.752653 -0.372239 -1.759033 15.854931 -0.023626 1.681971 0.022384 -0.004328 957081.000000 1 0 0
12.913053 -5.094639 -0.343233 13.885967 -0.375785 1.595517 0.007309 -0.005318 1126070.000000 1 0 0
14.250953 -7.407539 1.089467 16.098081 -0.479356 1.503068 0.028511 -0.005331 935104.000000 1 0 0
15.563653 2.525461 3.651267 16.184468 0.160865 1.343234 0.036801 -0.008185 2588920.000000 1 0 0
15.920553 -6.953339 4.910567 18.053437 -0.411783 1.295324 0.061730 -0.017633 -824174.000000 1 0 0
13.821553 -11.995239 3.268467 18.590426 -0.714774 1.394063 0.027802 -0.005179 173633.000000 1 0 0
14.001553 -0.770339 9.203467 16.773214 -0.054963 0.989988 0.069263 -0.015250 1546880.000000 1 0 0
14.193553 -2.679339 -1.545433 14.526671 -0.186576 1.677384 0.009504 -0.003658 25619.600000 1 0 0
14.996653 2.044361 9.169867 17.696482 0.135486 1.026081 0.084266 -0.007970 -2159970.000000 1 0 0
14.443853 -10.045939 -3.037133 17.854130 -0.607711 1.741736 0.043929 -0.005679 891468.000000 1 0 0
7.540553 -12.571139 6.178767 15.908194 -1.030501 1.171900 0.007543 -0.006989 -283146.000000 1 0 0
12.430753 -4.493339 6.928967 14.923950 -0.346856 1.087969 0.014638 -0.008941 2036700.000000 1 0 0
15.020553 -8.991239 -5.724533 18.418188 -0.539386 1.886840 0.064569 -0.009218 -26528.700000 1 0 0
14.370453 -4.372939 4.619567 15.715372 -0.295398 1.272437 0.021915 -0.010481 627483.000000 1 0 0
17.065653 -4.149139 0.943967 17.588147 -0.238501 1.517100 0.041181 -0.017879 -1462340.000000 1 0 0
10.299153 -14.394339 1.127167 17.735277 -0.949743 1.507198 0.035219 -0.012471 437397.000000 1 0 0
16.431253 -2.397439 8.570367 18.686492 -0.144885 1.094333 0.106614 -0.023922 -169353.000000 1 0 0
16.065153 -2.537139 3.210567 16.578117 -0.156634 1.375902 0.039268 -0.012796 509733.000000 1 0 0
7.966953 -15.198239 2.776767 17.383016 -1.087975 1.410369 0.022501 -0.009517 2160260.000000 1 0 0
16.671353 -6.796039 7.770767 19.608798 -0.387082 1.163324 0.094895 -0.027519 1130620.000000 1 0 0
10.292253 -8.459339 5.133667 14.277444 -0.687961 1.202995 0.002269 -0.003964 912665.000000 1 0 0
11.089353 -11.856439 2.209967 16.383920 -0.818816 1.435498 0.020176 -0.009383 463999.000000 1 0 0
12.412753 -7.201639 11.990067 18.700314 -0.525719 0.874775 0.058002 -0.018244 -1343840.000000 1 0 0
15.177853 -9.702139 4.239367 18.505971 -0.568767 1.339663 0.035939 -0.012969 -1632750.000000 1 0 0
7.397453 -10.199239 7.808467 14.822919 -0.943295 1.015985 0.007592 -0.002555 999368.000000 1 0 0
15.262953 -3.272339 -4.327733 16.198617 -0.211200 1.841248 0.038613 -0.004898 612521.000000 1 0 0
11.901153 -8.860239 9.717867 17.736353 -0.639963 0.990936 0.036408 -0.011796 -1343670.000000 1 0 0
16.946553 -6.592539 2.356367 18.335749 -0.371005 1.441928 0.062737 -0.016681 1849770.000000 1 0 0
17.566553 3.975961 2.033667 18.125337 0.222587 1.458359 0.038805 -0.005802 1466390.000000 1 0 0
14.722753 -4.757239 8.734067 17.767237 -0.312532 1.056890 0.071864 -0.020624 543573.000000 1 0 0
12.978553 -12.554039 6.050367 19.043468 -0.768773 1.247479 0.034869 -0.009290 -296132.000000 1 0 0
18.224153 0.786761 -0.818233 18.259470 0.043145 1.615623 0.036888 -0.009950 865047.000000 1 0 0
11.778453 -2.004139 11.033567 16.263091 -0.168539 0.825156 0.031850 -0.005618 1885180.000000 1 0 0
6.020053 -12.400439 10.504067 17.330532 -1.118839 0.919646 0.008906 -0.004061 -1766290.000000 1 0 0
10.790353 -4.916039 11.027467 16.192720 -0.427498 0.821650 0.029282 -0.009022 1561540.000000 1 0 0
17.820553 1.350061 5.024567 18.564510 0.075614 1.296724 0.081473 -0.013240 -873720.000000 1 0 0
12.365353 -7.615839 7.132367 16.179419 -0.552030 1.114274 0.020089 -0.009197 -176633.000000 1 0 0
10.651553 -7.878439 14.203167 19.423062 -0.636845 0.750640 0.065707 -0.017579 -63609.300000 1 0 0
14.086453 -0.201739 3.819167 14.596400 -0.014320 1.306064 0.010597 -0.004948 2187230.000000 1 0 0
11.656753 -7.572739 2.550667 14.132663 -0.576125 1.389322 0.003413 -0.002003 1668470.000000 1 0 0
9.270553 6.122761 3.604267 11.679987 0.583688 1.257091 0.004571 0.000990 2125760.000000 1 0 0
-4.013547 14.708761 -10.022433 18.245695 -1.304413 2.152327 0.008742 -0.003423 375565.000000 1 0 0
8.921353 -6.296939 9.250667 14.311422 -0.614627 0.867961 0.002998 -0.003445 -97435.800000 1 0 0
5.887653 -10.514039 -8.499233 14.746065 -1.060323 2.185080 -0.001665 0.001747 -817883.000000 1 0 0
5.349953 1.138661 0.557067 5.498079 0.209707 1.469302 0.002977 -0.000028 3121820.000000 1 0 0
-0.530747 10.018661 10.969667 14.865694 -1.517870 0.740816 0.004211 0.002089 -826568.000000 1 0 0
-6.273747 -5.191439 1.074467 8.213734 0.691278 1.439607 0.003245 -0.001533 1987940.000000 1 0 0
-1.061247 3.956061 -10.859933 11.606671 -1.308708 2.780930 0.008865 -0.005573 1065610.000000 1 0 0
10.937953 5.712861 1.382667 12.417220 0.481326 1.459214 0.002201 0.000853 1667220.000000 1 0 0
-10.030947 -1.929139 -13.545233 16.965106 0.189999 2.495458 0.017410 -0.006514 729831.000000 1 0 0
7.359553 10.946061 -6.151933 14.554228 0.978871 2.007208 0.015358 -0.007204 417810.000000 1 0 0
-12.404347 -3.003039 -9.655733 16.003726 0.237526 2.218483 0.016690 -0.003752 2462540.000000 1 0 0
-3.817747 -8.657339 2.513667 9.789955 1.155465 1.311128 0.004611 0.001145 -878524.000000 1 0 0
8.050653 -6.578039 -5.908033 11.957778 -0.685070 2.087566 0.001284 -0.002048 1547800.000000 1 0 0
14.350953 3.095861 -4.176633 15.263632 0.212469 1.847964 0.011133 -0.001303 -317725.000000 1 0 0
-2.423947 -4.919039 9.795167 11.225763 1.112951 0.510375 -0.004504 -0.001642 2486820.000000 1 0 0
3.487353 -1.886439 -4.535833 6.024455 -0.495859 2.423259 0.005373 -0.001006 -2582800.000000 1 0 0
-4.061847 8.417361 -3.515333 9.985396 -1.121201 1.930554 -0.001343 0.000536 686980.000000 1 0 0
5.742853 0.142161 11.714867 13.047554 0.024749 0.455913 0.005945 -0.002547 1963220.000000 1 0 0
7.129153 4.770161 12.451267 15.119964 0.589690 0.603246 0.006349 -0.003181 547153.000000 1 0 0
1.251353 -14.397839 12.438267 19.067620 -1.484102 0.860150 0.004852 -0.006272 -1541650.000000 1 0 0
2.933253 8.778861 -9.075533 12.962935 1.248332 2.346354 0.008405 -0.006728 554540.000000 1 0 0
-4.446847 -9.024439 -4.634733 11.076809 1.112961 2.002499 0.012525 -0.004453 1882320.000000 1 0 0
5.772453 -6.567139 -4.037433 9.630648 -0.849711 2.003391 -0.000570 -0.000597 1849740.000000 1 0 0
-3.070047 3.456761 8.650667 9.808589 -0.844579 0.490817 -0.001862 -0.000456 1282210.000000 1 0 0
-3.816747 3.097461 -11.100433 12.140076 -0.681741 2.724728 0.001482 -0.006238 568709.000000 1 0 0
3.121153 -6.076839 8.448367 10.864827 -1.096316 0.679975 0.000588 0.001002 399491.000000 1 0 0
-5.044947 -8.711839 10.443567 14.505713 1.045893 0.767048 0.003613 -0.006985 1353330.000000 1 0 0
-13.194647 -2.541139 6.555867 14.951103 0.190259 1.116882 0.020413 -0.010861 988628.000000 1 0 0
3.982653 -5.885339 -8.329233 10.948738 -0.975875 2.435262 0.000593 0.001233 1984640.000000 1 0 0
2.868153 -0.420039 12.379667 12.714515 -0.145415 0.230010 0.000036 -0.000636 1052320.000000 1 0 0
1.373453 -1.421939 -7.555233 7.809598 -0.802741 2.885666 0.007602 -0.004342 604087.000000 1 0 0
3.679253 -3.451939 3.420967 6.095556 -0.753533 0.974933 0.003105 -0.000523 3568530.000000 1 0 0
1.538653 0.514361 -11.765433 11.876760 0.322614 3.004566 0.009185 -0.008547 601857.000000 1 0 0
4.050753 3.617661 -10.557133 11.872200 0.728981 2.666459 0.003895 -0.004271 1043170.000000 1 0 0
2.840153 3.290061 3.416367 5.528339 0.858659 0.904634 -0.004521 0.002196 -377013.000000 1 0 0
-5.335647 0.914961 2.634867 6.020698 -0.169829 1.117830 0.002628 -0.003933 -237028.000000 1 0 0
-9.354847 -9.275939 5.761067 14.378668 0.781163 1.158551 0.014135 -0.000595 -829704.000000 1 0 0
-3.155947 3.826661 -0.593933 4.995608 -0.881159 1.689969 0.003517 -0.004313 454187.000000 1 0 0
-15.801447 -6.517439 5.139567 17.848750 0.391200 1.278710 0.043025 -0.014812 1214170.000000 1 0 0
0.952653 6.690161 -8.102533 10.550680 1.429351 2.446451 0.007275 -0.003916 680746.000000 1 0 0
-1.634847 6.529661 -9.464333 11.613906 -1.325467 2.523377 0.006889 -0.003809 1258290.000000 1 0 0
2.041453 -0.289339 5.280367 5.668644 -0.140794 0.372269 -0.000967 0.000907 2301020.000000 1 0 0
-3.489847 -0.601939 -6.268433 7.199626 0.170802 2.627341 0.008272 -0.006431 1473260.000000 1 0 0
1.943353 -1.107539 -2.383433 3.268641 -0.518002 2.387922 0.008895 -0.000835 -1932430.000000 1 0 0
2.490953 -8.553639 -7.708133 11.780700 -1.287418 2.284055 -0.000614 0.002926 2066510.000000 1 0 0
-2.543947 14.000361 -5.595533 15.290251 -1.391052 1.945454 -0.000315 0.000425 2998570.000000 1 0 0
6.856253 -5.045339 -8.186133 11.810014 -0.634399 2.336649 0.003676 -0.001515 3479800.000000 1 0 0
-14.096147 -5.118539 -2.184733 15.154995 0.348311 1.715460 0.015024 -0.002825 115274.000000 1 0 0
-2.782547 6.871961 -6.786833 10.051245 -1.186062 2.312063 0.005399 -0.003007 -2580730.000000 1 0 0
-5.780947 -1.211939 -8.083133 10.011253 0.206651 2.510536 0.004346 -0.008221 -429624.000000 1 0 0
-5.608847 -10.630339 3.474567 12.511430 1.085293 1.289385 0.003142 0.000717 -4124830.000000 1 0 0
8.178553 -7.459639 6.674567 12.926128 -0.739459 1.028198 0.004993 -0.004281 1294970.000000 1 0 0
8.792153 -5.888739 13.153267 16.881577 -0.590149 0.677489 0.030834 -0.006567 784348.000000 1 0 0
-4.891747 9.478661 -0.817533 10.697783 -1.094368 1.647292 -0.004940 0.003024 1146870.000000 1 0 0
2.819353 6.671061 12.025467 14.037937 1.170940 0.542074 -0.000552 -0.002145 1874440.000000 1 0 0
5.972553 -2.790639 10.916367 12.752495 -0.437101 0.543279 0.004379 -0.000922 678057.000000 1 0 0
-9.578747 -6.519339 -1.066733 11.635811 0.597590 1.662602 0.003842 -0.002635 -344073.000000 1 0 0
0.884653 -13.342439 6.206667 14.741981 -1.504590 1.136227 0.009552 -0.003553 514386.000000 1 0 0
-0.513147 -3.143339 8.698467 9.263219 1.408975 0.350990 -0.004985 -0.000864 222511.000000 1 0 0
4.230453 0.810561 3.401067 5.488260 0.189307 0.902438 -0.002011 0.002864 1978160.000000 1 0 0
-10.175247 5.394661 8.272667 14.180093 -0.487495 0.947888 0.000625 -0.007454 383538.000000 1 0 0
9.308853 7.974061 0.063567 12.257424 0.708319 1.565610 0.001289 0.000015 428532.000000 1 0 0
4.277353 2.878761 8.310067 9.779582 0.592391 0.555311 -0.005834 -0.000713 2286790.000000 1 0 0
1.333153 2.711861 -9.674033 10.135009 1.113891 2.838830 0.010107 -0.008188 2406600.000000 1 0 0
-1.401647 -10.271239 3.019667 10.797284 1.435171 1.287347 0.009251 -0.001393 -2080610.000000 1 0 0
-9.983647 9.498861 9.046067 16.484323 -0.760520 0.989907 0.006026 -0.006968 886475.000000 1 0 0
9.886353 -1.934639 -7.687133 12.671812 -0.193246 2.222614 0.014356 -0.004625 561063.000000 1 0 0
-5.142947 -1.870139 6.741267 8.682857 0.348767 0.681882 -0.004521 -0.002765 1479280.000000 1 0 0
3.195253 -7.820839 -4.958833 9.796182 -1.182936 2.101570 -0.002926 0.002293 2452850.000000 1 0 0
-5.084647 4.842561 -13.061733 14.829461 -0.761017 2.648337 -0.001241 -0.005723 2291170.000000 1 0 0
-5.675847 9.646961 5.456667 12.452081 -1.038983 1.117186 0.000353 0.002103 2284760.000000 1 0 0
-0.498447 -1.763739 -9.380833 9.558203 1.295371 2.948644 0.008722 -0.007173 1534870.000000 1 0 0
-16.811247 0.028061 6.392067 17.985476 -0.001669 1.207453 0.042789 -0.015875 -504146.000000 1 0 0
-5.915847 -2.959139 4.055967 7.759163 0.463812 1.020743 -0.002968 -0.003659 3304840.000000 1 0 0
0.986253 -5.704939 -5.118733 7.727901 -1.399611 2.294775 0.004471 0.001160 2406950.000000 1 0 0
-7.040647 1.308161 -8.454833 11.079991 -0.183706 2.438850 -0.001360 -0.003249 -447722.000000 1 0 0
8.001053 2.099461 4.778167 9.552773 0.256613 1.046982 0.000984 -0.000886 1095370.000000 1 0 0
0.546753 -8.183839 -0.512733 8.218093 -1.504087 1.633228 0.005231 0.002527 1082900.000000 1 0 0
5.432453 5.593061 -3.421333 8.514658 0.799964 1.984296 0.004006 -0.001538 19898.900000 1 0 0
-0.694947 -0.360439 -1.226533 1.455078 0.478461 2.573508 0.005080 -0.002742 1194250.000000 1 0 0
9.017253 6.450261 -6.290233 12.746911 0.620937 2.086872 0.005312 -0.008021 1805040.000000 1 0 0
-14.904847 -7.096239 2.567967 16.706452 0.444348 1.416473 0.013098 -0.007741 1842100.000000 1 0 0
-6.461447 6.803561 8.915567 12.943187 -0.811183 0.810932 -0.000148 0.001307 11989.400000 1 0 0
-9.380447 -3.284339 -9.673133 13.869000 0.336787 2.342649 0.007811 -0.002996 497695.000000 1 0 0
14.833453 3.439661 -1.147333 15.270199 0.227858 1.646003 0.003466 -0.003130 868221.000000 1 0 0
12.121453 1.770761 -5.753533 13.533970 0.145059 2.009888 0.008387 -0.004660 -658703.000000 1 0 0
1.715953 -9.358239 12.693167 15.863090 -1.389448 0.643218 -0.009546 -0.001014 -535222.000000 1 0 0
-3.595847 6.368661 7.943167 10.797401 -1.056801 0.744162 -0.000098 -0.000931 2647000.000000 1 0 0
-4.159147 12.994361 -12.474233 18.486709 -1.261027 2.311446 0.007055 -0.005853 1701720.000000 1 0 0
-10.267447 7.670761 6.499167 14.370116 -0.641639 1.101488 -0.002381 -0.004764 54918.000000 1 0 0
8.050053 -9.168139 -7.183333 14.158333 -0.850243 2.102912 0.004970 -0.000799 800128.000000 1 0 0
5.874453 -3.814339 -0.369633 7.013915 -0.575890 1.623521 0.001933 0.000306 -700601.000000 1 0 0
-1.563847 -4.473539 4.103067 6.268439 1.234498 0.857196 -0.001252 0.000559 -19748.700000 1 0 0
9.938453 -1.930539 -2.580033 10.447794 -0.191860 1.820323 0.003204 -0.003166 -2422300.000000 1 0 0
13.497253 7.034961 1.314467 15.277249 0.480475 1.484649 0.013505 -0.004925 -703979.000000 1 0 0
5.455053 -3.656439 -3.250333 7.327470 -0.590503 2.030388 0.002274 -0.001913 -2569270.000000 1 0 0
-12.113147 -6.030039 1.964367 13.672909 0.461894 1.426629 0.003444 -0.001711 861923.000000 1 0 0
3.763853 -5.762339 -0.251233 6.887253 -0.992188 1.607282 0.001832 0.001298 -959796.000000 1 0 0
-5.298847 3.636461 -8.658533 10.782941 -0.601454 2.503082 -0.000087 -0.003542 147034.000000 1 0 0
-1.627147 -9.324239 7.261567 11.929769 1.398029 0.916384 0.002008 -0.003741 823426.000000 1 0 0
-7.321147 -7.455639 2.638467 10.777163 0.794499 1.323462 0.004956 -0.001522 -5300020.000000 1 0 0
-5.879047 13.040861 -8.538933 16.659551 -1.147263 2.108954 0.008109 -0.004554 1366490.000000 1 0 0
9.306853 -13.777039 -4.132433 17.131880 -0.976680 1.814412 0.024407 -0.003503 509465.000000 1 0 0
-6.423647 -5.255939 -6.711133 10.673680 0.685751 2.250748 0.011149 -0.003964 1173740.000000 1 0 0
3.428053 0.436061 -6.171933 7.073504 0.126524 2.631179 0.007386 -0.006430 2562720.000000 1 0 0
-3.581747 5.764861 5.013167 8.437676 -1.014857 0.934599 0.001778 0.002301 366091.000000 1 0 0
-2.608647 -10.910839 -2.918033 11.591650 1.336114 1.825270 0.014359 -0.001321 1877440.000000 1 0 0
-12.488147 -0.512439 1.849467 12.634751 0.041011 1.423889 -0.000133 -0.004754 -143649.000000 1 0 0
8.448153 -11.917539 -6.131233 15.842697 -0.954133 1.968180 0.017633 -0.004811 7078.420000 1 0 0
6.079053 3.998461 1.011867 7.346186 0.581800 1.432617 0.001995 0.001426 -400783.000000 1 0 0
3.440353 -4.647639 -10.951933 12.384725 -0.933573 2.655810 0.002923 -0.001485 -567967.000000 1 0 0
-7.615447 4.129961 8.604567 12.210249 -0.496923 0.788796 0.001263 -0.000488 2499530.000000 1 0 0
8.228653 8.775461 4.118467 12.715393 0.817545 1.240952 0.005969 0.000577 3604970.000000 1 0 0
0.113753 10.467661 -6.352833 12.245136 1.559930 2.116248 0.003264 -0.000532 1984070.000000 1 0 0
5.366753 8.125661 3.332167 10.292315 0.987096 1.241103 0.005997 0.000159 1968570.000000 1 0 0
8.050953 6.703561 -3.730233 11.120711 0.694330 1.912859 0.003110 -0.003530 -225359.000000 1 0 0
10.550853 2.660961 -8.181833 13.614096 0.247051 2.215526 0.006149 -0.006119 1682630.000000 1 0 0
3.391953 -12.567839 -0.350533 13.022242 -1.307186 1.597718 0.008956 -0.003211 -1413050.000000 1 0 0
0.563453 2.150461 5.226667 5.679790 1.314542 0.402149 -0.002388 0.000214 362995.000000 1 0 0
-4.909547 13.422361 1.344967 14.355221 -1.220139 1.476967 -0.003433 0.002882 1821410.000000 1 0 0
8.171453 4.121061 -7.939233 12.115577 0.467101 2.285365 0.002595 -0.004862 1401830.000000 1 0 0
-13.870647 -0.654039 -3.650333 14.357839 0.047118 1.827858 0.006804 -0.005988 729477.000000 1 0 0
-8.599647 -0.021839 -0.455133 8.611710 0.002539 1.623671 -0.002179 -0.002822 32975.600000 1 0 0
1.841453 -3.834539 -1.122633 4.399425 -1.123091 1.828827 0.008687 0.000624 -1746480.000000 1 0 0
8.165753 -5.686239 -0.303633 9.955151 -0.608273 1.601301 0.000971 0.000570 2532180.000000 1 0 0
-2.261047 -1.135939 7.379067 7.800854 0.465562 0.330344 -0.005592 -0.000837 2482060.000000 1 0 0
-5.944247 8.807161 -11.685233 15.793823 -0.977092 2.403660 0.000459 -0.001615 -879588.000000 1 0 0
-6.323047 9.165361 -8.841433 14.218147 -0.966891 2.241888 0.004282 0.000024 750341.000000 1 0 0
-1.652847 13.939461 -8.402433 16.359748 -1.452774 2.110176 0.010145 -0.004604 112045.000000 1 0 0
-1.388947 7.289861 9.759867 12.260761 -1.382522 0.650098 0.002117 -0.001653 398719.000000 1 0 0
10.057753 2.374361 -4.016133 11.087169 0.231828 1.941458 0.004505 -0.004505 -2102430.000000 1 0 0
-2.961147 -7.584839 -6.952533 10.706815 1.198590 2.277533 0.011410 -0.002429 308669.000000 1 0 0
-5.519747 -5.048839 -1.559433 7.641349 0.740870 1.776318 0.006573 -0.001500 297565.000000 1 0 0
5.599553 7.398161 -8.708533 12.725028 0.922904 2.324525 0.003429 -0.003817 944717.000000 1 0 0
-9.648847 5.042861 -7.503233 13.222300 -0.481594 2.174224 -0.000877 -0.004789 1021180.000000 1 0 0
-0.477547 6.123261 -5.332433 8.133709 -1.492965 2.285769 0.008230 -0.004318 -366860.000000 1 0 0
-8.317647 2.620261 -6.351233 10.788289 -0.305183 2.200265 -0.001937 -0.000918 1689020.000000 1 0 0
3.622353 1.442461 -1.945233 4.357300 0.378963 2.033569 0.004131 -0.003025 2078620.000000 1 0 0
-6.775647 12.458461 -3.474733 14.601247 -1.072680 1.811077 0.003585 0.002990 2200380.000000 1 0 0
-6.616547 3.132561 -2.300233 7.673507 -0.442178 1.875240 0.002426 -0.002623 -1637300.000000 1 0 0
12.058253 4.059161 -0.786033 12.747396 0.324714 1.632498 0.001374 -0.001708 326193.000000 1 0 0
2.100153 12.390561 -5.539633 13.734052 1.402896 1.985971 0.013081 -0.005653 1429360.000000 1 0 0
-9.216947 -1.528239 -4.235333 10.257957 0.164313 1.996413 -0.002868 0.000508 82381.700000 1 0 0
-1.115247 5.732961 3.510267 6.814147 -1.378663 1.029621 0.000025 0.002123 883796.000000 1 0 0
11.532753 2.724361 12.188867 16.999853 0.231976 0.771310 0.057210 -0.002369 -1535090.000000 1 0 0
-7.011147 -2.439239 -5.718933 9.370820 0.334810 2.227225 0.008180 -0.005184 50930.500000 1 0 0
7.571553 -7.277939 10.861867 15.108837 -0.765628 0.768566 0.008126 0.001252 -963736.000000 1 0 0
-5.433247 -2.079939 -10.933333 12.384833 0.365606 2.652587 0.005847 -0.004418 -1315410.000000 1 0 0
0.784253 -6.207439 4.412967 7.656476 -1.445121 0.956516 -0.001751 0.001077 648010.000000 1 0 0
-4.660747 -9.416539 7.381867 12.840784 1.111194 0.958343 -0.003777 -0.000941 2248720.000000 1 0 0
-8.833547 9.290761 1.687767 12.930520 -0.810619 1.439897 -0.002071 -0.000910 871072.000000 1 0 0
-8.196547 7.136361 -9.070333 14.155634 -0.716364 2.266281 0.000675 -0.002750 1031220.000000 1 0 0
-1.216947 -10.698239 -0.082933 10.767551 1.457531 1.578499 0.011762 0.000312 -536529.000000 1 0 0
-3.991247 10.375261 7.780467 13.568779 -1.203559 0.960135 0.000546 0.001844 2048440.000000 1 0 0
-7.509947 12.035161 1.963767 14.321341 -1.012916 1.433241 -0.011258 -0.001948 2021040.000000 1 0 0
-8.148147 -8.313639 -2.872833 11.990082 0.795451 1.812751 0.011517 -0.004875 276497.000000 1 0 0
5.370953 4.625661 -8.002433 10.690314 0.710981 2.416697 0.005530 -0.003643 1080800.000000 1 0 0
-8.887047 -0.301939 -10.213633 13.542122 0.033962 2.425250 0.007836 -0.004945 -1154420.000000 1 0 0
-15.085047 -2.361239 -1.527533 15.344949 0.155269 1.670508 0.008727 -0.004007 -622068.000000 1 0 0
-7.175147 -5.768139 8.789067 12.727995 0.677118 0.808574 0.006050 -0.002905 -151420.000000 1 0 0
8.138053 3.487161 -0.941733 8.903654 0.404832 1.676764 0.001625 0.000421 734652.000000 1 0 0
11.854253 7.204161 -5.905233 15.076307 0.546082 1.973264 0.005094 -0.004379 -72945.800000 1 0 0
3.754453 13.408361 -9.584033 16.903661 1.297780 2.173631 0.012903 -0.009435 1490610.000000 1 0 0
-9.818247 5.398961 -0.434033 11.213168 -0.502759 1.609513 -0.002588 -0.002451 1177740.000000 1 0 0
11.392853 -1.199339 -5.148333 12.559492 -0.104885 1.993158 0.014760 -0.004614 -1067750.000000 1 0 0
10.585053 1.748861 -1.226733 10.798460 0.163741 1.684645 0.002916 -0.001931 281720.000000 1 0 0
14.599053 5.148361 4.832967 16.217137 0.339034 1.268183 0.033814 -0.009164 3337880.000000 1 0 0
0.796653 -0.836039 10.406867 10.470745 -0.809517 0.110515 -0.002427 -0.000232 2012760.000000 1 0 0
-7.895747 1.296061 -12.593533 14.920445 -0.162696 2.575579 0.003357 -0.002817 76996.700000 1 0 0
3.178553 -11.605639 -7.872333 14.379418 -1.303472 2.150137 -0.000750 0.004366 911858.000000 1 0 0
2.848053 5.027461 -6.712033 8.856532 1.055374 2.430827 0.006793 -0.003796 -1418710.000000 1 0 0
6.396353 8.072361 0.610867 10.317437 0.900721 1.511554 0.005728 -0.001214 827874.000000 1 0 0
-9.020247 -5.415339 6.784867 12.518992 0.540680 0.998022 0.006047 -0.003588 -2433850.000000 1 0 0
-0.219847 -6.834039 -11.823333 13.658097 1.538638 2.617273 0.003243 -0.000938 2246330.000000 1 0 0
6.564653 -13.424739 -4.681133 15.659862 -1.115990 1.874363 0.009010 -0.000986 1048350.000000 1 0 0
-3.260747 -0.326639 10.051167 10.571903 0.099840 0.315171 -0.004808 0.000653 -257130.000000 1 0 0
8.581853 8.522761 7.040267 13.994678 0.781943 1.043652 0.002481 0.000454 -1225300.000000 1 0 0
-8.005547 5.665561 -2.634133 10.155099 -0.615878 1.833187 -0.000858 -0.003023 615531.000000 1 0 0
-5.448347 5.762261 -6.419933 10.203121 -0.813392 2.251336 0.000264 -0.000764 855982.000000 1 0 0
3.516453 -13.638739 2.515667 14.307663 -1.318464 1.394051 0.018162 -0.008754 -1476800.000000 1 0 0
-11.165647 -7.060639 6.568167 14.753478 0.563870 1.109405 0.015333 -0.006751 -114621.000000 1 0 0
-12.892547 -3.803339 -6.815533 15.070987 0.286866 2.040059 0.010068 -0.005096 -224185.000000 1 0 0
6.072653 0.506261 -7.268733 9.485141 0.083175 2.443903 0.005297 -0.003990 38233.500000 1 0 0
-1.515347 2.138761 -2.486033 3.612608 -0.954378 2.329739 0.006724 -0.004367 3973330.000000 1 0 0
7.632553 0.979261 -4.940033 9.144328 0.127604 2.141506 0.005132 -0.003133 402346.000000 1 0 0
3.695053 -4.518539 10.841367 12.312833 -0.885323 0.493894 0.000717 0.001449 671269.000000 1 0 0
6.096553 -2.483139 2.037967 6.891099 -0.386785 1.270567 0.005159 -0.002516 -1685360.000000 1 0 0
-6.424347 7.719861 1.162267 10.110359 -0.876737 1.455584 -0.003007 0.000784 414730.000000 1 0 0
6.031353 -3.406939 7.914667 10.517909 -0.514189 0.718955 0.006012 -0.001747 372821.000000 1 0 0
6.910853 -2.135939 -7.863733 10.684588 -0.299757 2.397922 0.004557 -0.005912 747524.000000 1 0 0
12.059153 -8.190239 -5.907433 15.728984 -0.596610 1.955815 0.032770 -0.007245 709003.000000 1 0 0
5.629853 -9.598839 10.008967 14.967043 -1.040352 0.838292 -0.002339 0.001606 1471360.000000 1 0 0
-6.660047 7.485061 -4.444333 10.960587 -0.843657 1.988304 -0.002491 -0.000479 518971.000000 1 0 0
-1.239047 -7.541639 9.725367 12.369087 1.407957 0.666057 -0.003121 -0.002830 -1062210.000000 1 0 0
10.096453 -9.256439 0.824367 13.722230 -0.742020 1.510685 0.001252 -0.000533 1552350.000000 1 0 0
11.050453 6.213861 9.904567 16.088040 0.512251 0.907589 0.012211 -0.004398 1406780.000000 1 0 0
-15.197047 -4.326439 -4.974833 16.565545 0.277352 1.875816 0.028101 -0.010693 1062490.000000 1 0 0
-4.617247 -4.614839 7.829767 10.194163 0.785137 0.694984 -0.002436 -0.002364 -899631.000000 1 0 0
2.930953 10.933561 -11.075333 15.836548 1.308885 2.345288 0.006811 -0.007353 190147.000000 1 0 0
9.898653 -1.298039 1.529667 10.099907 -0.130389 1.418758 -0.000156 -0.002523 -495173.000000 1 0 0
-1.556147 -2.648839 0.579767 3.126351 1.039631 1.384271 0.000152 -0.000204 -739068.000000 1 0 0
1.567253 3.066461 0.877067 3.553690 1.098312 1.321415 -0.000449 -0.000618 -1327460.000000 1 0 0
-8.899447 -2.397639 4.289367 10.165997 0.263166 1.135220 -0.001214 -0.006279 2376670.000000 1 0 0
9.869753 4.893261 -2.680533 11.337605 0.460269 1.809485 0.001798 -0.002262 1064710.000000 1 0 0
2.525153 8.411461 2.545567 9.143795 1.279153 1.288676 0.002214 0.000527 1920510.000000 1 0 0
-8.083847 -0.068139 2.516267 8.466689 0.008429 1.269042 0.000314 -0.006178 373080.000000 1 0 0
6.747853 2.072861 13.815267 15.514247 0.298038 0.472378 0.011311 -0.004839 -989645.000000 1 0 0
6.752653 4.431661 3.889767 8.964833 0.580780 1.121988 -0.001796 0.001064 462889.000000 1 0 0
-0.261147 3.361261 7.799367 8.496847 -1.493259 0.408008 -0.002948 -0.001001 334753.000000 1 0 0
2.787853 -10.175739 9.152767 13.967495 -1.303387 0.856229 0.001618 -0.004713 2363100.000000 1 0 0
1.310853 -4.519239 6.831367 8.295145 -1.288483 0.603176 -0.004201 0.000679 241845.000000 1 0 0
-0.211847 10.775661 -1.973033 10.956852 -1.551139 1.751857 0.005529 -0.004230 2065230.000000 1 0 0
8.798353 5.662261 8.089067 13.225174 0.571834 0.912662 0.003057 -0.002934 -985479.000000 1 0 0
2.561353 11.446861 -2.895533 12.082023 1.350662 1.812808 0.011374 -0.007904 1426880.000000 1 0 0
1.423553 2.469461 -6.660133 7.244454 1.047863 2.737202 0.009277 -0.007043 1277740.000000 1 0 0
-13.575047 -2.342239 3.623967 14.244337 0.170858 1.313554 0.006953 -0.005675 173537.000000 1 0 0
-0.873147 -10.780639 -5.406933 12.092125 1.489981 2.034367 0.009729 -0.000332 -455954.000000 1 0 0
-5.730547 2.836961 0.457367 6.410671 -0.459687 1.499391 0.004658 -0.003791 316318.000000 1 0 0
3.717953 7.362661 -5.028633 9.660181 1.103177 2.118294 0.006693 -0.004029 -2278220.000000 1 0 0
2.883253 9.804861 -6.504533 12.114347 1.284795 2.137588 0.008993 -0.004779 880823.000000 1 0 0
-12.265147 1.663961 -2.514833 12.630399 -0.134843 1.771246 0.001835 -0.003069 564538.000000 1 0 0
-2.671347 9.680061 -5.733933 11.563636 -1.301534 2.089620 0.001440 0.000264 700757.000000 1 0 0
-1.352047 3.359861 1.700567 4.001078 -1.188213 1.131804 0.000522 -0.001267 511703.000000 1 0 0
12.885053 3.856761 9.827567 16.657739 0.290833 0.939775 0.053963 -0.004822 255013.000000 1 0 0
-2.472947 -9.560339 11.623367 15.251826 1.317677 0.704251 -0.003297 -0.009097 -445299.000000 1 0 0
-0.407947 -8.950939 -7.540333 11.710779 1.525252 2.270355 0.007967 0.001808 2188790.000000 1 0 0
2.283453 7.646061 -0.477833 7.994044 1.280584 1.630606 0.007890 -0.001689 1789070.000000 1 0 0
-11.827747 -1.389839 -5.593833 13.157440 0.116970 2.009920 0.002476 0.000352 -1499840.000000 1 0 0
-6.195047 -7.246639 -10.903633 14.483839 0.863473 2.423123 0.012026 -0.005764 558582.000000 1 0 0
-4.729747 -2.308239 -1.391733 5.443840 0.454022 1.829319 0.002142 -0.002465 -1391050.000000 1 0 0
-10.559547 3.596161 4.480667 12.021347 -0.328241 1.188851 0.002199 -0.009427 3222510.000000 1 0 0
6.707453 9.359561 -3.650033 12.079489 0.948988 1.877762 0.004978 -0.001720 1179150.000000 1 0 0
1.268353 -2.558839 -11.560833 11.908368 -1.110615 2.899406 0.006909 -0.006027 156860.000000 1 0 0
1.232553 8.784261 7.488067 11.608341 1.431393 0.869696 -0.001295 0.006091 1002030.000000 1 0 0
10.289053 0.496061 10.520767 14.724036 0.048175 0.774844 0.016239 -0.001566 995042.000000 1 0 0
-5.342147 -0.828139 -3.916233 6.675420 0.153796 2.197730 0.005132 -0.004977 -1033340.000000 1 0 0
11.679153 5.720961 5.503167 14.121503 0.455490 1.170489 0.002926 0.000545 2392450.000000 1 0 0
9.947453 -3.361539 3.693867 11.130877 -0.325881 1.232524 0.003925 -0.004960 -2015770.000000 1 0 0
7.366153 -1.627739 -3.482533 8.308897 -0.217481 2.003286 0.004970 -0.001304 -2765660.000000 1 0 0
2.335153 9.304761 10.393567 14.144177 1.324911 0.745380 0.000042 0.001454 1842570.000000 1 0 0
2.421553 -10.929839 6.360667 12.875689 -1.352764 1.054105 0.003038 -0.003353 1897370.000000 1 0 0
5.954653 -7.561039 -1.207933 9.699809 -0.903697 1.695652 -0.001323 0.000073 1562910.000000 1 0 0
-0.225947 -5.663239 -2.249933 6.097993 1.530920 1.948689 0.005289 0.002171 2672740.000000 1 0 0
7.885853 -4.959239 2.586567 9.668043 -0.561383 1.299960 0.005867 -0.001158 1684930.000000 1 0 0
-2.722947 -12.546639 4.644267 13.652904 1.357084 1.223702 0.007389 0.000148 -887511.000000 1 0 0
4.946053 -10.339639 -1.152333 11.519524 -1.124611 1.670997 0.003343 -0.000891 600122.000000 1 0 0
0.848853 0.221561 1.122367 1.424552 0.255316 0.663448 0.000283 0.000131 -1053850.000000 1 0 0
-1.666947 8.450061 2.418967 8.946153 -1.376027 1.296996 0.000215 0.002553 249258.000000 1 0 0
-7.653247 0.631561 -3.068133 8.269492 -0.082335 1.950902 -0.000880 0.000853 -608583.000000 1 0 0
4.461453 -6.383539 12.797467 14.980964 -0.960809 0.546693 0.013236 -0.003488 -543689.000000 1 0 0
-5.225447 13.038761 8.480667 16.408422 -1.189633 1.027631 0.008754 -0.009159 2015480.000000 1 0 0
0.654553 6.092461 8.331867 10.342463 1.463770 0.634112 -0.003803 0.001858 526259.000000 1 0 0
7.897753 -0.514539 -0.774533 7.952305 -0.065058 1.668348 0.001362 -0.002020 3704570.000000 1 0 0
2.573253 -9.310439 -2.425733 9.959422 -1.301144 1.816833 -0.002311 0.002914 111547.000000 1 0 0
-7.178847 12.171961 4.908467 14.959463 -1.037921 1.236486 -0.004150 -0.003438 1568060.000000 1 0 0
-14.842347 0.159461 0.250667 14.845320 -0.010743 1.553910 0.006266 -0.006205 387133.000000 1 0 0
6.896253 -0.385839 3.940367 7.951960 -0.055891 1.052361 0.001554 -0.000204 1298780.000000 1 0 0
-4.127247 -5.023739 5.110867 8.270011 0.883053 0.904600 -0.002956 -0.000532 -88922.300000 1 0 0
2.943853 5.164961 6.960667 9.153905 1.052753 0.706861 -0.004604 0.000961 -1201650.000000 1 0 0
2.113453 -7.256939 1.800667 7.769958 -1.287403 1.336923 0.003367 0.000811 2716660.000000 1 0 0
-2.477947 6.430761 -1.802633 7.123510 -1.203003 1.826632 0.000342 -0.001359 1742890.000000 1 0 0
2.694053 -3.768739 -6.561633 8.032206 -0.950179 2.526839 0.002510 -0.000952 -927116.000000 1 0 0
-5.079047 0.848861 -12.253733 13.291774 -0.165599 2.743762 -0.000101 -0.000914 -219669.000000 1 0 0
-7.505847 6.311761 -11.924533 15.439254 -0.699195 2.453331 0.002459 -0.002714 2328490.000000 1 0 0
-1.211747 11.192661 -8.998733 14.412536 -1.462954 2.245119 0.006602 -0.002238 1539890.000000 1 0 0
4.571753 5.941361 -0.594533 7.520251 0.914945 1.649937 0.003881 -0.001050 589560.000000 1 0 0
-2.802447 13.406261 3.604567 14.162431 -1.364724 1.313449 0.002274 0.002443 673409.000000 1 0 0
1.506153 -7.834439 10.171167 12.926700 -1.380866 0.665134 -0.003843 -0.002999 -517896.000000 1 0 0
13.012853 -0.209839 -0.992133 13.052306 -0.016124 1.646882 0.006781 -0.005086 956445.000000 1 0 0
-1.110847 3.094861 -5.384433 6.309062 -1.226186 2.593355 0.009603 -0.007082 913914.000000 1 0 0
6.559553 1.138161 7.335267 9.906023 0.171802 0.737004 -0.000402 0.000219 1651920.000000 1 0 0
5.580453 -6.077939 6.778567 10.678566 -0.828044 0.883069 0.001335 -0.001193 1068440.000000 1 0 0
12.221553 -4.747739 2.582767 13.363310 -0.370530 1.376299 0.003887 -0.005089 -153786.000000 1 0 0
4.459853 -9.205739 13.848167 17.216493 -1.119654 0.636208 0.002901 0.000682 943407.000000 1 0 0
-2.732847 -4.372339 -1.371033 5.335310 1.012175 1.830686 0.006044 -0.001497 1301710.000000 1 0 0
-9.251147 -5.320339 -7.546933 13.070804 0.521910 2.186323 0.008203 -0.003143 1832910.000000 1 0 0
-10.486147 -3.059839 7.799767 13.422305 0.283915 0.950711 0.005999 -0.008463 119232.000000 1 0 0
12.065653 -0.558939 1.702067 12.197927 -0.046292 1.430802 0.003820 -0.004075 1233550.000000 1 0 0
-7.651347 4.697561 4.372167 9.986293 -0.550615 1.117627 0.003579 -0.004907 3263720.000000 1 0 0
-1.132847 10.604261 6.906467 12.705628 -1.464371 0.996105 -0.001052 0.005042 2477840.000000 1 0 0
7.420153 -9.978439 1.918267 12.582037 -0.931392 1.417739 0.003133 -0.003407 976515.000000 1 0 0
-4.337147 -1.705239 1.642467 4.941294 0.374605 1.231953 -0.003077 -0.000919 3832220.000000 1 0 0
6.756653 -14.987439 -0.857733 16.462423 -1.147260 1.622922 0.029046 -0.007726 -1195890.000000 1 0 0
-10.449147 1.585361 2.491267 10.858382 -0.150573 1.339302 -0.005035 -0.003973 -23183.000000 1 0 0
-3.066847 8.333561 -11.360933 14.419591 -1.218167 2.478158 0.001225 -0.003018 279060.000000 1 0 0
-1.297547 -5.205839 -6.836633 8.690451 1.326525 2.476214 0.005725 -0.001264 244120.000000 1 0 0
12.771453 -0.346439 6.500767 14.334922 -0.027119 1.100117 0.013934 -0.007284 1372360.000000 1 0 0
6.076753 -13.292839 3.860567 15.117224 -1.142017 1.312560 0.012034 -0.006096 503879.000000 1 0 0
-5.699747 3.385861 -4.943933 8.270045 -0.536023 2.211565 0.003235 -0.001455 1743070.000000 1 0 0
-4.447947 8.024161 3.335767 9.762107 -1.064643 1.222065 0.001398 0.002680 -126441.000000 1 0 0
13.986253 6.124861 -4.002333 15.784418 0.412763 1.827157 0.016598 -0.002086 838466.000000 1 0 0
-6.648047 -8.477139 5.346567 12.026811 0.905744 1.110120 0.005034 -0.000737 361949.000000 1 0 0
1.539653 11.326461 2.665367 11.737267 1.435690 1.341712 0.002851 -0.002423 2148640.000000 1 0 0
-7.367847 7.261561 6.007067 11.962454 -0.778133 1.044701 0.002521 -0.004915 782244.000000 1 0 0
-17.428247 -4.121339 5.333467 18.686228 0.232209 1.281349 0.054794 -0.014125 -307085.000000 1 0 0
7.549153 -12.980339 -8.639933 17.324184 -1.044028 2.092919 0.023789 -0.002871 -454445.000000 1 0 0
-2.349947 12.703761 -2.884233 13.237319 -1.387883 1.790445 -0.001615 0.001137 476812.000000 1 0 0
-5.650547 13.944961 -5.823833 16.134053 -1.185812 1.940099 0.007259 0.001998 3577880.000000 1 0 0
-5.552847 2.404061 7.433767 9.585119 -0.408578 0.683206 0.000824 -0.003295 1987590.000000 1 0 0
-7.486447 5.065961 1.481067 9.159935 -0.594906 1.408394 0.001676 -0.002785 1588980.000000 1 0 0
10.759153 -5.602939 -5.108133 13.162269 -0.480118 1.969354 0.012463 -0.003697 2462370.000000 1 0 0
-9.508347 -0.729339 6.770267 11.695175 0.076555 0.953425 0.000581 -0.008068 309011.000000 1 0 0
-11.189847 -4.594139 -2.573633 12.366987 0.389579 1.780434 -0.003776 -0.000939 233488.000000 1 0 0
6.481353 -4.254539 13.543567 15.605680 -0.580880 0.519915 0.021200 -0.004895 150987.000000 1 0 0
0.188753 10.292061 -11.622433 15.525563 1.552459 2.416744 0.006625 -0.005571 -719724.000000 1 0 0
-11.726047 -3.291539 1.545067 12.276874 0.273661 1.444610 0.003743 -0.003763 3125330.000000 1 0 0
5.243353 6.012061 5.525067 9.703813 0.853589 0.965056 -0.001722 0.001100 -4974950.000000 1 0 0
-7.057147 -0.058839 8.093867 10.738597 0.008337 0.717096 -0.000482 -0.004155 964103.000000 1 0 0
1.671953 2.065361 9.644767 10.004133 0.890277 0.268845 -0.004349 -0.002842 1767000.000000 1 0 0
10.521853 -4.839339 -2.118333 11.773526 -0.431083 1.751705 0.003414 -0.002983 2027580.000000 1 0 0
-9.632047 -2.423139 -1.627033 10.064550 0.246456 1.733169 -0.002219 -0.001078 -1362350.000000 1 0 0
-1.930247 -5.294039 -9.894633 11.386679 1.221168 2.623905 0.009897 -0.006218 2438560.000000 1 0 0
7.705353 -1.504939 6.535667 10.215295 -0.192883 0.876568 0.007035 -0.002581 443393.000000 1 0 0
1.607153 -11.917439 -2.651633 12.314197 -1.436748 1.787827 0.009308 0.002748 -3435030.000000 1 0 0
-0.725247 -1.469539 4.784067 5.056958 1.112346 0.330018 0.000315 -0.000965 1650100.000000 1 0 0
7.590953 1.586961 9.941267 12.608323 0.206091 0.662481 0.003405 0.000562 -18594.300000 1 0 0
-4.018947 10.725161 -7.976533 13.957296 -1.212270 2.179124 0.007420 0.001050 2989290.000000 1 0 0
-9.639847 12.606761 6.417467 17.118439 -0.917981 1.186522 -0.000454 -0.003832 403524.000000 1 0 0
-2.560647 -2.409239 -11.054133 11.599793 0.754942 2.833651 0.008831 -0.008541 -2840240.000000 1 0 0
1.227153 -11.850039 11.092267 16.277829 -1.467607 0.821076 -0.006393 0.001638 2153310.000000 1 0 0
1.322553 3.457961 -1.980933 4.198897 1.205496 2.062099 0.005022 -0.002861 2583720.000000 1 0 0
-1.881447 -9.350439 -12.071333 15.384656 1.372233 2.472903 0.006389 -0.002431 455666.000000 1 0 0
1.327753 -2.634939 1.588567 3.351026 -1.104031 1.076907 0.007172 -0.001017 1827550.000000 1 0 0
-1.088847 -2.285139 -6.622033 7.089342 1.126132 2.776478 0.010437 -0.006528 763175.000000 1 0 0
1.859953 5.842061 4.146267 7.401394 1.262570 0.976168 -0.006053 0.002917 -1681500.000000 1 0 0
-11.036347 8.526161 3.646367 14.415005 -0.657779 1.315062 -0.004644 -0.004189 1553670.000000 1 0 0
-16.340147 -1.649939 3.951467 16.891915 0.100633 1.334682 0.034635 -0.011972 428193.000000 1 0 0
-12.275547 0.203861 6.739667 14.005489 -0.016606 1.068755 0.004373 -0.004478 -430695.000000 1 0 0
-5.113047 3.065661 4.718867 7.603239 -0.540108 0.901239 0.002900 -0.002608 1591950.000000 1 0 0
5.341453 -5.895439 3.863867 8.844025 -0.834659 1.118658 -0.000580 -0.001047 1638750.000000 1 0 0
9.930253 3.496961 6.389467 12.315192 0.338591 1.025317 -0.000544 0.002519 880885.000000 1 0 0
-12.257747 5.756161 3.242367 13.924751 -0.439028 1.335790 0.000998 -0.005318 1801720.000000 1 0 0
-4.866647 12.325961 -1.312733 13.316788 -1.194756 1.669534 -0.008934 0.005510 -442949.000000 1 0 0
-1.653947 -12.193039 10.317567 16.057955 1.435972 0.873013 0.004749 -0.002414 -99209.700000 1 0 0
5.181653 6.411361 13.865567 16.130996 0.891076 0.536387 0.004014 -0.002739 219415.000000 1 0 0
12.989353 -3.685339 -5.958933 14.758519 -0.276455 1.986422 0.012615 -0.005957 1524580.000000 1 0 0
3.518653 -2.490539 6.389667 7.707889 -0.615949 0.593519 -0.000004 0.000659 2082100.000000 1 0 0
7.269453 -11.868539 -0.571133 13.929585 -1.021238 1.611809 0.007241 -0.001014 -1162090.000000 1 0 0
-6.072847 -6.700139 -4.079433 9.920338 0.834470 1.994587 0.011067 -0.003246 98985.400000 1 0 0
0.325553 -8.960439 5.009367 10.270794 -1.534480 1.061310 0.004207 -0.001559 2309580.000000 1 0 0
-10.426647 2.431561 -0.319033 10.711174 -0.229112 1.600586 -0.004462 -0.002764 -324257.000000 1 0 0
-1.958547 8.945961 -0.410833 9.167056 -1.355266 1.615628 0.000457 -0.000704 591129.000000 1 0 0
-3.540347 2.250061 -6.612233 7.830610 -0.566149 2.576256 0.010143 -0.006774 752001.000000 1 0 0
-12.749547 2.919361 6.377167 14.551353 -0.225097 1.117143 0.005340 -0.012100 -173563.000000 1 0 0
11.410953 1.765361 8.082767 14.094590 0.153491 0.960066 0.011995 -0.004851 -2412540.000000 1 0 0
6.016353 2.691861 -3.163333 7.310902 0.420710 2.018268 0.004812 -0.002203 1186390.000000 1 0 0
10.510853 -2.269839 6.425967 12.526901 -0.212686 1.032151 0.008322 -0.004050 2689970.000000 1 0 0
-1.130747 11.005661 4.000867 11.764782 -1.468413 1.223803 0.001596 0.002794 45341.500000 1 0 0
-1.509047 -12.275139 7.374967 14.399527 1.448475 1.033090 0.001769 -0.000895 595449.000000 1 0 0
8.050853 8.727261 -7.788933 14.200310 0.825691 2.151371 0.010455 -0.008044 2131590.000000 1 0 0
-4.638347 -6.065939 -8.716033 11.587886 0.917982 2.422142 0.009140 -0.004508 165639.000000 1 0 0
-8.526347 -5.477339 -11.574533 15.384071 0.571015 2.422451 0.012228 -0.003227 -1260830.000000 1 0 0
6.111953 -0.515339 -9.951733 11.690104 -0.084118 2.589246 0.006337 -0.004917 371626.000000 1 0 0
-11.139247 -5.532339 -5.373133 13.548437 0.460966 1.978592 -0.001194 -0.004421 -715141.000000 1 0 0
3.818053 8.958061 -2.741733 10.116397 1.167898 1.845248 0.010715 -0.005533 885964.000000 1 0 0
11.760653 -10.354339 -4.048733 16.183866 -0.721893 1.823653 0.025966 -0.006556 1338630.000000 1 0 0
4.096753 -11.274239 3.992067 12.642327 -1.222258 1.249528 0.005285 -0.003836 -423055.000000 1 0 0
-1.075747 0.907861 3.229667 3.523094 -0.700963 0.411021 -0.001358 -0.000518 -867657.000000 1 0 0
-10.497347 -5.090039 4.560367 12.525963 0.451485 1.198159 0.004461 -0.005402 2607830.000000 1 0 0
4.696853 -8.621739 2.838967 10.220300 -1.071978 1.289317 0.002360 -0.001545 5303550.000000 1 0 0
-3.672247 -5.799039 2.616367 7.345722 1.006286 1.206624 -0.001639 0.001844 2334140.000000 1 0 0
10.073853 5.130061 12.398167 16.778396 0.471016 0.739306 0.031231 -0.002939 1487570.000000 1 0 0
1.644753 -12.429039 -5.355033 13.633143 -1.439229 1.974465 0.007127 0.002502 1685370.000000 1 0 0
9.815553 -10.744139 -1.740233 14.656398 -0.830533 1.689812 0.006610 -0.004345 510494.000000 1 0 0
9.638753 -4.393039 -9.212233 14.038147 -0.427641 2.286606 0.018870 -0.003401 3288590.000000 1 0 0
-7.308647 -3.213339 -13.106433 15.346676 0.414224 2.594469 0.004926 -0.001152 2521160.000000 1 0 0
0.392053 6.224061 -2.564533 6.743106 1.507890 1.960938 0.005250 -0.002834 1302070.000000 1 0 0
-5.854147 -9.523039 0.962867 11.219912 1.019613 1.484873 0.006877 0.000690 -382518.000000 1 0 0
-8.910747 -4.095439 0.640967 9.827760 0.430814 1.505530 -0.001917 -0.003127 1871520.000000 1 0 0
1.837953 3.813861 12.037667 12.760448 1.121722 0.338187 -0.001558 -0.001757 230305.000000 1 0 0
6.664853 4.362861 9.647667 12.511287 0.579607 0.690203 -0.002873 0.001189 3217230.000000 1 0 0
-8.320847 9.824361 -3.628933 13.376237 -0.868069 1.845537 -0.002483 0.002415 1702490.000000 1 0 0
16.444953 2.145161 -6.035633 17.648429 0.129713 1.919833 0.050917 -0.003207 -139927.000000 1 0 0
-11.023447 2.520361 -5.060933 12.388771 -0.224773 1.991617 -0.000359 -0.001095 -511972.000000 1 0 0
-13.913847 4.038061 1.522967 14.567790 -0.282459 1.466062 0.005597 -0.004292 46248.900000 1 0 0
-17.527047 10.280561 3.209267 20.571503 -0.530474 1.414151 0.047769 -0.015382 32225.200000 1 0 0
-14.363847 2.843661 -1.117233 14.685187 -0.195446 1.646949 0.009355 -0.005782 249469.000000 1 0 0
-14.460647 5.012061 5.151767 16.148430 -0.333643 1.246095 0.004301 -0.005906 -563968.000000 1 0 0
-17.491547 7.332561 3.041467 19.208623 -0.396953 1.411789 0.026367 -0.003016 -623594.000000 1 0 0
-14.963347 12.519661 -3.347233 19.795142 -0.696715 1.740706 0.044580 -0.012259 1249440.000000 1 0 0
-8.663247 12.398161 -9.463233 17.841498 -0.960908 2.129875 0.014685 -0.011984 141176.000000 1 0 0
-12.540647 8.628561 -9.871933 18.143180 -0.602659 2.146127 -0.001795 -0.001035 -2536750.000000 1 0 0
-13.881347 -3.579339 -12.303033 18.890952 0.252355 2.280048 0.042281 -0.004678 -300232.000000 1 0 0
-14.704447 5.614661 -7.634633 17.493793 -0.364749 2.022412 0.012852 -0.001919 -105372.000000 1 0 0
-11.095247 13.364861 -8.364533 19.279249 -0.877922 2.019571 0.021344 -0.013016 1687460.000000 1 0 0
-11.024047 13.480661 3.910067 17.847870 -0.885315 1.349927 0.000507 -0.000713 -1585970.000000 1 0 0
-15.202047 3.112861 3.097867 15.823682 -0.201974 1.373750 0.007145 -0.004851 1341390.000000 1 0 0
-11.238347 9.345461 -12.479833 19.219374 -0.693696 2.277507 0.014792 -0.010797 -1513400.000000 1 0 0
-13.151247 11.340261 -9.021433 19.568932 -0.711589 2.049927 0.021130 -0.020704 350065.000000 1 0 0
-8.909547 14.632561 -3.571333 17.499894 -1.023869 1.776318 0.008174 -0.003519 90076.200000 1 0 0
-16.722047 8.023861 -4.113033 18.998059 -0.447388 1.789022 0.034794 -0.005301 -196629.000000 1 0 0
-16.983647 6.524561 0.250167 18.195515 -0.366783 1.557047 0.024769 0.005876 1747350.000000 1 0 0
-10.470947 2.698661 -12.519633 16.542815 -0.252239 2.429203 0.008504 -0.006314 1654160.000000 1 0 0
-16.865447 0.715961 2.334867 17.041347 -0.042426 1.433352 0.030545 -0.010490 83498.600000 1 0 0
-12.703347 1.175561 -6.906633 14.507190 -0.092277 2.066992 0.006697 -0.005737 1416420.000000 1 0 0
-12.411747 8.819461 -5.350933 16.138985 -0.617787 1.908746 0.007825 -0.000969 -53922.600000 1 0 0
-9.686447 13.865961 1.211667 16.957602 -0.961026 1.499283 0.004704 -0.002963 -1643650.000000 1 0 0
-12.326247 10.986961 2.756967 16.740686 -0.728014 1.405356 0.001566 -0.002491 -1251140.000000 1 0 0
-12.639947 6.564761 -3.570333 14.683720 -0.479020 1.816407 -0.000994 0.004467 788587.000000 1 0 0
-15.860547 3.563161 -9.387033 18.771507 -0.220987 2.094474 0.031882 -0.009638 -1274560.000000 1 0 0
-15.177047 5.564561 -4.682233 16.829451 -0.351424 1.852733 0.016393 0.000516 2011690.000000 1 0 0
-18.017047 5.126961 7.444167 20.157265 -0.277234 1.192536 0.041168 -0.018093 812721.000000 1 0 0
-15.815447 10.000561 -2.120333 18.831766 -0.563852 1.683629 0.025381 -0.001353 -515995.000000 1 0 0
-8.955647 9.796061 -8.283233 15.645395 -0.830186 2.128732 0.001640 -0.003049 -153088.000000 1 0 0
-17.084047 4.078661 -1.372133 17.617687 -0.234354 1.648759 0.025197 -0.002803 755031.000000 1 0 0
-10.208547 5.310761 -4.556033 12.376432 -0.479698 1.947784 -0.001281 -0.002271 825268.000000 1 0 0
-18.254747 2.639261 6.055767 19.413238 -0.143585 1.253562 0.059352 -0.021010 -213819.000000 1 0 0
-10.460347 9.947861 -5.761933 15.542802 -0.760292 1.950574 -0.002433 -0.001246 1465580.000000 1 0 0
-15.454347 0.401161 -5.881033 16.540385 -0.025952 1.934305 0.022647 -0.005918 1343740.000000 1 0 0
-16.366747 -4.196939 -8.935233 19.113427 0.251022 2.057239 0.055333 -0.022008 -2467550.000000 1 0 0
-9.983447 9.534861 -1.105833 13.849392 -0.762419 1.650728 -0.004879 0.003233 2120510.000000 1 0 0
-17.288247 -3.045239 -3.207533 17.845034 0.174356 1.751522 0.039980 -0.009644 831723.000000 1 0 0
-11.947947 4.953061 -11.551633 17.341467 -0.392989 2.299801 0.003507 -0.001969 -251387.000000 1 0 0
-16.470847 6.910961 5.883367 18.805962 -0.397277 1.252609 0.028471 -0.008296 -1201520.000000 1 0 0
-12.114747 5.837561 -8.816933 16.080501 -0.449027 2.151126 0.003405 -0.004286 -804424.000000 1 0 0
-14.578647 8.245761 -0.131833 16.749535 -0.514745 1.578667 0.015518 -0.000732 1080550.000000 1 0 0
-14.960147 11.812561 3.697267 19.416807 -0.668368 1.379211 0.017641 -0.010560 1368800.000000 1 0 0
-17.410747 3.903061 -4.170333 18.323746 -0.220529 1.800400 0.032410 -0.003378 358569.000000 1 0 0
-13.731447 13.460961 -0.887533 19.249359 -0.775451 1.616920 0.030512 -0.005009 -451362.000000 1 0 0
-10.109947 6.788861 -13.052033 17.850917 -0.591343 2.390830 -0.000269 -0.006859 -189677.000000 1 0 0
-15.840347 -1.189039 -8.380133 17.959873 0.074923 2.056243 0.026416 -0.011189 -210102.000000 1 0 0
-11.508747 11.848761 -0.029033 16.518028 -0.799954 1.572554 0.012958 -0.003486 1317490.000000 1 0 0
-11.988447 7.300361 -0.921333 14.066520 -0.546974 1.636342 -0.002090 0.003284 833243.000000 1 0 0
-11.359547 0.046961 -11.666433 16.283340 -0.004134 2.369517 0.011510 -0.008603 -469177.000000 1 0 0
-19.119047 -1.396439 -4.784633 19.758055 0.072910 1.815389 0.047662 -0.019532 -2079900.000000 1 0 0
-18.124247 1.326961 -5.291633 18.927508 -0.073084 1.854146 0.030668 -0.008563 -1423990.000000 1 0 0
-13.330647 -0.209139 -9.493333 16.366834 0.015687 2.189568 0.016522 -0.010168 1458780.000000 1 0 0
-6.271847 11.156961 -13.288833 18.450120 -1.058675 2.374969 0.000482 -0.004622 -885218.000000 1 0 0
16.421053 5.964861 6.907867 18.786942 0.348425 1.194267 0.091057 -0.014668 549275.000000 1 0 0
14.816253 10.001161 -5.465033 18.692543 0.593759 1.867495 0.064958 -0.019539 -711171.000000 1 0 0
2.297053 16.947661 4.351567 17.647544 1.436079 1.321645 0.031889 -0.015803 1856200.000000 1 0 0
-3.914447 18.249061 -6.011933 19.608531 -1.359497 1.882413 0.016969 -0.004345 136170.000000 1 0 0
5.283553 14.541461 5.643367 16.468686 1.222284 1.221036 0.025075 -0.008867 -1926800.000000 1 0 0
9.816553 6.094361 15.135467 19.041752 0.555591 0.652025 0.049522 -0.010021 -284364.000000 1 0 0
4.642753 12.731861 -1.167433 13.602145 1.221125 1.656729 0.012127 -0.008991 1658510.000000 1 0 0
3.383653 13.763061 12.940667 19.191973 1.329727 0.830814 0.019375 -0.012056 -1645880.000000 1 0 0
-0.843647 12.360161 9.182367 15.420804 -1.502647 0.932967 0.003802 -0.001953 1005360.000000 1 0 0
-7.891947 13.867461 8.457767 18.058880 -1.053409 1.083381 0.014361 -0.013857 756118.000000 1 0 0
11.402253 12.750361 -4.192333 17.611324 0.841157 1.811151 0.081527 -0.019280 1758070.000000 1 0 0
-5.907847 16.218561 0.752667 17.277468 -1.221471 1.527219 0.002243 0.003259 448300.000000 1 0 0
3.211953 10.658561 6.706067 12.995880 1.278102 1.028604 0.004935 0.003107 3261170.000000 1 0 0
-1.363547 15.617761 2.504467 15.875959 -1.483710 1.412382 0.007625 -0.003264 -880743.000000 1 0 0
9.837953 8.982561 9.545667 16.388761 0.739979 0.949054 0.013192 -0.003979 1301560.000000 1 0 0
7.176653 12.290661 6.181067 15.516774 1.042291 1.161082 0.019264 -0.003063 1484720.000000 1 0 0
11.794853 14.137261 -1.634133 18.483806 0.875482 1.659321 0.075314 -0.014065 -743656.000000 1 0 0
9.544053 15.970961 -1.294533 18.650372 1.032152 1.640263 0.070844 -0.020650 1490540.000000 1 0 0
10.197353 13.734261 2.903967 17.350763 0.932128 1.402637 0.039332 -0.013262 3201640.000000 1 0 0
-6.222647 14.593761 6.358767 17.091902 -1.167748 1.189597 -0.003016 -0.001213 159103.000000 1 0 0
-1.007647 18.284861 -6.260233 19.353088 -1.515744 1.900196 0.024951 0.006056 925806.000000 1 0 0
-3.740247 15.681261 5.484967 17.028690 -1.336654 1.242848 0.002417 -0.001049 3495100.000000 1 0 0
6.926453 12.416561 10.546267 17.702274 1.061954 0.932588 0.017898 -0.006651 2890350.000000 1 0 0
1.367953 14.608361 6.162267 15.913801 1.477427 1.173173 0.012715 -0.006409 1489400.000000 1 0 0
17.292953 7.786561 -1.323133 19.011245 0.423081 1.640450 0.022374 -0.001242 -1435560.000000 1 0 0
1.977653 16.123661 -3.385233 16.593474 1.448751 1.776249 0.004591 -0.010389 1292090.000000 1 0 0
6.694953 11.219961 0.521067 13.075987 1.032807 1.530937 0.015263 -0.004603 1044100.000000 1 0 0
12.697653 9.377061 3.099067 16.086139 0.636092 1.376930 0.028344 -0.004015 -1427840.000000 1 0 0
5.968553 14.295761 -3.460033 15.873382 1.175291 1.790538 0.019638 -0.007255 1162800.000000 1 0 0
3.073253 16.442061 1.512567 16.795062 1.386014 1.480614 0.023360 -0.020175 161720.000000 1 0 0
2.671653 18.772961 -2.470133 19.122326 1.429432 1.700334 0.014789 -0.024693 -1435220.000000 1 0 0
3.884853 12.027861 10.607067 16.500648 1.258385 0.872613 0.010872 -0.004804 2144640.000000 1 0 0
8.059153 11.541761 3.342567 14.468412 0.961239 1.337665 0.014648 -0.001650 1076790.000000 1 0 0
0.742553 12.493061 0.250967 12.517626 1.511429 1.550746 0.007725 -0.006123 -705275.000000 1 0 0
11.962553 9.786961 -4.570733 16.117657 0.685700 1.858327 0.048286 -0.009817 1272180.000000 1 0 0
-1.349147 16.447561 9.847467 19.217572 -1.488952 1.032796 0.004572 -0.010176 -1902360.000000 1 0 0
8.175853 14.706261 -7.992433 18.627874 1.063401 2.014246 0.064424 -0.011881 1405370.000000 1 0 0
14.441653 7.702761 -1.429633 16.429781 0.489987 1.657921 0.018861 -0.000786 489027.000000 1 0 0
12.547353 8.386861 5.948367 16.222163 0.589213 1.195357 0.021869 -0.006380 -778508.000000 1 0 0
-3.078947 14.186061 10.212367 17.748710 -1.357071 0.957720 0.010318 -0.017441 2232330.000000 1 0 0
-4.618747 17.113361 -3.275533 18.025789 -1.307186 1.753525 0.013574 -0.007253 1460620.000000 1 0 0
-7.151947 16.492761 -1.984933 18.085947 -1.161629 1.680768 0.004734 0.001018 17303.400000 1 0 0
8.396853 11.260461 -1.966333 14.183497 0.930057 1.709880 0.019372 -0.006411 -1030160.000000 1 0 0
8.538853 12.947761 -4.272433 16.087580 0.987782 1.839595 0.049821 -0.009233 2159630.000000 1 0 0
2.492053 14.814561 -7.366433 16.731584 1.404140 2.026697 0.004710 -0.006541 -818340.000000 1 0 0
11.323853 11.501461 9.641367 18.800777 0.793179 1.032333 0.027915 -0.012829 337643.000000 1 0 0
8.572753 15.700161 1.429067 17.945177 1.071007 1.491077 0.036768 -0.021159 -226149.000000 1 0 0
6.016453 9.958761 7.781467 13.997352 1.027341 0.981322 0.009335 0.007393 2723920.000000 1 0 0
14.483453 11.436061 2.283367 18.594829 0.668364 1.447690 0.049874 -0.008851 729429.000000 1 0 0
12.182953 12.735861 0.927067 17.648965 0.807583 1.518244 0.051624 -0.008156 3582330.000000 1 0 0
5.116853 15.991461 8.177167 18.675521 1.261117 1.117585 0.028032 -0.008013 862416.000000 1 0 0
11.832153 14.987461 4.938967 19.723520 0.902509 1.317693 0.050746 -0.018099 -716713.000000 1 0 0
5.970453 16.823961 1.822267 17.944711 1.229783 1.469072 0.026443 -0.026513 1287150.000000 1 0 0
-0.751647 16.110461 -4.286733 16.687960 -1.524174 1.830584 0.007812 -0.006130 228393.000000 1 0 0
15.968953 6.446461 2.487667 17.399793 0.383681 1.427334 0.018147 -0.010248 -189501.000000 1 0 0
7.540553 16.739361 -3.230433 18.641402 1.147553 1.744969 0.043825 -0.015934 -296498.000000 1 0 0
14.787453 8.224561 7.395367 18.466283 0.507579 1.158756 0.065357 -0.015590 -360365.000000 1 0 0
2.016453 12.976961 8.532667 15.661226 1.416642 0.994613 0.006385 0.001640 1625940.000000 1 0 0
15.906853 7.322861 -5.933833 18.489528 0.431435 1.897507 0.025363 -0.005344 -1047960.000000 1 0 0
-3.129247 17.007461 0.634567 17.304583 -1.388839 1.534118 0.006932 -0.002413 534009.000000 1 0 0
-3.113147 18.518461 4.574467 19.327463 -1.404243 1.331847 0.008214 -0.005135 1358240.000000 1 0 0
-0.921447 18.977361 0.759867 19.014907 -1.522279 1.530824 0.016643 -0.016832 -443204.000000 1 0 0
6.867553 16.790061 -6.144633 19.152701 1.182534 1.897395 0.041590 -0.007211 291094.000000 1 0 0
10.970953 10.147961 0.798767 14.965993 0.746448 1.517399 0.021833 -0.002964 -1275570.000000 1 0 0
9.152453 8.768261 14.294167 19.104267 0.763963 0.725423 0.042896 -0.015318 574257.000000 1 0 0
6.352853 12.365761 -8.441933 16.264594 1.096213 2.116521 0.036589 -0.015680 -227567.000000 1 0 0
6.337853 9.130761 13.459067 17.455247 0.964027 0.690290 0.013402 -0.007942 2212680.000000 1 0 0
16.603153 9.433361 2.818167 19.302721 0.516684 1.424274 0.035616 -0.010127 -2223460.000000 1 0 0
2.561253 14.702061 -0.769433 14.943315 1.398317 1.622309 0.009512 -0.011576 1119320.000000 1 0 0
9.028853 13.070361 8.294267 17.920642 0.966279 1.089608 0.020267 -0.008248 2621370.000000 1 0 0
7.160253 9.530261 10.588367 15.943921 0.926453 0.844506 0.006568 -0.002026 1405920.000000 1 0 0
4.257653 15.705761 -5.361633 17.133174 1.306070 1.889082 0.024492 -0.010152 2399280.000000 1 0 0
0.185053 16.311561 -8.194933 18.255361 1.559452 2.036337 0.011829 -0.002672 626545.000000 1 0 0
-2.534847 15.574961 -2.014133 15.907910 -1.409459 1.697749 -0.000721 -0.004513 181754.000000 1 0 0
13.319653 10.529361 7.627167 18.613282 0.668929 1.148594 0.046773 -0.018700 1348300.000000 1 0 0
-1.112447 15.887361 6.970467 17.384855 -1.500890 1.158242 0.007452 -0.009685 1685850.000000 1 0 0
13.509053 13.317561 6.653267 20.102684 0.778260 1.233471 0.058345 -0.019272 -9164.090000 1 0 0
5.290453 17.346861 4.588567 18.707149 1.274777 1.322984 0.031937 -0.023124 872028.000000 1 0 0
10.717953 9.430661 -1.841533 14.394552 0.721595 1.699081 0.022308 -0.002341 -999.482000 1 0 0
3.103153 12.784461 4.648867 13.952920 1.332673 1.231120 0.011790 -0.000004 1753640.000000 1 0 0
-0.330347 18.093961 3.526767 18.437425 -1.552541 1.378327 0.012504 -0.011245 3188260.000000 1 0 0
-7.842947 15.994461 -5.948033 18.780674 -1.114895 1.893056 0.034840 -0.006687 429210.000000 1 0 0
-12.323547 -9.153839 8.243967 17.424855 0.638872 1.077973 0.030698 -0.014292 -557843.000000 1 0 0
-13.192547 -11.776939 6.881467 18.976147 0.728765 1.199700 0.041161 -0.007220 -1130830.000000 1 0 0
-6.407047 -12.204739 12.369367 18.520452 1.087378 0.839445 0.029852 -0.013523 -1444520.000000 1 0 0
-1.727447 -10.668939 14.394367 18.000226 1.410276 0.644039 -0.002318 -0.008449 107951.000000 1 0 0
-8.851647 2.726661 10.954967 14.345649 -0.298817 0.701858 0.000507 -0.002056 1172310.000000 1 0 0
0.575953 10.098161 15.139567 18.207446 1.513823 0.588986 0.006011 -0.005585 1788620.000000 1 0 0
0.960753 -6.808439 16.582667 17.951678 -1.430610 0.393066 0.010744 -0.015430 1624170.000000 1 0 0
6.008053 2.331761 17.884367 19.010113 0.370211 0.345867 0.033131 -0.009536 2168040.000000 1 0 0
-5.154147 -3.064139 17.686767 18.675543 0.536365 0.326860 0.023658 -0.006596 -210096.000000 1 0 0
-4.454747 8.163761 13.019667 16.000109 -1.071281 0.620266 0.001565 0.003916 -387723.000000 1 0 0
0.009653 -4.862639 18.553167 19.179816 -1.568811 0.256327 0.014382 -0.019567 262882.000000 1 0 0
-11.593547 1.958261 11.123767 16.185899 -0.167330 0.813099 0.015041 -0.008145 1268980.000000 1 0 0
-3.337247 -6.197939 14.326167 15.962165 1.076868 0.456711 0.008670 -0.009597 1522340.000000 1 0 0
-7.503947 -2.273239 14.633867 16.602015 0.294151 0.491870 0.018581 -0.000828 765185.000000 1 0 0
-6.140447 -1.149339 10.569467 12.277610 0.185034 0.533813 0.001511 -0.002770 2473500.000000 1 0 0
-3.972947 2.440761 11.168667 12.102923 -0.550901 0.395491 -0.004261 0.004960 962798.000000 1 0 0
-6.491647 6.253461 13.533067 16.260110 -0.766712 0.587577 -0.011671 0.006056 315710.000000 1 0 0
-8.966147 5.362461 12.512467 16.300602 -0.539006 0.695696 -0.006342 0.001376 -611606.000000 1 0 0
-12.406547 -2.372739 15.879567 20.290711 0.188967 0.671960 0.052433 -0.009821 1246720.000000 1 0 0
-3.428747 -7.696239 16.904567 18.887900 1.151683 0.462377 0.026671 -0.017655 -1257750.000000 1 0 0
-0.495847 -5.338139 14.348367 15.317220 1.478174 0.357577 0.001362 -0.005388 2421470.000000 1 0 0
-14.368547 -2.299039 13.692667 19.980737 0.158660 0.815790 0.044941 -0.011858 -447207.000000 1 0 0
-6.429347 1.414161 12.189867 13.853852 -0.216507 0.495165 0.001248 0.000897 2250610.000000 1 0 0
2.200353 -2.228839 14.531867 14.865545 -0.791829 0.212278 0.000921 0.001004 849659.000000 1 0 0
-12.664147 3.915061 9.110467 16.084432 -0.299826 0.968647 0.009820 -0.008299 384077.000000 1 0 0
-9.019047 -3.038339 12.554467 15.754027 0.324939 0.648641 0.010204 -0.003351 397524.000000 1 0 0
-7.071247 -7.298239 15.168867 18.258186 0.801194 0.590256 0.027827 -0.016308 4183.100000 1 0 0
-3.187047 5.928161 19.410567 20.544354 -1.077514 0.333774 0.024333 -0.010019 -39767.100000 1 0 0
0.601653 5.520061 16.141967 17.070330 1.462231 0.331315 0.002868 0.000241 2184560.000000 1 0 0
3.395953 1.482661 16.767067 17.171643 0.411652 0.217503 0.010161 -0.001476 1410900.000000 1 0 0
-11.836647 11.325161 7.774967 18.133273 -0.763319 1.127668 0.007333 -0.011831 654258.000000 1 0 0
0.693653 -9.427239 15.400767 18.070352 -1.497349 0.550492 -0.007853 -0.002523 -1321220.000000 1 0 0
-2.647547 -3.757439 19.041167 19.588106 0.956980 0.236867 0.023867 -0.010202 1164420.000000 1 0 0
-12.860647 2.235361 13.769867 18.973727 -0.172095 0.758697 0.012173 -0.011432 1375710.000000 1 0 0
-5.446847 -0.574739 15.882667 16.800523 0.105129 0.332077 0.013753 0.006553 2327530.000000 1 0 0
-4.401947 -5.988739 11.646167 13.815764 0.936940 0.568030 0.000816 -0.003115 440746.000000 1 0 0
2.374053 1.911161 14.011467 14.339103 0.677795 0.214181 -0.000350 -0.002199 305045.000000 1 0 0
0.067653 3.399861 14.231267 14.631903 1.550900 0.234550 0.002762 -0.001977 265220.000000 1 0 0
-12.945047 7.037861 12.277667 19.179334 -0.497972 0.876102 0.012083 -0.006692 1358340.000000 1 0 0
0.776953 1.509461 18.299067 18.377649 1.095441 0.092510 0.004979 0.003311 1635510.000000 1 0 0
-2.082747 6.545661 12.457667 14.225927 -1.262738 0.503909 -0.000435 0.002841 69265.100000 1 0 0
-13.524447 -2.748139 10.861767 17.562486 0.200469 0.904010 0.037309 -0.012559 918283.000000 1 0 0
-2.566947 3.727861 13.471867 14.211874 -0.967773 0.324123 -0.000366 0.002731 -1009340.000000 1 0 0
3.521753 6.139561 16.267967 17.741018 1.050003 0.410380 0.003604 -0.003317 784936.000000 1 0 0
-3.782147 12.379061 12.433967 17.948519 -1.274276 0.805491 0.010654 -0.013139 1037740.000000 1 0 0
3.618553 -1.463339 17.086767 17.526919 -0.384293 0.224583 0.026967 -0.007761 -1118040.000000 1 0 0
-15.887347 0.428761 9.123567 18.325695 -0.026981 1.049671 0.042972 -0.014355 9713.220000 1 0 0
-4.724147 4.612361 15.258367 16.625559 -0.773426 0.408379 0.002374 0.004257 1252070.000000 1 0 0
-7.954247 -8.190839 10.508767 15.517541 0.800051 0.826821 0.018499 -0.011012 3681380.000000 1 0 0
-2.744047 -0.421439 14.784867 15.043261 0.152392 0.185613 0.006333 0.005805 2469670.000000 1 0 0
-1.932047 0.886761 17.328967 17.458873 -0.430292 0.122065 0.011888 0.001619 857020.000000 1 0 0
-0.804747 -2.473939 14.371167 14.604740 1.256302 0.179085 0.001053 0.003111 2159040.000000 1 0 0
5.211353 -8.141839 16.457667 19.086711 -1.001433 0.531085 0.015963 -0.005016 542822.000000 1 0 0
-4.569347 10.038461 10.657067 15.336972 -1.143640 0.802569 0.003181 -0.002575 -257457.000000 1 0 0
-6.209747 2.105561 15.262067 16.610991 -0.326908 0.405784 0.004557 0.007056 -638640.000000 1 0 0
-4.923247 6.814761 17.287467 19.223315 -0.945169 0.452637 0.010149 0.003289 -174568.000000 1 0 0
-4.155647 9.163661 15.717167 18.662032 -1.145042 0.569445 0.013124 0.000949 300104.000000 1 0 0
-4.610547 -9.959939 18.206567 21.258801 1.137259 0.542492 0.050474 -0.028948 -1094810.000000 1 0 0
-6.781947 -4.100639 11.143267 13.674152 0.543825 0.618214 0.009194 -0.002024 937334.000000 1 0 0
-2.428747 -0.902839 19.732967 19.902360 0.355901 0.130562 0.022557 0.002557 180885.000000 1 0 0
-5.703547 -4.571739 15.295767 16.952632 0.675692 0.445802 0.015845 -0.007921 1521350.000000 1 0 0
-12.984147 -0.057039 9.668567 16.188654 0.004393 0.930737 0.017539 -0.006947 2186270.000000 1 0 0
-14.410947 8.616261 10.356467 19.727437 -0.538872 1.018107 0.013068 -0.017538 -1609340.000000 1 0 0
-8.479147 10.493961 12.715367 18.539140 -0.891195 0.815003 0.012362 -0.018909 -825161.000000 1 0 0
-10.493147 7.038961 10.673867 16.540391 -0.590869 0.869353 0.008196 -0.005256 366539.000000 1 0 0
-9.819447 -6.573439 14.731567 18.885198 0.589914 0.676036 0.050421 -0.023938 591616.000000 1 0 0
-0.686547 -13.405239 14.425167 19.704244 1.519626 0.749420 0.006631 -0.013992 853280.000000 1 0 0
3.772553 -5.659539 16.954467 18.267909 -0.982852 0.381516 0.030920 -0.012055 1502940.000000 1 0 0
-7.381147 9.376361 10.361567 15.803783 -0.903904 0.855769 0.001785 -0.002648 227533.000000 1 0 0
-10.334747 -6.679439 11.715367 16.990342 0.573776 0.809955 0.044060 -0.024035 2886270.000000 1 0 0
-10.816547 -3.896239 10.621167 15.652078 0.345742 0.824970 0.021024 -0.009740 -526148.000000 1 0 0
-10.012947 -10.238639 9.859367 17.386660 0.796542 0.967858 0.035572 -0.016969 890675.000000 1 0 0
-9.880147 -3.715639 15.243967 18.541893 0.359709 0.605643 0.045988 -0.018853 2958080.000000 1 0 0
5.527553 -3.406039 16.107067 17.366420 -0.552241 0.383172 0.032013 -0.011542 1150300.000000 1 0 0
-11.398547 0.259261 15.379367 19.144687 -0.022741 0.637942 0.027493 -0.005868 -616911.000000 1 0 0
-3.168647 3.115461 18.937867 19.452229 -0.776935 0.230476 0.017506 -0.000367 -1079370.000000 1 0 0
0.548953 7.390961 13.866767 15.723069 1.496659 0.490839 0.002435 -0.004948 2465170.000000 1 0 0
-13.159247 -7.293839 12.243267 19.397512 0.506119 0.887726 0.063631 -0.029006 1001220.000000 1 0 0
-1.612647 -1.113939 12.200767 12.357192 0.604492 0.159282 -0.001697 0.002398 102389.000000 1 0 0
2.050553 -4.888239 13.119167 14.149636 -1.173604 0.384000 0.000231 -0.001537 553143.000000 1 0 0
-14.522447 -4.262939 8.691867 17.453443 0.285521 1.049502 0.038939 -0.017510 -1284870.000000 1 0 0
8.070353 1.016761 16.221067 18.146278 0.125327 0.464812 0.064855 -0.012840 1219890.000000 1 0 0
-1.397847 11.310561 13.422367 17.608030 -1.447832 0.703958 0.009201 -0.005484 820478.000000 1 0 0
2.919953 -12.217539 -13.833333 18.685703 -1.336200 2.404337 0.018830 0.002756 -33258.600000 1 0 0
0.836453 -10.610939 -13.948033 17.545350 -1.492130 2.489755 0.011561 0.001056 -1843300.000000 1 0 0
3.242253 -14.286839 -12.320533 19.142139 -1.347636 2.270034 0.019464 -0.001216 -1996130.000000 1 0 0
-5.021547 -10.315439 -16.067233 19.742852 1.117765 2.521501 0.033459 -0.012502 64704.700000 1 0 0
-0.995647 -12.261139 -14.883733 19.309385 1.489771 2.450897 0.030479 -0.011489 -16495.900000 1 0 0
5.747453 -14.917539 -12.313333 20.178809 -1.203042 2.227123 0.019314 0.002115 949878.000000 1 0 0
2.023453 -11.682839 -16.118533 20.009752 -1.399299 2.507372 0.029522 -0.006441 -617604.000000 1 0 0
1.413853 -14.415439 -14.176633 20.267727 -1.473030 2.345450 0.040084 0.007180 400814.000000 1 0 0
-0.958147 -10.616439 -15.957233 19.190104 1.480789 2.552661 0.020565 -0.007356 -625249.000000 1 0 0
-6.055247 -5.708139 -15.195133 17.324576 0.755899 2.640557 0.019034 -0.002786 76880.800000 1 0 0
-6.506647 -7.751039 -16.752433 19.571895 0.872456 2.598169 0.026505 0.001652 917995.000000 1 0 0
5.004653 -12.473739 -11.488133 17.681004 -1.189243 2.278044 0.005772 0.005731 -164888.000000 1 0 0
-1.792847 -15.537139 -13.346933 20.561070 1.455913 2.277245 0.030978 -0.002506 -90347.100000 1 0 0
15.815153 -7.301539 -8.769533 19.502211 -0.432524 2.037191 0.068130 -0.008159 581256.000000 1 0 0
19.265753 -3.639339 -4.281633 20.068543 -0.186702 1.785799 0.127776 -0.029646 469802.000000 1 0 0
14.923553 -11.535039 -8.920133 20.864763 -0.658023 2.012546 0.061374 -0.019664 479411.000000 1 0 0
17.935153 -3.580339 -6.515033 19.414793 -0.197037 1.913007 0.096239 -0.008280 356608.000000 1 0 0
9.995153 -9.009039 -15.299833 20.375248 -0.733555 2.420225 0.106495 -0.029354 102095.000000 1 0 0
1.155853 1.930861 -15.164933 15.330995 1.031392 2.994274 0.006497 -0.008227 -106265.000000 1 0 0
4.870653 -4.157939 -13.895133 15.299883 -0.706622 2.709725 0.016873 -0.007827 2067670.000000 1 0 0
13.316853 -5.472639 -8.656833 16.799676 -0.389915 2.112151 0.043179 -0.004082 -987276.000000 1 0 0
2.977753 0.995261 -12.184833 12.582834 0.322559 2.889408 0.004647 -0.008512 -1968590.000000 1 0 0
0.525653 6.379861 -12.846233 14.352862 1.488589 2.679293 0.008820 -0.006500 -204349.000000 1 0 0
3.105853 -1.147939 -16.742833 17.067119 -0.354032 2.946344 0.018033 -0.007814 -192410.000000 1 0 0
13.122253 4.282561 -11.353033 17.872471 0.315460 2.259096 0.038924 -0.017934 -158663.000000 1 0 0
-3.871047 9.380961 -16.574933 19.434913 -1.179433 2.592203 0.002431 0.001151 -439998.000000 1 0 0
-0.222747 -5.072539 -17.614533 18.331722 1.526912 2.860948 0.022147 -0.015162 295122.000000 1 0 0
-0.463847 -8.453039 -17.516533 19.455024 1.515978 2.691393 0.024312 -0.010301 -1160290.000000 1 0 0
5.651353 -10.063839 -12.200133 16.794698 -1.059129 2.383906 0.006383 0.004655 300313.000000 1 0 0
1.889753 -9.621339 -17.971533 20.472355 -1.376852 2.642138 0.052573 -0.017189 -27858.200000 1 0 0
10.654153 9.134561 -14.882033 20.455466 0.708758 2.385516 0.077708 -0.027412 -543353.000000 1 0 0
10.857253 -3.613039 -12.808533 17.175346 -0.321249 2.412458 0.031548 -0.005163 827939.000000 1 0 0
4.888053 7.455761 -12.249033 15.149926 0.990489 2.512431 0.000480 -0.003335 386162.000000 1 0 0
9.634053 -5.803539 -12.689133 16.956124 -0.542181 2.416369 0.027107 -0.002558 -1252480.000000 1 0 0
-3.304647 0.320561 -15.897433 16.240438 -0.096701 2.935703 0.010076 -0.003605 -1242700.000000 1 0 0
-0.745347 10.759361 -12.810233 16.745790 -1.501633 2.441810 0.005830 -0.007020 264236.000000 1 0 0
6.753553 -5.359439 -12.449033 15.143067 -0.670810 2.535876 0.013766 -0.003000 86221.800000 1 0 0
18.061353 -6.042539 -8.287633 20.770402 -0.322851 1.981235 0.104486 -0.016495 150770.000000 1 0 0
12.952853 4.711161 -13.922933 19.591312 0.348841 2.361245 0.070496 -0.028161 282086.000000 1 0 0
14.336253 0.888961 -11.381933 18.326669 0.061929 2.240889 0.054962 -0.009625 -408182.000000 1 0 0
14.873153 6.132561 -11.179133 19.590610 0.391085 2.178078 0.057450 -0.023905 57939.900000 1 0 0
8.313653 1.632961 -11.587633 14.354673 0.193950 2.510253 0.002407 -0.003277 712166.000000 1 0 0
9.907853 1.349061 -8.846733 13.351037 0.135329 2.295115 0.006122 -0.006010 674730.000000 1 0 0
-0.140147 -5.640439 -12.948533 14.124401 1.545955 2.730661 0.005516 -0.004871 204248.000000 1 0 0
10.729253 -5.544339 -8.980933 15.050373 -0.476957 2.210210 0.022693 -0.005399 -294799.000000 1 0 0
10.181153 8.492161 -11.186233 17.346599 0.695194 2.271644 0.045134 -0.026992 716385.000000 1 0 0
8.237553 8.303761 -14.515033 18.641242 0.789401 2.463310 0.040486 -0.015016 110485.000000 1 0 0
8.629253 10.547661 -10.615933 17.274698 0.885104 2.232595 0.062053 -0.022819 -542007.000000 1 0 0
7.022853 1.860461 -18.001533 19.412289 0.258967 2.758002 0.018747 -0.001949 -1802360.000000 1 0 0
12.134753 2.499861 -12.728933 17.763087 0.203166 2.369704 0.046432 -0.015500 -1336270.000000 1 0 0
2.601753 -0.924939 -19.287733 19.484385 -0.341571 2.999397 0.039768 -0.022166 -413005.000000 1 0 0
10.169853 -1.960739 -15.536633 18.672369 -0.190462 2.553617 0.045860 -0.011016 -589041.000000 1 0 0
8.275253 -0.727139 -12.932233 15.370465 -0.087644 2.570608 0.012146 -0.003963 583397.000000 1 0 0
0.556053 4.394661 -14.570433 15.228912 1.444936 2.846452 0.005885 -0.007835 186949.000000 1 0 0
4.050153 -7.677439 -15.747533 17.981424 -1.085361 2.637818 0.034995 -0.013882 -2313040.000000 1 0 0
11.501153 -5.556739 -14.408433 19.255046 -0.450074 2.416283 0.069303 -0.007706 -822068.000000 1 0 0
-5.757847 4.294261 -16.835633 18.303880 -0.640814 2.738328 0.011516 0.002149 -257075.000000 1 0 0
11.357453 7.883461 -8.984533 16.488254 0.606770 2.147072 0.036287 -0.018619 -744496.000000 1 0 0
9.610153 6.397261 -13.415233 17.698827 0.587317 2.430996 0.023964 -0.004525 -550600.000000 1 0 0
12.151253 0.776761 -10.077733 15.805600 0.063838 2.262182 0.018768 -0.004417 -168506.000000 1 0 0
5.541053 -7.098839 -13.756933 16.442323 -0.908023 2.561986 0.021175 -0.004227 -1068350.000000 1 0 0
8.608453 -10.116439 -10.810233 17.126264 -0.865758 2.253906 0.023009 -0.000841 189263.000000 1 0 0
10.104753 4.502061 -15.666033 19.178091 0.419138 2.526762 0.057757 -0.020080 -1099350.000000 1 0 0
9.989553 -0.239339 -10.916633 14.799369 -0.023954 2.400367 0.012939 -0.002602 -782061.000000 1 0 0
-1.697647 5.528961 -13.987333 15.135947 -1.272888 2.749505 0.004036 -0.004840 72284.000000 1 0 0
1.279653 -0.702339 -14.881633 14.953053 -0.501961 3.043817 0.009129 -0.008670 -1159620.000000 1 0 0
11.686053 -10.492039 -13.995733 21.036332 -0.731613 2.298709 0.107241 -0.027035 -23535.800000 1 0 0
9.459553 -7.671139 -10.828433 16.296763 -0.681377 2.297558 0.028499 -0.002625 -209406.000000 1 0 0
14.163053 -0.931039 -9.717033 17.201152 -0.065643 2.171116 0.043269 -0.005946 1069840.000000 1 0 0
3.993453 11.080661 -12.252733 16.995828 1.224888 2.375934 0.018772 -0.017010 -627902.000000 1 0 0
-1.274047 2.899661 -17.067033 17.358423 -1.156811 2.958105 0.009109 -0.001362 143004.000000 1 0 0
5.932853 -0.419939 -17.651233 18.626355 -0.070664 2.816585 0.013363 -0.005538 332698.000000 1 0 0
6.385953 -6.753739 -16.224033 18.697931 -0.813381 2.621335 0.036068 -0.004922 125246.000000 1 0 0
-1.593647 -5.219039 -19.839033 20.575843 1.274436 2.873170 0.029245 -0.017124 -543406.000000 1 0 0
-0.022447 -4.255439 -15.140033 15.726724 1.565521 2.867587 0.008856 -0.010583 -199839.000000 1 0 0
0.444453 0.807461 -12.888833 12.921747 1.067621 3.070203 0.007210 -0.009709 663086.000000 1 0 0
15.828453 0.781161 -13.546233 20.848275 0.049312 2.278056 0.116909 -0.029155 810306.000000 1 0 0
-0.017847 6.991361 -16.218533 17.661265 -1.568244 2.734589 0.008993 -0.002433 -524825.000000 1 0 0
-4.696247 -0.880939 -18.445633 19.054453 0.185429 2.888124 0.008895 0.006513 -300163.000000 1 0 0
10.492953 -8.340439 -12.963833 18.647411 -0.671600 2.339506 0.040512 -0.014323 391850.000000 1 0 0
4.040153 8.716961 -17.066533 19.585066 1.136788 2.628856 0.032872 -0.020867 -474355.000000 1 0 0
9.132653 0.786061 -16.846933 19.179218 0.085860 2.643290 0.030430 -0.010106 -441885.000000 1 0 0
3.309053 4.804261 -18.461033 19.360798 0.967644 2.835527 0.014346 -0.005297 -610304.000000 1 0 0
1.501553 -8.055239 -15.881633 17.870864 -1.386504 2.665273 0.021159 -0.012452 234323.000000 1 0 0
4.485553 7.632861 -14.880733 17.315224 1.039497 2.604895 0.008333 -0.008655 610287.000000 1 0 0
-5.702847 -0.565839 -15.215833 16.259281 0.098897 2.781387 0.001840 0.001554 -279392.000000 1 0 0
2.863153 3.298461 -13.741733 14.419179 0.855929 2.833843 0.005891 -0.005571 853123.000000 1 0 0
-2.413547 -10.053439 -17.976733 20.737882 1.335183 2.619655 0.033108 -0.011052 -311468.000000 1 0 0
6.162253 -9.121039 -15.336433 18.877841 -0.976629 2.519059 0.026557 -0.010673 163561.000000 1 0 0
-1.756247 5.395161 -17.217033 18.127835 -1.256092 2.823254 0.009544 -0.004452 152929.000000 1 0 0
10.071253 -12.128139 -11.624733 19.587146 -0.877789 2.206182 0.066291 -0.011931 800544.000000 1 0 0
10.852453 3.712761 -9.361833 14.805548 0.329631 2.255340 0.005668 -0.008019 -1143150.000000 1 0 0
4.878153 -0.366339 -10.963233 12.005126 -0.074957 2.721896 0.005194 -0.008193 507834.000000 1 0 0
6.312453 9.474561 -11.403533 16.113812 0.983080 2.357015 0.023533 -0.017281 154387.000000 1 0 0
10.815053 -9.516939 -9.467933 17.238888 -0.721639 2.152226 0.045693 -0.005518 -612059.000000 1 0 0
3.221153 -2.330239 -14.417433 14.955541 -0.626270 2.872526 0.008128 -0.007287 -148506.000000 1 0 0
9.224253 -4.383739 -14.821733 17.999660 -0.443645 2.538253 0.039622 -0.006096 164406.000000 1 0 0
-3.998347 -6.686539 -16.521033 18.265845 1.031871 2.700948 0.011572 -0.007346 -268426.000000 1 0 0
5.851053 -7.649939 -11.284233 14.835441 -0.917859 2.435074 0.002783 0.000618 -426652.000000 1 0 0
5.391753 6.488061 -16.984233 18.963916 0.877421 2.680592 0.008074 -0.003037 -1253220.000000 1 0 0
9.159453 1.274361 -19.369733 21.464066 0.138243 2.696164 0.053183 -0.021288 568348.000000 1 0 0
13.003653 5.774161 -9.331733 17.015204 0.417888 2.151288 0.017282 -0.014441 304473.000000 1 0 0
-1.530347 -0.675239 -17.308633 17.389269 0.415539 3.045252 0.020962 -0.009875 176519.000000 1 0 0
-0.402447 -0.459639 -19.384933 19.394557 0.851642 3.110088 0.041727 -0.022501 -315006.000000 1 0 0
2.795953 6.425461 -16.520633 17.945340 1.160371 2.740432 0.003599 -0.001208 -1221050.000000 1 0 0
7.608153 3.868561 -15.578133 17.763107 0.470405 2.640366 0.007338 0.002151 -91150.000000 1 0 0
3.165453 -9.806939 -14.705933 17.957188 -1.258576 2.530365 0.023754 -0.009034 -321143.000000 1 0 0
9.156253 -10.527039 -13.395133 19.341280 -0.854928 2.335838 0.060514 -0.004773 -329785.000000 1 0 0
3.748753 0.230361 -14.705833 15.177870 0.061373 2.891541 0.006986 -0.006796 -202332.000000 1 0 0
-1.235847 -2.905339 -18.764733 19.028492 1.168611 2.974899 0.046292 -0.017792 438568.000000 1 0 0
9.250353 10.176461 -13.021333 18.938968 0.833034 2.328895 0.071351 -0.029580 46953.500000 1 0 0
4.579753 2.167261 -10.655233 11.798523 0.442000 2.697728 0.006083 -0.003788 -360099.000000 1 0 0
-0.590447 7.098561 -18.743133 20.051016 -1.487809 2.778414 0.017180 -0.001201 73085.700000 1 0 0
0.820853 -1.887439 -17.554733 17.674979 -1.160568 3.024880 0.032460 -0.017355 -1511520.000000 1 0 0
-4.419347 -2.315439 -14.107033 14.963297 0.482610 2.801656 0.006587 -0.006455 -3745510.000000 1 0 0
10.056453 6.032861 -10.300133 15.608344 0.540346 2.291498 0.013236 -0.008680 -53173.200000 1 0 0
8.370553 5.741761 -17.198133 19.970222 0.601232 2.608400 0.051016 -0.016751 -444284.000000 1 0 0
11.389353 0.208361 -13.524933 17.682890 0.018292 2.441620 0.033883 -0.001345 286894.000000 1 0 0
6.770853 11.903661 -11.903733 18.144984 1.053631 2.286349 0.056340 -0.028227 -451131.000000 1 0 0
-0.966047 0.536461 -14.978433 15.019138 -0.506915 3.067953 0.008003 -0.005976 -530814.000000 1 0 0
-4.332347 -3.381339 -19.019733 19.797801 0.662729 2.860307 0.018492 0.003102 497903.000000 1 0 0
5.912353 -12.123839 -13.933133 19.392668 -1.117067 2.372403 0.024130 0.000175 145881.000000 1 0 0
2.154553 -4.678139 -14.037533 14.952572 -1.139197 2.789938 0.007678 -0.005991 -1021720.000000 1 0 0
11.859953 1.986261 -15.337033 19.489184 0.165936 2.476648 0.079802 -0.016626 187038.000000 1 0 0
9.718553 2.198161 -13.701633 16.941574 0.222439 2.512834 0.020662 -0.007390 1805550.000000 1 0 0
-2.312847 -4.169439 -16.304433 16.987290 1.064341 2.857092 0.011399 -0.012079 -1560890.000000 1 0 0
-2.988647 10.052261 -14.258933 17.700202 -1.281808 2.507451 0.007720 -0.009036 81267.800000 1 0 0
3.387953 5.713461 -13.516033 15.060047 1.035557 2.684810 0.004713 -0.002545 -247938.000000 1 0 0
-4.973547 -2.735639 -16.548133 17.494588 0.502872 2.811154 0.005382 0.000627 375145.000000 1 0 0
-4.322147 6.132661 -13.516633 15.459297 -0.956873 2.634864 0.001226 -0.004352 -135799.000000 1 0 0
5.980153 -0.963139 -14.108133 15.353478 -0.159685 2.736050 0.009017 -0.002484 -1084140.000000 1 0 0
6.751553 -2.897339 -12.602533 14.587730 -0.405369 2.613785 0.014698 -0.006589 430444.000000 1 0 0
3.012853 -3.236439 -18.250433 18.778448 -0.821161 2.903891 0.041037 -0.026900 -298014.000000 1 0 0
7.473453 -11.957339 -11.975033 18.499510 -1.012190 2.274854 0.024415 -0.000239 -1508810.000000 1 0 0
-6.008647 -5.546839 -17.795033 19.584036 0.745455 2.710836 0.029411 -0.002634 267386.000000 1 0 0
0.596753 8.739261 -11.851133 14.737033 1.502618 2.505080 0.009135 -0.007133 -61629.000000 1 0 0
0.235753 8.581761 -14.318833 16.695244 1.543332 2.601497 0.003043 -0.005532 -554288.000000 1 0 0
7.718953 -2.370939 -15.039033 17.069742 -0.298011 2.648841 0.025279 -0.012212 -808616.000000 1 0 0
14.357353 1.612361 -8.866633 16.951415 0.111834 2.121235 0.032952 -0.005242 296269.000000 1 0 0
2.615753 10.866461 -14.575433 18.367509 1.334573 2.487408 0.014765 -0.008845 259122.000000 1 0 0
6.155153 1.145661 -15.561033 16.773318 0.184025 2.759068 0.012041 -0.002373 987651.000000 1 0 0
16.768353 -5.471939 -10.337333 20.444565 -0.315430 2.100905 0.117616 -0.018875 628114.000000 1 0 0
4.910253 -4.119439 -11.213133 12.915677 -0.698042 2.622319 0.004413 -0.000060 -1498060.000000 1 0 0
8.689353 -3.329839 -17.175333 19.534194 -0.365948 2.645070 0.039277 -0.015305 223346.000000 1 0 0
13.350053 -9.463539 -8.897833 18.626699 -0.616659 2.068823 0.066865 -0.013328 -196165.000000 1 0 0
2.432153 -7.620639 -13.608533 15.785489 -1.261862 2.610178 0.007718 -0.001693 214669.000000 1 0 0
-6.772647 -2.396339 -18.491933 19.838417 0.340079 2.771040 0.007614 0.000873 -557374.000000 1 0 0
-1.466147 -6.438839 -15.677333 17.011379 1.346910 2.742926 0.006954 -0.008758 1557450.000000 1 0 0
1.635453 -7.077439 -18.335133 19.721611 -1.343703 2.764387 0.046367 -0.023163 16614.300000 1 0 0
5.272453 10.918661 -14.540733 18.932745 1.120935 2.446541 0.049130 -0.030296 -548965.000000 1 0 0
5.440953 -3.355439 -17.329233 18.470659 -0.552609 2.788198 0.032323 -0.020419 -1225380.000000 1 0 0
3.782753 13.033461 -13.912133 19.435220 1.288323 2.368595 0.037619 -0.027309 -105598.000000 1 0 0
8.688653 10.719961 -15.506533 20.757235 0.889679 2.414398 0.081894 -0.034490 -62641.000000 1 0 0
2.527453 3.795461 -16.269833 16.896775 0.983315 2.868331 0.010062 -0.006125 354114.000000 1 0 0
16.648553 2.030361 -11.419333 20.290339 0.121355 2.168561 0.114051 -0.018304 -690260.000000 1 0 0
10.054653 -3.584439 -10.521333 14.988085 -0.342450 2.348970 0.024391 -0.002730 -408187.000000 1 0 0
14.847953 -2.047839 -11.979133 19.187365 -0.137056 2.245062 0.092751 -0.013397 -23422.400000 1 0 0
-2.558247 -8.690339 -15.842433 18.249638 1.284505 2.622149 0.013966 -0.004691 18670.500000 1 0 0
14.030453 8.116161 -8.972833 18.526668 0.524436 2.076382 0.063661 -0.017735 -121469.000000 1 0 0
-8.315447 -0.117639 -16.629333 18.592881 0.014146 2.677867 0.008370 0.001670 -473211.000000 1 0 0
-3.410847 3.776761 -15.891033 16.686004 -0.836263 2.831669 0.003028 0.000492 -484118.000000 1 0 0
15.076953 4.035161 -9.717533 18.385524 0.261509 2.127679 0.032452 -0.013078 251732.000000 1 0 0
5.468153 1.237561 -12.951133 14.112551 0.222572 2.733056 0.003443 -0.005413 581992.000000 1 0 0
7.926753 -7.690139 -12.958633 17.026386 -0.770248 2.435790 0.031479 -0.002028 -809997.000000 1 0 0
3.349453 -5.975939 -11.868233 13.703490 -1.059935 2.618091 0.005569 -0.002135 -868594.000000 1 0 0
-3.236447 3.689661 -18.576933 19.214334 -0.850741 2.883297 0.018102 0.003935 -219954.000000 1 0 0
0.855153 5.180661 -17.712633 18.474520 1.407205 2.853403 0.016466 -0.010754 -1307370.000000 1 0 0
6.246253 7.059461 -10.157633 13.857459 0.846439 2.393530 0.004804 -0.006638 574035.000000 1 0 0
9.689853 3.880161 -11.649333 15.641479 0.380882 2.410989 0.015317 -0.005571 -253925.000000 1 0 0
4.476853 1.717461 -17.544833 18.188267 0.366316 2.874809 0.012178 -0.002209 -209707.000000 1 0 0
2.556253 8.060361 -13.320633 15.777931 1.263691 2.575974 0.004169 -0.004751 -1191620.000000 1 0 0
14.527153 -3.470039 -9.856833 17.895153 -0.234472 2.154131 0.064390 -0.003595 402454.000000 1 0 0
-1.336047 9.292361 -16.131233 18.664128 -1.427996 2.614535 0.007618 -0.002132 -1534450.000000 1 0 0
-5.395647 1.981461 -15.748233 16.764428 -0.351944 2.791625 0.009963 -0.000233 324258.000000 1 0 0
4.476153 4.350061 -11.842733 13.386908 0.771113 2.656540 0.003205 -0.005643 288862.000000 1 0 0
9.118053 3.292461 -17.699433 20.180414 0.346522 2.640504 0.038538 -0.005834 708412.000000 1 0 0
-4.374147 14.277661 -13.416833 20.074765 -1.273512 2.302776 0.018908 -0.006754 -281464.000000 1 0 0
15.658053 -4.854439 -7.982433 18.233470 -0.300631 2.023936 0.071597 -0.006222 793560.000000 1 0 0
1.218753 9.254361 -16.702533 19.133823 1.439855 2.631978 0.009573 -0.001391 -719952.000000 1 0 0
0.519953 -3.054839 -12.898933 13.265929 -1.402206 2.905826 0.005716 -0.005921 228515.000000 1 0 0
7.504253 3.615861 -12.952233 15.399630 0.449016 2.570063 0.003675 -0.001671 261854.000000 1 0 0
-3.034547 7.501061 -15.099133 17.130622 -1.186375 2.649639 0.006072 -0.004087 494528.000000 1 0 0
12.174353 -4.959439 -11.038433 17.165602 -0.386842 2.269278 0.045178 -0.005012 -1059720.000000 1 0 0
0.734753 -4.244439 -19.874533 20.335982 -1.399386 2.928156 0.057461 -0.025313 -1014230.000000 1 0 0
3.405553 -4.417139 -16.119633 17.057300 -0.913999 2.808478 0.030517 -0.019062 466212.000000 1 0 0
-5.660947 4.061461 -14.332633 15.936316 -0.622343 2.689121 0.000579 0.001609 894705.000000 1 0 0
12.215653 -7.385439 -9.884133 17.362689 -0.543786 2.176419 0.032202 -0.004413 16730.500000 1 0 0
-1.979847 -1.837839 -14.967833 15.209651 0.748218 2.963036 0.013427 -0.007264 554685.000000 1 0 0
7.096553 5.960161 -14.251933 17.000064 0.698582 2.565038 0.009219 -0.002315 36299.700000 1 0 0
4.390453 -5.434739 -18.404433 19.685924 -0.891287 2.778782 0.058367 -0.026220 331340.000000 1 0 0
7.587153 7.300561 -12.209933 16.122827 0.766150 2.429976 0.012164 -0.009493 -1034660.000000 1 0 0
12.401953 -2.359539 -11.090233 16.803843 -0.188008 2.291591 0.035248 -0.002486 351338.000000 1 0 0
7.556953 -0.650339 -10.575933 13.014639 -0.085847 2.519427 0.007190 -0.003052 -1940120.000000 1 0 0
5.338353 4.128161 -14.330133 15.839585 0.658249 2.701480 -0.001603 -0.000953 -1017710.000000 1 0 0
14.674453 2.969161 -12.831533 19.718106 0.199640 2.279366 0.076400 -0.029983 -1576570.000000 1 0 0
-6.244847 6.656261 -15.834533 18.276662 -0.817277 2.618703 0.004733 0.005292 217496.000000 1 0 0
-11.129547 3.880961 -16.414933 20.208382 -0.335523 2.518853 0.074590 -0.018324 -134987.000000 1 0 0
-4.849947 6.475361 -18.039533 19.770611 -0.927945 2.720009 0.008071 0.016962 -663976.000000 1 0 0
-10.048747 1.560561 -15.624033 18.641971 -0.154068 2.564607 0.050376 -0.008654 -333565.000000 1 0 0
-7.496447 5.980661 -18.008833 20.403017 -0.673398 2.652278 0.024533 0.001669 909754.000000 1 0 0
-8.676347 3.874161 -15.606233 18.271361 -0.419956 2.594684 0.012731 0.004771 -1138820.000000 1 0 0
8.963853 13.385361 -12.276033 20.253877 0.980713 2.221954 0.118192 -0.031269 -429612.000000 1 0 0
14.146953 9.154461 -11.426333 20.359310 0.574332 2.166672 0.097298 -0.024605 309064.000000 1 0 0
8.368553 15.764361 -9.205733 20.082163 1.082772 2.046994 0.090386 -0.017267 -93449.200000 1 0 0
7.116753 13.413661 -14.040633 20.681244 1.083001 2.317069 0.091084 -0.031767 29425.200000 1 0 0
4.818753 15.847861 -12.819433 20.945476 1.275616 2.229432 0.069517 -0.026815 -90706.200000 1 0 0
11.107253 10.890961 -11.389833 19.279844 0.775566 2.202801 0.104229 -0.033031 43474.800000 1 0 0
15.816553 9.777661 -9.550233 20.903898 0.553688 2.045263 0.115873 -0.017024 -447077.000000 1 0 0
13.275553 10.611361 -9.318833 19.382516 0.674324 2.072347 0.112376 -0.027814 475539.000000 1 0 0
10.463553 11.941861 -8.403733 17.964318 0.851283 2.057598 0.079309 -0.006193 201651.000000 1 0 0
5.353053 16.110561 -10.254333 19.833222 1.250003 2.114172 0.056550 -0.015739 -532256.000000 1 0 0
6.668153 14.449261 -11.705633 19.755183 1.138431 2.204998 0.068033 -0.014714 -626827.000000 1 0 0
10.833453 14.024661 -9.875133 20.287264 0.913077 2.079179 0.125268 -0.019175 -252931.000000 1 0 0
8.344653 -18.421139 -1.219333 20.259772 -1.145456 1.631018 0.062497 -0.010593 -329438.000000 1 0 0
7.606253 -17.099239 -3.406533 19.022185 -1.152250 1.750850 0.041184 -0.016277 -335796.000000 1 0 0
4.588353 -18.225439 5.677167 19.632876 -1.324166 1.277440 0.052460 -0.007886 366051.000000 1 0 0
10.031353 -16.947039 -2.497933 19.851192 -1.036336 1.696964 0.057822 -0.007303 -31194.000000 1 0 0
-9.631847 -12.370439 -9.897833 18.540964 0.909230 2.133927 0.043917 -0.010877 720589.000000 1 0 0
-5.190947 -6.984939 -12.157133 14.950959 0.931685 2.520313 0.008197 -0.003109 409584.000000 1 0 0
-10.857447 -9.523439 -5.628533 15.500336 0.720037 1.942414 0.016651 -0.007037 -971207.000000 1 0 0
-4.493947 -11.452339 -13.922833 18.579475 1.196855 2.417901 0.019434 -0.010093 -182430.000000 1 0 0
-2.888647 -15.586139 7.403667 17.495322 1.387541 1.133844 0.008002 0.001415 -128698.000000 1 0 0
-4.740247 -12.048239 -11.496733 17.314874 1.195959 2.296925 0.025820 -0.005193 -96873.400000 1 0 0
-14.490747 -12.795339 -4.233033 19.789417 0.723343 1.786366 0.064681 -0.018665 190877.000000 1 0 0
-3.209747 -12.364739 -3.247333 13.180835 1.316814 1.819727 0.014165 -0.001420 884635.000000 1 0 0
-2.464247 -17.414139 -1.548933 17.655705 1.430221 1.658639 0.021434 -0.017686 -114746.000000 1 0 0
-5.749647 -12.173639 3.810567 13.992010 1.129551 1.294973 0.002769 0.000920 -541005.000000 1 0 0
-8.849347 -10.851239 -11.926033 18.392678 0.886666 2.276293 0.029734 -0.004233 852871.000000 1 0 0
-10.117247 -12.169539 -7.308033 17.431687 0.877225 2.003403 0.041912 -0.013041 -98023.700000 1 0 0
-10.846447 -15.114039 6.172367 19.600451 0.948329 1.250435 0.063429 -0.013378 -1624130.000000 1 0 0
-9.503747 -15.572339 0.735967 18.258165 1.022840 1.530476 0.024435 -0.005112 -860428.000000 1 0 0
-14.810047 -7.701939 -8.077133 18.544472 0.479557 2.021451 0.035695 -0.015896 212468.000000 1 0 0
-2.253847 -16.546839 5.063067 17.450282 1.435419 1.276421 0.014451 -0.003928 -818706.000000 1 0 0
4.708353 -15.706039 6.155767 17.514043 -1.279542 1.211649 0.036551 -0.014046 133115.000000 1 0 0
4.345753 -14.569739 -10.112333 18.259850 -1.280925 2.157719 0.014050 -0.001186 -508899.000000 1 0 0
-7.602647 -14.012939 -0.304133 15.945382 1.073695 1.589871 0.006829 -0.000557 594635.000000 1 0 0
3.032453 -14.735239 9.413767 17.746606 -1.367834 1.011660 0.019800 -0.014868 -38388.400000 1 0 0
2.402053 -17.134939 10.396567 20.185752 -1.431519 1.029736 0.049202 -0.019217 -732800.000000 1 0 0
-8.111547 -17.063439 -5.758733 19.751485 1.127041 1.866653 0.048657 -0.017166 -348345.000000 1 0 0
-6.594547 -9.130239 -7.731733 13.661223 0.945276 2.172396 0.013747 -0.007876 471384.000000 1 0 0
-6.048747 -13.079639 -4.836733 15.200601 1.137633 1.894620 0.011929 -0.008645 467137.000000 1 0 0
2.341953 -19.431439 -5.016533 20.204731 -1.450851 1.821706 0.045364 -0.019036 200907.000000 1 0 0
-5.345747 -12.956039 8.358367 16.318647 1.179470 1.033055 0.010284 -0.001107 1169930.000000 1 0 0
2.191153 -17.322439 3.537267 17.815170 -1.444972 1.370914 0.025476 -0.016371 -648768.000000 1 0 0
-17.579647 -10.184839 -2.278733 20.444255 0.525100 1.682489 0.060315 -0.012711 643812.000000 1 0 0
-3.624447 -15.460739 2.641667 16.098120 1.340525 1.405953 0.011527 -0.002701 157190.000000 1 0 0
-10.060447 -10.425239 -14.264233 20.331418 0.803203 2.348417 0.043109 -0.013742 13302.700000 1 0 0
6.202253 -14.591639 -5.702433 16.849380 -1.168879 1.916050 0.009138 -0.008263 400808.000000 1 0 0
-7.250547 -12.439839 -10.799233 17.998429 1.043083 2.214310 0.027109 -0.007761 -554759.000000 1 0 0
-7.176747 -14.365939 4.021367 16.554676 1.107495 1.325427 0.008461 0.003421 920064.000000 1 0 0
3.398053 -15.105539 -3.121633 15.794577 -1.349526 1.769746 0.019991 -0.008585 -220310.000000 1 0 0
-7.572847 -11.583839 7.843767 15.907797 0.991795 1.055173 0.018328 -0.005809 -2387570.000000 1 0 0
-12.701747 -12.299739 -0.963833 17.707256 0.769320 1.625255 0.025795 -0.000606 -346653.000000 1 0 0
-1.840947 -13.681939 4.006667 14.374906 1.437047 1.288329 0.004447 0.000149 -2139260.000000 1 0 0
-3.068947 -14.025939 5.281067 15.298205 1.355386 1.218336 0.006514 0.000497 110307.000000 1 0 0
-14.304647 -10.265939 -4.369133 18.141162 0.622483 1.814028 0.028911 -0.015322 437208.000000 1 0 0
-6.326547 -8.807939 -10.437333 15.051342 0.947908 2.337061 0.020723 -0.006237 377880.000000 1 0 0
0.951053 -19.322039 2.374567 19.490620 -1.521615 1.448662 0.052485 -0.023733 60039.400000 1 0 0
6.393053 -13.990739 -8.234333 17.447525 -1.142179 2.062296 0.016730 -0.004093 -2461730.000000 1 0 0
-3.900547 -16.746039 -5.942133 18.192114 1.341953 1.903535 0.018065 -0.013646 -207607.000000 1 0 0
-3.536147 -13.659239 -13.332133 19.411978 1.317475 2.327873 0.039311 -0.007170 -909471.000000 1 0 0
-8.201947 -14.683339 -4.619333 17.441634 1.061383 1.838840 0.020200 -0.013038 200433.000000 1 0 0
-4.522847 -14.426939 10.213767 18.245924 1.267001 0.976672 0.019684 0.001432 -942675.000000 1 0 0
-0.286447 -12.190739 -10.002433 15.771646 1.547304 2.257774 0.011495 0.000127 920641.000000 1 0 0
2.488653 -17.051939 6.677167 18.480978 -1.425874 1.201135 0.036290 -0.020848 -2675690.000000 1 0 0
-2.738747 -19.246039 -3.481633 19.749241 1.429443 1.748014 0.033291 -0.023291 -1165170.000000 1 0 0
0.735753 -15.369339 -3.083733 15.692906 -1.522961 1.768588 0.020541 -0.008704 -394328.000000 1 0 0
6.103953 -17.997739 0.785467 19.020878 -1.243819 1.529490 0.035852 -0.007358 -500625.000000 1 0 0
-6.984647 -16.770039 3.839167 18.567679 1.176151 1.362528 0.018737 -0.000691 467757.000000 1 0 0
-5.231747 -13.648839 -9.524733 17.446562 1.204759 2.148304 0.026294 -0.007350 -117425.000000 1 0 0
5.794553 -15.161139 -2.117533 16.368290 -1.205730 1.700528 0.024496 -0.005113 -1579240.000000 1 0 0
-8.773347 -10.263039 -0.487933 13.510724 0.863494 1.606919 0.004328 0.004872 407681.000000 1 0 0
-7.219747 -18.305139 -2.892833 19.888975 1.195117 1.716763 0.033247 -0.026136 67894.700000 1 0 0
8.089553 -15.813839 -1.216133 17.804419 -1.097952 1.639155 0.025663 -0.005808 364946.000000 1 0 0
-8.069947 -10.342939 -9.461733 16.174821 0.908222 2.195635 0.028194 -0.010409 -1363150.000000 1 0 0
-9.189147 -15.059239 -7.014433 18.984819 1.022911 1.949241 0.051544 -0.016408 -592152.000000 1 0 0
-11.432847 -10.626639 -12.086333 19.741198 0.748867 2.229686 0.047874 0.000164 -221056.000000 1 0 0
6.771753 -16.253339 2.539067 17.789731 -1.176030 1.427581 0.038874 -0.009751 438745.000000 1 0 0
-2.177647 -11.192539 -6.204533 12.981190 1.378635 2.069131 0.012643 -0.000979 -475763.000000 1 0 0
-12.575647 -15.307239 -3.500333 20.117425 0.883053 1.745682 0.050417 -0.016999 515765.000000 1 0 0
-0.203847 -19.406139 -2.822833 19.611429 1.560292 1.715236 0.059098 -0.037612 -288583.000000 1 0 0
-5.829247 -15.635939 -4.642233 17.320884 1.213946 1.842127 0.013814 -0.013533 -2294960.000000 1 0 0
2.077853 -16.119239 -1.047333 16.286320 -1.442598 1.635148 0.024876 -0.009796 1579520.000000 1 0 0
-13.083247 -11.967739 5.282667 18.501478 0.740898 1.281240 0.028376 -0.005188 266294.000000 1 0 0
2.191253 -15.359939 -9.113233 17.993897 -1.429092 2.101874 0.018190 0.004215 -1432170.000000 1 0 0
-11.558647 -16.899639 -0.199933 20.475353 0.970918 1.580561 0.060863 -0.019316 468840.000000 1 0 0
-7.752147 -16.510339 -1.117133 18.273890 1.131818 1.631967 0.029338 -0.013777 658139.000000 1 0 0
-2.920147 -14.574539 -1.851133 14.979023 1.373055 1.694695 0.013061 -0.003628 781466.000000 1 0 0
-1.757547 -10.470739 -13.214533 16.951378 1.404493 2.464751 0.013577 -0.004149 -107745.000000 1 0 0
1.503253 -19.465739 4.858367 20.119107 -1.493724 1.326905 0.051271 -0.020429 -194552.000000 1 0 0
-17.480947 -9.195839 2.470767 19.906071 0.484269 1.446354 0.051782 -0.009057 314634.000000 1 0 0
-2.684147 -15.622739 -8.091333 17.797311 1.400647 2.042762 0.015553 -0.010219 -1313470.000000 1 0 0
-10.403547 -12.256339 0.292767 16.079097 0.866982 1.552587 0.007700 0.007269 158041.000000 1 0 0
-6.885547 -11.575839 -6.702633 15.044470 1.034194 2.032553 0.018058 -0.006061 616481.000000 1 0 0
-2.145447 -13.601739 -6.719433 15.321913 1.414352 2.024782 0.011874 0.000639 739013.000000 1 0 0
-14.275947 -14.410939 -1.147233 20.317332 0.790104 1.627292 0.060506 -0.014069 119726.000000 1 0 0
-9.647547 -11.352139 -4.384233 15.529576 0.866393 1.857003 0.019654 -0.008082 908107.000000 1 0 0
9.568053 -15.064339 -5.074833 18.553594 -1.004934 1.847850 0.031903 -0.007929 140740.000000 1 0 0
-5.642947 -11.008939 -9.371933 15.520074 1.097136 2.219130 0.023255 -0.008683 -1262170.000000 1 0 0
-10.372247 -16.063539 -4.954033 19.752550 0.997449 1.824308 0.052812 -0.011631 79049.100000 1 0 0
2.185153 -17.457839 -3.345433 17.909298 -1.446276 1.758699 0.031034 -0.014976 227748.000000 1 0 0
-0.230047 -14.647139 -8.226333 16.800719 1.555092 2.082475 0.014876 -0.000429 -226031.000000 1 0 0
-0.623447 -18.349739 -7.199333 19.721359 1.536834 1.944486 0.030664 -0.014212 44197.800000 1 0 0
-1.686647 -9.872139 -10.582333 14.570164 1.401581 2.383722 0.007158 -0.001386 382109.000000 1 0 0
-5.115347 -17.373439 2.034767 18.224802 1.284453 1.458915 0.025135 -0.009429 -509418.000000 1 0 0
0.311153 -12.802339 -2.741033 13.096181 -1.546497 1.781656 0.010098 0.000485 -2251600.000000 1 0 0
2.767853 -14.889639 3.016667 15.442235 -1.387003 1.374180 0.022942 -0.008931 -1193850.000000 1 0 0
-9.429547 -13.115839 6.781067 17.519260 0.947469 1.173352 0.023283 -0.004732 -466333.000000 1 0 0
-0.957647 -17.797239 -4.677433 18.426534 1.517039 1.827447 0.039366 -0.022789 -169908.000000 1 0 0
-9.715147 -17.826239 -2.549333 20.461133 1.071807 1.695715 0.046083 -0.012739 640004.000000 1 0 0
1.481853 -16.256039 1.441167 16.386935 -1.479890 1.482736 0.022418 -0.012747 -12322.400000 1 0 0
-0.351447 -17.998739 4.116767 18.466886 1.551273 1.345980 0.037308 -0.012387 -792662.000000 1 0 0
-17.299447 -9.119939 -0.050533 19.556245 0.485155 1.573380 0.025685 -0.009542 712582.000000 1 0 0
-14.751547 -7.271239 -10.637333 19.586524 0.457962 2.144914 0.060858 -0.020563 765697.000000 1 0 0
2.900453 -12.730439 -8.951933 15.830786 -1.346784 2.171807 0.001596 0.004313 354369.000000 1 0 0
-11.892947 -14.967139 1.447267 19.171646 0.899354 1.495234 0.041389 -0.000001 -81225.700000 1 0 0
-2.215547 -15.641839 10.641167 19.047577 1.430090 0.978024 0.019438 -0.004452 892633.000000 1 0 0
-7.058547 -15.904639 1.310267 17.449854 1.153107 1.495638 0.022576 -0.006507 -1226330.000000 1 0 0
-12.467747 -15.087639 -6.092633 20.498823 0.880191 1.872575 0.057384 -0.015692 629766.000000 1 0 0
0.952553 -13.878439 -5.113233 14.821052 -1.502268 1.923033 0.013245 -0.002459 371673.000000 1 0 0
6.244253 -16.316239 -7.527633 19.023028 -1.205291 1.977639 0.045787 -0.020775 498842.000000 1 0 0
-6.458947 -12.965839 5.949567 15.659768 1.108629 1.181079 0.011812 0.001190 452269.000000 1 0 0
-2.575647 -13.643539 0.546467 13.895277 1.384211 1.531459 0.013224 -0.002215 2789320.000000 1 0 0
-4.316647 -15.573739 0.149467 16.161594 1.300409 1.561548 0.013538 -0.005789 334028.000000 1 0 0
-17.558647 -7.607839 -2.244933 19.267201 0.408864 1.687577 0.027556 -0.006863 564214.000000 1 0 0
1.071453 -12.791339 -12.118633 17.652978 -1.487227 2.327450 0.011252 0.003110 83472.600000 1 0 0
1.298753 -17.142939 -5.889733 18.172949 -1.495181 1.900850 0.039838 -0.014183 -1303380.000000 1 0 0
-12.735747 -6.465639 -9.083533 16.926734 0.469770 2.137244 0.031946 -0.009914 2287930.000000 1 0 0
-11.763247 -13.510639 -8.791533 19.955009 0.854427 2.027027 0.070227 -0.014819 658103.000000 1 0 0
-4.271247 -9.823739 3.553667 11.286184 1.160664 1.250478 0.002269 0.001092 -5216720.000000 1 0 0
-7.053347 -14.263339 9.697367 18.634148 1.111551 1.023467 0.028547 -0.009218 -985667.000000 1 0 0
-5.300347 -15.924739 -8.082833 18.628558 1.249492 2.019607 0.025250 -0.013117 -1062490.000000 1 0 0
-0.265047 -13.424739 2.105267 13.591395 1.551056 1.415273 0.011933 -0.004959 1060020.000000 1 0 0
-10.957847 -13.545239 -4.687733 18.042249 0.890603 1.833632 0.047197 -0.011706 -889538.000000 1 0 0
-9.646247 -10.527739 6.714867 15.778872 0.829065 1.131215 0.028191 -0.003077 -652091.000000 1 0 0
-15.495247 -8.043839 -4.743433 18.091605 0.478824 1.836087 0.044222 -0.016901 -753590.000000 1 0 0
-14.442747 -7.340939 5.559267 17.128566 0.470249 1.240249 0.032002 -0.011944 277060.000000 1 0 0
-1.598047 -19.343539 0.173667 19.410214 1.488370 1.561849 0.042691 -0.021154 -92242.900000 1 0 0
-15.265247 -12.139639 -1.407533 19.554533 0.671836 1.642839 0.044209 -0.003213 859563.000000 1 0 0
-4.403447 -12.254139 -6.873833 14.724260 1.225822 2.056507 0.014261 -0.005169 594845.000000 1 0 0
-7.529747 -18.415439 2.051567 20.000860 1.182656 1.468042 0.040345 -0.008556 457203.000000 1 0 0
-2.478947 -11.770939 -8.715133 14.854418 1.363231 2.197778 0.009575 -0.001794 347419.000000 1 0 0
-0.999347 -20.454239 -5.020333 21.085026 1.521977 1.811205 0.052072 -0.026127 -139926.000000 1 0 0
-5.319047 -8.954139 -13.793833 17.284059 1.034776 2.494876 0.020048 -0.006583 657335.000000 1 0 0
-8.324947 -19.107939 -0.721033 20.855166 1.159914 1.605377 0.036864 -0.016167 260933.000000 1 0 0
-17.056047 -7.342339 5.686467 19.420468 0.406506 1.273634 0.054199 -0.019050 -586644.000000 1 0 0
-3.502947 -14.728139 -4.341433 15.749182 1.337294 1.850073 0.013694 -0.004510 -1843280.000000 1 0 0
-3.151347 -15.043539 -11.158133 18.993235 1.364301 2.198737 0.023867 -0.003161 -43024.500000 1 0 0
0.016053 -16.599439 6.316467 17.760613 -1.569829 1.207193 0.034565 -0.011949 -2439420.000000 1 0 0
-11.086147 -11.549639 3.864767 16.469160 0.805871 1.333920 0.016750 -0.002222 -756806.000000 1 0 0
-0.119747 -14.747639 -0.162433 14.749019 1.562677 1.581810 0.017160 -0.005343 1712340.000000 1 0 0
-7.285047 -9.595839 -2.481133 12.300734 0.921441 1.773896 0.009044 -0.000295 -106427.000000 1 0 0
-11.083947 -14.429139 -0.936233 18.218959 0.915771 1.622207 0.029162 -0.009256 170683.000000 1 0 0
0.292253 -14.743239 -10.789733 18.272023 -1.550976 2.202482 0.013603 0.002748 2399.260000 1 0 0
-1.333947 -13.991239 -3.974833 14.605940 1.475742 1.846411 0.011924 -0.000677 -4181520.000000 1 0 0
-11.419847 -8.177839 -7.622133 15.980828 0.621455 2.067983 0.021059 -0.009196 761506.000000 1 0 0
-0.180447 -17.360039 -0.270633 17.363086 1.560402 1.586384 0.027905 -0.015601 -102984.000000 1 0 0
-12.791747 -9.513339 4.595467 16.590682 0.639463 1.290135 0.025324 -0.006490 -35978.300000 1 0 0
4.110853 -16.874139 1.809367 17.461657 -1.331833 1.466991 0.030756 -0.010746 86492.100000 1 0 0
-3.647747 -17.880239 -8.256033 20.029256 1.369548 1.995662 0.038324 -0.019925 150680.000000 1 0 0
-13.294447 -11.273039 2.600167 17.623410 0.703303 1.422715 0.018324 -0.003968 -334034.000000 1 0 0
-8.467047 -12.192639 4.211067 15.429984 0.963812 1.294375 0.013811 -0.002523 222048.000000 1 0 0
-8.305647 -9.579139 -5.887233 13.978669 0.856483 2.005518 0.012352 -0.007282 27019.500000 1 0 0
3.814553 -17.324039 -5.363233 18.532064 -1.354066 1.864399 0.015783 -0.009536 -397080.000000 1 0 0
-2.449447 -13.113439 11.369467 17.527888 1.386135 0.864987 0.001803 -0.002063 675645.000000 1 0 0
0.131053 -16.922639 -9.535033 19.424462 -1.563052 2.083893 0.024729 -0.003077 41305.800000 1 0 0
-6.975247 -10.841839 -14.546233 19.436883 0.999100 2.416417 0.035220 0.000509 -1071300.000000 1 0 0
-4.451047 -19.120739 -1.590433 19.696293 1.342083 1.651632 0.040052 -0.021854 -356396.000000 1 0 0
-2.526747 -17.210939 1.079967 17.428918 1.425027 1.508793 0.030626 -0.020050 307399.000000 1 0 0
4.111853 -14.684739 -7.571333 17.025686 -1.297780 2.031636 0.018523 -0.004909 631381.000000 1 0 0
-0.955747 -15.857539 -6.216633 17.059353 1.510598 1.943798 0.019198 -0.007698 -128760.000000 1 0 0
-9.481447 -15.226939 8.333667 19.778966 1.013870 1.135874 0.047595 -0.010990 -357824.000000 1 0 0
-7.282647 -12.082039 -1.754333 14.215847 1.028345 1.694519 0.005479 0.000020 1002960.000000 1 0 0
-7.365547 -15.117039 -9.467633 19.297985 1.117413 2.083577 0.042325 -0.009206 512106.000000 1 0 0
-5.053247 -13.313439 -0.689733 14.256882 1.208034 1.619194 0.007663 0.001149 1616840.000000 1 0 0
-6.498747 -13.902339 -7.314333 17.000241 1.133520 2.015565 0.021290 -0.010108 186782.000000 1 0 0
5.853653 -15.439239 0.414367 16.516871 -1.208400 1.545706 0.025014 -0.004712 710307.000000 1 0 0
-14.443547 -12.818839 0.958967 19.335416 0.725873 1.521180 0.021031 -0.003477 1032420.000000 1 0 0
0.991153 -15.102739 11.024967 18.724983 -1.505263 0.941243 0.016764 -0.014907 292616.000000 1 0 0
-9.262147 -10.800339 2.067967 14.377454 0.861918 1.426462 0.005145 0.004524 95753.400000 1 0 0
-9.474047 -8.905139 -3.531233 13.473258 0.754454 1.835986 0.007056 -0.005000 -532596.000000 1 0 0
-12.127847 -7.221839 -12.330133 18.742247 0.537086 2.288796 0.047985 -0.010194 -958924.000000 1 0 0
-13.243147 -8.433439 -0.508633 15.708677 0.567051 1.603181 0.012344 -0.005786 -147338.000000 1 0 0
-11.088847 -9.720439 0.499367 14.754621 0.719733 1.536945 0.002769 0.003663 417946.000000 1 0 0
-15.808847 -12.105339 3.002567 20.136392 0.653494 1.421127 0.057399 -0.005363 -2534.870000 1 0 0
-10.349547 -12.514739 -2.262633 16.396686 0.879814 1.709231 0.028214 -0.007887 670615.000000 1 0 0
-3.365647 -8.823239 -12.012133 15.279675 1.206381 2.475353 0.006580 -0.002416 -916267.000000 1 0 0
-0.160247 -15.524439 3.891667 16.005591 1.560474 1.325190 0.022662 -0.007777 -921094.000000 1 0 0
-15.661347 -7.762039 1.291667 17.526992 0.460136 1.497034 0.016645 -0.005425 417757.000000 1 0 0
-6.062747 -13.431639 -13.410633 19.925132 1.146797 2.309123 0.027464 -0.005725 -955706.000000 1 0 0
-15.350547 -10.365339 1.208567 18.561794 0.593916 1.505640 0.028732 -0.004556 449392.000000 1 0 0
-9.878047 -8.498639 -12.562633 18.100343 0.710476 2.337903 0.029689 -0.004427 572526.000000 1 0 0
-13.194247 -11.668539 -6.262533 18.693910 0.724110 1.912406 0.042398 -0.011678 -128846.000000 1 0 0
-12.176247 -11.511739 -3.808533 17.183889 0.757353 1.794286 0.027639 -0.006214 -2537760.000000 1 0 0
-11.679547 -10.925239 -8.950333 18.327060 0.752041 2.081014 0.047603 -0.024700 396543.000000 1 0 0
-13.207347 -8.528339 -5.827133 16.766695 0.573365 1.925745 0.023718 -0.011329 -1454290.000000 1 0 0
-13.381347 -8.218739 -3.150433 16.016658 0.550791 1.768785 0.018612 -0.010789 -34628.900000 1 0 0
-4.320947 -17.080139 -3.346033 17.933144 1.323014 1.758480 0.019436 -0.017032 363865.000000 1 0 0
-15.374047 -9.001839 -1.805633 17.906835 0.529706 1.671803 0.032546 -0.007544 -1707240.000000 1 0 0
-9.397147 -15.768639 3.678767 18.721369 1.033368 1.373008 0.028099 -0.002529 -702970.000000 1 0 0
4.668453 -17.349039 8.134867 19.722060 -1.307933 1.145626 0.056213 -0.021972 309715.000000 1 0 0
-8.231147 -15.466839 6.027867 18.528628 1.081737 1.239439 0.021290 0.002771 661391.000000 1 0 0
0.901053 -15.973239 8.538067 18.134355 -1.514446 1.080573 0.020552 -0.011037 -37634.300000 1 0 0
-10.821447 -7.902039 -10.189033 16.833369 0.630721 2.220924 0.030010 -0.009602 828694.000000 1 0 0
-4.730347 -15.975639 5.555067 17.562915 1.282924 1.248975 0.014571 -0.008265 -1495990.000000 1 0 0
-1.456447 -13.293539 -12.001833 17.968957 1.461671 2.302207 0.018362 -0.005872 -1908860.000000 1 0 0
-6.345947 -14.368239 -2.582433 15.918112 1.154895 1.733749 0.012751 -0.005447 356158.000000 1 0 0
-17.650347 -6.922939 -7.205233 20.282436 0.373787 1.933972 0.062190 -0.019355 86152.600000 1 0 0
-17.273247 -4.111639 -10.245633 20.499845 0.233686 2.094154 0.087945 -0.027785 440981.000000 1 0 0
-15.311147 -5.351239 -9.085833 18.590840 0.336229 2.081426 0.046564 -0.020689 -358953.000000 1 0 0
-16.001147 -5.545039 -5.622833 17.843778 0.333589 1.891374 0.032501 -0.011616 802439.000000 1 0 0
-15.266547 -4.455239 -12.355733 20.139036 0.283945 2.231309 0.088059 -0.024341 526041.000000 1 0 0
-18.638847 -5.202839 -5.626333 20.152711 0.272211 1.853741 0.046992 -0.020693 265538.000000 1 0 0
-17.320647 -4.429739 -7.658033 19.449238 0.250382 1.975498 0.047677 -0.021875 815965.000000 1 0 0
12.253553 -7.704439 8.715967 16.896035 -0.561292 1.028787 0.036915 -0.011242 385763.000000 1 0 0
15.981153 -3.258639 1.771467 16.405916 -0.201148 1.462608 0.032999 -0.015153 669085.000000 1 0 0
12.090753 -2.088939 12.635467 17.612637 -0.171083 0.770720 0.063157 -0.006344 433241.000000 1 0 0
9.694453 -9.924639 5.265067 14.839198 -0.797130 1.208088 0.001286 -0.005211 275771.000000 1 0 0
17.064353 -2.011439 7.199367 18.629786 -0.117332 1.174023 0.099431 -0.024172 -415512.000000 1 0 0
5.349353 -12.744739 9.108367 16.553135 -1.173398 0.988132 0.009506 -0.003658 -182237.000000 1 0 0
15.209053 -8.949139 -2.162133 17.778560 -0.531853 1.692713 0.040512 -0.008126 460048.000000 1 0 0
11.195553 -8.445739 6.433767 15.429331 -0.646301 1.140673 0.004526 -0.006811 -1665570.000000 1 0 0
20.004453 -2.907339 3.516167 20.518143 -0.144324 1.398578 0.141366 -0.030995 327827.000000 1 0 0
13.728953 -8.450439 6.930467 17.547804 -0.551753 1.164785 0.036087 -0.010347 -815464.000000 1 0 0
8.382753 -10.937639 8.807067 16.354416 -0.916873 1.002125 0.010544 -0.003861 -1108490.000000 1 0 0
16.761053 0.115461 -0.601833 16.772252 0.006889 1.606687 0.024883 -0.007334 626017.000000 1 0 0
12.580253 -12.381939 2.438867 17.819182 -0.777454 1.433498 0.021631 -0.008266 -2304240.000000 1 0 0
10.474653 -11.591739 3.675367 16.049769 -0.835979 1.339748 0.013204 -0.006608 -986907.000000 1 0 0
16.354653 2.892461 2.321467 16.769920 0.175048 1.431920 0.023615 -0.003939 466275.000000 1 0 0
18.342653 -3.284539 0.498067 18.641062 -0.177188 1.544074 0.071405 -0.022166 568206.000000 1 0 0
13.403753 -11.346039 -0.272633 17.563243 -0.702448 1.586320 0.035146 -0.009003 -625706.000000 1 0 0
16.942653 -7.503539 -0.830133 18.548469 -0.416916 1.615566 0.055754 -0.008815 306357.000000 1 0 0
10.284053 -5.628539 9.715767 15.226238 -0.500774 0.878776 0.016050 -0.007378 -703384.000000 1 0 0
11.532053 -13.262739 5.930967 18.548985 -0.855086 1.245335 0.036201 -0.010971 -287457.000000 1 0 0
13.152853 -1.607339 10.276567 16.768688 -0.121602 0.911143 0.052481 -0.009649 995109.000000 1 0 0
15.605453 -1.947439 -1.432133 15.791570 -0.124150 1.661611 0.019138 -0.007519 -292945.000000 1 0 0
10.621453 -12.249539 9.121367 18.602844 -0.856464 1.058338 0.048205 -0.018453 493960.000000 1 0 0
14.507353 1.265261 3.415167 14.957524 0.086995 1.340440 0.015268 -0.005219 1891090.000000 1 0 0
15.076553 -5.637439 5.247167 16.929735 -0.357824 1.255669 0.048795 -0.016613 -322921.000000 1 0 0
14.352053 -3.283639 -3.010133 15.027462 -0.224921 1.772469 0.015831 -0.004548 1308390.000000 1 0 0
14.018253 0.825661 9.494767 16.951216 0.058831 0.976262 0.068693 -0.010105 -828041.000000 1 0 0
15.547453 -3.341439 4.437667 16.510039 -0.211698 1.298664 0.039380 -0.012269 -1079630.000000 1 0 0
18.272253 5.072761 -4.292633 19.443118 0.270801 1.793409 0.021550 -0.007351 674527.000000 1 0 0
18.119753 -5.833539 -5.115133 19.710916 -0.311465 1.833309 0.088661 -0.017379 329080.000000 1 0 0
17.269453 0.138761 5.851467 18.234388 0.008035 1.244114 0.084678 -0.013607 391253.000000 1 0 0
17.092953 -6.627639 3.917467 18.746764 -0.369894 1.360277 0.082962 -0.019936 181223.000000 1 0 0
9.708553 -6.567939 14.258967 18.458384 -0.594787 0.688039 0.046638 -0.007529 -172626.000000 1 0 0
8.745453 -12.246639 5.233267 15.932677 -0.950663 1.236122 0.011825 -0.006554 -2000730.000000 1 0 0
16.924353 -10.058039 -0.494333 19.693710 -0.536213 1.595900 0.053520 -0.005976 298439.000000 1 0 0
14.860553 -8.641539 0.334067 17.193715 -0.526712 1.551366 0.034157 -0.006586 143396.000000 1 0 0
10.121453 -12.852539 1.556667 16.433343 -0.903720 1.475928 0.019266 -0.010898 -454743.000000 1 0 0
16.976753 -7.978939 8.818767 20.727862 -0.439354 1.131332 0.103237 -0.024450 666512.000000 1 0 0
19.080653 -0.145939 -1.766633 19.162818 -0.007648 1.663118 0.092673 -0.015492 -945946.000000 1 0 0
13.335453 -1.064839 7.776567 15.473952 -0.079681 1.044241 0.028170 -0.012658 -39712.700000 1 0 0
12.863653 -9.715439 -3.097633 16.415196 -0.646861 1.760640 0.024689 -0.004810 -550999.000000 1 0 0
8.913053 -15.171339 1.467267 17.656866 -1.039624 1.487601 0.034181 -0.007487 341588.000000 1 0 0
11.556853 -8.154739 11.072267 17.962620 -0.614487 0.906626 0.052954 -0.011842 -313288.000000 1 0 0
14.006653 -3.929339 -0.578233 14.558859 -0.273504 1.610524 0.014150 -0.006973 -799863.000000 1 0 0
7.442653 -13.085039 10.705467 18.472096 -1.053641 0.952622 0.029120 -0.004785 -681751.000000 1 0 0
15.397853 -6.609039 1.845667 16.857632 -0.405438 1.461091 0.025846 -0.010259 -143661.000000 1 0 0
15.912053 -6.147439 -2.623233 17.258788 -0.368674 1.723382 0.064198 -0.011106 -101769.000000 1 0 0
11.222753 -8.407639 3.823067 14.534594 -0.642963 1.304633 0.002536 -0.005121 614500.000000 1 0 0
10.771653 -14.468439 -0.420433 18.042754 -0.930829 1.594100 0.042285 -0.011159 846375.000000 1 0 0
13.766053 -12.761139 4.678467 19.345256 -0.747534 1.326534 0.034258 -0.005768 155281.000000 1 0 0
12.863353 -11.029839 6.508167 18.151568 -0.708810 1.204087 0.026553 -0.010643 155116.000000 1 0 0
10.997453 -10.473339 1.447067 15.255451 -0.760992 1.475798 0.009750 -0.002808 897412.000000 1 0 0
13.971553 -7.367839 11.817467 19.726679 -0.485284 0.928470 0.075197 -0.023378 -1174790.000000 1 0 0
15.387653 -1.780439 -4.943633 16.260053 -0.115193 1.879722 0.030889 -0.003105 -24943.900000 1 0 0
12.942353 -11.296439 -7.103233 18.589512 -0.717598 1.962875 0.056975 -0.007920 274841.000000 1 0 0
17.605853 -5.265939 1.875167 18.471936 -0.290632 1.469107 0.096297 -0.020179 374675.000000 1 0 0
10.694353 -9.679939 9.080367 17.044749 -0.735650 1.008965 0.026474 -0.006403 -976301.000000 1 0 0
16.313253 2.003161 10.080767 19.280994 0.122182 1.020624 0.128470 -0.008326 63344.400000 1 0 0
18.159253 3.874261 0.557167 18.576297 0.210198 1.540798 0.024033 -0.003887 545152.000000 1 0 0
13.384353 -3.898139 5.780467 15.091394 -0.283406 1.177721 0.014554 -0.012191 -739493.000000 1 0 0
12.180353 -6.054139 6.602067 15.119553 -0.461278 1.118916 0.009706 -0.010337 -126679.000000 1 0 0
16.601253 -10.095939 3.642967 19.768682 -0.546386 1.385457 0.046624 -0.011960 -370168.000000 1 0 0
16.252953 -7.979439 -5.562733 18.941328 -0.456384 1.868873 0.071596 -0.012226 178212.000000 1 0 0
13.901153 -0.400539 5.421967 14.926493 -0.028805 1.199048 0.019270 -0.005270 -268396.000000 1 0 0
18.439653 -4.164139 5.115767 19.583971 -0.222100 1.306508 0.126369 -0.027302 224319.000000 1 0 0
13.618753 -13.447539 7.241467 20.463274 -0.779073 1.209084 0.060056 -0.009319 -229457.000000 1 0 0
15.110053 -13.306139 -0.684333 20.145355 -0.722001 1.604773 0.051664 -0.013051 727785.000000 1 0 0
17.905453 -5.741639 7.891467 20.392325 -0.310305 1.173440 0.119017 -0.032238 554164.000000 1 0 0
14.351353 3.512961 9.342967 17.481226 0.240062 1.006931 0.065393 -0.006444 -890956.000000 1 0 0
18.848753 3.677661 2.960167 19.430987 0.192693 1.417858 0.079657 -0.011838 131950.000000 1 0 0
14.902653 -10.493739 8.147467 19.964690 -0.613507 1.150431 0.052868 -0.016767 -740357.000000 1 0 0
14.710253 -4.641539 10.316867 18.557294 -0.305644 0.981295 0.089270 -0.024041 21146.600000 1 0 0
17.864153 -7.866439 1.941367 19.615752 -0.414798 1.471664 0.108532 -0.021443 585165.000000 1 0 0
18.448953 -5.703939 -1.977533 19.411579 -0.299852 1.672847 0.074693 -0.018605 328344.000000 1 0 0
14.441753 -12.880439 -5.490833 20.115148 -0.728316 1.847275 0.066197 -0.012447 -380299.000000 1 0 0
15.557853 -1.192639 9.152667 18.089790 -0.076509 1.040305 0.124328 -0.022195 299192.000000 1 0 0
13.200153 -9.770639 10.041167 19.249271 -0.637194 1.022026 0.048670 -0.027300 -845295.000000 1 0 0
16.642153 2.368961 4.839967 17.492813 0.141397 1.290456 0.056341 -0.008379 -1024090.000000 1 0 0
14.931953 2.402561 0.077867 15.124205 0.159533 1.565648 0.006930 -0.000454 -1297600.000000 1 0 0
15.144053 -9.886539 -7.042733 19.408402 -0.578364 1.942143 0.067803 -0.008371 1284350.000000 1 0 0
16.244353 0.031861 -3.255133 16.567314 0.001961 1.768562 0.021993 -0.000396 160319.000000 1 0 0
11.980053 2.581461 13.689867 18.373842 0.212235 0.730151 0.090194 -0.009307 -204916.000000 1 0 0
17.491453 -2.878539 9.656167 20.186096 -0.163106 1.072013 0.109590 -0.027633 -383359.000000 1 0 0
7.979753 -18.084339 4.577467 20.289726 -1.155241 1.343232 0.071307 -0.021235 386568.000000 1 0 0
6.970053 -11.136239 6.654467 14.726825 -1.011558 1.101947 0.010354 -0.006415 -29222.700000 1 0 0
18.041953 2.223161 -1.506433 18.240720 0.122604 1.653477 0.025571 -0.004512 716643.000000 1 0 0
17.564453 -2.237939 3.512167 18.051418 -0.126730 1.374983 0.059084 -0.016442 -2604170.000000 1 0 0
12.739853 -13.325639 -1.923933 18.535858 -0.807868 1.674779 0.035804 -0.002718 1666200.000000 1 0 0
14.960253 -8.126539 4.345167 17.570722 -0.497614 1.320908 0.032846 -0.011309 -74293.500000 1 0 0
11.567753 -3.028839 14.970067 19.159584 -0.256086 0.673993 0.093770 -0.017362 160745.000000 1 0 0
12.191753 -13.675739 -6.510133 19.443418 -0.842704 1.912215 0.038546 -0.011884 290956.000000 1 0 0
10.630453 -11.960539 -1.179833 16.045343 -0.844207 1.644394 0.017366 -0.005381 -1064000.000000 1 0 0
13.178453 -7.922139 2.143567 15.525037 -0.541260 1.432282 0.018561 -0.003816 -550663.000000 1 0 0
8.884753 -7.688439 10.064967 15.471085 -0.713339 0.862466 0.011835 0.001748 -1443140.000000 1 0 0
15.590453 -3.603039 8.035067 17.905485 -0.227118 1.105431 0.091914 -0.027004 -859043.000000 1 0 0
10.362853 -17.152039 5.617167 20.811865 -1.027312 1.297505 0.068382 -0.016044 1233010.000000 1 0 0
15.234453 -6.152739 8.222567 18.372680 -0.383838 1.106780 0.069632 -0.019878 899365.000000 1 0 0
16.547753 -4.926539 -0.381233 17.269749 -0.289361 1.592873 0.037797 -0.011987 -1161700.000000 1 0 0
14.032553 -10.413139 3.460367 17.813482 -0.638407 1.375298 0.024395 -0.008683 -795250.000000 1 0 0
15.032153 -9.977339 -4.484933 18.591060 -0.585969 1.814441 0.058461 -0.009470 317725.000000 1 0 0
13.642353 -6.490639 -0.056333 15.107791 -0.444077 1.574525 0.019899 -0.005514 -48188.400000 1 0 0
17.860353 -0.841139 -4.886733 18.535908 -0.047061 1.837586 0.080585 -0.008517 279631.000000 1 0 0
14.355953 0.338661 -1.662333 14.455844 0.023586 1.686045 0.007226 -0.003078 -1962090.000000 1 0 0
5.033253 -12.915039 11.658767 18.112391 -1.199183 0.871486 0.005933 -0.000132 -129382.000000 1 0 0
12.008853 -7.462539 13.495067 19.545303 -0.556021 0.808684 0.065313 -0.017252 -15880.300000 1 0 0
12.107253 -5.652839 11.584567 17.684523 -0.436816 0.856524 0.050046 -0.013414 540566.000000 1 0 0
13.229353 -4.506539 8.296567 16.252929 -0.328318 1.035070 0.037875 -0.017043 -1725540.000000 1 0 0
15.331853 -1.098939 3.245367 15.710054 -0.071554 1.362719 0.030205 -0.007439 1381300.000000 1 0 0
15.202553 -10.220239 5.710167 19.187936 -0.591873 1.268627 0.046035 -0.015882 -29429.700000 1 0 0
13.657553 -8.149839 -5.827233 16.938278 -0.538010 1.921999 0.049668 -0.006635 -527400.000000 1 0 0
9.621853 -1.982139 13.660367 16.826008 -0.203162 0.623465 0.028534 -0.004833 -1458640.000000 1 0 0
9.832953 -9.150739 13.706367 19.190818 -0.749477 0.775295 0.066167 -0.008299 -155044.000000 1 0 0
20.202453 6.308061 -3.031633 21.380401 0.302650 1.713071 0.131961 -0.004031 -436980.000000 1 0 0
11.247853 -3.473639 10.526267 15.791854 -0.299535 0.841208 0.022639 -0.004556 1185160.000000 1 0 0
10.350453 -13.910239 -2.929733 17.584367 -0.931089 1.738187 0.026779 -0.000840 278319.000000 1 0 0
15.071053 -12.659639 2.460467 19.835750 -0.698658 1.446434 0.039200 -0.005765 717830.000000 1 0 0
11.439353 -0.407739 14.475167 18.454146 -0.035628 0.669091 0.082197 -0.012535 356475.000000 1 0 0
19.114653 -1.668039 5.640467 19.999179 -0.087044 1.284882 0.145679 -0.028243 627750.000000 1 0 0
18.959353 -0.321139 7.845467 20.521002 -0.016937 1.178497 0.148544 -0.028771 104602.000000 1 0 0
19.031653 0.914961 0.571367 19.062199 0.048039 1.540818 0.071193 -0.016114 327604.000000 1 0 0
18.400953 0.761061 3.630967 18.771207 0.041336 1.376137 0.063839 -0.017176 10753.400000 1 0 0
16.740853 -3.807139 -4.154433 17.663798 -0.223613 1.808215 0.056470 -0.010049 -1203630.000000 1 0 0
11.032153 -8.220139 15.733467 20.900265 -0.640362 0.718509 0.101956 -0.017254 376644.000000 1 0 0
16.604453 -7.416839 6.277967 19.238769 -0.420088 1.238390 0.078525 -0.020446 466446.000000 1 0 0
18.951553 2.206661 5.819867 19.947470 0.115915 1.274730 0.102839 -0.010195 635688.000000 1 0 0
15.390853 2.096061 7.623867 17.303039 0.135356 1.114520 0.076297 -0.009004 77091.300000 1 0 0
8.965453 -15.638739 3.942067 18.452354 -1.050252 1.355502 0.038003 -0.018054 747786.000000 1 0 0
11.425553 -15.159339 1.947367 19.082480 -0.924933 1.468568 0.046108 -0.009758 -241733.000000 1 0 0
8.035753 -16.039539 6.158767 18.967618 -1.106352 1.240103 0.046148 -0.019116 -679920.000000 1 0 0
14.640053 -11.530239 -2.505333 18.803038 -0.667123 1.704435 0.043194 -0.005710 1019800.000000 1 0 0
13.712753 -4.759139 3.202167 14.864147 -0.334053 1.353665 0.014134 -0.006609 -631669.000000 1 0 0
-1.191447 10.191561 -5.500933 11.642497 -1.454419 2.062907 0.002699 0.000372 -1340910.000000 1 0 0
8.374753 -1.489739 -7.792033 11.535666 -0.176043 2.312403 0.005403 -0.003656 -2922440.000000 1 0 0
2.948253 -10.092839 7.615167 12.982617 -1.286591 0.943984 0.003000 -0.003004 560098.000000 1 0 0
-6.132447 1.202761 8.314067 10.400829 -0.193672 0.644557 -0.000275 -0.002718 -530369.000000 1 0 0
7.169053 -6.129639 -7.098433 11.804895 -0.707398 2.215939 -0.000340 -0.001748 -481324.000000 1 0 0
-11.372847 -4.534439 -4.154133 12.929022 0.379392 1.897901 -0.001259 -0.002035 -26648.100000 1 0 0
2.132253 -3.125139 2.939367 4.790916 -0.972055 0.910274 0.002947 0.000401 2579850.000000 1 0 0
-3.566647 -4.253239 8.888867 10.479645 0.872974 0.558213 -0.005831 -0.001885 -2721490.000000 1 0 0
-4.871947 -1.123639 -2.460533 5.572491 0.226671 2.028122 0.002665 -0.001532 -211452.000000 1 0 0
5.086353 -5.170339 -3.661033 8.124442 -0.793586 2.038256 0.001482 0.000103 221976.000000 1 0 0
2.668453 14.265061 -8.861633 17.004151 1.385871 2.118989 0.017265 -0.011868 -700335.000000 1 0 0
5.450953 -5.469239 13.596967 15.636591 -0.787073 0.516484 0.019454 -0.005920 -1346280.000000 1 0 0
-4.672847 -1.021639 9.876967 10.974230 0.215246 0.450993 -0.000486 -0.001229 -1640630.000000 1 0 0
-0.995547 11.894561 -2.723533 12.242930 -1.487293 1.795131 -0.001141 -0.000572 -518094.000000 1 0 0
3.038953 9.404961 -10.583933 14.481304 1.258264 2.390390 0.010020 -0.006796 -764091.000000 1 0 0
-10.738847 2.576261 1.245167 11.113523 -0.235451 1.458520 -0.004864 -0.003531 303998.000000 1 0 0
5.735053 -9.039439 -0.706133 10.728509 -1.005432 1.636662 0.000588 0.000218 655526.000000 1 0 0
-7.042947 5.399361 9.379467 12.912421 -0.654062 0.757740 -0.002527 0.002362 -198994.000000 1 0 0
-5.412847 -1.950239 5.159067 7.727763 0.345819 0.839814 -0.000279 -0.004232 689591.000000 1 0 0
6.720853 -3.645139 -7.382033 10.627855 -0.496961 2.338650 0.002647 -0.002458 328303.000000 1 0 0
6.249253 4.881561 11.106067 13.646521 0.663137 0.620068 0.001455 -0.003176 724785.000000 1 0 0
4.030153 -9.759839 3.684767 11.183653 -1.179191 1.235046 0.001438 -0.001205 752071.000000 1 0 0
-6.716247 6.553061 -5.736733 10.998213 -0.773101 2.119528 -0.000686 -0.002083 937934.000000 1 0 0
-11.082747 8.327661 5.273767 14.832055 -0.644401 1.207277 -0.003245 -0.005052 48748.000000 1 0 0
-9.088947 -5.514339 5.130867 11.804350 0.545337 1.121137 0.003919 -0.004159 -2161760.000000 1 0 0
3.189153 9.930561 -8.034033 13.165577 1.260055 2.227147 0.011120 -0.007879 754310.000000 1 0 0
-7.973447 -8.605239 6.183567 13.261316 0.823488 1.085708 0.007367 -0.001737 -2182100.000000 1 0 0
-7.699647 -5.785439 -7.522533 12.220653 0.644390 2.233891 0.006621 -0.004151 194831.000000 1 0 0
9.233153 -1.432839 6.995267 11.672099 -0.153956 0.928151 0.007289 -0.004473 518532.000000 1 0 0
-4.175847 -0.376239 -4.880533 6.434194 0.089856 2.431851 0.009106 -0.006087 -1030700.000000 1 0 0
9.165053 1.208761 -4.623733 10.336257 0.131131 2.034576 0.002315 -0.002654 -2759690.000000 1 0 0
-1.884747 -10.662239 10.654867 15.190846 1.395835 0.793436 -0.002255 -0.005427 206372.000000 1 0 0
-13.011347 0.247361 -2.657033 13.282175 -0.019009 1.772200 0.003898 -0.003631 -573313.000000 1 0 0
-9.722147 -5.334239 -6.039333 12.627264 0.501821 2.069488 0.005074 -0.002234 -1177920.000000 1 0 0
-5.913547 8.403261 -0.219433 10.277791 -0.957578 1.592148 -0.003631 0.002750 606708.000000 1 0 0
6.183853 9.671661 0.419667 11.487262 1.001924 1.534255 0.012510 -0.002497 543615.000000 1 0 0
-0.569847 -12.196239 -0.032433 12.209587 1.524107 1.573453 0.013809 -0.001254 343123.000000 1 0 0
6.172653 4.753761 2.402567 8.153050 0.656262 1.271672 0.001906 -0.000007 318602.000000 1 0 0
3.451653 -7.404339 -8.311233 11.653958 -1.134580 2.364804 -0.001104 0.001223 356155.000000 1 0 0
-6.427347 -9.854839 4.617367 12.639174 0.992875 1.196818 0.003818 0.001184 -2158930.000000 1 0 0
-0.051247 6.565661 -9.299833 11.384087 -1.562991 2.526838 0.008809 -0.006307 -1562720.000000 1 0 0
-17.274947 -2.916139 4.298767 18.039043 0.167231 1.330178 0.056565 -0.012487 855225.000000 1 0 0
-8.328347 0.808561 -9.200433 12.436362 -0.096782 2.403571 0.004023 -0.004605 -295101.000000 1 0 0
-9.946947 -5.965839 -11.813533 16.555741 0.540247 2.365364 0.013230 -0.003355 -3005310.000000 1 0 0
2.240553 9.376961 6.395467 11.569334 1.336252 0.985082 -0.001124 0.003816 723487.000000 1 0 0
-11.437247 1.523361 -1.162433 11.596659 -0.132414 1.671204 -0.002527 -0.004817 -1631090.000000 1 0 0
-6.046547 -5.448339 -3.011433 8.678356 0.733404 1.925172 0.011590 -0.003088 606362.000000 1 0 0
-6.836447 -8.347739 1.403367 10.880772 0.884602 1.441459 0.004706 0.000114 -471273.000000 1 0 0
-0.209947 10.928361 -7.800233 13.428209 -1.551587 2.190611 0.009369 -0.002507 276981.000000 1 0 0
-3.026347 9.450261 -4.182733 10.768541 -1.260876 1.969714 0.001271 -0.000231 181529.000000 1 0 0
3.458253 -4.750939 9.290067 10.992555 -0.941584 0.564000 0.002228 -0.000345 -1076820.000000 1 0 0
-9.084947 1.508561 -0.365033 9.216576 -0.164549 1.610413 -0.005632 -0.002710 -677482.000000 1 0 0
2.455053 3.659961 -10.320633 11.222213 0.979947 2.738013 0.006962 -0.006071 373846.000000 1 0 0
-13.635147 0.400061 1.208267 13.694422 -0.029332 1.482451 0.008646 -0.005553 -1221230.000000 1 0 0
9.544653 -12.529139 -5.119133 16.561559 -0.919788 1.885040 0.032093 -0.005374 -1826490.000000 1 0 0
-4.857447 9.419761 -8.286433 13.453314 -1.094695 2.234375 0.003142 -0.000385 -1212700.000000 1 0 0
-2.298447 7.219361 8.406267 11.316685 -1.262570 0.733523 0.002157 -0.000397 242112.000000 1 0 0
-10.763247 -1.323839 -4.453933 11.723377 0.122382 1.960505 0.001954 -0.001588 -3126020.000000 1 0 0
2.799353 -7.191339 9.522767 12.257031 -1.199576 0.681033 -0.002060 0.000900 -890654.000000 1 0 0
-16.030347 -6.427839 3.559867 17.634109 0.381350 1.367525 0.033737 -0.008875 785559.000000 1 0 0
-10.829947 -0.071939 6.172667 12.465743 0.006642 1.052765 -0.000044 -0.006502 -1616600.000000 1 0 0
-8.448847 9.863961 9.290767 15.968691 -0.862519 0.949842 0.002295 -0.008732 -387415.000000 1 0 0
0.337853 -6.082439 -3.664733 7.109182 -1.515308 2.112379 0.003074 0.003078 421295.000000 1 0 0
4.860653 1.638461 -2.905733 5.895234 0.325125 2.086211 0.003667 -0.002151 -377874.000000 1 0 0
0.367153 5.382761 3.883367 6.647515 1.502693 0.946923 -0.000860 0.003049 -2338600.000000 1 0 0
6.136853 -11.312539 -1.552433 12.963200 -1.073743 1.690841 -0.001434 -0.001435 -1922930.000000 1 0 0
6.443853 -13.438939 5.406067 15.854144 -1.123690 1.222829 0.014771 -0.008691 -57093.100000 1 0 0
8.300253 -8.109139 -6.030333 13.077356 -0.773752 2.050062 0.003558 -0.001887 567468.000000 1 0 0
-13.089847 -1.421839 -4.758133 14.000198 0.108197 1.917566 0.004838 -0.003321 -4463950.000000 1 0 0
-6.885647 -1.625839 -7.071533 10.003103 0.231873 2.355950 0.003033 -0.004897 -902726.000000 1 0 0
-5.780747 12.875461 -4.655633 14.861678 -1.148796 1.889425 0.002291 0.001975 354770.000000 1 0 0
-4.334747 6.856161 -6.715833 10.530878 -1.007007 2.262341 0.002592 -0.001849 -3184030.000000 1 0 0
-9.306547 -3.830739 -8.167733 12.961414 0.390481 2.252552 0.005639 -0.000384 825337.000000 1 0 0
-2.072147 -6.322439 9.177567 11.335553 1.254084 0.627280 -0.004667 -0.000814 -630559.000000 1 0 0
7.598253 -5.855539 10.107567 13.934981 -0.656582 0.759271 0.007358 -0.002831 486637.000000 1 0 0
9.699553 -4.892339 12.242167 16.367253 -0.467152 0.725802 0.026004 -0.004194 470193.000000 1 0 0
-6.541747 2.735961 -9.000433 11.458086 -0.396123 2.474315 -0.002085 -0.002897 -1193190.000000 1 0 0
7.439253 5.621461 8.984167 12.948304 0.647106 0.803976 -0.002967 -0.001131 885242.000000 1 0 0
12.661453 3.469561 11.373767 17.369883 0.267460 0.856881 0.064604 -0.002692 -935660.000000 1 0 0
-7.454447 -7.467039 -4.021333 11.291438 0.786242 1.934930 0.011432 -0.006118 -1495920.000000 1 0 0
2.259653 1.467861 -5.748333 6.348542 0.576091 2.703252 0.008125 -0.003988 714987.000000 1 0 0
12.758853 6.928161 -7.147933 16.182728 0.497459 2.028290 0.010694 -0.006502 -235835.000000 1 0 0
0.881453 -7.929939 1.013267 8.042860 -1.460096 1.444477 0.002431 0.002053 927338.000000 1 0 0
-10.172847 -6.161639 -8.526033 14.633723 0.544596 2.192756 0.010965 -0.003915 -389718.000000 1 0 0
-6.690947 0.304961 3.170867 7.410545 -0.045547 1.128644 0.001161 -0.004027 -1842470.000000 1 0 0
10.764853 -7.899539 1.271367 13.412723 -0.633070 1.475866 0.001295 -0.002069 -196613.000000 1 0 0
6.218853 1.199761 10.599867 12.347904 0.190582 0.538587 0.004401 -0.001302 -1149820.000000 1 0 0
-13.158047 5.375161 1.989267 14.352134 -0.387819 1.431744 -0.000657 -0.003616 43354.300000 1 0 0
2.015553 7.385361 3.715667 8.509536 1.304372 1.118928 -0.001844 0.001855 152779.000000 1 0 0
10.016753 -9.493739 -0.757333 13.821721 -0.758598 1.625617 0.001638 -0.000822 851340.000000 1 0 0
6.857253 -11.597039 -9.070933 16.241769 -1.036803 2.163366 0.002443 -0.002378 -1047490.000000 1 0 0
10.266053 3.588861 12.025367 16.213612 0.336305 0.735220 0.021812 -0.002043 -2129960.000000 1 0 0
-11.011747 -3.134439 -1.861933 11.599572 0.277311 1.732011 -0.003296 -0.000571 -1165990.000000 1 0 0
12.361953 1.136461 6.928867 14.216843 0.091674 1.061721 0.010962 -0.005528 -99277.400000 1 0 0
-9.684147 9.205261 3.050667 13.704967 -0.760052 1.346320 -0.002028 -0.002374 35128.000000 1 0 0
-6.669447 7.600861 -8.758133 13.377575 -0.850575 2.284566 0.000104 -0.002422 468921.000000 1 0 0
8.518553 5.491461 12.195467 15.857216 0.572603 0.693396 0.013915 -0.001094 -1349770.000000 1 0 0
1.289653 4.894161 -2.695733 5.734370 1.313145 2.060202 0.004723 -0.003733 485499.000000 1 0 0
1.266253 0.473761 9.588667 9.683511 0.358020 0.140074 -0.003291 -0.001852 758269.000000 1 0 0
2.406853 12.634061 -3.979133 13.462761 1.382547 1.870844 0.011008 -0.006720 457657.000000 1 0 0
1.950053 0.686861 13.061367 13.223986 0.338657 0.156987 0.000952 -0.001945 -18443.400000 1 0 0
-12.225547 -1.844239 0.943967 12.399851 0.149722 1.494595 -0.000731 -0.003692 -212468.000000 1 0 0
3.163053 8.812961 -1.231433 9.444025 1.226207 1.701561 0.008715 -0.002052 528543.000000 1 0 0
3.649653 -2.796439 -5.828533 7.423734 -0.653802 2.473689 0.004016 -0.000692 -1316010.000000 1 0 0
-7.690747 -7.192739 9.286467 14.039998 0.751950 0.848073 0.009497 -0.006132 -3496.210000 1 0 0
-7.133247 10.871861 -3.449133 13.452773 -0.990131 1.830080 0.001426 0.003436 125848.000000 1 0 0
0.289453 0.633561 2.482167 2.578049 1.142247 0.273585 -0.000291 0.002277 -2437180.000000 1 0 0
-7.067347 4.595561 -1.987933 8.661320 -0.576553 1.802379 0.001492 -0.002392 -690947.000000 1 0 0
-6.813947 -3.982239 -5.822933 9.807887 0.528888 2.206444 0.006851 -0.003958 300640.000000 1 0 0
2.998653 -6.140039 13.398267 15.040131 -1.116490 0.471618 0.000726 -0.004618 -991949.000000 1 0 0
-5.403447 -0.683039 -11.773133 12.971910 0.125741 2.708296 0.002910 -0.004348 -804984.000000 1 0 0
11.856553 2.479261 -0.621833 12.128943 0.206135 1.622087 0.000884 -0.001809 -1639880.000000 1 0 0
6.184453 -10.844739 10.786267 16.498466 -1.052522 0.858235 0.004054 -0.002166 287474.000000 1 0 0
-8.194247 6.351361 -10.457633 14.725745 -0.659373 2.360522 0.000770 -0.004225 393765.000000 1 0 0
2.880653 7.940561 11.064167 13.920002 1.222785 0.652053 0.001930 0.000069 782083.000000 1 0 0
-6.105247 -10.135639 -0.462033 11.841397 1.028647 1.609825 0.009752 0.004019 380570.000000 1 0 0
11.260653 4.367861 6.247867 13.598395 0.370021 1.093413 0.002596 -0.000506 -315297.000000 1 0 0
-7.980647 10.646961 1.426967 13.382255 -0.927570 1.463962 -0.010094 0.003224 576091.000000 1 0 0
4.303053 -2.676239 -3.487933 6.151763 -0.556396 2.173633 0.005514 -0.001396 -4686780.000000 1 0 0
6.390353 6.514861 6.409867 11.151969 0.795046 0.958468 -0.000333 0.001352 -5674500.000000 1 0 0
-0.475147 10.457061 -10.213733 14.625192 -1.525390 2.343908 0.005525 -0.002181 -300209.000000 1 0 0
13.944253 6.578561 -2.490433 15.618000 0.440814 1.730939 0.012681 -0.000007 892939.000000 1 0 0
1.335153 9.449061 -6.198833 11.379496 1.430426 2.146872 0.009044 -0.004582 154668.000000 1 0 0
0.604153 7.338661 7.303467 10.371190 1.488657 0.789490 -0.004230 0.003784 -302823.000000 1 0 0
12.245253 6.363461 2.015967 13.946468 0.479258 1.425738 0.006141 -0.001628 -1407350.000000 1 0 0
-6.905647 6.712761 -3.135033 10.128058 -0.771235 1.885505 -0.002960 -0.002254 519614.000000 1 0 0
1.031053 9.920361 11.068967 14.899620 1.467235 0.733400 0.004631 -0.000023 -2028550.000000 1 0 0
-3.716347 13.527761 -11.054833 17.861156 -1.302690 2.238178 0.005969 -0.000833 66422.900000 1 0 0
-9.960747 -5.556839 -2.241233 11.624030 0.508868 1.764822 -0.000237 -0.001596 -90691.200000 1 0 0
-4.020947 3.870761 -12.443533 13.637900 -0.766370 2.719962 -0.000773 -0.004806 -861431.000000 1 0 0
-3.247747 8.305961 2.375567 9.229311 -1.198060 1.310472 0.000010 0.002453 -2814150.000000 1 0 0
7.078753 9.037461 7.104967 13.500556 0.906342 1.016586 0.006774 0.004203 -1593490.000000 1 0 0
-1.387847 -2.326139 -8.191433 8.627666 1.032857 2.822237 0.007362 -0.007547 -1511750.000000 1 0 0
0.868353 -1.268139 4.851467 5.089101 -0.970382 0.306798 -0.000002 0.000109 -1079860.000000 1 0 0
2.827353 -8.728239 -6.156833 11.049103 -1.257531 2.161836 -0.002190 0.003465 422513.000000 1 0 0
5.274253 3.947061 8.919667 11.088620 0.642453 0.636134 -0.001926 -0.000509 437130.000000 1 0 0
6.163953 -7.415639 -2.769833 10.032845 -0.877312 1.850506 -0.001990 -0.000379 756237.000000 1 0 0
1.805653 2.385961 -8.198533 8.727493 0.922969 2.791647 0.008586 -0.008448 70817.900000 1 0 0
-5.401147 10.955361 -0.665133 12.232528 -1.112753 1.625197 -0.005700 0.003109 563177.000000 1 0 0
-5.483447 3.205361 -3.376133 7.193108 -0.528983 2.059358 0.001414 -0.000206 -430671.000000 1 0 0
1.802553 13.665961 -6.489733 15.235627 1.439652 2.010817 0.004227 -0.002344 923852.000000 1 0 0
-5.108047 -2.709639 2.649767 6.360468 0.487721 1.141095 -0.002855 -0.002106 684514.000000 1 0 0
10.371553 -3.269039 -1.863533 11.033063 -0.305336 1.740514 0.000849 -0.002023 -5668.230000 1 0 0
2.252853 -3.287939 6.938567 8.001850 -0.970081 0.521405 -0.000863 0.000484 -1571320.000000 1 0 0
-2.981447 9.932261 -11.654433 15.600149 -1.279176 2.414443 0.004183 -0.003227 -2003170.000000 1 0 0
0.465753 -2.042539 9.371667 9.602970 -1.346603 0.219927 -0.003150 -0.001111 147921.000000 1 0 0
9.449153 2.762561 5.081467 11.078788 0.284434 1.094303 0.001005 -0.001367 284340.000000 1 0 0
13.511853 2.029361 -4.991633 14.546645 0.149077 1.921061 0.010532 -0.003320 -1843420.000000 1 0 0
-6.387047 3.711461 7.684967 10.659645 -0.526400 0.765638 0.002547 -0.002308 -387597.000000 1 0 0
10.575253 0.138661 1.793267 10.727115 0.013111 1.402836 0.001415 -0.001993 2470120.000000 1 0 0
15.372853 6.620361 -4.621533 17.364111 0.406649 1.840198 0.022163 -0.004691 21443.400000 1 0 0
8.119353 -4.991439 -9.165533 13.222910 -0.551200 2.336654 0.008503 -0.000170 1328070.000000 1 0 0
4.474553 5.646061 -2.119833 7.509549 0.900640 1.856971 0.004935 -0.002505 405775.000000 1 0 0
-1.600547 -10.630539 1.494367 10.853720 1.421358 1.432675 0.010646 -0.000263 -819928.000000 1 0 0
-2.819047 12.229561 -12.952033 18.035087 -1.344243 2.371947 0.005841 -0.004935 772785.000000 1 0 0
8.276253 4.191961 -9.553033 13.316506 0.468838 2.370835 0.004583 -0.005140 -581856.000000 1 0 0
4.045153 7.666961 -8.990133 12.488717 1.085307 2.374398 0.008210 -0.006561 -1240080.000000 1 0 0
-1.759947 -5.109539 -2.376033 5.903417 1.239080 1.985025 0.006972 0.000574 747627.000000 1 0 0
-3.147747 -9.322639 6.945967 12.044350 1.245170 0.956114 0.000749 -0.000962 -3224680.000000 1 0 0
1.001353 7.227861 -1.414333 7.432700 1.433132 1.762249 0.006933 -0.003626 1165420.000000 1 0 0
0.592253 -0.499839 -2.145533 2.281209 -0.700978 2.794967 0.002770 -0.004056 -4529310.000000 1 0 0
4.125453 -6.500539 7.264467 10.585313 -1.005300 0.814437 0.004962 -0.001048 -780313.000000 1 0 0
-13.967847 3.857761 6.046867 15.701837 -0.269471 1.175474 0.002678 -0.007246 -1397700.000000 1 0 0
4.343553 6.546761 12.536267 14.794747 0.985013 0.559829 0.003276 -0.002746 -694960.000000 1 0 0
8.286653 10.189661 -7.240433 14.997389 0.888033 2.074622 0.030767 -0.010287 279822.000000 1 0 0
12.458653 5.425461 9.726167 16.710834 0.410711 0.949576 0.039827 -0.002777 663152.000000 1 0 0
7.503153 4.130861 0.318767 8.571052 0.503265 1.533597 0.002047 0.000996 -1137990.000000 1 0 0
-10.789647 -7.519239 -0.941333 13.184898 0.608638 1.642252 0.004076 -0.002590 -1346260.000000 1 0 0
10.288853 6.746761 0.398067 12.310067 0.580396 1.538454 0.003356 -0.001302 -307863.000000 1 0 0
14.695653 3.786861 4.009667 15.696495 0.252199 1.312483 0.028573 -0.008003 12094.700000 1 0 0
2.218053 5.666261 8.307367 10.297506 1.197683 0.632189 -0.007512 0.000774 563801.000000 1 0 0
4.143853 0.280961 11.757067 12.469125 0.067698 0.339581 0.000907 -0.000599 -1012840.000000 1 0 0
-1.191347 -1.755439 -0.705233 2.235671 0.974536 1.891723 0.002264 -0.002749 -1081170.000000 1 0 0
3.179653 -5.050839 -9.407633 11.141128 -1.008946 2.576251 -0.000396 0.000834 303579.000000 1 0 0
-3.962747 -5.367639 -1.346233 6.806413 0.934847 1.769898 0.005997 -0.001896 -1407530.000000 1 0 0
-1.210947 -8.673439 8.646467 12.306759 1.432077 0.791781 0.000221 -0.002966 -268662.000000 1 0 0
3.896053 8.703661 -5.950333 11.240081 1.149912 2.128672 0.010671 -0.003901 111380.000000 1 0 0
-14.217647 -1.884339 -2.729233 14.599347 0.131767 1.758845 0.005493 -0.003772 -1001800.000000 1 0 0
8.783753 -10.520639 -6.776633 15.289242 -0.875130 2.029994 0.001342 -0.003016 -163953.000000 1 0 0
14.741553 6.107661 1.554567 16.032267 0.392787 1.473679 0.009860 -0.005296 -1505770.000000 1 0 0
-5.791847 0.325461 -8.551433 10.333365 -0.056134 2.545536 0.004602 -0.006648 -423043.000000 1 0 0
-7.964247 -4.709739 -12.903133 15.877711 0.534042 2.519494 0.009599 -0.005417 1134470.000000 1 0 0
0.965153 -10.549739 11.994667 16.003142 -1.479564 0.723460 -0.005312 -0.001013 -674774.000000 1 0 0
0.049553 11.647961 3.222167 12.085521 1.566542 1.300918 0.002435 0.000264 -770462.000000 1 0 0
5.317853 -13.217739 -3.721333 14.725369 -1.188286 1.826282 0.010439 -0.003732 220418.000000 1 0 0
-7.539047 1.385161 -6.970833 10.360908 -0.181705 2.308785 -0.001546 -0.001069 526864.000000 1 0 0
1.495453 2.740361 4.103567 5.156086 1.071250 0.650355 -0.002460 0.000380 -1199680.000000 1 0 0
17.195053 5.486061 2.306867 18.195833 0.308840 1.443674 0.024776 -0.008755 -355743.000000 1 0 0
2.500753 -8.263739 -3.625233 9.364051 -1.276940 1.968328 -0.001712 0.003506 487559.000000 1 0 0
-0.241147 -9.572339 -0.638333 9.596629 1.545610 1.637362 0.012205 0.002396 -1014790.000000 1 0 0
0.623553 11.759961 -5.605333 13.042441 1.517823 2.015041 0.004581 -0.003235 -310607.000000 1 0 0
6.136653 -5.014239 7.797467 11.117625 -0.685079 0.793491 0.003598 -0.000491 -1011680.000000 1 0 0
-6.060847 -2.038639 -9.463233 11.421151 0.324474 2.547347 0.007060 -0.006596 -949792.000000 1 0 0
2.060053 -1.246739 11.300267 11.553969 -0.544232 0.209947 -0.002978 -0.000870 -523791.000000 1 0 0
18.048053 2.154561 -5.818233 19.084711 0.118817 1.880592 0.074443 -0.003246 281516.000000 1 0 0
-8.964547 4.477461 7.778567 12.685301 -0.463218 0.910697 0.004577 -0.004432 14384.400000 1 0 0
11.418353 -7.025239 -4.976833 14.300407 -0.551564 1.926255 0.017263 -0.006691 573333.000000 1 0 0
10.749553 0.692261 9.047767 14.067487 0.064310 0.872167 0.008942 -0.002407 234317.000000 1 0 0
-8.357047 -7.426739 -1.557733 11.288189 0.726526 1.709235 0.006113 -0.003535 -667716.000000 1 0 0
10.338453 -10.423239 -3.226933 15.031321 -0.789482 1.787161 0.014363 -0.006026 1820670.000000 1 0 0
7.773353 -13.801039 -3.731433 16.273207 -1.057842 1.802154 0.019118 -0.008192 -2449980.000000 1 0 0
1.870353 -1.051139 -11.604133 11.800806 -0.512010 2.958767 0.005884 -0.008597 695474.000000 1 0 0
-11.822147 -2.722739 -6.434233 13.732291 0.226361 2.058442 0.005058 -0.001799 -297966.000000 1 0 0
2.792453 -12.203539 -6.437733 14.077235 -1.345846 2.045770 0.003475 0.004570 689225.000000 1 0 0
-5.553747 1.443461 1.170267 5.856382 -0.254282 1.369614 0.003019 -0.003619 131961.000000 1 0 0
0.098653 6.873961 -3.999233 7.953297 1.556446 2.097677 0.007891 -0.004443 958197.000000 1 0 0
5.549753 -11.777039 3.719667 13.540100 -1.130424 1.292503 0.001924 -0.006168 -3800610.000000 1 0 0
-4.315547 -9.223439 1.106167 10.243016 1.133166 1.462593 0.007137 0.000437 -1363510.000000 1 0 0
7.203253 -6.196839 -4.631333 10.570568 -0.710434 2.024319 0.003470 -0.001062 -133035.000000 1 0 0
-6.937847 -6.006739 2.223167 9.442304 0.713591 1.333117 0.002354 -0.000886 -241552.000000 1 0 0
-6.345347 -0.931639 7.027667 9.514173 0.145781 0.739727 -0.001371 -0.005003 -2591010.000000 1 0 0
4.152153 -4.976739 3.254267 7.252486 -0.875481 1.105474 0.000150 0.001388 111379.000000 1 0 0
-2.640847 10.480361 -8.792533 13.932720 -1.323954 2.253729 0.003881 -0.001235 313262.000000 1 0 0
-2.317747 -4.879939 2.758767 6.066016 1.127385 1.098659 -0.000061 0.001963 729213.000000 1 0 0
15.159253 5.145661 6.332467 17.215717 0.327237 1.194121 0.054943 -0.012926 119582.000000 1 0 0
6.699353 0.318261 0.058767 6.707166 0.047471 1.562034 0.000695 -0.000595 4098050.000000 1 0 0
-9.687847 9.076061 0.396267 13.281050 -0.752805 1.540955 -0.004353 -0.002131 -1821540.000000 1 0 0
7.200653 10.457861 -2.600933 12.960753 0.967803 1.772846 0.006796 -0.002873 -129919.000000 1 0 0
1.659753 -4.249839 -5.400833 7.070000 -1.198467 2.440144 0.003792 0.001084 64170.100000 1 0 0
0.935153 -8.126639 -7.904733 11.375481 -1.456228 2.339066 0.001827 0.002327 1254250.000000 1 0 0
-10.363147 0.237661 -10.441733 14.713296 -0.022929 2.359840 0.009167 -0.006602 -3039650.000000 1 0 0
5.969553 -2.494739 0.439367 6.484776 -0.395850 1.502991 0.003101 0.001296 -420201.000000 1 0 0
-3.397547 5.228461 -1.344433 6.378686 -0.994549 1.783158 0.002186 -0.002642 694232.000000 1 0 0
-0.508747 4.581761 -5.032833 6.825010 -1.460212 2.400025 0.006847 -0.005341 -693157.000000 1 0 0
4.047053 -9.624939 10.021167 14.472107 -1.172764 0.805921 -0.001073 -0.002389 -1799290.000000 1 0 0
7.325053 -13.477639 -0.638333 15.352870 -1.072960 1.612386 0.018070 -0.005594 826043.000000 1 0 0
13.055153 -0.007239 0.584567 13.068236 -0.000554 1.526049 0.002623 -0.004825 324380.000000 1 0 0
9.271353 2.439361 -0.582433 9.604566 0.257276 1.631475 0.001911 -0.001188 14362.100000 1 0 0
-0.770947 -5.835039 4.431567 7.367552 1.439433 0.925422 -0.002467 0.000937 -745333.000000 1 0 0
11.471753 -3.640039 3.335567 12.489075 -0.307256 1.300436 0.003770 -0.006002 -1571630.000000 1 0 0
1.734353 -8.077939 11.705467 14.327562 -1.359305 0.614626 -0.008443 -0.001373 59200.000000 1 0 0
9.442853 -5.789439 -6.001133 12.597566 -0.549998 2.067321 0.004651 -0.004466 -337398.000000 1 0 0
3.096353 6.318761 -0.183333 7.039017 1.115160 1.596845 0.002249 0.000103 -1600490.000000 1 0 0
6.313553 -1.297739 11.421167 13.114425 -0.202725 0.513794 0.004666 -0.000323 232355.000000 1 0 0
-4.867447 -7.713439 -3.820533 9.888663 1.007869 1.967473 0.012889 -0.003867 78339.000000 1 0 0
-3.382247 -8.553239 -5.733033 10.838134 1.194232 2.128181 0.013919 -0.002278 -113734.000000 1 0 0
9.792453 5.278961 2.376467 11.375727 0.494424 1.360339 0.000271 -0.000570 22227.400000 1 0 0
8.818653 -1.319339 0.286767 8.921408 -0.148506 1.538647 -0.000026 -0.001335 1004430.000000 1 0 0
-3.893347 9.680461 9.265867 13.954418 -1.188407 0.844628 0.000095 -0.000549 105000.000000 1 0 0
-14.333247 -3.626939 -6.124433 16.003291 0.247841 1.963512 0.020302 -0.006636 -368215.000000 1 0 0
10.588653 6.217261 -5.978233 13.656983 0.530927 2.023882 0.004435 -0.006224 106503.000000 1 0 0
-1.739247 4.435061 2.826367 5.539233 -1.197068 1.035326 -0.001428 -0.000480 399047.000000 1 0 0
7.077253 -3.604339 2.533467 8.336499 -0.471048 1.262012 0.003915 -0.004020 -1927910.000000 1 0 0
8.313553 -11.202539 -1.622333 14.044358 -0.932362 1.686570 0.008523 -0.004551 -2004930.000000 1 0 0
4.503753 0.547161 1.847167 4.898490 0.120898 1.184145 0.002308 0.000921 496629.000000 1 0 0
-10.913747 2.150361 3.911667 11.791313 -0.194540 1.232647 0.001847 -0.007760 -253514.000000 1 0 0
-0.837747 -3.067239 4.345367 5.384421 1.304172 0.631698 0.000905 -0.000860 -32527.500000 1 0 0
8.544053 -8.608039 -8.591133 14.862932 -0.789129 2.187102 0.011539 -0.002330 -302373.000000 1 0 0
12.149253 -4.603739 1.000867 13.030752 -0.362213 1.493913 0.001931 -0.003016 423328.000000 1 0 0
2.949253 4.883661 3.542367 6.715401 1.027513 1.015142 -0.002840 -0.000183 -966405.000000 1 0 0
6.080053 7.541561 2.069167 9.905738 0.892283 1.360361 0.003392 0.000136 -442785.000000 1 0 0
-1.745547 -1.309739 -10.278633 10.507742 0.643713 2.932387 0.006214 -0.006375 1103250.000000 1 0 0
-0.884947 -8.652639 6.030967 10.584132 1.468876 0.964519 -0.001197 -0.000596 36315.300000 1 0 0
-4.322447 -0.273839 2.391767 4.947634 0.063268 1.066243 0.000458 -0.003213 88225.300000 1 0 0
-8.516247 6.050761 -7.965133 13.137029 -0.617736 2.222211 -0.001565 -0.004452 -750862.000000 1 0 0
6.397053 11.122561 -9.427733 15.922180 1.048855 2.204475 0.019886 -0.015547 2251.420000 1 0 0
-11.070647 -5.830939 3.204867 12.916278 0.484781 1.320051 0.007787 -0.002966 822603.000000 1 0 0
1.510053 -6.310139 2.990967 7.144508 -1.335908 1.138851 0.002432 0.001021 606357.000000 1 0 0
10.116753 2.227061 7.297467 12.671287 0.216680 0.957085 0.005790 -0.001053 -1081530.000000 1 0 0
-4.024347 -2.617539 -10.589733 11.627094 0.576674 2.715967 0.006312 -0.006777 -4655310.000000 1 0 0
-8.406147 11.798361 5.866767 15.629574 -0.951741 1.186008 -0.001219 -0.002672 -633514.000000 1 0 0
6.866153 6.068861 -2.942333 9.624576 0.723838 1.881481 0.005744 -0.001211 -3356790.000000 1 0 0
4.031453 -9.893439 -2.339033 10.936353 -1.183852 1.786338 -0.002923 0.001441 -2467620.000000 1 0 0
8.500053 -12.887739 -7.364833 17.105130 -0.987740 2.015913 0.017762 -0.005367 347966.000000 1 0 0
-1.337347 9.465961 3.601767 10.215951 -1.430446 1.210488 -0.001543 0.002915 -127850.000000 1 0 0
0.535253 -13.122139 4.643167 13.929681 -1.530029 1.230964 0.011005 -0.001896 -971338.000000 1 0 0
-11.282747 -7.058739 -5.088033 14.248307 0.559047 1.935955 0.006694 -0.008363 -38311.800000 1 0 0
3.463153 10.293461 -3.411833 11.383733 1.246251 1.875186 0.010193 -0.006222 -773288.000000 1 0 0
11.582653 -8.030539 -7.418733 15.927492 -0.606232 2.055314 0.040207 -0.006295 407945.000000 1 0 0
11.815153 -4.766439 -5.947233 14.060098 -0.383449 2.007535 0.014862 -0.004290 -404546.000000 1 0 0
1.456853 -10.379539 -2.713333 10.826792 -1.431349 1.824110 0.001532 0.004371 -814945.000000 1 0 0
2.424253 -12.053139 -3.996133 12.927654 -1.372314 1.885059 0.005653 0.004422 -1218770.000000 1 0 0
-7.606947 -5.729939 7.287067 11.991630 0.645578 0.917661 0.005375 -0.001920 -3342570.000000 1 0 0
-7.218547 -0.958539 9.390267 11.882901 0.132016 0.659606 0.002015 -0.002843 191790.000000 1 0 0
16.219053 2.737661 -7.498233 18.076946 0.167217 1.998514 0.060675 -0.005849 -78215.400000 1 0 0
-2.075447 6.278661 -5.506433 8.605224 -1.251548 2.265157 0.002867 -0.000219 74043.700000 1 0 0
7.673453 1.314261 8.427567 11.473145 0.169628 0.745797 0.006410 -0.000954 -945124.000000 1 0 0
7.889353 8.286461 -3.683733 12.019868 0.809943 1.882279 0.004656 -0.000794 277983.000000 1 0 0
8.008153 0.768261 3.937567 8.956851 0.095642 1.115626 -0.000219 -0.003495 472571.000000 1 0 0
-7.065947 5.791761 5.419267 10.622644 -0.686622 1.035423 0.004784 -0.006720 317628.000000 1 0 0
-6.041447 -2.116339 -4.498733 7.824102 0.336945 2.183381 0.007208 -0.004086 -1012980.000000 1 0 0
-15.082847 -2.231639 3.140567 15.567134 0.146893 1.367659 0.018448 -0.008187 -1316190.000000 1 0 0
1.201353 1.324761 -10.426933 10.579186 0.834212 2.971732 0.009502 -0.008995 414797.000000 1 0 0
1.544853 -9.205439 9.357667 13.217133 -1.404526 0.784141 -0.000074 -0.004091 -831090.000000 1 0 0
-0.148347 -6.876539 -1.193333 6.980891 1.549227 1.742583 0.005417 0.002722 645455.000000 1 0 0
-0.363147 -10.260639 -8.414133 13.274420 1.535419 2.257331 0.006202 0.001299 495644.000000 1 0 0
-4.428147 6.508761 3.842467 8.759967 -0.973390 1.116712 0.001385 0.002325 417793.000000 1 0 0
10.871053 -1.105039 -8.630333 13.924207 -0.101302 2.239294 0.017654 -0.005509 489193.000000 1 0 0
3.033053 -0.992939 6.301067 7.063199 -0.316376 0.468829 0.000024 0.001441 438904.000000 1 0 0
1.823753 -12.285139 6.897167 14.206394 -1.423421 1.063864 0.006357 -0.002045 -1019960.000000 1 0 0
2.936553 -4.986439 -1.333233 5.938470 -1.038573 1.797234 0.006155 0.002483 -1541580.000000 1 0 0
-1.145747 9.493261 -1.673233 9.707443 -1.450687 1.744027 0.002059 -0.003341 325283.000000 1 0 0
4.638753 -2.496839 2.584567 5.867897 -0.493782 1.114687 0.002735 0.000153 -1966630.000000 1 0 0
17.744553 6.923061 -2.579833 19.221172 0.371987 1.705421 0.017825 0.004789 432314.000000 1 0 0
-7.245947 3.365861 -5.431633 9.661025 -0.434860 2.167866 -0.002039 -0.001665 138249.000000 1 0 0
-13.659447 -6.156839 2.351567 15.166312 0.423468 1.415116 0.003677 -0.006084 -361194.000000 1 0 0
6.716953 -5.991039 3.037967 9.499434 -0.728338 1.245273 0.002340 -0.002890 878772.000000 1 0 0
-4.678947 2.090761 3.521067 6.217857 -0.420227 0.968807 0.004739 -0.003574 424252.000000 1 0 0
6.992453 -12.049039 -5.433333 14.953088 -1.044964 1.942667 0.009934 -0.004140 100986.000000 1 0 0
3.075753 -12.270839 3.197667 13.048326 -1.325201 1.323211 0.008309 -0.005412 241768.000000 1 0 0
3.178353 11.294661 -6.086033 13.217833 1.296487 2.049288 0.009172 -0.003960 220947.000000 1 0 0
-5.468847 -8.342739 6.450867 11.879531 0.990549 0.996763 0.002762 0.000924 508457.000000 1 0 0
-4.047647 6.504161 6.392867 9.977791 -1.014129 0.875374 0.003206 -0.000054 564836.000000 1 0 0
4.256453 4.316661 -6.905833 9.189205 0.792421 2.421153 0.007160 -0.004981 -1327700.000000 1 0 0
-0.251947 -2.752239 1.502167 3.145600 1.479508 1.072937 0.002351 0.000987 -1394970.000000 1 0 0
-13.265447 -0.981339 6.541967 14.823375 0.073843 1.113719 0.012995 -0.008473 -553391.000000 1 0 0
-0.409947 -9.382239 -5.988133 11.137872 1.527130 2.138429 0.006939 0.002874 513442.000000 1 0 0
2.099953 -1.574739 -3.883333 4.687204 -0.643432 2.547214 0.005921 -0.000426 -1741780.000000 1 0 0
11.359853 -1.898539 1.154867 11.575164 -0.165597 1.470859 0.002007 -0.003605 954507.000000 1 0 0
0.520453 -4.319739 -1.819933 4.716266 -1.450892 1.966962 0.005684 0.000641 -1861290.000000 1 0 0
1.237753 -7.282039 -11.253233 13.460883 -1.402432 2.560740 0.001671 0.000762 494859.000000 1 0 0
-4.523847 4.025561 -9.962833 11.658833 -0.727181 2.595443 -0.000319 -0.003977 126139.000000 1 0 0
-1.050047 5.771661 -2.105933 6.232947 -1.390833 1.915450 0.003852 -0.002375 -1883420.000000 1 0 0
-11.401247 1.672261 -3.802533 12.134420 -0.145635 1.889533 -0.001339 -0.001653 -922475.000000 1 0 0
-1.762947 -11.308239 4.180567 12.184473 1.416142 1.220575 0.010212 -0.001619 -17373.900000 1 0 0
-3.507547 -5.448939 -9.581333 11.567012 0.998854 2.546921 0.007043 -0.001665 -951726.000000 1 0 0
-12.905247 -3.859539 -8.406933 15.878223 0.290601 2.128764 0.022190 -0.002729 51704.300000 1 0 0
11.381653 4.433561 0.578067 12.228354 0.371453 1.523506 0.002812 -0.000259 4953.500000 1 0 0
-8.872647 -2.378139 -2.997033 9.662382 0.261875 1.886174 0.001679 -0.002103 -529598.000000 1 0 0
-2.515847 -6.160739 -6.332033 9.185795 1.183097 2.331358 0.007743 -0.000599 355517.000000 1 0 0
-0.116847 2.724061 -1.901733 3.324267 -1.527928 2.179831 0.006417 -0.004170 649574.000000 1 0 0
8.023253 6.085061 -5.138633 11.305136 0.648873 2.042652 0.005499 -0.003185 -966030.000000 1 0 0
-9.753447 -1.019139 -0.894333 9.847244 0.104112 1.661742 -0.003494 -0.001495 -744747.000000 1 0 0
6.209653 0.692861 -8.856033 10.838319 0.111118 2.527166 0.005723 -0.005390 398272.000000 1 0 0
-4.048447 2.413661 7.985167 9.272463 -0.537617 0.533229 -0.002997 0.001110 -682586.000000 1 0 0
-10.099947 -3.405039 1.515267 10.765652 0.325168 1.429577 -0.002716 -0.002340 1549090.000000 1 0 0
-1.794247 -8.217139 -7.821733 11.485652 1.355816 2.319924 0.007472 -0.000945 -787754.000000 1 0 0
-9.270047 -9.862439 4.278467 14.195307 0.816351 1.264636 0.005281 -0.000397 -626917.000000 1 0 0
-0.936947 -10.797839 7.319667 13.078559 1.484241 0.976810 0.006059 -0.002865 71477.500000 1 0 0
9.459953 3.769061 -3.718333 10.840781 0.379146 1.920900 0.002732 -0.002869 -1186060.000000 1 0 0
12.766953 -0.724739 3.117367 13.162002 -0.056706 1.331678 0.005974 -0.005478 -780444.000000 1 0 0
6.333853 11.944561 -6.901533 15.179637 1.083226 2.042784 0.022034 -0.006523 820040.000000 1 0 0
-11.877047 -0.149939 -6.528333 13.553814 0.012624 2.073345 0.002634 -0.001993 490689.000000 1 0 0
-7.611747 -6.745239 -11.333833 15.228024 0.725117 2.410245 0.016248 -0.007925 -2878190.000000 1 0 0
4.150453 6.074361 6.655867 9.920922 0.971384 0.835385 -0.003775 0.001627 -3907220.000000 1 0 0
-4.351347 -1.400439 -7.375733 8.677378 0.311371 2.586773 0.006791 -0.006702 -387609.000000 1 0 0
9.588853 9.336261 0.832567 13.409140 0.772052 1.508667 0.012945 -0.001611 -1464720.000000 1 0 0
-9.005147 3.904061 4.817867 10.933719 -0.409079 1.114481 0.002953 -0.007653 1686800.000000 1 0 0
-7.059247 7.807661 -12.107233 16.042993 -0.835697 2.425954 0.002359 -0.003770 -1530610.000000 1 0 0
11.184953 -3.490139 7.259567 13.783525 -0.302465 1.016101 0.010827 -0.007560 463886.000000 1 0 0
11.842453 7.007661 6.398967 15.175565 0.534324 1.135518 0.009442 -0.002578 99827.300000 1 0 0
-9.875747 -0.842639 -14.705133 17.733622 0.085118 2.548513 0.014726 0.000341 77921.800000 1 0 0
1.821253 -12.956339 12.095667 17.818216 -1.431143 0.824619 0.000079 0.000676 296824.000000 1 0 0
2.890953 3.047961 12.983767 13.646460 0.811829 0.312921 -0.002113 -0.001144 -886120.000000 1 0 0
-2.606847 -1.415939 11.019367 11.411704 0.497578 0.262979 -0.000758 0.000515 -842461.000000 1 0 0
2.684453 -10.087639 -8.255833 13.308851 -1.310711 2.239955 -0.005586 0.004076 -986032.000000 1 0 0
13.975453 3.792061 -7.399333 16.261708 0.264958 2.043186 0.018586 -0.006549 -2695460.000000 1 0 0
7.370353 -1.473339 4.990267 9.021951 -0.197300 0.984686 0.002989 -0.001729 172712.000000 1 0 0
-1.230047 8.836061 10.175867 13.532822 -1.432478 0.719797 0.000036 0.000754 -58416.900000 1 0 0
-12.220847 -4.702639 1.015967 13.133777 0.367339 1.493364 0.001938 -0.003103 261381.000000 1 0 0
-5.033847 4.764261 -5.236333 8.686598 -0.757891 2.217810 0.003890 -0.001134 -83986.600000 1 0 0
-11.162747 0.293461 1.951067 11.335771 -0.026283 1.397819 -0.007360 -0.003570 -3030740.000000 1 0 0
-1.577747 2.331361 -4.065433 4.944924 -0.975846 2.535961 0.007814 -0.006325 662527.000000 1 0 0
3.193053 -9.813739 13.062867 16.647629 -1.256234 0.668635 -0.005360 -0.000761 -1677050.000000 1 0 0
8.946753 4.733361 -1.430433 10.222291 0.486624 1.711190 0.002665 -0.002323 -1773190.000000 1 0 0
4.038353 2.327961 3.774267 5.997732 0.522933 0.890167 -0.004150 0.002734 -478493.000000 1 0 0
-5.333747 -3.242139 7.525867 9.777474 0.546174 0.692402 -0.002888 -0.003701 -261540.000000 1 0 0
1.778453 -5.727939 7.713667 9.771020 -1.269746 0.660895 -0.002782 0.000439 -1384700.000000 1 0 0
-5.833947 -6.287239 -9.751533 12.986790 0.822777 2.420191 0.011714 -0.004840 -229895.000000 1 0 0
-11.652347 -5.813839 5.531667 14.148401 0.462800 1.169106 0.010777 -0.006762 -208755.000000 1 0 0
10.525453 6.240561 4.563367 13.059636 0.535184 1.213839 0.001062 0.000851 -1364800.000000 1 0 0
1.541453 -3.721639 0.429767 4.051095 -1.178120 1.464510 0.008516 0.000083 -696561.000000 1 0 0
8.768653 4.447961 7.033667 12.089090 0.469436 0.949832 0.000977 0.002243 631531.000000 1 0 0
-7.887647 12.161761 3.479367 14.907361 -0.995433 1.335224 -0.008532 -0.000377 227263.000000 1 0 0
-6.374547 13.246361 -7.027233 16.293647 -1.122277 2.016715 0.013849 -0.002519 390451.000000 1 0 0
4.488453 -7.002239 -0.927433 8.368852 -1.000772 1.681844 -0.000255 0.001719 -631685.000000 1 0 0
-1.818847 -8.197539 11.079467 13.901886 1.352456 0.648525 -0.004343 -0.005586 -296244.000000 1 0 0
11.599453 8.796261 -5.758533 15.655102 0.648814 1.947479 0.030737 -0.008019 238886.000000 1 0 0
-3.341747 -2.942139 -1.839433 4.817361 0.721891 1.962576 0.006513 -0.002113 -2883370.000000 1 0 0
-2.043647 6.065461 4.767267 7.980799 -1.245811 0.930613 -0.001217 0.002669 -722159.000000 1 0 0
0.412753 -11.555439 -5.807333 12.939229 -1.535092 2.036236 0.007048 -0.002138 -1449500.000000 1 0 0
-8.937747 6.248461 -1.489133 11.006549 -0.610128 1.706508 0.000413 -0.001771 -825264.000000 1 0 0
2.869853 0.070561 3.910067 4.850738 0.024582 0.633304 -0.000312 0.001981 938541.000000 1 0 0
-10.200747 3.919061 -0.947633 10.968696 -0.366806 1.657298 -0.002950 -0.002600 119607.000000 1 0 0
6.430153 5.469561 13.657267 16.055650 0.704849 0.553632 0.013450 0.001191 -956337.000000 1 0 0
-8.723447 -1.524539 5.638667 10.498443 0.173016 1.003806 0.000229 -0.007823 -616807.000000 1 0 0
12.907153 -1.728539 -1.493133 13.107703 -0.133129 1.684957 0.005181 -0.004708 -1588240.000000 1 0 0
5.594853 -5.413339 5.347867 9.444908 -0.768911 0.968887 -0.000963 -0.002385 253776.000000 1 0 0
-8.928647 -1.244339 3.215767 9.571326 0.138473 1.228152 -0.001583 -0.005932 283824.000000 1 0 0
1.995253 5.482361 5.700467 8.156754 1.221757 0.796987 -0.002070 -0.000478 -1028550.000000 1 0 0
9.263953 3.113661 -7.340633 12.222954 0.324243 2.214999 0.003654 -0.005697 -468865.000000 1 0 0
2.265853 -2.334739 -1.433633 3.555334 -0.800370 1.985845 0.009938 -0.001657 -145085.000000 1 0 0
-6.322947 0.348661 -3.886433 7.430046 -0.055086 2.121245 -0.000707 -0.001185 -2692640.000000 1 0 0
-3.972047 4.202061 5.044367 7.673338 -0.813530 0.853448 0.001299 -0.001128 1115630.000000 1 0 0
-6.406547 1.684661 -12.336533 14.002570 -0.257138 2.648809 0.003097 -0.001939 -3792070.000000 1 0 0
-0.075047 3.214961 6.246567 7.025753 -1.547457 0.475431 -0.003230 -0.000951 1205290.000000 1 0 0
-8.737647 9.394761 -2.125533 13.004842 -0.821622 1.734975 -0.006026 0.004262 304241.000000 1 0 0
-1.233247 -3.768039 -6.105033 7.279453 1.254493 2.565626 0.004651 -0.001737 -51097.800000 1 0 0
-3.268447 7.079061 -3.060533 8.376319 -1.138250 1.944837 0.001125 -0.000192 1101430.000000 1 0 0
7.035153 -0.369939 -4.383733 8.297430 -0.052536 2.127422 0.005183 -0.001126 -121206.000000 1 0 0
-5.224247 -10.873039 6.929267 13.911523 1.122889 1.049395 0.000985 0.000616 589705.000000 1 0 0
9.752953 8.272061 -1.387133 12.863562 0.703425 1.678841 0.006726 0.000006 -538458.000000 1 0 0
13.733753 4.584361 -4.339433 15.114993 0.322173 1.861989 0.004577 -0.005204 855478.000000 1 0 0
4.689553 1.162661 -6.832733 8.368389 0.243026 2.526107 0.005394 -0.004156 -627519.000000 1 0 0
9.032153 -4.628439 3.617067 10.774294 -0.473550 1.228435 0.001228 -0.003636 -1006670.000000 1 0 0
-8.750647 -3.374739 -0.739733 9.407970 0.368080 1.649506 -0.000871 -0.002041 -179098.000000 1 0 0
-8.484047 -4.319939 -10.464333 14.147197 0.470968 2.403384 0.008076 -0.004549 -472965.000000 1 0 0
10.513153 -1.061839 10.746967 15.071536 -0.100660 0.776938 0.020698 -0.003759 938666.000000 1 0 0
2.297953 -11.554139 9.879867 15.374995 -1.374472 0.872918 -0.001049 -0.003412 1148170.000000 1 0 0
-6.309447 -10.592039 2.057067 12.499277 1.033561 1.405469 0.006102 0.001271 -477678.000000 1 0 0
-3.668347 -1.226039 6.613667 7.661627 0.322549 0.529183 -0.004007 -0.000285 97903.300000 1 0 0
4.950353 -7.444939 3.848467 9.733643 -0.983998 1.164317 0.001189 0.000646 480091.000000 1 0 0
11.435453 -9.506839 -5.338833 15.800402 -0.693565 1.915473 0.025388 -0.006467 631644.000000 1 0 0
11.330053 1.285461 11.471267 16.174439 0.112973 0.782402 0.035114 -0.003092 592722.000000 1 0 0
-10.127847 -3.487539 4.417567 11.586678 0.331634 1.179635 0.000912 -0.004286 616214.000000 1 0 0
2.041353 8.809261 8.892567 12.682585 1.343087 0.793768 -0.001758 0.004310 -122472.000000 1 0 0
6.567653 8.838361 4.097767 11.749144 0.931736 1.214536 0.008727 0.000110 2226590.000000 1 0 0
-4.351547 3.583961 0.441967 5.654739 -0.688970 1.492558 0.004950 -0.003482 -1523630.000000 1 0 0
4.889353 6.921961 4.291767 9.499399 0.955819 1.102022 0.001759 -0.000094 -1452720.000000 1 0 0
-8.321447 13.141361 1.114967 15.594390 -1.006304 1.499237 -0.008215 0.001813 -1238250.000000 1 0 0
8.787653 8.211361 -9.090033 15.075742 0.751510 2.218000 0.013983 -0.013625 -1128870.000000 1 0 0
7.083453 1.975961 6.112667 9.562658 0.272039 0.877309 -0.002792 0.001033 -385907.000000 1 0 0
11.589853 -6.113639 3.036467 13.450703 -0.485404 1.343086 0.003602 -0.003776 59298.900000 1 0 0
11.351753 4.810261 -2.039033 12.496342 0.400808 1.734700 0.002525 -0.002796 277478.000000 1 0 0
-4.068947 14.306961 -6.014333 16.044241 -1.293709 1.955041 0.001947 0.001407 949216.000000 1 0 0
7.231953 -2.882339 7.055067 10.506331 -0.379261 0.834557 0.005963 -0.003422 -821111.000000 1 0 0
-7.862847 -0.509939 0.918367 7.932705 0.064764 1.454766 0.001036 -0.003393 610099.000000 1 0 0
-3.223747 1.071261 10.776367 11.299125 -0.320823 0.305374 -0.002192 0.003144 -202737.000000 1 0 0
7.089153 -1.265539 -1.941133 7.458262 -0.176657 1.834094 0.006202 -0.002210 -1932460.000000 1 0 0
-7.924547 5.404161 2.993967 10.048246 -0.598510 1.268242 0.001953 -0.003734 988226.000000 1 0 0
9.530153 -2.048339 2.907867 10.172276 -0.211712 1.280890 0.000837 -0.003131 -2019140.000000 1 0 0
0.210453 3.549561 1.516567 3.865702 1.511576 1.167651 0.001450 -0.000431 -2873740.000000 1 0 0
-7.524447 -3.077839 3.860467 8.999645 0.388280 1.127458 -0.002687 -0.004321 514908.000000 1 0 0
-2.461847 8.429261 -6.714933 11.054568 -1.286640 2.223624 0.000818 -0.002675 -405114.000000 1 0 0
4.467053 9.803261 7.340067 13.035915 1.143237 0.972706 0.005965 0.007789 1349750.000000 1 0 0
-11.701747 -3.140239 6.757567 13.872876 0.262179 1.062023 0.014948 -0.011006 -318041.000000 1 0 0
-4.818147 2.267861 -5.631733 7.750752 -0.439927 2.384164 0.004644 -0.004185 252799.000000 1 0 0
-2.857647 2.734561 -1.763233 4.330469 -0.763391 1.990149 0.004723 -0.002544 1709580.000000 1 0 0
2.404553 5.224861 11.458867 12.821337 1.139481 0.465195 -0.001579 -0.003458 494287.000000 1 0 0
-0.781247 1.687461 4.574267 4.937792 -1.137207 0.386115 0.000706 0.000016 -551924.000000 1 0 0
5.075953 1.616461 7.727067 9.385404 0.308301 0.603584 -0.003888 0.000188 292282.000000 1 0 0
3.401853 -8.242039 1.956067 9.128527 -1.179352 1.354841 0.002853 -0.001046 2269250.000000 1 0 0
5.013053 6.536461 -4.703033 9.485491 0.916543 2.089567 0.009428 -0.004279 -2573370.000000 1 0 0
-4.185247 2.736161 -7.954833 9.395863 -0.579016 2.580420 0.006725 -0.005846 -144656.000000 1 0 0
-8.624547 -2.278839 -12.899633 15.683636 0.258323 2.536571 0.005756 -0.003872 112187.000000 1 0 0
-7.901247 8.039361 1.504967 11.372157 -0.794062 1.438069 0.002055 0.000030 -3270150.000000 1 0 0
7.312353 1.129061 -6.469533 9.828537 0.153195 2.289274 0.004514 -0.003097 134483.000000 1 0 0
9.003253 8.747561 5.515867 13.711425 0.770995 1.156788 0.005069 0.002377 342046.000000 1 0 0
9.391053 -1.053839 -1.293033 9.538049 -0.111750 1.706781 0.001845 -0.001267 1473170.000000 1 0 0
5.407553 0.162961 4.265267 6.889172 0.030127 0.903167 -0.001384 0.002364 -359171.000000 1 0 0
-4.166547 -7.381039 -7.931133 11.607873 1.056894 2.323007 0.013805 -0.005303 -1232800.000000 1 0 0
-2.267347 7.394861 -0.599633 7.757860 -1.273285 1.648167 0.000119 -0.000742 507946.000000 1 0 0
13.478553 -3.287039 -7.415733 15.731151 -0.239203 2.061679 0.030053 -0.003865 968930.000000 1 0 0
-4.735447 -5.122339 1.564267 7.149108 0.824625 1.350206 0.000832 0.000840 1029210.000000 1 0 0
-8.896647 1.316961 2.632067 9.370832 -0.146962 1.286087 -0.000702 -0.005786 -1393470.000000 1 0 0
-1.087547 11.281061 10.259867 15.287576 -1.474689 0.835072 0.003244 -0.004198 157853.000000 1 0 0
-8.491947 0.283961 7.437667 11.292152 -0.033426 0.851762 0.000649 -0.006491 193200.000000 1 0 0
-6.061547 12.881461 -2.129333 14.394737 -1.130974 1.719266 -0.006885 0.003121 -829698.000000 1 0 0
-12.920747 -0.881739 3.338067 13.374074 0.068136 1.318537 0.004605 -0.007027 690782.000000 1 0 0
-6.781147 12.744661 8.776067 16.894665 -1.081817 1.024580 0.013194 -0.010143 395485.000000 1 0 0
-8.047747 0.861061 -14.134533 16.287808 -0.106589 2.621551 0.005060 0.001643 -876768.000000 1 0 0
7.281153 2.991061 3.789567 8.736272 0.389778 1.122119 -0.001611 0.001414 -1085400.000000 1 0 0
-1.672147 0.539561 -2.140333 2.769157 -0.312128 2.454225 0.005733 -0.005023 660462.000000 1 0 0
-6.395147 9.638861 -10.361533 15.529550 -0.985006 2.301259 0.000821 -0.000903 -61524.300000 1 0 0
-10.180947 13.617061 5.298367 17.808670 -0.928794 1.268706 -0.011540 0.000313 758434.000000 1 0 0
-5.740547 8.287161 2.471867 10.379839 -0.964984 1.330345 -0.002471 0.001756 -1708610.000000 1 0 0
-2.334147 -10.837639 -1.266033 11.158203 1.358663 1.684503 0.013542 0.000583 152587.000000 1 0 0
-2.136847 -12.526339 8.862667 15.492648 1.401834 0.961786 0.003139 -0.000042 538019.000000 1 0 0
-14.692547 -6.471339 -1.595333 16.133637 0.414884 1.669841 0.021541 -0.006553 590556.000000 1 0 0
-2.660647 -9.338639 3.329467 10.265211 1.293243 1.240477 0.005230 0.000096 -980656.000000 1 0 0
4.642953 -2.648139 7.553267 9.253188 -0.518338 0.615841 0.002059 0.000630 129823.000000 1 0 0
-14.860247 -1.357539 -0.266333 14.924503 0.091101 1.588643 0.005959 -0.005940 -140023.000000 1 0 0
5.416953 8.871361 -2.816333 10.769223 1.022611 1.835390 0.008634 -0.001773 -565643.000000 1 0 0
-5.615547 -5.715339 8.427667 11.628630 0.794205 0.760148 -0.001295 -0.001402 -1317660.000000 1 0 0
3.492353 3.623161 7.122667 8.721021 0.803780 0.615086 -0.006121 0.000752 200857.000000 1 0 0
3.236453 2.326661 9.418267 10.227010 0.623293 0.400360 -0.001098 -0.003810 -57023.200000 1 0 0
9.959053 -3.134539 5.240067 11.681882 -0.304927 1.105639 0.006164 -0.005775 -644071.000000 1 0 0
6.548653 10.007561 -5.098433 13.001160 0.991355 1.973766 0.007918 -0.004701 352775.000000 1 0 0
-4.636647 12.055561 -8.567633 15.499658 -1.203630 2.156472 0.004706 -0.001598 -668779.000000 1 0 0
-3.147147 -7.239639 2.221567 8.200748 1.160730 1.296470 0.005274 -0.001298 1318910.000000 1 0 0
-7.372447 -4.002539 1.057767 8.455304 0.497380 1.445367 0.003427 -0.002502 1111840.000000 1 0 0
-1.970047 -3.952839 -10.872233 11.735053 1.108439 2.755732 0.010380 -0.006016 -945451.000000 1 0 0
-5.282447 8.247761 -4.485333 10.772559 -1.001149 2.000242 0.000300 -0.000061 -2384720.000000 1 0 0
-10.898847 -3.332639 -10.170233 15.274979 0.296750 2.299375 0.012345 -0.002164 387524.000000 1 0 0
4.770753 -11.460339 -7.804633 14.663279 -1.176332 2.132061 0.000103 0.003029 -961316.000000 1 0 0
-9.250947 -3.884439 7.255167 12.381694 0.397540 0.944733 0.005060 -0.005938 -747080.000000 1 0 0
-5.772647 -9.737739 -5.207133 12.460387 1.035679 2.001923 0.013367 -0.007573 296653.000000 1 0 0
4.829453 4.400661 -9.480233 11.513655 0.738976 2.538156 0.005145 -0.001016 -245009.000000 1 0 0
-3.404447 -7.124339 -14.005833 16.078241 1.125016 2.628244 0.005166 -0.002699 122578.000000 1 0 0
0.599753 -0.781039 -8.752933 8.808153 -0.915943 3.029559 0.009594 -0.009204 -213467.000000 1 0 0
-7.788847 2.208661 -2.874833 8.591216 -0.276313 1.912003 0.000321 -0.001829 -651914.000000 1 0 0
-2.325147 7.581261 -12.542533 14.839035 -1.273207 2.577809 0.000643 -0.006432 -232678.000000 1 0 0
-9.909247 8.758761 7.637267 15.272096 -0.723847 1.047105 0.001919 -0.007346 -137525.000000 1 0 0
-10.521747 -3.310839 -14.217333 17.994482 0.304857 2.481759 0.024525 -0.002969 -679453.000000 1 0 0
-3.187747 4.877661 7.984767 9.884828 -0.991936 0.630420 0.000254 -0.001177 -319767.000000 1 0 0
8.787953 -2.193539 -3.597833 9.745980 -0.244609 1.948902 0.004117 -0.001647 -5833590.000000 1 0 0
1.981953 -8.466839 -1.176933 8.775002 -1.340852 1.705325 0.004709 0.003373 -54250.800000 1 0 0
-13.570947 -2.963039 5.083567 14.791648 0.214963 1.219965 0.023751 -0.010273 247099.000000 1 0 0
7.103853 2.751061 -1.962133 7.866577 0.369478 1.822884 0.002035 -0.003029 1061780.000000 1 0 0
-11.163947 4.293861 8.783167 14.839642 -0.367177 0.937417 0.004664 -0.006002 -2351080.000000 1 0 0
-1.788247 -2.528639 7.996667 8.575461 0.955256 0.369506 -0.005484 -0.000927 -1307130.000000 1 0 0
3.150453 11.921861 -9.861233 15.789238 1.312444 2.245357 0.011970 -0.012483 811074.000000 1 0 0
3.657853 -4.935239 -7.068133 9.364559 -0.932970 2.426107 -0.000306 0.000455 172987.000000 1 0 0
8.334053 -13.749639 -9.799433 18.829177 -1.025882 2.118161 0.029330 -0.002234 107048.000000 1 0 0
-6.220947 -5.893939 -0.354933 8.576985 0.758412 1.612190 0.008589 -0.001835 -119000.000000 1 0 0
-1.073647 -4.041839 9.857667 10.708071 1.311159 0.401226 -0.006149 -0.000678 618160.000000 1 0 0
2.764753 3.222961 1.845367 4.629980 0.861774 1.160840 -0.003368 0.001206 -1233860.000000 1 0 0
-9.246547 13.346361 7.779867 18.004175 -0.964909 1.123960 0.002621 -0.012975 29698.100000 1 0 0
4.108053 -11.172739 -0.061433 11.904199 -1.218454 1.575957 0.005631 -0.001539 -303596.000000 1 0 0
-12.496047 -1.525539 -9.083233 15.523646 0.121481 2.195827 0.014180 -0.003863 450930.000000 1 0 0
-4.319847 0.868061 -13.648033 14.341667 -0.198306 2.829311 -0.000038 -0.001944 222329.000000 1 0 0
3.978753 -2.998039 4.936967 7.013726 -0.645745 0.789922 -0.000189 0.001797 126380.000000 1 0 0
1.651753 -1.184939 1.140967 2.331131 -0.622297 1.059340 0.006327 0.000059 481224.000000 1 0 0
8.197553 -8.864239 7.417167 14.170002 -0.824453 1.019911 0.008728 -0.004585 -616140.000000 1 0 0
-0.114247 2.245161 -6.332633 6.719825 -1.519954 2.800473 0.009208 -0.006221 -911649.000000 1 0 0
-3.757647 -9.883939 -3.411633 11.110868 1.207495 1.882892 0.013515 -0.002458 1056320.000000 1 0 0
-9.580847 2.153861 -5.509733 11.260058 -0.221133 2.082102 -0.003665 -0.001798 -2081880.000000 1 0 0
9.007653 -7.518739 5.257967 12.857506 -0.695548 1.149503 0.002513 -0.004593 1041330.000000 1 0 0
-5.469847 -4.322839 4.654567 8.382789 0.668800 0.982129 -0.004208 -0.001834 -778199.000000 1 0 0
-0.106047 -12.384939 10.395367 16.169775 1.562234 0.872533 0.000851 -0.000388 -2613700.000000 1 0 0
-14.164547 -8.312039 3.215767 16.735159 0.530672 1.377437 0.013419 -0.007304 -968249.000000 1 0 0
10.958053 -1.153739 -3.559533 11.579305 -0.104900 1.883261 0.011611 -0.002321 -213224.000000 1 0 0
-13.633747 2.972961 2.713667 14.215539 -0.214698 1.378723 0.004506 -0.006223 -808274.000000 1 0 0
-6.345347 6.124561 1.121267 8.889934 -0.767695 1.444332 0.001346 -0.000056 575366.000000 1 0 0
7.144553 -6.913639 -0.323633 9.947250 -0.768974 1.603337 -0.002924 -0.000486 700142.000000 1 0 0
-6.836347 7.903561 9.989067 14.456258 -0.857675 0.807945 -0.002316 -0.000916 246525.000000 1 0 0
-12.525447 -5.125439 -1.983733 13.678163 0.388414 1.716339 0.001827 -0.001647 -3039530.000000 1 0 0
-9.308647 -5.587839 0.241667 10.859708 0.540629 1.548541 0.000900 -0.001672 -1372850.000000 1 0 0
-1.874847 1.900961 2.215067 3.469183 -0.792314 0.878251 0.002621 -0.000936 130415.000000 1 0 0
-7.125347 7.310161 7.544867 12.693859 -0.798200 0.934313 0.001856 -0.003539 -100106.000000 1 0 0
5.522653 7.221261 -0.435333 9.101419 0.917905 1.618646 0.005055 -0.000754 -1386280.000000 1 0 0
-0.082147 -4.002939 7.441567 8.450277 1.550277 0.493606 -0.004425 -0.000178 -572136.000000 1 0 0
6.250453 0.748961 13.084967 14.520519 0.119257 0.448413 0.006806 -0.003959 223616.000000 1 0 0
5.698753 6.174361 -7.730433 11.417448 0.825434 2.314573 0.001745 -0.004088 -421566.000000 1 0 0
9.970853 5.434061 9.080567 14.539726 0.498992 0.896260 0.006327 -0.003589 -2959080.000000 1 0 0
-1.131447 -5.158139 -8.482033 9.991569 1.354864 2.584733 0.010748 -0.002292 949289.000000 1 0 0
10.074453 -3.486739 -7.997833 13.327313 -0.333194 2.214433 0.019156 -0.008417 692614.000000 1 0 0
8.600553 -5.367239 1.196667 10.208270 -0.557921 1.453301 0.003005 -0.001531 1247450.000000 1 0 0
15.807653 3.054461 -4.784933 16.796047 0.190874 1.859682 0.018743 -0.002127 -607902.000000 1 0 0
-6.974047 3.574161 1.152467 7.920868 -0.473593 1.424780 0.001689 -0.003636 594204.000000 1 0 0
-1.845647 3.876661 0.297367 4.303875 -1.126457 1.501648 0.004072 -0.003888 -857707.000000 1 0 0
-2.648647 10.053261 6.937367 12.498418 -1.313189 0.982362 0.002096 0.003845 489915.000000 1 0 0
5.513253 -5.730639 -8.796733 11.858275 -0.804729 2.406580 0.000076 -0.000665 102010.000000 1 0 0
-1.170847 -0.907439 6.239067 6.412510 0.659327 0.233111 -0.003032 -0.000558 -147315.000000 1 0 0
-5.756547 4.924961 -7.757733 10.843224 -0.707702 2.368058 -0.000096 -0.001680 27162.900000 1 0 0
6.824053 -1.153939 2.570667 7.382926 -0.167514 1.215156 0.000889 0.001218 -1005540.000000 1 0 0
8.762553 7.571161 3.209067 12.016777 0.712586 1.300467 0.004337 0.000336 -81851.400000 1 0 0
-5.140047 -5.018339 -7.658533 10.500330 0.773418 2.388184 0.012191 -0.006645 890936.000000 1 0 0
-2.267647 7.886461 -10.045033 12.970782 -1.290813 2.456619 0.005272 -0.004865 685936.000000 1 0 0
-2.735547 -2.064539 1.459867 3.725151 0.646507 1.168106 -0.002017 -0.000503 1536450.000000 1 0 0
6.110153 -1.966539 -9.273033 11.277871 -0.311378 2.536119 0.003506 -0.002249 1695750.000000 1 0 0
1.145853 -7.599439 5.099267 9.223176 -1.421142 0.984985 0.000136 0.000684 449836.000000 1 0 0
1.764153 11.645961 1.136867 11.833559 1.420457 1.474576 0.007571 -0.003115 330097.000000 1 0 0
-1.061447 6.971161 2.511967 7.485569 -1.419694 1.228581 0.000101 0.002969 645854.000000 1 0 0
8.703853 7.945761 -6.609733 13.512244 0.739898 2.081930 0.009977 -0.006586 -92099.500000 1 0 0
3.721253 -11.359839 5.516867 13.165465 -1.254233 1.138408 0.008011 -0.005386 426725.000000 1 0 0
8.043553 -7.022039 12.343567 16.320889 -0.717697 0.713150 0.019721 -0.003745 -340878.000000 1 0 0
-8.738347 -0.009539 -3.998833 9.609863 0.001092 1.999968 -0.003779 0.000567 -1308490.000000 1 0 0
-3.134147 -5.046239 11.237367 12.710854 1.015017 0.486282 -0.000709 -0.002742 1200260.000000 1 0 0
-8.170747 0.062161 -11.564733 14.160086 -0.007608 2.526489 0.006459 -0.004299 -2046640.000000 1 0 0
1.384253 -5.016239 5.295167 7.424123 -1.301543 0.776689 -0.002289 0.001582 -601673.000000 1 0 0
6.659053 3.838561 -7.537533 10.765312 0.522918 2.346430 0.004314 -0.004860 -1073040.000000 1 0 0
16.220453 4.218161 -1.167933 16.800596 0.254417 1.640370 0.009195 0.000308 -819361.000000 1 0 0
7.807253 7.524761 0.140667 10.844124 0.766975 1.557824 0.004909 -0.001374 -2588580.000000 1 0 0
5.468653 -10.463939 13.976567 18.296027 -1.089218 0.701442 0.005019 0.000217 270414.000000 1 0 0
-4.913647 -9.364639 8.957367 13.859106 1.087583 0.868049 -0.003866 -0.003766 654644.000000 1 0 0
-12.631747 -3.293739 2.874867 13.366922 0.255071 1.354030 0.004850 -0.005365 -556669.000000 1 0 0
-2.217447 -1.504139 -5.843033 6.428105 0.596027 2.711632 0.009012 -0.006607 -27359.900000 1 0 0
-2.528247 12.937561 -4.436933 13.908950 -1.377809 1.895469 -0.000267 0.003254 462589.000000 1 0 0
3.985953 -0.418139 -4.957433 6.374857 -0.104521 2.461722 0.004924 -0.001237 -119568.000000 1 0 0
-8.935347 3.584361 -7.445733 12.170744 -0.381492 2.229096 0.000696 -0.003994 310905.000000 1 0 0
-4.619347 7.972961 -11.402333 14.660139 -1.045679 2.461919 0.002979 -0.000792 -1523260.000000 1 0 0
-10.006247 -6.427339 7.506967 14.063791 0.570966 1.007732 0.006356 -0.002647 -1689470.000000 1 0 0
8.049153 5.322361 4.223767 10.533594 0.584231 1.158209 -0.002171 0.001543 -1143140.000000 1 0 0
-6.668747 -7.456439 4.098067 10.810403 0.841106 1.181989 0.004264 -0.001841 -754011.000000 1 0 0
-4.197447 11.929661 8.006767 14.968089 -1.232475 1.006380 0.000671 -0.002628 -117032.000000 1 0 0
-7.417647 9.902261 -7.899033 14.678930 -0.927880 2.139002 0.002960 -0.001432 -910923.000000 1 0 0
13.015553 5.463361 4.662367 14.865753 0.397421 1.251781 0.008901 -0.001984 426789.000000 1 0 0
5.367353 4.013061 -3.724333 7.667059 0.642015 2.078026 0.004939 -0.002373 749410.000000 1 0 0
-2.800547 -4.161239 5.030067 7.103559 0.978416 0.783985 -0.004328 0.000311 -1644650.000000 1 0 0
12.472853 -2.351639 -5.271833 13.743889 -0.186353 1.964462 0.011836 -0.005486 -2096510.000000 1 0 0
-5.286747 9.839261 6.999467 13.181551 -1.077747 1.011010 0.000363 0.001605 19339.900000 1 0 0
1.729553 3.859461 -0.490633 4.257642 1.149496 1.686289 0.001876 -0.000836 405271.000000 1 0 0
-0.091947 9.646761 7.658967 12.317801 -1.561265 0.899782 -0.000583 0.001844 -340420.000000 1 0 0
-5.437247 2.062061 5.922867 8.300368 -0.362489 0.776220 0.003049 -0.004994 491796.000000 1 0 0
8.806953 1.001861 10.780567 13.956603 0.113271 0.688130 0.015156 -0.000970 -1322820.000000 1 0 0
0.400553 -2.847239 -10.238733 10.634795 -1.431032 2.867821 0.007753 -0.007773 -1738590.000000 1 0 0
1.205053 10.612061 -2.661433 11.006872 1.457726 1.815014 0.008872 -0.004261 -1680010.000000 1 0 0
2.313253 -4.355739 11.641067 12.642707 -1.082594 0.400738 0.000305 -0.000705 -168208.000000 1 0 0
6.461353 -3.018539 9.427467 11.821074 -0.437039 0.647634 0.006049 -0.000547 280279.000000 1 0 0
-10.479047 -8.164339 5.607367 14.419064 0.661873 1.171375 0.011404 -0.002272 -922522.000000 1 0 0
-2.960647 0.778661 -6.920233 7.567124 -0.257180 2.725099 0.009130 -0.006490 937132.000000 1 0 0
11.152053 2.750761 -5.027933 12.538544 0.241832 1.983403 0.004174 -0.006230 -3197440.000000 1 0 0
-1.981947 -4.073739 0.020267 4.530328 1.117992 1.566323 0.001886 0.000159 785870.000000 1 0 0
-1.258147 -6.516339 -10.702933 12.593585 1.380067 2.586538 0.006136 -0.003833 323938.000000 1 0 0
0.246653 6.763561 -6.638333 9.480193 1.534345 2.346518 0.008133 -0.002961 -3368750.000000 1 0 0
1.927053 3.883961 -6.086133 7.472597 1.110228 2.522595 0.007305 -0.005321 -1333140.000000 1 0 0
1.699053 -14.707739 6.429967 16.141525 -1.455785 1.161080 0.017275 -0.009082 154423.000000 1 0 0
-1.721947 5.349461 -10.483333 11.894625 -1.259378 2.649509 0.005962 -0.003966 -63349.100000 1 0 0
13.629053 4.393461 -0.766433 14.340188 0.311842 1.624268 0.004173 -0.004817 -444362.000000 1 0 0
-2.421247 3.303061 -6.234633 7.459444 -0.938244 2.560392 0.010427 -0.007137 -1156120.000000 1 0 0
5.741353 7.870361 14.271567 17.279564 0.940551 0.598961 0.013336 -0.006886 590213.000000 1 0 0
15.985953 0.623061 -5.904433 17.052895 0.038956 1.924359 0.021224 -0.002129 331344.000000 1 0 0
6.273153 -8.178439 10.511667 14.721904 -0.916481 0.775579 0.001884 0.003784 631598.000000 1 0 0
0.022853 -5.938339 -6.359133 8.700745 -1.566948 2.390395 0.005491 0.000717 -1134080.000000 1 0 0
8.572453 5.630061 -7.562333 12.742583 0.581114 2.206159 0.003880 -0.006336 -489360.000000 1 0 0
-16.056047 -0.911039 5.322667 16.939818 0.056680 1.251172 0.035238 -0.015391 -211564.000000 1 0 0
-0.464247 3.992061 -12.354833 12.992074 -1.455024 2.827094 0.004121 -0.005434 568297.000000 1 0 0
-11.499347 3.722361 5.771667 13.394144 -0.313057 1.125296 0.003595 -0.009568 -880914.000000 1 0 0
5.232853 -9.593739 -9.619333 14.558645 -1.071457 2.292587 -0.004181 0.003463 -119445.000000 1 0 0
1.458153 11.250261 -11.628833 16.245749 1.441904 2.368577 0.008708 -0.003950 -1104390.000000 1 0 0
5.930353 2.428261 1.264667 6.531839 0.388638 1.375950 0.003288 0.000859 -485856.000000 1 0 0
5.676753 4.543461 5.061667 8.859404 0.674962 0.962668 -0.004102 0.000927 -493619.000000 1 0 0
0.339253 -1.563739 -6.326133 6.525361 -1.357157 2.893851 0.006488 -0.002930 139150.000000 1 0 0
12.653453 6.742861 -4.609333 15.060611 0.489610 1.881840 0.008766 -0.006480 41233.900000 1 0 0
7.249753 3.227761 12.826067 15.082618 0.418875 0.554075 0.010668 -0.002572 268805.000000 1 0 0
-2.445247 -0.196939 8.654567 8.995529 0.080366 0.276208 -0.007145 0.000082 825025.000000 1 0 0
2.329253 -15.176339 13.297767 20.311998 -1.418505 0.857043 0.010679 -0.004330 -501798.000000 1 0 0
18.716953 4.590061 -1.722533 19.348388 0.240489 1.659942 0.011909 -0.007758 351167.000000 1 0 0
-0.403947 -13.433439 7.140467 15.218631 1.540735 1.082420 0.004080 -0.001261 -1571570.000000 1 0 0
4.290753 1.708461 -0.512633 4.646740 0.378930 1.681342 0.003606 -0.002048 230780.000000 1 0 0
2.671953 -0.447839 -7.269233 7.757683 -0.166064 2.784842 0.007312 -0.004088 1842330.000000 1 0 0
7.280053 -11.275839 0.945367 13.455015 -0.997497 1.500477 -0.000471 -0.001489 224588.000000 1 0 0
-11.726447 -7.418439 1.335367 13.940086 0.564063 1.474856 0.006337 -0.000109 255814.000000 1 0 0
0.223953 -6.951839 9.872067 12.076255 -1.538593 0.613779 -0.004828 -0.001415 -2275000.000000 1 0 0
-4.561747 -7.199739 10.572767 13.580470 1.006037 0.678480 0.001669 -0.003427 -958236.000000 1 0 0
11.816753 0.751961 -1.537133 11.940011 0.063550 1.699893 0.003166 -0.004132 543199.000000 1 0 0
6.490053 -9.530239 -7.410333 13.706176 -0.972939 2.142014 -0.005795 -0.000112 69074.300000 1 0 0
-11.059147 4.706261 3.495167 12.516782 -0.402340 1.287795 0.002145 -0.007739 693680.000000 1 0 0
6.133353 -9.021739 2.103667 11.110140 -0.973728 1.380300 0.004275 -0.002172 2622460.000000 1 0 0
11.485453 -1.134639 5.900867 12.962379 -0.098470 1.098166 0.010099 -0.006766 -333679.000000 1 0 0
-6.482647 3.640261 4.191367 8.534856 -0.511659 1.057458 0.003371 -0.004960 -1394530.000000 1 0 0
9.476753 6.327961 -3.169833 11.827924 0.588742 1.842108 0.004052 -0.003266 -631685.000000 1 0 0
-2.278847 6.644961 10.915167 12.980352 -1.240422 0.571854 0.001202 -0.000671 158453.000000 1 0 0
1.812453 9.765261 2.985767 10.371119 1.387282 1.278771 0.001606 -0.000440 191625.000000 1 0 0
2.788153 6.236061 -5.688633 8.889477 1.150355 2.265202 0.005340 -0.003562 -2042160.000000 1 0 0
11.910853 0.169961 -5.758733 13.231036 0.014268 2.021106 0.012200 -0.007018 7280.460000 1 0 0
-2.637947 -12.529439 6.232767 14.240540 1.363287 1.117782 0.004974 0.000288 507110.000000 1 0 0
10.811053 1.804361 -2.807033 11.314328 0.165375 1.821510 0.004151 -0.004145 171428.000000 1 0 0
-8.935047 5.271361 0.867967 10.410364 -0.533008 1.487324 -0.000942 -0.003159 -429846.000000 1 0 0
1.289253 -10.193139 5.461667 11.635809 -1.444982 1.082203 0.002387 -0.003740 434521.000000 1 0 0
9.379053 -5.723439 -1.367533 11.072241 -0.547912 1.694623 0.001567 -0.003073 1265350.000000 1 0 0
-7.749247 8.654761 -4.528033 12.468312 -0.840543 1.942457 -0.000825 0.000003 -379840.000000 1 0 0
-7.535247 -0.059239 -1.634233 7.710653 0.007861 1.784361 -0.002206 -0.001427 -1590090.000000 1 0 0
4.082853 8.838161 2.767367 10.121319 1.138043 1.293850 0.006622 -0.001268 -277399.000000 1 0 0
-1.295347 -10.655139 -3.839933 11.399780 1.449820 1.914358 0.011740 0.001199 177077.000000 1 0 0
3.154553 7.837761 -3.628733 9.195075 1.188153 1.976471 0.009470 -0.005014 -518093.000000 1 0 0
-4.218947 1.549761 -11.114133 11.988546 -0.352033 2.757297 0.002839 -0.005471 -220538.000000 1 0 0
1.206653 2.768661 10.988867 11.396346 1.159792 0.268218 -0.002838 -0.002272 500385.000000 1 0 0
2.108753 5.567761 -8.036333 10.001473 1.208748 2.503973 0.006464 -0.003754 336331.000000 1 0 0
15.304753 6.336861 3.952467 17.029776 0.392555 1.336569 0.019426 -0.011066 406005.000000 1 0 0
-4.447747 9.020861 4.614067 11.065623 -1.112723 1.140684 0.001258 0.003135 282561.000000 1 0 0
-0.837547 -8.196739 -12.459333 14.937302 1.468969 2.557311 0.004314 -0.000518 633308.000000 1 0 0
14.298853 -4.233439 -5.189533 15.789568 -0.287846 1.905690 0.032125 -0.003463 1286210.000000 1 0 0
-5.920947 -6.240039 -5.616333 10.273212 0.811631 2.149211 0.011926 -0.004136 408389.000000 1 0 0
-8.888247 2.550461 -12.210833 15.316992 -0.279440 2.493453 0.007210 -0.003778 1011560.000000 1 0 0
10.598453 5.430961 13.876267 18.285878 0.473542 0.709248 0.041452 -0.007612 1112580.000000 1 0 0
-0.570047 10.970661 5.491567 12.281599 -1.518882 1.107233 -0.001161 0.007563 674763.000000 1 0 0
0.173353 11.273461 -0.559533 11.288669 1.555420 1.620383 0.006927 -0.003780 54000.200000 1 0 0
-1.459447 -0.563739 3.710467 4.026829 0.368613 0.399035 -0.002192 0.000585 -25192.300000 1 0 0
-4.885047 6.655461 8.875767 12.121802 -0.937620 0.749228 0.002891 0.000618 -580582.000000 1 0 0
3.584753 -8.675439 -11.451733 14.807291 -1.178957 2.454959 -0.001854 0.003936 1025250.000000 1 0 0
6.684953 -3.767239 11.982767 14.229104 -0.513179 0.569574 0.015456 -0.002336 -396343.000000 1 0 0
-2.409647 -1.811839 -12.501233 12.859626 0.644723 2.904949 0.006134 -0.007802 840739.000000 1 0 0
-16.042647 -4.975339 5.483467 17.668869 0.300726 1.255239 0.038352 -0.014668 1160670.000000 1 0 0
-8.946147 7.304561 5.744167 12.899055 -0.684723 1.109268 0.000429 -0.006308 -3039760.000000 1 0 0
-12.893847 1.423661 5.964367 14.277667 -0.109969 1.139839 0.004229 -0.009186 -30932.800000 1 0 0
-3.560447 3.618461 10.162067 11.359474 -0.793479 0.463284 -0.000908 0.001800 746027.000000 1 0 0
2.089953 -12.399339 -1.246033 12.635826 -1.403812 1.669568 0.013610 0.000621 -2144690.000000 1 0 0
10.279853 -5.000239 -3.711733 12.018932 -0.452718 1.884753 0.010158 -0.001900 724707.000000 1 0 0
3.346453 -13.503739 0.931967 13.943395 -1.327874 1.503907 0.015603 -0.003454 369731.000000 1 0 0
10.226453 -1.689439 -6.117233 12.035576 -0.163724 2.103963 0.012356 -0.003324 -519433.000000 1 0 0
11.986753 -5.255539 -1.632633 13.189709 -0.413204 1.694895 0.008492 -0.004652 -613079.000000 1 0 0
1.358653 0.991261 5.963867 6.196470 0.630311 0.274865 -0.000849 0.000111 269800.000000 1 0 0
-10.832547 11.596461 6.579167 17.178691 -0.819444 1.177772 -0.001776 -0.006583 -830102.000000 1 0 0
4.907553 -14.122139 3.167067 15.282316 -1.236343 1.362046 0.015263 -0.008777 -2622830.000000 1 0 0
5.255253 -3.364839 -1.733733 6.476546 -0.569513 1.841795 0.004092 -0.000619 -1101140.000000 1 0 0
2.040453 -2.868139 -7.744033 8.506451 -0.952447 2.714978 0.003563 -0.002211 -81586.000000 1 0 0
-2.922647 14.769661 -8.912133 17.496025 -1.375438 2.105261 0.010846 -0.005207 -1750320.000000 1 0 0
-2.391347 6.129461 -8.143933 10.469598 -1.198819 2.462057 0.007458 -0.004084 -178589.000000 1 0 0
2.624353 -3.390139 -11.438833 12.215857 -0.912040 2.783001 0.004072 -0.001494 -1163090.000000 1 0 0
14.534953 2.831161 -2.626133 15.039179 0.192374 1.746316 0.010169 -0.001052 792421.000000 1 0 0
-3.579447 13.196661 2.217767 13.852177 -1.305930 1.410002 -0.003596 0.002182 -509335.000000 1 0 0
7.861853 -4.898139 13.992567 16.780716 -0.557179 0.584754 0.028424 -0.005391 -1118680.000000 1 0 0
-11.507047 7.169461 2.941667 13.873237 -0.557196 1.357135 -0.001955 -0.001574 1333280.000000 1 0 0
-2.414747 11.937961 4.017267 12.825146 -1.371215 1.252200 0.002170 0.001758 -514918.000000 1 0 0
1.752453 1.456561 0.713867 2.387942 0.693452 1.267208 0.000204 0.000220 -1172490.000000 1 0 0
-6.886547 8.595761 5.309267 12.227018 -0.895351 1.121619 -0.000543 -0.001685 -811717.000000 1 0 0
-1.256647 9.078561 1.020667 9.221778 -1.433251 1.459889 0.000997 0.000556 293142.000000 1 0 0
5.078853 13.237461 -8.661333 16.614566 1.204444 2.119181 0.026938 -0.014568 -1434430.000000 1 0 0
8.898653 7.023061 7.317467 13.492766 0.668138 0.997594 0.001397 -0.000857 -1571800.000000 1 0 0
7.349653 -13.727339 3.016967 15.860622 -1.079229 1.379413 0.017819 -0.008839 -274165.000000 1 0 0
4.274753 -13.417639 -1.352633 14.146949 -1.262371 1.666556 0.006151 -0.001182 -3128540.000000 1 0 0
12.177753 -11.826739 -4.650733 17.601100 -0.770776 1.838201 0.034998 -0.002577 -793394.000000 1 0 0
3.052753 -0.036139 -1.948533 3.621793 -0.011838 2.138862 0.005464 -0.001270 548126.000000 1 0 0
-13.563347 -3.207839 -10.783333 17.622000 0.232240 2.229288 0.032914 -0.009707 967324.000000 1 0 0
-6.735147 13.727261 5.107067 16.120857 -1.114665 1.248444 0.000796 -0.000934 -103278.000000 1 0 0
7.288753 -4.431139 -0.721433 8.560454 -0.546239 1.655171 -0.001887 0.001454 -1185550.000000 1 0 0
11.826553 2.169661 -7.283833 14.058058 0.181439 2.115454 0.011423 -0.005296 -194731.000000 1 0 0
-7.450747 -4.564339 9.769367 13.106767 0.549634 0.729709 0.008342 -0.005210 99805.700000 1 0 0
1.073053 2.845861 8.458567 8.988755 1.210223 0.345174 -0.007609 -0.002269 -2641800.000000 1 0 0
1.542253 8.097861 -8.693933 11.980750 1.382598 2.382787 0.008344 -0.006068 -403468.000000 1 0 0
-8.575047 -2.278239 -5.469833 10.423094 0.259683 2.123253 0.005698 -0.004126 -563335.000000 1 0 0
6.707853 -0.417439 7.103867 9.779288 -0.062151 0.757698 0.003797 -0.000628 76164.400000 1 0 0
-10.807847 6.297961 7.093767 14.380383 -0.527618 1.054923 -0.000213 -0.007590 340423.000000 1 0 0
-5.960647 11.101961 4.900567 13.520296 -1.078066 1.199890 -0.003596 0.003317 433804.000000 1 0 0
6.112153 -1.095439 -6.982733 9.344354 -0.177340 2.414737 0.003980 -0.002507 -597702.000000 1 0 0
4.588053 -5.804239 11.321467 13.524608 -0.901896 0.578834 0.006078 -0.001058 -818038.000000 1 0 0
-8.860947 -7.375939 2.702067 11.841538 0.694193 1.340583 0.006050 -0.000696 -3871820.000000 1 0 0
-1.284547 12.740561 -9.379033 15.872562 -1.470312 2.202965 0.012155 -0.003074 535496.000000 1 0 0
-4.742147 9.241861 -2.388333 10.658522 -1.096711 1.796792 -0.004531 0.000061 117628.000000 1 0 0
-3.419947 9.552661 -0.214933 10.148673 -1.227004 1.591976 -0.001059 -0.000090 -1091960.000000 1 0 0
-3.634547 10.744261 -6.418133 13.032326 -1.244602 2.085731 0.006583 0.001310 404548.000000 1 0 0
4.829953 -4.806139 0.347867 6.822641 -0.782927 1.519787 0.001443 0.000004 -1191030.000000 1 0 0
-2.265647 2.939561 -10.827933 11.446323 -0.914151 2.811384 0.007755 -0.005485 -1775160.000000 1 0 0
-3.633047 12.044161 -2.275133 12.784251 -1.277832 1.749713 -0.004665 0.003207 -1719170.000000 1 0 0
-0.340747 0.435961 0.083167 0.559542 -0.907376 1.421610 0.001777 -0.000956 -648257.000000 1 0 0
-4.925247 -1.734039 0.093567 5.222423 0.338519 1.552879 -0.002630 -0.001037 619129.000000 1 0 0
2.500053 2.501261 -2.464133 4.310281 0.785640 2.179357 0.000945 -0.002377 878253.000000 1 0 0
6.054653 -9.714139 8.512667 14.264950 -1.013433 0.931347 0.003479 -0.000236 -439828.000000 1 0 0
-4.068647 -5.429039 6.612467 9.473810 0.927665 0.798233 -0.000217 -0.001330 79838.400000 1 0 0
-6.306647 5.234461 -12.044933 14.568933 -0.692763 2.544110 0.002051 -0.002500 1185540.000000 1 0 0
-12.977947 2.948161 7.937367 15.495824 -0.223376 1.033021 0.009843 -0.012138 416180.000000 1 0 0
4.778253 -7.464939 -4.898333 10.126731 -1.001417 2.075677 -0.002896 0.000575 907517.000000 1 0 0
-6.071147 2.385661 -1.040233 6.605474 -0.374415 1.728935 0.003234 -0.002781 -755676.000000 1 0 0
-6.851347 -2.917939 -14.615433 16.403238 0.402627 2.670359 0.006607 0.000553 -110626.000000 1 0 0
2.776453 -6.218139 0.873067 6.865580 -1.150850 1.443285 0.002126 0.002870 -516678.000000 1 0 0
4.927453 -7.932239 12.983567 15.992911 -1.014939 0.623512 0.007443 -0.002936 -134753.000000 1 0 0
-9.898847 -1.664839 7.979667 12.823180 0.166626 0.899139 0.006517 -0.006242 -639107.000000 1 0 0
-4.455047 13.299061 -0.177833 14.026550 -1.247556 1.583475 -0.005837 0.005029 390146.000000 1 0 0
6.813053 2.185961 -4.415033 8.407653 0.310473 2.123653 0.004191 -0.000990 -1130240.000000 1 0 0
4.975553 4.602061 0.107367 6.778394 0.746422 1.554956 0.000710 0.000376 -1484360.000000 1 0 0
-5.927547 12.273961 1.788667 13.747191 -1.120892 1.440315 -0.005044 0.001157 -106092.000000 1 0 0
6.584953 -7.273139 6.632767 11.842878 -0.835017 0.976334 0.004357 -0.002987 -627325.000000 1 0 0
-0.250047 4.919061 7.867167 9.281810 -1.520008 0.559370 -0.002475 -0.001553 -1388850.000000 1 0 0
-5.806847 -3.482139 -1.555233 6.947195 0.540170 1.796575 0.003271 -0.002254 -552842.000000 1 0 0
2.372453 -6.523139 -5.203233 8.674878 -1.221971 2.214053 -0.001628 0.002936 276926.000000 1 0 0
-14.319847 -4.892839 -3.752333 15.590956 0.329246 1.813856 0.018068 -0.009203 -436628.000000 1 0 0
-12.316447 -5.212439 -6.361633 14.809955 0.400353 2.014792 0.012871 -0.010483 -1320190.000000 1 0 0
-14.622447 -3.896039 -1.273333 15.186061 0.260393 1.654744 0.010052 -0.004289 501861.000000 1 0 0
11.905953 3.047461 8.843667 15.140977 0.250581 0.947040 0.023872 -0.003697 -1340380.000000 1 0 0
8.832753 -6.436839 7.669367 13.351764 -0.629760 0.958915 0.004748 -0.005115 -263393.000000 1 0 0
-8.821347 -1.803539 -9.698733 13.233833 0.201672 2.393333 0.003994 -0.003648 -803495.000000 1 0 0
-8.754747 5.065261 -3.884033 10.834583 -0.524515 1.937441 -0.001972 -0.002078 -706422.000000 1 0 0
-4.051747 -6.243739 4.126667 8.510600 0.995174 1.064564 -0.000138 -0.000245 -1373990.000000 1 0 0
-0.193447 -9.328739 3.511267 9.969543 1.550063 1.210876 0.003790 -0.000725 139496.000000 1 0 0
7.933253 -10.457639 3.364967 13.550709 -0.921809 1.319847 0.001013 -0.003847 810195.000000 1 0 0
0.029453 6.557761 9.732967 11.736087 1.566305 0.592907 -0.002398 -0.001647 -435370.000000 1 0 0
-0.115747 3.410261 -9.701133 10.283738 -1.536869 2.803373 0.007994 -0.005366 -228924.000000 1 0 0
4.410953 -3.130239 11.042267 12.295794 -0.617174 0.455475 0.004041 -0.002817 -1577740.000000 1 0 0
8.627753 -9.107439 1.453467 12.629178 -0.812439 1.455453 -0.000963 0.000380 -1217050.000000 1 0 0
-0.350047 -0.474739 11.492667 11.507793 0.935442 0.051278 -0.002348 0.001203 -1769550.000000 1 0 0
10.891553 6.124661 11.477267 16.966586 0.512261 0.827847 0.032327 -0.002921 -64657.000000 1 0 0
-6.196347 -3.073739 -11.944033 13.802265 0.460488 2.616680 0.004796 -0.003579 58139.200000 1 0 0
-1.599147 2.865861 8.545267 9.153798 -1.061833 0.366684 0.000420 -0.002918 -451444.000000 1 0 0
-1.882447 13.450661 -6.911533 15.239199 -1.431747 2.041526 0.003139 -0.000255 93450.000000 1 0 0
7.705253 3.141661 9.880167 12.917378 0.387152 0.699951 0.003290 -0.000391 905976.000000 1 0 0
6.457253 8.505961 -8.019633 13.355224 0.921468 2.214906 0.009355 -0.007133 451574.000000 1 0 0
6.699053 -3.001739 -3.942733 8.332640 -0.421259 2.063679 0.003724 -0.001127 -1761070.000000 1 0 0
1.954853 8.165561 1.010667 8.456908 1.335817 1.451002 0.006134 -0.000121 862293.000000 1 0 0
-17.809647 6.251361 6.362667 19.918498 -0.337574 1.245663 0.044340 -0.012285 -664432.000000 1 0 0
-14.644547 2.948561 -10.216033 18.097627 -0.198686 2.170619 0.029011 -0.010511 -872955.000000 1 0 0
-18.545447 0.066261 -4.468833 19.076385 -0.003573 1.807254 0.060081 -0.018167 388855.000000 1 0 0
-13.057947 7.871661 0.098267 15.247383 -0.542494 1.564351 -0.000424 0.000618 -1177200.000000 1 0 0
-12.769447 -4.498539 -12.936233 18.725431 0.338713 2.333443 0.042772 0.000602 -1337550.000000 1 0 0
-17.362847 -0.700739 -8.680333 19.424409 0.040337 2.034068 0.059666 -0.024720 515578.000000 1 0 0
-16.582047 -2.277739 -2.013133 16.858383 0.136507 1.690496 0.033264 -0.010174 -1065210.000000 1 0 0
-15.489247 4.014461 1.776867 16.099377 -0.253597 1.460202 0.011755 -0.003713 -1539730.000000 1 0 0
-13.275147 5.821361 4.461567 15.166521 -0.413263 1.272207 -0.000907 -0.004637 -207246.000000 1 0 0
-10.145447 14.120761 2.735367 17.601370 -0.947777 1.414757 0.005715 -0.002407 95064.900000 1 0 0
-11.984147 2.485961 -6.299133 13.765132 -0.204537 2.046107 0.004124 -0.003947 -567002.000000 1 0 0
-16.017347 10.606761 3.702667 19.564471 -0.584907 1.380393 0.025632 -0.006749 609207.000000 1 0 0
-12.845547 0.999661 -8.495633 15.433185 -0.077665 2.153733 0.010181 -0.006314 737416.000000 1 0 0
-12.304647 14.368261 3.949667 19.324884 -0.862612 1.364964 0.019168 -0.007220 -1401680.000000 1 0 0
-10.588347 11.025561 -1.077233 15.324377 -0.805624 1.641150 0.000153 -0.000681 555343.000000 1 0 0
-17.281947 5.500761 8.850167 20.180424 -0.308156 1.116809 0.060120 -0.024660 269872.000000 1 0 0
-11.890347 12.288561 -9.232533 19.432672 -0.801866 2.065878 0.016275 -0.012055 -929058.000000 1 0 0
-17.221247 -0.629139 3.108867 17.510917 0.036516 1.392311 0.042507 -0.009085 713890.000000 1 0 0
-12.751147 14.701661 -1.185133 19.497055 -0.856329 1.631619 0.018628 -0.018074 -338763.000000 1 0 0
-16.662547 4.610361 -10.303233 20.125917 -0.269937 2.108236 0.067227 -0.017252 467471.000000 1 0 0
-11.990447 7.430361 -8.980033 16.721904 -0.554772 2.137699 -0.000395 -0.002715 -351571.000000 1 0 0
-14.875147 13.338861 -1.976133 20.077359 -0.731001 1.669382 0.047318 -0.016579 134655.000000 1 0 0
-11.967947 10.365561 -5.340233 16.709121 -0.713773 1.896104 0.011938 -0.003459 1095960.000000 1 0 0
-17.751647 2.652261 -1.140333 17.984878 -0.148312 1.634244 0.047786 -0.003589 85158.800000 1 0 0
-9.571747 15.304061 0.450867 18.056465 -1.011882 1.545824 0.013593 -0.007650 327890.000000 1 0 0
-8.177847 13.214661 -3.734033 15.982724 -1.016634 1.806605 -0.000573 0.000543 105794.000000 1 0 0
-17.940247 11.462761 2.226767 21.405744 -0.568562 1.466581 0.095235 -0.008001 -254326.000000 1 0 0
-8.256347 15.661661 -7.461133 19.212585 -1.085650 1.969633 0.052814 -0.016540 -145564.000000 1 0 0
-6.420047 15.320661 -5.594433 17.528187 -1.173980 1.895648 0.013892 -0.000821 -543991.000000 1 0 0
-17.476447 5.061961 -0.205933 18.195935 -0.281930 1.582114 0.043722 0.000537 345842.000000 1 0 0
-5.534447 12.197461 -12.321633 18.199747 -1.144839 2.314505 0.000239 -0.006175 -79072.100000 1 0 0
-11.185047 3.563561 -11.437433 16.389604 -0.308433 2.343183 0.008436 -0.006405 -94505.800000 1 0 0
-11.844547 10.895961 1.221567 16.140245 -0.743709 1.495039 0.005358 -0.004046 239256.000000 1 0 0
-12.795647 0.143061 -10.952033 16.843280 -0.011180 2.278686 0.011386 -0.010869 353418.000000 1 0 0
-13.974647 -2.265439 -13.156133 19.326324 0.160713 2.319564 0.059050 -0.011181 -31887.900000 1 0 0
-18.680447 -2.420939 -3.679733 19.192720 0.128879 1.763716 0.043755 -0.014554 851400.000000 1 0 0
-18.402547 4.616261 -5.222233 19.678296 -0.245778 1.839395 0.062407 -0.008860 404358.000000 1 0 0
-8.209847 15.441061 -2.390733 17.650597 -1.082120 1.706662 0.011279 -0.006994 -790211.000000 1 0 0
-16.149647 8.844761 -5.393633 19.186771 -0.501057 1.855749 0.040046 -0.006151 -1776.070000 1 0 0
-18.217347 1.546661 2.129867 18.406527 -0.084697 1.454824 0.066372 -0.013100 -295801.000000 1 0 0
-15.753747 -2.766439 -8.720933 18.217805 0.173833 2.069974 0.031023 -0.012461 -369891.000000 1 0 0
-9.958647 10.375661 -7.185233 16.076585 -0.805903 2.034136 0.004301 -0.001384 -211891.000000 1 0 0
-13.878147 11.616361 -7.590533 19.625468 -0.696913 1.967922 0.033294 -0.025791 -352641.000000 1 0 0
-11.086447 6.297461 -3.785533 13.300285 -0.516582 1.859407 -0.001362 -0.001411 -1692070.000000 1 0 0
-13.173547 4.797961 -12.601633 18.851099 -0.349279 2.302963 0.036759 -0.012046 446274.000000 1 0 0
-17.696547 8.808961 2.520967 19.927891 -0.461869 1.443952 0.030746 -0.015009 762424.000000 1 0 0
-13.381647 8.511861 -6.563733 17.163999 -0.566531 1.963203 0.004310 -0.004018 -1075410.000000 1 0 0
-15.835047 6.729761 -3.790833 17.618423 -0.401863 1.787655 0.016870 0.001501 -1275230.000000 1 0 0
-14.922347 -0.431839 -9.385933 17.634020 0.028931 2.132068 0.032966 -0.014695 -516470.000000 1 0 0
-10.162147 5.635361 -6.126133 13.136059 -0.506325 2.055968 -0.003316 -0.003649 94011.800000 1 0 0
-12.938647 12.043461 -0.730333 17.691437 -0.749580 1.612090 0.021087 -0.007043 294436.000000 1 0 0
-10.658247 3.357661 -13.991833 17.906522 -0.305188 2.467674 0.025197 -0.004555 353596.000000 1 0 0
-10.956547 6.147961 -11.886633 17.295531 -0.511342 2.328515 -0.003340 -0.005284 -631502.000000 1 0 0
-5.835847 11.471761 -14.793333 19.608700 -1.100202 2.425577 0.009383 -0.012615 -195956.000000 1 0 0
-15.625347 13.238061 3.328467 20.747926 -0.702876 1.409676 0.026715 -0.012893 277620.000000 1 0 0
-15.011647 10.939661 -3.152433 18.840477 -0.629758 1.738909 0.032878 -0.002237 947585.000000 1 0 0
-18.173947 7.451161 -4.534233 20.158656 -0.389090 1.797665 0.045524 -0.007298 -26104.900000 1 0 0
-4.097447 16.145761 -10.723233 19.810664 -1.322265 2.142762 0.023427 -0.009217 39114.700000 1 0 0
-15.864847 4.141861 -4.539433 17.013372 -0.255372 1.840884 0.017844 0.000744 -156268.000000 1 0 0
-18.748047 -1.907839 -6.294133 19.868196 0.101413 1.893144 0.049282 -0.021636 629847.000000 1 0 0
-10.881547 8.400061 -5.755933 14.903015 -0.657405 1.967333 -0.004277 0.000929 1277550.000000 1 0 0
-11.397347 13.219061 -6.775233 18.722897 -0.859268 1.941068 0.021031 -0.014699 118585.000000 1 0 0
-9.489647 10.419461 -4.531933 14.803952 -0.832067 1.881921 -0.009172 0.002884 -325924.000000 1 0 0
-11.039847 6.338461 -0.104833 12.730487 -0.521191 1.579031 -0.001722 0.002197 -1379760.000000 1 0 0
-14.663047 9.265561 -1.343733 17.397161 -0.563545 1.648112 0.019932 0.001434 -44893.100000 1 0 0
-18.600547 3.299061 4.663767 19.458029 -0.175538 1.328757 0.052965 -0.020478 212960.000000 1 0 0
-14.439447 13.663461 0.561967 19.887273 -0.757793 1.542535 0.013741 0.007887 410397.000000 1 0 0
-16.852147 2.357161 -9.023233 19.260577 -0.138971 2.058368 0.049823 -0.015519 176612.000000 1 0 0
-9.257547 8.350161 -8.925133 15.332494 -0.733910 2.192112 0.002055 -0.001506 -1835880.000000 1 0 0
-17.732447 4.586861 -2.755533 18.522201 -0.253122 1.720120 0.039054 -0.001929 887392.000000 1 0 0
-13.597047 5.523561 -4.383633 15.316842 -0.385868 1.861052 0.003806 0.003215 100826.000000 1 0 0
-12.243247 9.517261 3.328267 15.860414 -0.660775 1.359377 -0.002673 -0.002956 292831.000000 1 0 0
-17.752147 2.326361 -4.141333 18.376652 -0.130304 1.798107 0.044466 -0.003713 952630.000000 1 0 0
-11.250147 1.283261 -12.628733 16.961647 -0.113575 2.410651 0.019289 -0.003384 512288.000000 1 0 0
-11.366947 11.983161 3.587667 16.901923 -0.811782 1.356905 -0.001907 -0.001402 272739.000000 1 0 0
-16.316947 13.022961 -4.102533 21.276068 -0.673597 1.764836 0.068413 -0.016673 620239.000000 1 0 0
-11.042047 3.986461 -4.471433 12.562340 -0.346463 1.934716 -0.001001 -0.002373 -361789.000000 1 0 0
-11.559247 14.877061 -8.789433 20.789355 -0.910248 2.007313 0.052036 -0.017065 426874.000000 1 0 0
-15.534047 6.985861 -0.298733 17.035202 -0.422615 1.588333 0.016988 0.004301 208099.000000 1 0 0
-12.943347 8.092661 -3.998833 15.780116 -0.558770 1.827000 0.003385 0.000317 840823.000000 1 0 0
-19.269247 1.823461 -6.245033 20.337879 -0.094350 1.882903 0.081526 -0.020446 -350412.000000 1 0 0
-12.646347 9.858261 -8.910433 18.344242 -0.662137 2.078000 0.005913 -0.011472 504122.000000 1 0 0
-16.735847 10.838861 -1.111333 19.970092 -0.574717 1.626475 0.034649 -0.006316 295807.000000 1 0 0
-10.750047 6.378761 -14.432633 19.093271 -0.535531 2.427826 0.034506 -0.016908 -160567.000000 1 0 0
-13.707647 12.913361 -4.327933 19.323185 -0.755570 1.796689 0.031569 -0.006876 908288.000000 1 0 0
-18.210347 7.507761 -0.229933 19.698632 -0.391048 1.582469 0.070097 0.000361 1404770.000000 1 0 0
-12.771347 6.494961 -1.980633 14.464257 -0.470470 1.708161 -0.002890 0.003047 -185020.000000 1 0 0
-13.908847 8.242761 -10.596333 19.330841 -0.534981 2.150955 0.009608 -0.007528 -998118.000000 1 0 0
-14.909147 1.371561 -0.794933 14.993191 -0.091736 1.623841 0.005489 -0.005831 -835585.000000 1 0 0
-13.403847 2.804361 -2.383833 13.900008 -0.206246 1.743147 0.005434 -0.001450 142881.000000 1 0 0
-11.497147 9.057761 -10.938033 18.272055 -0.667274 2.212575 0.002615 -0.007633 -886438.000000 1 0 0
-15.394447 4.271561 -8.023233 17.877570 -0.270665 2.036205 0.014546 -0.009376 367158.000000 1 0 0
-18.518947 10.376761 4.435567 21.686467 -0.510741 1.364811 0.089079 -0.030613 -124807.000000 1 0 0
-15.264547 5.988461 -6.207433 17.532835 -0.373861 1.932690 0.011688 -0.001121 613384.000000 1 0 0
-7.836547 11.261261 -13.027933 18.919686 -0.962837 2.330341 0.003649 -0.001957 -984373.000000 1 0 0
-16.794947 8.974961 -2.843533 19.253723 -0.490775 1.719026 0.040033 -0.003855 559477.000000 1 0 0
-20.679747 -1.203939 -4.702733 21.241872 0.058153 1.794036 0.087709 -0.033129 -1200790.000000 1 0 0
-15.480847 4.222661 4.289367 16.609821 -0.266289 1.309593 0.012108 -0.001429 -749870.000000 1 0 0
-7.100647 12.562061 -9.383833 17.212812 -1.056324 2.147383 0.011074 -0.004746 -2240050.000000 1 0 0
-17.219847 1.437561 5.795467 18.225728 -0.083290 1.247195 0.041848 -0.014676 444893.000000 1 0 0
-10.386547 14.290661 -3.101333 17.936600 -0.942305 1.744575 0.030278 -0.010179 -882428.000000 1 0 0
-10.081047 8.392061 -12.982833 18.455573 -0.694222 2.351056 -0.001106 -0.006321 -98917.800000 1 0 0
-13.779547 11.533461 2.672067 18.166909 -0.696897 1.423176 0.016351 -0.007012 -2056820.000000 1 0 0
-16.917247 6.448061 1.837567 18.197456 -0.364154 1.469645 0.019721 0.001645 666056.000000 1 0 0
-9.478647 13.233461 -8.402933 18.318803 -0.949238 2.047334 0.028582 -0.010758 234781.000000 1 0 0
-5.699647 9.742261 -12.900333 17.141068 -1.041447 2.422795 0.004834 -0.006298 -354816.000000 1 0 0
-15.873147 1.625061 3.183867 16.270668 -0.102023 1.373844 0.010190 -0.004414 -355182.000000 1 0 0
-18.688947 -4.979039 4.900167 19.951922 0.260369 1.322659 0.078997 -0.008979 -270401.000000 1 0 0
-5.380547 14.385061 -9.254633 17.931216 -1.212870 2.113109 0.008474 -0.003019 -166563.000000 1 0 0
-15.546147 -0.871939 -6.853233 17.012048 0.056028 1.985420 0.026320 -0.007289 827742.000000 1 0 0
-9.085847 10.869061 -9.465433 17.037709 -0.874524 2.159830 0.001522 -0.006811 142093.000000 1 0 0
-16.815247 1.150661 -6.158633 17.944507 -0.068323 1.921123 0.026359 -0.008385 -1316410.000000 1 0 0
-11.117647 8.494061 -1.570933 14.079026 -0.652411 1.682609 0.001537 -0.001832 -172255.000000 1 0 0
-10.928547 10.881361 -12.683833 19.967894 -0.783235 2.259078 0.022892 -0.012991 -355131.000000 1 0 0
-14.226047 11.508561 -10.249633 20.973373 -0.680191 2.081392 0.053648 -0.030592 189757.000000 1 0 0
-13.112847 5.458161 -7.635333 16.125650 -0.394432 2.064045 0.003520 0.000603 -643961.000000 1 0 0
-8.932747 15.495061 -4.896933 18.543755 -1.047843 1.838041 0.025125 -0.008839 148143.000000 1 0 0
-8.633447 6.230861 -13.030333 16.827050 -0.625150 2.456512 0.002045 -0.001494 -1369850.000000 1 0 0
-16.541747 7.302861 4.314667 18.589716 -0.415747 1.336561 0.023643 -0.000735 -184187.000000 1 0 0
-12.604647 5.198061 -10.151333 16.998427 -0.391144 2.210793 0.002327 -0.004411 -1871.420000 1 0 0
-12.561147 9.073661 -13.285833 20.411445 -0.625575 2.279567 0.048503 -0.021144 -1638050.000000 1 0 0
-10.789247 5.058661 -8.615933 14.704836 -0.438428 2.196818 -0.001488 -0.002392 -2670760.000000 1 0 0
-17.767747 -4.485739 -2.620333 18.511641 0.247298 1.712824 0.043328 -0.011499 1088370.000000 1 0 0
-9.080847 13.084861 -10.892533 19.295664 -0.964111 2.170632 0.034119 -0.014229 165669.000000 1 0 0
-15.192947 6.030161 6.129567 17.457379 -0.377836 1.212033 0.018931 -0.008662 -1167000.000000 1 0 0
-16.220447 -3.260339 -4.421033 17.125369 0.198359 1.831910 0.019028 -0.008587 -230324.000000 1 0 0
-11.093547 -1.335539 -12.475433 16.747743 0.119812 2.411185 0.015082 -0.004877 300888.000000 1 0 0
-15.292547 6.771861 -8.575933 18.795391 -0.416868 2.044605 -0.001469 -0.001699 -110437.000000 1 0 0
-14.892847 9.036861 1.218467 17.462715 -0.545399 1.500964 0.015587 -0.006499 -158974.000000 1 0 0
-19.614447 5.070761 7.793567 21.706654 -0.252983 1.203557 0.097572 -0.039052 1041310.000000 1 0 0
-16.281547 0.421561 0.882967 16.310920 -0.025886 1.516636 0.026785 -0.008039 -14013.800000 1 0 0
-17.513947 3.684961 6.988267 19.213359 -0.207377 1.198539 0.034498 -0.017103 622800.000000 1 0 0
-15.491647 3.893561 -1.538333 16.047349 -0.246233 1.666806 0.012328 -0.003022 -802562.000000 1 0 0
-10.814747 13.206961 0.347067 17.073460 -0.884656 1.550467 0.010679 -0.008414 -1747260.000000 1 0 0
-13.509547 3.425761 0.095867 13.937464 -0.248346 1.563918 0.008360 -0.003053 -368113.000000 1 0 0
-15.201747 -0.060939 -4.362133 15.815342 0.004009 1.850235 0.018733 -0.003327 906311.000000 1 0 0
-18.969347 6.804661 3.510667 20.456401 -0.344421 1.398325 0.050015 -0.005421 1419370.000000 1 0 0
-14.170447 1.285961 -6.302533 15.562043 -0.090502 1.987769 0.009244 -0.003647 -331178.000000 1 0 0
-14.300647 11.946261 5.167467 19.337124 -0.695936 1.300279 0.014117 -0.010484 93320.900000 1 0 0
17.724553 5.719361 5.964267 19.556159 0.312132 1.260877 0.093930 -0.019372 630825.000000 1 0 0
18.384653 7.635361 -0.186533 19.908013 0.393636 1.580166 0.039691 -0.005435 -5896.400000 1 0 0
16.848853 5.432961 8.359767 19.577707 0.311926 1.129619 0.115495 -0.014799 575918.000000 1 0 0
11.704453 12.635061 10.719467 20.286596 0.823614 1.014080 0.038495 -0.017435 556251.000000 1 0 0
-2.524647 16.048361 -0.502433 16.253498 -1.414760 1.601714 0.001185 -0.008311 38864.100000 1 0 0
15.018953 12.710161 3.057767 19.911481 0.702327 1.416618 0.071393 -0.016174 44990.200000 1 0 0
13.616353 11.745361 6.647667 19.171595 0.711759 1.216697 0.051897 -0.013940 631831.000000 1 0 0
-0.782647 15.830861 8.521267 17.995574 -1.521398 1.077513 0.006086 -0.007916 -398139.000000 1 0 0
0.631053 12.929961 9.342367 15.964396 1.522030 0.945669 0.002477 -0.002626 -796549.000000 1 0 0
0.645353 15.440861 -3.970333 15.956197 1.529026 1.822265 0.003359 -0.006882 -617041.000000 1 0 0
5.359753 10.409661 13.698567 18.020509 1.095314 0.707229 0.016618 -0.007034 688239.000000 1 0 0
-1.442347 16.407161 -2.838633 16.713263 -1.483112 1.741467 0.005679 -0.005633 -144848.000000 1 0 0
8.701053 10.066561 3.318367 13.713334 0.858029 1.326389 0.008884 -0.003555 263795.000000 1 0 0
12.698553 13.480061 -4.879933 19.151476 0.815242 1.828445 0.115840 -0.030083 1480540.000000 1 0 0
2.313553 11.643461 7.670367 14.133550 1.374651 0.997140 0.005663 0.004277 678710.000000 1 0 0
-0.420647 14.896861 -8.609433 17.210920 -1.542567 2.094662 0.012516 -0.007755 -1676730.000000 1 0 0
2.302853 15.817661 0.272567 15.986739 1.426225 1.553746 0.012990 -0.014963 -222026.000000 1 0 0
1.738353 13.382961 5.263567 14.485533 1.441627 1.198917 0.011106 -0.000933 479725.000000 1 0 0
17.434853 9.279361 -1.936933 19.845210 0.489098 1.668554 0.021595 0.002105 254278.000000 1 0 0
-7.404947 14.938961 7.392167 18.238693 -1.110611 1.153488 0.009702 -0.010292 -927429.000000 1 0 0
8.413253 15.800161 -0.166933 17.901279 1.081504 1.580122 0.046922 -0.027789 25714.800000 1 0 0
15.626653 10.383561 1.986367 18.866804 0.586486 1.465317 0.049100 -0.009298 -1138880.000000 1 0 0
14.099753 7.341761 8.565467 18.057456 0.480071 1.076576 0.065541 -0.016137 -1412950.000000 1 0 0
4.039453 18.256861 -1.845033 18.789207 1.353048 1.669151 0.022967 -0.028746 -952282.000000 1 0 0
-0.508247 17.574661 -4.920333 18.257511 -1.541885 1.843666 0.013513 -0.000691 456606.000000 1 0 0
1.325253 13.683361 -0.649733 13.762733 1.474246 1.618023 0.006876 -0.007817 28019.700000 1 0 0
10.504453 14.711461 4.112367 18.538667 0.950715 1.347109 0.046475 -0.019067 -210230.000000 1 0 0
-1.789847 15.392961 -5.206433 16.347898 -1.455039 1.894919 0.003403 -0.001924 -363013.000000 1 0 0
15.056653 8.640061 -6.224433 18.441720 0.520960 1.915076 0.044663 -0.013841 -53236.300000 1 0 0
-2.410547 18.419361 0.778367 18.592726 -1.440666 1.528920 0.014075 -0.013703 -903736.000000 1 0 0
-3.936547 19.171861 3.368767 19.859639 -1.368282 1.400343 0.026066 -0.018003 -145884.000000 1 0 0
1.721153 17.529861 -2.677133 17.816438 1.472926 1.721630 0.006209 -0.013539 -803841.000000 1 0 0
2.731653 12.137161 3.287067 12.867689 1.349420 1.312482 0.011370 -0.001391 -235607.000000 1 0 0
-2.757847 16.153661 1.894967 16.496587 -1.401701 1.455672 0.006142 -0.002330 -315483.000000 1 0 0
11.710453 12.839561 -2.621933 17.574515 0.831358 1.720545 0.054935 -0.008896 418183.000000 1 0 0
7.218653 11.647061 4.713667 14.490743 1.015957 1.239480 0.014742 -0.004534 -115147.000000 1 0 0
7.145153 15.760361 2.070567 17.427835 1.145150 1.451707 0.029510 -0.021066 -1490140.000000 1 0 0
5.377953 12.329461 10.095267 16.818217 1.159488 0.926973 0.011104 -0.000674 133295.000000 1 0 0
-1.506347 14.205161 3.241967 14.648073 -1.465149 1.347625 0.002634 0.000387 -1223100.000000 1 0 0
4.607653 16.014861 1.645367 16.745551 1.290652 1.472381 0.023890 -0.022723 -902625.000000 1 0 0
7.067553 13.322861 11.844667 19.176680 1.083061 0.905033 0.022123 -0.010643 63477.400000 1 0 0
0.580153 17.118461 -9.538333 19.605053 1.536919 2.078903 0.018755 -0.004685 320554.000000 1 0 0
9.886253 9.595261 15.424167 20.681198 0.770462 0.729052 0.058841 -0.021981 -506273.000000 1 0 0
13.401853 7.493561 -0.209433 15.356008 0.509836 1.584435 0.007704 -0.000716 228173.000000 1 0 0
12.315153 13.927661 -0.141933 18.592011 0.846767 1.578430 0.064298 -0.010171 265871.000000 1 0 0
9.318653 12.500861 3.500667 15.980097 0.930219 1.349941 0.021291 -0.003773 666325.000000 1 0 0
-0.640047 12.985761 0.893567 13.032195 -1.521548 1.502176 0.004648 -0.003470 -292331.000000 1 0 0
15.879353 7.370061 -0.853333 17.527117 0.434541 1.619502 0.020133 -0.000961 -3457960.000000 1 0 0
-4.125647 18.302361 -2.330133 18.905738 -1.349086 1.694361 0.016961 -0.012640 -286403.000000 1 0 0
11.575753 9.123961 -3.150333 15.072137 0.667502 1.781366 0.030034 -0.008012 198170.000000 1 0 0
14.699953 9.743361 7.827167 19.294721 0.585332 1.153092 0.056902 -0.018863 -291595.000000 1 0 0
4.310453 13.801961 4.649767 15.188630 1.268087 1.259666 0.024219 -0.003208 -1052560.000000 1 0 0
2.039053 15.949061 5.567467 17.015492 1.443638 1.237458 0.021009 -0.010501 258100.000000 1 0 0
6.047653 18.375661 5.481867 20.106961 1.252850 1.294665 0.042858 -0.030088 -411214.000000 1 0 0
10.551453 17.175261 -0.819333 20.174094 1.019899 1.611421 0.102522 -0.032594 -303649.000000 1 0 0
10.004353 13.539761 -4.453133 17.413862 0.934446 1.829392 0.086266 -0.018041 465655.000000 1 0 0
16.559453 7.911061 2.210867 18.484813 0.445679 1.450905 0.020803 -0.009103 207987.000000 1 0 0
3.998553 14.033561 -0.523433 14.601481 1.293224 1.606652 0.014099 -0.010743 505832.000000 1 0 0
5.621353 13.132461 -2.405233 14.486072 1.166345 1.737606 0.012054 -0.008345 -42541.600000 1 0 0
-6.232847 17.009961 -3.188633 18.394416 -1.219566 1.745024 0.017845 -0.002080 -152946.000000 1 0 0
18.085153 9.974761 2.632867 20.820677 0.504028 1.444002 0.068917 -0.017912 -426980.000000 1 0 0
7.848053 13.057161 9.378867 17.889789 1.029603 1.018953 0.029011 -0.009010 467805.000000 1 0 0
-2.684847 15.765061 6.712267 17.343589 -1.402111 1.173402 0.004493 -0.004908 84554.200000 1 0 0
11.613453 16.089161 6.121667 20.765553 0.945577 1.271551 0.059297 -0.019615 128601.000000 1 0 0
13.621953 11.966061 1.012167 18.159535 0.720775 1.515030 0.052677 -0.009721 984813.000000 1 0 0
17.443053 7.736661 -5.699033 19.914693 0.417467 1.861026 0.035639 0.007637 -60789.700000 1 0 0
9.442153 9.385961 8.056467 15.561400 0.782414 1.026611 0.008289 -0.000403 -573859.000000 1 0 0
-2.052647 14.035161 -2.041833 14.330673 -1.425576 1.713763 -0.003186 -0.002053 685674.000000 1 0 0
10.950653 11.727661 0.599567 16.056597 0.819647 1.533447 0.028654 0.000097 809592.000000 1 0 0
11.689053 9.687261 -0.559133 15.191762 0.692025 1.607610 0.021180 -0.001399 -1657180.000000 1 0 0
-0.280747 16.265261 10.987067 19.630415 -1.553538 0.976777 0.012130 -0.008761 -529753.000000 1 0 0
2.057953 19.976961 -1.582933 20.144970 1.468142 1.649454 0.025918 -0.026777 -439959.000000 1 0 0
9.293153 14.348061 1.730667 17.182106 0.996044 1.469900 0.038271 -0.017754 -175334.000000 1 0 0
8.386553 11.727561 -5.269633 15.350537 0.949998 1.921210 0.035171 -0.006666 -759632.000000 1 0 0
10.548353 10.234861 10.202267 17.891517 0.770315 0.964011 0.015224 -0.007715 217949.000000 1 0 0
-5.315947 15.816961 5.917967 17.704742 -1.246565 1.229978 -0.002278 -0.002083 1424990.000000 1 0 0
14.330253 9.244261 -1.873133 17.155790 0.572914 1.680198 0.030296 0.001892 -857632.000000 1 0 0
12.196253 9.605261 6.923467 16.998354 0.667108 1.151298 0.024245 -0.007348 -1534950.000000 1 0 0
3.104953 13.044661 9.650967 16.521050 1.337120 0.946949 0.005645 -0.001957 -1390730.000000 1 0 0
8.427053 12.624861 -2.742633 15.424798 0.982219 1.749554 0.036516 -0.010908 -1268140.000000 1 0 0
9.424653 16.941561 2.014767 19.491020 1.063126 1.467242 0.038569 -0.025505 -398811.000000 1 0 0
9.642553 14.306461 -7.540133 18.828363 0.977734 1.982822 0.099814 -0.015669 -976326.000000 1 0 0
6.343253 11.483261 7.357367 15.041044 1.066119 1.059678 0.012588 0.003793 -28404.400000 1 0 0
5.342853 16.842061 -5.695133 18.564365 1.263606 1.882602 0.047924 -0.007171 -1103440.000000 1 0 0
-4.151547 17.195661 -4.819733 18.334556 -1.333900 1.836799 0.014999 -0.004085 188829.000000 1 0 0
-0.188547 18.349061 -0.524533 18.357525 -1.560521 1.599373 0.014535 -0.021361 -466751.000000 1 0 0
6.412753 15.692961 -2.784533 17.179815 1.182865 1.733596 0.034947 -0.010003 456134.000000 1 0 0
-0.922047 20.578961 0.627967 20.609177 -1.526021 1.540321 0.021047 -0.018651 9515.280000 1 0 0
-1.541247 18.837461 4.276267 19.378128 -1.489160 1.348290 0.013181 -0.009206 833951.000000 1 0 0
7.201553 13.822461 -4.427833 16.202731 1.090487 1.847594 0.035479 -0.005922 1071310.000000 1 0 0
-1.089447 11.955261 7.679967 14.251213 -1.479920 1.001667 0.002046 0.002243 301156.000000 1 0 0
7.567453 11.032961 10.893767 17.253021 0.969600 0.887423 0.012650 -0.004372 246429.000000 1 0 0
1.493653 16.056861 -7.304133 17.703224 1.478041 1.996089 0.009538 -0.003903 -52835.400000 1 0 0
8.834053 7.253761 14.716667 18.634319 0.687483 0.660376 0.038332 -0.009165 -106826.000000 1 0 0
11.298753 11.225861 -4.722033 16.612627 0.782162 1.859014 0.070199 -0.011256 -253460.000000 1 0 0
-3.431947 16.914161 4.554467 17.849658 -1.370610 1.312786 0.000204 -0.001629 -594420.000000 1 0 0
3.907753 15.166661 -6.797433 17.073466 1.318627 1.980272 0.029128 -0.014082 -1141450.000000 1 0 0
-4.490047 14.061861 9.465767 17.535598 -1.261722 1.000593 0.014904 -0.015346 -275811.000000 1 0 0
6.207853 17.719661 0.549967 18.783671 1.233821 1.541513 0.028783 -0.031222 -478236.000000 1 0 0
9.834353 10.665061 -2.183033 14.670503 0.825900 1.720155 0.037650 -0.007175 -2160790.000000 1 0 0
7.250453 18.169861 -2.493033 19.721261 1.191120 1.697549 0.047367 -0.012657 76052.100000 1 0 0
3.436953 10.490861 10.307667 15.103603 1.254202 0.819668 0.004730 -0.000601 429301.000000 1 0 0
-0.105747 18.567161 2.051367 18.680438 -1.565101 1.460761 0.016587 -0.016316 90617.700000 1 0 0
-0.907847 17.218061 -7.477733 18.793677 -1.518119 1.980007 0.021130 0.000738 -240600.000000 1 0 0
10.088553 8.824361 13.015867 18.683175 0.718655 0.800062 0.040155 -0.013535 -505004.000000 1 0 0
3.646653 11.521261 5.431767 13.249212 1.264258 1.148376 0.009840 0.000380 599985.000000 1 0 0
13.055953 13.877561 8.091667 20.700717 0.815894 1.169200 0.054498 -0.030634 -84103.400000 1 0 0
-0.642947 17.369361 6.647167 18.608947 -1.533797 1.205525 0.014236 -0.013030 -580257.000000 1 0 0
12.337453 13.611561 5.627967 19.213572 0.834459 1.273521 0.048145 -0.014595 -306753.000000 1 0 0
4.773853 14.494561 -4.483733 15.905529 1.252631 1.856568 0.017702 -0.008448 -962161.000000 1 0 0
3.700353 17.628061 4.593767 18.588810 1.363888 1.321084 0.033365 -0.019559 -754877.000000 1 0 0
7.119953 11.653961 2.023067 13.805845 1.022366 1.423730 0.017594 -0.004061 733748.000000 1 0 0
6.440753 8.918961 11.898867 16.205376 0.945364 0.746229 0.008512 -0.003174 740710.000000 1 0 0
-5.541847 14.868761 1.562467 15.944699 -1.214028 1.472646 0.000967 0.002837 29882.300000 1 0 0
6.565253 13.730361 6.014367 16.364534 1.124776 1.194451 0.025280 -0.006586 -1229510.000000 1 0 0
5.726353 15.844561 4.920267 17.551361 1.223995 1.286653 0.022935 -0.018252 466357.000000 1 0 0
1.098453 18.043361 4.295567 18.580134 1.509993 1.337494 0.027631 -0.015161 1259270.000000 1 0 0
7.241953 18.058661 -7.099733 20.711527 1.189408 1.920683 0.056703 -0.006553 337752.000000 1 0 0
-2.466447 18.856861 -6.011933 19.945123 -1.440736 1.876982 0.025972 0.001011 -2424890.000000 1 0 0
13.562253 9.974861 -4.537633 17.436246 0.634148 1.834069 0.046710 -0.010272 -1365030.000000 1 0 0
-1.623647 18.019761 9.820967 20.586389 -1.480935 1.073489 0.017040 -0.012509 -312427.000000 1 0 0
3.385453 11.859161 -1.580833 12.433826 1.292721 1.698281 0.012732 -0.007899 -276852.000000 1 0 0
4.131653 14.042761 -10.993033 18.306187 1.284651 2.214934 0.030225 -0.019352 -103318.000000 1 0 0
11.624953 13.338761 2.285367 17.840543 0.853943 1.442344 0.048597 -0.017206 355868.000000 1 0 0
15.841253 6.331761 -7.205933 18.519232 0.380248 1.970457 0.024900 -0.012507 -176056.000000 1 0 0
2.372953 16.165461 2.937267 16.600620 1.425046 1.392923 0.020792 -0.013577 78603.900000 1 0 0
13.500253 10.762761 3.340767 17.585636 0.673048 1.379663 0.038872 -0.005334 -646677.000000 1 0 0
-5.011947 19.443561 -5.836533 20.910208 -1.318519 1.853678 0.025319 -0.010924 471670.000000 1 0 0
5.475353 12.149561 0.074267 13.326547 1.147392 1.565223 0.014327 -0.007500 197217.000000 1 0 0
4.778553 15.441161 9.654867 18.827652 1.270676 1.032350 0.024550 -0.005687 -12519.700000 1 0 0
7.826553 9.590661 13.918867 18.627146 0.886339 0.726904 0.022314 -0.015012 187386.000000 1 0 0
-5.201247 13.634561 7.072667 16.216561 -1.206361 1.119493 -0.000453 -0.000190 -2412290.000000 1 0 0
-4.689947 17.183061 0.654867 17.823637 -1.304346 1.534047 0.010106 0.000782 -2774520.000000 1 0 0
-0.779547 16.556761 3.534167 16.947695 -1.523748 1.360721 0.012770 -0.008451 -1548720.000000 1 0 0
7.695953 16.900561 -4.791733 19.178565 1.143488 1.823320 0.053545 -0.014079 400101.000000 1 0 0
2.922153 16.293561 -4.674633 17.200910 1.393339 1.846025 0.003429 -0.007890 374101.000000 1 0 0
9.482653 14.600961 8.041167 19.177308 0.994805 1.138115 0.029891 -0.011420 320819.000000 1 0 0
12.701253 10.996761 9.036167 19.076239 0.713596 1.077324 0.035988 -0.022385 -119017.000000 1 0 0
3.720453 12.427361 12.166167 17.784732 1.279912 0.817456 0.014862 -0.005153 344031.000000 1 0 0
-3.638247 19.035961 5.957867 20.275622 -1.381949 1.272551 0.019771 -0.011912 2159.680000 1 0 0
-2.693547 15.744161 10.246667 18.977039 -1.401354 1.000418 0.011484 -0.016103 -1102860.000000 1 0 0
1.946653 14.303561 7.623867 16.324971 1.435532 1.084894 0.014582 -0.004439 -271744.000000 1 0 0
4.185353 17.260361 7.826167 19.408404 1.332904 1.155746 0.029878 -0.018369 323131.000000 1 0 0
-1.978647 13.470161 9.294367 16.484706 -1.424948 0.971795 0.001718 -0.009796 -876879.000000 1 0 0
5.794653 17.718361 3.121167 18.901323 1.254718 1.404907 0.024714 -0.027418 631942.000000 1 0 0
7.255253 15.342061 -6.822133 18.290955 1.129063 1.953013 0.043977 -0.008827 293369.000000 1 0 0
10.970353 7.795261 9.536567 16.494267 0.617788 0.954307 0.010696 -0.003828 1173610.000000 1 0 0
9.004453 16.348161 -2.737633 18.863647 1.067344 1.716438 0.077165 -0.020767 -293326.000000 1 0 0
14.532853 11.177661 -6.522733 19.459958 0.655633 1.912600 0.090891 -0.017001 652327.000000 1 0 0
10.934753 6.662761 16.136367 20.599601 0.547244 0.670785 0.082339 -0.035393 -180334.000000 1 0 0
8.507053 8.688461 10.336767 15.959576 0.795948 0.866255 0.010587 -0.001603 -892255.000000 1 0 0
16.364053 9.469761 4.395267 19.410744 0.524605 1.342381 0.055565 -0.017706 16171.800000 1 0 0
-3.546647 14.235661 4.762567 15.424487 -1.326629 1.256900 -0.001836 0.001715 -1059290.000000 1 0 0
4.415853 14.929061 12.618967 20.040333 1.283207 0.889657 0.019487 -0.005059 -954412.000000 1 0 0
16.070453 10.457161 -4.583533 19.713459 0.576872 1.805452 0.065912 -0.018759 -77917.900000 1 0 0
14.899053 13.985161 6.142367 21.337647 0.753769 1.278799 0.077932 -0.018996 73518.900000 1 0 0
6.134053 9.586861 9.329067 14.716182 1.001597 0.884169 0.004691 0.001294 818372.000000 1 0 0
10.400253 12.253261 8.577367 18.217544 0.867014 1.080565 0.024397 -0.010847 906353.000000 1 0 0
7.919553 11.469861 -0.461033 13.945952 0.966498 1.603861 0.014072 -0.006713 -171965.000000 1 0 0
7.537553 13.376561 -8.632733 17.614516 1.057655 2.082992 0.055843 -0.018753 -2139580.000000 1 0 0
2.662053 15.166661 -2.296233 15.568777 1.397046 1.718826 0.008673 -0.013266 544301.000000 1 0 0
12.197353 13.771361 -7.776933 19.972644 0.845936 1.970754 0.124504 -0.022926 -46865.400000 1 0 0
-8.252447 14.496261 9.877167 19.385637 -1.053271 1.036182 0.035908 -0.029570 215733.000000 1 0 0
11.462053 9.747061 2.235667 15.211248 0.704713 1.423287 0.025746 -0.003129 -2533120.000000 1 0 0
12.099753 8.756661 4.452067 15.585379 0.626459 1.281105 0.021650 -0.004118 580682.000000 1 0 0
14.122153 8.159861 5.949267 17.361230 0.523940 1.221033 0.034399 -0.010774 -2545540.000000 1 0 0
16.222653 7.543761 7.125267 19.257524 0.435269 1.191788 0.096196 -0.019004 188029.000000 1 0 0
13.553553 8.368361 2.223567 16.083299 0.553137 1.432099 0.025763 -0.004927 -2132550.000000 1 0 0
-4.133747 17.306361 -7.312333 19.237157 -1.336332 1.960717 0.022036 -0.009707 8994.280000 1 0 0
3.007653 19.421161 -3.886133 20.033210 1.417152 1.766019 0.023523 -0.015954 380289.000000 1 0 0
-0.244547 14.758161 6.264567 16.034585 -1.554228 1.169414 0.004657 -0.005898 529892.000000 1 0 0
6.725953 16.270461 8.263467 19.448682 1.178805 1.131961 0.044613 -0.013101 929309.000000 1 0 0
12.671653 15.286361 -2.330633 19.991885 0.878650 1.687641 0.116502 -0.026589 -283634.000000 1 0 0
12.925253 15.546161 3.946867 20.599103 0.877193 1.378000 0.071363 -0.024246 -728197.000000 1 0 0
3.014853 18.023761 1.283767 18.319208 1.405060 1.500661 0.028400 -0.024315 -628146.000000 1 0 0
10.302653 14.578961 -1.413833 17.907811 0.955602 1.649829 0.067755 -0.013231 -1840920.000000 1 0 0
-6.382547 15.840361 -0.740133 17.093910 -1.187767 1.614108 -0.001039 -0.000140 -27868.800000 1 0 0
-3.982647 15.761961 -2.653533 16.472466 -1.323302 1.732590 0.006449 -0.004430 -658124.000000 1 0 0
-7.135747 16.983361 1.464967 18.479707 -1.173031 1.491439 0.012004 -0.002010 -29.879300 1 0 0
0.008453 19.489561 -6.600033 20.576771 1.570363 1.897319 0.030091 -0.002262 -70754.300000 1 0 0
4.721153 14.846361 7.103867 17.122169 1.262908 1.142971 0.028123 -0.007114 -730739.000000 1 0 0
8.618453 12.487561 6.859367 16.651361 0.966703 1.146214 0.019869 -0.003537 -330193.000000 1 0 0
-7.818747 17.573161 -5.730333 20.069517 -1.152170 1.860350 0.047591 -0.013556 96201.900000 1 0 0
-7.961847 17.811661 -1.520033 19.569282 -1.150438 1.648549 0.037538 -0.010381 605775.000000 1 0 0
-13.637647 -9.143939 9.144567 18.794152 0.590647 1.062643 0.053516 -0.025136 -543572.000000 1 0 0
-12.533147 -13.063839 7.600567 19.634467 0.806128 1.173308 0.056412 -0.010045 -77662.900000 1 0 0
-3.743147 -14.957239 12.645567 19.940925 1.325576 0.883886 0.016943 -0.014793 29015.100000 1 0 0
-2.027847 -14.116539 14.931267 20.647798 1.428122 0.762457 0.034256 -0.012188 -648115.000000 1 0 0
-6.963247 -13.616139 12.828867 19.961610 1.098073 0.872809 0.036248 -0.018239 -160425.000000 1 0 0
-9.801747 -11.607139 8.990767 17.653153 0.869528 1.036424 0.035848 -0.012050 434415.000000 1 0 0
-10.435547 -10.675339 11.358567 18.758479 0.796756 0.920382 0.065420 -0.024568 165068.000000 1 0 0
-5.791547 -12.243539 10.884467 17.375784 1.128957 0.893850 0.023261 -0.006897 731839.000000 1 0 0
-12.423347 -10.463239 7.329867 17.819817 0.699962 1.146881 0.030276 -0.008408 -599871.000000 1 0 0
-7.551647 -11.103239 12.516667 18.356913 0.973531 0.820507 0.035807 -0.023618 -229353.000000 1 0 0
-14.713647 -11.591839 7.340267 20.118192 0.667275 1.197317 0.052177 -0.007420 -436284.000000 1 0 0
-11.072247 -9.221239 9.239067 17.116841 0.694438 1.000639 0.032313 -0.014323 -609996.000000 1 0 0
-5.224147 -11.932939 13.400767 18.688694 1.158141 0.771233 0.028950 -0.018646 -732205.000000 1 0 0
3.921653 -12.572539 14.578867 19.646665 -1.268438 0.734669 -0.003194 0.002193 -515191.000000 1 0 0
6.540053 -12.818939 14.523967 20.446102 -1.099033 0.780796 0.025941 0.005894 -61810.800000 1 0 0
6.726953 -8.342139 15.978767 19.239651 -0.892176 0.590769 0.021772 -0.009046 -526659.000000 1 0 0
0.668353 -1.821339 14.398467 14.528586 -1.219096 0.133937 -0.001542 0.002380 -979374.000000 1 0 0
-0.162047 -6.434439 15.494467 16.778163 1.545617 0.393716 0.004475 -0.010407 34669.000000 1 0 0
-1.559447 -4.707439 18.389767 19.046663 1.250901 0.263397 0.017476 -0.019565 -2042800.000000 1 0 0
-5.306647 12.755161 12.893867 18.897260 -1.176540 0.819873 0.028076 -0.016353 1113710.000000 1 0 0
-4.145447 8.821661 11.578967 15.135353 -1.131504 0.699712 -0.001546 0.000628 -218197.000000 1 0 0
-0.612847 -3.915939 15.028567 15.542457 1.415555 0.257866 0.003977 -0.003038 81438.000000 1 0 0
-4.577347 9.171761 14.225667 17.534050 -1.107893 0.624396 0.007653 -0.000876 210781.000000 1 0 0
-13.636647 -2.726639 16.827067 21.829862 0.197347 0.690657 0.059087 -0.008004 -398013.000000 1 0 0
-0.342847 0.851861 17.369967 17.394222 -1.188164 0.052816 0.007475 0.002928 -1322530.000000 1 0 0
-3.177547 -7.402539 15.371567 17.354523 1.165331 0.482714 0.016798 -0.015769 128919.000000 1 0 0
-7.403047 5.471261 12.532667 15.550162 -0.636460 0.633516 -0.009705 0.004955 -2610350.000000 1 0 0
-9.869347 10.153261 13.418267 19.507502 -0.799577 0.812271 0.016688 -0.011513 -157349.000000 1 0 0
-5.555947 2.213561 11.118867 12.625276 -0.379137 0.493494 0.000318 0.003077 -1291110.000000 1 0 0
-7.251347 -7.498539 16.749667 19.732244 0.802155 0.556995 0.037914 -0.020564 -25822.200000 1 0 0
-4.729747 2.866761 18.869767 19.663594 -0.544902 0.285114 0.009552 0.007365 -1355850.000000 1 0 0
0.944753 -8.377039 16.638267 18.652058 -1.458492 0.468971 0.008641 -0.007290 583143.000000 1 0 0
-15.271147 -3.629739 13.837767 20.925265 0.233356 0.848253 0.079042 -0.025375 36839.800000 1 0 0
-14.336247 2.233361 13.062767 19.523109 -0.154542 0.837809 0.030028 -0.009901 775829.000000 1 0 0
-5.604947 0.977861 16.183567 17.154576 -0.172726 0.338070 0.011698 0.005042 185010.000000 1 0 0
4.437353 5.712261 15.042967 16.691641 0.910355 0.448202 0.004625 -0.002635 -512728.000000 1 0 0
-1.001247 -11.967839 13.866567 18.344300 1.487329 0.713759 -0.006859 -0.010762 -170407.000000 1 0 0
-5.870347 -4.179439 16.821467 18.300012 0.618706 0.404739 0.027091 -0.012214 -71304.600000 1 0 0
-13.068047 -1.643839 9.800667 16.417343 0.125133 0.931077 0.021148 -0.007844 -620120.000000 1 0 0
-14.364647 10.163461 10.162267 20.320204 -0.615764 1.047075 0.016053 -0.012839 471025.000000 1 0 0
-3.636847 -3.459239 17.824867 18.518069 0.760374 0.274480 0.020708 -0.007848 -2446030.000000 1 0 0
-8.012347 9.364361 11.756867 17.032701 -0.863048 0.808958 0.000019 -0.006327 -303433.000000 1 0 0
-4.364747 10.673461 16.323067 19.985402 -1.182612 0.615042 0.013094 -0.001006 391185.000000 1 0 0
-12.622847 12.625361 8.262567 19.672469 -0.785498 1.137344 0.021081 -0.015000 -64000.300000 1 0 0
-12.555047 3.069161 10.467867 16.632053 -0.239754 0.890042 0.011046 -0.006588 587670.000000 1 0 0
-10.069647 -3.497639 13.680967 17.343590 0.334307 0.661910 0.031924 -0.009917 -1515590.000000 1 0 0
-4.077947 -6.514339 17.730967 19.324944 1.011481 0.409005 0.034493 -0.019184 -729832.000000 1 0 0
0.760153 -3.651139 17.796567 18.183136 -1.365532 0.206570 0.016905 -0.017880 -388530.000000 1 0 0
-5.966047 1.853561 13.681967 15.040799 -0.301230 0.428339 0.000635 0.005770 -636368.000000 1 0 0
-10.544747 8.581561 10.225767 17.011796 -0.683113 0.925921 0.006744 -0.010083 -272834.000000 1 0 0
4.503653 2.506861 17.318167 18.068928 0.507918 0.289278 0.017700 -0.006669 233438.000000 1 0 0
0.566553 -5.383339 13.162967 14.232534 -1.465940 0.390154 -0.002390 -0.002824 -1877140.000000 1 0 0
-3.958347 5.697461 20.825567 21.950713 -0.963598 0.321564 0.039001 -0.008532 -320816.000000 1 0 0
-10.911047 10.753061 8.963167 17.748736 -0.778106 1.041411 0.009526 -0.012276 113715.000000 1 0 0
0.676253 4.237461 12.995567 13.685692 1.412542 0.318924 0.003888 -0.000271 -2985320.000000 1 0 0
-3.235747 7.174661 13.270467 15.428905 -1.147114 0.535322 0.000868 0.004816 -1967970.000000 1 0 0
0.805153 8.988861 14.046167 16.695589 1.481462 0.571094 0.003764 -0.001073 256386.000000 1 0 0
-4.139247 -6.706939 13.046467 15.242267 1.017855 0.543430 0.007236 -0.007432 -1944.810000 1 0 0
-5.131647 8.240361 16.589767 19.221283 -1.013820 0.529433 0.014904 0.008585 46243.400000 1 0 0
1.657353 -10.674039 15.752167 19.100070 -1.416757 0.601093 -0.005142 -0.002343 -177913.000000 1 0 0
-15.154247 -0.974039 14.156167 20.760468 0.064187 0.820465 0.034197 -0.008417 295583.000000 1 0 0
-13.318847 -5.262939 8.576867 16.692899 0.376318 1.031184 0.035909 -0.016840 -1610310.000000 1 0 0
-14.163647 -2.026939 12.151767 18.771863 0.142143 0.866708 0.036834 -0.013984 594868.000000 1 0 0
9.378653 1.600961 17.009567 19.489679 0.169073 0.509994 0.095486 -0.019205 285364.000000 1 0 0
4.985553 -6.634339 16.841567 18.775211 -0.926351 0.457837 0.028233 -0.010401 -622533.000000 1 0 0
-6.103847 -2.636239 11.099767 12.938761 0.407699 0.539687 0.005290 -0.002842 154117.000000 1 0 0
0.473953 -6.292939 18.025267 19.098062 -1.495623 0.336770 0.022125 -0.021385 -490.358000 1 0 0
-8.791747 11.875961 11.998867 19.034340 -0.933534 0.888754 0.024918 -0.022967 475464.000000 1 0 0
-6.644547 -5.781339 14.866267 17.279461 0.716041 0.534854 0.025907 -0.009054 -1140680.000000 1 0 0
-4.275347 -8.996839 16.961967 19.670537 1.127180 0.530996 0.035120 -0.025733 -741242.000000 1 0 0
2.415753 -6.224339 16.311667 17.625230 -1.200578 0.388515 0.016123 -0.011140 -771932.000000 1 0 0
2.191753 5.261061 16.162067 17.137531 1.176063 0.339022 0.001344 0.002092 -939940.000000 1 0 0
1.031153 -8.827339 13.990167 16.574377 -1.454510 0.565942 -0.007520 -0.003125 -782784.000000 1 0 0
-9.818147 -2.809939 11.210467 15.164641 0.278747 0.738840 0.007490 -0.005388 -469396.000000 1 0 0
-1.284647 10.096161 12.364067 16.014148 -1.444235 0.688702 0.001119 -0.004999 -180729.000000 1 0 0
-12.294947 -3.735339 11.210667 17.052787 0.294949 0.853420 0.031871 -0.014929 -427302.000000 1 0 0
-1.802147 6.648861 19.808867 20.972513 -1.306110 0.334679 0.024942 -0.013657 -668605.000000 1 0 0
0.367753 -13.273439 15.657367 20.529797 -1.543097 0.703372 0.002240 -0.017931 -172608.000000 1 0 0
4.195053 -8.582039 15.279167 18.019512 -1.116134 0.558740 0.008615 -0.003974 -35798.600000 1 0 0
4.273953 -4.406739 16.147567 17.275125 -0.800694 0.363300 0.029449 -0.008311 -271439.000000 1 0 0
7.952453 1.723561 14.792767 16.883072 0.213432 0.502898 0.021522 -0.001989 -167310.000000 1 0 0
-6.280047 -0.145739 11.842067 13.405028 0.023202 0.487717 0.003645 0.001705 75650.400000 1 0 0
-3.431947 -11.056339 18.298767 21.653308 1.269821 0.564082 0.063322 -0.029987 47993.200000 1 0 0
3.226253 -1.444939 13.555667 14.009021 -0.421080 0.255099 0.003256 -0.000137 768850.000000 1 0 0
-2.630147 8.661961 16.014767 18.396196 -1.276000 0.514482 0.005443 0.001141 -80860.000000 1 0 0
-3.271847 4.060161 14.826567 15.716774 -0.892504 0.338182 0.003574 0.004093 81325.000000 1 0 0
-4.724647 -9.128539 19.585167 22.118573 1.093193 0.483308 0.063658 -0.033003 -93801.600000 1 0 0
-5.737547 -3.110339 19.184967 20.264664 0.496760 0.327902 0.039898 -0.015045 -1715000.000000 1 0 0
-6.523947 -8.692339 11.014167 15.473542 0.926950 0.778730 0.018366 -0.011181 -1214590.000000 1 0 0
-11.672447 2.329961 12.673267 17.386387 -0.197023 0.754055 0.012081 -0.009091 265678.000000 1 0 0
-11.732947 -7.473039 11.529967 18.067886 0.567131 0.878707 0.053267 -0.025150 492008.000000 1 0 0
-11.005047 -7.395339 15.424467 20.340017 0.591683 0.710047 0.073275 -0.039569 31937.400000 1 0 0
0.139453 5.767761 17.656967 18.575656 1.546623 0.315816 0.008819 -0.001360 -285021.000000 1 0 0
-2.372047 -0.119839 13.250067 13.461250 0.050478 0.177366 -0.001521 0.005306 331576.000000 1 0 0
-5.997747 -10.675439 17.894067 21.682610 1.058918 0.600111 0.072172 -0.036471 -616483.000000 1 0 0
0.444553 2.827161 19.157367 19.369956 1.414830 0.148292 0.021185 -0.005874 -502130.000000 1 0 0
-0.806147 10.912661 14.851967 18.447682 -1.497058 0.634976 0.011527 -0.001535 711311.000000 1 0 0
-12.939147 -2.455539 14.362167 19.486484 0.187546 0.742128 0.047433 -0.012716 -570886.000000 1 0 0
-13.642047 8.352061 11.724567 19.832495 -0.549363 0.938276 0.015484 -0.020198 164254.000000 1 0 0
-18.142947 -0.664039 6.927367 19.431827 0.036584 1.206282 0.085788 -0.027068 -666943.000000 1 0 0
-2.031947 -8.070139 17.622367 19.488555 1.324138 0.441195 0.021087 -0.017556 -1447730.000000 1 0 0
5.627953 2.746961 14.726567 16.002857 0.454076 0.402087 0.014268 -0.005674 -3087490.000000 1 0 0
-14.312947 -6.937439 11.129667 19.412831 0.451330 0.960250 0.078873 -0.024820 1075880.000000 1 0 0
3.306453 7.730361 16.231367 18.279726 1.166622 0.477941 0.009509 -0.013499 -452507.000000 1 0 0
1.005153 2.243261 14.733267 14.936924 1.149543 0.165321 0.002831 -0.003023 -2133800.000000 1 0 0
-14.417347 0.681661 9.634267 17.353491 -0.047245 0.982220 0.031752 -0.009857 -1422330.000000 1 0 0
-9.451747 -5.220739 15.518567 18.905490 0.504651 0.607899 0.046827 -0.015096 -696710.000000 1 0 0
-2.563747 -0.243639 18.252167 18.432953 0.094748 0.140170 0.018400 0.001380 143175.000000 1 0 0
6.841553 3.693561 17.605267 19.245640 0.495034 0.415867 0.044765 -0.009648 -219402.000000 1 0 0
-4.299247 -0.832239 14.763367 15.399128 0.191213 0.288350 0.011264 0.005760 124269.000000 1 0 0
4.840853 -9.025139 17.763467 20.504335 -1.078474 0.522994 0.022816 -0.002145 -132134.000000 1 0 0
1.948053 6.885561 13.300467 15.103254 1.295083 0.493594 0.004569 -0.003170 -1322190.000000 1 0 0
-3.799747 -0.643639 20.523667 20.882367 0.167797 0.185616 0.035621 -0.003003 -696882.000000 1 0 0
-10.572147 1.316461 16.287167 19.462147 -0.123884 0.579268 0.022318 -0.008218 -375899.000000 1 0 0
-3.905147 7.040561 18.559867 20.230876 -1.064379 0.409291 0.014708 0.000315 23104.100000 1 0 0
-12.690347 0.962061 14.750867 19.482262 -0.075666 0.711867 0.028600 -0.012012 2466.320000 1 0 0
-15.880847 -5.109739 8.493467 18.720302 0.311294 1.099879 0.064607 -0.029239 -508694.000000 1 0 0
-2.429247 0.775061 15.804267 16.008648 -0.308845 0.159964 0.011826 0.005577 95806.100000 1 0 0
-13.596347 -8.647939 13.019567 20.716096 0.566505 0.891204 0.084203 -0.041849 568255.000000 1 0 0
5.999053 -3.170539 14.581167 16.082642 -0.486192 0.435546 0.023780 -0.007219 625141.000000 1 0 0
-15.774347 0.283461 7.561667 17.495405 -0.017968 1.123856 0.041162 -0.018571 170980.000000 1 0 0
-14.037747 5.815361 12.552567 19.708975 -0.392744 0.880331 0.034515 -0.014925 981515.000000 1 0 0
0.474953 9.499561 16.642267 19.168524 1.520841 0.519217 0.007983 -0.009466 -203755.000000 1 0 0
-10.303547 -5.381339 10.778367 15.852290 0.481312 0.823136 0.028350 -0.018165 -53759.500000 1 0 0
-3.058547 -11.069539 15.170167 19.026912 1.301219 0.647987 0.019158 -0.013184 -1428550.000000 1 0 0
-3.520747 2.805361 12.619667 13.398571 -0.672792 0.342653 0.001705 0.004872 -1417320.000000 1 0 0
-12.302947 -7.796539 7.379767 16.328181 0.564840 1.101829 0.029907 -0.012999 -612337.000000 1 0 0
-8.148147 -1.914039 13.221567 15.648185 0.230722 0.564368 0.017860 -0.002356 -1007380.000000 1 0 0
-9.770747 6.325161 9.463967 15.001395 -0.574515 0.888119 -0.000075 -0.002698 -1147220.000000 1 0 0
-17.808047 -3.553839 6.786067 19.385743 0.196976 1.213167 0.075719 -0.025135 553382.000000 1 0 0
-1.298147 -0.102639 20.589367 20.630505 0.078901 0.063162 0.024917 -0.000711 -539921.000000 1 0 0
-2.591947 2.665661 20.398067 20.734152 -0.799418 0.180296 0.023081 0.002819 -473772.000000 1 0 0
-3.895747 11.353961 11.174367 16.399871 -1.240266 0.821165 0.010150 -0.011133 -734229.000000 1 0 0
-4.201047 -4.950839 14.879167 16.234199 0.867143 0.411474 0.010919 -0.009542 280727.000000 1 0 0
-0.096347 -14.332739 13.245367 19.516056 1.564074 0.824818 0.011752 -0.011381 -1032090.000000 1 0 0
-12.187047 0.349661 8.325767 14.763630 -0.028683 0.971650 0.008688 -0.006601 -224213.000000 1 0 0
-7.777847 2.205861 15.478067 17.462282 -0.276351 0.481349 0.006485 0.007821 -1513090.000000 1 0 0
3.396353 -2.185139 18.512567 18.947960 -0.571706 0.214788 0.035124 -0.007174 -189793.000000 1 0 0
-2.117347 4.994661 12.645667 13.760185 -1.169839 0.405249 -0.000684 0.002338 -378083.000000 1 0 0
-10.258847 -6.141039 13.231967 17.833711 0.539396 0.734802 0.034105 -0.024635 -578662.000000 1 0 0
2.334853 -3.768739 14.185667 14.862304 -1.016139 0.302908 0.004000 -0.002538 -667035.000000 1 0 0
6.813753 1.158261 17.183967 18.521812 0.168379 0.382407 0.039167 -0.000945 -978258.000000 1 0 0
-1.941347 -5.673139 13.765567 15.014798 1.241087 0.410804 0.001672 -0.005723 -1447720.000000 1 0 0
-12.725647 3.495561 14.691067 19.748126 -0.268075 0.731876 0.005799 -0.009159 191009.000000 1 0 0
-13.114347 -6.104439 13.308867 19.656455 0.435651 0.827018 0.056042 -0.043094 -833016.000000 1 0 0
-9.527647 6.733661 11.928867 16.685806 -0.615242 0.774299 -0.000987 -0.000686 -261945.000000 1 0 0
-1.236247 -2.508139 12.823367 13.124702 1.112849 0.214699 -0.003779 0.003462 368102.000000 1 0 0
0.127853 6.756161 15.280567 16.708016 1.551875 0.416365 0.002494 -0.000808 449932.000000 1 0 0
-16.452847 -0.965439 9.776067 19.162456 0.058612 1.035417 0.060627 -0.014502 197905.000000 1 0 0
-1.307247 2.826661 13.687567 14.037393 -1.137621 0.223719 -0.000468 0.002588 -2121660.000000 1 0 0
-11.256047 -3.467439 16.090767 19.940775 0.298827 0.631864 0.049795 -0.019983 936863.000000 1 0 0
-5.198347 -1.564639 17.123667 17.963599 0.292363 0.307006 0.022644 0.002155 252252.000000 1 0 0
-11.949947 6.563661 11.136667 17.604211 -0.502277 0.885873 0.012527 -0.006044 -1219680.000000 1 0 0
-2.864147 4.589361 18.674467 19.442255 -1.012856 0.281969 0.022722 -0.003448 -34066.000000 1 0 0
4.993853 -1.931839 16.517767 17.363963 -0.369113 0.313477 0.030511 -0.008273 -1226460.000000 1 0 0
-7.962147 -4.176339 12.198167 15.153642 0.483074 0.635178 0.018205 -0.007802 -1700520.000000 1 0 0
-11.821647 -0.948039 16.319167 20.173382 0.080024 0.628440 0.053682 -0.006256 440912.000000 1 0 0
2.022653 1.948361 17.392167 17.617455 0.766692 0.160094 0.004747 -0.001976 -1561480.000000 1 0 0
-8.951147 -7.502839 11.571767 16.441454 0.697603 0.790041 0.030307 -0.017716 1172660.000000 1 0 0
-7.221547 6.933261 14.756967 17.832244 -0.765034 0.596078 -0.004955 0.004403 -1059230.000000 1 0 0
-5.677347 3.530161 15.827767 17.181750 -0.556293 0.399652 0.001497 0.006281 -557870.000000 1 0 0
-9.336747 4.122161 11.592167 15.444915 -0.415762 0.721904 -0.003113 -0.002230 -238179.000000 1 0 0
-10.546947 -0.319339 14.181467 17.676371 0.030269 0.639685 0.025801 -0.004254 -1071920.000000 1 0 0
8.288653 -0.552439 16.054767 18.076573 -0.066552 0.477486 0.056261 -0.007502 225298.000000 1 0 0
-8.546747 -7.549139 14.584467 18.513321 0.723498 0.663596 0.050946 -0.018455 -495515.000000 1 0 0
-0.123347 4.237261 15.555067 16.122336 -1.541694 0.266058 0.003796 -0.002268 -164693.000000 1 0 0
-8.051147 2.963361 9.601667 12.876121 -0.352679 0.729218 -0.002598 -0.000539 -349609.000000 1 0 0
-2.050347 -9.700139 13.160667 16.477250 1.362490 0.645636 0.000758 -0.007745 419929.000000 1 0 0
-6.129347 10.319561 10.417967 15.893278 -1.034834 0.855958 0.013329 -0.007252 -1586700.000000 1 0 0
-8.673747 -2.743939 15.669967 18.119353 0.306388 0.526006 0.029773 -0.013605 622383.000000 1 0 0
4.310253 5.810661 17.588267 19.018128 0.932575 0.390245 0.018432 -0.007545 -311411.000000 1 0 0
-6.870347 -0.961339 15.239067 16.743805 0.139023 0.427195 0.011598 0.004088 257293.000000 1 0 0
-0.782347 -9.897839 15.433867 18.351663 1.491918 0.571656 -0.008335 -0.008070 -2486120.000000 1 0 0
-4.347547 5.789161 16.268867 17.807066 -0.926668 0.418699 0.005899 0.002727 -114293.000000 1 0 0
3.769953 0.074661 17.355567 17.760457 0.019802 0.213936 0.022740 -0.005573 -373228.000000 1 0 0
1.266753 0.270761 19.270667 19.314155 0.210576 0.067119 0.008800 -0.001856 -154094.000000 1 0 0
-6.305947 6.264761 17.844767 19.936096 -0.782122 0.462145 0.010298 0.003903 -1436720.000000 1 0 0
-12.097947 0.478561 10.867967 16.269667 -0.039537 0.839292 0.020241 -0.008777 -183338.000000 1 0 0
-5.354247 5.217061 13.979267 15.852621 -0.772422 0.491074 -0.006246 0.007369 -1235920.000000 1 0 0
-8.613047 -9.507839 9.930967 16.223677 0.834737 0.912047 0.026824 -0.014304 -940228.000000 1 0 0
6.809153 -3.731339 17.053267 18.737699 -0.501298 0.427260 0.050426 -0.011676 411052.000000 1 0 0
-16.776247 1.646661 9.610567 19.404045 -0.097841 1.052631 0.061978 -0.020971 -211024.000000 1 0 0
-4.039647 -9.459139 11.479567 15.413452 1.167180 0.730597 0.004128 -0.011599 -703413.000000 1 0 0
-10.974447 -3.708839 9.092867 14.726649 0.325902 0.905308 0.014213 -0.008011 -639349.000000 1 0 0
3.533053 -5.356139 18.504167 19.585068 -0.987683 0.333782 0.028581 -0.018236 -134599.000000 1 0 0
2.444253 -1.824339 16.084467 16.371092 -0.641180 0.187400 0.006755 -0.001073 -522684.000000 1 0 0
-3.251847 -4.516339 20.308867 21.057585 0.946761 0.267464 0.035083 -0.016292 -1061010.000000 1 0 0
-6.325547 -3.331839 14.497567 16.164564 0.484800 0.458148 0.012462 0.000272 -172534.000000 1 0 0
-9.595747 5.104561 13.989167 17.715296 -0.488888 0.660532 0.009572 0.000050 146918.000000 1 0 0
-5.730447 -5.150539 11.771967 14.069303 0.732153 0.579543 0.004328 -0.002786 -817684.000000 1 0 0
5.986153 1.887861 19.463567 20.450635 0.305499 0.311959 0.071498 -0.021779 260065.000000 1 0 0
-2.896447 11.836761 13.613467 18.270873 -1.330813 0.730125 0.007428 -0.013193 -1189220.000000 1 0 0
3.380453 1.354061 15.175967 15.606759 0.380986 0.235503 0.002978 -0.000525 -717975.000000 1 0 0
-5.783547 7.404461 12.732367 15.823673 -0.907693 0.635727 -0.011154 0.000372 -1696490.000000 1 0 0
-1.838447 -1.638239 15.301767 15.498638 0.727876 0.159559 0.004448 0.004102 564268.000000 1 0 0
-7.302647 10.699961 13.838167 18.955545 -0.971917 0.752427 0.036021 -0.021519 981609.000000 1 0 0
-10.120047 1.901861 10.504167 14.709519 -0.185763 0.775449 0.002630 -0.001476 -1386200.000000 1 0 0
-13.773947 5.087061 9.158067 17.305202 -0.353786 1.013128 0.019622 -0.012137 558930.000000 1 0 0
0.444853 -4.830739 20.062867 20.641041 -1.478967 0.237245 0.028301 -0.028451 -297553.000000 1 0 0
-14.270947 -3.110139 7.579267 16.455339 0.214580 1.092130 0.029464 -0.012865 486517.000000 1 0 0
-2.373647 2.350261 17.817967 18.128372 -0.780448 0.185320 0.010707 0.003376 -434375.000000 1 0 0
-6.076147 -8.378739 14.564767 17.867716 0.943366 0.617818 0.011788 -0.012332 -830610.000000 1 0 0
-7.968347 1.878761 11.993767 14.521527 -0.231549 0.598946 -0.003254 0.001798 605408.000000 1 0 0
-14.613047 -3.692439 10.175167 18.185414 0.247500 0.976986 0.042550 -0.014219 431970.000000 1 0 0
-0.695947 7.232261 12.841867 14.754779 -1.474864 0.514877 0.001080 0.000531 157588.000000 1 0 0
-1.978147 -2.409739 19.600867 19.847264 0.883443 0.157737 0.017871 -0.000105 18114.700000 1 0 0
-12.870647 10.205361 7.217867 17.941587 -0.670407 1.156771 0.004128 -0.014441 356040.000000 1 0 0
-19.586647 2.021261 6.750567 20.815677 -0.102832 1.240523 0.096179 -0.030854 756495.000000 1 0 0
-16.257447 8.233161 6.780167 19.443770 -0.468774 1.214606 0.033509 -0.008707 509142.000000 1 0 0
-12.138047 7.337261 13.629667 19.670674 -0.543710 0.805303 0.010658 -0.011210 -107339.000000 1 0 0
-15.906147 8.064061 10.473167 20.681437 -0.469214 1.039787 0.046511 -0.021044 -591375.000000 1 0 0
1.815053 11.145861 15.011967 18.785201 1.409368 0.644937 0.011647 -0.011959 179080.000000 1 0 0
1.996553 14.359061 12.500167 19.142180 1.432637 0.859235 0.011994 -0.012722 -1733700.000000 1 0 0
-3.176747 13.736261 11.782467 18.373980 -1.343525 0.874659 0.000415 -0.014904 -110942.000000 1 0 0
8.875353 5.013961 15.909667 18.895216 0.514234 0.569827 0.051501 -0.005207 558806.000000 1 0 0
-0.580647 12.558161 12.841267 17.970607 -1.524593 0.774786 0.010849 -0.009059 -1123610.000000 1 0 0
3.444253 13.620061 14.516067 20.201118 1.323108 0.769042 0.013824 -0.006456 -223445.000000 1 0 0
-2.872247 -4.088039 -13.693433 14.576418 0.958329 2.791741 0.004140 -0.009291 -271688.000000 1 0 0
5.508453 -11.634539 16.449767 20.887805 -1.128608 0.664006 0.005468 0.005378 391202.000000 1 0 0
8.137353 -13.437339 7.436767 17.380566 -1.026286 1.128652 0.013495 -0.006692 71159.400000 1 0 0
-0.245847 15.644461 1.349767 15.704505 -1.555083 1.484742 0.009282 -0.006306 -1653510.000000 1 0 0
-13.649247 7.978661 9.082967 18.233521 -0.528981 1.049336 0.003702 -0.007152 521638.000000 1 0 0
-15.359547 -9.738239 4.994167 18.859764 0.565058 1.302794 0.032482 -0.009865 -1265940.000000 1 0 0
9.651753 -10.853439 11.133067 18.300236 -0.843935 0.916808 0.038025 -0.010708 22021.200000 1 0 0
-5.687047 -10.505939 -16.717833 20.547584 1.074644 2.521140 0.046807 -0.009316 -32000.100000 1 0 0
-1.898647 -12.530939 -14.764233 19.457951 1.420423 2.432229 0.033332 -0.010854 -66767.000000 1 0 0
5.640453 -15.206139 -13.212033 20.918871 -1.215596 2.254391 0.037006 -0.011002 94077.600000 1 0 0
1.178953 -11.909139 -16.490133 20.375034 -1.472122 2.513807 0.041377 -0.010504 132382.000000 1 0 0
0.798953 -15.068339 -13.863433 20.491167 -1.517824 2.313873 0.059662 0.019075 360476.000000 1 0 0
-6.428847 -6.341239 -14.593233 17.161114 0.778538 2.587477 0.017654 -0.003536 -75022.500000 1 0 0
-6.224147 -8.197239 -17.542133 20.338662 0.921371 2.610989 0.030484 -0.002729 19976.800000 1 0 0
-2.216047 -16.384339 -13.271933 21.201453 1.436358 2.247199 0.029862 -0.007927 219484.000000 1 0 0
16.421253 -8.025439 -8.664133 20.227022 -0.454585 2.013456 0.101540 -0.024339 4979.730000 1 0 0
19.145953 -2.878239 -3.725833 19.716328 -0.149214 1.760911 0.133785 -0.031875 -78233.500000 1 0 0
15.842453 -11.293939 -8.928833 21.407018 -0.619325 2.001047 0.081089 -0.026824 86568.100000 1 0 0
18.713253 -3.083639 -6.739433 20.127459 -0.163316 1.912229 0.191251 -0.005579 -278278.000000 1 0 0
9.389753 -9.526339 -15.817933 20.715347 -0.792619 2.439644 0.096496 -0.016844 93640.100000 1 0 0
-4.750247 9.375161 -16.215233 19.323361 -1.101816 2.566518 0.000911 -0.004017 496413.000000 1 0 0
2.762053 -9.439839 -18.301033 20.776605 -1.286147 2.648447 0.067566 -0.013906 297015.000000 1 0 0
11.358253 9.485061 -14.349233 20.612539 0.695769 2.340804 0.121304 -0.047065 398966.000000 1 0 0
18.606353 -5.269339 -8.199833 21.004751 -0.275975 1.971841 0.106040 -0.031075 306801.000000 1 0 0
12.407053 5.420961 -13.605533 19.194591 0.411928 2.358622 0.079808 -0.029723 97874.800000 1 0 0
15.796053 6.212561 -10.968433 20.209347 0.374716 2.144493 0.058961 -0.028817 252710.000000 1 0 0
3.271353 -0.271339 -19.123333 19.403021 -0.082754 2.971596 0.041019 -0.016915 122198.000000 1 0 0
10.285453 -1.632139 -14.652733 17.976568 -0.157372 2.523701 0.037681 -0.007197 25550.000000 1 0 0
12.282353 -5.675339 -13.880933 19.384168 -0.432848 2.368990 0.065589 -0.007413 491411.000000 1 0 0
10.151153 6.599861 -14.169433 18.638050 0.576487 2.434482 0.045902 0.010663 413473.000000 1 0 0
10.816453 4.896561 -16.156133 20.049753 0.425093 2.507825 0.090645 -0.034824 449097.000000 1 0 0
11.801853 -10.779839 -14.893633 21.847402 -0.740170 2.320896 0.108323 -0.013157 242942.000000 1 0 0
-1.397947 2.117761 -17.592133 17.774204 -0.987349 2.998337 0.007500 -0.006226 345221.000000 1 0 0
6.511953 -1.013939 -17.188233 18.408394 -0.154464 2.775455 0.026087 0.002883 -16827.900000 1 0 0
7.309853 -6.608739 -16.057233 18.839960 -0.735068 2.591157 0.039967 -0.003375 325393.000000 1 0 0
-2.251947 -4.718639 -20.306533 20.968836 1.125518 2.889589 0.045514 -0.024256 357004.000000 1 0 0
16.111753 -0.084339 -13.275733 20.876800 -0.005235 2.259981 0.105867 -0.021463 53738.900000 1 0 0
-3.793147 -0.849339 -18.738833 19.137743 0.220281 2.937059 0.009354 0.002656 151672.000000 1 0 0
4.840153 9.000361 -17.493433 20.259659 1.077389 2.612888 0.052584 -0.026699 102984.000000 1 0 0
9.333053 -0.059539 -17.230833 19.596199 -0.006379 2.645176 0.047442 -0.014782 12109.300000 1 0 0
4.193453 4.568261 -18.206733 19.233803 0.828150 2.813320 0.015270 -0.009224 399894.000000 1 0 0
-2.614047 -10.967539 -17.813033 21.081373 1.336818 2.577297 0.043419 -0.025779 176189.000000 1 0 0
6.297353 -9.538639 -16.178933 19.809093 -0.987288 2.526539 0.045213 -0.010419 127807.000000 1 0 0
10.035353 -12.497239 -10.750033 19.299028 -0.894225 2.161595 0.039314 0.000447 9154.690000 1 0 0
6.191753 6.990561 -16.884233 19.294638 0.845921 2.636385 0.036938 -0.017260 461005.000000 1 0 0
8.497353 1.421361 -20.034933 21.808801 0.165737 2.735478 0.058258 -0.028658 196609.000000 1 0 0
-0.790247 -0.884539 -20.141033 20.175929 0.841639 3.082769 0.046364 -0.020318 218555.000000 1 0 0
-0.926547 6.632661 -19.499633 20.617623 -1.432000 2.810769 0.017571 -0.004485 -74887.700000 1 0 0
8.690053 5.869061 -18.083633 20.904083 0.594009 2.616099 0.076449 -0.025300 44528.100000 1 0 0
11.953753 -0.054939 -12.807633 17.519437 -0.004596 2.390660 0.020574 -0.008557 228.513000 1 0 0
-4.312547 -3.133939 -19.936733 20.637174 0.628423 2.880309 0.014337 -0.003715 302006.000000 1 0 0
5.598353 -11.352039 -14.389433 19.164188 -1.112637 2.420145 0.021921 -0.007878 12400.300000 1 0 0
11.146353 2.148661 -15.942733 19.571118 0.190432 2.522844 0.057950 -0.011711 -68925.600000 1 0 0
-2.858747 -4.258839 -17.076733 17.830450 0.979627 2.849796 0.010929 -0.011758 215065.000000 1 0 0
-6.795147 -5.061639 -17.574833 19.510740 0.640223 2.692353 0.027576 -0.006438 23322.400000 1 0 0
2.758053 10.115661 -15.139833 18.415971 1.304615 2.535892 0.011007 -0.026061 104969.000000 1 0 0
17.523853 -5.943839 -10.667633 21.359144 -0.327008 2.093750 0.142742 -0.024357 99943.300000 1 0 0
9.503853 -3.474839 -17.642233 20.338292 -0.350526 2.620829 0.036472 -0.022048 184044.000000 1 0 0
-7.055547 -1.769439 -19.147233 20.482387 0.245719 2.778533 0.001775 0.011765 554278.000000 1 0 0
1.640753 -7.470139 -19.200233 20.667462 -1.354588 2.762519 0.067362 -0.025221 260184.000000 1 0 0
5.975453 10.707461 -13.937633 18.563765 1.061783 2.420065 0.045115 -0.020767 390110.000000 1 0 0
6.229353 -3.655639 -17.766033 19.178125 -0.530687 2.755453 0.051281 -0.031658 460648.000000 1 0 0
4.453153 13.600461 -14.274833 20.213213 1.254371 2.354931 0.050167 -0.032455 10265.500000 1 0 0
9.258753 11.479961 -15.503833 21.398197 0.892096 2.381162 0.111415 -0.035868 255586.000000 1 0 0
17.370253 1.448161 -11.626133 20.952084 0.083178 2.159029 0.141945 -0.010587 87635.000000 1 0 0
15.029853 -2.907339 -12.340533 19.663109 -0.191078 2.249261 0.103698 -0.015417 108950.000000 1 0 0
-8.664447 0.303161 -17.406233 19.445861 -0.034975 2.679480 0.028883 -0.009054 477224.000000 1 0 0
-3.403247 4.417761 -19.163833 19.958737 -0.914394 2.858416 0.026520 0.004270 143537.000000 1 0 0
3.771653 1.175161 -17.211733 17.659279 0.302044 2.915977 0.007532 0.001992 454004.000000 1 0 0
-4.933747 14.109161 -14.165833 20.593230 -1.234403 2.329371 0.013939 -0.007832 372847.000000 1 0 0
1.022253 9.496561 -17.599933 20.024668 1.463565 2.644374 0.013696 -0.006611 445810.000000 1 0 0
1.204053 -5.070339 -19.883233 20.554830 -1.337645 2.885261 0.053717 -0.015423 497539.000000 1 0 0
4.154453 -6.131739 -17.803533 19.282725 -0.975309 2.747354 0.058407 -0.039156 223232.000000 1 0 0
-7.135647 6.685961 -15.505533 18.331424 -0.752875 2.578943 0.015398 -0.011090 223540.000000 1 0 0
-11.874747 3.299161 -16.507533 20.600794 -0.270995 2.500271 0.104493 -0.028509 259405.000000 1 0 0
-4.311047 7.030161 -17.487833 19.334751 -1.020712 2.700948 0.002007 0.021419 405055.000000 1 0 0
-8.128347 5.316461 -17.759733 20.242107 -0.579227 2.641141 0.026968 -0.003971 524641.000000 1 0 0
-8.193847 4.190661 -14.851633 17.472028 -0.472758 2.586826 -0.002585 -0.017603 553538.000000 1 0 0
9.576453 13.269761 -12.992833 20.895184 0.945671 2.241848 0.128419 -0.049008 635031.000000 1 0 0
14.760853 9.729161 -11.868333 21.293114 0.582759 2.162022 0.156661 -0.036589 271055.000000 1 0 0
8.563553 15.387461 -10.055633 20.278663 1.062955 2.089636 0.101621 -0.025353 77302.500000 1 0 0
7.811453 13.810361 -14.553133 21.529946 1.056038 2.313047 0.120023 -0.037177 189894.000000 1 0 0
3.995153 15.503461 -13.144533 20.714664 1.318589 2.258225 0.057102 -0.025008 160887.000000 1 0 0
11.032753 11.748061 -10.986933 19.505160 0.816787 2.169151 0.111504 -0.039653 280738.000000 1 0 0
16.022353 10.352861 -8.822733 21.017568 0.573665 2.003998 0.126915 -0.057746 345899.000000 1 0 0
13.015753 10.663461 -8.406533 18.809280 0.686383 2.034133 0.120153 -0.042536 219308.000000 1 0 0
10.474453 11.473161 -7.577433 17.284822 0.830871 2.024599 0.077847 -0.015118 -124313.000000 1 0 0
6.048153 16.748361 -10.142533 20.492895 1.224250 2.088550 0.080727 -0.013500 -205711.000000 1 0 0
11.692553 14.133661 -10.265633 21.020452 0.879639 2.081010 0.173479 -0.036256 -118687.000000 1 0 0
8.488453 -19.174239 -1.780233 21.044583 -1.154029 1.655491 0.057523 -0.011800 235207.000000 1 0 0
8.107553 -17.250239 -4.199133 19.517578 -1.131438 1.787638 0.047294 -0.004862 91909.300000 1 0 0
4.132153 -19.057839 5.717267 20.321492 -1.357280 1.285605 0.066501 -0.011556 171685.000000 1 0 0
10.542153 -16.611339 -1.770633 19.753701 -1.005298 1.660552 0.064852 -0.047159 503006.000000 1 0 0
-3.369847 -14.935839 7.901667 17.229959 1.348890 1.094377 0.023196 -0.024162 188045.000000 1 0 0
-15.409047 -12.699939 -4.456833 20.459485 0.689316 1.790394 0.070930 -0.016926 270387.000000 1 0 0
-9.239447 -12.520639 -7.214833 17.151898 0.935060 2.004951 0.036557 -0.015272 61263.300000 1 0 0
-11.539047 -15.205539 6.816067 20.268616 0.921642 1.227825 0.070066 -0.012985 271538.000000 1 0 0
-14.395847 -8.556939 -8.075533 18.592360 0.536294 2.020109 0.041037 -0.017247 -54752.300000 1 0 0
4.117753 -15.328339 5.514667 16.802542 -1.308356 1.236394 0.024982 -0.020345 187387.000000 1 0 0
2.787053 -13.890239 9.055567 16.813973 -1.372777 1.002053 0.011960 -0.011727 435240.000000 1 0 0
3.293353 -17.032039 10.708767 20.386618 -1.379791 1.017747 0.044181 -0.023516 224427.000000 1 0 0
-8.654447 -17.838139 -5.671633 20.621980 1.119087 1.849416 0.055020 -0.003571 71280.200000 1 0 0
2.360453 -19.842139 -4.160033 20.410489 -1.452391 1.776053 0.062109 -0.024085 164994.000000 1 0 0
-17.700347 -10.879739 -1.642333 20.841503 0.551131 1.649679 0.014082 -0.007629 30632.800000 1 0 0
-4.322747 -14.816639 2.642467 15.658913 1.286926 1.401233 0.009234 0.000897 159800.000000 1 0 0
-10.319347 -9.748539 -14.878633 20.564451 0.756962 2.379673 0.041064 -0.005536 9125.290000 1 0 0
0.695853 -20.215039 2.574367 20.390178 -1.536387 1.444203 0.058370 -0.023674 302460.000000 1 0 0
7.022453 -17.899439 0.563867 19.235974 -1.196921 1.541479 0.055689 -0.019993 -200624.000000 1 0 0
-7.018547 -17.584039 -3.477633 19.249736 1.191029 1.752452 0.009392 -0.056913 122578.000000 1 0 0
-9.814847 -15.584539 -7.499333 19.885901 1.008766 1.957479 0.068255 -0.017309 158860.000000 1 0 0
-11.962447 -11.229639 -12.594633 20.684045 0.753811 2.225477 0.058092 0.001912 425305.000000 1 0 0
-13.444547 -14.930439 -3.575033 20.407222 0.837717 1.746890 0.065300 -0.023341 288189.000000 1 0 0
-0.158747 -20.304839 -2.517933 20.460979 1.562978 1.694169 0.070145 -0.037363 441602.000000 1 0 0
-12.079147 -16.824039 -0.991033 20.734903 0.948112 1.618610 0.060515 -0.015169 78827.700000 1 0 0
0.782153 -19.882839 5.314967 20.595823 -1.531479 1.309782 0.074006 -0.029630 2049.270000 1 0 0
-18.290547 -8.735039 2.284467 20.397642 0.445544 1.458564 0.075121 -0.005828 162618.000000 1 0 0
-14.676947 -14.992639 -0.512333 20.987007 0.796038 1.595211 0.073853 -0.018716 -212234.000000 1 0 0
10.323053 -15.602339 -4.867633 19.331121 -0.986285 1.825339 0.037222 -0.002947 19940.000000 1 0 0
-0.188047 -19.193939 -7.183933 20.495159 1.560999 1.928921 0.045301 -0.017867 73715.300000 1 0 0
-10.275047 -18.570239 -2.360733 21.354237 1.065418 1.681574 0.051311 0.037284 280353.000000 1 0 0
-14.380047 -6.784539 -11.363633 19.543487 0.440836 2.191311 0.050863 -0.019516 -78534.000000 1 0 0
-12.149747 -15.712539 1.977367 19.960216 0.912579 1.471568 0.059896 -0.009283 264268.000000 1 0 0
-2.714747 -16.447839 10.700967 19.809390 1.407219 1.000126 0.027947 -0.009692 462757.000000 1 0 0
-12.435547 -14.323739 -6.656633 20.102813 0.855844 1.908297 0.055341 -0.015254 170247.000000 1 0 0
6.004353 -16.943139 -6.855333 19.238446 -1.230223 1.935139 0.047199 -0.023761 -7067.400000 1 0 0
-17.307247 -7.417039 -3.141033 19.089771 0.404875 1.736088 0.012619 -0.012405 -181627.000000 1 0 0
-12.378447 -13.356339 -9.498833 20.538879 0.823379 2.051587 0.082351 -0.027888 77803.000000 1 0 0
-7.784147 -13.887539 10.174067 18.893605 1.059917 1.002149 0.042702 -0.004646 467411.000000 1 0 0
-15.905547 -8.404939 -5.520533 18.817697 0.486131 1.868546 0.060103 -0.009479 179918.000000 1 0 0
-0.798547 -19.765639 -0.118233 19.782116 1.530418 1.576773 0.050948 -0.018400 231243.000000 1 0 0
-14.821947 -11.485839 -1.935233 18.850988 0.659261 1.673637 0.025902 -0.002705 137212.000000 1 0 0
-7.057847 -19.227939 1.911567 20.571362 1.219003 1.477738 0.052898 -0.017983 58285.400000 1 0 0
-1.083947 -21.268839 -4.539033 21.774785 1.519876 1.780790 0.039780 -0.024890 50922.400000 1 0 0
-8.443547 -19.919239 -1.200933 21.668221 1.169867 1.626248 0.029528 -0.011676 180398.000000 1 0 0
-17.555847 -7.765139 4.998067 19.836477 0.416441 1.316088 0.052195 -0.017781 25322.600000 1 0 0
-2.904047 -15.939039 -10.959733 19.560220 1.390576 2.165553 0.025674 0.000003 101750.000000 1 0 0
-3.285747 -18.611939 -7.770233 20.434699 1.396057 1.960860 0.027033 -0.005940 241934.000000 1 0 0
4.054253 -17.705439 -6.199633 19.192576 -1.345694 1.899718 0.022148 0.016735 365499.000000 1 0 0
0.788953 -17.446739 -9.976633 20.113288 -1.525606 2.089808 0.035609 0.001493 111638.000000 1 0 0
-7.640347 -10.225439 -14.829433 19.566466 0.929096 2.430885 0.031839 -0.008268 371492.000000 1 0 0
-4.941747 -19.763239 -2.089233 20.478559 1.325773 1.672995 0.045197 -0.023221 359775.000000 1 0 0
-10.343047 -15.461839 8.657767 20.518382 0.981221 1.135199 0.063932 -0.026829 271006.000000 1 0 0
-7.281947 -14.916739 -10.392533 19.584192 1.116655 2.130175 0.037731 -0.017606 258154.000000 1 0 0
-12.514147 -7.942039 -12.814533 19.593165 0.565505 2.283697 0.052197 -0.005516 245700.000000 1 0 0
-16.014147 -13.025739 3.117767 20.876859 0.682852 1.420895 0.074913 -0.005947 120199.000000 1 0 0
-6.254547 -14.210739 -12.901933 20.187232 1.156182 2.264141 0.020683 -0.003804 508314.000000 1 0 0
-13.996847 -11.421939 -6.706933 19.270583 0.684443 1.926276 0.058202 -0.022402 347308.000000 1 0 0
-11.984947 -10.551839 -8.131933 17.919503 0.721894 2.041825 0.046119 -0.012314 141038.000000 1 0 0
-9.849447 -14.933239 3.692567 18.266042 0.987726 1.367239 0.018919 0.002576 477130.000000 1 0 0
4.773153 -18.246639 8.427767 20.657930 -1.314939 1.150569 0.060099 -0.020169 174033.000000 1 0 0
-4.818647 -16.780439 5.058167 18.176566 1.291162 1.288794 0.014229 0.003814 355955.000000 1 0 0
-18.537447 -6.988439 -7.538733 21.196880 0.360514 1.934409 0.071850 -0.017666 39256.800000 1 0 0
-17.081447 -4.849239 -10.812733 20.789568 0.276612 2.117769 0.104433 -0.018604 -196945.000000 1 0 0
-15.791147 -4.146439 -13.085133 20.923049 0.256783 2.246432 0.100870 -0.031466 215450.000000 1 0 0
-19.401647 -5.505039 -6.105233 21.071384 0.276474 1.864752 0.069437 -0.022525 125481.000000 1 0 0
5.657053 -13.593639 8.813267 17.159922 -1.176442 1.031426 0.028839 -0.006980 416341.000000 1 0 0
19.931953 -3.574839 2.843967 20.448725 -0.177465 1.431266 0.115328 -0.026863 -67411.100000 1 0 0
18.057353 -2.593639 -0.088233 18.242882 -0.142658 1.575633 0.057545 -0.021259 361518.000000 1 0 0
14.032953 -10.983939 0.340167 17.823759 -0.664118 1.551710 0.028434 -0.004406 -27985.200000 1 0 0
11.505953 -14.032239 5.374467 18.925527 -0.883999 1.282854 0.044300 0.003279 459244.000000 1 0 0
10.471953 -12.442539 8.203267 18.214614 -0.871184 1.103620 0.054397 -0.033345 119137.000000 1 0 0
18.230253 4.124761 -4.339633 19.188230 0.222513 1.798931 0.047661 -0.007782 -65457.900000 1 0 0
18.626553 -6.156239 -4.379333 20.100406 -0.319206 1.790431 0.076321 -0.023807 -23316.900000 1 0 0
17.792253 -9.775039 -0.231433 20.301951 -0.502381 1.582196 0.068643 -0.012648 259158.000000 1 0 0
17.711453 -8.534739 8.586867 21.453942 -0.449044 1.159010 0.141173 -0.030997 -24165.000000 1 0 0
19.883153 0.312961 -1.985433 19.984485 0.015739 1.670309 0.131312 -0.017816 -340525.000000 1 0 0
7.605653 -13.272139 11.622467 19.211386 -1.050426 0.921058 0.035548 -0.005505 353064.000000 1 0 0
16.223053 -6.732039 -3.304433 17.872523 -0.393342 1.756755 0.067441 -0.011251 269539.000000 1 0 0
14.380953 -7.100239 11.002967 19.449691 -0.458615 0.969497 0.096290 -0.055162 491295.000000 1 0 0
16.467653 1.100061 10.332167 19.471708 0.066702 1.011459 0.157956 -0.031390 238020.000000 1 0 0
16.627253 -9.878839 2.718467 19.530670 -0.536096 1.431153 0.033216 -0.014840 311101.000000 1 0 0
16.306653 -7.251439 -6.170733 18.883014 -0.418431 1.903699 0.080228 -0.004380 242024.000000 1 0 0
17.968853 -4.137739 5.940467 19.372395 -0.226328 1.259129 0.118342 -0.030546 38931.100000 1 0 0
13.380853 -13.250839 8.139867 20.515589 -0.780516 1.162806 0.061272 -0.018333 119906.000000 1 0 0
15.822553 -13.554239 -1.261733 20.872531 -0.708337 1.631283 0.073190 -0.022687 242383.000000 1 0 0
18.713853 -6.063239 7.509867 21.056335 -0.313325 1.206110 0.169430 -0.043170 318599.000000 1 0 0
19.631053 3.587261 2.428867 20.103385 0.180740 1.449682 0.095155 -0.014971 120249.000000 1 0 0
15.730153 -10.089639 8.380967 20.481190 -0.570320 1.149216 0.083245 -0.036671 270477.000000 1 0 0
14.093953 -4.005439 10.660567 18.119899 -0.276895 0.941798 0.080653 -0.020871 -185636.000000 1 0 0
18.795653 -7.698939 2.023467 20.411875 -0.388766 1.471501 0.118250 -0.024474 90534.600000 1 0 0
18.715053 -4.807639 -1.808733 19.407166 -0.251449 1.664131 0.074453 -0.022932 316108.000000 1 0 0
15.102053 -13.140439 -6.122433 20.933880 -0.716053 1.867600 0.091872 -0.025621 660344.000000 1 0 0
14.014953 -9.312239 10.209467 19.681715 -0.586467 1.025433 0.057177 -0.025762 479316.000000 1 0 0
14.091353 2.216761 0.479567 14.272710 0.156035 1.537190 -0.002788 -0.004055 -257368.000000 1 0 0
12.929653 2.554661 13.698867 19.009502 0.195069 0.766082 0.088249 -0.019230 155849.000000 1 0 0
18.237753 -3.239139 9.191867 20.678445 -0.175773 1.110164 0.139316 -0.035169 92643.900000 1 0 0
7.393053 -18.517639 5.186067 20.602317 -1.190942 1.316337 0.067431 -0.028214 456182.000000 1 0 0
12.391753 -3.467439 14.793367 19.606692 -0.272840 0.715895 0.098038 -0.008205 265889.000000 1 0 0
11.391853 -13.468539 -6.978933 18.970539 -0.868739 1.947527 0.037200 -0.016860 230927.000000 1 0 0
11.023753 -17.000339 4.951867 20.857987 -0.995516 1.331099 0.068218 -0.018365 435785.000000 1 0 0
18.374253 -0.385639 -5.543133 19.196047 -0.020985 1.863732 0.110246 -0.011367 161826.000000 1 0 0
4.286053 -13.409239 11.342467 18.078426 -1.261425 0.892582 0.004577 -0.012356 199737.000000 1 0 0
9.231453 -2.397039 14.420567 17.289253 -0.254050 0.584339 0.038382 -0.005317 347442.000000 1 0 0
8.997953 -9.221939 14.153867 19.139991 -0.797691 0.738481 0.048170 -0.006592 365577.000000 1 0 0
20.919553 5.724761 -3.251033 21.931024 0.267116 1.719584 0.169362 -0.006060 565456.000000 1 0 0
14.822953 -13.556639 2.269667 20.215187 -0.740807 1.458284 0.038603 -0.003629 214259.000000 1 0 0
10.890953 -0.241639 15.232967 18.727374 -0.022183 0.620812 0.069184 -0.014437 60483.700000 1 0 0
19.747253 0.069361 7.485867 21.118641 0.003512 1.208452 0.188709 -0.035781 70627.600000 1 0 0
19.916653 1.236861 0.446667 19.960020 0.062022 1.548416 0.100596 -0.017937 163122.000000 1 0 0
17.902053 0.336461 2.942967 18.145461 0.018792 1.407889 0.059661 -0.011942 -116191.000000 1 0 0
10.271553 -8.339139 16.290067 20.986003 -0.681935 0.682125 0.076241 -0.006091 130737.000000 1 0 0
19.179453 2.987561 5.329167 20.129008 0.154527 1.302851 0.098539 -0.012702 140106.000000 1 0 0
16.109053 2.624161 7.295467 17.877686 0.161481 1.150450 0.089687 -0.009402 111794.000000 1 0 0
11.357453 -16.096839 1.809467 19.783178 -0.956342 1.479203 0.024512 -0.005228 278687.000000 1 0 0
7.438353 -16.588539 6.652967 19.358995 -1.149271 1.219982 0.018044 -0.008850 452811.000000 1 0 0
6.098753 6.773161 7.276367 11.662590 0.837744 0.897065 0.001498 0.002331 -1251280.000000 1 0 0
18.483153 2.299061 -6.650333 19.777248 0.123751 1.913741 0.097372 -0.005267 93130.900000 1 0 0
14.170853 4.712661 -7.269733 16.609373 0.321055 2.023823 0.017072 -0.007585 66853.500000 1 0 0
-10.618347 -4.070839 -13.655633 17.770688 0.366095 2.447190 0.021737 -0.009795 -355826.000000 1 0 0
7.705953 -13.959739 -10.480533 19.081341 -1.066409 2.152269 0.024133 -0.004498 95790.700000 1 0 0
2.014053 -15.925539 13.789567 21.162026 -1.444997 0.861080 0.015127 -0.013817 353172.000000 1 0 0
-9.394147 -7.867539 2.088467 12.430200 0.697189 1.401980 0.006735 0.003744 337152.000000 1 0 0
-13.795247 2.946861 -9.790333 17.171006 -0.210451 2.177505 0.021503 -0.007856 485567.000000 1 0 0
-13.136147 -5.245739 -13.394133 19.480219 0.379934 2.328942 0.058734 -0.001738 143788.000000 1 0 0
-17.993947 -1.385839 -8.493533 19.945997 0.076865 2.010671 0.093294 -0.040310 390670.000000 1 0 0
-12.545547 14.954361 3.241867 19.787202 -0.872769 1.406218 0.029152 -0.017759 250047.000000 1 0 0
-17.127047 6.419961 9.033367 20.399837 -0.358633 1.112060 0.040558 -0.027508 96779.100000 1 0 0
-12.567147 15.158461 -0.372733 19.693935 -0.878590 1.589724 0.032300 -0.031698 192290.000000 1 0 0
-16.162047 5.349861 -10.627233 20.069152 -0.319662 2.128844 0.045787 -0.014375 -71738.600000 1 0 0
-17.646647 2.340661 -0.249033 17.802946 -0.131871 1.584785 0.043274 -0.005746 -112083.000000 1 0 0
-9.941547 15.309861 -0.424233 18.259414 -0.994874 1.594032 0.014875 -0.010334 -70409.800000 1 0 0
-18.871247 11.625961 2.131667 22.267262 -0.552150 1.474919 0.155027 -0.040428 62507.300000 1 0 0
-8.429347 16.419161 -8.007733 20.118811 -1.096498 1.980156 0.064307 -0.018048 152985.000000 1 0 0
-14.776247 -1.757039 -13.117633 19.836758 0.118354 2.293319 0.072198 -0.029421 189306.000000 1 0 0
-19.290147 4.888861 -5.021633 20.523829 -0.248212 1.817979 0.106614 -0.011519 210559.000000 1 0 0
-16.677747 9.593061 -5.645833 20.051172 -0.521986 1.856228 0.044494 0.010566 133266.000000 1 0 0
-18.784947 1.354561 2.867067 19.050699 -0.071984 1.419726 0.076268 -0.028475 247478.000000 1 0 0
-14.610547 11.076361 -7.317433 19.740788 -0.648670 1.950533 0.041658 -0.020199 93274.400000 1 0 0
-14.012447 5.022561 -12.216633 19.256711 -0.344170 2.258040 0.089875 -0.033183 -14096.000000 1 0 0
-14.103347 9.120361 -6.669933 18.071342 -0.574038 1.948825 0.017472 -0.008769 144184.000000 1 0 0
-6.415447 11.016561 -15.392833 19.986543 -1.043459 2.449888 0.014239 -0.037732 73313.100000 1 0 0
-14.962947 13.911961 3.427167 20.716610 -0.749016 1.404601 0.032721 -0.017250 67048.700000 1 0 0
-18.657647 8.238361 -4.755433 20.942601 -0.415808 1.799864 0.087187 -0.011195 174924.000000 1 0 0
-4.653847 16.083061 -11.490733 20.306652 -1.289126 2.172273 0.022290 -0.006254 74634.800000 1 0 0
-19.371647 -2.549439 -6.613633 20.627663 0.130855 1.897180 0.058174 -0.028811 -66102.200000 1 0 0
-10.987147 13.858461 -6.204833 18.742313 -0.900454 1.908223 0.030530 -0.015171 129710.000000 1 0 0
-19.528547 3.437761 4.515367 20.336443 -0.174252 1.346897 0.096666 -0.018021 44848.600000 1 0 0
-15.116547 13.016861 0.723767 19.961776 -0.710903 1.534531 0.021884 0.001596 34486.800000 1 0 0
-17.334647 2.440361 -8.209133 19.334819 -0.139860 2.009292 0.036586 -0.023170 178220.000000 1 0 0
-16.988347 13.471161 -3.601733 21.978367 -0.670436 1.735415 0.082743 0.014570 417017.000000 1 0 0
-10.843547 15.449061 -9.040733 20.928231 -0.958803 2.017492 0.051861 -0.011235 191319.000000 1 0 0
-19.220947 1.390861 -7.089433 20.533859 -0.072236 1.923308 0.080447 -0.032242 28283.900000 1 0 0
-17.083147 10.341461 -0.380333 19.973092 -0.544352 1.589840 0.038025 -0.002123 177567.000000 1 0 0
-11.695147 6.281961 -14.438733 19.614192 -0.492918 2.398141 0.045943 -0.024509 425633.000000 1 0 0
-13.818947 12.731061 -5.253533 19.510070 -0.744446 1.843434 0.039114 -0.006013 395239.000000 1 0 0
-19.058747 7.102361 -0.094733 20.339330 -0.356714 1.575454 0.092155 -0.006938 170402.000000 1 0 0
-14.485447 8.971761 -10.792333 20.169163 -0.554536 2.135412 0.007950 0.002621 498398.000000 1 0 0
-18.533647 11.207061 4.896867 22.205261 -0.543859 1.348441 0.090192 -0.033104 173756.000000 1 0 0
-8.234247 11.995161 -13.481433 19.835215 -0.969213 2.318111 0.005154 -0.004040 484009.000000 1 0 0
-21.177047 -1.225039 -5.511933 21.916876 0.057783 1.825018 0.095646 -0.035102 352877.000000 1 0 0
-10.630247 13.383761 -3.244933 17.397035 -0.899562 1.758417 0.015197 0.001432 437968.000000 1 0 0
-18.937347 -4.944939 3.983867 19.973651 0.255418 1.369993 0.087178 -0.013812 -4524.140000 1 0 0
-11.555647 11.427961 -13.142733 20.901261 -0.779843 2.250807 0.042928 -0.012728 160429.000000 1 0 0
-15.095947 11.415561 -9.879233 21.349518 -0.647458 2.051878 0.035285 -0.021121 61661.500000 1 0 0
-12.681747 9.437761 -14.154933 21.219335 -0.639779 2.301075 0.065552 -0.022190 329793.000000 1 0 0
-17.669647 -5.203339 -3.235133 18.701798 0.286384 1.744656 -0.011575 -0.011533 -246802.000000 1 0 0
-9.783547 12.649761 -11.360933 19.616449 -0.912476 2.188486 0.035281 -0.009594 147291.000000 1 0 0
-15.353347 7.598261 -8.111433 18.954002 -0.459554 2.013024 -0.002529 -0.003313 -25466.700000 1 0 0
-14.611647 8.513861 1.960067 17.024333 -0.527584 1.455407 0.014551 -0.001966 -9230.880000 1 0 0
-19.871847 5.739061 8.417767 22.331277 -0.281153 1.184296 0.099796 -0.034045 210971.000000 1 0 0
-18.998647 5.964961 3.953967 20.301803 -0.304221 1.374784 0.049224 -0.005386 185355.000000 1 0 0
-14.676847 12.636861 5.700467 20.188993 -0.710849 1.284548 0.030744 -0.012850 77975.700000 1 0 0
18.252853 6.461461 5.694667 20.182823 0.340231 1.284758 0.102140 -0.021763 271058.000000 1 0 0
18.222753 8.261061 0.509767 20.014338 0.425626 1.545323 0.048856 0.000463 -112375.000000 1 0 0
16.136253 5.348961 8.982367 19.226881 0.320088 1.084700 0.087396 0.002296 27750.200000 1 0 0
12.116153 13.423261 10.385067 20.852691 0.836534 1.049482 0.055246 -0.023386 87277.600000 1 0 0
14.525053 12.953661 3.831867 19.835768 0.728275 1.376395 0.049259 -0.008874 62879.100000 1 0 0
5.410353 10.877261 14.523967 18.934950 1.109231 0.696573 0.020219 0.000682 147534.000000 1 0 0
12.616653 14.424361 -4.943533 19.790923 0.852149 1.823258 0.093254 0.013432 327805.000000 1 0 0
18.070553 9.248461 -2.642233 20.470963 0.473041 1.700230 0.045014 -0.007486 -56243.100000 1 0 0
14.298553 7.628861 9.448967 18.759827 0.490119 1.042942 0.077277 -0.015186 136890.000000 1 0 0
4.525353 18.874561 -1.311333 19.453727 1.335479 1.638255 0.018515 -0.029032 507818.000000 1 0 0
-4.639047 18.624561 3.038067 19.432573 -1.326682 1.413813 0.012424 -0.034051 273944.000000 1 0 0
7.958053 13.651161 11.885367 19.772374 1.043002 0.925907 0.061912 -0.000082 66950.200000 1 0 0
0.112653 16.843361 -10.318233 19.752910 1.564108 2.120419 0.018633 -0.002243 23249.300000 1 0 0
10.821653 9.643761 15.265567 21.051077 0.727906 0.759518 0.079978 -0.030916 245960.000000 1 0 0
-1.436047 12.687961 0.468967 12.777579 -1.458094 1.534086 -0.002011 0.001744 431782.000000 1 0 0
-4.614047 19.116761 -2.355333 19.806251 -1.333965 1.689997 0.026289 -0.007549 56732.900000 1 0 0
5.550553 18.777961 6.184467 20.534559 1.283392 1.264873 0.045264 -0.014771 141457.000000 1 0 0
11.139653 17.426561 -1.521733 20.738673 1.002027 1.644239 0.110821 -0.031593 447113.000000 1 0 0
18.634653 10.121261 3.393767 21.475751 0.497563 1.412103 0.094183 -0.023125 281667.000000 1 0 0
11.218253 16.895761 5.812367 21.097383 0.984664 1.291685 0.050000 -0.018692 -151368.000000 1 0 0
18.042253 7.022861 -5.883333 20.235046 0.371201 1.865807 0.047703 0.000653 412549.000000 1 0 0
-0.689447 15.950861 11.784967 19.844162 -1.527600 0.934929 0.010414 0.034783 208143.000000 1 0 0
1.249553 20.351261 -1.912933 20.479124 1.509474 1.664342 0.021751 -0.010623 295674.000000 1 0 0
14.146653 9.895061 -1.205933 17.305904 0.610366 1.640536 0.033091 -0.006484 -30512.300000 1 0 0
10.316553 16.906161 1.689667 19.877236 1.022893 1.485688 0.073018 -0.042298 219857.000000 1 0 0
0.251453 17.520261 -0.376133 17.526102 1.556445 1.592259 0.009164 -0.014540 67618.200000 1 0 0
-0.120947 20.939361 0.266267 20.941403 -1.565020 1.558081 0.032074 -0.015995 174131.000000 1 0 0
6.085753 17.293961 -0.290533 18.335809 1.232429 1.586642 0.027692 -0.035066 -7683.650000 1 0 0
6.393053 18.571961 -2.568633 19.808754 1.239270 1.700834 0.036837 -0.026820 -64902.500000 1 0 0
10.215353 9.705761 12.684867 18.959459 0.759823 0.837864 0.043034 -0.010739 142797.000000 1 0 0
12.886253 14.812161 8.104667 21.240086 0.854818 1.179298 0.066622 -0.027272 203206.000000 1 0 0
-0.075647 17.670561 7.347167 19.137276 -1.566515 1.176759 0.020499 -0.007219 125197.000000 1 0 0
7.815353 17.842161 -7.825533 20.991937 1.157943 1.952808 0.081656 -0.010544 138085.000000 1 0 0
-1.078447 18.485561 9.197767 20.675540 -1.512522 1.109776 0.033769 -0.022932 30952.900000 1 0 0
15.964853 6.774661 -8.037133 19.114604 0.401319 2.004761 0.060662 -0.008612 -315095.000000 1 0 0
-5.375447 19.702761 -6.675133 21.486080 -1.304451 1.886697 0.034989 -0.012176 357948.000000 1 0 0
4.038853 15.929061 9.997267 19.235194 1.322477 1.024252 0.021162 -0.002831 93336.600000 1 0 0
9.272653 14.889361 7.160767 18.946022 1.013802 1.183209 0.035243 -0.013646 224564.000000 1 0 0
-2.948347 19.441361 6.469967 20.700719 -1.420290 1.252922 0.025227 -0.009250 115618.000000 1 0 0
4.534253 17.960961 8.364667 20.325433 1.323513 1.146657 0.035543 -0.018806 218168.000000 1 0 0
14.862053 12.034361 -6.277633 20.127472 0.680650 1.887982 0.089090 -0.015294 19463.300000 1 0 0
11.708453 7.015061 15.712467 20.812990 0.539791 0.715240 0.103805 -0.032368 247415.000000 1 0 0
16.759053 10.267061 4.728267 20.214720 0.549653 1.334707 0.069813 -0.026853 45698.400000 1 0 0
5.240953 14.928261 13.089867 20.534488 1.233163 0.879602 0.021089 -0.001034 179660.000000 1 0 0
15.973653 10.350061 -3.644533 19.379473 0.574930 1.759984 0.071397 -0.027297 197937.000000 1 0 0
15.596653 13.928561 6.784767 21.983936 0.728961 1.257050 0.092023 -0.010460 419631.000000 1 0 0
12.735853 12.993561 -7.863933 19.821100 0.795414 1.978765 0.187970 -0.052562 242071.000000 1 0 0
-8.510247 15.410561 9.873267 20.183932 -1.066239 1.059665 0.038495 -0.021333 240700.000000 1 0 0
-3.876747 17.703461 -8.136233 19.865548 -1.355217 1.992774 0.006355 0.043747 -33430.100000 1 0 0
2.325653 19.463561 -4.546133 20.122281 1.451873 1.798689 0.023382 -0.020879 -90634.700000 1 0 0
6.856053 16.972761 8.889767 20.349645 1.186894 1.118701 0.042796 -0.008523 304319.000000 1 0 0
13.457953 15.423861 -1.815433 20.550129 0.853361 1.659253 0.132168 -0.036502 200749.000000 1 0 0
13.071153 16.481061 4.032167 21.418188 0.900276 1.381407 0.097367 -0.034291 298367.000000 1 0 0
2.140353 18.377861 1.171967 18.539159 1.454855 1.507538 0.012904 -0.025017 -521219.000000 1 0 0
-7.730747 17.357061 0.825567 19.018769 -1.151779 1.527375 0.014464 0.001879 255437.000000 1 0 0
0.776853 19.461061 -6.042233 20.392278 1.530899 1.871613 0.032814 -0.009418 134926.000000 1 0 0
-7.171447 17.957461 -6.309833 20.339962 -1.190844 1.886219 0.049039 -0.020837 54573.200000 1 0 0
-7.403347 18.563061 -1.681233 20.055506 -1.191306 1.654724 0.035565 -0.012854 194546.000000 1 0 0
-14.475147 -8.974239 8.729567 19.138239 0.554978 1.097152 0.064326 -0.025365 553694.000000 1 0 0
-13.177547 -13.714139 7.854067 20.576971 0.805349 1.179170 0.063733 -0.008403 147094.000000 1 0 0
-3.269347 -15.597939 13.162967 20.669979 1.364186 0.880435 0.024999 -0.003259 -54188.500000 1 0 0
-1.883647 -14.793439 15.581967 21.568302 1.444148 0.763461 0.034993 -0.009377 496330.000000 1 0 0
-7.282347 -13.618239 13.723667 20.659817 1.079737 0.844281 0.035516 -0.016291 247491.000000 1 0 0
-10.040047 -11.506739 11.592867 19.172954 0.853363 0.921474 0.069901 -0.020025 40417.100000 1 0 0
-7.391747 -10.484839 13.219867 18.421038 0.956727 0.770374 0.039104 -0.015435 447043.000000 1 0 0
-14.893647 -11.361239 8.244067 20.466145 0.651658 1.156206 0.052514 0.004094 379210.000000 1 0 0
-4.398247 -12.344239 13.174567 18.582089 1.228520 0.782727 0.019856 -0.023655 345708.000000 1 0 0
3.823353 -13.067539 13.773967 19.367518 -1.286157 0.779608 -0.000775 0.009570 301268.000000 1 0 0
6.479853 -13.638439 15.000667 21.284161 -1.127253 0.788682 0.023518 0.008503 355855.000000 1 0 0
7.263853 -8.867139 16.560767 20.140723 -0.884464 0.605438 0.050029 -0.008813 579388.000000 1 0 0
-5.420247 13.515561 13.451867 19.824283 -1.189396 0.825003 0.032405 -0.016001 501766.000000 1 0 0
-13.972747 -1.949039 17.256967 22.289893 0.138594 0.685337 0.069893 -0.013842 339217.000000 1 0 0
-10.503447 9.988961 12.730267 19.291486 -0.760297 0.850123 0.017619 -0.002273 272753.000000 1 0 0
-7.226847 -8.426139 16.953067 20.264097 0.861866 0.579738 0.055023 -0.024938 235309.000000 1 0 0
-4.852547 1.928961 18.780367 19.492827 -0.378362 0.271200 0.015080 0.008544 668759.000000 1 0 0
-16.107447 -3.588639 14.286567 21.827372 0.219214 0.857242 0.093476 -0.029652 379845.000000 1 0 0
-14.690147 3.101861 12.911267 19.802090 -0.208096 0.860557 0.043066 0.002874 380256.000000 1 0 0
-13.492947 10.526461 10.266467 19.956612 -0.662517 1.030443 -0.043705 0.017256 -108972.000000 1 0 0
-4.557747 11.251861 15.594567 19.762792 -1.185930 0.661475 0.017143 -0.007264 176214.000000 1 0 0
-13.455747 12.711361 7.813867 20.092097 -0.756958 1.171356 0.026194 -0.034519 88472.200000 1 0 0
-3.857847 -6.574939 18.653167 20.150768 1.040176 0.387967 0.038699 -0.019726 348484.000000 1 0 0
0.465453 -2.773139 18.008167 18.226383 -1.404503 0.154897 0.005594 -0.011921 74049.900000 1 0 0
-4.103447 6.505161 21.304167 22.650010 -1.008038 0.346459 0.042699 -0.004654 147531.000000 1 0 0
2.244953 -10.502639 16.478667 19.669563 -1.360214 0.577601 0.006307 -0.006851 347649.000000 1 0 0
-15.194347 -0.263739 13.526567 20.344674 0.017356 0.843476 0.034513 -0.018855 26382.900000 1 0 0
-13.577847 -6.163439 8.419867 17.124254 0.426120 1.056764 0.036518 -0.011828 -10073.900000 1 0 0
9.958253 2.080861 16.429767 19.324441 0.205994 0.554419 0.085098 -0.017442 468787.000000 1 0 0
-8.091847 12.518361 12.003467 19.138197 -0.996957 0.892844 0.034618 -0.015908 145789.000000 1 0 0
-1.770147 7.580761 19.990167 21.452462 -1.341401 0.371358 0.035993 -0.016605 520470.000000 1 0 0
1.274453 -13.135239 15.409867 20.288488 -1.474074 0.708195 -0.002578 -0.021744 568168.000000 1 0 0
-3.759847 -11.938439 18.168967 22.062958 1.265693 0.603234 0.061144 -0.011980 271015.000000 1 0 0
-2.096447 9.351861 16.391267 18.987523 -1.350268 0.529093 0.007455 -0.005360 296382.000000 1 0 0
-4.343347 -9.605239 20.313067 22.885497 1.146127 0.478698 0.076591 -0.037555 265478.000000 1 0 0
-6.673947 -3.270539 19.188867 20.577916 0.455652 0.369528 0.044275 -0.017809 -206897.000000 1 0 0
-10.650847 -8.264539 15.571167 20.596223 0.659904 0.713584 0.089507 -0.038421 268280.000000 1 0 0
-0.411147 6.531561 17.783267 18.949272 -1.507932 0.352632 0.009767 -0.003589 151105.000000 1 0 0
-6.346947 -11.277339 18.540867 22.610304 1.058175 0.609353 0.103685 -0.045600 397625.000000 1 0 0
0.732753 3.603561 18.691967 19.050255 1.370190 0.194251 0.015499 -0.006039 137678.000000 1 0 0
-18.603247 -0.280039 7.664467 20.122209 0.015052 1.180031 0.084157 -0.028155 172320.000000 1 0 0
-1.807147 -8.978239 17.457267 19.713719 1.372170 0.483143 0.017640 -0.016209 147744.000000 1 0 0
5.045053 3.173361 14.109367 15.316560 0.561474 0.399685 0.017416 -0.011851 -507013.000000 1 0 0
-14.940747 -7.619939 10.923767 20.015446 0.471624 0.993492 0.115906 0.005239 338281.000000 1 0 0
4.070253 8.283161 16.347767 18.773045 1.114061 0.513947 0.012701 -0.021495 126497.000000 1 0 0
6.375053 4.351761 17.103567 18.764624 0.598968 0.423930 0.053863 -0.044101 251651.000000 1 0 0
4.239753 -9.753639 17.661067 20.616068 -1.160752 0.542026 -0.011563 -0.009874 339296.000000 1 0 0
-4.563747 -0.285139 20.087567 20.601443 0.062398 0.223822 0.036031 -0.002531 871770.000000 1 0 0
-11.094747 2.025461 16.643167 20.104500 -0.180572 0.595563 0.041221 -0.016226 183470.000000 1 0 0
-16.640147 -4.591839 8.733867 19.345798 0.269249 1.102395 0.063308 -0.029317 307881.000000 1 0 0
-12.910347 -9.063439 13.528867 20.781079 0.612086 0.861871 0.078050 -0.046758 25144.600000 1 0 0
-14.884247 6.107461 12.869667 20.602675 -0.389380 0.896100 0.054010 -0.028508 535134.000000 1 0 0
1.364453 9.422761 16.966767 19.455625 1.426992 0.511369 0.013272 -0.014817 345218.000000 1 0 0
-3.819647 -10.635439 14.803067 18.623454 1.225999 0.652017 0.026600 -0.020305 382021.000000 1 0 0
-17.377447 -2.786439 7.144067 18.994147 0.158995 1.185192 0.057097 -0.025852 -123557.000000 1 0 0
-0.903147 -0.713639 21.200267 21.231493 0.668717 0.054242 0.027585 -0.006664 418315.000000 1 0 0
-1.646247 2.755361 20.408767 20.659620 -1.032239 0.155993 0.019501 -0.003801 50803.100000 1 0 0
-8.092247 1.899461 16.320467 18.315296 -0.230552 0.471068 0.006167 0.013740 557756.000000 1 0 0
2.562153 -1.935039 18.892267 19.163161 -0.646846 0.168343 0.015213 -0.007916 52395.600000 1 0 0
-12.239347 4.167961 14.228767 19.225799 -0.328221 0.737596 0.003922 -0.011082 204717.000000 1 0 0
-13.481547 -5.324239 12.910267 19.410683 0.376126 0.843153 0.069273 -0.035694 80044.200000 1 0 0
-17.363247 -0.851239 10.022467 20.066310 0.048986 1.047812 0.075957 -0.026364 246167.000000 1 0 0
-7.364547 7.866361 14.649667 18.185954 -0.818333 0.634196 0.007153 0.001850 -34941.600000 1 0 0
-9.688847 0.077461 14.087767 17.098098 -0.007995 0.602471 0.022690 -0.000915 232105.000000 1 0 0
7.648453 -0.847939 15.418167 17.231880 -0.110413 0.462933 0.043666 -0.005611 257214.000000 1 0 0
3.930253 6.236361 18.347767 19.773205 1.008455 0.382028 0.017422 -0.006900 101715.000000 1 0 0
1.422453 0.524561 20.172867 20.229758 0.353300 0.075014 0.018642 0.002364 225544.000000 1 0 0
-7.016147 6.867961 17.659767 20.205509 -0.774726 0.507407 0.010792 0.003188 571048.000000 1 0 0
7.551753 -3.168039 16.869667 18.752363 -0.397212 0.451939 0.049212 -0.002175 497806.000000 1 0 0
-16.457047 2.519861 9.415467 19.126817 -0.151937 1.056106 0.051554 -0.018790 240091.000000 1 0 0
4.037553 -5.983739 19.008367 20.332855 -0.977216 0.362933 0.047962 -0.029849 146516.000000 1 0 0
-3.881147 -3.991439 20.789467 21.522008 0.799407 0.261655 0.039268 -0.012902 437648.000000 1 0 0
-9.378147 5.757161 14.644267 18.318000 -0.550571 0.644422 -0.000056 0.000413 -310802.000000 1 0 0
6.869753 1.939161 19.808767 21.055667 0.275117 0.345870 0.104926 -0.022147 122138.000000 1 0 0
-7.408147 11.530561 14.287067 19.797848 -0.999726 0.764617 0.043233 -0.024297 321045.000000 1 0 0
-14.430647 4.985961 9.837167 18.162413 -0.332671 0.998431 0.022465 -0.011260 373522.000000 1 0 0
1.217253 -5.364939 20.206667 20.942150 -1.347683 0.265809 0.044019 -0.031892 354638.000000 1 0 0
-5.925347 -8.225639 13.639367 16.994211 0.946542 0.639174 0.008777 -0.009299 265358.000000 1 0 0
-12.723547 9.980961 6.306567 17.357449 -0.665186 1.198951 -0.012798 -0.013997 85051.800000 1 0 0
-19.800647 2.535061 7.520467 21.331891 -0.127336 1.210506 0.096199 -0.035093 -19990.300000 1 0 0
-16.160647 9.031461 6.274467 19.547449 -0.509616 1.244025 0.035598 -0.012619 117828.000000 1 0 0
-11.946247 8.243261 13.841167 20.055974 -0.604003 0.809132 -0.005101 -0.017161 304305.000000 1 0 0
-16.524547 8.678261 10.851267 21.589879 -0.483583 1.044182 0.069233 -0.032831 491993.000000 1 0 0
2.709353 10.868361 14.851367 18.601746 1.326488 0.646187 0.019295 -0.032573 602289.000000 1 0 0
1.924053 14.730561 11.628867 18.865894 1.440915 0.906638 0.013647 -0.046047 588641.000000 1 0 0
8.768353 5.139761 16.845267 19.673947 0.530190 0.542885 0.059124 -0.014692 70234.500000 1 0 0
-0.153547 13.108661 13.487167 18.808622 -1.559083 0.771202 0.007390 0.002894 219999.000000 1 0 0
2.612653 13.833461 14.922867 20.515423 1.384130 0.756275 -0.012476 0.013671 -261383.000000 1 0 0
-3.687147 -4.542639 -13.515533 14.727534 0.888977 2.733061 0.004364 -0.010684 140902.000000 1 0 0
5.738353 -12.412539 16.944167 21.773943 -1.137759 0.679025 0.002735 0.021806 128791.000000 1 0 0
8.909253 -13.945039 7.215367 18.052712 -1.002276 1.159625 0.021947 -0.002960 320861.000000 1 0 0
-0.500547 15.303461 0.500467 15.319822 -1.538100 1.538123 0.006691 -0.006293 -309516.000000 1 0 0
-14.184747 7.822561 8.313967 18.207734 -0.503976 1.096607 0.009058 -0.007270 -27265.300000 1 0 0
-15.836347 -10.021739 4.222967 19.210898 0.564211 1.349165 0.031964 -0.011801 149169.000000 1 0 0
8.763453 -10.747339 11.452867 17.985315 -0.886731 0.880469 0.006459 0.002499 3702.560000 1 0 0
-26.660807 6.084961 30.958996 41.307201 -0.224393 0.723517 0.060485 -0.036294 195696.000000 0 0 1
-25.563557 5.213361 30.645646 40.247114 -0.201178 0.705269 0.061408 -0.032728 235479.000000 0 0 1
-24.471147 5.545261 31.480873 40.257078 -0.222841 0.672935 0.049289 -0.025168 -464063.000000 0 0 1
-23.229347 4.801961 30.991906 39.027678 -0.203848 0.653270 0.061330 -0.028401 -561939.000000 0 0 1
-23.191347 3.421761 31.399671 39.185283 -0.146488 0.641310 0.050100 -0.022461 -196574.000000 0 0 1
-21.963747 2.847961 31.024966 38.119097 -0.128947 0.619970 0.067919 -0.017234 -120151.000000 0 0 1
-21.650047 1.537561 31.669091 38.392968 -0.070900 0.600829 0.056544 -0.015288 -223653.000000 0 0 1
-22.468547 0.439961 31.346312 38.569683 -0.019579 0.621993 0.051392 -0.009769 -58934.400000 0 0 1
-22.312147 -0.611539 32.290782 39.254306 0.027401 0.604819 0.054299 -0.009993 -19053.300000 0 0 1
-23.215447 -1.842839 32.021816 39.594820 0.079214 0.628794 0.064829 -0.030380 -297808.000000 0 0 1
-22.822047 -2.575639 30.876186 38.481406 0.112382 0.639547 0.134374 -0.040833 27679.800000 0 0 1
-22.905447 -3.989539 31.102996 38.832619 0.172444 0.641916 0.124628 -0.043150 385219.000000 0 0 1
-24.290547 -4.739939 30.943226 39.622985 0.192713 0.674625 0.073188 -0.034431 331019.000000 0 0 1
-25.199637 -4.362339 31.942522 40.919145 0.171412 0.675131 0.041531 -0.026308 -225542.000000 0 0 1
-25.134207 -4.869239 33.272733 41.982289 0.191359 0.655830 0.039201 -0.031739 -913669.000000 0 0 1
-26.306977 -4.273839 -33.426773 42.751279 0.161053 2.468487 0.035518 -0.026362 -481636.000000 0 0 1
-26.419597 -4.742439 -32.095023 41.839889 0.177613 2.445091 0.042260 -0.034790 273233.000000 0 0 1
-27.589497 -4.364439 -31.399303 42.025527 0.156892 2.414558 0.063960 -0.029034 -146007.000000 0 0 1
-27.454127 -4.735939 -29.913803 40.877791 0.170823 2.391735 0.059391 -0.026942 -557147.000000 0 0 1
-27.615117 -6.124239 -29.911613 41.168017 0.218239 2.384119 0.057429 -0.018308 429585.000000 0 0 1
-27.456267 -6.711039 -28.632463 40.233103 0.239726 2.362661 0.042268 -0.015215 -156773.000000 0 0 1
-27.641937 -8.261039 -28.688893 40.686288 0.290410 2.353395 0.048757 -0.008624 -574923.000000 0 0 1
-28.928837 -8.652839 -28.332973 41.406601 0.290638 2.324388 0.059549 -0.011681 -827382.000000 0 0 1
-29.092127 -10.017139 -28.672123 42.056932 0.331610 2.320942 0.064975 -0.000756 639871.000000 0 0 1
-30.396407 -10.673839 -28.106853 42.753568 0.337703 2.288180 0.112320 0.002219 637555.000000 0 0 1
-30.392457 -11.017839 -26.747633 41.958671 0.347784 2.262014 0.136067 -0.001612 610154.000000 0 0 1
-31.742347 -11.238839 -26.302903 42.728571 0.340291 2.233920 0.140223 -0.012456 931053.000000 0 0 1
-31.893237 -12.040439 -24.995633 42.272123 0.360981 2.203470 0.157700 -0.013174 306101.000000 0 0 1
-31.171767 -11.347039 -23.937833 40.907875 0.349107 2.195879 0.162183 -0.015044 727750.000000 0 0 1
-31.395677 -12.001139 -22.683733 40.549570 0.365116 2.164467 0.179204 -0.020241 220971.000000 0 0 1
-30.700977 -11.122939 -21.525933 39.110556 0.347589 2.153624 0.193557 -0.031480 394799.000000 0 0 1
-30.569827 -11.592439 -20.179133 38.420000 0.362458 2.123775 0.195241 -0.031153 51963.800000 0 0 1
-29.766877 -12.734239 -19.984433 38.047410 0.404239 2.123806 0.174636 -0.032117 -278685.000000 0 0 1
-29.377787 -12.969339 -18.550933 37.086321 0.415736 2.094637 0.159281 -0.036284 -178026.000000 0 0 1
-28.489897 -11.990639 -18.111133 35.825449 0.398370 2.100802 0.149229 -0.037060 -143747.000000 0 0 1
-28.102727 -12.210939 -16.754833 34.922696 0.409899 2.071188 0.143009 -0.040808 56852.600000 0 0 1
-27.790877 -10.919139 -16.024033 33.887019 0.374374 2.063337 0.134054 -0.033863 498549.000000 0 0 1
-26.433957 -10.483139 -16.192833 32.723969 0.377553 2.088437 0.112116 -0.032058 857275.000000 0 0 1
-26.241967 -9.173439 -15.620633 31.887254 0.336293 2.082738 0.105223 -0.038305 -348081.000000 0 0 1
-24.851147 -8.533039 -15.780233 30.649764 0.330753 2.111637 0.096537 -0.036308 236695.000000 0 0 1
-23.910747 -9.154439 -14.895933 29.621215 0.365643 2.097724 0.098425 -0.036732 -11401.800000 0 0 1
-22.662147 -8.524039 -14.896333 28.427678 0.359766 2.122346 0.126043 -0.061883 -375853.000000 0 0 1
-21.711147 -9.061339 -13.803633 27.276768 0.395381 2.101405 0.107593 -0.038954 -141087.000000 0 0 1
-20.891247 -10.161739 -14.132033 27.192269 0.452718 2.117305 0.094181 -0.029308 1481630.000000 0 0 1
-19.673547 -10.093939 -13.334133 25.821215 0.474050 2.113441 0.122789 -0.030168 1726080.000000 0 0 1
-18.484247 -11.049539 -13.746833 25.548681 0.538787 2.138935 0.126796 -0.020546 756589.000000 0 0 1
-17.789547 -10.823539 -14.974733 25.648774 0.546589 2.194245 0.130236 -0.033180 611788.000000 0 0 1
-18.579047 -11.069839 -16.149633 26.991350 0.537343 2.212207 0.118833 -0.038604 51140.700000 0 0 1
-17.965047 -10.471739 -17.420733 27.127148 0.527747 2.268146 0.134833 -0.041176 358133.000000 0 0 1
-18.875747 -10.684239 -18.543933 28.536367 0.515067 2.278164 0.093180 -0.032085 1025210.000000 0 0 1
-18.406247 -10.306239 -19.875733 28.983672 0.510436 2.326438 0.101357 -0.039048 70893.500000 0 0 1
-19.349747 -10.775239 -21.040933 30.548966 0.508100 2.330575 0.115705 -0.035333 914504.000000 0 0 1
-20.579647 -10.002939 -21.019633 31.070977 0.452433 2.313801 0.095088 -0.037547 507601.000000 0 0 1
-21.511147 -10.748539 -21.757033 32.428830 0.463386 2.306240 0.095404 -0.026061 -195421.000000 0 0 1
-22.556747 -9.909239 -22.511033 33.372840 0.413922 2.311126 0.065138 -0.021072 79360.100000 0 0 1
-21.964947 -9.068939 -23.476733 33.404514 0.391562 2.350124 0.070998 -0.031998 -34631.400000 0 0 1
-22.957847 -8.537939 -24.282933 34.490868 0.356047 2.351866 0.053787 -0.029193 -255971.000000 0 0 1
-22.280647 -7.625239 -25.357713 34.606143 0.329741 2.393153 0.074971 -0.030481 205799.000000 0 0 1
-21.467747 -8.390539 -26.213933 34.906097 0.372588 2.420348 0.085953 -0.038542 -253965.000000 0 0 1
-20.712847 -7.598139 -27.085243 34.933711 0.351591 2.458038 0.085580 -0.047142 -381215.000000 0 0 1
-19.646947 -8.497439 -27.707353 35.012946 0.408212 2.483804 0.115963 -0.053675 -335798.000000 0 0 1
-20.182647 -9.401439 -28.664883 36.296030 0.435930 2.481202 0.116356 -0.052648 340699.000000 0 0 1
-19.207647 -10.306839 -29.145363 36.395286 0.492498 2.499427 0.095359 -0.050127 -59588.700000 0 0 1
-19.780047 -11.309039 -30.143533 37.785939 0.519381 2.494342 0.096472 -0.037106 -266652.000000 0 0 1
-20.364247 -10.830339 -31.332893 38.906927 0.488787 2.507027 0.101275 -0.030002 237176.000000 0 0 1
-20.553847 -11.909439 -32.235633 40.042870 0.525154 2.506519 0.078399 -0.027569 -177086.000000 0 0 1
-21.151947 -11.493939 -33.572963 41.311734 0.497761 2.519522 0.075178 -0.033383 -798637.000000 0 0 1
-20.344847 -10.661139 33.137063 40.319197 0.482680 0.606114 0.073558 -0.032989 -613891.000000 0 0 1
-20.560847 -10.513839 31.749224 39.259425 0.472688 0.628852 0.078856 -0.034243 -225987.000000 0 0 1
-19.996747 -11.663639 30.884426 38.597385 0.528032 0.643220 0.081789 -0.027953 860593.000000 0 0 1
-18.551447 -11.691739 30.851546 37.850638 0.562354 0.617918 0.078952 -0.028082 1702440.000000 0 0 1
-17.906047 -12.546939 29.846736 36.998376 0.611202 0.632243 0.075423 -0.025669 379527.000000 0 0 1
-17.982947 -14.052039 30.125856 37.794356 0.663302 0.648320 0.066373 -0.018896 59844.400000 0 0 1
-19.276047 -14.653839 29.929596 38.497814 0.650003 0.680217 0.060070 -0.021225 661096.000000 0 0 1
-19.453747 -15.859739 30.556436 39.543335 0.683973 0.687661 0.056990 -0.020024 142175.000000 0 0 1
-19.909047 -15.910139 32.063966 40.958523 0.674217 0.671579 0.037485 -0.027687 -55726.900000 0 0 1
-18.805047 -15.643339 32.910819 41.005681 0.693874 0.639169 0.070549 -0.024508 271255.000000 0 0 1
-19.132847 -15.536039 -33.153213 41.310651 0.682021 2.502327 0.065119 -0.023540 456913.000000 0 0 1
-17.867947 -14.987639 -32.438873 39.952138 0.697956 2.518270 0.078638 -0.019959 384304.000000 0 0 1
-17.632647 -13.599439 -32.699183 39.561238 0.656972 2.543740 0.086107 -0.016543 -219323.000000 0 0 1
-16.429047 -13.010439 -32.237363 38.450392 0.669793 2.565164 0.092283 -0.012268 341628.000000 0 0 1
-16.378447 -12.790339 -30.704033 37.075382 0.663001 2.546598 0.099409 -0.022012 -184183.000000 0 0 1
-16.148247 -13.950639 -29.984063 36.802585 0.712515 2.523055 0.106282 -0.029928 -48903.200000 0 0 1
-16.725547 -13.788739 -28.701093 35.967012 0.689450 2.494739 0.082537 -0.026435 -270190.000000 0 0 1
-16.893447 -15.135539 -27.957883 36.001615 0.730568 2.460004 0.090473 -0.027162 917661.000000 0 0 1
-15.674747 -15.684839 -27.400293 35.248942 0.785720 2.461217 0.112913 -0.047881 561495.000000 0 0 1
-14.827247 -16.217739 -28.370993 35.885590 0.830158 2.482578 0.121767 -0.047199 215576.000000 0 0 1
-13.453247 -16.801539 -27.856593 35.203286 0.895619 2.483739 0.150935 -0.042940 873281.000000 0 0 1
-12.621647 -15.847939 -27.198213 33.914686 0.898241 2.501365 0.138018 -0.040316 98216.400000 0 0 1
-11.484147 -16.467739 -26.627613 33.348191 0.961836 2.495550 0.175777 -0.043701 296381.000000 0 0 1
-10.098047 -16.219139 -27.227583 33.262175 1.013924 2.529722 0.140046 -0.047014 8783.530000 0 0 1
-9.738647 -14.866139 -27.092813 32.401602 0.990852 2.561034 0.142766 -0.043392 -877313.000000 0 0 1
-8.496447 -14.490539 -27.583883 32.296067 1.040478 2.594603 0.158975 -0.051904 -403142.000000 0 0 1
-8.311447 -12.912839 -27.798153 31.757816 0.998893 2.636887 0.128069 -0.054384 252186.000000 0 0 1
-9.202947 -12.337239 -28.777983 32.635472 0.929893 2.650463 0.153312 -0.048763 393381.000000 0 0 1
-8.890047 -11.032839 -29.186643 32.444053 0.892541 2.689647 0.132094 -0.046974 -209099.000000 0 0 1
-7.728547 -10.900939 -30.190653 33.015700 0.954069 2.724902 0.128708 -0.035524 -1286870.000000 0 0 1
-6.468647 -11.228639 -29.653683 32.361499 1.048147 2.729603 0.103815 -0.037532 13459.300000 0 0 1
-5.383047 -11.078839 -30.544833 32.934855 1.118504 2.758283 0.098126 -0.033507 73217.900000 0 0 1
-5.155547 -9.669539 -31.004503 32.884021 1.080963 2.801861 0.087175 -0.031148 -2236970.000000 0 0 1
-3.849547 -9.385139 -31.424893 33.021565 1.181549 2.829352 0.123158 -0.046991 -145398.000000 0 0 1
-3.891747 -8.051239 -31.929073 33.157712 1.120539 2.868516 0.140248 -0.045839 140953.000000 0 0 1
-2.531047 -7.443839 -32.355913 33.297478 1.243041 2.903216 0.134740 -0.049713 67532.900000 0 0 1
-2.036047 -8.027939 -33.560623 34.567452 1.322413 2.899646 0.138597 -0.060236 -215176.000000 0 0 1
-0.943847 -7.323339 33.363026 34.170362 1.442621 0.217809 0.163035 -0.051521 -29018.800000 0 0 1
-0.241447 -7.951839 32.128974 33.099260 1.540442 0.242729 0.149308 -0.051959 133459.000000 0 0 1
-0.851347 -7.682039 30.876686 31.829361 1.460424 0.245280 0.146583 -0.045875 91392.700000 0 0 1
-0.023847 -8.188739 29.844136 30.947188 1.567884 0.267794 0.122794 -0.045896 144345.000000 0 0 1
-0.271147 -7.467539 28.519136 29.481838 1.534502 0.256255 0.107752 -0.043149 -7698.090000 0 0 1
0.312253 -6.188739 28.510376 29.176009 -1.520384 0.214017 0.116594 -0.048542 -13625.700000 0 0 1
0.173653 -5.576739 27.205366 27.771606 -1.539668 0.202281 0.107049 -0.039758 668255.000000 0 0 1
-1.130947 -4.721639 26.943546 27.377501 1.335701 0.178285 0.077603 -0.025143 1360580.000000 0 0 1
-2.336347 -5.466039 26.977796 27.624945 1.166870 0.216879 0.051634 -0.014386 31835.100000 0 0 1
-3.502647 -4.738939 26.682646 27.325623 0.934294 0.217362 0.050567 -0.013726 -902803.000000 0 0 1
-4.827047 -5.227039 27.129416 28.046881 0.825161 0.256483 0.047204 -0.007731 -989842.000000 0 0 1
-5.269047 -6.347639 26.366786 27.627211 0.877981 0.303229 0.048293 -0.005215 150821.000000 0 0 1
-6.627347 -6.656739 26.683406 28.288479 0.787611 0.338480 0.049235 -0.010258 833254.000000 0 0 1
-6.943547 -8.179439 26.607236 28.689041 0.866940 0.383300 0.056439 -0.016883 483585.000000 0 0 1
-6.228947 -8.910239 27.636716 29.698152 0.960690 0.374783 0.053408 -0.017993 300762.000000 0 0 1
-6.413547 -10.283939 27.516886 30.067790 1.013171 0.414888 0.056126 -0.020801 -83716.800000 0 0 1
-5.776647 -11.089139 28.639486 31.249941 1.090547 0.411641 0.053861 -0.016674 -218694.000000 0 0 1
-5.983447 -12.493239 28.553906 31.736544 1.124142 0.451676 0.084393 -0.025677 170715.000000 0 0 1
-5.517547 -13.247139 29.677436 32.964833 1.176140 0.450394 0.097543 -0.024194 159197.000000 0 0 1
-5.463047 -14.805439 29.456276 33.417332 1.217306 0.491837 0.146846 -0.056268 -256241.000000 0 0 1
-6.787947 -15.226539 29.307446 33.717208 1.151443 0.517187 0.168155 -0.056841 -392256.000000 0 0 1
-6.829847 -16.657839 29.167486 34.276415 1.181692 0.553007 0.198395 -0.058117 219090.000000 0 0 1
-6.931147 -17.381939 30.549146 35.824892 1.191363 0.549597 0.207976 -0.049798 -386195.000000 0 0 1
-8.187047 -17.169939 31.116586 36.470213 1.125860 0.548696 0.195888 -0.052249 -657518.000000 0 0 1
-8.233247 -17.602439 32.490614 37.858582 1.133294 0.539024 0.207147 -0.048555 -1293060.000000 0 0 1
-9.640747 -17.614839 32.997013 38.626797 1.070022 0.546686 0.201982 -0.033433 -672657.000000 0 0 1
-10.548447 -18.549239 32.451753 38.838901 1.053730 0.581668 0.228760 -0.048640 71495.400000 0 0 1
-11.235947 -18.123539 31.310966 37.882526 1.015826 0.597885 0.205979 -0.057327 -883279.000000 0 0 1
-12.088547 -19.215239 30.703026 38.184214 1.009245 0.636676 0.185754 -0.052227 -584552.000000 0 0 1
-13.206747 -19.547239 31.486088 39.343188 0.976612 0.643012 0.163039 -0.046528 -179496.000000 0 0 1
-13.518347 -20.940239 31.653851 40.289026 0.997543 0.667019 0.160733 -0.047576 156580.000000 0 0 1
-12.552147 -21.831839 32.521493 41.131899 1.049002 0.658904 0.181123 -0.053022 47792.700000 0 0 1
-11.211147 -21.915939 32.043077 40.407388 1.097950 0.655078 0.205133 -0.061031 383833.000000 0 0 1
-10.319547 -22.310639 33.096201 41.226401 1.137564 0.638834 0.224053 -0.068889 262203.000000 0 0 1
-10.474747 -23.825339 33.504426 42.425389 1.156585 0.660434 0.202819 -0.050589 -781215.000000 0 0 1
-10.039547 -24.690239 32.575485 42.089935 1.184596 0.685742 0.210096 -0.054037 -284438.000000 0 0 1
-10.228247 -25.995459 33.072323 43.291563 1.195938 0.701393 0.202879 -0.053574 -960842.000000 0 0 1
-9.606747 -27.015609 32.041584 42.997626 1.229141 0.729970 0.175885 -0.045824 1471900.000000 0 0 1
-8.173147 -27.000639 31.863460 42.557196 1.276862 0.724666 0.205692 -0.063113 1313420.000000 0 0 1
-7.380747 -27.190369 33.043953 43.424583 1.305736 0.706020 0.193063 -0.056965 365149.000000 0 0 1
-5.824647 -27.031739 32.880630 42.962510 1.358567 0.699238 0.192416 -0.072551 1076610.000000 0 0 1
-5.363647 -25.702219 33.090931 42.241952 1.365065 0.670733 0.200961 -0.069820 73733.700000 0 0 1
-4.170747 -25.416129 32.368222 41.365161 1.408147 0.672126 0.264129 -0.057230 439553.000000 0 0 1
-3.478347 -24.118839 32.920945 40.958588 1.427567 0.637205 0.254302 -0.061560 -86647.300000 0 0 1
-2.880947 -24.286339 -33.270153 41.291999 1.452724 2.507701 0.198601 -0.064849 270656.000000 0 0 1
-2.085747 -23.192639 -32.842093 40.259805 1.481106 2.524828 0.190992 -0.061653 103845.000000 0 0 1
36.160298 -15.844039 2.121467 39.536077 -0.412965 1.517112 0.239571 -0.065403 288986.000000 0 0 1
37.129718 -16.017839 3.164767 40.561101 -0.407281 1.492692 0.187581 -0.055653 551919.000000 0 0 1
36.496478 -16.309239 4.355167 40.211338 -0.420249 1.462277 0.177312 -0.045665 -814015.000000 0 0 1
37.457678 -16.258339 5.503967 41.203215 -0.409507 1.436815 0.154756 -0.030820 -595236.000000 0 0 1
-37.838557 -17.388839 5.525667 42.007870 0.430770 1.438875 0.148038 -0.036265 -297994.000000 0 0 1
-36.987777 -17.345539 6.627067 41.386971 0.438503 1.409980 0.143049 -0.029288 -105136.000000 0 0 1
-35.728611 -18.233639 6.504667 40.636313 0.471883 1.410034 0.110957 -0.028396 81754.900000 0 0 1
-35.990557 -19.596139 6.716867 41.526439 0.498595 1.408333 0.105108 -0.034136 28715.800000 0 0 1
-34.795235 -20.235139 7.076567 40.868656 0.526742 1.396765 0.081802 -0.019268 -89387.100000 0 0 1
-35.001369 -21.771939 7.188467 41.842409 0.556461 1.398141 0.071763 -0.015450 -195983.000000 0 0 1
-35.125194 -22.309839 5.856867 42.021555 0.565866 1.430963 0.086022 -0.020411 194266.000000 0 0 1
-35.600330 -23.604739 5.926167 43.124084 0.585493 1.432939 0.083881 -0.026230 -101329.000000 0 0 1
-35.082890 -24.457439 4.758667 43.030459 0.608799 1.459981 0.086972 -0.025480 131373.000000 0 0 1
-35.794970 -24.128239 3.581667 43.316049 0.593109 1.488015 0.078813 -0.024063 254568.000000 0 0 1
-35.153557 -24.765339 2.479767 43.072541 0.613733 1.513193 0.091080 -0.019544 31558.800000 0 0 1
-35.676700 -24.358239 1.125567 43.213628 0.599054 1.544747 0.075277 -0.020286 59056.600000 0 0 1
-36.861917 -25.061219 0.712067 44.579958 0.597086 1.554823 0.072274 -0.012109 771657.000000 0 0 1
-37.562047 -24.413639 -0.353833 44.800205 0.576344 1.578694 0.077155 -0.009346 -108925.000000 0 0 1
37.643088 -23.264139 0.068667 44.251858 -0.553563 1.569245 0.098210 -0.011184 633177.000000 0 0 1
36.262298 -23.693939 0.301767 43.317988 -0.578765 1.563830 0.064771 -0.005512 1186810.000000 0 0 1
35.536038 -22.510939 0.514067 42.069189 -0.564665 1.558576 0.089581 -0.017333 527651.000000 0 0 1
33.988898 -22.656139 0.323467 40.849118 -0.587939 1.562878 0.061198 -0.009424 596434.000000 0 0 1
33.731148 -22.588039 -1.050233 40.609270 -0.590065 1.596661 0.073168 -0.012487 -798472.000000 0 0 1
32.400198 -22.765539 -1.379833 39.622551 -0.612493 1.605628 0.078921 -0.007733 -735767.000000 0 0 1
32.134768 -22.614339 -2.933433 39.403765 -0.613228 1.645311 0.088373 0.001736 -116501.000000 0 0 1
32.288838 -21.251939 -3.345833 38.799595 -0.582106 1.657137 0.116795 -0.014028 108186.000000 0 0 1
31.782058 -21.184639 -4.644133 38.476696 -0.587929 1.691791 0.123134 -0.040964 -54332.800000 0 0 1
31.660778 -19.730839 -5.133133 37.657136 -0.557300 1.707534 0.141234 -0.050258 248378.000000 0 0 1
30.700208 -19.024639 -4.368033 36.380206 -0.554772 1.691153 0.178950 -0.051557 169399.000000 0 0 1
30.906408 -17.635039 -4.465633 35.862829 -0.518517 1.695640 0.194556 -0.056420 9105.080000 0 0 1
30.221208 -16.968939 -3.225233 34.809028 -0.511623 1.663584 0.215472 -0.044362 112590.000000 0 0 1
30.948408 -16.973039 -2.001533 35.353842 -0.501637 1.627441 0.220020 -0.039331 113461.000000 0 0 1
31.391288 -18.225239 -1.448833 36.327282 -0.526020 1.610690 0.191506 -0.024371 849718.000000 0 0 1
30.262208 -19.326439 -1.157733 35.925657 -0.568343 1.603028 0.161291 -0.017580 1212950.000000 0 0 1
29.188608 -18.864839 -0.326633 34.755772 -0.573776 1.580194 0.147170 -0.000513 542062.000000 0 0 1
28.372208 -19.979739 0.021767 34.701191 -0.613540 1.570169 0.126196 -0.004606 -24355.000000 0 0 1
27.333108 -19.647139 1.115567 33.680163 -0.623235 1.537668 0.116557 -0.003156 240185.000000 0 0 1
26.394308 -20.700739 1.375067 33.571877 -0.665087 1.529826 0.103976 -0.002639 256142.000000 0 0 1
25.537308 -20.524639 2.485667 32.857167 -0.677000 1.495073 0.102026 -0.001118 -592478.000000 0 0 1
24.133408 -20.183539 1.985067 31.523596 -0.696505 1.507784 0.076326 -0.002834 -937468.000000 0 0 1
23.798008 -18.910139 1.649667 30.441090 -0.671446 1.516578 0.116687 -0.024302 60121.500000 0 0 1
23.849508 -18.002639 2.717167 30.004617 -0.646594 1.480114 0.154356 -0.027646 -553791.000000 0 0 1
23.614508 -16.467739 2.341067 28.884460 -0.608950 1.489658 0.131397 -0.004724 6631.060000 0 0 1
22.286408 -16.300839 1.891767 27.676346 -0.631507 1.502390 0.103508 -0.016199 -25040.100000 0 0 1
22.160008 -15.001139 1.405167 26.796914 -0.595086 1.518335 0.119548 -0.026159 -161313.000000 0 0 1
20.753208 -14.656339 0.913067 25.423171 -0.614889 1.534874 0.083304 -0.015454 -661514.000000 0 0 1
19.733508 -14.608439 1.871967 24.623608 -0.637255 1.494700 0.080366 -0.014425 148831.000000 0 1 0
18.670008 -13.755539 1.503667 23.238870 -0.634981 1.506046 0.089721 -0.017767 -105698.000000 0 1 0
18.882608 -12.320239 1.993767 22.634405 -0.578106 1.482596 0.096933 -0.021656 -487479.000000 0 1 0
19.697408 -11.554639 1.152667 22.865393 -0.530514 1.520364 0.101654 -0.025122 254748.000000 0 1 0
20.091208 -10.314139 1.663067 22.645174 -0.474283 1.497290 0.133877 -0.026282 109386.000000 0 1 0
21.040908 -9.490639 0.707367 23.093125 -0.423732 1.540160 0.146219 -0.035384 240792.000000 0 1 0
20.374608 -9.097139 -0.441233 22.317645 -0.419934 1.590568 0.148438 -0.028276 1077440.000000 0 1 0
21.313108 -8.407439 -1.275133 22.946886 -0.375732 1.626394 0.136751 -0.023604 3939.980000 0 1 0
20.638508 -7.967639 -2.566233 22.271436 -0.368429 1.686278 0.127455 -0.022735 147457.000000 0 1 0
21.551408 -7.471239 -3.587633 23.090122 -0.333706 1.726804 0.165557 -0.031636 1888190.000000 0 1 0
22.615408 -8.370239 -4.042933 24.451235 -0.354479 1.736906 0.155399 -0.032504 31628.300000 0 1 0
22.260908 -9.577939 -4.949533 24.734244 -0.406316 1.772265 0.128520 -0.033840 -381682.000000 0 1 0
21.844208 -9.212739 -6.296133 24.529274 -0.399112 1.830380 0.136244 -0.042718 391037.000000 0 1 0
20.463508 -8.925439 -6.390233 23.221837 -0.411288 1.849575 0.130571 -0.024746 -374743.000000 0 1 0
19.967608 -8.773439 -7.857433 23.182275 -0.413990 1.916588 0.143512 -0.023222 -433736.000000 0 1 0
19.900208 -9.968039 -8.640333 23.875415 -0.464368 1.941093 0.136890 -0.027167 852143.000000 0 1 0
21.135508 -10.483239 -9.128233 25.296890 -0.460444 1.939969 0.139629 -0.033714 95355.900000 0 0 1
20.913108 -11.899739 -9.672533 25.932986 -0.517320 1.953017 0.108245 -0.032295 -101290.000000 0 0 1
19.924208 -11.918239 -10.677033 25.554207 -0.539079 2.001840 0.141643 -0.041572 151377.000000 0 0 1
19.582508 -13.277039 -10.861433 26.033154 -0.595811 2.001175 0.136204 -0.038879 -598629.000000 0 0 1
18.632708 -13.573439 -11.971233 25.975498 -0.629581 2.049767 0.144429 -0.039656 -494349.000000 0 0 1
18.422908 -14.995139 -12.100633 26.658639 -0.683183 2.041945 0.129279 -0.045676 -152349.000000 0 0 1
17.496708 -15.204639 -13.103933 26.627597 -0.715422 2.085318 0.135036 -0.040236 -703787.000000 0 0 1
17.467408 -16.638339 -13.549133 27.668098 -0.761094 2.082545 0.107871 -0.038806 -421191.000000 0 0 1
16.892608 -17.403339 -12.517433 27.293269 -0.800289 2.047246 0.098548 -0.038226 258585.000000 0 0 1
16.697208 -18.731339 -12.962433 28.243309 -0.842750 2.047616 0.092778 -0.038602 -467905.000000 0 0 1
15.670208 -19.605739 -12.244533 27.926135 -0.896503 2.024682 0.083756 -0.039396 -149755.000000 0 0 1
14.352908 -19.342039 -12.687833 27.223180 -0.932398 2.055637 0.085060 -0.042859 -126765.000000 0 0 1
13.447908 -20.003839 -11.816033 26.844337 -0.978927 2.026583 0.077708 -0.031727 475403.000000 0 0 1
11.964808 -20.006039 -12.259933 26.338265 -1.031805 2.054973 0.077386 -0.034495 186723.000000 0 0 1
11.058608 -20.587939 -11.385133 25.995717 -1.077880 2.024127 0.087135 -0.039148 506420.000000 0 0 1
9.691608 -20.467339 -11.839933 25.554319 -1.128560 2.052539 0.065105 -0.030344 818897.000000 0 0 1
8.674208 -20.975939 -10.847133 25.157349 -1.178680 2.016587 0.053736 -0.027665 -555603.000000 0 0 1
8.665708 -22.425339 -10.726433 26.325780 -1.202047 1.990456 0.073550 -0.031977 105804.000000 0 0 1
7.965608 -22.984239 -9.600033 26.151229 -1.237182 1.946682 0.076155 -0.039312 255874.000000 0 0 1
8.108408 -24.506539 -9.504133 27.507186 -1.251267 1.923583 0.076092 -0.032713 451066.000000 0 0 1
9.345208 -24.892339 -8.924733 28.046609 -1.211653 1.894638 0.078173 -0.032336 -81378.800000 0 0 1
9.874408 -26.136179 -9.414833 29.482925 -1.209568 1.895821 0.067520 -0.028335 543307.000000 0 0 1
11.382508 -26.276159 -9.071133 30.038034 -1.162011 1.877574 0.050662 -0.023453 375464.000000 0 0 1
11.730108 -26.620469 -7.736833 30.101551 -1.155751 1.830738 0.061911 -0.033610 -786323.000000 0 0 1
13.070108 -26.992839 -7.682233 30.958969 -1.119863 1.821559 0.072577 -0.022389 -858426.000000 0 0 1
13.485808 -27.490779 -6.276333 31.257036 -1.114731 1.772968 0.064057 -0.026054 -36417.600000 0 0 1
12.990108 -28.714299 -5.679033 32.023511 -1.145955 1.749079 0.068784 -0.029133 -885934.000000 0 0 1
11.619808 -28.714369 -5.522733 31.464829 -1.186272 1.747231 0.077158 -0.032842 -1059850.000000 0 0 1
11.108408 -29.877439 -4.637733 32.211281 -1.214835 1.715277 0.092576 -0.037059 -29031.300000 0 0 1
11.373708 -31.248609 -5.033033 33.632844 -1.221726 1.721007 0.086149 -0.036775 217301.000000 0 0 1
10.420008 -31.793179 -5.959933 33.983872 -1.254085 1.747083 0.091104 -0.044154 543387.000000 0 0 1
10.580908 -33.329179 -6.027533 35.484094 -1.263393 1.741490 0.089537 -0.040626 -87356.000000 0 0 1
9.882108 33.446870 -5.008933 35.234054 1.283513 1.713441 0.089279 -0.038588 -264759.000000 0 0 1
10.239008 32.121767 -4.906133 34.069272 1.262222 1.715303 0.089613 -0.035419 -306354.000000 0 0 1
9.452008 31.363677 -3.838633 32.981143 1.278085 1.687449 0.068583 -0.027595 213564.000000 0 0 1
8.182008 30.904267 -4.247033 32.249903 1.311981 1.702871 0.064011 -0.024697 -137924.000000 0 0 1
7.582408 29.915037 -3.419733 31.049910 1.322559 1.681157 0.052833 -0.023858 478523.000000 0 0 1
6.163008 29.409487 -3.803333 30.288049 1.364227 1.696701 0.064553 -0.028206 168310.000000 0 0 1
6.047108 28.671027 -5.050733 29.733906 1.362929 1.741488 0.084133 -0.035516 1865.380000 0 0 1
5.762708 29.513497 -6.148633 30.693012 1.377966 1.772488 0.070694 -0.033565 -322105.000000 0 0 1
6.015508 28.835597 -7.509533 30.398537 1.365132 1.820417 0.074092 -0.026106 -15220.700000 0 0 1
5.126708 27.831747 -7.965133 29.399534 1.388635 1.845152 0.078998 -0.026258 -35077.800000 0 0 1
5.323908 26.624097 -7.237533 28.099260 1.373434 1.831303 0.086137 -0.028199 -122971.000000 0 0 1
4.430208 25.415887 -7.659533 26.912125 1.398222 1.859399 0.081848 -0.028039 1345020.000000 0 0 1
3.054808 25.419087 -7.153833 26.582685 1.451192 1.843272 0.076140 -0.023322 1334490.000000 0 0 1
2.098508 26.142307 -7.901533 27.390841 1.490696 1.863429 0.084551 -0.027382 -91062.700000 0 0 1
1.708208 25.464217 -9.240633 27.142837 1.503814 1.918186 0.110030 -0.027107 -573156.000000 0 0 1
2.753908 25.434437 -10.214933 27.547040 1.462942 1.950686 0.102249 -0.026924 105186.000000 0 0 1
2.609908 24.559457 -11.352833 27.182078 1.464925 2.001663 0.106617 -0.027075 -391992.000000 0 0 1
2.360308 23.015067 -11.131533 25.674411 1.468599 2.019242 0.106485 -0.024067 382082.000000 0 0 1
1.099608 22.641617 -10.580233 25.015860 1.522269 2.007485 0.108920 -0.020421 297070.000000 0 0 1
1.088208 21.286427 -10.288133 23.667316 1.519719 2.020499 0.074552 -0.016792 88230.700000 0 1 0
-0.136892 20.727827 -9.497133 22.800374 -1.564192 2.000426 0.072029 -0.011353 -1038220.000000 0 1 0
-1.315492 20.874627 -10.136033 23.242627 -1.507861 2.022053 0.081022 -0.019964 -1392070.000000 0 1 0
-2.390092 20.570527 -9.244633 22.678676 -1.455125 1.990659 0.063658 -0.012744 264379.000000 0 1 0
-3.623692 20.039627 -9.996533 22.685865 -1.391903 2.027119 0.055872 -0.026306 -1010180.000000 0 1 0
-4.599192 19.542727 -9.191933 22.080814 -1.339662 2.000153 0.052709 -0.025350 -830795.000000 0 1 0
-5.644792 19.118927 -10.051033 22.325329 -1.283706 2.037794 0.056499 -0.024330 -313329.000000 0 1 0
-6.684892 18.131927 -9.431533 21.503682 -1.217577 2.024837 0.056283 -0.021656 -147382.000000 0 1 0
-7.638792 18.759727 -8.617333 22.012199 -1.184106 1.973036 0.074440 -0.015892 139927.000000 0 1 0
-8.843592 19.020327 -9.338733 22.960703 -1.135576 1.989665 0.081006 -0.015810 468358.000000 0 1 0
-10.099492 19.155527 -8.410833 23.230929 -1.085598 1.941266 0.098518 -0.024328 453464.000000 0 1 0
-10.463892 17.967027 -7.756433 22.191650 -1.043423 1.927855 0.090351 -0.022047 -683115.000000 0 1 0
-11.442692 18.195627 -6.806833 22.546596 -1.009419 1.877482 0.108041 -0.023802 -442584.000000 0 1 0
-11.778192 17.103327 -5.783233 21.556794 -0.967729 1.842402 0.073851 -0.024241 94233.200000 0 1 0
-12.809492 17.448727 -4.873433 22.187643 -0.937535 1.792248 0.090828 -0.025039 351382.000000 0 1 0
-13.357492 16.326827 -4.150233 21.499123 -0.885097 1.765058 0.078710 -0.019113 1065.980000 0 1 0
-14.503092 16.695127 -3.222033 22.348343 -0.855544 1.715474 0.067829 -0.022717 -309195.000000 0 1 0
-15.789592 16.785627 -3.792933 23.354974 -0.815965 1.733922 0.127973 -0.044624 206403.000000 0 1 0
-16.738292 17.116527 -2.755733 24.098547 -0.796570 1.685400 0.138494 -0.040652 1136060.000000 0 1 0
-18.205892 17.198827 -3.329033 25.265324 -0.756961 1.702944 0.167813 -0.054400 699321.000000 0 0 1
-18.349992 18.163527 -4.330633 26.179960 -0.780291 1.736978 0.152006 -0.053204 213643.000000 0 0 1
-19.702592 18.219927 -4.765533 27.255608 -0.746321 1.746546 0.136388 -0.053533 486034.000000 0 0 1
-19.831692 19.139327 -5.947133 28.195358 -0.767634 1.783318 0.126920 -0.031355 -88018.800000 0 0 1
-19.428992 20.489427 -5.682433 28.802645 -0.811957 1.769388 0.135858 -0.053914 214534.000000 0 0 1
-19.590292 21.240027 -6.838233 29.693092 -0.825781 1.803179 0.119294 -0.024240 47836.100000 0 0 1
-19.350392 22.730997 -6.472433 30.545511 -0.865561 1.784310 0.125176 -0.028913 -693371.000000 0 0 1
-18.011092 23.013727 -6.273433 29.889580 -0.906741 1.782256 0.126707 -0.034747 -660009.000000 0 0 1
-17.812192 23.712867 -5.054233 30.085204 -0.926552 1.739594 0.149449 -0.049110 681843.000000 0 0 1
-16.317092 24.195557 -5.058633 29.618613 -0.977470 1.742430 0.125014 -0.051084 352487.000000 0 0 1
-15.968992 24.953877 -3.908133 29.882740 -1.001525 1.701954 0.126579 -0.052494 200469.000000 0 0 1
-14.628992 25.394277 -3.812033 29.553482 -1.048155 1.700144 0.155497 -0.071702 186783.000000 0 0 1
-14.240492 26.586107 -4.693933 30.522871 -1.079048 1.725193 0.165502 -0.057815 37831.500000 0 0 1
-15.037592 27.741057 -4.342033 31.851980 -1.074062 1.707541 0.201240 -0.054813 521882.000000 0 0 1
-14.883692 28.769007 -5.309533 32.823333 -1.093364 1.733271 0.146121 -0.059587 176072.000000 0 0 1
-15.755992 29.964027 -4.875433 34.203275 -1.086699 1.713826 0.143666 -0.045492 -502391.000000 0 0 1
-17.128192 29.886567 -5.068433 34.817680 -1.050386 1.716886 0.162726 -0.046829 -810191.000000 0 0 1
-17.679192 31.134867 -4.715833 36.113333 -1.054370 1.701755 0.178603 -0.038479 52932.300000 0 0 1
13.205153 -8.920039 18.224136 24.208723 -0.594091 0.718503 0.164532 -0.018360 -82718.100000 0 1 0
14.219053 -9.753339 18.752336 25.474677 -0.601224 0.743481 0.158810 -0.022706 117884.000000 0 0 1
14.261553 -10.978339 18.077436 25.509008 -0.656044 0.783187 0.161427 -0.020460 151615.000000 0 0 1
15.056953 -12.041239 18.863336 26.972740 -0.674566 0.796311 0.199656 -0.044537 320706.000000 0 0 1
16.480553 -11.943439 18.910636 27.782486 -0.627111 0.822123 0.182965 -0.037600 940662.000000 0 0 1
17.151553 -12.984939 19.611336 29.109945 -0.648011 0.831594 0.183925 -0.041593 110459.000000 0 0 1
17.431353 -14.254139 18.705536 29.273360 -0.685459 0.877605 0.172280 -0.051324 -865949.000000 0 0 1
16.259153 -14.932039 18.362736 28.714385 -0.742876 0.876954 0.196303 -0.059134 -183163.000000 0 0 1
16.479353 -16.063439 17.631336 28.990811 -0.772618 0.917043 0.204046 -0.064320 -299772.000000 0 0 1
15.754853 -16.100139 16.251036 27.776357 -0.796237 0.945833 0.194145 -0.069224 51324.400000 0 0 1
14.339553 -16.077739 16.387536 27.067837 -0.842481 0.920497 0.230681 -0.068018 181459.000000 0 0 1
13.692753 -15.836439 15.165036 25.850775 -0.857867 0.943896 0.246368 -0.067761 131435.000000 0 0 1
13.212853 -17.104839 14.372536 25.956209 -0.913073 0.983968 0.186378 -0.051744 372968.000000 0 0 1
14.394153 -17.782539 13.934936 26.787922 -0.890317 1.023717 0.180193 -0.049837 768128.000000 0 0 1
14.026053 -18.832439 13.033036 26.856115 -0.930643 1.064100 0.150319 -0.040220 -446377.000000 0 0 1
15.126453 -19.745839 12.484736 27.831212 -0.917097 1.105612 0.140559 -0.037816 -422068.000000 0 0 1
15.727353 -20.469639 13.543136 29.150854 -0.915669 1.087627 0.112100 -0.033483 92939.100000 0 0 1
16.289053 -21.695439 13.059136 30.109240 -0.926780 1.122173 0.081244 -0.027168 91461.400000 0 0 1
17.115953 -22.534439 14.044436 31.591185 -0.921213 1.110104 0.083351 -0.030141 1158110.000000 0 0 1
18.466053 -22.112239 14.353536 32.186491 -0.875013 1.108562 0.068673 -0.029219 1014860.000000 0 0 1
18.997153 -22.884239 15.465136 33.522390 -0.877945 1.091294 0.078246 -0.032386 724244.000000 0 0 1
20.489453 -22.531739 15.759836 34.290952 -0.832834 1.093261 0.058904 -0.019902 497062.000000 0 0 1
21.467653 -23.017439 14.883836 34.816536 -0.820222 1.129078 0.040499 -0.027341 -894868.000000 0 0 1
22.676453 -22.378539 15.100536 35.256867 -0.778786 1.128185 0.041619 -0.015652 -1126490.000000 0 0 1
23.858253 -22.995839 14.423536 36.139497 -0.766994 1.160253 0.034089 -0.018119 -460347.000000 0 0 1
24.606953 -23.962039 15.160236 37.543497 -0.772121 1.155125 0.043952 -0.018369 -101287.000000 0 0 1
25.693753 -24.474739 14.466136 38.320371 -0.761105 1.183696 0.052172 -0.024014 -505708.000000 0 0 1
26.229053 -25.724459 15.141136 39.736192 -0.775686 1.179874 0.067428 -0.018086 -67434.200000 0 0 1
26.796853 -25.473819 16.450536 40.467356 -0.760092 1.152161 0.068517 -0.017181 335474.000000 0 0 1
27.008953 -26.697729 17.201436 41.691026 -0.779603 1.145497 0.109437 -0.016494 232946.000000 0 0 1
27.496353 -26.443319 18.643536 42.460334 -0.765878 1.116221 0.094512 -0.008008 216382.000000 0 0 1
26.423953 -25.941379 19.398136 41.802728 -0.776183 1.088246 0.096367 -0.008302 250209.000000 0 0 1
26.850053 -25.672559 20.720136 42.536216 -0.762983 1.062010 0.094773 -0.003015 -167873.000000 0 0 1
25.640453 -25.482309 21.635436 42.129241 -0.782305 1.031480 0.089813 -0.007569 -420010.000000 0 0 1
24.992153 -26.670789 21.915636 42.617294 -0.817879 1.030672 0.098514 -0.005535 -168285.000000 0 0 1
23.963553 -26.533139 22.881846 42.448065 -0.836241 1.001481 0.105545 -0.005862 -135838.000000 0 0 1
23.281553 -27.888939 23.000866 42.998412 -0.875196 1.006379 0.127401 -0.011875 -273644.000000 0 0 1
24.141753 -28.896349 23.504336 44.387802 -0.874804 1.012759 0.121465 -0.017939 788195.000000 0 0 1
23.711053 -30.169819 23.005506 44.740198 -0.904700 1.030719 0.135622 -0.021637 356498.000000 0 0 1
24.698753 -31.235509 23.597116 46.287247 -0.901735 1.035847 0.122312 -0.013023 328092.000000 0 0 1
24.748153 -31.302269 24.995806 47.086021 -0.901802 1.011188 0.107733 -0.019384 469989.000000 0 0 1
26.028853 -31.640889 25.504986 48.261282 -0.882406 1.013991 0.089286 -0.013682 -439526.000000 0 0 1
25.959853 -32.052469 27.002646 49.299266 -0.890037 0.991149 0.086305 -0.027493 -41253.100000 0 0 1
25.437453 -33.347699 27.171516 49.974236 -0.919157 0.995944 0.088890 -0.022166 349971.000000 0 0 1
24.038153 -33.442979 26.962536 49.226456 -0.947577 0.991154 0.101603 -0.017452 -308022.000000 0 0 1
23.473553 32.684506 27.617126 48.805637 0.947969 0.969321 0.146110 -0.032713 -10214.400000 0 0 1
22.795353 32.903264 28.851756 49.342443 0.964920 0.946255 0.124254 -0.037500 263299.000000 0 0 1
22.412053 31.654490 29.335476 48.630001 0.954707 0.923241 0.127795 -0.044182 33089.400000 0 0 1
21.711253 31.863561 30.698196 49.285335 0.972675 0.898395 0.111041 -0.048599 73731.300000 0 0 1
22.665153 32.498013 31.525050 50.632586 0.961796 0.898705 0.098739 -0.040943 320667.000000 0 0 1
22.298653 32.643731 32.889162 51.425092 0.971509 0.876877 0.084458 -0.037579 -256413.000000 0 0 1
23.521653 32.638150 -33.628813 52.434855 0.946326 2.267046 0.073465 -0.037177 61052.700000 0 0 1
24.087253 31.326367 -33.505383 51.808761 0.915300 2.274063 0.076699 -0.032235 -1207490.000000 0 0 1
25.394253 31.265797 -33.136453 52.157863 0.888657 2.259207 0.058892 -0.025309 -1271320.000000 0 0 1
25.944453 29.864047 -32.777183 51.374309 0.855516 2.262704 0.073195 -0.014861 -181240.000000 0 0 1
26.206953 29.118427 33.499926 51.545438 0.837974 0.863330 0.078502 -0.022815 381328.000000 0 0 1
25.506353 27.884327 33.436406 50.458923 0.829908 0.846450 0.086368 -0.031242 -180127.000000 0 0 1
25.964253 27.084217 32.251968 49.476122 0.806507 0.860749 0.113897 -0.033716 -520801.000000 0 0 1
27.220653 26.505947 32.435315 49.955768 0.772096 0.864158 0.094797 -0.027167 -31792.400000 0 0 1
27.730853 25.954617 31.213956 49.162520 0.752324 0.882900 0.119256 -0.041006 -36640.300000 0 0 1
29.127253 25.310547 31.358537 49.723018 0.715401 0.888387 0.075047 -0.022875 -145234.000000 0 0 1
29.075253 24.089617 32.070010 49.539535 0.691895 0.866678 0.089682 -0.019525 105812.000000 0 0 1
29.865753 24.281977 33.187600 50.823168 0.682640 0.859256 0.094809 -0.032266 -1357870.000000 0 0 1
29.646253 23.226247 -33.173593 50.188107 0.664565 2.292927 0.094728 -0.034620 -84224.200000 0 0 1
28.641853 23.582277 -32.192533 49.120654 0.688818 2.285478 0.091866 -0.032756 1548260.000000 0 0 1
27.283653 23.562627 -32.659633 48.644082 0.712347 2.306892 0.076828 -0.019814 283081.000000 0 0 1
26.683553 22.090327 -32.760823 47.678780 0.691501 2.328308 0.053326 -0.016268 -667339.000000 0 0 1
26.437053 21.504127 -31.514063 46.416391 0.682864 2.317118 0.025284 -0.028236 232317.000000 0 0 1
26.186653 20.133727 -31.565083 45.688754 0.655459 2.333491 0.034698 -0.019959 -76315.700000 0 0 1
25.959753 19.388227 -30.208903 44.298870 0.641487 2.321200 0.045281 -0.022170 95838.200000 0 0 1
24.739353 19.720427 -29.560153 43.298192 0.672987 2.322263 0.040522 -0.013877 206415.000000 0 0 1
24.542353 18.921627 -28.387863 42.026489 0.656793 2.312406 0.052136 -0.009772 -328034.000000 0 0 1
23.182253 18.963927 -27.681103 40.783463 0.685642 2.316833 0.048728 -0.005522 -304263.000000 0 0 1
23.187953 18.126227 -26.595863 39.668390 0.663488 2.305618 0.055537 -0.010349 181407.000000 0 0 1
23.698853 18.576727 -25.339993 39.355376 0.664825 2.270350 0.075855 -0.008045 -44581.400000 0 0 1
23.516153 17.620227 -24.169533 38.047972 0.643041 2.259113 0.103882 -0.019330 77633.900000 0 0 1
24.384053 16.508027 -24.287033 38.170105 0.595123 2.260468 0.109928 -0.028665 108927.000000 0 0 1
24.359853 15.639227 -23.205033 37.100693 0.570737 2.246518 0.150336 -0.036873 -32610.900000 0 0 1
25.493453 14.576027 -23.232333 37.444866 0.519393 2.240101 0.159879 -0.038670 -37156.400000 0 0 1
26.783353 15.031827 -22.889333 38.304378 0.511430 2.211256 0.178826 -0.049192 844574.000000 0 0 1
27.867253 14.077627 -22.926433 38.734799 0.467773 2.204188 0.176970 -0.053283 940100.000000 0 0 1
27.860053 13.190427 -21.687633 37.689831 0.442185 2.183919 0.162562 -0.046567 12683.900000 0 0 1
26.712653 12.320227 -21.668633 36.536057 0.432140 2.205669 0.155818 -0.039093 465760.000000 0 0 1
26.315653 11.992127 -20.343833 35.358114 0.427587 2.183847 0.128733 -0.040761 196648.000000 0 0 1
24.840853 11.513927 -20.405833 34.147277 0.434030 2.211280 0.127834 -0.031793 313678.000000 0 0 1
23.868153 12.514827 -20.314333 33.748803 0.482923 2.216709 0.157216 -0.033309 -630063.000000 0 0 1
22.555953 12.131927 -20.643033 32.895128 0.493474 2.249187 0.121512 -0.035183 364756.000000 0 0 1
21.646353 13.436627 -20.550833 32.732923 0.555526 2.249563 0.124790 -0.035585 -441949.000000 0 0 1
21.846153 14.418027 -21.518733 33.884949 0.583359 2.258873 0.118858 -0.031721 -339071.000000 0 0 1
20.911853 15.451127 -21.536933 33.762144 0.636339 2.262567 0.101457 -0.028827 -8147.200000 0 0 1
19.606153 15.093027 -22.292733 33.304153 0.656060 2.304154 0.070104 -0.005185 202874.000000 0 0 1
18.578153 14.289127 -21.726733 31.959002 0.655636 2.318329 0.053125 -0.011107 -287014.000000 0 0 1
17.477753 14.305827 -22.546133 31.913267 0.685930 2.355311 0.055043 -0.024090 -655281.000000 0 0 1
16.213553 13.574227 -22.080533 30.572682 0.697025 2.377819 0.034781 -0.017029 433367.000000 0 0 1
15.095153 13.706527 -22.970133 30.714158 0.737222 2.415641 0.063854 -0.023608 286105.000000 0 0 1
14.015553 12.916927 -22.471033 29.465744 0.744629 2.438143 0.087464 -0.026016 804838.000000 0 0 1
12.725353 13.200427 -23.349933 29.688470 0.803720 2.475915 0.099478 -0.030486 522688.000000 0 0 1
12.332853 14.564327 -23.305633 30.122606 0.868172 2.455445 0.090449 -0.020095 44788.900000 0 0 1
12.010653 14.984927 -24.576533 31.189899 0.895132 2.478292 0.092396 -0.032863 -739128.000000 0 0 1
11.885153 16.503027 -24.654133 31.959866 0.946655 2.451849 0.097239 -0.037515 744901.000000 0 0 1
13.110453 17.260627 -24.493233 32.706753 0.921206 2.417158 0.088044 -0.027552 1131500.000000 0 0 1
14.225453 17.054527 -25.356323 33.707025 0.875596 2.422276 0.103095 -0.041670 -65451.800000 0 0 1
14.038853 17.184627 -26.845393 34.829239 0.885810 2.450848 0.142350 -0.045761 -649634.000000 0 0 1
15.211853 16.877627 -27.562973 35.720753 0.837262 2.452186 0.136748 -0.045053 -200947.000000 0 0 1
14.997353 17.221227 -28.901293 36.834440 0.854313 2.472890 0.191335 -0.046055 -539027.000000 0 0 1
16.190753 17.587827 -29.777793 38.186242 0.826734 2.465149 0.159518 -0.058701 -199951.000000 0 0 1
17.181153 16.575027 -29.808913 38.190245 0.767444 2.466321 0.108881 -0.052136 -202709.000000 0 0 1
18.257553 16.970527 -30.623563 39.485942 0.748880 2.458392 0.089917 -0.038573 -160920.000000 0 0 1
19.479953 16.060127 -30.494263 39.589093 0.689469 2.450060 0.084698 -0.034893 441941.000000 0 0 1
20.739353 16.591127 -30.885713 40.734672 0.674730 2.431370 0.068439 -0.031379 384509.000000 0 0 1
21.815653 15.687527 -30.938533 40.978214 0.623427 2.426450 0.076195 -0.027077 -100050.000000 0 0 1
23.085153 16.369127 -31.444933 42.304331 0.616791 2.408791 0.079600 -0.019568 -325464.000000 0 0 1
22.990653 16.638527 -32.825293 43.392517 0.626461 2.428701 0.086535 -0.029348 -559549.000000 0 0 1
24.168053 17.233627 -33.224283 44.552729 0.619447 2.412425 0.077649 -0.033115 -692056.000000 0 0 1
24.211953 17.765027 32.775749 44.452948 0.633006 0.741712 0.051748 -0.026407 366536.000000 0 0 1
25.379453 18.566127 32.601827 45.295660 0.631583 0.767345 0.050300 -0.019206 430210.000000 0 0 1
25.328153 19.180927 31.344347 44.630610 0.648155 0.792165 0.077379 -0.018587 128691.000000 0 0 1
26.450953 20.258227 31.188726 45.637542 0.653586 0.818386 0.095373 -0.018200 967004.000000 0 0 1
27.769853 19.711827 31.110436 46.125699 0.617292 0.830549 0.060147 -0.009967 737292.000000 0 0 1
28.723653 20.787327 31.254506 47.265266 0.626456 0.848303 0.051329 -0.016313 796962.000000 0 0 1
30.190953 20.307327 31.443956 48.089536 0.592119 0.858118 0.102540 -0.015285 112644.000000 0 0 1
30.317553 19.839927 32.776904 48.857979 0.579465 0.835427 0.073264 -0.025331 642634.000000 0 0 1
31.632553 19.834827 33.338256 50.054751 0.560064 0.841915 0.065096 -0.021972 500272.000000 0 0 1
31.482253 19.462827 -32.617453 49.333884 0.553706 2.293156 0.055894 0.000352 -294739.000000 0 0 1
31.011553 20.404327 -31.681623 48.803465 0.581950 2.277286 0.045131 -0.015167 235895.000000 0 0 1
30.548953 19.904327 -30.439323 47.497085 0.577468 2.266424 0.071966 -0.027044 116850.000000 0 0 1
31.639453 20.016427 -29.331143 47.560785 0.564075 2.235351 0.093963 -0.036594 445282.000000 0 0 1
32.781953 19.276427 -29.725283 48.268307 0.531564 2.234241 0.099209 -0.037275 -422462.000000 0 0 1
33.781053 19.233727 -28.763453 48.357337 0.517589 2.207826 0.123676 -0.051409 -1028940.000000 0 0 1
35.134153 18.702827 -29.140323 49.329128 0.489173 2.202763 0.104478 -0.037471 -931375.000000 0 0 1
36.018553 19.484127 -29.869823 50.687017 0.495866 2.200988 0.103742 -0.040171 233163.000000 0 0 1
37.100753 19.881927 -29.003563 51.117155 0.491946 2.174134 0.090913 -0.025165 199909.000000 0 0 1
-37.978703 20.761227 -29.719913 52.504129 -0.500271 2.172502 0.081432 -0.028301 267769.000000 0 0 1
-37.172203 20.011827 -30.653553 52.171699 -0.493858 2.198826 0.063498 -0.024056 68764.500000 0 0 1
-36.222903 20.890227 -31.187983 52.165032 -0.523121 2.211639 0.065275 -0.026254 -177173.000000 0 0 1
-35.355503 20.278427 -32.327723 52.022186 -0.520750 2.241353 0.070169 -0.026938 593290.000000 0 0 1
-34.357303 19.329627 -31.921833 50.725360 -0.512470 2.251458 0.085506 -0.020377 776237.000000 0 0 1
-33.669803 18.675027 -32.981773 50.697234 -0.506408 2.279123 0.098874 -0.017602 268387.000000 0 0 1
-32.757803 17.489327 -32.503183 49.349844 -0.490397 2.289790 0.086495 -0.000583 396275.000000 0 0 1
-33.524403 16.299227 -32.275073 49.307512 -0.452539 2.284406 0.080449 -0.000970 379907.000000 0 0 1
-32.856703 15.084527 -32.587443 48.672860 -0.430396 2.304358 0.077913 0.009201 607468.000000 0 0 1
-33.906503 13.876927 -32.625313 49.057426 -0.388472 2.298348 0.083047 0.003898 800922.000000 0 0 1
-33.357603 12.613127 -32.789203 48.445355 -0.361502 2.314242 0.099126 -0.001871 169422.000000 0 0 1
-34.458003 11.768727 -33.102423 49.210032 -0.329117 2.308616 0.105480 -0.007136 318896.000000 0 0 1
-34.164103 10.273827 -33.455623 48.908242 -0.292117 2.324095 0.116617 -0.012404 -87328.400000 0 0 1
-33.675503 10.085527 32.671291 47.991359 -0.290990 0.821977 0.112248 -0.015131 29675.500000 0 0 1
-33.623803 8.714627 32.407084 47.504988 -0.253600 0.820053 0.141055 -0.031038 735863.000000 0 0 1
-32.403703 8.357927 31.442552 45.918286 -0.252429 0.816536 0.140798 -0.024234 677616.000000 0 0 1
-31.216903 8.355627 32.187677 45.610942 -0.261533 0.787385 0.096607 -0.012387 -611359.000000 0 0 1
-30.160203 7.762127 31.469463 44.274321 -0.251897 0.780185 0.081868 -0.017708 -90148.500000 0 0 1
22.329953 -3.848939 -31.429263 38.745835 -0.170689 2.516938 0.111339 -0.050013 -370983.000000 0 0 1
23.424753 -3.817439 -32.301453 40.083360 -0.161546 2.507918 0.092442 -0.050290 524732.000000 0 0 1
24.453753 -2.878039 -31.881903 40.283059 -0.117154 2.483969 0.077212 -0.039371 684161.000000 0 0 1
24.131553 -1.378839 -32.147483 40.220563 -0.057076 2.496892 0.086754 -0.030414 291311.000000 0 0 1
25.275453 -0.592039 -31.741703 40.579979 -0.023419 2.468987 0.078260 -0.019706 935011.000000 0 0 1
25.195853 0.761861 -32.155463 40.858111 0.030228 2.476733 0.072953 -0.028312 -278845.000000 0 0 1
26.358353 1.604361 -31.615633 41.193264 0.060792 2.445721 0.061495 -0.017405 -297043.000000 0 0 1
27.604653 1.369561 -32.221863 42.451631 0.049573 2.432611 0.066432 -0.019327 -506107.000000 0 0 1
28.497353 2.248961 -31.558733 42.580636 0.078755 2.405581 0.074042 -0.017375 86443.200000 0 0 1
30.020553 2.091661 -31.815873 43.793360 0.069562 2.384011 0.074793 -0.018784 376676.000000 0 0 1
30.426153 2.422961 -33.148063 45.060133 0.079466 2.397408 0.069842 -0.023511 -51471.700000 0 0 1
30.167253 1.504461 33.294225 44.953665 0.049829 0.736782 0.054686 -0.021927 -396764.000000 0 0 1
30.538553 1.986461 31.823757 44.150886 0.064956 0.765847 0.057307 -0.033009 291781.000000 0 0 1
29.661953 2.974661 31.271126 43.203743 0.099951 0.761494 0.050813 -0.019645 551360.000000 0 0 1
30.056753 4.270661 31.749061 43.927779 0.141142 0.763015 0.068417 -0.024312 318204.000000 0 0 1
29.277553 5.451661 31.064426 43.033641 0.184098 0.764305 0.073096 -0.020338 183778.000000 0 0 1
29.602853 6.713861 31.647365 43.851574 0.223025 0.764552 0.105889 -0.032109 166039.000000 0 0 1
28.998753 7.722061 30.889736 43.066619 0.260250 0.770942 0.104452 -0.040391 33048.000000 0 0 1
29.638353 9.066561 31.325406 44.067171 0.296867 0.780082 0.099495 -0.039824 849974.000000 0 0 1
30.931053 9.328461 30.771676 44.616659 0.292914 0.809735 0.097353 -0.038515 216897.000000 0 0 1
31.257653 10.719261 30.817066 45.184455 0.330365 0.820264 0.088774 -0.029458 -4664.990000 0 0 1
32.593553 11.021961 30.108706 45.720428 0.326092 0.851920 0.108901 -0.030669 -150829.000000 0 0 1
33.695253 10.428961 30.771486 46.808307 0.300157 0.853442 0.108675 -0.026560 1128070.000000 0 0 1
35.043553 10.632261 30.291756 47.525636 0.294574 0.879707 0.118490 -0.035016 1354380.000000 0 0 1
35.593953 12.052661 30.428336 48.353694 0.326497 0.890161 0.112262 -0.025522 -759913.000000 0 0 1
35.793353 12.457561 31.785943 49.464140 0.334929 0.872902 0.113555 -0.019802 2601.070000 0 0 1
36.386053 13.688461 32.079614 50.402584 0.359823 0.880886 0.116727 -0.010474 32613.500000 0 0 1
35.518953 14.949761 31.846901 49.993164 0.398389 0.880164 0.102865 -0.017733 -690062.000000 0 0 1
35.393453 15.296561 30.489136 49.155556 0.407942 0.901725 0.109005 -0.026790 1307910.000000 0 0 1
34.309053 16.282061 30.283006 48.572390 0.443098 0.897634 0.101127 -0.029580 2283460.000000 0 0 1
32.820753 15.872861 30.596846 47.595341 0.450460 0.872578 0.093950 -0.025582 148265.000000 0 0 1
32.224953 14.963261 29.706156 46.312012 0.434713 0.874429 0.118680 -0.026801 -254480.000000 0 0 1
30.893653 14.777861 30.105956 45.597934 0.446175 0.849647 0.102947 -0.033309 -173494.000000 0 0 1
29.900953 14.167061 29.090146 44.056886 0.442469 0.849597 0.100362 -0.029021 -18809.800000 0 0 1
30.067153 12.829261 28.804686 43.569870 0.403299 0.848493 0.122231 -0.028413 -391432.000000 0 0 1
29.265053 12.474561 27.732556 42.203704 0.402939 0.853815 0.124382 -0.036356 -256146.000000 0 0 1
29.042753 10.972461 27.512826 41.482912 0.361226 0.845666 0.125488 -0.028543 -86713.600000 0 0 1
30.081153 10.320661 26.817776 41.600299 0.330509 0.870226 0.125701 -0.028343 15352.400000 0 0 1
29.822553 8.905861 26.759876 41.046193 0.290198 0.860649 0.122888 -0.024953 144608.000000 0 0 1
31.067753 8.069861 26.345956 41.526345 0.254134 0.883513 0.109299 -0.032858 165776.000000 0 0 1
31.304353 8.101561 24.965546 40.851882 0.253244 0.913317 0.123383 -0.035892 -181573.000000 0 0 1
32.471253 7.427361 24.580496 41.397448 0.224868 0.935062 0.133785 -0.030067 -210299.000000 0 0 1
33.014053 7.937361 23.230696 41.141155 0.235946 0.970777 0.130489 -0.033323 92875.300000 0 0 1
33.680053 9.230361 23.233466 41.944481 0.267492 0.983743 0.131829 -0.042196 349569.000000 0 0 1
32.934253 10.348861 22.780206 41.360630 0.304458 0.987509 0.153705 -0.042038 -50777.300000 0 0 1
32.395853 10.330061 21.292036 40.119225 0.308677 1.011348 0.139836 -0.018977 749916.000000 0 0 1
33.447653 10.598861 20.335136 40.553657 0.306869 1.045537 0.155102 -0.034114 706098.000000 0 0 1
33.066453 10.219961 19.036836 39.499861 0.299760 1.067921 0.159199 -0.039815 -696216.000000 0 0 1
33.934253 10.832461 17.887636 39.860297 0.308994 1.105421 0.185603 -0.068716 1764470.000000 0 0 1
35.288553 10.385661 17.588336 40.773686 0.286226 1.124791 0.183665 -0.055508 1790760.000000 0 0 1
36.212953 10.275261 18.683136 42.024023 0.276478 1.110088 0.176043 -0.047845 -63358.000000 0 0 1
37.630653 9.855761 18.216236 42.953851 0.256154 1.132841 0.179026 -0.047682 18683.200000 0 0 1
37.776953 8.458261 18.192036 42.773713 0.220267 1.131493 0.142621 -0.034124 334760.000000 0 0 1
-37.260303 8.068661 17.372836 41.895690 -0.213256 1.143218 0.158060 -0.037022 -22721.000000 0 0 1
-37.252603 6.529461 17.161936 41.532184 -0.173513 1.144809 0.157097 -0.036591 -120020.000000 0 0 1
37.659753 6.150061 16.541636 41.589734 0.161877 1.161751 0.136373 -0.035182 207897.000000 0 0 1
37.783253 4.919161 15.738836 41.224790 0.129466 1.179074 0.162279 -0.040097 -210884.000000 0 0 1
36.509153 4.047461 15.812436 39.991666 0.110411 1.164300 0.138498 -0.035282 60478.400000 0 0 1
36.448753 3.331261 17.057236 40.380171 0.091143 1.134687 0.134057 -0.025264 1530460.000000 0 0 1
35.186753 2.583161 17.137736 39.223492 0.073281 1.118619 0.116365 -0.022992 1411020.000000 0 0 1
35.205753 1.765261 18.421536 39.773285 0.050099 1.089235 0.121636 -0.041253 -2111.950000 0 0 1
35.925253 0.549161 18.248436 40.298025 0.015285 1.100852 0.139483 -0.034979 203570.000000 0 0 1
35.779453 -0.223039 19.388936 40.695821 -0.006234 1.074200 0.126190 -0.028295 68910.300000 0 0 1
36.358853 -1.678239 19.274436 41.185999 -0.046125 1.083787 0.122333 -0.020104 188655.000000 0 0 1
35.905353 -2.436039 20.379336 41.357538 -0.067742 1.055538 0.148314 -0.016896 176132.000000 0 0 1
36.402553 -3.755539 20.375736 41.885804 -0.102803 1.062764 0.108785 -0.017133 -149848.000000 0 0 1
35.873853 -4.502339 21.604136 42.118203 -0.124852 1.032189 0.108564 -0.018292 -4726.870000 0 0 1
36.416953 -3.993139 22.788496 43.144584 -0.109214 1.014330 0.115553 -0.025467 213329.000000 0 0 1
35.586953 -4.329239 23.879306 43.074294 -0.121058 0.983185 0.109454 -0.025198 135364.000000 0 0 1
36.061253 -3.855039 25.285326 44.211118 -0.106498 0.961949 0.121630 -0.028784 -60888.800000 0 0 1
35.086853 -4.193539 26.254196 44.022220 -0.118955 0.931806 0.115626 -0.035614 107020.000000 0 0 1
35.409053 -3.819139 27.588966 45.050393 -0.107442 0.911700 0.118268 -0.037213 -685780.000000 0 0 1
34.342553 -4.168639 28.629566 44.904794 -0.120793 0.879468 0.107386 -0.038812 -224968.000000 0 0 1
34.302553 -5.532339 29.062776 45.298089 -0.159904 0.874228 0.111453 -0.041285 252336.000000 0 0 1
33.258153 -5.749339 30.009696 45.163497 -0.171178 0.844015 0.111673 -0.047403 -55859.500000 0 0 1
33.220553 -7.154939 30.627876 45.747842 -0.212136 0.837270 0.121393 -0.037665 395139.000000 0 0 1
34.454353 -7.401139 31.299946 47.133490 -0.211595 0.844547 0.113953 -0.039487 -137200.000000 0 0 1
35.167753 -8.412739 30.702926 47.436428 -0.234805 0.866833 0.115122 -0.033021 -617328.000000 0 0 1
36.542753 -8.581339 31.352103 48.907735 -0.230651 0.874936 0.114623 -0.032063 -211641.000000 0 0 1
36.460553 -9.097239 32.686573 49.805057 -0.244517 0.854905 0.107255 -0.036829 -533044.000000 0 0 1
37.738153 -9.132939 33.234597 51.108876 -0.237443 0.862856 0.081475 -0.024747 -452350.000000 0 0 1
37.839053 -9.374439 -32.702673 50.883581 -0.242855 2.268808 0.099763 -0.029373 -136885.000000 0 0 1
37.364253 -8.393139 -31.761263 49.752487 -0.220962 2.263195 0.095830 -0.036856 386358.000000 0 0 1
-38.027703 -7.156339 -31.746183 50.051368 0.186012 2.257863 0.108991 -0.036527 -44739.900000 0 0 1
37.438553 -6.120639 -30.910333 48.934202 -0.162051 2.254504 0.114721 -0.037439 -323725.000000 0 0 1
37.872953 -6.275139 -29.589813 48.469526 -0.164197 2.227466 0.101998 -0.026768 417130.000000 0 0 1
37.085553 -5.452339 -28.727423 47.226381 -0.145975 2.224703 0.111526 -0.031697 316887.000000 0 0 1
37.789453 -5.221039 -27.363673 46.947551 -0.137292 2.193036 0.123625 -0.033912 -209326.000000 0 0 1
-37.050903 -4.678239 -27.384583 46.309510 0.125601 2.203514 0.139459 -0.030572 -523630.000000 0 0 1
-36.645503 -4.423639 -26.052413 45.179527 0.120133 2.185409 0.138063 -0.026721 1022050.000000 0 0 1
-35.092703 -4.129839 -26.050793 43.899854 0.117145 2.206090 0.164676 -0.021765 433739.000000 0 0 1
-34.532203 -3.889639 -24.753533 42.665439 0.112165 2.189743 0.176086 -0.031950 1098010.000000 0 0 1
-33.123103 -4.070439 -24.582033 41.448579 0.122275 2.205667 0.187499 -0.031196 1296890.000000 0 0 1
-32.097203 -3.219939 -25.414113 41.066721 0.099984 2.238073 0.170860 -0.024544 -170750.000000 0 0 1
-31.942503 -3.608839 -26.764093 41.828983 0.112502 2.265094 0.163759 -0.017157 728784.000000 0 0 1
-30.823003 -2.993539 -27.451903 41.383883 0.096817 2.296080 0.163102 -0.011655 722493.000000 0 0 1
-30.665303 -3.640439 -28.846493 42.257943 0.118162 2.322150 0.134106 -0.022147 -598317.000000 0 0 1
-31.753003 -3.502239 -29.722583 43.634285 0.109852 2.320163 0.159151 -0.029193 -266427.000000 0 0 1
-31.665803 -4.294939 -30.880923 44.438733 0.134811 2.339091 0.113749 -0.014316 -233503.000000 0 0 1
-33.066503 -4.371739 -31.542863 45.907057 0.131448 2.328290 0.103833 -0.024729 -170110.000000 0 0 1
-34.042803 -5.138439 -30.843273 46.223624 0.149810 2.301323 0.119101 -0.022606 152970.000000 0 0 1
-34.805103 -4.493639 -29.878473 46.090250 0.128398 2.276094 0.145913 -0.028505 -476949.000000 0 0 1
-35.905103 -3.542439 -30.422793 47.193978 0.098343 2.271339 0.176816 -0.033157 -792347.000000 0 0 1
-35.512903 -2.352739 -31.101063 47.264974 0.066154 2.288976 0.190863 -0.032579 -315695.000000 0 0 1
-34.832103 -1.366339 -30.406493 46.256860 0.039206 2.288080 0.188051 -0.027714 -120110.000000 0 0 1
-34.663003 0.005061 -31.078923 46.555593 -0.000146 2.301731 0.186349 -0.027046 257917.000000 0 0 1
-35.858503 0.770761 -31.115263 47.482480 -0.021491 2.285376 0.217977 -0.026555 50073.200000 0 0 1
-35.691603 2.061161 -31.622783 47.729857 -0.057685 2.294997 0.228779 -0.023128 528905.000000 0 0 1
-36.989003 2.702061 -32.230443 49.135414 -0.072921 2.286239 0.200825 -0.026178 435607.000000 0 0 1
-37.372203 2.359561 -33.538853 50.270306 -0.063053 2.301200 0.193370 -0.029075 -408517.000000 0 0 1
37.542453 2.977361 33.629416 50.489980 0.079141 0.841881 0.159141 -0.028454 -700480.000000 0 0 1
36.636553 2.515961 32.477411 49.023966 0.068566 0.846671 0.118381 -0.023941 -45628.300000 0 0 1
37.097653 2.605861 31.096196 48.476796 0.070128 0.874389 0.144579 -0.031967 651402.000000 0 0 1
-38.057303 1.630861 30.671086 48.905352 -0.042827 0.892905 0.146176 -0.032429 267903.000000 0 0 1
-37.561303 1.716561 29.260816 47.644448 -0.045668 0.909488 0.160207 -0.034066 328061.000000 0 0 1
-36.854103 2.967761 29.010176 46.995987 -0.080354 0.905502 0.169441 -0.037165 505182.000000 0 0 1
-36.154003 2.903261 27.763176 45.676414 -0.080131 0.917480 0.151429 -0.043134 196309.000000 0 0 1
-35.618903 4.267061 27.305366 45.083224 -0.119229 0.920194 0.138411 -0.041016 -99427.200000 0 0 1
-34.951203 4.249161 26.061136 43.804392 -0.120980 0.933601 0.131320 -0.027237 202067.000000 0 0 1
-34.404103 5.531561 25.889886 43.411135 -0.159418 0.931802 0.124282 -0.029805 220048.000000 0 0 1
-33.419403 5.776361 24.687896 41.948957 -0.171153 0.941566 0.090888 -0.021016 1062940.000000 0 0 1
-32.189803 5.000861 24.660496 40.857460 -0.154123 0.922820 0.078266 -0.022166 1461240.000000 0 0 1
-31.259103 5.354061 23.638056 39.554458 -0.169634 0.930282 0.081403 -0.021579 416339.000000 0 0 1
-31.746903 5.076761 22.216736 39.079697 -0.158571 0.966117 0.105553 -0.032070 -325436.000000 0 0 1
-31.912703 3.730761 22.019036 38.950958 -0.116377 0.969998 0.084950 -0.031748 -152840.000000 0 0 1
-32.908303 3.442061 21.066936 39.225246 -0.104217 1.003830 0.111213 -0.036971 -308067.000000 0 0 1
-32.827203 1.943161 20.660236 38.836149 -0.059125 1.009854 0.096679 -0.025837 367507.000000 0 0 1
-31.645203 1.557461 19.941736 37.436845 -0.049177 1.009036 0.101549 -0.020290 356305.000000 0 0 1
-31.483703 2.028861 18.604036 36.625810 -0.064353 1.037994 0.118563 -0.028544 877234.000000 0 0 1
-30.091103 1.656561 17.934736 35.069551 -0.054996 1.033978 0.131435 -0.034609 895648.000000 0 0 1
-29.933203 0.245961 17.964736 34.911157 -0.008217 1.030273 0.147464 -0.030774 242359.000000 0 0 1
-28.808803 -0.243239 17.233336 33.570733 0.008443 1.031719 0.167729 -0.035470 149696.000000 0 0 1
-28.815503 -0.173639 15.672336 32.802217 0.006026 1.072667 0.180263 -0.028770 -187280.000000 0 0 1
-28.567403 1.166661 15.182436 32.372271 -0.040816 1.082644 0.189203 -0.034476 141603.000000 0 0 1
-28.468403 1.179461 13.754736 31.639119 -0.041407 1.121049 0.213792 -0.040893 -48904.900000 0 0 1
-27.906103 2.514361 13.253536 30.995625 -0.089858 1.128967 0.209495 -0.045412 -838295.000000 0 0 1
-26.527103 2.620161 13.318636 29.798297 -0.098454 1.107433 0.190473 -0.054771 -859066.000000 0 0 1
-26.036003 3.872161 12.821936 29.279158 -0.147641 1.117512 0.189939 -0.056317 472825.000000 0 0 1
-24.487203 3.757661 12.702536 27.840573 -0.152266 1.097009 0.179864 -0.063590 -200024.000000 0 0 1
-23.766203 3.873261 13.883636 27.795501 -0.161553 1.047784 0.147650 -0.055583 -765988.000000 0 0 1
-22.447703 4.008261 13.421436 26.459411 -0.176698 1.038810 0.160735 -0.054969 -552562.000000 0 0 1
-21.519703 4.532261 14.529836 26.358208 -0.207576 0.986940 0.125359 -0.054799 -239596.000000 0 0 1
-21.914703 5.823561 14.950236 27.160221 -0.259735 0.987898 0.120322 -0.045461 209043.000000 0 0 1
-21.363403 6.226561 16.189236 27.518292 -0.283603 0.941831 0.100344 -0.028856 -313568.000000 0 0 1
-21.438403 7.759761 16.477936 28.130790 -0.347286 0.944977 0.100654 -0.036937 -193208.000000 0 0 1
-20.465003 8.426561 15.664736 27.114705 -0.390599 0.954862 0.103049 -0.043644 742806.000000 0 0 1
-20.590303 9.855461 15.616936 27.658260 -0.446419 0.970800 0.094421 -0.031322 -138755.000000 0 0 1
-20.133003 10.641061 16.898436 28.357135 -0.486217 0.932392 0.094757 -0.027582 -170355.000000 0 0 1
-20.905803 10.363261 18.050836 29.500550 -0.460211 0.912359 0.106907 -0.034597 258807.000000 0 0 1
-20.343603 10.901261 19.210636 30.029122 -0.491920 0.876645 0.121880 -0.023218 -541910.000000 0 0 1
-13.266047 -33.110004 -20.164133 40.973804 1.189716 2.085323 0.158756 -0.050930 -282696.000000 0 0 1
-14.187147 -33.499504 -19.198433 41.134800 1.170194 2.056375 0.176181 -0.043247 -683649.000000 0 0 1
-15.271147 -32.606904 -19.177733 40.794651 1.132795 2.060205 0.148405 -0.062686 -257260.000000 0 0 1
-16.481447 -33.224904 -18.447633 41.422790 1.110308 2.032361 0.137838 -0.047901 -898128.000000 0 0 1
-17.037447 33.104661 -19.116333 41.852448 -1.095494 2.045141 0.130993 -0.049641 -46443.800000 0 0 1
-17.877747 32.283461 -18.369233 41.222135 -1.065060 2.032658 0.143117 -0.046126 109272.000000 0 0 1
-19.233947 32.761961 -17.805533 41.956261 -1.039930 2.009077 0.118503 -0.043290 -523296.000000 0 0 1
-19.069747 -33.604004 -16.862933 42.157358 1.054629 1.982313 0.132108 -0.037148 -144420.000000 0 0 1
-20.277647 -33.107904 -16.334233 42.120345 1.021257 1.969039 0.103881 -0.034762 64734.100000 0 0 1
-20.764947 -33.709904 -14.944433 42.318752 1.018703 1.931721 0.107936 -0.027628 -127613.000000 0 0 1
-20.953247 32.315061 -15.104733 41.369732 -0.995543 1.944553 0.112872 -0.033343 145194.000000 0 0 1
-20.992147 31.794261 -13.821633 40.528790 -0.987250 1.918811 0.110043 -0.024494 -124689.000000 0 0 1
-21.244447 30.296761 -13.838833 39.506121 -0.959258 1.928683 0.098070 -0.028124 -419713.000000 0 0 1
-20.179347 29.620861 -13.251233 38.212520 -0.972762 1.924929 0.120922 -0.041686 -313029.000000 0 0 1
-20.231247 28.222761 -13.425633 37.230031 -0.948857 1.939721 0.114445 -0.045325 -127535.000000 0 0 1
-18.992747 27.475761 -12.889233 35.801875 -0.965964 1.939081 0.113018 -0.043818 -87940.900000 0 0 1
-17.829647 27.652861 -13.659933 35.625424 -0.998109 1.964306 0.163067 -0.048629 -505968.000000 0 0 1
-16.786547 26.869161 -13.119533 34.290846 -1.012376 1.963401 0.181328 -0.055891 336606.000000 0 0 1
-15.446847 27.089461 -13.877933 34.132697 -1.052565 1.989512 0.145855 -0.053640 120105.000000 0 0 1
-15.478047 26.792461 -15.240633 34.491779 -1.046934 2.028470 0.136437 -0.051578 -609230.000000 0 0 1
-14.199647 27.015261 -15.760333 34.348834 -1.086867 2.047476 0.177406 -0.049328 -221799.000000 0 0 1
-14.189747 27.369161 -17.272633 35.337852 -1.092492 2.081494 0.197281 -0.069506 8179.090000 0 0 1
-14.201747 26.224861 -18.125033 34.899137 -1.074473 2.116892 0.187196 -0.062633 138318.000000 0 0 1
-14.500847 26.544461 -19.492133 35.983694 -1.070810 2.143247 0.171144 -0.059404 69957.800000 0 0 1
-13.767247 25.617761 -20.512633 35.588972 -1.077670 2.185083 0.158460 -0.041378 730861.000000 0 0 1
-12.378347 25.959061 -20.624233 35.390046 -1.125847 2.192929 0.122280 -0.036158 523159.000000 0 0 1
-11.689647 25.057561 -21.483633 35.015364 -1.134296 2.231343 0.104821 -0.033483 -337828.000000 0 0 1
-10.312747 25.544161 -21.865633 35.170482 -1.187085 2.241713 0.121573 -0.031295 -754218.000000 0 0 1
-10.447847 26.287061 -23.071433 36.502851 -1.192488 2.254985 0.099115 -0.026449 -519092.000000 0 0 1
-9.308847 26.378361 -23.839133 36.752916 -1.231543 2.276583 0.099784 -0.029729 -936375.000000 0 0 1
-9.716147 27.065461 -25.151583 38.203990 -1.226138 2.289420 0.085707 -0.024366 -45746.300000 0 0 1
-10.205047 26.274361 -26.173733 38.464911 -1.200327 2.319183 0.084807 -0.016746 -150414.000000 0 0 1
-10.356947 26.965561 -27.346773 39.777555 -1.204089 2.328827 0.082490 -0.018778 -210788.000000 0 0 1
-11.332047 26.260061 -28.272413 40.216109 -1.163406 2.350420 0.045456 -0.005714 7158.850000 0 0 1
-11.888747 26.936861 -29.421233 41.623860 -1.155154 2.355811 0.048730 -0.002036 378634.000000 0 0 1
-13.179247 26.396261 -29.695933 41.860526 -1.107721 2.359445 0.055700 -0.001472 497937.000000 0 0 1
-13.707547 26.935061 -31.062693 43.339189 -1.100045 2.369905 0.052096 -0.008325 19140.200000 0 0 1
-13.049747 26.486261 -32.241163 43.718538 -1.113007 2.400115 0.070799 -0.010816 -7893.150000 0 0 1
-12.946347 25.088561 -32.456143 43.016799 -1.094410 2.425687 0.076656 -0.007401 42085.500000 0 0 1
-12.283047 24.492061 -33.693713 43.428109 -1.105940 2.458858 0.063274 -0.011747 266485.000000 0 0 1
-13.162547 24.475061 32.647213 42.873323 -1.077372 0.705202 0.064770 -0.010988 -74273.600000 0 0 1
-12.523247 23.805261 31.626975 41.518523 -1.086510 0.704777 0.061412 -0.013137 -548939.000000 0 0 1
-13.301947 23.703761 30.275426 40.686749 -1.059414 0.731594 0.074880 -0.004611 -586149.000000 0 0 1
-14.369247 22.839861 30.381396 40.634514 -1.009232 0.726243 0.091791 -0.017683 -1142590.000000 0 0 1
-15.068347 22.673561 29.209976 39.929540 -0.984241 0.750221 0.107642 -0.013506 -143092.000000 0 0 1
-16.239847 21.706961 29.478786 40.049015 -0.928487 0.743554 0.104015 -0.015271 252666.000000 0 0 1
-15.729647 20.372761 29.672446 39.280087 -0.913306 0.714522 0.094869 -0.029080 269955.000000 0 0 1
-16.797147 19.439961 29.719116 39.284629 -0.858200 0.712840 0.088322 -0.026172 236789.000000 0 0 1
-16.376147 17.978061 29.902336 38.542685 -0.831994 0.682776 0.081744 -0.032716 -133581.000000 0 0 1
-16.054847 17.320561 28.693166 37.162585 -0.823304 0.688660 0.110874 -0.040414 -115910.000000 0 0 1
-15.364047 16.151561 28.984226 36.565178 -0.810381 0.655615 0.100204 -0.057556 -283207.000000 0 0 1
-14.719447 15.401461 27.842696 35.058278 -0.808037 0.653134 0.107567 -0.054828 111347.000000 0 0 1
-13.761647 16.260361 27.205236 34.552961 -0.868436 0.664299 0.078691 -0.044207 126753.000000 0 0 1
-13.238247 15.656661 26.038586 33.141970 -0.868900 0.667021 0.051661 -0.031591 515296.000000 0 0 1
-12.170547 16.470261 25.220016 32.487550 -0.934411 0.682025 0.056266 -0.024616 686837.000000 0 0 1
-12.758447 17.437161 24.342676 32.548402 -0.939123 0.725916 0.053109 -0.022895 42223.800000 0 0 1
-13.311547 18.605561 24.910766 33.821745 -0.949769 0.742869 0.054487 -0.021950 278788.000000 0 0 1
-12.245947 19.577561 25.512296 34.411065 -1.011831 0.735645 0.055024 -0.021571 386533.000000 0 0 1
-11.771347 19.303461 26.821946 35.079980 -1.023198 0.700385 0.062821 -0.025865 -230644.000000 0 0 1
-12.735947 19.520461 27.811986 36.287178 -0.992707 0.697514 0.095486 -0.027313 -224944.000000 0 0 1
-12.200747 19.279161 29.237996 37.086449 -1.006575 0.662635 0.097979 -0.032402 399191.000000 0 0 1
-11.148047 20.129461 29.692966 37.565229 -1.065027 0.659273 0.073194 -0.033789 185630.000000 0 0 1
-11.192447 20.254661 31.069126 38.740325 -1.065970 0.640187 0.076043 -0.034245 153579.000000 0 0 1
-10.003447 21.053061 31.681266 39.331958 -1.127222 0.634304 0.050461 -0.022808 673568.000000 0 0 1
-8.780347 20.307461 31.657218 38.622104 -1.162699 0.609969 0.066684 -0.025931 963098.000000 0 0 1
-7.818047 21.007961 32.508541 39.487486 -1.214529 0.603663 0.080469 -0.018629 1328870.000000 0 0 1
-6.554147 20.228861 33.016666 39.271668 -1.257469 0.572176 0.074549 -0.010017 430032.000000 0 0 1
-6.906147 19.161761 -33.554493 39.252668 -1.224875 2.596026 0.071675 -0.020700 -121242.000000 0 0 1
-5.818847 18.636561 -32.838093 38.203675 -1.268160 2.605191 0.063307 -0.018730 -222633.000000 0 0 1
-4.935347 17.635561 -33.572353 38.242301 -1.297925 2.642224 0.042867 -0.015202 -8721.150000 0 0 1
-5.580147 16.358061 -33.712593 37.884867 -1.242050 2.667856 0.043576 -0.014537 35421.200000 0 0 1
-4.928047 15.676561 32.746722 36.638614 -1.266220 0.465101 0.055387 -0.015934 -209429.000000 0 0 1
-5.585447 14.306961 32.476619 35.925160 -1.198593 0.441744 0.060807 -0.026295 -139048.000000 0 0 1
-5.074847 13.276661 33.301797 36.208196 -1.205695 0.403402 0.065928 -0.023617 -108229.000000 0 0 1
-5.659147 12.020861 33.015189 35.588337 -1.130799 0.382601 0.077624 -0.022096 205463.000000 0 0 1
-4.787847 10.829961 33.514706 35.545000 -1.154538 0.339621 0.096051 -0.033977 296244.000000 0 0 1
-4.686747 10.677461 -32.578963 34.602928 -1.157179 2.797876 0.098766 -0.040975 -615707.000000 0 0 1
-3.739847 9.722161 -32.241943 33.882883 -1.203573 2.829100 0.130661 -0.039215 -87377.900000 0 0 1
-3.822247 9.439961 -30.732113 32.375689 -1.186072 2.821589 0.142550 -0.043374 498493.000000 0 0 1
-4.950847 8.649561 -30.372303 31.965647 -1.050932 2.824527 0.140391 -0.041733 125007.000000 0 0 1
-5.328847 8.695161 -29.007903 30.748348 -1.020980 2.803524 0.178071 -0.044357 482463.000000 0 0 1
-6.527547 7.845761 -28.497583 30.270069 -0.876855 2.797685 0.166121 -0.046299 310917.000000 0 0 1
-6.170947 6.466361 -28.492353 29.861490 -0.808770 2.837605 0.182752 -0.037032 234622.000000 0 0 1
-7.251747 5.679861 -28.024663 29.499668 -0.664438 2.824030 0.183539 -0.056662 -563183.000000 0 0 1
-7.231547 5.270361 -26.512613 27.981970 -0.629795 2.816087 0.174683 -0.055998 -175269.000000 0 0 1
-7.147047 6.340261 -25.580183 27.306134 -0.725651 2.784144 0.135053 -0.035586 777868.000000 0 0 1
-5.800847 6.698561 -25.225513 26.736624 -0.857096 2.803779 0.133355 -0.041486 475383.000000 0 0 1
-5.621647 7.909061 -24.241533 26.111455 -0.952868 2.760845 0.081292 -0.017991 202330.000000 0 0 1
-6.040747 7.640461 -22.863333 24.851545 -0.901797 2.738868 0.064904 -0.006573 249621.000000 0 1 0
-7.426447 7.610361 -22.566933 24.946667 -0.797628 2.701253 0.076125 -0.010194 187720.000000 0 1 0
-7.625147 7.703761 -21.025933 23.655457 -0.790527 2.665605 0.057883 -0.007353 47218.100000 0 1 0
-7.153147 8.976461 -20.608633 23.589407 -0.897962 2.633429 0.038094 0.002548 45364.400000 0 1 0
-6.946147 9.157361 -19.189433 22.368294 -0.921857 2.601937 0.027685 0.000959 -32734.200000 0 1 0
-8.199047 9.464361 -18.338733 22.206027 -0.856911 2.542495 0.038326 0.000487 -481011.000000 0 1 0
-7.876747 9.622661 -17.019533 21.078502 -0.884839 2.510589 0.022928 0.007866 550501.000000 0 1 0
-8.974447 9.853961 -16.085933 20.890153 -0.832076 2.449676 0.028211 -0.003328 1008700.000000 0 1 0
-9.648647 11.276061 -16.240933 22.000315 -0.863017 2.401215 0.058232 -0.014056 293679.000000 0 1 0
-8.713247 12.309561 -15.879433 21.899826 -0.954825 2.381967 0.031802 -0.009425 647819.000000 0 1 0
-9.181147 13.595561 -16.200133 23.055955 -0.976837 2.349903 0.058521 -0.012355 631733.000000 0 1 0
-7.954247 14.560861 -15.999733 23.049516 -1.070817 2.338029 0.064448 -0.015143 673994.000000 0 1 0
-7.364247 14.610361 -14.689133 21.987847 -1.103920 2.302391 0.062752 -0.012480 -57489.500000 0 1 0
-8.178447 15.095061 -13.649733 21.933150 -1.074273 2.242517 0.056943 -0.030847 -760256.000000 0 1 0
-7.482847 15.931161 -12.523933 21.601940 -1.131682 2.189230 0.039081 -0.023940 -29757.500000 0 1 0
-7.144747 17.258461 -12.957133 22.732998 -1.178292 2.177266 0.057100 -0.022497 596429.000000 0 1 0
-6.082647 17.453461 -13.922333 23.139863 -1.235453 2.216374 0.060242 -0.016982 413433.000000 0 1 0
-5.888147 18.895961 -14.406833 24.480287 -1.268724 2.200008 0.098179 -0.016293 155689.000000 0 1 0
-5.270347 19.738561 -13.446633 24.458113 -1.309876 2.152900 0.089909 -0.024720 -16921.000000 0 1 0
-5.314147 21.104161 -13.842533 25.792276 -1.324119 2.137309 0.111702 -0.023806 -76532.600000 0 0 1
-4.809247 22.170861 -12.838433 26.067246 -1.357188 2.085770 0.113872 -0.022851 -439830.000000 0 0 1
-5.130847 23.510661 -13.215833 27.454235 -1.355930 2.073021 0.119509 -0.029258 485781.000000 0 0 1
-6.512447 23.866861 -13.147233 28.015866 -1.304415 2.059269 0.121466 -0.032848 512120.000000 0 0 1
-7.274847 23.876861 -11.792333 27.605924 -1.275050 2.012153 0.089572 -0.029096 -371589.000000 0 0 1
-7.569847 22.556861 -11.349933 26.361630 -1.247017 2.015896 0.092124 -0.020964 74142.700000 0 0 1
-8.251047 22.435161 -10.100933 25.950821 -1.218377 1.970596 0.097229 -0.022395 505018.000000 0 0 1
-7.392847 22.911761 -8.858433 25.652969 -1.258677 1.923374 0.096212 -0.019372 447444.000000 0 0 1
-7.196747 24.298261 -8.792933 26.823765 -1.282844 1.904774 0.095912 -0.017963 -265642.000000 0 0 1
-6.673347 24.703161 -7.554433 26.680502 -1.306953 1.857867 0.088601 -0.018662 60838.700000 0 0 1
-6.680447 26.224661 -7.384233 28.051526 -1.321362 1.837174 0.091415 -0.025131 -158881.000000 0 0 1
-5.723047 26.919061 -8.135733 28.698071 -1.361313 1.858232 0.091732 -0.031275 -236224.000000 0 0 1
-5.949647 26.907661 -9.547933 29.164766 -1.353184 1.904325 0.090936 -0.029154 -428483.000000 0 0 1
-5.500047 28.238161 -10.150233 30.506909 -1.378431 1.909982 0.096066 -0.032449 231691.000000 0 0 1
-6.405247 29.325861 -10.024433 31.646842 -1.355757 1.893107 0.095842 -0.030160 389773.000000 0 0 1
-7.477647 29.267261 -10.977833 32.140327 -1.320652 1.919372 0.098955 -0.031147 410126.000000 0 0 1
-8.618147 30.295161 -10.800733 33.297524 -1.293645 1.901142 0.097155 -0.034184 -164601.000000 0 0 1
-9.518247 29.973861 -9.781633 32.934932 -1.263316 1.872344 0.102391 -0.040480 -552818.000000 0 0 1
-10.386147 31.035761 -9.571733 34.098513 -1.247860 1.855328 0.094398 -0.042641 242938.000000 0 0 1
-11.707547 30.720061 -8.809133 34.035124 -1.206685 1.832602 0.118553 -0.052242 573315.000000 0 0 1
-12.583247 29.739861 -9.319733 33.610339 -1.170527 1.851766 0.125426 -0.054003 -121841.000000 0 0 1
-13.761347 29.670561 -8.553633 33.806531 -1.136522 1.826594 0.146047 -0.048216 96335.300000 0 0 1
-14.743947 28.579561 -9.037033 33.404240 -1.094517 1.844746 0.146591 -0.052148 98544.200000 0 0 1
-14.312747 27.186161 -8.881133 31.981504 -1.086196 1.852191 0.144167 -0.046903 -710486.000000 0 0 1
-15.359047 26.376861 -9.216533 31.883909 -1.043499 1.864047 0.155621 -0.043539 -712523.000000 0 0 1
-15.335847 24.994461 -8.535233 30.541144 -1.020459 1.854035 0.153851 -0.038229 196085.000000 0 0 1
-14.361147 24.119861 -9.099033 29.509366 -1.033760 1.884248 0.153232 -0.031181 227071.000000 0 0 1
-14.557247 22.784461 -8.727333 28.411467 -1.002256 1.883021 0.135845 -0.025712 -268451.000000 0 0 1
-13.594747 21.702361 -9.239233 27.224494 -1.011178 1.917046 0.139939 -0.018937 -292964.000000 0 0 1
-13.656947 21.415861 -10.635333 27.536551 -1.003115 1.967333 0.136128 -0.006112 312033.000000 0 0 1
-13.099347 20.108561 -10.879433 26.349748 -0.993416 1.996416 0.126798 -0.009311 14360.800000 0 0 1
-13.193647 19.704561 -12.370033 26.746211 -0.980784 2.051605 0.128086 -0.011983 -264315.000000 0 0 1
-14.536047 19.508361 -12.702633 27.445031 -0.930426 2.051992 0.143439 -0.008582 -653008.000000 0 0 1
-14.708147 19.032461 -14.062633 27.862552 -0.912867 2.099847 0.133651 -0.004402 978613.000000 0 0 1
-16.196047 18.653461 -14.431633 28.610061 -0.855797 2.099512 0.125602 -0.007852 1325540.000000 0 0 1
-16.944047 19.804961 -14.870633 30.007882 -0.863092 2.089273 0.126496 -0.013581 348696.000000 0 0 1
-18.305247 19.455661 -15.103533 30.687482 -0.815854 2.085380 0.119876 -0.014108 221140.000000 0 0 1
-19.159247 20.614161 -15.616433 32.185298 -0.821962 2.077393 0.117988 -0.025950 -186579.000000 0 0 1
-19.455547 21.667661 -14.652333 32.599029 -0.839139 2.036970 0.115134 -0.039289 521428.000000 0 0 1
-20.061147 22.783161 -15.377533 34.029261 -0.848846 2.039681 0.110118 -0.032742 -3906.130000 0 0 1
-20.736147 23.873361 -14.516933 34.794634 -0.855609 2.001178 0.105663 -0.024068 -78853.200000 0 0 1
-21.962147 23.451161 -13.969233 35.034731 -0.818174 1.980923 0.122793 -0.026167 -135580.000000 0 0 1
-22.584047 24.512561 -13.280733 35.878722 -0.826323 1.949974 0.122302 -0.038430 52703.400000 0 0 1
-26.645557 -0.239339 3.232567 26.841991 0.008982 1.450074 0.253855 -0.064274 -106293.000000 0 0 1
-27.093967 0.361861 4.429867 27.456105 -0.013355 1.408744 0.262067 -0.066466 566649.000000 0 0 1
-28.443477 0.002461 4.717567 28.832045 -0.000087 1.406435 0.260820 -0.056527 388798.000000 0 0 1
-28.917237 0.602361 6.045067 29.548473 -0.020828 1.364760 0.247565 -0.042597 55742.700000 0 0 1
-29.584467 1.872861 5.881467 30.221515 -0.063221 1.374935 0.292884 -0.050690 227171.000000 0 0 1
-29.858517 2.608661 7.066467 30.794011 -0.087146 1.339258 0.286793 -0.045972 -1072310.000000 0 0 1
-28.769067 3.139661 7.933067 30.007503 -0.108703 1.303246 0.307888 -0.048286 -1100550.000000 0 0 1
-28.005317 2.146261 8.565267 29.364401 -0.076488 1.274804 0.272660 -0.056927 -199424.000000 0 0 1
-27.081017 2.663861 9.459767 28.809110 -0.098051 1.236229 0.268431 -0.068268 -550224.000000 0 0 1
-26.067577 1.578461 9.874167 27.919694 -0.060479 1.209312 0.235500 -0.064304 462018.000000 0 0 1
-25.020257 1.215861 8.937867 26.596561 -0.048557 1.228073 0.255867 -0.070872 1157390.000000 0 0 1
-25.336417 -0.008939 8.307867 26.663735 0.000353 1.253942 0.227581 -0.060233 -456465.000000 0 0 1
-24.086447 -0.670939 7.755267 25.313065 0.027848 1.259415 0.206245 -0.064551 58574.300000 0 0 1
-23.126447 -1.157639 8.703767 24.737183 0.050015 1.211250 0.212395 -0.082921 334441.000000 0 1 0
-21.988647 -1.653539 8.071367 23.481520 0.075058 1.219907 0.217340 -0.066734 102722.000000 0 1 0
-20.726147 -1.967339 8.933167 22.654913 0.094637 1.165474 0.161696 -0.047826 428247.000000 0 1 0
-20.033547 -0.798739 9.405167 22.145838 0.039849 1.132174 0.139638 -0.050315 757030.000000 0 1 0
-20.561747 -0.159339 10.569767 23.119922 0.007749 1.095984 0.161245 -0.055506 -689260.000000 0 1 0
-20.047947 1.326261 10.679867 22.753873 -0.066058 1.082225 0.114443 -0.041925 -104904.000000 0 1 0
-20.555947 2.222561 9.715667 22.844713 -0.107704 1.131512 0.136543 -0.044060 147516.000000 0 1 0
-21.952647 2.362761 9.759767 24.140307 -0.107217 1.154590 0.167940 -0.052189 -600992.000000 0 1 0
-22.528847 3.726161 9.254967 24.639149 -0.163911 1.185730 0.160586 -0.060076 -202327.000000 0 1 0
-22.371547 4.851361 10.108767 25.024168 -0.213548 1.154954 0.142196 -0.060182 600833.000000 0 0 1
-22.940747 5.993961 9.490267 25.539589 -0.255567 1.190075 0.134233 -0.055333 -328797.000000 0 0 1
-22.970247 7.121961 10.555467 26.263520 -0.300653 1.157199 0.137122 -0.060785 197372.000000 0 0 1
-23.805147 6.778261 11.670567 27.364795 -0.277398 1.130198 0.134801 -0.060164 377526.000000 0 0 1
-23.770747 7.750061 12.697767 28.041847 -0.315166 1.100876 0.139232 -0.056094 -395711.000000 0 0 1
-24.682547 7.404261 13.855867 29.258098 -0.291438 1.077452 0.161774 -0.053936 -579993.000000 0 0 1
-26.033257 7.417161 13.485267 30.242308 -0.277557 1.108609 0.154648 -0.049545 -687943.000000 0 0 1
-26.828107 7.049461 14.558367 31.327117 -0.256955 1.087477 0.144269 -0.045602 -22435.900000 0 0 1
-28.356407 6.903661 14.399467 32.543679 -0.238814 1.112450 0.146630 -0.044454 137488.000000 0 0 1
-28.747507 5.963861 13.424267 32.283088 -0.204555 1.141941 0.177228 -0.033762 -782552.000000 0 0 1
-30.111817 6.122261 13.215467 33.449248 -0.200583 1.164630 0.218312 -0.031992 -759795.000000 0 0 1
-30.610437 5.147261 12.103067 33.316323 -0.166595 1.199013 0.252112 -0.034742 -346874.000000 0 0 1
-31.216187 4.016161 12.647667 33.919661 -0.127953 1.188695 0.218783 -0.036474 57666.700000 0 0 1
-31.622367 3.155761 11.619867 33.837173 -0.099466 1.220256 0.219205 -0.021061 -467466.000000 0 0 1
-32.800377 2.258761 12.017267 35.005449 -0.068755 1.220371 0.186074 -0.010268 -511313.000000 0 0 1
-32.621217 1.176261 12.869567 35.087792 -0.036043 1.195249 0.173841 -0.010750 -739403.000000 0 0 1
-33.800637 0.558661 13.270867 36.316815 -0.016527 1.196713 0.151647 -0.006562 -327125.000000 0 0 1
-33.537777 -0.643839 14.138567 36.401869 0.019195 1.171899 0.139812 -0.016886 61485.900000 0 0 1
-33.442167 -1.887839 13.488967 36.109482 0.056391 1.187955 0.159443 -0.015178 100817.000000 0 0 1
-33.651267 -2.898739 14.465867 36.743323 0.085928 1.166143 0.154849 -0.010735 -49442.200000 0 0 1
-33.753197 -4.389139 14.066467 36.829450 0.129311 1.178907 0.169255 -0.015191 -251222.000000 0 0 1
-34.790141 -4.601639 13.155667 37.478001 0.131505 1.212132 0.148689 -0.024945 -78232.400000 0 0 1
-34.813898 -5.971839 12.813167 37.574561 0.169883 1.222809 0.167592 -0.026520 -783742.000000 0 0 1
-35.893890 -6.414839 11.767767 38.314512 0.176850 1.258614 0.161928 -0.026117 1139500.000000 0 0 1
-37.247097 -6.586139 12.209967 39.746783 0.175014 1.258553 0.144335 -0.025967 885909.000000 0 0 1
-37.860377 -5.423539 12.722967 40.307528 0.142283 1.249657 0.148975 -0.032185 -1074950.000000 0 0 1
36.782058 -5.214339 12.376467 39.157197 -0.140825 1.249211 0.155499 -0.037604 368266.000000 0 0 1
35.846598 -5.995139 13.128667 38.643010 -0.165711 1.224153 0.134896 -0.031915 -292399.000000 0 0 1
34.538578 -5.665539 12.780667 37.260665 -0.162587 1.220680 0.150463 -0.031855 -228088.000000 0 0 1
33.449738 -6.720439 13.108367 36.549673 -0.198272 1.203980 0.132780 -0.018775 5603.670000 0 0 1
33.230118 -6.860339 14.465967 36.885894 -0.203589 1.167794 0.133453 -0.019928 179243.000000 0 0 1
32.201468 -7.804439 14.753567 36.269982 -0.237778 1.151880 0.119023 -0.015239 60887.000000 0 0 1
31.640378 -7.546139 16.138167 36.311130 -0.234123 1.110246 0.122031 -0.010495 -560377.000000 0 0 1
32.603008 -7.793139 17.085467 37.624491 -0.234629 1.099429 0.093033 -0.001289 -339656.000000 0 0 1
32.026218 -7.807539 18.349667 37.727266 -0.239122 1.062858 0.093252 -0.009627 -145407.000000 0 0 1
33.046428 -8.309339 19.419767 39.220389 -0.246338 1.052795 0.099432 -0.016427 237823.000000 0 0 1
34.156768 -7.452339 19.656567 40.107391 -0.214814 1.058594 0.097247 -0.006053 -425292.000000 0 0 1
35.263868 -8.187639 19.200367 40.978432 -0.228140 1.083150 0.055447 0.007820 -1028390.000000 0 0 1
36.553918 -7.671639 19.829067 42.287526 -0.206869 1.082739 0.047242 -0.003942 -387485.000000 0 0 1
36.605818 -8.111739 21.155867 43.050632 -0.218073 1.057079 0.050430 -0.011987 1030910.000000 0 0 1
37.898178 -7.735839 21.698967 44.350426 -0.201356 1.059553 0.049565 -0.016633 922137.000000 0 0 1
-37.969357 -8.181239 23.159167 45.221143 0.212225 1.033132 0.059977 -0.010491 -253476.000000 0 0 1
37.618938 -7.428139 24.196467 45.341270 -0.194950 1.007883 0.065895 -0.012632 21686.900000 0 0 1
37.362238 -8.185439 25.350267 45.886537 -0.215676 0.985489 0.078300 -0.021385 -14592.400000 0 0 1
37.113548 -7.429839 26.664567 46.299213 -0.197580 0.957069 0.096041 -0.019701 90607.500000 0 0 1
-37.838917 -6.927439 27.266967 47.151464 0.181072 0.954172 0.078074 -0.036536 -179752.000000 0 0 1
38.047168 -6.083539 28.422967 47.879656 -0.158553 0.935230 0.083646 -0.050477 257800.000000 0 0 1
-36.779017 -5.701739 29.196567 47.303757 0.153803 0.905599 0.103264 -0.043191 498384.000000 0 0 1
-36.347717 -6.700539 30.114667 47.675433 0.182299 0.887104 0.096281 -0.037807 167734.000000 0 0 1
-34.956182 -6.482639 30.315867 46.722704 0.183367 0.864729 0.095383 -0.056926 351090.000000 0 0 1
-34.352277 -7.306939 31.492667 47.172644 0.209583 0.839810 0.085240 -0.040459 -250475.000000 0 0 1
-34.477307 -8.673839 31.185267 47.291025 0.246466 0.850732 0.074867 -0.030167 244751.000000 0 0 1
-33.962894 -9.497439 32.233867 47.777628 0.272676 0.830286 0.059890 -0.019861 -131535.000000 0 0 1
-34.317576 -11.018539 32.114067 48.274398 0.310678 0.842981 0.064501 -0.014824 299745.000000 0 0 1
-35.634253 -11.348939 32.542267 49.574162 0.308327 0.854712 0.057687 -0.018012 332417.000000 0 0 1
-35.785961 -12.743039 32.469167 49.972661 0.342090 0.863556 0.057535 -0.022973 168309.000000 0 0 1
-37.269487 -13.030539 32.774967 51.312845 0.336345 0.877952 0.061011 -0.021227 136078.000000 0 0 1
-37.732977 -14.383239 32.758867 51.998062 0.364182 0.889241 0.058652 -0.030795 -20806.900000 0 0 1
37.049748 -14.470139 33.179367 51.797096 -0.372342 0.875564 0.044125 -0.022756 -328620.000000 0 0 1
36.526608 -15.911939 33.236767 51.885119 -0.410836 0.875538 0.040747 -0.011922 -148933.000000 0 0 1
37.113888 -16.562439 -33.095102 52.412220 -0.419739 2.254203 0.048150 -0.017379 315973.000000 0 0 1
36.952818 -17.980839 -33.108502 52.773045 -0.452861 2.248974 0.052594 -0.030349 -79423.900000 0 0 1
37.564048 -18.784839 -31.910102 52.746398 -0.463708 2.220527 0.073486 -0.025705 -141621.000000 0 0 1
36.785888 -18.558139 -30.796602 51.439642 -0.467234 2.212666 0.084784 -0.021446 -89916.000000 0 0 1
37.218578 -19.417039 -29.733602 51.442502 -0.480859 2.187068 0.083267 -0.019217 -945202.000000 0 0 1
36.260598 -19.493339 -28.553402 50.101078 -0.493266 2.177200 0.107115 -0.014089 494180.000000 0 0 1
35.005538 -20.121639 -28.799202 49.594980 -0.521694 2.190370 0.096057 -0.011116 794583.000000 0 0 1
33.964128 -19.367839 -29.422002 48.931885 -0.518253 2.215904 0.091726 -0.010328 -334779.000000 0 0 1
32.590598 -20.046039 -29.446502 48.281334 -0.551439 2.226723 0.086368 -0.006585 -359553.000000 0 0 1
31.662418 -19.358639 -30.217402 47.857674 -0.548765 2.254155 0.067602 0.003818 67159.400000 0 0 1
30.392808 -19.970639 -30.307402 47.340129 -0.581339 2.265562 0.062128 0.007431 611724.000000 0 0 1
29.362008 -19.400439 -31.331102 47.118388 -0.583883 2.298216 0.046217 0.018305 671949.000000 0 0 1
29.730308 -19.629339 -32.688002 48.349846 -0.583545 2.313216 0.037913 0.014264 623118.000000 0 0 1
28.520408 -19.565339 -33.447502 48.113943 -0.601276 2.339457 0.062131 0.006836 797540.000000 0 0 1
28.792608 -19.691339 32.465767 47.652798 -0.599840 0.821262 0.058845 -0.003064 396492.000000 0 0 1
29.555108 -18.574239 31.948067 47.320035 -0.561084 0.829630 0.051525 -0.002853 301283.000000 0 0 1
29.827008 -18.782239 30.632567 46.698791 -0.561976 0.855342 0.048096 -0.014845 -162797.000000 0 0 1
28.932008 -18.047339 29.612067 45.162396 -0.557725 0.855714 0.046621 -0.010041 -29610.000000 0 0 1
29.120008 -16.626139 29.660767 44.767895 -0.518787 0.846584 0.060503 -0.023909 325494.000000 0 0 1
28.226908 -16.007239 28.762067 43.361810 -0.515870 0.845571 0.064725 -0.018652 -545528.000000 0 0 1
27.737908 -14.693139 29.335067 42.963078 -0.487135 0.819212 0.082455 -0.025100 -796653.000000 0 0 1
28.626008 -13.642539 29.439567 43.269566 -0.444735 0.822521 0.086011 -0.024488 -118635.000000 0 0 1
28.030508 -12.463739 30.016567 42.919092 -0.418395 0.796273 0.096755 -0.024751 484089.000000 0 0 1
29.148508 -11.394539 30.291767 43.555277 -0.372649 0.801710 0.098221 -0.030835 559515.000000 0 0 1
29.824208 -10.997339 29.125467 43.112848 -0.353270 0.829068 0.106259 -0.034470 -287155.000000 0 0 1
31.186408 -10.755539 29.382567 44.177018 -0.332105 0.843155 0.119406 -0.028949 -120465.000000 0 0 1
31.870418 -10.206239 28.136967 43.721617 -0.309922 0.871671 0.129105 -0.032360 -179492.000000 0 0 1
31.697448 -8.797239 28.028867 43.217323 -0.270724 0.865110 0.122823 -0.030810 308976.000000 0 0 1
32.431848 -8.357539 26.876067 42.941777 -0.252208 0.894547 0.146154 -0.028274 255804.000000 0 0 1
32.371198 -6.871239 26.569967 42.439033 -0.209160 0.894288 0.145234 -0.028531 355931.000000 0 0 1
31.112508 -6.338639 26.162567 41.141784 -0.200982 0.881606 0.146784 -0.025218 283474.000000 0 0 1
31.172708 -4.918239 25.975867 40.873861 -0.156484 0.882124 0.132679 -0.029778 412759.000000 0 0 1
29.736108 -4.381339 25.766167 39.589489 -0.146288 0.862115 0.112791 -0.020514 716740.000000 0 0 1
28.969308 -4.719839 24.610367 38.303627 -0.161506 0.873030 0.136424 -0.020933 636046.000000 0 0 1
27.671908 -4.140739 24.553567 37.225769 -0.148535 0.850530 0.123149 -0.017657 81609.000000 0 0 1
26.797308 -4.618139 23.433467 35.896383 -0.170660 0.859510 0.133188 -0.012234 -429011.000000 0 0 1
27.210408 -4.011939 22.218467 35.357633 -0.146387 0.891311 0.154771 -0.008421 451569.000000 0 0 1
26.519308 -4.605039 21.104067 34.203242 -0.171934 0.905847 0.153723 -0.007715 271243.000000 0 0 1
26.803308 -3.710539 19.881067 33.577407 -0.137562 0.937138 0.164382 -0.010465 488807.000000 0 0 1
26.114208 -2.445839 19.964767 32.962493 -0.093387 0.920174 0.140666 -0.001787 206817.000000 0 0 1
26.629308 -1.566539 18.982667 32.740124 -0.058760 0.952315 0.150599 -0.000270 166639.000000 0 0 1
25.478508 -0.728839 18.402567 31.437876 -0.028598 0.945469 0.123548 -0.002321 195542.000000 0 0 1
24.625008 -1.453039 17.524967 30.259326 -0.058938 0.953099 0.126671 -0.001316 167572.000000 0 0 1
23.482908 -0.660839 17.203967 29.118039 -0.028134 0.938702 0.150916 -0.002709 704477.000000 0 0 1
22.302708 -1.500339 16.631567 27.861637 -0.067170 0.931122 0.144046 -0.014563 414101.000000 0 0 1
22.646008 -1.981639 15.319767 27.412841 -0.087283 0.977794 0.193643 -0.038614 381885.000000 0 0 1
21.512908 -2.658939 14.809967 26.252815 -0.122974 0.971419 0.205376 -0.041467 122676.000000 0 0 1
21.769008 -3.359239 13.439467 25.802974 -0.153105 1.022951 0.225148 -0.059944 37141.100000 0 0 1
20.680108 -4.191239 13.047367 24.808610 -0.199962 1.016999 0.242924 -0.059146 763730.000000 0 1 0
20.722708 -4.476039 11.646667 24.189056 -0.212729 1.068448 0.229470 -0.062644 -490169.000000 0 1 0
19.534908 -5.362239 11.301967 23.196998 -0.267897 1.061896 0.219092 -0.063785 -488278.000000 0 1 0
19.718508 -6.665639 11.776167 23.915025 -0.325980 1.055932 0.223814 -0.067044 637713.000000 0 1 0
18.491208 -7.356039 11.963367 23.219781 -0.378619 1.029528 0.206321 -0.046197 83834.400000 0 1 0
18.643408 -8.822539 12.446567 24.090058 -0.442000 1.027841 0.218920 -0.055506 -111441.000000 0 1 0
19.227708 -9.635639 11.421667 24.351689 -0.464554 1.082604 0.199328 -0.059419 531020.000000 0 1 0
18.911908 -11.029239 11.595167 24.774024 -0.527968 1.083728 0.204763 -0.052337 7784.560000 0 1 0
19.286108 -11.824939 10.338967 24.873226 -0.550020 1.142121 0.174734 -0.052071 -127297.000000 0 1 0
18.532008 -11.327339 9.270067 23.615209 -0.548637 1.167398 0.149109 -0.042692 473442.000000 0 1 0
19.128408 -11.630139 7.978267 23.765708 -0.546284 1.228443 0.163621 -0.055045 43189.400000 0 1 0
18.469608 -10.966339 6.779767 22.524481 -0.535812 1.265060 0.131317 -0.038502 -297152.000000 0 1 0
18.814908 -9.607839 6.609867 22.135982 -0.472132 1.267568 0.116982 -0.034320 478296.000000 0 1 0
19.729408 -9.462439 5.536967 22.570895 -0.447204 1.322952 0.132512 -0.029871 -77016.900000 0 1 0
20.054208 -7.982339 5.310667 22.228184 -0.378814 1.329547 0.141809 -0.027445 -340161.000000 0 1 0
20.884308 -7.656339 4.213967 22.639156 -0.351392 1.383568 0.164606 -0.025872 661976.000000 0 1 0
21.042008 -6.226739 4.149167 22.332800 -0.287709 1.383923 0.163843 -0.033322 -476201.000000 0 1 0
22.009708 -5.826739 3.050067 22.971309 -0.258798 1.437626 0.207718 -0.048089 -364954.000000 0 1 0
21.447208 -6.000439 1.780767 22.341870 -0.272802 1.491006 0.183451 -0.053802 1418290.000000 0 1 0
22.361208 -5.390339 0.824767 23.016508 -0.236545 1.534955 0.226561 -0.049510 812759.000000 0 1 0
-25.049877 -14.336439 -0.736233 28.871645 0.519815 1.596299 0.154104 -0.030774 257012.000000 0 0 1
-23.829347 -13.609139 -0.818133 27.453885 0.518905 1.600601 0.108602 -0.015349 817530.000000 0 0 1
-22.692647 -14.104939 -0.111233 26.719242 0.556125 1.574959 0.133359 -0.009199 517427.000000 0 0 1
-22.693947 -13.909339 1.442767 26.656454 0.549858 1.516645 0.165536 -0.033891 -316022.000000 0 0 1
-23.691147 -14.685039 2.104567 27.952639 0.554890 1.495435 0.158932 -0.013283 433890.000000 0 0 1
-23.528147 -14.405339 3.520967 27.811593 0.549385 1.443855 0.158659 -0.002188 208646.000000 0 0 1
-24.433247 -15.285839 4.420267 29.157832 0.559042 1.418612 0.181680 -0.003991 -27386.900000 0 0 1
-24.020347 -16.610439 4.526667 29.552910 0.605009 1.417019 0.220901 -0.035194 334717.000000 0 0 1
-24.874347 -17.286639 5.448467 30.777375 0.607334 1.392830 0.231908 -0.029935 103279.000000 0 0 1
-24.896747 -18.845939 5.287867 31.669843 0.647943 1.403042 0.178506 -0.018863 -161945.000000 0 0 1
-25.434797 -19.413039 6.419867 32.634486 0.651926 1.372785 0.179318 -0.032752 -169929.000000 0 0 1
-25.546147 -20.790439 6.157767 33.507702 0.683122 1.385974 0.168528 -0.044482 23119.000000 0 0 1
-26.043807 -21.678839 7.302567 34.663806 0.694187 1.358538 0.146504 -0.033834 -234953.000000 0 0 1
-25.069387 -21.843339 8.285167 34.267326 0.716739 1.326596 0.141021 -0.028642 -520857.000000 0 0 1
-25.388087 -22.796139 9.267967 35.356953 0.731657 1.305572 0.119117 -0.021293 -416512.000000 0 0 1
-24.374547 -22.984239 10.380267 35.073405 0.756050 1.270338 0.126615 -0.032295 -293645.000000 0 0 1
-24.360947 -21.838339 11.169267 34.570527 0.730850 1.241807 0.114699 -0.033278 -143972.000000 0 0 1
-23.391347 -21.958239 12.181867 34.317885 0.753807 1.207913 0.126083 -0.036488 -120193.000000 0 0 1
-23.693347 -21.037639 13.398667 34.401762 0.726097 1.170734 0.094542 -0.021193 430906.000000 0 0 1
-24.967197 -21.442239 13.903267 35.727180 0.709590 1.171087 0.084540 -0.019794 281398.000000 0 0 1
-25.213757 -20.840939 15.173267 36.059760 0.690734 1.136490 0.081256 -0.008524 464317.000000 0 0 1
-26.569027 -21.437039 15.701767 37.576659 0.678900 1.139708 0.080556 -0.009751 1167710.000000 0 0 1
-27.772797 -21.144539 14.975667 37.982764 0.650719 1.165517 0.091838 -0.015124 642268.000000 0 0 1
-28.079127 -22.076439 13.983967 38.358283 0.666283 1.197634 0.078375 -0.017599 512278.000000 0 0 1
-29.255297 -23.057539 14.388067 39.931679 0.667473 1.202189 0.063238 -0.017861 918567.000000 0 0 1
-28.798657 -23.882239 15.467667 40.484228 0.692343 1.178765 0.043735 -0.010174 481150.000000 0 0 1
-29.838867 -24.808439 15.782067 41.891410 0.693604 1.184525 0.051178 -0.011122 325064.000000 0 0 1
-29.798327 -26.140349 15.009567 42.385673 0.720098 1.208825 0.062857 -0.010567 193858.000000 0 0 1
-30.401587 -26.071469 13.717867 42.333885 0.708872 1.240800 0.077790 -0.022029 651987.000000 0 0 1
-31.809767 -26.349889 13.722367 43.525639 0.691795 1.250054 0.114226 -0.039928 339781.000000 0 0 1
-32.305767 -26.700069 12.294767 43.677426 0.690680 1.285450 0.152222 -0.044922 -216548.000000 0 0 1
-31.918287 -27.970209 11.862167 44.066094 0.719570 1.298244 0.123860 -0.042334 21883.300000 0 0 1
-32.517827 -28.224069 10.644567 44.354413 0.714827 1.328442 0.114344 -0.032081 -78790.100000 0 0 1
-31.905207 -29.461509 9.948267 44.552113 0.745598 1.345603 0.103604 -0.027713 -54414.900000 0 0 1
-32.110237 -30.673139 10.661367 45.668080 0.762512 1.335169 0.106101 -0.021246 174966.000000 0 0 1
-31.748107 -31.732509 9.856167 45.956919 0.785152 1.354652 0.117650 -0.032073 -368360.000000 0 0 1
-31.664177 -33.007429 10.688667 46.971886 0.806166 1.341231 0.120030 -0.034386 25130.900000 0 0 1
-32.931347 -33.471899 11.125367 48.255729 0.793538 1.338153 0.109755 -0.023501 192375.000000 0 0 1
-32.919567 32.623633 11.430567 47.735282 -0.780883 1.328989 0.133231 -0.035008 -653710.000000 0 0 1
-34.182367 32.084576 12.170567 48.435286 -0.753752 1.316799 0.128929 -0.025111 963000.000000 0 0 1
-35.423863 31.981544 11.481467 49.086590 -0.734374 1.334707 0.086460 -0.031175 551012.000000 0 0 1
-35.914564 33.176370 10.934467 50.100798 -0.745787 1.350776 0.106704 -0.027253 -267469.000000 0 0 1
-37.452197 33.146621 10.568967 51.118183 -0.724487 1.362539 0.107516 -0.006899 967938.000000 0 0 1
-37.731577 32.234013 9.481367 50.523260 -0.706984 1.382014 0.089937 -0.008652 163665.000000 0 0 1
37.006258 32.160865 9.256667 49.894591 0.715459 1.384191 0.070772 -0.009693 -248147.000000 0 0 1
36.701498 31.511005 7.877467 49.010181 0.709452 1.409365 0.064509 -0.015923 -410308.000000 0 0 1
36.875778 30.091857 7.775167 48.226508 0.684441 1.408868 0.102383 -0.029931 311294.000000 0 0 1
36.611218 29.663587 6.400167 47.552832 0.680949 1.435796 0.113413 -0.027384 -330113.000000 0 0 1
36.841948 28.179057 6.005067 46.770174 0.652946 1.442046 0.125354 -0.024649 -330406.000000 0 0 1
35.863598 27.219487 6.320367 45.464768 0.649219 1.431328 0.124026 -0.031464 -121889.000000 0 0 1
35.928678 26.701547 7.617467 45.407800 0.639123 1.402243 0.124661 -0.038342 -939766.000000 0 0 1
34.866568 25.706557 7.854167 44.024909 0.635313 1.391433 0.123332 -0.040577 -1013230.000000 0 0 1
35.071178 24.486947 7.182567 43.372657 0.609522 1.404429 0.128620 -0.044039 -376937.000000 0 0 1
34.107988 23.564077 7.542167 42.136740 0.604570 1.390834 0.127905 -0.043182 -1144560.000000 0 0 1
34.451308 22.137927 7.069967 41.556767 0.571146 1.399837 0.115364 -0.041280 557883.000000 0 0 1
35.554878 21.413327 7.616967 42.198319 0.542081 1.389297 0.120075 -0.033776 686165.000000 0 0 1
36.854028 21.918927 7.278467 43.492928 0.536550 1.402657 0.102273 -0.028232 91997.300000 0 0 1
37.936548 20.862727 7.238967 43.895759 0.502795 1.405127 0.080201 -0.021387 -918478.000000 0 0 1
37.627498 20.011927 6.169267 43.062347 0.488796 1.427038 0.109895 -0.035646 245590.000000 0 0 1
-37.733887 18.822227 6.226467 42.625009 -0.462699 1.424196 0.128660 -0.039441 5850.820000 0 0 1
37.844328 17.766027 5.196367 42.128697 0.438910 1.447136 0.133979 -0.036761 319525.000000 0 0 1
-37.808007 17.900027 3.850867 42.008160 -0.442179 1.478998 0.147207 -0.034159 334015.000000 0 0 1
37.617428 16.881127 3.133267 41.350462 0.421821 1.494950 0.152404 -0.034284 -795007.000000 0 0 1
-37.815607 16.289627 1.903167 41.218856 -0.406743 1.524608 0.191551 -0.029587 -156216.000000 0 0 1
-36.704267 15.443427 2.018567 39.872011 -0.398268 1.520149 0.188976 -0.045966 62736.300000 0 0 1
-35.540916 16.097027 2.464667 39.094061 -0.425276 1.507710 0.211167 -0.049899 -728513.000000 0 0 1
-34.182102 15.379727 2.310767 37.553851 -0.422800 1.509225 0.222912 -0.052965 208173.000000 0 0 1
-33.991307 14.573127 3.433767 37.142640 -0.405027 1.478216 0.236221 -0.057991 1439790.000000 0 0 1
-32.630297 14.050127 3.408767 35.689803 -0.406592 1.475140 0.230480 -0.065852 1027440.000000 0 0 1
-32.291917 13.136127 4.622767 35.166685 -0.386349 1.438962 0.248316 -0.051742 -28006.600000 0 0 1
-32.853647 11.841927 4.537667 35.216243 -0.345949 1.441586 0.275267 -0.055244 184294.000000 0 0 1
-32.354947 11.077427 5.585367 34.651815 -0.329863 1.408905 0.232640 -0.038816 -29429.800000 0 0 1
-32.789137 9.584727 5.514067 34.603460 -0.284391 1.410764 0.264183 -0.052106 1329280.000000 0 0 1
-34.196775 9.407027 5.834367 35.943726 -0.268445 1.407755 0.258584 -0.025449 1263860.000000 0 0 1
-34.348256 8.045527 5.587767 35.717731 -0.230086 1.413709 0.298280 -0.034447 348350.000000 0 0 1
-35.789810 7.477927 5.796967 37.019383 -0.205977 1.413556 0.250031 -0.020636 441319.000000 0 0 1
-36.245477 7.354827 7.114867 37.662308 -0.200199 1.380742 0.222114 -0.019566 -50532.600000 0 0 1
-37.509597 6.736827 7.224567 38.788517 -0.177708 1.383447 0.156689 -0.017272 145520.000000 0 0 1
-37.776087 6.121127 8.612167 39.225889 -0.160641 1.349440 0.148361 -0.027020 73188.100000 0 0 1
37.728368 6.881527 9.661167 39.548999 0.180413 1.324016 0.150745 -0.028599 345019.000000 0 0 1
-37.487197 7.639827 10.405867 39.647686 -0.201045 1.305227 0.172208 -0.033467 -396221.000000 0 0 1
37.910388 8.568727 11.363867 40.493927 0.222291 1.286344 0.137068 -0.030050 -153974.000000 0 0 1
37.254528 7.931727 12.482767 40.082810 0.209774 1.254105 0.115370 -0.034345 688541.000000 0 0 1
36.754978 8.857027 13.411667 40.115435 0.236467 1.229905 0.141365 -0.043044 -141440.000000 0 0 1
35.971508 8.237327 14.617267 39.692159 0.225114 1.193653 0.161435 -0.052227 1087930.000000 0 0 1
34.551678 8.008427 14.475067 38.307714 0.227759 1.183309 0.160640 -0.056200 1039350.000000 0 0 1
34.109628 7.331727 15.588567 38.212882 0.211725 1.150600 0.158150 -0.045303 481666.000000 0 0 1
32.587978 7.128227 15.891267 36.950241 0.215346 1.126224 0.166220 -0.034648 16970.500000 0 0 1
31.990308 8.414727 16.194567 36.830035 0.257213 1.115520 0.152404 -0.043964 -380112.000000 0 0 1
30.596108 8.423027 16.239567 35.648180 0.268643 1.097805 0.150336 -0.037548 -311749.000000 0 0 1
30.018408 7.706827 17.485967 35.584534 0.251309 1.057109 0.148602 -0.049474 -761988.000000 0 0 1
30.436008 8.325527 18.744967 36.702027 0.267010 1.034758 0.181707 -0.059372 418319.000000 0 0 1
29.593308 8.052927 19.863767 36.540153 0.265687 0.996058 0.168898 -0.044356 -48954.200000 0 0 1
29.949108 6.744827 20.563867 36.950161 0.221514 0.980593 0.157622 -0.038065 872790.000000 0 0 1
29.024408 6.599727 21.689667 36.829531 0.223584 0.941074 0.129397 -0.030534 598173.000000 0 0 1
29.327208 5.448927 22.455167 37.336450 0.183703 0.925510 0.131006 -0.027646 -506357.000000 0 0 1
28.358208 5.192027 23.657967 37.294028 0.181082 0.883612 0.130089 -0.023083 -259409.000000 0 0 1
27.041308 5.005727 23.267167 36.022919 0.183042 0.868596 0.101638 -0.011434 -827112.000000 0 0 1
26.306208 6.217427 23.162567 35.597437 0.232089 0.862316 0.118839 -0.008214 -297945.000000 0 0 1
24.818308 6.000627 22.779067 34.217566 0.237229 0.842348 0.110897 -0.017028 -21877.300000 0 0 1
24.683008 5.847327 21.371467 33.168987 0.232609 0.870662 0.119912 -0.001273 -503933.000000 0 0 1
23.349308 5.698327 21.026167 31.933694 0.239368 0.852063 0.126355 -0.003704 -1537170.000000 0 0 1
22.672008 4.328827 21.163567 31.315416 0.188662 0.828720 0.126905 -0.009648 -63831.900000 0 0 1
21.399108 4.408527 20.528367 29.979506 0.203172 0.816540 0.126240 -0.019548 940989.000000 0 0 1
20.312608 4.676927 21.431167 29.895997 0.226303 0.771512 0.149555 -0.027119 -1053610.000000 0 0 1
18.965308 4.710627 20.790867 28.533017 0.243455 0.754433 0.202361 -0.042999 -1074160.000000 0 0 1
18.408708 3.416427 20.636367 27.864173 0.183500 0.736825 0.189680 -0.037923 541652.000000 0 0 1
17.185908 3.290927 19.908667 26.505484 0.189199 0.721047 0.219815 -0.052373 1331680.000000 0 0 1
16.057808 2.336227 20.460467 26.114017 0.144475 0.670510 0.252041 -0.053414 543821.000000 0 0 1
16.413908 1.003227 20.229367 26.070100 0.061045 0.682560 0.180977 -0.035126 379761.000000 0 0 1
15.444308 0.205827 20.903667 25.991005 0.013326 0.636358 0.220867 -0.046322 59690.000000 0 0 1
15.784908 -1.275973 20.872167 26.199977 -0.080660 0.649067 0.172387 -0.024557 -141524.000000 0 0 1
15.149308 -2.020173 19.845267 25.048299 -0.132569 0.656260 0.187784 -0.021794 144908.000000 0 0 1
15.404108 -3.421073 19.937267 25.426067 -0.218541 0.669508 0.141690 -0.008576 8403.510000 0 0 1
14.921108 -4.173673 18.647067 24.244012 -0.272745 0.693300 0.145268 -0.013563 788620.000000 0 1 0
13.500208 -4.288873 18.544567 23.335617 -0.307606 0.652301 0.157967 -0.017891 421607.000000 0 1 0
13.058608 -5.190473 17.569067 22.497564 -0.378328 0.674640 0.155501 -0.017162 -53257.600000 0 1 0
11.541008 -5.143873 17.382167 21.489394 -0.419276 0.628565 0.133597 -0.010349 -342585.000000 0 1 0
10.735308 -5.894873 18.221067 21.954582 -0.502160 0.591790 0.126650 -0.007254 -470304.000000 0 1 0
9.391208 -5.922473 17.800867 20.979546 -0.562645 0.557677 0.103680 -0.027042 194819.000000 0 1 0
8.405608 -6.620773 18.751467 21.589498 -0.667172 0.518536 0.105631 -0.030838 -169275.000000 0 1 0
8.311008 -8.065873 18.787667 22.070514 -0.770431 0.552421 0.091219 -0.027970 -115236.000000 0 1 0
9.499708 -8.729873 19.157667 23.096999 -0.743193 0.592685 0.132742 -0.036622 4513.610000 0 1 0
9.512508 -10.201173 18.782767 23.395386 -0.820317 0.638752 0.141676 -0.038485 59117.300000 0 1 0
9.521908 -10.344773 17.387867 22.361104 -0.826794 0.679966 0.117908 -0.029017 48869.600000 0 1 0
9.669708 -11.701173 17.084567 22.853952 -0.880171 0.726424 0.124558 -0.035753 135476.000000 0 1 0
9.532908 -12.063273 15.594167 21.899245 -0.902034 0.778330 0.117534 -0.029857 -165172.000000 0 1 0
10.075308 -13.292973 15.179267 22.552719 -0.922231 0.832462 0.093551 -0.025360 -180508.000000 0 1 0
9.924308 -13.457973 13.792767 21.676009 -0.935389 0.881085 0.080939 -0.018705 -274259.000000 0 1 0
10.782508 -14.541473 13.069067 22.327504 -0.932757 0.945503 0.114770 -0.029409 807123.000000 0 1 0
12.155808 -14.236273 12.785367 22.669379 -0.864065 0.971583 0.093408 -0.030916 615152.000000 0 1 0
12.381208 -13.357673 11.714967 21.655535 -0.823317 0.999208 0.054646 -0.027419 -589912.000000 0 1 0
13.825508 -12.895273 11.410967 22.082638 -0.750599 1.027758 0.100323 -0.031633 328940.000000 0 1 0
14.541208 -13.975373 10.745767 22.852337 -0.765558 1.081249 0.108444 -0.031629 -595903.000000 0 1 0
15.689408 -13.489273 10.141367 23.042685 -0.710138 1.115073 0.113063 -0.046087 -416712.000000 0 1 0
16.651608 -14.676873 9.753467 24.244933 -0.722448 1.156781 0.097660 -0.047703 121702.000000 0 1 0
17.354308 -15.208173 10.857167 25.501738 -0.719585 1.131014 0.098315 -0.037679 -299.301000 0 0 1
16.661708 -16.177573 11.627067 25.971428 -0.770657 1.106620 0.151848 -0.032660 -782.200000 0 0 1
17.625708 -16.840173 12.627967 27.454008 -0.762610 1.092837 0.143865 -0.033586 275816.000000 0 0 1
18.665808 -17.699973 12.177567 28.460404 -0.758846 1.128653 0.161484 -0.043199 370504.000000 0 0 1
19.010908 -18.595473 13.163667 29.673025 -0.774352 1.111158 0.125713 -0.039056 -272423.000000 0 0 1
20.281808 -19.438873 12.932767 30.926979 -0.764180 1.139365 0.079432 -0.035765 892702.000000 0 0 1
21.455408 -18.610873 12.829167 31.165472 -0.714521 1.146536 0.077632 -0.036244 1059580.000000 0 0 1
22.682608 -19.222973 12.418067 32.221605 -0.703027 1.175160 0.068364 -0.036031 819569.000000 0 0 1
23.385608 -18.427973 11.316567 31.851869 -0.667384 1.207575 0.100484 -0.037248 -432861.000000 0 0 1
22.827808 -18.611673 10.027067 31.113426 -0.684005 1.242665 0.104529 -0.029953 87981.300000 0 0 1
21.618308 -17.953873 9.708867 29.731379 -0.693060 1.238142 0.113587 -0.033911 -66044.800000 0 0 1
21.560908 -16.418473 9.705667 28.786090 -0.650816 1.226892 0.169705 -0.057361 -376382.000000 0 0 1
22.444208 -15.869573 8.753867 28.848155 -0.615454 1.262489 0.157328 -0.037777 130190.000000 0 0 1
22.452008 -14.480973 8.807967 28.131327 -0.572834 1.252339 0.183381 -0.046582 -211835.000000 0 0 1
-36.285337 25.080161 7.867667 44.805584 -0.604791 1.394286 0.135634 -0.032112 -323933.000000 0 0 1
-35.418455 24.354561 8.643267 43.844243 -0.602371 1.372361 0.140772 -0.029003 99695.100000 0 0 1
-34.230823 25.079861 8.994967 43.378084 -0.632317 1.361919 0.174247 -0.036617 539143.000000 0 0 1
-33.241307 24.121861 9.756667 42.214230 -0.627740 1.337565 0.188225 -0.035437 217098.000000 0 0 1
-32.599147 23.306861 8.783167 41.025092 -0.620691 1.355034 0.194959 -0.035410 219970.000000 0 0 1
-31.779177 22.275861 9.361967 39.922131 -0.611368 1.334086 0.188128 -0.035183 559557.000000 0 0 1
-31.125317 21.275461 8.305467 38.605847 -0.599595 1.353966 0.166380 -0.046830 191039.000000 0 0 1
-32.007207 20.440261 7.584567 38.727138 -0.568330 1.373676 0.178801 -0.051058 -66939.200000 0 0 1
-31.313887 19.546561 6.761067 37.527851 -0.558034 1.389646 0.187927 -0.055060 -262791.000000 0 0 1
-32.243717 18.759361 5.816667 37.754530 -0.526929 1.416115 0.182405 -0.047895 126459.000000 0 0 1
-33.122897 17.860361 6.488767 38.186685 -0.494525 1.400046 0.194300 -0.057465 309092.000000 0 0 1
-34.025322 17.242961 5.617967 38.556502 -0.469048 1.424568 0.154613 -0.052953 -51485.000000 0 0 1
-34.732230 15.943761 6.168767 38.711562 -0.430353 1.410762 0.142496 -0.038674 212373.000000 0 0 1
-35.591366 16.283161 7.264067 39.807705 -0.429076 1.387289 0.102848 -0.026123 123339.000000 0 0 1
-36.455927 15.224661 7.524667 40.217478 -0.395602 1.382588 0.113052 -0.025148 -412507.000000 0 0 1
-37.356957 15.418261 8.746467 41.349313 -0.391430 1.357660 0.092666 -0.015770 322596.000000 0 0 1
37.651908 16.271061 8.464567 41.881530 0.407906 1.367287 0.124353 -0.025633 420340.000000 0 0 1
37.152618 16.871861 9.668367 41.933925 0.426277 1.338141 0.117243 -0.019132 -132143.000000 0 0 1
36.366608 18.161761 9.433867 41.729817 0.463174 1.342755 0.078126 -0.012306 316252.000000 0 0 1
35.037788 17.815061 9.023167 40.329153 0.470387 1.345148 0.112381 -0.023248 164478.000000 0 0 1
34.283248 19.008461 8.992167 40.218426 0.506256 1.345307 0.114248 -0.021467 783527.000000 0 0 1
32.738378 18.751061 8.898767 38.763279 0.520145 1.339164 0.124140 -0.031487 1126490.000000 0 0 1
31.854518 19.889461 9.060067 38.631410 0.558156 1.334065 0.123948 -0.029536 1841120.000000 0 0 1
30.472208 19.747961 8.620467 37.320904 0.575013 1.337709 0.099848 -0.033694 1568810.000000 0 0 1
30.183008 19.557461 7.108767 36.661190 0.574942 1.375656 0.084064 -0.030187 -751802.000000 0 0 1
30.555708 18.253761 6.740267 36.225437 0.538500 1.383641 0.087400 -0.034438 112237.000000 0 0 1
30.314208 17.890261 5.375467 35.607700 0.533153 1.419253 0.076918 -0.037988 66730.200000 0 0 1
28.894008 18.053561 4.751167 34.400122 0.558470 1.432239 0.114870 -0.034910 -479664.000000 0 0 1
27.895808 17.449861 5.548367 33.368520 0.558985 1.403745 0.099179 -0.030878 339613.000000 0 0 1
26.598008 17.737861 5.031567 32.363597 0.588155 1.414693 0.149862 -0.025842 308451.000000 0 0 1
25.897008 19.074961 5.373967 32.609641 0.634850 1.405244 0.158995 -0.015085 -626601.000000 0 0 1
26.429108 20.183661 4.721167 33.588203 0.652206 1.429769 0.137851 -0.029058 68680.700000 0 0 1
26.021508 21.386661 5.330667 34.101674 0.687943 1.413836 0.160103 -0.020192 -264369.000000 0 0 1
26.936308 22.573261 4.930767 35.488439 0.697500 1.431405 0.114235 -0.018228 -701786.000000 0 0 1
28.168808 22.389561 5.539267 36.406836 0.671584 1.418054 0.113993 -0.031794 -306339.000000 0 0 1
29.028908 23.503161 5.281567 37.722289 0.680595 1.430323 0.076523 -0.016997 -250029.000000 0 0 1
30.425808 23.517961 5.973567 38.916678 0.658035 1.416691 0.072251 -0.024266 558992.000000 0 0 1
31.380368 22.498961 5.581867 39.013946 0.622028 1.427230 0.070327 -0.021152 790886.000000 0 0 1
31.761708 22.528161 4.198267 39.165669 0.616932 1.463397 0.066243 -0.023640 -729928.000000 0 0 1
32.577518 23.740561 3.673067 40.477159 0.629756 1.479927 0.083557 -0.027672 -387279.000000 0 0 1
31.759768 24.922061 3.607267 40.531523 0.665345 1.481679 0.067727 -0.022801 622076.000000 0 0 1
32.531038 25.908561 2.928467 41.690502 0.672558 1.500495 0.108632 -0.022724 -246621.000000 0 0 1
31.818498 27.297261 2.922167 42.024949 0.709066 1.501206 0.090678 -0.011751 1086390.000000 0 0 1
30.661908 27.377961 2.061567 41.157690 0.728878 1.520686 0.105080 -0.010902 1012660.000000 0 0 1
29.470508 26.886161 2.679267 39.981933 0.739573 1.503734 0.087760 -0.013909 370150.000000 0 0 1
28.113408 27.459161 2.161567 39.357866 0.773626 1.515848 0.047238 -0.002353 416931.000000 0 0 1
27.835508 28.797361 2.643467 40.138404 0.802381 1.504890 0.041446 0.003274 85161.100000 0 0 1
26.523508 29.182461 2.304767 39.502209 0.833094 1.512418 0.032812 0.006501 -49711.600000 0 0 1
26.278508 30.662961 2.590267 40.465870 0.862246 1.506741 0.044958 -0.004467 -157609.000000 0 0 1
25.900408 30.932861 3.908867 40.533348 0.873715 1.474210 0.026246 -0.008560 132904.000000 0 0 1
27.011408 31.017461 4.798367 41.409219 0.854324 1.454659 0.033622 -0.013818 139573.000000 0 0 1
26.726608 30.920761 6.334267 41.358530 0.858026 1.417036 0.031154 -0.023917 -154227.000000 0 0 1
26.278208 29.673461 6.816167 40.218387 0.846006 1.400495 0.042870 -0.028523 484783.000000 0 0 1
27.198108 28.578261 6.668067 40.011464 0.810138 1.403361 0.076368 -0.036387 377118.000000 0 0 1
26.489108 27.234061 7.045267 38.639394 0.799264 1.387437 0.100427 -0.040724 1084860.000000 0 0 1
25.432208 26.857961 6.105867 37.489051 0.812658 1.407197 0.067514 -0.035794 1004910.000000 0 0 1
24.964008 25.557461 6.306767 36.278931 0.797144 1.396068 0.078706 -0.036388 -127815.000000 0 0 1
23.765808 25.154561 5.407667 35.025826 0.813779 1.415785 0.090076 -0.020816 -20126.000000 0 0 1
24.083908 24.951461 4.013267 34.910118 0.803089 1.455582 0.088923 -0.024512 369520.000000 0 0 1
24.185008 26.150761 3.289867 35.771499 0.824431 1.478697 0.074910 -0.023053 -231328.000000 0 0 1
24.441908 25.955261 1.808567 35.698087 0.815418 1.520112 0.084225 -0.011600 -107518.000000 0 0 1
25.705608 25.364761 1.602567 36.148550 0.778724 1.526449 0.056395 0.001164 103132.000000 0 0 1
25.758808 24.822761 0.251567 35.773579 0.766895 1.563764 0.064608 -0.012737 -53046.300000 0 0 1
27.067908 24.021761 -0.015433 36.190011 0.725845 1.571223 0.081760 -0.015738 283737.000000 0 0 1
28.225308 24.885361 0.156167 37.629425 0.722594 1.566646 0.095767 -0.015510 1487740.000000 0 0 1
29.429208 24.273661 -0.355233 38.149903 0.689690 1.580108 0.093315 -0.004768 1183840.000000 0 0 1
30.115608 23.107361 0.499267 37.962472 0.654474 1.557644 0.073621 -0.007554 -780166.000000 0 0 1
29.357208 21.979561 0.343067 36.675121 0.642665 1.561442 0.056593 -0.009169 15038.000000 0 0 1
29.528608 21.196261 1.529367 36.380753 0.622587 1.528746 0.056225 -0.006951 -467349.000000 0 0 1
28.222308 20.515161 1.913667 34.943278 0.628561 1.516004 0.068529 -0.018277 -425073.000000 0 0 1
27.805008 19.466761 1.054667 33.958587 0.610805 1.539734 0.082197 -0.026904 722899.000000 0 0 1
26.504808 18.951461 1.324267 32.610066 0.620735 1.530176 0.107933 -0.038567 206052.000000 0 0 1
25.998208 17.963061 0.263467 31.601389 0.604616 1.562459 0.094145 -0.029796 -1187850.000000 0 0 1
24.634508 17.799961 0.363067 30.394563 0.625708 1.558851 0.120360 -0.028919 -972545.000000 0 0 1
24.164508 16.725061 -0.396233 29.390613 0.605427 1.584278 0.132017 -0.048556 1502180.000000 0 0 1
22.580108 16.559861 -0.285633 28.003069 0.632781 1.580997 0.123729 -0.031049 773381.000000 0 0 1
22.075208 15.548661 -1.136533 27.025310 0.613639 1.612863 0.135709 -0.033872 192815.000000 0 0 1
20.673408 15.399461 -1.112233 25.802525 0.640224 1.613915 0.150537 -0.034534 35074.700000 0 0 1
19.746708 16.460861 -1.710733 25.764686 0.694896 1.637244 0.172125 -0.037169 -674544.000000 0 0 1
19.741408 17.626961 -0.889933 26.480652 0.728875 1.604410 0.145204 -0.039414 -154395.000000 0 0 1
18.685308 18.448861 -1.300833 26.290557 0.779031 1.620296 0.131465 -0.047907 -288480.000000 0 0 1
18.680208 19.932261 -0.788133 27.328856 0.817813 1.599639 0.138602 -0.042280 -848809.000000 0 0 1
18.279608 19.913861 0.568167 27.037544 0.828161 1.549781 0.132031 -0.035605 10763.900000 0 0 1
18.099408 21.181461 1.096467 27.882703 0.863700 1.531462 0.140276 -0.040127 -21138.100000 0 0 1
16.907408 22.072761 0.697467 27.812833 0.917143 1.545717 0.113319 -0.051178 -93756.400000 0 0 1
15.670008 21.985161 1.368567 27.032748 0.951562 1.520148 0.096076 -0.043080 41580.700000 0 0 1
14.823208 23.047961 1.015767 27.422031 0.999254 1.533746 0.082426 -0.041023 -102657.000000 0 0 1
13.351108 22.843761 1.412467 26.496879 1.041887 1.517464 0.085126 -0.045223 -30070.500000 0 0 1
13.058808 23.187161 2.760867 26.754426 1.057882 1.467419 0.072185 -0.025768 -531680.000000 0 0 1
11.685108 23.236961 2.990767 26.180963 1.104858 1.456312 0.066620 -0.030012 -462130.000000 0 0 1
11.427708 23.365861 4.541567 26.404201 1.115925 1.397935 0.087791 -0.032718 -117462.000000 0 0 1
11.889308 22.295261 5.367767 25.831129 1.080891 1.361469 0.090759 -0.048097 288524.000000 0 0 1
11.486508 22.455461 6.730367 26.105276 1.097972 1.310035 0.080588 -0.034466 -767740.000000 0 0 1
12.047808 21.349661 7.688167 25.691742 1.057034 1.266893 0.088194 -0.037480 -180445.000000 0 0 1
13.337908 21.528361 8.198467 26.619260 1.016125 1.257717 0.110423 -0.041033 -159154.000000 0 0 1
14.345508 21.276861 7.232367 26.660937 0.977576 1.296082 0.099855 -0.033740 -925597.000000 0 0 1
15.760408 21.154561 7.811767 27.512354 0.930495 1.282899 0.107449 -0.037098 -498537.000000 0 0 1
15.967408 20.013661 8.607967 27.011143 0.897383 1.246458 0.111049 -0.037868 1058160.000000 0 0 1
17.293208 19.854261 9.172067 27.881420 0.854232 1.235587 0.105072 -0.044443 1109790.000000 0 0 1
17.692508 20.756961 10.407767 29.192429 0.864931 1.206253 0.076962 -0.038165 -1039130.000000 0 0 1
16.954608 20.429361 11.522667 28.941137 0.878080 1.161306 0.091765 -0.052307 -144809.000000 0 0 1
17.174908 21.273561 12.602467 30.105881 0.891598 1.138888 0.094440 -0.049554 -266870.000000 0 0 1
18.123808 20.821261 13.719467 30.825657 0.854551 1.109548 0.105525 -0.028831 396521.000000 0 0 1
19.510408 20.944161 13.429467 31.617472 0.820824 1.132112 0.107438 -0.032595 61255.300000 0 0 1
20.284808 20.635161 14.582867 32.402829 0.793960 1.103976 0.103087 -0.036230 -264262.000000 0 0 1
21.693608 21.217061 14.442167 33.605841 0.774293 1.126579 0.115081 -0.044722 -450043.000000 0 0 1
22.458408 20.400261 13.553167 33.230093 0.737413 1.150689 0.127055 -0.049256 732252.000000 0 0 1
23.732908 21.086561 13.414167 34.464966 0.726422 1.171021 0.161039 -0.047482 1319610.000000 0 0 1
24.705708 20.390761 12.405367 34.351831 0.690006 1.201320 0.167778 -0.051226 569528.000000 0 0 1
24.226208 20.725161 11.080867 33.752438 0.707670 1.236295 0.181505 -0.040632 1162850.000000 0 0 1
25.186608 20.250361 10.105167 33.860844 0.677183 1.267747 0.186860 -0.061546 296836.000000 0 0 1
25.103208 21.016661 8.745667 33.887428 0.697022 1.309762 0.170171 -0.047814 61490.200000 0 0 1
25.574108 22.368161 8.812167 35.100199 0.718627 1.317024 0.135980 -0.034986 501206.000000 0 0 1
26.989608 22.494761 8.867067 36.236420 0.694813 1.323586 0.127815 -0.044141 -129870.000000 0 0 1
27.458808 23.908561 9.152667 37.541667 0.716393 1.324514 0.151960 -0.044646 123011.000000 0 0 1
28.825408 24.155361 8.820067 38.628736 0.697479 1.340435 0.141721 -0.042914 662271.000000 0 0 1
29.241508 25.233161 9.624767 39.804703 0.711949 1.326576 0.146012 -0.038956 509979.000000 0 0 1
30.502208 25.961161 9.040367 41.062085 0.705146 1.348814 0.141409 -0.047529 586438.000000 0 0 1
30.185908 26.739961 7.921967 41.097106 0.724938 1.376820 0.129866 -0.048892 545319.000000 0 0 1
31.390038 27.179061 7.308467 42.159810 0.713624 1.396565 0.146712 -0.041474 221749.000000 0 0 1
31.147908 28.154761 6.131467 42.432036 0.734969 1.425788 0.173642 -0.025687 -121562.000000 0 0 1
31.025408 29.494561 6.403667 43.284085 0.760109 1.422306 0.155328 -0.026980 199086.000000 0 0 1
31.145008 30.268461 5.218067 43.742651 0.771126 1.451221 0.149121 -0.017369 -99369.300000 0 0 1
31.406578 31.809461 5.438367 45.030998 0.791771 1.449731 0.099341 -0.010916 142530.000000 0 0 1
30.349608 32.534061 6.060667 44.903180 0.820122 1.435411 0.105157 -0.025351 258250.000000 0 0 1
30.533008 -33.480904 6.110967 45.722855 -0.831417 1.436743 0.080463 -0.019906 90833.600000 0 0 1
29.232608 -32.786404 6.566267 44.414069 -0.842637 1.422410 0.093551 -0.029875 -36846.900000 0 0 1
28.155008 -32.904104 5.702967 43.679611 -0.863021 1.439859 0.070456 -0.027528 -1674540.000000 0 0 1
26.984108 -32.410704 6.218967 42.629466 -0.876510 1.424390 0.057451 -0.029773 -247839.000000 0 0 1
25.836008 -32.749004 5.186267 42.034438 -0.902854 1.447100 0.058147 -0.021457 329950.000000 0 0 1
26.028408 -31.996204 3.984567 41.438049 -0.887887 1.474490 0.039491 0.000290 -191009.000000 0 0 1
24.915508 -32.024604 3.119967 40.695110 -0.909608 1.494054 0.048577 -0.007754 -72092.700000 0 0 1
25.184208 -31.290304 1.786167 40.205943 -0.893101 1.526356 0.050724 0.006897 -79252.800000 0 0 1
25.210708 -29.861804 1.842967 39.124208 -0.869652 1.523673 0.061076 0.007438 -58860.000000 0 0 1
25.817908 -29.304804 0.703567 39.061886 -0.848571 1.552784 0.050652 0.009917 -217886.000000 0 0 1
26.140708 -27.800704 0.933367 38.171808 -0.816163 1.546342 0.083493 -0.002088 440470.000000 0 0 1
25.019708 -26.902304 0.981767 36.751648 -0.821640 1.544080 0.074244 -0.002322 520796.000000 0 0 1
24.445708 -26.580604 -0.301833 36.113879 -0.827213 1.579154 0.081520 -0.002246 -433394.000000 0 0 1
23.188908 -25.735004 -0.196033 34.641800 -0.837393 1.576455 0.071649 0.008686 -658952.000000 0 0 1
23.383808 -24.333704 -0.071833 33.748138 -0.805302 1.572925 0.094857 -0.006787 -214815.000000 0 0 1
23.597408 -23.824904 1.241667 33.556005 -0.790195 1.533785 0.089123 -0.002349 -554277.000000 0 0 1
22.363108 -23.551304 2.075467 32.543511 -0.811271 1.506978 0.084292 -0.009796 -513621.000000 0 0 1
22.612308 -22.818704 3.264667 32.290367 -0.789941 1.469520 0.083737 -0.013082 -57900.300000 0 0 1
21.416908 -22.694904 4.010367 31.461495 -0.814362 1.442980 0.066662 -0.009145 64000.500000 0 0 1
21.514008 -21.974304 5.398367 31.222827 -0.795982 1.397025 0.053840 -0.011063 -262132.000000 0 0 1
21.679608 -20.567204 5.391567 30.365841 -0.759073 1.392296 0.093236 -0.010103 443811.000000 0 0 1
20.586908 -19.854504 4.794667 29.000189 -0.767290 1.404701 0.056376 0.000314 -71739.500000 0 0 1
20.444708 -18.384204 5.211967 27.984454 -0.732382 1.383457 0.066783 -0.001066 -165067.000000 0 0 1
19.861008 -18.299904 6.464967 27.769442 -0.744513 1.335832 0.095595 -0.013473 618653.000000 0 0 1
18.433308 -18.146104 6.458567 26.660477 -0.777547 1.326109 0.065762 -0.008476 717819.000000 0 0 1
19.689253 -25.974959 -11.756033 34.649235 -0.922189 1.916955 0.137811 -0.045384 -408317.000000 0 0 1
19.977453 -24.656839 -12.086833 33.958060 -0.889855 1.934710 0.148544 -0.048576 72133.600000 0 0 1
19.000153 -24.120239 -12.973333 33.333153 -0.903584 1.970562 0.115066 -0.041555 231891.000000 0 0 1
19.135153 -22.596939 -13.298733 32.459698 -0.868161 1.992921 0.106198 -0.043250 19502.600000 0 0 1
19.082353 -21.566439 -12.278833 31.305227 -0.846433 1.973850 0.116303 -0.052402 -628045.000000 0 0 1
20.200253 -21.426639 -11.474833 31.604159 -0.814851 1.942368 0.109855 -0.051791 -1042550.000000 0 0 1
20.017753 -22.180539 -10.140033 31.551656 -0.836606 1.897981 0.111057 -0.040046 -96936.600000 0 0 1
19.094953 -21.525639 -9.290533 30.237135 -0.845166 1.883104 0.111646 -0.046893 217202.000000 0 0 1
17.751053 -21.945139 -9.442733 29.763303 -0.890662 1.893636 0.107122 -0.028440 -116369.000000 0 0 1
16.804653 -21.266739 -8.417333 28.381720 -0.902069 1.871902 0.092995 -0.033837 -461088.000000 0 0 1
16.486153 -19.914039 -8.653233 27.262440 -0.879293 1.893788 0.078421 -0.035536 481489.000000 0 0 1
15.608653 -19.293839 -7.689533 25.980977 -0.890594 1.871265 0.087603 -0.041112 391880.000000 0 0 1
14.133753 -19.399539 -8.133033 25.342677 -0.941158 1.897500 0.080014 -0.028053 -352121.000000 0 0 1
13.676653 -20.714239 -8.117633 26.115637 -0.987247 1.886867 0.078584 -0.030642 -1851550.000000 0 0 1
12.340453 -20.726539 -8.386433 25.538372 -1.033771 1.905390 0.073457 -0.028355 -1062240.000000 0 0 1
11.630053 -22.131939 -8.085133 26.276419 -1.086967 1.883566 0.075101 -0.029423 280306.000000 0 0 1
11.405553 -22.351939 -6.699533 25.972669 -1.098965 1.831691 0.075473 -0.030322 -114963.000000 0 0 1
10.941853 -23.614239 -6.477733 26.820094 -1.136889 1.814734 0.061679 -0.026334 59291.100000 0 0 1
11.556153 -24.174539 -5.115433 27.278575 -1.124879 1.759439 0.080688 -0.026566 412972.000000 0 0 1
10.770253 -25.134889 -4.446433 27.704363 -1.165966 1.731989 0.079619 -0.023817 195408.000000 0 0 1
11.540053 -25.615309 -3.343333 28.293016 -1.147515 1.689241 0.071846 -0.029380 138827.000000 0 0 1
10.744653 -26.625749 -2.461133 28.817273 -1.187239 1.656305 0.093885 -0.031750 390262.000000 0 0 1
9.722553 -25.911579 -1.774433 27.732410 -1.211832 1.634824 0.068392 -0.021948 144174.000000 0 0 1
8.941153 -26.848649 -1.024433 28.316843 -1.249327 1.606982 0.068297 -0.024097 518495.000000 0 0 1
8.100153 -26.238829 0.149067 27.461078 -1.271369 1.565368 0.073541 -0.018328 411102.000000 0 0 1
6.906153 -25.553499 -0.202233 26.471062 -1.306840 1.578436 0.074415 -0.024809 232022.000000 0 0 1
6.341553 -25.055399 1.032867 25.866100 -1.322901 1.530854 0.070881 -0.020808 -232682.000000 0 0 1
4.884253 -24.583639 0.983167 25.083418 -1.374671 1.531590 0.083195 -0.025690 -39635.900000 0 0 1
3.947553 -25.621249 0.725267 25.933715 -1.417925 1.542826 0.084425 -0.028943 -271760.000000 0 0 1
2.668253 -25.121559 0.984367 25.282034 -1.464979 1.531851 0.095421 -0.032179 813863.000000 0 0 1
1.367453 -25.954519 0.558067 25.996508 -1.518158 1.549328 0.107317 -0.035346 1397630.000000 0 0 1
1.013653 -27.050969 1.400867 27.106177 -1.533342 1.519093 0.113331 -0.032648 267507.000000 0 0 1
1.785453 -28.253459 1.207567 28.335560 -1.507686 1.528167 0.092393 -0.034812 47234.400000 0 0 1
1.228853 -29.379419 2.081867 29.478713 -1.528994 1.500115 0.137694 -0.036796 -22910.600000 0 0 1
1.455653 -29.157219 3.429767 29.394313 -1.520913 1.453849 0.118619 -0.029471 -31982.900000 0 0 1
1.157453 -30.321689 4.120767 30.622299 -1.532642 1.435819 0.149985 -0.036068 -38804.300000 0 0 1
1.336653 -30.134879 5.583967 30.676999 -1.526470 1.387751 0.159527 -0.041712 -611032.000000 0 0 1
2.685553 -30.112949 5.919867 30.806602 -1.481849 1.377431 0.084237 -0.018859 -806928.000000 0 0 1
2.798353 -30.092319 7.338467 31.100346 -1.478071 1.332589 0.104797 -0.023208 473128.000000 0 0 1
4.249053 -30.289699 7.860367 31.580147 -1.431425 1.319250 0.098413 -0.026953 467052.000000 0 0 1
4.530553 -31.687409 7.924767 32.976048 -1.428782 1.328102 0.110652 -0.020952 -659773.000000 0 0 1
5.856953 -32.092579 8.069667 33.605908 -1.390281 1.328300 0.074681 -0.012837 -401412.000000 0 0 1
5.984353 -33.660369 7.867767 35.081828 -1.394848 1.344603 0.076237 -0.010627 92062.200000 0 0 1
5.972653 33.470186 6.516967 34.617868 1.394208 1.381412 0.060650 0.002543 -88159.600000 0 0 1
6.057653 32.068372 6.486667 33.273901 1.384098 1.374592 0.043519 -0.004187 -342767.000000 0 0 1
6.100453 31.458307 5.127567 32.452003 1.379252 1.412127 0.053159 -0.010457 -46908.400000 0 0 1
7.374453 31.439717 4.534867 32.609866 1.340403 1.431280 0.054241 -0.007384 -502409.000000 0 0 1
7.827453 30.169977 4.239467 31.455836 1.316948 1.435610 0.051342 -0.009429 -371860.000000 0 0 1
9.109953 30.389737 3.409667 31.908512 1.279550 1.463734 0.042078 -0.013860 -361154.000000 0 0 1
10.145453 30.747657 4.294467 32.661767 1.252086 1.438932 0.041455 -0.010049 -216914.000000 0 0 1
11.375253 30.906467 3.590567 33.128511 1.218129 1.462200 0.029961 -0.020011 -73611.500000 0 0 1
12.527153 31.338677 4.482267 34.046041 1.190519 1.438760 0.044830 -0.025257 -381625.000000 0 0 1
13.078353 30.375717 5.389867 33.507882 1.164232 1.409241 0.053578 -0.026598 206382.000000 0 0 1
14.358953 30.797427 5.827967 34.476459 1.134521 1.400939 0.089596 -0.026324 234363.000000 0 0 1
15.100853 29.832767 6.771567 34.115742 1.102214 1.370981 0.075222 -0.025076 -118876.000000 0 0 1
14.682253 29.793187 8.133467 34.195845 1.112921 1.330645 0.072214 -0.017193 85988.700000 0 0 1
15.380953 28.730717 8.780667 33.750969 1.079271 1.307608 0.057474 -0.023526 268812.000000 0 0 1
15.304553 28.726997 10.297467 34.139530 1.081287 1.264396 0.034550 -0.001533 137230.000000 0 0 1
16.049953 29.726527 10.971367 35.519548 1.075725 1.256778 0.014451 -0.009179 232377.000000 0 0 1
15.356953 30.110757 12.174267 35.926403 1.099168 1.225084 0.005715 -0.006833 27379.600000 0 0 1
16.101753 31.202607 12.968667 37.430675 1.094400 1.216989 -0.002307 -0.001614 161389.000000 0 0 1
17.229753 30.594337 13.582967 37.648039 1.057900 1.201683 -0.012055 -0.005866 37822.400000 0 0 1
17.792753 31.405627 14.597867 38.935757 1.055338 1.186484 0.004161 -0.005797 372850.000000 0 0 1
19.044153 30.797177 15.337667 39.324164 1.016976 1.170130 0.012917 -0.009418 -172218.000000 0 0 1
20.021753 30.375857 14.482267 39.157366 0.988027 1.191951 0.014157 -0.013158 -791753.000000 0 0 1
20.244053 29.016447 14.641767 38.290432 0.961632 1.178418 -0.000215 -0.006645 553859.000000 0 0 1
21.684753 28.650867 14.127867 38.609549 0.922918 1.196179 0.042173 -0.025011 812881.000000 0 0 1
22.767953 29.053917 14.963967 39.830015 0.906108 1.185649 0.081188 -0.029947 538606.000000 0 0 1
23.958453 28.570007 14.315767 39.939879 0.872965 1.204208 0.109022 -0.036009 12668.700000 0 0 1
25.254953 28.817387 15.061667 41.171692 0.851186 1.196276 0.165517 -0.045094 -613551.000000 0 0 1
25.381753 28.047557 16.305667 41.191912 0.835251 1.163807 0.138193 -0.034080 -530666.000000 0 0 1
26.525453 28.263847 17.069867 42.353572 0.817116 1.155968 0.129996 -0.033344 -812210.000000 0 0 1
27.448253 27.049317 17.075567 42.150292 0.778078 1.153696 0.087698 -0.017321 -661894.000000 0 0 1
27.054853 25.889777 17.729067 41.431454 0.763396 1.128614 0.098073 -0.022930 -115301.000000 0 0 1
26.854953 26.029507 19.131467 42.008770 0.769791 1.097957 0.109217 -0.021472 -41539.900000 0 0 1
26.249553 24.709167 19.693467 41.078152 0.755179 1.070809 0.101243 -0.022181 -438947.000000 0 0 1
27.137153 23.646147 19.822367 41.091259 0.716763 1.067405 0.090526 -0.026900 6968.800000 0 0 1
26.451853 22.396427 19.999567 40.016036 0.702567 1.047441 0.085177 -0.021639 608993.000000 0 0 1
27.491553 21.215327 19.933467 40.040213 0.657247 1.049694 0.058157 -0.024038 326347.000000 0 0 1
26.884553 19.954727 19.877867 38.937127 0.638515 1.035016 0.041916 -0.007794 -59991.000000 0 0 1
27.777853 18.851827 19.913567 39.032687 0.596262 1.035406 0.053123 -0.020305 17139.300000 0 0 1
28.344753 18.603227 21.359767 40.071744 0.580805 1.008609 0.110386 -0.009218 -628557.000000 0 0 1
27.438453 18.111327 22.284267 39.717470 0.583422 0.975119 0.072811 0.005934 -99960.100000 0 0 1
28.041653 17.808427 23.544367 40.716232 0.565808 0.954208 0.121522 0.011137 -74166.800000 0 0 1
27.011953 17.045127 24.366467 40.173457 0.562918 0.919106 0.100697 0.016700 -9069.870000 0 0 1
26.621253 15.813927 23.812467 39.061554 0.536021 0.915223 0.095044 -0.001733 -57444.600000 0 0 1
25.508753 15.319427 24.497667 38.542405 0.540828 0.882007 0.098903 -0.005243 -374523.000000 0 0 1
25.130353 13.849527 24.087967 37.464305 0.503693 0.872442 0.106971 -0.010128 1470120.000000 0 0 1
23.850153 13.367127 24.606667 36.783120 0.510841 0.837979 0.086158 -0.012186 1359880.000000 0 0 1
23.418453 12.158927 24.013467 35.677865 0.478892 0.832453 0.102138 -0.012432 -45523.200000 0 0 1
22.103253 11.542127 24.508667 34.963541 0.481243 0.794029 0.115422 -0.016930 430348.000000 0 0 1
21.001853 12.440627 24.405567 34.517803 0.534782 0.785489 0.124133 -0.015193 437188.000000 0 0 1
19.756353 11.777127 24.221067 33.401711 0.537561 0.759552 0.131364 -0.022175 180698.000000 0 0 1
18.497253 12.628027 24.241267 33.003855 0.599019 0.745870 0.114217 -0.025018 -341050.000000 0 0 1
18.191653 13.008327 25.576967 33.975492 0.620769 0.718481 0.127727 -0.018618 769042.000000 0 0 1
16.911853 13.647327 25.725867 33.676112 0.678975 0.701430 0.129391 -0.018981 829559.000000 0 0 1
16.601753 14.035627 27.176367 34.801896 0.701835 0.674711 0.121643 -0.014554 -132800.000000 0 0 1
16.265853 12.989927 28.093767 34.965353 0.673887 0.637688 0.130881 -0.018678 -65072.200000 0 0 1
16.341753 13.308227 29.436867 36.203466 0.683442 0.621347 0.117647 -0.023661 -426823.000000 0 0 1
17.719653 13.297927 30.110067 37.382310 0.643797 0.634340 0.118288 -0.029277 -393886.000000 0 0 1
18.619253 14.258427 29.570367 37.741038 0.653530 0.670507 0.138626 -0.040603 -759839.000000 0 0 1
19.895553 13.788027 29.855867 38.435862 0.606026 0.681274 0.124051 -0.033404 -605921.000000 0 0 1
20.983653 14.855927 29.477667 39.114513 0.616059 0.717237 0.132593 -0.030198 30939.300000 0 0 1
21.104653 15.432527 28.162967 38.428140 0.631385 0.748260 0.143819 -0.030877 177699.000000 0 0 1
21.572353 14.600227 27.095167 37.585650 0.594987 0.765709 0.124917 -0.017162 7751.220000 0 0 1
21.291553 15.279527 25.757867 36.745910 0.622463 0.794036 0.119554 -0.015691 -405625.000000 0 0 1
22.075353 16.385927 25.520367 37.511451 0.638537 0.822576 0.101568 -0.008050 -174891.000000 0 0 1
21.892253 16.828927 24.189267 36.709728 0.655372 0.851396 0.080023 0.000027 277118.000000 0 0 1
23.043153 17.809127 23.795967 37.608509 0.657972 0.885725 0.072541 0.000206 -202256.000000 0 0 1
22.995053 18.260827 22.418167 36.943260 0.671145 0.918734 0.078429 -0.010735 -100365.000000 0 0 1
24.135553 18.941927 21.924267 37.709349 0.665413 0.950346 0.074572 -0.011406 278672.000000 0 0 1
24.628553 20.234327 22.589567 39.067661 0.687762 0.954255 0.082174 -0.017525 -283300.000000 0 0 1
23.778053 21.235827 22.110467 38.797279 0.728982 0.964415 0.088713 -0.012042 116909.000000 0 0 1
23.854053 22.378527 22.901567 39.928637 0.753494 0.959948 0.106058 -0.020770 60466.000000 0 0 1
22.924053 23.554067 22.497367 39.830111 0.798952 0.970565 0.100929 -0.029452 42546.600000 0 0 1
23.265853 24.192187 21.284767 39.744221 0.804915 1.005645 0.106492 -0.029815 -135435.000000 0 0 1
22.421253 25.275947 21.008267 39.786095 0.845177 1.014517 0.114911 -0.032217 -370647.000000 0 0 1
22.750253 26.119977 19.808267 39.902314 0.854242 1.051328 0.118474 -0.033183 -266353.000000 0 0 1
22.398553 25.444737 18.577367 38.655509 0.848982 1.069471 0.107491 -0.031901 223210.000000 0 0 1
22.865953 26.158007 17.456567 38.882192 0.852449 1.105195 0.102879 -0.041319 -158333.000000 0 0 1
22.641153 25.405557 16.200667 37.689862 0.842871 1.126479 0.070923 -0.023044 -764492.000000 0 0 1
21.348653 25.522777 15.709767 36.796384 0.874219 1.129693 0.050970 -0.021756 -745668.000000 0 0 1
21.112853 24.963087 14.397467 35.723876 0.868767 1.155981 0.066876 -0.018593 183054.000000 0 0 1
19.590753 24.854987 14.130067 34.658718 0.903291 1.150872 0.045627 -0.017084 -611689.000000 0 0 1
19.027653 26.168957 14.004067 35.255918 0.942108 1.162320 0.019206 -0.013517 375288.000000 0 0 1
17.795053 26.268277 14.725967 34.979142 0.975376 1.136257 0.034151 -0.002281 1226280.000000 0 0 1
16.522553 25.562317 14.088667 33.539787 0.996982 1.137287 0.032530 -0.013561 -396242.000000 0 0 1
16.360153 24.148317 14.253567 32.464750 0.975341 1.116258 0.035003 -0.012601 -57267.800000 0 0 1
16.206653 23.596807 15.588467 32.595478 0.968974 1.072147 0.051520 -0.013989 -563132.000000 0 0 1
15.089753 24.088567 16.488667 32.860856 1.011171 1.045150 0.097047 -0.030672 -786347.000000 0 0 1
15.380153 25.356977 16.949967 34.158846 1.025578 1.051568 0.077182 -0.031111 97430.100000 0 0 1
14.499553 25.801427 17.970367 34.624915 1.058812 1.025114 0.066933 -0.035680 173945.000000 0 0 1
15.042453 27.137417 18.557367 36.153709 1.064653 1.031781 0.069710 -0.041681 12197.600000 0 0 1
15.172853 28.152427 17.582567 36.495496 1.076474 1.068119 0.049090 -0.028868 445986.000000 0 0 1
15.840853 29.235707 18.297467 37.953346 1.074245 1.067741 0.027214 -0.018142 -169261.000000 0 0 1
15.917553 30.507247 17.551667 38.627990 1.089890 1.099124 -0.001723 -0.015751 -176233.000000 0 0 1
14.687253 31.169367 17.252167 38.534168 1.130447 1.106593 0.020468 -0.016399 357364.000000 0 0 1
14.858853 32.467894 16.674767 39.408089 1.141601 1.133899 0.009258 -0.011573 -921845.000000 0 0 1
13.481853 33.059784 16.381267 39.281746 1.183582 1.140632 0.041665 -0.016430 -465044.000000 0 0 1
13.404353 -33.161309 15.643567 39.039342 -1.186660 1.158502 0.071275 -0.030945 19823.100000 0 0 1
13.974353 -32.028979 16.360467 38.585009 -1.159391 1.132927 0.052411 -0.024919 -44885.600000 0 0 1
13.519753 -31.724879 17.870067 38.840584 -1.167947 1.092703 0.048791 -0.021132 -353475.000000 0 0 1
14.093453 -32.502149 18.872267 40.139476 -1.161651 1.081316 0.045403 -0.019711 145247.000000 0 0 1
13.587053 -32.274819 20.166967 40.410128 -1.172336 1.048286 0.049969 -0.029466 -249308.000000 0 0 1
14.521353 -32.888999 21.243167 41.759167 -1.155012 1.037114 0.081770 -0.024750 -157757.000000 0 0 1
15.755853 -32.264499 21.267167 41.731729 -1.116525 1.036058 0.088945 -0.025879 -1117240.000000 0 0 1
16.757153 -32.669159 22.112567 42.860725 -1.096854 1.028719 0.083222 -0.018594 -543759.000000 0 0 1
18.131553 -32.154449 21.669467 42.804528 -1.057352 1.039974 0.120573 -0.024470 -202868.000000 0 0 1
18.264353 -30.769749 21.848767 41.925322 -1.035110 1.022616 0.133760 -0.026710 -460953.000000 0 0 1
19.517753 -30.382529 21.385767 41.968938 -0.999782 1.036121 0.118310 -0.020530 -506867.000000 0 0 1
-4.384947 13.254161 18.034036 22.806293 -1.251295 0.658766 0.032285 -0.002922 -237477.000000 0 1 0
-4.352847 14.544961 17.464236 23.140932 -1.280011 0.715614 0.041651 -0.010740 330540.000000 0 1 0
-5.650447 14.945761 17.031736 23.353444 -1.209343 0.753494 0.043200 -0.018009 250403.000000 0 1 0
-5.707747 16.497061 17.048736 24.400631 -1.237702 0.797217 0.065734 -0.034963 -22978.000000 0 1 0
-5.410047 17.044961 18.283736 25.575268 -1.263455 0.774317 0.065979 -0.023625 278362.000000 0 0 1
-4.952047 18.423961 18.154936 26.335657 -1.308219 0.810181 0.073325 -0.025168 -16246.100000 0 0 1
-4.228047 18.959961 19.433536 27.477606 -1.351388 0.785196 0.073237 -0.026387 -428364.000000 0 0 1
-5.153547 19.112061 20.474536 28.478704 -1.307412 0.768517 0.051093 -0.021091 -11720.800000 0 0 1
-4.631147 19.899961 21.519936 29.674292 -1.342145 0.759465 0.060937 -0.018162 -295638.000000 0 0 1
-5.643847 20.152361 22.642546 30.832703 -1.297733 0.746061 0.050952 -0.013577 -103842.000000 0 0 1
-6.099647 18.947361 23.255196 30.610657 -1.259347 0.707931 0.042921 -0.019480 -212197.000000 0 0 1
-6.803747 19.132261 24.475296 31.802115 -1.229127 0.692563 0.026369 -0.014446 -107861.000000 0 0 1
-6.022947 19.663561 25.710216 32.923346 -1.273570 0.674673 0.028621 -0.003549 -599352.000000 0 0 1
-5.601047 20.983661 25.469256 33.471910 -1.309954 0.706075 0.038218 -0.014955 149403.000000 0 0 1
-4.606747 21.408461 26.413416 34.310536 -1.358845 0.692215 0.054806 -0.016007 204200.000000 0 0 1
-3.180947 21.157761 25.898706 33.593337 -1.421570 0.690468 0.080867 -0.014672 -848039.000000 0 0 1
-2.585147 20.034461 26.506776 33.326743 -1.442470 0.651194 0.086502 -0.012185 -470794.000000 0 0 1
-1.348047 19.800061 25.898346 32.627963 -1.502818 0.653852 0.093259 -0.017470 -203975.000000 0 0 1
-0.466947 18.706361 26.565116 32.493867 -1.545840 0.613666 0.101062 -0.013027 -339066.000000 0 0 1
-0.888547 17.395061 26.264966 31.515490 -1.519760 0.585567 0.101316 -0.014224 -148395.000000 0 0 1
-0.099647 16.305461 26.748976 31.327076 -1.564685 0.547437 0.101738 -0.020696 -75507.300000 0 0 1
1.332353 16.190361 26.181546 30.811951 1.488688 0.555341 0.111473 -0.020534 -356275.000000 0 0 1
1.443953 15.875261 24.810836 29.490448 1.480090 0.571080 0.089405 -0.018898 -184446.000000 0 0 1
0.961753 14.575061 24.439686 28.472015 1.504906 0.538701 0.099307 -0.020173 -76438.700000 0 0 1
1.153553 14.296561 22.955626 27.068120 1.490283 0.558466 0.096581 -0.028328 -80025.600000 0 0 1
2.483853 14.084861 22.541626 26.696025 1.396242 0.565387 0.077776 -0.024043 -312629.000000 0 0 1
2.678353 13.740361 21.158936 25.370685 1.378284 0.584494 0.061770 -0.023751 -70935.800000 0 0 1
4.186353 13.722261 20.861336 25.318399 1.274688 0.602433 0.050846 -0.020221 -4290.060000 0 0 1
4.617053 14.737461 19.964036 25.240299 1.267195 0.658422 0.051005 -0.019972 -497443.000000 0 0 1
6.009553 14.691661 19.849236 25.415582 1.182517 0.674552 0.053908 -0.023388 -487567.000000 0 0 1
6.625353 15.680661 18.853436 25.401388 1.171030 0.734418 0.070501 -0.021515 -238933.000000 0 0 1
6.613553 15.107861 17.586136 24.109308 1.158171 0.753303 0.065480 -0.033930 149332.000000 0 1 0
6.721353 16.155361 16.627036 24.137742 1.176535 0.810909 0.073867 -0.029796 -191642.000000 0 1 0
6.652453 15.611961 15.186336 22.773082 1.167984 0.840816 0.073611 -0.033635 395827.000000 0 1 0
7.725153 14.816861 14.630236 22.209484 1.090195 0.851656 0.059397 -0.037310 571645.000000 0 1 0
8.052453 13.606161 15.303836 22.004023 1.036410 0.801678 0.052516 -0.033085 -332047.000000 0 1 0
9.158853 12.884561 14.519136 21.463965 0.952833 0.827875 0.062778 -0.040114 398829.000000 0 1 0
10.379153 13.646761 14.532436 22.475600 0.920572 0.867694 0.074535 -0.047406 482826.000000 0 1 0
11.365853 12.859461 13.864636 22.063012 0.846975 0.891288 0.090683 -0.035822 943970.000000 0 1 0
12.814453 13.483461 13.881336 23.210028 0.810832 0.929699 0.096015 -0.030177 649627.000000 0 1 0
13.496953 13.277661 15.134936 24.239025 0.777208 0.896428 0.100613 -0.038490 1055590.000000 0 1 0
14.847653 13.703961 15.330036 25.362598 0.745363 0.921740 0.103667 -0.033645 1819780.000000 0 0 1
15.972253 13.192561 14.319736 25.183554 0.690375 0.965976 0.100862 -0.035132 235033.000000 0 0 1
17.289653 13.657661 14.537936 26.397261 0.668572 0.987550 0.111148 -0.041843 175830.000000 0 0 1
18.125153 13.078961 13.581636 26.154182 0.625071 1.024775 0.126457 -0.042765 439310.000000 0 0 1
19.595453 13.653361 13.593236 27.480395 0.608549 1.053362 0.123764 -0.049623 989510.000000 0 0 1
20.365253 13.170161 14.688836 28.354163 0.574050 1.026228 0.099881 -0.040575 -173689.000000 0 0 1
21.668553 13.676461 14.562736 29.472785 0.563021 1.053988 0.134581 -0.057275 219624.000000 0 0 1
22.727553 13.500061 15.696036 30.743436 0.535993 1.034973 0.140319 -0.043514 294756.000000 0 0 1
23.120853 12.178761 15.935436 30.607747 0.484813 1.023203 0.149477 -0.040120 370702.000000 0 0 1
24.084753 12.041261 16.965236 31.825878 0.463611 1.008578 0.120261 -0.038938 -50242.500000 0 0 1
24.418153 10.522561 17.096036 31.610836 0.406884 0.999375 0.142434 -0.033905 -470920.000000 0 0 1
23.399853 9.755361 17.676736 30.906103 0.394989 0.961916 0.108161 -0.020405 12065.600000 0 0 1
23.312253 8.414961 17.158436 30.144396 0.346412 0.965254 0.098642 -0.015905 -131019.000000 0 0 1
22.045353 7.646961 17.577436 29.213693 0.333887 0.925188 0.142154 -0.017225 -72726.500000 0 0 1
22.196253 6.275361 17.223436 28.787159 0.275531 0.929415 0.162476 -0.029166 -38850.300000 0 0 1
21.079153 5.659861 17.765436 28.142058 0.262318 0.887598 0.175197 -0.025068 -749000.000000 0 0 1
20.845253 4.181761 17.304236 27.412557 0.197982 0.887630 0.203867 -0.021177 -466960.000000 0 0 1
20.376853 4.137361 15.959136 26.211217 0.200319 0.916165 0.228598 -0.030683 434307.000000 0 0 1
20.204553 2.897361 15.308336 25.513992 0.142430 0.927298 0.192399 -0.030090 -204003.000000 0 0 1
19.203853 1.905061 15.930836 25.024163 0.098879 0.880691 0.221859 -0.035333 -567135.000000 0 0 1
19.634753 1.197561 17.094236 26.060901 0.060916 0.855377 0.222075 -0.040528 -111394.000000 0 0 1
18.652053 0.398161 17.717336 25.728614 0.021344 0.811207 0.200898 -0.035449 -319563.000000 0 0 1
19.060653 -0.396039 19.005336 26.919661 -0.020775 0.786959 0.193606 -0.028498 -707490.000000 0 0 1
19.775053 -1.572639 18.767236 27.308150 -0.079359 0.813114 0.194019 -0.019420 -86584.400000 0 0 1
19.233053 -2.752639 19.349836 27.420859 -0.142155 0.787440 0.124927 -0.006379 -99402.900000 0 0 1
19.333953 -3.873439 18.279736 26.887804 -0.197726 0.823235 0.123757 -0.004680 -185461.000000 0 0 1
18.473453 -3.619539 17.223436 25.515020 -0.193481 0.829789 0.151772 -0.023742 -78797.500000 0 0 1
18.323753 -4.774139 16.476036 25.100041 -0.254877 0.854740 0.166078 -0.026600 -147678.000000 0 0 1
17.753253 -4.492039 15.060036 23.709936 -0.247825 0.882557 0.145350 -0.037199 282720.000000 0 1 0
16.330353 -4.388039 15.087736 22.662195 -0.262504 0.842275 0.142257 -0.037470 713494.000000 0 1 0
15.699453 -4.407639 13.793236 21.357749 -0.273705 0.868701 0.135268 -0.039022 497279.000000 0 1 0
15.967753 -3.164739 12.901936 20.771246 -0.195660 0.900595 0.128812 -0.040350 -66578.100000 0 1 0
15.102153 -2.165639 13.430236 20.325753 -0.142428 0.848979 0.124559 -0.026536 303801.000000 0 1 0
15.441853 -0.938739 12.877236 20.128469 -0.060717 0.876620 0.132889 -0.028145 -290779.000000 0 1 0
14.651553 0.291161 13.315536 19.800411 0.019870 0.833231 0.144788 -0.016311 -444229.000000 0 1 0
15.093753 1.533561 12.775436 19.833934 0.101255 0.870924 0.152104 -0.015267 865064.000000 0 1 0
16.136553 2.224161 13.515436 21.166063 0.136971 0.878193 0.184902 -0.026746 696175.000000 0 1 0
16.377053 3.668761 12.959436 21.204119 0.220380 0.913252 0.172535 -0.023161 601806.000000 0 1 0
15.264753 4.515661 13.296736 20.741433 0.287620 0.874903 0.136569 -0.014563 896900.000000 0 1 0
15.214953 5.676961 12.454636 20.465596 0.357119 0.916546 0.149691 -0.026300 -155163.000000 0 1 0
14.164853 6.716061 12.846036 20.267441 0.442743 0.884306 0.110923 -0.020298 -302513.000000 0 1 0
14.301053 7.874661 11.969936 20.243759 0.503331 0.938139 0.089250 -0.030137 514074.000000 0 1 0
13.272953 8.854861 12.066636 20.004588 0.588327 0.923297 0.064133 -0.025264 -170108.000000 0 1 0
13.513353 9.739461 13.277336 21.301537 0.624503 0.897835 0.060526 -0.030857 -19576.400000 0 1 0
13.180853 9.138061 14.531636 21.642724 0.606204 0.834656 0.082416 -0.036801 477836.000000 0 1 0
13.982953 9.684061 15.546236 23.043209 0.605717 0.830298 0.124865 -0.044124 88214.700000 0 1 0
13.538953 9.105161 16.933936 23.515216 0.592041 0.766811 0.119064 -0.047247 871870.000000 0 1 0
12.265153 9.567861 17.419836 23.354413 0.662479 0.728925 0.096797 -0.047948 486316.000000 0 1 0
11.767753 8.942361 18.597136 23.754985 0.649810 0.671526 0.123910 -0.038096 -112357.000000 0 1 0
12.547153 9.018861 19.929536 25.218194 0.623231 0.659524 0.160553 -0.038980 -247595.000000 0 0 1
13.881853 8.570261 19.839236 25.685609 0.553095 0.688205 0.193490 -0.056336 -485440.000000 0 0 1
14.612653 8.773361 20.995436 27.042741 0.540710 0.681895 0.169374 -0.045386 601742.000000 0 0 1
16.124553 8.466561 20.669136 27.548086 0.483504 0.722291 0.165565 -0.043445 698226.000000 0 0 1
16.756953 9.562561 20.051936 27.826573 0.518568 0.766123 0.175178 -0.041274 406791.000000 0 0 1
17.857553 9.106661 19.245836 27.788949 0.471585 0.805748 0.143350 -0.030651 481285.000000 0 0 1
18.674653 10.155261 18.492736 28.175402 0.498070 0.854835 0.156641 -0.041517 201899.000000 0 0 1
19.500953 10.976361 19.320636 29.564415 0.512665 0.858584 0.141610 -0.040857 85809.500000 0 0 1
20.368453 11.825361 18.642336 30.037472 0.526012 0.901243 0.128924 -0.036853 -224253.000000 0 0 1
21.214453 12.673361 19.621336 31.554143 0.538500 0.899718 0.115488 -0.027077 -904143.000000 0 0 1
20.561353 13.649461 20.374736 32.003232 0.586044 0.880655 0.106507 -0.024533 30556.900000 0 0 1
21.442553 14.419361 21.178536 33.410050 0.592006 0.884215 0.098742 -0.013296 1274760.000000 0 0 1
22.798553 15.095061 20.672936 34.278348 0.584839 0.923427 0.065411 -0.011136 324427.000000 0 0 1
23.856353 14.202261 20.506536 34.515907 0.536974 0.934627 0.042205 -0.004161 -569419.000000 0 0 1
24.920053 15.005161 20.007336 35.305203 0.541986 0.968305 0.023341 -0.020211 141404.000000 0 0 1
26.303853 14.309061 20.122636 36.077173 0.498218 0.979104 0.034084 -0.023474 55701.900000 0 0 1
26.522853 13.188061 19.339736 35.375303 0.461432 0.992376 0.068079 -0.034704 856205.000000 0 0 1
27.809553 12.613061 19.661436 36.318489 0.425803 0.998741 0.113849 -0.044018 999298.000000 0 0 1
28.325553 11.780061 18.462736 35.804740 0.394122 1.029030 0.160094 -0.048701 -6312.110000 0 0 1
28.406653 12.607061 17.291936 35.565249 0.417692 1.063057 0.159711 -0.065952 231755.000000 0 0 1
28.950853 12.009661 16.156336 35.262034 0.393225 1.094851 0.207775 -0.078628 -25835.600000 0 0 1
27.875853 11.699061 15.093736 33.789822 0.397360 1.107729 0.196837 -0.078840 68070.200000 0 0 1
27.507353 12.748161 14.263436 33.505458 0.433979 1.131056 0.223364 -0.076692 984377.000000 0 0 1
26.337953 12.537261 13.424836 32.110698 0.444276 1.139466 0.228637 -0.071116 941579.000000 0 0 1
26.010953 13.808061 12.598136 32.030380 0.488026 1.166558 0.214449 -0.068595 26098.600000 0 0 1
25.230853 14.761561 13.298236 32.114525 0.529362 1.143856 0.186438 -0.071867 218078.000000 0 0 1
25.147653 15.978661 12.607536 32.352311 0.566039 1.170496 0.176122 -0.061683 12594.400000 0 0 1
24.092853 16.980961 13.172536 32.285203 0.613949 1.150528 0.161743 -0.062226 257377.000000 0 0 1
22.781453 16.411961 13.114436 30.989280 0.624292 1.133830 0.180461 -0.068753 249311.000000 0 0 1
21.811553 17.404761 13.325536 30.923122 0.673496 1.125279 0.145046 -0.057711 -740239.000000 0 0 1
21.225953 17.994361 11.953236 30.285607 0.703188 1.165073 0.163169 -0.054594 777116.000000 0 0 1
20.096753 17.257761 11.373836 28.828353 0.709543 1.165233 0.139135 -0.057507 224792.000000 0 0 1
18.917553 17.549461 12.015136 28.464379 0.747900 1.135023 0.123474 -0.045992 -938432.000000 0 0 1
17.600953 16.995161 11.399936 26.992362 0.767890 1.134772 0.113651 -0.037514 347942.000000 0 0 1
17.299953 15.579361 11.342436 25.897021 0.733115 1.117443 0.116420 -0.039753 -1717360.000000 0 0 1
16.016653 15.465361 10.976636 24.823318 0.767889 1.112757 0.110290 -0.032202 -1867650.000000 0 1 0
15.682553 14.140061 10.193736 23.447730 0.733722 1.121043 0.108696 -0.037196 -115087.000000 0 1 0
15.991453 12.941561 10.932436 23.296539 0.680374 1.082329 0.100404 -0.031360 338369.000000 0 1 0
16.213653 11.905961 10.027536 22.476342 0.633388 1.108352 0.102230 -0.026697 96248.500000 0 1 0
16.771653 10.651361 10.863436 22.644074 0.565816 1.070430 0.128064 -0.037942 -705614.000000 0 1 0
17.279753 9.659261 10.025336 22.190055 0.509721 1.102021 0.123123 -0.038599 212057.000000 0 1 0
17.848753 8.570761 10.690736 22.501728 0.447673 1.075710 0.124029 -0.037264 893609.000000 0 1 0
19.201353 8.823961 11.472636 24.045283 0.430766 1.073414 0.146322 -0.039103 43778.300000 0 1 0
19.040453 9.549861 12.694336 24.796872 0.464892 1.033363 0.143744 -0.040760 874023.000000 0 1 0
20.252753 9.771361 13.472636 26.213840 0.449526 1.031012 0.162166 -0.039792 390072.000000 0 0 1
19.975053 9.882961 15.040236 26.886509 0.459451 0.977138 0.133825 -0.030732 177970.000000 0 0 1
19.492853 8.707861 15.750636 26.530750 0.420124 0.935179 0.142813 -0.033353 1272440.000000 0 0 1
18.327253 8.054561 15.181236 25.124372 0.414076 0.921980 0.162360 -0.041676 488357.000000 0 0 1
17.875453 6.740461 15.896936 24.853133 0.360592 0.876773 0.192175 -0.044615 -28771.800000 0 1 0
16.930753 6.875461 16.937536 24.915908 0.385748 0.823323 0.206291 -0.046750 8460.180000 0 1 0
16.338553 5.673561 17.263836 24.437218 0.334223 0.786317 0.196407 -0.027874 -767294.000000 0 1 0
14.990153 5.798561 18.031836 24.155229 0.369097 0.728013 0.184252 -0.034869 330512.000000 0 1 0
14.209953 4.620461 18.035236 23.420956 0.314374 0.691882 0.171929 -0.031394 498295.000000 0 1 0
13.819053 4.033661 16.796136 22.121185 0.284001 0.708593 0.171644 -0.034832 -818293.000000 0 1 0
13.386953 2.570061 16.822936 21.652411 0.189675 0.680983 0.154928 -0.030566 -13534.100000 0 1 0
14.510853 1.818761 17.232636 22.601692 0.124688 0.703707 0.170933 -0.020390 150508.000000 0 1 0
14.520553 0.362561 17.066136 22.410509 0.024964 0.705135 0.168691 -0.015070 698672.000000 0 1 0
13.354253 -0.345339 17.880736 22.319858 -0.025854 0.641643 0.146772 -0.030391 973271.000000 0 1 0
12.067353 -0.398639 17.298136 21.095152 -0.033022 0.609376 0.147526 -0.026640 -26180.900000 0 1 0
11.175653 -1.194639 18.036936 21.252140 -0.106492 0.557252 0.138387 -0.026871 180949.000000 0 1 0
-26.735767 14.498461 28.317296 41.555696 -0.496902 0.821082 0.058208 -0.013499 -67134.500000 0 0 1
-25.704767 14.263361 29.266856 41.481651 -0.506591 0.787615 0.055682 -0.012576 304180.000000 0 0 1
-25.287267 12.894361 29.282786 40.782251 -0.471548 0.769832 0.055133 -0.009733 -246694.000000 0 0 1
-24.040647 12.779661 30.160916 40.631925 -0.488596 0.734306 0.052279 -0.017986 -331457.000000 0 0 1
-24.338647 12.779161 31.540904 41.839041 -0.483491 0.716874 0.050163 -0.019686 552538.000000 0 0 1
-23.128147 12.677561 32.293671 41.695478 -0.501417 0.684852 0.042494 -0.012534 146046.000000 0 0 1
-23.450647 12.854961 -33.671773 42.999665 -0.501438 2.470384 0.056232 0.004119 136043.000000 0 0 1
-24.250147 11.837461 -33.072693 42.684870 -0.454114 2.457212 0.035719 -0.001618 36918.000000 0 0 1
-24.640447 12.246461 -31.820603 42.067544 -0.461250 2.428614 0.028839 0.002226 46004.700000 0 0 1
-25.629117 11.283861 -31.108873 41.856172 -0.414737 2.408686 0.030737 -0.004730 109394.000000 0 0 1
-25.015677 10.143561 -30.524123 40.747982 -0.385229 2.417492 0.035820 -0.008814 154739.000000 0 0 1
-24.557447 9.042461 -31.305313 40.802658 -0.352810 2.445318 0.031797 -0.011930 -270964.000000 0 0 1
-23.785647 8.064261 -30.414593 39.444097 -0.326877 2.451333 0.050142 -0.008558 -486223.000000 0 0 1
-24.570347 7.359561 -29.499843 39.090994 -0.291026 2.425910 0.044980 -0.008291 -204715.000000 0 0 1
-23.812247 6.614461 -28.562243 37.770040 -0.270945 2.428304 0.048659 -0.001639 294740.000000 0 0 1
-24.646947 5.880761 -27.407703 37.326097 -0.234221 2.395398 0.050194 -0.005080 545484.000000 0 0 1
-25.450397 4.795061 -27.843543 38.026020 -0.186225 2.392377 0.063926 -0.016064 359800.000000 0 0 1
-26.040687 4.041661 -26.771413 37.565423 -0.153977 2.364081 0.095590 -0.015439 -368386.000000 0 0 1
-26.672417 2.658361 -27.170583 38.167071 -0.099339 2.362976 0.118294 -0.016822 1085950.000000 0 0 1
-28.022687 2.837961 -27.643813 39.465243 -0.100930 2.346838 0.137758 -0.023829 712774.000000 0 0 1
-28.087357 3.426761 -28.947493 40.479621 -0.121404 2.367582 0.137919 -0.026330 -531469.000000 0 0 1
-29.454447 3.389861 -29.676903 41.949663 -0.114584 2.356667 0.158245 -0.030570 598172.000000 0 0 1
-30.654297 3.770561 -29.026203 42.384237 -0.122388 2.325173 0.143752 -0.027455 -164177.000000 0 0 1
-31.778267 3.990861 -29.786153 43.737857 -0.124931 2.319945 0.142018 -0.027829 -243185.000000 0 0 1
-31.980037 5.474961 -30.165593 44.301930 -0.169556 2.319800 0.144427 -0.043394 -535985.000000 0 0 1
-30.995147 5.807061 -31.116323 44.301768 -0.185207 2.349521 0.150030 -0.046237 87758.700000 0 0 1
-31.113647 7.105861 -31.741073 45.011643 -0.224533 2.353466 0.137277 -0.039592 -526042.000000 0 0 1
-30.741687 8.361961 -30.884143 44.371207 -0.265582 2.340664 0.114134 -0.033090 517292.000000 0 0 1
-29.334407 8.348261 -30.596383 43.201152 -0.277259 2.357785 0.047515 -0.030384 783315.000000 0 0 1
-28.955827 7.543261 -29.474913 42.001324 -0.254845 2.348663 0.042301 -0.020868 -692528.000000 0 0 1
-29.200667 8.257961 -28.103873 41.360616 -0.275604 2.317855 0.031944 -0.012520 51806.200000 0 0 1
-30.540817 8.489261 -27.710943 42.103509 -0.271120 2.289172 0.056426 -0.020562 163031.000000 0 0 1
-31.166497 7.452161 -26.986993 41.894905 -0.234701 2.270720 0.064128 -0.017791 209024.000000 0 0 1
-32.579707 7.883161 -26.479413 42.716986 -0.237402 2.239386 0.067831 -0.016937 345889.000000 0 0 1
-32.603847 8.715861 -25.359353 42.214617 -0.261218 2.215203 0.048770 -0.013947 -138744.000000 0 0 1
-32.222897 8.128861 -24.159033 41.085914 -0.247114 2.199396 0.056885 -0.009872 -14004.200000 0 0 1
-31.656017 9.061161 -23.078133 40.209555 -0.278784 2.182113 0.045085 -0.006564 120716.000000 0 0 1
-32.630907 9.992561 -22.652233 40.960359 -0.297163 2.156791 0.060160 -0.003979 357666.000000 0 0 1
-32.003957 10.935961 -21.822533 40.250111 -0.329267 2.143818 0.072523 -0.009415 -408905.000000 0 0 1
-32.951627 11.737761 -20.969533 40.783650 -0.342198 2.110830 0.066414 -0.009591 -276651.000000 0 0 1
-33.565737 11.011361 -19.876333 40.533658 -0.316991 2.083306 0.078999 -0.020065 752631.000000 0 0 1
-34.257985 11.897361 -18.938133 40.912219 -0.334256 2.052057 0.068093 -0.013639 630894.000000 0 0 1
-33.329117 12.694261 -17.925633 39.916195 -0.363912 2.036534 0.070366 -0.015167 20146.500000 0 0 1
-33.003147 11.870261 -16.796833 38.887587 -0.345264 2.017431 0.126862 -0.019431 -390717.000000 0 0 1
-33.907047 11.645961 -15.777533 39.169463 -0.330843 1.985372 0.134946 -0.027470 -640414.000000 0 0 1
-34.424115 12.851661 -14.911633 39.655286 -0.357308 1.956306 0.105146 -0.021949 208818.000000 0 0 1
-35.138878 13.856161 -15.644633 40.883842 -0.375605 1.963471 0.069060 -0.019910 339680.000000 0 0 1
-35.849386 14.737161 -14.787033 41.485163 -0.390026 1.935253 0.045385 -0.009438 313005.000000 0 0 1
-36.544237 15.895861 -15.573033 42.786435 -0.410290 1.943324 0.030778 -0.010785 275718.000000 0 0 1
-37.462817 15.506861 -16.582033 43.805128 -0.392454 1.959016 0.033721 -0.014262 384680.000000 0 0 1
37.881948 16.573461 -17.059933 44.729889 0.412413 1.962106 0.028866 -0.013740 -539934.000000 0 0 1
37.214468 16.396561 -18.411033 44.640005 0.415006 1.995920 0.045500 -0.012494 -89382.100000 0 0 1
36.225318 15.404561 -18.542633 43.513256 0.402076 2.011015 0.074492 -0.019087 -1457510.000000 0 0 1
34.983828 15.884861 -18.275233 42.546224 0.426228 2.014778 0.122752 -0.032400 -2350940.000000 0 0 1
33.997998 14.746561 -18.524433 41.430418 0.409257 2.034341 0.152858 -0.039328 -570258.000000 0 0 1
33.744858 14.396861 -19.863933 41.720030 0.403258 2.067039 0.156871 -0.040845 129032.000000 0 0 1
32.903808 13.271061 -20.108933 40.781747 0.383373 2.086430 0.128686 -0.036718 176070.000000 0 0 1
33.412858 11.824161 -19.747233 40.573182 0.340128 2.079112 0.122047 -0.021953 -32443.500000 0 0 1
33.407308 11.525161 -18.339533 39.814772 0.332204 2.049491 0.131513 -0.022999 228044.000000 0 0 1
34.118868 10.311061 -18.112433 39.980938 0.293483 2.040954 0.119460 -0.018045 161236.000000 0 0 1
34.175388 10.109561 -16.600333 39.315791 0.287612 2.006701 0.092792 -0.005187 -2867.680000 0 0 1
32.944708 9.682961 -16.042533 37.900876 0.285865 2.007855 0.112019 -0.010604 75257.200000 0 0 1
32.989788 9.615061 -14.630633 37.347436 0.283600 1.973323 0.092733 -0.008585 -157243.000000 0 0 1
32.356358 10.760161 -13.830233 36.796608 0.321047 1.956117 0.101279 -0.011281 -941667.000000 0 0 1
30.970708 10.667161 -13.763033 35.530187 0.331702 1.968564 0.095855 -0.007212 -640691.000000 0 0 1
30.479808 11.666961 -12.866933 35.081258 0.365571 1.946337 0.103047 -0.010208 -962418.000000 0 0 1
28.973608 11.752361 -12.923933 33.832174 0.385344 1.962757 0.133048 -0.003101 -1590930.000000 0 0 1
28.374908 10.614461 -12.348833 32.715377 0.357963 1.957851 0.128798 -0.012755 -90551.200000 0 0 1
26.964108 10.631661 -12.389133 31.521199 0.375574 1.974733 0.146801 -0.003537 89178.200000 0 0 1
26.401308 10.107161 -13.761133 31.441256 0.365616 2.023810 0.118606 -0.020624 -735937.000000 0 0 1
26.661908 8.728761 -14.092933 31.395213 0.316389 2.036317 0.119254 -0.018592 1197760.000000 0 0 1
28.012408 8.455261 -14.539133 32.673733 0.293144 2.031947 0.124847 -0.023292 1188990.000000 0 0 1
28.872808 7.579261 -13.580533 32.795047 0.256713 1.997754 0.115016 -0.022801 -190071.000000 0 0 1
28.544208 6.218361 -13.586633 32.218573 0.214499 2.006118 0.125505 -0.032773 314060.000000 0 0 1
27.940008 5.817361 -12.363333 31.102054 0.205276 1.979596 0.144146 -0.031866 -286450.000000 0 0 1
27.021408 4.611661 -12.505833 30.130048 0.169038 1.998807 0.167739 -0.032375 -436053.000000 0 0 1
26.643208 4.032561 -11.253533 29.202125 0.150214 1.966402 0.202471 -0.031926 517399.000000 0 0 1
26.040108 2.741361 -11.511933 28.602918 0.104888 1.985014 0.224527 -0.042105 152482.000000 0 0 1
25.519508 2.043861 -10.212733 27.563066 0.079920 1.950368 0.268608 -0.037313 308350.000000 0 0 1
26.626608 1.573161 -9.433033 28.291928 0.059014 1.910723 0.290151 -0.032394 822933.000000 0 0 1
26.296608 0.499661 -8.569433 27.662184 0.018999 1.885767 0.329290 -0.019215 -299091.000000 0 0 1
27.452008 0.010861 -7.639433 28.495154 0.000396 1.842212 0.394657 -0.012216 -231069.000000 0 0 1
27.311308 -1.013539 -6.621933 28.120896 -0.037094 1.808510 0.348459 -0.024648 -18917.600000 0 0 1
27.018708 -2.308039 -7.028233 28.013099 -0.085217 1.824397 0.255386 -0.025908 -389162.000000 0 0 1
27.545508 -3.233239 -5.956333 28.367001 -0.116843 1.782345 0.223336 -0.034690 -200410.000000 0 0 1
28.953708 -3.341139 -5.958633 29.748710 -0.114888 1.772459 0.217743 -0.041856 160957.000000 0 0 1
29.367108 -4.276139 -4.963833 30.089069 -0.144594 1.736525 0.229615 -0.070683 -622.013000 0 0 1
30.887408 -4.560939 -4.967533 31.615036 -0.146604 1.728576 0.204591 -0.059170 89349.400000 0 0 1
31.438348 -5.164939 -6.137433 32.445561 -0.162833 1.761104 0.157499 -0.039758 882598.000000 0 0 1
32.790398 -5.597139 -5.932033 33.789454 -0.169065 1.747270 0.187716 -0.037173 737152.000000 0 0 1
33.583068 -5.815939 -7.246533 34.844797 -0.171480 1.780291 0.201509 -0.056902 -252724.000000 0 0 1
33.031368 -6.828239 -8.016433 34.669285 -0.203849 1.804134 0.222653 -0.062776 -115312.000000 0 0 1
33.373688 -6.795939 -9.418933 35.337008 -0.200885 1.840604 0.225142 -0.042473 -677745.000000 0 0 1
32.439148 -7.624639 -10.347933 34.892881 -0.230854 1.871888 0.183816 -0.045605 -238141.000000 0 0 1
31.128308 -7.199339 -10.487133 33.627102 -0.227283 1.887952 0.144828 -0.064746 -80364.400000 0 0 1
30.224808 -7.416139 -9.385533 32.505790 -0.240612 1.863701 0.154139 -0.054559 -464461.000000 0 0 1
29.262408 -6.212439 -9.286833 31.322966 -0.209195 1.871808 0.144922 -0.054598 -675466.000000 0 0 1
28.070408 -6.470439 -9.966933 30.482030 -0.226550 1.903900 0.124074 -0.051526 -822893.000000 0 0 1
27.138108 -5.516639 -9.638333 29.322477 -0.200548 1.905724 0.169204 -0.047841 -197199.000000 0 0 1
25.660808 -5.988339 -9.750733 28.096514 -0.229262 1.925214 0.214086 -0.049993 -449385.000000 0 0 1
25.357108 -7.000139 -8.772133 27.729681 -0.269353 1.892670 0.200180 -0.056691 436266.000000 0 0 1
24.032308 -7.433939 -8.541933 26.566518 -0.299995 1.898141 0.190210 -0.049797 383132.000000 0 0 1
22.995608 -6.369739 -7.969333 25.157143 -0.270223 1.893131 0.196613 -0.037722 -101203.000000 0 0 1
22.695708 -5.368239 -8.860433 24.948355 -0.232262 1.933872 0.223939 -0.038940 328233.000000 0 1 0
22.523908 -4.100839 -8.265833 24.340651 -0.180093 1.917277 0.239808 -0.040242 -459370.000000 0 1 0
22.671108 -2.932939 -9.278033 24.671100 -0.128654 1.956346 0.268848 -0.030278 -362039.000000 0 1 0
23.972108 -2.651739 -9.717433 26.002350 -0.110170 1.953806 0.247766 -0.034729 239513.000000 0 0 1
23.980008 -1.919339 -10.929733 26.423166 -0.079869 1.997247 0.258656 -0.033558 -253728.000000 0 0 1
25.274108 -2.071539 -11.744433 27.946440 -0.081780 2.004515 0.202022 -0.030417 93140.500000 0 0 1
26.437508 -1.645239 -11.063433 28.706240 -0.062151 1.966439 0.201434 -0.031984 9647.590000 0 0 1
27.605408 -1.758639 -11.808633 30.076489 -0.063620 1.974275 0.158099 -0.029549 -137135.000000 0 0 1
28.802808 -0.947439 -11.209333 30.921652 -0.032882 1.941753 0.121049 -0.020063 677971.000000 0 0 1
29.988908 -1.071839 -12.023033 32.327029 -0.035726 1.951872 0.096035 -0.020489 1054050.000000 0 0 1
31.058608 -0.254839 -11.560733 33.141404 -0.008205 1.927119 0.107707 -0.014576 79517.700000 0 0 1
31.223458 1.043661 -12.333233 33.587233 0.033413 1.946793 0.104705 -0.009855 -263644.000000 0 0 1
31.406968 0.884961 -13.722233 34.285281 0.028170 1.982572 0.101329 -0.015318 391952.000000 0 0 1
31.536678 2.139561 -14.355233 34.716171 0.067740 1.997094 0.111653 -0.021967 -228434.000000 0 0 1
31.757708 2.093461 -15.875833 35.566511 0.065825 2.033501 0.116170 -0.020107 -40588.800000 0 0 1
30.622708 1.681561 -16.620433 34.882900 0.054857 2.067424 0.109354 -0.011744 114951.000000 0 0 1
30.838308 1.630561 -18.042233 35.765656 0.052825 2.099549 0.095334 -0.013909 -1025870.000000 0 0 1
29.698608 1.065461 -18.864233 35.199458 0.035860 2.136398 0.072640 -0.013809 -577141.000000 0 0 1
29.580108 -0.350739 -18.899333 35.103997 -0.011857 2.139311 0.085177 -0.016421 234207.000000 0 0 1
29.161008 -0.862939 -20.159633 35.461527 -0.029584 2.175469 0.066952 -0.019754 -127442.000000 0 0 1
28.916808 -2.342439 -20.129933 35.311231 -0.080830 2.177389 0.078554 -0.020032 -248638.000000 0 0 1
27.742508 -2.800039 -19.504833 34.028304 -0.100589 2.181195 0.082255 -0.024812 56851.400000 0 0 1
27.528508 -4.189639 -19.549533 34.022876 -0.151034 2.182911 0.087246 -0.031679 -544415.000000 0 0 1
28.160808 -5.030539 -18.470933 34.051620 -0.176772 2.144134 0.080655 -0.025441 -74232.300000 0 0 1
29.568708 -5.031339 -18.671733 35.330673 -0.168543 2.127611 0.086688 -0.027349 31270.200000 0 0 1
30.219308 -5.268039 -17.475133 35.303528 -0.172593 2.088627 0.080282 -0.024199 -1019820.000000 0 0 1
31.716138 -5.048839 -17.533033 36.589772 -0.157864 2.070515 0.108873 -0.024024 -801609.000000 0 0 1
32.418448 -5.921639 -18.408433 37.747742 -0.180671 2.080215 0.084411 -0.027451 -222343.000000 0 0 1
33.725948 -5.469239 -18.598633 38.900659 -0.160768 2.069293 0.106083 -0.023606 789.115000 0 0 1
34.704408 -6.544139 -19.240133 40.216967 -0.186379 2.069638 0.107128 -0.022347 263305.000000 0 0 1
35.171528 -7.505739 -18.321933 40.361687 -0.210250 2.041983 0.118485 -0.034794 150182.000000 0 0 1
35.593218 -8.675039 -18.969033 41.254790 -0.239066 2.048568 0.113707 -0.031308 -625860.000000 0 0 1
36.554038 -9.504639 -18.132333 41.896508 -0.254383 2.018380 0.127641 -0.033480 -938678.000000 0 0 1
35.945838 -10.139439 -17.002333 41.036457 -0.274932 1.997995 0.118134 -0.035530 643766.000000 0 0 1
36.743688 -11.086639 -16.261733 41.682804 -0.293042 1.971570 0.123578 -0.045033 972931.000000 0 0 1
38.030908 -10.550539 -15.466333 42.389519 -0.270615 1.944281 0.134724 -0.045287 322090.000000 0 0 1
-37.691117 -11.370739 -14.368533 41.909053 0.292999 1.920746 0.126115 -0.044241 578902.000000 0 0 1
-36.893297 -12.508239 -14.681933 41.630885 0.326876 1.931218 0.109061 -0.034393 -164731.000000 0 0 1
-35.472839 -12.360239 -15.259133 40.545517 0.335286 1.956645 0.126050 -0.041103 -297191.000000 0 0 1
-35.477195 -11.797639 -16.549433 40.886421 0.321038 1.987519 0.146667 -0.038181 585251.000000 0 0 1
-34.094583 -11.842739 -16.933233 39.867599 0.334312 2.009467 0.177623 -0.041622 689918.000000 0 0 1
-33.727797 -10.908639 -18.125333 39.813194 0.312813 2.043460 0.219595 -0.043436 82237.400000 0 0 1
-34.020039 -9.508739 -18.172333 39.724210 0.272549 2.045936 0.211365 -0.037611 821414.000000 0 0 1
-35.391585 -9.252639 -18.506233 40.995808 0.255713 2.039150 0.190639 -0.039488 476379.000000 0 0 1
-35.890991 -7.864139 -18.096833 40.957335 0.215703 2.028452 0.221842 -0.041497 46454.200000 0 0 1
-37.048067 -7.447339 -18.809333 42.211529 0.198374 2.032637 0.205511 -0.038743 150160.000000 0 0 1
-37.603647 -6.279339 -18.324133 42.299388 0.165461 2.018838 0.188142 -0.036963 -405722.000000 0 0 1
26.237653 27.252461 -26.289003 46.067589 0.804368 2.178108 0.091212 0.005872 84572.500000 0 0 1
26.642053 26.141961 -25.431123 45.165730 0.775924 2.168883 0.095903 -0.013540 -80165.000000 0 0 1
27.811053 25.556461 -25.920753 45.809091 0.743177 2.172252 0.093164 -0.017013 -567356.000000 0 0 1
28.452053 24.518661 -24.997433 45.117133 0.711278 2.158025 0.093517 -0.034757 -200491.000000 0 0 1
29.093853 25.066761 -23.825333 45.193377 0.711180 2.126082 0.100348 -0.029810 425904.000000 0 0 1
29.379453 24.090661 -22.841433 44.331064 0.686808 2.112092 0.102726 -0.028672 305574.000000 0 0 1
30.117653 24.825161 -21.669233 44.642102 0.689367 2.077616 0.091336 -0.025708 -3714.460000 0 0 1
29.259753 25.715861 -21.028133 44.267607 0.721024 2.065787 0.112589 -0.025292 -42544.100000 0 0 1
29.894153 26.483661 -20.041533 44.684536 0.724978 2.035896 0.094688 -0.021038 195172.000000 0 0 1
28.845953 27.419261 -19.376733 44.264689 0.760047 2.023888 0.113529 -0.009241 569880.000000 0 0 1
27.795753 26.755161 -18.668433 42.859689 0.766325 2.021469 0.136970 -0.012191 378429.000000 0 0 1
26.888953 27.752061 -18.214133 42.719402 0.801193 2.011269 0.122377 -0.013952 123246.000000 0 0 1
25.902153 27.259861 -17.132333 41.322372 0.810932 1.998302 0.108525 -0.009753 330444.000000 0 0 1
24.843153 26.446761 -17.652733 40.351362 0.816654 2.023586 0.126610 -0.013565 -286305.000000 0 0 1
23.923853 26.249361 -16.644633 39.222742 0.831715 2.009053 0.097878 0.003520 -805338.000000 0 0 1
22.877253 25.235261 -17.134433 38.128413 0.834369 2.036876 0.118631 -0.011004 -99022.100000 0 0 1
22.015753 25.809361 -18.126333 38.462715 0.864555 2.061527 0.099411 -0.015049 -153452.000000 0 0 1
21.045953 24.865661 -18.498033 37.462120 0.868404 2.087227 0.102407 -0.014081 1352.130000 0 0 1
20.297153 25.237361 -19.776833 37.947621 0.893469 2.119007 0.087752 -0.008617 -130805.000000 0 0 1
19.314853 26.214561 -19.553033 37.981415 0.935798 2.111577 0.070190 -0.001425 -736298.000000 0 0 1
18.447153 26.114761 -20.652733 38.063284 0.955796 2.144313 0.078201 -0.003277 -717937.000000 0 0 1
17.424353 27.240061 -20.658433 38.371863 1.001725 2.139303 0.080103 -0.004682 -395773.000000 0 0 1
16.476753 27.072361 -19.628933 37.278561 1.024063 2.125331 0.091950 -0.003308 -517686.000000 0 0 1
15.484553 28.056061 -19.625833 37.577750 1.066484 2.120310 0.084093 -0.017805 85493.100000 0 0 1
14.777853 28.092461 -18.238333 36.608853 1.086532 2.092312 0.077175 -0.015975 44634.800000 0 0 1
13.937353 27.002661 -17.975533 35.305995 1.094314 2.104976 0.082694 -0.020693 -244467.000000 0 0 1
13.552153 26.952861 -16.581033 34.424530 1.104904 2.073348 0.099108 -0.023376 384802.000000 0 0 1
12.548953 25.812661 -16.152233 32.934243 1.118286 2.083390 0.107331 -0.021620 417683.000000 0 0 1
13.188853 24.555461 -16.117333 32.197592 1.077907 2.095060 0.101322 -0.019317 -254444.000000 0 0 1
12.272153 23.490161 -16.150133 31.035789 1.089360 2.118082 0.107724 -0.018620 -247173.000000 0 0 1
12.973853 22.123661 -16.354933 30.418104 1.040419 2.138469 0.105108 -0.024005 24686.400000 0 0 1
13.625453 22.056861 -17.618433 31.345929 1.017433 2.167676 0.086048 -0.021015 -282496.000000 0 0 1
14.661353 21.100961 -17.716733 31.210390 0.963556 2.174451 0.092236 -0.017202 -454127.000000 0 0 1
14.212753 19.619761 -17.865733 30.101857 0.943875 2.206209 0.101950 -0.021365 -36519.000000 0 0 1
13.469753 19.152461 -16.743033 28.785069 0.957865 2.191560 0.102994 -0.025077 -138331.000000 0 0 1
13.059753 17.825761 -16.903433 27.821592 0.938503 2.223788 0.093778 -0.028665 -309067.000000 0 0 1
14.119753 16.724461 -16.786533 27.583740 0.869646 2.225049 0.126154 -0.026254 -530855.000000 0 0 1
14.629753 16.499261 -15.512733 26.961086 0.845383 2.183859 0.146759 -0.032945 359132.000000 0 0 1
15.795753 15.695661 -15.706633 27.249916 0.782220 2.185103 0.150579 -0.032113 -192794.000000 0 0 1
16.379353 15.034161 -14.461033 26.522268 0.742602 2.147473 0.227113 -0.032124 259809.000000 0 0 1
17.290853 15.745261 -13.549733 27.027433 0.738647 2.095935 0.197032 -0.033126 2389590.000000 0 0 1
18.620653 16.026661 -14.067633 28.310438 0.710669 2.090826 0.152452 -0.027719 1001930.000000 0 0 1
19.577853 15.015261 -14.747833 28.744547 0.654262 2.109549 0.142807 -0.031944 -337916.000000 0 0 1
20.184553 14.056861 -13.869933 28.238034 0.608317 2.084239 0.190585 -0.034915 708855.000000 0 0 1
21.437753 14.470361 -13.311233 29.088787 0.593746 2.046098 0.183182 -0.035502 83966.900000 0 0 1
22.021753 13.221261 -12.642133 28.628358 0.540694 2.028172 0.197022 -0.047050 -248718.000000 0 0 1
21.376153 12.889361 -11.408033 27.444831 0.542607 1.999477 0.275622 -0.045138 359238.000000 0 0 1
21.841153 11.678161 -10.835033 27.033560 0.491010 1.983185 0.273495 -0.019237 -220897.000000 0 0 1
21.787053 10.313461 -11.495933 26.705798 0.442122 2.015805 0.234445 -0.022881 -1153020.000000 0 0 1
22.778753 10.121361 -12.429733 27.853398 0.418132 2.033373 0.206868 -0.019087 -338829.000000 0 0 1
22.904553 8.899261 -13.086333 27.840034 0.370585 2.060149 0.188378 -0.030151 -124962.000000 0 0 1
23.141853 7.648061 -12.145833 27.231589 0.319186 2.033110 0.215198 -0.012046 96251.800000 0 0 1
21.925853 7.336061 -11.463933 25.806638 0.322877 2.031104 0.216239 -0.031042 757430.000000 0 0 1
22.098453 6.279861 -10.488933 25.254623 0.276877 1.999099 0.227475 -0.021536 -564955.000000 0 0 1
22.140253 4.811761 -10.991133 25.182312 0.214003 2.022459 0.243126 -0.032475 -188959.000000 0 0 1
20.996753 4.273461 -11.651133 24.390059 0.200787 2.068831 0.197944 -0.047224 298693.000000 0 1 0
20.705053 4.896861 -12.885033 24.873732 0.232238 2.115328 0.165290 -0.055553 -410448.000000 0 1 0
20.101653 3.909361 -13.938533 24.771804 0.192082 2.168417 0.177121 -0.054275 242801.000000 0 1 0
20.932353 2.783361 -14.227333 25.462276 0.132194 2.163688 0.206413 -0.066378 478747.000000 0 0 1
20.359253 1.657561 -13.575533 24.526349 0.081236 2.157367 0.216128 -0.064600 -319572.000000 0 1 0
20.979153 0.274561 -13.840633 25.134903 0.013087 2.153944 0.215261 -0.063485 -257454.000000 0 0 1
22.287053 -0.032639 -13.363233 25.986338 -0.001464 2.110918 0.254298 -0.049357 359288.000000 0 0 1
23.321353 0.294861 -14.247133 27.330445 0.012643 2.119160 0.194354 -0.046654 -538764.000000 0 0 1
23.622053 -0.932139 -15.151933 28.079376 -0.039440 2.140771 0.161659 -0.028706 -419910.000000 0 0 1
22.555853 -1.474139 -15.953833 27.667027 -0.065262 2.185403 0.163774 -0.031643 430113.000000 0 0 1
23.013253 -2.478439 -16.859033 28.635283 -0.107283 2.200308 0.127335 -0.031203 -251742.000000 0 0 1
21.859453 -3.076039 -17.647633 28.261929 -0.139801 2.245200 0.127213 -0.036894 -480882.000000 0 0 1
20.872153 -3.702639 -16.883033 27.099688 -0.175570 2.243365 0.153007 -0.037672 372422.000000 0 0 1
20.078253 -4.579839 -17.722333 27.169694 -0.224263 2.281389 0.118361 -0.027209 447242.000000 0 0 1
19.301353 -5.704039 -16.993033 26.340870 -0.287347 2.271977 0.125632 -0.032751 -242449.000000 0 0 1
20.235253 -6.554339 -16.398333 26.857590 -0.313243 2.227571 0.130478 -0.032792 151028.000000 0 0 1
19.711353 -7.704239 -15.806533 26.414754 -0.372596 2.212296 0.142599 -0.023915 93142.200000 0 0 1
20.819253 -8.665139 -15.247933 27.221781 -0.394400 2.165348 0.185255 -0.025906 637921.000000 0 0 1
21.637453 -9.314039 -16.218933 28.600428 -0.406485 2.173761 0.156618 -0.032611 578789.000000 0 0 1
22.614253 -10.150739 -15.654333 29.317232 -0.421909 2.134078 0.130882 -0.035118 -426435.000000 0 0 1
23.217653 -11.154139 -16.625533 30.657504 -0.447858 2.143967 0.103527 -0.027858 43537.000000 0 0 1
24.161353 -10.602839 -17.551333 31.689753 -0.413530 2.157776 0.085436 -0.015579 446635.000000 0 0 1
24.452153 -11.480639 -18.639533 32.819888 -0.438963 2.174790 0.070604 -0.006689 -260959.000000 0 0 1
23.507953 -11.283539 -19.886833 32.793722 -0.447510 2.222349 0.080552 -0.003525 934611.000000 0 0 1
22.145653 -11.676639 -19.751733 31.888945 -0.485221 2.238763 0.095204 -0.020206 528716.000000 0 0 1
21.952153 -13.062939 -19.825133 32.335326 -0.536782 2.230788 0.082918 -0.007539 -557413.000000 0 0 1
20.467753 -13.462939 -19.743233 31.463866 -0.581813 2.249121 0.080587 -0.010546 -80927.000000 0 0 1
19.736153 -13.025939 -20.863233 31.535144 -0.583376 2.293729 0.083807 0.002372 589019.000000 0 0 1
18.335853 -13.257639 -20.737433 30.692175 -0.626025 2.312654 0.102437 0.002829 337454.000000 0 0 1
17.488053 -12.893539 -21.956233 30.889343 -0.635309 2.361435 0.101638 -0.002103 -260259.000000 0 0 1
17.736253 -13.724039 -23.076133 32.178126 -0.658550 2.370482 0.082701 0.005882 543679.000000 0 0 1
17.152853 -13.129139 -24.250333 32.475734 -0.653297 2.413916 0.102665 -0.012312 -3283.270000 0 0 1
17.190353 -14.018839 -25.552833 33.837603 -0.684125 2.426696 0.093327 -0.016926 -371893.000000 0 0 1
16.130853 -14.943239 -25.632433 33.771681 -0.747198 2.432560 0.099612 -0.009657 125578.000000 0 0 1
16.221453 -15.747839 -26.797893 35.060762 -0.770585 2.440794 0.114938 -0.013763 266058.000000 0 0 1
17.246153 -16.938339 -26.975063 36.221418 -0.776394 2.410922 0.103781 -0.014805 546616.000000 0 0 1
18.620353 -16.619839 -27.126163 36.861434 -0.728691 2.397785 0.084273 -0.010718 102921.000000 0 0 1
19.365953 -17.793939 -27.290323 37.900213 -0.743119 2.374681 0.092422 -0.005528 -424610.000000 0 0 1
20.870153 -17.544339 -27.324603 38.600531 -0.699036 2.357291 0.067172 0.002968 -273537.000000 0 0 1
21.468753 -17.166639 -26.065803 37.881749 -0.674503 2.329641 0.067618 0.000224 774493.000000 0 0 1
22.877953 -16.952139 -26.251633 38.728852 -0.637704 2.315605 0.067868 0.005493 714917.000000 0 0 1
23.574253 -16.264439 -25.034233 38.039324 -0.603931 2.289108 0.078308 0.007222 -74086.700000 0 0 1
23.327553 -14.902839 -24.768833 37.145180 -0.568498 2.300718 0.093115 -0.011240 64292.300000 0 0 1
22.017953 -14.531939 -24.362333 35.909480 -0.583376 2.316430 0.091333 -0.006324 284610.000000 0 0 1
22.038553 -13.177139 -23.598933 34.874696 -0.538884 2.314037 0.091893 0.002230 -4591.230000 0 0 1
22.132853 -12.017939 -24.394833 35.062828 -0.497446 2.340255 0.098273 -0.011324 180607.000000 0 0 1
22.179353 -10.867139 -23.554333 34.129533 -0.455589 2.332486 0.108759 -0.022044 -86165.700000 0 0 1
22.194353 -9.598639 -24.376533 34.335674 -0.408190 2.360220 0.104244 -0.023638 -451396.000000 0 0 1
21.741153 -8.474839 -23.671833 33.239379 -0.371688 2.363370 0.114878 -0.027190 48106.000000 0 0 1
21.545153 -7.405439 -24.508433 33.461880 -0.331067 2.392678 0.092367 -0.024881 -250742.000000 0 0 1
20.872253 -6.172239 -23.829733 32.273885 -0.287521 2.401431 0.096661 -0.034334 30718.200000 0 0 1
19.489553 -6.331139 -23.610833 31.263356 -0.314094 2.426792 0.109484 -0.038419 237339.000000 0 0 1
18.782153 -5.326439 -22.828733 30.038163 -0.276335 2.434096 0.098165 -0.038890 235787.000000 0 0 1
19.212253 -5.104839 -21.334033 29.160093 -0.259707 2.391488 0.094279 -0.033618 -600029.000000 0 0 1
19.041753 -6.135239 -20.426933 28.591766 -0.311697 2.366611 0.104064 -0.041966 391351.000000 0 0 1
19.830053 -7.304239 -20.654033 29.549484 -0.352921 2.344745 0.098089 -0.032987 -371005.000000 0 0 1
19.710853 -8.440339 -19.608933 29.056278 -0.404584 2.311572 0.116279 -0.035347 -18794.000000 0 0 1
18.405553 -8.982639 -19.518133 28.291513 -0.454034 2.332138 0.142093 -0.037236 37443.200000 0 0 1
18.207453 -10.074239 -18.676933 27.961213 -0.505376 2.302259 0.146399 -0.035597 935826.000000 0 0 1
16.655553 -10.367539 -18.706833 27.107912 -0.556776 2.332406 0.161811 -0.033771 745169.000000 0 0 1
15.993653 -9.493039 -17.831833 25.766043 -0.535664 2.335145 0.167702 -0.027860 1665750.000000 0 0 1
14.544653 -9.423539 -18.030933 25.009289 -0.574900 2.375997 0.140833 -0.042575 1717990.000000 0 0 1
13.877253 -8.168339 -17.348733 23.670202 -0.532005 2.393423 0.169271 -0.030212 -930265.000000 0 1 0
12.668153 -7.961439 -17.973233 23.385972 -0.561084 2.447364 0.150848 -0.036957 -938747.000000 0 1 0
12.201853 -6.641439 -17.640833 22.454240 -0.498455 2.474518 0.153205 -0.033364 -940963.000000 0 1 0
10.694453 -6.553839 -17.594533 21.607677 -0.549797 2.522271 0.142553 -0.036970 -971186.000000 0 1 0
10.169053 -6.344339 -18.886033 22.368337 -0.557798 2.576091 0.119064 -0.049604 543132.000000 0 1 0
8.737353 -6.351239 -18.797133 21.679755 -0.628557 2.620019 0.104858 -0.057239 809555.000000 0 1 0
7.991753 -5.944539 -20.089333 22.422911 -0.639543 2.681314 0.104636 -0.074264 -1896.680000 0 1 0
8.147453 -6.845239 -21.177033 23.700317 -0.698759 2.675951 0.107942 -0.063319 48159.300000 0 1 0
7.462453 -6.222239 -22.237033 24.267058 -0.695017 2.729654 0.114488 -0.063639 -48484.400000 0 1 0
7.321153 -7.133939 -23.491733 25.619404 -0.772447 2.731166 0.106195 -0.051772 -141024.000000 0 0 1
6.640653 -8.346839 -23.313733 25.637826 -0.898751 2.712513 0.105798 -0.042366 -5435.400000 0 0 1
6.829353 -9.163339 -24.481033 27.017176 -0.930316 2.704836 0.095617 -0.025907 154552.000000 0 0 1
6.074153 -10.549139 -24.453133 27.315479 -1.048364 2.679702 0.096372 -0.026062 92356.200000 0 0 1
6.813453 -11.530539 -23.760933 27.275601 -1.037091 2.628320 0.081577 -0.035445 172255.000000 0 0 1
6.129053 -12.802039 -23.812333 27.721556 -1.124288 2.604075 0.116305 -0.044407 -454115.000000 0 0 1
6.623553 -13.936639 -22.838333 27.562489 -1.127134 2.547402 0.122156 -0.037143 187334.000000 0 0 1
7.808953 -14.615739 -23.295033 28.587727 -1.080099 2.523286 0.080646 -0.025622 1286210.000000 0 0 1
9.060853 -13.917639 -23.109133 28.457543 -0.993695 2.518464 0.103254 -0.027961 586392.000000 0 0 1
9.570153 -13.576839 -21.677033 27.309561 -0.956797 2.487750 0.102915 -0.025234 -726221.000000 0 0 1
9.914053 -14.615339 -20.778833 27.270065 -0.974761 2.437138 0.096555 -0.019052 86761.800000 0 0 1
8.846953 -15.256839 -20.122833 26.757580 -1.045311 2.421952 0.100762 -0.014636 -285852.000000 0 0 1
9.210853 -15.677439 -18.721933 26.098519 -1.039602 2.370796 0.104806 -0.010582 -94046.000000 0 0 1
10.176453 -16.701039 -18.748233 27.092086 -1.023544 2.335078 0.109767 -0.011966 67255.600000 0 0 1
10.688453 -17.036739 -17.460833 26.634079 -1.010490 2.285750 0.107060 -0.013154 -387833.000000 0 0 1
9.600153 -17.796339 -16.634433 26.183525 -1.076093 2.259195 0.084660 -0.017692 -187329.000000 0 0 1
9.337953 -19.121339 -16.925733 27.190134 -1.116510 2.242723 0.107709 -0.026094 134032.000000 0 0 1
8.617153 -19.376639 -18.119033 27.892809 -1.152343 2.277848 0.112071 -0.017754 -686349.000000 0 0 1
7.093353 -19.380439 -17.980733 27.371953 -1.219934 2.287501 0.118819 -0.016491 -604169.000000 0 0 1
6.625353 -18.069139 -17.762733 26.189764 -1.219351 2.316150 0.125039 -0.016854 -1031540.000000 0 0 1
5.263453 -17.890839 -17.905833 25.853528 -1.284671 2.335866 0.112029 -0.014071 -880751.000000 0 0 1
4.791953 -16.459939 -17.841633 24.743004 -1.287499 2.376153 0.086369 0.003090 -143092.000000 0 1 0
4.693453 -15.987139 -16.553233 23.486733 -1.285243 2.352925 0.036899 -0.000863 115515.000000 0 1 0
4.333553 -14.649839 -16.563533 22.533266 -1.283189 2.396567 0.025579 0.014903 18818.200000 0 1 0
10.964653 29.093961 -17.815933 35.834197 1.210387 2.091138 0.095263 -0.037188 -937434.000000 0 0 1
9.957553 28.997761 -18.721633 35.923844 1.240022 2.118992 0.125234 -0.044711 -992602.000000 0 0 1
8.981453 28.071561 -18.328733 34.707658 1.261140 2.127145 0.095925 -0.047914 -100985.000000 0 0 1
7.897053 27.743761 -19.358233 34.739328 1.293488 2.161858 0.110586 -0.039210 -144067.000000 0 0 1
7.186853 28.888961 -19.757633 35.729358 1.326971 2.156733 0.106096 -0.044146 -426110.000000 0 0 1
6.492453 28.489661 -20.923033 35.938643 1.346735 2.192213 0.096553 -0.041117 -432385.000000 0 0 1
5.519353 29.531561 -21.477933 36.930719 1.386031 2.191458 0.080564 -0.040320 -101955.000000 0 0 1
4.321153 29.415361 -20.719133 36.238354 1.424938 2.179429 0.080704 -0.040985 -150186.000000 0 0 1
3.396853 30.411361 -21.127133 37.185283 1.459561 2.175063 0.095905 -0.060233 -611207.000000 0 0 1
2.020153 30.237561 -20.398933 36.530913 1.504086 2.163255 0.119583 -0.056928 422277.000000 0 0 1
1.364053 29.007661 -20.777433 35.707237 1.523807 2.191838 0.127403 -0.063087 111836.000000 0 0 1
0.765253 29.162161 -22.068133 36.578952 1.544561 2.218431 0.175939 -0.078497 -904453.000000 0 0 1
-0.075247 27.941861 -22.558933 35.911819 -1.568103 2.250003 0.160744 -0.066038 -742475.000000 0 0 1
-1.221847 27.790861 -21.833033 35.362497 -1.526859 2.236238 0.179010 -0.059941 -839218.000000 0 0 1
-1.833247 26.516861 -22.120333 34.580542 -1.501771 2.264873 0.182631 -0.061823 515371.000000 0 0 1
-2.896347 26.026161 -21.095833 33.627133 -1.459966 2.248936 0.161186 -0.056589 585438.000000 0 0 1
-4.077347 26.791761 -20.975633 34.269526 -1.419769 2.229482 0.157778 -0.052582 -96193.600000 0 0 1
-5.061647 26.220661 -20.197133 33.482347 -1.380102 2.218325 0.150578 -0.048373 187610.000000 0 0 1
-6.338847 27.060661 -19.891133 34.177735 -1.340699 2.191971 0.159102 -0.060998 906259.000000 0 0 1
-7.371447 26.271061 -19.269933 33.404150 -1.297239 2.185691 0.142405 -0.046041 -36659.800000 0 0 1
-8.322747 27.182261 -18.757033 34.058328 -1.273677 2.154038 0.141629 -0.057323 359634.000000 0 0 1
-9.605347 26.449161 -18.231633 33.529290 -1.222444 2.145698 0.183102 -0.050189 418873.000000 0 0 1
-9.448647 25.762161 -16.987333 32.272827 -1.219265 2.125118 0.185448 -0.059089 -410952.000000 0 0 1
-10.575347 25.012261 -16.613733 31.835001 -1.170785 2.119838 0.152709 -0.051672 -51000.600000 0 0 1
-10.393247 24.314461 -15.240733 30.520363 -1.166851 2.093659 0.138341 -0.034707 113382.000000 0 0 1
-9.557147 23.174861 -15.152933 29.292058 -1.179652 2.114495 0.152281 -0.032927 -244408.000000 0 0 1
-9.836947 22.364861 -14.043633 28.181132 -1.156424 2.092473 0.143936 -0.026958 -77325.900000 0 0 1
-9.366947 20.854161 -14.001633 26.808235 -1.148637 2.120329 0.136317 -0.009885 339.098000 0 0 1
-10.265347 19.977361 -14.620033 26.799584 -1.096131 2.147820 0.120025 -0.008169 -433085.000000 0 0 1
-10.497847 20.117361 -16.003133 27.767126 -1.089837 2.185032 0.138886 -0.008846 450463.000000 0 0 1
-9.322847 19.779561 -16.982133 27.686447 -1.130341 2.231121 0.144269 -0.019827 392000.000000 0 0 1
-8.722347 18.507961 -17.002933 26.603077 -1.130391 2.264168 0.128973 -0.016685 -232471.000000 0 0 1
-7.794447 18.549661 -18.060533 27.037496 -1.173004 2.302289 0.131067 -0.022189 98405.100000 0 0 1
-7.102547 17.225061 -18.474333 26.238329 -1.179699 2.351947 0.109880 -0.022550 364956.000000 0 0 1
-7.997847 16.282361 -19.091533 26.335669 -1.114216 2.381730 0.104213 -0.027367 233429.000000 0 0 1
-7.406947 15.492161 -20.108233 26.442597 -1.124814 2.434800 0.084834 -0.027078 8922.470000 0 0 1
-6.189047 14.621061 -19.720233 25.317333 -1.170369 2.463742 0.060472 -0.021502 -403328.000000 0 0 1
-6.481447 13.518161 -18.852033 24.086282 -1.123714 2.469768 0.046521 -0.016396 375979.000000 0 1 0
-5.353047 12.741761 -18.400933 23.013082 -1.173068 2.497402 0.044990 -0.011079 805359.000000 0 1 0
-4.607847 13.358461 -17.186333 22.249737 -1.238638 2.453453 0.028808 0.001632 -16416.400000 0 1 0
-4.215847 14.668761 -17.497533 23.218734 -1.290936 2.424311 0.045901 -0.010269 -844217.000000 0 1 0
-3.433647 15.097061 -16.424033 22.571222 -1.347162 2.385692 0.032191 -0.002242 34025.000000 0 1 0
-2.592747 16.367661 -16.696033 23.524034 -1.413695 2.359931 0.059241 -0.009037 -76566.000000 0 1 0
-3.335047 17.543361 -16.693333 24.445029 -1.382935 2.322512 0.066644 -0.015559 -516543.000000 0 1 0
-2.525547 18.698861 -16.644333 25.160676 -1.436545 2.293642 0.082241 -0.024122 -30592.800000 0 0 1
-3.128147 19.872661 -17.376333 26.582794 -1.414668 2.283218 0.094592 -0.024746 121738.000000 0 0 1
-3.255347 19.762861 -18.807633 27.475353 -1.407542 2.324752 0.108726 -0.020166 -248674.000000 0 0 1
-3.704647 20.920361 -19.464833 28.814331 -1.395530 2.312474 0.141497 -0.023004 31178.300000 0 0 1
-2.621247 21.997061 -19.563333 29.554452 -1.452192 2.294203 0.117606 -0.032587 -474.303000 0 0 1
-1.547347 21.779561 -20.489833 29.942893 -1.499870 2.324436 0.151461 -0.030443 556061.000000 0 0 1
-0.440447 22.651461 -20.336333 30.444197 -1.551354 2.302297 0.141272 -0.035426 796214.000000 0 0 1
0.556253 22.253961 -19.176933 29.382018 1.545806 2.281907 0.127535 -0.036562 -333261.000000 0 0 1
0.085553 22.376361 -17.860933 28.630784 1.566973 2.244438 0.116258 -0.034929 -405377.000000 0 0 1
1.025053 21.884061 -16.915933 27.678722 1.523990 2.228313 0.122065 -0.036504 57008.600000 0 0 1
0.600253 22.053961 -15.458833 26.939061 1.543586 2.181989 0.119153 -0.036915 -540184.000000 0 0 1
-0.492147 21.268861 -15.112033 26.095598 -1.547661 2.188424 0.101412 -0.021375 -564144.000000 0 0 1
-0.548747 21.029461 -13.737933 25.125090 -1.544708 2.149312 0.114472 -0.021828 309369.000000 0 0 1
-1.409547 19.858761 -13.170433 23.870851 -1.499937 2.155242 0.078128 -0.016860 507980.000000 0 1 0
-0.829347 18.585661 -13.492333 22.981681 -1.526203 2.198257 0.057292 -0.014685 46868.700000 0 1 0
-1.719147 17.612361 -13.023933 21.972109 -1.473494 2.205263 0.041279 -0.009269 -14823.900000 0 1 0
-1.346047 16.113861 -13.130733 20.829895 -1.487456 2.252838 0.023280 -0.004316 -963395.000000 0 1 0
-0.215947 15.764261 -12.396233 20.055552 -1.557099 2.237113 0.023531 -0.005489 -231751.000000 0 1 0
0.020353 14.335161 -12.413433 18.962874 1.569377 2.284473 0.019790 -0.003819 -106916.000000 0 1 0
0.568053 13.704761 -13.643033 19.346202 1.529371 2.353508 0.024961 -0.011924 -923472.000000 0 1 0
-0.298947 13.654961 -14.738833 20.094291 -1.548907 2.394229 0.027226 -0.011874 -283992.000000 0 1 0
0.305153 12.794161 -15.673333 20.234551 1.546950 2.456851 0.027510 -0.012515 -48312.100000 0 1 0
-0.407647 12.750661 -17.036933 21.283858 -1.538837 2.498863 0.019407 -0.002935 -37306.600000 0 1 0
-0.356147 14.007961 -17.700933 22.575935 -1.545377 2.471980 0.036968 -0.003245 -128287.000000 0 1 0
-0.756147 13.874461 -19.031933 23.564526 -1.516351 2.510955 0.041325 -0.007774 -155487.000000 0 1 0
-1.150947 15.228661 -19.692233 24.920290 -1.495362 2.481946 0.048041 -0.005737 231080.000000 0 1 0
-0.112847 16.200061 -19.798633 25.582036 -1.563831 2.455816 0.066284 -0.015139 186704.000000 0 0 1
-0.655047 17.486561 -20.066933 26.625002 -1.533354 2.424451 0.104338 -0.031007 -253627.000000 0 0 1
0.429253 18.477261 -20.405233 27.531200 1.547569 2.405604 0.129738 -0.034264 -293873.000000 0 0 1
1.074053 18.267861 -21.655333 28.351751 1.512069 2.439991 0.154861 -0.043195 442458.000000 0 0 1
1.984653 19.351461 -21.977633 29.350200 1.468595 2.417056 0.149182 -0.036779 428407.000000 0 0 1
2.554753 19.060561 -23.376433 30.270272 1.437557 2.453183 0.157716 -0.053760 -537439.000000 0 0 1
3.624153 18.161361 -23.398633 29.840669 1.373831 2.472071 0.148598 -0.047535 -332263.000000 0 0 1
4.268553 18.089661 -24.673933 30.891089 1.339069 2.495994 0.154411 -0.057083 115513.000000 0 0 1
5.217453 16.905861 -24.700833 30.383566 1.271452 2.520025 0.118327 -0.050868 -746255.000000 0 0 1
6.388353 16.949761 -23.886333 29.977698 1.210362 2.492783 0.110092 -0.047972 859265.000000 0 0 1
7.352853 15.905861 -24.150333 29.837886 1.137783 2.513900 0.106814 -0.044792 579513.000000 0 0 1
7.893853 15.789361 -25.559323 31.062772 1.107191 2.537166 0.103568 -0.044753 -1835530.000000 0 0 1
8.764353 16.828061 -25.996093 32.183760 1.090634 2.511104 0.105219 -0.040042 384578.000000 0 0 1
9.015353 16.876661 -27.389083 33.410480 1.080172 2.531815 0.112911 -0.047674 -6745.510000 0 0 1
9.581553 15.609261 -28.036233 33.488588 1.020264 2.562917 0.135913 -0.058011 747157.000000 0 0 1
10.946253 15.263461 -27.665653 33.439229 0.948650 2.545154 0.122556 -0.054626 1170370.000000 0 0 1
11.221753 13.937261 -28.054573 33.275127 0.892916 2.573836 0.107162 -0.051578 91647.600000 0 0 1
10.609153 12.756061 -27.192293 31.854231 0.877026 2.593745 0.097767 -0.043239 2211960.000000 0 0 1
9.141753 12.689461 -27.354433 31.509666 0.946496 2.622215 0.113654 -0.043757 1787970.000000 0 0 1
8.604653 11.694061 -26.464903 30.185795 0.936436 2.639825 0.114879 -0.042461 -1030580.000000 0 0 1
7.113953 11.791261 -26.421413 29.794852 1.027936 2.661123 0.107214 -0.046577 -1233300.000000 0 0 1
6.598053 12.876361 -25.608343 29.412960 1.097265 2.627315 0.130398 -0.042392 -933414.000000 0 0 1
5.214153 12.827861 -25.546833 29.058253 1.184724 2.644891 0.134136 -0.050394 -410073.000000 0 0 1
4.478653 13.773161 -26.594653 30.282567 1.256408 2.642917 0.157495 -0.040349 -129931.000000 0 0 1
4.312853 13.150561 -27.838763 31.089141 1.253890 2.680237 0.156955 -0.055306 149559.000000 0 0 1
4.038653 14.226361 -28.739003 32.320742 1.294189 2.666349 0.153479 -0.066539 -29635.100000 0 0 1
4.023053 13.796261 -30.187923 33.434002 1.287059 2.697291 0.187515 -0.061534 -260129.000000 0 0 1
5.300553 13.458161 -30.651263 33.892741 1.195599 2.700676 0.164445 -0.055755 -375445.000000 0 0 1
5.295553 13.067761 -31.987843 34.957565 1.185783 2.726423 0.163164 -0.059476 -111680.000000 0 0 1
6.456953 12.095561 -32.363513 35.148141 1.080454 2.740858 0.164574 -0.052597 1005570.000000 0 0 1
7.815253 12.503461 -32.182963 35.399969 1.012163 2.711973 0.182113 -0.051767 789060.000000 0 0 1
8.260653 12.429661 -30.785773 34.212552 0.984231 2.690196 0.169351 -0.052943 -383584.000000 0 0 1
8.520753 11.061561 -30.114323 33.193882 0.914427 2.707436 0.155316 -0.042215 -126458.000000 0 0 1
9.742953 10.408761 -30.385403 33.563971 0.818426 2.702878 0.117282 -0.040670 -125745.000000 0 0 1
9.801653 9.321361 -29.542063 32.491440 0.760288 2.712217 0.108370 -0.035794 228522.000000 0 0 1
10.973053 8.359161 -29.842193 32.876130 0.651004 2.708605 0.075457 -0.025487 -195034.000000 0 0 1
12.195853 8.574261 -29.198893 32.784633 0.612768 2.669519 0.067129 -0.025559 -438707.000000 0 0 1
12.910053 7.375261 -29.279863 32.838610 0.519034 2.671727 0.036187 -0.013298 -957207.000000 0 0 1
14.189353 7.383561 -28.421413 32.613363 0.479802 2.628978 0.036003 -0.001323 47938.900000 0 0 1
14.747653 6.088061 -28.110763 32.322945 0.391505 2.625359 0.026111 0.002322 81138.200000 0 0 1
15.506653 5.594961 -29.211363 33.541968 0.346273 2.627807 0.026325 0.001711 -723799.000000 0 0 1
16.415953 4.461261 -28.694383 33.357967 0.265355 2.606450 0.034544 -0.000314 158242.000000 0 0 1
17.490453 4.833661 -27.834773 33.227320 0.269630 2.563868 0.020924 -0.002466 376034.000000 0 0 1
18.355553 3.741061 -27.621983 33.375078 0.201057 2.545656 0.039147 -0.008022 -206914.000000 0 0 1
19.029253 3.810561 -26.258843 32.652101 0.197634 2.505126 0.051960 -0.001766 -366791.000000 0 0 1
19.952853 4.858461 -26.203273 33.291628 0.238849 2.476862 0.080349 -0.007987 66.865100 0 0 1
20.435453 5.131461 -24.867733 32.593616 0.246019 2.438681 0.092710 -0.016661 192385.000000 0 0 1
21.520053 6.216261 -24.813833 33.428743 0.281205 2.407278 0.097789 -0.021993 16288.300000 0 0 1
20.921253 7.472761 -25.115843 33.531277 0.343061 2.417389 0.093756 -0.014783 618505.000000 0 0 1
21.679653 8.215261 -26.080913 34.895729 0.362219 2.414930 0.088599 -0.031963 -348233.000000 0 0 1
21.894753 7.733661 -27.578893 36.052532 0.339540 2.441782 0.149582 -0.044739 891200.000000 0 0 1
20.810053 8.115961 -28.455963 36.175530 0.371858 2.476092 0.110929 -0.022999 1962380.000000 0 0 1
19.498353 7.533861 -28.227353 35.124468 0.368714 2.504179 0.105584 -0.015201 1305670.000000 0 0 1
18.308553 8.234861 -28.973783 35.249059 0.422673 2.535663 0.065107 -0.005408 203849.000000 0 0 1
18.232653 8.210261 -30.356243 36.350234 0.423108 2.559119 0.064511 -0.005652 418277.000000 0 0 1
17.173453 9.023061 -30.876573 36.465132 0.483766 2.580628 0.042974 0.001534 133715.000000 0 0 1
16.902953 8.655961 -32.334753 37.498956 0.473279 2.610559 0.022745 0.004546 -163212.000000 0 0 1
16.201153 7.453261 -32.519673 37.088510 0.431176 2.639989 0.025744 0.007179 548095.000000 0 0 1
14.877853 7.723761 -32.998923 37.012645 0.478846 2.671570 0.028793 0.000714 581739.000000 0 0 1
14.070353 6.418261 -33.295693 36.712015 0.427961 2.706765 0.039419 -0.008585 137385.000000 0 0 1
13.770853 5.633661 -32.157623 35.432855 0.388327 2.708245 0.034547 -0.002910 7886.100000 0 0 1
12.915853 4.586361 -32.550983 35.318840 0.341207 2.743062 0.033620 -0.017271 32123.400000 0 0 1
12.810753 3.451361 -31.479783 34.161441 0.263163 2.742723 0.052615 -0.019707 -43999.000000 0 0 1
14.061253 2.858761 -31.209883 34.350373 0.200574 2.710656 0.049338 -0.021576 65205.300000 0 0 1
13.983853 1.744761 -30.306063 33.422295 0.124128 2.706336 0.072475 -0.018165 -81428.400000 0 0 1
13.170853 0.495861 -30.761893 33.466570 0.037631 2.736797 0.084542 -0.020705 56939.200000 0 0 1
13.822553 -0.559039 -31.464433 34.371297 -0.040422 2.727365 0.085862 -0.025925 -44832.700000 0 0 1
14.659253 -1.376639 -30.684883 34.034554 -0.093635 2.694205 0.096459 -0.029731 171418.000000 0 0 1
15.115153 -2.700539 -31.307453 34.870007 -0.176799 2.685620 0.104444 -0.031823 -86529.900000 0 0 1
14.020553 -3.570939 -31.387133 34.561245 -0.249391 2.709663 0.102581 -0.031800 -59995.300000 0 0 1
14.217453 -4.612139 -32.268883 35.562461 -0.313689 2.707819 0.134371 -0.032903 -464613.000000 0 0 1
13.534653 -5.952239 -31.892893 35.153557 -0.414321 2.707484 0.125806 -0.033839 -132455.000000 0 0 1
13.932153 -6.615639 -30.761873 34.411690 -0.443323 2.676850 0.142956 -0.021834 169290.000000 0 0 1
13.269953 -7.897939 -30.632483 34.304782 -0.536864 2.674655 0.163244 -0.032438 228133.000000 0 0 1
13.474553 -8.444839 -29.281883 33.321278 -0.559839 2.644084 0.141913 -0.032646 1327990.000000 0 0 1
14.873353 -8.644239 -28.913743 33.644376 -0.526474 2.604878 0.145518 -0.029022 1491730.000000 0 0 1
15.124053 -9.285839 -27.699243 32.896988 -0.550634 2.571775 0.147440 -0.034514 -131706.000000 0 0 1
15.021353 -10.842739 -27.627473 33.263844 -0.625222 2.550901 0.130852 -0.025308 -211743.000000 0 0 1
13.699253 -11.331039 -27.649123 32.871507 -0.691065 2.570161 0.109573 -0.028014 21174.900000 0 0 1
13.367553 -12.116139 -28.784733 33.971358 -0.736331 2.581722 0.096705 -0.026214 59015.400000 0 0 1
-10.051747 -2.881539 -17.636233 20.503112 0.279183 2.606406 0.030986 -0.009542 41475.100000 0 1 0
-10.841247 -2.594139 -18.754533 21.817303 0.234868 2.605317 0.051679 -0.015090 -459425.000000 0 1 0
-11.714747 -3.651739 -19.071633 22.678132 0.302175 2.569870 0.055210 -0.021035 19724.200000 0 1 0
-12.581247 -3.143839 -20.303033 24.091174 0.244868 2.573183 0.075251 -0.033333 628052.000000 0 1 0
-13.530047 -2.125739 -19.849233 24.115825 0.155839 2.537608 0.085679 -0.033787 518562.000000 0 1 0
-14.439447 -1.787539 -20.877833 25.447531 0.123169 2.532953 0.086163 -0.030070 -222636.000000 0 0 1
-15.490947 -0.832539 -20.375533 25.609079 0.053692 2.490855 0.109734 -0.025839 -548228.000000 0 0 1
-15.120647 0.438761 -20.724333 25.657834 -0.029009 2.511070 0.117238 -0.030995 126427.000000 0 0 1
-15.844547 1.453761 -20.004433 25.560525 -0.091495 2.469676 0.124547 -0.032629 -1887.860000 0 0 1
-15.621947 2.888261 -20.603433 26.017085 -0.182820 2.484742 0.161919 -0.035628 -192091.000000 0 0 1
-14.341847 3.434061 -20.439633 25.204364 -0.235019 2.516581 0.170242 -0.034420 -134987.000000 0 0 1
-14.172947 4.550361 -21.282833 25.971854 -0.310664 2.531260 0.187342 -0.039595 591507.000000 0 0 1
-12.830447 5.287461 -20.919733 25.104041 -0.390896 2.555885 0.165457 -0.031927 489166.000000 0 0 1
-12.696447 5.790161 -19.609533 24.067811 -0.427870 2.523115 0.164592 -0.034582 989977.000000 0 1 0
-11.352247 6.279761 -19.441333 23.372513 -0.505276 2.553145 0.122397 -0.017186 732914.000000 0 1 0
-11.136347 6.921061 -18.033133 22.296036 -0.556067 2.512913 0.112341 -0.020346 -98101.400000 0 1 0
-11.615047 8.214361 -17.809133 22.793645 -0.615553 2.467574 0.113371 -0.032506 -694989.000000 0 1 0
-12.870847 8.233761 -17.220633 23.021810 -0.569116 2.415861 0.145136 -0.026181 -848208.000000 0 1 0
-13.589147 9.560961 -17.120433 23.857622 -0.613120 2.371159 0.153236 -0.030055 -287041.000000 0 1 0
-12.953247 10.521061 -16.314833 23.337804 -0.682156 2.344897 0.102161 -0.021464 -79670.700000 0 1 0
-13.678747 11.702961 -16.385433 24.342347 -0.707712 2.309222 0.111451 -0.030040 -325712.000000 0 1 0
-13.025447 12.850061 -15.621833 24.058845 -0.778620 2.277483 0.109549 -0.027449 -339030.000000 0 1 0
-13.157147 12.949661 -14.218233 23.301554 -0.777451 2.227089 0.113692 -0.029241 -317988.000000 0 1 0
-12.461747 14.052561 -13.732433 23.266915 -0.845325 2.202119 0.103622 -0.029339 -750197.000000 0 1 0
-12.808147 14.439561 -12.263633 22.868018 -0.845200 2.136818 0.080901 -0.027275 1201710.000000 0 1 0
-14.183147 14.823261 -12.058233 23.796885 -0.807463 2.102166 0.078295 -0.027753 726044.000000 0 1 0
-15.125547 13.809761 -12.008033 23.742042 -0.739956 2.101072 0.080736 -0.031796 -1333820.000000 0 1 0
-16.540247 14.297061 -11.707333 24.800149 -0.712783 2.062430 0.036572 -0.017596 168294.000000 0 1 0
-17.570247 13.292261 -11.814833 24.999761 -0.647662 2.063033 0.033051 -0.022560 166505.000000 0 1 0
-18.709247 13.714061 -11.117133 25.723570 -0.632538 2.017702 0.128113 -0.028704 -136732.000000 0 0 1
-20.055247 13.152461 -11.624133 26.651841 -0.580450 2.022109 0.109915 -0.041557 -112150.000000 0 0 1
-20.299947 11.773161 -11.480733 26.124747 -0.525554 2.025792 0.121831 -0.041894 -106147.000000 0 0 1
-21.599047 11.411061 -11.863633 27.156527 -0.486041 2.022903 0.168497 -0.044414 -302932.000000 0 0 1
-21.795247 10.074561 -11.147133 26.472404 -0.432983 2.005438 0.157029 -0.041844 -25580.800000 0 0 1
-21.058647 9.064261 -11.869333 25.816826 -0.406460 2.048512 0.125396 -0.038840 618817.000000 0 0 1
-21.091447 7.749661 -11.244633 25.126643 -0.352119 2.034785 0.096126 -0.032679 279048.000000 0 0 1
-19.952847 6.779161 -11.749133 24.127065 -0.327523 2.079412 0.090914 -0.031813 196531.000000 0 1 0
-20.408147 5.795961 -12.587733 24.668536 -0.276716 2.106301 0.123689 -0.033860 340755.000000 0 1 0
-19.421547 4.799661 -12.829733 23.766264 -0.242276 2.141031 0.139167 -0.034444 -77607.000000 0 1 0
-19.910547 3.635861 -13.709833 24.446041 -0.180620 2.166172 0.179265 -0.052437 277376.000000 0 1 0
-20.824147 2.726961 -13.036933 24.719285 -0.130211 2.126333 0.180686 -0.055351 292719.000000 0 1 0
-21.708647 2.216661 -13.968733 25.909544 -0.101757 2.140206 0.183037 -0.050550 -686047.000000 0 0 1
-22.604347 1.170261 -13.292333 26.249041 -0.051725 2.101793 0.244827 -0.055001 -675665.000000 0 0 1
-23.721747 0.902461 -14.061833 27.591138 -0.038025 2.105575 0.170654 -0.040749 -435753.000000 0 0 1
-24.114047 -0.458239 -14.048633 27.911670 0.019001 2.098238 0.160832 -0.049856 56382.000000 0 0 1
-25.439607 -0.733639 -14.800633 29.440968 0.028830 2.097541 0.133539 -0.029184 -434241.000000 0 0 1
-26.585807 -0.231739 -14.203933 30.143168 0.008716 2.061465 0.149897 -0.038164 -169411.000000 0 0 1
-27.737237 -0.609739 -14.955733 31.518250 0.021979 2.065204 0.125477 -0.013579 340124.000000 0 0 1
-29.100487 -0.280339 -14.315433 32.432215 0.009633 2.027950 0.124549 -0.022059 -59625.400000 0 0 1
-29.365477 -0.926039 -13.068533 32.155487 0.031524 1.989325 0.141731 -0.022202 -434147.000000 0 0 1
-30.526387 -0.489739 -12.447533 32.970308 0.016042 1.957932 0.178436 -0.029744 -453703.000000 0 0 1
-30.753617 -1.083439 -11.062933 32.700876 0.035215 1.915913 0.185912 -0.038545 -47391.300000 0 0 1
-30.951577 -2.515439 -10.867633 32.900350 0.081092 1.907439 0.209484 -0.034536 1416950.000000 0 0 1
-29.749027 -3.269439 -11.209233 31.958422 0.109461 1.929162 0.199465 -0.038981 905581.000000 0 0 1
-29.923987 -4.736339 -10.773733 32.155112 0.156977 1.912460 0.214092 -0.045306 -386731.000000 0 0 1
-30.983327 -5.326639 -11.473833 33.466229 0.170255 1.920743 0.209956 -0.040070 -210269.000000 0 0 1
-31.271387 -6.581739 -11.067333 33.818705 0.207444 1.904193 0.211537 -0.041392 -334981.000000 0 0 1
-30.433067 -7.700639 -11.708933 33.504784 0.247833 1.927802 0.209028 -0.044897 -814770.000000 0 0 1
-29.117487 -7.628439 -11.274733 32.142507 0.256229 1.929193 0.160645 -0.045547 -708292.000000 0 0 1
-28.282337 -8.453539 -12.092233 31.899452 0.290446 1.959591 0.142265 -0.046139 507044.000000 0 0 1
-26.877627 -8.622639 -11.426433 30.451931 0.310438 1.955440 0.135942 -0.053440 -78717.900000 0 0 1
-26.025167 -7.511639 -11.516533 29.434072 0.280993 1.972803 0.119084 -0.046520 553809.000000 0 0 1
-24.699347 -7.788839 -11.071633 28.165667 0.305476 1.974786 0.123403 -0.051127 329154.000000 0 0 1
-24.489747 -7.643839 -9.521233 27.364756 0.302542 1.926167 0.129208 -0.049132 -601736.000000 0 0 1
-24.583247 -6.363539 -8.971633 26.931782 0.253297 1.910412 0.128281 -0.047383 -1130640.000000 0 0 1
-25.823387 -5.820339 -8.982633 27.953736 0.221686 1.897940 0.135202 -0.053225 -1787670.000000 0 0 1
-25.875587 -4.518139 -8.239933 27.529186 0.172867 1.874772 0.132633 -0.060542 -305651.000000 0 0 1
-25.721637 -4.595139 -6.845433 27.010699 0.176784 1.827025 0.138184 -0.056751 360565.000000 0 0 1
-26.149157 -3.393139 -6.204333 27.088476 0.129040 1.801887 0.199831 -0.061629 -154165.000000 0 0 1
-25.743177 -3.244739 -4.750533 26.378155 0.125381 1.751878 0.187998 -0.050954 -516821.000000 0 0 1
-24.387447 -2.961339 -4.590233 24.991746 0.120837 1.755515 0.129139 -0.049820 -561176.000000 0 1 0
-24.163747 -2.597839 -3.276633 24.522883 0.107098 1.704812 0.102612 -0.035795 322594.000000 0 1 0
-22.765347 -2.967839 -2.707933 23.117136 0.129635 1.688206 0.085700 -0.022427 171611.000000 0 1 0
-22.692547 -4.427439 -2.628233 23.269326 0.192685 1.683986 0.103337 -0.020263 -532210.000000 0 1 0
-21.441447 -4.959339 -2.395133 22.137465 0.227300 1.679202 0.085192 -0.015975 -837602.000000 0 1 0
-21.516647 -6.484739 -2.408033 22.601251 0.292725 1.677543 0.105088 -0.014154 -24193.900000 0 1 0
-22.238047 -6.965439 -1.294233 23.339304 0.303542 1.626278 0.120305 -0.008209 349418.000000 0 1 0
-22.759747 -8.214539 -1.681233 24.255129 0.346373 1.640166 0.114167 -0.013513 -70229.700000 0 1 0
-23.093747 -9.113039 -0.477333 24.831361 0.375852 1.590021 0.120498 -0.019327 -124437.000000 0 1 0
-21.927447 -9.525639 0.200367 23.907967 0.409819 1.562415 0.089707 -0.012712 81750.300000 0 1 0
-22.079147 -10.371839 1.298467 24.428463 0.439162 1.517617 0.062562 -0.011466 165007.000000 0 1 0
-20.724647 -10.951139 1.803067 23.509349 0.486118 1.494025 0.076189 -0.008009 28805.400000 0 1 0
-20.171747 -11.903239 0.951367 23.441237 0.533104 1.530200 0.080353 -0.004804 361405.000000 0 1 0
-19.059747 -12.558739 1.536867 22.877016 0.582616 1.503566 0.058335 -0.013947 268695.000000 0 1 0
-18.299447 -13.596139 0.673767 22.807427 0.638994 1.541250 0.052025 -0.010061 220305.000000 0 1 0
-19.187547 -14.705139 0.602967 24.181949 0.653908 1.545859 0.087782 -0.006358 725058.000000 0 1 0
-18.665547 -15.864939 -0.057933 24.496985 0.704470 1.573161 0.085705 -0.023091 -35236.000000 0 1 0
-17.604947 -16.624739 0.764167 24.226020 0.756770 1.539248 0.093832 -0.018470 -58526.700000 0 1 0
-16.304747 -16.072639 0.723867 22.906298 0.778229 1.539190 0.095911 -0.013421 139868.000000 0 1 0
-15.314647 -16.689939 1.514867 22.702143 0.828343 1.504019 0.102063 -0.018133 196434.000000 0 1 0
-15.379747 -16.555639 3.053767 22.802440 0.822202 1.436470 0.114270 -0.026561 -324157.000000 0 1 0
-15.262047 -15.215239 3.453067 21.825610 0.783862 1.411917 0.092017 -0.016090 615360.000000 0 1 0
-14.399247 -15.084339 4.630167 21.361508 0.808630 1.352309 0.071386 -0.018544 565539.000000 0 1 0
-15.002347 -15.386039 6.032367 22.320172 0.798024 1.297128 0.113949 -0.020389 -419107.000000 0 1 0
-15.941147 -14.415739 6.525167 22.461333 0.735191 1.276040 0.103594 -0.018801 532000.000000 0 1 0
-16.300247 -14.555439 7.880967 23.230766 0.728911 1.224680 0.121327 -0.021176 121196.000000 0 1 0
-17.153147 -15.838539 8.273667 24.769807 0.745573 1.230229 0.098708 -0.010323 -357407.000000 0 1 0
-16.529847 -17.094739 8.195467 25.152169 0.802197 1.238901 0.107161 -0.007804 171295.000000 0 0 1
-17.336147 -18.161839 8.740267 26.585459 0.808654 1.235805 0.122640 -0.023315 380618.000000 0 0 1
-16.887047 -18.327239 10.218367 26.934644 0.826273 1.181674 0.136026 -0.021373 -150257.000000 0 0 1
-15.682947 -19.036239 10.321567 26.737015 0.881683 1.174461 0.096972 -0.018162 -318406.000000 0 0 1
-15.315147 -19.230239 11.652267 27.205351 0.898248 1.128177 0.103618 -0.027035 -134371.000000 0 0 1
-14.046947 -20.058039 11.890467 27.221772 0.959859 1.118758 0.099900 -0.020823 677068.000000 0 0 1
-12.806747 -19.403939 11.581467 25.974141 0.987418 1.108634 0.094893 -0.025190 755349.000000 0 0 1
-11.693547 -20.254939 11.898167 26.240579 1.047222 1.100191 0.101896 -0.025785 1072870.000000 0 0 1
-10.393647 -19.493539 12.304667 25.286969 1.080955 1.062601 0.111499 -0.023162 364218.000000 0 0 1
-9.692847 -18.843539 11.306267 24.017950 1.095706 1.080664 0.095872 -0.019805 -249489.000000 0 1 0
-8.503947 -18.247139 11.759667 23.314480 1.134682 1.042117 0.080802 -0.016482 425372.000000 0 1 0
-7.518447 -17.517239 10.809167 21.913895 1.165371 1.054967 0.059305 -0.015113 278663.000000 0 1 0
-6.552747 -18.296939 10.156467 21.928755 1.226894 1.089242 0.057488 -0.015049 -40746.400000 0 1 0
-5.694247 -17.457739 9.372867 20.616686 1.255504 1.098845 0.043822 -0.006320 717241.000000 0 1 0
-4.649347 -18.326739 8.580567 20.763235 1.322346 1.144768 0.044344 -0.009754 1028370.000000 0 1 0
-3.424447 -18.642539 9.239867 21.086636 1.389132 1.117217 0.044580 -0.002700 314971.000000 0 1 0
-2.388947 -19.001439 8.344267 20.889915 1.445728 1.159890 0.048412 -0.014386 216078.000000 0 1 0
-1.114447 -19.401539 9.074767 21.447916 1.513418 1.133924 0.053245 -0.009314 450634.000000 0 1 0
0.038053 -19.764439 8.307167 21.439298 -1.568871 1.172907 0.062754 -0.011155 1138630.000000 0 1 0
1.232753 -19.823139 9.120567 21.855463 -1.508689 1.140310 0.080982 -0.024702 813307.000000 0 1 0
2.509053 -20.246639 8.365967 22.050196 -1.447501 1.181643 0.075657 -0.041849 13589.000000 0 1 0
2.609453 -21.631639 8.061167 23.231863 -1.450745 1.216439 0.107892 -0.033311 -209015.000000 0 1 0
2.724353 -22.484039 9.155967 24.429200 -1.450216 1.186620 0.118184 -0.042322 -383830.000000 0 1 0
2.740953 -23.947039 8.668767 25.614859 -1.456833 1.225551 0.143206 -0.042160 31055.800000 0 0 1
2.611653 -24.869039 9.713767 26.826239 -1.466164 1.200277 0.141911 -0.051601 -9206.150000 0 0 1
2.460953 -26.131529 9.158767 27.799210 -1.476898 1.235063 0.150458 -0.052440 -878578.000000 0 0 1
2.119153 -27.167409 10.256567 29.116251 -1.492950 1.210809 0.172821 -0.060390 232779.000000 0 0 1
0.982353 -26.993259 11.073767 29.192967 -1.534420 1.181724 0.181907 -0.066615 431839.000000 0 0 1
-0.273347 -27.115119 10.385167 29.037150 1.560716 1.205045 0.171595 -0.057039 269179.000000 0 0 1
-1.498447 -27.161519 11.314367 29.461981 1.515684 1.176636 0.163876 -0.059541 144048.000000 0 0 1
-1.487047 -28.351559 12.086367 30.856158 1.518394 1.168317 0.182306 -0.073071 -101700.000000 0 0 1
-1.989147 -28.033989 13.421767 31.144904 1.499960 1.125256 0.148210 -0.072388 76634.800000 0 0 1
-1.558347 -29.115329 14.446267 32.539598 1.517324 1.110783 0.133319 -0.061889 106209.000000 0 0 1
-2.003747 -28.845219 15.745867 32.924064 1.501442 1.072138 0.137307 -0.064230 72974.800000 0 0 1
-1.420947 -29.760299 16.672667 34.141943 1.523086 1.060617 0.150060 -0.059447 107157.000000 0 0 1
-1.689647 -29.414709 18.127367 34.593084 1.513417 1.019236 0.141722 -0.053583 179915.000000 0 0 1
-3.039747 -29.622939 18.534667 35.075525 1.468540 1.014056 0.141494 -0.049739 286034.000000 0 0 1
-3.149047 -29.228929 19.878867 35.488253 1.463473 0.976225 0.127606 -0.049557 1200260.000000 0 0 1
-4.650547 -29.183939 20.406967 35.913426 1.412772 0.966447 0.129548 -0.048383 1148340.000000 0 0 1
-5.394047 -28.106399 19.834767 34.820732 1.381186 0.964747 0.106517 -0.044361 -453078.000000 0 0 1
-6.475447 -27.711649 20.618467 35.142397 1.341243 0.943804 0.103692 -0.043067 -340031.000000 0 0 1
-6.151347 -26.773059 21.829967 35.088220 1.344957 0.899317 0.159921 -0.051893 -659471.000000 0 0 1
-5.431747 -27.348329 22.882867 36.070217 1.374734 0.883567 0.182117 -0.057640 -248919.000000 0 0 1
-5.015747 -26.430089 23.832267 35.940009 1.383252 0.845827 0.213173 -0.062102 -302899.000000 0 0 1
-3.816147 -27.010169 24.622567 36.747558 1.430440 0.836525 0.247109 -0.060681 -110306.000000 0 0 1
-4.054347 -28.049009 25.561067 38.164811 1.427245 0.836918 0.227285 -0.055063 -174703.000000 0 0 1
-4.076647 -29.329689 24.929167 38.708049 1.432687 0.871041 0.214915 -0.046770 -116453.000000 0 0 1
-4.507747 -30.409809 25.954467 40.233203 1.423635 0.869641 0.199514 -0.033807 -337399.000000 0 0 1
-3.630047 -30.473989 27.091567 40.936466 1.452235 0.847585 0.201420 -0.053193 187715.000000 0 0 1
-3.831147 -31.513699 28.025567 42.346467 1.449819 0.847558 0.178437 -0.061250 -462461.000000 0 0 1
-3.210647 -31.237549 29.405767 43.020830 1.468374 0.818217 0.205641 -0.057793 -820343.000000 0 0 1
-1.841847 -31.091819 29.238067 42.719529 1.511627 0.816989 0.198417 -0.052715 -813952.000000 0 0 1
-1.175647 -31.078559 30.482867 43.548411 1.532986 0.795432 0.201425 -0.069857 -51893.300000 0 0 1
-29.548957 2.775861 -9.254933 31.088584 -0.093666 1.873074 0.203685 -0.034766 -479553.000000 0 0 1
-30.454177 2.423761 -10.231433 32.218221 -0.079420 1.893959 0.179227 -0.033199 -402244.000000 0 0 1
-30.996657 3.529261 -10.848833 33.029466 -0.113371 1.905468 0.164393 -0.035472 -215240.000000 0 0 1
-31.528207 3.360161 -12.280433 34.001876 -0.106176 1.940318 0.168474 -0.037442 150393.000000 0 0 1
-32.778977 2.693161 -12.243933 35.094563 -0.081977 1.927176 0.184806 -0.036768 474627.000000 0 0 1
-33.394947 2.593661 -13.569633 36.139791 -0.077511 1.955707 0.182062 -0.029243 1118570.000000 0 0 1
-34.738531 1.755261 -13.437933 37.288397 -0.050485 1.939470 0.179569 -0.026938 812357.000000 0 0 1
-34.545990 0.419161 -13.075433 36.940061 -0.012133 1.932602 0.184425 -0.022934 288456.000000 0 0 1
-35.796321 -0.194139 -12.826933 38.025577 0.005423 1.914869 0.189165 -0.029545 308311.000000 0 0 1
-35.638744 -1.644639 -12.299233 37.737197 0.046115 1.902779 0.195540 -0.031884 -13507.300000 0 0 1
-35.537854 -2.644239 -13.310933 38.040926 0.074269 1.928272 0.193561 -0.026736 182544.000000 0 0 1
-35.561370 -3.979139 -12.777633 37.996217 0.111431 1.913768 0.207144 -0.033384 32931.400000 0 0 1
-35.567163 -5.113539 -13.845333 38.507981 0.142793 1.938576 0.202160 -0.040610 -68550.300000 0 0 1
-35.404607 -6.406239 -13.316833 38.364882 0.179007 1.925284 0.205618 -0.049496 233672.000000 0 0 1
-35.526922 -7.447139 -14.227133 38.987606 0.206628 1.944337 0.204631 -0.037194 -561422.000000 0 0 1
-35.044162 -8.784539 -13.612833 38.607909 0.245610 1.931136 0.182062 -0.044244 253670.000000 0 0 1
-33.683257 -9.059939 -13.321833 37.337857 0.262756 1.935627 0.182827 -0.044002 846589.000000 0 0 1
-32.796337 -9.147939 -14.442933 36.984900 0.272018 1.971981 0.187855 -0.040616 -198832.000000 0 0 1
-31.651227 -10.124339 -14.122633 36.107495 0.309587 1.972653 0.170090 -0.035554 -262456.000000 0 0 1
-32.163267 -11.456339 -13.999733 36.901436 0.342182 1.959924 0.135735 -0.035020 944916.000000 0 0 1
-31.146507 -12.459139 -13.756733 36.257175 0.380521 1.959967 0.140074 -0.036494 221483.000000 0 0 1
-31.486807 -13.891639 -14.132533 37.203832 0.415503 1.960450 0.133953 -0.025606 -267972.000000 0 0 1
-31.711547 -14.033339 -15.529633 37.996399 0.416625 1.991840 0.149738 -0.035078 71533.400000 0 0 1
-31.821997 -15.410039 -15.983633 38.801873 0.450974 1.995367 0.152207 -0.040027 571717.000000 0 0 1
-30.626037 -16.451439 -15.852733 38.208810 0.492941 1.998626 0.117004 -0.023925 1554700.000000 0 0 1
-29.422507 -16.177639 -16.605833 37.458692 0.502720 2.030085 0.133711 -0.033755 543086.000000 0 0 1
-28.445897 -17.170039 -16.422533 37.063174 0.543065 2.029845 0.133011 -0.031791 -1052000.000000 0 0 1
-27.047307 -16.734639 -16.696933 35.922034 0.554069 2.054217 0.146284 -0.047045 -1143200.000000 0 0 1
-26.834707 -16.251439 -17.996533 36.167471 0.544536 2.091613 0.143523 -0.041319 1126050.000000 0 0 1
-25.419747 -15.938039 -18.151433 35.066496 0.560032 2.114874 0.107623 -0.032614 1251590.000000 0 0 1
-25.238007 -15.427239 -19.611033 35.490130 0.548665 2.156249 0.113475 -0.032647 -10572.400000 0 0 1
-25.685177 -16.143039 -20.735733 36.746383 0.561110 2.170373 0.121551 -0.039873 -637484.000000 0 0 1
-27.012617 -16.078739 -21.119533 37.871388 0.536905 2.162366 0.129377 -0.048134 -802759.000000 0 0 1
-27.597297 -17.396039 -21.738633 39.202055 0.562439 2.158592 0.145329 -0.045092 -177202.000000 0 0 1
-27.205997 -17.561639 -23.088033 39.769771 0.573210 2.190191 0.144304 -0.033397 60166.100000 0 0 1
-27.683907 -18.778139 -23.643233 40.963638 0.596017 2.186063 0.146597 -0.036103 -660195.000000 0 0 1
-27.105187 -19.106939 -25.013533 41.538453 0.614019 2.217022 0.125260 -0.033571 728178.000000 0 0 1
-25.733947 -19.513639 -25.052433 40.873494 0.648782 2.230555 0.114326 -0.031665 337274.000000 0 0 1
-25.357857 -20.681339 -24.303133 40.760041 0.684168 2.209617 0.108589 -0.028553 976295.000000 0 0 1
-23.762847 -20.741639 -24.368933 39.858918 0.717617 2.228599 0.101125 -0.012470 1544950.000000 0 0 1
-23.277547 -20.803739 -25.686613 40.428231 0.729338 2.259275 0.100297 -0.022523 -358555.000000 0 0 1
-21.869147 -20.911839 -25.626173 39.651801 0.763025 2.273496 0.069169 -0.020175 74757.300000 0 0 1
-21.315247 -20.944039 -27.068063 40.319630 0.776614 2.306808 0.057647 -0.021576 -446790.000000 0 0 1
-21.773347 -22.093039 -27.776523 41.637918 0.792686 2.301101 0.091372 -0.019493 -313138.000000 0 0 1
-22.330047 -21.724239 -29.013293 42.571642 0.771648 2.320630 0.108683 -0.020294 -225056.000000 0 0 1
-21.355947 -21.608739 -30.204483 42.840692 0.791282 2.353279 0.095342 -0.029845 -80765.400000 0 0 1
-20.993047 -22.877639 -30.613863 43.603933 0.828330 2.349124 0.093471 -0.027002 -128576.000000 0 0 1
-20.169047 -22.774339 -31.760243 43.979245 0.845992 2.377722 0.092623 -0.023262 -5643.680000 0 0 1
-19.836247 -24.205839 -32.261203 44.946463 0.884289 2.371390 0.112730 -0.024339 37845.000000 0 0 1
-19.166547 -24.376739 -33.502073 45.650529 0.904487 2.394815 0.103775 -0.023386 -134385.000000 0 0 1
-20.012447 -24.253239 32.828061 45.457664 0.880910 0.763865 0.106819 -0.017660 18054.400000 0 0 1
-19.264647 -24.176039 31.433655 44.087211 0.897980 0.777046 0.105347 -0.017765 9071.260000 0 0 1
-18.585147 -22.985439 31.091346 42.899999 0.890857 0.760139 0.088078 -0.022308 -202944.000000 0 0 1
-18.067747 -22.943339 29.786696 41.714356 0.903727 0.775511 0.083008 -0.027086 43195.600000 0 0 1
-17.204447 -21.694639 29.443306 40.417306 0.900321 0.754692 0.048792 -0.027374 -163739.000000 0 0 1
-17.933747 -20.482339 29.411716 40.077357 0.851643 0.746789 0.048568 -0.024010 -366285.000000 0 0 1
-17.283647 -19.216839 29.230826 39.018618 0.838312 0.724017 0.053214 -0.028151 -420297.000000 0 0 1
-16.491547 -18.761339 30.450816 39.385418 0.849695 0.687004 0.060446 -0.032886 -164736.000000 0 0 1
-15.966747 -17.496139 30.285986 38.448574 0.831070 0.663728 0.073837 -0.035013 -447543.000000 0 0 1
-15.425347 -17.058439 31.505586 39.006841 0.835630 0.630566 0.081055 -0.035803 34030.700000 0 0 1
-14.822947 -15.610539 31.330716 38.013451 0.811271 0.602007 0.092893 -0.029552 469887.000000 0 0 1
-13.676747 -15.647139 30.464996 36.878210 0.852491 0.598649 0.114642 -0.042642 449372.000000 0 0 1
-13.318447 -14.332439 30.032006 35.843008 0.822053 0.577415 0.089088 -0.038215 -6750.210000 0 0 1
-11.808847 -14.325939 29.694706 35.020807 0.881414 0.558754 0.114673 -0.046153 -278.368000 0 0 1
-11.363147 -13.028539 29.482106 34.176871 0.853569 0.530344 0.119816 -0.044000 1315440.000000 0 0 1
-10.028647 -12.836839 30.063106 34.192814 0.907600 0.496568 0.120898 -0.039254 1559050.000000 0 0 1
-9.542947 -11.373239 29.939666 33.418588 0.872682 0.460347 0.096459 -0.024375 -44813.800000 0 0 1
-10.237647 -10.556939 30.870276 34.194039 0.800752 0.444567 0.088616 -0.019372 416380.000000 0 0 1
-9.816247 -9.197739 30.774326 33.585953 0.752880 0.412090 0.054901 -0.008158 142197.000000 0 0 1
-10.623247 -8.326239 31.797872 34.543947 0.664769 0.401426 0.046006 -0.013367 69736.400000 0 0 1
-11.898647 -8.016139 31.282356 34.415434 0.592857 0.430007 0.077377 -0.027246 -390261.000000 0 0 1
-12.813847 -7.435439 32.157646 35.406138 0.525783 0.431712 0.070238 -0.025952 -160471.000000 0 0 1
-12.514747 -6.009939 32.737009 35.559106 0.447706 0.401089 0.046918 -0.019826 -432789.000000 0 0 1
-12.503247 -5.020539 31.728584 34.470858 0.381832 0.401575 0.063057 -0.026007 97283.000000 0 0 1
-12.741347 -3.821039 32.320394 34.950681 0.291358 0.390437 0.065782 -0.034126 -169765.000000 0 0 1
-12.161447 -2.585239 31.510812 33.874999 0.209459 0.375816 0.070789 -0.031409 -779073.000000 0 0 1
-10.792047 -2.444539 31.661495 33.539444 0.222754 0.336222 0.075306 -0.029769 -814504.000000 0 0 1
-10.321147 -1.580139 30.626186 32.357166 0.151918 0.328572 0.073579 -0.023748 -1236320.000000 0 0 1
-8.890447 -1.193639 30.832556 32.110922 0.133463 0.283118 0.087326 -0.027206 -1140510.000000 0 0 1
-8.665747 -0.517139 32.061672 33.216162 0.059605 0.264424 0.102432 -0.045683 475861.000000 0 0 1
-7.252747 -0.330939 32.195664 33.004131 0.045598 0.221795 0.124021 -0.045745 649001.000000 0 0 1
-6.914147 0.317061 33.542666 34.249327 -0.045825 0.203490 0.147825 -0.057786 -166967.000000 0 0 1
-7.478147 1.613861 -33.593333 34.453436 -0.212551 2.917678 0.144792 -0.050497 102665.000000 0 0 1
-6.985047 2.686661 33.084111 33.920015 -0.367187 0.222465 0.159559 -0.051188 -195995.000000 0 0 1
-7.715347 3.990061 33.303135 34.417234 -0.477280 0.255133 0.160237 -0.046928 -30342.000000 0 0 1
-8.979847 4.019261 32.672824 34.121922 -0.420845 0.292480 0.117194 -0.032948 15072.400000 0 0 1
-9.721447 5.164861 33.067005 34.851243 -0.488361 0.321368 0.103670 -0.010592 1135930.000000 0 0 1
-11.060547 5.215961 32.187170 34.431902 -0.440656 0.363082 0.090091 0.000910 1430310.000000 0 0 1
-11.911547 6.327061 32.533039 35.218110 -0.488272 0.393014 0.089015 0.002552 322001.000000 0 0 1
-12.942647 6.463661 31.565997 34.723237 -0.463174 0.429740 0.060014 0.009054 253664.000000 0 0 1
-13.873247 7.674061 31.805136 35.537654 -0.505263 0.462432 0.087194 -0.005194 415963.000000 0 0 1
-14.677647 7.674861 32.995207 36.919108 -0.481795 0.465235 0.078090 -0.011244 580986.000000 0 0 1
-15.283247 8.952261 33.245563 37.669458 -0.529880 0.489517 0.089989 -0.006910 203578.000000 0 0 1
-15.973947 9.131461 -32.857513 37.658555 -0.519311 2.631115 0.070881 -0.002824 86097.800000 0 0 1
-15.076247 9.492861 -31.829123 36.476029 -0.561941 2.631305 0.074841 -0.006894 -34113.100000 0 0 1
-15.728947 10.061261 -30.676523 35.912085 -0.569076 2.594829 0.075520 -0.010471 -252764.000000 0 0 1
-14.757147 10.147361 -29.428713 34.449840 -0.602371 2.594899 0.084704 -0.020521 439557.000000 0 0 1
-13.728847 11.069361 -29.448913 34.325653 -0.678561 2.602018 0.115666 -0.024967 -919261.000000 0 0 1
-12.772747 11.001961 -30.418783 34.777702 -0.711054 2.635537 0.100694 -0.034318 -1580120.000000 0 0 1
-12.158147 12.376661 -30.676993 35.243158 -0.794304 2.626888 0.102082 -0.031359 -21439.800000 0 0 1
-12.868147 13.188761 -31.600613 36.580478 -0.797702 2.613690 0.100976 -0.024805 7666.940000 0 0 1
-12.265047 14.442661 -31.767833 36.989418 -0.866753 2.603789 0.094936 -0.032053 -87797.200000 0 0 1
-12.683547 15.536461 -30.753693 36.715714 -0.886151 2.563702 0.102930 -0.034799 86593.800000 0 0 1
-13.986147 16.026461 -30.984533 37.583255 -0.853276 2.539980 0.107721 -0.028192 40808.300000 0 0 1
-14.192547 17.138161 -30.094873 37.427882 -0.879139 2.504916 0.086450 -0.021626 234627.000000 0 0 1
-15.682647 17.580961 -30.009173 38.152144 -0.842405 2.476024 0.074825 -0.030613 129367.000000 0 0 1
-16.082447 18.200461 -31.197993 39.537535 -0.847100 2.480094 0.088201 -0.032558 882398.000000 0 0 1
-17.396447 18.804361 -31.281283 40.432154 -0.824270 2.455415 0.082513 -0.031115 1127170.000000 0 0 1
-17.679947 20.058461 -30.466543 40.535573 -0.848341 2.421281 0.040589 -0.023564 -733271.000000 0 0 1
-16.947247 21.196461 -30.864693 41.099008 -0.896341 2.420347 0.048085 -0.020781 -58997.800000 0 0 1
-17.405947 22.420861 -30.379313 41.576011 -0.910657 2.390133 0.027711 -0.014335 -207681.000000 0 0 1
-18.814347 22.895461 -30.801943 42.742736 -0.882933 2.375515 0.032370 -0.012954 -196522.000000 0 0 1
-19.849447 22.244061 -30.100243 42.365357 -0.842225 2.360993 0.031137 -0.020946 -587028.000000 0 0 1
-20.965147 22.134061 -30.932703 43.431396 -0.812513 2.363452 0.057700 -0.022318 -736353.000000 0 0 1
-22.203247 21.503261 -30.241293 43.242459 -0.769384 2.345274 0.076445 -0.033064 -684135.000000 0 0 1
-22.898547 22.351961 -29.362773 43.429553 -0.773320 2.313255 0.133819 -0.033477 599112.000000 0 0 1
-23.881947 23.232761 -29.934493 44.790428 -0.771620 2.302749 0.133404 -0.023368 142659.000000 0 0 1
-25.168007 22.609861 -30.501153 45.551671 -0.731907 2.304459 0.145328 -0.040821 -707991.000000 0 0 1
-24.917247 22.030861 -31.777253 46.000238 -0.723995 2.333400 0.132378 -0.036199 251290.000000 0 0 1
-26.072217 21.428561 -32.340773 46.742586 -0.687948 2.334901 0.148341 -0.033930 52495.600000 0 0 1
-25.869357 20.800161 33.723266 47.319436 -0.677203 0.777496 0.131309 -0.014898 -117135.000000 0 0 1
-25.456187 19.440861 -33.700763 46.494150 -0.652211 2.381597 0.133582 -0.018259 177456.000000 0 0 1
-25.339457 18.838961 32.469881 45.291144 -0.639305 0.771430 0.117027 -0.028816 -197584.000000 0 0 1
-25.351657 17.270661 32.464515 44.664606 -0.598027 0.757071 0.078770 -0.003362 233525.000000 0 0 1
-26.432067 16.483061 32.974349 45.361362 -0.557593 0.756962 0.082967 -0.000175 275884.000000 0 0 1
-26.328687 15.187461 32.355447 44.392947 -0.523217 0.754167 0.075735 -0.005498 -85625.200000 0 0 1
-27.217857 14.113561 33.043250 45.076166 -0.478370 0.747996 0.064288 0.003585 1615620.000000 0 0 1
-28.643807 14.447561 33.062590 46.068803 -0.467151 0.770333 0.070435 0.005620 1445050.000000 0 0 1
-29.584077 13.451061 32.752338 46.139618 -0.426733 0.781507 0.070853 0.012610 176999.000000 0 0 1
-29.648647 12.089161 33.541476 46.370472 -0.387167 0.762173 0.070904 0.009718 -526242.000000 0 0 1
-28.515827 11.269061 33.408216 45.345926 -0.376350 0.742558 0.061674 0.001217 -488018.000000 0 0 1
-28.766387 9.950461 -33.601263 45.338302 -0.333023 2.405538 0.080020 -0.000505 -100930.000000 0 0 1
-27.493757 9.053861 -33.344093 44.155494 -0.318122 2.426682 0.069090 -0.009187 290257.000000 0 0 1
-26.725877 8.691961 32.990660 43.338278 -0.314437 0.705579 0.052383 -0.010904 34138.200000 0 0 1
-25.898687 9.722661 32.483810 42.666967 -0.359131 0.705428 0.047008 -0.010176 -830540.000000 0 0 1
-24.695547 9.241161 31.644687 41.190476 -0.358072 0.694689 0.039344 -0.011789 -341070.000000 0 0 1
-24.904947 8.765661 30.328056 40.210499 -0.338424 0.716312 0.041910 -0.016333 -297420.000000 0 0 1
-23.691347 8.706061 29.625516 38.919746 -0.352160 0.705643 0.058854 -0.019824 -44574.000000 0 0 1
-23.782847 8.823661 28.066276 37.831160 -0.355268 0.734923 0.086715 -0.028676 -102719.000000 0 0 1
-24.196747 10.100361 27.614456 38.079628 -0.395438 0.759505 0.054619 -0.020188 120040.000000 0 0 1
-24.214847 10.132961 26.229986 37.108596 -0.396319 0.785770 0.064993 -0.021554 -968490.000000 0 0 1
-24.527847 11.526761 25.635426 37.304914 -0.439317 0.813187 0.061594 -0.021931 894491.000000 0 0 1
-25.849837 12.002361 25.941006 38.538378 -0.434691 0.832375 0.058985 -0.014495 446022.000000 0 0 1
-26.855037 11.424161 25.139516 38.518823 -0.402210 0.859712 0.068547 -0.012711 -854371.000000 0 0 1
-28.176087 12.159661 25.376956 39.821340 -0.407414 0.879845 0.066730 -0.015039 -534022.000000 0 0 1
-28.190377 13.482261 24.840876 39.919141 -0.446103 0.899145 0.074913 -0.017471 518762.000000 0 0 1
-29.417867 14.203961 25.038516 41.159333 -0.449821 0.916840 0.070284 -0.024245 736936.000000 0 0 1
-29.349407 15.557461 24.380256 41.204601 -0.487419 0.937646 0.080280 -0.023832 -246482.000000 0 0 1
-28.554457 16.473161 25.069976 41.415284 -0.523264 0.920614 0.084278 -0.029781 -100353.000000 0 0 1
-28.371027 17.600861 24.278406 41.281309 -0.555271 0.942063 0.064235 -0.028909 -153492.000000 0 0 1
-24.173947 -8.636339 31.181666 40.388889 0.343126 0.688758 0.097013 -0.034589 259839.000000 0 0 1
-23.212947 -8.031939 30.289856 38.997799 0.333117 0.681376 0.107707 -0.039925 415547.000000 0 0 1
-23.216347 -8.662139 29.009646 38.152208 0.357108 0.706920 0.099133 -0.034485 135370.000000 0 0 1
-21.821747 -8.500839 28.371376 36.788420 0.371472 0.690066 0.129292 -0.038910 -963005.000000 0 0 1
-21.559347 -7.197739 27.951116 36.026071 0.322222 0.682722 0.135385 -0.045325 -580040.000000 0 0 1
-20.311547 -6.684539 28.325116 35.490199 0.317936 0.646643 0.128837 -0.048451 220302.000000 0 0 1
-19.110447 -7.255139 27.469746 34.240811 0.362835 0.639739 0.124738 -0.043699 -328889.000000 0 0 1
-18.742447 -8.644239 27.778366 34.606933 0.432138 0.639018 0.121663 -0.037026 377288.000000 0 0 1
-18.081347 -8.921839 29.062146 35.371495 0.458376 0.606538 0.110615 -0.039408 337422.000000 0 0 1
-16.637247 -8.362939 29.272166 34.692887 0.465776 0.566562 0.100587 -0.036159 482930.000000 0 0 1
-15.631147 -9.051139 28.526756 33.764355 0.524869 0.564460 0.088828 -0.025819 -617790.000000 0 0 1
-14.375047 -8.748339 29.043016 33.565938 0.546703 0.525142 0.089303 -0.039188 -682556.000000 0 0 1
-13.338947 -9.806039 28.706086 33.137973 0.633925 0.523130 0.081006 -0.028504 -286081.000000 0 0 1
-12.942947 -9.617439 27.289536 31.697536 0.639047 0.533690 0.085904 -0.028808 944501.000000 0 0 1
-11.689547 -10.284839 26.995656 31.163903 0.721560 0.523154 0.110161 -0.030911 953208.000000 0 0 1
-11.182847 -10.019139 25.546966 29.632527 0.730566 0.531346 0.101145 -0.025780 176981.000000 0 0 1
-12.057347 -10.582039 24.581796 29.353430 0.720325 0.578210 0.088114 -0.029557 60583.600000 0 0 1
-11.559247 -10.472539 23.280836 28.022983 0.736114 0.590295 0.100316 -0.036865 -28272.700000 0 0 1
-12.661847 -10.872339 22.303236 27.856139 0.709506 0.642404 0.121603 -0.048846 -635955.000000 0 0 1
-12.978647 -12.263639 22.224236 28.508925 0.757080 0.676843 0.116701 -0.043354 348856.000000 0 0 1
-14.191147 -12.558639 21.554636 28.700355 0.724445 0.721186 0.110919 -0.037525 282747.000000 0 0 1
-15.489147 -12.255339 22.331036 29.812450 0.669365 0.724168 0.104739 -0.038154 -496647.000000 0 0 1
-16.678447 -12.828139 21.833336 30.322043 0.655642 0.766924 0.074549 -0.024226 831191.000000 0 0 1
-17.760747 -12.801539 22.779426 31.594711 0.624535 0.765568 0.066843 -0.021151 625452.000000 0 0 1
-19.064547 -13.568539 22.508136 32.468113 0.618546 0.804824 0.084926 -0.022110 -413046.000000 0 0 1
-18.946847 -14.992339 22.432706 32.969373 0.669404 0.822474 0.078458 -0.021185 354152.000000 0 0 1
-20.216147 -15.653939 22.405426 33.996199 0.658890 0.851232 0.070357 -0.014496 278887.000000 0 0 1
-20.950647 -15.650739 23.769086 35.338997 0.641597 0.833077 0.069507 -0.014681 -826282.000000 0 0 1
-20.441047 -16.360339 24.840086 36.090538 0.674965 0.811693 0.061498 -0.014506 -591735.000000 0 0 1
-21.106347 -16.033739 26.020876 37.143568 0.649658 0.794630 0.053409 -0.015753 -170564.000000 0 0 1
-20.712047 -16.988539 27.182616 38.164040 0.686952 0.778087 0.051846 -0.016512 56102.500000 0 0 1
-20.965047 -18.315539 26.874356 38.693968 0.718049 0.803021 0.058051 -0.011225 117971.000000 0 0 1
-20.894747 -19.055539 28.062096 39.839494 0.739393 0.789249 0.046770 -0.019403 -349671.000000 0 0 1
-20.867047 -20.561239 27.959596 40.496138 0.778017 0.808718 0.059027 -0.014427 353142.000000 0 0 1
-22.113847 -21.199339 27.675386 41.283910 0.764287 0.836093 0.061389 -0.013012 267082.000000 0 0 1
-21.938447 -22.593139 27.422816 41.758307 0.800099 0.854357 0.076877 -0.006972 68476.200000 0 0 1
-23.198447 -23.279439 26.868576 42.450213 0.787141 0.885447 0.081541 -0.000149 75855.800000 0 0 1
-24.246747 -23.450539 27.793476 43.707091 0.768707 0.881618 0.073813 0.000390 -506339.000000 0 0 1
-25.333127 -24.091139 27.207546 44.298994 0.760274 0.909450 0.058738 0.002538 -266061.000000 0 0 1
-26.151377 -24.973039 28.179656 45.843650 0.762354 0.908803 0.036031 -0.001142 -219093.000000 0 0 1
-26.827837 -24.234739 29.171316 46.454506 0.734659 0.891874 0.028207 0.007743 -79329.700000 0 0 1
-27.332557 -25.172699 30.096686 47.817820 0.744285 0.890011 0.012196 0.010803 23547.200000 0 0 1
-28.407947 -24.530139 31.018626 48.691830 0.712277 0.880145 0.040463 0.001904 325044.000000 0 0 1
-29.535147 -24.108139 30.280096 48.686872 0.684573 0.899584 0.043643 -0.003132 -122190.000000 0 0 1
-30.617757 -23.706539 31.080826 49.653447 0.658856 0.894441 0.064429 -0.022694 -369554.000000 0 0 1
-31.787147 -23.220139 30.207116 49.619224 0.630896 0.916276 0.074485 -0.031730 -61834.300000 0 0 1
-32.663577 -24.318739 29.820916 50.473729 0.639986 0.938721 0.072762 -0.036079 -161793.000000 0 0 1
-33.614517 -23.858739 28.910326 50.348606 0.617256 0.959166 0.068745 -0.034913 -155242.000000 0 0 1
-34.998642 -24.282339 29.478156 51.802496 0.606558 0.965447 0.072812 -0.034033 -157588.000000 0 0 1
-35.197365 -25.685599 29.489926 52.614259 0.630421 0.975815 0.077757 -0.037329 284764.000000 0 0 1
-36.464777 -26.028589 30.054696 53.948607 0.619928 0.979908 0.079990 -0.028606 573265.000000 0 0 1
-36.562007 -27.569729 30.384576 54.955371 0.646091 0.984961 0.085035 -0.039200 -238341.000000 0 0 1
-35.751407 -27.992299 31.432702 55.224511 0.664271 0.965288 0.070579 -0.037250 -372837.000000 0 0 1
-35.509025 -29.401749 31.393009 55.775216 0.691587 0.972968 0.078595 -0.041269 118477.000000 0 0 1
-34.336998 -29.784129 32.328010 55.778347 0.714513 0.952583 0.071381 -0.032963 320033.000000 0 0 1
-34.760141 -29.813419 33.671326 56.840703 0.708941 0.936786 0.075442 -0.029518 -146757.000000 0 0 1
-33.568027 -29.970529 -33.057663 55.837748 0.728839 2.204373 0.058022 -0.029375 18614.000000 0 0 1
-33.725217 -29.867909 -31.513673 54.978121 0.724816 2.181207 0.057928 -0.034272 -157814.000000 0 0 1
-33.845317 -28.514459 -31.134883 54.110635 0.700120 2.183881 0.057701 -0.024673 -62034.200000 0 0 1
-32.642437 -27.814439 -30.857383 52.833226 0.705709 2.194509 0.055756 -0.023887 -317727.000000 0 0 1
-32.845267 -26.281259 -30.803153 52.137802 0.674835 2.202850 0.048430 -0.021644 -592517.000000 0 0 1
-33.454947 -25.797629 -29.654403 51.615257 0.656879 2.182824 0.041042 -0.024802 -311226.000000 0 0 1
-33.583097 -24.427139 -29.676383 51.041133 0.628856 2.191270 0.040004 -0.013221 -140494.000000 0 0 1
-32.346197 -23.665239 -29.159873 49.564283 0.631636 2.199781 0.054316 -0.019782 -154253.000000 0 0 1
-32.480637 -22.260039 -29.019453 48.914515 0.600814 2.205910 0.048855 -0.014331 660891.000000 0 0 1
-31.405137 -21.745739 -28.199993 47.480516 0.605625 2.206728 0.087940 -0.016300 619806.000000 0 0 1
-31.219467 -20.243939 -28.451793 46.839905 0.575277 2.223613 0.104492 -0.024869 -221761.000000 0 0 1
-30.542427 -19.960239 -29.633213 47.004024 0.578849 2.252916 0.106780 -0.012651 238427.000000 0 0 1
-30.242867 -18.576839 -29.741863 46.306677 0.550835 2.268266 0.091571 -0.017376 -311879.000000 0 0 1
-29.740007 -18.083839 -31.105303 46.680115 0.546328 2.300099 0.106106 -0.018194 19546.500000 0 0 1
-30.628447 -18.009939 -32.218243 47.963266 0.531559 2.307335 0.095256 -0.023969 168854.000000 0 0 1
-31.499747 -16.901639 -32.101013 48.045546 0.492469 2.302499 0.076539 -0.019581 -949749.000000 0 0 1
-32.020737 -16.381839 -33.458763 49.124139 0.472885 2.320069 0.084884 -0.036990 -87490.000000 0 0 1
-33.028367 -17.102039 33.301258 49.923207 0.477785 0.840555 0.099430 -0.041447 324639.000000 0 0 1
-34.289570 -16.777939 -33.591403 50.849348 0.455052 2.292422 0.092867 -0.035601 -61720.100000 0 0 1
-35.531045 -17.290239 33.058393 51.519558 0.452889 0.874127 0.103741 -0.039966 224381.000000 0 0 1
-35.710826 -18.658539 33.092583 52.139459 0.481477 0.883184 0.074650 -0.036307 -122224.000000 0 0 1
-36.539957 -19.171239 32.087494 52.271523 0.483184 0.909853 0.088150 -0.032172 -307923.000000 0 0 1
-36.950377 -20.622739 32.460683 53.332201 0.509056 0.916437 0.074867 -0.035714 522293.000000 0 0 1
-35.791553 -21.468739 32.369258 52.817713 0.540292 0.911136 0.090994 -0.044720 643963.000000 0 0 1
-35.859007 -22.699339 33.168929 53.863775 0.564343 0.907404 0.087276 -0.044874 184359.000000 0 0 1
-34.598698 -23.677239 33.100588 53.416575 0.600138 0.902476 0.075353 -0.039202 1645690.000000 0 0 1
-33.527037 -23.393839 -33.426773 52.807983 0.609221 2.256202 0.045020 -0.036471 745883.000000 0 0 1
-32.796547 -22.188839 -33.605033 51.935116 0.594821 2.274516 0.053657 -0.034657 147106.000000 0 0 1
-31.408337 -22.147939 -32.861993 50.566050 0.614181 2.278226 0.064778 -0.021269 1387730.000000 0 0 1
-30.466607 -23.185139 -33.292563 50.736176 0.650505 2.286555 0.064952 -0.022589 2502450.000000 0 0 1
-29.114527 -23.172739 -32.715903 49.547571 0.672246 2.292005 0.074740 -0.016489 1757080.000000 0 0 1
-28.963267 -23.595439 -31.206213 48.676928 0.683621 2.266712 0.071653 -0.006114 -789206.000000 0 0 1
-29.205797 -24.960139 -30.907843 49.308030 0.707176 2.248277 0.064870 -0.009351 15744.000000 0 0 1
-28.846677 -25.288359 -29.616703 48.464224 0.719762 2.228251 0.060446 -0.013911 -279404.000000 0 0 1
-28.572597 -26.784429 -29.453883 49.003369 0.753107 2.215621 0.064388 -0.016003 -53651.100000 0 0 1
-29.656207 -27.670019 -29.516843 50.163379 0.750765 2.199892 0.056451 -0.010550 -152466.000000 0 0 1
-29.140447 -28.925759 -29.176643 50.370047 0.781701 2.188600 0.065890 -0.019841 89736.300000 0 0 1
-29.899727 -30.147969 -29.726413 51.831972 0.789532 2.181587 0.056945 -0.004929 -149278.000000 0 0 1
-29.658667 -30.314199 -31.086103 52.582630 0.796328 2.203325 0.069515 -0.022661 204793.000000 0 0 1
-30.044047 -31.603209 -31.485463 53.784217 0.810684 2.196174 0.086970 -0.012006 -166657.000000 0 0 1
-29.440747 -31.899649 -32.875573 54.453177 0.825463 2.218981 0.075738 -0.024438 420692.000000 0 0 1
-28.066567 -32.257479 -32.733213 53.849237 0.854760 2.224169 0.088541 -0.024989 216504.000000 0 0 1
-27.550097 -32.552969 33.454186 54.202271 0.868445 0.905605 0.097912 -0.029944 372367.000000 0 0 1
-26.170977 -33.285619 33.374806 53.914100 0.904493 0.903281 0.117070 -0.029663 498721.000000 0 0 1
-25.745957 -33.629199 32.074921 53.127939 0.917396 0.922625 0.112869 -0.019085 313016.000000 0 0 1
-24.689047 32.880798 32.084843 52.154895 -0.926742 0.908177 0.107812 -0.013842 -17651.200000 0 0 1
-24.716847 32.064426 30.746986 50.837261 -0.914085 0.921267 0.117358 -0.022544 305809.000000 0 0 1
-26.017297 31.496147 30.629816 51.059697 -0.880374 0.927442 0.129250 -0.044189 513241.000000 0 0 1
-26.063677 30.717307 29.444356 49.898279 -0.867173 0.939629 0.133608 -0.037546 -678752.000000 0 0 1
-27.387777 30.000287 29.342456 50.110750 -0.830890 0.945235 0.133935 -0.033324 -694883.000000 0 0 1
-27.527607 28.870127 30.227016 50.049234 -0.809198 0.922354 0.138581 -0.036052 -473702.000000 0 0 1
-28.826117 28.411387 30.039326 50.403502 -0.778153 0.932315 0.136947 -0.033044 -480917.000000 0 0 1
-29.154037 27.186947 30.899346 50.436669 -0.750498 0.911404 0.115915 -0.053942 -619847.000000 0 0 1
-28.302997 26.168297 30.574186 49.199799 -0.746229 0.900231 0.125848 -0.042800 -628290.000000 0 0 1
-28.652327 24.878827 31.092416 49.057621 -0.715023 0.884348 0.122954 -0.040756 438248.000000 0 0 1
-29.772417 24.281937 30.178966 48.854675 -0.684172 0.904944 0.135203 -0.041532 429153.000000 0 0 1
-29.335777 24.247777 28.805246 47.731381 -0.690727 0.922930 0.123027 -0.035587 76285.600000 0 0 1
-30.293857 23.699577 27.891246 47.511149 -0.663869 0.943391 0.128811 -0.033436 421480.000000 0 0 1
-29.591367 23.436747 26.573126 46.163418 -0.669852 0.957420 0.127924 -0.042709 -53272.400000 0 0 1
-28.636117 22.388227 26.509806 44.989218 -0.663556 0.940669 0.113777 -0.037462 -39760.700000 0 0 1
-28.154847 22.298327 25.184716 43.865484 -0.669837 0.959249 0.092459 -0.024401 -838165.000000 0 0 1
-26.791197 21.633927 25.165566 42.650917 -0.679298 0.939693 0.073747 -0.027733 -888890.000000 0 0 1
-26.650197 20.279227 25.590086 42.146560 -0.650467 0.918303 0.091770 -0.039727 -689531.000000 0 0 1
-25.442557 20.049027 26.206796 41.666333 -0.667388 0.890571 0.067566 -0.028163 -933595.000000 0 0 1
-25.523837 18.821027 27.113156 41.723141 -0.635382 0.863429 0.085493 -0.029749 -141148.000000 0 0 1
-24.342747 18.571827 27.838726 41.382082 -0.651725 0.832912 0.085770 -0.017763 31800.400000 0 0 1
-24.562147 17.593227 28.889446 41.802162 -0.621565 0.807787 0.081704 -0.018552 390367.000000 0 0 1
-23.480547 16.443027 28.945816 40.737814 -0.610916 0.780532 0.080333 -0.025092 818763.000000 0 0 1
-22.225947 16.893827 29.460876 40.587403 -0.649931 0.758509 0.093511 -0.028755 680957.000000 0 0 1
-21.195047 15.895527 29.338526 39.530329 -0.643478 0.734483 0.084318 -0.030103 1105660.000000 0 0 1
-19.858447 16.321327 30.013216 39.516285 -0.687943 0.708229 0.078836 -0.037071 160545.000000 0 0 1
-20.048547 16.029427 31.388481 40.547793 -0.674455 0.685487 0.061599 -0.028039 492361.000000 0 0 1
-19.019947 16.447027 32.288897 40.924760 -0.712981 0.661646 0.063280 -0.036994 -616061.000000 0 0 1
-19.292547 16.045927 -33.643403 41.970855 -0.693783 2.500746 0.058777 -0.034579 265058.000000 0 0 1
-20.238947 16.848327 -32.967563 42.194091 -0.694229 2.467592 0.057887 -0.029282 -363976.000000 0 0 1
-21.578847 16.630927 -33.291093 43.017801 -0.656621 2.455759 0.062254 -0.016635 -651606.000000 0 0 1
-22.529647 17.458627 -32.362023 43.124114 -0.659259 2.419523 0.071656 -0.025495 16583.100000 0 0 1
-22.682447 17.007627 -31.070743 42.061192 -0.643382 2.401941 0.070194 -0.024029 98692.000000 0 0 1
-23.529047 17.761527 -30.231593 42.226024 -0.646615 2.368776 0.071507 -0.020732 -289106.000000 0 0 1
-23.500047 17.232027 -28.763593 40.945564 -0.632712 2.349678 0.082896 -0.023852 -69621.800000 0 0 1
-24.272947 16.122327 -28.350683 40.655462 -0.586300 2.342476 0.074436 -0.023009 291233.000000 0 0 1
-25.689017 16.251527 -28.335863 41.556694 -0.564064 2.321099 0.087273 -0.020043 340455.000000 0 0 1
-26.516977 15.511327 -27.316493 41.108906 -0.529286 2.297609 0.080040 -0.012115 -103586.000000 0 0 1
-26.388887 14.115127 -27.561933 40.685013 -0.491168 2.315082 0.053324 0.000082 97318.100000 0 0 1
-27.260337 13.340127 -26.751833 40.456712 -0.455100 2.293275 0.032759 -0.005894 37833.400000 0 0 1
-27.141987 11.839327 -27.049313 40.106389 -0.411319 2.311001 0.045985 -0.007592 103193.000000 0 0 1
-25.909227 11.363227 -26.566733 38.809822 -0.413315 2.324764 0.043581 -0.004637 -185667.000000 0 0 1
-25.553697 10.119627 -27.166003 38.644405 -0.377066 2.350366 0.030863 0.001200 506159.000000 0 0 1
-24.304147 9.469927 -26.481943 37.170746 -0.371546 2.363766 0.075713 -0.004438 514211.000000 0 0 1
-24.610247 8.754427 -25.257503 36.335186 -0.341764 2.339390 0.045954 -0.004630 130992.000000 0 0 1
-23.463747 8.193427 -24.645333 35.001030 -0.335958 2.351996 0.100792 -0.003756 -122054.000000 0 0 1
-23.902747 7.241627 -23.516733 34.304799 -0.294172 2.326118 0.087946 0.005840 301689.000000 0 0 1
-24.622047 6.097427 -23.979233 34.905980 -0.242757 2.328102 0.091718 -0.017546 249053.000000 0 0 1
-24.920247 5.162627 -22.984233 34.292075 -0.204276 2.305341 0.093039 -0.006344 -352025.000000 0 0 1
37.161228 24.983961 -10.193933 45.924628 0.591901 1.794632 0.053519 -0.007441 -163286.000000 0 0 1
37.927358 24.281361 -9.267733 45.977819 0.569460 1.773757 0.078307 -0.005441 -300530.000000 0 0 1
-37.419797 23.299161 -9.880633 45.174318 -0.556902 1.791301 0.101370 -0.014014 -69276.200000 0 0 1
-36.521837 22.487461 -8.896833 43.802787 -0.551903 1.775331 0.121292 -0.019992 75914.900000 0 0 1
-37.181557 21.521361 -8.082033 43.714488 -0.524699 1.756748 0.095486 -0.012622 83343.100000 0 0 1
-36.221467 20.864861 -7.296333 42.433166 -0.522612 1.743604 0.131563 -0.012797 -198880.000000 0 0 1
-36.845267 20.095961 -6.137833 42.415733 -0.499316 1.716013 0.119379 0.000891 -124522.000000 0 0 1
-37.592327 18.963861 -6.483233 42.600979 -0.467210 1.723575 0.093427 0.003490 236627.000000 0 0 1
-38.006787 18.205061 -5.417433 42.488689 -0.446703 1.698647 0.100362 -0.005122 -324930.000000 0 0 1
37.307858 16.912561 -5.748533 41.363712 0.425615 1.710223 0.092626 0.010501 -217233.000000 0 0 1
36.093918 17.326361 -6.341733 40.536296 0.447549 1.727887 0.085424 0.006527 -417885.000000 0 0 1
35.416868 16.149661 -6.659133 39.490634 0.427822 1.740231 0.098767 -0.000499 -519694.000000 0 0 1
34.407018 16.469761 -7.777333 38.930487 0.446442 1.771924 0.082096 -0.000942 -186586.000000 0 0 1
33.899178 15.317461 -8.412733 38.138602 0.424394 1.793209 0.097363 -0.004053 61884.100000 0 0 1
33.569438 15.689861 -9.728933 38.310978 0.437217 1.827555 0.065177 -0.005874 -593802.000000 0 0 1
33.079198 14.527461 -10.590333 37.648846 0.413813 1.855937 0.061017 -0.007920 -508165.000000 0 0 1
31.846328 13.930161 -10.324533 36.260640 0.412342 1.859522 0.062956 -0.003047 -55205.500000 0 0 1
31.702298 13.271461 -9.070733 35.544980 0.396461 1.828841 0.075454 -0.007440 -1292100.000000 0 0 1
30.682308 12.186461 -9.103033 34.245862 0.378075 1.839845 0.088903 -0.001793 -1017810.000000 0 0 1
31.127708 11.036461 -9.664633 34.411376 0.340726 1.855482 0.092723 -0.004997 370890.000000 0 0 1
30.174108 9.960261 -9.612133 33.197541 0.318831 1.864546 0.145751 -0.010377 -32495.500000 0 0 1
30.753808 8.523861 -9.834333 33.394117 0.270377 1.869721 0.151149 -0.006556 327878.000000 0 0 1
31.895488 8.260361 -8.996933 34.154071 0.253414 1.837364 0.133914 -0.019829 862297.000000 0 0 1
32.062328 6.821961 -8.885933 33.963095 0.209645 1.835512 0.153641 -0.024422 -67803.700000 0 0 1
33.215028 6.454061 -7.908633 34.748230 0.191920 1.800407 0.156365 -0.022185 198504.000000 0 0 1
34.495248 6.620761 -8.475633 36.132990 0.189627 1.807570 0.114054 -0.021239 -505046.000000 0 0 1
35.496068 6.602761 -7.516233 36.879006 0.183912 1.776042 0.117304 -0.016353 -835730.000000 0 0 1
36.874428 6.783661 -8.131933 38.364956 0.181932 1.784379 0.137308 -0.017302 -500705.000000 0 0 1
37.373418 5.711161 -8.920233 38.845338 0.151640 1.802499 0.162630 -0.021229 289166.000000 0 0 1
-37.501777 5.986561 -9.525533 39.153007 -0.158298 1.816553 0.163109 -0.023407 -857329.000000 0 0 1
-37.129677 4.982261 -10.653233 38.947750 -0.133389 1.847854 0.172571 -0.030783 673314.000000 0 0 1
-35.853354 5.142561 -11.313333 37.946020 -0.142462 1.873543 0.186855 -0.041395 1146550.000000 0 0 1
-35.582710 6.408461 -11.968833 38.084782 -0.178190 1.890482 0.172529 -0.039963 -784172.000000 0 0 1
-34.888696 7.433161 -11.087733 37.355198 -0.209915 1.872156 0.169812 -0.023931 -1336820.000000 0 0 1
-35.614754 8.216361 -10.196233 37.945783 -0.226734 1.842845 0.185684 -0.020320 -396495.000000 0 0 1
-36.322307 9.322261 -10.689033 38.993204 -0.251231 1.848477 0.165921 -0.024357 122515.000000 0 0 1
-37.090077 10.091561 -9.582033 39.614755 -0.265652 1.815100 0.125389 -0.016648 181768.000000 0 0 1
-36.163647 10.474661 -8.583333 38.616078 -0.281931 1.794942 0.149503 -0.007219 613.735000 0 0 1
-36.694547 11.341361 -7.596233 39.151233 -0.299761 1.766058 0.123524 -0.009448 -414900.000000 0 0 1
-35.677333 12.140161 -6.788133 38.292746 -0.327986 1.749008 0.162530 -0.015367 -361622.000000 0 0 1
-34.951416 13.025361 -7.584433 38.062910 -0.356727 1.771400 0.154857 -0.020062 -365457.000000 0 0 1
-34.297498 13.959961 -6.770033 37.643489 -0.386548 1.751626 0.188200 -0.021129 -135144.000000 0 0 1
-33.472517 15.011261 -7.576933 37.458741 -0.421577 1.774476 0.148398 -0.018583 -293400.000000 0 0 1
-34.160560 15.853261 -8.477833 38.602376 -0.434502 1.792221 0.124522 -0.012533 -137092.000000 0 0 1
-33.476967 17.064661 -8.783833 38.588414 -0.471412 1.800438 0.110645 -0.001140 -25375.400000 0 0 1
-34.265149 17.918561 -9.816133 39.894006 -0.481829 1.819405 0.072734 -0.007556 72436.500000 0 0 1
-33.938336 17.603461 -11.169733 39.830333 -0.478487 1.855041 0.058543 -0.005578 -224504.000000 0 0 1
-34.890506 18.118161 -12.050833 41.119797 -0.478957 1.868229 0.056133 -0.003504 -511775.000000 0 0 1
-34.326253 18.248061 -13.447933 41.135511 -0.488612 1.903837 0.019159 -0.007511 -52816.200000 0 0 1
-33.406867 19.343661 -13.365033 40.851195 -0.524860 1.904097 0.028574 -0.018743 136710.000000 0 0 1
-33.020387 19.745561 -14.679333 41.179072 -0.538934 1.935289 0.007721 -0.016334 -319631.000000 0 0 1
-32.088927 20.976261 -14.702933 41.059457 -0.578966 1.937017 0.014831 -0.016590 -588568.000000 0 0 1
-30.777107 20.747061 -14.244633 39.756515 -0.593136 1.937239 0.023909 -0.011747 345473.000000 0 0 1
-30.015217 21.972561 -14.073633 39.771521 -0.631912 1.932493 0.042745 -0.011127 395521.000000 0 0 1
-29.401887 22.569261 -15.357033 40.120830 -0.654678 1.963589 0.033357 -0.014404 -1149090.000000 0 0 1
-30.351497 23.053461 -16.250833 41.433863 -0.649585 1.973831 0.045405 0.002672 -2473.340000 0 0 1
-29.722457 23.648961 -17.394833 41.776525 -0.672089 2.000254 0.055113 0.003133 284519.000000 0 0 1
-29.085717 25.052261 -17.209933 42.068712 -0.711032 1.992254 0.070406 0.000449 463606.000000 0 0 1
-30.031767 26.082061 -16.899333 43.217686 -0.715127 1.972545 0.092119 -0.008180 504880.000000 0 0 1
-29.495297 27.354661 -17.268833 43.777422 -0.747762 1.976286 0.092565 -0.009628 767793.000000 0 0 1
-30.441997 28.541861 -16.779433 44.976687 -0.753195 1.953112 0.107319 -0.014615 449116.000000 0 0 1
-30.539757 28.777861 -15.400633 44.699235 -0.755704 1.922544 0.102332 -0.021600 -322921.000000 0 0 1
-29.396677 29.305661 -14.803533 44.069615 -0.783848 1.913370 0.097741 -0.018001 -537203.000000 0 0 1
-29.467217 29.765361 -13.340433 43.957488 -0.790432 1.879144 0.118465 -0.025518 -399624.000000 0 0 1
-30.325567 30.849561 -13.168733 45.218923 -0.793963 1.866300 0.112954 -0.026490 -57519.900000 0 0 1
-30.162137 31.590161 -11.940433 45.279871 -0.808519 1.837655 0.113234 -0.031832 -126318.000000 0 0 1
-28.990187 32.587961 -12.016833 45.241689 -0.843758 1.839637 0.104550 -0.036464 74231.300000 0 0 1
-29.252767 33.661761 -12.969333 46.443968 -0.855363 1.853806 0.094962 -0.040133 -416929.000000 0 0 1
-28.290967 -32.812404 -12.887333 45.200841 0.859260 1.859920 0.107193 -0.037178 -371755.000000 0 0 1
-28.410857 -31.897804 -14.124033 44.990388 0.843152 1.890130 0.095041 -0.029913 58463.300000 0 0 1
-28.037947 -32.547604 -15.324933 45.610597 0.859696 1.913458 0.077954 -0.019350 -157033.000000 0 0 1
-28.361777 -31.725704 -16.465833 45.629315 0.841324 1.939987 0.073751 -0.010336 -198049.000000 0 0 1
-27.756087 -32.125504 -17.825433 46.045569 0.858237 1.968309 0.072911 -0.008962 -75919.900000 0 0 1
-28.131617 -33.344404 -18.510133 47.390529 0.869990 1.972066 0.072543 -0.000921 216371.000000 0 0 1
-27.555837 32.973061 -17.842033 46.528326 -0.874658 1.964343 0.068786 -0.019192 -283671.000000 0 0 1
-27.796817 31.627861 -18.563933 46.017434 -0.849778 1.986038 0.083218 -0.023568 660058.000000 0 0 1
-29.155697 31.172561 -18.638933 46.574597 -0.818817 1.982526 0.095460 -0.016871 470677.000000 0 0 1
-29.799657 31.711061 -19.751333 47.788347 -0.816462 1.996881 0.085645 -0.013695 -1087850.000000 0 0 1
-31.296637 31.467061 -19.830633 48.609767 -0.788113 1.991010 0.078448 -0.018420 -573275.000000 0 0 1
-31.685107 30.209561 -20.359333 48.281115 -0.761563 2.006097 0.083792 -0.025306 234521.000000 0 0 1
-33.085607 30.053161 -20.449933 49.153328 -0.737407 1.999887 0.099425 -0.028505 -211548.000000 0 0 1
-33.436047 28.866861 -21.353033 49.063397 -0.712191 2.021071 0.096496 -0.032285 -397803.000000 0 0 1
-34.712573 28.288461 -21.211233 49.549129 -0.683781 2.013169 0.096196 -0.030311 -41364.500000 0 0 1
-34.878510 27.097961 -21.958833 49.325453 -0.660511 2.032174 0.099810 -0.032996 614697.000000 0 0 1
-36.244997 26.322661 -21.839133 49.835028 -0.628122 2.024423 0.099478 -0.032476 724260.000000 0 0 1
-37.344547 26.918661 -22.478033 51.229791 -0.624562 2.025024 0.103735 -0.029017 71610.600000 0 0 1
37.817008 25.928361 -22.877533 51.242439 0.601014 2.033598 0.097033 -0.029037 -123770.000000 0 0 1
36.913108 26.465561 -23.958433 51.351826 0.622024 2.056188 0.096852 -0.038998 -911216.000000 0 0 1
37.579438 26.811061 -25.154473 52.571805 0.619696 2.069717 0.122599 -0.040749 -286857.000000 0 0 1
36.676938 27.198461 -26.147373 52.617860 0.638083 2.090853 0.111508 -0.038208 -391045.000000 0 0 1
37.339718 27.411961 -27.466123 53.852187 0.633262 2.106014 0.099317 -0.037369 -245826.000000 0 0 1
37.917578 26.277161 -28.071633 54.002301 0.606017 2.117440 0.089129 -0.029767 -291781.000000 0 0 1
-37.537997 26.777661 -29.182433 54.568844 -0.619628 2.135046 0.065959 -0.021081 -1086430.000000 0 0 1
-36.999777 25.569161 -29.981133 54.052140 -0.604702 2.158763 0.056641 -0.018869 35387.500000 0 0 1
-35.984697 24.778361 -29.414233 52.669372 -0.603021 2.163336 0.070132 -0.018342 34945.400000 0 0 1
-34.701952 25.349661 -29.618223 52.192623 -0.630902 2.174237 0.060060 -0.010754 440004.000000 0 0 1
-33.498297 24.688061 -28.859343 50.640872 -0.635126 2.177159 0.076695 -0.019316 -283222.000000 0 0 1
-33.208497 23.366961 -29.196103 50.012314 -0.613167 2.194171 0.086167 -0.017098 167197.000000 0 0 1
-33.616097 22.402161 -28.242563 49.290376 -0.587826 2.180938 0.057244 -0.006408 240783.000000 0 0 1
-33.075607 20.998461 -28.758643 48.600316 -0.565660 2.204009 0.068795 -0.014196 326304.000000 0 0 1
-31.691897 20.747961 -28.622303 47.477263 -0.579656 2.217881 0.114161 -0.019181 53254.000000 0 0 1
-31.438117 19.451761 -29.195323 47.107251 -0.554079 2.239237 0.093692 -0.016697 126308.000000 0 0 1
-29.945197 19.019461 -29.155223 45.918207 -0.565859 2.258725 0.115882 -0.017183 -166062.000000 0 0 1
-29.246167 19.612461 -30.217273 46.401191 -0.590720 2.279984 0.127928 -0.020880 -38357.700000 0 0 1
-28.073287 18.864861 -30.540273 45.570832 -0.591676 2.305236 0.123644 -0.023968 -15101.400000 0 0 1
-28.043587 17.505861 -31.301463 45.526690 -0.558051 2.328893 0.105570 -0.020323 -289226.000000 0 0 1
-28.818797 16.519361 -30.648873 45.196967 -0.520492 2.315995 0.074969 -0.006504 140837.000000 0 0 1
-28.500177 15.258961 -31.116423 44.870121 -0.491564 2.337101 0.049662 0.006832 104908.000000 0 0 1
-29.114887 14.062961 -30.286543 44.302576 -0.449968 2.323520 0.060022 0.013328 155349.000000 0 0 1
-30.526627 14.067561 -30.265693 45.230337 -0.431823 2.303855 0.059775 0.003884 44855.200000 0 0 1
-31.188207 12.825361 -30.038283 45.160742 -0.390145 2.298480 0.057600 0.002853 92197.500000 0 0 1
-30.890877 11.881461 -28.834413 43.895772 -0.367184 2.287474 0.046333 -0.015300 -415490.000000 0 0 1
-31.002857 12.586561 -27.645103 43.403345 -0.385651 2.261312 0.030296 -0.008967 218613.000000 0 0 1
-31.319117 11.802961 -26.511353 42.697176 -0.360401 2.240707 0.039202 -0.002593 -65.556200 0 0 1
-31.139777 12.555161 -25.161443 41.957312 -0.383251 2.213912 0.030442 -0.011989 -124936.000000 0 0 1
-29.790017 12.852761 -24.875133 40.882892 -0.407317 2.224900 0.026467 -0.010403 -231424.000000 0 0 1
-29.623397 13.447861 -23.580633 40.180056 -0.426143 2.197989 0.025210 -0.000541 -194021.000000 0 0 1
-28.167477 13.449761 -23.124533 38.846453 -0.445480 2.208411 0.042925 0.000499 -215224.000000 0 0 1
-27.182267 14.246361 -23.791733 38.831444 -0.482745 2.230259 0.065728 0.001397 868411.000000 0 0 1
-25.894117 14.240261 -23.184533 37.560790 -0.502799 2.236043 0.060872 -0.005765 503645.000000 0 0 1
-25.717347 15.152361 -21.926433 37.037069 -0.532432 2.204351 0.070508 -0.011997 -860868.000000 0 0 1
-25.859797 16.519961 -22.165933 37.854548 -0.568481 2.196361 0.093873 -0.019171 162914.000000 0 0 1
-26.262207 17.173661 -20.994433 37.754528 -0.579133 2.160455 0.094223 -0.016575 507581.000000 0 0 1
-27.786497 17.265261 -20.658233 38.690325 -0.555973 2.134047 0.083142 -0.014304 437607.000000 0 0 1
-28.456707 16.044561 -20.423133 38.526828 -0.513394 2.129517 0.075728 -0.010823 64173.600000 0 0 1
-29.700077 16.245261 -19.776033 39.205798 -0.500519 2.099502 0.062605 -0.006163 -128029.000000 0 0 1
-30.606177 14.969961 -19.866333 39.439942 -0.454902 2.098686 0.043060 -0.008884 821673.000000 0 0 1
-31.418587 14.854561 -21.070733 40.641868 -0.441648 2.115832 0.034856 -0.003178 381810.000000 0 0 1
-32.525407 15.672961 -21.276733 41.907555 -0.449037 2.103317 0.029706 -0.008911 -501851.000000 0 0 1
-32.948357 15.694061 -22.769833 43.015847 -0.444527 2.128614 0.024424 0.005793 -221255.000000 0 0 1
-33.604257 14.564361 -23.343033 43.431140 -0.408971 2.138233 0.041112 -0.003413 303255.000000 0 0 1
-33.898717 14.839861 -24.687733 44.484027 -0.412638 2.159135 0.050778 -0.009233 558529.000000 0 0 1
-35.278069 14.354361 -25.342573 45.747523 -0.386434 2.157917 0.043776 -0.011514 1252490.000000 0 0 1
-35.418708 12.942761 -25.529033 45.538242 -0.350347 2.165914 0.059162 -0.016939 49622.700000 0 0 1
-35.525909 12.142961 -24.348433 44.748049 -0.329356 2.146140 0.057309 -0.019543 -327707.000000 0 0 1
-35.610968 10.606461 -24.538533 44.528392 -0.289476 2.154450 0.064406 -0.025338 -135742.000000 0 0 1
-36.815257 10.157161 -25.101333 45.701291 -0.269198 2.152260 0.070609 -0.022594 -294847.000000 0 0 1
-36.693627 8.889061 -25.749433 45.699792 -0.237672 2.169349 0.078320 -0.015509 51487.600000 0 0 1
38.038088 8.393161 -26.163063 46.923844 0.217172 2.162245 0.104628 -0.018334 144165.000000 0 0 1
37.132508 7.907161 -25.194063 45.564100 0.209811 2.156681 0.088871 -0.014632 288109.000000 0 0 1
36.165298 7.029661 -25.773533 44.962428 0.191982 2.181231 0.106304 -0.016806 104717.000000 0 0 1
35.266578 6.353961 -24.776133 43.565596 0.178257 2.175731 0.118960 -0.024701 -225086.000000 0 0 1
36.037698 5.512361 -23.960933 43.626003 0.151784 2.152245 0.101710 -0.025611 193247.000000 0 0 1
35.234338 4.631261 -23.204833 42.442566 0.130692 2.149256 0.104077 -0.016427 427052.000000 0 0 1
36.104398 3.579961 -22.427433 42.653645 0.098833 2.124456 0.078983 -0.007985 286810.000000 0 0 1
36.811928 2.676061 -23.237433 43.614879 0.072568 2.132687 0.096164 -0.013427 -190508.000000 0 0 1
37.678378 1.948761 -22.428633 43.891929 0.051675 2.107140 0.129481 -0.014634 -405448.000000 0 0 1
-37.780507 0.777961 -23.192033 44.337821 -0.020589 2.121252 0.144107 -0.012093 47677.900000 0 0 1
37.490778 -0.273839 -23.637533 44.321173 -0.007304 2.133321 0.127518 -0.012857 -15988.800000 0 0 1
-37.869107 -1.370539 -24.035533 44.873762 0.036176 2.136045 0.142419 -0.019552 173432.000000 0 0 1
-23.804147 28.659861 26.794956 45.891118 -0.877688 0.947295 0.098025 -0.031587 -852938.000000 0 0 1
-25.095257 29.214961 26.665416 46.843679 -0.861108 0.965212 0.081619 -0.033546 516826.000000 0 0 1
-25.649927 28.951961 25.360206 46.252296 -0.845799 0.990464 0.078257 -0.032236 -4813.790000 0 0 1
-26.160147 27.494761 25.100376 45.501034 -0.810267 0.986462 0.070690 -0.027073 -403448.000000 0 0 1
-27.381837 27.156561 25.748196 46.370394 -0.781268 0.982106 0.093960 -0.025961 338496.000000 0 0 1
-27.329747 26.803861 27.161356 46.937206 -0.775684 0.953694 0.107065 -0.026181 -760443.000000 0 0 1
-26.635997 25.433161 27.518546 45.973823 -0.762302 0.929082 0.092017 -0.022117 -441706.000000 0 0 1
-25.259987 25.307861 27.691016 45.225514 -0.786345 0.911846 0.083131 -0.015187 -775711.000000 0 0 1
-24.976967 25.784461 28.965016 46.126559 -0.801304 0.891884 0.082242 -0.016258 -479453.000000 0 0 1
-23.534547 25.528661 29.441096 45.523242 -0.826020 0.867511 0.075656 -0.006738 -432169.000000 0 0 1
-22.549247 26.306161 28.768766 45.034704 -0.862146 0.877842 0.085710 -0.015833 42393.200000 0 0 1
-21.284247 26.243861 29.378686 44.775737 -0.889373 0.855118 0.117016 -0.019139 378335.000000 0 0 1
-20.397947 24.996561 29.029536 43.400671 -0.886357 0.838105 0.102383 -0.013041 -407714.000000 0 0 1
-19.926447 24.850661 27.686746 42.203964 -0.894930 0.855260 0.100045 -0.010777 97288.000000 0 0 1
-20.558047 23.909161 26.800826 41.383156 -0.860617 0.866331 0.095377 -0.011389 3327.140000 0 0 1
-20.381947 22.399661 27.083986 40.628942 -0.832526 0.841134 0.093202 -0.006106 343067.000000 0 0 1
-21.095047 21.982761 28.248166 41.547583 -0.806002 0.823171 0.072351 -0.007116 228168.000000 0 0 1
-20.778947 20.626661 28.387476 40.780787 -0.781720 0.800846 0.080119 -0.011918 304992.000000 0 0 1
-21.296747 19.951261 29.693576 41.633072 -0.752790 0.776714 0.081365 -0.015124 -483655.000000 0 0 1
-20.443847 20.196461 30.723006 42.068409 -0.779311 0.752020 0.077664 -0.023372 -441581.000000 0 0 1
-20.935647 19.703761 31.978516 43.001919 -0.755095 0.732278 0.062293 -0.018374 -223634.000000 0 0 1
-20.087747 20.157461 33.158252 43.695658 -0.787130 0.709258 0.067054 -0.019187 -389682.000000 0 0 1
-20.172747 21.538261 33.503926 44.646943 -0.818124 0.722100 0.049719 -0.010762 43269.400000 0 0 1
-19.377447 22.478861 32.772245 44.213173 -0.859360 0.735892 0.073243 -0.005484 -292414.000000 0 0 1
-17.960047 22.693361 33.325951 44.138090 -0.901307 0.715084 0.077905 0.002951 -674308.000000 0 0 1
-17.168347 21.596561 33.175806 43.148554 -0.899138 0.693718 0.089584 -0.017731 202365.000000 0 0 1
-15.781747 21.922861 33.427666 42.977718 -0.946855 0.679653 0.081023 -0.023819 310151.000000 0 0 1
-14.838247 20.753561 33.072488 41.769287 -0.950092 0.657063 0.084132 -0.034774 414786.000000 0 0 1
-13.491447 20.962461 33.503156 41.760093 -0.998933 0.639697 0.073023 -0.029464 478332.000000 0 0 1
-13.272747 20.866861 -32.520233 40.855321 -1.004277 2.491430 0.081011 -0.036744 -566123.000000 0 0 1
-11.821747 20.511861 -32.143883 39.921415 -1.047958 2.506773 0.076675 -0.030184 120308.000000 0 0 1
-10.915147 21.574561 -32.390293 40.419466 -1.102419 2.500351 0.076215 -0.028505 656863.000000 0 0 1
-9.649147 21.245761 -31.771933 39.420098 -1.144482 2.508131 0.076695 -0.026295 1270210.000000 0 0 1
-8.558247 22.406761 -31.813103 39.841939 -1.205947 2.495567 0.083999 -0.026005 624667.000000 0 0 1
-8.603047 23.481761 -30.881973 39.737914 -1.219612 2.460907 0.080534 -0.025517 -161555.000000 0 0 1
-8.060547 23.247861 -29.618253 38.505537 -1.237045 2.448376 0.065059 -0.023242 -48692.800000 0 0 1
-7.573647 24.491761 -28.845073 38.590734 -1.270891 2.415028 0.081748 -0.025802 450786.000000 0 0 1
-6.443647 25.185561 -29.375713 39.227103 -1.320322 2.417141 0.090827 -0.023057 403122.000000 0 0 1
-6.000047 26.251061 -28.524123 39.226832 -1.346092 2.384970 0.119744 -0.018586 59912.500000 0 0 1
-4.574247 26.755261 -28.831053 39.597946 -1.401467 2.386335 0.111691 -0.030340 -586266.000000 0 0 1
-3.567047 25.837261 -28.441743 38.590422 -1.433605 2.399440 0.110485 -0.014504 560743.000000 0 0 1
-2.258747 26.146461 -28.923333 39.055071 -1.484622 2.404727 0.140208 -0.018747 893675.000000 0 0 1
-1.518647 27.510361 -28.721363 39.800037 -1.515650 2.376967 0.148498 -0.034672 -683380.000000 0 0 1
-0.945447 27.666261 -27.450783 38.985399 -1.536636 2.351993 0.152914 -0.049262 -174596.000000 0 0 1
-0.007747 28.695061 -27.501123 39.745671 -1.570526 2.334952 0.152753 -0.047299 -810533.000000 0 0 1
0.795553 28.799761 -26.124433 38.891453 1.543180 2.307334 0.162156 -0.059649 326586.000000 0 0 1
1.784353 27.822061 -25.941493 38.081650 1.506750 2.320207 0.190644 -0.063951 373643.000000 0 0 1
2.945053 27.887561 -26.752533 38.756773 1.465582 2.332655 0.165280 -0.056488 367648.000000 0 0 1
4.322153 28.013061 -26.000453 38.463439 1.417713 2.313088 0.158492 -0.064467 594141.000000 0 0 1
4.625453 26.896561 -25.157773 37.117831 1.400490 2.315537 0.148450 -0.055179 -58015.400000 0 0 1
5.822053 27.053061 -24.443633 36.922292 1.358821 2.294319 0.105834 -0.046779 -120881.000000 0 0 1
6.324153 25.891861 -23.575533 35.583552 1.331234 2.295001 0.122978 -0.042454 1434430.000000 0 0 1
7.582253 26.125961 -22.858133 35.532389 1.288337 2.269603 0.114042 -0.043937 956859.000000 0 0 1
8.069153 24.996461 -22.214433 34.400804 1.258545 2.272806 0.118439 -0.045689 -1282410.000000 0 0 1
9.528653 24.950161 -21.936133 34.561535 1.205984 2.258414 0.111640 -0.022203 -1886780.000000 0 0 1
9.894253 25.707161 -20.770333 34.498712 1.203389 2.216876 0.110693 -0.028444 1981830.000000 0 0 1
11.341753 25.907861 -20.571933 34.972233 1.158157 2.199672 0.123870 -0.032221 2078100.000000 0 0 1
12.107953 24.704461 -20.020733 34.025618 1.115090 2.199877 0.089054 -0.014871 -553623.000000 0 0 1
12.087253 23.619661 -20.870733 33.757630 1.097797 2.237314 0.077101 -0.017755 219359.000000 0 0 1
13.020153 22.598461 -20.517033 33.183783 1.048097 2.237355 0.067879 -0.009176 -99530.800000 0 0 1
13.016253 21.328961 -21.441333 32.925343 1.022865 2.279975 0.074136 -0.014439 840294.000000 0 0 1
11.743253 20.614961 -21.483133 32.006337 1.052994 2.306643 0.082658 -0.021522 1138030.000000 0 0 1
11.546153 19.686461 -22.534633 32.073043 1.040361 2.349846 0.109240 -0.024290 -255286.000000 0 0 1
10.891353 20.249761 -23.807733 33.098075 1.077328 2.373603 0.119897 -0.024413 -1108930.000000 0 0 1
9.511153 20.256661 -23.672233 32.575589 1.131819 2.384282 0.110734 -0.025853 -1008350.000000 0 0 1
9.053553 20.492561 -24.991733 33.563352 1.154785 2.410752 0.114129 -0.038580 215729.000000 0 0 1
7.526453 20.221461 -25.263803 33.223707 1.214482 2.434748 0.109457 -0.045521 923420.000000 0 0 1
6.604553 21.236661 -24.897733 33.384323 1.269281 2.412518 0.121914 -0.047193 176036.000000 0 0 1
6.506753 21.576161 -23.497333 32.557537 1.277899 2.377076 0.123361 -0.043729 -312410.000000 0 0 1
4.989253 21.665961 -23.142933 32.092084 1.344461 2.376245 0.137755 -0.041892 406975.000000 0 0 1
4.428653 22.839761 -23.769133 33.260177 1.379272 2.366909 0.138122 -0.044250 -109421.000000 0 0 1
3.090553 23.066961 -23.377233 32.986834 1.437608 2.358427 0.152720 -0.041199 28257.400000 0 0 1
2.580653 24.292861 -24.228733 34.406894 1.464962 2.352067 0.147500 -0.033758 -247699.000000 0 0 1
1.203453 24.166361 -24.480633 34.420382 1.521039 2.362035 0.179798 -0.053698 -320451.000000 0 0 1
0.748253 24.903261 -25.570333 35.701180 1.540759 2.369184 0.175631 -0.040766 -397805.000000 0 0 1
-0.761247 24.828561 -25.776603 35.797629 -1.540146 2.374692 0.183785 -0.038669 -458251.000000 0 0 1
-1.223947 23.584261 -26.139373 35.227578 -1.518946 2.406867 0.181785 -0.042192 -214781.000000 0 0 1
-2.611647 23.564961 -26.405543 35.487756 -1.460419 2.409945 0.178431 -0.029917 -31152.100000 0 0 1
-3.106547 22.253761 -26.968283 35.102262 -1.432096 2.446942 0.170506 -0.033335 -115624.000000 0 0 1
-2.588447 21.911961 -28.249543 35.845094 -1.453212 2.478514 0.201183 -0.048836 152054.000000 0 0 1
-3.249947 20.779161 -28.773933 35.640916 -1.415649 2.510407 0.153718 -0.043055 93738.000000 0 0 1
-4.485647 20.872761 -29.676613 36.558098 -1.359112 2.517966 0.130280 -0.032650 -12767.200000 0 0 1
-4.220147 21.225161 -31.048943 37.846453 -1.374528 2.532893 0.126202 -0.035165 209108.000000 0 0 1
-3.646447 22.526261 -31.309943 38.743278 -1.410313 2.511781 0.146892 -0.033126 252463.000000 0 0 1
-3.051647 22.613461 -32.754073 39.918799 -1.436658 2.533112 0.116924 -0.023388 583647.000000 0 0 1
-1.850747 21.872061 -32.983153 39.619449 -1.486380 2.554400 0.111348 -0.021296 803218.000000 0 0 1
-1.289447 21.965161 33.138932 39.778384 -1.512159 0.586127 0.107785 -0.010518 201176.000000 0 0 1
-0.204547 20.938461 32.785105 38.901467 -1.561028 0.568382 0.117701 -0.008785 5966.900000 0 0 1
-0.663347 19.611261 32.490494 37.956209 -1.536984 0.543315 0.103905 0.002250 421268.000000 0 0 1
0.376453 18.909761 31.786759 36.988090 1.550891 0.536744 0.109656 -0.014539 335739.000000 0 0 1
0.029453 17.528661 31.284256 35.860278 1.569116 0.510720 0.102624 -0.018967 -164871.000000 0 0 1
-0.879047 17.552861 30.220126 34.959000 -1.520758 0.526751 0.082094 -0.009455 -73265.200000 0 0 1
-1.587547 16.324961 30.131656 34.306579 -1.473855 0.498490 0.083006 -0.010409 -78416.300000 0 0 1
-2.762447 16.254761 29.144746 33.485289 -1.402458 0.514834 0.083143 -0.007958 -214149.000000 0 0 1
-4.006647 16.722861 29.590706 34.224512 -1.335638 0.526431 0.058208 -0.010962 -348602.000000 0 0 1
-4.244147 18.120261 29.368546 34.768781 -1.340723 0.564826 0.058602 -0.008890 -229257.000000 0 0 1
-5.729647 18.430061 29.602586 35.338493 -1.269383 0.577763 0.041801 -0.015319 10932.800000 0 0 1
-6.593747 17.838661 28.694926 34.425196 -1.216740 0.585304 0.025410 -0.007499 -103495.000000 0 0 1
-7.939047 18.305561 28.712846 34.964976 -1.161583 0.607305 0.035880 -0.016284 733992.000000 0 0 1
-8.848547 17.668761 27.566566 33.917510 -1.106507 0.621934 0.031428 -0.021330 403919.000000 0 0 1
-9.246847 16.324361 27.714236 33.467414 -1.055415 0.595093 0.043649 -0.032613 -16501.300000 0 0 1
-10.121147 16.067461 28.796586 34.494120 -1.008670 0.582980 0.050143 -0.031088 -624525.000000 0 0 1
-10.530147 14.591161 29.029226 34.153798 -0.945668 0.554895 0.048385 -0.029539 144650.000000 0 0 1
-9.552447 13.581761 29.291296 33.670365 -0.957840 0.515710 0.052898 -0.019883 88863.000000 0 0 1
-8.864747 13.478261 30.553496 34.550881 -0.989022 0.485794 0.045495 -0.022682 -12246.900000 0 0 1
-9.623547 13.094461 31.842805 35.749711 -0.937008 0.471881 0.077380 -0.029876 -297980.000000 0 0 1
-10.094147 11.772461 31.907387 35.476246 -0.862000 0.452398 0.083074 -0.018265 184822.000000 0 0 1
-10.610647 11.504061 33.203066 36.706578 -0.825775 0.440465 0.085345 -0.011932 79931.500000 0 0 1
-11.029147 10.072861 33.464646 36.646789 -0.740112 0.419808 0.091272 -0.016485 -386879.000000 0 0 1
-9.886647 9.274361 33.543756 36.179319 -0.753454 0.384055 0.092622 -0.022402 -239860.000000 0 0 1
-10.036347 8.352261 -32.900353 35.396635 -0.694070 2.763788 0.141997 -0.035701 -214623.000000 0 0 1
-9.224947 8.653661 -31.641093 34.075567 -0.753455 2.761302 0.117000 -0.041255 -100272.000000 0 0 1
-9.619647 9.918161 -31.137183 34.065110 -0.800676 2.723954 0.112843 -0.043188 1500.110000 0 0 1
-8.568047 10.581761 -30.466143 33.370211 -0.890169 2.721311 0.110729 -0.044996 105347.000000 0 0 1
-7.848547 11.690261 -31.281813 34.304719 -0.979541 2.718639 0.068018 -0.037754 -129963.000000 0 0 1
-8.366247 12.980061 -31.236473 34.845277 -0.998265 2.682452 0.065488 -0.034633 -17073.100000 0 0 1
-7.470647 13.950161 -31.755933 35.480373 -1.079135 2.679291 0.045991 -0.027456 226425.000000 0 0 1
-8.225547 15.281961 -31.993823 36.397839 -1.077017 2.644564 0.055491 -0.020827 225505.000000 0 0 1
-8.973647 15.377461 -33.195463 37.668706 -1.042554 2.649292 0.071823 -0.026942 68816.400000 0 0 1
-9.084247 16.695161 -33.590743 38.595207 -1.072475 2.626678 0.090187 -0.026583 -1555950.000000 0 0 1
-9.655747 16.996361 32.513267 37.937083 -1.054158 0.541316 0.084721 -0.035052 906945.000000 0 0 1
-10.998447 16.623861 32.170564 37.845261 -0.986305 0.554706 0.074776 -0.037636 515794.000000 0 0 1
-12.021147 17.027361 33.056835 39.079321 -0.956062 0.562563 0.081404 -0.048102 -1736530.000000 0 0 1
-13.359147 16.696661 32.428697 38.844120 -0.895989 0.582951 0.104575 -0.053679 -870124.000000 0 0 1
-13.565747 15.333361 32.356001 38.289062 -0.846487 0.564146 0.100482 -0.048435 665007.000000 0 0 1
-14.852247 15.024561 32.913304 39.110258 -0.791166 0.570647 0.096014 -0.038050 558927.000000 0 0 1
-15.218047 13.496561 32.927792 38.703819 -0.725518 0.553360 0.096882 -0.030579 53933.300000 0 0 1
-15.219347 12.788861 31.672254 37.394053 -0.698837 0.560506 0.083467 -0.039685 215254.000000 0 0 1
-13.927947 12.558661 31.128626 36.341423 -0.733747 0.542229 0.077014 -0.015273 64974.300000 0 0 1
-13.858047 11.991661 29.698046 34.897268 -0.713322 0.552884 0.084772 -0.012394 34134.800000 0 0 1
-14.465847 10.719461 29.558366 34.610180 -0.637728 0.547100 0.081015 -0.004118 73593.400000 0 0 1
-13.970847 10.249561 28.364626 33.238383 -0.632948 0.548381 0.066130 -0.005158 -71055.600000 0 0 1
-14.739247 9.037161 27.859916 32.788574 -0.550022 0.555411 0.086134 0.000996 30404.500000 0 0 1
-14.291147 7.814061 28.379546 32.721477 -0.500365 0.521031 0.054178 0.006639 106510.000000 0 0 1
-15.129047 6.767261 27.908136 32.458403 -0.420608 0.535894 0.075916 0.013481 227383.000000 0 0 1
-14.570347 5.359161 28.259326 32.242908 -0.352455 0.502355 0.076816 0.010122 561207.000000 0 0 1
-13.639547 4.876761 27.257436 30.867262 -0.343381 0.488467 0.071457 -0.001118 489611.000000 0 0 1
-14.235547 4.500761 26.015836 29.995523 -0.306219 0.520996 0.074835 0.000308 222667.000000 0 0 1
-13.172147 4.376761 24.857956 28.470677 -0.320797 0.509256 0.068347 0.005248 460072.000000 0 0 1
-12.466747 3.147061 24.835996 27.966953 -0.247270 0.477715 0.057014 -0.000033 78536.100000 0 0 1
-11.969847 2.769861 23.559276 26.570451 -0.227401 0.480699 0.053780 0.000397 -21447.800000 0 0 1
-11.064347 1.505861 23.620436 26.126852 -0.135269 0.441604 0.047646 -0.005863 -261979.000000 0 0 1
-9.779747 1.848961 24.060046 26.037433 -0.186855 0.392238 0.053032 -0.011852 -42051.900000 0 0 1
-8.941947 0.719261 24.333246 25.934198 -0.080264 0.353206 0.054663 -0.011476 52783.600000 0 0 1
-7.444547 1.033261 24.428836 25.558892 -0.137913 0.298474 0.079892 -0.014521 -327374.000000 0 0 1
-6.930347 1.204161 23.133656 24.179449 -0.172034 0.295184 0.078464 -0.013424 349562.000000 0 1 0
-5.508847 1.298861 23.078126 23.762036 -0.231548 0.240503 0.064623 -0.009566 954899.000000 0 1 0
-4.766447 2.696261 23.210516 23.847786 -0.514798 0.231699 0.081640 -0.019384 32260.600000 0 1 0
-4.600247 3.098161 24.529546 25.148748 -0.592703 0.222366 0.084611 -0.023413 -17934.900000 0 0 1
-3.968947 4.324061 24.708706 25.396263 -0.828193 0.233222 0.077937 -0.030982 -249961.000000 0 0 1
5.487953 -23.724739 13.072067 27.638013 -1.343477 1.078133 0.156346 -0.043670 53585.100000 0 0 1
4.857053 -24.928539 13.380867 28.706630 -1.378368 1.085891 0.192952 -0.058659 1080900.000000 0 0 1
3.413353 -24.721139 13.304967 28.280874 -1.433590 1.080986 0.192916 -0.058685 1577270.000000 0 0 1
2.576453 -25.942889 13.713267 29.457177 -1.471808 1.086560 0.179032 -0.060106 -95409.500000 0 0 1
2.616253 -26.086749 15.102167 30.256217 -1.470840 1.048187 0.201797 -0.057543 -72499.800000 0 0 1
1.926753 -27.242419 15.548767 31.426516 -1.500188 1.053231 0.204624 -0.060014 -59304.100000 0 0 1
1.698953 -27.171469 17.058267 32.127241 -1.508351 1.011064 0.190491 -0.066206 340500.000000 0 0 1
2.866953 -26.855599 17.820867 32.357780 -1.464445 0.987540 0.215876 -0.058810 310299.000000 0 0 1
2.500453 -26.329489 19.050467 32.594701 -1.476113 0.946576 0.204054 -0.061578 487850.000000 0 0 1
3.695453 -25.713619 19.829067 32.680858 -1.428058 0.918832 0.170727 -0.055166 560877.000000 0 0 1
3.146853 -24.822839 20.789767 32.531376 -1.444697 0.877510 0.162615 -0.048782 716512.000000 0 0 1
4.233653 -24.168939 21.436167 32.581754 -1.397387 0.852744 0.130333 -0.047077 458547.000000 0 0 1
3.738453 -22.914639 22.178467 32.108271 -1.409074 0.808284 0.132945 -0.049738 -56129.400000 0 0 1
3.181653 -21.885139 21.356567 30.743864 -1.426428 0.802848 0.148431 -0.048562 137509.000000 0 0 1
4.076953 -21.106939 20.585067 29.763558 -1.379989 0.807067 0.136819 -0.035106 -67601.700000 0 0 1
3.310453 -19.981039 19.856567 28.363432 -1.406608 0.795292 0.095928 -0.038273 158924.000000 0 0 1
2.961353 -18.888839 20.716667 28.191100 -1.415284 0.745328 0.058351 -0.041822 218747.000000 0 0 1
2.096253 -18.012739 19.974967 26.978739 -1.454941 0.737136 0.045587 -0.043295 288457.000000 0 0 1
1.755953 -16.695839 20.711567 26.660897 -1.466008 0.681146 0.065350 -0.044747 -27476.000000 0 0 1
2.884453 -15.911139 20.965767 26.477307 -1.391459 0.656982 0.020593 -0.007495 -352855.000000 0 0 1
2.420853 -14.652139 21.370367 26.023802 -1.407054 0.607311 0.042151 -0.004855 73501.100000 0 0 1
3.487053 -13.581339 21.219767 25.434048 -1.319472 0.583924 -0.010146 0.022651 -875002.000000 0 0 1
3.785453 -13.204639 19.905567 24.185197 -1.291608 0.604040 -0.030213 0.020883 714922.000000 0 1 0
2.723053 -12.780239 18.960067 23.026803 -1.360868 0.603435 -0.013512 0.016384 886630.000000 0 1 0
1.833253 -11.620139 19.340167 22.636928 -1.414321 0.546471 0.000679 0.003196 -725084.000000 0 1 0
2.304153 -10.317939 19.036167 21.774862 -1.351086 0.506955 0.006414 0.001140 -430972.000000 0 1 0
1.902653 -9.298839 19.998667 22.136738 -1.368970 0.443127 0.023143 -0.013096 1391850.000000 0 1 0
0.360153 -8.929939 19.918167 21.831328 -1.530487 0.421769 0.031968 -0.026502 1220280.000000 0 1 0
-0.077347 -8.012439 20.912467 22.395009 1.561143 0.365905 0.043878 -0.038612 -589734.000000 0 1 0
-1.469847 -7.871639 20.816467 22.303552 1.386195 0.367231 0.046878 -0.037416 -179152.000000 0 1 0
-2.125247 -7.148839 22.014067 23.243100 1.281832 0.326650 0.046799 -0.031911 -140387.000000 0 1 0
-2.568847 -8.113439 22.908867 24.438557 1.264166 0.355689 0.049556 -0.028361 -140466.000000 0 1 0
-2.513947 -7.507539 24.195167 25.457596 1.247676 0.316243 0.048768 -0.019599 -202159.000000 0 0 1
-2.902447 -8.401539 25.382567 26.893954 1.238166 0.336845 0.048878 -0.021373 549764.000000 0 0 1
-1.835547 -9.338239 25.592667 27.304881 1.376708 0.356016 0.046867 -0.021860 575746.000000 0 0 1
-2.075447 -10.080939 26.758467 28.669642 1.367755 0.367195 0.069746 -0.039015 258358.000000 0 0 1
-0.933747 -11.111439 27.021567 29.231850 1.486959 0.391369 0.080026 -0.044224 567864.000000 0 0 1
0.306653 -10.546839 27.423467 29.383267 -1.541729 0.367295 0.081991 -0.040615 -322168.000000 0 0 1
1.188153 -11.577939 27.717567 30.062001 -1.468532 0.397547 0.106846 -0.052841 -153492.000000 0 0 1
2.462453 -11.092539 28.449667 30.634811 -1.352347 0.379982 0.143192 -0.064962 373949.000000 0 0 1
2.112553 -10.650039 29.780167 31.697706 -1.374977 0.349613 0.141310 -0.073721 833901.000000 0 0 1
3.338653 -10.304239 30.450067 32.319197 -1.257462 0.341759 0.188015 -0.070007 919363.000000 0 0 1
3.065153 -9.996439 31.941467 33.609244 -1.273273 0.316349 0.181707 -0.076822 -393790.000000 0 0 1
2.491353 -11.056439 32.588067 34.502663 -1.349167 0.334700 0.182794 -0.071928 -201458.000000 0 0 1
2.275253 -10.876139 -33.453002 35.250114 -1.364574 2.820903 0.162982 -0.070454 -228185.000000 0 0 1
3.517153 -11.038439 -32.543302 34.543943 -1.262339 2.799588 0.142305 -0.046843 -503299.000000 0 0 1
4.481653 -10.028939 -32.765002 34.557346 -1.150547 2.818110 0.133693 -0.058514 22111.100000 0 0 1
4.853853 -9.380639 -31.568202 33.288251 -1.093300 2.818722 0.144952 -0.051534 -536463.000000 0 0 1
3.963653 -8.248339 -31.077902 32.397247 -1.122838 2.855224 0.140136 -0.033282 -439608.000000 0 0 1
3.972553 -7.085839 -31.864702 32.883879 -1.059826 2.891974 0.172310 -0.042643 335044.000000 0 0 1
3.129053 -6.078039 -31.316602 32.054065 -1.095369 2.926671 0.155702 -0.017993 171631.000000 0 0 1
3.295053 -4.801139 -32.133202 32.656561 -0.969320 2.962321 0.158829 -0.026497 20916.500000 0 0 1
2.724853 -4.925339 -33.386502 33.857677 -1.065475 2.974567 0.158913 -0.039487 -131822.000000 0 0 1
2.841553 -3.726539 33.339667 33.667416 -0.919332 0.139648 0.158399 -0.017238 -142419.000000 0 0 1
2.252853 -3.768139 31.947967 32.248206 -1.031945 0.136563 0.177150 -0.023597 965201.000000 0 0 1
0.820553 -3.834639 32.066867 32.305754 -1.359991 0.121686 0.169394 -0.030819 596099.000000 0 0 1
0.194453 -4.189939 30.843767 31.127662 -1.524420 0.135161 0.150179 -0.034231 425011.000000 0 0 1
-1.342247 -4.440739 30.902067 31.248352 1.277270 0.149012 0.131107 -0.035853 564793.000000 0 0 1
-2.057047 -3.228939 30.719967 30.957614 1.003567 0.123987 0.126674 -0.034163 -337107.000000 0 0 1
-3.375147 -3.504939 30.320467 30.708418 0.804261 0.159123 0.090329 -0.028889 191574.000000 0 0 1
-4.291647 -2.330339 29.827567 30.224700 0.497448 0.162285 0.068466 -0.015409 268408.000000 0 0 1
-4.194847 -2.002339 28.413867 28.791560 0.445350 0.162154 0.081272 -0.020601 -460039.000000 0 0 1
-5.256147 -1.186139 28.026967 28.540233 0.221949 0.189937 0.068950 -0.022767 -220331.000000 0 0 1
-5.243047 0.303561 28.474567 28.954838 -0.057833 0.182390 0.091957 -0.023029 -674333.000000 0 0 1
-6.481347 0.610161 29.032367 29.753294 -0.093864 0.220584 0.087454 -0.019442 -690763.000000 0 0 1
-6.713547 2.018261 28.963367 29.799693 -0.292030 0.237475 0.099607 -0.020462 -425371.000000 0 0 1
-8.082447 2.504661 29.462167 30.653198 -0.300504 0.279676 0.084139 -0.022003 -243153.000000 0 0 1
-9.062947 1.862961 28.674667 30.130452 -0.202734 0.312123 0.072413 -0.013608 -74019.000000 0 0 1
-10.321147 2.500361 28.824867 30.718900 -0.237677 0.352991 0.074220 -0.004305 250768.000000 0 0 1
-11.452347 2.012061 27.882467 30.209876 -0.173915 0.395098 0.072013 0.000565 91601.900000 0 0 1
-11.765147 0.694861 28.259167 30.618328 -0.058992 0.395123 0.064613 -0.002497 -48451.400000 0 0 1
-12.448847 0.027561 27.209767 29.922332 -0.002214 0.429086 0.062623 0.003122 -705740.000000 0 0 1
-12.608247 -1.513339 27.513467 30.302623 0.119456 0.432414 0.068322 -0.007353 54974.300000 0 0 1
-11.475547 -2.312739 27.845367 30.205983 0.198872 0.397971 0.062242 -0.010557 539804.000000 0 0 1
-10.309747 -2.262239 27.028967 29.016783 0.216004 0.372297 0.042465 -0.004223 -138596.000000 0 0 1
-10.315247 -2.807039 25.585667 27.729229 0.265692 0.395779 0.050021 -0.006574 -610541.000000 0 0 1
-11.170247 -2.177439 24.634467 27.136187 0.192518 0.432767 0.044554 -0.003394 427433.000000 0 0 1
-11.212947 -2.833439 23.375367 26.079999 0.247512 0.459454 0.042256 -0.003016 133288.000000 0 0 1
-9.988147 -2.479339 22.475967 24.720018 0.243310 0.429387 0.043710 -0.003177 1226400.000000 0 1 0
-8.702747 -2.802339 23.020167 24.769316 0.311522 0.378060 0.058752 -0.007664 51679.200000 0 1 0
-7.683347 -2.454739 22.145267 23.568462 0.309239 0.349294 0.051073 -0.008762 246836.000000 0 1 0
-6.215347 -2.590739 22.661967 23.641219 0.394930 0.288827 0.062252 -0.009256 801905.000000 0 1 0
-5.529647 -3.830839 22.687967 23.664238 0.605865 0.288243 0.056034 -0.010467 157345.000000 0 1 0
-6.097547 -4.819539 23.550167 24.799565 0.668864 0.318775 0.060494 -0.011396 -141054.000000 0 1 0
-5.673847 -6.289039 23.216567 24.713428 0.836778 0.349829 0.063100 -0.013847 -441601.000000 0 1 0
-6.375847 -6.979839 22.194267 24.123745 0.830591 0.402671 0.049159 -0.016645 -108772.000000 0 1 0
-6.141947 -6.485639 20.863867 22.695550 0.812609 0.404515 0.050693 -0.017618 -1102100.000000 0 1 0
-7.343247 -6.566239 19.970367 22.267787 0.729594 0.458251 0.056860 -0.015298 -1217900.000000 0 1 0
-8.139447 -5.444639 20.144567 22.398622 0.589561 0.452478 0.050508 -0.012743 -981402.000000 0 1 0
-8.954747 -5.292639 19.049067 21.704066 0.533807 0.499812 0.054877 -0.015281 -147820.000000 0 1 0
-9.721547 -3.943239 19.094667 21.786783 0.385340 0.502391 0.051575 -0.017931 769778.000000 0 1 0
-8.788847 -2.911839 18.778967 20.937341 0.319929 0.458059 0.043165 -0.017271 368892.000000 0 1 0
-9.518147 -1.713239 18.888967 21.220824 0.178090 0.473200 0.041110 -0.019060 343068.000000 0 1 0
-8.711247 -0.511539 18.339167 20.309420 0.058654 0.444122 0.030452 -0.010105 1187320.000000 0 1 0
-7.611047 -0.054539 19.205067 20.658306 0.007166 0.377325 0.033838 -0.001054 1250470.000000 0 1 0
-8.035447 0.760561 20.276367 21.823793 -0.094370 0.378839 0.058072 -0.001207 -153876.000000 0 1 0
-7.988347 2.280361 20.108767 21.757211 -0.278065 0.391770 0.053359 -0.008403 -167028.000000 0 1 0
-8.912347 2.706161 19.162667 21.306362 -0.294795 0.452431 0.040131 -0.016413 -225265.000000 0 1 0
-8.621347 4.005761 18.752367 21.024391 -0.434956 0.469192 0.032474 -0.014852 80501.200000 0 1 0
-9.431447 4.433861 17.502567 20.370350 -0.439455 0.537058 0.024354 -0.009323 -997966.000000 0 1 0
-10.774947 4.631961 17.763967 21.286453 -0.405999 0.583536 0.035883 -0.006353 -1092690.000000 0 1 0
-11.348147 5.438261 16.766067 20.963209 -0.446886 0.643859 0.032041 0.003279 -334491.000000 0 1 0
-11.150147 6.947461 16.980167 21.469026 -0.557219 0.658494 0.032829 0.009666 177967.000000 0 1 0
-9.809647 7.443461 16.894467 20.905916 -0.649103 0.629845 0.012742 0.009466 711168.000000 0 1 0
-9.943447 8.827261 16.658467 21.314249 -0.726004 0.673626 0.013554 -0.001982 530094.000000 0 1 0
-8.602547 9.615861 16.761167 21.151958 -0.840961 0.656035 0.014984 0.002737 385217.000000 0 1 0
-8.393447 10.086161 18.094567 22.351599 -0.876742 0.627424 0.027918 0.020786 -361464.000000 0 1 0
-7.694147 11.295561 18.183367 22.746966 -0.972823 0.644541 0.045679 0.007990 -24149.000000 0 1 0
-8.469347 12.585861 17.757267 23.354963 -0.978473 0.706989 0.052812 0.001091 193126.000000 0 1 0
-8.386247 12.808061 16.380667 22.421013 -0.991080 0.751604 0.049013 -0.018516 -435419.000000 0 1 0
-9.339647 13.756361 16.032367 23.097690 -0.974350 0.803612 0.071416 -0.033929 -439112.000000 0 1 0
-9.155547 14.570661 14.695967 22.629619 -1.009788 0.863984 0.076028 -0.033550 56729.400000 0 1 0
-7.971047 15.322861 14.542767 22.579188 -1.091115 0.870978 0.079547 -0.022241 -114313.000000 0 1 0
-7.791247 15.949661 13.253667 22.152989 -1.116399 0.929445 0.059754 -0.028338 -273960.000000 0 1 0
-6.658247 17.019961 13.311467 22.609876 -1.197897 0.941290 0.028499 -0.019233 -439578.000000 0 1 0
-5.414647 16.414761 13.416467 21.880685 -1.252171 0.910736 0.030478 -0.024792 -1635460.000000 0 1 0
-4.469247 17.439161 13.366467 22.422332 -1.319919 0.932133 0.027550 -0.027080 834778.000000 0 1 0
-2.986847 16.872061 13.327367 21.707290 -1.395582 0.909731 0.029860 -0.034127 676290.000000 0 1 0
-2.364747 16.405361 14.474767 22.005608 -1.427638 0.852934 0.031334 -0.032348 -299317.000000 0 1 0
-2.525347 15.051761 14.839167 21.286939 -1.404567 0.799449 0.028302 -0.029474 -264771.000000 0 1 0
-1.495947 14.632861 15.878167 21.644276 -1.468918 0.747197 0.027178 -0.015593 -1457780.000000 0 1 0
-0.178947 14.457761 15.550367 21.233766 -1.558420 0.749042 0.022636 -0.018892 -1145840.000000 0 1 0
0.620853 13.976861 16.629867 21.732248 1.526405 0.699419 0.029128 -0.000399 -310427.000000 0 1 0
1.490953 15.092361 17.181267 22.917204 1.472327 0.723172 0.025318 -0.010556 -884076.000000 0 1 0
0.812353 16.013461 17.928167 24.052235 1.520110 0.729685 0.025048 -0.020815 -539593.000000 0 1 0
1.696853 16.990161 18.425267 25.120417 1.471254 0.747372 0.045596 -0.022358 -475244.000000 0 0 1
0.946753 18.102561 19.192867 26.400099 1.518545 0.756854 0.059909 -0.025024 348531.000000 0 0 1
0.268053 19.087261 18.394067 26.509189 1.556754 0.803940 0.054498 -0.024681 211147.000000 0 0 1
-0.909747 18.617961 17.770867 25.753832 -1.521971 0.809268 0.054645 -0.025625 -764865.000000 0 0 1
-1.700947 19.708461 17.022667 26.097660 -1.484704 0.860224 0.058137 -0.021029 -413562.000000 0 0 1
-2.174747 20.729561 17.857767 27.447114 -1.466268 0.862390 0.060916 -0.027684 386.817000 0 0 1
-2.906647 21.620361 17.004067 27.659120 -1.437157 0.908699 0.072003 -0.028077 99029.200000 0 0 1
-3.926047 22.547161 17.711267 28.939200 -1.398399 0.912188 0.071709 -0.019250 14207.300000 0 0 1
-5.050347 21.926061 18.292667 28.997928 -1.344409 0.888178 0.088860 -0.023394 -290378.000000 0 0 1
-5.667947 22.850161 19.083067 30.305428 -1.327655 0.889640 0.091945 -0.010885 -620641.000000 0 0 1
-6.854847 22.352661 19.914167 30.711634 -1.273233 0.865284 0.074131 -0.025250 -362480.000000 0 0 1
-8.082147 22.596561 19.267867 30.776231 -1.227304 0.894302 0.070812 -0.024291 -635208.000000 0 0 1
-9.118347 21.915261 19.919967 30.987546 -1.176511 0.872599 0.040483 -0.022851 -497856.000000 0 0 1
-10.482247 22.269861 19.331267 31.297318 -1.130869 0.905026 0.055093 -0.024650 -368429.000000 0 0 1
-11.039547 23.492861 19.797267 32.645335 -1.131509 0.919227 0.073736 -0.020263 389457.000000 0 0 1
-12.071347 23.959161 18.918967 32.828130 -1.104089 0.956598 0.056770 -0.018830 362602.000000 0 0 1
-12.527047 25.417261 19.287267 34.277730 -1.112880 0.973177 0.067197 -0.022897 19075.900000 0 0 1
-13.354147 25.454961 20.429267 35.265326 -1.087648 0.952924 0.071033 -0.021044 93880.200000 0 0 1
-13.773547 26.771861 20.765767 36.574038 -1.095633 0.966998 0.071839 -0.023450 -72326.500000 0 0 1
-14.820747 26.762461 21.923767 37.636889 -1.065049 0.948986 0.092405 -0.033770 -494557.000000 0 0 1
-16.072147 26.316761 21.512267 37.598716 -1.022532 0.961666 0.085606 -0.033672 -1634720.000000 0 0 1
-17.001947 26.792661 22.366267 38.822195 -1.005341 0.956822 0.074550 -0.026993 -616816.000000 0 0 1
-18.406447 26.173061 22.148167 38.914878 -0.957886 0.965332 0.090416 -0.018785 73338.000000 0 0 1
-18.407247 24.842261 22.602867 38.299534 -0.933103 0.939539 0.103626 -0.024609 537556.000000 0 0 1
-19.731747 24.324661 22.806667 38.745000 -0.889274 0.941427 0.102744 -0.013004 777198.000000 0 0 1
29.070053 24.575161 23.481466 44.725672 0.701804 1.018068 0.094171 -0.026641 -81411.300000 0 0 1
29.233153 23.554261 24.438806 44.795487 0.678230 0.993734 0.097860 -0.027316 54550.400000 0 0 1
28.524253 22.412461 24.029546 43.512877 0.665981 0.985748 0.098976 -0.025133 -77167.200000 0 0 1
28.108253 21.446861 25.176866 43.404105 0.651775 0.951997 0.119451 -0.026263 -105853.000000 0 0 1
26.974853 21.947661 25.837566 43.323462 0.682999 0.931803 0.111858 -0.022514 -161887.000000 0 0 1
26.609453 21.191461 26.974366 43.413793 0.672535 0.900355 0.110530 -0.021429 187389.000000 0 0 1
25.184653 21.472561 27.510686 43.036908 0.706004 0.877294 0.128632 -0.020979 68612.500000 0 0 1
25.064753 22.729461 28.067446 43.961935 0.736576 0.878315 0.137775 -0.036865 -250772.000000 0 0 1
23.987853 22.736761 28.968076 43.949139 0.758629 0.851139 0.166666 -0.030933 -293204.000000 0 0 1
23.669653 24.127061 29.574366 44.911142 0.794968 0.851961 0.169468 -0.030797 -105407.000000 0 0 1
23.119353 24.996061 28.572416 44.448740 0.824383 0.872626 0.184805 -0.046275 123908.000000 0 0 1
22.897553 26.366261 28.885376 45.319340 0.855693 0.879711 0.172626 -0.049589 -500181.000000 0 0 1
21.638153 26.631361 29.722026 45.396452 0.888476 0.856982 0.187665 -0.050474 -31753.700000 0 0 1
20.403853 26.384061 29.029446 44.217017 0.912524 0.854598 0.175268 -0.052509 1374530.000000 0 0 1
19.261553 26.775561 29.830906 44.472700 0.947188 0.835551 0.161345 -0.048017 476500.000000 0 0 1
18.521053 25.688561 30.578516 44.022463 0.946125 0.802916 0.161759 -0.033043 -577729.000000 0 0 1
19.062553 25.231761 31.772735 44.827775 0.923786 0.783038 0.142806 -0.037794 -284345.000000 0 0 1
18.127953 24.499661 32.531048 44.577182 0.933773 0.752812 0.165029 -0.037102 87808.400000 0 0 1
18.653153 24.132561 -33.525153 45.323907 0.912771 2.403390 0.181969 -0.041996 19742.400000 0 0 1
18.692253 25.287861 -32.706373 45.371611 0.934257 2.375832 0.155911 -0.042629 220966.000000 0 0 1
18.990853 24.907661 -31.322153 44.295839 0.919375 2.356203 0.111435 -0.024116 24733.100000 0 0 1
18.945953 26.132561 -30.297163 44.269380 0.943492 2.324552 0.075223 -0.015164 54284.300000 0 0 1
17.633353 26.657361 -30.147063 43.936266 0.986392 2.326986 0.110940 -0.028068 459732.000000 0 0 1
17.594353 27.905861 -29.428023 44.207543 1.008259 2.299199 0.090844 -0.024686 -142498.000000 0 0 1
17.214853 27.913861 -27.935233 43.080298 1.018178 2.276337 0.106600 -0.023121 15574.000000 0 0 1
18.180653 27.244261 -27.145923 42.540417 0.982341 2.262851 0.077976 -0.006639 281034.000000 0 0 1
17.811853 27.364561 -25.789453 41.607418 0.993782 2.239320 0.088116 -0.009824 196091.000000 0 0 1
18.699353 26.536561 -24.796733 40.850127 0.956947 2.223098 0.088901 -0.015487 1402440.000000 0 0 1
20.073153 26.996561 -24.672033 41.718761 0.931439 2.203577 0.082942 -0.004145 869743.000000 0 0 1
20.699153 26.392161 -23.547933 40.981780 0.905707 2.182906 0.084743 -0.004490 681581.000000 0 0 1
22.247753 26.440561 -23.801033 41.958968 0.871302 2.173954 0.083665 -0.001947 408714.000000 0 0 1
22.992753 26.027561 -22.695033 41.486927 0.847228 2.149621 0.091110 -0.004276 -1103850.000000 0 0 1
24.318553 25.830061 -23.037733 42.300369 0.815530 2.146735 0.108658 -0.002652 -1049550.000000 0 0 1
25.164253 25.700861 -21.804333 42.061893 0.795947 2.115760 0.125841 -0.011010 -438058.000000 0 0 1
24.865753 24.457461 -21.281533 40.858007 0.777120 2.118661 0.138164 -0.020303 313058.000000 0 0 1
25.578753 24.205961 -20.044933 40.521605 0.757831 2.088255 0.143526 -0.027899 184332.000000 0 0 1
25.107953 23.059961 -19.041833 39.048208 0.742906 2.080192 0.135424 -0.027108 -338838.000000 0 0 1
25.477053 21.761861 -19.459633 38.747079 0.706913 2.096963 0.145058 -0.030730 274528.000000 0 0 1
25.275253 20.877561 -18.368633 37.578154 0.690400 2.081523 0.167866 -0.028403 -921680.000000 0 0 1
25.116553 19.426761 -18.781433 36.891496 0.658350 2.104934 0.173406 -0.037682 269357.000000 0 0 1
24.091153 19.148661 -19.730133 36.555889 0.671588 2.140907 0.143975 -0.037486 1310320.000000 0 0 1
22.743453 19.318061 -19.211533 35.489930 0.704140 2.142807 0.147805 -0.046213 215137.000000 0 0 1
21.676553 19.005761 -20.286733 35.251148 0.719842 2.184001 0.113233 -0.024234 -82478.500000 0 0 1
21.583853 19.908861 -21.404533 36.337026 0.745052 2.200686 0.106114 -0.021479 -112192.000000 0 0 1
21.485153 21.318261 -21.170533 36.936046 0.781499 2.181162 0.108311 -0.020122 -143335.000000 0 0 1
21.232153 22.127461 -22.408033 37.980900 0.806044 2.201832 0.102466 -0.017600 671253.000000 0 0 1
19.856353 21.899961 -22.711833 37.278820 0.834300 2.225901 0.106251 -0.015288 255006.000000 0 0 1
19.521053 22.465161 -23.987033 38.224766 0.855404 2.249168 0.102448 -0.010842 1071290.000000 0 0 1
17.993353 22.627161 -24.370433 37.810940 0.898983 2.271210 0.097724 -0.018252 714384.000000 0 0 1
17.447853 23.638661 -23.636633 37.708146 0.934951 2.248276 0.095330 -0.023667 539642.000000 0 0 1
16.013253 23.556261 -23.637533 37.014250 0.973765 2.263482 0.099057 -0.026918 865906.000000 0 0 1
15.326953 24.754861 -22.951233 37.073950 1.016415 2.238350 0.089827 -0.025170 -113384.000000 0 0 1
15.504453 26.020761 -23.554233 38.370170 1.033434 2.231748 0.082810 -0.015218 218604.000000 0 0 1
14.514253 26.955561 -23.148933 38.381492 1.076863 2.218213 0.105987 -0.017128 260869.000000 0 0 1
14.546853 28.303161 -23.847333 39.766508 1.096039 2.213902 0.101853 -0.020928 106673.000000 0 0 1
14.295253 28.226761 -25.259893 40.486621 1.102007 2.244529 0.105000 -0.035120 367688.000000 0 0 1
13.612053 29.396861 -25.773783 41.397480 1.137148 2.242848 0.128951 -0.043634 181520.000000 0 0 1
14.493753 30.669761 -25.847793 42.647527 1.129329 2.221919 0.128947 -0.043337 650294.000000 0 0 1
15.736853 30.512161 -26.530393 43.387813 1.094623 2.228715 0.109407 -0.031483 200210.000000 0 0 1
16.399253 31.693661 -26.790693 44.622471 1.093302 2.214780 0.105805 -0.036767 538908.000000 0 0 1
17.871553 31.641461 -27.327083 45.468054 1.056650 2.215570 0.106334 -0.019278 1088770.000000 0 0 1
18.812653 31.269961 -26.313723 44.990426 1.029186 2.195521 0.065892 -0.015311 391389.000000 0 0 1
20.123453 31.063361 -26.793573 45.692246 0.995955 2.197394 0.082273 -0.013511 318381.000000 0 0 1
21.135053 30.417061 -25.790353 45.133473 0.963540 2.179036 0.047187 -0.006210 269953.000000 0 0 1
21.720753 31.155261 -24.702133 45.306035 0.961967 2.147458 0.061545 -0.007921 772525.000000 0 0 1
22.654953 32.222361 -24.892333 46.595662 0.958005 2.134381 0.066452 -0.018672 1147300.000000 0 0 1
24.099753 31.852561 -25.420193 47.345221 0.923082 2.137568 0.067602 -0.011755 593447.000000 0 0 1
24.139353 31.412261 -26.753023 47.803376 0.915579 2.164756 0.059692 -0.005283 970355.000000 0 0 1
25.438853 31.547361 -27.372533 48.904262 0.892183 2.164840 0.055645 -0.002067 62454.600000 0 0 1
25.516853 30.921161 -28.821423 49.375119 0.880864 2.194103 0.053766 0.000880 -82672.900000 0 0 1
24.621553 31.515961 -29.729883 49.833148 0.907599 2.210040 0.077917 -0.017751 1096720.000000 0 0 1
23.268353 31.020361 -29.572753 48.767067 0.927232 2.222332 0.064574 -0.018182 596793.000000 0 0 1
22.228853 31.695161 -30.482603 49.273667 0.959176 2.237805 0.069083 -0.017545 -689155.000000 0 0 1
21.837353 33.035061 -30.222743 49.815655 0.986702 2.222689 0.098860 -0.029645 -33948.700000 0 0 1
20.836553 33.637361 -30.987993 50.258230 1.016200 2.235182 0.112081 -0.041402 520934.000000 0 0 1
19.373553 33.292261 -30.476863 49.117699 1.043774 2.240159 0.100400 -0.043011 483834.000000 0 0 1
18.879053 31.958961 -30.497113 48.040272 1.037222 2.258577 0.108922 -0.033395 203419.000000 0 0 1
18.845253 31.271261 -31.741443 48.379278 1.028439 2.286430 0.112939 -0.033359 -675652.000000 0 0 1
18.095853 31.772061 -32.983513 49.242623 1.053066 2.304758 0.119583 -0.041669 -564779.000000 0 0 1
18.772753 32.887561 -33.545873 50.589856 1.052112 2.295742 0.121128 -0.036580 -58214.100000 0 0 1
18.405353 33.450361 32.657640 50.241468 1.067777 0.863194 0.104398 -0.031514 421828.000000 0 0 1
16.912853 -33.678604 32.327485 49.652384 -1.105403 0.861795 0.109583 -0.033209 269563.000000 0 0 1
16.021253 32.690461 32.105237 48.539603 1.115108 0.848081 0.107674 -0.028824 1222540.000000 0 0 1
14.631253 33.103761 32.079016 48.363166 1.154630 0.845584 0.086456 -0.028877 1382950.000000 0 0 1
14.142853 -33.629604 30.751306 47.713870 -1.172703 0.870435 0.080091 -0.024423 -803550.000000 0 0 1
14.648653 -32.305504 30.541666 46.808354 -1.145084 0.859940 0.099823 -0.014732 377364.000000 0 0 1
14.122253 -31.683804 29.378886 45.457897 -1.151503 0.868087 0.083763 -0.019980 -308019.000000 0 0 1
14.739553 -30.282104 29.186596 44.565880 -1.117812 0.856734 0.089541 -0.018362 166029.000000 0 0 1
14.245653 -29.328504 30.131176 44.395805 -1.118632 0.824813 0.095728 -0.016048 493503.000000 0 0 1
14.941853 -28.141904 29.912836 43.703587 -1.082699 0.816950 0.114917 -0.031975 -3242.860000 0 0 1
14.379753 -27.098204 30.992106 43.607346 -1.082928 0.780292 0.104929 -0.032188 698328.000000 0 0 1
13.104953 -26.530604 30.695086 42.635678 -1.111996 0.767082 0.082992 -0.024038 228492.000000 0 0 1
12.930453 -25.648704 29.663166 41.291113 -1.103845 0.769310 0.085653 -0.024400 -357540.000000 0 0 1
13.206753 -24.159604 30.073276 40.773848 -1.070532 0.741342 0.109425 -0.028148 -82731.600000 0 0 1
12.201353 -23.686704 30.944056 40.834637 -1.095131 0.710878 0.095282 -0.028379 -24387.600000 0 0 1
12.363653 -22.415904 31.496421 40.587648 -1.066758 0.682481 0.103239 -0.030556 -116843.000000 0 0 1
11.280253 -22.111704 32.550575 40.935455 -1.099063 0.651511 0.098812 -0.028230 -441744.000000 0 0 1
11.237653 -22.863604 -33.708613 42.252808 -1.113965 2.494407 0.097777 -0.029665 439908.000000 0 0 1
12.441753 -23.075004 -32.950723 42.107044 -1.076292 2.469542 0.108612 -0.028529 808292.000000 0 0 1
13.104653 -21.798404 -32.296153 41.108927 -1.029513 2.474500 0.115152 -0.024674 -24098.700000 0 0 1
13.785153 -20.879304 -33.132383 41.517834 -0.987263 2.494812 0.104579 -0.028458 284370.000000 0 0 1
14.486053 -19.975304 -32.279553 40.630383 -0.943358 2.488928 0.116336 -0.036810 -267700.000000 0 0 1
15.017753 -18.847904 -33.155613 40.988670 -0.898018 2.513070 0.103888 -0.031222 -597202.000000 0 0 1
15.875553 -19.273904 33.254506 41.585800 -0.881781 0.644067 0.125830 -0.018004 341180.000000 0 0 1
15.856253 -18.423704 32.149619 40.304486 -0.860155 0.647377 0.105089 -0.015253 -60306.500000 0 0 1
16.899353 -17.276204 32.255617 40.304841 -0.796425 0.643015 0.103430 -0.014604 -631998.000000 0 0 1
16.719953 -16.255504 33.220806 40.588424 -0.771314 0.612036 0.098680 -0.017679 236747.000000 0 0 1
17.304553 -15.008604 32.903680 40.091868 -0.714464 0.608149 0.104103 -0.016263 126821.000000 0 0 1
18.802853 -14.814204 33.253009 40.972802 -0.667301 0.623932 0.094373 -0.013943 499584.000000 0 0 1
19.720353 -15.497504 32.375000 40.953700 -0.666061 0.659128 0.101924 -0.010567 874095.000000 0 0 1
21.074053 -15.152104 32.691600 41.742576 -0.623360 0.671046 0.097961 -0.011729 172838.000000 0 0 1
22.076953 -15.890904 31.848377 41.883550 -0.623889 0.706863 0.098568 -0.015519 -905650.000000 0 0 1
21.985753 -15.416704 30.558156 40.679835 -0.611540 0.720938 0.092299 -0.015601 -58209.900000 0 0 1
22.760553 -16.143004 29.683426 40.739970 -0.616909 0.754510 0.079490 -0.021565 -781790.000000 0 0 1
23.011153 -15.442904 28.298606 39.608175 -0.591069 0.774939 0.066918 -0.019029 -443008.000000 0 0 1
24.003053 -14.466304 28.396186 39.896916 -0.542392 0.778826 0.040971 -0.016366 69670.300000 0 0 1
24.394853 -13.872404 27.167686 39.059386 -0.517057 0.801614 0.045167 -0.022846 200200.000000 0 0 1
24.987253 -12.439504 27.348086 39.077127 -0.461913 0.795610 0.044469 -0.020324 89327.300000 0 0 1
23.998053 -11.472604 27.608056 38.337083 -0.445945 0.766793 0.047189 -0.024331 318683.000000 0 0 1
24.586553 -10.143804 27.774636 38.455503 -0.391300 0.763741 0.061019 -0.024178 391642.000000 0 0 1
23.581853 -8.968104 27.885966 37.605289 -0.363406 0.735428 0.075264 -0.022229 193096.000000 0 0 1
22.787753 -8.896104 29.073316 37.995790 -0.372194 0.699488 0.076084 -0.030836 -116387.000000 0 0 1
21.824453 -7.885804 28.876206 37.044945 -0.346731 0.676943 0.082787 -0.028621 -264423.000000 0 0 1
20.715553 -7.879104 29.933666 37.245654 -0.363450 0.637339 0.068191 -0.018044 -478524.000000 0 0 1
21.085253 -7.404404 31.172356 38.355298 -0.337712 0.621980 0.092404 -0.025395 15241.300000 0 0 1
21.462753 -8.470804 32.015801 39.464108 -0.375907 0.624486 0.104032 -0.026582 -293143.000000 0 0 1
21.474053 -8.132004 33.540096 40.647294 -0.362002 0.600329 0.123286 -0.032533 44828.200000 0 0 1
20.175953 -7.853604 -33.430343 39.828834 -0.371210 2.566883 0.107362 -0.037756 184297.000000 0 0 1
20.288553 -7.138004 -32.248863 38.762942 -0.338299 2.553411 0.120258 -0.044388 -11969.900000 0 0 1
18.904253 -6.667204 -31.764233 37.560470 -0.339063 2.578639 0.129452 -0.040242 73737.400000 0 0 1
19.045253 -5.787704 -30.654483 36.550192 -0.295024 2.565680 0.124809 -0.038138 46700.100000 0 0 1
17.863353 -5.762404 -29.901743 35.304658 -0.312044 2.581043 0.125603 -0.029775 -74841.000000 0 0 1
17.999553 -4.777504 -28.680593 34.196270 -0.259441 2.565698 0.112536 -0.028209 -358694.000000 0 0 1
18.591453 -5.219704 -27.485853 33.591063 -0.273712 2.529155 0.102718 -0.025805 174144.000000 0 0 1
18.016153 -6.318504 -26.734493 32.851764 -0.337310 2.521443 0.108175 -0.033019 453426.000000 0 0 1
16.597353 -6.075304 -26.106723 31.526852 -0.350893 2.546469 0.117223 -0.039375 555413.000000 0 0 1
16.435653 -4.984004 -25.218063 30.511009 -0.294430 2.543700 0.099080 -0.043620 146459.000000 0 0 1
15.086453 -4.957504 -24.763233 29.417607 -0.317490 2.571374 0.117061 -0.046784 388351.000000 0 0 1
14.893353 -3.785704 -23.751933 28.289536 -0.248916 2.567345 0.112165 -0.044453 38523.100000 0 0 1
14.986353 -2.465704 -24.269133 28.629727 -0.163069 2.582412 0.093550 -0.047095 191265.000000 0 0 1
14.444953 -1.590304 -23.283733 27.446638 -0.109653 2.583614 0.096353 -0.041378 -26212.600000 0 0 1
14.866553 -0.137304 -23.489033 27.798704 -0.009236 2.577303 0.081247 -0.043685 -98478.800000 0 0 1
14.204653 0.465696 -24.561333 28.376894 0.032773 2.617024 0.087075 -0.040625 2207.760000 0 0 1
14.720853 1.750696 -24.816233 28.906986 0.118370 2.603106 0.071843 -0.014521 -179533.000000 0 0 1
14.383753 2.419696 -26.168613 29.959032 0.166664 2.633101 0.058606 -0.007202 -794116.000000 0 0 1
13.121653 2.982696 -26.097133 29.362129 0.223513 2.665522 0.078411 -0.029157 -571017.000000 0 0 1
12.757553 3.643696 -27.315783 30.367477 0.278204 2.689438 0.084514 -0.028506 540935.000000 0 0 1
11.331753 4.297696 -27.258973 29.831702 0.362501 2.723238 0.093952 -0.034693 726602.000000 0 0 1
11.352153 5.644696 -26.837313 29.681229 0.461434 2.700263 0.066771 -0.034339 -546574.000000 0 0 1
10.060253 6.145696 -26.962723 29.427312 0.548388 2.729409 0.075149 -0.043805 -407386.000000 0 0 1
9.023753 5.364161 -31.110683 32.834082 0.536328 2.816158 0.082507 -0.036893 -91873.400000 0 0 1
8.882353 4.397161 -30.079973 31.670744 0.459675 2.823302 0.084557 -0.019900 380418.000000 0 0 1
8.735053 3.103761 -30.578613 31.952872 0.341409 2.847243 0.071577 -0.012112 -70053.700000 0 0 1
8.493553 2.022961 -29.504603 30.769375 0.233820 2.853879 0.080840 -0.016207 522097.000000 0 0 1
9.729553 1.626261 -28.907773 30.544529 0.165616 2.812742 0.092296 -0.028995 713277.000000 0 0 1
9.467553 0.575661 -28.000263 29.563164 0.060729 2.814977 0.110891 -0.040296 -461882.000000 0 0 1
10.634653 0.118361 -27.135143 29.144911 0.011129 2.768055 0.101320 -0.047437 -1239250.000000 0 0 1
11.677853 -0.256339 -27.947353 30.290139 -0.021947 2.745706 0.085985 -0.033021 -1280370.000000 0 0 1
12.710953 -0.761639 -27.171753 30.007542 -0.059848 2.703347 0.100329 -0.040921 -769468.000000 0 0 1
13.127653 -2.158139 -27.575873 30.617342 -0.162939 2.692087 0.098722 -0.038159 -202258.000000 0 0 1
12.167453 -3.186639 -27.420803 30.167897 -0.256146 2.711530 0.108178 -0.037111 131256.000000 0 0 1
12.788853 -4.404939 -27.651503 30.782525 -0.331709 2.686649 0.131682 -0.036006 15727.800000 0 0 1
11.946853 -5.559339 -27.059163 30.097040 -0.435537 2.688423 0.108676 -0.039234 113803.000000 0 0 1
11.802853 -5.411039 -25.630243 28.731447 -0.429860 2.672685 0.120164 -0.037224 -292550.000000 0 0 1
11.187753 -6.417439 -24.964133 28.099062 -0.520791 2.664716 0.119909 -0.041999 -460867.000000 0 0 1
11.173153 -6.233039 -23.454033 26.716695 -0.508857 2.642212 0.120225 -0.049913 -197751.000000 0 0 1
12.487553 -6.117939 -22.967033 26.848701 -0.455554 2.597166 0.124527 -0.049210 -220713.000000 0 0 1
12.459953 -6.133439 -21.537433 25.626754 -0.457430 2.568868 0.132287 -0.059113 -63598.900000 0 0 1
13.800153 -6.172939 -20.774433 25.692926 -0.420614 2.512508 0.140000 -0.056147 -97860.700000 0 0 1
14.400053 -4.927839 -20.661033 25.661711 -0.329718 2.506692 0.124781 -0.058130 -685114.000000 0 0 1
15.620853 -5.006639 -19.996733 25.864006 -0.310165 2.454588 0.131349 -0.047576 -474659.000000 0 0 1
16.170153 -3.691139 -19.432833 25.548647 -0.224423 2.435065 0.141102 -0.037565 -119377.000000 0 0 1
16.675553 -2.863539 -20.487733 26.571058 -0.170062 2.451292 0.116021 -0.034747 330646.000000 0 0 1
17.309753 -1.710539 -19.920833 26.446041 -0.098500 2.423806 0.129209 -0.025871 11909.300000 0 0 1
18.443053 -1.164039 -20.799133 27.822745 -0.063032 2.415175 0.092585 -0.025398 -250655.000000 0 0 1
19.646953 -1.876739 -20.692633 28.595628 -0.095234 2.379843 0.110326 -0.035532 -65632.700000 0 0 1
20.676253 -1.300139 -21.474133 29.838502 -0.062798 2.374136 0.113881 -0.025263 623457.000000 0 0 1
21.999153 -2.112939 -21.555033 30.871454 -0.095753 2.343703 0.082578 -0.022334 -160824.000000 0 0 1
22.874953 -1.963539 -20.463433 30.755017 -0.085628 2.298784 0.090192 -0.026003 1554840.000000 0 0 1
24.226053 -2.493239 -20.665633 31.940355 -0.102555 2.274449 0.071006 -0.023461 2386430.000000 0 0 1
25.183253 -1.612539 -21.615233 33.226718 -0.063945 2.279089 0.076658 -0.022578 -312406.000000 0 0 1
24.908953 -1.654239 -22.996633 33.941679 -0.066314 2.315201 0.077462 -0.025802 413619.000000 0 0 1
25.800853 -0.859239 -23.797933 35.110738 -0.033290 2.315558 0.084206 -0.023946 -342786.000000 0 0 1
27.028353 -1.580139 -24.300733 36.380686 -0.058396 2.302256 0.082698 -0.025635 -1032020.000000 0 0 1
28.049453 -1.767039 -23.289033 36.500319 -0.062914 2.262760 0.085700 -0.021331 445926.000000 0 0 1
29.170853 -2.434339 -23.789133 37.719856 -0.083258 2.253225 0.071718 -0.017708 154350.000000 0 0 1
30.199953 -1.662839 -24.650933 39.018850 -0.055005 2.254631 0.077059 -0.018457 -985415.000000 0 0 1
29.645953 -1.353639 -25.866673 39.367495 -0.045628 2.287704 0.067637 -0.018639 350.336000 0 0 1
30.317753 -0.361039 -26.640073 40.360748 -0.011908 2.291680 0.071424 -0.019466 -581180.000000 0 0 1
29.633153 -0.056539 -27.959783 40.741581 -0.001908 2.327147 0.053582 -0.020527 962586.000000 0 0 1
28.286153 0.482261 -27.916973 39.745395 0.017048 2.349553 0.063239 -0.014889 1310280.000000 0 0 1
28.167153 1.832461 -27.579783 39.463792 0.064965 2.344603 0.069115 -0.015329 -1218820.000000 0 0 1
26.696853 2.182161 -27.715413 38.543844 0.081557 2.373248 0.076932 -0.020777 -711280.000000 0 0 1
25.889553 1.644061 -26.671223 37.206532 0.063418 2.370059 0.073633 -0.017426 -655854.000000 0 0 1
24.589853 1.540961 -27.148463 36.661621 0.062585 2.404632 0.071902 -0.019207 -1102190.000000 0 0 1
23.616653 1.125661 -26.050653 35.180249 0.047628 2.404597 0.075253 -0.017064 -341693.000000 0 0 1
23.619853 1.978961 -24.899233 34.377108 0.083589 2.380810 0.088893 -0.024205 440175.000000 0 0 1
22.644053 1.525161 -23.975633 33.013788 0.067252 2.383620 0.080705 -0.013499 -79945.000000 0 0 1
22.841853 2.220161 -22.592833 32.204277 0.096893 2.348363 0.090499 -0.017002 -343031.000000 0 0 1
22.505953 3.601561 -22.513233 32.036461 0.158682 2.350035 0.101375 -0.025192 441115.000000 0 0 1
22.812753 4.121061 -21.203133 31.416201 0.178720 2.311640 0.098719 -0.032311 -130092.000000 0 0 1
22.273153 5.557861 -20.988133 31.104419 0.244538 2.311441 0.109080 -0.029090 -104422.000000 0 0 1
23.129253 6.560161 -21.529233 32.272371 0.276372 2.301119 0.085597 -0.023892 142490.000000 0 0 1
22.913853 7.939961 -21.121033 32.158757 0.333566 2.287329 0.078321 -0.017960 -424258.000000 0 0 1
23.223453 8.236061 -19.601233 31.486026 0.340806 2.242777 0.097398 -0.026278 -979439.000000 0 0 1
24.581253 8.249261 -19.314433 32.331651 0.323782 2.211032 0.085210 -0.019282 -386643.000000 0 0 1
24.962653 8.207061 -17.930633 31.811908 0.317641 2.169589 0.101223 -0.034974 130019.000000 0 0 1
24.521453 9.467861 -17.003533 31.305945 0.368471 2.144969 0.108439 -0.040551 -206461.000000 0 0 1
23.146453 9.661461 -16.802233 30.189686 0.395421 2.161030 0.108128 -0.050688 -423418.000000 0 0 1
22.830753 10.981061 -16.501433 30.234488 0.448314 2.148118 0.083537 -0.049915 162085.000000 0 0 1
21.305453 11.328261 -16.340833 29.142317 0.488690 2.166058 0.098038 -0.046004 885531.000000 0 0 1
20.585553 11.321761 -17.559433 29.330546 0.502832 2.212641 0.102645 -0.053613 53636.300000 0 0 1
20.247953 9.998061 -17.972433 28.860859 0.458660 2.243019 0.104100 -0.047859 -740910.000000 0 0 1
19.377353 9.819261 -19.251533 29.026216 0.469024 2.295945 0.112722 -0.033862 -60560.700000 0 0 1
20.011253 10.206061 -20.438533 30.370175 0.471628 2.309027 0.100596 -0.036738 -524028.000000 0 0 1
19.187453 10.024761 -21.517933 30.523362 0.481457 2.353172 0.089562 -0.028858 -380068.000000 0 0 1
19.942053 10.047761 -22.881433 31.971909 0.466721 2.368384 0.093208 -0.023156 -66724.100000 0 0 1
20.455853 11.330961 -23.186433 32.930886 0.505850 2.351943 0.077514 -0.025451 -106716.000000 0 0 1
21.298853 11.390561 -24.292533 34.256579 0.491096 2.359067 0.095308 -0.026942 -200852.000000 0 0 1
21.681753 12.834661 -24.617133 35.225419 0.534484 2.344579 0.105576 -0.030023 -158544.000000 0 0 1
22.353153 13.036261 -25.841023 36.570015 0.527972 2.355503 0.119389 -0.026876 -30246.300000 0 0 1
22.370153 14.349961 -26.255873 37.359283 0.570361 2.350113 0.117407 -0.014754 -1366.260000 0 0 1
21.088353 14.956761 -26.893953 37.305603 0.616902 2.375910 0.076459 -0.015536 405916.000000 0 0 1
20.042453 15.089261 -25.937823 36.085404 0.645332 2.372856 0.079266 -0.020996 80244.500000 0 0 1
18.893753 15.650461 -26.566923 36.162304 0.691784 2.395959 0.089696 -0.025911 2030090.000000 0 0 1
17.446853 15.131061 -26.106693 34.855432 0.714433 2.417347 0.096057 -0.037240 1454980.000000 0 0 1
17.240953 13.772261 -26.366923 34.382267 0.674015 2.444755 0.090833 -0.028884 -164060.000000 0 0 1
15.912153 13.440261 -26.042173 33.347144 0.701382 2.466968 0.072697 -0.031577 -252882.000000 0 0 1
15.678453 11.921961 -26.013853 32.629244 0.650127 2.493532 0.058082 -0.027983 -289443.000000 0 0 1
14.338053 11.508061 -26.046423 31.881521 0.676339 2.526943 0.057175 -0.035058 -150141.000000 0 0 1
14.253653 10.138561 -25.709163 31.095307 0.618267 2.544166 0.054802 -0.036023 377909.000000 0 0 1
12.812753 9.559761 -25.564893 30.151607 0.641009 2.582767 0.089439 -0.044374 269150.000000 0 0 1
12.167553 9.909161 -24.369633 28.984821 0.683455 2.569504 0.118542 -0.051271 241480.000000 0 0 1
10.872353 9.323561 -24.280533 28.190089 0.708860 2.608648 0.116145 -0.048711 307693.000000 0 0 1
10.053053 9.868561 -23.106633 27.062314 0.776138 2.594097 0.109690 -0.050128 -88381.500000 0 0 1
9.457553 11.147761 -23.337533 27.538307 0.867243 2.581973 0.110274 -0.054548 75823.500000 0 0 1
8.656853 11.577261 -22.252133 26.535476 0.928739 2.565469 0.110812 -0.045767 257064.000000 0 0 1
9.423753 12.384161 -21.160233 26.266519 0.920323 2.507479 0.111396 -0.047357 409707.000000 0 0 1
10.407753 11.588061 -20.477633 25.728155 0.839007 2.491327 0.133038 -0.052542 321028.000000 0 0 1
11.323353 12.485561 -19.853833 26.043852 0.834173 2.437692 0.165499 -0.053698 -220836.000000 0 0 1
12.419753 11.806161 -19.001133 25.586691 0.760076 2.407767 0.165590 -0.053191 644004.000000 0 0 1
13.459953 11.044261 -19.645833 26.250806 0.687133 2.416427 0.145655 -0.051610 490339.000000 0 0 1
13.051553 10.007961 -20.451533 26.244381 0.654168 2.464301 0.141813 -0.055752 -1000060.000000 0 0 1
14.214253 9.241461 -21.101933 27.069192 0.576484 2.464752 0.155675 -0.046649 131563.000000 0 0 1
15.026553 8.555561 -20.155333 26.556211 0.517588 2.432524 0.189871 -0.062883 587664.000000 0 0 1
15.891953 7.584661 -20.752233 27.216473 0.445294 2.437946 0.145052 -0.058196 227406.000000 0 0 1
16.537653 6.721761 -19.628733 26.532305 0.386056 2.403577 0.220564 -0.067147 270720.000000 0 0 1
17.472753 7.371361 -18.756233 26.672651 0.399223 2.350686 0.162365 -0.050705 347489.000000 0 0 1
17.616453 6.419261 -17.766533 25.830138 0.349437 2.329280 0.173841 -0.071616 -470869.000000 0 0 1
18.849853 6.609761 -16.881233 26.153048 0.337257 2.272446 0.229827 -0.055779 502289.000000 0 0 1
20.073653 6.136361 -17.468833 27.308727 0.296671 2.264878 0.172787 -0.067764 1717580.000000 0 0 1
21.211253 6.277561 -16.581133 27.645235 0.287741 2.214026 0.161002 -0.074146 243788.000000 0 0 1
22.413953 5.375261 -16.693433 28.459610 0.235373 2.197608 0.158315 -0.057944 -1385260.000000 0 0 1
23.361153 5.690161 -15.702233 28.717269 0.238921 2.149318 0.125743 -0.054310 326089.000000 0 0 1
23.918653 4.460861 -15.166333 28.670872 0.184383 2.128195 0.196343 -0.066022 729661.000000 0 0 1
25.096053 3.808561 -16.022433 30.017251 0.150610 2.133854 0.084369 -0.006981 156176.000000 0 0 1
25.565053 2.669261 -15.354833 29.941072 0.104034 2.109280 0.096605 -0.018458 385803.000000 0 0 1
26.742053 2.188261 -16.005533 31.242647 0.081647 2.108654 0.074906 -0.019759 322171.000000 0 0 1
27.490453 1.053761 -15.334033 31.495523 0.038313 2.079292 0.094376 -0.035931 43106.300000 0 0 1
26.801953 -0.182039 -15.424633 30.924054 -0.006792 2.092999 0.113220 -0.038758 185906.000000 0 0 1
27.745653 -1.229739 -15.454433 31.783219 -0.044293 2.078584 0.111043 -0.029391 15986.700000 0 0 1
27.115753 -2.587439 -15.774633 31.476943 -0.095134 2.095722 0.100842 -0.029736 -67571.000000 0 0 1
26.555653 -3.220839 -14.631133 30.490106 -0.120697 2.071297 0.114860 -0.030547 144952.000000 0 0 1
26.280453 -4.585139 -14.780133 30.498164 -0.172731 2.076729 0.102714 -0.031511 -641018.000000 0 0 1
25.475953 -5.242639 -13.626833 29.363243 -0.202954 2.053390 0.113429 -0.036716 874652.000000 0 0 1
24.131853 -4.871639 -13.343233 28.002162 -0.199199 2.067474 0.159927 -0.032025 862646.000000 0 0 1
23.141053 -5.155539 -14.333433 27.704426 -0.219208 2.114571 0.172829 -0.043444 18955.300000 0 0 1
21.729053 -4.698239 -13.875733 26.206128 -0.212941 2.128789 0.187085 -0.046224 220905.000000 0 0 1
20.922553 -5.704039 -13.223833 25.399981 -0.266158 2.118378 0.195208 -0.047476 737032.000000 0 0 1
21.204653 -5.891339 -11.827433 24.984662 -0.270998 2.063929 0.221570 -0.044249 -307354.000000 0 1 0
20.899053 -7.344939 -11.413633 24.919662 -0.337965 2.046560 0.189903 -0.038433 872000.000000 0 1 0
19.479353 -7.513439 -11.279633 23.730299 -0.368130 2.066131 0.179522 -0.025330 1172830.000000 0 1 0
19.026953 -8.803339 -11.695133 24.006246 -0.433346 2.079643 0.166937 -0.038158 30596.900000 0 1 0
17.546353 -9.187839 -11.453533 22.879561 -0.482374 2.095089 0.153955 -0.042760 220040.000000 0 1 0
16.656053 -8.243739 -11.987533 22.115250 -0.459591 2.143669 0.135419 -0.028643 -928784.000000 0 1 0
15.353453 -8.704539 -12.043133 21.366669 -0.515758 2.169584 0.134643 -0.027280 -306373.000000 0 1 0
14.316053 -7.652039 -12.550233 20.518563 -0.490871 2.228944 0.103867 -0.018102 160111.000000 0 1 0
14.460053 -7.306039 -13.912433 21.354792 -0.467844 2.280343 0.099548 -0.012226 554320.000000 0 1 0
15.548553 -6.388939 -14.139733 21.966067 -0.389870 2.270130 0.102669 -0.007704 361214.000000 0 1 0
15.263053 -5.162239 -15.041433 22.042101 -0.326140 2.321831 0.087241 -0.012859 496301.000000 0 1 0
14.353953 -4.167039 -14.478633 20.809397 -0.282540 2.340293 0.096585 -0.012582 705958.000000 0 1 0
14.029053 -3.027839 -15.297233 20.975878 -0.212566 2.388062 0.085555 -0.018293 456448.000000 0 1 0
15.174953 -1.987939 -15.545033 21.814654 -0.130260 2.363988 0.121897 -0.026424 654714.000000 0 1 0
16.264253 -2.392539 -16.392033 23.215273 -0.146057 2.354755 0.131419 -0.026802 1211590.000000 0 1 0
17.498553 -1.684739 -16.261433 23.947273 -0.095983 2.317266 0.168084 -0.033438 1179790.000000 0 1 0
18.426353 -2.328939 -15.153533 23.970482 -0.125725 2.255153 0.175097 -0.037503 -305198.000000 0 1 0
17.956753 -2.088539 -13.876233 22.789401 -0.115789 2.225457 0.158417 -0.024856 378835.000000 0 1 0
18.865453 -2.642739 -12.922333 23.019037 -0.139178 2.166844 0.170042 -0.028039 40366.700000 0 1 0
18.323153 -2.704839 -11.496133 21.799430 -0.146560 2.126286 0.166941 -0.021514 -211798.000000 0 1 0
18.394453 -1.458239 -10.824133 21.392620 -0.079111 2.101308 0.168921 -0.017657 444602.000000 0 1 0
17.687753 -1.495039 -9.618733 20.189397 -0.084324 2.067380 0.139595 -0.014025 -917213.000000 0 1 0
17.632353 -0.226139 -8.782733 19.699934 -0.012825 2.032893 0.122066 -0.011693 -852117.000000 0 1 0
18.784453 0.130761 -8.090633 20.453144 0.006961 1.977484 0.144878 -0.014716 663310.000000 0 1 0
19.925653 0.721061 -8.721733 21.762817 0.036172 1.983146 0.182993 -0.011681 354665.000000 0 1 0
19.722453 2.030961 -9.487833 21.979966 0.102615 2.017127 0.194035 -0.018868 -676651.000000 0 1 0
19.177853 3.121161 -8.779533 21.321630 0.161334 1.995188 0.147563 -0.006629 462018.000000 0 1 0
18.763153 4.129161 -9.696533 21.520424 0.216615 2.038204 0.150751 -0.020094 -745586.000000 0 1 0
18.527153 5.477861 -9.069533 21.342886 0.287477 2.009696 0.122253 -0.006997 -390208.000000 0 1 0
17.933353 6.387661 -9.944433 21.477875 0.342178 2.052182 0.100256 -0.009849 525392.000000 0 1 0
18.377153 7.653261 -9.496533 22.056208 0.394611 2.015910 0.128257 -0.008621 -42685.800000 0 1 0
-27.647277 -29.072139 6.226967 40.599708 0.810514 1.416814 0.114102 -0.004846 -136481.000000 0 0 1
-28.192487 -27.827069 6.252067 40.102998 0.778875 1.414258 0.102589 -0.009343 -599885.000000 0 0 1
-27.223847 -26.878199 5.927367 38.713164 0.779009 1.417082 0.135499 -0.025237 -638804.000000 0 0 1
-27.428897 -25.451839 6.551267 37.987624 0.748028 1.397472 0.105714 -0.022374 318347.000000 0 0 1
-28.668837 -24.733439 6.387967 38.398585 0.711838 1.403660 0.091975 -0.028350 2077950.000000 0 0 1
-29.791267 -25.258639 7.233667 39.722089 0.703247 1.387668 0.089394 -0.021530 1470060.000000 0 0 1
-29.708047 -25.143359 8.754267 39.892277 0.702370 1.349548 0.113702 -0.017904 -1192820.000000 0 0 1
-28.727067 -25.934769 9.283467 39.799992 0.734359 1.335375 0.095505 -0.019766 -772163.000000 0 0 1
-28.910717 -26.087979 10.665367 40.375268 0.734119 1.303468 0.086676 -0.025667 448704.000000 0 0 1
-27.767457 -26.996049 11.303067 40.343248 0.771313 1.286823 0.055853 -0.018490 387304.000000 0 0 1
-26.572297 -26.382319 11.617267 39.205543 0.781811 1.269962 0.039850 -0.005544 -859368.000000 0 0 1
-26.641787 -25.618349 12.841367 39.127807 0.765817 1.236409 0.064371 -0.009300 -890067.000000 0 0 1
-25.335547 -25.086769 13.432467 38.100749 0.780464 1.210500 0.073195 -0.014286 222286.000000 0 0 1
-24.534947 -26.179419 14.016467 38.519955 0.817813 1.198371 0.053346 -0.014090 217970.000000 0 0 1
-23.571247 -25.703969 14.924267 37.934568 0.828653 1.166446 0.059890 -0.016927 -362756.000000 0 0 1
-22.835147 -26.823309 15.655167 38.548905 0.865538 1.152601 0.054299 -0.020539 -499016.000000 0 0 1
-23.567547 -27.670429 16.520167 39.924902 0.865303 1.144193 0.044355 -0.012417 69666.200000 0 0 1
-22.884347 -28.888929 16.811067 40.507722 0.900861 1.142844 0.049716 -0.004522 40090.300000 0 0 1
-23.742347 -29.891439 17.603467 42.036641 0.899549 1.138712 0.061787 -0.017156 278776.000000 0 0 1
-24.880947 -30.407389 16.937167 42.784792 0.885024 1.163783 0.034384 -0.012901 487443.000000 0 0 1
-25.526937 -31.491169 17.593167 44.190924 0.889622 1.161333 0.057837 -0.019498 -118284.000000 0 0 1
-26.456977 -32.254769 16.647367 44.916329 0.883829 1.191108 0.055461 -0.021850 -554178.000000 0 0 1
-25.771667 -33.101029 15.780267 44.820461 0.909256 1.211007 0.056796 -0.023580 102962.000000 0 0 1
-26.553767 33.476721 14.957267 45.271550 -0.900215 1.234080 0.061154 -0.029490 -737953.000000 0 0 1
-25.689987 32.749371 13.923267 43.890250 -0.905614 1.247990 0.076193 -0.038240 -85090.300000 0 0 1
-24.612547 31.958888 14.363467 42.818888 -0.914535 1.228717 0.065393 -0.033053 693060.000000 0 0 1
-23.438847 32.764810 14.627967 42.858952 -0.949832 1.222492 0.062395 -0.035824 36781.400000 0 0 1
-22.159147 31.885971 14.637867 41.497109 -0.963468 1.210294 0.056475 -0.046203 -9790.330000 0 0 1
-21.957147 31.315947 13.378067 40.518854 -0.959300 1.234314 0.043479 -0.031529 -673897.000000 0 0 1
-20.814347 30.546587 13.243567 39.264782 -0.972665 1.226761 0.052856 -0.034671 -437619.000000 0 0 1
-20.706547 29.803597 11.898567 38.191509 -0.963591 1.253972 0.048863 -0.033555 368457.000000 0 0 1
-20.137547 30.576747 10.849967 38.186124 -0.988406 1.282693 0.038900 -0.018460 32588.300000 0 0 1
-20.727947 30.094277 9.643167 37.792909 -0.967649 1.312785 0.055252 -0.026572 481652.000000 0 0 1
-20.165347 30.838907 8.386567 37.789071 -0.991689 1.347002 0.048411 -0.021179 200186.000000 0 0 1
-18.937547 30.318277 7.948467 36.619759 -1.012467 1.352001 0.053408 -0.028402 -430330.000000 0 0 1
-18.617647 30.834077 6.656267 36.628718 -1.027587 1.388058 0.082112 -0.021875 122332.000000 0 0 1
-17.630647 29.994037 5.836967 35.278211 -1.039392 1.404577 0.094341 -0.028024 -408616.000000 0 0 1
-18.133747 28.746897 5.364567 34.409235 -1.008032 1.414253 0.084168 -0.013510 -192858.000000 0 0 1
-18.095947 27.694907 6.350767 33.686843 -0.992032 1.381138 0.062780 -0.013333 -573369.000000 0 0 1
-19.212447 26.649377 6.160667 33.425458 -0.946158 1.385426 0.053598 -0.007961 -23611.000000 0 0 1
-19.202847 25.949997 4.907267 32.653222 -0.933730 1.419940 0.051646 -0.016467 201405.000000 0 0 1
-20.461047 25.369827 4.654367 32.923330 -0.892098 1.428951 0.043643 -0.014809 -415249.000000 0 0 1
-20.320047 24.430867 3.399867 31.958264 -0.877001 1.464210 0.071999 -0.031594 -841813.000000 0 0 1
-20.259247 25.021997 2.113767 32.264616 -0.890194 1.505236 0.092948 -0.038875 -31694.900000 0 0 1
-19.245347 25.948527 1.815767 32.357479 -0.932645 1.514651 0.094960 -0.034955 97380.400000 0 0 1
-17.759147 25.445047 1.839767 31.084119 -0.961453 1.511575 0.092436 -0.044593 78103.100000 0 0 1
-17.325147 24.311297 1.035567 29.870927 -0.951639 1.536121 0.143271 -0.056563 211951.000000 0 0 1
-17.569647 24.550687 -0.317233 30.191544 -0.949645 1.581304 0.134110 -0.056080 -432021.000000 0 0 1
-17.201347 23.376977 -1.248933 29.050460 -0.936430 1.613801 0.148869 -0.068103 299193.000000 0 0 1
-18.135347 22.296227 -1.100033 28.761478 -0.887949 1.609052 0.157594 -0.079066 579242.000000 0 0 1
-17.679447 21.206727 -1.864733 27.672465 -0.875858 1.638233 0.172499 -0.068364 474505.000000 0 0 1
-16.380147 20.473027 -1.393933 26.256372 -0.896004 1.623911 0.159774 -0.065602 309159.000000 0 0 1
-16.564347 19.735327 -0.206733 25.766324 -0.872533 1.578820 0.167531 -0.069336 -185028.000000 0 0 1
-15.479047 18.894527 0.074267 24.425592 -0.884437 1.567756 0.153525 -0.061531 -171306.000000 0 1 0
-15.897847 17.760527 1.058667 23.859980 -0.840683 1.526412 0.117649 -0.049113 219265.000000 0 1 0
-16.588347 16.724327 0.377967 23.558846 -0.789480 1.554752 0.107823 -0.045183 324444.000000 0 1 0
-17.263147 15.931727 1.358667 23.530451 -0.745310 1.513023 0.133978 -0.063209 75471.800000 0 1 0
-17.790647 14.600027 0.801667 23.028473 -0.687211 1.535977 0.121564 -0.059006 513148.000000 0 1 0
-18.941347 14.798627 -0.051633 24.036985 -0.663226 1.572944 0.193582 -0.067423 739525.000000 0 1 0
-19.567747 13.578327 -0.384033 23.820478 -0.606629 1.586919 0.203910 -0.058975 -281392.000000 0 1 0
-20.892447 13.751727 -1.160833 25.039007 -0.582129 1.617174 0.208324 -0.052921 -943933.000000 0 0 1
-21.592847 12.621327 -1.474833 25.054422 -0.528955 1.629696 0.202869 -0.059515 136232.000000 0 0 1
-22.424547 12.102427 -0.468833 25.486248 -0.494897 1.589193 0.210087 -0.062060 -1222830.000000 0 0 1
-23.837247 12.646927 -0.384233 26.987159 -0.487790 1.585034 0.246165 -0.064715 -1127710.000000 0 0 1
-23.920447 13.927027 0.183967 27.680024 -0.527245 1.564150 0.259215 -0.073903 613828.000000 0 0 1
-25.240877 14.478527 0.233667 29.099557 -0.520792 1.562766 0.243945 -0.060894 478979.000000 0 0 1
-25.342897 15.965127 0.699667 29.960595 -0.562161 1.547441 0.234296 -0.061720 -291481.000000 0 0 1
-25.283667 16.111927 2.120767 30.055876 -0.567357 1.500177 0.232502 -0.060707 -35416.600000 0 0 1
-25.367597 17.477827 2.560767 30.911922 -0.603293 1.487861 0.199380 -0.053383 -512145.000000 0 0 1
-26.712027 18.194827 2.579067 32.422765 -0.597961 1.491167 0.229755 -0.049162 -1586360.000000 0 0 1
-27.503917 17.761127 3.663767 32.944594 -0.573394 1.459356 0.232318 -0.057389 -558684.000000 0 0 1
-28.763837 18.324927 3.732767 34.308815 -0.567240 1.461781 0.217746 -0.055574 188795.000000 0 0 1
-29.796507 18.282127 2.513867 35.048360 -0.550335 1.499009 0.194055 -0.057191 -1177130.000000 0 0 1
-31.070227 18.732127 2.859367 36.392686 -0.542546 1.492145 0.163276 -0.054080 -465454.000000 0 0 1
-31.693967 19.088127 1.639367 37.034466 -0.542082 1.526516 0.144192 -0.040977 -202809.000000 0 0 1
-33.013017 19.851227 1.815267 38.564565 -0.541386 1.523708 0.141668 -0.042623 -693998.000000 0 0 1
-34.139361 19.105227 2.151767 39.180809 -0.510203 1.515850 0.168149 -0.034970 355216.000000 0 0 1
-35.365986 19.853927 2.178767 40.616233 -0.511542 1.517128 0.167401 -0.032130 666911.000000 0 0 1
-35.684564 20.474827 3.561667 41.295183 -0.520911 1.484440 0.146845 -0.041893 -906666.000000 0 0 1
-34.783353 21.450427 3.987667 41.059761 -0.552599 1.473524 0.154592 -0.044905 -85227.500000 0 0 1
-34.798554 21.734227 5.364367 41.377438 -0.558292 1.440786 0.156472 -0.043432 -24791.900000 0 0 1
-33.652197 22.715647 5.725767 41.003114 -0.593758 1.430696 0.168482 -0.047443 -52003.300000 0 0 1
-33.914107 24.059917 5.351767 41.924786 -0.617031 1.442795 0.152542 -0.044514 -621654.000000 0 0 1
-32.800567 24.859887 5.316067 41.498816 -0.648544 1.442342 0.161824 -0.050503 -901413.000000 0 0 1
-33.131737 26.354877 5.136167 42.645888 -0.671965 1.450066 0.170689 -0.045995 -598742.000000 0 0 1
-33.894607 26.811957 6.175567 43.656191 -0.669253 1.428861 0.166198 -0.035443 -306081.000000 0 0 1
-34.266687 28.167727 6.097567 44.775071 -0.688021 1.434190 0.153069 -0.034569 -25910.900000 0 0 1
-35.333239 28.609187 7.137467 46.020287 -0.680625 1.415074 0.143978 -0.031884 -317317.000000 0 0 1
-34.902064 28.506927 8.500667 45.859135 -0.684883 1.384353 0.149961 -0.035238 516654.000000 0 0 1
-35.799134 29.204997 9.358967 47.139157 -0.684302 1.370929 0.157135 -0.030797 267030.000000 0 0 1
-37.087187 28.486497 9.839267 47.788609 -0.654982 1.363422 0.147722 -0.026623 -182433.000000 0 0 1
-36.846667 27.212477 10.405667 46.973117 -0.636122 1.347419 0.150880 -0.033298 -419823.000000 0 0 1
-37.852827 26.681027 11.208567 47.648145 -0.613982 1.333335 0.156089 -0.029836 -455530.000000 0 0 1
-37.339637 25.449427 11.955467 46.742433 -0.598247 1.312149 0.155138 -0.021754 338224.000000 0 0 1
-36.262307 25.864607 12.805967 46.345718 -0.619573 1.290840 0.176102 -0.029596 367672.000000 0 0 1
-35.652113 24.715357 13.370667 45.394898 -0.606172 1.271821 0.160816 -0.026998 -55239.200000 0 0 1
-34.402691 25.061167 14.212667 44.873234 -0.629576 1.248517 0.183240 -0.027895 87594.600000 0 0 1
-34.685282 25.875277 15.364967 45.920376 -0.640937 1.229615 0.170242 -0.031711 -350357.000000 0 0 1
-33.468367 26.348907 15.825267 45.440462 -0.666935 1.215078 0.200575 -0.024950 -385383.000000 0 0 1
-33.769037 27.465587 16.821367 46.665455 -0.682820 1.202028 0.193191 -0.024355 120257.000000 0 0 1
-33.929137 28.700257 16.129267 47.276256 -0.702102 1.222634 0.200542 -0.026727 70492.200000 0 0 1
-33.917427 29.764477 17.121267 48.264415 -0.720276 1.208161 0.170149 -0.024670 106842.000000 0 0 1
-33.533717 31.172997 16.464167 48.655264 -0.748931 1.225597 0.148693 -0.025059 280858.000000 0 0 1
-32.159257 31.278357 16.149467 47.679752 -0.771513 1.225254 0.133395 -0.015800 -19951.900000 0 0 1
-31.803237 32.432789 15.405167 47.965100 -0.795198 1.243827 0.107707 -0.008031 -134623.000000 0 0 1
-30.387077 32.406259 14.791567 46.822330 -0.817543 1.249382 0.130210 -0.016410 -13336.900000 0 0 1
-30.040867 31.651953 13.675367 45.730903 -0.811507 1.267110 0.113350 -0.015846 -75932.600000 0 0 1
-29.715067 30.298817 13.972067 44.679102 -0.795125 1.252741 0.133751 -0.021163 -307506.000000 0 0 1
-30.754607 29.251007 13.571467 44.560655 -0.760346 1.261318 0.173045 -0.024247 -8918.080000 0 0 1
-30.894097 29.176667 12.186567 44.206736 -0.756816 1.291507 0.180968 -0.036469 -385607.000000 0 0 1
-31.953567 28.340467 11.841067 44.321816 -0.725545 1.300350 0.173922 -0.031887 -92117.900000 0 0 1
-31.896917 28.132057 10.294467 43.758450 -0.722763 1.333314 0.173136 -0.026617 45561.300000 0 0 1
-30.768387 27.432797 9.834567 42.378894 -0.728149 1.336598 0.153544 -0.020158 -347433.000000 0 0 1
-30.620567 27.488967 8.401567 41.998199 -0.731559 1.369392 0.150400 -0.027552 -517488.000000 0 0 1
-29.383317 26.826577 7.851467 40.554779 -0.739944 1.375965 0.181537 -0.033972 -449566.000000 0 0 1
-29.163077 27.213407 6.489067 40.412406 -0.750829 1.409527 0.187926 -0.049117 272831.000000 0 0 1
-28.166767 26.338697 5.901267 39.011776 -0.751872 1.418945 0.157551 -0.035608 696161.000000 0 0 1
-27.779447 26.786607 4.465967 38.847971 -0.767205 1.455581 0.156500 -0.032224 -57775.000000 0 0 1
-27.064127 27.999507 4.341967 39.182803 -0.802384 1.459755 0.125567 -0.024433 139431.000000 0 0 1
-26.732997 28.155677 2.953167 38.937340 -0.811312 1.494879 0.115917 -0.018927 -192745.000000 0 0 1
-25.794277 29.377727 2.753067 39.191516 -0.850258 1.500492 0.095586 -0.016993 522904.000000 0 0 1
-24.482347 28.962757 3.145567 38.054188 -0.869035 1.488042 0.067203 -0.010009 -15661.500000 0 0 1
-23.520247 29.934027 2.854867 38.175886 -0.904814 1.495945 0.066357 -0.001471 -150277.000000 0 0 1
-22.072147 29.448367 3.034167 36.926849 -0.927602 1.488537 0.047322 -0.001953 207204.000000 0 0 1
-21.120247 30.414557 2.611067 37.120449 -0.963830 1.500398 0.070663 -0.007366 -228316.000000 0 0 1
-19.817747 29.864717 2.545767 35.932233 -0.984931 1.499888 0.089773 -0.019103 411307.000000 0 0 1
-18.782147 30.918077 2.094467 36.236491 -1.024894 1.512964 0.097263 -0.019354 107068.000000 0 0 1
-18.855047 32.045741 2.977667 37.300252 -1.038965 1.490882 0.112682 -0.018555 792435.000000 0 0 1
-17.558147 32.669025 2.970467 37.207222 -1.077635 1.490876 0.137621 -0.019974 849478.000000 0 0 1
-17.544447 -33.654329 3.987067 38.161737 1.090244 1.466127 0.142930 -0.028203 127451.000000 0 0 1
-18.338747 -32.493609 3.725267 37.496958 1.056980 1.471284 0.160636 -0.030028 106842.000000 0 0 1
-18.140947 -31.506099 4.706167 36.658917 1.048367 1.442064 0.146750 -0.054864 118740.000000 0 0 1
-19.327247 -30.516799 4.880967 36.450533 1.006228 1.436486 0.167505 -0.045841 46289.900000 0 0 1
-19.394947 -29.477359 3.935367 35.504447 0.988845 1.459727 0.193678 -0.040240 243014.000000 0 0 1
-20.488347 -28.602939 4.187067 35.432076 0.949213 1.452348 0.202865 -0.052698 9200.690000 0 0 1
-20.692147 -27.581649 3.003367 34.611162 0.927158 1.483913 0.183008 -0.064697 320.442000 0 0 1
-19.583947 -26.724999 2.878067 33.257177 0.938398 1.484148 0.198082 -0.068586 -388183.000000 0 0 1
-19.972147 -25.660719 2.017567 32.579591 0.909418 1.508829 0.165134 -0.060059 121418.000000 0 0 1
-18.941547 -24.542739 1.816167 31.055220 0.913502 1.512281 0.131708 -0.038963 590031.000000 0 0 1
-17.926247 -24.820439 0.828967 30.628283 0.945301 1.543728 0.188821 -0.046888 353305.000000 0 0 1
-16.847047 -23.901539 0.981767 29.258681 0.956821 1.537235 0.157590 -0.034555 963085.000000 0 0 1
-15.475347 -24.345639 0.342867 28.849854 1.004574 1.558912 0.133866 -0.029542 431548.000000 0 0 1
-15.380747 -24.510839 -1.075433 28.956953 1.010396 1.607944 0.118138 -0.025791 85171.300000 0 0 1
-15.485547 -23.314139 -1.789333 28.045551 0.984495 1.634641 0.113558 -0.031762 -314990.000000 0 0 1
-15.551447 -23.516639 -3.331633 28.389780 0.986521 1.688421 0.066987 -0.016729 125694.000000 0 0 1
-14.347047 -23.894539 -3.969233 28.152115 1.030059 1.712260 0.094835 -0.013587 22791.200000 0 0 1
-14.538047 -23.865539 -5.396633 28.461244 1.023665 1.761565 0.071587 -0.012231 -239024.000000 0 0 1
-13.375347 -24.426239 -6.202733 28.530947 1.069812 1.789950 0.107451 -0.020658 -149528.000000 0 0 1
-13.369247 -25.810089 -6.264333 29.734480 1.092864 1.783062 0.082146 -0.019496 -456295.000000 0 0 1
-12.263647 -26.316469 -6.941133 29.851849 1.134711 1.805464 0.110827 -0.024777 -276791.000000 0 0 1
25.297253 12.893961 27.625056 39.615009 0.471376 0.799119 0.100777 -0.020826 -44687.400000 0 0 1
25.888453 11.641961 27.877286 39.785554 0.422602 0.794434 0.110015 -0.029202 253457.000000 0 0 1
25.115753 10.864261 28.786536 39.717727 0.408263 0.760084 0.113026 -0.031294 19654.800000 0 0 1
25.006753 11.455961 30.212626 40.858041 0.429582 0.738538 0.131868 -0.047109 -270025.000000 0 0 1
24.114553 12.487861 30.496816 40.835207 0.477830 0.727519 0.122789 -0.042355 -292897.000000 0 0 1
24.272253 12.987761 31.804974 42.064006 0.491321 0.713449 0.117231 -0.048343 47654.100000 0 0 1
23.119353 13.916661 32.365178 42.138850 0.541851 0.694990 0.101382 -0.045068 303874.000000 0 0 1
22.038953 13.152461 32.852114 41.688896 0.538050 0.663193 0.111348 -0.036838 -157747.000000 0 0 1
21.099953 14.022761 33.469756 41.977022 0.586562 0.647929 0.098531 -0.028660 549987.000000 0 0 1
19.833953 13.403861 -33.308823 41.018616 0.594302 2.518438 0.092951 -0.020716 478008.000000 0 0 1
18.664153 13.171361 33.388836 40.455528 0.614544 0.600024 0.085724 -0.012848 -290240.000000 0 0 1
17.828353 12.374761 -33.273693 39.725603 0.606759 2.563650 0.067465 -0.018887 100100.000000 0 0 1
16.405153 12.259561 33.555586 39.311617 0.641771 0.547979 0.061068 -0.014526 357739.000000 0 0 1
16.325053 11.395261 32.515755 38.126548 0.609398 0.549401 0.056892 -0.009347 -1029730.000000 0 0 1
15.004853 11.109761 32.227567 37.244979 0.637336 0.525075 0.073024 -0.009032 -710593.000000 0 0 1
14.902253 10.140361 31.046266 35.899508 0.597490 0.526024 0.080768 -0.011303 55079.800000 0 0 1
15.315053 8.821061 31.439563 36.066717 0.522565 0.512124 0.059042 -0.013442 219398.000000 0 0 1
16.059653 8.150561 30.415246 35.347295 0.469644 0.534607 0.072765 -0.027488 258318.000000 0 0 1
16.369353 6.710861 30.782126 35.503953 0.389067 0.521635 0.092598 -0.030879 202795.000000 0 0 1
15.224853 5.862461 30.823696 34.874989 0.367560 0.486801 0.088208 -0.024954 322378.000000 0 0 1
15.590053 4.548861 31.196936 35.170879 0.283898 0.479966 0.102067 -0.036004 539522.000000 0 0 1
14.351453 3.586361 31.181986 34.512931 0.244880 0.442960 0.085244 -0.028723 656324.000000 0 0 1
14.716453 2.407161 31.861927 35.178840 0.162134 0.437738 0.088542 -0.035039 155697.000000 0 0 1
13.567453 1.669561 32.197320 34.979003 0.122441 0.401500 0.085260 -0.035355 -400045.000000 0 0 1
13.929653 0.287961 32.728432 35.570612 0.020670 0.402467 0.045046 -0.039680 55605.700000 0 0 1
14.536653 -0.510139 31.700879 34.878650 -0.035079 0.430180 0.043356 -0.038399 205152.000000 0 0 1
14.958753 -1.703939 32.242347 35.584219 -0.113420 0.436858 0.108470 -0.036026 -405181.000000 0 0 1
15.438353 -2.814539 31.247296 34.966525 -0.180328 0.465417 0.118697 -0.039662 -519824.000000 0 0 1
15.658453 -4.100839 31.850239 35.727325 -0.256140 0.470192 0.130314 -0.040841 565732.000000 0 0 1
16.808053 -4.217739 32.684648 36.994407 -0.245859 0.487509 0.082526 -0.032244 570440.000000 0 0 1
18.235653 -4.200939 32.045674 37.109462 -0.226419 0.528539 0.103794 -0.041351 106964.000000 0 0 1
18.614853 -2.907339 31.687870 36.865790 -0.154932 0.536414 0.117048 -0.039842 187385.000000 0 0 1
19.830153 -2.946039 30.948976 36.874832 -0.147485 0.574805 0.146017 -0.050636 536706.000000 0 0 1
20.387653 -1.466739 30.538176 36.747624 -0.071819 0.589849 0.132885 -0.051281 1483.080000 0 0 1
20.766553 -0.759439 31.658307 37.869181 -0.036554 0.580859 0.129296 -0.052801 44867.200000 0 0 1
20.324153 0.597861 31.599899 37.576352 0.029408 0.571757 0.122489 -0.047999 184.270000 0 0 1
21.359953 1.630861 31.082666 37.749694 0.076204 0.603440 0.133943 -0.038089 -144547.000000 0 0 1
21.572553 1.556761 29.717726 36.755160 0.072039 0.629143 0.132008 -0.039698 153143.000000 0 0 1
22.575753 2.464961 29.277216 37.052612 0.108755 0.659738 0.096420 -0.026946 193320.000000 0 0 1
22.232553 4.014261 29.270976 36.975542 0.178633 0.657323 0.092823 -0.014095 -101258.000000 0 0 1
21.761853 4.543861 30.491776 37.735571 0.205842 0.629982 0.101183 -0.024640 266487.000000 0 0 1
21.029253 5.743261 30.283176 37.313339 0.266607 0.623926 0.108877 -0.027554 -128074.000000 0 0 1
20.512053 6.220361 31.662281 38.235288 0.294439 0.595103 0.115151 -0.029436 -185540.000000 0 0 1
19.449253 5.379861 32.048916 37.872805 0.269863 0.561936 0.107750 -0.014568 -121191.000000 0 0 1
19.229953 5.576061 33.437946 38.974091 0.282227 0.539524 0.097271 -0.017998 -91773.900000 0 0 1
18.015253 4.941261 -33.316773 38.196502 0.267699 2.630574 0.097234 -0.017912 -192564.000000 0 0 1
18.259753 3.555261 -33.301553 38.145142 0.192299 2.632162 0.097801 -0.013600 176707.000000 0 0 1
17.143153 2.777261 -32.933373 37.231813 0.160609 2.656323 0.083544 -0.011295 -43539.700000 0 0 1
17.381453 1.289661 -33.203373 37.499895 0.074062 2.658206 0.078153 -0.035176 -104850.000000 0 0 1
18.360353 0.710561 -32.374923 37.225570 0.038682 2.625382 0.080697 -0.033547 7469.070000 0 0 1
18.585553 -0.631539 -32.732853 37.646531 -0.033967 2.624942 0.098084 -0.033783 -350759.000000 0 0 1
19.695953 -1.178539 -31.820723 37.441660 -0.059765 2.586544 0.111091 -0.033598 -453367.000000 0 0 1
19.459853 -1.363639 -30.442523 36.156501 -0.069960 2.571712 0.098920 -0.031136 219131.000000 0 0 1
19.284853 -0.196739 -29.669513 35.386781 -0.010201 2.565201 0.077466 -0.017543 -218045.000000 0 0 1
18.916153 -0.424739 -28.173023 33.937007 -0.022450 2.550184 0.072333 -0.017746 -1091190.000000 0 0 1
17.635853 -0.837839 -27.899593 33.016853 -0.047472 2.577381 0.089555 -0.022307 -1024780.000000 0 0 1
17.235253 -1.006039 -26.572033 31.688152 -0.058305 2.565409 0.081883 -0.026790 21055.100000 0 0 1
18.098353 -1.931639 -25.675123 31.472107 -0.106328 2.524917 0.088448 -0.026045 -643990.000000 0 0 1
19.391653 -1.488639 -25.391043 31.983704 -0.076617 2.487951 0.085291 -0.018392 -246250.000000 0 0 1
20.280653 -2.569839 -25.066433 32.345556 -0.126042 2.457444 0.064025 -0.016331 644826.000000 0 0 1
21.153753 -3.042039 -26.266353 33.862318 -0.142827 2.458590 0.087120 -0.028630 -189570.000000 0 0 1
22.197853 -2.172839 -26.649903 34.751737 -0.097574 2.444739 0.082305 -0.016611 -234985.000000 0 0 1
22.470253 -2.401539 -27.973453 35.961003 -0.106472 2.462086 0.096080 -0.023929 -619208.000000 0 0 1
23.822553 -1.858939 -28.418743 37.129431 -0.077875 2.442454 0.073778 -0.025397 -110307.000000 0 0 1
24.897653 -2.621939 -27.898813 37.484816 -0.104922 2.410237 0.069131 -0.028274 -407469.000000 0 0 1
26.149553 -2.156439 -28.313063 38.601540 -0.082279 2.394209 0.053871 -0.022917 198627.000000 0 0 1
27.344553 -3.064339 -27.875323 39.168206 -0.111598 2.362687 0.071310 -0.016787 186652.000000 0 0 1
27.524153 -4.187039 -28.748393 40.019750 -0.150965 2.372231 0.096767 -0.030069 519913.000000 0 0 1
28.768453 -4.861539 -28.574153 40.837981 -0.167407 2.345768 0.101287 -0.033898 136427.000000 0 0 1
28.831753 -5.985139 -27.500033 40.290739 -0.204681 2.322028 0.099977 -0.026562 -177131.000000 0 0 1
29.037353 -5.603739 -26.151733 39.477625 -0.190640 2.294874 0.088648 -0.016772 266225.000000 0 0 1
28.866153 -6.721239 -25.320943 38.981790 -0.228765 2.277800 0.063267 -0.013029 -60554.400000 0 0 1
28.926553 -6.348139 -23.821833 38.006895 -0.216032 2.248206 0.048991 -0.005678 -108421.000000 0 0 1
30.242353 -6.026139 -23.442733 38.735978 -0.196685 2.220804 0.055990 -0.008042 101070.000000 0 0 1
30.339453 -5.588139 -22.096433 37.946832 -0.182146 2.192351 0.059575 -0.015088 464514.000000 0 0 1
31.804753 -5.228839 -21.663433 38.835388 -0.162947 2.162562 0.073326 -0.016640 428594.000000 0 0 1
32.244953 -4.008939 -22.227933 39.368637 -0.123693 2.170757 0.093009 -0.020558 -479297.000000 0 0 1
33.533253 -3.725739 -21.784433 40.161196 -0.110652 2.144117 0.112106 -0.018148 -335489.000000 0 0 1
34.171753 -2.452639 -22.392933 40.928811 -0.071651 2.149715 0.110723 -0.023085 95459.300000 0 0 1
33.389853 -1.321639 -22.085033 40.054684 -0.039561 2.154804 0.098582 -0.017958 147665.000000 0 0 1
33.801453 -0.180339 -22.764133 40.752626 -0.005335 2.163485 0.087835 -0.016099 130488.000000 0 0 1
32.862253 0.971061 -22.342933 39.750186 0.029541 2.167699 0.084618 -0.013658 164981.000000 0 0 1
31.632553 0.986461 -23.034233 39.142910 0.031175 2.199955 0.076429 -0.012406 -95284.500000 0 0 1
30.698653 1.866761 -22.450133 38.077560 0.060734 2.201347 0.076669 -0.015051 -178019.000000 0 0 1
29.474853 1.809561 -23.410033 37.683831 0.061316 2.241098 0.066676 -0.014666 -342122.000000 0 0 1
28.450453 2.685161 -22.968933 36.663473 0.094102 2.247825 0.061872 -0.014226 550729.000000 0 0 1
27.505753 2.806161 -24.061333 36.652268 0.101669 2.286934 0.092075 -0.019064 -88205.900000 0 0 1
26.308453 3.694361 -23.756633 35.639313 0.139513 2.300414 0.081612 -0.016581 -480668.000000 0 0 1
26.701353 5.040361 -23.583333 35.979732 0.186573 2.285590 0.073923 -0.013469 662892.000000 0 0 1
25.600453 5.854961 -23.209233 35.047571 0.224838 2.294575 0.086321 -0.022567 -221486.000000 0 0 1
26.129453 7.131561 -22.664733 35.317101 0.266443 2.267574 0.106157 -0.019152 -360194.000000 0 0 1
26.981153 7.822161 -23.549133 36.656930 0.282176 2.268448 0.110771 -0.022899 134065.000000 0 0 1
27.250953 9.109461 -23.020933 36.817931 0.322603 2.246266 0.131661 -0.029142 -197036.000000 0 0 1
28.216553 9.931961 -23.918633 38.300375 0.338447 2.245289 0.166029 -0.029922 -272119.000000 0 0 1
27.877453 10.176461 -25.267383 38.976318 0.350013 2.276113 0.179442 -0.042217 782956.000000 0 0 1
26.644153 10.911461 -25.426113 38.411692 0.388691 2.294196 0.171139 -0.044192 813334.000000 0 0 1
26.403053 11.484961 -26.886733 39.394441 0.410298 2.321975 0.160262 -0.026951 -220397.000000 0 0 1
26.122553 10.595761 -27.967413 39.709371 0.385340 2.352237 0.142071 -0.029609 165504.000000 0 0 1
27.121153 9.701861 -28.416143 40.461837 0.343538 2.349412 0.146450 -0.037974 124460.000000 0 0 1
28.191053 10.205461 -29.409483 41.997674 0.347334 2.346564 0.150169 -0.035958 -323963.000000 0 0 1
29.253353 11.066661 -29.005703 42.656306 0.361664 2.318540 0.152924 -0.027886 856296.000000 0 0 1
30.227453 11.439061 -29.953153 44.065206 0.361777 2.318213 0.165154 -0.030191 619829.000000 0 0 1
31.131353 10.349061 -30.554523 44.831273 0.320939 2.320668 0.132978 -0.030294 -399664.000000 0 0 1
30.299153 9.568461 -31.436483 44.697277 0.305888 2.350853 0.121042 -0.032231 546748.000000 0 0 1
30.829153 8.283461 -31.752793 45.025462 0.262490 2.353528 0.107681 -0.025645 -605105.000000 0 0 1
29.832653 7.544961 -32.631243 44.852108 0.247715 2.385511 0.103455 -0.036571 -275871.000000 0 0 1
28.792653 7.115161 -31.777113 43.467543 0.242264 2.390661 0.112819 -0.039110 462391.000000 0 0 1
27.695353 6.611861 -32.599533 43.283702 0.234349 2.423648 0.087047 -0.033376 595789.000000 0 0 1
26.404353 6.382261 -31.793183 41.817814 0.237164 2.434538 0.109985 -0.028401 -612125.000000 0 0 1
25.718253 7.570561 -31.592283 41.434458 0.286279 2.437909 0.134863 -0.033439 580182.000000 0 0 1
24.565253 7.481261 -30.726543 40.044243 0.295623 2.445440 0.133799 -0.035154 1558110.000000 0 0 1
23.165853 7.199061 -31.379333 39.662902 0.301300 2.483484 0.141234 -0.036095 448867.000000 0 0 1
22.622853 8.332361 -32.006473 40.070388 0.352898 2.496021 0.130565 -0.031470 -286248.000000 0 0 1
21.338253 8.071161 -32.514893 39.720057 0.361616 2.529768 0.113083 -0.023594 -148202.000000 0 0 1
21.063653 9.216861 -33.545173 40.668251 0.412471 2.540732 0.118239 -0.021028 -353860.000000 0 0 1
21.937453 9.191561 32.814448 40.528072 0.396769 0.627203 0.106981 -0.028940 -506297.000000 0 0 1
21.728853 10.247361 31.874167 39.913832 0.440672 0.645873 0.105267 -0.034880 366873.000000 0 0 1
20.320353 10.364461 31.185406 38.637654 0.471658 0.631531 0.096444 -0.031478 758777.000000 0 0 1
19.975553 9.299461 30.314606 37.476366 0.435703 0.628519 0.092717 -0.032292 330230.000000 0 0 1
20.798753 9.139661 29.113756 36.928746 0.414032 0.662631 0.112073 -0.031586 116798.000000 0 0 1
20.429453 10.102561 27.930346 36.048974 0.459246 0.684415 0.096360 -0.028208 -44155.300000 0 0 1
19.427953 9.618061 27.083076 34.690711 0.459690 0.675009 0.121362 -0.018979 -1125960.000000 0 0 1
18.205753 10.160361 27.384236 34.417710 0.509029 0.650727 0.121651 -0.032083 -1451520.000000 0 0 1
16.980153 9.581461 26.686156 33.049673 0.513736 0.630969 0.126211 -0.029590 -513685.000000 0 0 1
17.041353 9.739661 25.259536 31.989262 0.519223 0.660598 0.132941 -0.025961 599383.000000 0 0 1
15.844853 9.230761 24.654746 30.726582 0.527506 0.639505 0.149537 -0.026133 751740.000000 0 0 1
15.603853 7.657361 24.547116 30.077837 0.456208 0.616132 0.155046 -0.034045 -13677.200000 0 0 1
15.492053 7.004461 25.787286 30.887705 0.424626 0.582896 0.139293 -0.036418 -156366.000000 0 0 1
15.399053 5.596961 25.575856 30.374022 0.348616 0.569760 0.142929 -0.039592 -79146.200000 0 0 1
15.803353 4.820861 26.865256 31.539319 0.296086 0.551381 0.103769 -0.035531 271448.000000 0 0 1
17.143153 5.121961 27.272816 32.617919 0.290333 0.580607 0.111804 -0.026395 811728.000000 0 0 1
17.678353 4.411561 28.391036 33.734803 0.244551 0.570567 0.108433 -0.030356 -397479.000000 0 0 1
18.011553 2.906061 28.125466 33.524664 0.159966 0.575448 0.108185 -0.032405 -921213.000000 0 0 1
17.030953 1.961161 27.829216 32.685850 0.114648 0.552119 0.096362 -0.040169 -408192.000000 0 0 1
16.519553 1.279761 28.919386 33.329631 0.077315 0.520284 0.092924 -0.044750 -170130.000000 0 0 1
16.880453 -0.228839 28.934286 33.499178 -0.013556 0.528169 0.104979 -0.041702 -23380.100000 0 0 1
16.210553 -1.014639 27.904326 32.287194 -0.062510 0.527131 0.101707 -0.037108 654768.000000 0 0 1
16.845053 -1.045839 26.617606 31.517400 -0.062006 0.565097 0.125174 -0.030074 -337889.000000 0 0 1
18.056753 -2.018339 26.458916 32.096639 -0.111315 0.601741 0.105217 -0.026184 585274.000000 0 0 1
19.244153 -1.796839 27.208986 33.375065 -0.093101 0.617637 0.112357 -0.034511 285799.000000 0 0 1
19.989553 -0.632139 26.873736 33.498948 -0.031613 0.639781 0.115402 -0.027818 -1680340.000000 0 0 1
21.436153 -0.821639 27.219806 34.656912 -0.038311 0.667442 0.093135 -0.011889 -1334610.000000 0 0 1
22.223753 -1.348839 26.228946 34.404537 -0.060619 0.703831 0.076533 -0.016409 15095.700000 0 0 1
23.627953 -1.251039 26.472156 35.505215 -0.052898 0.729384 0.078103 -0.021423 736651.000000 0 0 1
24.427553 -1.875239 25.281616 35.204857 -0.076617 0.769687 0.082632 -0.012872 -174940.000000 0 0 1
24.473953 -0.878039 24.228296 34.449320 -0.035861 0.790764 0.098825 0.002236 140658.000000 0 0 1
24.474853 -1.537139 22.926736 33.571066 -0.062722 0.819028 0.100676 0.009020 -194722.000000 0 0 1
24.026153 -0.653939 21.766336 32.426178 -0.027211 0.834891 0.108567 -0.003617 -1134770.000000 0 0 1
22.699553 -0.316939 21.821736 31.489019 -0.013961 0.805161 0.075474 0.004447 -1291500.000000 0 0 1
22.167853 0.289061 20.696336 30.328791 0.013039 0.819757 0.089221 0.013998 -362192.000000 0 0 1
-31.480927 -27.020404 -9.406433 42.539770 0.709299 1.793760 0.096453 -0.007168 169051.000000 0 0 1
-31.649367 -25.714504 -8.853233 41.728862 0.682305 1.784582 0.092793 0.000428 -295025.000000 0 0 1
-32.297987 -25.832304 -7.611333 42.052352 0.674626 1.752796 0.122846 -0.007920 -478813.000000 0 0 1
-32.494727 -24.460904 -6.843833 41.244165 0.645269 1.737502 0.156291 -0.019020 1284450.000000 0 0 1
-31.321127 -23.777604 -6.290633 39.824107 0.649335 1.729421 0.148187 -0.016417 923339.000000 0 0 1
-30.393767 -24.606104 -5.568733 39.500028 0.680554 1.712248 0.154583 -0.026031 -479674.000000 0 0 1
-29.168627 -23.797704 -5.181633 37.999853 0.684341 1.707582 0.135908 -0.034852 -902708.000000 0 0 1
-29.278107 -22.763504 -4.191633 37.322305 0.660865 1.683343 0.150061 -0.032811 -73807.300000 0 0 1
-30.087087 -21.641004 -4.451233 37.327997 0.623548 1.690327 0.155938 -0.028929 -251919.000000 0 0 1
-30.005327 -20.426304 -3.410133 36.457956 0.597693 1.664469 0.155797 -0.034989 311836.000000 0 0 1
-28.796357 -19.663304 -3.457033 35.040359 0.599116 1.669616 0.172249 -0.039461 572748.000000 0 0 1
-28.667567 -18.697004 -2.450033 34.313409 0.577921 1.642259 0.187719 -0.030756 29900.300000 0 0 1
-27.642267 -17.618504 -2.906133 32.908240 0.567449 1.659222 0.180976 -0.028106 234533.000000 0 0 1
-28.058567 -16.885804 -4.012633 32.992648 0.541746 1.692720 0.162781 -0.033272 364253.000000 0 0 1
-27.084617 -15.858704 -4.236933 31.670595 0.529708 1.704980 0.131447 -0.030431 376153.000000 0 0 1
-27.348907 -14.969204 -5.449533 31.650232 0.500800 1.743838 0.138489 -0.038685 25924.300000 0 0 1
-28.409397 -14.057604 -5.219933 32.124100 0.459497 1.734013 0.115917 -0.018761 207858.000000 0 0 1
-28.653757 -13.129104 -6.290133 32.139959 0.429651 1.767778 0.132454 -0.041697 -156856.000000 0 0 1
-30.066967 -12.499404 -6.185333 33.143868 0.393983 1.758518 0.120508 -0.032909 366693.000000 0 0 1
-31.039747 -13.350504 -6.773233 34.461262 0.406191 1.768631 0.114129 -0.028458 852111.000000 0 0 1
-32.360047 -12.783204 -6.809133 35.453452 0.376215 1.764055 0.133002 -0.028118 914391.000000 0 0 1
-33.443247 -13.669804 -7.476833 36.894679 0.388023 1.774863 0.093137 -0.025691 -310996.000000 0 0 1
-34.058119 -14.596304 -6.659133 37.647731 0.404891 1.748612 0.083310 -0.015423 173321.000000 0 0 1
-34.694765 -15.589804 -7.434633 38.756193 0.422306 1.763824 0.082380 -0.012712 -414735.000000 0 0 1
-35.654589 -16.585604 -6.725033 39.894336 0.435401 1.740176 0.089328 -0.021903 384851.000000 0 0 1
-37.015397 -16.176704 -6.731633 40.952903 0.412013 1.735921 0.113115 -0.031439 503559.000000 0 0 1
-37.441357 -15.332404 -5.654533 40.852314 0.388673 1.709656 0.131347 -0.031047 200661.000000 0 0 1
37.133168 -15.216104 -5.520133 40.507701 -0.388901 1.707495 0.203345 -0.044583 -364653.000000 0 0 1
36.604838 -14.547904 -6.631833 39.944172 -0.378290 1.737596 0.212287 -0.051321 897100.000000 0 0 1
35.172598 -14.654604 -6.690733 38.686367 -0.394775 1.744618 0.236400 -0.048603 970041.000000 0 0 1
34.350968 -13.763904 -5.733733 37.447427 -0.381096 1.724515 0.262285 -0.056066 -639659.000000 0 0 1
34.091218 -14.499204 -4.542533 37.323889 -0.402130 1.692805 0.253446 -0.058704 182608.000000 0 0 1
33.185708 -13.874904 -3.665333 36.155758 -0.396011 1.672347 0.298369 -0.052491 -719184.000000 0 0 1
33.183528 -14.513704 -2.255433 36.288857 -0.412307 1.632989 0.289532 -0.052182 576865.000000 0 0 1
34.408368 -14.437704 -1.484933 37.344185 -0.397287 1.610570 0.297268 -0.041472 1584400.000000 0 0 1
35.591248 -15.107104 -1.964133 38.714588 -0.401414 1.621552 0.245149 -0.041141 187716.000000 0 0 1
35.549728 -16.659004 -2.206133 39.321402 -0.438223 1.626931 0.201372 -0.036452 -751846.000000 0 0 1
35.863398 -17.544104 -1.082833 39.939347 -0.454964 1.597912 0.158591 -0.029476 243419.000000 0 0 1
35.550958 -18.918904 -1.244833 40.290758 -0.489046 1.601697 0.123957 -0.023231 -43479.600000 0 0 1
36.552978 -19.740404 -2.090233 41.595346 -0.495171 1.621069 0.100722 -0.035263 -63717.500000 0 0 1
36.853558 -19.306504 -3.354433 41.739407 -0.482561 1.651249 0.070110 -0.036385 -619525.000000 0 0 1
37.718108 -20.094804 -4.041933 42.927777 -0.489513 1.665093 0.098395 -0.031833 -821477.000000 0 0 1
37.840208 -19.554604 -5.503433 42.948244 -0.476972 1.699291 0.141159 -0.038414 170086.000000 0 0 1
36.667308 -19.616004 -6.333133 42.064090 -0.491233 1.721930 0.114847 -0.048540 694385.000000 0 0 1
36.763538 -18.669704 -7.378033 41.887360 -0.469894 1.747860 0.143991 -0.049867 -477976.000000 0 0 1
35.493358 -18.514204 -8.204533 40.864026 -0.480797 1.772947 0.155074 -0.055898 -498314.000000 0 0 1
35.455888 -19.523404 -9.171533 41.501811 -0.503334 1.793627 0.160302 -0.057230 410262.000000 0 0 1
34.251348 -19.417504 -9.909933 40.600506 -0.515735 1.817371 0.156449 -0.068119 -143221.000000 0 0 1
33.968848 -20.605204 -10.819433 41.176659 -0.545252 1.836674 0.142372 -0.051248 -94670.400000 0 0 1
33.672818 -21.780004 -10.016333 41.334661 -0.574131 1.815556 0.126226 -0.059219 197113.000000 0 0 1
33.281448 -22.785604 -10.958833 41.796346 -0.600338 1.836093 0.099850 -0.056167 -402234.000000 0 0 1
32.859108 -24.050004 -10.186233 41.974790 -0.631824 1.815919 0.097805 -0.045538 162360.000000 0 0 1
31.560978 -23.811104 -9.651033 40.696517 -0.646341 1.810224 0.103574 -0.049495 381151.000000 0 0 1
30.852308 -25.048704 -9.477333 40.854894 -0.681949 1.804904 0.052088 -0.035849 506924.000000 0 0 1
29.439708 -24.775004 -8.832833 39.478047 -0.699568 1.796447 0.035342 -0.031951 723187.000000 0 0 1
28.612608 -24.235804 -9.845333 38.768365 -0.702769 1.827561 0.049974 -0.033152 62265.700000 0 0 1
27.341508 -23.768704 -9.407533 37.430082 -0.715608 1.824857 0.078050 -0.042583 634492.000000 0 0 1
26.427608 -23.257504 -10.591633 36.762925 -0.721681 1.863045 0.157671 -0.062145 -442712.000000 0 0 1
26.011808 -24.283104 -11.475233 37.389361 -0.751040 1.882743 0.125000 -0.050892 613227.000000 0 0 1
25.187708 -23.646104 -12.489733 36.736253 -0.753840 1.917696 0.133995 -0.038763 18789.600000 0 0 1
24.276208 -24.703104 -13.104233 37.031049 -0.794114 1.932504 0.133736 -0.051484 -512494.000000 0 0 1
24.943608 -25.679004 -13.848533 38.384589 -0.799924 1.939904 0.143076 -0.045396 89159.800000 0 0 1
24.172108 -26.881704 -13.936133 38.744453 -0.838422 1.938736 0.144385 -0.029270 -250078.000000 0 0 1
24.853308 -28.131504 -14.443333 40.220372 -0.847190 1.938105 0.137531 -0.033386 -472227.000000 0 0 1
24.951408 -28.144904 -15.865133 40.821696 -0.845471 1.969956 0.155051 -0.027427 371262.000000 0 0 1
25.319208 -29.484504 -16.278733 42.135442 -0.861256 1.967460 0.140321 -0.025897 -78139.400000 0 0 1
25.281908 -29.656604 -17.837733 42.858765 -0.864859 2.000056 0.143760 -0.024609 -440746.000000 0 0 1
23.939808 -29.609704 -18.222233 42.212543 -0.890887 2.017149 0.147936 -0.027089 -378978.000000 0 0 1
23.790108 -29.754004 -19.588133 42.836491 -0.896324 2.045727 0.138260 -0.020865 -118340.000000 0 0 1
22.307808 -29.791104 -20.008233 42.254912 -0.928059 2.064071 0.116398 -0.017665 -147863.000000 0 0 1
22.161708 -29.831304 -21.435233 42.901250 -0.931854 2.093981 0.088379 -0.017163 994515.000000 0 0 1
20.818008 -29.510304 -21.864533 42.217358 -0.956423 2.115195 0.093003 -0.025004 650066.000000 0 0 1
20.603308 -29.667004 -23.386633 43.029781 -0.963781 2.145396 0.090403 -0.025300 -69677.600000 0 0 1
21.330008 -28.662204 -24.103933 43.098617 -0.931027 2.164306 0.100665 -0.025682 630210.000000 0 0 1
21.508708 -28.909904 -25.454013 44.117047 -0.931152 2.185805 0.101361 -0.024985 -289470.000000 0 0 1
21.866908 -27.613604 -26.202683 43.900494 -0.901021 2.210385 0.111712 -0.031204 427841.000000 0 0 1
20.789808 -26.685104 -26.340803 42.873638 -0.908943 2.232399 0.114419 -0.038011 734324.000000 0 0 1
19.898108 -26.902604 -27.445423 43.277431 -0.933962 2.257736 0.115038 -0.037971 107433.000000 0 0 1
19.147608 -25.596304 -27.727383 42.315593 -0.928537 2.285313 0.108304 -0.034921 368192.000000 0 0 1
18.131408 -25.265604 -26.747983 41.018938 -0.948335 2.281132 0.083713 -0.021696 749677.000000 0 0 1
17.456608 -24.056204 -27.125643 40.239715 -0.943056 2.310544 0.077500 -0.016147 637056.000000 0 0 1
16.187308 -23.739104 -26.271743 38.933000 -0.972333 2.311481 0.072490 -0.003647 -195697.000000 0 0 1
15.128008 -24.647604 -26.323483 39.106096 -1.020312 2.309229 0.117308 -0.023081 -694244.000000 0 0 1
14.024008 -24.172104 -25.584183 37.888175 -1.045083 2.312107 0.092603 -0.015606 -30461.100000 0 0 1
14.059808 -24.262404 -24.038933 36.935251 -1.045595 2.279486 0.076390 -0.010551 47347.600000 0 0 1
15.109708 -23.431604 -23.512233 36.471475 -0.998055 2.271394 0.044384 -0.003594 221570.000000 0 0 1
15.209408 -23.771604 -22.146633 35.873230 -1.001615 2.236176 0.061083 -0.016871 888953.000000 0 0 1
16.601308 -23.331304 -21.550933 35.838470 -0.952363 2.215967 0.053194 -0.020033 836607.000000 0 0 1
16.586308 -21.979904 -21.255933 34.785579 -0.924350 2.228190 0.042787 -0.013000 -134471.000000 0 0 1
17.728208 -21.705304 -20.498633 34.721802 -0.885914 2.202311 0.053439 -0.014581 -630754.000000 0 0 1
17.704208 -20.222804 -19.922833 33.456241 -0.851707 2.208671 0.066420 0.003681 -10598.500000 0 0 1
16.893508 -20.005604 -18.782333 32.224072 -0.869540 2.193048 0.062913 -0.005404 23581.100000 0 0 1
15.546108 -19.748704 -19.074233 31.551849 -0.903911 2.219980 0.071837 -0.009153 -379238.000000 0 0 1
14.600508 -19.705504 -17.842333 30.328709 -0.933122 2.199749 0.073432 -0.014767 128055.000000 0 0 1
14.924808 -18.766804 -16.831233 29.295618 -0.898942 2.182827 0.092818 -0.017475 419837.000000 0 0 1
13.760808 -18.503104 -16.070633 28.106760 -0.931338 2.179459 0.102266 -0.033388 -35659.400000 0 0 1
13.740608 -17.085504 -15.477833 26.838071 -0.893484 2.185494 0.112596 -0.034794 -899747.000000 0 0 1
12.526208 -16.694204 -14.905433 25.647110 -0.927082 2.190967 0.119505 -0.044788 -321764.000000 0 0 1
12.506108 -15.347304 -14.441533 24.505109 -0.887052 2.201022 0.097292 -0.044838 372255.000000 0 1 0
11.046808 -14.837904 -14.221633 23.333457 -0.930825 2.226220 0.102680 -0.034835 607753.000000 0 1 0
10.356708 -14.321404 -15.346233 23.406642 -0.944693 2.285821 0.132866 -0.028048 -20369.700000 0 1 0
9.108408 -13.735904 -15.101533 22.353847 -0.985260 2.312531 0.127836 -0.025785 -52032.500000 0 1 0
8.358508 -13.174404 -16.359433 22.606650 -1.005430 2.379881 0.102536 -0.014842 255303.000000 0 1 0
8.843408 -11.950404 -16.962033 22.555013 -0.933720 2.421932 0.093427 -0.012532 129420.000000 0 1 0
10.116508 -12.032704 -17.571333 23.577138 -0.871696 2.411736 0.129651 -0.020014 -12150.400000 0 1 0
10.551408 -10.804304 -18.414833 23.815358 -0.797240 2.454721 0.127746 -0.020470 -311986.000000 0 1 0
9.849208 -10.674204 -19.621933 24.412411 -0.825574 2.504399 0.137562 -0.022513 -75918.000000 0 1 0
10.114108 -9.557004 -20.375033 24.673335 -0.757085 2.542401 0.129363 -0.035577 -58354.200000 0 1 0
9.785808 -9.673704 -21.888433 25.854324 -0.779637 2.580372 0.127176 -0.035527 -78021.500000 0 0 1
10.864608 -10.256704 -22.573533 27.070354 -0.756625 2.556904 0.110561 -0.032495 -286965.000000 0 0 1
10.709108 -10.250304 -23.986133 28.197310 -0.763512 2.588023 0.097854 -0.026609 307193.000000 0 0 1
11.839608 -11.067104 -24.674833 29.521255 -0.751687 2.560444 0.123424 -0.020647 251095.000000 0 0 1
11.704008 -12.426104 -24.329633 29.720749 -0.815314 2.529779 0.105537 -0.019573 129061.000000 0 0 1
12.840508 -13.164104 -24.752633 30.836101 -0.797841 2.502632 0.088479 -0.017746 181641.000000 0 0 1
12.866008 -14.610104 -24.314133 31.147494 -0.848790 2.466442 0.079782 -0.016552 -597899.000000 0 0 1
11.860108 -15.294804 -24.947533 31.574873 -0.911215 2.481780 0.080864 -0.019038 -756885.000000 0 0 1
11.720908 -16.607004 -24.365733 31.731077 -0.956201 2.446325 0.070484 -0.017785 686829.000000 0 0 1
10.515908 -17.362304 -25.044133 32.237285 -1.026215 2.460474 0.078326 -0.020774 598380.000000 0 0 1
10.786108 -17.964804 -26.263073 33.597966 -1.030081 2.468162 0.080951 -0.030622 487326.000000 0 0 1
9.585708 -18.517704 -26.820763 33.972702 -1.093128 2.480757 0.093014 -0.032148 585077.000000 0 0 1
9.840608 -19.398504 -28.105913 35.539863 -1.101336 2.482957 0.095636 -0.034793 125598.000000 0 0 1
10.724608 -20.505704 -27.928273 36.269678 -1.088914 2.449664 0.086433 -0.032259 396954.000000 0 0 1
11.059808 -21.215404 -29.161733 37.720278 -1.090246 2.454518 0.094683 -0.034851 -170252.000000 0 0 1
11.613508 -22.552904 -28.724093 38.322064 -1.095264 2.418170 0.070385 -0.021560 -4745.220000 0 0 1
11.831708 -23.507304 -29.783723 39.744846 -1.104496 2.417911 0.076294 -0.023811 -46370.600000 0 0 1
12.552408 -24.640404 -29.346633 40.322913 -1.099638 2.385891 0.103319 -0.027188 -107013.000000 0 0 1
11.807608 -25.679804 -28.498953 40.138040 -1.139822 2.360328 0.090716 -0.027716 -41152.300000 0 0 1
11.518808 -25.263504 -27.186873 38.859409 -1.143008 2.345664 0.101415 -0.026435 -965735.000000 0 0 1
10.521508 -25.954004 -26.511263 38.563707 -1.185652 2.328791 0.092583 -0.019428 10832.000000 0 0 1
9.601408 -24.960104 -25.767473 37.136996 -1.203575 2.337617 0.080327 -0.016884 38418.000000 0 0 1
10.437808 -24.045504 -25.028633 36.243159 -1.161255 2.333081 0.086966 -0.009926 -140145.000000 0 0 1
9.829308 -22.848404 -24.721033 35.068424 -1.164532 2.353131 0.082206 -0.006640 -640915.000000 0 0 1
10.719408 -21.612704 -24.651833 34.492428 -1.110372 2.366995 0.099181 -0.004980 -117547.000000 0 0 1
11.338408 -21.382404 -23.410733 33.672379 -1.083228 2.339564 0.091291 -0.008418 -330007.000000 0 0 1
12.351708 -20.442404 -23.371833 33.417049 -1.027280 2.345352 0.084135 -0.013747 -217445.000000 0 0 1
13.147508 -20.400604 -22.033933 32.780113 -0.998321 2.307937 0.065120 -0.001822 693747.000000 0 0 1
12.366108 -19.872704 -20.901633 31.380301 -1.014165 2.299730 0.058674 0.000811 449926.000000 0 0 1
11.921508 -18.519604 -21.001833 30.433125 -0.998846 2.332421 0.059637 -0.002083 -318244.000000 0 0 1
12.911808 -17.438204 -20.562433 29.893468 -0.933447 2.329329 0.074285 -0.008243 -585254.000000 0 0 1
13.797508 -17.151104 -21.603633 30.842318 -0.893337 2.346830 0.062828 0.005666 -210892.000000 0 0 1
14.890708 -16.446704 -20.992733 30.543774 -0.835010 2.328562 0.075796 -0.013384 350080.000000 0 0 1
16.086808 -16.191604 -21.933833 31.655118 -0.788645 2.336300 0.056988 0.004042 1521.220000 0 0 1
17.025708 -17.280204 -22.006933 32.753401 -0.792816 2.307564 0.049549 0.010865 388143.000000 0 0 1
18.040708 -16.949604 -22.926133 33.739647 -0.754225 2.317879 0.059843 0.012944 266321.000000 0 0 1
19.500208 -17.119204 -22.417833 34.291172 -0.720469 2.283325 0.054441 0.010491 216008.000000 0 0 1
19.840808 -18.460704 -22.282333 35.085006 -0.749381 2.258929 0.057051 -0.002439 319857.000000 0 0 1
21.181608 -18.621904 -21.825633 35.662222 -0.721178 2.229396 0.039034 -0.009624 600277.000000 0 0 1
21.660108 -20.079504 -21.610933 36.597530 -0.747548 2.202478 0.067382 -0.025237 -5283.360000 0 0 1
21.126308 -20.599104 -20.420633 35.883788 -0.772764 2.176179 0.071013 -0.027466 217136.000000 0 0 1
21.703608 -21.861804 -20.152033 36.811541 -0.789029 2.150096 0.106820 -0.033432 -25919.500000 0 0 1
-17.264747 12.957461 28.319506 35.608450 -0.643831 0.651289 0.111695 -0.048632 -587319.000000 0 0 1
-18.461347 13.688061 28.192776 36.373300 -0.638003 0.683930 0.106696 -0.053538 -263481.000000 0 0 1
-18.888547 13.371761 26.867996 35.460829 -0.616028 0.711044 0.107262 -0.050949 358332.000000 0 0 1
-20.232647 14.029261 26.428956 36.120215 -0.606281 0.749992 0.133316 -0.047415 400817.000000 0 0 1
-20.067947 15.421261 26.387666 36.562915 -0.655206 0.764533 0.128623 -0.042380 -590325.000000 0 0 1
-21.068647 16.054861 25.681616 36.894334 -0.651154 0.800865 0.124837 -0.040260 -1026010.000000 0 0 1
-21.058047 17.579161 26.048616 37.828543 -0.695601 0.811244 0.112283 -0.027315 691770.000000 0 0 1
-19.930747 18.396561 25.698966 37.364489 -0.745391 0.812355 0.103752 -0.018837 220545.000000 0 0 1
-18.728547 18.184761 26.395426 37.123612 -0.770668 0.779856 0.101278 -0.008532 -328160.000000 0 0 1
-17.541347 18.919661 25.733806 36.440104 -0.823183 0.786687 0.102790 -0.010483 -1792.310000 0 0 1
-17.657547 20.310661 25.733216 37.235874 -0.855162 0.807805 0.109114 -0.009837 5012.450000 0 0 1
-16.414547 20.928361 25.498376 36.845635 -0.905689 0.806495 0.119855 -0.015367 68570.500000 0 0 1
-16.639547 22.470061 25.345886 37.738470 -0.933390 0.834404 0.118432 -0.013781 122859.000000 0 0 1
-16.143247 23.331861 26.333646 38.709703 -0.965529 0.822644 0.118322 -0.013110 -107784.000000 0 0 1
-16.356747 24.671961 25.958446 39.371179 -0.985358 0.850874 0.112526 -0.016353 -125872.000000 0 0 1
-15.820347 25.702561 26.937206 40.453901 -1.019046 0.842131 0.093862 -0.004360 -566227.000000 0 0 1
-14.429947 25.781461 26.851476 39.923788 -1.060535 0.833122 0.097101 -0.016598 -761677.000000 0 0 1
-14.007947 26.751061 27.727856 40.996047 -1.088415 0.827994 0.107240 -0.008212 651389.000000 0 0 1
-12.450147 26.747461 27.892426 40.600742 -1.135152 0.813453 0.111597 -0.019341 1074730.000000 0 0 1
-11.662547 27.366361 26.894376 40.102870 -1.167941 0.835732 0.107352 -0.014963 64103.800000 0 0 1
-10.273347 27.216661 27.056326 39.728240 -1.209866 0.821621 0.090374 -0.003115 -200449.000000 0 0 1
-9.444047 27.925361 25.985256 39.296938 -1.244682 0.848307 0.097534 -0.014550 1159380.000000 0 0 1
-8.013447 27.704361 26.125576 38.913914 -1.289232 0.834743 0.090885 -0.016170 1373200.000000 0 0 1
-7.296247 28.046261 24.983436 38.262254 -1.316287 0.859320 0.113534 -0.018856 -1360700.000000 0 0 1
-5.813847 27.924461 25.120686 38.008226 -1.365530 0.848742 0.100855 -0.024856 -1411220.000000 0 0 1
-5.197647 28.810661 26.000486 39.154757 -1.392309 0.844582 0.114276 -0.025709 649204.000000 0 0 1
-3.777747 28.981861 26.007706 39.123144 -1.441178 0.843617 0.114438 -0.020759 996682.000000 0 0 1
-3.185947 29.884061 24.854886 38.999650 -1.464587 0.879793 0.120099 -0.014923 -189209.000000 0 0 1
-2.988047 29.170261 23.625776 37.656472 -1.468718 0.892583 0.134142 -0.013859 93301.300000 0 0 1
-2.580747 30.017361 22.546486 37.630390 -1.485032 0.928349 0.135939 -0.022403 -308772.000000 0 0 1
-2.910047 29.426061 21.100636 36.326276 -1.472223 0.951006 0.146842 -0.017815 404025.000000 0 0 1
-4.260847 29.521461 20.718136 36.316837 -1.427456 0.963703 0.147269 -0.010871 287958.000000 0 0 1
-5.204147 28.635761 21.346736 36.093948 -1.391022 0.937976 0.150560 -0.011393 624634.000000 0 0 1
-6.722347 28.940261 21.131536 36.459162 -1.342560 0.952565 0.118086 -0.019060 490255.000000 0 0 1
-7.038947 28.930761 19.759536 35.734787 -1.332130 0.984896 0.105107 -0.017216 73365.200000 0 0 1
-7.747847 27.783361 19.233636 34.668099 -1.298839 0.982682 0.070092 -0.021481 -616444.000000 0 0 1
-7.061947 26.379661 19.178436 33.370197 -1.309225 0.958537 0.066437 -0.019526 1048400.000000 0 0 1
-6.059347 26.188261 18.107636 32.410295 -1.343421 0.977979 0.076882 -0.018830 1200800.000000 0 0 1
-4.796047 26.776661 18.371136 32.825147 -1.393563 0.976813 0.101879 -0.015463 115015.000000 0 0 1
-3.839947 26.790861 17.119936 32.024797 -1.428435 1.006781 0.101853 -0.017736 379531.000000 0 0 1
-3.370447 25.514761 16.721136 30.691356 -1.439459 0.994627 0.102722 -0.019623 55650.500000 0 0 1
-2.634747 25.720961 15.504736 30.148078 -1.468717 1.030621 0.106654 -0.027608 294381.000000 0 0 1
-1.947847 24.490861 14.876036 28.720948 -1.491430 1.026343 0.096319 -0.023724 -817965.000000 0 0 1
-0.747447 24.169161 15.451036 28.695671 -1.539881 1.002206 0.098192 -0.025580 -1102100.000000 0 0 1
-0.106247 23.071761 14.876136 27.452083 -1.566191 0.998107 0.083707 -0.032773 41027.600000 0 0 1
1.230853 22.822461 15.632136 27.690132 1.516917 0.970923 0.070264 -0.033298 47488.700000 0 0 1
2.268153 23.734361 15.291336 28.324713 1.475522 1.000527 0.071257 -0.036830 -538522.000000 0 0 1
3.403053 23.198061 15.922136 28.341581 1.425140 0.974243 0.072440 -0.039244 -961916.000000 0 0 1
4.629653 23.976561 15.476536 28.910765 1.380053 1.005909 0.103359 -0.054373 -416358.000000 0 0 1
5.874753 23.478261 15.944236 28.982066 1.325610 0.988263 0.099772 -0.049667 -580217.000000 0 0 1
6.829453 24.467761 15.705136 29.865767 1.298603 1.017073 0.117315 -0.052525 -221280.000000 0 0 1
8.259553 23.844061 15.803036 29.774073 1.237333 1.011293 0.147510 -0.055752 303585.000000 0 0 1
8.535453 22.950461 14.771036 28.596523 1.214739 1.028000 0.121389 -0.044978 20596.000000 0 0 1
8.978553 23.530261 13.534036 28.591218 1.206274 1.077691 0.131086 -0.051250 -562024.000000 0 0 1
9.438453 22.511861 12.446536 27.400448 1.173793 1.099271 0.100504 -0.041781 -301332.000000 0 0 1
10.670953 21.907661 12.737836 27.496678 1.117532 1.089137 0.093672 -0.033384 -250134.000000 0 0 1
11.114153 21.058061 11.709136 26.534321 1.085168 1.113769 0.080922 -0.043510 286465.000000 0 0 1
12.572353 20.539661 11.854736 26.841693 1.021526 1.113355 0.122843 -0.042616 320863.000000 0 0 1
12.804553 19.714161 12.969436 26.847924 0.994765 1.066638 0.117656 -0.038073 57588.300000 0 0 1
14.118353 19.187961 12.985436 27.131666 0.936450 1.071728 0.099113 -0.035871 -112598.000000 0 0 1
14.442253 18.565661 14.321936 27.538705 0.909676 1.023868 0.126020 -0.039237 -520016.000000 0 0 1
15.721953 17.992861 14.367236 27.880824 0.852653 1.029428 0.114997 -0.041083 -62874.100000 0 0 1
16.110553 17.579361 15.656836 28.525784 0.828968 0.989789 0.122948 -0.043436 -901424.000000 0 0 1
17.489653 16.994961 15.563636 28.929975 0.771054 1.002762 0.110277 -0.038951 -1084210.000000 0 0 1
18.141253 16.771061 16.772036 29.860923 0.746172 0.974391 0.107364 -0.042986 944185.000000 0 0 1
19.347553 15.972661 16.636136 30.103401 0.690136 0.985276 0.108871 -0.040786 941810.000000 0 0 1
20.063153 15.715961 17.977136 31.188122 0.664490 0.956468 0.113999 -0.037704 -40101.800000 0 0 1
20.567353 16.873561 18.641236 32.484285 0.687060 0.959592 0.128753 -0.030437 117726.000000 0 0 1
19.701953 17.247261 19.624636 32.722489 0.719061 0.927634 0.115313 -0.026208 -333363.000000 0 0 1
20.360553 18.506761 20.321036 34.205216 0.737739 0.934660 0.088930 -0.019713 709195.000000 0 0 1
19.418353 19.359161 21.006836 34.541811 0.783872 0.917060 0.123275 -0.022975 587978.000000 0 0 1
20.078653 20.357061 21.780136 35.943519 0.792283 0.919831 0.108708 -0.014349 -291131.000000 0 0 1
19.154953 21.353461 22.431666 36.415136 0.839618 0.907144 0.135425 -0.020168 -925939.000000 0 0 1
18.418553 20.858861 23.471856 36.404165 0.847448 0.870090 0.148508 -0.019606 -186766.000000 0 0 1
17.642953 21.929061 23.995946 36.985983 0.893289 0.864810 0.136433 -0.030840 311605.000000 0 0 1
16.798753 21.680161 25.297526 37.312093 0.911583 0.825761 0.172062 -0.031858 640243.000000 0 0 1
15.730153 20.756661 25.170616 36.219285 0.922299 0.802445 0.170831 -0.027156 51306.700000 0 0 1
15.024553 20.565961 26.412896 36.692466 0.939857 0.767217 0.164669 -0.022866 505227.000000 0 0 1
13.885353 19.502061 26.373216 35.618534 0.952066 0.737079 0.174355 -0.019926 125893.000000 0 0 1
14.206553 18.108261 26.235606 34.900463 0.905557 0.720120 0.154598 -0.022136 -177416.000000 0 0 1
14.756053 17.606861 25.018526 33.965708 0.873260 0.742794 0.167153 -0.028851 948084.000000 0 0 1
13.706853 17.463061 23.794976 32.542852 0.905327 0.750733 0.179323 -0.022438 630820.000000 0 0 1
13.139953 18.639161 23.202256 32.533389 0.956746 0.776768 0.172862 -0.025521 24721.700000 0 0 1
13.972653 19.428761 22.375256 32.762232 0.947318 0.818991 0.169264 -0.027262 72767.900000 0 0 1
14.696553 18.750761 21.157536 31.862534 0.906021 0.844607 0.177369 -0.034324 400017.000000 0 0 1
13.744953 18.160561 20.281636 30.497122 0.922921 0.843256 0.141212 -0.025165 419903.000000 0 0 1
14.338153 17.027661 19.676536 29.710098 0.870935 0.846933 0.123820 -0.026265 798368.000000 0 0 1
13.330853 16.236961 18.713936 28.134711 0.883370 0.843095 0.129791 -0.025250 998000.000000 0 0 1
12.759353 17.067561 17.635936 27.660965 0.928846 0.879450 0.144386 -0.030551 592947.000000 0 0 1
11.890953 16.304661 16.811536 26.265271 0.940677 0.876211 0.112364 -0.032324 197584.000000 0 0 1
11.378053 16.983161 15.501036 25.654824 0.980517 0.922016 0.105237 -0.030303 218870.000000 0 0 1
10.410653 18.012661 15.682936 26.053640 1.046738 0.924858 0.107696 -0.034932 443224.000000 0 0 1
9.796753 18.319061 14.425436 25.291453 1.079710 0.963842 0.097744 -0.023679 -132823.000000 0 0 1
8.780653 19.449061 14.472436 25.784050 1.146721 0.974848 0.097019 -0.031391 390049.000000 0 0 1
7.497253 19.126361 15.019036 25.447946 1.197218 0.939506 0.067380 -0.026238 -18991.300000 0 0 1
6.672853 20.220061 15.017136 26.055560 1.252038 0.956541 0.076903 -0.029108 -861747.000000 0 0 1
5.355853 20.019961 15.734236 26.020188 1.309392 0.921415 0.060969 -0.030904 -560391.000000 0 0 1
4.341953 19.312161 15.062936 24.873765 1.349644 0.920308 0.047221 -0.030221 -889767.000000 0 1 0
3.196153 19.229461 15.856336 25.127892 1.406091 0.887922 0.035468 -0.023539 80048.600000 0 0 1
2.077353 18.647561 14.927936 23.976868 1.459853 0.898739 0.029790 -0.019875 565937.000000 0 1 0
1.274053 19.564861 14.162936 24.186686 1.505769 0.945216 0.035149 -0.027473 461907.000000 0 1 0
0.271653 18.887061 13.431536 23.177598 1.556414 0.952675 0.029640 -0.030387 351988.000000 0 1 0
-0.736847 19.705861 12.580936 23.391107 -1.533421 1.002910 0.038370 -0.036343 -83272.100000 0 1 0
-1.582347 20.545161 13.325336 24.539194 -1.493930 0.996764 0.048584 -0.031699 -299089.000000 0 1 0
-2.702847 20.696661 12.473036 24.315300 -1.440938 1.032154 0.042492 -0.034078 159938.000000 0 1 0
-3.862347 21.558361 13.026836 25.482918 -1.393519 1.034217 0.049506 -0.024581 469841.000000 0 0 1
-4.693547 20.924461 14.028536 25.625423 -1.350140 0.991487 0.060509 -0.029978 613671.000000 0 0 1
-5.816647 21.776361 14.282936 26.684182 -1.309782 1.005983 0.069004 -0.019315 539613.000000 0 0 1
-6.794947 21.181961 15.330736 27.016259 -1.260378 0.967375 0.066263 -0.026716 -456304.000000 0 0 1
-7.578847 20.047661 14.953736 26.133539 -1.209362 0.961605 0.065082 -0.030476 394017.000000 0 0 1
-8.346247 19.567461 16.068536 26.659768 -1.167625 0.923883 0.055829 -0.016345 656733.000000 0 0 1
-9.642447 20.349361 16.425536 27.872415 -1.128291 0.940590 0.051229 -0.008680 155482.000000 0 0 1
-10.777647 20.101361 15.610336 27.638831 -1.078637 0.970609 0.041434 -0.021799 1462030.000000 0 0 1
-11.989747 19.766661 16.356636 28.319860 -1.025564 0.955050 0.027149 -0.010430 982816.000000 0 0 1
-13.308547 19.640161 15.616636 28.403040 -0.975250 0.988644 0.020976 -0.019214 -620832.000000 0 0 1
-13.849647 20.841761 15.115636 29.234811 -0.984285 1.027404 0.010522 0.001209 146478.000000 0 0 1
-14.713947 20.417961 14.046336 28.821744 -0.946354 1.061742 0.015330 -0.006053 -441168.000000 0 0 1
-15.711347 21.507561 13.664036 29.935389 -0.939890 1.096794 0.014956 -0.006249 -360518.000000 0 0 1
-16.739947 21.488461 14.638636 30.923607 -0.908979 1.077672 0.011372 -0.012381 -612254.000000 0 0 1
-17.589747 22.577661 14.518036 32.092419 -0.908944 1.101362 0.041881 -0.023057 -75835.700000 0 0 1
-18.846747 22.448261 15.429436 33.123886 -0.872392 1.086247 0.104377 -0.019859 -297925.000000 0 0 1
-19.657747 21.363161 14.982136 32.669192 -0.826949 1.094376 0.096851 -0.023125 712395.000000 0 0 1
-20.802447 21.154861 15.834536 33.630381 -0.793797 1.080553 0.114935 -0.020455 1332110.000000 0 0 1
-22.032847 22.116861 15.758736 34.970554 -0.787301 1.103327 0.131388 -0.020082 -197433.000000 0 0 1
-22.688447 22.187361 14.501036 34.890180 -0.774233 1.142173 0.157084 -0.026459 43612.100000 0 0 1
-23.594847 23.265461 14.436836 36.144443 -0.778369 1.159912 0.180499 -0.037166 -204435.000000 0 0 1
-23.148247 24.550461 13.793736 36.453171 -0.814787 1.182733 0.151528 -0.034024 -472817.000000 0 0 1
-22.102947 25.249761 14.398436 36.515828 -0.851755 1.165483 0.101874 -0.036202 -307826.000000 0 0 1
-21.635247 26.281161 13.592736 36.654411 -0.882055 1.190888 0.084528 -0.032456 176061.000000 0 0 1
-20.165847 26.641161 13.975636 36.217831 -0.922866 1.174638 0.058615 -0.025769 199043.000000 0 0 1
-19.201347 25.849961 13.318436 34.846707 -0.931919 1.178620 0.055507 -0.018008 -611866.000000 0 0 1
-17.941847 26.428961 13.551136 34.699181 -0.974392 1.169587 0.016396 -0.018400 -621965.000000 0 0 1
-16.902547 25.753661 12.660436 33.305162 -0.989994 1.180855 0.022290 -0.018950 -928119.000000 0 0 1
-15.632447 26.317161 12.719936 33.147597 -1.034799 1.176957 0.021446 -0.010578 -431933.000000 0 0 1
-14.724147 25.701161 11.826636 31.893879 -1.050543 1.190913 0.021415 -0.001461 86467.500000 0 0 1
-13.334647 26.367661 11.856336 31.837699 -1.102583 1.189203 0.033663 -0.000303 163088.000000 0 0 1
-12.258347 25.552061 11.304636 30.511796 -1.123488 1.191249 0.042182 -0.001044 1668220.000000 0 0 1
-10.941347 26.018861 11.643136 30.532881 -1.172730 1.179561 0.054197 -0.005054 885623.000000 0 0 1
-10.487347 27.318061 10.915536 31.231552 -1.204248 1.213755 0.075765 -0.013281 -132660.000000 0 0 1
-9.199047 27.804161 11.308436 31.393862 -1.251281 1.202302 0.092113 -0.013125 608823.000000 0 0 1
-8.745347 28.856061 10.493536 31.925972 -1.276527 1.235887 0.102092 -0.019093 -721244.000000 0 0 1
-7.681847 29.590261 11.254636 32.577004 -1.316796 1.218048 0.097238 -0.014424 -993081.000000 0 0 1
-6.423847 29.018161 11.141136 31.740265 -1.352936 1.212147 0.100385 -0.015872 -1030500.000000 0 0 1
-5.439447 29.626761 11.919636 32.394603 -1.389219 1.193992 0.157457 -0.026664 264879.000000 0 0 1
-4.000347 29.258161 11.445536 31.670855 -1.434913 1.201038 0.160924 -0.035052 322487.000000 0 0 1
-3.632447 29.825161 10.161836 31.717469 -1.449602 1.244659 0.146683 -0.032407 194888.000000 0 0 1
-2.318847 29.439361 9.814536 31.118775 -1.492192 1.249929 0.150041 -0.033665 108696.000000 0 0 1
-1.963347 30.103561 8.453436 31.329534 -1.505669 1.297587 0.151844 -0.038907 32961.600000 0 0 1
-2.640647 29.625661 7.314436 30.629296 -1.481897 1.329661 0.150424 -0.030196 -10932.100000 0 0 1
-2.227447 30.328061 6.158236 31.027032 -1.497483 1.370990 0.161897 -0.025607 192997.000000 0 0 1
12.027453 -33.698604 -26.281663 44.395736 -1.227977 2.204317 0.166227 -0.054529 -433689.000000 0 0 1
12.604153 -33.443304 -25.046633 43.642331 -1.210377 2.182065 0.147049 -0.051852 462961.000000 0 0 1
13.912153 -32.878804 -25.079533 43.629654 -1.170507 2.183190 0.148956 -0.047455 230405.000000 0 0 1
14.483953 -32.842704 -23.655333 42.988404 -1.155444 2.153487 0.116999 -0.042986 -1138670.000000 0 0 1
13.875253 -31.976604 -22.752033 41.625483 -1.161396 2.149082 0.122916 -0.043536 262362.000000 0 0 1
14.473353 -31.890504 -21.430733 41.057990 -1.144749 2.119947 0.096865 -0.036154 999665.000000 0 0 1
15.967253 -31.359904 -21.397233 41.185414 -1.099846 2.117102 0.062921 -0.026774 768042.000000 0 0 1
16.860453 -32.282704 -21.965033 42.531289 -1.089488 2.113490 0.083678 -0.031227 -792222.000000 0 0 1
18.165653 -32.067604 -21.512133 42.674278 -1.055389 2.099137 0.070310 -0.031655 -569083.000000 0 0 1
19.131453 -33.226004 -21.827333 44.118163 -1.048363 2.088340 0.046136 -0.022592 346987.000000 0 0 1
20.426053 -33.030904 -21.240633 44.265435 -1.016963 2.071277 0.057228 -0.014068 494115.000000 0 0 1
21.228053 33.334961 -21.439333 44.961037 1.003749 2.067855 0.048925 -0.004296 -747439.000000 0 0 1
22.662653 33.418461 -20.910133 45.471123 0.974887 2.048628 0.092277 -0.002309 166500.000000 0 0 1
23.605753 -33.476204 -21.869833 46.434657 -0.956622 2.061199 0.085117 -0.010855 630507.000000 0 0 1
24.905653 -33.536604 -21.314833 46.896881 -0.932022 2.042612 0.096070 -0.006502 17207.500000 0 0 1
26.023553 -33.173204 -22.307133 47.700052 -0.905594 2.057431 0.125794 -0.009586 -187805.000000 0 0 1
26.144453 -31.828704 -22.713833 47.037400 -0.883135 2.074747 0.135827 -0.013128 428228.000000 0 0 1
24.977953 -31.266204 -23.344033 46.329446 -0.896739 2.098870 0.109726 -0.015822 515185.000000 0 0 1
24.832553 -29.705204 -23.152433 45.111972 -0.874506 2.109730 0.117521 -0.029061 -9253.930000 0 0 1
25.692153 -28.905504 -23.952333 45.489880 -0.844185 2.125324 0.111351 -0.036155 49205.500000 0 0 1
25.616253 -27.567504 -23.580833 44.409632 -0.822071 2.130558 0.130666 -0.031048 372931.000000 0 0 1
26.336153 -26.677104 -24.627933 44.853048 -0.791830 2.152060 0.109552 -0.038288 245194.000000 0 0 1
25.568053 -26.589904 -25.791863 45.010760 -0.804987 2.180977 0.104350 -0.034390 -37034.500000 0 0 1
26.358553 -26.114504 -26.889563 45.823457 -0.780747 2.197907 0.084641 -0.030372 -131099.000000 0 0 1
25.567453 -25.617604 -28.116903 45.831392 -0.786378 2.231263 0.080149 -0.023463 405202.000000 0 0 1
24.768253 -24.443204 -28.035663 44.687078 -0.778793 2.248977 0.091953 -0.024465 -508572.000000 0 0 1
23.495153 -24.644804 -27.521543 43.781548 -0.809275 2.250562 0.090668 -0.022111 -588099.000000 0 0 1
22.602553 -23.363404 -27.366053 42.492645 -0.801949 2.270536 0.087689 -0.019327 -54237.900000 0 0 1
22.033153 -22.946704 -28.545493 42.741739 -0.805706 2.302126 0.100874 -0.029229 41001.300000 0 0 1
21.414253 -21.667104 -28.219023 41.525256 -0.791267 2.317963 0.084678 -0.014909 -56844.300000 0 0 1
20.500753 -21.182104 -29.343993 41.593657 -0.801743 2.353913 0.115211 -0.026871 -66103.400000 0 0 1
19.243153 -21.846404 -29.394393 41.371423 -0.848669 2.361005 0.108884 -0.037439 439325.000000 0 0 1
18.528653 -21.247004 -30.481483 41.519477 -0.853634 2.395209 0.095565 -0.047017 -864502.000000 0 0 1
17.168253 -21.869504 -30.662613 41.391061 -0.905249 2.405061 0.106899 -0.050306 -1164910.000000 0 0 1
17.221553 -23.155604 -31.238573 42.527783 -0.931319 2.395792 0.096010 -0.032103 -403890.000000 0 0 1
16.359253 -24.055704 -30.676273 42.276894 -0.973581 2.382708 0.096543 -0.038698 -714725.000000 0 0 1
16.373053 -25.528904 -31.174663 43.493234 -1.000524 2.369956 0.116286 -0.037855 556257.000000 0 0 1
15.418153 -26.364604 -30.458743 43.134056 -1.041625 2.354830 0.119769 -0.032802 781025.000000 0 0 1
15.516053 -27.712004 -30.912223 44.320070 -1.060381 2.342667 0.163362 -0.038829 95956.200000 0 0 1
14.752553 -28.733904 -30.025623 44.100035 -1.096471 2.319722 0.146064 -0.042795 -337871.000000 0 0 1
15.259553 -28.936904 -28.685093 43.508998 -1.085518 2.290672 0.169747 -0.051211 117787.000000 0 0 1
15.069053 -27.796504 -27.786703 42.093026 -1.074023 2.291783 0.138458 -0.043680 95335.300000 0 0 1
15.975153 -27.851204 -26.510923 41.638013 -1.050023 2.261007 0.117148 -0.030479 105307.000000 0 0 1
15.695053 -28.958104 -25.734443 41.799139 -1.074122 2.234031 0.108984 -0.027398 61366.900000 0 0 1
16.509853 -29.065104 -24.590633 41.497647 -1.054216 2.205053 0.104759 -0.032372 -1174860.000000 0 0 1
16.120353 -28.132704 -23.389333 39.979691 -1.050458 2.195714 0.087129 -0.030364 468784.000000 0 0 1
14.976653 -28.402004 -22.590133 39.259242 -1.085540 2.183901 0.094614 -0.031624 -796108.000000 0 0 1
13.803153 -28.421804 -23.285233 39.249561 -1.118692 2.205900 0.098841 -0.023976 -1394280.000000 0 0 1
12.527653 -28.153604 -22.398633 38.095489 -1.152129 2.199331 0.069624 -0.012804 515879.000000 0 0 1
12.404453 -26.887804 -21.853933 36.802430 -1.138551 2.206592 0.055335 -0.014342 -82161.000000 0 0 1
11.157853 -26.792904 -21.215233 35.950570 -1.176191 2.202007 0.057281 -0.013692 -586905.000000 0 0 1
10.723353 -25.287104 -21.022633 34.588712 -1.169719 2.224069 0.072750 -0.010964 -254326.000000 0 0 1
11.504553 -24.591204 -20.078433 33.767226 -1.133213 2.207581 0.070327 -0.013011 -67043.600000 0 0 1
11.073353 -23.270204 -19.982133 32.609925 -1.126647 2.230348 0.080866 -0.017636 -91210.400000 0 0 1
11.578453 -22.462104 -18.764233 31.475437 -1.094853 2.209500 0.084917 -0.024758 -122002.000000 0 0 1
10.880653 -22.800104 -17.607333 30.793693 -1.125539 2.179475 0.098563 -0.028474 213738.000000 0 0 1
11.187153 -21.861604 -16.580933 29.631224 -1.097812 2.164671 0.097972 -0.031459 -70043.900000 0 0 1
10.416953 -22.195704 -15.315633 28.909009 -1.131990 2.129146 0.078727 -0.027649 34752.200000 0 0 1
10.957353 -23.356004 -14.774433 29.729621 -1.132136 2.090888 0.071177 -0.020568 178839.000000 0 0 1
10.162053 -23.715404 -13.653933 29.191053 -1.165965 2.057533 0.061500 -0.017954 197415.000000 0 0 1
10.148353 -25.202504 -13.197933 30.204978 -1.187988 2.022997 0.070766 -0.021158 1143670.000000 0 0 1
11.495153 -25.629104 -12.878133 30.900418 -1.149174 2.000677 0.056166 -0.023515 819045.000000 0 0 1
11.564853 -27.025304 -12.864133 32.087362 -1.166449 1.983306 0.053140 -0.026874 350042.000000 0 0 1
12.969753 -27.513604 -12.360533 32.832844 -1.130294 1.956778 0.055934 -0.029327 1303430.000000 0 0 1
14.174153 -27.154504 -13.044633 33.293185 -1.089718 1.973395 0.067732 -0.030076 601549.000000 0 0 1
14.325653 -27.465704 -14.433033 34.174576 -1.090032 2.006813 0.070983 -0.030944 62039.200000 0 0 1
15.689253 -27.015204 -15.061433 34.681705 -1.044647 2.020031 0.061179 -0.030309 958917.000000 0 0 1
16.884553 -27.693404 -14.681633 35.602852 -1.023278 1.995853 0.097657 -0.033614 417928.000000 0 0 1
17.922853 -27.156204 -15.485933 36.034736 -0.987430 2.015012 0.123698 -0.037940 1177710.000000 0 0 1
19.398653 -27.646704 -15.220733 37.044820 -0.958956 1.994208 0.122617 -0.040226 1165430.000000 0 0 1
19.635653 -28.986804 -15.671033 38.358506 -0.975400 1.991652 0.104068 -0.030604 -298110.000000 0 0 1
20.972053 -29.405804 -15.818133 39.430212 -0.951270 1.983588 0.118427 -0.028487 57287.400000 0 0 1
21.224153 -30.442204 -16.881433 40.769783 -0.961955 1.997714 0.104177 -0.033653 -476922.000000 0 0 1
21.127253 -31.782204 -16.434933 41.552092 -0.984121 1.977437 0.087679 -0.019334 -15647.900000 0 0 1
21.380053 -32.717204 -17.504033 42.824214 -0.991978 1.991871 0.076709 -0.021887 -158983.000000 0 0 1
21.272753 33.281361 -17.050533 43.022084 1.002066 1.978302 0.056965 -0.007979 -224625.000000 0 0 1
22.259453 32.909961 -16.116833 42.875414 0.976103 1.956163 0.074400 -0.014266 75063.000000 0 0 1
21.949253 31.625961 -15.599733 41.537005 0.964091 1.955800 0.070816 -0.018043 -435807.000000 0 0 1
22.909253 31.025461 -14.524933 41.211489 0.934760 1.930983 0.061687 -0.025542 -37443.600000 0 0 1
24.245253 30.837461 -14.949533 41.979398 0.904510 1.934904 0.069129 -0.023500 278861.000000 0 0 1
25.213153 30.411261 -14.013333 41.915646 0.878578 1.911682 0.080494 -0.022352 395689.000000 0 0 1
24.966653 29.029761 -13.267133 40.522557 0.860504 1.904348 0.078970 -0.020375 -972152.000000 0 0 1
25.033053 27.841061 -13.982033 39.965931 0.838456 1.928206 0.092146 -0.012395 52535.100000 0 0 1
24.636853 26.771261 -13.127033 38.678081 0.826893 1.917067 0.058328 -0.010524 1086500.000000 0 0 1
23.107553 26.538861 -12.808133 37.447542 0.854403 1.919871 0.057602 -0.011121 -479605.000000 0 0 1
22.380153 26.037261 -13.850533 37.022257 0.860788 1.954237 0.080774 -0.011611 -185875.000000 0 0 1
20.984353 25.990161 -13.632433 36.078730 0.891562 1.958272 0.077931 -0.014901 117089.000000 0 0 1
20.184553 27.298761 -13.530433 36.547382 0.934117 1.950038 0.069235 -0.020323 -896331.000000 0 0 1
20.343853 28.247161 -14.585733 37.742788 0.946636 1.967577 0.069655 -0.014821 54898.300000 0 0 1
19.782453 27.761861 -15.797833 37.571770 0.951679 2.004761 0.075379 -0.009325 -182336.000000 0 0 1
19.956353 28.724761 -16.964333 38.873597 0.963607 2.022387 0.066527 -0.007162 488548.000000 0 0 1
19.089853 29.900661 -17.045533 39.357620 1.002589 2.018718 0.063667 -0.013967 588855.000000 0 0 1
19.304353 30.525061 -18.278633 40.478955 1.006886 2.039308 0.065954 -0.003371 -447970.000000 0 0 1
18.204153 31.538761 -18.639433 40.908595 1.047311 2.043883 0.059907 -0.003321 -171657.000000 0 0 1
18.099253 32.727561 -17.941833 41.479942 1.065631 2.018107 0.065127 -0.017259 -567024.000000 0 0 1
17.128253 33.597861 -18.384833 41.954683 1.099338 2.024399 0.060772 -0.021825 -534860.000000 0 0 1
16.833553 -32.805204 -17.286733 40.723225 -1.096695 2.009198 0.071680 -0.021165 433052.000000 0 0 1
15.840953 -31.852404 -17.666933 39.719415 -1.109292 2.031740 0.060087 -0.023369 273500.000000 0 0 1
15.288653 -31.086304 -16.608633 38.418067 -1.113720 2.017853 0.069830 -0.020691 -316280.000000 0 0 1
14.275453 -30.105404 -17.129233 37.463776 -1.128015 2.045664 0.058785 -0.024449 619228.000000 0 0 1
13.029353 -30.675704 -17.592333 37.686245 -1.169142 2.056477 0.050687 -0.019829 570124.000000 0 0 1
12.004053 -29.732404 -17.787433 36.667505 -1.187073 2.077275 0.025504 -0.013276 721057.000000 0 0 1
10.724653 -30.520804 -18.297933 37.166544 -1.232885 2.085553 0.044704 -0.023088 458664.000000 0 0 1
9.988553 -31.036504 -17.166733 36.847422 -1.259432 2.055433 0.049714 -0.020000 451769.000000 0 0 1
8.898353 -31.926004 -17.376833 37.421982 -1.298977 2.053695 0.069586 -0.017834 927965.000000 0 0 1
7.544253 -31.220004 -17.772233 36.707720 -1.333694 2.076194 0.068842 -0.009673 283312.000000 0 0 1
7.525953 -30.727904 -19.110333 36.960099 -1.330602 2.114201 0.063648 -0.007195 -53260.800000 0 0 1
7.418953 -31.700004 -20.083933 38.253045 -1.340898 2.123545 0.069172 -0.019831 -1143080.000000 0 0 1
7.623753 -31.163104 -21.552533 38.649351 -1.330868 2.162340 0.072021 -0.006403 254212.000000 0 0 1
8.934753 -30.902004 -22.061433 39.006031 -1.289340 2.171945 0.074998 -0.012054 378805.000000 0 0 1
9.902953 -31.901104 -22.002533 39.998255 -1.269801 2.153265 0.088119 -0.022078 -526459.000000 0 0 1
9.765553 -32.959704 -23.081133 41.405879 -1.282749 2.162091 0.110177 -0.038169 -459901.000000 0 0 1
8.734653 33.588761 -22.782433 41.515519 1.316384 2.151687 0.113996 -0.045952 -251722.000000 0 0 1
8.471853 32.755661 -23.890233 41.417978 1.317705 2.185612 0.121697 -0.052350 -398407.000000 0 0 1
7.167353 31.933661 -23.740633 40.432009 1.350010 2.198360 0.115597 -0.055459 654356.000000 0 0 1
5.970753 32.731561 -23.751733 40.879699 1.390364 2.190772 0.115663 -0.055730 604363.000000 0 0 1
5.650453 33.208061 -22.431933 40.470910 1.402257 2.158286 0.083561 -0.044576 -1459330.000000 0 0 1
4.393653 -33.419104 -22.466333 40.507738 -1.440075 2.158701 0.086948 -0.041164 -1078160.000000 0 0 1
3.225853 33.280461 -22.524833 40.315795 1.474169 2.163626 0.092217 -0.050907 -395181.000000 0 0 1
2.131953 -33.315404 -22.732333 40.388369 -1.506890 2.168618 0.105190 -0.048652 -345410.000000 0 0 1
0.759253 33.632361 -22.295633 40.358487 1.548225 2.156085 0.095337 -0.055798 -329665.000000 0 0 1
0.620853 33.498761 -20.877933 39.477089 1.552265 2.128055 0.086736 -0.056967 465379.000000 0 0 1
-0.647547 33.069961 -20.361133 38.840924 -1.551218 2.122594 0.108961 -0.067771 493011.000000 0 0 1
-0.832747 33.189561 -18.815433 38.160987 -1.545711 2.086393 0.132561 -0.058767 -36950.100000 0 0 1
-0.040247 32.270761 -18.067633 36.984362 -1.569549 2.081190 0.128842 -0.069151 -177837.000000 0 0 1
-0.532047 31.990361 -16.785533 36.130602 -1.554166 2.053956 0.111713 -0.054475 -301685.000000 0 0 1
0.437653 31.140161 -15.962233 34.995629 1.556743 2.044428 0.057691 -0.052386 480299.000000 0 0 1
1.563153 31.913861 -15.534433 35.528251 1.521855 2.023326 0.061926 -0.042621 -172583.000000 0 0 1
2.402453 31.185661 -14.722433 34.569745 1.493911 2.010726 0.082096 -0.028348 -417341.000000 0 0 1
3.531253 31.897961 -13.990333 35.009700 1.460541 1.981891 0.113386 -0.038120 -799009.000000 0 0 1
4.551753 32.405861 -14.785833 35.909319 1.431248 1.995175 0.097712 -0.040215 -206743.000000 0 0 1
5.414253 33.146461 -13.892733 36.345702 1.408883 1.963014 0.113683 -0.050964 -35858.000000 0 0 1
6.798553 33.435661 -14.506633 37.075682 1.370199 1.972808 0.087103 -0.060739 -41547.300000 0 0 1
7.491453 32.208961 -14.656533 36.171163 1.342270 1.987993 0.083362 -0.044110 -249102.000000 0 0 1
8.689553 32.334261 -15.412133 36.858467 1.308258 2.002197 0.072293 -0.020405 4717.430000 0 0 1
9.555253 31.103761 -15.222633 35.923187 1.272742 2.008383 0.067053 -0.031402 -715048.000000 0 0 1
10.479553 31.257761 -14.195833 35.894155 1.247311 1.977399 0.068503 -0.035853 -562962.000000 0 0 1
11.320753 30.143261 -13.951533 35.091608 1.211530 1.979668 0.090809 -0.028427 34283.800000 0 0 1
10.696853 28.769161 -13.667133 33.598777 1.214819 1.989717 0.087182 -0.029236 -313978.000000 0 0 1
9.985953 28.111061 -14.698133 33.256370 1.229468 2.028584 0.102971 -0.034251 -36041.100000 0 0 1
9.487553 26.902761 -14.205733 31.868089 1.231753 2.032827 0.091990 -0.028509 -546817.000000 0 0 1
8.599053 26.145061 -15.169433 31.426416 1.253043 2.074528 0.100868 -0.026301 -340968.000000 0 0 1
9.298753 25.439861 -16.150633 31.535635 1.220364 2.108470 0.104882 -0.031690 -140044.000000 0 0 1
8.436653 24.504961 -16.782033 30.875668 1.239223 2.145440 0.094545 -0.027931 -94972.100000 0 0 1
9.117253 23.771661 -17.920433 31.134516 1.204564 2.184111 0.103093 -0.024287 -594668.000000 0 0 1
8.372753 22.880961 -18.717333 30.724256 1.220004 2.225852 0.112760 -0.031021 -511590.000000 0 0 1
9.185153 22.208061 -19.625033 31.027519 1.178625 2.255578 0.106663 -0.031039 -164457.000000 0 0 1
8.440153 21.080161 -20.401033 30.525588 1.189959 2.302752 0.096306 -0.036510 155882.000000 0 0 1
7.884853 20.041761 -19.613633 29.129670 1.195974 2.309488 0.108311 -0.043713 -114706.000000 0 0 1
7.499153 18.988761 -20.444033 28.892366 1.194672 2.356882 0.109114 -0.050440 -53656.100000 0 0 1
26.325453 -12.535639 -9.590633 30.694494 -0.444410 1.888572 0.140771 -0.036151 -34523.400000 0 0 1
26.583253 -11.684239 -8.499233 30.256036 -0.414116 1.855539 0.157372 -0.048218 842206.000000 0 0 1
25.395553 -11.741239 -7.709333 29.021106 -0.433064 1.839670 0.129179 -0.039120 254224.000000 0 0 1
25.597353 -11.177039 -6.280933 28.628671 -0.411695 1.791989 0.117156 -0.044560 -356681.000000 0 0 1
25.681553 -9.782239 -6.056533 28.141001 -0.363938 1.787714 0.153905 -0.060541 1534460.000000 0 0 1
26.757553 -9.038639 -6.728333 29.033327 -0.325763 1.804668 0.112024 -0.060810 -163519.000000 0 0 1
27.098953 -7.630539 -6.131833 28.812805 -0.274474 1.785253 0.158134 -0.056503 -67960.400000 0 0 1
27.642353 -7.569139 -4.807633 29.060366 -0.267273 1.736996 0.185202 -0.072983 1670420.000000 0 0 1
28.934453 -8.239839 -4.717133 30.452403 -0.277432 1.726324 0.181967 -0.079842 640831.000000 0 0 1
29.530353 -8.197539 -3.277933 30.821847 -0.270779 1.677349 0.195919 -0.089777 -212642.000000 0 0 1
30.103153 -7.002839 -2.826333 31.035910 -0.228563 1.661989 0.212153 -0.070603 154510.000000 0 0 1
30.798653 -7.108839 -1.618433 31.649833 -0.226844 1.621954 0.249815 -0.066684 -590001.000000 0 0 1
31.611853 -5.847039 -1.332033 32.175634 -0.182896 1.612207 0.225426 -0.072347 -814263.000000 0 0 1
30.872853 -4.651339 -1.149433 31.242426 -0.149536 1.607595 0.262975 -0.070377 -40843.500000 0 0 1
31.700853 -3.511039 -0.915933 31.907842 -0.110306 1.599506 0.244753 -0.044919 445296.000000 0 0 1
32.501853 -3.426739 0.434667 32.684888 -0.105044 1.557497 0.209749 -0.051672 493891.000000 0 0 1
31.557653 -3.584739 1.479667 31.795050 -0.113108 1.524242 0.272889 -0.079540 528663.000000 0 0 1
32.211353 -3.398739 2.731267 32.505115 -0.105125 1.486671 0.182222 -0.060499 235709.000000 0 0 1
31.355753 -3.836839 3.963467 31.837299 -0.121759 1.445981 0.200167 -0.060935 80639.200000 0 0 1
31.409353 -5.236639 4.226467 32.122155 -0.165203 1.438839 0.178933 -0.054616 -101516.000000 0 0 1
31.429453 -5.514139 5.579367 32.393604 -0.173677 1.397696 0.164813 -0.048286 44069.900000 0 0 1
32.034853 -6.961139 5.658767 33.267265 -0.213972 1.399865 0.126963 -0.039412 -511244.000000 0 0 1
33.338853 -6.966639 5.184167 34.451252 -0.206000 1.419744 0.142422 -0.059044 -708332.000000 0 0 1
33.980153 -8.220939 5.478667 35.387150 -0.237372 1.415350 0.140029 -0.057454 -90213.200000 0 0 1
35.481253 -8.057939 5.745967 36.835660 -0.223316 1.414167 0.213274 -0.071315 -598690.000000 0 0 1
36.245153 -7.999239 4.591267 37.400249 -0.217216 1.447726 0.219912 -0.075671 338499.000000 0 0 1
37.628053 -8.127139 4.942567 38.811721 -0.212719 1.443102 0.234406 -0.074161 1380570.000000 0 0 1
-37.377703 -8.010839 3.838567 38.418756 0.211127 1.470715 0.241407 -0.066402 633609.000000 0 0 1
-36.999803 -9.191339 3.143067 38.253692 0.243487 1.488540 0.306474 -0.083466 516946.000000 0 0 1
-36.067503 -8.797939 2.125567 37.185837 0.239257 1.513604 0.335690 -0.086778 -17283.800000 0 0 1
-35.478503 -9.893839 1.190867 36.851463 0.271959 1.538475 0.329182 -0.070947 11316.900000 0 0 1
-34.644403 -10.758239 1.923567 36.327324 0.301092 1.517821 0.315361 -0.071637 55256.700000 0 0 1
-34.017603 -11.712739 1.082567 35.993853 0.331600 1.540715 0.324014 -0.069447 -666846.000000 0 0 1
-33.402303 -12.880439 1.878267 35.848953 0.368045 1.518378 0.193146 -0.065984 539815.000000 0 0 1
-32.159603 -12.701539 2.572267 34.672549 0.376148 1.496541 0.216707 -0.054071 1235780.000000 0 0 1
-31.066103 -12.699239 1.642167 33.601638 0.388053 1.521905 0.235393 -0.031713 -974790.000000 0 0 1
-29.711903 -13.239339 2.066567 32.593679 0.419181 1.507350 0.233468 -0.034135 -486489.000000 0 0 1
-29.084603 -12.211939 2.847467 31.672600 0.397523 1.480772 0.226374 -0.045028 100473.000000 0 0 1
-27.767903 -12.627639 3.164367 30.668011 0.426803 1.467431 0.212056 -0.025689 -179471.000000 0 0 1
-27.080303 -11.526739 3.946767 29.694873 0.402421 1.437491 0.208672 -0.028597 -196619.000000 0 0 1
-25.721003 -11.840839 4.158867 28.619427 0.431433 1.424964 0.182661 -0.016575 -79517.700000 0 0 1
-25.040403 -10.818839 4.828867 27.701751 0.407831 1.395585 0.177176 -0.011672 -154788.000000 0 0 1
-23.603603 -11.150939 5.250467 26.627822 0.441346 1.372316 0.155088 0.000414 -161484.000000 0 0 1
-23.445303 -11.992639 6.386967 27.097951 0.472818 1.332858 0.154884 -0.011188 883506.000000 0 0 1
-22.081703 -12.309639 6.743967 26.165051 0.508552 1.310106 0.114256 -0.005888 1056690.000000 0 0 1
-21.517303 -11.877539 8.150867 25.894147 0.504377 1.250575 0.126208 -0.018248 -525525.000000 0 0 1
-21.424003 -10.489039 8.458367 25.309125 0.455287 1.230038 0.112288 -0.003486 501248.000000 0 0 1
-22.599903 -9.690339 8.644667 26.065083 0.405066 1.232737 0.158568 -0.021835 -129391.000000 0 0 1
-23.331003 -9.899839 9.972367 27.235833 0.401296 1.195929 0.132201 -0.012357 -647551.000000 0 0 1
-23.869503 -11.226639 10.180267 28.274165 0.439634 1.202469 0.115793 -0.021524 655630.000000 0 0 1
-25.189103 -11.509639 9.734267 29.355044 0.428601 1.232792 0.122165 -0.026631 447357.000000 0 0 1
-26.305203 -10.939839 10.667867 30.421163 0.394122 1.212507 0.132128 -0.031411 -363826.000000 0 0 1
-26.476503 -11.679639 11.899267 31.289163 0.415455 1.180676 0.107897 -0.034403 -676661.000000 0 0 1
-27.540903 -11.247539 12.637167 32.321919 0.387722 1.169102 0.114680 -0.041189 -842461.000000 0 0 1
-27.678603 -11.890739 14.065867 33.246704 0.405761 1.133959 0.101164 -0.038519 -395093.000000 0 0 1
-28.102603 -13.250239 14.010967 34.082727 0.440585 1.147150 0.103102 -0.036213 414605.000000 0 0 1
-28.684303 -13.623639 15.252667 35.228349 0.443408 1.123016 0.101632 -0.030022 -316355.000000 0 0 1
-28.485703 -15.069939 15.599667 35.803462 0.486605 1.119977 0.095383 -0.013396 -84680.100000 0 0 1
-29.333203 -15.962039 14.872067 36.556830 0.498351 1.151826 0.102514 -0.022151 -42978.900000 0 0 1
-28.984303 -17.354539 14.973567 36.952368 0.539505 1.153585 0.087880 -0.017101 -425733.000000 0 0 1
-29.831803 -18.394139 15.732467 38.416029 0.552532 1.148859 0.073122 -0.003012 -249586.000000 0 0 1
-29.933403 -18.191339 17.154867 39.002857 0.546082 1.115380 0.068614 0.007342 -89065.100000 0 0 1
-30.506003 -19.292739 17.882067 40.281438 0.563920 1.110819 0.074992 0.016306 180255.000000 0 0 1
-29.628803 -20.568939 18.131767 40.369644 0.606837 1.104990 0.045558 0.019457 -173430.000000 0 0 1
-28.585503 -20.388939 19.039367 39.941673 0.619571 1.073923 0.052577 0.016258 21034.200000 0 0 1
-27.740003 -21.520339 19.061167 39.949478 0.659802 1.073408 0.047447 0.019308 -569122.000000 0 0 1
-26.339703 -21.438639 19.647467 39.235419 0.683177 1.046322 0.054126 0.008957 -292614.000000 0 0 1
-25.373903 -20.896039 18.755367 37.844989 0.688922 1.052289 0.056407 -0.004132 416585.000000 0 0 1
-24.110103 -20.817439 19.412567 37.302956 0.712241 1.023474 0.070705 -0.006105 954363.000000 0 0 1
-22.909103 -20.430639 18.473567 35.826117 0.728274 1.029036 0.082299 -0.023630 460226.000000 0 0 1
-22.739403 -21.408239 17.439567 35.770541 0.755255 1.061526 0.076834 -0.025387 -298608.000000 0 0 1
-21.442103 -21.307139 16.937467 34.650191 0.782241 1.060068 0.085786 -0.019270 -461794.000000 0 0 1
-21.032103 -22.240839 15.805167 34.450073 0.813324 1.094169 0.079344 -0.013188 -478397.000000 0 0 1
-21.078403 -23.623339 16.010567 35.478154 0.842268 1.102598 0.071462 -0.022338 15104.200000 0 0 1
-20.119203 -24.283739 16.821167 35.741208 0.878914 1.080783 0.091890 -0.032489 -995287.000000 0 0 1
-18.778803 -24.508239 16.165567 34.851438 0.916992 1.088469 0.095239 -0.034009 -726642.000000 0 0 1
-17.927603 -23.382139 16.008567 33.532038 0.916679 1.073090 0.107030 -0.040247 559370.000000 0 0 1
-16.644103 -23.806439 15.510967 32.929664 0.960646 1.080335 0.118367 -0.034163 612226.000000 0 0 1
-15.667203 -22.620239 15.345467 31.505869 0.965041 1.062068 0.113388 -0.033360 -269290.000000 0 0 1
-15.985403 -21.510439 14.473667 30.458482 0.931696 1.075613 0.123846 -0.030781 441383.000000 0 0 1
-17.094303 -20.693939 14.891167 30.695295 0.880370 1.064286 0.102657 -0.027461 530162.000000 0 0 1
-16.590403 -19.591039 15.841867 30.166455 0.868142 1.017907 0.114676 -0.026200 164474.000000 0 0 1
-16.113703 -18.356939 15.236767 28.788673 0.850383 1.013065 0.122465 -0.034087 186899.000000 0 0 1
-15.880503 -17.355339 16.157567 28.538835 0.829744 0.968956 0.116039 -0.036261 -335541.000000 0 0 1
-15.254503 -16.103039 15.440467 27.026204 0.812452 0.962690 0.117331 -0.032483 635094.000000 0 0 1
-16.187403 -15.228639 14.750267 26.674216 0.754889 0.984862 0.114145 -0.029578 542034.000000 0 0 1
-16.411903 -15.729039 13.465467 26.421052 0.764155 1.036019 0.142850 -0.033308 -309208.000000 0 0 1
-17.271603 -14.976839 12.457567 26.034687 0.714359 1.071852 0.119669 -0.021714 532699.000000 0 0 1
-18.680003 -15.168839 12.605667 27.165033 0.682037 1.088246 0.105639 -0.020025 190061.000000 0 0 1
-19.424203 -14.320139 11.814467 26.869083 0.635279 1.115526 0.137258 -0.026182 -143336.000000 0 0 1
-20.947103 -14.619539 11.901967 28.181001 0.609333 1.134771 0.104747 -0.028342 298759.000000 0 0 1
-21.532403 -15.712739 11.177367 28.904464 0.630399 1.173745 0.121292 -0.033396 196077.000000 0 0 1
-21.348803 -15.746239 9.778267 28.272423 0.635498 1.217642 0.148569 -0.037276 -127608.000000 0 0 1
-22.276103 -16.753339 9.042367 29.302961 0.644829 1.257094 0.153096 -0.021264 464625.000000 0 0 1
-21.695203 -18.050439 9.163467 29.672703 0.693952 1.256846 0.154627 -0.007925 -2347.990000 0 0 1
-22.490403 -19.016839 8.520067 30.660233 0.701907 1.289203 0.150636 -0.025940 231943.000000 0 0 1
-21.894003 -20.494739 8.400367 31.143985 0.752400 1.297687 0.161986 -0.026018 435644.000000 0 0 1
-20.719203 -20.688039 7.640767 30.259901 0.784646 1.315528 0.183359 -0.024451 -267420.000000 0 0 1
-20.186403 -21.956139 7.868667 30.846050 0.827368 1.312851 0.171822 -0.030227 521023.000000 0 0 1
-18.860103 -22.159339 7.036067 29.937368 0.865656 1.333551 0.163769 -0.047715 448928.000000 0 0 1
-17.787203 -21.488039 7.625267 28.918248 0.879349 1.303957 0.121248 -0.038855 -1215120.000000 0 0 1
-16.586203 -21.919739 7.076967 28.384160 0.923034 1.318810 0.142972 -0.041093 -639278.000000 0 0 1
-15.351903 -21.285239 7.738667 27.361090 0.945953 1.284048 0.107807 -0.032349 -671995.000000 0 0 1
-14.153603 -21.783939 7.251867 26.971356 0.994613 1.298574 0.123793 -0.025027 -930448.000000 0 0 1
-13.060403 -21.471039 8.072067 26.395793 1.024311 1.260008 0.107645 -0.022494 -210238.000000 0 0 1
-11.746403 -22.020139 7.511167 26.063041 1.080757 1.278458 0.108196 -0.020087 -102882.000000 0 0 1
-11.687603 -23.461839 7.517567 27.268512 1.108627 1.291492 0.102923 -0.014481 -1280660.000000 0 0 1
-10.397203 -23.860939 7.235267 27.014724 1.159863 1.299660 0.124369 -0.025640 -502280.000000 0 0 1
-10.113203 -25.428839 7.156067 28.286251 1.192269 1.315029 0.137715 -0.024559 199525.000000 0 0 1
-10.890203 -26.062839 6.143067 28.906839 1.175002 1.356651 0.145758 -0.029469 -140024.000000 0 0 1
-10.898203 -27.482129 6.175567 30.202249 1.193262 1.364870 0.156423 -0.025061 665781.000000 0 0 1
-9.676203 -28.090159 5.402667 30.197263 1.239057 1.390915 0.178322 -0.036469 7443.710000 0 0 1
-8.408203 -27.646379 5.776867 29.468497 1.275551 1.373483 0.181944 -0.038131 286902.000000 0 0 1
-7.268203 -28.396489 5.291767 29.785737 1.320222 1.392187 0.201359 -0.035731 1148270.000000 0 0 1
-7.069203 -29.812279 5.988167 31.218644 1.337973 1.377786 0.221087 -0.050089 -472820.000000 0 0 1
-7.063203 -29.705109 7.384867 31.413669 1.337354 1.333491 0.211266 -0.042524 99418.900000 0 0 1
-7.260203 -30.976729 7.921967 32.787586 1.340576 1.326767 0.239045 -0.044955 -84554.700000 0 0 1
-7.793203 -30.991599 9.323167 33.288656 1.324442 1.286929 0.172985 -0.049304 -122833.000000 0 0 1
-6.827203 -30.528499 10.241767 32.916466 1.350783 1.254400 0.176095 -0.047625 405609.000000 0 0 1
-7.298203 -30.797699 11.554167 33.693631 1.338116 1.220774 0.147426 -0.038768 -228668.000000 0 0 1
-6.333203 -30.269959 12.608567 33.396943 1.364547 1.183662 0.124807 -0.036964 -174745.000000 0 0 1
-6.623203 -28.948839 13.007367 32.420575 1.345878 1.157962 0.129192 -0.031090 754947.000000 0 0 1
-5.519203 -28.427639 13.787367 32.073100 1.379033 1.126444 0.117882 -0.040724 405692.000000 0 0 1
-5.951203 -27.512879 14.974167 31.884181 1.357772 1.081911 0.103508 -0.035491 -120281.000000 0 0 1
-6.635203 -28.143269 16.070067 33.080456 1.339259 1.063533 0.094407 -0.029039 24889.900000 0 0 1
-6.047203 -29.225159 16.793467 34.244694 1.366758 1.058252 0.075937 -0.037332 261063.000000 0 0 1
-7.013203 -30.476029 16.833167 35.515192 1.344612 1.077001 0.066135 -0.029366 526123.000000 0 0 1
-7.487203 -30.838409 15.555967 35.341955 1.332617 1.115024 0.086497 -0.029740 419429.000000 0 0 1
-8.151203 -32.135949 15.463767 36.582638 1.322388 1.134365 0.088346 -0.030927 142995.000000 0 0 1
-7.151203 -33.318889 15.372267 37.384417 1.359375 1.147032 0.107907 -0.036779 -116677.000000 0 0 1
-6.432203 -33.307209 14.181467 36.767613 1.380027 1.174824 0.106513 -0.036334 -594772.000000 0 0 1
-5.544203 33.075051 14.139667 36.395430 -1.404715 1.171792 0.142763 -0.045315 273028.000000 0 0 1
-4.332203 33.442282 13.201967 36.213894 -1.441971 1.197641 0.176493 -0.053693 234084.000000 0 0 1
-4.773203 33.693817 11.890067 36.047614 -1.430069 1.234659 0.169986 -0.049471 142693.000000 0 0 1
-3.806203 -33.118979 11.109367 35.139322 1.456373 1.249126 0.200003 -0.055552 -347980.000000 0 0 1
-4.412203 -32.900889 9.694667 34.582114 1.437486 1.286651 0.200565 -0.054742 -560142.000000 0 0 1
-4.456203 33.486967 8.712867 34.887659 -1.438501 1.318384 0.204460 -0.051015 561894.000000 0 0 1
-5.338203 32.394620 9.029167 34.050458 -1.407477 1.302416 0.210243 -0.054213 313014.000000 0 0 1
-6.857203 32.624588 9.134567 34.566245 -1.363627 1.303357 0.193647 -0.047001 33410.500000 0 0 1
-7.616203 32.851097 7.947167 34.646191 -1.342981 1.339355 0.188427 -0.040861 275309.000000 0 0 1
-9.019203 32.889983 8.210267 35.078561 -1.303152 1.334551 0.142585 -0.040881 726874.000000 0 0 1
-9.854203 33.163410 6.942867 35.286264 -1.281965 1.372746 0.155650 -0.050139 -113063.000000 0 0 1
-9.891203 -32.980299 6.507467 35.041163 1.279420 1.384003 0.172735 -0.048739 -210993.000000 0 0 1
-10.728203 -32.919809 5.393867 35.041432 1.255761 1.416254 0.162574 -0.047882 -255463.000000 0 0 1
-11.294103 -31.573019 5.031867 33.907697 1.227266 1.421847 0.152323 -0.046502 -294432.000000 0 0 1
-12.334503 -31.201299 5.893867 34.064625 1.194331 1.396901 0.148824 -0.048207 -75379.400000 0 0 1
-13.278903 -30.489859 5.085367 33.642558 1.160050 1.419056 0.145997 -0.044322 574572.000000 0 0 1
-14.289403 -29.573999 5.866167 33.364957 1.120699 1.394059 0.127901 -0.046072 264833.000000 0 0 1
-15.141603 -30.269089 6.734167 34.508475 1.106962 1.374391 0.133775 -0.046360 -381132.000000 0 0 1
-16.133103 -29.501499 7.309767 34.410000 1.070369 1.356734 0.126163 -0.048569 -408828.000000 0 0 1
35.582588 -12.135439 -12.885133 39.741868 -0.328679 1.900984 0.166631 -0.047429 -65778.500000 0 0 1
34.551548 -12.332939 -11.918233 38.574022 -0.342847 1.884907 0.196414 -0.053163 450442.000000 0 0 1
34.287718 -13.667439 -11.476533 38.654331 -0.379308 1.872243 0.200592 -0.055778 -244545.000000 0 0 1
35.361068 -14.250139 -10.566633 39.561665 -0.383081 1.841171 0.179372 -0.044722 259285.000000 0 0 1
36.646168 -14.478239 -11.139533 40.946920 -0.376259 1.846317 0.185484 -0.047454 581747.000000 0 0 1
37.515908 -15.081939 -10.179033 41.695575 -0.382242 1.817416 0.145575 -0.037389 226413.000000 0 0 1
-37.174317 -15.234639 -10.728733 41.582806 0.388940 1.831757 0.097681 -0.040875 16751.600000 0 0 1
-36.398207 -14.044539 -10.899433 40.507730 0.368256 1.843224 0.097665 -0.039800 926982.000000 0 0 1
-35.037097 -14.418939 -11.158833 39.497133 0.390409 1.857219 0.082142 -0.037082 901279.000000 0 0 1
-34.101634 -13.176739 -11.366633 38.285092 0.368724 1.872235 0.091673 -0.043465 -109365.000000 0 0 1
-34.007352 -12.295239 -10.280833 37.594792 0.346924 1.847789 0.108738 -0.039018 492464.000000 0 0 1
-33.649577 -10.964539 -10.812633 37.005786 0.314996 1.867310 0.121997 -0.035076 -214888.000000 0 0 1
-34.179504 -9.809039 -9.960033 36.927740 0.279475 1.843895 0.144364 -0.038930 -224734.000000 0 0 1
-33.424607 -9.563739 -8.782433 35.858062 0.278683 1.818236 0.163039 -0.038561 53466.400000 0 0 1
-34.132311 -8.736439 -7.943533 36.117028 0.250578 1.792548 0.222730 -0.054354 -455546.000000 0 0 1
-33.557937 -8.522339 -6.517433 35.231269 0.248701 1.756858 0.206383 -0.051271 -1031120.000000 0 0 1
-32.295027 -7.913939 -6.532633 33.886199 0.240316 1.764792 0.186042 -0.061099 156584.000000 0 0 1
-31.734657 -7.548839 -5.284133 33.045355 0.233533 1.731391 0.208714 -0.053008 -13117.400000 0 0 1
-31.408477 -8.664939 -4.276333 32.861233 0.269183 1.701300 0.168375 -0.043546 -256823.000000 0 0 1
-32.554877 -9.419939 -3.901733 34.114202 0.281663 1.685420 0.178543 -0.042637 562812.000000 0 0 1
-32.262857 -10.048539 -2.663333 33.896289 0.301936 1.649450 0.190514 -0.048430 -40334.100000 0 0 1
-32.929787 -11.410839 -2.478633 34.938829 0.333571 1.641798 0.199852 -0.045873 -391189.000000 0 0 1
-34.332185 -11.409739 -2.512133 36.265574 0.320851 1.640122 0.223024 -0.057549 -89779.200000 0 0 1
-34.834760 -12.725339 -2.522933 37.172032 0.350245 1.638720 0.217550 -0.059924 -178099.000000 0 0 1
-36.377827 -12.709439 -2.556533 38.618804 0.336116 1.637044 0.216185 -0.052406 26391.100000 0 0 1
-36.992427 -12.052839 -1.426833 38.932588 0.314973 1.607453 0.255101 -0.069740 -571991.000000 0 0 1
37.759728 -12.014239 -1.530933 39.654543 -0.308047 1.609413 0.315269 -0.067564 -1082060.000000 0 0 1
37.098228 -11.433939 -0.278733 38.821272 -0.298969 1.577976 0.287016 -0.083438 -195752.000000 0 0 1
37.109088 -12.326839 0.844067 39.111991 -0.320711 1.549214 0.313137 -0.072646 4885.720000 0 0 1
36.530868 -11.645939 1.897667 38.389235 -0.308611 1.521344 0.308422 -0.070747 -30589.500000 0 0 1
36.799218 -12.254539 3.305267 38.926610 -0.321460 1.485784 0.282806 -0.074441 32740.100000 0 0 1
35.899328 -11.726239 4.242267 38.003464 -0.315717 1.458935 0.253781 -0.069368 -369279.000000 0 0 1
36.262278 -12.170939 5.523167 38.646991 -0.323822 1.427392 0.237841 -0.064178 -421990.000000 0 0 1
35.170278 -12.209639 6.582267 37.806745 -0.334141 1.395802 0.194287 -0.050789 -177019.000000 0 0 1
34.592488 -10.973639 6.953767 36.951534 -0.307185 1.381481 0.176647 -0.045765 -294617.000000 0 0 1
33.473588 -11.166039 7.761967 36.130453 -0.321970 1.354277 0.165169 -0.039773 -400622.000000 0 0 1
32.872208 -9.922139 8.452067 35.361962 -0.293144 1.329444 0.142620 -0.046616 520824.000000 0 0 1
31.616088 -9.479439 7.931867 33.946300 -0.291300 1.334957 0.150203 -0.041418 840627.000000 0 0 1
30.765808 -8.913839 8.923867 33.250968 -0.282010 1.299086 0.156506 -0.027040 -387656.000000 0 0 1
29.290108 -8.841639 8.572867 31.773874 -0.293166 1.297602 0.130394 -0.016697 -512943.000000 0 0 1
29.020208 -8.096539 7.395667 31.022932 -0.272078 1.330085 0.160533 -0.024288 -149818.000000 0 0 1
28.315408 -8.866639 6.470667 30.368555 -0.303466 1.356079 0.180144 -0.035114 -35535.200000 0 0 1
27.564108 -8.112339 5.351767 29.227239 -0.286227 1.386648 0.186223 -0.034090 929645.000000 0 0 1
26.437408 -7.309539 5.798167 28.035418 -0.269746 1.362477 0.212230 -0.040350 1087330.000000 0 0 1
25.683608 -6.624139 4.805467 26.955880 -0.252412 1.391567 0.261027 -0.047850 263771.000000 0 0 1
26.475108 -5.524839 4.029867 27.344013 -0.205728 1.422881 0.276250 -0.054824 515839.000000 0 0 1
27.427808 -5.972439 3.038767 28.234532 -0.214404 1.462962 0.267065 -0.054323 420573.000000 0 0 1
28.054808 -4.874839 2.459567 28.581214 -0.172043 1.484634 0.277680 -0.068292 -337925.000000 0 0 1
28.448108 -5.095339 0.992267 28.917848 -0.177231 1.536476 0.266604 -0.078620 -364312.000000 0 0 1
27.376908 -5.322839 0.116067 27.889804 -0.192032 1.566635 0.276182 -0.082082 -96820.300000 0 0 1
27.775908 -5.145539 -1.233733 28.275426 -0.183175 1.614443 0.271535 -0.087412 -933398.000000 0 0 1
26.710008 -5.563339 -2.234433 27.374586 -0.205351 1.652512 0.269536 -0.073780 -755049.000000 0 0 1
25.551408 -4.790539 -2.104533 26.081656 -0.185335 1.651574 0.309904 -0.072266 -495603.000000 0 0 1
24.582308 -5.281939 -2.991333 25.320680 -0.211649 1.689211 0.282156 -0.069777 172879.000000 0 0 1
23.164908 -4.622039 -2.874033 23.795720 -0.196941 1.691871 0.227448 -0.056082 339547.000000 0 1 0
22.991308 -3.224539 -3.132533 23.426708 -0.139341 1.704914 0.243790 -0.061010 226380.000000 0 1 0
23.236508 -2.854639 -4.468533 23.833843 -0.122239 1.759399 0.254385 -0.054426 -491206.000000 0 1 0
22.151208 -1.919639 -5.000933 22.789699 -0.086445 1.792035 0.207777 -0.036065 -427750.000000 0 1 0
22.253008 -0.591539 -4.503033 22.711750 -0.026576 1.770388 0.227219 -0.020112 499386.000000 0 1 0
21.292808 0.345561 -4.985833 21.871480 0.016228 1.800779 0.214751 -0.014491 -524776.000000 0 1 0
21.318608 1.731361 -4.268633 21.810591 0.081036 1.767782 0.198434 -0.004892 -663228.000000 0 1 0
22.410208 2.465661 -4.686733 23.027427 0.109583 1.775757 0.256316 -0.007431 601295.000000 0 1 0
23.552908 2.276361 -3.818133 23.968718 0.096350 1.730774 0.294211 -0.005085 415529.000000 0 1 0
24.628608 3.369561 -3.775133 25.143069 0.135971 1.721512 0.316766 -0.017394 -117083.000000 0 0 1
24.036608 4.599961 -3.407033 24.708825 0.189087 1.709124 0.267235 -0.008287 208724.000000 0 1 0
24.913308 5.571161 -2.932333 25.696485 0.220002 1.685160 0.259358 -0.010928 -251228.000000 0 0 1
24.306008 6.978561 -3.172533 25.486218 0.279592 1.695600 0.224424 -0.010683 615194.000000 0 0 1
23.176508 7.357861 -2.378333 24.432460 0.307407 1.668294 0.241297 -0.021313 831514.000000 0 1 0
22.637108 8.610161 -2.699433 24.369253 0.363458 1.681796 0.210967 -0.012910 -18303.700000 0 1 0
21.625608 9.171361 -1.670333 23.549327 0.401106 1.641785 0.156458 -0.013079 154838.000000 0 1 0
22.249008 9.389261 -0.411633 24.152558 0.399334 1.587840 0.135704 -0.023720 718597.000000 0 1 0
21.244408 9.710661 0.517067 23.364271 0.428736 1.548664 0.104967 -0.027243 21054.000000 0 1 0
21.848708 10.056161 1.915767 24.128046 0.431356 1.491313 0.127939 -0.032107 185593.000000 0 1 0
22.650108 11.256061 1.915967 25.365276 0.461208 1.495189 0.139655 -0.038227 593918.000000 0 0 1
22.037308 12.485961 1.552467 25.376216 0.515486 1.509580 0.134426 -0.028903 -451777.000000 0 0 1
21.071208 13.108361 2.582167 24.949800 0.556510 1.467116 0.124760 -0.021682 112422.000000 0 1 0
19.709508 12.724561 2.331367 23.575717 0.573280 1.471746 0.133496 -0.025377 1019310.000000 0 1 0
18.750508 13.394161 3.150967 23.257552 0.620283 1.434897 0.128453 -0.032811 -9729.070000 0 1 0
18.748908 13.215161 4.689267 23.412631 0.613973 1.369145 0.130324 -0.032174 -545230.000000 0 1 0
18.548508 11.908961 5.272367 22.664253 0.570762 1.336016 0.121727 -0.028902 492116.000000 0 1 0
18.540708 11.951361 6.693167 23.051928 0.572571 1.276202 0.116249 -0.036148 -126093.000000 0 1 0
18.655508 10.511361 7.219767 22.597383 0.513107 1.245599 0.112914 -0.036243 -567619.000000 0 1 0
19.832108 9.857761 6.867067 23.187164 0.461293 1.270129 0.112203 -0.043046 -245683.000000 0 1 0
19.998908 8.513561 7.356567 22.946811 0.402465 1.244442 0.136764 -0.037615 -32104.700000 0 1 0
21.006708 7.756261 6.509067 23.319720 0.353701 1.287916 0.152731 -0.039737 -48107.100000 0 1 0
20.434708 7.579661 5.221967 22.411995 0.355190 1.335636 0.121713 -0.039221 745185.000000 0 1 0
21.175308 6.659861 4.424267 22.634522 0.304716 1.374064 0.122619 -0.041239 37652.200000 0 1 0
20.638708 6.563061 2.951467 21.857292 0.307886 1.435349 0.111107 -0.029862 176125.000000 0 1 0
21.489608 5.765461 2.096767 22.348160 0.262118 1.476835 0.110423 -0.035012 747727.000000 0 1 0
21.008108 5.644761 0.767567 21.766789 0.262495 1.535526 0.099463 -0.018163 -703370.000000 0 1 0
21.832408 4.716861 -0.114233 22.336425 0.212778 1.575911 0.175303 -0.028234 -356166.000000 0 1 0
21.848808 3.308961 0.190067 22.098773 0.150306 1.562195 0.154686 -0.023593 653092.000000 0 1 0
22.947108 2.673361 -0.437833 23.106457 0.115978 1.589746 0.209386 -0.029726 42317.600000 0 1 0
22.954608 1.147061 -0.193433 22.984064 0.049929 1.579212 0.254938 -0.035090 39480.300000 0 1 0
21.962908 0.562561 -1.033033 21.994385 0.025609 1.617782 0.165056 -0.031457 832548.000000 0 1 0
22.272408 -0.804739 -1.349033 22.327733 -0.036116 1.631253 0.229742 -0.047749 -1285290.000000 0 1 0
22.375608 -1.946139 -0.257333 22.461556 -0.086758 1.582253 0.264691 -0.043628 437537.000000 0 1 0
23.469608 -1.911739 0.658967 23.556559 -0.081276 1.542819 0.272913 -0.044909 293191.000000 0 1 0
24.743008 -2.170539 0.108667 24.838267 -0.087499 1.566421 0.293758 -0.067260 -301674.000000 0 1 0
25.766008 -2.088939 1.286667 25.882549 -0.080896 1.521064 0.296273 -0.057701 -368581.000000 0 0 1
25.705808 -0.868039 1.944767 25.793879 -0.033755 1.495328 0.280117 -0.052543 586644.000000 0 0 1
26.629708 -0.591439 3.010867 26.805904 -0.022206 1.458238 0.275888 -0.050811 -311247.000000 0 0 1
26.542008 0.881061 3.517467 26.788562 0.033183 1.439111 0.245101 -0.043887 66753.200000 0 0 1
27.141108 1.863561 2.718067 27.340455 0.068554 1.471216 0.289763 -0.035794 654.560000 0 0 1
28.538708 1.735861 2.540267 28.704077 0.060750 1.482182 0.267557 -0.035483 -239645.000000 0 0 1
29.055708 2.851361 1.634667 29.241008 0.097821 1.514864 0.304931 -0.039476 -308491.000000 0 0 1
28.451808 2.742461 0.368167 28.586046 0.096093 1.557917 0.347977 -0.034352 92855.400000 0 0 1
28.934508 3.680961 -0.591433 29.173705 0.126537 1.591071 0.340093 -0.026520 405404.000000 0 0 1
30.373708 3.578361 -1.175033 30.606331 0.117271 1.609198 0.296639 -0.022157 341762.000000 0 0 1
31.393998 3.969861 -0.266733 31.645127 0.125785 1.579225 0.234864 -0.018420 1362020.000000 0 0 1
32.711778 3.711661 -0.831033 32.932165 0.112982 1.596034 0.173744 -0.013265 1744600.000000 0 0 1
33.931988 4.071861 0.084467 34.175532 0.119430 1.568325 0.095216 -0.006634 409626.000000 0 0 1
34.097308 3.267261 1.225867 34.275416 0.095530 1.535024 0.121017 -0.012042 -43091.900000 0 0 1
33.366928 3.647261 2.367667 33.649075 0.108875 1.500375 0.124825 -0.004685 -96691.200000 0 0 1
33.338488 2.585361 3.498467 33.621097 0.077394 1.466552 0.158411 -0.017562 348017.000000 0 0 1
32.548238 1.369161 3.253967 32.739131 0.042041 1.471241 0.192555 -0.023959 762895.000000 0 0 1
32.902108 0.306561 4.149167 33.164112 0.009317 1.445357 0.172071 -0.030858 -497476.000000 0 0 1
34.213298 -0.426639 3.938867 34.441929 -0.012469 1.456183 0.158581 -0.034084 -247194.000000 0 0 1
35.370918 0.348961 4.254267 35.627551 0.009865 1.451101 0.146844 -0.028426 106147.000000 0 0 1
36.489918 -0.502339 4.258667 36.741022 -0.013766 1.454625 0.113118 -0.028997 342529.000000 0 0 1
37.883148 0.175561 4.590767 38.160698 0.004634 1.450203 0.164143 -0.045299 1200640.000000 0 0 1
-37.635587 0.865861 3.506467 37.808497 -0.023002 1.477920 0.141810 -0.034891 135678.000000 0 0 1
-37.018577 0.117961 2.471567 37.101181 -0.003187 1.504130 0.155986 -0.033505 -386848.000000 0 0 1
-36.504507 1.060661 1.414867 36.547310 -0.029047 1.532073 0.159639 -0.034402 211182.000000 0 0 1
-35.373412 1.821561 1.836167 35.467843 -0.051450 1.519003 0.195579 -0.066378 483168.000000 0 0 1
-34.797184 2.537261 0.760467 34.897851 -0.072787 1.549003 0.258708 -0.049196 -464856.000000 0 0 1
-33.834127 3.594661 1.228467 34.046716 -0.105847 1.534707 0.291681 -0.060931 593279.000000 0 0 1
-32.591987 3.128161 1.831967 32.792974 -0.095686 1.514903 0.290504 -0.073444 1310300.000000 0 0 1
-31.922417 4.055961 2.666667 32.289358 -0.126380 1.488116 0.307009 -0.061803 271180.000000 0 0 1
-32.493317 3.973761 4.151667 32.997618 -0.121690 1.444645 0.311121 -0.057584 254284.000000 0 0 1
-33.796387 4.489461 4.365167 34.371583 -0.132065 1.443453 0.300459 -0.028976 1145970.000000 0 0 1
-34.794528 3.506861 4.830467 35.302842 -0.100449 1.433536 0.273741 -0.034245 906061.000000 0 0 1
-34.645261 2.751561 6.195767 35.302305 -0.079255 1.394377 0.221030 -0.022975 -799764.000000 0 0 1
-34.971974 3.594061 7.315267 35.909183 -0.102410 1.365645 0.220683 -0.020751 382182.000000 0 0 1
-34.831516 2.949861 8.596867 35.997810 -0.084488 1.329650 0.176647 -0.018097 -335402.000000 0 0 1
-35.932417 1.943261 8.938367 37.078421 -0.054028 1.327332 0.163733 -0.013678 -430999.000000 0 0 1
-35.835360 0.839361 8.048067 36.737569 -0.023418 1.349936 0.165758 -0.020014 348034.000000 0 0 1
-36.780177 -0.205939 8.309967 37.707816 0.005599 1.348595 0.159007 -0.024446 114186.000000 0 0 1
-36.469997 -1.206139 9.422367 37.686821 0.033060 1.318098 0.172663 -0.023252 -208641.000000 0 0 1
-35.346043 -2.005639 9.158667 36.568382 0.056682 1.317648 0.169128 -0.035261 -48206.900000 0 0 1
-34.827399 -2.624439 10.315567 36.417665 0.075213 1.283608 0.154788 -0.021178 -32284.900000 0 0 1
-33.573147 -3.490539 10.101967 35.233362 0.103596 1.279999 0.183472 -0.013356 -187933.000000 0 0 1
-33.830977 -4.627139 9.281867 35.385004 0.135929 1.305380 0.198355 -0.040375 8421.590000 0 0 1
-32.705527 -5.445339 8.999667 34.355454 0.164983 1.305746 0.218018 -0.059245 127525.000000 0 0 1
-32.947177 -6.473339 7.920067 34.498523 0.194005 1.339153 0.234141 -0.048540 540496.000000 0 0 1
-33.987232 -7.390839 8.287067 35.755166 0.214126 1.336897 0.228938 -0.058803 263718.000000 0 0 1
-34.460682 -8.173639 7.220067 36.145212 0.232884 1.369692 0.237699 -0.070128 144282.000000 0 0 1
-35.472930 -9.198539 7.763067 37.459406 0.253723 1.362044 0.241364 -0.073216 610065.000000 0 0 1
-36.684977 -8.716739 8.339267 38.617515 0.233284 1.353137 0.222522 -0.074224 180180.000000 0 0 1
-37.702717 -9.659939 8.313167 39.798468 0.250818 1.360365 0.219874 -0.075182 -239656.000000 0 0 1
8.884553 -23.725139 10.493367 27.421310 -1.212483 1.178110 0.145943 -0.047023 39199.900000 0 0 1
8.300553 -24.643739 9.553667 27.703530 -1.245909 1.218713 0.136068 -0.047694 -478622.000000 0 0 1
6.959653 -24.879639 9.884167 27.660982 -1.298035 1.205386 0.136527 -0.049137 -185623.000000 0 0 1
6.358953 -25.789309 8.804267 27.982849 -1.329045 1.250729 0.117015 -0.036437 -384177.000000 0 0 1
6.163153 -25.131609 7.600867 26.969527 -1.330307 1.285094 0.104987 -0.035496 -270807.000000 0 0 1
5.884553 -26.045219 6.572467 27.498704 -1.348591 1.329450 0.089286 -0.029114 -849729.000000 0 0 1
5.158453 -25.345629 5.444367 26.432020 -1.370014 1.363335 0.082936 -0.025573 1154690.000000 0 0 1
3.722253 -25.270399 5.599767 26.149677 -1.424551 1.354982 0.104149 -0.036095 1031620.000000 0 0 1
3.019353 -26.433929 5.139767 27.097717 -1.457067 1.379965 0.105381 -0.028151 -93103.900000 0 0 1
1.480853 -26.329389 5.165567 26.872155 -1.514612 1.377365 0.127841 -0.038430 -532364.000000 0 0 1
0.980653 -26.131789 6.468967 26.938441 -1.533287 1.328287 0.128462 -0.046718 692415.000000 0 0 1
-0.458647 -26.082969 6.442567 26.870770 1.553214 1.328676 0.158763 -0.046050 1372640.000000 0 0 1
-1.283947 -27.391549 6.329467 28.142630 1.523957 1.343949 0.188953 -0.045116 -319769.000000 0 0 1
-1.240747 -28.181239 7.522767 29.194412 1.526797 1.310178 0.175525 -0.050469 -130918.000000 0 0 1
-1.962847 -29.391569 7.476667 30.391078 1.504113 1.322229 0.203858 -0.052160 -17452.200000 0 0 1
-1.876847 -30.136689 8.831067 31.459979 1.508599 1.286265 0.192776 -0.053724 970201.000000 0 0 1
-0.570447 -30.680549 9.124967 32.013849 1.552205 1.281757 0.181794 -0.044052 819834.000000 0 0 1
-0.508447 -31.098609 10.458667 32.814108 1.554448 1.246413 0.177612 -0.040961 -225153.000000 0 0 1
0.916853 -31.013329 10.999467 32.918922 -1.541242 1.230106 0.169449 -0.046267 -269107.000000 0 0 1
1.827853 -31.988649 10.546167 33.731830 -1.513718 1.252818 0.172855 -0.039411 -391540.000000 0 0 1
3.139553 -31.846469 11.020167 33.845213 -1.472530 1.239145 0.162351 -0.035736 40944.600000 0 0 1
3.494153 -32.634319 12.310367 35.053573 -1.464133 1.211958 0.185317 -0.033868 -264277.000000 0 0 1
2.952753 -31.985069 13.422867 34.812882 -1.478741 1.174969 0.198470 -0.048630 346367.000000 0 0 1
3.498953 -32.479189 14.705667 35.824531 -1.463481 1.147803 0.193529 -0.054936 -3032.500000 0 0 1
3.128153 -31.484479 15.846067 35.385810 -1.471766 1.106483 0.224106 -0.065469 186417.000000 0 0 1
3.681353 -30.156499 15.646067 34.172594 -1.449322 1.095216 0.230533 -0.064260 1054640.000000 0 0 1
5.073053 -30.181669 16.011067 34.540169 -1.404269 1.088800 0.198331 -0.055288 785901.000000 0 0 1
5.964053 -29.011449 15.481267 33.420109 -1.368045 1.089158 0.202533 -0.046319 177836.000000 0 0 1
6.236253 -29.087329 14.102667 32.921858 -1.359596 1.128111 0.180257 -0.042350 31527.700000 0 0 1
5.241553 -28.605039 13.193867 31.934311 -1.389568 1.144879 0.179562 -0.035004 -501220.000000 0 0 1
5.706453 -28.587039 11.708767 31.414608 -1.373769 1.188861 0.145813 -0.031642 88609.200000 0 0 1
6.020553 -29.841349 11.099367 32.402918 -1.371717 1.221175 0.125960 -0.032293 -218008.000000 0 0 1
7.203153 -30.369429 11.625067 33.306603 -1.337915 1.214258 0.123319 -0.019340 -690019.000000 0 0 1
7.642853 -31.793809 11.093667 34.530116 -1.334884 1.243721 0.115163 -0.019014 149876.000000 0 0 1
7.117553 -32.826829 11.899867 35.635194 -1.357280 1.230320 0.113226 -0.038551 452189.000000 0 0 1
7.802653 33.423218 11.598667 36.228745 1.341454 1.244908 0.120451 -0.029859 178470.000000 0 0 1
7.164253 32.391105 12.460667 35.436964 1.353121 1.211486 0.111577 -0.025923 665382.000000 0 0 1
5.786253 32.083877 12.162867 34.796425 1.392367 1.213712 0.153427 -0.032080 790538.000000 0 0 1
5.430453 30.923117 12.894267 33.940994 1.396957 1.181105 0.156391 -0.026401 419478.000000 0 0 1
4.563553 31.231997 14.171967 34.599253 1.425705 1.148777 0.179949 -0.051904 306387.000000 0 0 1
5.378353 31.780307 15.202567 35.637517 1.403149 1.130078 0.148279 -0.049385 329470.000000 0 0 1
4.826453 31.524757 16.473267 35.895312 1.418876 1.094011 0.188029 -0.054501 -207636.000000 0 0 1
5.507353 32.198624 17.672267 37.140158 1.401393 1.074893 0.226385 -0.049090 -229618.000000 0 0 1
5.047353 33.532417 17.951967 38.368892 1.421396 1.083908 0.260774 -0.050590 80916.000000 0 0 1
5.449553 -33.427789 19.200067 38.932727 -1.409193 1.055078 0.216976 -0.041556 -372141.000000 0 0 1
5.031053 -31.975499 19.495867 37.786675 -1.414735 1.028685 0.208034 -0.053305 340619.000000 0 0 1
3.625253 -31.800589 19.406567 37.430399 -1.457287 1.025735 0.230566 -0.056210 248186.000000 0 0 1
3.205353 -30.462409 19.701667 36.419614 -1.465959 0.999215 0.194510 -0.046194 72507.300000 0 0 1
1.776053 -30.133529 19.189367 35.768921 -1.511925 1.004534 0.209018 -0.043759 1303040.000000 0 0 1
0.619153 -30.829749 19.729267 36.607386 -1.550716 1.001615 0.227231 -0.045749 808380.000000 0 0 1
0.318853 -30.881889 21.118767 37.413835 -1.560472 0.971012 0.179231 -0.044657 -649650.000000 0 0 1
-0.600747 -32.030469 21.493567 38.578300 1.552043 0.979857 0.196637 -0.036148 347605.000000 0 0 1
-2.005047 -31.795909 21.487167 38.427833 1.507820 0.977428 0.183695 -0.033375 376779.000000 0 0 1
-2.727547 -32.932069 22.002167 39.699572 1.488161 0.983375 0.179953 -0.022159 774168.000000 0 0 1
-4.128147 -32.503879 22.519167 39.757472 1.444468 0.968649 0.179282 -0.012224 -57034.200000 0 0 1
-5.069647 -32.186009 21.555467 39.067616 1.414569 0.986338 0.162930 -0.021903 -1182390.000000 0 0 1
-6.234547 -31.846539 22.230167 39.335123 1.377473 0.970184 0.151880 -0.013334 -117159.000000 0 0 1
-7.521147 -31.588329 21.374167 38.874737 1.337050 0.988646 0.106781 -0.022860 405681.000000 0 0 1
-8.260347 -32.770369 21.175867 39.881672 1.323873 1.011055 0.087869 -0.011915 -528191.000000 0 0 1
-9.357347 -32.472219 20.351567 39.448589 1.290233 1.028737 0.077122 -0.020702 -594150.000000 0 0 1
-10.329947 -33.644249 20.404267 40.681413 1.272898 1.045393 0.077309 -0.019831 -527478.000000 0 0 1
-10.975647 33.570387 21.629367 41.415760 -1.254807 1.021310 0.079071 -0.016052 -9283.860000 0 0 1
-12.373847 -33.693039 21.501967 41.840979 1.218835 1.031075 0.085740 -0.022409 -74197.600000 0 0 1
-13.156447 -33.675209 22.789667 42.737346 1.198345 1.008359 0.095342 -0.024838 -537966.000000 0 0 1
-13.067147 -32.424899 23.552367 42.152561 1.187709 0.977929 0.107030 -0.029182 106214.000000 0 0 1
-11.830547 -32.134249 24.183267 41.921381 1.218036 0.955902 0.098919 -0.025727 -28256.000000 0 0 1
-11.924847 -30.900629 25.123567 41.572160 1.202496 0.921864 0.106452 -0.044201 198064.000000 0 0 1
-12.732247 -31.163299 26.255467 42.692047 1.182928 0.908415 0.110450 -0.046132 -529906.000000 0 0 1
-13.943647 -30.494649 26.244467 42.580758 1.141931 0.906703 0.130342 -0.051021 -488250.000000 0 0 1
-14.597447 -30.396779 27.671967 43.620951 1.123089 0.883599 0.130352 -0.052292 -368903.000000 0 0 1
-13.959047 -29.466479 28.427967 43.258267 1.128388 0.853740 0.117868 -0.047342 -49831.400000 0 0 1
-14.570847 -29.313639 29.710667 44.207723 1.109498 0.833796 0.125699 -0.043956 89656.600000 0 0 1
-13.691847 -28.554279 30.766567 44.151955 1.123681 0.799823 0.098709 -0.037353 -386118.000000 0 0 1
-14.469747 -28.247919 31.838867 44.955889 1.097404 0.783816 0.092689 -0.033813 -131494.000000 0 0 1
-13.806147 -27.876519 33.028967 45.372047 1.110947 0.755457 0.082082 -0.021767 -372455.000000 0 0 1
-13.152947 -28.992469 -33.581002 46.273610 1.144897 2.382855 0.088368 -0.020262 716200.000000 0 0 1
-11.767547 -29.192399 33.539267 45.995149 1.187618 0.753657 0.097978 -0.028604 617682.000000 0 0 1
-11.432247 -30.414189 -33.287402 46.516344 1.211250 2.368288 0.107601 -0.025503 1544860.000000 0 0 1
-9.877447 -30.735189 -33.480902 46.510070 1.259849 2.374402 0.118010 -0.032907 2517800.000000 0 0 1
-8.932847 -29.932009 -32.660702 45.193388 1.280773 2.378479 0.149083 -0.038113 830889.000000 0 0 1
-7.682047 -30.556229 -32.534602 45.290146 1.324494 2.372237 0.164361 -0.045926 -10020.800000 0 0 1
-6.788247 -29.840509 -31.490702 43.911281 1.347119 2.370492 0.183189 -0.042679 22491.400000 0 0 1
-7.265347 -29.967939 -30.140302 43.119606 1.332948 2.344785 0.193918 -0.054734 -36454.200000 0 0 1
-6.493647 -29.282159 -29.206502 41.864448 1.352567 2.342901 0.188587 -0.058317 -23459.300000 0 0 1
-7.027847 -29.594969 -27.788302 41.200031 1.337647 2.311047 0.196731 -0.062770 245668.000000 0 0 1
-6.610647 -30.906779 -27.316002 41.774317 1.360081 2.283517 0.178907 -0.059465 355335.000000 0 0 1
-7.362047 -31.269049 -26.144102 41.418199 1.339566 2.253925 0.190384 -0.062354 421252.000000 0 0 1
-6.542247 -32.039409 -25.096602 41.220919 1.369372 2.225383 0.176898 -0.069855 161751.000000 0 0 1
-5.704247 -31.288339 -24.232502 39.983906 1.390465 2.221890 0.172997 -0.074525 118207.000000 0 0 1
-4.878547 -32.246189 -23.593202 40.252405 1.420644 2.197072 0.176931 -0.083208 2375.240000 0 0 1
-3.990047 -31.717459 -22.461502 39.069640 1.445654 2.183290 0.197375 -0.097025 -8878.860000 0 0 1
-4.707847 -31.447809 -21.279102 38.261321 1.422196 2.160545 0.203481 -0.081166 -1205.120000 0 0 1
-4.990147 -30.083829 -20.999102 37.025675 1.406418 2.173837 0.179959 -0.064637 -347639.000000 0 0 1
-6.102147 -29.980039 -19.938702 36.518362 1.369999 2.148368 0.213070 -0.079348 175215.000000 0 0 1
-7.455347 -30.245459 -20.306602 37.185052 1.329119 2.148493 0.242159 -0.084375 464065.000000 0 0 1
-8.167347 -29.069719 -20.504702 36.499273 1.296900 2.167337 0.231317 -0.078482 -312106.000000 0 0 1
-8.325247 -28.581079 -21.977402 37.002621 1.287354 2.206746 0.246154 -0.087381 -128189.000000 0 0 1
-7.038647 -28.170419 -22.449002 36.702489 1.325950 2.228938 0.241102 -0.058666 391829.000000 0 0 1
-7.007947 -27.934479 -23.812702 37.369656 1.324998 2.261682 0.275015 -0.062439 -355513.000000 0 0 1
-5.582147 -27.819499 -24.398002 37.421216 1.372770 2.280993 0.265791 -0.064285 209863.000000 0 0 1
-4.767547 -26.697629 -24.092402 36.275842 1.394083 2.297145 0.249152 -0.065794 230021.000000 0 0 1
-4.118847 -26.833489 -22.828102 35.470033 1.418489 2.269974 0.177634 -0.051260 -106789.000000 0 0 1
-2.558347 -26.876139 -22.877402 35.387109 1.475892 2.273771 0.153374 -0.049368 199545.000000 0 0 1
-1.908347 -25.770079 -23.398502 34.860130 1.496878 2.306638 0.152385 -0.050343 102108.000000 0 0 1
-1.709347 -24.713939 -22.395502 33.395496 1.501741 2.305833 0.151298 -0.058752 -564507.000000 0 0 1
-1.231247 -23.361239 -22.979402 32.792017 1.518140 2.347262 0.146603 -0.051800 826947.000000 0 0 1
-2.179347 -22.674739 -23.856802 32.985456 1.474977 2.379296 0.200716 -0.057870 746433.000000 0 0 1
-3.368147 -22.142939 -23.300602 32.319842 1.419844 2.375951 0.206616 -0.063117 -615848.000000 0 0 1
-4.336647 -21.711139 -24.359002 32.917184 1.373648 2.403880 0.179506 -0.066608 -928057.000000 0 0 1
-3.924847 -20.722339 -25.288402 32.929060 1.383612 2.446456 0.178022 -0.049049 -305311.000000 0 0 1
-4.651347 -20.654639 -26.475102 33.899560 1.349295 2.467040 0.236419 -0.053813 -482961.000000 0 0 1
-4.140647 -21.513239 -27.597202 35.235919 1.380652 2.470612 0.194071 -0.046015 -55356.100000 0 0 1
-5.065447 -21.563639 -28.661302 36.223190 1.340073 2.483633 0.209816 -0.042823 275569.000000 0 0 1
-4.435647 -22.186539 -29.801002 37.416803 1.373473 2.492215 0.221560 -0.037252 84695.800000 0 0 1
-5.323947 -22.498639 -31.004702 38.675893 1.338436 2.500854 0.251854 -0.062641 -311849.000000 0 0 1
-5.738747 -21.314039 -31.705202 38.632128 1.307786 2.533423 0.268226 -0.067257 47131.200000 0 0 1
-6.616447 -21.758239 -32.728102 39.853820 1.275592 2.534313 0.269892 -0.066034 111894.000000 0 0 1
-6.400447 -20.950539 33.444467 39.980285 1.274299 0.579888 0.241968 -0.055207 -124998.000000 0 0 1
-5.142247 -21.256239 32.912667 39.515997 1.333439 0.586478 0.248169 -0.063638 -428736.000000 0 0 1
-5.050347 -20.881339 31.522667 38.147278 1.333494 0.598217 0.248399 -0.065036 668710.000000 0 0 1
-3.606947 -20.929039 30.924567 37.514845 1.400131 0.601781 0.197165 -0.068999 119187.000000 0 0 1
-3.034547 -22.237539 30.636467 37.977753 1.435173 0.632258 0.254567 -0.068418 1762140.000000 0 0 1
-1.638747 -22.316839 30.238067 37.617383 1.497497 0.637086 0.226607 -0.057714 1982740.000000 0 0 1
-0.510447 -21.720439 31.154367 37.982004 1.547300 0.608965 0.159410 -0.058638 -281891.000000 0 0 1
-0.326547 -20.377139 30.817567 36.946676 1.554773 0.584280 0.123446 -0.055276 332566.000000 0 0 1
0.366853 -19.583639 31.817267 37.362976 -1.552066 0.551820 0.124377 -0.053887 229136.000000 0 0 1
-0.546347 -19.352039 33.043167 38.296877 1.542572 0.529982 0.122524 -0.050472 -226712.000000 0 0 1
-1.721347 -18.712839 32.628467 37.653024 1.479067 0.522536 0.132537 -0.048220 -528572.000000 0 0 1
-2.576147 -18.705739 -33.691102 38.621646 1.433938 2.630759 0.148381 -0.053977 44873.600000 0 0 1
-3.577347 -17.531639 -33.607402 38.073787 1.369509 2.652355 0.178530 -0.052152 398702.000000 0 0 1
-2.956647 -16.242039 -33.479102 37.328218 1.390731 2.683470 0.142607 -0.041984 -64926.600000 0 0 1
-3.967747 -15.315839 -33.217302 36.792759 1.317307 2.697083 0.182553 -0.048713 -167785.000000 0 0 1
-3.644247 -13.848239 -33.533102 36.462627 1.313474 2.738002 0.156548 -0.053473 -475279.000000 0 0 1
-2.697847 -13.267739 -32.687902 35.380930 1.370192 2.748907 0.151736 -0.050348 -123723.000000 0 0 1
-2.365847 -11.880039 -32.823602 34.987446 1.374223 2.788055 0.142365 -0.047803 155196.000000 0 0 1
-1.649547 -11.421439 33.333267 35.274310 1.427363 0.333285 0.140689 -0.047745 148556.000000 0 0 1
-2.579947 -11.505839 32.251267 34.339259 1.350215 0.350517 0.136291 -0.039170 663906.000000 0 0 1
-1.952347 -11.316839 30.958167 33.019549 1.399961 0.355217 0.134113 -0.033731 754385.000000 0 0 1
-1.002147 -12.458739 30.407867 32.876479 1.490532 0.389991 0.114777 -0.045056 963645.000000 0 0 1
-1.677447 -13.718139 30.197667 33.209942 1.449121 0.429207 0.129717 -0.055604 697483.000000 0 0 1
-0.710947 -14.499839 29.517067 32.893890 1.521804 0.457087 0.117043 -0.056702 436650.000000 0 0 1
-0.876747 -16.037939 29.684367 33.751234 1.516184 0.495976 0.109370 -0.051316 -128254.000000 0 0 1
-1.527547 -16.745039 28.682967 33.248193 1.479824 0.530227 0.128772 -0.051023 178772.000000 0 0 1
-1.862847 -18.094139 29.111267 34.326869 1.468205 0.558482 0.159774 -0.043080 -294805.000000 0 0 1
-2.380047 -19.026239 28.001867 33.937692 1.446350 0.600424 0.173760 -0.055431 -573491.000000 0 0 1
-3.777747 -18.957139 27.893467 33.936558 1.374095 0.606006 0.199144 -0.062675 -601827.000000 0 0 1
-4.337847 -19.786939 26.994367 33.749603 1.354983 0.643764 0.210747 -0.067393 -203952.000000 0 0 1
-4.400247 -19.257939 25.542267 32.289902 1.346163 0.658306 0.193380 -0.069686 -376382.000000 0 0 1
-4.994847 -20.175539 24.569167 32.181436 1.328107 0.702146 0.234930 -0.071446 1075.250000 0 0 1
-4.210747 -21.312739 24.368067 32.646070 1.375739 0.728112 0.243596 -0.072249 -145261.000000 0 0 1
-31.549757 -32.945104 -0.789033 45.622249 0.807030 1.588092 0.099710 -0.014841 -193761.000000 0 0 1
-30.942637 -31.709704 -0.578233 44.308989 0.797641 1.583847 0.097146 -0.020244 -44819.600000 0 0 1
-31.090947 -31.317004 0.772867 44.136142 0.789020 1.553284 0.074040 0.006250 85333.700000 0 0 1
-30.556407 -29.893804 1.123867 42.762093 0.774437 1.544511 0.082155 -0.004593 787564.000000 0 0 1
-29.154277 -29.645104 0.936167 41.589428 0.793745 1.548285 0.114415 -0.010897 473250.000000 0 0 1
-28.745267 -28.408804 1.444767 40.440548 0.779511 1.535063 0.122910 -0.012774 250597.000000 0 0 1
-27.231907 -28.087404 1.441967 39.147903 0.800862 1.533954 0.157200 -0.025173 208710.000000 0 0 1
-26.479407 -28.888204 2.342667 39.257807 0.828876 1.511087 0.133741 -0.007973 133884.000000 0 0 1
-25.208407 -28.284004 2.533167 37.971906 0.842831 1.504035 0.161509 -0.014270 413561.000000 0 0 1
-24.249647 -29.098804 3.476267 38.037747 0.876045 1.479279 0.144177 -0.026731 44195.100000 0 0 1
-24.575147 -29.132904 4.870867 38.423812 0.870057 1.443687 0.115814 -0.013500 489978.000000 0 0 1
-23.658547 -29.968704 5.623767 38.593741 0.902527 1.424559 0.105349 -0.019363 461550.000000 0 0 1
-23.943447 -29.784304 7.107867 38.870493 0.893685 1.386901 0.090888 -0.010199 103713.000000 0 0 1
-23.618947 -28.533004 7.667967 37.825715 0.879347 1.366663 0.100658 -0.036172 47554.200000 0 0 1
-24.163047 -28.571404 8.963167 38.477478 0.868800 1.335691 0.056265 -0.021904 -2947.660000 0 0 1
-23.835247 -27.355904 9.776767 37.577249 0.854065 1.307590 0.079260 -0.028808 -919208.000000 0 0 1
-22.556447 -27.442004 10.271267 36.977775 0.882803 1.289326 0.078724 -0.043076 -1212380.000000 0 0 1
-22.228347 -26.318804 11.099367 36.193574 0.869457 1.259107 0.095691 -0.036174 101602.000000 0 0 1
-20.858647 -26.446904 11.783667 35.684404 0.902984 1.234261 0.084734 -0.037516 -70119.600000 0 0 1
-20.748847 -27.400704 12.821867 36.683968 0.922679 1.213735 0.069501 -0.022901 -273277.000000 0 0 1
-19.443247 -27.322504 13.359767 36.097679 0.952314 1.191679 0.079014 -0.035134 285857.000000 0 0 1
-19.074047 -28.334504 14.497767 37.105911 0.978302 1.169390 0.090094 -0.033086 101002.000000 0 0 1
-18.959047 -29.627904 13.986167 37.853283 1.001550 1.192343 0.085229 -0.029116 -113182.000000 0 0 1
-18.647147 -30.525404 15.021067 38.796248 1.022420 1.173227 0.093455 -0.027406 70726.200000 0 0 1
-18.603547 -31.966204 14.512867 39.731014 1.043736 1.196865 0.077501 -0.036170 43750.200000 0 0 1
-18.251947 -32.910904 15.437767 40.676601 1.064439 1.181514 0.092231 -0.031559 -11148.600000 0 0 1
-18.277547 33.258961 14.912967 40.775284 -1.068297 1.196373 0.064858 -0.030390 -730.578000 0 0 1
-17.897747 32.152661 15.972967 40.115566 -1.062863 1.161271 0.073132 -0.030493 421483.000000 0 0 1
-19.086647 31.838661 16.714867 40.711021 -1.030759 1.147713 0.081530 -0.046651 713564.000000 0 0 1
-19.004047 30.604361 17.457067 40.031612 -1.015108 1.119556 0.046497 -0.031631 -29562.900000 0 0 1
-19.839447 30.753461 18.757067 41.124282 -0.997865 1.097181 0.053184 -0.041895 228544.000000 0 0 1
-19.264847 31.592461 19.762767 41.949790 -1.023208 1.080253 0.058872 -0.036731 744729.000000 0 0 1
-20.224347 31.829161 20.834567 43.083627 -1.004751 1.066051 0.069589 -0.026471 749088.000000 0 0 1
-19.654647 32.855861 21.871467 44.092787 -1.031695 1.051772 0.065029 -0.023289 366684.000000 0 0 1
-18.555447 32.306161 22.591367 43.570202 -1.049441 1.025695 0.050371 -0.027836 145911.000000 0 0 1
-18.307347 33.191161 23.656567 44.681599 -1.066746 1.012847 0.054532 -0.029865 -32648.800000 0 0 1
-19.041247 32.927061 25.035867 45.536305 -1.046496 0.988671 0.063768 -0.031868 314571.000000 0 0 1
-20.450347 33.018061 24.993567 46.185360 -1.016257 0.998983 0.063717 -0.035492 187955.000000 0 0 1
-21.154447 31.794661 25.096567 45.697361 -0.983709 0.989401 0.077405 -0.027968 190478.000000 0 0 1
-22.662647 31.927461 24.781167 46.336428 -0.953512 1.006514 0.126373 -0.042774 210272.000000 0 0 1
-22.832247 31.726361 23.358567 45.535658 -0.946996 1.032152 0.117154 -0.025662 -618225.000000 0 0 1
-24.180947 31.809961 23.039967 46.124093 -0.920819 1.047750 0.105115 -0.032709 -719202.000000 0 0 1
-24.457047 31.471761 21.534167 45.302751 -0.910169 1.075447 0.088390 -0.034012 -50411.700000 0 0 1
-24.117447 32.417961 20.526667 45.320189 -0.931176 1.100752 0.077956 -0.032473 1376.980000 0 0 1
-23.949447 31.817561 19.279367 44.245081 -0.925562 1.119936 0.045396 -0.014556 -197485.000000 0 0 1
-23.552647 32.819261 18.142067 44.282792 -0.948325 1.148686 0.044175 -0.007455 530406.000000 0 0 1
-22.209547 33.169261 18.492667 43.993666 -0.980778 1.136967 0.043137 -0.013540 127601.000000 0 0 1
-21.655647 -33.356504 17.592867 43.487152 0.994971 1.154306 0.063307 -0.009997 372207.000000 0 0 1
-20.445747 -32.618704 18.226767 42.593702 1.010896 1.128604 0.070738 -0.018891 121615.000000 0 0 1
-20.826147 -31.689104 19.202067 42.504672 0.989375 1.102055 0.071394 -0.022545 52768.500000 0 0 1
-19.760447 -30.912504 19.687767 41.637319 1.002024 1.078286 0.060897 -0.028703 -298266.000000 0 0 1
-20.274547 -29.941104 20.741867 41.686353 0.975573 1.050002 0.058620 -0.019953 -392856.000000 0 0 1
-20.963747 -28.930104 20.106067 40.996141 0.943728 1.058204 0.071979 -0.022218 -111748.000000 0 0 1
-21.461347 -28.087504 21.163867 41.199594 0.918339 1.031315 0.089646 -0.016074 179725.000000 0 0 1
-22.235047 -26.843304 20.541667 40.458873 0.879020 1.038263 0.082262 -0.025772 -388182.000000 0 0 1
-21.420047 -25.759804 20.166167 39.103200 0.877123 1.028953 0.075994 -0.016681 -28961.700000 0 0 1
-22.031747 -24.519904 19.827567 38.467597 0.838797 1.029280 0.059966 -0.002174 -1113490.000000 0 0 1
-23.104847 -24.385904 18.764267 38.478617 0.812366 1.061395 0.049530 -0.008161 -593014.000000 0 0 1
-24.363247 -24.802404 19.261867 39.746026 0.794330 1.064863 0.043189 -0.006930 -232765.000000 0 0 1
-25.366587 -24.660604 18.306167 39.833715 0.771287 1.093291 0.031520 0.002889 -506944.000000 0 0 1
-26.758077 -25.140804 18.751867 41.227263 0.754246 1.098602 0.035073 -0.003463 -222875.000000 0 0 1
-26.932787 -26.520204 18.990067 42.300342 0.777680 1.105224 0.020142 -0.003841 -61372.300000 0 0 1
-27.097387 -27.376604 17.882767 42.468108 0.790524 1.136153 0.025172 -0.010799 -17405.000000 0 0 1
-27.939727 -28.628404 18.364267 44.016590 0.797572 1.140420 0.050548 -0.018426 572184.000000 0 0 1
-29.312877 -28.350504 18.554967 44.802708 0.768710 1.143789 0.055647 -0.016853 17389.500000 0 0 1
-30.140527 -28.909104 17.549467 45.300899 0.764547 1.172989 0.054416 -0.012399 -1382460.000000 0 0 1
-31.580037 -28.577004 17.721567 46.130227 0.735520 1.176494 0.047381 -0.014158 -1324480.000000 0 0 1
-32.075007 -27.333504 17.284767 45.548762 0.705755 1.181564 0.058832 -0.017482 252953.000000 0 0 1
-33.493837 -27.296904 17.317767 46.549577 0.683810 1.189603 0.088815 -0.006230 311163.000000 0 0 1
-34.126671 -25.943504 16.874767 46.070086 0.650005 1.195783 0.107854 -0.022543 -68260.200000 0 0 1
-34.241916 -25.754304 15.474267 45.554867 0.644862 1.224215 0.117433 -0.040359 313273.000000 0 0 1
-35.254908 -24.805604 15.134467 45.686745 0.613143 1.233151 0.123689 -0.033195 12542.500000 0 0 1
-34.811136 -23.447904 14.555967 44.424043 0.592770 1.236971 0.115996 -0.031913 469357.000000 0 0 1
-33.815627 -22.808104 15.387367 43.594464 0.593395 1.210057 0.102900 -0.015758 753976.000000 0 0 1
-33.531317 -21.462904 15.063367 42.566542 0.569374 1.209082 0.100891 -0.004758 -139359.000000 0 0 1
-34.584592 -20.483004 15.606267 43.118477 0.534707 1.200449 0.114256 -0.014319 -45920.600000 0 0 1
-34.705150 -20.511104 17.003267 43.752302 0.533783 1.171657 0.116150 -0.010515 307627.000000 0 0 1
-35.638032 -19.477704 17.273767 44.134265 0.500185 1.168653 0.127391 -0.013161 -71662.100000 0 0 1
-35.893932 -19.177204 18.820967 44.837131 0.490690 1.137612 0.095572 -0.005370 -207293.000000 0 0 1
-37.166717 -19.605504 19.250267 46.220271 0.485406 1.141216 0.101465 0.001170 -7812.290000 0 0 1
-37.374937 -19.306004 20.611667 46.844941 0.476799 1.115200 0.101964 0.001775 -1129300.000000 0 0 1
37.359578 -19.596904 21.101467 47.170421 -0.483093 1.107001 0.112051 0.000788 -783881.000000 0 0 1
36.839888 -20.937404 21.166367 47.366310 -0.516811 1.107538 0.116266 -0.007120 107489.000000 0 0 1
37.607848 -21.764804 22.039567 48.721653 -0.524633 1.101390 0.087480 0.002524 -316319.000000 0 0 1
36.966898 -23.074904 22.476567 49.032630 -0.558027 1.094602 0.100671 0.008042 -519348.000000 0 0 1
36.120208 -22.915504 23.563167 48.836591 -0.565347 1.067301 0.114555 -0.008520 -73925.500000 0 0 1
35.551838 -24.207804 23.872267 49.191830 -0.597803 1.064102 0.106691 -0.019012 -251748.000000 0 0 1
34.553748 -24.200104 25.012167 49.042992 -0.610968 1.035606 0.119385 -0.024509 1028220.000000 0 0 1
33.235918 -23.647204 24.735867 47.704084 -0.618399 1.025669 0.118110 -0.021977 1574070.000000 0 0 1
32.353468 -23.801204 25.855767 47.767823 -0.634261 0.998838 0.073732 -0.017106 487621.000000 0 0 1
30.991108 -24.451304 25.515067 47.003550 -0.667984 0.996990 0.073536 -0.018234 533515.000000 0 0 1
30.006408 -23.568704 24.911167 45.567912 -0.665809 0.992400 0.084244 -0.018468 1022740.000000 0 0 1
28.894408 -24.362404 24.448567 45.012731 -0.700506 0.996615 0.083934 -0.015905 1128330.000000 0 0 1
27.698108 -23.523904 23.846767 43.465245 -0.704085 0.990060 0.083861 -0.019485 300095.000000 0 0 1
27.933208 -22.794504 22.652867 42.579407 -0.684443 1.009818 0.078796 -0.016835 489004.000000 0 0 1
28.773708 -21.592904 22.772067 42.576365 -0.643782 1.006463 0.087302 -0.008920 696128.000000 0 0 1
28.697608 -20.783104 21.463967 41.426948 -0.626790 1.026149 0.088650 -0.016498 758739.000000 0 0 1
27.488708 -20.012004 21.483967 40.220271 -0.629277 1.007285 0.070586 -0.022027 566563.000000 0 0 1
27.378108 -19.350004 20.209567 39.146010 -0.615255 1.028317 0.044111 -0.019534 -54207.500000 0 0 1
26.521208 -18.076104 20.196267 37.921092 -0.598251 1.009143 0.053780 -0.010300 -217789.000000 0 0 1
26.962308 -16.965404 20.985767 38.146997 -0.561633 0.988278 0.068321 -0.021621 -7255.650000 0 0 1
26.887708 -17.064504 22.385767 38.926453 -0.565514 0.958096 0.070562 -0.026953 -94893.500000 0 0 1
27.035508 -15.745404 23.166467 38.929701 -0.527376 0.933425 0.079276 -0.024292 -35199.700000 0 0 1
25.810608 -15.091804 22.952567 37.693108 -0.529103 0.916082 0.044548 -0.026614 -369661.000000 0 0 1
25.748008 -13.978504 23.729467 37.702070 -0.497373 0.890023 0.047700 -0.028799 -732130.000000 0 0 1
24.524108 -13.134004 23.476767 36.401821 -0.491685 0.869860 0.048933 -0.030184 -1182610.000000 0 0 1
23.402808 -13.783004 23.964067 36.220700 -0.532252 0.847829 0.057350 -0.024552 -1054190.000000 0 0 1
22.307008 -12.920304 23.899567 35.152897 -0.524988 0.823205 0.068494 -0.026625 -508228.000000 0 0 1
20.917108 -13.498104 24.179067 34.703768 -0.573074 0.799971 0.074339 -0.022297 -208418.000000 0 0 1
20.469108 -14.464204 23.254267 34.190035 -0.615166 0.822833 0.090621 -0.031472 -649513.000000 0 0 1
19.216108 -14.937804 23.597567 33.900472 -0.660782 0.800868 0.115772 -0.036159 -638190.000000 0 0 1
18.734508 -16.147904 22.767767 33.617076 -0.711382 0.826753 0.130748 -0.038827 131515.000000 0 0 1
19.451508 -17.342204 23.061867 34.798893 -0.728133 0.846353 0.118227 -0.029289 101422.000000 0 0 1
19.274108 -18.284804 22.066967 34.536594 -0.759064 0.877671 0.135372 -0.025307 -68688.700000 0 0 1
19.538308 -19.731804 22.515767 35.749816 -0.790325 0.889481 0.102541 -0.022217 -190438.000000 0 0 1
18.704708 -20.233604 23.540467 36.241115 -0.824643 0.863802 0.121942 -0.024732 71534.200000 0 0 1
19.013308 -21.552904 23.961767 37.419244 -0.847920 0.875830 0.126101 -0.024773 -438481.000000 0 0 1
18.627508 -22.698504 22.941367 37.262749 -0.883591 0.907567 0.117189 -0.026036 24808.100000 0 0 1
19.491908 -22.898004 21.834267 37.161651 -0.865577 0.942771 0.107589 -0.017319 -345795.000000 0 0 1
20.655808 -23.583004 22.206967 38.418353 -0.851470 0.954484 0.100615 -0.015143 -653749.000000 0 0 1
21.643308 -23.707604 21.058167 38.391792 -0.830885 0.990219 0.082991 -0.002018 -614285.000000 0 0 1
21.151008 -24.526704 20.035567 38.083439 -0.859167 1.016792 0.081648 -0.013520 -13190.800000 0 0 1
22.134308 -24.985504 19.166567 38.491042 -0.845834 1.049564 0.080540 -0.017777 -272105.000000 0 0 1
21.371108 -25.654204 18.036967 37.949896 -0.876228 1.075510 0.083639 -0.023834 94287.300000 0 0 1
20.758808 -26.865904 18.365767 38.600600 -0.912936 1.074935 0.097127 -0.029985 -77972.200000 0 0 1
19.961708 -27.218304 17.256467 37.908990 -0.938009 1.098191 0.096757 -0.035516 -257656.000000 0 0 1
19.119808 -28.498704 17.497867 38.521663 -0.979868 1.099284 0.095922 -0.030047 325289.000000 0 0 1
17.987108 -28.194004 18.318267 38.131310 -1.002920 1.069686 0.111188 -0.032948 67284.100000 0 0 1
17.255708 -29.332804 18.600167 38.783232 -1.039044 1.070605 0.113328 -0.029462 -668318.000000 0 0 1
15.970108 -29.141904 19.391767 38.475129 -1.069481 1.042563 0.095189 -0.024195 634667.000000 0 0 1
14.941908 -28.473704 18.588167 37.142057 -1.087536 1.046665 0.091766 -0.030326 898125.000000 0 0 1
13.681608 -28.383604 19.224667 36.910746 -1.121632 1.022959 0.065576 -0.028476 1266530.000000 0 0 1
12.497008 -27.806904 18.314767 35.564446 -1.148424 1.029819 0.091429 -0.035380 768474.000000 0 0 1
12.186108 -28.763004 17.347067 35.731392 -1.170050 1.063878 0.091485 -0.034803 -19939.000000 0 0 1
11.537908 -28.248104 16.216267 34.554971 -1.183028 1.082311 0.137814 -0.038813 -143361.000000 0 0 1
11.235308 -29.328204 15.152467 34.870804 -1.204953 1.121278 0.133250 -0.036862 894151.000000 0 0 1
10.137808 -30.230804 15.491367 35.449388 -1.247235 1.118536 0.153119 -0.044491 883494.000000 0 0 1
9.798008 -31.106304 14.469967 35.678888 -1.265649 1.153204 0.126945 -0.028257 -12763.500000 0 0 1
8.979108 -32.344504 14.858267 36.709119 -1.300007 1.154083 0.138591 -0.033591 -9456.800000 0 0 1
9.631008 -33.419004 15.526967 38.087700 -1.290210 1.150902 0.133841 -0.035491 -549258.000000 0 0 1
8.760908 33.021661 15.865067 37.668076 1.311463 1.136050 0.147449 -0.028952 -254034.000000 0 0 1
9.514808 31.917161 16.634367 37.228201 1.281075 1.107587 0.160383 -0.030474 -91562.500000 0 0 1
10.212608 30.961161 15.911867 36.277795 1.252182 1.116743 0.113040 -0.032132 -318156.000000 0 0 1
11.037108 30.279461 16.832067 36.359071 1.221256 1.089487 0.153207 -0.034175 175288.000000 0 0 1
12.258508 29.546961 16.198267 35.856350 1.177527 1.102065 0.045586 -0.050130 300229.000000 0 0 1
11.878208 28.367561 15.479767 34.430126 1.174253 1.104479 0.119667 -0.030341 -289145.000000 0 0 1
13.059608 27.880261 14.912767 34.208960 1.132732 1.119723 0.077630 -0.046696 -101212.000000 0 0 1
12.920408 26.654561 13.928767 32.732448 1.119435 1.131245 0.065381 -0.041155 -271824.000000 0 0 1
12.453908 25.489161 14.502767 31.861064 1.116313 1.098213 0.100006 -0.035687 20073.500000 0 0 1
12.400608 24.484161 13.537867 30.602665 1.101982 1.112551 0.089027 -0.032509 -499178.000000 0 0 1
-9.819647 -8.973339 18.771436 23.006805 0.740395 0.616498 0.123919 -0.048413 79397.300000 0 1 0
-9.705147 -9.344639 17.424336 22.025432 0.766476 0.658190 0.105690 -0.048519 -80339.000000 0 1 0
-9.425247 -10.721039 17.234836 22.378908 0.849629 0.691740 0.110505 -0.048873 64978.500000 0 1 0
-9.721147 -11.127839 15.761236 21.604306 0.852767 0.753145 0.102732 -0.041996 242598.000000 0 1 0
-11.112747 -11.025139 15.496636 22.027087 0.781441 0.790449 0.119352 -0.045357 207989.000000 0 1 0
-11.488047 -11.578739 14.241636 21.653328 0.789330 0.853020 0.121534 -0.045689 -61650.000000 0 1 0
-11.406347 -13.104739 13.991836 22.307183 0.854578 0.892799 0.093757 -0.042069 -1010110.000000 0 1 0
-10.121647 -13.642839 13.865536 21.927788 0.932498 0.886243 0.093419 -0.035268 -342478.000000 0 1 0
-10.032447 -14.997639 14.151036 22.931005 0.981225 0.905727 0.104010 -0.036713 -15782.200000 0 1 0
-10.063047 -15.340239 15.638836 24.107282 0.990222 0.864897 0.130364 -0.045837 -459459.000000 0 1 0
-11.277147 -14.998639 16.255736 24.827045 0.926094 0.856932 0.164800 -0.045714 -452508.000000 0 1 0
-11.249547 -14.973739 17.644836 25.731409 0.926473 0.815188 0.175577 -0.046207 -673688.000000 0 0 1
-12.549247 -14.523939 18.278436 26.505275 0.858208 0.809839 0.135478 -0.043764 -1159420.000000 0 0 1
-12.901747 -13.173639 18.016736 25.779888 0.795825 0.796983 0.142613 -0.044356 -158198.000000 0 0 1
-13.988747 -13.035339 17.132836 25.673706 0.750133 0.840178 0.162021 -0.062475 -535057.000000 0 0 1
-15.371247 -13.217039 17.728036 26.930440 0.710187 0.852252 0.114949 -0.048087 -1138040.000000 0 0 1
-15.738247 -14.512539 18.221336 28.112689 0.744902 0.865639 0.123739 -0.035890 422132.000000 0 0 1
-16.848547 -14.411039 19.136536 29.287516 0.707579 0.858726 0.116477 -0.034817 515517.000000 0 0 1
-17.400547 -15.759839 19.644036 30.611104 0.735961 0.874046 0.102856 -0.027987 -190242.000000 0 0 1
-18.444547 -16.242239 18.835336 30.964197 0.721992 0.916887 0.080227 -0.021256 -169779.000000 0 0 1
-18.712947 -17.630339 19.111536 32.035200 0.755619 0.931564 0.086038 -0.026421 -861640.000000 0 0 1
-20.004947 -18.101739 18.498236 32.711704 0.735495 0.969766 0.083758 -0.024707 -975087.000000 0 0 1
-19.996347 -18.399439 17.098636 32.105398 0.743831 1.009152 0.092919 -0.027382 -23932.500000 0 0 1
-20.082147 -17.260239 16.241836 31.064541 0.709973 1.020615 0.091995 -0.025551 -444241.000000 0 0 1
-19.612647 -17.490639 14.813136 30.166328 0.728268 1.057503 0.102056 -0.039553 -560275.000000 0 0 1
-20.293247 -18.440639 14.083736 30.825714 0.737605 1.096309 0.103352 -0.030745 -454960.000000 0 0 1
-19.851847 -18.497039 12.766336 29.986924 0.750084 1.131028 0.116593 -0.034777 -39149.700000 0 0 1
-19.968047 -19.814239 12.015536 30.589215 0.781532 1.167119 0.141807 -0.039196 92604.600000 0 0 1
-18.986347 -20.766539 12.387736 30.743886 0.830150 1.156077 0.141636 -0.033380 11939.800000 0 0 1
-19.167647 -21.943739 11.624536 31.369670 0.852822 1.191178 0.116795 -0.028133 -102438.000000 0 0 1
-18.273647 -23.125639 12.019336 31.830579 0.902066 1.183590 0.104940 -0.022436 -102678.000000 0 0 1
-18.518247 -24.286939 11.234736 32.542283 0.919357 1.218307 0.117291 -0.049265 -115421.000000 0 0 1
-17.771047 -24.358939 10.035136 31.778483 0.940513 1.249514 0.111628 -0.038373 -320913.000000 0 0 1
-18.248947 -25.495419 9.075236 32.640471 0.949562 1.289047 0.122810 -0.045944 -868126.000000 0 0 1
-19.493147 -25.134889 8.615936 32.954207 0.911148 1.306270 0.108366 -0.050169 -1280840.000000 0 0 1
-20.028147 -26.098509 7.714136 33.790039 0.916248 1.340469 0.134108 -0.054648 135051.000000 0 0 1
-21.472647 -25.807519 7.266836 34.349811 0.876827 1.357632 0.141403 -0.055220 -90351.000000 0 0 1
-21.565347 -24.593639 6.571336 33.363059 0.850910 1.372536 0.164093 -0.061359 -598939.000000 0 0 1
-22.632947 -24.582439 5.688136 33.895449 0.826664 1.402184 0.175549 -0.057291 -636754.000000 0 0 1
-22.819247 -23.217839 4.914436 32.923210 0.794056 1.420967 0.180082 -0.057742 -54620.400000 0 0 1
-23.533047 -23.189439 3.698036 33.244997 0.778044 1.459330 0.186770 -0.060092 255731.000000 0 0 1
-23.040847 -22.071539 2.946936 32.042439 0.763915 1.478696 0.178995 -0.043828 368597.000000 0 0 1
-23.461347 -22.146139 1.432536 32.294557 0.756569 1.526423 0.157445 -0.041981 -90296.500000 0 0 1
-22.816347 -23.176139 0.769336 32.531692 0.793221 1.547145 0.170042 -0.053547 -76759.400000 0 0 1
-23.059847 -23.067039 -0.626164 32.622644 0.785554 1.589992 0.157028 -0.058447 -215943.000000 0 0 1
-22.151747 -23.970339 -1.507164 32.673362 0.824808 1.616941 0.179765 -0.054946 847463.000000 0 0 1
-20.767547 -23.503739 -1.460364 31.398239 0.847125 1.617324 0.171951 -0.052183 1079390.000000 0 0 1
-19.920247 -23.934739 -2.478964 31.238329 0.876684 1.650236 0.146730 -0.041964 -38642.500000 0 0 1
-19.611247 -25.408119 -2.585264 32.200266 0.913457 1.651170 0.159032 -0.034000 -860381.000000 0 0 1
-20.742647 -26.200079 -2.826564 33.536413 0.901136 1.655180 0.223087 -0.048349 -552131.000000 0 0 1
-20.350847 -27.476819 -3.247464 34.346449 0.933303 1.665488 0.209973 -0.035730 -200381.000000 0 0 1
-21.501547 -28.357299 -3.730564 35.782259 0.922044 1.675243 0.210739 -0.045630 -157265.000000 0 0 1
-22.113047 -27.875999 -4.919764 35.920220 0.900176 1.708192 0.184770 -0.037817 -248370.000000 0 0 1
-22.864147 -28.822529 -5.593264 37.212793 0.900170 1.721673 0.193056 -0.061128 -249568.000000 0 0 1
-23.306947 -28.277869 -6.999364 37.307409 0.881466 1.759528 0.164837 -0.022834 -86670.500000 0 0 1
-22.241847 -27.959209 -7.875064 36.584611 0.898799 1.787750 0.180338 -0.017386 635.733000 0 0 1
-22.492447 -28.101569 -9.257464 37.165965 0.895813 1.822531 0.159682 -0.011434 -384162.000000 0 0 1
-23.494347 -27.095589 -9.858964 37.193473 0.856463 1.839075 0.142918 0.001106 -439015.000000 0 0 1
-23.180447 -25.744939 -10.132264 36.094290 0.837767 1.855337 0.154071 -0.001775 -109515.000000 0 0 1
-22.883147 -24.940539 -9.023864 35.029973 0.828392 1.831338 0.144572 -0.004966 -380057.000000 0 0 1
-22.701447 -23.379539 -9.309764 33.891448 0.800112 1.849067 0.134089 -0.014067 -290547.000000 0 0 1
-23.893047 -22.743539 -9.654064 34.370732 0.760755 1.855508 0.131733 -0.010698 -594787.000000 0 0 1
-23.675547 -21.373639 -9.948764 33.411703 0.734345 1.873145 0.132249 -0.009438 -226485.000000 0 0 1
-24.835347 -20.500839 -10.428964 33.850290 0.690080 1.883982 0.153898 -0.007005 -563650.000000 0 0 1
-25.376407 -20.676839 -11.730164 34.771978 0.683704 1.914892 0.134627 0.003945 1707770.000000 0 0 1
-26.651187 -19.964639 -11.940464 35.375800 0.642930 1.915090 0.118377 -0.000786 1401010.000000 0 0 1
-26.663467 -18.421539 -11.990964 34.555416 0.604586 1.925174 0.122676 -0.012792 -990478.000000 0 0 1
-26.040757 -17.849439 -13.147964 34.199305 0.600889 1.965410 0.141625 -0.000407 648675.000000 0 0 1
-25.702377 -16.455439 -13.105564 33.213694 0.569476 1.976410 0.141328 -0.022202 625712.000000 0 0 1
-24.841347 -15.915039 -11.838964 31.789024 0.569786 1.952415 0.138223 -0.021566 -245300.000000 0 0 1
-25.618547 -15.784139 -10.722864 31.944151 0.552189 1.913118 0.158824 -0.024920 -85165.700000 0 0 1
-24.874647 -16.055439 -9.550664 31.108526 0.573173 1.882847 0.165901 -0.028327 252552.000000 0 0 1
-25.789757 -16.480839 -8.360364 31.727359 0.568636 1.837452 0.153139 -0.037460 176416.000000 0 0 1
-26.222397 -17.826639 -8.384364 32.797877 0.597057 1.829303 0.135499 -0.025845 381798.000000 0 0 1
-27.029947 -18.131839 -7.218764 33.339049 0.590863 1.789051 0.143938 -0.024371 430344.000000 0 0 1
-27.396377 -19.628039 -7.099564 34.441620 0.621679 1.778418 0.145976 -0.023744 15940.800000 0 0 1
-28.106697 -20.140839 -8.209164 35.539136 0.621770 1.803891 0.137072 -0.025838 -93556.400000 0 0 1
-28.255987 -21.574439 -8.217864 36.488224 0.652107 1.797965 0.135919 -0.014346 -554377.000000 0 0 1
-27.146197 -22.557239 -8.566864 36.319915 0.693332 1.808912 0.114915 -0.002427 -707386.000000 0 0 1
-27.533737 -23.894439 -8.480864 37.429613 0.714751 1.799363 0.134583 -0.007116 -36804.700000 0 0 1
-26.434267 -24.772639 -8.628964 37.241283 0.752960 1.804626 0.109102 0.003489 -208043.000000 0 0 1
-26.932117 -26.217539 -8.442064 38.522289 0.771954 1.791737 0.137912 -0.020518 40407.500000 0 0 1
-27.318857 -26.382499 -7.087464 38.634031 0.767964 1.755293 0.162813 -0.041995 156836.000000 0 0 1
-27.554407 -27.720049 -6.741064 39.662178 0.788395 1.741587 0.162918 -0.043258 -159117.000000 0 0 1
-27.618937 -28.075689 -5.195664 39.724613 0.793599 1.701964 0.189623 -0.055607 -794958.000000 0 0 1
-28.715327 -27.538939 -4.527864 40.043285 0.764489 1.684113 0.157719 -0.053493 -218590.000000 0 0 1
-28.831647 -28.003519 -3.160964 40.316903 0.770828 1.649280 0.159368 -0.054622 132386.000000 0 0 1
-29.400047 -29.477489 -2.942064 41.736565 0.786713 1.641346 0.126495 -0.028490 -42756.900000 0 0 1
-28.465517 -30.466729 -3.405664 41.834266 0.819343 1.652295 0.189910 -0.057274 419718.000000 0 0 1
-28.169327 -31.466889 -2.400864 42.301776 0.840637 1.627582 0.178521 -0.060402 -19725.900000 0 0 1
-27.177257 -31.025749 -1.298264 41.266038 0.851424 1.602262 0.191437 -0.060061 581216.000000 0 0 1
-25.836107 -30.814039 -1.795264 40.252110 0.873045 1.615412 0.217189 -0.071355 837766.000000 0 0 1
-24.997527 -30.506709 -0.691264 39.446337 0.884331 1.588321 0.268649 -0.051000 553034.000000 0 0 1
-23.860047 -29.488409 -0.993064 37.945412 0.890511 1.596970 0.273526 -0.042232 338273.000000 0 0 1
-24.314647 -28.191949 -0.864764 37.238902 0.859108 1.594020 0.230033 -0.062177 -211705.000000 0 0 1
-24.917647 -27.653719 -2.026564 37.279006 0.837396 1.625185 0.267391 -0.075924 -13363.800000 0 0 1
-25.468497 -26.256479 -1.713464 36.619434 0.800631 1.617605 0.160629 -0.053290 396218.000000 0 0 1
-26.688367 -26.250879 -0.968964 37.447516 0.777134 1.596674 0.184391 -0.056845 191717.000000 0 0 1
-27.181367 -24.959539 -0.669164 36.908713 0.742812 1.588928 0.173792 -0.083409 -74320.000000 0 0 1
-26.488577 -24.201439 0.448336 35.882522 0.740309 1.558301 0.184524 -0.060152 -368407.000000 0 0 1
-26.934197 -24.754739 1.689236 36.621054 0.743258 1.524652 0.155196 -0.061571 -106595.000000 0 0 1
-26.646837 -24.017339 2.889136 35.989354 0.733544 1.490432 0.161840 -0.051311 95156.500000 0 0 1
-27.577437 -22.807839 3.257136 35.934962 0.691017 1.480032 0.167891 -0.055729 98716.600000 0 0 1
-27.593547 -21.786739 2.247136 35.229468 0.668342 1.506967 0.167960 -0.052698 281599.000000 0 0 1
-28.382547 -20.619139 2.593636 35.177334 0.628273 1.496999 0.134005 -0.051216 461305.000000 0 0 1
-27.962237 -19.449039 1.649936 34.100940 0.607731 1.522394 0.140764 -0.038087 149027.000000 0 0 1
-26.631987 -19.066039 1.904236 32.808576 0.621323 1.512723 0.139542 -0.035453 -344309.000000 0 0 1
-26.188047 -18.144539 0.959436 31.874106 0.605915 1.540691 0.114765 -0.036682 566597.000000 0 0 1
-24.764847 -17.583639 1.239136 30.397656 0.617422 1.530021 0.142525 -0.031147 904484.000000 0 0 1
-23.672147 -18.489539 1.321036 30.066239 0.663089 1.526845 0.154472 -0.043456 119410.000000 0 0 1
-22.415747 -17.911439 1.469136 28.730536 0.674165 1.519639 0.152385 -0.027932 -622151.000000 0 0 1
-21.203347 -18.803939 1.372636 28.373477 0.725496 1.522400 0.133864 -0.039845 -634444.000000 0 0 1
-20.837547 -19.050839 0.004836 28.233630 0.740635 1.570625 0.090031 -0.030324 384371.000000 0 0 1
-19.809747 -20.027339 -0.035964 28.169517 0.790860 1.572073 0.123166 -0.029546 59753.300000 0 0 1
-19.300847 -20.399039 -1.447564 28.120080 0.813053 1.622297 0.113156 -0.035906 592030.000000 0 0 1
-18.456547 -19.401839 -2.105464 26.860909 0.810362 1.649261 0.109743 -0.041273 581274.000000 0 0 1
-18.275447 -19.845039 -3.445164 27.197182 0.826549 1.697811 0.124690 -0.037463 -117052.000000 0 0 1
-17.388647 -18.884839 -4.231564 26.017462 0.826622 1.734165 0.126804 -0.024128 -317810.000000 0 0 1
-15.997447 -19.054439 -4.171664 25.226826 0.872391 1.736926 0.150450 -0.033446 -211016.000000 0 0 1
-15.433447 -18.330139 -5.243664 24.529193 0.870982 1.786231 0.142865 -0.025159 36688.400000 0 1 0
-13.892447 -18.185939 -5.198364 23.468094 0.918451 1.794157 0.141107 -0.031853 109604.000000 0 1 0
-13.147947 -19.353339 -5.467964 24.027461 0.974055 1.800379 0.112563 -0.027319 -1191840.000000 0 1 0
-11.905347 -19.001839 -5.942864 23.197517 1.011093 1.829870 0.110662 -0.034455 -772107.000000 0 1 0
-10.946947 -20.241639 -5.910564 23.759090 1.075034 1.822207 0.114942 -0.038623 181203.000000 0 1 0
-11.148247 -21.300039 -6.868564 25.003045 1.088612 1.849083 0.109126 -0.034395 -563140.000000 0 0 1
-9.975447 -22.030739 -7.083464 25.199969 1.145619 1.855726 0.116216 -0.033825 -245108.000000 0 0 1
-10.056947 -23.180839 -8.113464 26.539061 1.161456 1.881489 0.121118 -0.025309 -342895.000000 0 0 1
-10.110747 -22.733739 -9.434564 26.609417 1.152320 1.933237 0.116630 -0.026909 39644.900000 0 0 1
-9.914247 -23.797539 -10.362564 27.784850 1.176055 1.952991 0.161050 -0.028094 -399646.000000 0 0 1
-10.700647 -23.656239 -11.650064 28.457784 1.145999 1.992571 0.200783 -0.041088 -459903.000000 0 0 1
-10.161847 -22.754839 -12.596564 27.923453 1.150790 2.038806 0.162670 -0.030673 88995.200000 0 0 1
-11.162447 -22.431639 -13.553164 28.486258 1.109054 2.066646 0.168120 -0.038134 -420555.000000 0 0 1
-10.879847 -21.081039 -14.317664 27.708785 1.094355 2.113811 0.129411 -0.024021 -164618.000000 0 0 1
-10.943547 -20.007939 -13.402064 26.451733 1.070290 2.102104 0.131029 -0.022857 130987.000000 0 0 1
-10.710147 -18.777139 -14.039164 25.775692 1.052439 2.146788 0.112257 -0.008330 -129318.000000 0 0 1
-10.459647 -17.614539 -13.081164 24.306235 1.034942 2.139074 0.108395 -0.004772 285870.000000 0 1 0
-11.594947 -17.126539 -12.331064 24.079374 0.975663 2.108425 0.131753 -0.018924 553475.000000 0 1 0
-11.422747 -15.895139 -11.635164 22.770850 0.947675 2.107106 0.131748 -0.021579 -121098.000000 0 1 0
-11.175347 -14.581139 -12.452764 22.193903 0.916866 2.166498 0.134825 -0.007105 733879.000000 0 1 0
-12.324547 -13.872039 -12.990464 22.651271 0.844402 2.181566 0.127864 -0.002023 671582.000000 0 1 0
-12.327247 -13.671239 -14.389164 23.364756 0.837047 2.234260 0.145225 -0.008868 11361.200000 0 1 0
-13.518447 -12.844339 -14.942464 23.895662 0.759833 2.246339 0.145960 -0.006730 97640.400000 0 1 0
-13.411147 -11.469539 -14.636064 22.926482 0.707519 2.263203 0.112669 -0.006895 -266180.000000 0 1 0
-14.438647 -10.708639 -15.189964 23.534751 0.638145 2.272379 0.117394 -0.018432 -486974.000000 0 1 0
-14.769247 -9.363839 -14.491964 22.711873 0.565052 2.262797 0.110333 -0.026084 132178.000000 0 1 0
-13.790247 -8.327939 -14.571964 21.722514 0.543283 2.306114 0.094354 -0.025645 178423.000000 0 1 0
-13.589347 -7.701039 -15.837464 22.244137 0.515572 2.363116 0.093054 -0.019725 -25272.400000 0 1 0
-12.290547 -6.860539 -15.882164 21.221868 0.509114 2.416423 0.064525 -0.007292 1213660.000000 0 1 0
-11.072947 -7.662139 -15.706164 20.688212 0.605316 2.432855 0.062679 -0.017567 1268880.000000 0 1 0
-9.964147 -6.779139 -15.729164 19.815336 0.597418 2.487808 0.035051 0.002242 167273.000000 0 1 0
12.100353 21.713461 15.868236 29.490572 1.062385 1.002641 0.146180 -0.039840 -426360.000000 0 0 1
13.067053 21.741361 16.850136 30.452615 1.029625 0.984448 0.158073 -0.047764 -545768.000000 0 0 1
13.381653 20.424261 17.312636 29.932365 0.990785 0.954040 0.153062 -0.042117 -1093720.000000 0 0 1
14.578053 20.477661 18.168336 31.015201 0.952128 0.944944 0.162422 -0.040634 -1301710.000000 0 0 1
15.794853 20.907861 17.622636 31.578052 0.923816 0.978743 0.141439 -0.030098 -618670.000000 0 0 1
16.825353 20.586161 18.507336 32.394506 0.885587 0.962694 0.140117 -0.039801 -563532.000000 0 0 1
18.230653 20.931361 18.026536 33.097350 0.854252 0.994822 0.105238 -0.027300 -884169.000000 0 0 1
18.415453 22.355361 18.051436 34.128367 0.881735 1.013460 0.104716 -0.030149 -546380.000000 0 0 1
19.548453 22.895961 17.460636 34.802886 0.864103 1.045233 0.097739 -0.027004 99345.100000 0 0 1
20.928453 22.725161 18.166836 35.839462 0.826533 1.039218 0.087009 -0.028684 102073.000000 0 0 1
21.551853 21.495561 17.913936 35.319267 0.784091 1.038863 0.103058 -0.028083 1148940.000000 0 0 1
22.876353 21.339661 18.493036 36.341451 0.750658 1.036926 0.112408 -0.032832 1317550.000000 0 0 1
23.529053 19.957461 18.213536 35.828054 0.703451 1.037517 0.104022 -0.038108 48921.000000 0 0 1
23.841753 19.749261 16.864436 35.254386 0.691789 1.072005 0.105273 -0.045444 -53746.900000 0 0 1
23.511653 18.396561 16.510036 34.114697 0.663944 1.065626 0.089209 -0.030958 -105148.000000 0 0 1
24.335353 17.153661 16.990836 34.280403 0.613998 1.052222 0.090481 -0.043998 506713.000000 0 0 1
25.613053 17.120061 16.342436 34.874062 0.589210 1.083076 0.118363 -0.055889 417049.000000 0 0 1
26.182053 15.857561 16.532236 34.789035 0.544575 1.075589 0.095922 -0.038400 436296.000000 0 0 1
27.634953 15.697861 15.919136 35.546200 0.516591 1.106444 0.222515 -0.068417 351239.000000 0 0 1
28.510653 16.731161 16.398936 36.901412 0.530686 1.110294 0.191840 -0.062220 293456.000000 0 0 1
29.439853 16.342361 17.378936 37.892019 0.506758 1.094328 0.189756 -0.065094 2245.210000 0 0 1
30.577453 15.387661 16.876636 38.165188 0.466233 1.112747 0.171415 -0.072305 -541315.000000 0 0 1
31.547953 15.982261 16.024136 38.826266 0.468915 1.145365 0.223412 -0.060169 393341.000000 0 0 1
32.358453 15.082761 15.266936 38.828321 0.436174 1.166697 0.222964 -0.066414 86249.000000 0 0 1
31.824453 14.720761 13.945536 37.735588 0.433251 1.192262 0.205319 -0.063897 -585331.000000 0 0 1
32.118253 15.661561 12.919236 37.997017 0.453696 1.223872 0.200338 -0.047839 363063.000000 0 0 1
31.363653 15.382361 11.735936 36.851431 0.455980 1.246685 0.200507 -0.055023 417204.000000 0 0 1
29.924653 15.953161 11.649336 35.856593 0.489784 1.239904 0.195798 -0.062260 -20297.300000 0 0 1
29.780553 17.369661 11.333236 36.290890 0.528016 1.253195 0.202403 -0.055580 140108.000000 0 0 1
30.283953 18.263661 12.361836 37.463237 0.542681 1.234522 0.222274 -0.062265 -223521.000000 0 0 1
29.558953 18.312861 13.759136 37.395272 0.554661 1.194006 0.225415 -0.066116 557942.000000 0 0 1
28.369153 19.113961 13.620436 36.819406 0.592896 1.191868 0.236875 -0.055531 971899.000000 0 0 1
27.623153 19.254261 14.852736 36.801752 0.608732 1.155362 0.193501 -0.057808 254604.000000 0 0 1
28.252753 20.218161 15.923836 38.217282 0.621131 1.141022 0.163803 -0.055234 -135129.000000 0 0 1
27.964353 21.595061 15.750336 38.683650 0.657581 1.151457 0.143855 -0.043366 240832.000000 0 0 1
26.661253 21.988361 16.149036 38.145797 0.689640 1.133656 0.129293 -0.044290 203905.000000 0 0 1
26.315053 23.460961 15.661336 38.576886 0.728122 1.152748 0.127156 -0.031921 -72179.900000 0 0 1
26.132253 23.598761 14.318536 38.010744 0.734498 1.184568 0.160349 -0.044806 69104.100000 0 0 1
25.725853 24.945761 14.057636 38.493216 0.770004 1.196951 0.152860 -0.045601 -184284.000000 0 0 1
25.542753 25.291461 12.576436 38.082240 0.780455 1.234234 0.149896 -0.039878 22054.200000 0 0 1
24.361753 24.626861 12.189636 36.722807 0.790810 1.232441 0.129257 -0.027943 105022.000000 0 0 1
24.158453 24.878461 10.829836 36.329795 0.800080 1.268097 0.112580 -0.038570 -609699.000000 0 0 1
23.225653 23.807861 10.273836 34.810874 0.797776 1.271202 0.117388 -0.043655 -1136940.000000 0 0 1
21.902953 24.035161 10.733236 34.243695 0.831780 1.251986 0.093085 -0.034038 -233334.000000 0 0 1
21.260553 22.804861 10.835136 33.007166 0.820430 1.236329 0.116987 -0.034048 -103152.000000 0 0 1
20.773753 22.019061 9.568936 31.748266 0.814491 1.264635 0.143098 -0.041122 -1169960.000000 0 0 1
19.751553 22.659561 8.857936 31.337559 0.853858 1.284228 0.116138 -0.030986 407688.000000 0 0 1
20.295153 23.235661 7.652136 31.785915 0.852846 1.327668 0.109625 -0.026522 -86122.300000 0 0 1
19.167853 23.325361 6.639836 30.912238 0.882927 1.354313 0.110587 -0.026731 -1028900.000000 0 0 1
18.656653 22.084461 6.185436 29.564400 0.869337 1.360020 0.113171 -0.022190 329793.000000 0 0 1
18.107753 22.183961 4.885536 29.049739 0.886223 1.401815 0.134369 -0.036908 -909289.000000 0 0 1
16.709853 22.769161 4.784236 28.645118 0.937692 1.402992 0.096924 -0.024372 -1245790.000000 0 0 1
16.634753 24.127861 4.851936 29.705386 0.967192 1.406726 0.105176 -0.027904 656695.000000 0 0 1
15.282453 24.469961 5.160436 29.308062 1.012528 1.393798 0.113256 -0.031169 453836.000000 0 0 1
15.127353 25.977561 5.154936 30.499899 1.043475 1.400966 0.105926 -0.035857 -161899.000000 0 0 1
15.060253 26.376961 3.800436 30.610433 1.052002 1.446320 0.091639 -0.036231 268950.000000 0 0 1
14.900953 27.788061 3.639436 31.740514 1.078582 1.455881 0.087043 -0.036746 -318676.000000 0 0 1
14.231453 28.211161 2.349036 31.684726 1.103586 1.496590 0.090484 -0.031541 -365869.000000 0 0 1
15.006153 27.996261 1.170736 31.785939 1.078761 1.533956 0.114334 -0.037244 37465.500000 0 0 1
14.811253 26.723061 0.672936 30.560564 1.064696 1.548775 0.097711 -0.033192 -65107.100000 0 0 1
15.829353 26.246061 -0.385464 30.652451 1.028091 1.583372 0.101894 -0.035826 -16145.500000 0 0 1
15.812953 26.914361 -1.648364 31.259389 1.039598 1.623553 0.097082 -0.023796 -147513.000000 0 0 1
16.988153 26.652661 -2.385064 31.696218 1.003337 1.646115 0.102734 -0.019102 61567.200000 0 0 1
16.968253 27.153861 -3.847764 32.249947 1.012274 1.690392 0.120191 -0.029529 -488419.000000 0 0 1
16.079953 26.459361 -4.670664 31.312582 1.024718 1.720518 0.142884 -0.032532 -314496.000000 0 0 1
16.095353 27.093561 -5.948564 32.070342 1.034752 1.757362 0.125708 -0.026615 239092.000000 0 0 1
14.789453 26.803661 -6.746864 31.347797 1.066595 1.787720 0.139869 -0.045865 546529.000000 0 0 1
14.626553 25.436661 -7.020164 30.170225 1.048948 1.805634 0.139993 -0.040036 -413381.000000 0 0 1
13.470853 25.346861 -7.804064 29.746103 1.082298 1.836259 0.118804 -0.046240 -108945.000000 0 0 1
13.031453 23.897261 -8.116264 28.403725 1.071560 1.860582 0.145720 -0.030304 44962.600000 0 0 1
13.642453 23.320861 -9.250564 28.557872 1.041487 1.900670 0.138739 -0.031195 316358.000000 0 0 1
12.873653 22.209661 -9.667764 27.431107 1.045480 1.930971 0.147028 -0.016789 184342.000000 0 0 1
13.439753 21.676761 -11.032364 27.788883 1.015795 1.979049 0.137840 -0.020194 545736.000000 0 0 1
12.741653 20.465961 -11.502264 26.711559 1.013941 2.015965 0.155330 -0.020920 454040.000000 0 0 1
12.998253 20.231561 -12.889264 27.283764 0.999730 2.062825 0.141307 -0.023456 78070.100000 0 0 1
14.222153 19.399761 -13.403764 27.536907 0.938193 2.079169 0.156892 -0.022918 565159.000000 0 0 1
15.439653 19.998961 -12.986864 28.407745 0.913349 2.045595 0.124260 -0.020681 -299269.000000 0 0 1
16.536353 19.251861 -13.480464 28.736876 0.861130 2.059068 0.115557 -0.019701 260609.000000 0 0 1
17.859553 20.024561 -13.204364 29.904881 0.842484 2.028117 0.135364 -0.017629 -41294.500000 0 0 1
18.158453 21.192161 -13.948664 31.199396 0.862340 2.034296 0.117363 -0.023951 397845.000000 0 0 1
17.339653 22.320361 -13.605264 31.368221 0.910329 2.019422 0.101636 -0.025051 -91213.400000 0 0 1
17.909253 23.646161 -14.129864 32.856283 0.922585 2.015345 0.114542 -0.027386 -164548.000000 0 0 1
17.783853 24.043361 -15.508964 33.687930 0.933947 2.049210 0.107202 -0.017888 402859.000000 0 0 1
16.491953 24.041961 -16.144264 33.326231 0.969552 2.076509 0.084741 -0.017398 608100.000000 0 0 1
16.460053 24.174061 -17.709064 34.189611 0.973006 2.115268 0.099926 -0.006909 264779.000000 0 0 1
16.958553 22.965761 -18.359164 33.942269 0.934743 2.142296 0.113911 -0.009744 -134767.000000 0 0 1
16.805453 23.073861 -19.744864 34.708586 0.941307 2.175934 0.111429 -0.008067 -368376.000000 0 0 1
17.163753 21.769761 -20.475864 34.464154 0.903155 2.206968 0.106100 -0.010260 464670.000000 0 0 1
16.164053 20.725461 -20.487664 33.325152 0.908424 2.232904 0.088195 -0.008199 194919.000000 0 0 1
16.659353 19.641861 -21.204264 33.361019 0.867374 2.259582 0.096697 -0.009895 51226.600000 0 0 1
15.625453 18.506961 -21.426864 32.338412 0.869620 2.295058 0.079992 -0.012589 -336254.000000 0 0 1
15.297553 17.716861 -20.324364 30.999711 0.858548 2.285814 0.085814 -0.016651 191888.000000 0 0 1
14.641853 16.485361 -20.690164 30.236301 0.844554 2.324415 0.072060 -0.023770 741430.000000 0 0 1
13.102953 16.524861 -20.973264 29.742835 0.900385 2.353436 0.081855 -0.027636 524615.000000 0 0 1
12.292553 16.386761 -19.793764 28.485538 0.927198 2.339036 0.068624 -0.024831 74710.900000 0 0 1
10.944553 16.684061 -20.084864 28.311533 0.990223 2.359476 0.088126 -0.029781 49379.700000 0 0 1
9.993053 16.433661 -18.890264 26.958642 1.024454 2.347192 0.108506 -0.042962 -532652.000000 0 0 1
9.769353 15.084661 -18.499364 25.791738 0.996086 2.370657 0.127353 -0.061862 25166.400000 0 0 1
8.401853 14.715761 -18.523764 25.105270 1.052017 2.400666 0.147637 -0.047604 522713.000000 0 0 1
7.643153 15.109861 -17.201664 24.137584 1.102489 2.364066 0.139944 -0.052266 -8588.810000 0 1 0
7.497453 16.538361 -17.107864 24.948110 1.145171 2.326413 0.147368 -0.047175 -482950.000000 0 1 0
6.874253 16.849361 -15.874364 24.148535 1.183427 2.288111 0.128041 -0.048201 116012.000000 0 1 0
6.683253 18.365161 -15.490964 24.938223 1.221784 2.241036 0.112135 -0.039766 1238180.000000 0 1 0
7.952253 19.015761 -15.173464 25.594365 1.174706 2.205382 0.111119 -0.032681 1238230.000000 0 0 1
8.546653 19.657061 -16.323964 26.942849 1.160665 2.221660 0.125619 -0.034308 160560.000000 0 0 1
9.826353 20.429161 -15.935364 27.709992 1.122467 2.183494 0.119642 -0.026963 -166754.000000 0 0 1
9.626653 21.589561 -15.150864 28.077220 1.151362 2.140775 0.114364 -0.029703 -91601.700000 0 0 1
9.648853 21.327861 -13.751464 27.149232 1.145943 2.101933 0.136916 -0.030636 -345514.000000 0 0 1
9.061953 22.539561 -12.979264 27.542914 1.188527 2.061490 0.132630 -0.023393 -525825.000000 0 0 1
7.718753 22.818461 -13.284164 27.508732 1.244611 2.074768 0.116773 -0.024498 -167590.000000 0 0 1
7.189753 23.946061 -12.532064 27.967106 1.279112 2.035435 0.103377 -0.024841 26899.500000 0 0 1
6.542953 23.466061 -11.222364 26.821777 1.298876 2.002485 0.075083 -0.015692 -834323.000000 0 0 1
7.427853 23.427861 -10.133064 26.584143 1.263770 1.961857 0.076839 -0.014309 -173232.000000 0 0 1
6.966853 22.742461 -8.979164 25.424043 1.273536 1.931760 0.081021 -0.023656 -337948.000000 0 0 1
7.881253 22.805761 -7.756364 25.345179 1.238063 1.881816 0.087917 -0.024522 -219516.000000 0 0 1
7.876953 24.026061 -7.094364 26.260769 1.253989 1.844346 0.075847 -0.026897 495315.000000 0 0 1
8.850253 24.071361 -6.046364 26.349875 1.218470 1.802324 0.095377 -0.034829 299700.000000 0 0 1
9.008353 25.517561 -5.451464 27.604616 1.231429 1.769587 0.074139 -0.033684 299443.000000 0 0 1
9.687553 26.481261 -6.278364 28.888124 1.220092 1.789878 0.101500 -0.040863 209285.000000 0 0 1
9.992353 27.650161 -5.536464 29.917068 1.224015 1.756930 0.082162 -0.041239 231486.000000 0 0 1
10.352753 28.823661 -6.507964 31.310326 1.225971 1.780176 0.083333 -0.033117 239208.000000 0 0 1
11.539353 28.649861 -7.254264 31.726890 1.187903 1.801484 0.102021 -0.039105 -110849.000000 0 0 1
11.786053 29.746961 -8.128264 33.013049 1.193561 1.819568 0.101629 -0.037174 -313187.000000 0 0 1
13.111053 29.831661 -8.902664 33.779952 1.156707 1.837495 0.103850 -0.042191 624085.000000 0 0 1
14.295053 29.961961 -8.120264 34.176108 1.125631 1.810691 0.088873 -0.028407 -368811.000000 0 0 1
15.374453 30.425161 -8.857664 35.221051 1.102902 1.825013 0.078461 -0.026935 135815.000000 0 0 1
16.696453 30.633661 -8.069264 35.809297 1.071772 1.798088 0.076480 -0.017497 62350.800000 0 0 1
17.410053 29.470961 -7.747464 35.095166 1.037204 1.793386 0.080111 -0.015428 75502.500000 0 0 1
18.566653 29.936961 -7.039464 35.923478 1.015662 1.768030 0.069195 -0.008351 272034.000000 0 0 1
19.632653 28.866961 -6.752264 35.557497 0.973546 1.761854 0.068642 -0.011688 -399154.000000 0 0 1
19.309053 27.950561 -5.784764 34.460657 0.966252 1.739461 0.091742 -0.016016 -422188.000000 0 0 1
20.370753 27.098561 -5.413764 34.330867 0.926190 1.729151 0.080867 -0.016437 -266890.000000 0 0 1
20.638953 25.807461 -6.247864 33.630748 0.896221 1.757660 0.091521 -0.020735 9463.220000 0 0 1
21.289353 26.148761 -7.479364 34.538893 0.887479 1.789075 0.069115 -0.010838 427675.000000 0 0 1
21.516653 24.942361 -8.194464 33.944616 0.859001 1.814612 0.071149 -0.025695 -1460100.000000 0 0 1
22.060453 25.248661 -9.584464 34.871484 0.852687 1.849231 0.074875 -0.022877 119204.000000 0 0 1
23.447753 25.556961 -9.697564 36.013860 0.828413 1.843435 0.072729 -0.013071 332511.000000 0 0 1
24.215253 24.383861 -9.555464 35.668727 0.788868 1.842004 0.079907 -0.013165 -142715.000000 0 0 1
25.757853 24.656461 -9.451364 36.888160 0.763555 1.829903 0.028121 -0.003577 768717.000000 0 0 1
26.449353 25.118361 -10.598264 37.984517 0.759593 1.853565 0.045731 -0.005399 -263850.000000 0 0 1
27.824053 24.922361 -10.351564 38.761539 0.730441 1.841135 0.046821 0.005107 -135421.000000 0 0 1
28.648953 25.181161 -11.620864 39.873523 0.721066 1.866531 0.063195 0.001004 -351485.000000 0 0 1
28.754853 26.484461 -12.153864 40.938792 0.744320 1.872219 0.059490 -0.000768 63779.100000 0 0 1
29.690853 26.464961 -13.206964 41.909006 0.728016 1.891394 0.072759 0.003036 49175.700000 0 0 1
29.336753 27.592061 -14.161664 42.690978 0.754761 1.908928 0.084299 -0.013971 171429.000000 0 0 1
29.866453 28.866961 -13.859664 43.788089 0.768382 1.892852 0.073957 -0.024251 -8027.460000 0 0 1
30.015853 29.618661 -15.055964 44.776094 0.778738 1.913729 0.095551 -0.015265 -208118.000000 0 0 1
30.226253 31.095261 -14.837564 45.833339 0.799569 1.900464 0.088055 -0.017664 -131336.000000 0 0 1
31.479753 31.290561 -14.238764 46.613479 0.782384 1.881223 0.088201 -0.025936 -232582.000000 0 0 1
31.731353 32.636861 -13.923864 47.601654 0.799465 1.867645 0.087653 -0.026095 -174392.000000 0 0 1
16.718353 -31.677604 -27.454053 45.129801 -1.085184 2.224758 0.106264 -0.052259 -186253.000000 0 0 1
17.855153 -32.437404 -27.138853 45.907614 -1.067608 2.203296 0.093876 -0.040472 79143.200000 0 0 1
18.420253 -31.982704 -25.901813 45.089943 -1.048253 2.182726 0.090535 -0.045831 -793186.000000 0 0 1
19.605253 -32.837304 -25.477233 45.953715 -1.032555 2.158451 0.038850 -0.035065 133176.000000 0 0 1
20.874653 -32.442204 -26.010953 46.527598 -0.999046 2.164028 0.085184 -0.037563 832358.000000 0 0 1
21.210053 -32.727804 -27.389253 47.656549 -0.995776 2.183060 0.095675 -0.034847 -857991.000000 0 0 1
22.680653 -32.523504 -27.750063 48.396863 -0.961843 2.181429 0.107358 -0.032030 -424364.000000 0 0 1
23.030853 -31.212404 -28.076333 47.884390 -0.935100 2.197324 0.108306 -0.040813 400894.000000 0 0 1
24.364353 -30.961304 -27.657713 48.137025 -0.904076 2.182865 0.077193 -0.033671 55355.700000 0 0 1
24.934453 -29.599504 -28.123333 47.841190 -0.870734 2.199192 0.057879 -0.021422 -117345.000000 0 0 1
25.387753 -29.760704 -29.430153 48.952747 -0.864527 2.215792 0.060471 -0.026173 -562209.000000 0 0 1
26.193353 -28.700804 -29.763393 48.945760 -0.831044 2.224448 0.053542 -0.025523 -257523.000000 0 0 1
26.579453 -28.529804 -31.259623 49.975805 -0.820774 2.246562 0.060911 -0.033894 -272459.000000 0 0 1
27.581353 -29.385104 -31.665883 51.253717 -0.817051 2.236771 0.063124 -0.043276 -630584.000000 0 0 1
27.366653 -29.806604 -32.974783 52.198694 -0.828049 2.254562 0.062412 -0.044948 -239635.000000 0 0 1
28.520753 -30.719504 -33.460063 53.634850 -0.822497 2.244455 0.048461 -0.042466 389431.000000 0 0 1
29.731753 -29.970304 -33.533283 53.913610 -0.789394 2.242067 0.051360 -0.042554 320119.000000 0 0 1
30.776053 -30.876304 33.506556 54.983642 -0.787024 0.915504 0.054337 -0.033210 1470110.000000 0 0 1
32.211253 -30.229204 33.363086 55.357611 -0.753666 0.923937 0.062641 -0.044559 882815.000000 0 0 1
32.324153 -29.363504 32.293421 54.313269 -0.737441 0.934057 0.077610 -0.038554 -190252.000000 0 0 1
33.611553 -28.803804 32.203181 54.739752 -0.708522 0.941846 0.073166 -0.045890 -209880.000000 0 0 1
33.819853 -27.681604 31.184106 53.688938 -0.685921 0.951049 0.072629 -0.042903 -198367.000000 0 0 1
35.163153 -27.312004 30.949076 54.223963 -0.660385 0.963361 0.072565 -0.045777 89874.500000 0 0 1
35.235753 -26.165904 30.117866 53.228739 -0.638745 0.969369 0.083639 -0.040048 -222040.000000 0 0 1
35.855853 -26.645804 28.747336 53.122974 -0.639094 0.998996 0.081341 -0.033849 -126714.000000 0 0 1
35.160653 -27.622604 27.992946 52.753055 -0.665906 1.011439 0.061709 -0.030491 860800.000000 0 0 1
33.874653 -27.265404 27.473916 51.436470 -0.677716 1.007314 0.073646 -0.022110 369929.000000 0 0 1
33.455353 -27.962004 26.172236 50.853911 -0.696193 1.030191 0.057178 -0.021571 396037.000000 0 0 1
32.148753 -27.569904 25.749076 49.564673 -0.708874 1.024525 0.065459 -0.013110 497514.000000 0 0 1
31.571553 -28.512304 24.863596 49.273856 -0.734526 1.041878 0.065578 -0.006515 448077.000000 0 0 1
30.144553 -28.060504 24.436996 47.887918 -0.749608 1.035268 0.063471 0.002275 430120.000000 0 0 1
29.138153 -28.049504 25.434396 47.777768 -0.766364 1.009425 0.062154 -0.009783 -192231.000000 0 0 1
27.899753 -27.808304 24.818546 46.558116 -0.783757 1.008576 0.074278 -0.001795 -654517.000000 0 0 1
26.762953 -27.750204 25.806786 46.393099 -0.803507 0.980914 0.094233 -0.006910 -574441.000000 0 0 1
26.720653 -26.589004 26.558906 46.112297 -0.782929 0.957017 0.084813 -0.018588 115382.000000 0 0 1
25.610153 -26.642804 27.424636 46.019883 -0.805158 0.932373 0.100124 -0.026741 4039.610000 0 0 1
25.539853 -25.368504 28.285826 45.781361 -0.782032 0.904796 0.105666 -0.023813 -690409.000000 0 0 1
24.294053 -25.311204 28.906746 45.458311 -0.805900 0.881628 0.106917 -0.019588 -184464.000000 0 0 1
24.193853 -24.190204 29.789576 45.364384 -0.785323 0.854397 0.103646 -0.021411 -103007.000000 0 0 1
23.587553 -22.814904 29.278786 43.978856 -0.768749 0.842302 0.096925 -0.021750 218605.000000 0 0 1
24.395853 -22.254404 28.217696 43.435636 -0.739526 0.863680 0.105918 -0.022326 628226.000000 0 0 1
23.987953 -20.918304 27.898516 42.324042 -0.717148 0.851089 0.104854 -0.018943 15337.400000 0 0 1
24.613553 -19.858604 28.816916 42.785579 -0.678883 0.831837 0.094653 -0.012557 -81042.800000 0 0 1
24.408953 -20.007204 30.198766 43.681239 -0.686618 0.807449 0.094991 -0.013662 -68927.200000 0 0 1
25.081753 -18.971004 30.839726 44.046362 -0.647563 0.795168 0.074102 -0.014982 -342943.000000 0 0 1
24.712053 -18.662004 32.290490 44.739599 -0.646807 0.764479 0.093243 -0.007020 -62603.300000 0 0 1
25.024753 -19.769704 33.105405 45.967894 -0.668617 0.766727 0.081337 -0.002945 412240.000000 0 0 1
24.336653 -19.558504 -33.125813 45.520624 -0.676971 2.385774 0.091718 -0.006114 19793.300000 0 0 1
24.285953 -20.840004 -32.215253 45.408543 -0.709183 2.359519 0.057182 0.002140 38402.700000 0 0 1
25.502253 -21.072104 -31.520993 45.694326 -0.690564 2.332041 0.041167 0.011510 90316.500000 0 0 1
25.429953 -22.060804 -30.502413 45.428612 -0.714574 2.306941 0.048055 -0.002853 -46552.800000 0 0 1
26.762653 -22.336204 -29.793713 45.856416 -0.695487 2.278009 0.051872 0.004280 331625.000000 0 0 1
27.796853 -23.006904 -30.501863 47.247712 -0.691393 2.272570 0.052261 0.008999 -5955.460000 0 0 1
28.796953 -23.486104 -29.618303 47.519527 -0.684167 2.243735 0.068584 -0.010407 -70658.400000 0 0 1
29.863553 -24.330304 -30.338353 49.032756 -0.683650 2.237930 0.063051 -0.020929 -506872.000000 0 0 1
30.697253 -23.508004 -31.133673 49.641245 -0.653538 2.248715 0.067682 -0.014775 61938.300000 0 0 1
30.267653 -23.337904 -32.500833 50.170636 -0.656838 2.275497 0.060464 -0.008310 -63851.800000 0 0 1
30.685253 -24.610704 -33.376833 51.587639 -0.675982 2.274430 0.055415 -0.011444 391277.000000 0 0 1
29.914353 -25.797104 -33.050833 51.504530 -0.711629 2.267519 0.062068 -0.017500 272981.000000 0 0 1
30.312053 -27.003404 -33.680283 52.748136 -0.727735 2.263359 0.058554 -0.028575 -174763.000000 0 0 1
29.923353 -27.095304 32.264374 51.677387 -0.735840 0.896507 0.054267 -0.032245 -443083.000000 0 0 1
30.520353 -26.203904 31.397399 51.028749 -0.709449 0.908045 0.046137 -0.036998 -268010.000000 0 0 1
29.998153 -26.222704 30.106686 49.939282 -0.718345 0.923708 0.054193 -0.032609 40216.300000 0 0 1
30.989153 -25.482504 29.117096 49.573086 -0.688194 0.943007 0.059236 -0.027952 407116.000000 0 0 1
31.240553 -24.075304 29.192096 49.069042 -0.656582 0.933632 0.052227 -0.029466 96989.000000 0 0 1
31.601553 -23.498904 30.428496 49.766957 -0.639392 0.912943 0.047151 -0.017928 -1237570.000000 0 0 1
32.219853 -22.079704 30.285026 49.424842 -0.600780 0.911262 0.045249 -0.006062 777597.000000 0 0 1
33.583453 -21.987404 29.887106 50.045313 -0.579679 0.930790 0.063035 -0.018619 695528.000000 0 0 1
34.552953 -22.541604 30.765676 51.464136 -0.578045 0.930032 0.064790 -0.022808 -1222750.000000 0 0 1
35.943653 -21.961804 30.597786 52.062381 -0.548473 0.942566 0.075665 -0.034476 -625446.000000 0 0 1
36.586253 -22.508504 29.439006 52.075347 -0.551534 0.969981 0.082368 -0.034250 126760.000000 0 0 1
37.782553 -21.809904 29.157296 52.472289 -0.523522 0.981627 0.079801 -0.037875 13171.600000 0 0 1
-37.903003 -22.100104 27.724876 51.901069 0.527878 1.007251 0.104282 -0.034957 -265665.000000 0 0 1
-37.413003 -23.370804 27.449596 51.955823 0.558362 1.014169 0.104606 -0.032132 60324.200000 0 0 1
-37.359803 -23.483704 26.033866 51.234767 0.561171 1.037785 0.088571 -0.014794 10592.600000 0 0 1
-37.056003 -24.959804 25.691106 51.538064 0.592766 1.048943 0.077385 -0.021893 -665447.000000 0 0 1
38.001753 -25.806404 25.892496 52.730684 -0.596550 1.057521 0.083897 -0.012905 -465763.000000 0 0 1
-37.869403 -27.140904 25.504856 53.115139 0.621845 1.069936 0.068891 -0.008773 -393119.000000 0 0 1
-37.103903 -27.971504 26.488286 53.485829 0.645973 1.052686 0.057274 -0.018795 -1121490.000000 0 0 1
-36.791603 -29.207204 25.936336 53.659820 0.670983 1.066322 0.057777 -0.017107 611479.000000 0 0 1
-35.553503 -29.793404 26.340346 53.343344 0.697479 1.054355 0.056121 -0.027703 162723.000000 0 0 1
-34.264203 -29.092504 25.960746 51.907318 0.703950 1.047040 0.068668 -0.028055 -1388840.000000 0 0 1
-33.844603 -29.342704 24.609106 51.108311 0.714271 1.068421 0.071524 -0.025373 882730.000000 0 0 1
-32.647603 -28.618104 24.229486 49.718506 0.719722 1.061763 0.048615 -0.019113 843120.000000 0 0 1
-32.197903 -28.825604 22.780916 48.852743 0.730192 1.085672 0.054703 -0.023191 -288663.000000 0 0 1
-31.717103 -30.149104 22.530296 49.219481 0.760059 1.095332 0.069235 -0.022133 375167.000000 0 0 1
-31.240003 -30.284104 21.225236 48.410488 0.769862 1.116931 0.061387 -0.019829 -508059.000000 0 0 1
-30.934703 -31.688004 20.711836 48.888297 0.797427 1.133318 0.088652 -0.016063 -296406.000000 0 0 1
-29.777103 -32.329904 21.184636 48.792288 0.826478 1.121669 0.087588 -0.029905 -397972.000000 0 0 1
-28.674203 -32.068504 20.354836 47.591157 0.841220 1.128847 0.114865 -0.028435 -277686.000000 0 0 1
-27.653503 -33.245304 20.345136 47.790072 0.876963 1.131040 0.115204 -0.019169 117943.000000 0 0 1
-28.054603 33.044361 19.590736 47.568766 -0.866884 1.146324 0.097778 -0.016037 714063.000000 0 0 1
-29.223703 32.304061 20.012236 47.938156 -0.835421 1.140149 0.110290 -0.014819 710541.000000 0 0 1
-29.032703 31.271261 21.226836 47.658873 -0.822502 1.109185 0.118002 -0.012967 -248120.000000 0 0 1
-28.263203 30.196961 20.783136 46.288269 -0.818464 1.105158 0.105206 -0.013437 -438755.000000 0 0 1
-28.086003 29.268261 21.867836 46.083152 -0.806009 1.076366 0.113847 -0.015635 -112829.000000 0 0 1
-27.209303 28.106561 21.329636 44.556462 -0.801617 1.071611 0.095615 -0.012772 -104238.000000 0 0 1
-25.969703 28.647061 20.929436 43.967270 -0.834380 1.074669 0.086678 -0.006714 -436181.000000 0 0 1
-25.178303 27.661261 20.307036 42.561344 -0.832354 1.073417 0.073498 -0.010577 935264.000000 0 0 1
-23.633403 27.937561 20.498236 41.943089 -0.868666 1.060180 0.052653 -0.011708 712711.000000 0 0 1
-23.286603 27.891261 21.856436 42.401558 -0.875130 1.029248 0.061843 -0.014768 566180.000000 0 0 1
-21.933603 28.340161 21.952536 42.025724 -0.912148 1.021181 0.078201 -0.020147 443544.000000 0 0 1
-21.357803 28.398761 23.395386 42.543971 -0.925973 0.988539 0.075118 -0.016660 -324819.000000 0 0 1
-20.969803 27.200361 24.001846 41.900846 -0.914029 0.960848 0.075789 -0.026112 316070.000000 0 0 1
-20.645203 27.291361 25.402456 42.618395 -0.923165 0.932231 0.084876 -0.022809 913389.000000 0 0 1
-19.193903 27.768461 25.826946 42.503229 -0.965993 0.917702 0.102442 -0.018328 539357.000000 0 0 1
-18.931203 29.140561 25.770866 43.263151 -0.994666 0.932688 0.077039 -0.020537 1342850.000000 0 0 1
-17.560803 29.443961 26.141466 43.112700 -1.033017 0.919332 0.089689 -0.019433 1155540.000000 0 0 1
-17.376403 29.707561 27.626516 44.132788 -1.041542 0.894401 0.078632 -0.014420 -351413.000000 0 0 1
-17.593103 28.616961 28.471346 44.034819 -1.019581 0.867724 0.086546 -0.009321 273332.000000 0 0 1
-17.571603 29.030261 29.832636 45.183000 -1.026499 0.849628 0.081377 -0.008558 -136207.000000 0 0 1
-17.520803 27.792861 30.773616 45.015965 -1.008319 0.818091 0.076750 0.002137 -396424.000000 0 0 1
-16.222203 27.277961 30.733276 44.178969 -1.034283 0.801466 0.075753 0.002374 -186388.000000 0 0 1
-16.034203 26.066961 31.444315 43.878549 -1.019336 0.771850 0.089191 -0.005680 -169227.000000 0 0 1
-16.090603 26.050561 33.022197 45.033373 -1.017487 0.747659 0.086518 -0.001847 -722533.000000 0 0 1
-17.345203 25.761361 33.536676 45.707903 -0.978213 0.747020 0.081565 0.001522 -688798.000000 0 0 1
-17.946003 26.813161 -33.151993 46.260775 -0.980974 2.369759 0.073695 -0.000279 855084.000000 0 0 1
-19.338403 26.414361 -32.542813 46.159798 -0.938839 2.353224 0.067448 -0.001672 334698.000000 0 0 1
-20.316503 26.257661 -33.516123 47.175794 -0.912276 2.360936 0.064523 -0.001770 -398747.000000 0 0 1
-21.570403 25.900961 -32.975083 47.153984 -0.876371 2.345223 0.077410 -0.009894 -349468.000000 0 0 1
-22.758203 25.974261 33.528616 48.132797 -0.851297 0.800169 0.106644 -0.028958 -364551.000000 0 0 1
-22.890103 24.973161 32.528849 46.965323 -0.828892 0.805689 0.098584 -0.024345 9852.150000 0 0 1
-22.905303 23.607061 32.984544 46.582468 -0.800485 0.784008 0.080403 -0.021316 -346271.000000 0 0 1
-23.359903 22.687561 31.784551 45.504595 -0.770798 0.797510 0.079691 -0.019113 329979.000000 0 0 1
-24.712303 22.747061 31.355737 45.948982 -0.744013 0.819751 0.100541 -0.029055 39995.000000 0 0 1
-24.883403 22.301961 30.004986 44.909469 -0.730744 0.839115 0.098978 -0.022995 -126589.000000 0 0 1
-26.268203 21.915761 29.471586 45.154108 -0.695313 0.859668 0.096970 -0.030265 -171211.000000 0 0 1
-26.757803 20.723261 29.967426 45.204869 -0.658982 0.846078 0.106596 -0.033835 -156729.000000 0 0 1
-28.032503 20.386061 29.462636 45.491314 -0.628768 0.866295 0.122877 -0.041306 55083.300000 0 0 1
-28.662203 19.080961 29.993406 45.664092 -0.587346 0.854193 0.140047 -0.039435 -315223.000000 0 0 1
-29.331503 19.188861 31.246756 46.956461 -0.579327 0.842712 0.144270 -0.035834 20005.800000 0 0 1
-29.522403 18.043561 31.967182 47.106720 -0.548601 0.824925 0.113470 -0.017425 246810.000000 0 0 1
-30.470903 16.959961 31.358229 46.898344 -0.507893 0.838415 0.096290 -0.016080 242621.000000 0 0 1
-31.860103 17.222061 31.326556 47.885474 -0.495561 0.857675 0.096060 -0.023234 -95383.900000 0 0 1
-32.553703 16.106661 30.846856 47.651827 -0.459456 0.866709 0.092898 -0.011316 -276502.000000 0 0 1
-34.080303 16.223061 30.883356 48.769216 -0.444284 0.885044 0.086977 -0.013090 -389832.000000 0 0 1
-34.648803 16.283461 32.148240 49.991999 -0.439326 0.872299 0.091087 -0.010776 956293.000000 0 0 1
-36.073603 16.459861 32.136334 51.038964 -0.428069 0.889703 0.103723 -0.017041 822023.000000 0 0 1
-36.725803 16.791561 33.513236 52.477406 -0.428837 0.878090 0.108732 -0.013087 221315.000000 0 0 1
37.996453 16.981361 33.412156 53.371052 0.420289 0.894338 0.092010 -0.016777 193709.000000 0 0 1
37.546753 17.585661 -32.819933 52.878749 0.438023 2.240386 0.096785 -0.020927 1352160.000000 0 0 1
35.989853 17.851261 -32.674553 51.783815 0.460449 2.253612 0.091418 -0.022744 1584000.000000 0 0 1
35.202353 16.657861 -32.608293 50.793609 0.441981 2.267869 0.097201 -0.008351 725407.000000 0 0 1
33.848553 16.902061 -32.204613 49.684417 0.463122 2.275993 0.096201 -0.006836 749244.000000 0 0 1
32.968053 15.599261 -32.250393 48.685905 0.441948 2.294837 0.103631 -0.001134 282043.000000 0 0 1
32.398653 15.419961 -33.558133 49.128365 0.444219 2.322755 0.100560 -0.017964 19819.300000 0 0 1
31.615453 14.238861 -33.675633 48.335601 0.423167 2.341590 0.099822 -0.023961 177374.000000 0 0 1
32.361253 12.857361 33.557676 48.359901 0.378183 0.803884 0.100129 -0.017514 146422.000000 0 0 1
32.985953 12.403061 -32.739423 48.101755 0.359656 2.319416 0.091085 -0.009853 -338492.000000 0 0 1
33.825953 11.299861 -32.941713 48.549340 0.322403 2.316543 0.094616 -0.011542 -7951.990000 0 0 1
18.842753 -20.690039 9.766167 29.639586 -0.832092 1.235025 0.056076 -0.021142 -92279.000000 0 0 1
18.679753 -21.884239 10.516667 30.634186 -0.864233 1.220370 0.040269 -0.023175 515859.000000 0 0 1
19.820553 -22.748639 10.615467 31.985044 -0.854074 1.232492 0.040615 -0.024083 182730.000000 0 0 1
19.498653 -24.076839 11.376567 33.004816 -0.890077 1.218883 0.048630 -0.022247 256024.000000 0 0 1
18.641453 -24.867139 10.538867 32.816856 -0.927524 1.243861 0.043554 -0.026655 608948.000000 0 0 1
17.435153 -25.283259 11.187467 32.686192 -0.967089 1.221466 0.050156 -0.023377 547598.000000 0 0 1
16.682053 -26.252559 10.251667 32.750334 -1.004721 1.252420 0.072336 -0.023653 -66103.500000 0 0 1
16.420453 -25.721019 8.981967 31.810027 -1.002615 1.284540 0.067220 -0.027001 627021.000000 0 0 1
15.384153 -26.436069 8.272667 31.685563 -1.043764 1.306649 0.074737 -0.015964 556633.000000 0 0 1
15.126953 -25.741029 6.897367 30.643089 -1.039500 1.343764 0.073499 -0.016937 -225744.000000 0 0 1
14.500753 -24.496139 6.998267 29.313962 -1.036309 1.329733 0.075905 -0.023038 -63047.400000 0 0 1
13.952553 -24.065539 5.752167 28.406184 -1.045382 1.366889 0.085822 -0.007667 63734.900000 0 0 1
13.132653 -22.758339 5.996167 26.951114 -1.047424 1.346436 0.105744 -0.018529 -349679.000000 0 0 1
12.593553 -22.218439 4.867067 25.998941 -1.055142 1.382483 0.104031 -0.012380 -406211.000000 0 0 1
12.038753 -20.945239 5.123967 24.695944 -1.049133 1.361796 0.130158 -0.016596 -433008.000000 0 1 0
11.178353 -20.324139 4.044467 23.545358 -1.067950 1.398167 0.116779 -0.022050 -415459.000000 0 1 0
11.679353 -20.272139 2.752567 23.557239 -1.048115 1.453683 0.094459 -0.016466 -17940.000000 0 1 0
10.698253 -19.675039 1.904467 22.476360 -1.072766 1.485963 0.069334 0.000759 554564.000000 0 1 0
11.348953 -19.085639 0.625967 22.213783 -1.034332 1.542613 0.060054 -0.000613 807645.000000 0 1 0
12.364453 -18.085839 0.835067 21.924292 -0.971125 1.532698 0.061566 -0.000680 612940.000000 0 1 0
13.016053 -17.785439 -0.400133 22.043130 -0.939021 1.588950 0.066128 -0.007372 304.780000 0 1 0
14.119853 -16.698839 -0.261033 21.869833 -0.868886 1.582732 0.054216 -0.000681 361088.000000 0 1 0
15.262053 -17.226839 0.364467 23.017973 -0.845800 1.554962 0.068243 -0.009254 703456.000000 0 1 0
16.507953 -16.527039 0.164067 23.359847 -0.785976 1.563773 0.085166 -0.016685 1244450.000000 0 1 0
17.681553 -17.076339 1.022867 24.602539 -0.767988 1.529209 0.076163 -0.014660 -5954.050000 0 1 0
18.205453 -18.247239 0.440367 25.779724 -0.786544 1.553714 0.075447 -0.021282 865446.000000 0 0 1
19.322353 -18.760839 1.231367 26.959945 -0.770655 1.525106 0.074928 -0.019319 1138040.000000 0 0 1
19.724153 -20.117439 0.630867 28.180694 -0.795269 1.548408 0.050682 -0.014639 -541391.000000 0 0 1
18.927553 -21.127339 1.066567 28.385811 -0.840262 1.533214 0.055083 -0.008215 -373219.000000 0 0 1
19.066953 -22.314039 0.241767 29.351720 -0.863706 1.562559 0.060491 -0.007409 96767.500000 0 0 1
17.925453 -23.303239 0.588567 29.405938 -0.915104 1.550780 0.061990 -0.007595 42733.500000 0 0 1
18.137853 -23.947939 1.837367 30.097531 -0.922584 1.509711 0.052039 0.001574 124775.000000 0 0 1
17.106653 -24.878339 2.087967 30.264317 -0.968433 1.501750 0.043881 0.003088 -294481.000000 0 0 1
17.351153 -25.674389 3.414667 31.175258 -0.976487 1.461045 0.042034 -0.005805 556480.000000 0 0 1
18.399753 -26.644169 3.364867 32.554339 -0.966425 1.467250 0.039147 -0.005292 714276.000000 0 0 1
19.680253 -26.125249 3.720767 32.919372 -0.925184 1.457528 0.043554 0.000784 343774.000000 0 0 1
20.823253 -27.178189 3.671767 34.434629 -0.917023 1.463963 0.054668 0.001322 197545.000000 0 0 1
21.008953 -27.805539 2.383167 34.931412 -0.923742 1.502519 0.063098 0.006065 152503.000000 0 0 1
22.035453 -28.798399 2.304867 36.334851 -0.917662 1.507320 0.086156 0.001029 237416.000000 0 0 1
21.657353 -30.218719 2.901467 37.291157 -0.948959 1.492912 0.069817 0.002732 -67640.200000 0 0 1
21.730953 -30.350479 4.274667 37.572046 -0.949412 1.456777 0.084709 -0.002833 323815.000000 0 0 1
20.811153 -31.397239 4.639167 37.952767 -0.985452 1.448255 0.073700 -0.015156 294491.000000 0 0 1
20.732953 -31.748349 6.111267 38.407819 -0.992287 1.411002 0.088314 -0.025025 377630.000000 0 0 1
21.845053 -32.512479 6.601667 39.722155 -0.979181 1.403825 0.066910 -0.030059 420087.000000 0 0 1
21.591553 -33.063689 7.904267 40.272573 -0.992295 1.373245 0.055624 -0.029907 284400.000000 0 0 1
22.745753 33.460759 8.364267 41.315283 0.973774 1.366938 0.071355 -0.036672 175062.000000 0 0 1
23.769853 -33.324779 9.037467 41.919239 -0.951214 1.353498 0.076330 -0.033693 -360861.000000 0 0 1
24.790753 33.256638 9.428667 42.538043 0.930221 1.347287 0.105907 -0.043540 159485.000000 0 0 1
25.864853 -33.508059 10.354067 43.577372 -0.913426 1.330900 0.105379 -0.038388 344561.000000 0 0 1
26.634353 -32.588409 9.566267 43.161402 -0.885598 1.347301 0.079596 -0.025009 -686461.000000 0 0 1
27.528453 -31.969229 10.385867 43.447825 -0.859898 1.329417 0.091080 -0.027165 -775923.000000 0 0 1
28.246753 -30.894589 9.555267 42.937836 -0.830140 1.346380 0.089094 -0.026182 -222409.000000 0 0 1
27.427253 -29.772719 9.298967 41.534802 -0.826380 1.344999 0.068924 -0.029089 93347.300000 0 0 1
27.938953 -29.063019 8.193967 41.138610 -0.805115 1.370276 0.087970 -0.027826 -56347.300000 0 0 1
27.328153 -27.688489 7.971267 39.711729 -0.791948 1.368695 0.083490 -0.024556 -175026.000000 0 0 1
27.680853 -26.847779 9.026967 39.604532 -0.770122 1.340848 0.062230 -0.032228 -36832.200000 0 0 1
27.297253 -25.506209 8.835167 38.389671 -0.751492 1.338570 0.069935 -0.024606 -200521.000000 0 0 1
27.928353 -24.537239 9.835767 38.455315 -0.720853 1.312151 0.086611 -0.040333 339448.000000 0 0 1
29.310653 -24.339939 9.584767 39.286318 -0.693012 1.324337 0.100275 -0.032100 -380471.000000 0 0 1
29.902653 -23.507439 10.507367 39.461032 -0.666228 1.301273 0.074445 -0.037278 -1226260.000000 0 0 1
31.363753 -23.350239 10.208367 40.411996 -0.639970 1.315422 0.079549 -0.034893 -1046060.000000 0 0 1
31.556953 -22.496539 9.053067 39.798160 -0.619323 1.341313 0.092480 -0.033093 -504424.000000 0 0 1
32.885653 -22.274839 8.658167 40.652164 -0.595357 1.356171 0.103805 -0.038326 -42530.400000 0 0 1
33.142353 -21.454639 7.394767 40.167146 -0.574509 1.385640 0.099323 -0.018164 -32460.100000 0 0 1
32.686953 -20.120939 7.475567 39.104644 -0.551786 1.378444 0.107435 -0.010704 -77158.500000 0 0 1
32.840053 -19.415439 6.240067 38.657040 -0.533933 1.408666 0.096322 -0.007746 -15362.700000 0 0 1
32.392553 -17.923339 6.259167 37.545981 -0.505386 1.403308 0.113493 -0.002989 212674.000000 0 0 1
33.065353 -17.110339 7.243467 37.928209 -0.477526 1.378638 0.127006 -0.008324 260679.000000 0 0 1
32.804253 -15.777439 7.064967 37.080458 -0.448298 1.379094 0.135768 -0.006578 109519.000000 0 0 1
33.390253 -14.968739 8.294967 37.520376 -0.421437 1.347876 0.133104 -0.039131 -245284.000000 0 0 1
34.775453 -15.038939 8.418967 38.812122 -0.408171 1.352142 0.126935 -0.041136 -707953.000000 0 0 1
35.215453 -14.543139 9.636567 39.300056 -0.391642 1.323065 0.111650 -0.048358 -266104.000000 0 0 1
36.731953 -14.668539 9.855067 40.761805 -0.379937 1.326605 0.105947 -0.052572 -214121.000000 0 0 1
37.416953 -13.729639 9.049567 40.870845 -0.351682 1.347527 0.152811 -0.048566 407473.000000 0 0 1
-37.405103 -14.210439 8.704867 40.949395 0.363065 1.356586 0.126258 -0.049235 657729.000000 0 0 1
-36.416703 -13.250339 8.064767 39.582675 0.348963 1.365615 0.157253 -0.061816 -148588.000000 0 0 1
-36.911803 -12.806239 6.745167 39.648180 0.333948 1.399839 0.212012 -0.073317 1035380.000000 0 0 1
-35.894603 -12.164939 5.940067 38.362646 0.326759 1.415331 0.225340 -0.063509 687881.000000 0 0 1
-34.713903 -12.982439 5.393167 37.452436 0.357879 1.426294 0.203324 -0.055106 -217151.000000 0 0 1
-33.811103 -13.503539 6.338367 36.955529 0.379973 1.398431 0.192902 -0.051991 -666779.000000 0 0 1
-32.940403 -14.380639 5.734867 36.397274 0.411626 1.412574 0.182084 -0.027012 -553399.000000 0 0 1
-32.087403 -15.024939 6.829767 36.083180 0.437927 1.380369 0.141148 -0.026803 128290.000000 0 0 1
-32.843603 -16.052139 7.507267 37.319331 0.454603 1.368251 0.120915 -0.036944 532756.000000 0 0 1
-32.475603 -16.107839 8.899367 37.327282 0.460441 1.330063 0.104244 -0.042959 -336385.000000 0 0 1
-33.490203 -16.933639 9.648567 38.748376 0.468141 1.319143 0.060022 -0.030764 -1029640.000000 0 0 1
-34.730903 -16.233439 9.780767 39.565433 0.437234 1.321002 0.076872 -0.028209 280001.000000 0 0 1
-35.621203 -16.856539 10.666267 40.826244 0.441992 1.306469 0.085248 -0.025861 -234822.000000 0 0 1
-36.224103 -18.199139 10.256667 41.816187 0.465569 1.322988 0.089886 -0.029042 -1244890.000000 0 0 1
-35.396703 -19.325639 10.479767 41.668122 0.499746 1.316561 0.103325 -0.022716 -306632.000000 0 0 1
-35.489903 -19.877339 11.810267 42.357103 0.510553 1.288225 0.108337 -0.040992 203170.000000 0 0 1
-36.828403 -20.531039 12.250767 43.908269 0.508567 1.288035 0.098118 -0.052568 238493.000000 0 0 1
-36.927303 -21.909039 11.882667 44.551425 0.535480 1.300810 0.129624 -0.060661 193874.000000 0 0 1
37.845053 -22.277939 11.677767 45.441444 -0.532041 1.310895 0.134824 -0.054050 283919.000000 0 0 1
37.638553 -23.823239 11.578767 46.024724 -0.564294 1.316487 0.129014 -0.051750 -254982.000000 0 0 1
-38.051003 -24.501639 12.740367 47.016232 0.572086 1.296387 0.135248 -0.046489 176647.000000 0 0 1
37.600753 -25.832339 12.884867 47.404073 -0.601959 1.295524 0.120165 -0.043637 689877.000000 0 0 1
36.141553 -26.021969 13.425667 46.514549 -0.624024 1.277997 0.114291 -0.046093 840150.000000 0 0 1
35.090853 -25.680039 12.523267 45.251128 -0.631761 1.290386 0.114860 -0.042126 34079.900000 0 0 1
33.903953 -25.209539 13.106267 44.235428 -0.639365 1.269996 0.103371 -0.015786 -163255.000000 0 0 1
33.865253 -23.654539 13.490867 43.455679 -0.609712 1.255129 0.114606 -0.025815 -525487.000000 0 0 1
34.864553 -23.337839 14.421867 44.364197 -0.589883 1.239701 0.123555 -0.035277 -276995.000000 0 0 1
35.034753 -21.971839 14.608267 43.858831 -0.560140 1.231234 0.120409 -0.043873 -789895.000000 0 0 1
36.330753 -21.665339 15.302567 44.983097 -0.537721 1.223683 0.101978 -0.038269 -824507.000000 0 0 1
36.572953 -20.340339 15.760267 44.717964 -0.507559 1.210622 0.119072 -0.013400 -18643.100000 0 0 1
36.076253 -20.172239 17.044867 44.709537 -0.509845 1.179664 0.113018 -0.021064 -137870.000000 0 0 1
36.285053 -18.800839 17.656967 44.517919 -0.478056 1.162958 0.100056 -0.003853 -352480.000000 0 0 1
35.523553 -17.791539 17.003667 43.215580 -0.464318 1.166403 0.098481 -0.018856 27418.500000 0 0 1
35.523353 -16.493139 17.603467 42.939658 -0.434674 1.148388 0.093682 -0.015031 -231936.000000 0 0 1
36.837853 -15.772939 17.968067 43.916562 -0.404554 1.149284 0.085297 -0.020098 -327531.000000 0 0 1
37.505853 -16.280139 19.074967 45.117472 -0.409527 1.134281 0.100310 -0.009797 232851.000000 0 0 1
-37.590803 -15.344139 19.414267 45.004720 0.387546 1.124771 0.104999 -0.009550 199657.000000 0 0 1
-37.027303 -15.469939 20.848767 45.221800 0.395755 1.091637 0.103199 -0.004345 212935.000000 0 0 1
-36.058403 -16.484439 21.103767 44.914520 0.428792 1.081658 0.098444 0.001763 214620.000000 0 0 1
-35.457003 -16.323339 22.323867 44.966715 0.431444 1.051288 0.089139 -0.000936 -95312.100000 0 0 1
-34.426803 -17.427139 22.670667 44.753425 0.468602 1.039596 0.088337 0.004828 -752895.000000 0 0 1
-34.996003 -18.668839 23.019167 45.859871 0.490053 1.044949 0.089972 0.002365 11008.000000 0 0 1
-34.143803 -19.568539 23.645367 45.911113 0.520421 1.029760 0.063114 0.010832 -524115.000000 0 0 1
-32.967403 -20.250439 22.913267 44.966073 0.550836 1.036114 0.057399 0.016689 314987.000000 0 0 1
-31.919503 -19.350739 22.610067 43.640816 0.544992 1.026175 0.067188 0.028358 -36047.000000 0 0 1
-30.738203 -19.962039 22.158167 42.828781 0.575968 1.027026 0.056521 0.025945 -6781.980000 0 0 1
-29.505603 -19.042639 22.066267 41.474363 0.573128 1.009781 0.059225 0.026593 -161189.000000 0 0 1
-29.005803 -18.801839 23.374467 41.727826 0.575116 0.976211 0.041511 0.017560 883118.000000 0 0 1
-27.923203 -17.846839 23.201967 40.454248 0.568703 0.959980 0.063211 0.010660 479004.000000 0 0 1
-27.363503 -17.243339 24.499567 40.574903 0.562300 0.922523 0.055736 -0.004482 -496291.000000 0 0 1
-26.335703 -16.268439 24.338267 39.377437 0.553357 0.904503 0.061805 -0.009133 234140.000000 0 0 1
-25.822503 -15.762839 25.566467 39.609506 0.548054 0.869167 0.070196 -0.019816 697759.000000 0 0 1
-24.833403 -16.732939 26.353767 39.889976 0.592930 0.849097 0.051953 -0.010929 -32526.500000 0 0 1
-25.395303 -17.994039 26.752767 41.041654 0.616446 0.860782 0.065508 -0.016955 -662708.000000 0 0 1
-24.515103 -18.716139 27.552367 41.357188 0.652056 0.841688 0.047621 -0.017487 -640491.000000 0 0 1
-25.116703 -19.897739 28.303667 42.753553 0.669974 0.847287 0.040376 -0.011360 -802136.000000 0 0 1
-25.989403 -19.604639 29.325267 43.815091 0.646268 0.837535 0.040288 -0.020321 -611993.000000 0 0 1
-26.483403 -20.876539 29.715067 44.946476 0.667558 0.848484 0.034884 -0.017239 -457830.000000 0 0 1
-27.723503 -20.711239 30.599667 46.194022 0.641620 0.846757 0.061558 -0.020996 -768985.000000 0 0 1
-27.461503 -19.924139 31.717167 46.444420 0.627655 0.819063 0.067816 -0.029919 134161.000000 0 0 1
-28.552503 -19.918739 32.599167 47.693891 0.609125 0.818238 0.087128 -0.030188 275166.000000 0 0 1
-29.895903 -19.210739 32.305667 48.025760 0.571147 0.832980 0.074380 -0.038238 355574.000000 0 0 1
-30.787503 -19.831739 31.344067 48.203928 0.572251 0.862898 0.092336 -0.041574 -25802.000000 0 0 1
-31.971003 -19.130239 31.308967 48.665824 0.539214 0.871935 0.110136 -0.051310 -659009.000000 0 0 1
-33.156103 -19.673839 30.486667 49.151032 0.535530 0.901716 0.106398 -0.030194 -79031.700000 0 0 1
-33.168503 -19.241739 29.150967 48.168174 0.525674 0.920790 0.097163 -0.043863 61548.000000 0 0 1
-34.243003 -19.763239 28.422367 48.692913 0.523446 0.947510 0.100801 -0.040926 -223907.000000 0 0 1
-34.798603 -18.792139 27.361067 48.090698 0.495153 0.965571 0.095430 -0.025953 554051.000000 0 0 1
-36.108103 -19.147639 26.906567 48.932509 0.487582 0.988587 0.083323 -0.025069 790985.000000 0 0 1
-36.561303 -18.248239 25.926767 48.393432 0.462938 1.005401 0.095440 -0.024021 -172366.000000 0 0 1
-37.783903 -18.811739 25.142867 49.129101 0.461948 1.033551 0.079745 -0.022109 1402460.000000 0 0 1
37.129253 -18.820739 25.976867 49.067293 -0.469151 1.012888 0.079932 -0.027574 1568900.000000 0 0 1
36.124353 -19.586739 25.297467 48.255270 -0.496837 1.018971 0.115990 -0.019644 588765.000000 0 0 1
34.851353 -19.962939 26.095967 47.897132 -0.520181 0.994606 0.099705 -0.016056 971507.000000 0 0 1
33.882253 -18.905439 26.311267 46.879691 -0.508945 0.974900 0.089280 -0.035967 588999.000000 0 0 1
32.783953 -19.311939 27.073567 46.698143 -0.532342 0.952366 0.082150 -0.020952 -150033.000000 0 0 1
-30.042687 -4.946639 33.155526 45.014677 0.163189 0.742842 0.068780 -0.030493 -162494.000000 0 0 1
-31.300047 -4.850739 32.523736 45.398414 0.153752 0.772158 0.091354 -0.036049 266233.000000 0 0 1
-31.325017 -3.820739 31.639680 44.686957 0.121371 0.784093 0.089330 -0.036250 -111955.000000 0 0 1
-32.297677 -4.075339 30.463106 44.584181 0.125517 0.818562 0.088093 -0.039900 -115460.000000 0 0 1
-31.997837 -5.112739 29.491196 43.814750 0.158445 0.832420 0.079929 -0.036797 -21204.600000 0 0 1
-30.822147 -4.851439 28.746546 42.425289 0.156120 0.826329 0.069848 -0.033395 115698.000000 0 0 1
-30.412667 -5.926239 27.636576 41.519043 0.192449 0.842450 0.069508 -0.031255 -592269.000000 0 0 1
-31.295247 -5.722839 26.627546 41.486981 0.180868 0.873915 0.077249 -0.035116 -922770.000000 0 0 1
-30.928577 -6.377539 25.415306 40.536251 0.203352 0.893129 0.090524 -0.032299 47335.800000 0 0 1
-31.661897 -5.983839 24.110186 40.244045 0.186789 0.928420 0.104805 -0.030505 62923.000000 0 0 1
-31.087637 -4.824739 23.544746 39.294711 0.153970 0.928315 0.116830 -0.034645 84255.100000 0 0 1
-31.646327 -4.603339 22.273936 38.971900 0.144449 0.962417 0.118962 -0.028002 -2667.480000 0 0 1
-31.098817 -3.314339 21.658836 38.042430 0.106174 0.965101 0.115725 -0.025934 -348634.000000 0 0 1
-29.783997 -3.445039 21.221136 36.732702 0.115156 0.954866 0.136786 -0.026372 -623969.000000 0 0 1
-29.287467 -2.207739 20.739836 35.955120 0.075239 0.955959 0.144436 -0.026672 730484.000000 0 0 1
-27.805807 -2.318039 20.245636 34.473497 0.083173 0.943101 0.152727 -0.032155 537369.000000 0 0 1
-27.685627 -3.106439 19.065436 33.758477 0.111737 0.970654 0.174791 -0.029122 23209.300000 0 0 1
-26.377207 -2.989639 18.536336 32.377318 0.112860 0.961232 0.162972 -0.025994 -50692.400000 0 0 1
-26.163087 -3.652339 17.150636 31.495889 0.138703 0.994961 0.166188 -0.029964 -398029.000000 0 0 1
-26.920387 -3.125939 16.106736 31.526270 0.115600 1.034566 0.172629 -0.026456 -413591.000000 0 0 1
-26.589087 -3.431539 14.804736 30.625728 0.128349 1.066252 0.170066 -0.031861 -132268.000000 0 0 1
-27.781677 -3.694239 13.834736 31.254902 0.132198 1.112253 0.185581 -0.029792 357932.000000 0 0 1
-28.530627 -2.541939 13.473236 31.654166 0.088860 1.131129 0.186571 -0.031550 -119611.000000 0 0 1
-29.730387 -2.893439 12.836636 32.512261 0.097017 1.164920 0.188886 -0.030207 -86875.500000 0 0 1
-30.364427 -1.805839 11.974736 32.690271 0.059402 1.195757 0.197077 -0.028212 -198625.000000 0 0 1
-29.568847 -1.522239 10.837436 31.529097 0.051436 1.219912 0.227162 -0.039528 166572.000000 0 0 1
-29.910437 -0.260039 10.245936 31.617734 0.008694 1.240782 0.220876 -0.033343 -529112.000000 0 0 1
-31.252447 -0.180539 9.539736 32.676515 0.005777 1.274537 0.219735 -0.025784 -608054.000000 0 0 1
-31.338397 -0.901739 8.331636 32.439550 0.028766 1.311050 0.219241 -0.037701 -207420.000000 0 0 1
-32.595977 -0.841039 7.702836 33.504310 0.025796 1.338815 0.217669 -0.040759 -102278.000000 0 0 1
-32.951297 -1.822339 6.528636 33.641225 0.055248 1.375491 0.248134 -0.049848 -205652.000000 0 0 1
-32.508257 -1.406539 5.244936 32.958678 0.043240 1.410980 0.258834 -0.061325 404712.000000 0 0 1
-33.261857 -0.411239 4.525436 33.570818 0.012363 1.435582 0.231781 -0.042318 65312.500000 0 0 1
-32.670147 -0.152139 3.122536 32.819383 0.004657 1.475509 0.239354 -0.042245 2880.490000 0 0 1
-32.900737 -1.189039 2.265336 33.000062 0.036124 1.502096 0.205064 -0.059648 119275.000000 0 0 1
-32.423267 -0.819239 0.980336 32.448428 0.025262 1.540580 0.217771 -0.068857 -94746.800000 0 0 1
-33.072417 -1.675939 -0.112464 33.115045 0.050632 1.574192 0.190961 -0.066740 1294450.000000 0 0 1
-34.431835 -1.220939 -0.351064 34.455264 0.035445 1.580985 0.198268 -0.058586 1047260.000000 0 0 1
-35.151383 -2.066939 -1.207164 35.232786 0.058733 1.605066 0.202401 -0.064079 281996.000000 0 0 1
-36.679517 -1.786639 -1.119564 36.740066 0.048671 1.601274 0.191371 -0.048863 234769.000000 0 0 1
-37.335847 -2.202639 0.068236 37.400826 0.058927 1.568972 0.191349 -0.055891 -1186460.000000 0 0 1
37.434728 -2.016639 -0.054664 37.489048 -0.053819 1.572254 0.150865 -0.037820 -1220910.000000 0 0 1
36.637378 -3.185339 0.574636 36.780077 -0.086724 1.555172 0.176978 -0.049007 -450921.000000 0 0 1
36.716908 -3.253939 1.966436 36.913227 -0.088391 1.517499 0.175193 -0.055104 144184.000000 0 0 1
36.093788 -4.412339 2.507036 36.448807 -0.121643 1.501960 0.164587 -0.049830 -39262.900000 0 0 1
35.988118 -4.535239 4.050836 36.498251 -0.125360 1.459580 0.146526 -0.042787 -179621.000000 0 0 1
35.091398 -3.682039 4.676136 35.592554 -0.104545 1.439036 0.159778 -0.043057 -262122.000000 0 0 1
35.095118 -3.862039 6.095536 35.829293 -0.109604 1.399838 0.156721 -0.051046 -108026.000000 0 0 1
34.389998 -2.644039 6.755136 35.146761 -0.076733 1.377395 0.157964 -0.045758 471285.000000 0 0 1
32.969958 -2.588639 6.701036 33.743489 -0.078354 1.370880 0.177719 -0.051292 425444.000000 0 0 1
32.524658 -1.600639 7.663536 33.453628 -0.049173 1.339665 0.180597 -0.044267 171775.000000 0 0 1
30.996408 -1.550739 7.915236 32.028629 -0.049988 1.321079 0.181545 -0.050197 -41757.500000 0 0 1
30.251008 -0.871939 6.876636 31.035011 -0.028815 1.347365 0.229220 -0.050223 630082.000000 0 0 1
28.909608 -0.600139 7.260636 29.813461 -0.020756 1.324787 0.209144 -0.038140 580552.000000 0 0 1
27.882708 -1.782639 7.086236 28.824260 -0.063847 1.322407 0.261029 -0.055436 -383994.000000 0 0 1
27.986908 -2.815239 8.030336 29.251990 -0.100254 1.292703 0.214691 -0.062672 -32073.400000 0 0 1
27.495908 -4.040339 7.670836 28.830384 -0.145899 1.301485 0.224655 -0.065911 -372981.000000 0 0 1
27.777708 -5.150539 8.719736 29.566246 -0.183338 1.271422 0.189954 -0.038609 -243685.000000 0 0 1
26.910608 -5.187739 9.832836 29.116630 -0.190441 1.226319 0.192674 -0.033396 285405.000000 0 0 1
27.357908 -6.033239 10.826236 30.034355 -0.217056 1.202033 0.166332 -0.031025 -556234.000000 0 0 1
26.266708 -6.060939 11.887536 29.461644 -0.226777 1.155466 0.151094 -0.027875 -113621.000000 0 0 1
25.167208 -6.757339 11.348936 28.422673 -0.262311 1.160052 0.187996 -0.033430 -597931.000000 0 0 1
23.983108 -6.476439 12.038336 27.605349 -0.263751 1.119550 0.198214 -0.043785 -36372.700000 0 0 1
23.000208 -7.671339 12.232936 27.157020 -0.321931 1.103525 0.196377 -0.040080 99091.500000 0 0 1
23.454508 -8.752039 13.037136 28.225504 -0.357147 1.090669 0.172775 -0.039353 -76573.600000 0 0 1
22.561908 -9.821439 12.994136 27.827108 -0.410571 1.084947 0.232566 -0.065982 -285826.000000 0 0 1
23.028408 -10.936039 13.925036 29.048428 -0.443361 1.070856 0.169368 -0.059178 -212920.000000 0 0 1
23.049308 -10.604139 15.319936 29.638131 -0.431191 1.027571 0.138267 -0.045950 224293.000000 0 0 1
23.429708 -11.696539 16.077336 30.728504 -0.463022 1.020188 0.124340 -0.045695 -302973.000000 0 0 1
23.263008 -11.610639 17.630736 31.413649 -0.462930 0.974908 0.133098 -0.043140 25881.600000 0 0 1
21.910408 -11.714639 18.029636 30.697989 -0.490990 0.943049 0.126288 -0.037837 13516.300000 0 0 1
21.799908 -12.119339 19.380336 31.586576 -0.507389 0.910232 0.149522 -0.029568 88526.500000 0 0 1
21.859508 -11.039239 20.490036 31.930306 -0.467646 0.874069 0.126355 -0.030690 -76851.700000 0 0 1
20.789708 -10.112539 20.603936 30.967686 -0.452725 0.842852 0.103625 -0.034698 104863.000000 0 0 1
20.886608 -8.975939 19.734836 30.104512 -0.405884 0.855893 0.126120 -0.024890 -276453.000000 0 0 1
21.885608 -7.795239 20.077736 30.706043 -0.342171 0.858109 0.126192 -0.015400 545682.000000 0 0 1
23.263408 -8.032039 20.194436 31.835751 -0.332450 0.883652 0.153832 -0.019893 -79895.500000 0 0 1
23.891108 -8.316439 18.957336 31.612162 -0.334979 0.927689 0.169724 -0.017194 -799481.000000 0 0 1
25.387408 -8.656339 19.058336 32.903995 -0.328608 0.953037 0.197286 -0.021240 -12546.700000 0 0 1
25.586808 -9.883639 19.729036 33.787659 -0.368622 0.947257 0.146511 -0.031515 -586485.000000 0 0 1
26.881508 -10.391839 19.643836 34.878161 -0.368884 0.972527 0.126984 -0.035193 -269423.000000 0 0 1
26.964308 -11.886439 20.131536 35.688094 -0.415195 0.971457 0.095098 -0.034669 155370.000000 0 0 1
26.032308 -12.624839 19.385236 34.826068 -0.451550 0.980473 0.106671 -0.038105 124902.000000 0 0 1
26.377108 -14.027439 19.399336 35.620993 -0.488766 0.994879 0.082841 -0.034718 207894.000000 0 0 1
25.472608 -14.902839 18.484936 34.822999 -0.529357 1.011222 0.103306 -0.032988 -198223.000000 0 0 1
25.616808 -14.700139 17.089836 34.122975 -0.520968 1.046238 0.104934 -0.034012 156042.000000 0 0 1
24.643308 -15.321739 16.277336 33.271609 -0.556252 1.059594 0.086526 -0.031210 -288906.000000 0 0 1
24.359308 -16.858539 16.378736 33.850395 -0.605389 1.065740 0.058204 -0.023646 551549.000000 0 0 1
25.540708 -17.591439 15.960536 34.878721 -0.603143 1.095501 0.083610 -0.030125 869306.000000 0 0 1
25.503908 -19.000139 16.316836 35.744842 -0.640287 1.096760 0.060717 -0.014213 420364.000000 0 0 1
26.688308 -19.867039 15.738736 36.805880 -0.639914 1.128944 0.067266 -0.008705 548134.000000 0 0 1
26.702608 -19.966839 14.342436 36.296135 -0.642059 1.164565 0.076387 -0.019441 616972.000000 0 0 1
27.738908 -20.853639 13.872036 37.373181 -0.644641 1.190521 0.086605 -0.024132 308655.000000 0 0 1
28.028208 -20.871839 12.377736 37.073204 -0.640083 1.230387 0.074064 -0.042044 -481333.000000 0 0 1
26.981408 -21.312639 11.546136 36.270349 -0.668553 1.246823 0.079975 -0.034348 19820.100000 0 0 1
27.132608 -20.740239 10.283936 35.666445 -0.652655 1.278307 0.109964 -0.027688 -370176.000000 0 0 1
25.819608 -20.575539 9.516036 34.359277 -0.672845 1.290171 0.068832 -0.030396 180.963000 0 0 1
25.242308 -21.853739 9.106836 34.607723 -0.713572 1.304516 0.061368 -0.030929 281224.000000 0 0 1
23.933508 -22.068139 9.610436 33.943719 -0.744870 1.283742 0.045161 -0.016214 65624.600000 0 0 1
23.229708 -23.148539 8.770436 33.946940 -0.783648 1.309475 0.051635 -0.014553 -735835.000000 0 0 1
23.757608 -24.418639 8.890336 35.209827 -0.799118 1.315537 0.043370 -0.014025 -91865.100000 0 0 1
23.412408 -25.170369 7.738236 35.235900 -0.821567 1.349379 0.045925 -0.001764 110826.000000 0 0 1
21.975108 -25.729349 7.583736 34.675897 -0.863934 1.350311 0.044952 0.002363 151603.000000 0 0 1
21.052108 -24.688639 7.370036 33.272174 -0.864734 1.347436 0.042443 -0.000038 -240746.000000 0 0 1
19.708808 -25.138759 7.532136 32.819619 -0.905887 1.339231 0.050039 -0.013944 626881.000000 0 0 1
18.635108 -24.045639 7.351336 31.296999 -0.911493 1.333691 0.053826 -0.017082 -167174.000000 0 0 1
18.360908 -23.525639 6.061036 30.451844 -0.908082 1.370421 0.052306 -0.011800 -218693.000000 0 0 1
17.479908 -22.465439 6.153036 29.122208 -0.909565 1.357909 0.065621 -0.001143 -514463.000000 0 0 1
17.122808 -21.836639 4.830436 28.166691 -0.905806 1.398450 0.072670 0.005813 21938.200000 0 0 1
16.284408 -20.698439 4.980936 26.803303 -0.904190 1.383877 0.117081 0.001351 182054.000000 0 0 1
15.903108 -20.130839 3.753936 25.927814 -0.902191 1.425502 0.119662 -0.006753 435787.000000 0 0 1
15.015108 -18.837739 3.767836 24.382585 -0.897841 1.415645 0.121243 -0.008839 328137.000000 0 1 0
15.747008 -17.682139 4.093236 24.028751 -0.843221 1.399614 0.097471 -0.005188 -13447.600000 0 1 0
14.954308 -16.589039 3.943636 22.679943 -0.837177 1.396026 0.063256 -0.004765 -316162.000000 0 1 0
15.879508 -15.384539 4.117536 22.489929 -0.769568 1.386674 0.063819 -0.012515 -561799.000000 0 1 0
16.298108 -15.123039 5.466836 22.895871 -0.748018 1.329698 0.089186 -0.023131 456653.000000 0 1 0
17.332408 -14.161039 5.531036 23.055146 -0.685037 1.328529 0.082942 -0.029326 242526.000000 0 1 0
18.764708 -14.625139 5.201036 24.352818 -0.662051 1.355568 0.112829 -0.038476 -461588.000000 0 1 0
19.763508 -13.628139 5.273736 24.579152 -0.603685 1.354554 0.151581 -0.035168 -493266.000000 0 1 0
21.008308 -14.178839 5.058736 25.845295 -0.593692 1.373793 0.169079 -0.027139 -782167.000000 0 0 1
22.178808 -13.199239 4.863536 26.263538 -0.536830 1.384539 0.159271 -0.024287 -250632.000000 0 0 1
22.518408 -12.422139 5.999436 26.407981 -0.504104 1.341613 0.195238 -0.034116 439436.000000 0 0 1
23.580808 -11.543839 5.694636 26.865286 -0.455248 1.357206 0.192072 -0.035782 -254424.000000 0 0 1
24.043008 -10.769839 6.958736 27.248480 -0.421140 1.312555 0.216557 -0.040713 -68979.700000 0 0 1
24.402608 -11.707639 7.972036 28.215412 -0.447333 1.284353 0.208735 -0.021092 446965.000000 0 0 1
24.804408 -11.054239 9.188836 28.668616 -0.419236 1.244519 0.232169 -0.051365 -32263.100000 0 0 1
25.215508 -12.125339 10.200536 29.780810 -0.448225 1.221198 0.195757 -0.046347 39619.900000 0 0 1
24.121608 -12.708239 10.871636 29.352066 -0.484889 1.191370 0.206180 -0.047564 127484.000000 0 0 1
24.639008 -13.495839 11.868136 30.497066 -0.501109 1.171080 0.207881 -0.052785 53768.800000 0 0 1
23.680608 -14.614839 12.383936 30.458604 -0.552945 1.152086 0.164468 -0.059298 162047.000000 0 0 1
22.590608 -14.092939 13.129536 29.687223 -0.557765 1.112677 0.156355 -0.059914 77339.900000 0 0 1
21.692808 -15.157639 13.402236 29.663983 -0.609880 1.102013 0.123224 -0.059253 340845.000000 0 0 1
20.361408 -14.662139 14.056436 28.760192 -0.624085 1.060144 0.112821 -0.059617 -246188.000000 0 0 1
20.497208 -13.996239 15.329536 29.172331 -0.599114 1.017515 0.119688 -0.056969 -12069.500000 0 0 1
19.953408 -12.730739 15.412436 28.244528 -0.567910 0.993598 0.154326 -0.068321 -293871.000000 0 0 1
18.414508 -12.658339 15.556436 27.227382 -0.602227 0.962643 0.182880 -0.064593 197500.000000 0 0 1
17.684008 -12.843839 14.320136 26.129574 -0.628158 0.990773 0.198590 -0.083487 1699500.000000 0 0 1
16.242808 -12.698639 14.397336 25.146919 -0.663545 0.961209 0.231968 -0.078124 1271640.000000 0 0 1
15.719608 -11.278639 14.135036 23.960656 -0.622367 0.939828 0.190699 -0.067782 -503481.000000 0 1 0
15.733808 -10.380039 15.182136 24.203206 -0.583184 0.892743 0.160984 -0.051342 234490.000000 0 1 0
15.319408 -9.090539 14.812036 23.167187 -0.535553 0.877138 0.149635 -0.044255 -722320.000000 0 1 0
15.842108 -8.061039 15.854836 23.818660 -0.470692 0.842435 0.162895 -0.037859 -596763.000000 0 1 0
17.212408 -7.843539 15.754536 24.616935 -0.427576 0.876314 0.158622 -0.049011 -229362.000000 0 1 0
17.973308 -8.755539 16.561436 25.961133 -0.453308 0.878987 0.166094 -0.044232 -1974390.000000 0 0 1
19.419708 -8.900439 16.275336 26.855715 -0.429751 0.919738 0.126574 -0.036923 -1488680.000000 0 0 1
20.031708 -7.654639 16.534136 27.078414 -0.365004 0.913976 0.107754 -0.036957 -152289.000000 0 0 1
21.237208 -7.545439 15.821336 27.536654 -0.341383 0.958735 0.109530 -0.024287 -387172.000000 0 0 1
22.125808 -6.341039 15.983436 28.021963 -0.279109 0.963816 0.098100 -0.011672 -164572.000000 0 0 1
22.580808 -6.064939 17.327936 29.102126 -0.262395 0.933010 0.141455 -0.019810 954802.000000 0 0 1
23.514408 -4.948339 17.307736 29.613699 -0.207412 0.946594 0.147770 -0.016146 564774.000000 0 0 1
-5.342647 -32.947004 -6.502333 34.004842 1.410037 1.763199 0.088846 -0.030652 -411820.000000 0 0 1
-6.012147 -31.750904 -6.671133 32.996513 1.383658 1.774377 0.080975 -0.027190 -239145.000000 0 0 1
-5.578747 -30.807204 -5.758033 31.833335 1.391652 1.752678 0.101555 -0.037048 -1014500.000000 0 0 1
-6.247847 -29.428804 -6.047933 30.686603 1.361599 1.769182 0.096022 -0.035657 1403550.000000 0 0 1
-7.632247 -29.283104 -5.661833 30.786486 1.315832 1.755756 0.081350 -0.036838 822600.000000 0 0 1
-8.547547 -30.063804 -6.387933 31.901388 1.293792 1.772399 0.080935 -0.025830 -528250.000000 0 0 1
-10.001947 -29.662204 -5.968733 31.867084 1.245574 1.759210 0.126329 -0.024284 727269.000000 0 0 1
-11.026547 -30.256704 -6.768933 32.907010 1.221322 1.777974 0.095369 -0.026856 262382.000000 0 0 1
-12.292947 -29.984904 -6.191133 32.993047 1.181724 1.759565 0.094176 -0.024884 758828.000000 0 0 1
-13.520947 -30.461804 -7.045533 34.064308 1.153055 1.779130 0.109635 -0.030042 568054.000000 0 0 1
-13.800847 -29.653804 -8.216433 33.724194 1.135211 1.816910 0.142046 -0.045408 -13311.800000 0 0 1
-14.904447 -30.124604 -8.944233 34.779788 1.111350 1.830886 0.129976 -0.039485 -37165.400000 0 0 1
-15.070147 -29.397904 -10.278433 34.597576 1.097099 1.872435 0.162583 -0.030123 -134104.000000 0 0 1
-15.662147 -28.096004 -10.206033 33.746873 1.062251 1.878036 0.178001 -0.035232 160187.000000 0 0 1
-14.754247 -27.088404 -9.809533 32.368138 1.072054 1.878700 0.166270 -0.035594 -287568.000000 0 0 1
-15.290847 -25.672404 -9.592633 31.383132 1.033608 1.881430 0.158526 -0.020619 -241128.000000 0 0 1
-15.664347 -24.945004 -10.770933 31.363004 1.010075 1.921361 0.176004 -0.039238 337731.000000 0 0 1
-16.106847 -23.633404 -10.403233 30.433461 0.972575 1.919666 0.124529 -0.010864 -249005.000000 0 0 1
-16.843047 -22.768504 -11.474733 30.557528 0.933886 1.955746 0.155877 -0.018076 202386.000000 0 0 1
-18.163047 -23.299404 -11.574833 31.729092 0.908650 1.944216 0.170182 -0.024843 229247.000000 0 0 1
-18.765847 -22.896004 -12.800233 32.252597 0.884211 1.978905 0.194363 -0.031435 -295826.000000 0 0 1
-20.245047 -23.285004 -12.932433 33.455959 0.855121 1.967685 0.163918 -0.021529 -189430.000000 0 0 1
-20.495247 -24.616904 -13.318233 34.690380 0.876510 1.964831 0.195602 -0.022472 54318.400000 0 0 1
-20.278747 -25.586104 -12.256133 34.872469 0.900603 1.929922 0.198757 -0.025565 -1070070.000000 0 0 1
-20.254847 -27.115604 -12.583133 36.108864 0.929230 1.926743 0.193726 -0.032233 1230940.000000 0 0 1
-19.194447 -27.596204 -13.469333 36.213260 0.963065 1.951900 0.181092 -0.042304 1561120.000000 0 0 1
-17.846247 -27.199104 -13.198833 35.106823 0.990121 1.956231 0.195118 -0.042746 662981.000000 0 0 1
-16.750747 -28.164404 -13.788533 35.552002 1.034247 1.969085 0.170445 -0.035902 488779.000000 0 0 1
-17.020247 -28.415504 -15.154933 36.425289 1.031129 1.999899 0.173082 -0.056431 206915.000000 0 0 1
-16.294347 -29.575104 -15.564733 37.181359 1.067226 2.002718 0.178976 -0.050281 79686.400000 0 0 1
-17.028147 -30.895604 -15.279533 38.444249 1.067070 1.979529 0.157451 -0.048820 -307896.000000 0 0 1
-17.112747 -31.224904 -13.883133 38.217563 1.069453 1.942567 0.164652 -0.042081 -17655.400000 0 0 1
-17.427547 -32.556604 -13.710233 39.390638 1.079309 1.926295 0.136896 -0.038123 -771481.000000 0 0 1
-17.854547 -32.871604 -12.239833 39.359125 1.073220 1.887019 0.172922 -0.043416 -213168.000000 0 0 1
-19.155547 -32.534004 -11.836133 39.566279 1.038664 1.874595 0.200845 -0.038901 -10602.600000 0 0 1
-19.513647 -31.111504 -11.812733 38.577827 1.010605 1.882001 0.200546 -0.042777 -154730.000000 0 0 1
-18.855547 -30.224504 -10.668933 37.187074 1.013025 1.861784 0.213727 -0.038166 -139633.000000 0 0 1
-19.294247 -30.545904 -9.408733 37.334227 1.007431 1.825557 0.224958 -0.044543 -17258.000000 0 0 1
-18.871847 -29.578704 -8.492333 36.099392 1.002888 1.808271 0.211015 -0.032345 -120648.000000 0 0 1
-19.134447 -29.886704 -6.974933 36.166170 1.001318 1.764870 0.235772 -0.042390 305526.000000 0 0 1
-18.305247 -30.894504 -6.355433 36.468397 1.035904 1.745963 0.227747 -0.040229 410678.000000 0 0 1
-18.700647 -31.205504 -5.039633 36.727314 1.030911 1.708448 0.244484 -0.055637 -538261.000000 0 0 1
-17.774347 -32.295404 -4.549233 37.143183 1.067671 1.693583 0.223119 -0.042739 2230610.000000 0 0 1
-16.342847 -31.961904 -4.375233 36.163443 1.098132 1.692078 0.204949 -0.036535 2135580.000000 0 0 1
-16.081947 -31.383504 -3.097033 35.399788 1.097252 1.658396 0.187011 -0.039139 -161900.000000 0 0 1
-14.744947 -30.630904 -2.917833 34.120075 1.122160 1.656418 0.174259 -0.039802 7196.690000 0 0 1
-13.598647 -31.445704 -3.004733 34.391626 1.162634 1.658276 0.107385 -0.037841 -25560.300000 0 0 1
-12.467647 -30.708104 -2.544133 33.240074 1.185124 1.647409 0.102936 -0.026145 -9472.790000 0 0 1
-11.161347 -31.480804 -2.659433 33.506556 1.230079 1.650250 0.108781 -0.038791 -797630.000000 0 0 1
-11.187447 -32.476704 -1.622133 34.387884 1.239051 1.617985 0.118380 -0.030903 92035.000000 0 0 1
-10.018647 -33.230204 -1.318433 34.732665 1.277971 1.608765 0.135924 -0.038944 252319.000000 0 0 1
-8.874947 -32.478604 -0.607933 33.674827 1.304053 1.588850 0.155593 -0.048010 -315341.000000 0 0 1
-9.285147 -32.258504 0.746767 33.576520 1.290537 1.548554 0.167285 -0.045642 -170665.000000 0 0 1
-8.294947 -31.708004 1.596867 32.813925 1.314926 1.522113 0.173456 -0.044055 171772.000000 0 0 1
-7.380847 -32.849704 2.107167 33.734554 1.349781 1.508292 0.183933 -0.051080 -450998.000000 0 0 1
-8.032747 -33.722004 3.017667 34.796622 1.336949 1.483964 0.196054 -0.060282 -423778.000000 0 0 1
-7.257247 32.732361 3.569067 33.716663 -1.352611 1.464743 0.187495 -0.049223 -451136.000000 0 0 1
-6.356047 33.128061 4.736167 34.063163 -1.381237 1.431304 0.196877 -0.045000 -266934.000000 0 0 1
-5.226247 -33.612104 4.317167 34.288849 1.416544 1.444555 0.199883 -0.045442 -211392.000000 0 0 1
-4.487547 -33.090004 5.437667 33.832746 1.436002 1.409374 0.203446 -0.043422 278376.000000 0 0 1
-3.179447 -32.385204 4.999767 32.922758 1.472934 1.418343 0.217334 -0.043981 16605.100000 0 0 1
-3.239247 -31.157804 4.328267 31.623336 1.467206 1.433496 0.224830 -0.045319 -114255.000000 0 0 1
-3.644347 -31.280004 2.997467 31.633917 1.454812 1.475899 0.217602 -0.046675 -184815.000000 0 0 1
-3.713647 -29.982204 2.270967 30.296551 1.447562 1.495768 0.205447 -0.045131 445514.000000 0 0 1
-2.417747 -29.388204 2.240867 29.572513 1.488712 1.494948 0.170029 -0.049419 285819.000000 0 0 1
-2.369647 -28.197104 1.553267 28.339099 1.486955 1.515959 0.164039 -0.046715 32766.900000 0 0 1
-2.624847 -26.906804 2.372367 27.138424 1.473551 1.483267 0.174290 -0.042023 -70780.800000 0 0 1
-2.728847 -25.726404 1.626967 25.921834 1.465120 1.507991 0.162310 -0.048864 -126852.000000 0 0 1
-2.958647 -24.510004 2.365067 24.800956 1.450666 1.475289 0.140215 -0.039035 489867.000000 0 1 0
-4.322647 -24.273904 3.106067 24.850661 1.394566 1.445479 0.133863 -0.033095 349019.000000 0 1 0
-4.439847 -25.034604 4.319867 25.789628 1.395273 1.402499 0.173042 -0.035031 -132560.000000 0 0 1
-5.232547 -24.289004 5.206967 25.385976 1.358610 1.364218 0.146709 -0.034356 -333946.000000 0 0 1
-5.895547 -25.204804 6.253367 26.629762 1.341022 1.333757 0.170321 -0.036733 -363380.000000 0 0 1
-5.148547 -25.661404 7.336567 27.181619 1.372791 1.297498 0.161625 -0.043715 -254518.000000 0 0 1
-5.951647 -26.517004 8.130067 28.366734 1.350009 1.280114 0.162591 -0.041573 357308.000000 0 0 1
-5.244647 -27.172104 9.376467 29.218961 1.380125 1.244113 0.151035 -0.038455 296492.000000 0 0 1
-4.720847 -26.221504 10.311667 28.568937 1.392667 1.201521 0.135067 -0.053808 -298499.000000 0 0 1
-5.707147 -25.783204 11.198667 28.683711 1.352957 1.169710 0.129977 -0.052384 -383194.000000 0 0 1
-5.340947 -24.686904 12.182067 28.042320 1.357733 1.121405 0.110293 -0.047541 -433186.000000 0 0 1
-4.402747 -25.105004 13.107867 28.661151 1.397188 1.095796 0.098024 -0.051353 -433644.000000 0 0 1
-3.580047 -24.039604 13.557867 27.830470 1.422960 1.061963 0.090884 -0.050343 544325.000000 0 0 1
-2.536647 -24.478704 14.634367 28.632259 1.467538 1.034315 0.102112 -0.053046 400821.000000 0 0 1
-3.222747 -24.688904 15.863267 29.522387 1.440996 1.003528 0.093466 -0.054446 395034.000000 0 0 1
-2.727847 -25.851904 16.535567 30.808880 1.465667 1.004258 0.116843 -0.042790 -34761.700000 0 0 1
-3.271347 -26.033404 17.917867 31.772469 1.445792 0.971643 0.140481 -0.046600 -281448.000000 0 0 1
-2.802147 -25.045804 18.795767 31.439230 1.459379 0.929987 0.133402 -0.033042 -128757.000000 0 0 1
-3.481347 -25.102104 20.005967 32.287368 1.432988 0.902535 0.166573 -0.047530 -699802.000000 0 0 1
-2.949347 -24.093004 20.968667 32.075793 1.448987 0.858303 0.150300 -0.053533 -1559310.000000 0 0 1
-1.686947 -24.535304 21.299767 32.534705 1.502148 0.857039 0.107362 -0.070247 -1136980.000000 0 0 1
-1.109047 -23.833904 22.372167 32.707779 1.524298 0.817562 0.128212 -0.067390 242065.000000 0 0 1
-0.483847 -22.447104 22.041867 31.463479 1.549245 0.794623 0.117930 -0.071124 -106829.000000 0 0 1
-1.452147 -21.446504 21.836967 30.641710 1.503189 0.777521 0.154482 -0.067357 40207.000000 0 0 1
-0.808547 -20.436404 21.040067 29.342542 1.531253 0.771236 0.164000 -0.061505 -47765.500000 0 0 1
-1.755747 -19.409204 20.428467 28.233351 1.480582 0.761853 0.145944 -0.041386 -894567.000000 0 0 1
-2.276447 -18.521304 21.376767 28.375819 1.448500 0.717663 0.149474 -0.067397 728517.000000 0 0 1
-3.569247 -18.850104 21.918067 29.128467 1.383663 0.719004 0.193445 -0.078589 386828.000000 0 0 1
-4.824447 -18.614804 21.045367 28.507783 1.317203 0.740350 0.172646 -0.070737 -305135.000000 0 0 1
-5.034047 -19.421704 19.888567 28.250652 1.317181 0.789777 0.159027 -0.068851 -326778.000000 0 0 1
-5.421747 -20.733904 20.142467 29.411037 1.315031 0.816384 0.164346 -0.063236 -170742.000000 0 0 1
-5.688447 -21.603604 18.900267 29.262506 1.313330 0.868612 0.118420 -0.058849 239665.000000 0 0 1
-6.198547 -22.938304 19.105667 30.489577 1.306873 0.893576 0.108252 -0.057585 39390.600000 0 0 1
-6.332847 -23.515204 17.841067 30.188962 1.307729 0.938523 0.084192 -0.051744 4329.450000 0 0 1
-6.901447 -24.950404 17.819967 31.427756 1.300937 0.967920 0.076213 -0.048262 -159786.000000 0 0 1
-8.299947 -24.938504 17.934467 31.819227 1.249511 0.972015 0.107266 -0.051067 -508283.000000 0 0 1
-8.884247 -26.240204 17.744967 32.899271 1.244337 1.001104 0.118497 -0.047925 -229935.000000 0 0 1
-10.397947 -26.329004 17.814567 33.446862 1.194674 1.009100 0.112130 -0.046315 -1041530.000000 0 0 1
-11.053047 -25.729204 16.688667 32.598672 1.165043 1.033351 0.125978 -0.050032 -316035.000000 0 0 1
-12.450747 -25.826304 16.775267 33.217897 1.121575 1.041406 0.125033 -0.045412 -6505.000000 0 0 1
-13.167547 -24.869404 17.738967 33.264734 1.083853 1.008339 0.130463 -0.048507 -834010.000000 0 0 1
-13.091547 -23.493004 17.331467 31.995150 1.062402 0.998349 0.120822 -0.044151 -25493.300000 0 0 1
-13.258347 -22.562704 18.390967 31.985732 1.039528 0.958224 0.126717 -0.041350 713816.000000 0 0 1
-11.875247 -22.137304 19.006167 31.501049 1.078427 0.923101 0.134468 -0.040175 694609.000000 0 0 1
-11.374047 -23.068804 19.921567 32.533175 1.112725 0.911771 0.139795 -0.048227 271175.000000 0 0 1
-9.994947 -22.783404 20.159467 32.021658 1.157384 0.889813 0.148653 -0.056275 921154.000000 0 0 1
-9.231347 -23.782704 21.092867 33.102021 1.200544 0.879926 0.159407 -0.065249 337701.000000 0 0 1
-9.319947 -23.365504 22.458067 33.721995 1.191259 0.841994 0.168810 -0.066404 620884.000000 0 0 1
-8.327447 -24.022304 23.277367 34.471050 1.237105 0.829462 0.181246 -0.073190 522802.000000 0 0 1
-8.193847 -23.607904 24.733067 35.159591 1.236725 0.790554 0.214434 -0.075128 853026.000000 0 0 1
-7.053247 -24.338304 25.253567 35.774907 1.288723 0.787101 0.228762 -0.069305 632838.000000 0 0 1
-6.867847 -23.779904 26.540467 36.291150 1.289638 0.750540 0.240541 -0.074353 1349060.000000 0 0 1
-5.444647 -24.147004 27.170067 36.755061 1.349026 0.738885 0.244213 -0.072635 2198840.000000 0 0 1
-4.301547 -23.629804 26.428667 35.711978 1.390729 0.737651 0.245870 -0.063846 1066750.000000 0 0 1
-3.105447 -23.938804 27.163867 36.339865 1.441792 0.726513 0.215162 -0.056627 300489.000000 0 0 1
-1.855247 -23.450804 26.428867 35.381735 1.491848 0.727313 0.177418 -0.052670 -727784.000000 0 0 1
-1.755747 -22.036604 26.428967 34.455549 1.491290 0.696573 0.180102 -0.059541 -58590.400000 0 0 1
-0.561447 -21.658104 25.745567 33.648520 1.544879 0.699550 0.160964 -0.063003 477623.000000 0 0 1
0.580753 -21.346204 26.742467 34.222175 -1.543597 0.673831 0.118621 -0.039803 -372823.000000 0 0 1
0.941153 -22.490904 27.494767 35.534332 -1.528975 0.686053 0.109517 -0.044946 -193064.000000 0 0 1
1.929953 -22.095304 28.416767 36.047744 -1.483671 0.662740 0.082555 -0.055695 -278897.000000 0 0 1
2.463153 -23.247204 29.294467 37.478866 -1.465235 0.673527 0.098416 -0.052351 -542199.000000 0 0 1
3.316753 -24.183204 28.648267 37.637102 -1.434496 0.705680 0.079211 -0.049955 177094.000000 0 0 1
3.984253 -25.082804 29.507767 38.932373 -1.413268 0.710672 0.097696 -0.037703 -220462.000000 0 0 1
5.265353 -24.443004 30.125567 39.150149 -1.358625 0.692757 0.071456 -0.041493 375262.000000 0 0 1
6.425153 -24.167204 29.313867 38.531015 -1.310945 0.706273 0.087439 -0.038300 618845.000000 0 0 1
7.099453 -25.323104 28.942967 39.106996 -1.297459 0.737582 0.074068 -0.037001 -989939.000000 0 0 1
8.464753 -25.105704 28.274967 38.748189 -1.245602 0.752898 0.071019 -0.036551 -39383.200000 0 0 1
8.347953 -24.385704 27.053667 37.366453 -1.240971 0.761199 0.070368 -0.045939 96710.000000 0 0 1
9.620853 -24.115504 26.471367 37.078992 -1.191196 0.775718 0.079860 -0.033254 409558.000000 0 0 1
9.624953 -22.930404 25.525667 35.637099 -1.173384 0.772359 0.095787 -0.031752 36653.800000 0 0 1
8.882853 -23.072204 24.334367 34.689957 -1.203285 0.793322 0.087326 -0.028808 -180169.000000 0 0 1
8.440853 -21.863504 23.758767 33.372741 -1.202356 0.778566 0.089421 -0.029257 228819.000000 0 0 1
7.768553 -22.168104 22.419067 32.471369 -1.233731 0.808719 0.084819 -0.023955 327202.000000 0 0 1
8.736053 -22.678004 21.503967 32.450440 -1.203095 0.846417 0.085354 -0.019188 442656.000000 0 0 1
8.217953 -22.656304 20.154767 31.417471 -1.222833 0.874325 0.101779 -0.013444 -7421.310000 0 0 1
8.948053 -23.581104 19.195367 31.695398 -1.208122 0.920252 0.139254 -0.029258 231025.000000 0 0 1
10.269853 -23.171504 18.906967 31.620593 -1.153603 0.929878 0.125903 -0.022650 109489.000000 0 0 1
10.975053 -23.984004 18.000867 31.932984 -1.141641 0.971929 0.143420 -0.025115 125079.000000 0 0 1
12.308253 -23.463004 17.450567 31.725824 -1.087678 0.988381 0.133586 -0.025397 155784.000000 0 0 1
12.089253 -22.381204 16.584367 30.366257 -1.075545 0.993041 0.133857 -0.020653 244895.000000 0 0 1
13.299553 -22.125304 15.885067 30.310766 -1.029567 1.019170 0.129347 -0.027405 417591.000000 0 0 1
-12.586347 22.341461 11.217367 27.989040 -1.057752 1.158431 0.039488 -0.008434 83200.200000 0 0 1
-13.588547 21.533161 10.598067 27.579787 -1.007857 1.176380 0.028652 -0.017805 350917.000000 0 0 1
-13.121747 20.268261 10.196767 26.209859 -0.996248 1.171204 0.051502 -0.024111 160942.000000 0 0 1
-14.112947 19.540861 9.222067 25.808275 -0.945308 1.205389 0.063052 -0.026189 -85977.700000 0 0 1
-14.359647 20.366961 8.087067 26.199489 -0.956692 1.256999 0.069016 -0.027904 416747.000000 0 0 1
-15.283747 19.884561 7.085567 26.061350 -0.915482 1.295450 0.079750 -0.026315 744811.000000 0 0 1
-16.783647 19.916061 7.469767 27.094976 -0.870544 1.291491 0.072605 -0.027052 -359565.000000 0 0 1
-17.193947 19.023661 8.489167 27.011062 -0.835875 1.251093 0.066654 -0.025808 -1182870.000000 0 0 1
-18.548847 19.159961 8.662167 28.039204 -0.801603 1.256728 0.087222 -0.024733 -1187720.000000 0 0 1
-19.241147 18.052461 9.466167 28.030723 -0.753535 1.226317 0.085140 -0.027291 -183430.000000 0 0 1
-19.175447 16.766261 8.818567 26.955007 -0.718468 1.237501 0.099940 -0.027002 75875.700000 0 0 1
-19.713747 15.816561 9.702267 27.072669 -0.676149 1.204266 0.114688 -0.035111 351493.000000 0 0 1
-18.649047 15.163861 10.671867 26.298639 -0.682688 1.152947 0.099037 -0.025390 921411.000000 0 0 1
-17.661747 14.343961 10.014367 24.859085 -0.682105 1.156173 0.068828 -0.008242 800755.000000 0 1 0
-16.799047 13.560361 10.855767 24.164831 -0.679122 1.104884 0.070223 -0.022590 476977.000000 0 1 0
-17.471847 12.429461 11.696467 24.424666 -0.618336 1.071419 0.075680 -0.024839 -490574.000000 0 1 0
-18.103947 11.411461 11.032167 24.076608 -0.562423 1.094815 0.056702 -0.024958 -216442.000000 0 1 0
-18.802247 10.610661 11.988167 24.694671 -0.513778 1.063912 0.086787 -0.029552 170908.000000 0 1 0
-19.958347 9.805861 11.348167 24.965405 -0.456677 1.098923 0.091043 -0.038906 60936.800000 0 1 0
-19.425947 8.733161 10.542567 23.765127 -0.422489 1.111168 0.071975 -0.033712 551243.000000 0 1 0
-18.994247 9.161861 9.200367 23.007996 -0.449428 1.159414 0.077503 -0.028861 -538157.000000 0 1 0
-20.079147 9.510061 8.193767 23.680187 -0.442329 1.217473 0.088678 -0.025619 -468879.000000 0 1 0
-20.684747 8.375161 7.640167 23.587587 -0.384720 1.240941 0.073109 -0.029079 502019.000000 0 1 0
-21.527747 8.771261 6.544267 24.149666 -0.386904 1.296377 0.102820 -0.025587 216949.000000 0 1 0
-21.872447 7.596861 5.625567 23.827783 -0.334290 1.332453 0.129799 -0.029860 75829.000000 0 1 0
-22.592247 6.532161 6.283467 24.342570 -0.281457 1.309714 0.155731 -0.037481 442042.000000 0 1 0
-22.390547 5.330161 5.550767 23.676111 -0.233704 1.334148 0.159079 -0.036773 -36350.700000 0 1 0
-23.456647 4.186361 5.587667 24.473699 -0.176613 1.340452 0.182914 -0.042632 127305.000000 0 1 0
-24.613247 4.410461 4.803767 25.462527 -0.177309 1.380999 0.234567 -0.046152 -58598.200000 0 0 1
-25.529777 3.389261 5.018267 26.238133 -0.131985 1.378352 0.254897 -0.049276 -100287.000000 0 0 1
-26.821857 3.480061 4.146367 27.362661 -0.129026 1.418677 0.272749 -0.052287 141965.000000 0 0 1
-26.700337 3.184661 2.762967 27.031168 -0.118713 1.468403 0.290507 -0.046374 363111.000000 0 0 1
-27.962767 3.179161 2.113467 28.222157 -0.113207 1.495839 0.297366 -0.048918 162206.000000 0 0 1
-27.856927 3.257861 0.570167 28.052578 -0.116421 1.550470 0.316311 -0.058931 -275104.000000 0 0 1
-27.472847 4.507661 0.077767 27.840302 -0.162628 1.568003 0.314575 -0.058578 198743.000000 0 0 1
-27.370657 4.558061 -1.338333 27.779848 -0.165017 1.618991 0.343827 -0.055132 162562.000000 0 0 1
-28.740977 4.869661 -1.999033 29.219061 -0.167839 1.639265 0.324057 -0.062066 301742.000000 0 0 1
-29.631997 3.780661 -1.969933 29.937089 -0.126902 1.636646 0.279260 -0.067788 -54463.500000 0 0 1
-30.971207 4.184461 -1.764833 31.302396 -0.134295 1.627206 0.239977 -0.037494 -229146.000000 0 0 1
-31.957877 3.035661 -1.891533 32.157410 -0.094705 1.629651 0.188740 -0.031775 -591318.000000 0 0 1
-31.952147 2.536161 -3.208233 32.212802 -0.079208 1.670557 0.172401 -0.048087 64584.200000 0 0 1
-32.829257 1.479361 -3.402033 33.038197 -0.045032 1.673952 0.165551 -0.047575 -307343.000000 0 0 1
-32.909757 1.028561 -4.835133 33.278951 -0.031244 1.716603 0.179518 -0.062683 -390776.000000 0 0 1
-31.728717 0.366661 -5.200133 32.154118 -0.011556 1.733235 0.204240 -0.061013 -29792.900000 0 0 1
-31.784097 -0.294939 -6.476133 32.438497 0.009279 1.771790 0.218624 -0.058366 -257453.000000 0 0 1
-32.038547 0.512161 -7.773533 32.972089 -0.015984 1.808798 0.198765 -0.048114 -17718.700000 0 0 1
-33.411947 0.820361 -7.958833 34.356575 -0.024548 1.804574 0.211408 -0.047043 427326.000000 0 0 1
-33.721427 1.510761 -9.164333 34.977165 -0.044771 1.835900 0.217593 -0.036952 -361819.000000 0 0 1
-35.225235 1.799461 -9.236133 36.460409 -0.051040 1.826906 0.226290 -0.034538 -41853.700000 0 0 1
-35.810560 2.585761 -8.210533 36.830629 -0.072082 1.795612 0.173830 -0.029892 103960.000000 0 0 1
-37.148247 2.300861 -7.895033 38.047573 -0.061858 1.779819 0.160690 -0.022926 -323972.000000 0 0 1
-37.847667 3.250661 -6.975533 38.622154 -0.085678 1.752403 0.166945 -0.022311 563904.000000 0 0 1
36.977518 2.797461 -6.550133 37.657229 0.075509 1.745627 0.163451 -0.019142 961442.000000 0 0 1
36.386168 3.635361 -5.570933 36.989247 0.099580 1.721981 0.155289 -0.025477 -219512.000000 0 0 1
34.981638 3.163061 -5.195533 35.506528 0.090175 1.717650 0.172109 -0.025859 -268148.000000 0 0 1
34.994288 2.052561 -4.352333 35.323590 0.058587 1.694323 0.163601 -0.022570 -1377330.000000 0 0 1
33.760968 1.463861 -4.283033 34.063033 0.043332 1.696868 0.196434 -0.027687 -969792.000000 0 0 1
33.699258 0.208761 -3.344733 33.865481 0.006195 1.669723 0.256258 -0.033328 -93366.700000 0 0 1
34.408528 -0.915039 -3.834433 34.633611 -0.026587 1.681738 0.155094 -0.030132 -16330.000000 0 0 1
34.422838 -1.872739 -2.845633 34.590990 -0.054350 1.653155 0.183060 -0.037592 -46077.700000 0 0 1
35.235088 -3.136939 -3.222833 35.520958 -0.088795 1.661652 0.131916 -0.023502 50771.800000 0 0 1
34.990308 -4.189339 -2.272133 35.313380 -0.119161 1.635183 0.131470 -0.035518 48251.400000 0 0 1
35.469028 -5.402739 -2.702033 35.979752 -0.151161 1.645966 0.188519 -0.039807 -362530.000000 0 0 1
35.230308 -6.598239 -1.748633 35.885500 -0.185144 1.619544 0.230896 -0.055721 -293270.000000 0 0 1
35.800068 -6.665739 -0.441433 36.418015 -0.184085 1.582918 0.204755 -0.070064 27884.300000 0 0 1
35.494088 -7.871139 0.199367 36.356910 -0.218228 1.565313 0.245080 -0.077550 507240.000000 0 0 1
34.365758 -7.753739 1.305867 35.253810 -0.221908 1.533746 0.236994 -0.066310 -387204.000000 0 0 1
33.082178 -7.649739 0.740767 33.963182 -0.227240 1.548984 0.206277 -0.061890 -509719.000000 0 0 1
32.197118 -7.481139 1.842167 33.106124 -0.228303 1.515123 0.261218 -0.078856 -816263.000000 0 0 1
31.587268 -8.788039 2.346867 32.870852 -0.271352 1.499339 0.226498 -0.064627 -260965.000000 0 0 1
30.609108 -9.521139 1.561167 32.093719 -0.301569 1.522133 0.215535 -0.059170 453690.000000 0 0 1
29.348808 -8.918239 1.685567 30.720167 -0.295004 1.515900 0.219049 -0.057875 -1160380.000000 0 0 1
28.164008 -9.854239 1.311167 29.866981 -0.336575 1.526882 0.183286 -0.047349 551554.000000 0 0 1
26.876708 -9.408339 1.764467 28.530468 -0.336724 1.508912 0.158976 -0.051032 1315460.000000 0 0 1
26.207008 -8.298939 1.119767 27.512425 -0.306678 1.530085 0.184335 -0.059472 -341819.000000 0 0 1
25.522208 -8.622539 -0.223733 26.940329 -0.325805 1.579101 0.152790 -0.044058 -296341.000000 0 0 1
26.402308 -8.924139 -1.334133 27.901649 -0.325950 1.618630 0.157401 -0.062179 744882.000000 0 0 1
25.761708 -9.467039 -2.477833 27.557759 -0.352166 1.660832 0.148179 -0.069799 -543659.000000 0 0 1
25.230908 -10.885039 -2.350533 27.579119 -0.407293 1.656129 0.130632 -0.045659 -457164.000000 0 0 1
23.941308 -11.020939 -1.832733 26.419808 -0.431412 1.640222 0.117169 -0.021843 -293159.000000 0 0 1
23.449208 -12.316939 -2.010833 26.563430 -0.483651 1.646568 0.100836 -0.016283 252859.000000 0 0 1
21.930708 -12.446239 -1.709733 25.274256 -0.516199 1.638495 0.093695 -0.011169 -80714.400000 0 0 1
21.107708 -11.876139 -2.641733 24.363021 -0.512499 1.679442 0.104637 -0.013049 739944.000000 0 1 0
19.709008 -11.929239 -2.308033 23.153375 -0.544284 1.670647 0.107115 -0.018229 1386530.000000 0 1 0
18.700208 -11.462239 -3.435633 22.200997 -0.549885 1.726172 0.088869 -0.011447 310998.000000 0 1 0
18.597008 -12.380339 -4.512133 22.792122 -0.587345 1.770082 0.088056 -0.015348 442699.000000 0 1 0
18.076208 -11.795939 -5.721333 22.329960 -0.578178 1.829904 0.094447 -0.014587 -114927.000000 0 1 0
18.284308 -12.644439 -6.955033 23.293137 -0.605030 1.874008 0.107164 -0.020275 -283649.000000 0 1 0
17.516908 -13.815839 -6.896133 23.351148 -0.667822 1.870590 0.100198 -0.026589 205491.000000 0 1 0
17.861608 -14.710339 -7.939633 24.463624 -0.688950 1.901331 0.109988 -0.029590 -837812.000000 0 1 0
16.822008 -15.740339 -8.320633 24.494309 -0.752192 1.917391 0.100225 -0.031619 -774071.000000 0 1 0
15.916308 -15.157339 -9.215333 23.832670 -0.760978 1.967812 0.123334 -0.021761 -76731.600000 0 1 0
15.130308 -16.125039 -9.885233 24.221084 -0.817213 1.991196 0.111799 -0.022425 56061.600000 0 1 0
14.349608 -15.599739 -11.127033 23.938963 -0.827115 2.054215 0.116176 -0.046732 84943.600000 0 1 0
13.274108 -14.745839 -10.728633 22.555382 -0.837874 2.066507 0.095894 -0.046439 311086.000000 0 1 0
13.490108 -13.335139 -10.940933 21.897784 -0.779621 2.093975 0.090418 -0.033102 -208587.000000 0 1 0
13.698608 -12.743939 -12.357933 22.422719 -0.749310 2.154520 0.112972 -0.019331 -168590.000000 0 1 0
14.990808 -12.856239 -12.905633 23.591578 -0.708894 2.149625 0.142146 -0.028701 18912.300000 0 1 0
15.058308 -12.194739 -14.109633 23.969690 -0.680709 2.200178 0.168058 -0.026957 166629.000000 0 1 0
16.440708 -11.556239 -14.457733 24.756203 -0.612672 2.194449 0.174569 -0.045510 186800.000000 0 1 0
17.368608 -12.522239 -14.878733 26.073966 -0.624661 2.178076 0.170015 -0.043109 -984862.000000 0 0 1
18.470308 -11.985539 -15.465133 26.906798 -0.575607 2.183115 0.159480 -0.039137 -449465.000000 0 0 1
19.557208 -13.077339 -15.878133 28.383380 -0.589389 2.164478 0.141505 -0.027005 604792.000000 0 0 1
20.458508 -13.378739 -14.818533 28.585488 -0.579143 2.115768 0.123247 -0.043759 593809.000000 0 0 1
21.579808 -14.142339 -15.226333 29.958890 -0.580127 2.103937 0.079694 -0.029489 329314.000000 0 0 1
22.738008 -14.193439 -14.185133 30.326370 -0.558036 2.057539 0.074565 -0.036664 83382.900000 0 0 1
23.353408 -12.925639 -14.013633 30.146902 -0.505511 2.054256 0.106283 -0.041134 -556802.000000 0 0 1
24.300208 -12.950939 -13.012433 30.455711 -0.489663 2.012254 0.111246 -0.036676 -143162.000000 0 0 1
25.174908 -11.653739 -12.970333 30.623768 -0.433539 2.008144 0.113399 -0.038183 -244727.000000 0 0 1
24.457408 -10.539839 -12.406733 29.379926 -0.406897 2.006762 0.124453 -0.041659 495201.000000 0 0 1
25.139308 -9.291839 -12.482733 29.565888 -0.354040 2.006668 0.144263 -0.051660 1600380.000000 0 0 1
26.516908 -9.153339 -11.658033 30.378278 -0.332382 1.964663 0.164953 -0.043964 1310530.000000 0 0 1
27.483308 -10.124839 -11.944833 31.631055 -0.352971 1.958032 0.141755 -0.048959 40381.600000 0 0 1
28.634208 -10.136239 -11.107433 32.342484 -0.340225 1.921365 0.163975 -0.048965 76006.500000 0 0 1
29.803808 -10.928939 -11.685333 33.826849 -0.351471 1.923510 0.176530 -0.055476 -413802.000000 0 0 1
30.327408 -10.444739 -12.847333 34.552832 -0.331677 1.951762 0.157049 -0.044982 107468.000000 0 0 1
31.670148 -10.863839 -13.063933 35.940056 -0.330453 1.942810 0.160479 -0.046535 155568.000000 0 0 1
32.366358 -9.965439 -14.078833 36.675668 -0.298684 1.964784 0.124015 -0.040722 -291921.000000 0 0 1
31.917778 -10.260239 -15.388833 36.889473 -0.311025 2.001115 0.115958 -0.034203 494992.000000 0 0 1
32.455498 -9.345539 -16.401833 37.546219 -0.280365 2.022883 0.082267 -0.027150 -217426.000000 0 0 1
32.061038 -9.905539 -17.796133 37.983315 -0.299655 2.058417 0.057077 -0.017927 795474.000000 0 0 1
30.664508 -9.989639 -18.127433 36.996064 -0.314930 2.082866 0.052476 -0.010004 1004720.000000 0 0 1
30.187908 -8.727139 -18.491633 36.461120 -0.281421 2.102683 0.036686 -0.004586 -695200.000000 0 0 1
28.753308 -8.648339 -19.043033 35.555360 -0.292170 2.136001 0.031195 -0.006873 -268838.000000 0 0 1
28.589608 -9.276139 -20.293833 36.266405 -0.313742 2.164671 0.018984 0.005636 463540.000000 0 0 1
27.207108 -9.417339 -20.580233 35.390097 -0.333228 2.191399 0.039754 0.010304 141587.000000 0 0 1
26.791608 -9.582739 -22.019633 35.978930 -0.343497 2.229402 0.060029 -0.007640 -105947.000000 0 0 1
27.027908 -10.921939 -22.374533 36.748011 -0.384035 2.225424 0.055482 -0.002805 351159.000000 0 0 1
26.243308 -11.330739 -23.484533 36.994867 -0.407580 2.258553 0.076541 -0.014466 -420116.000000 0 0 1
26.626208 -12.770639 -23.986333 38.044557 -0.447216 2.252968 0.077696 -0.003105 791414.000000 0 0 1
27.879108 -12.951039 -24.645433 39.400145 -0.434882 2.246589 0.068090 0.000403 910876.000000 0 0 1
29.042608 -12.938139 -23.808333 39.720338 -0.419096 2.213546 0.042834 0.006441 278453.000000 0 0 1
30.303208 -13.536639 -24.474533 41.237456 -0.420112 2.206200 0.058397 0.010187 -508.365000 0 0 1
30.681708 -12.801639 -25.604943 41.962630 -0.395280 2.227090 0.077815 -0.008478 44336.100000 0 0 1
32.056318 -13.079339 -25.779333 43.165387 -0.387393 2.210830 0.063724 -0.009057 75612.600000 0 0 1
32.730588 -12.526139 -27.054633 44.273567 -0.365508 2.228219 0.087996 -0.015851 20151.800000 0 0 1
32.625208 -13.374039 -28.154423 45.121399 -0.389037 2.244610 0.098217 -0.021090 -196511.000000 0 0 1
33.396748 -12.987039 -29.244463 46.251968 -0.370876 2.255296 0.101026 -0.024816 -170248.000000 0 0 1
33.265628 -13.843739 -30.520133 47.220013 -0.394357 2.273573 0.095720 -0.024454 41260.300000 0 0 1
33.645968 -15.211539 -30.265393 47.743440 -0.424604 2.257404 0.119542 -0.017860 82810.800000 0 0 1
33.917968 -16.002339 -31.435933 48.935890 -0.440830 2.268409 0.085294 -0.019595 773484.000000 0 0 1
32.610298 -16.405639 -32.221603 48.690946 -0.466110 2.293957 0.079423 -0.013483 683182.000000 0 0 1
31.978178 -15.415139 -32.973343 48.450714 -0.449186 2.319315 0.080241 -0.018390 -52744.100000 0 0 1
30.869008 -16.010439 -33.616663 48.366412 -0.478462 2.339274 0.065735 -0.008081 330138.000000 0 0 1
29.914908 -15.083439 33.022277 47.041286 -0.467011 0.792615 0.077823 -0.007893 306624.000000 0 0 1
29.257208 -14.013939 -33.723343 46.793574 -0.446700 2.375584 0.088501 -0.013544 292372.000000 0 0 1
29.899508 -12.756339 33.578736 46.735814 -0.403259 0.769182 0.104275 -0.023649 -24281.100000 0 0 1
29.071108 -11.516839 -33.362433 45.725473 -0.377193 2.388569 0.115835 -0.030019 257867.000000 0 0 1
28.003108 -11.278439 33.192285 44.867639 -0.382881 0.738050 0.099447 -0.028323 -171042.000000 0 0 1
27.169608 -10.233139 33.674316 44.461942 -0.360207 0.711514 0.075124 -0.029828 131064.000000 0 0 1
21.813953 -29.214804 8.949467 37.542593 -0.929427 1.330097 0.048090 -0.021256 84207.200000 0 0 1
22.511853 -28.711204 7.822567 37.313661 -0.905839 1.359586 0.060200 -0.019072 1255830.000000 0 0 1
23.605453 -29.594304 7.413267 38.574561 -0.897499 1.377413 0.068933 -0.017785 907131.000000 0 0 1
24.268353 -29.339604 6.074367 38.557272 -0.879716 1.412596 0.066998 -0.012378 -64480.200000 0 0 1
24.640553 -27.974904 5.937467 37.749247 -0.848686 1.412853 0.082960 -0.011416 22636.500000 0 0 1
25.296853 -27.759104 4.734767 37.853885 -0.831773 1.445388 0.079498 -0.005721 -149832.000000 0 0 1
25.384953 -26.289004 4.308467 36.797696 -0.802892 1.453442 0.086158 -0.011624 -121318.000000 0 0 1
26.099753 -25.447104 5.157467 36.815101 -0.772738 1.430243 0.086529 -0.012216 -81470.800000 0 0 1
26.167753 -24.086104 4.726667 35.878031 -0.743999 1.438670 0.081323 -0.008868 103255.000000 0 0 1
27.048253 -23.212804 5.674767 36.092177 -0.709235 1.412911 0.087395 -0.011163 122360.000000 0 0 1
28.383553 -23.115304 5.188767 36.971160 -0.683454 1.429985 0.081431 -0.013662 648539.000000 0 0 1
29.314453 -22.513604 6.108067 37.463422 -0.654924 1.407024 0.087199 -0.013892 453071.000000 0 0 1
29.043153 -21.043104 6.461667 36.442696 -0.627011 1.392544 0.096553 -0.008569 -545176.000000 0 0 1
29.197253 -20.176104 5.369267 35.894063 -0.604679 1.420646 0.093471 0.005693 -52756.300000 0 0 1
28.477953 -18.992404 5.536467 34.675030 -0.588175 1.410443 0.114579 -0.003909 -134988.000000 0 0 1
28.535553 -18.101804 4.279167 34.062653 -0.565302 1.444837 0.126065 -0.003994 346182.000000 0 0 1
29.767253 -17.409304 4.176667 34.736404 -0.529203 1.450266 0.145826 0.008981 243427.000000 0 0 1
29.660053 -16.492704 3.097867 34.078216 -0.507482 1.479766 0.151528 0.022425 -323550.000000 0 0 1
30.651753 -15.386904 3.249267 34.450610 -0.465239 1.476339 0.167139 -0.004511 -378390.000000 0 0 1
30.303153 -14.545204 4.362567 33.895074 -0.447512 1.441730 0.171373 -0.008240 440435.000000 0 0 1
31.233053 -13.462404 4.450567 34.300838 -0.406968 1.440679 0.183606 -0.023242 -89295.100000 0 0 1
30.844853 -12.265004 5.346967 33.621798 -0.378466 1.411085 0.176540 -0.026038 -163491.000000 0 0 1
30.874753 -12.548604 6.719767 33.998134 -0.386042 1.371835 0.152385 -0.037401 1232180.000000 0 0 1
29.583553 -13.092504 7.121867 33.125840 -0.416650 1.354110 0.151596 -0.022900 868886.000000 0 0 1
29.221153 -12.756504 8.554467 33.011863 -0.411613 1.308672 0.147345 -0.015480 -391855.000000 0 0 1
30.162453 -13.155204 9.493967 34.248626 -0.411273 1.289910 0.098036 -0.002247 -567747.000000 0 0 1
29.590853 -13.635204 10.650967 34.277988 -0.431792 1.254842 0.157869 -0.013241 -375281.000000 0 0 1
30.369153 -14.743304 11.430667 35.641417 -0.451956 1.244314 0.142731 -0.023214 81032.600000 0 0 1
31.515053 -14.215404 12.087867 36.625030 -0.423741 1.234446 0.109297 -0.013929 34273.500000 0 0 1
32.132353 -15.350204 12.653967 37.792059 -0.445664 1.229370 0.122306 -0.018351 59092.400000 0 0 1
33.274053 -15.037004 13.646867 38.980906 -0.424444 1.213128 0.110116 -0.020170 -759892.000000 0 0 1
34.445453 -14.555504 13.132567 39.633524 -0.399808 1.233062 0.091763 -0.022856 -421925.000000 0 0 1
35.430853 -14.358304 14.160067 40.767803 -0.385023 1.216069 0.062014 -0.021764 722430.000000 0 0 1
36.880153 -14.167504 13.625767 41.791451 -0.366768 1.238683 0.097449 -0.017975 161990.000000 0 0 1
37.095353 -12.859004 13.106867 41.390931 -0.333685 1.248590 0.115784 -0.023868 441056.000000 0 0 1
-37.776703 -12.758904 12.447567 41.770933 0.325716 1.268204 0.126224 -0.020578 -16164.300000 0 0 1
-37.151503 -11.378404 12.447667 40.800081 0.297199 1.260764 0.147445 -0.030557 -616222.000000 0 0 1
-36.002603 -11.359504 11.656467 39.510745 0.305633 1.271320 0.153949 -0.034406 -661626.000000 0 0 1
-35.246003 -10.195904 11.936867 38.584012 0.281592 1.256262 0.155088 -0.049644 -701346.000000 0 0 1
-34.023403 -10.196304 11.045867 37.196340 0.291168 1.269288 0.175352 -0.045593 241096.000000 0 0 1
-32.944003 -11.085504 11.410967 36.584230 0.324594 1.253594 0.156736 -0.045991 872902.000000 0 0 1
-33.191403 -12.368004 10.789367 37.027654 0.356688 1.275120 0.146174 -0.039807 -375584.000000 0 0 1
-32.334003 -13.477404 11.388467 36.835110 0.394920 1.256472 0.110033 -0.039153 250930.000000 0 0 1
-30.948803 -13.339204 11.154267 35.499020 0.406949 1.251168 0.134160 -0.042245 -240136.000000 0 0 1
-30.173003 -14.417804 11.648367 35.411405 0.445761 1.235611 0.129445 -0.031537 -477307.000000 0 0 1
-28.793703 -14.317804 11.011067 33.990005 0.461449 1.240895 0.135914 -0.024641 -759363.000000 0 0 1
-28.839703 -14.547004 9.604267 33.698453 0.467169 1.281783 0.134206 -0.029425 1020940.000000 0 0 1
-27.520903 -14.581204 9.003967 32.420410 0.487220 1.289371 0.121408 -0.024704 968602.000000 0 0 1
-27.504503 -14.493404 7.500667 31.981501 0.484972 1.334060 0.168344 -0.022044 17659.500000 0 0 1
-28.042703 -15.614904 6.827967 32.815233 0.508069 1.361192 0.175849 -0.009947 92768.400000 0 0 1
-28.234803 -15.317904 5.473967 32.585374 0.497081 1.402008 0.198056 -0.010873 -136635.000000 0 0 1
-28.844003 -16.344804 4.479267 33.454341 0.515546 1.436501 0.168600 -0.008572 1020480.000000 0 0 1
-30.276503 -16.476004 4.534967 34.766237 0.498367 1.439982 0.112578 -0.014283 823607.000000 0 0 1
-30.697303 -17.413104 3.587067 35.474042 0.515992 1.469505 0.118479 -0.016805 260599.000000 0 0 1
-32.226503 -17.640104 3.688667 36.923258 0.500829 1.470728 0.135212 -0.032069 1014840.000000 0 0 1
-33.196403 -16.690004 3.174867 37.291248 0.465858 1.485556 0.177529 -0.031578 942550.000000 0 0 1
-34.528503 -17.067704 3.459767 38.671617 0.459083 1.481211 0.170943 -0.033111 213048.000000 0 0 1
-35.627103 -16.248404 2.769267 39.255190 0.427889 1.500192 0.149820 -0.035344 -57554.200000 0 0 1
-35.574803 -16.392304 1.318467 39.191996 0.431786 1.537149 0.152771 -0.033602 -31084.300000 0 0 1
-36.379203 -15.373904 0.782167 39.502090 0.399837 1.550994 0.195586 -0.034847 -156605.000000 0 0 1
-36.941203 -15.910904 -0.579733 40.226178 0.406696 1.585209 0.150435 -0.032891 62760.900000 0 0 1
-35.926003 -16.043604 -1.585533 39.377517 0.420001 1.611072 0.164325 -0.029496 651434.000000 0 0 1
-36.245303 -16.984404 -2.601733 40.111856 0.438210 1.635704 0.138937 -0.017555 -109815.000000 0 0 1
-34.969003 -17.580604 -3.223733 39.272143 0.465844 1.652976 0.110757 -0.011989 -97724.000000 0 0 1
-35.322803 -18.500604 -4.189733 40.093972 0.482473 1.675485 0.112540 -0.016259 -7866.390000 0 0 1
-34.228403 -19.233704 -4.690633 39.541383 0.511951 1.689702 0.104246 -0.019609 -431428.000000 0 0 1
-34.556303 -20.277404 -5.765033 40.478967 0.530652 1.713703 0.102090 -0.022886 -616806.000000 0 0 1
-35.284703 -21.341104 -5.244633 41.568728 0.543960 1.697301 0.122297 -0.028494 -228692.000000 0 0 1
-35.732603 -22.194504 -6.307433 42.534675 0.555810 1.719634 0.133452 -0.025817 45308.700000 0 0 1
-36.592703 -23.361704 -5.819133 43.802482 0.568195 1.704040 0.142037 -0.024012 462006.000000 0 0 1
-35.778603 -24.360404 -5.151633 43.589873 0.597768 1.689257 0.180623 -0.027147 476727.000000 0 0 1
-36.550403 -25.490404 -4.829733 44.822081 0.608982 1.678759 0.146220 -0.016526 -126710.000000 0 0 1
-35.691203 -26.585804 -4.247833 44.706946 0.640219 1.665955 0.121243 -0.015833 -410751.000000 0 0 1
-34.825003 -27.216104 -5.214133 44.504880 0.663365 1.688225 0.109019 -0.018287 775660.000000 0 0 1
-33.983603 -28.234204 -4.673633 44.428576 0.693252 1.676186 0.095958 -0.019669 1377390.000000 0 0 1
-32.866103 -27.858304 -3.559933 43.231226 0.703117 1.653236 0.111145 -0.034070 617609.000000 0 0 1
-33.440703 -27.544404 -2.286033 43.384337 0.689014 1.623513 0.076662 -0.024718 610991.000000 0 0 1
-32.400603 -27.615604 -1.298733 42.592339 0.705838 1.601293 0.097023 -0.031144 392200.000000 0 0 1
-32.885703 -27.429704 0.139767 42.823798 0.695186 1.567533 0.074940 -0.019566 18143.800000 0 0 1
-33.503803 -28.599904 0.680967 44.055908 0.706599 1.555339 0.071811 -0.003936 24557.800000 0 0 1
-34.327303 -28.377704 1.795867 44.574465 0.690799 1.530496 0.069759 0.001506 -145740.000000 0 0 1
-34.917903 -29.688504 2.326567 45.892048 0.704632 1.520078 0.060285 0.011598 -420186.000000 0 0 1
-35.737303 -29.637704 3.495167 46.559258 0.692366 1.495656 0.051794 0.013971 572230.000000 0 0 1
-36.414503 -30.845804 3.866767 47.879343 0.702793 1.489948 0.045264 0.020701 590130.000000 0 0 1
-37.353003 -31.584404 2.871167 49.000663 0.701914 1.512168 0.031182 0.020629 -124408.000000 0 0 1
37.970353 -32.606004 3.441367 50.167143 -0.709536 1.502144 0.061817 0.014828 461317.000000 0 0 1
36.999353 -33.165704 2.551167 49.753638 -0.730815 1.519498 0.065693 0.010448 -363003.000000 0 0 1
35.915353 33.553161 3.315467 49.261745 0.751407 1.503442 0.072358 0.002750 -636301.000000 0 0 1
35.048653 -33.213604 4.225567 48.470682 -0.758522 1.483508 0.070975 -0.000557 1099300.000000 0 0 1
34.191353 -32.120904 3.815367 47.067591 -0.754186 1.489646 0.071429 0.003883 460443.000000 0 0 1
33.129753 -32.458004 2.738667 46.460767 -0.775157 1.511816 0.075773 0.003378 -452352.000000 0 0 1
33.725253 -32.800504 1.508867 47.069549 -0.771498 1.538735 0.074892 0.009524 -181175.000000 0 0 1
32.775653 -32.674804 0.470267 46.282906 -0.783857 1.560635 0.075813 0.006219 -574054.000000 0 0 1
33.241753 -33.365204 -0.829133 47.105609 -0.787252 1.588399 0.071143 0.003317 481124.000000 0 0 1
34.278453 -32.871704 -1.653433 47.521522 -0.764452 1.605597 0.062814 0.011743 101578.000000 0 0 1
35.512953 -32.635304 -1.009633 48.241603 -0.743197 1.591727 0.054889 0.015630 27924.800000 0 0 1
36.783853 -32.436904 -1.912333 49.080155 -0.722682 1.609770 0.045867 0.017403 591898.000000 0 0 1
37.213653 -33.637204 -2.557633 50.228069 -0.734962 1.621739 0.053225 0.009386 75426.800000 0 0 1
-37.946703 -33.262804 -3.503433 50.583005 0.719716 1.640113 0.051261 0.011142 -375925.000000 0 0 1
-37.302303 32.975161 -4.225833 49.966796 -0.723904 1.655470 0.048386 0.000545 611199.000000 0 0 1
-36.182303 32.462361 -3.471033 48.734095 -0.731260 1.642081 0.072954 0.001195 523724.000000 0 0 1
-35.592203 31.389561 -4.134933 47.636195 -0.722737 1.657708 0.096034 -0.011465 -286575.000000 0 0 1
-34.352303 30.813561 -3.441933 46.275297 -0.731148 1.645245 0.107514 -0.024647 552558.000000 0 0 1
-33.173103 31.640861 -3.611733 45.985253 -0.761762 1.649418 0.098895 -0.029285 1296070.000000 0 0 1
-31.912303 31.067061 -3.266933 44.656805 -0.771978 1.644018 0.143866 -0.040541 1012740.000000 0 0 1
-31.465603 31.025861 -1.767833 44.224580 -0.778361 1.610781 0.138409 -0.024786 131062.000000 0 0 1
-32.415403 30.252061 -1.067433 44.351831 -0.750891 1.594866 0.117370 -0.021638 228973.000000 0 0 1
-31.908003 30.092661 0.284967 43.860804 -0.756127 1.564299 0.133623 -0.032521 70534.700000 0 0 1
-33.004703 29.484761 1.201467 44.273074 -0.729129 1.543655 0.131222 -0.040433 228760.000000 0 0 1
-33.417203 28.204561 0.800167 43.736106 -0.701008 1.552500 0.139271 -0.050204 89520.800000 0 0 1
-34.493903 28.297961 -0.123233 44.616355 -0.687042 1.573558 0.118232 -0.037770 -474368.000000 0 0 1
-34.608903 26.963761 -0.905733 43.882125 -0.661866 1.591438 0.122483 -0.031057 81008.700000 0 0 1
-35.017703 25.875661 -0.159133 43.540954 -0.636379 1.574451 0.117484 -0.041205 -90850.700000 0 0 1
-35.225803 24.710661 -0.948533 43.039211 -0.611727 1.592837 0.118628 -0.028109 -218168.000000 0 0 1
-35.378303 23.379861 -0.149133 42.405948 -0.583967 1.574313 0.128970 -0.027017 429445.000000 0 0 1
-34.207303 22.991061 0.577467 41.219679 -0.591761 1.556786 0.155139 -0.035731 298831.000000 0 0 1
-33.823003 23.700761 1.712667 41.335878 -0.611215 1.529352 0.157970 -0.042026 127495.000000 0 0 1
-32.291303 23.459261 2.034267 39.965027 -0.628283 1.519873 0.137073 -0.048793 1510010.000000 0 0 1
-31.317803 24.211261 1.300467 39.606580 -0.658111 1.537956 0.154221 -0.044683 236158.000000 0 0 1
-31.288803 25.580961 1.681767 40.450007 -0.685366 1.529208 0.146201 -0.044451 -402949.000000 0 0 1
-30.553503 26.489961 0.690367 40.443926 -0.714282 1.553726 0.132835 -0.042910 691242.000000 0 0 1
-29.176303 26.207161 0.431767 39.220637 -0.731839 1.559787 0.126859 -0.038227 176188.000000 0 0 1
-28.640003 27.312361 -0.228433 39.576091 -0.761675 1.576568 0.114515 -0.027699 -223110.000000 0 0 1
-27.427703 26.896061 -1.076633 38.429626 -0.775612 1.598816 0.107756 -0.023717 -663391.000000 0 0 1
-27.719503 25.902561 -2.074533 37.994963 -0.751527 1.625424 0.121705 -0.028616 -1049800.000000 0 0 1
-26.680003 25.419661 -2.825033 36.958930 -0.761212 1.647308 0.117117 -0.007620 -1061590.000000 0 0 1
-25.797103 24.442561 -2.109633 35.600279 -0.758443 1.630090 0.104787 -0.015918 -441225.000000 0 0 1
-26.412503 23.196861 -1.870133 35.202444 -0.720669 1.623946 0.076715 -0.016352 -386832.000000 0 0 1
-25.500403 22.416761 -1.145733 33.971965 -0.721133 1.604529 0.097380 -0.038964 -700811.000000 0 0 1
-25.965003 20.999561 -0.647433 33.400331 -0.680062 1.590182 0.137080 -0.047908 -764600.000000 0 0 1
-26.890403 21.011361 0.447967 34.128752 -0.663278 1.557670 0.133413 -0.046407 -178999.000000 0 0 1
-28.186403 21.426861 0.148567 35.406295 -0.649987 1.566600 0.137824 -0.048729 -822546.000000 0 0 1
-28.981303 20.796761 -1.016633 35.685497 -0.622436 1.599289 0.149022 -0.054210 -1452750.000000 0 0 1
-29.369203 19.428561 -0.748733 35.221863 -0.584437 1.592056 0.177012 -0.061334 259469.000000 0 0 1
-29.940603 18.774261 -1.874833 35.389653 -0.560072 1.623798 0.169720 -0.052858 23912.500000 0 0 1
-30.126803 17.239761 -1.684733 34.751574 -0.519758 1.619295 0.168899 -0.044537 414116.000000 0 0 1
-31.036603 16.903661 -0.619033 35.346678 -0.498716 1.588310 0.174884 -0.038546 561769.000000 0 0 1
-31.333203 15.532461 -0.524533 34.975735 -0.460217 1.585794 0.182431 -0.047378 457146.000000 0 0 1
-30.230603 14.689961 0.232167 33.611578 -0.452329 1.563889 0.244271 -0.051977 312871.000000 0 0 1
-30.158703 14.785561 1.665567 33.629366 -0.455824 1.521249 0.263447 -0.050323 -869677.000000 0 0 1
-28.932403 14.421461 2.182167 32.400993 -0.462410 1.503397 0.304258 -0.061176 -723822.000000 0 0 1
-28.699603 12.881961 2.303567 31.542329 -0.421901 1.497700 0.326722 -0.063248 -177302.000000 0 0 1
-28.371003 12.141061 1.143267 30.880839 -0.404357 1.533766 0.314572 -0.064086 248017.000000 0 0 1
-28.053603 10.800561 1.423967 30.094591 -0.367506 1.523462 0.363638 -0.067199 -3821.320000 0 0 1
-27.902903 10.070661 0.060967 29.664691 -0.346368 1.568741 0.347682 -0.052598 -2538.450000 0 0 1
-29.185103 9.832761 -0.475433 30.800640 -0.324966 1.586233 0.331978 -0.048970 100410.000000 0 0 1
-29.118503 9.090561 -1.646433 30.548915 -0.302604 1.624717 0.336503 -0.050740 57036.300000 0 0 1
-30.457603 8.710061 -2.326733 31.763885 -0.278539 1.644113 0.306549 -0.051063 -30001.600000 0 0 1
-30.255103 7.805261 -3.382233 31.428217 -0.252477 1.678623 0.320033 -0.045530 1276030.000000 0 0 1
-31.515403 7.487661 -4.050633 32.644958 -0.233262 1.695198 0.289845 -0.040122 1217820.000000 0 0 1
-11.945747 17.855261 -20.175433 29.471331 -0.981158 2.324821 0.164181 -0.023207 439692.000000 0 0 1
-12.145347 16.845661 -21.160333 29.648701 -0.946130 2.365565 0.152608 -0.042074 1329840.000000 0 0 1
-10.844847 16.225861 -21.456933 29.004987 -0.981617 2.403520 0.153484 -0.042056 1497690.000000 0 0 1
-10.982247 14.928961 -22.310833 29.004429 -0.936553 2.448418 0.138261 -0.028497 -431440.000000 0 0 1
-9.861947 14.105661 -22.215933 28.102942 -0.960642 2.482454 0.172694 -0.053318 -341596.000000 0 0 1
-9.950047 13.017861 -23.150033 28.361808 -0.918182 2.525668 0.161050 -0.051882 -224882.000000 0 0 1
-8.907247 11.922661 -22.954733 27.357059 -0.929163 2.566384 0.147988 -0.043497 -624231.000000 0 0 1
-7.583847 12.316861 -23.120133 27.271970 -1.018892 2.582547 0.098327 -0.035036 -515097.000000 0 0 1
-6.681147 11.470161 -22.394533 26.033007 -1.043358 2.606529 0.092028 -0.026606 300097.000000 0 0 1
-5.205547 11.790561 -22.686633 26.092113 -1.155032 2.624950 0.056281 -0.016118 -148229.000000 0 0 1
-4.843747 11.207661 -23.897433 26.835813 -1.162858 2.669251 0.055050 -0.027226 236522.000000 0 0 1
-3.429847 11.368561 -24.057033 26.828136 -1.277784 2.683074 0.045469 -0.014650 628712.000000 0 0 1
-2.918347 10.927361 -25.441713 27.842499 -1.309819 2.723272 0.087630 -0.030766 -140792.000000 0 0 1
-2.839747 9.512261 -25.480483 27.345974 -1.280684 2.770087 0.094525 -0.035069 72532.100000 0 0 1
-2.150047 9.053761 -26.645093 28.223293 -1.337640 2.805594 0.107644 -0.039097 -25453.700000 0 0 1
-1.970247 7.510761 -26.747153 27.851456 -1.314253 2.859052 0.116273 -0.019323 -74105.700000 0 0 1
-0.831947 6.939861 -26.151323 27.069272 -1.451486 2.880424 0.106886 -0.026864 42044.400000 0 0 1
-0.923547 6.895761 -24.718833 25.679275 -1.437659 2.867232 0.117739 -0.043808 481978.000000 0 0 1
0.107453 5.879261 -24.058833 24.767008 1.552522 2.901881 0.049610 -0.030935 314440.000000 0 1 0
1.478453 6.202661 -24.079833 24.909781 1.336805 2.882730 0.065595 -0.009110 166826.000000 0 1 0
2.278853 5.527961 -23.122133 23.882725 1.179782 2.888541 0.050650 -0.001680 360964.000000 0 1 0
2.097753 6.013061 -21.610733 22.529564 1.235132 2.855014 0.038824 -0.013305 -170809.000000 0 1 0
2.572253 7.368461 -21.528433 22.899435 1.234933 2.793806 0.040343 -0.024288 299700.000000 0 1 0
2.447953 7.987661 -20.269533 21.923713 1.273417 2.750645 0.055901 -0.027326 1977.850000 0 1 0
2.955753 9.433661 -20.424433 22.691142 1.267165 2.690809 0.043301 -0.024905 -242683.000000 0 1 0
2.705453 10.216161 -19.317133 22.019107 1.311918 2.640982 0.060964 -0.034075 306936.000000 0 1 0
3.224653 11.530261 -19.524833 22.903371 1.298095 2.591521 0.075729 -0.030507 649657.000000 0 1 0
4.616053 11.780261 -18.856133 22.707625 1.197339 2.550599 0.084149 -0.033924 539141.000000 0 1 0
5.685553 11.008761 -19.332033 22.961834 1.094070 2.571628 0.082990 -0.030669 -684291.000000 0 1 0
6.755453 10.921261 -18.443933 22.474180 1.016842 2.533383 0.086777 -0.020889 -41712.200000 0 1 0
7.841553 9.882261 -18.863233 22.692964 0.900033 2.552126 0.114984 -0.035397 30655.500000 0 1 0
7.517353 8.528861 -19.018833 22.157799 0.848352 2.602814 0.095070 -0.026538 -41893.200000 0 1 0
6.689753 8.216861 -20.130833 22.749067 0.887487 2.657093 0.066317 -0.019021 201339.000000 0 1 0
6.380153 6.689461 -20.126933 22.148333 0.809060 2.711036 0.079434 -0.023343 -314346.000000 0 1 0
7.548153 5.995561 -20.459533 22.616672 0.671261 2.701288 0.073066 -0.013631 -124466.000000 0 1 0
7.429753 4.613761 -20.536233 22.320952 0.555707 2.738986 0.062136 -0.012528 -74330.100000 0 1 0
7.756653 4.196461 -22.015233 23.715953 0.495918 2.760578 0.083589 -0.028799 58878.100000 0 1 0
6.753653 4.723061 -22.876933 24.316110 0.610279 2.795820 0.077448 -0.023308 171994.000000 0 1 0
7.044253 4.588461 -24.244233 25.660442 0.577342 2.807809 0.082344 -0.026103 -314524.000000 0 0 1
6.196353 5.495561 -25.108533 26.439259 0.725532 2.822972 0.074948 -0.022391 -287905.000000 0 0 1
6.472553 6.883261 -25.022433 26.746876 0.816140 2.780545 0.068734 -0.035197 68958.400000 0 0 1
6.181353 7.551561 -23.734433 25.662395 0.884845 2.751495 0.093328 -0.044930 -525580.000000 0 0 1
6.041153 9.085561 -23.943833 26.312546 0.984005 2.714027 0.108526 -0.051978 241890.000000 0 0 1
4.902253 9.513461 -24.659333 26.881606 1.094987 2.732120 0.104665 -0.052528 835202.000000 0 0 1
3.646353 9.501361 -23.953633 26.025916 1.204358 2.739838 0.099219 -0.050911 -396667.000000 0 0 1
2.441853 9.560661 -24.824333 26.713600 1.320736 2.763247 0.124039 -0.033885 -998863.000000 0 0 1
2.301253 10.868761 -25.295053 27.627259 1.362147 2.727752 0.145027 -0.042423 -87215.000000 0 0 1
1.312853 10.933161 -26.292043 28.504896 1.451289 2.744966 0.165241 -0.048897 87343.000000 0 0 1
0.830353 12.354261 -26.757903 29.483939 1.503685 2.708189 0.145685 -0.052436 178074.000000 0 0 1
0.056453 13.071961 -25.835273 28.954114 1.566478 2.673174 0.131467 -0.042698 -89386.900000 0 0 1
-0.363947 14.324461 -26.331103 29.977485 -1.545394 2.643222 0.132577 -0.049742 174213.000000 0 0 1
-0.972547 15.191861 -25.172123 29.417244 -1.506866 2.597684 0.128910 -0.055316 605455.000000 0 0 1
-2.234247 14.744961 -24.667533 28.825213 -1.420414 2.597819 0.109206 -0.036453 331637.000000 0 0 1
-2.408547 15.453061 -23.486733 28.217456 -1.416178 2.554126 0.101680 -0.037926 63147.200000 0 0 1
-3.670547 15.049661 -22.585633 27.387516 -1.331571 2.540413 0.088741 -0.037915 1991330.000000 0 0 1
-4.932047 15.656861 -22.932733 28.202352 -1.265628 2.520339 0.085000 -0.033611 638559.000000 0 0 1
-5.409047 15.263861 -24.214533 29.130514 -1.230234 2.552136 0.093787 -0.046246 1015730.000000 0 0 1
-7.007347 15.198561 -24.422433 29.606662 -1.138789 2.540815 0.083088 -0.042440 1988050.000000 0 0 1
-7.565547 16.476661 -24.630333 30.583838 -1.140345 2.507042 0.089441 -0.038289 -507424.000000 0 0 1
-8.933847 16.319161 -24.877933 31.065096 -1.069917 2.499480 0.103476 -0.037418 -285920.000000 0 0 1
-9.760647 17.570861 -25.273743 32.291911 -1.063739 2.469732 0.112403 -0.034491 225964.000000 0 0 1
-9.854547 18.550961 -24.269833 32.097898 -1.082490 2.428159 0.116863 -0.035272 -96897.000000 0 0 1
-11.052247 19.247061 -24.511833 33.067076 -1.049541 2.405766 0.105232 -0.020510 102251.000000 0 0 1
-11.067447 20.529461 -23.555333 33.148166 -1.076360 2.361158 0.093419 -0.024789 508319.000000 0 0 1
-10.247547 21.656561 -23.907033 33.846198 -1.128830 2.355115 0.127802 -0.014137 537859.000000 0 0 1
-11.103147 22.750661 -24.160833 34.994547 -1.116765 2.332862 0.103490 -0.017155 171452.000000 0 0 1
-11.192147 23.174461 -25.711163 36.378341 -1.120880 2.355720 0.089592 -0.010936 -164347.000000 0 0 1
-11.812547 22.170861 -26.487463 36.505740 -1.081257 2.382658 0.102073 -0.010661 5917.230000 0 0 1
-11.800747 22.545761 -27.793023 37.683168 -1.088594 2.400224 0.094194 -0.005690 3597.390000 0 0 1
-12.514847 21.547261 -28.756533 38.050546 -1.044607 2.427588 0.098185 -0.006831 75880.700000 0 0 1
-11.742347 20.458461 -29.257373 37.582246 -1.049744 2.463052 0.103260 -0.019326 -107939.000000 0 0 1
-11.568347 19.385161 -28.321903 36.217970 -1.032760 2.468640 0.104086 -0.015582 -320336.000000 0 0 1
-10.458647 18.470161 -28.844593 35.812577 -1.055566 2.507200 0.083607 -0.018658 -1464500.000000 0 0 1
-9.202547 19.044861 -28.691993 35.645814 -1.120676 2.506335 0.079414 -0.025597 -784351.000000 0 0 1
-8.071847 18.349761 -29.138723 35.368540 -1.156383 2.538984 0.075166 -0.029569 196339.000000 0 0 1
-7.802547 16.955961 -28.521443 34.086025 -1.139521 2.562115 0.094161 -0.039925 -1743130.000000 0 0 1
-8.732947 15.985261 -28.834253 34.105822 -1.070789 2.578175 0.057154 -0.028166 -406780.000000 0 0 1
-8.406247 14.822261 -28.154513 32.909589 -1.054892 2.597333 0.068722 -0.040802 -134433.000000 0 0 1
-9.627247 13.880261 -28.076483 32.766361 -0.964384 2.599962 0.066108 -0.030115 37182.900000 0 0 1
-10.499047 14.337161 -27.049983 32.364885 -0.938722 2.560352 0.086911 -0.034222 -349458.000000 0 0 1
-11.620147 13.487361 -26.920783 32.274840 -0.859630 2.557315 0.137929 -0.045412 245745.000000 0 0 1
-12.576647 14.031161 -25.824823 31.968219 -0.840009 2.511254 0.141864 -0.044772 -3607.440000 0 0 1
-13.276847 15.191561 -26.179923 33.052180 -0.852555 2.485003 0.125068 -0.038184 -131841.000000 0 0 1
-14.241747 15.583061 -25.203613 32.876759 -0.830341 2.444339 0.116486 -0.034373 1166610.000000 0 0 1
-15.389247 16.527661 -25.699493 34.211934 -0.821051 2.420652 0.096516 -0.024434 217467.000000 0 0 1
-14.852047 17.793261 -25.901393 34.757238 -0.875252 2.411644 0.094232 -0.017200 -607747.000000 0 0 1
-15.736947 18.835761 -26.172833 35.881118 -0.874791 2.388287 0.072956 -0.010474 -801980.000000 0 0 1
-15.174047 20.237461 -26.379873 36.547288 -0.927423 2.377198 0.078028 -0.015251 -132488.000000 0 0 1
-16.184747 21.212461 -26.634743 37.700452 -0.919038 2.355313 0.042943 -0.001407 259512.000000 0 0 1
-15.725947 22.535261 -26.908593 38.460575 -0.961523 2.345691 0.051902 -0.003011 47336.400000 0 0 1
-15.102047 23.290061 -25.657693 37.799682 -0.995523 2.316897 0.037289 -0.003751 97858.900000 0 0 1
-15.058147 24.663661 -25.920123 38.818768 -1.022663 2.301940 0.047276 -0.007143 -51934.200000 0 0 1
-14.362547 25.266961 -24.871133 38.252782 -1.053912 2.278616 0.054764 -0.013215 -89149.900000 0 0 1
-13.952147 26.750361 -25.233133 39.331352 -1.090043 2.267317 0.068168 -0.021211 397238.000000 0 0 1
-15.016647 27.694361 -25.235943 40.364962 -1.073940 2.246177 0.084325 -0.018291 89382.000000 0 0 1
-15.473947 28.164561 -23.973333 40.092471 -1.068405 2.211739 0.084173 -0.021119 325748.000000 0 0 1
-16.752947 29.043461 -24.160833 41.327107 -1.047593 2.195213 0.072105 -0.015831 499082.000000 0 0 1
-17.871347 28.281461 -24.586033 41.517456 -1.007243 2.204565 0.049212 -0.012286 -264520.000000 0 0 1
-18.974847 29.094161 -24.918433 42.748606 -0.992885 2.193097 0.045185 -0.010799 -149891.000000 0 0 1
-20.269247 28.313861 -25.170123 42.965710 -0.949494 2.196686 0.050189 0.003711 -384522.000000 0 0 1
-20.896247 27.956061 -23.969633 42.340735 -0.928918 2.172579 0.044306 0.002806 -196926.000000 0 0 1
-21.861047 26.943961 -24.218933 42.313581 -0.889171 2.180187 0.041364 -0.012738 -177289.000000 0 0 1
-22.461547 26.336361 -22.961033 41.537141 -0.864637 2.156497 0.041468 -0.013991 -666499.000000 0 0 1
-23.241947 27.227661 -22.273133 42.161903 -0.864207 2.127365 0.045204 -0.007570 -499538.000000 0 0 1
-23.539447 26.861461 -20.940533 41.402290 -0.851215 2.101085 0.037119 -0.004319 -427145.000000 0 0 1
-24.574747 27.792561 -20.287933 42.284097 -0.846768 2.071224 0.030921 0.000313 288819.000000 0 0 1
-25.901227 27.551461 -20.727833 43.123076 -0.816261 2.072211 0.060551 -0.008581 531520.000000 0 0 1
-26.866707 28.556661 -20.396233 44.196258 -0.815880 2.050473 0.064091 -0.006827 260206.000000 0 0 1
-28.313857 28.101461 -20.573133 44.884523 -0.781633 2.046942 0.070473 -0.004293 -289080.000000 0 0 1
-28.614677 27.820261 -21.940733 45.542974 -0.771322 2.073457 0.072997 -0.013285 -13721.100000 0 0 1
-29.984797 27.499161 -22.109733 46.304775 -0.742185 2.068584 0.093009 -0.012283 115316.000000 0 0 1
-30.246117 26.906361 -23.491533 46.804188 -0.727029 2.096603 0.095041 -0.021541 76307.500000 0 0 1
-29.979367 25.522661 -23.751733 45.981665 -0.705272 2.113611 0.099379 -0.003873 -15834.100000 0 0 1
-30.269447 25.285261 -25.136313 46.769842 -0.695921 2.138203 0.124340 -0.010516 32411.500000 0 0 1
-30.569037 23.820361 -25.480103 46.380074 -0.661948 2.152414 0.107576 -0.012236 -142779.000000 0 0 1
-29.497097 22.902461 -25.485953 45.212114 -0.660203 2.169652 0.124740 -0.023357 39646.600000 0 0 1
-29.928447 21.600761 -25.998403 45.146670 -0.625173 2.184459 0.120582 -0.021774 -317415.000000 0 0 1
-28.809017 20.562861 -26.060203 43.953668 -0.619904 2.205454 0.126735 -0.023425 -131228.000000 0 0 1
-28.317227 20.062861 -24.811033 42.661119 -0.616410 2.191471 0.116657 -0.014229 489245.000000 0 0 1
-27.622637 18.808761 -24.868433 41.655955 -0.597804 2.210548 0.097181 -0.020537 435147.000000 0 0 1
-28.613877 17.598161 -24.811833 41.762140 -0.551392 2.206971 0.086314 -0.011458 189222.000000 0 0 1
-29.402297 17.475661 -25.972483 42.947220 -0.536265 2.220253 0.078330 -0.009529 28017.200000 0 0 1
-30.128027 16.268361 -25.760703 42.848237 -0.495113 2.215808 0.057482 -0.009868 -65759.800000 0 0 1
-30.963257 15.843761 -26.996733 44.029214 -0.472960 2.230845 0.050609 -0.009105 -32751.100000 0 0 1
-32.160737 16.530261 -27.260723 45.284761 -0.474776 2.216780 0.048629 -0.007284 -124473.000000 0 0 1
-32.849097 15.973761 -28.344213 46.234388 -0.452609 2.230718 0.052598 -0.001370 295549.000000 0 0 1
-34.107481 16.776661 -28.776273 47.674422 -0.457128 2.218805 0.058475 -0.006398 544033.000000 0 0 1
-35.258700 16.649661 -27.946793 47.973017 -0.441173 2.192662 0.040996 -0.004650 573701.000000 0 0 1
-36.434627 16.802761 -28.757023 49.363764 -0.432109 2.192663 0.063930 -0.003596 431688.000000 0 0 1
-37.669257 16.274561 -27.997033 49.675629 -0.407817 2.169530 0.066674 -0.010527 -200497.000000 0 0 1
37.998548 17.151661 -26.990013 49.664172 0.423998 2.145338 0.075236 -0.019607 603048.000000 0 0 1
36.797228 16.606361 -26.416003 48.245336 0.423929 2.150212 0.090261 -0.020665 645365.000000 0 0 1
36.161018 17.523961 -25.337643 47.504785 0.451259 2.133376 0.098719 -0.020096 41733.100000 0 0 1
35.378528 18.600761 -25.824073 47.586882 0.484046 2.144411 0.101822 -0.038841 288055.000000 0 0 1
34.851278 19.397861 -24.753133 46.942584 0.507888 2.126224 0.120360 -0.035216 228186.000000 0 0 1
33.955868 20.625161 -25.067833 46.976532 0.545851 2.133677 0.123148 -0.051722 748230.000000 0 0 1
32.663618 20.350161 -25.605293 46.224150 0.557176 2.157883 0.134816 -0.056656 311983.000000 0 0 1
31.776528 21.388161 -25.245753 45.875366 0.592430 2.153534 0.137147 -0.043821 743087.000000 0 0 1
30.333008 21.336861 -25.851173 45.206594 0.613018 2.179550 0.109457 -0.043105 777703.000000 0 0 1
29.677908 20.133761 -25.572223 44.046398 0.596088 2.190231 0.138675 -0.062538 -419598.000000 0 0 1
28.502408 19.902961 -26.314353 43.600004 0.609578 2.218730 0.126417 -0.051692 167802.000000 0 0 1
27.936908 18.412461 -26.256993 42.531391 0.582727 2.236173 0.135633 -0.033359 462819.000000 0 0 1
28.761508 17.491061 -26.993373 43.148624 0.546384 2.246685 0.130005 -0.027270 1235940.000000 0 0 1
29.800908 16.830161 -26.203943 43.104467 0.514100 2.224231 0.149428 -0.029579 1131630.000000 0 0 1
30.879308 16.099261 -27.058883 44.101032 0.480590 2.231365 0.123304 -0.017064 187650.000000 0 0 1
30.382008 14.932561 -27.704593 43.744626 0.456819 2.256639 0.131584 -0.023027 237333.000000 0 0 1
29.992408 13.883361 -26.797533 42.548796 0.433526 2.252101 0.141020 -0.020137 -400856.000000 0 0 1
31.136108 13.273661 -26.006113 42.684485 0.402980 2.225928 0.135626 -0.020447 -329246.000000 0 0 1
31.572828 13.884961 -24.786333 42.473497 0.414319 2.193916 0.130259 -0.034122 256279.000000 0 0 1
32.702598 13.165061 -24.325633 42.831241 0.382719 2.174799 0.109931 -0.033469 -286050.000000 0 0 1
-15.040547 -31.008304 -23.797833 41.881617 1.119181 2.175133 0.116657 -0.015104 201835.000000 0 0 1
-14.451347 -29.829604 -24.306233 41.102794 1.119655 2.203531 0.111044 -0.025755 93752.100000 0 0 1
-15.035447 -29.577904 -25.615143 41.917212 1.100504 2.228232 0.087685 -0.021174 424679.000000 0 0 1
-14.386247 -28.358504 -26.308513 41.271137 1.101326 2.261988 0.106464 -0.027611 -167109.000000 0 0 1
-14.884247 -27.093104 -25.920373 40.341577 1.068434 2.268582 0.103456 -0.014431 -184226.000000 0 0 1
-14.239347 -25.992104 -26.519193 39.769537 1.069618 2.300732 0.100796 -0.013784 -289859.000000 0 0 1
-14.648247 -24.542304 -25.990373 38.631533 1.032691 2.308751 0.056146 -0.015293 46795.500000 0 0 1
-14.141147 -24.259404 -24.705833 37.401456 1.043035 2.292358 0.102232 -0.029851 134715.000000 0 0 1
-14.605747 -23.003704 -24.231833 36.464777 1.005088 2.297657 0.073161 -0.029013 -116217.000000 0 0 1
-14.064047 -22.672704 -22.834533 35.117871 1.015579 2.278677 0.098123 -0.025000 -274466.000000 0 0 1
-12.685647 -22.410504 -22.825133 34.411379 1.055708 2.296019 0.132530 -0.041582 -378245.000000 0 0 1
-12.275647 -21.879704 -21.542833 33.068212 1.059508 2.280312 0.100345 -0.037045 918964.000000 0 0 1
-10.747047 -21.542104 -21.546033 32.307782 1.108041 2.300836 0.116981 -0.047324 621050.000000 0 0 1
-10.326647 -20.578404 -22.465933 32.168750 1.105694 2.343924 0.136659 -0.052879 -205122.000000 0 0 1
-8.919247 -20.507304 -22.519533 31.736916 1.160545 2.359683 0.170025 -0.058933 -95201.400000 0 0 1
-8.436947 -19.380404 -23.497133 31.605338 1.160205 2.409017 0.200584 -0.060138 -179518.000000 0 0 1
-8.566547 -18.148204 -22.865033 30.422899 1.129772 2.421240 0.138014 -0.056308 -221410.000000 0 0 1
-8.447847 -16.941504 -23.653733 30.296531 1.108231 2.466647 0.136472 -0.051527 -230285.000000 0 0 1
-7.050147 -16.619904 -24.203733 30.195140 1.169604 2.500725 0.172269 -0.061662 -201944.000000 0 0 1
-6.673247 -17.405004 -25.311543 31.434704 1.204673 2.506826 0.190376 -0.057833 19501.500000 0 0 1
-5.659147 -16.799004 -26.108433 31.557610 1.245863 2.545127 0.157570 -0.063094 106775.000000 0 0 1
-5.455047 -17.474604 -27.442913 32.988374 1.268212 2.553313 0.153235 -0.040687 260194.000000 0 0 1
-6.488247 -17.348304 -28.423063 33.925382 1.212904 2.564058 0.187120 -0.035839 281837.000000 0 0 1
-6.171747 -18.168904 -29.507533 35.197927 1.243338 2.565012 0.185724 -0.039567 -334168.000000 0 0 1
-7.202347 -18.083404 -30.631693 36.293029 1.191769 2.575514 0.206937 -0.039927 -357155.000000 0 0 1
-7.101947 -17.024804 -31.555103 36.551418 1.175591 2.612583 0.174224 -0.031694 -190145.000000 0 0 1
-7.488447 -15.743004 -31.023803 35.586449 1.126803 2.629635 0.142713 -0.021850 -298953.000000 0 0 1
-8.134447 -14.875004 -32.063833 36.270158 1.070372 2.655207 0.121712 -0.027589 3527.320000 0 0 1
-7.265547 -14.511204 -33.145663 36.905260 1.106601 2.686291 0.141905 -0.039467 121364.000000 0 0 1
-7.894947 -13.790104 33.260523 36.861356 1.050837 0.445688 0.132410 -0.027515 -49432.300000 0 0 1
-8.263647 -12.308104 33.641766 36.763375 0.979525 0.415067 0.093275 -0.025048 386006.000000 0 0 1
-7.165147 -11.404204 -33.718443 36.308795 1.009835 2.761574 0.082230 -0.030884 -58835.100000 0 0 1
-6.810147 -10.839204 32.508956 34.938498 1.009836 0.375124 0.073674 -0.027573 -31975.100000 0 0 1
-5.550547 -9.954504 32.636189 34.569084 1.062143 0.335985 0.099956 -0.039718 17240.900000 0 0 1
-5.339247 -9.186404 31.479909 33.224723 1.044306 0.325520 0.067967 -0.024638 657337.000000 0 0 1
-4.220047 -8.284904 31.697035 33.032567 1.099684 0.285328 0.076523 -0.038749 -95220.900000 0 0 1
-4.247347 -7.139804 30.654356 31.760137 1.034148 0.264653 0.060442 -0.028048 914791.000000 0 0 1
-5.345147 -6.195504 30.777086 31.846254 0.858949 0.259855 0.040413 -0.018573 -152784.000000 0 0 1
-6.539447 -6.665104 30.285606 31.692364 0.794914 0.299066 0.044303 -0.014768 -1069270.000000 0 0 1
-7.630247 -5.573604 30.170866 31.615928 0.630879 0.303510 0.036824 -0.010463 -157947.000000 0 0 1
-8.887747 -6.041204 29.795766 31.674530 0.596987 0.346152 0.060905 -0.011517 -158494.000000 0 0 1
-9.898247 -5.022704 29.702356 31.708560 0.469577 0.357628 0.053823 -0.017535 542308.000000 0 0 1
-11.109447 -5.471004 28.860036 31.404671 0.457601 0.405329 0.062573 -0.017404 -217485.000000 0 0 1
-10.721647 -5.686304 27.484226 30.044475 0.487638 0.415822 0.062813 -0.016305 482468.000000 0 0 1
-11.668347 -6.374704 26.663936 29.795178 0.500017 0.462572 0.060696 -0.019840 36775.300000 0 0 1
-11.370347 -6.237404 25.206496 28.347089 0.501743 0.475182 0.046089 -0.016363 -578556.000000 0 0 1
-10.352447 -6.972304 24.640366 27.621257 0.592714 0.468869 0.044153 -0.011554 -489755.000000 0 0 1
-9.815847 -6.474104 23.405536 26.193205 0.583064 0.465554 0.049671 -0.016208 -169391.000000 0 0 1
-10.705247 -6.590704 22.175436 25.490972 0.551849 0.515730 0.072500 -0.023928 -385643.000000 0 0 1
-11.879147 -5.825004 22.243136 25.880531 0.455902 0.536595 0.053557 -0.015784 -194340.000000 0 0 1
-12.515547 -5.833504 20.959836 25.099470 0.436162 0.582535 0.061647 -0.023357 -199864.000000 0 0 1
-13.558747 -4.714604 20.831636 25.298699 0.334639 0.603372 0.057293 -0.017457 -52436.300000 0 0 1
-13.055347 -3.445704 20.613236 24.641844 0.258046 0.579907 0.038623 -0.014050 136841.000000 0 1 0
-14.191047 -2.601804 20.557636 25.115167 0.181327 0.611941 0.053803 -0.010770 515703.000000 0 0 1
-13.873547 -1.243304 19.936136 24.320169 0.089378 0.609845 0.029659 -0.008937 374594.000000 0 1 0
-12.952547 -0.374304 20.621036 24.354378 0.028890 0.561030 0.032201 -0.002402 359034.000000 0 1 0
-13.177747 1.038696 20.388836 24.298900 -0.078659 0.575198 0.040373 -0.011587 -286989.000000 0 1 0
-12.863547 1.637696 18.966636 22.975774 -0.126632 0.599698 0.053050 -0.021105 422611.000000 0 1 0
-13.689447 1.255696 17.843636 22.524944 -0.091471 0.656436 0.061957 -0.015360 -554103.000000 0 1 0
-15.004147 1.699696 17.884336 23.406471 -0.112801 0.701188 0.052839 -0.014436 -504638.000000 0 1 0
-15.889847 0.732696 17.022236 23.297652 -0.046078 0.751535 0.086416 -0.015888 71999.900000 0 1 0
-16.073647 -0.552304 17.608636 23.848087 0.034347 0.740151 0.059640 -0.016899 89467.900000 0 1 0
-17.075147 -1.232304 16.896536 24.053527 0.072045 0.791954 0.082271 -0.014364 -181106.000000 0 1 0
-17.175747 -2.747104 17.216436 24.473629 0.158598 0.790530 0.075045 -0.008695 -91401.900000 0 1 0
-17.845847 -3.117304 18.398236 25.820281 0.172935 0.777671 0.088500 -0.005783 -3874.140000 0 0 1
-17.796847 -4.529404 18.643436 26.169084 0.249215 0.777853 0.105650 -0.011417 -243440.000000 0 0 1
-18.590147 -4.921904 19.877536 27.657461 0.258820 0.768859 0.102356 -0.010030 -255056.000000 0 0 1
-17.973747 -4.585204 21.134636 28.120322 0.249778 0.720344 0.096419 -0.002288 409582.000000 0 0 1
-18.795547 -4.733604 22.314536 29.557032 0.246716 0.715195 0.096969 -0.013377 -315464.000000 0 0 1
-18.746447 -6.221204 22.845386 30.200072 0.320424 0.712901 0.117941 -0.009872 1040470.000000 0 0 1
-17.471847 -6.629704 23.392476 29.940380 0.362667 0.674047 0.060317 -0.020407 847973.000000 0 0 1
-16.460247 -6.875904 22.446786 28.671868 0.395695 0.671506 0.080975 -0.011733 -220428.000000 0 0 1
-15.137347 -7.349704 23.126796 28.600806 0.452008 0.629017 0.093902 -0.015254 45867.800000 0 0 1
-15.117947 -8.665104 23.592076 29.329548 0.520455 0.636167 0.096192 -0.027493 -45260.800000 0 0 1
-15.202547 -8.762404 24.952016 30.504102 0.522869 0.612890 0.097614 -0.024555 -25844.100000 0 0 1
-16.425947 -9.590704 25.383286 31.719151 0.528479 0.643082 0.076870 -0.015787 -257766.000000 0 0 1
-16.275747 -11.011504 25.217436 31.969865 0.594820 0.661962 0.068769 -0.026851 -113399.000000 0 0 1
-15.565347 -11.628304 26.267456 32.672262 0.641619 0.636858 0.065732 -0.025318 -20529.300000 0 0 1
-15.673247 -13.152804 26.146836 33.200963 0.698184 0.664002 0.051255 -0.033647 -11010.700000 0 0 1
-16.933747 -13.635404 26.560296 34.323831 0.677916 0.685954 0.054887 -0.031614 -43845.300000 0 0 1
-17.175747 -15.016204 26.457006 34.935166 0.718415 0.711601 0.070580 -0.028673 -67810.700000 0 0 1
-16.350747 -16.011904 27.363836 35.672223 0.774928 0.696502 0.055232 -0.024737 156820.000000 0 0 1
-15.053447 -16.179104 26.843336 34.769733 0.821424 0.688765 0.080869 -0.039245 -534559.000000 0 0 1
-14.247547 -17.000704 27.608796 35.415564 0.873277 0.676823 0.096079 -0.041441 -90689.100000 0 0 1
-12.929647 -17.240404 26.819366 34.404734 0.927320 0.676888 0.102939 -0.053888 493388.000000 0 0 1
-11.797847 -17.659904 27.571386 34.802913 0.981831 0.656366 0.155387 -0.059522 379105.000000 0 0 1
-10.731647 -18.117104 26.764606 34.054983 1.036022 0.666608 0.160616 -0.065791 206522.000000 0 0 1
-9.687647 -18.912204 27.606776 34.837567 1.097402 0.655993 0.222937 -0.081059 312693.000000 0 0 1
-10.172947 -20.199604 28.048466 36.030949 1.104256 0.678596 0.221915 -0.067222 278369.000000 0 0 1
-9.118247 -20.766704 28.786036 36.647432 1.157060 0.667316 0.245649 -0.068942 150991.000000 0 0 1
-9.513547 -22.091204 29.523296 38.080886 1.164151 0.683640 0.228112 -0.073094 -260076.000000 0 0 1
-9.509447 -23.213304 28.643476 38.075396 1.181994 0.719276 0.274640 -0.077420 56433.400000 0 0 1
-9.826547 -24.360904 29.388166 39.416735 1.187385 0.729398 0.217161 -0.068669 -274559.000000 0 0 1
-9.909847 -25.623604 28.518406 39.598910 1.201767 0.766732 0.207227 -0.062254 502030.000000 0 0 1
-11.262647 -25.855004 28.124176 39.828353 1.159975 0.786772 0.181613 -0.062871 539232.000000 0 0 1
-11.344247 -27.072404 27.366006 40.131101 1.173990 0.820419 0.159710 -0.063763 610580.000000 0 0 1
-12.613947 -27.080904 26.415626 39.878219 1.134891 0.846769 0.137529 -0.056029 652102.000000 0 0 1
-12.655147 -26.285404 25.233266 38.571919 1.122097 0.857689 0.154587 -0.066211 92088.500000 0 0 1
-12.880547 -24.906104 25.441576 37.861541 1.093512 0.833939 0.130219 -0.049623 -443349.000000 0 0 1
-13.051347 -24.226704 24.062266 36.554938 1.076657 0.852305 0.122724 -0.059176 67341.300000 0 0 1
-14.235047 -24.652904 23.414296 36.859619 1.047146 0.882491 0.097617 -0.045267 130724.000000 0 0 1
-14.331647 -24.012404 22.173736 35.688461 1.032701 0.900378 0.109502 -0.048073 -137063.000000 0 0 1
-15.710347 -24.217604 21.532836 36.013475 0.995324 0.929905 0.104745 -0.048083 -326799.000000 0 0 1
-16.079647 -25.476704 21.009036 36.728696 1.007786 0.961847 0.119588 -0.046117 -269454.000000 0 0 1
-17.278847 -25.397304 20.295236 36.816820 0.973386 0.986936 0.111355 -0.046104 -184972.000000 0 0 1
-17.778447 -26.770004 19.864236 37.779547 0.984560 1.017149 0.098575 -0.039076 -254083.000000 0 0 1
-16.880947 -27.232504 18.917936 37.208386 1.015886 1.037433 0.090032 -0.038008 -337470.000000 0 0 1
-16.828547 -28.639904 18.713836 38.126785 1.039551 1.057752 0.104849 -0.029910 -142574.000000 0 0 1
-15.662447 -29.031204 17.810236 37.487699 1.076047 1.075724 0.109229 -0.032446 -167786.000000 0 0 1
-15.998447 -28.701504 16.476636 36.758757 1.062283 1.106004 0.108896 -0.041871 -356820.000000 0 0 1
-14.886747 -28.725304 15.636736 35.934188 1.092659 1.120592 0.105857 -0.045725 -575880.000000 0 0 1
-15.141147 -28.162504 14.206536 34.988664 1.077496 1.152688 0.110808 -0.039594 -215664.000000 0 0 1
-15.342147 -26.785304 14.133336 33.949745 1.050630 1.141422 0.112723 -0.048450 -70523.500000 0 0 1
-15.590247 -26.213704 12.863636 33.101166 1.034256 1.171668 0.120778 -0.049713 592134.000000 0 0 1
-14.429847 -26.298804 11.788636 32.230723 1.068961 1.196350 0.109587 -0.050139 729180.000000 0 0 1
-14.862747 -25.781804 10.543836 31.571746 1.047849 1.230290 0.100570 -0.039802 -213282.000000 0 0 1
-13.872947 -25.915304 9.542236 30.904950 1.079295 1.256906 0.114484 -0.035054 -148921.000000 0 0 1
-14.179347 -25.408704 8.130436 30.211920 1.061793 1.298324 0.132944 -0.037341 -623463.000000 0 0 1
-15.154247 -26.083304 7.410436 31.062912 1.044469 1.329911 0.120344 -0.047664 -559120.000000 0 0 1
-15.623747 -25.260504 6.396636 30.382750 1.016881 1.358674 0.114630 -0.046261 -254626.000000 0 0 1
-16.651647 -25.994304 5.523736 31.360690 1.001066 1.393737 0.113661 -0.057251 79293.300000 0 0 1
-16.054647 -27.109404 4.820736 31.873358 1.036119 1.418967 0.121957 -0.041338 279194.000000 0 0 1
-16.759947 -27.358404 3.615836 32.287031 1.021159 1.458571 0.164384 -0.038186 -638751.000000 0 0 1
-16.187447 -28.545704 2.848936 32.939446 1.054941 1.484198 0.163266 -0.035076 -314399.000000 0 0 1
-14.983347 -28.250204 2.189336 32.052580 1.083141 1.502439 0.121033 -0.019166 -87061.100000 0 0 1
-14.406347 -29.433804 1.601436 32.809393 1.115625 1.521967 0.106209 -0.021821 668108.000000 0 0 1
-13.007347 -29.175704 0.937036 31.957641 1.151417 1.541471 0.091144 -0.020632 557649.000000 0 0 1
-12.913247 -28.523004 -0.304564 31.311443 1.145674 1.580523 0.101137 -0.013080 -38036.500000 0 0 1
-12.905447 -27.095504 -0.225764 30.012795 1.126292 1.578319 0.088592 -0.015355 -225844.000000 0 0 1
-12.465447 -26.341504 -1.493864 29.180367 1.128798 1.622013 0.094638 -0.021061 -618592.000000 0 0 1
-11.182447 -26.610304 -1.930364 28.928908 1.172973 1.637574 0.107837 -0.025371 -1247950.000000 0 0 1
-10.704847 -25.739604 -2.880164 28.025280 1.176667 1.673748 0.115973 -0.026848 780693.000000 0 0 1
-9.308447 -26.242104 -3.395764 28.050427 1.229928 1.692153 0.111737 -0.031178 690814.000000 0 0 1
-8.894447 -25.539004 -4.541364 27.422179 1.235664 1.737172 0.110959 -0.035551 862289.000000 0 0 1
-7.575847 -25.945504 -5.006564 27.488695 1.286704 1.753950 0.120808 -0.027913 1130090.000000 0 0 1
-6.795047 -24.905804 -5.777364 26.454672 1.304449 1.790958 0.083084 -0.028844 -364834.000000 0 0 1
-7.167147 -24.610404 -7.102364 26.598563 1.287410 1.841096 0.100166 -0.032950 24237.700000 0 0 1
-6.387047 -23.535504 -7.668664 25.564091 1.305799 1.875466 0.081511 -0.029299 -359334.000000 0 0 1
-6.243347 -23.400204 -9.185664 25.902227 1.310063 1.933313 0.092794 -0.029933 -681914.000000 0 0 1
-5.386747 -24.355604 -9.704564 26.765483 1.353130 1.941829 0.057830 -0.030056 -466291.000000 0 0 1
-5.317047 -24.418404 -11.109064 27.348505 1.356396 1.989092 0.046312 -0.012698 -421235.000000 0 0 1
-6.368747 -25.220204 -11.883064 28.597672 1.323442 1.999317 0.087240 -0.018584 -293069.000000 0 0 1
-6.629047 -24.850904 -13.199664 28.909217 1.310114 2.044955 0.110821 -0.024459 255733.000000 0 0 1
-7.846847 -25.465604 -13.594064 29.914354 1.271893 2.042532 0.162061 -0.032699 -226016.000000 0 0 1
-8.164147 -25.234504 -15.085564 30.512419 1.257894 2.087949 0.162071 -0.039860 113220.000000 0 0 1
-7.228447 -25.725904 -16.062864 31.178329 1.296880 2.112029 0.143272 -0.049996 440826.000000 0 0 1
-6.042247 -24.979304 -16.176764 30.367122 1.333465 2.132592 0.137460 -0.039564 -557599.000000 0 0 1
-4.936547 -25.609404 -17.035764 31.151699 1.380369 2.149411 0.143108 -0.026287 -496960.000000 0 0 1
-5.212447 -25.710204 -18.406164 32.046389 1.370769 2.182618 0.211776 -0.045296 1131990.000000 0 0 1
-4.195247 -26.561004 -19.035664 32.946070 1.414143 2.186806 0.186758 -0.048675 1036810.000000 0 0 1
-27.020807 14.451761 -4.295833 30.942392 -0.491128 1.710079 0.200168 -0.057749 -60624.300000 0 0 1
-26.386937 13.291561 -3.776733 29.785899 -0.466617 1.697935 0.207826 -0.057286 533118.000000 0 0 1
-25.130867 13.038861 -4.400633 28.652015 -0.478605 1.724996 0.245021 -0.053892 350263.000000 0 0 1
-24.520247 11.671061 -4.034133 27.454151 -0.444245 1.718271 0.240544 -0.054598 20474.000000 0 0 1
-24.903847 10.659861 -4.926833 27.533760 -0.404443 1.750703 0.230172 -0.036558 301759.000000 0 0 1
-26.247837 10.206461 -4.894033 28.584478 -0.370857 1.742857 0.232626 -0.044791 115770.000000 0 0 1
-26.663157 9.567161 -6.255533 29.010105 -0.344507 1.788136 0.252979 -0.037820 -56847.400000 0 0 1
-26.739457 10.460661 -7.313333 29.629527 -0.372903 1.820200 0.290830 -0.036198 -110923.000000 0 0 1
-26.844207 9.826961 -8.538033 29.834186 -0.350922 1.861037 0.257394 -0.037246 -226582.000000 0 0 1
-27.058767 10.701161 -9.787733 30.700024 -0.376602 1.895279 0.255327 -0.039268 -38451.100000 0 0 1
-25.981847 11.544461 -10.126933 30.180884 -0.418127 1.912976 0.215627 -0.034499 146579.000000 0 0 1
-26.271607 12.126061 -11.394233 31.097705 -0.432430 1.945934 0.215588 -0.043141 157383.000000 0 0 1
-25.153587 13.091961 -11.863033 30.738151 -0.479898 1.967021 0.156684 -0.024985 51255.300000 0 0 1
-25.152207 14.253961 -11.037633 30.945731 -0.515580 1.935505 0.147977 -0.031693 -5882.990000 0 0 1
-24.454147 15.261261 -11.700633 31.109745 -0.557935 1.956389 0.126034 -0.025742 -337610.000000 0 0 1
-24.697347 16.621061 -11.102533 31.772392 -0.592367 1.927769 0.130296 -0.033950 -325227.000000 0 0 1
-24.130847 16.745761 -9.813933 30.968235 -0.606658 1.893259 0.133515 -0.026766 78488.200000 0 0 1
-24.033647 18.084861 -9.461433 31.530891 -0.645087 1.875561 0.091341 -0.014422 -317618.000000 0 0 1
-23.005447 18.347161 -8.354633 30.588704 -0.673223 1.847440 0.102357 -0.020395 -449128.000000 0 0 1
-23.128947 17.703761 -7.096933 29.978956 -0.653308 1.809796 0.132930 -0.033618 -266704.000000 0 0 1
-24.146647 18.137561 -6.249733 30.839761 -0.644232 1.774861 0.133724 -0.037448 -761320.000000 0 0 1
-24.381447 17.341761 -4.953233 30.326987 -0.618249 1.734859 0.144856 -0.027455 335590.000000 0 0 1
-23.212947 17.305861 -4.124633 29.246305 -0.640632 1.712299 0.141353 -0.042695 682990.000000 0 0 1
-23.518747 17.023561 -2.734833 29.161832 -0.626540 1.664716 0.148252 -0.047777 45606.300000 0 0 1
-22.276747 16.702261 -1.849333 27.904104 -0.643349 1.637120 0.159513 -0.058540 -234593.000000 0 0 1
-21.569547 17.887261 -1.580533 28.065950 -0.692343 1.627141 0.154990 -0.052542 -393166.000000 0 0 1
-20.630847 17.606161 -0.593233 27.128596 -0.706459 1.592666 0.223450 -0.076838 -329312.000000 0 0 1
-20.030047 18.906861 0.029967 27.544021 -0.756560 1.569708 0.170846 -0.065663 340577.000000 0 0 1
-21.057547 19.613861 0.730167 28.786403 -0.749917 1.545429 0.147107 -0.051219 553481.000000 0 0 1
-20.866547 21.043361 0.834267 29.646785 -0.789617 1.542652 0.160855 -0.053104 91938.400000 0 0 1
-21.945947 21.593261 1.779467 30.839261 -0.777298 1.513063 0.120074 -0.037236 118528.000000 0 0 1
-21.584047 21.410361 3.116867 30.561242 -0.781358 1.468631 0.129745 -0.035348 437010.000000 0 0 1
-22.729647 21.301261 3.942467 31.399421 -0.752969 1.444905 0.109245 -0.017016 54059.600000 0 0 1
-22.271047 20.993361 5.347667 31.069572 -0.755875 1.397816 0.124858 -0.021834 307245.000000 0 0 1
-21.537647 22.130761 5.908367 31.441209 -0.798980 1.381754 0.108068 -0.016119 256065.000000 0 0 1
-20.914147 21.779161 7.125067 31.024184 -0.805657 1.339066 0.098435 -0.018782 484937.000000 0 0 1
-21.826847 21.722361 8.445667 31.931200 -0.782999 1.303115 0.106161 -0.036411 -515121.000000 0 0 1
-22.835547 20.748161 8.444067 31.988290 -0.737541 1.303657 0.136373 -0.040513 120602.000000 0 0 1
-23.315847 20.472161 9.757667 32.526146 -0.720547 1.266109 0.167673 -0.041716 79066.900000 0 0 1
-24.134547 21.601561 10.464367 34.038314 -0.730072 1.258306 0.180918 -0.035151 -382888.000000 0 0 1
-25.450697 21.720861 9.934767 34.903200 -0.706493 1.282168 0.207273 -0.031792 243797.000000 0 0 1
-26.149527 22.670561 10.684767 36.220386 -0.714257 1.271348 0.209098 -0.027719 -517450.000000 0 0 1
-27.633767 22.810261 10.249967 37.269222 -0.690067 1.292181 0.206631 -0.033229 341729.000000 0 0 1
-28.454457 23.405561 11.252367 38.523917 -0.688348 1.274387 0.190445 -0.026532 278334.000000 0 0 1
-28.283787 24.765661 11.365167 39.274389 -0.719177 1.277219 0.176418 -0.026667 -427110.000000 0 0 1
-28.828827 25.257661 12.716767 40.382755 -0.719467 1.250439 0.176001 -0.020964 34167.200000 0 0 1
-27.833287 25.152861 13.697067 39.937050 -0.734854 1.220723 0.149428 -0.024516 93808.300000 0 0 1
-28.213367 25.893161 14.870267 41.080101 -0.742542 1.200403 0.137117 -0.016091 133096.000000 0 0 1
-27.055987 26.070761 15.876067 40.789221 -0.766855 1.171009 0.122132 -0.024460 7144.030000 0 0 1
-26.608537 24.914061 16.495967 40.010519 -0.752522 1.145829 0.128578 -0.020690 -57256.600000 0 0 1
-25.555137 25.157061 17.413167 39.864284 -0.777549 1.118746 0.104454 -0.017216 -148428.000000 0 0 1
-24.938107 23.827761 17.770467 38.800269 -0.762633 1.095054 0.110115 -0.007492 -730120.000000 0 0 1
-24.022347 23.818961 18.811067 38.707523 -0.781147 1.063313 0.100719 -0.024957 -144396.000000 0 0 1
-23.667547 22.528061 19.273167 37.935752 -0.760737 1.037880 0.105033 -0.022091 769717.000000 0 0 1
-22.199847 22.538361 19.858467 37.351970 -0.792965 1.010240 0.099053 -0.020536 111899.000000 0 0 1
-21.211847 22.897261 18.933367 36.506156 -0.823590 1.025543 0.104713 -0.025726 519508.000000 0 0 1
-19.878247 22.742061 19.433267 35.916541 -0.852491 0.999091 0.086411 -0.029910 912463.000000 0 0 1
-19.277147 21.279161 19.490967 34.703154 -0.834722 0.974420 0.085977 -0.017163 -700885.000000 0 0 1
-19.846847 20.388061 20.400867 35.010938 -0.798849 0.948749 0.099147 -0.010348 39418.100000 0 0 1
-19.179647 20.408361 21.649067 35.398336 -0.816426 0.912735 0.098690 -0.006464 490735.000000 0 0 1
-20.232247 20.022161 22.774967 36.454491 -0.780179 0.895984 0.104175 -0.009876 1733970.000000 0 0 1
-21.370947 20.943661 22.614467 37.506912 -0.775301 0.923613 0.094350 -0.014756 932955.000000 0 0 1
-22.194847 20.885361 23.757467 38.642293 -0.755011 0.908658 0.091679 -0.011811 -78060.600000 0 0 1
-23.199447 22.048861 23.871667 39.927724 -0.759975 0.929953 0.084103 -0.013757 -696747.000000 0 0 1
-22.631147 23.343761 24.107367 40.475488 -0.800897 0.932779 0.086057 -0.020479 184893.000000 0 0 1
-23.546747 24.415461 24.330567 41.743749 -0.803509 0.948558 0.075813 -0.021645 -9284.070000 0 0 1
-24.478147 24.804361 23.166967 41.846677 -0.792017 0.984097 0.069936 -0.024085 -43661.200000 0 0 1
-25.424307 23.805661 22.872567 41.668444 -0.752531 0.989727 0.062690 -0.025362 -503704.000000 0 0 1
-26.199647 24.103261 21.758367 41.723078 -0.743747 1.022194 0.064747 -0.024217 97840.500000 0 0 1
-27.196997 22.955161 21.390367 41.523052 -0.701020 1.029620 0.074565 -0.018443 258999.000000 0 0 1
-28.476097 23.069161 21.960067 42.723750 -0.680884 1.030953 0.080303 -0.020539 -110903.000000 0 0 1
-29.373687 22.080661 21.520267 42.585103 -0.644598 1.041012 0.098150 -0.022840 -422487.000000 0 0 1
-30.783447 22.098661 22.092567 43.864028 -0.622622 1.042966 0.107687 -0.022278 -378190.000000 0 0 1
-31.474877 23.276461 21.603267 44.711997 -0.636763 1.066530 0.137428 -0.022644 -480155.000000 0 0 1
-32.759047 23.539561 22.040467 45.967905 -0.623078 1.070740 0.143446 -0.029594 -468576.000000 0 0 1
-33.886327 22.912661 21.190567 46.068572 -0.594548 1.092825 0.152648 -0.033371 -839976.000000 0 0 1
-33.922457 21.476561 21.317567 45.457832 -0.564408 1.082692 0.140522 -0.034051 493818.000000 0 0 1
-34.736409 20.829361 20.333167 45.320173 -0.540155 1.105535 0.125643 -0.019781 1706230.000000 0 0 1
-36.309157 21.083661 20.288267 46.631421 -0.526085 1.120672 0.160233 -0.022884 1316440.000000 0 0 1
-36.911017 20.227061 19.320167 46.312267 -0.501303 1.140465 0.144468 -0.019599 4584.340000 0 0 1
37.814838 20.090961 19.401867 47.011075 0.488372 1.145371 0.178715 -0.038070 300948.000000 0 0 1
37.042248 19.132261 18.456067 45.593837 0.476759 1.154044 0.182164 -0.031182 135006.000000 0 0 1
37.234648 17.743861 18.735467 45.302112 0.444705 1.144428 0.189467 -0.030193 253415.000000 0 0 1
36.592408 16.910961 17.759967 44.049987 0.432907 1.155810 0.208984 -0.050186 102245.000000 0 0 1
37.060278 15.421061 17.662567 43.854756 0.394315 1.156275 0.213901 -0.061797 -317910.000000 0 0 1
36.161478 14.683461 16.923267 42.540022 0.385713 1.161657 0.242931 -0.064906 -194373.000000 0 0 1
36.733908 13.453961 16.535867 42.471449 0.351081 1.170881 0.214797 -0.059006 -273679.000000 0 0 1
35.889708 12.646161 15.596167 41.124652 0.338777 1.181820 0.206708 -0.070823 -591840.000000 0 0 1
35.884178 13.062361 14.256967 40.762245 0.349105 1.213482 0.195291 -0.063725 171128.000000 0 0 1
34.933228 12.393661 13.448267 39.430815 0.340928 1.222752 0.191849 -0.054421 -255996.000000 0 0 1
35.002808 12.666361 11.925967 39.087875 0.347207 1.260746 0.210014 -0.054818 340476.000000 0 0 1
36.151058 12.033161 11.334067 39.751189 0.321323 1.281659 0.172975 -0.042505 820299.000000 0 0 1
36.093138 12.243761 9.957567 39.392607 0.327045 1.315246 0.159664 -0.037628 914430.000000 0 0 1
37.533998 12.185061 9.303067 40.544097 0.313907 1.339278 0.110396 -0.009138 682885.000000 0 0 1
38.058798 10.876861 9.183967 40.634019 0.278371 1.342810 0.156961 -0.027940 -51499.400000 0 0 1
-36.816537 10.740761 8.550667 39.292942 -0.283859 1.351428 0.196028 -0.034683 68725.800000 0 0 1
-36.774377 10.884861 7.010267 38.986906 -0.287774 1.390002 0.152163 -0.039974 -357212.000000 0 0 1
-37.193057 12.094761 6.431867 39.635535 -0.314403 1.407800 0.154076 -0.054760 -17647.600000 0 0 1
-37.010327 12.042361 5.054767 39.247082 -0.314574 1.441644 0.190789 -0.064386 -493941.000000 0 0 1
-37.873497 13.067461 4.347767 40.299670 -0.332240 1.462700 0.187142 -0.075986 -41211.700000 0 0 1
36.933868 12.515161 4.304467 39.233510 0.326710 1.460861 0.171875 -0.071392 667272.000000 0 0 1
35.856098 13.459661 4.321567 38.542161 0.359104 1.458434 0.157683 -0.056594 531429.000000 0 0 1
35.494958 14.113261 5.669267 38.616276 0.378447 1.423453 0.133268 -0.036995 -1351100.000000 0 0 1
34.553998 15.126761 5.499067 38.118728 0.412638 1.426030 0.116673 -0.031655 -38451.400000 0 0 1
33.971088 15.627261 6.700367 37.988696 0.431152 1.393491 0.110735 -0.023574 257180.000000 0 0 1
32.798578 14.792961 7.238667 36.701182 0.423706 1.372262 0.169143 -0.034253 -809525.000000 0 0 1
33.243768 13.685561 7.907067 36.809841 0.390529 1.354301 0.195504 -0.043046 261426.000000 0 0 1
32.240528 12.701961 8.189867 35.607098 0.375302 1.338712 0.202493 -0.048131 130893.000000 0 0 1
32.224258 11.508161 7.176867 34.962094 0.343010 1.364051 0.194522 -0.044697 13059.400000 0 0 1
31.577638 11.791561 5.931367 34.225272 0.357380 1.396613 0.155536 -0.045278 392803.000000 0 0 1
31.951678 10.868261 4.917667 34.105898 0.327870 1.426104 0.170050 -0.050579 -361860.000000 0 0 1
31.394208 11.117861 3.507067 33.488844 0.340356 1.465881 0.149021 -0.057835 330382.000000 0 0 1
30.008508 10.777061 3.439267 32.069989 0.344788 1.463347 0.129275 -0.046941 374023.000000 0 0 1
29.541808 11.137561 2.174467 31.646359 0.360532 1.502031 0.153353 -0.053157 285019.000000 0 0 1
28.059608 10.673461 1.998067 30.087483 0.363484 1.504339 0.172678 -0.035866 218823.000000 0 0 1
27.861908 9.345361 1.621167 29.432123 0.323625 1.515687 0.185680 -0.037983 -281136.000000 0 0 1
26.513908 8.970161 1.658067 28.039264 0.326231 1.511628 0.187792 -0.037469 -450230.000000 0 0 1
26.355808 7.433761 1.617467 27.431836 0.274912 1.511799 0.214014 -0.038546 129625.000000 0 0 1
26.898308 6.677261 2.676567 27.843649 0.243322 1.474519 0.225065 -0.027625 -66317.900000 0 0 1
28.286808 6.480561 2.694467 29.144491 0.225215 1.478212 0.243110 -0.039995 -697077.000000 0 0 1
28.822408 5.921761 4.006667 29.695991 0.202637 1.435461 0.236080 -0.046805 -664783.000000 0 0 1
30.221008 5.930461 4.018467 31.058458 0.193774 1.441049 0.259010 -0.049343 -242679.000000 0 0 1
30.586108 5.424661 5.290867 31.510796 0.175532 1.402091 0.235444 -0.033558 57915.400000 0 0 1
32.101558 5.451061 5.601567 33.039396 0.168202 1.400431 0.191853 -0.040221 142938.000000 0 0 1
32.573428 6.729361 5.979767 33.794528 0.203724 1.392915 0.191675 -0.046172 -383877.000000 0 0 1
33.958648 6.714861 6.187967 35.164899 0.195218 1.393905 0.170900 -0.035446 -120704.000000 0 0 1
34.462618 8.066861 6.858867 36.052605 0.229936 1.379384 0.131748 -0.032079 400020.000000 0 0 1
33.835888 8.302061 8.153167 35.780801 0.240609 1.340913 0.150374 -0.042992 710089.000000 0 0 1
34.742508 8.941861 9.032567 36.994405 0.251908 1.324143 0.168715 -0.047084 68067.500000 0 0 1
34.281568 8.814261 10.503167 36.921994 0.251663 1.282344 0.182574 -0.048626 76685.800000 0 0 1
33.086048 9.531861 10.800567 36.085942 0.280498 1.266836 0.201965 -0.051146 540913.000000 0 0 1
32.668708 9.180061 12.114067 36.031495 0.273940 1.227909 0.203502 -0.053548 -593954.000000 0 0 1
31.366588 9.714461 12.707567 35.209599 0.300339 1.201551 0.176266 -0.054021 -823784.000000 0 0 1
31.246458 11.120561 12.866067 35.574481 0.341920 1.200742 0.237251 -0.079056 293823.000000 0 0 1
30.835508 11.920261 11.725767 35.077269 0.368880 1.229951 0.229427 -0.073194 2064.850000 0 0 1
29.491908 11.550961 11.047067 33.544523 0.373301 1.235207 0.193785 -0.061129 -346477.000000 0 0 1
29.139408 12.533661 10.108967 33.292476 0.406206 1.262284 0.183851 -0.043314 486621.000000 0 0 1
28.074008 12.127661 9.246967 31.948967 0.407775 1.277166 0.168650 -0.043592 157670.000000 0 0 1
27.559408 13.156561 8.207667 31.622490 0.445396 1.308238 0.167657 -0.041002 274443.000000 0 0 1
26.823308 14.232961 8.804867 31.616337 0.487842 1.288574 0.155969 -0.034186 406196.000000 0 0 1
27.315208 15.440261 8.301467 32.456688 0.514485 1.312152 0.140300 -0.034057 -942663.000000 0 0 1
26.752108 16.701661 9.038267 32.807180 0.558104 1.291690 0.169680 -0.041918 1637890.000000 0 0 1
25.454308 17.245061 8.637267 31.936129 0.595459 1.296931 0.195746 -0.044487 1640130.000000 0 0 1
24.356408 16.324761 8.719867 30.590334 0.590476 1.281735 0.206485 -0.042372 -783005.000000 0 0 1
23.034808 17.091561 8.805867 30.004452 0.638354 1.272926 0.194282 -0.056282 -526260.000000 0 0 1
22.712708 17.762761 7.587267 29.815255 0.663707 1.313490 0.191470 -0.049431 766886.000000 0 0 1
21.433808 18.405561 7.679967 29.277205 0.709533 1.305372 0.189007 -0.052413 657563.000000 0 0 1
20.958008 19.085261 6.366667 29.052018 0.738664 1.349856 0.171873 -0.043519 -211303.000000 0 0 1
21.931208 20.003561 5.941967 30.272551 0.739463 1.373231 0.141212 -0.024990 -6793.850000 0 0 1
21.592408 20.765661 4.833367 30.344789 0.765883 1.410833 0.156308 -0.028756 -247490.000000 0 0 1
19.737653 17.147361 33.138314 42.210837 0.715287 0.667993 0.121745 -0.032970 -22687.700000 0 0 1
18.834153 17.859361 32.321902 41.453437 0.758839 0.676584 0.134278 -0.030576 -6166.360000 0 0 1
18.281253 17.031661 31.357713 40.094736 0.750027 0.672783 0.155453 -0.043379 -261567.000000 0 0 1
17.805053 17.819661 30.163296 39.298660 0.785808 0.695802 0.163575 -0.039773 -225234.000000 0 0 1
18.816353 18.216461 29.307846 39.304509 0.769201 0.729270 0.166719 -0.028295 -579767.000000 0 0 1
18.203353 18.448061 28.077386 38.210373 0.792075 0.745409 0.181237 -0.024424 -250060.000000 0 0 1
19.134353 18.519661 26.866416 37.827313 0.769075 0.780959 0.159175 -0.021082 -490408.000000 0 0 1
19.757753 19.758461 26.825356 38.734549 0.785416 0.805787 0.176403 -0.026174 94879.500000 0 0 1
20.542153 20.018361 25.670546 38.492749 0.772485 0.840765 0.135344 -0.020212 19143.000000 0 0 1
21.492753 21.226661 25.807206 39.730611 0.779169 0.863798 0.133924 -0.016057 37568.100000 0 0 1
20.703153 22.399361 25.858826 39.987883 0.824731 0.867590 0.143597 -0.029725 589839.000000 0 0 1
21.405153 23.528961 26.385996 41.328118 0.832628 0.878312 0.149169 -0.031688 -346575.000000 0 0 1
20.570253 24.776761 26.326236 41.594397 0.877896 0.885468 0.165538 -0.038511 -327813.000000 0 0 1
20.445253 25.293461 25.021466 41.034635 0.891002 0.915033 0.163592 -0.040081 669815.000000 0 0 1
19.569653 26.446261 24.873086 41.243744 0.933740 0.923445 0.167354 -0.050473 461109.000000 0 0 1
19.609353 27.153861 23.501036 40.916471 0.945354 0.958967 0.138211 -0.046113 -375288.000000 0 0 1
20.834953 27.786461 23.321836 41.834086 0.927408 0.979444 0.141631 -0.047731 -459508.000000 0 0 1
20.744753 28.533061 22.110536 41.633594 0.942151 1.010928 0.122626 -0.042048 438731.000000 0 0 1
22.014553 29.366361 21.777036 42.676258 0.927518 1.035281 0.136826 -0.037842 797443.000000 0 0 1
23.242553 28.686061 21.451436 42.699771 0.889843 1.044449 0.143027 -0.035930 1289960.000000 0 0 1
24.233053 29.521661 20.786436 43.483851 0.883467 1.072390 0.154060 -0.047081 659217.000000 0 0 1
24.067353 29.708161 19.284436 42.821744 0.889911 1.103648 0.155994 -0.045673 -188545.000000 0 0 1
23.304353 30.863361 18.825336 43.012012 0.924051 1.117784 0.128076 -0.035484 618101.000000 0 0 1
23.264053 30.865261 17.423636 42.396505 0.924913 1.147280 0.126647 -0.022763 -225601.000000 0 0 1
22.564753 32.081061 16.788436 42.663968 0.957814 1.166356 0.156233 -0.030565 -818092.000000 0 0 1
23.257453 33.283261 17.008436 44.022398 0.960894 1.174116 0.166523 -0.032174 313954.000000 0 0 1
23.759253 -33.491604 15.858036 44.018938 -0.953783 1.202255 0.149066 -0.031577 143172.000000 0 0 1
24.829553 33.198461 14.980836 44.080267 0.928632 1.224035 0.121934 -0.030358 -107783.000000 0 0 1
24.321753 32.164861 14.148236 42.735214 0.923365 1.233362 0.153727 -0.042142 -188009.000000 0 0 1
23.424753 32.607061 13.171536 42.254335 0.947831 1.253793 0.106902 -0.035070 -321741.000000 0 0 1
22.876653 31.504361 12.216236 40.805667 0.942740 1.266758 0.082891 -0.044298 -283931.000000 0 0 1
23.868653 30.818861 11.488736 40.638724 0.911810 1.284184 0.110197 -0.052530 -13513.100000 0 0 1
23.256553 29.814861 10.717036 39.302011 0.908350 1.294615 0.092561 -0.045143 -689775.000000 0 0 1
24.249453 29.174261 9.723536 39.162746 0.877322 1.319887 0.103124 -0.043462 407797.000000 0 0 1
25.324253 28.460761 10.301636 39.464622 0.843648 1.306702 0.132339 -0.049002 1707030.000000 0 0 1
26.512253 29.284361 10.587536 40.897057 0.835040 1.308931 0.125051 -0.051778 581929.000000 0 0 1
27.856653 28.687661 10.938836 41.456401 0.800094 1.303771 0.150217 -0.058535 -206928.000000 0 0 1
27.955253 28.123361 12.235736 41.498588 0.788396 1.271501 0.158182 -0.042399 -971144.000000 0 0 1
29.284453 27.831961 12.453736 42.276386 0.759973 1.271781 0.127743 -0.025249 -808006.000000 0 0 1
29.529553 27.229861 13.882736 42.499296 0.744904 1.238031 0.120337 -0.032614 281857.000000 0 0 1
30.863653 27.303561 14.380036 43.644415 0.724270 1.235042 0.101677 -0.047040 469895.000000 0 0 1
31.032953 26.234061 15.262836 43.407653 0.701795 1.211499 0.117880 -0.042775 780437.000000 0 0 1
32.222353 26.313361 16.302536 44.681603 0.684792 1.197314 0.113612 -0.050009 4817.690000 0 0 1
33.494153 26.229661 15.790136 45.378208 0.664358 1.215394 0.134265 -0.035106 -1023160.000000 0 0 1
34.509553 26.307361 16.766236 46.519815 0.651340 1.202088 0.097305 -0.033571 148058.000000 0 0 1
35.901553 26.159961 16.125336 47.257714 0.629702 1.222581 0.115658 -0.041386 -119207.000000 0 0 1
36.332253 27.217261 15.343336 47.918993 0.642938 1.244863 0.138437 -0.036889 -879853.000000 0 0 1
37.696553 27.479361 15.421236 49.132066 0.629900 1.251527 0.169713 -0.035759 -373850.000000 0 0 1
-37.941803 28.647861 14.546736 49.718084 -0.646724 1.273868 0.140482 -0.037768 160237.000000 0 0 1
37.745753 29.877961 15.096336 50.451301 0.669572 1.266915 0.141607 -0.041985 -64868.500000 0 0 1
37.868253 30.938361 14.117836 50.896955 0.685021 1.289730 0.109452 -0.023354 65076.600000 0 0 1
37.053653 32.168561 14.517536 51.171754 0.714944 1.283144 0.085191 -0.029438 -565101.000000 0 0 1
37.058053 33.199461 13.557536 51.568501 0.730533 1.304766 0.043643 -0.032767 -28499.600000 0 0 1
35.986153 -33.374604 13.665436 50.947145 -0.747764 1.299243 0.038175 -0.023124 637098.000000 0 0 1
34.587253 33.679861 13.063036 50.012539 0.772107 1.306536 0.096845 -0.027282 731547.000000 0 0 1
33.988753 32.612661 13.805736 49.085836 0.764740 1.285693 0.095173 -0.038678 -298407.000000 0 0 1
33.045053 31.944661 13.000836 47.764617 0.768468 1.295133 0.127999 -0.038150 -374402.000000 0 0 1
32.437053 30.809061 13.856936 46.833485 0.759663 1.270423 0.155873 -0.044637 -75253.400000 0 0 1
31.468653 31.279761 14.784636 46.768419 0.782388 1.249155 0.150243 -0.028194 230313.000000 0 0 1
31.142653 30.283161 15.697736 46.188241 0.771407 1.224024 0.141548 -0.032106 -224574.000000 0 0 1
30.039753 30.638561 16.710536 46.047261 0.795266 1.199418 0.132953 -0.030205 -52321.400000 0 0 1
29.711053 29.591461 17.627836 45.487821 0.783382 1.172847 0.118762 -0.031430 305795.000000 0 0 1
30.498853 29.589861 18.854136 46.488906 0.770272 1.153203 0.110472 -0.032764 253771.000000 0 0 1
30.184553 28.530361 19.889636 46.050911 0.757232 1.124192 0.103875 -0.030333 884496.000000 0 0 1
28.945353 28.712061 20.613836 45.685295 0.781352 1.102671 0.115372 -0.036337 904956.000000 0 0 1
29.071553 27.913861 21.802036 45.822130 0.765085 1.074926 0.079827 -0.028181 91719.600000 0 0 1
27.798053 27.901161 22.679766 45.448634 0.787249 1.048329 0.090206 -0.025192 -350508.000000 0 0 1
26.780553 27.097061 22.107836 44.047760 0.791273 1.044995 0.128400 -0.034462 -116611.000000 0 0 1
25.613953 27.175561 22.902126 43.807455 0.814971 1.020675 0.138141 -0.045755 -250315.000000 0 0 1
25.459853 26.148861 24.073926 43.720944 0.798748 0.987681 0.127349 -0.044623 -47463.600000 0 0 1
26.500653 26.216461 25.064446 44.920083 0.780007 0.978848 0.086322 -0.037857 597093.000000 0 0 1
26.179953 25.336661 26.094696 44.813720 0.769030 0.949251 0.113971 -0.031070 299395.000000 0 0 1
27.287553 25.181761 27.202676 46.029526 0.745286 0.938519 0.096380 -0.023890 521688.000000 0 0 1
27.726553 26.349661 27.865286 47.323784 0.759942 0.941196 0.118880 -0.039996 631037.000000 0 0 1
28.951353 26.900661 27.364566 48.069178 0.748698 0.965173 0.080272 -0.025413 47586.500000 0 0 1
29.341453 28.171261 28.091286 49.433401 0.765054 0.966400 0.046117 -0.021467 -488055.000000 0 0 1
30.053553 27.870561 29.263276 50.361926 0.747729 0.950766 0.050430 -0.011622 -154703.000000 0 0 1
30.367253 28.925961 30.057396 51.597755 0.761095 0.948955 0.048965 -0.018786 263167.000000 0 0 1
31.919453 29.001061 30.214126 52.657444 0.737530 0.959675 0.029022 -0.018269 367400.000000 0 0 1
32.419153 29.136861 28.883016 52.289452 0.732127 0.985594 0.010921 -0.011081 -659179.000000 0 0 1
33.810553 29.300061 28.846026 53.232887 0.714050 0.998120 0.019214 -0.019276 -229300.000000 0 0 1
34.295853 29.651161 27.426396 52.986829 0.712892 1.026744 0.011906 -0.012283 -125117.000000 0 0 1
33.890253 30.926261 26.999886 53.235108 0.739701 1.038885 0.006372 -0.007422 73663.000000 0 0 1
34.764853 31.374561 26.005446 53.565299 0.734183 1.063872 0.028198 -0.015391 -124734.000000 0 0 1
34.424453 32.816261 25.515356 53.972061 0.761486 1.078386 0.019688 -0.022477 -178091.000000 0 0 1
35.019753 33.723261 26.379136 55.312749 0.766540 1.073662 0.043125 -0.024222 215321.000000 0 0 1
34.564953 -32.455904 26.041216 54.094978 -0.753940 1.068547 0.045394 -0.018495 -755090.000000 0 0 1
35.500553 -31.460204 26.624696 54.395847 -0.725132 1.059324 0.041867 -0.017652 -494780.000000 0 0 1
35.439253 -31.244704 28.035296 54.937692 -0.722579 1.035250 0.050966 -0.027087 954386.000000 0 0 1
36.692053 -30.655404 28.425646 55.624436 -0.696003 1.034416 0.053021 -0.037873 667763.000000 0 0 1
36.869353 -30.295704 29.921436 56.324694 -0.687836 1.010743 0.066544 -0.042102 -212587.000000 0 0 1
36.827653 -31.295004 30.952686 57.390958 -0.704360 1.001155 0.069381 -0.042502 1272020.000000 0 0 1
35.539353 -31.970704 31.069366 57.012955 -0.732586 0.994464 0.055744 -0.042386 880691.000000 0 0 1
35.366153 -32.782604 32.403631 58.098702 -0.747506 0.979143 0.064309 -0.042145 -445087.000000 0 0 1
35.025653 -32.010204 33.536706 58.104734 -0.740446 0.955529 0.067156 -0.051894 146021.000000 0 0 1
35.245253 -32.702104 -32.690533 58.140575 -0.747987 2.167921 0.071617 -0.045150 -148478.000000 0 0 1
34.414353 33.465761 -32.448843 57.941628 0.771425 2.165214 0.073429 -0.042268 -218622.000000 0 0 1
34.756553 32.383361 -33.334213 58.033351 0.750066 2.182664 0.077776 -0.042838 -64420.100000 0 0 1
33.834853 31.315161 -33.429293 56.946942 0.746742 2.198176 0.089452 -0.033061 -255813.000000 0 0 1
34.150253 30.289261 32.919869 56.279631 0.725553 0.945998 0.063023 -0.031757 -345923.000000 0 0 1
35.326153 29.583461 33.191777 56.787431 0.697156 0.946543 0.046207 -0.032295 -296539.000000 0 0 1
35.698253 28.750461 32.158916 55.992412 0.678009 0.958994 0.033707 -0.031165 114669.000000 0 0 1
37.087953 28.049761 32.204835 56.563741 0.647523 0.965076 0.032851 -0.024626 223491.000000 0 0 1
37.166253 26.853361 32.952048 56.464775 0.625681 0.947659 0.032439 -0.017801 1380450.000000 0 0 1
-37.674103 26.167861 32.897522 56.447692 -0.607082 0.948630 0.037181 -0.021273 996291.000000 0 0 1
-37.779003 24.835761 33.586476 56.321572 -0.581557 0.931870 0.035139 -0.020810 -171607.000000 0 0 1
37.593953 23.922761 32.857211 55.364249 0.566717 0.935429 0.035662 -0.017482 55269.700000 0 0 1
37.447653 22.784761 33.684036 55.281881 0.546604 0.915601 0.044764 -0.028379 -250946.000000 0 0 1
37.052753 21.522461 32.871281 54.005962 0.526227 0.916425 0.035215 -0.034472 -706136.000000 0 0 1
-38.057703 21.072061 32.036786 54.025699 -0.505670 0.936027 0.058461 -0.032044 -274315.000000 0 0 1
37.734553 20.096361 31.083866 52.857988 0.489364 0.942134 0.060418 -0.027723 85920.500000 0 0 1
-37.144003 19.620761 30.290726 51.789760 -0.485980 0.946066 0.078274 -0.045757 108816.000000 0 0 1
-36.589203 20.525861 29.345286 51.197915 -0.511235 0.960423 0.083849 -0.035417 204883.000000 0 0 1
-35.328803 20.028061 28.894916 49.841385 -0.515729 0.952390 0.090611 -0.039763 341242.000000 0 0 1
-35.236703 18.937161 27.782756 48.704443 -0.493139 0.963760 0.091995 -0.035362 -406893.000000 0 0 1
-35.974103 17.795061 28.162106 49.029629 -0.459369 0.958938 0.074278 -0.030067 102421.000000 0 0 1
-36.290503 16.949861 27.091116 48.355216 -0.436951 0.976106 0.082541 -0.040664 285355.000000 0 0 1
-37.118503 15.762061 27.673876 48.908785 -0.401567 0.969361 0.098121 -0.043975 -520839.000000 0 0 1
-36.226303 14.946261 28.339586 48.361843 -0.391304 0.944694 0.075372 -0.029845 1082.280000 0 0 1
-36.843603 13.828361 28.901276 48.825796 -0.359056 0.937350 0.079488 -0.035522 138981.000000 0 0 1
-35.804003 12.677961 29.078486 47.835297 -0.340317 0.917399 0.077121 -0.024730 81467.100000 0 0 1
-34.749203 13.010061 29.941196 47.678549 -0.358244 0.891841 0.084576 -0.014748 122001.000000 0 0 1
-34.052003 11.799661 30.326516 47.100621 -0.333570 0.871255 0.096610 -0.008990 476630.000000 0 0 1
-32.506903 12.014661 30.328466 46.052868 -0.354031 0.851896 0.100123 -0.006931 -274708.000000 0 0 1
-32.059003 11.921861 28.993956 44.839267 -0.356026 0.867652 0.085367 -0.009152 -327525.000000 0 0 1
-30.748803 12.294061 28.698716 43.820647 -0.380353 0.856729 0.060252 0.000865 435865.000000 0 0 1
-29.516703 11.474961 29.238406 43.102144 -0.370781 0.825280 0.064287 -0.002653 351592.000000 0 0 1
-29.405103 10.245061 28.555286 42.249564 -0.335259 0.828649 0.056402 -0.010204 61108.100000 0 0 1
-28.251803 9.545261 28.996666 41.594266 -0.325822 0.799408 0.054006 -0.012725 -144049.000000 0 0 1
-27.962703 8.306661 28.109446 40.509929 -0.288759 0.803919 0.046161 -0.020539 182744.000000 0 0 1
-28.841703 7.171461 28.191646 40.963918 -0.243707 0.811782 0.054595 -0.024572 17409.800000 0 0 1
-30.088703 7.414561 27.574876 41.481074 -0.241610 0.843626 0.066612 -0.018123 -326398.000000 0 0 1
-31.009603 6.172061 27.692436 42.030475 -0.196470 0.851486 0.080227 -0.031306 -201007.000000 0 0 1
-31.618903 6.062261 28.981246 43.317648 -0.189430 0.837880 0.093163 -0.028661 256678.000000 0 0 1
-32.051703 4.693461 29.189106 43.604405 -0.145401 0.837386 0.114268 -0.035783 33566.600000 0 0 1
-32.807903 4.487861 30.499916 45.019376 -0.135948 0.826459 0.129146 -0.031996 463976.000000 0 0 1
-34.068003 5.140361 30.643876 46.109644 -0.149756 0.843855 0.145015 -0.028764 550748.000000 0 0 1
-34.915103 4.623861 31.679572 47.371297 -0.131665 0.838270 0.168259 -0.034332 -247162.000000 0 0 1
-36.327403 5.145761 31.598231 48.421145 -0.140713 0.859824 0.169567 -0.033789 -905391.000000 0 0 1
-36.619803 6.459961 32.018252 49.070454 -0.174610 0.859923 0.166027 -0.032851 -1066500.000000 0 0 1
-37.962403 6.705361 31.815434 49.983274 -0.174828 0.880817 0.158114 -0.029419 -678453.000000 0 0 1
37.818153 8.216361 32.166287 50.322870 0.213935 0.877341 0.137360 -0.027579 70678.300000 0 0 1
37.850853 8.339361 33.554486 51.265344 0.216857 0.857241 0.135527 -0.024906 77820.800000 0 0 1
37.710953 9.645761 -33.418413 51.302505 0.250413 2.280223 0.132917 -0.019823 36719.000000 0 0 1
37.800353 9.693861 -31.917473 50.413914 0.251039 2.256359 0.122234 -0.012733 1408150.000000 0 0 1
36.579453 9.139961 -31.306653 49.007161 0.244853 2.263757 0.117853 -0.012627 1353000.000000 0 0 1
36.642353 9.253461 -29.920493 48.202951 0.247363 2.240456 0.105401 -0.006058 -108203.000000 0 0 1
35.433053 8.807361 -29.089543 46.682677 0.243626 2.243539 0.099897 -0.013003 -271954.000000 0 0 1
35.362553 7.372161 -29.221193 46.462211 0.205530 2.250965 0.095114 -0.023753 1329180.000000 0 0 1
34.000053 6.871261 -29.164353 45.318620 0.199410 2.269911 0.115022 -0.020564 1126470.000000 0 0 1
36.949818 5.704661 -19.123933 41.994726 0.153180 2.043605 0.118924 -0.031445 -555024.000000 0 0 1
36.588838 6.871861 -18.367933 41.513209 0.185650 2.029136 0.107931 -0.025978 115704.000000 0 0 1
37.270668 8.088361 -18.607833 42.435548 0.213703 2.024721 0.089896 -0.022665 -189759.000000 0 0 1
-37.346027 8.120861 -18.170533 42.318346 -0.214116 2.014599 0.109839 -0.027267 798378.000000 0 0 1
-36.402067 7.495861 -19.049033 41.763191 -0.203080 2.044427 0.122410 -0.042888 301815.000000 0 0 1
-36.210887 8.299361 -20.231533 42.301568 -0.225304 2.069479 0.105391 -0.028979 -957339.000000 0 0 1
-35.191437 7.585361 -21.133233 41.744323 -0.212298 2.101632 0.099674 -0.024151 -222086.000000 0 0 1
-35.575268 6.367061 -21.784033 42.198143 -0.177099 2.113242 0.095718 -0.017096 212528.000000 0 0 1
-36.470967 6.570661 -22.883633 43.554170 -0.178249 2.123989 0.082344 -0.013150 346600.000000 0 0 1
-36.381827 5.507861 -23.961333 43.910356 -0.150250 2.148006 0.104789 -0.013821 -423851.000000 0 0 1
-35.232028 5.606561 -24.729633 43.408341 -0.157809 2.176934 0.117018 -0.017133 -503637.000000 0 0 1
-34.857878 4.314061 -25.181283 43.217818 -0.123135 2.192794 0.124111 -0.020043 264905.000000 0 0 1
-33.479577 4.051461 -25.853233 42.493365 -0.120427 2.224847 0.126774 -0.014724 1180200.000000 0 0 1
-32.363327 4.220361 -24.962133 41.088982 -0.129674 2.223723 0.117526 -0.014951 1154360.000000 0 0 1
-31.110477 3.732161 -25.477393 40.384259 -0.119394 2.253476 0.121214 -0.019280 948814.000000 0 0 1
-29.855567 4.189661 -24.711233 38.981447 -0.139421 2.257411 0.105765 -0.021177 -85409.400000 0 0 1
-29.600507 5.585861 -24.780633 39.006046 -0.186515 2.259196 0.081156 -0.009321 296726.000000 0 0 1
-28.263567 5.840461 -24.365033 37.770293 -0.203775 2.271930 0.075629 -0.004436 299074.000000 0 0 1
-27.792177 7.328361 -24.609233 37.838133 -0.257816 2.278883 0.048601 -0.006379 -33815.000000 0 0 1
-28.427057 8.328261 -23.806033 38.002430 -0.284994 2.247767 0.053280 -0.005295 -196541.000000 0 0 1
-28.066267 9.682561 -24.040433 38.202222 -0.332204 2.251441 0.031782 -0.006071 -276906.000000 0 0 1
-26.813347 10.125961 -23.274433 36.921402 -0.361089 2.252836 0.054381 0.002413 -212799.000000 0 0 1
-26.965487 10.336761 -21.848533 36.212491 -0.366056 2.218482 0.041462 -0.000905 3750.770000 0 0 1
-25.679297 10.366261 -21.272733 34.920121 -0.383676 2.225826 0.076229 -0.011139 -267902.000000 0 0 1
-25.552667 10.829161 -19.794233 34.088432 -0.400852 2.190351 0.099764 -0.020754 -690818.000000 0 0 1
-25.980807 12.160061 -19.521933 34.698347 -0.437754 2.168346 0.099246 -0.025136 292366.000000 0 0 1
-27.357067 12.453061 -19.478133 35.817391 -0.427174 2.145776 0.093634 -0.012205 -146498.000000 0 0 1
-28.245877 11.729861 -18.419633 35.702971 -0.393606 2.112870 0.096023 -0.020465 -711953.000000 0 0 1
-27.757327 11.770861 -17.111033 34.667129 -0.401077 2.086999 0.113655 -0.033506 -179573.000000 0 0 1
-28.614607 11.134661 -16.229033 34.729785 -0.371096 2.057024 0.131612 -0.038255 -721745.000000 0 0 1
-27.942607 10.937761 -14.817833 33.466283 -0.373102 2.029481 0.162996 -0.047746 335941.000000 0 0 1
-27.110627 9.800861 -14.705433 32.361903 -0.346895 2.042501 0.177848 -0.044127 750291.000000 0 0 1
-25.760957 10.009661 -15.122533 31.504146 -0.370605 2.071471 0.148640 -0.036296 7338.360000 0 0 1
-24.919347 8.706061 -15.069233 30.394920 -0.336113 2.089531 0.106705 -0.028044 423227.000000 0 0 1
-23.528447 8.963061 -15.279433 29.451407 -0.363973 2.116245 0.089835 -0.015866 378074.000000 0 0 1
-22.821947 7.754761 -15.125033 28.456005 -0.327554 2.131194 0.099693 -0.019374 498330.000000 0 0 1
-21.288547 8.024961 -14.999333 27.250362 -0.360489 2.153672 0.157519 -0.038845 726878.000000 0 0 1
-20.552047 8.390661 -16.198733 27.480699 -0.387610 2.201185 0.165275 -0.043596 -469431.000000 0 0 1
-19.205647 8.464561 -15.908733 26.336163 -0.415121 2.219387 0.179334 -0.039561 -1018290.000000 0 0 1
-18.390047 9.147761 -17.051133 26.694878 -0.461590 2.263658 0.132083 -0.032020 -25943.900000 0 0 1
-18.293447 8.457161 -18.330533 27.243022 -0.433040 2.308854 0.194774 -0.050060 443307.000000 0 0 1
-17.391747 7.344061 -18.332433 26.315133 -0.399558 2.341513 0.214804 -0.050820 -291104.000000 0 0 1
-17.203147 6.571961 -19.618533 26.907727 -0.364912 2.387808 0.193789 -0.046235 521999.000000 0 0 1
-18.319647 5.770961 -20.049433 27.764964 -0.305174 2.377648 0.203420 -0.039955 882402.000000 0 0 1
-19.315247 6.591761 -20.709533 29.076018 -0.328879 2.363502 0.169538 -0.033929 -117411.000000 0 0 1
-20.247747 5.736761 -21.591133 30.150601 -0.276092 2.369009 0.136929 -0.014337 40170.100000 0 0 1
-20.939747 4.789461 -20.780033 29.886815 -0.224858 2.339621 0.122217 -0.016937 285488.000000 0 0 1
-21.765547 3.851361 -21.464233 30.810474 -0.175135 2.341519 0.091845 0.003378 -84697.400000 0 0 1
-22.513147 3.024361 -20.389433 30.524048 -0.133538 2.302286 0.100971 -0.003132 -373625.000000 0 0 1
-23.127147 1.911361 -20.957133 31.268509 -0.082458 2.305317 0.115295 -0.001198 -73111.900000 0 0 1
-23.795347 1.196961 -19.963533 31.083660 -0.050260 2.268229 0.119136 -0.007594 -215453.000000 0 0 1
-24.405647 -0.153139 -20.383333 31.798417 0.006275 2.266619 0.135690 0.000914 -179139.000000 0 0 1
-23.385347 -1.069739 -20.694133 31.245255 0.045712 2.294698 0.121664 -0.014097 28584.600000 0 0 1
-23.788647 -2.400239 -20.945933 31.786679 0.100558 2.290223 0.129712 -0.019957 -251536.000000 0 0 1
-24.465347 -2.679939 -22.340533 33.239054 0.109105 2.307861 0.125165 -0.016744 424412.000000 0 0 1
-23.602147 -2.758739 -23.471033 33.400021 0.116357 2.350017 0.104920 -0.011361 165426.000000 0 0 1
-22.524247 -3.681439 -23.413133 32.696628 0.162011 2.368955 0.093001 -0.022249 23394.100000 0 0 1
-21.587747 -3.483039 -24.604233 32.917027 0.159965 2.415030 0.098454 -0.026122 -488166.000000 0 0 1
-22.221547 -3.807839 -25.805443 34.266860 0.169710 2.423516 0.101953 -0.030956 -232032.000000 0 0 1
-21.409047 -3.909739 -26.933383 34.627164 0.180630 2.461971 0.105669 -0.028362 -282806.000000 0 0 1
-22.254847 -4.166939 -28.204943 36.168500 0.185094 2.465176 0.106069 -0.029370 41277.000000 0 0 1
-23.056047 -5.313739 -28.121203 36.750771 0.226515 2.442128 0.102293 -0.037824 280193.000000 0 0 1
-23.784747 -5.575839 -29.317833 38.162017 0.230271 2.446894 0.060179 -0.030498 -25831.200000 0 0 1
-23.076847 -6.691939 -30.078523 38.497279 0.282244 2.467567 0.073819 -0.038512 65038.800000 0 0 1
-21.872747 -6.350939 -30.723753 38.245268 0.282588 2.503670 0.082675 -0.041568 -52680.700000 0 0 1
-21.131847 -7.476839 -31.123183 38.355060 0.340073 2.517424 0.094639 -0.041673 526308.000000 0 0 1
-19.747147 -7.147739 -31.796793 38.106115 0.347292 2.557890 0.121360 -0.047263 232484.000000 0 0 1
-19.667547 -6.560239 -33.088603 39.047468 0.321951 2.581855 0.122272 -0.052902 222334.000000 0 0 1
-20.314947 -7.350539 33.338516 39.726366 0.347174 0.574979 0.114380 -0.051167 -378557.000000 0 0 1
-20.160847 -6.775539 31.913241 38.351305 0.324215 0.587860 0.116250 -0.043560 177410.000000 0 0 1
-18.801547 -6.663939 31.530374 37.310464 0.340621 0.564079 0.131500 -0.048096 -24089.200000 0 0 1
-18.213747 -5.478739 31.933900 37.168954 0.292193 0.537180 0.134590 -0.045617 -839191.000000 0 0 1
-16.750947 -5.236939 31.550345 36.103241 0.303008 0.507644 0.122203 -0.041931 -373109.000000 0 0 1
-16.574947 -5.202339 30.151386 34.797978 0.304130 0.522710 0.118443 -0.040518 82815.000000 0 0 1
-15.481747 -4.401539 29.745626 33.821004 0.276996 0.495982 0.091018 -0.022904 -183733.000000 0 0 1
-15.318947 -4.352139 28.214416 32.398527 0.276808 0.513857 0.086706 -0.020640 79035.200000 0 0 1
-16.504047 -3.974539 27.532816 32.345579 0.236322 0.552514 0.093725 -0.032449 -35068.500000 0 0 1
-16.619447 -4.291839 26.139316 31.271229 0.252721 0.581044 0.091353 -0.023644 55695.900000 0 0 1
-15.672847 -3.575339 25.135966 29.836856 0.224285 0.568988 0.089210 -0.017439 245521.000000 0 0 1
-15.779647 -2.137039 25.102296 29.726915 0.134611 0.565296 0.076836 -0.007337 -197748.000000 0 0 1
-14.786347 -1.613039 24.266006 28.461852 0.108660 0.549894 0.072126 -0.006868 -135768.000000 0 0 1
-14.798047 -0.056639 24.218736 28.381906 0.003827 0.548484 0.058932 0.005134 -670738.000000 0 0 1
-15.759747 0.549661 23.451556 28.260347 -0.034863 0.591976 0.054373 0.001410 -607843.000000 0 0 1
-15.846947 1.910961 23.858616 28.705593 -0.120009 0.589626 0.050226 0.000943 164925.000000 0 0 1
-16.615347 2.760761 22.792946 28.340959 -0.164653 0.636400 0.052309 0.001349 -201433.000000 0 0 1
-15.746247 3.227861 21.823636 27.104141 -0.202191 0.634822 0.059955 -0.000685 -3061.690000 0 0 1
-16.339747 4.227861 21.008136 26.948171 -0.253194 0.676808 0.068844 -0.009231 262481.000000 0 0 1
-15.285747 4.903361 20.081036 25.708851 -0.310410 0.674380 0.070375 -0.006428 618694.000000 0 0 1
-14.374547 5.748361 20.772836 25.907180 -0.380419 0.640465 0.075818 -0.006928 827502.000000 0 0 1
-13.148047 5.905161 20.034136 24.680127 -0.422129 0.623651 0.062656 -0.004047 539948.000000 0 1 0
-12.209847 6.990961 20.508136 24.870415 -0.520004 0.601302 0.069488 -0.002693 197493.000000 0 1 0
-12.838747 8.265961 20.351736 25.443127 -0.572025 0.643682 0.081427 -0.006343 815405.000000 0 0 1
-11.778247 9.224161 20.240336 25.169097 -0.664383 0.636512 0.072721 -0.003777 604816.000000 0 0 1
-12.178447 10.746761 20.187936 25.910620 -0.723029 0.677508 0.064526 -0.003233 50986.200000 0 0 1
-12.834647 11.169561 18.994336 25.500433 -0.716143 0.730466 0.075905 -0.006167 348203.000000 0 0 1
-13.291947 12.494761 19.190936 26.478046 -0.754493 0.760072 0.047067 -0.008700 -365568.000000 0 0 1
-13.898947 13.173061 17.995836 26.278516 -0.758591 0.816451 0.051771 -0.007877 80260.800000 0 0 1
-12.963147 13.791961 17.062236 25.482961 -0.816366 0.837187 0.048655 -0.016380 538532.000000 0 0 1
-12.481847 15.055261 17.448636 26.209012 -0.878580 0.842299 0.063478 -0.028785 -829955.000000 0 0 1
-13.395347 16.272261 17.198636 27.203215 -0.882067 0.886371 0.052429 -0.019895 -169203.000000 0 0 1
-13.604247 16.554861 15.844936 26.649596 -0.882923 0.934071 0.042189 -0.037423 75886.500000 0 0 1
-14.121047 15.553061 14.978236 25.800179 -0.833619 0.951395 0.067328 -0.037978 -708852.000000 0 0 1
-14.626647 16.103461 13.650336 25.682522 -0.833419 1.010422 0.053152 -0.038903 635015.000000 0 0 1
-15.778847 16.977761 13.699536 26.923850 -0.821983 1.036977 0.046532 -0.028893 630452.000000 0 0 1
-16.284447 17.295961 12.371836 26.784246 -0.815511 1.090652 0.049243 -0.021728 -97397.500000 0 0 1
-17.464547 18.288261 12.408836 28.168247 -0.808433 1.114612 0.054902 -0.021491 -887887.000000 0 0 1
-18.622147 17.628561 12.796436 28.658320 -0.757996 1.107927 0.074692 -0.025458 -1447470.000000 0 0 1
-19.661447 18.502861 13.019236 29.973803 -0.755050 1.121476 0.096852 -0.026237 -606860.000000 0 0 1
-21.013747 17.800261 13.184836 30.533044 -0.702795 1.124285 0.114052 -0.019250 8539.490000 0 0 1
-21.605647 17.235961 12.036236 30.145536 -0.673369 1.160075 0.133766 -0.027520 -259980.000000 0 0 1
-22.929047 16.801561 12.234936 30.947170 -0.632378 1.164348 0.182014 -0.040534 65067.300000 0 0 1
-23.604747 16.066061 10.995136 30.597311 -0.597606 1.203225 0.179132 -0.031060 367661.000000 0 0 1
-22.980147 14.802561 10.860936 29.413652 -0.572249 1.192596 0.143206 -0.031081 318887.000000 0 0 1
-23.442047 14.179661 9.649036 29.046450 -0.544001 1.232168 0.162688 -0.033877 -53262.200000 0 0 1
-22.787647 12.822061 9.298736 27.751551 -0.512523 1.229116 0.175584 -0.035835 -260632.000000 0 0 1
-23.204347 11.699261 10.108536 27.883632 -0.466989 1.199820 0.172897 -0.037145 1183810.000000 0 0 1
-24.591447 11.296461 10.133936 28.897162 -0.430615 1.212489 0.207411 -0.032324 1003430.000000 0 0 1
-25.229927 10.753361 8.791736 28.800671 -0.402899 1.260583 0.233870 -0.032928 -240741.000000 0 0 1
-25.459817 11.776961 7.811036 29.118918 -0.433258 1.299224 0.233446 -0.036883 991000.000000 0 0 1
-26.593897 11.397161 6.989136 29.765394 -0.404885 1.333776 0.302151 -0.054722 313034.000000 0 0 1
-26.896797 12.522061 5.938436 30.257309 -0.435718 1.373249 0.291514 -0.062475 -436039.000000 0 0 1
-26.101097 12.755161 4.781836 29.441932 -0.454553 1.407658 0.283357 -0.060531 -411793.000000 0 0 1
-24.814647 13.229061 4.979636 28.558213 -0.489787 1.395533 0.267807 -0.057699 -1084280.000000 0 0 1
-24.660247 14.718961 5.449636 29.231390 -0.538115 1.383268 0.242307 -0.054117 -195920.000000 0 0 1
-23.332247 15.174761 5.721436 28.414820 -0.576640 1.368056 0.194795 -0.054476 704309.000000 0 0 1
-23.351647 16.496561 6.218936 29.259377 -0.615036 1.356618 0.191117 -0.054633 -228506.000000 0 0 1
-21.901747 16.983961 6.293336 28.420900 -0.659598 1.347512 0.155805 -0.044382 -241136.000000 0 0 1
-21.336447 17.189961 5.031936 27.857838 -0.678184 1.389170 0.161128 -0.060149 8052.060000 0 0 1
-20.035147 17.709261 5.149336 27.231245 -0.723854 1.380554 0.152656 -0.043528 -238856.000000 0 0 1
-19.477447 18.646861 4.059636 27.268242 -0.763615 1.421363 0.138387 -0.033674 1252400.000000 0 0 1
-18.084847 18.983961 4.343036 26.576577 -0.809649 1.406644 0.120500 -0.035177 1482860.000000 0 0 1
-17.560747 19.947561 3.446636 26.798588 -0.848947 1.441826 0.127611 -0.036418 210889.000000 0 0 1
-17.905147 21.447961 3.711636 28.184847 -0.875182 1.438724 0.116136 -0.045282 248877.000000 0 0 1
-17.033247 21.819661 4.777836 28.090156 -0.907974 1.399876 0.092210 -0.041661 232090.000000 0 0 1
-17.177547 23.165761 5.058736 29.279881 -0.932754 1.397153 0.065459 -0.040300 -126657.000000 0 0 1
-16.466547 23.743561 6.303036 29.574180 -0.964435 1.356023 0.055073 -0.022899 -132982.000000 0 0 1
-16.876547 23.151461 7.476736 29.609282 -0.940896 1.315520 0.067511 -0.026492 88497.200000 0 0 1
-16.168947 23.717361 8.567236 29.955728 -0.972434 1.280750 0.062131 -0.029214 167051.000000 0 0 1
-16.649247 23.027761 9.882236 30.085442 -0.944795 1.236111 0.042112 -0.018132 140694.000000 0 0 1
-17.863847 23.560261 10.347636 31.325333 -0.922056 1.234145 0.042349 -0.025032 -428431.000000 0 0 1
-18.661847 22.568061 10.937236 31.260279 -0.879858 1.213357 0.044170 -0.019509 -583217.000000 0 0 1
-19.986747 23.054061 11.493936 32.604760 -0.856543 1.210530 0.077680 -0.028617 71527.600000 0 0 1
-20.986547 23.580461 10.587236 33.295088 -0.843535 1.247196 0.117721 -0.031598 563367.000000 0 0 1
-20.742647 24.868361 10.070236 33.913161 -0.875607 1.269308 0.062653 -0.030001 96683.900000 0 0 1
-22.019347 25.560061 9.461036 35.038259 -0.859678 1.297382 0.084972 -0.023792 679008.000000 0 0 1
-22.976847 25.916561 10.433436 36.172645 -0.845451 1.278205 0.119414 -0.034262 336529.000000 0 0 1
-23.927047 26.829061 9.870136 37.278971 -0.842512 1.302837 0.128077 -0.031010 276892.000000 0 0 1
-24.813847 27.605561 10.854136 38.673069 -0.838605 1.286311 0.127823 -0.035573 143798.000000 0 0 1
-24.105047 28.623761 11.499336 39.148534 -0.870887 1.272663 0.124975 -0.039016 282605.000000 0 0 1
-25.057327 29.270161 12.277436 40.439429 -0.862788 1.262327 0.115250 -0.042365 66535.000000 0 0 1
10.660453 -31.808304 27.578216 43.427773 -1.247414 0.882741 0.060361 -0.045077 -349303.000000 0 0 1
11.960053 -32.242204 27.260996 43.883533 -1.215586 0.900507 0.056013 -0.040014 123166.000000 0 0 1
12.206753 -32.104704 25.868206 42.998615 -1.207460 0.925287 0.067338 -0.032511 -871926.000000 0 0 1
13.641553 -32.402504 25.489486 43.424971 -1.172316 0.943476 0.011304 -0.017031 -827176.000000 0 0 1
13.893453 33.691561 25.512066 44.486120 1.179670 0.960044 0.043888 -0.038003 342737.000000 0 0 1
15.297553 33.570161 25.728406 44.976902 1.143222 0.961810 0.067430 -0.023608 424479.000000 0 0 1
15.870953 32.212161 25.292176 43.922712 1.113005 0.957173 0.104699 -0.019614 -165815.000000 0 0 1
15.837553 31.921561 23.887796 42.900361 1.110242 0.980243 0.078049 -0.028246 492960.000000 0 0 1
16.764453 30.869361 23.570276 42.302745 1.073283 0.979809 0.105379 -0.031979 100810.000000 0 0 1
16.691353 30.383161 22.100336 41.111587 1.068443 1.003244 0.104465 -0.042841 -41290.000000 0 0 1
15.668553 29.478761 21.704036 39.819167 1.082252 0.994330 0.084179 -0.029478 122377.000000 0 0 1
15.909353 28.121561 22.068536 39.127356 1.055953 0.971553 0.093624 -0.027599 33903.300000 0 0 1
15.297153 27.657261 23.434186 39.345750 1.065578 0.932788 0.132207 -0.047297 42929.700000 0 0 1
16.178353 27.891561 24.527946 40.512941 1.045179 0.920484 0.137147 -0.043539 356748.000000 0 0 1
15.461153 27.738761 25.716066 40.863213 1.062301 0.890118 0.140983 -0.046943 -334197.000000 0 0 1
16.275553 27.963061 26.997066 42.138676 1.043689 0.875423 0.137947 -0.048725 -21885.400000 0 0 1
16.626553 29.341661 27.171416 43.308904 1.055257 0.892604 0.135042 -0.046389 309633.000000 0 0 1
17.553053 29.528061 28.232496 44.464479 1.034465 0.882859 0.158892 -0.047271 -181631.000000 0 0 1
17.799253 31.032961 28.509446 45.745454 1.050045 0.897944 0.147951 -0.048579 163487.000000 0 0 1
18.482253 31.835661 27.532986 45.969211 1.044800 0.928614 0.133220 -0.037901 207178.000000 0 0 1
18.536553 33.188161 27.881446 47.142686 1.061428 0.937969 0.127129 -0.024204 330723.000000 0 0 1
19.480053 -33.338704 27.005446 47.119378 -1.041995 0.960478 0.107721 -0.015044 184329.000000 0 0 1
19.000653 -33.016104 25.703296 45.953752 -1.048589 0.977219 0.111415 -0.014479 -103415.000000 0 0 1
19.192553 -31.682104 25.232946 44.819765 -1.026134 0.972801 0.119873 -0.015819 -47474.800000 0 0 1
20.551953 -30.922504 25.295186 44.926946 -0.984207 0.972750 0.136569 -0.017791 183987.000000 0 0 1
20.900053 -30.588804 26.632346 45.626407 -0.971395 0.947513 0.121046 -0.017249 26868.300000 0 0 1
21.946353 -29.642204 26.691706 45.527462 -0.933484 0.944341 0.129950 -0.015720 -59371.200000 0 0 1
21.975153 -28.794904 27.946156 45.749770 -0.918925 0.913665 0.115427 -0.014506 -157471.000000 0 0 1
20.851053 -27.940104 27.994786 44.711563 -0.929682 0.894230 0.122665 -0.017125 78530.700000 0 0 1
20.762653 -27.126604 29.209236 44.945744 -0.917513 0.863373 0.119678 -0.021504 -1236790.000000 0 0 1
19.359953 -26.741704 29.529596 44.293606 -0.944169 0.841053 0.137033 -0.024304 -1201200.000000 0 0 1
18.841153 -25.736904 28.644416 42.870501 -0.938871 0.839061 0.130975 -0.025850 95175.200000 0 0 1
17.526253 -25.372304 28.984386 42.320420 -0.966297 0.816358 0.134067 -0.025151 -567298.000000 0 0 1
16.715953 -24.750304 27.876386 40.854541 -0.976783 0.819848 0.134547 -0.029389 -609594.000000 0 0 1
16.342253 -25.772504 26.899566 40.680190 -1.005682 0.848319 0.119326 -0.023458 199010.000000 0 0 1
15.707053 -25.361604 25.702886 39.377161 -1.016289 0.859606 0.125177 -0.035267 1517100.000000 0 0 1
14.210253 -24.758504 25.838106 38.503539 -1.049748 0.835162 0.091038 -0.028551 2693160.000000 0 0 1
13.165453 -25.657804 26.340526 39.057334 -1.096710 0.830636 0.080770 -0.029631 1200090.000000 0 0 1
12.769553 -26.666604 25.367386 38.957330 -1.124204 0.861687 0.061379 -0.031073 -336868.000000 0 0 1
11.782853 -27.721904 25.934026 39.748123 -1.168894 0.859971 0.073362 -0.030191 220706.000000 0 0 1
10.408153 -27.404404 25.939506 39.143186 -1.207825 0.846401 0.053734 -0.040379 -599228.000000 0 0 1
9.684553 -28.540504 26.201906 39.936084 -1.243662 0.855162 0.040201 -0.037925 -695689.000000 0 0 1
8.225153 -28.180904 26.519076 39.561065 -1.286815 0.836139 0.054369 -0.047186 405775.000000 0 0 1
7.259953 -27.964104 25.448876 38.501212 -1.316787 0.848660 0.089291 -0.045694 699257.000000 0 0 1
7.479553 -26.801204 24.633416 37.162527 -1.298645 0.846169 0.092914 -0.042417 -947218.000000 0 0 1
6.280553 -26.609004 23.708736 36.188238 -1.339007 0.856415 0.111720 -0.038629 -1010850.000000 0 0 1
6.123853 -27.451204 22.587216 36.072878 -1.351309 0.894184 0.114713 -0.037715 -237918.000000 0 0 1
5.677753 -28.738504 22.944166 37.209854 -1.375742 0.906360 0.120537 -0.037287 -642856.000000 0 0 1
4.260753 -28.819204 23.556176 37.464569 -1.424015 0.890840 0.152888 -0.039076 -570005.000000 0 0 1
3.289753 -28.685804 22.454256 36.577198 -1.456613 0.909821 0.167035 -0.034859 426580.000000 0 0 1
2.002953 -28.398404 22.948796 36.566766 -1.500382 0.892347 0.184734 -0.031776 -174651.000000 0 0 1
1.676453 -26.948704 23.344236 35.693088 -1.508667 0.857901 0.156569 -0.039093 -1012530.000000 0 0 1
2.300353 -26.587304 24.468426 36.206080 -1.484491 0.828733 0.117472 -0.042732 -516910.000000 0 0 1
2.190753 -25.204904 24.621126 35.302782 -1.484096 0.798995 0.096875 -0.033731 33057.600000 0 0 1
3.253153 -24.644804 25.595086 35.679936 -1.439554 0.770802 0.085086 -0.028760 419088.000000 0 0 1
4.556353 -24.383404 25.081616 35.276029 -1.386064 0.779863 0.098397 -0.039097 478477.000000 0 0 1
5.401053 -23.575304 25.925776 35.455778 -1.345585 0.750696 0.082671 -0.036787 353585.000000 0 0 1
5.017953 -22.087404 26.196646 34.630875 -1.347402 0.712923 0.061099 -0.026036 -442432.000000 0 0 1
5.062253 -21.309804 24.991646 33.231258 -1.337564 0.719626 0.075512 -0.033107 368.891000 0 0 1
4.338353 -20.142704 25.211206 32.560018 -1.358656 0.685189 0.080049 -0.046351 -53656.100000 0 0 1
4.188553 -19.284704 23.946806 31.030522 -1.356923 0.689259 0.096813 -0.049720 -137506.000000 0 0 1
5.448653 -18.764004 23.621486 30.655346 -1.288190 0.691092 0.073360 -0.031722 -406003.000000 0 0 1
5.451053 -17.862304 22.582106 29.304051 -1.274602 0.690993 0.082510 -0.028959 -660572.000000 0 0 1
6.859953 -17.322904 22.388206 29.126856 -1.193739 0.694076 0.078206 -0.024910 -1049870.000000 0 0 1
7.635253 -18.356204 21.729836 29.452217 -1.176616 0.740991 0.085467 -0.021309 432950.000000 0 0 1
8.807853 -17.736304 21.151936 28.975147 -1.109872 0.752470 0.073800 -0.018534 439518.000000 0 0 1
9.990253 -17.663104 22.110136 30.010807 -1.056055 0.742561 0.102480 -0.021620 -1165020.000000 0 0 1
9.989053 -16.628504 23.000786 30.088610 -1.029849 0.700632 0.117182 -0.015770 313331.000000 0 0 1
11.251953 -16.612104 23.657246 31.019893 -0.975445 0.703400 0.128186 -0.018940 251454.000000 0 0 1
11.342053 -15.771004 24.958286 31.627247 -0.947319 0.661391 0.155237 -0.037405 -269122.000000 0 0 1
11.211253 -14.367304 24.834706 30.803802 -0.908164 0.633058 0.187864 -0.039705 122211.000000 0 0 1
11.437753 -13.675604 26.070376 31.583363 -0.874273 0.599804 0.175602 -0.045200 -293428.000000 0 0 1
11.404853 -12.109504 25.956166 30.829098 -0.815356 0.569933 0.177941 -0.050919 1013160.000000 0 0 1
10.142353 -11.580304 25.506566 29.791873 -0.851498 0.543008 0.198834 -0.040748 618361.000000 0 0 1
10.356653 -10.218104 25.113586 29.023475 -0.778664 0.525077 0.184822 -0.039692 -210510.000000 0 0 1
9.203253 -9.547304 24.364186 27.739222 -0.803745 0.498439 0.181264 -0.033323 -710346.000000 0 0 1
8.114553 -9.409304 25.226876 28.120744 -0.859149 0.457654 0.169558 -0.041927 -1414350.000000 0 0 1
7.129453 -8.802104 24.473426 26.967660 -0.890005 0.433479 0.161402 -0.035671 -259387.000000 0 0 1
5.702253 -9.096904 25.041026 27.245593 -1.010879 0.405043 0.116411 -0.038514 -233117.000000 0 0 1
5.303053 -8.226904 26.098086 27.873184 -0.998227 0.358811 0.129954 -0.040417 971606.000000 0 0 1
3.976053 -8.359104 26.645476 28.207535 -1.126813 0.334354 0.113482 -0.044167 2023850.000000 0 0 1
2.692153 -8.495204 25.741796 27.240709 -1.263906 0.333277 0.089860 -0.043248 228404.000000 0 0 1
2.585553 -7.279904 25.049026 26.213275 -1.229529 0.299156 0.102457 -0.043134 106757.000000 0 0 1
1.471153 -7.213504 24.167296 25.263751 -1.369611 0.295696 0.071116 -0.036912 358391.000000 0 0 1
1.527353 -5.883504 23.363116 24.140912 -1.316804 0.254533 0.054195 -0.036737 59146.700000 0 1 0
1.365453 -4.728104 24.163866 24.659924 -1.289651 0.200917 0.063274 -0.031355 -332643.000000 0 1 0
1.979153 -3.601204 23.652356 24.006659 -1.068275 0.172017 0.075300 -0.025961 -1643200.000000 0 1 0
1.282453 -2.812904 22.538356 22.749387 -1.143032 0.136314 0.053426 -0.023504 469355.000000 0 1 0
0.133553 -2.044304 22.916886 23.008274 -1.505560 0.089158 0.046294 -0.022480 565982.000000 0 1 0
-0.996447 -2.721704 23.436916 23.615453 1.219841 0.123042 0.044191 -0.019427 -748947.000000 0 1 0
-1.942747 -1.642304 24.006706 24.141113 0.701789 0.105572 0.058261 -0.020011 -159226.000000 0 1 0
-1.500947 -1.040304 25.226146 25.292163 0.606079 0.072268 0.073035 -0.018955 32345.800000 0 0 1
-2.278947 0.102696 25.590126 25.691607 -0.045032 0.088911 0.061662 -0.013463 123837.000000 0 0 1
-1.613947 0.942696 26.741216 26.806457 -0.528641 0.069782 0.100448 -0.026424 22004.400000 0 0 1
-1.765247 0.453696 28.116196 28.175209 -0.251571 0.064734 0.125448 -0.029580 125057.000000 0 0 1
-1.158947 -0.826304 28.397196 28.432845 0.619383 0.050081 0.131947 -0.031045 -1397590.000000 0 0 1
0.259253 -0.835304 28.899126 28.912358 -1.269854 0.030255 0.136003 -0.028025 -963420.000000 0 0 1
1.279153 -0.303304 28.043426 28.074222 -0.232814 0.046844 0.107103 -0.030120 346144.000000 0 0 1
1.712553 -1.146304 26.929346 27.008083 -0.589861 0.076377 0.089152 -0.030288 -199350.000000 0 0 1
2.887353 -2.017304 27.434506 27.659690 -0.609832 0.127689 0.112568 -0.036595 -675091.000000 0 0 1
2.445653 -3.125104 28.166846 28.445012 -0.906766 0.139965 0.131106 -0.042122 -60243.400000 0 0 1
3.484053 -4.021704 28.517646 29.009806 -0.856908 0.184464 0.161953 -0.045428 254068.000000 0 0 1
4.097353 -4.809304 27.299526 28.021096 -0.865163 0.227430 0.156771 -0.046935 513424.000000 0 0 1
4.979453 -4.027504 26.467366 27.231181 -0.680099 0.237408 0.154808 -0.040292 173746.000000 0 0 1
5.555053 -4.758804 25.400506 26.432755 -0.708349 0.280388 0.146007 -0.040576 -92006.400000 0 0 1
6.834053 -4.114504 24.820046 26.070445 -0.541932 0.310968 0.146250 -0.040936 333741.000000 0 0 1
7.940753 -4.178204 25.744746 27.263618 -0.484366 0.335368 0.151196 -0.038879 1192710.000000 0 0 1
8.917253 -5.243304 25.662996 27.669460 -0.531546 0.383169 0.178943 -0.028559 1046930.000000 0 0 1
9.805053 -5.380404 24.399246 26.840473 -0.501874 0.429806 0.148841 -0.027600 -400799.000000 0 0 1
9.050253 -5.950004 23.424316 25.807135 -0.581588 0.433102 0.152564 -0.026479 -238705.000000 0 0 1
9.599153 -5.732904 22.081336 24.750663 -0.538380 0.468711 0.154478 -0.023952 375196.000000 0 1 0
9.584353 -4.277004 21.511636 23.935394 -0.419730 0.453915 0.159806 -0.030624 726500.000000 0 1 0
8.250353 -3.851404 21.236336 23.105921 -0.436751 0.405041 0.135124 -0.027402 242177.000000 0 1 0
8.203053 -2.629204 20.549336 22.281786 -0.310170 0.396940 0.116364 -0.024908 541770.000000 0 1 0
6.755253 -2.081304 20.351236 21.543864 -0.298873 0.334295 0.114320 -0.016641 559026.000000 0 1 0
6.151053 -1.553304 21.534836 22.449886 -0.247355 0.286495 0.121593 -0.018818 891466.000000 0 1 0
4.862753 -0.976304 21.237436 21.808902 -0.198138 0.229428 0.056106 -0.013566 796860.000000 0 1 0
4.278253 -0.433304 22.590126 22.995760 -0.100936 0.188104 0.053299 -0.022567 177484.000000 0 1 0
2.985553 0.152696 22.528666 22.726144 0.051100 0.131925 0.053321 -0.018218 -11307.300000 0 1 0
2.592853 0.561696 23.776506 23.924060 0.213336 0.111121 0.079480 -0.020442 364300.000000 0 1 0
1.138553 1.132696 23.734576 23.788850 0.782819 0.067563 0.073359 -0.021318 357151.000000 0 1 0
1.017653 2.462696 23.273396 23.425444 1.178939 0.113998 0.071101 -0.015561 596502.000000 0 1 0
-0.373347 2.793696 23.280236 23.450235 -1.437944 0.120483 0.030742 -0.007016 600714.000000 0 1 0
-0.730947 4.171696 22.640596 23.033322 -1.397341 0.184927 0.030748 -0.009802 -99685.600000 0 1 0
-0.657347 5.278696 23.498766 24.093334 -1.446906 0.222620 0.041474 -0.013153 -133106.000000 0 1 0
-1.473247 6.302696 22.951246 23.846470 -1.341170 0.274876 0.044678 -0.020946 -88334.800000 0 1 0
-1.385147 7.697696 23.600956 24.863191 -1.392759 0.320008 0.066003 -0.023512 78886.200000 0 1 0
-0.291447 8.478696 23.189626 24.692752 -1.536436 0.350716 0.044537 -0.019131 -215123.000000 0 1 0
-0.134147 9.599696 24.026746 25.873861 -1.556823 0.380145 0.079037 -0.020027 -764816.000000 0 0 1
0.685353 10.720696 23.358036 25.709937 1.506955 0.431064 0.083388 -0.024737 245189.000000 0 0 1
2.088153 10.594696 23.434786 25.803046 1.376196 0.431791 0.068143 -0.022005 -374565.000000 0 0 1
2.699953 10.749696 24.675426 27.050367 1.324721 0.422167 0.098488 -0.030130 -500290.000000 0 0 1
4.081553 11.457696 24.590466 27.434083 1.228584 0.459335 0.089600 -0.030195 1704300.000000 0 0 1
5.253253 10.741696 24.054916 26.862980 1.115945 0.461317 0.075700 -0.022962 1468060.000000 0 0 1
5.153953 10.397696 22.641276 25.442144 1.110609 0.473644 0.073117 -0.027341 -1075780.000000 0 0 1
6.458053 9.804696 22.140136 25.060410 0.988351 0.487577 0.089041 -0.026069 -189151.000000 0 0 1
7.478753 10.754696 21.897336 25.516437 0.963168 0.539110 0.072529 -0.027252 -66709.100000 0 0 1
8.556153 10.195696 21.195236 25.027944 0.872610 0.560738 0.085601 -0.038395 -28020.900000 0 0 1
9.464753 11.221696 20.484336 25.201508 0.870127 0.621816 0.068702 -0.030501 -668197.000000 0 0 1
8.867753 11.814696 19.394936 24.380066 0.926931 0.650924 0.068302 -0.036875 -55305.000000 0 1 0
9.587953 12.870696 18.784836 24.707362 0.930539 0.707032 0.084036 -0.038251 766308.000000 0 1 0
11.055153 12.771696 18.232636 24.854811 0.857316 0.747243 0.093674 -0.041286 945903.000000 0 1 0
12.067653 12.764696 19.242236 26.054354 0.813461 0.739891 0.108175 -0.038372 -744827.000000 0 0 1
13.267053 12.499696 18.627036 26.061918 0.755626 0.774569 0.109806 -0.043450 -546553.000000 0 0 1
14.484353 12.253696 19.576736 27.261660 0.702165 0.769721 0.145391 -0.036711 269294.000000 0 0 1
14.965853 13.452696 20.133936 28.466246 0.732203 0.785137 0.152584 -0.036834 -3612.490000 0 0 1
16.214753 13.180696 20.752836 29.450453 0.682547 0.788839 0.156754 -0.038589 288364.000000 0 0 1
16.955653 14.467696 21.193536 30.756696 0.706388 0.810590 0.148843 -0.029834 -41594.400000 0 0 1
16.412553 15.176696 22.265936 31.551163 0.746295 0.787373 0.167948 -0.025983 -172260.000000 0 0 1
17.208953 16.289696 22.462496 32.650666 0.757963 0.812116 0.168849 -0.016597 -319887.000000 0 0 1
-22.359647 12.638361 -24.398033 35.425217 -0.514461 2.330518 0.077665 -0.003012 203895.000000 0 0 1
-22.130347 12.572761 -25.826073 36.260345 -0.516651 2.363481 0.089699 -0.011572 -218022.000000 0 0 1
-22.861547 13.557161 -26.508493 37.538609 -0.535265 2.354865 0.067379 -0.009612 32879.500000 0 0 1
-22.528347 13.627661 -28.027103 38.454624 -0.544023 2.387416 0.080602 -0.005998 907500.000000 0 0 1
-21.222347 14.097561 -28.423403 38.170919 -0.586348 2.410784 0.088989 -0.009045 585357.000000 0 0 1
-21.058147 14.043761 -29.830103 39.121705 -0.588167 2.437957 0.093052 -0.018737 1139350.000000 0 0 1
-19.624147 14.659861 -30.176723 38.867124 -0.641599 2.459742 0.095630 -0.022829 1604360.000000 0 0 1
-18.636647 13.663761 -29.952043 37.830515 -0.632640 2.484453 0.095610 -0.030083 -1047790.000000 0 0 1
-17.333147 14.120061 -29.898963 37.333123 -0.683597 2.499542 0.085998 -0.020146 -321938.000000 0 0 1
-16.496747 13.443061 -28.765633 35.781562 -0.683755 2.504659 0.125644 -0.030905 115767.000000 0 0 1
-16.745747 13.738961 -27.385903 34.916569 -0.687084 2.472402 0.123534 -0.025993 -1575730.000000 0 0 1
-17.834347 13.056561 -26.957633 34.860461 -0.631948 2.454828 0.146264 -0.022678 -1083930.000000 0 0 1
-18.421647 13.842161 -25.747453 34.552769 -0.644401 2.411576 0.142861 -0.029141 519020.000000 0 0 1
-17.543747 13.895161 -24.587233 33.247415 -0.669862 2.403158 0.198045 -0.042937 286233.000000 0 0 1
-18.199747 14.490761 -23.543533 33.098503 -0.672424 2.362167 0.162505 -0.039728 -275985.000000 0 0 1
-17.261947 14.919261 -22.394333 31.969756 -0.712730 2.346873 0.180348 -0.037785 -65025.100000 0 0 1
-16.509647 16.029461 -22.790333 32.386901 -0.770642 2.351374 0.150653 -0.032655 -545725.000000 0 0 1
-15.760447 16.585161 -21.748633 31.566791 -0.810890 2.330866 0.145696 -0.033604 -522272.000000 0 0 1
-15.577047 18.149661 -21.848433 32.394577 -0.861529 2.311012 0.125551 -0.029376 22823.100000 0 0 1
-16.749247 18.941161 -21.877533 33.435480 -0.846736 2.284081 0.087337 -0.022311 -19658.400000 0 0 1
-17.518647 18.770661 -23.061133 34.511688 -0.819885 2.302600 0.063614 -0.018872 -260620.000000 0 0 1
-18.868147 19.521261 -22.924833 35.533570 -0.802409 2.272029 0.050608 -0.015098 -26630.100000 0 0 1
-18.808747 20.936961 -23.075933 36.395384 -0.838893 2.257556 0.043283 -0.009606 684168.000000 0 0 1
-20.112447 21.536461 -23.266033 37.545146 -0.819576 2.239133 0.052318 -0.021840 940337.000000 0 0 1
-20.009847 22.996561 -23.636533 38.573586 -0.854735 2.230351 0.039999 -0.017801 47642.000000 0 0 1
-19.427147 23.774561 -22.610133 38.129541 -0.885691 2.205554 0.043154 -0.017728 -290528.000000 0 0 1
-18.744447 24.892961 -23.150133 38.819357 -0.925377 2.209749 0.049596 -0.008368 34122.800000 0 0 1
-17.555347 25.271861 -22.214733 37.951964 -0.963663 2.196093 0.067902 -0.020000 372222.000000 0 0 1
-16.425047 24.432461 -22.090533 36.806507 -0.978929 2.214523 0.089261 -0.030362 440535.000000 0 0 1
-16.736847 23.189961 -21.392633 35.714718 -0.945636 2.213031 0.084295 -0.015769 -1246680.000000 0 0 1
-15.546647 22.256461 -21.335933 34.529268 -0.961062 2.236876 0.122983 -0.020246 -267236.000000 0 0 1
-14.589547 22.716861 -20.408933 33.844279 -0.999900 2.218084 0.150502 -0.035810 372655.000000 0 0 1
-13.489247 21.797861 -20.230533 32.655490 -1.016644 2.238920 0.149363 -0.032574 647503.000000 0 0 1
-12.561547 22.108561 -19.047533 31.770890 -1.054106 2.213707 0.145739 -0.037033 120026.000000 0 0 1
-13.083747 21.896361 -17.718733 31.057826 -1.032194 2.177920 0.154089 -0.034011 -178052.000000 0 0 1
-14.098047 22.751861 -17.273033 31.855295 -1.016058 2.143890 0.153767 -0.038457 -90587.200000 0 0 1
-14.531347 22.632261 -15.792133 31.189273 -1.000021 2.101722 0.156888 -0.037616 791239.000000 0 0 1
-13.555047 23.157561 -14.867233 30.676482 -1.041226 2.076755 0.151363 -0.045440 340420.000000 0 0 1
-14.148847 23.216761 -13.634733 30.415684 -1.023476 2.035636 0.155759 -0.033315 136482.000000 0 0 1
-13.236547 23.875261 -12.546233 30.044005 -1.064578 2.001593 0.191750 -0.033050 98324.300000 0 0 1
-13.129547 25.265161 -12.688233 31.172177 -1.091537 1.990004 0.170679 -0.052148 170784.000000 0 0 1
-12.342647 25.744561 -11.606133 30.819242 -1.123742 1.956906 0.135128 -0.044797 4376.970000 0 0 1
-12.141047 27.264461 -11.749633 32.075064 -1.151852 1.945844 0.137556 -0.040281 9770.290000 0 0 1
-11.386047 27.516061 -12.934233 32.466445 -1.178453 1.980555 0.135922 -0.035086 185119.000000 0 0 1
-11.173247 28.858261 -13.225433 33.653421 -1.201393 1.974676 0.119899 -0.029908 -134981.000000 0 0 1
-10.169447 28.964261 -14.404533 33.909242 -1.233139 2.009534 0.155059 -0.047371 555417.000000 0 0 1
-8.789347 28.813861 -14.120933 33.269986 -1.274723 2.009134 0.146882 -0.047596 133375.000000 0 0 1
-8.282747 27.494261 -14.277733 32.068551 -1.278190 2.032222 0.151712 -0.045646 -201740.000000 0 0 1
-6.927747 27.365261 -14.998033 31.965485 -1.322847 2.059175 0.169412 -0.053636 810925.000000 0 0 1
-5.902647 28.064361 -14.235833 32.017317 -1.363493 2.031557 0.150800 -0.048496 -1139160.000000 0 0 1
-4.662947 27.879561 -14.780533 31.897918 -1.405077 2.052590 0.150564 -0.051513 -726598.000000 0 0 1
-3.599447 28.814861 -14.133033 32.295431 -1.446524 2.023743 0.141125 -0.045651 -21576.400000 0 0 1
-3.685947 30.213361 -14.412133 33.677039 -1.449399 2.013021 0.131301 -0.042450 370278.000000 0 0 1
-4.708847 30.918561 -13.667833 34.131222 -1.419659 1.982804 0.133937 -0.044000 683403.000000 0 0 1
-4.714947 32.452761 -13.861333 35.602654 -1.426519 1.970705 0.126795 -0.048980 -173482.000000 0 0 1
-3.666247 33.108461 -13.222833 35.839293 -1.460511 1.948673 0.108086 -0.046081 -452220.000000 0 0 1
-3.598147 -32.969804 -13.493833 35.805561 1.462092 1.957205 0.124766 -0.039631 19125.200000 0 0 1
-2.580447 -32.164504 -12.678033 34.669101 1.490741 1.945167 0.111167 -0.042137 -107873.000000 0 0 1
-2.921447 -32.197404 -11.291633 34.244834 1.480309 1.906816 0.098066 -0.042922 111610.000000 0 0 1
-2.088447 -31.366604 -10.514833 33.147959 1.504313 1.893581 0.078888 -0.036026 -141238.000000 0 0 1
-2.481047 -31.394004 -9.044333 32.764906 1.491931 1.850465 0.071596 -0.028333 162017.000000 0 0 1
-1.463947 -30.901104 -8.186633 32.000661 1.523456 1.829499 0.084855 -0.037559 187310.000000 0 0 1
-1.966547 -30.900304 -6.854333 31.712426 1.507240 1.788656 0.087487 -0.039557 13563.700000 0 0 1
-0.920247 -30.426304 -5.807033 30.989167 1.540560 1.759300 0.102522 -0.034019 31921.000000 0 0 1
-1.177647 -30.457504 -4.401133 30.796370 1.532150 1.714198 0.104792 -0.038418 -381014.000000 0 0 1
-0.126847 -29.849804 -3.687933 30.077030 1.566547 1.693722 0.093585 -0.034322 -344510.000000 0 0 1
0.058053 -30.239104 -2.151333 30.315590 -1.568877 1.641821 0.105955 -0.028771 -303290.000000 0 0 1
0.547453 -31.534604 -1.877133 31.595167 -1.553438 1.630243 0.112931 -0.033574 263239.000000 0 0 1
1.840053 -31.916104 -2.323433 32.053422 -1.513207 1.643346 0.098521 -0.031890 -744702.000000 0 0 1
3.023253 -31.384704 -1.610833 31.571102 -1.474764 1.621841 0.098459 -0.031577 -2247050.000000 0 0 1
3.169253 -31.736904 -0.267933 31.895878 -1.471266 1.579197 0.091706 -0.026406 846548.000000 0 0 1
4.504953 -31.623504 0.276167 31.943965 -1.429293 1.562151 0.082824 -0.016041 1205300.000000 0 0 1
5.059053 -30.168404 0.409367 30.592388 -1.404648 1.557415 0.067391 -0.020402 -489681.000000 0 0 1
5.328353 -29.601504 -0.879633 30.090100 -1.392701 1.600034 0.078945 -0.028873 28014.500000 0 0 1
5.059353 -28.215504 -0.779733 28.676117 -1.393371 1.597991 0.086514 -0.028125 -269449.000000 0 0 1
4.362953 -27.549504 -2.008533 27.965063 -1.413733 1.642681 0.094213 -0.024762 500836.000000 0 0 1
3.108653 -28.098904 -2.439633 28.375411 -1.460612 1.656880 0.091099 -0.029194 415331.000000 0 0 1
2.536053 -27.291204 -3.407333 27.619763 -1.478137 1.694477 0.096124 -0.028580 -402839.000000 0 0 1
3.149353 -27.181704 -4.807133 27.782584 -1.455448 1.744698 0.088355 -0.033801 -221726.000000 0 0 1
2.681953 -28.238104 -5.649633 28.922340 -1.476104 1.767398 0.087990 -0.035526 549517.000000 0 0 1
3.248453 -27.974704 -6.957633 29.009398 -1.455193 1.812998 0.099363 -0.049132 33921.400000 0 0 1
2.501053 -28.831504 -7.964133 30.015634 -1.484266 1.839345 0.083554 -0.043742 -1135220.000000 0 0 1
1.208853 -28.383604 -8.099333 29.541319 -1.528232 1.848522 0.079128 -0.038630 -1334420.000000 0 0 1
0.827153 -28.491404 -9.433733 30.023984 -1.541773 1.890417 0.091065 -0.034554 -26785.100000 0 0 1
-0.603447 -27.975804 -9.666733 29.604991 1.549229 1.903420 0.074235 -0.034782 -552294.000000 0 0 1
-0.563247 -26.538104 -9.593133 28.224394 1.549575 1.917594 0.073874 -0.035192 -102472.000000 0 0 1
-1.804147 -25.877504 -9.569233 27.649058 1.501190 1.924203 0.077177 -0.030123 629298.000000 0 0 1
-2.863347 -26.123204 -8.419433 27.595424 1.461623 1.880842 0.081848 -0.032236 281366.000000 0 0 1
-2.467947 -25.757504 -7.127933 26.839285 1.475273 1.839600 0.101122 -0.044022 -81168.700000 0 0 1
-1.399547 -26.472904 -6.514633 27.298605 1.517978 1.811765 0.096101 -0.039640 302055.000000 0 0 1
-1.166647 -26.250604 -5.029433 26.753513 1.526383 1.759913 0.112627 -0.036988 -713460.000000 0 0 1
-2.155447 -26.761104 -4.221433 27.177622 1.490426 1.726755 0.128715 -0.035235 -641673.000000 0 0 1
-2.062947 -26.269204 -2.890733 26.508172 1.492426 1.680064 0.136552 -0.041490 -184888.000000 0 0 1
-3.228247 -26.625204 -1.938633 26.890172 1.450138 1.642953 0.141150 -0.039189 -236339.000000 0 0 1
-4.356447 -25.827404 -2.157133 26.280918 1.403694 1.652969 0.138503 -0.036579 -671116.000000 0 0 1
-5.252647 -25.972104 -1.098733 26.520703 1.371246 1.612237 0.156450 -0.043589 -55192.900000 0 0 1
-6.359447 -24.885304 -1.019633 25.705264 1.320601 1.610473 0.140270 -0.038797 -16979.800000 0 0 1
-5.866847 -23.609404 -0.772533 24.339693 1.327234 1.602541 0.121196 -0.041442 -449846.000000 0 1 0
-6.744247 -22.871804 0.002867 23.845425 1.284051 1.570676 0.129653 -0.044296 -474985.000000 0 1 0
-6.193347 -21.511504 0.419667 22.389249 1.290469 1.552051 0.093813 -0.043480 -379211.000000 0 1 0
-5.295547 -21.696104 1.469367 22.381305 1.331399 1.505098 0.084670 -0.036629 -460021.000000 0 1 0
-4.465847 -20.570504 1.591567 21.109773 1.357014 1.495330 0.049163 -0.024641 -80398.900000 0 1 0
-3.409547 -20.674404 2.730467 21.130817 1.407351 1.441217 0.050358 -0.008067 -492878.000000 0 1 0
-3.881147 -20.552704 4.040967 21.302731 1.384155 1.379947 0.039229 0.004455 -384384.000000 0 1 0
-2.890947 -20.247704 4.998367 21.054946 1.428976 1.331112 0.055954 -0.006069 112637.000000 0 1 0
-1.852947 -21.346304 5.319367 22.076997 1.484209 1.327456 0.078140 -0.024439 -230233.000000 0 1 0
-0.943247 -21.588304 4.286367 22.029924 1.527132 1.374977 0.089901 -0.026226 -582598.000000 0 1 0
-0.314847 -22.835004 4.517567 23.279711 1.557009 1.375501 0.104780 -0.030496 -1106340.000000 0 1 0
0.637553 -23.206404 3.349067 23.455488 -1.543330 1.427523 0.109262 -0.036101 624257.000000 0 1 0
1.810253 -22.396004 3.252267 22.703199 -1.490142 1.427050 0.079471 -0.031813 431404.000000 0 1 0
2.756253 -22.634304 4.280067 23.199733 -1.449620 1.385246 0.096823 -0.036770 -895156.000000 0 1 0
3.987853 -21.715204 4.316667 22.496370 -1.389177 1.377716 0.095580 -0.030822 52531.900000 0 1 0
4.970753 -21.866604 3.320067 22.668913 -1.347273 1.423809 0.065107 -0.017420 174507.000000 0 1 0
6.073853 -21.019104 3.681067 22.186588 -1.289491 1.404111 0.074857 -0.014771 585984.000000 0 1 0
6.889753 -20.509504 2.491867 21.778840 -1.246711 1.456128 0.080404 -0.013355 255158.000000 0 1 0
7.723053 -21.488504 1.866267 22.910354 -1.225769 1.489246 0.082259 -0.012735 37228.100000 0 1 0
7.443853 -21.454604 0.489867 22.714554 -1.236834 1.549228 0.077443 -0.019425 -50965.800000 0 1 0
8.389853 -22.307904 -0.360433 23.836152 -1.211068 1.585918 0.075517 -0.009848 -504322.000000 0 1 0
9.601953 -21.706104 -0.669133 23.744477 -1.154312 1.598981 0.069938 -0.006733 -978420.000000 0 1 0
10.435453 -22.583104 -1.382433 24.915987 -1.137933 1.626309 0.069304 -0.008687 -323367.000000 0 1 0
11.729753 -21.983604 -1.906433 24.990007 -1.080656 1.647158 0.066979 -0.007907 -392822.000000 0 1 0
11.565953 -20.983204 -2.908433 24.135557 -1.067032 1.691594 0.066636 -0.005478 -277204.000000 0 1 0
12.778553 -20.685904 -3.572633 24.575633 -1.017433 1.716686 0.068840 -0.008181 -73275.200000 0 1 0
12.809453 -19.405304 -4.427233 23.669565 -0.987353 1.758948 0.063294 -0.024992 -463135.000000 0 1 0
13.121753 -18.224904 -3.682433 22.757149 -0.946780 1.733325 0.086657 -0.023333 56626.700000 0 1 0
13.182153 -17.216504 -4.615333 22.169314 -0.917342 1.780516 0.087501 -0.030614 -823963.000000 0 1 0
13.586553 -15.893704 -3.955833 21.280340 -0.863500 1.757775 0.087116 -0.020557 152888.000000 0 1 0
14.867953 -15.747604 -3.385033 21.920345 -0.814122 1.725841 0.082545 -0.022390 880898.000000 0 1 0
15.940753 -15.720204 -4.365033 22.809777 -0.778432 1.763351 0.086947 -0.023507 285999.000000 0 1 0
17.334453 -15.308804 -3.848733 23.444733 -0.723424 1.735705 0.091604 -0.020623 -103836.000000 0 1 0
18.111053 -16.280504 -3.194733 24.561583 -0.732222 1.701236 0.105774 -0.029352 -710836.000000 0 1 0
19.379353 -15.713004 -3.101433 25.141136 -0.681299 1.694472 0.076875 -0.016423 -1045410.000000 0 0 1
20.310053 -16.780204 -2.485733 26.462282 -0.690515 1.664870 0.080437 -0.029414 153449.000000 0 0 1
21.670453 -16.335804 -2.435433 27.246988 -0.645947 1.660299 0.082338 -0.021853 715656.000000 0 0 1
22.444653 -17.407304 -1.917333 28.468453 -0.659663 1.638197 0.083044 -0.015740 689203.000000 0 0 1
24.001553 -17.280004 -1.957233 29.639565 -0.623992 1.636879 0.096938 -0.018666 424272.000000 0 0 1
24.613653 -16.185704 -1.344633 29.489269 -0.581693 1.616410 0.106690 -0.020653 -395799.000000 0 0 1
25.887553 -16.525004 -0.884133 30.724955 -0.568133 1.599576 0.165321 -0.016433 -288514.000000 0 0 1
26.626753 -15.294504 -0.276033 30.708012 -0.521386 1.579785 0.157251 -0.017411 56614.700000 0 0 1
26.019853 -14.718404 0.870367 29.906884 -0.514787 1.541690 0.132411 -0.014244 -184669.000000 0 0 1
26.669653 -13.581604 1.240967 29.954471 -0.471023 1.529356 0.117434 -0.010272 -378314.000000 0 0 1
25.796153 -12.778404 2.194567 28.871183 -0.459929 1.494711 0.123382 -0.016802 37199.400000 0 0 1
25.293053 -13.481404 3.358467 28.857687 -0.489704 1.454152 0.139824 -0.009032 737510.000000 0 0 1
26.342253 -13.814804 4.265167 30.049205 -0.483004 1.428376 0.146528 0.001636 181338.000000 0 0 1
25.799753 -14.458404 5.534667 30.088291 -0.510799 1.385795 0.132536 0.000239 -131447.000000 0 0 1
25.293853 -15.754604 5.350267 30.275599 -0.557061 1.393145 0.157664 -0.022002 24871.700000 0 0 1
24.793653 -16.286304 6.527767 30.374013 -0.581192 1.354194 0.139990 -0.028098 -506757.000000 0 0 1
24.319253 -17.754804 6.490367 30.802337 -0.630625 1.358495 0.125418 -0.021247 -113077.000000 0 0 1
25.284353 -18.747404 6.197867 32.080792 -0.638015 1.376378 0.114884 -0.021132 -181391.000000 0 0 1
24.710353 -20.048204 6.103367 32.400357 -0.681610 1.381291 0.087290 -0.015322 -120660.000000 0 0 1
2.284253 23.698161 -2.709833 23.961716 1.474704 1.684129 0.041577 -0.020844 397730.000000 0 1 0
3.405753 24.565061 -2.601633 24.936116 1.433032 1.675318 0.055698 -0.027877 -21136.200000 0 1 0
4.043553 24.795261 -3.822733 25.411977 1.409142 1.721800 0.077121 -0.033789 24912.100000 0 0 1
5.332753 25.657061 -3.685233 26.463257 1.365867 1.710509 0.067028 -0.026649 135429.000000 0 0 1
6.363953 24.964261 -3.035133 25.940822 1.321190 1.688067 0.046622 -0.037718 -540994.000000 0 0 1
6.616053 25.420661 -1.762333 26.326564 1.316182 1.637788 0.041936 -0.033306 89235.300000 0 0 1
7.876253 24.719661 -1.188433 25.971319 1.262343 1.616572 0.029854 -0.040740 225701.000000 0 0 1
9.113553 24.986161 -1.818033 26.658401 1.221047 1.639047 0.039877 -0.040857 -350581.000000 0 0 1
10.117653 24.267261 -1.157933 26.317441 1.175784 1.614809 0.040724 -0.038438 -312894.000000 0 0 1
11.258153 23.964261 -2.134233 26.562883 1.131608 1.651229 0.076000 -0.040539 -1202920.000000 0 0 1
12.466253 24.628161 -1.941033 27.671671 1.102218 1.640999 0.082815 -0.037278 813.789000 0 0 1
13.277553 24.689761 -3.156733 28.210684 1.077387 1.682930 0.106093 -0.041120 1058070.000000 0 0 1
14.121253 23.410061 -3.502633 27.562823 1.028018 1.698219 0.118940 -0.042557 37430.000000 0 0 1
13.270453 22.270861 -3.724233 26.190954 1.033422 1.713475 0.132291 -0.044002 12962.700000 0 0 1
12.887753 22.112361 -5.006033 26.078939 1.043097 1.763952 0.166392 -0.047896 -438592.000000 0 0 1
11.879653 20.986661 -5.200933 24.670140 1.055709 1.783209 0.170866 -0.039574 -621005.000000 0 1 0
10.603753 21.315361 -4.746233 24.275727 1.109175 1.767577 0.129414 -0.035914 -979815.000000 0 1 0
9.835953 20.164961 -4.642533 22.911236 1.116977 1.774841 0.107414 -0.028393 466859.000000 0 1 0
8.290853 20.450261 -4.705033 22.562995 1.185630 1.780867 0.081696 -0.022506 657525.000000 0 1 0
7.797153 20.974161 -3.500933 22.648787 1.214878 1.725993 0.068935 -0.022815 -522448.000000 0 1 0
6.483953 21.407561 -3.696633 22.671357 1.276698 1.734581 0.059337 -0.014606 -196309.000000 0 1 0
5.840653 21.977661 -2.396933 22.866484 1.311046 1.675812 0.038581 -0.024526 100.047000 0 1 0
5.540753 21.005961 -1.379833 21.768194 1.312900 1.634226 0.030588 -0.037945 -72084.200000 0 1 0
5.021453 21.656661 -0.263933 22.232760 1.342956 1.582668 0.043257 -0.033466 93718.600000 0 1 0
4.700253 20.815661 1.024167 21.364294 1.348717 1.522840 0.027068 -0.036915 330274.000000 0 1 0
3.901453 21.561361 1.974267 22.000258 1.391787 1.480937 0.042064 -0.032487 514216.000000 0 1 0
3.571453 20.824961 3.124667 21.358788 1.400950 1.423975 0.049137 -0.024847 20309.900000 0 1 0
2.551753 21.523661 4.043167 22.048280 1.452791 1.386375 0.035671 -0.022969 -383562.000000 0 1 0
1.275153 21.730861 3.511267 22.049611 1.512184 1.410872 0.026550 -0.012135 -713078.000000 0 1 0
0.360353 21.971761 4.542267 22.439259 1.554397 1.366963 0.035044 -0.024946 -976425.000000 0 1 0
-1.030747 22.084761 3.993167 22.466520 -1.524158 1.392108 0.041015 -0.022386 -1134790.000000 0 1 0
-2.013447 22.568261 4.866067 23.174533 -1.481816 1.359247 0.051673 -0.025431 759482.000000 0 1 0
-3.319447 22.411061 4.247067 23.050206 -1.423749 1.385485 0.066427 -0.029789 1891650.000000 0 1 0
-4.566347 22.618361 5.186967 23.650506 -1.371587 1.349682 0.068522 -0.040870 598632.000000 0 1 0
-4.996347 23.928461 5.484467 25.052228 -1.364950 1.350087 0.101171 -0.028615 -815877.000000 0 0 1
-6.083247 23.748561 6.322367 25.317432 -1.320036 1.318401 0.107672 -0.030996 -585770.000000 0 0 1
-6.645947 25.095261 6.778167 26.830660 -1.311911 1.315401 0.133443 -0.037207 -601245.000000 0 0 1
-5.873347 25.687961 7.736067 27.462962 -1.346018 1.285240 0.111391 -0.044754 -537566.000000 0 0 1
-6.451947 26.802361 8.427567 28.827384 -1.334568 1.274117 0.149759 -0.022618 -132082.000000 0 0 1
-6.443847 28.175861 7.684367 29.907387 -1.345962 1.310943 0.177921 -0.026552 498184.000000 0 0 1
-7.595447 28.233061 6.850067 30.028653 -1.307992 1.340652 0.152925 -0.044146 75337.900000 0 0 1
-7.520147 29.482561 6.255367 31.062898 -1.321051 1.368032 0.177330 -0.045772 -630218.000000 0 0 1
-8.692347 29.840661 5.329067 31.534440 -1.287348 1.400989 0.151920 -0.054521 69309.300000 0 0 1
-9.893447 30.259761 5.914867 32.380845 -1.254801 1.387099 0.142622 -0.035987 -439973.000000 0 0 1
-10.682547 29.288661 6.499867 31.846362 -1.221057 1.365251 0.120061 -0.034299 -1013940.000000 0 0 1
-11.826147 29.764261 7.392467 32.869706 -1.192596 1.343954 0.089861 -0.030366 -327027.000000 0 0 1
-11.415447 30.432261 8.593867 33.619779 -1.211929 1.312308 0.101902 -0.022651 515887.000000 0 0 1
-12.574047 30.850361 9.330167 34.596293 -1.183771 1.297728 0.118698 -0.013714 655627.000000 0 0 1
-12.216247 31.430861 10.751267 35.393862 -1.200095 1.262159 0.101100 -0.024236 -19517.000000 0 0 1
-11.765147 32.755561 10.798367 36.441051 -1.225967 1.269955 0.094874 -0.026554 75879.000000 0 0 1
-10.960647 32.910761 11.939167 36.685116 -1.249309 1.239309 0.090828 -0.033602 31714.700000 0 0 1
-10.497347 -33.114604 12.168267 36.808124 1.263817 1.233871 0.092949 -0.030716 -228484.000000 0 0 1
-11.418347 -32.414904 12.919267 36.715285 1.232113 1.211221 0.085428 -0.025906 -314554.000000 0 0 1
-10.932647 -31.107704 13.124767 35.489034 1.232835 1.191975 0.082763 -0.023461 399469.000000 0 0 1
-11.924047 -30.118404 13.837367 35.224621 1.193825 1.167087 0.075994 -0.023666 114148.000000 0 0 1
-12.124147 -30.264704 15.266867 36.000340 1.189770 1.132855 0.063731 -0.026424 -679103.000000 0 0 1
-11.008047 -29.935704 16.020067 35.692661 1.218421 1.105337 0.092974 -0.025752 -668617.000000 0 0 1
-11.096647 -30.167904 17.538867 36.617617 1.218327 1.071311 0.093757 -0.035195 -130447.000000 0 0 1
-11.996847 -29.299704 18.174367 36.506227 1.182168 1.049687 0.105527 -0.042862 -21218.600000 0 0 1
-12.389347 -29.774004 19.439467 37.654749 1.176477 1.028323 0.100563 -0.048836 -148363.000000 0 0 1
-12.371147 -28.780904 20.601567 37.494137 1.164834 0.989077 0.126566 -0.057088 -134910.000000 0 0 1
-11.099747 -28.489604 21.112067 37.156174 1.199281 0.966482 0.131547 -0.057127 -179216.000000 0 0 1
-11.267447 -27.720004 22.294367 37.314780 1.184722 0.930457 0.143745 -0.059352 -51357.100000 0 0 1
-9.950147 -27.489004 23.038867 37.221501 1.223499 0.903370 0.166068 -0.067938 -84196.800000 0 0 1
-9.549247 -28.678904 23.756567 38.445314 1.249372 0.904687 0.151938 -0.052828 1313140.000000 0 0 1
-8.274047 -28.530404 24.462867 38.482147 1.288531 0.881889 0.173388 -0.054360 1355080.000000 0 0 1
-7.988347 -29.539604 25.531967 39.853271 1.306685 0.875453 0.169253 -0.053267 -416223.000000 0 0 1
-7.882847 -30.835404 25.061467 40.509734 1.320514 0.903769 0.159359 -0.026179 258660.000000 0 0 1
-7.766347 -31.777304 26.098767 41.848045 1.331096 0.897386 0.152994 -0.020373 -534641.000000 0 0 1
-7.927447 -33.236704 25.609067 42.700670 1.336656 0.927627 0.125925 -0.015179 138400.000000 0 0 1
-6.930247 -33.680604 24.671467 42.321303 1.367865 0.948434 0.141381 -0.014909 433798.000000 0 0 1
-7.077247 32.438261 24.218567 41.095830 -1.355987 0.940580 0.118752 -0.007522 449550.000000 0 0 1
-8.316747 32.050061 23.328367 40.504165 -1.316904 0.957031 0.106199 -0.006854 561249.000000 0 0 1
-8.753047 30.694561 23.312367 39.525161 -1.293004 0.939972 0.104546 -0.008111 -677225.000000 0 0 1
-9.875347 30.646961 22.517467 39.291157 -1.259073 0.960522 0.095294 -0.012704 -728066.000000 0 0 1
-10.565147 29.213961 22.496767 38.355996 -1.223783 0.944034 0.097992 -0.022078 405861.000000 0 0 1
-9.821447 28.074061 21.944967 36.962079 -1.234263 0.935128 0.089358 -0.018948 118758.000000 0 0 1
-10.328247 26.843261 22.416167 36.465297 -1.203495 0.908758 0.080457 -0.020570 -303618.000000 0 0 1
-9.537947 25.530161 22.091967 35.082996 -1.213258 0.889622 0.078444 -0.020760 60175.600000 0 0 1
-8.380547 25.494261 22.904967 35.282126 -1.253201 0.864271 0.071910 -0.034812 -87610.400000 0 0 1
-7.736247 24.248161 22.953767 34.273871 -1.261960 0.836970 0.070766 -0.036715 -431243.000000 0 0 1
-6.397247 24.315961 23.669767 34.531849 -1.313538 0.815578 0.071121 -0.032219 -261762.000000 0 0 1
-5.384147 25.028361 22.952067 34.383212 -1.358904 0.839900 0.081346 -0.027091 -97587.600000 0 0 1
-4.174047 24.831061 23.661867 34.552688 -1.404256 0.816460 0.106628 -0.026912 -311786.000000 0 0 1
-3.016247 25.492861 22.905767 34.404329 -1.453027 0.842256 0.115157 -0.017533 -481801.000000 0 0 1
-2.645847 24.665361 21.777267 33.009543 -1.463935 0.850342 0.102986 -0.024248 240103.000000 0 0 1
-1.858947 25.463361 20.869067 32.975088 -1.497921 0.885537 0.113210 -0.016407 209433.000000 0 0 1
-1.223547 24.614461 19.766267 31.592311 -1.521129 0.894810 0.091043 -0.021422 360372.000000 0 0 1
-0.084247 23.847961 20.170567 31.234342 -1.567264 0.868750 0.085917 -0.028958 337456.000000 0 0 1
-0.041947 22.670961 19.364867 29.815639 -1.568946 0.863887 0.084219 -0.031987 470960.000000 0 0 1
1.210653 21.792161 19.731467 29.422691 1.515299 0.835751 0.078215 -0.021635 459131.000000 0 0 1
2.450653 22.336661 19.350867 29.654480 1.461519 0.859859 0.071750 -0.032411 27858.800000 0 0 1
3.465853 21.313961 19.530367 29.115843 1.409598 0.835534 0.072519 -0.026690 754696.000000 0 0 1
4.822753 21.815061 18.974967 29.312203 1.353221 0.866707 0.060576 -0.023170 25130.000000 0 0 1
5.851653 20.869661 19.061267 28.863758 1.297426 0.849462 0.072164 -0.019813 -570629.000000 0 0 1
7.104753 21.361061 18.732567 29.286200 1.249703 0.876769 0.103168 -0.027380 450646.000000 0 0 1
8.269853 20.375361 18.296567 28.606121 1.185235 0.876814 0.105564 -0.018530 686440.000000 0 0 1
8.685353 19.542361 19.321567 28.821211 1.152578 0.836057 0.112489 -0.020464 -29868.400000 0 0 1
9.506653 18.465561 18.896167 28.078791 1.095354 0.832580 0.107406 -0.016849 60207.600000 0 0 1
10.080953 17.626361 20.068067 28.548932 1.051276 0.791280 0.132204 -0.014302 532582.000000 0 0 1
9.173953 16.670261 20.706367 28.121391 1.067709 0.743180 0.103082 -0.013292 877761.000000 0 0 1
9.857853 15.960661 21.738967 28.714154 1.017511 0.711961 0.094032 -0.016950 187454.000000 0 0 1
8.887453 14.978961 22.406367 28.379594 1.035296 0.660764 0.077452 -0.013450 -278970.000000 0 0 1
7.950753 15.628961 23.228667 29.104121 1.100198 0.646623 0.079278 -0.003886 185516.000000 0 0 1
6.952253 14.719861 23.744767 28.789271 1.129550 0.600986 0.082731 -0.010680 577392.000000 0 0 1
7.405553 13.568261 24.738667 29.170903 1.071184 0.558483 0.095321 -0.019249 -364292.000000 0 0 1
7.693153 13.956061 26.093867 30.575254 1.067001 0.548263 0.112964 -0.024547 -135400.000000 0 0 1
8.405553 12.907161 26.712267 30.834937 0.993556 0.523052 0.145672 -0.032503 -557482.000000 0 0 1
9.329453 13.446261 27.861267 32.312394 0.964222 0.531107 0.113015 -0.029471 986884.000000 0 0 1
10.606553 13.923261 27.359267 32.479003 0.919794 0.569134 0.149791 -0.023219 867544.000000 0 0 1
10.547253 15.037061 26.493367 32.237498 0.959120 0.606201 0.134545 -0.013779 -726305.000000 0 0 1
11.714453 14.991561 25.449467 31.775001 0.907498 0.641954 0.160075 -0.019905 368218.000000 0 0 1
11.630653 13.876261 24.615467 30.557224 0.873211 0.634188 0.144369 -0.025314 -631815.000000 0 0 1
12.792253 13.707261 23.887767 30.367024 0.819914 0.665456 0.179438 -0.029411 -656887.000000 0 0 1
12.720553 12.572661 22.880767 29.041587 0.779551 0.663466 0.136365 -0.033688 -38567.100000 0 0 1
12.663953 11.193861 23.345267 28.821515 0.723857 0.626654 0.128587 -0.027261 554286.000000 0 0 1
11.357653 10.780761 23.742567 28.441705 0.759346 0.583063 0.128809 -0.031384 286970.000000 0 0 1
11.458753 9.368561 24.347567 28.493455 0.685375 0.546215 0.115651 -0.031128 36617.300000 0 0 1
11.654053 8.306061 23.406567 27.434923 0.619211 0.548770 0.133243 -0.026312 209080.000000 0 0 1
11.458253 7.078961 24.040067 27.555908 0.553408 0.510684 0.154787 -0.030132 -109160.000000 0 0 1
11.658553 5.954561 23.097767 26.549680 0.472208 0.515629 0.167363 -0.052382 642413.000000 0 0 1
12.991453 5.739761 22.591367 26.685063 0.416023 0.561247 0.182160 -0.052274 948215.000000 0 0 1
13.104053 4.608461 21.763367 25.818564 0.338173 0.568081 0.204806 -0.060348 -79605.400000 0 0 1
12.913953 3.248561 22.530767 26.171717 0.246441 0.533795 0.193996 -0.062433 368342.000000 0 0 1
14.110453 3.001061 23.296367 27.401313 0.209561 0.554447 0.179319 -0.053064 847392.000000 0 0 1
13.993953 1.892861 24.123867 27.953079 0.134447 0.529593 0.179821 -0.044120 -506124.000000 0 0 1
15.289053 1.639661 24.939667 29.298987 0.106836 0.552505 0.135762 -0.022530 127004.000000 0 0 1
16.230753 0.960461 24.092067 29.065229 0.059106 0.593664 0.143647 -0.028483 267181.000000 0 0 1
17.412053 1.773561 24.073467 29.763349 0.101508 0.628638 0.122332 -0.023862 -581420.000000 0 0 1
18.423353 1.099061 23.180367 29.630344 0.059585 0.672417 0.111074 -0.025438 -765723.000000 0 0 1
18.786853 -0.182939 23.700267 30.243709 -0.009737 0.670288 0.095809 -0.019647 -137218.000000 0 0 1
19.561153 -0.928039 22.798567 30.054527 -0.047407 0.709675 0.084698 -0.006625 -170415.000000 0 0 1
19.720653 -2.446139 23.135867 30.498460 -0.123409 0.709648 0.062680 -0.001838 -296382.000000 0 0 1
18.576453 -3.181239 22.857967 29.625859 -0.169606 0.689515 0.057875 0.007023 -300819.000000 0 0 1
18.829453 -4.543439 23.228167 30.244650 -0.236768 0.695070 0.075583 0.003782 722391.000000 0 0 1
17.655753 -5.519539 22.817767 29.374162 -0.302994 0.681232 0.088664 -0.003063 536769.000000 0 0 1
17.603353 -5.811639 21.448967 28.349804 -0.318877 0.712725 0.092354 -0.001081 502718.000000 0 0 1
16.536753 -6.697539 21.073567 27.611890 -0.384817 0.702536 0.104952 -0.011694 336507.000000 0 0 1
17.024353 -8.116439 21.091867 28.294381 -0.444879 0.729596 0.117351 -0.022888 -32634.400000 0 0 1
17.251853 -8.726339 22.329367 29.536013 -0.468293 0.713609 0.098585 -0.014911 -83179.200000 0 0 1
17.714253 -10.013239 22.234267 30.140045 -0.514487 0.741141 0.094936 -0.019591 -158495.000000 0 0 1
17.439853 -10.955439 23.436967 31.200345 -0.560886 0.720954 0.126114 -0.034704 914310.000000 0 0 1
16.102453 -11.494539 23.413767 30.653187 -0.619953 0.701573 0.146190 -0.044311 720395.000000 0 0 1
15.946153 -12.491939 24.417967 31.726415 -0.664526 0.692517 0.170249 -0.039042 454870.000000 0 0 1
14.890853 -13.578639 24.011367 31.347451 -0.739339 0.698240 0.188943 -0.048281 449654.000000 0 0 1
15.379153 -14.409539 22.941067 31.151978 -0.752860 0.743027 0.192840 -0.059042 306197.000000 0 0 1
14.307853 -15.072739 22.324767 30.500776 -0.811426 0.749630 0.198392 -0.054936 -373940.000000 0 0 1
14.678753 -16.078039 21.205067 30.391183 -0.830862 0.798562 0.177181 -0.054220 -407954.000000 0 0 1
15.374953 -17.178139 21.654067 31.628725 -0.840734 0.816696 0.201742 -0.052305 -66156.200000 0 0 1
15.637253 -18.035739 20.558167 31.503171 -0.856507 0.859819 0.173970 -0.037502 -210911.000000 0 0 1
-25.406177 -32.296304 25.080446 48.140979 0.904243 1.022799 0.096639 -0.035494 -529418.000000 0 0 1
-26.200527 -33.463604 24.840156 49.227165 0.906535 1.041875 0.108966 -0.025590 1221600.000000 0 0 1
-27.437547 -33.523004 25.590006 50.313609 0.884895 1.037227 0.088792 -0.041235 490324.000000 0 0 1
-27.208907 33.647961 27.101646 51.058879 -0.890812 1.011261 0.097182 -0.038768 -1260900.000000 0 0 1
-28.268287 -33.499004 27.903796 51.960573 0.869881 1.003897 0.119895 -0.037696 -706641.000000 0 0 1
-27.875677 -33.328804 29.244486 52.374636 0.874260 0.978375 0.106769 -0.034981 -166197.000000 0 0 1
-28.934817 -32.721404 30.181326 53.092621 0.846736 0.966157 0.086627 -0.038745 -122962.000000 0 0 1
-29.217807 -31.353204 29.986936 52.306023 0.820638 0.960271 0.061952 -0.031818 185064.000000 0 0 1
-30.221767 -30.886204 30.863676 53.102536 0.796271 0.950583 0.047587 -0.008840 -99300.400000 0 0 1
-30.531377 -29.355304 30.688346 52.303666 0.765762 0.943776 0.035249 -0.022732 -112892.000000 0 0 1
-31.242007 -29.002904 29.524416 51.854822 0.748249 0.965061 0.031359 -0.009277 278353.000000 0 0 1
-31.454117 -27.618604 29.555216 51.241190 0.720561 0.956007 0.033661 -0.010544 -29249.800000 0 0 1
-31.891847 -27.088704 28.162606 50.438281 0.704141 0.978391 0.024909 -0.019162 -23811.400000 0 0 1
-30.883807 -27.140504 27.179546 49.286349 0.720975 0.986681 0.037739 -0.014771 117394.000000 0 0 1
-30.204887 -25.937804 26.956756 48.080886 0.709540 0.975621 0.044345 -0.015969 64485.200000 0 0 1
-29.296747 -26.018004 25.686266 46.851043 0.726193 0.990521 0.026658 0.003148 586078.000000 0 0 1
-30.054737 -26.112604 24.461156 46.727973 0.715328 1.019866 0.019441 -0.006983 861753.000000 0 0 1
-29.111197 -26.104204 23.400246 45.568221 0.730993 1.031513 0.030498 0.010508 -40321.600000 0 0 1
-29.676737 -26.365204 22.000136 45.385446 0.726377 1.064731 0.017720 0.013882 -475971.000000 0 0 1
-30.332207 -25.229604 21.516736 44.939355 0.693819 1.071515 0.030525 0.003304 37384.200000 0 0 1
-30.466057 -25.384304 20.110436 44.463166 0.694659 1.101460 0.034423 0.012323 -371366.000000 0 0 1
-31.117437 -24.195504 19.482536 43.969154 0.660904 1.111748 0.049432 0.005626 -1361810.000000 0 0 1
-32.389887 -23.965604 19.945536 44.958641 0.637012 1.111138 0.085386 0.001288 -1134020.000000 0 0 1
-32.907047 -22.858904 19.268736 44.459953 0.607127 1.122539 0.091037 0.003175 -3288.450000 0 0 1
-34.424816 -22.613404 19.460136 45.553605 0.581205 1.129411 0.104935 0.004727 -125282.000000 0 0 1
-35.260831 -23.409004 18.675436 46.260994 0.586072 1.155242 0.087383 -0.009092 -143604.000000 0 0 1
-36.596237 -22.996204 18.858936 47.156860 0.561023 1.159368 0.089799 -0.016708 -366701.000000 0 0 1
-37.598467 -23.483904 17.828836 47.780811 0.558310 1.188407 0.097124 -0.014525 -281069.000000 0 0 1
-37.900987 -24.838004 18.202336 48.833762 0.580119 1.188835 0.077902 -0.014407 -78553.800000 0 0 1
37.257028 -25.421104 17.354036 48.326817 -0.598759 1.203496 0.086547 -0.013933 138099.000000 0 0 1
36.814588 -26.892004 17.735536 48.918739 -0.630885 1.199793 0.083458 -0.003401 353027.000000 0 0 1
35.698038 -27.028504 18.612636 48.490413 -0.648057 1.176843 0.083361 -0.007442 198205.000000 0 0 1
35.884238 -26.557904 19.935436 48.891946 -0.637135 1.150813 0.099757 -0.001514 -600217.000000 0 0 1
34.598608 -26.644604 20.742136 48.344957 -0.656245 1.127362 0.086816 -0.001084 -69421.500000 0 0 1
33.549708 -25.844304 20.217836 46.928370 -0.656385 1.125391 0.088917 -0.009504 -175735.000000 0 0 1
32.528218 -25.586004 21.144036 46.473636 -0.666503 1.098460 0.100421 -0.011264 -431997.000000 0 0 1
31.609518 -24.454104 20.655836 44.986980 -0.658454 1.093757 0.113250 -0.005491 -211822.000000 0 0 1
32.112038 -23.102404 20.403136 44.510583 -0.623648 1.094615 0.099797 -0.001516 81930.300000 0 0 1
32.793748 -22.485804 21.513336 45.209124 -0.601046 1.074852 0.116695 -0.009072 465475.000000 0 0 1
33.605158 -21.212204 21.138636 45.012289 -0.563059 1.081937 0.120926 -0.016489 -204085.000000 0 0 1
32.741778 -20.198504 20.694936 43.683910 -0.552756 1.077260 0.108112 -0.021054 -203883.000000 0 0 1
33.378018 -19.006404 20.316136 43.452053 -0.517637 1.084276 0.108576 -0.016163 -667965.000000 0 0 1
32.530008 -17.723804 20.501836 42.339815 -0.498877 1.065323 0.087125 -0.011048 -120807.000000 0 0 1
32.315258 -17.292604 21.865236 42.677847 -0.491349 1.032898 0.103906 -0.030584 123258.000000 0 0 1
31.437808 -18.117004 22.586886 42.740251 -0.522796 1.014000 0.105478 -0.030020 -580942.000000 0 0 1
31.366128 -17.712304 24.112816 43.347291 -0.514056 0.980905 0.095370 -0.025577 159878.000000 0 0 1
30.602708 -16.544804 24.392676 42.488339 -0.495622 0.959288 0.097590 -0.037542 204426.000000 0 0 1
30.457308 -16.324104 25.779846 43.112927 -0.492005 0.929842 0.102258 -0.036647 -152149.000000 0 0 1
30.104508 -14.822904 26.070836 42.493392 -0.457534 0.910277 0.082832 -0.037730 -429244.000000 0 0 1
28.908808 -14.299004 25.551686 41.146924 -0.459338 0.900796 0.108278 -0.038732 -47447.300000 0 0 1
28.665708 -13.028504 26.038786 40.859309 -0.426588 0.879834 0.101925 -0.040960 111336.000000 0 0 1
29.432408 -11.858804 25.304206 40.585721 -0.383018 0.897616 0.122867 -0.038616 30929.800000 0 0 1
28.975208 -11.698604 24.008436 39.405901 -0.383731 0.915669 0.123300 -0.036742 625208.000000 0 0 1
29.934708 -11.060104 23.133556 39.415404 -0.353917 0.943551 0.131584 -0.032533 832608.000000 0 0 1
30.999908 -11.922404 22.414196 40.069118 -0.367156 0.977149 0.123327 -0.028713 -18944.500000 0 0 1
30.449208 -12.754104 21.395236 39.339263 -0.396663 0.995761 0.114965 -0.028918 206128.000000 0 0 1
30.660208 -14.119804 21.710136 40.134116 -0.431572 0.999242 0.110843 -0.027333 -256607.000000 0 0 1
29.920008 -15.054904 20.738836 39.394877 -0.466182 1.016394 0.099605 -0.019240 -152587.000000 0 0 1
30.478408 -14.923304 19.435736 39.107368 -0.455322 1.050677 0.096892 -0.022009 -252041.000000 0 0 1
29.896208 -15.788204 18.522236 38.550277 -0.485875 1.069606 0.106150 -0.027666 -551968.000000 0 0 1
30.443508 -15.703604 17.104436 38.288015 -0.476229 1.107688 0.120221 -0.032301 -391319.000000 0 0 1
30.010208 -16.685804 16.172636 37.955010 -0.507441 1.130619 0.108806 -0.037362 1503360.000000 0 0 1
28.593608 -16.701604 15.822336 36.699923 -0.528648 1.125055 0.107094 -0.039564 996277.000000 0 0 1
28.031208 -15.517004 14.990336 35.372818 -0.505574 1.133180 0.128006 -0.037467 -696150.000000 0 0 1
27.921808 -15.712004 13.572736 34.795310 -0.512552 1.170085 0.133128 -0.044991 689017.000000 0 0 1
26.938808 -16.680104 13.116136 34.292248 -0.554407 1.178316 0.131789 -0.051317 234150.000000 0 0 1
27.248908 -17.169104 11.709436 34.269404 -0.562247 1.222084 0.135502 -0.037734 -309380.000000 0 0 1
27.099708 -16.275104 10.611436 33.344801 -0.540834 1.246931 0.142964 -0.036241 -124779.000000 0 0 1
27.248108 -16.861804 9.345036 33.378279 -0.554146 1.287030 0.124311 -0.041495 938508.000000 0 0 1
28.715208 -17.187104 8.836536 34.612774 -0.539343 1.312641 0.123534 -0.033967 905677.000000 0 0 1
29.262208 -18.171904 9.626036 35.765283 -0.555720 1.298291 0.124090 -0.029360 -1329750.000000 0 0 1
30.633008 -18.280804 9.453736 36.904500 -0.538040 1.311741 0.139299 -0.014368 -704797.000000 0 0 1
31.299278 -19.200504 10.504436 38.192242 -0.550250 1.292164 0.125459 -0.028674 -102488.000000 0 0 1
31.169508 -18.775604 11.814336 38.257549 -0.542161 1.256854 0.113059 -0.038937 356177.000000 0 0 1
31.651988 -19.734104 12.791736 39.432369 -0.557499 1.240422 0.087894 -0.032627 80029.600000 0 0 1
31.290688 -19.227904 14.240736 39.390583 -0.551008 1.200892 0.101263 -0.023986 11387.400000 0 0 1
31.484738 -20.272704 15.153436 40.396756 -0.572068 1.186275 0.103065 -0.027725 147779.000000 0 0 1
31.281898 -19.821504 16.483336 40.535781 -0.564789 1.152027 0.112703 -0.038549 -30196.000000 0 0 1
31.002008 -20.877104 17.570736 41.300227 -0.592657 1.131349 0.112049 -0.031227 -1009740.000000 0 0 1
29.728608 -21.323704 17.327236 40.481151 -0.622229 1.128482 0.057491 -0.015461 -1300330.000000 0 0 1
29.482108 -22.432504 18.128636 41.243901 -0.650431 1.115702 0.090572 -0.020162 380232.000000 0 0 1
28.052308 -22.959304 17.836836 40.400673 -0.685888 1.113528 0.072267 -0.007317 288446.000000 0 0 1
26.976608 -22.198404 18.345336 39.459573 -0.688535 1.087258 0.076558 0.000491 526032.000000 0 0 1
25.750108 -22.926404 18.107636 38.943222 -0.727454 1.087190 0.098247 -0.015401 334816.000000 0 0 1
24.628608 -22.310504 18.937036 38.248376 -0.736053 1.052838 0.073156 -0.009051 -751921.000000 0 0 1
24.107108 -21.075304 18.512736 36.987059 -0.718397 1.046598 0.068256 -0.016337 -178757.000000 0 0 1
22.917708 -20.718704 19.167736 36.357780 -0.735047 1.015497 0.076079 -0.017504 64685.700000 0 0 1
23.120908 -20.149804 20.600336 36.945431 -0.716843 0.979319 0.058601 -0.013209 -247097.000000 0 0 1
23.449808 -21.135504 21.599736 38.251165 -0.733537 0.970749 0.071866 -0.014088 -89359.300000 0 0 1
23.904608 -20.509404 22.784106 38.873917 -0.709102 0.944556 0.063418 -0.015864 11474.500000 0 0 1
24.317108 -21.612204 23.739956 40.273994 -0.726573 0.940405 0.070862 -0.017577 717679.000000 0 0 1
23.203808 -22.354804 24.308106 40.361343 -0.766765 0.924465 0.087644 -0.023596 1172220.000000 0 0 1
23.704908 -23.384304 25.146606 41.726492 -0.778590 0.923975 0.094785 -0.016772 -349310.000000 0 0 1
22.581408 -24.073804 25.899956 41.955640 -0.817375 0.905468 0.098726 -0.019569 -302654.000000 0 0 1
21.877608 -25.042204 25.126126 41.678099 -0.852743 0.923713 0.117727 -0.016591 314216.000000 0 0 1
20.750908 -25.435904 25.898306 41.812769 -0.886488 0.902834 0.125386 -0.017301 -280425.000000 0 0 1
19.809308 -26.386504 25.223806 41.531875 -0.926824 0.918093 0.126016 -0.017841 -511480.000000 0 0 1
18.978708 -25.866004 24.208216 40.190537 -0.937788 0.924372 0.129643 -0.023935 249241.000000 0 0 1
18.321208 -26.939104 23.564456 40.207780 -0.973553 0.944600 0.115386 -0.029944 107460.000000 0 0 1
17.316308 -26.578704 22.425066 38.847981 -0.993360 0.955437 0.114307 -0.034147 -655058.000000 0 0 1
16.157708 -25.967904 22.807656 38.152231 -1.014200 0.930034 0.100277 -0.029251 -821050.000000 0 0 1
15.461108 -25.373604 21.683836 36.783888 -1.023539 0.940366 0.080912 -0.028239 54918.700000 0 0 1
14.126608 -24.753904 22.096636 36.063529 -1.052213 0.911306 0.075316 -0.027730 -43121.200000 0 0 1
13.052008 -25.693904 22.174336 36.362519 -1.100785 0.914972 0.062562 -0.028013 525480.000000 0 0 1
11.830008 -24.942404 22.312236 35.495190 -1.127925 0.891046 0.076075 -0.025569 36707.900000 0 0 1
10.632008 -25.858704 22.345336 35.791427 -1.180708 0.896534 0.074122 -0.026663 -742747.000000 0 0 1
10.395208 -26.388004 21.047936 35.318589 -1.195528 0.932354 0.099615 -0.036496 -79620.400000 0 0 1
9.106708 -26.951304 21.067936 35.400040 -1.244946 0.933358 0.116294 -0.042831 -133575.000000 0 0 1
8.832608 -27.872204 19.800436 35.311924 -1.263911 0.975530 0.147024 -0.043694 -16256.500000 0 0 1
9.466408 -29.156604 19.794736 36.490437 -1.256859 0.997429 0.137133 -0.043344 197671.000000 0 0 1
9.086508 -29.893304 18.651236 36.387400 -1.275706 1.032616 0.148388 -0.045494 -296973.000000 0 0 1
9.657108 -31.281704 18.594336 37.650419 -1.271364 1.054264 0.127618 -0.031485 -170151.000000 0 0 1
9.270808 -32.164204 19.635136 38.807505 -1.290169 1.040299 0.127631 -0.041215 480835.000000 0 0 1
9.996008 -33.395004 19.432936 39.909717 -1.279958 1.062234 0.097866 -0.033597 95684.900000 0 0 1
9.588608 32.919661 20.366436 39.880286 1.287365 1.034810 0.108888 -0.047766 -699960.000000 0 0 1
8.428608 32.316461 19.905736 38.879730 1.315665 1.033305 0.117751 -0.051325 -583360.000000 0 0 1
8.218308 31.194861 20.711136 38.335507 1.313199 1.000050 0.125843 -0.054704 67373.700000 0 0 1
7.164708 30.184261 20.192936 37.015907 1.337744 0.993786 0.126874 -0.052010 1255290.000000 0 0 1
5.787808 30.458561 20.570736 37.207229 1.383013 0.984993 0.169794 -0.057224 940603.000000 0 0 1
5.058208 29.266961 20.330736 35.992768 1.399657 0.970537 0.182590 -0.048378 -560419.000000 0 0 1
3.608408 29.296661 20.773736 36.095195 1.448246 0.957549 0.181834 -0.038298 -652676.000000 0 0 1
3.329608 29.016861 22.090636 36.620496 1.456549 0.923250 0.133111 -0.037486 220253.000000 0 0 1
1.919408 28.872361 22.199336 36.470644 1.504415 0.916387 0.130664 -0.027083 210115.000000 0 0 1
1.444208 28.129561 23.480416 36.669986 1.519500 0.875885 0.123804 -0.019270 -123580.000000 0 0 1
1.502308 29.028561 24.573206 38.062537 1.519090 0.868987 0.134095 -0.031770 9449.670000 0 0 1
1.146708 28.526861 25.827996 38.499119 1.530620 0.835412 0.130096 -0.038658 -571297.000000 0 0 1
2.176808 27.741261 26.638646 38.521858 1.492489 0.807205 0.103673 -0.029123 -591737.000000 0 0 1
2.636308 26.591461 25.988526 37.275453 1.471978 0.799309 0.103764 -0.031583 47434.700000 0 0 1
3.476408 25.935361 26.901486 37.528900 1.437549 0.771565 0.068742 -0.013175 -335058.000000 0 0 1
4.027608 24.576461 26.431716 36.316108 1.408360 0.755654 0.066636 -0.006981 168991.000000 0 0 1
3.055008 23.549761 26.238396 35.388950 1.441791 0.735599 0.080854 -0.010833 303354.000000 0 0 1
3.713908 22.394161 25.785426 34.353745 1.406449 0.721848 0.075771 -0.005670 -34456.500000 0 0 1
2.720508 21.250561 25.778946 33.519272 1.443468 0.693398 0.080634 -0.007566 -88744.400000 0 0 1
3.261308 19.972361 26.094186 33.021779 1.408934 0.659642 0.105518 -0.010912 -54579.200000 0 0 1
3.926208 19.372761 24.987846 31.860814 1.370838 0.669259 0.101710 -0.008857 -103896.000000 0 0 1
4.433808 17.936961 25.375406 31.389560 1.328466 0.629363 0.102638 -0.018540 -365540.000000 0 0 1
5.510908 17.936461 26.255126 32.271015 1.272705 0.620510 0.086559 -0.016878 -1041360.000000 0 0 1
6.721408 17.687761 25.597046 31.831478 1.207646 0.636565 0.093491 -0.006874 -635094.000000 0 0 1
7.864408 17.533661 26.680086 32.880164 1.149164 0.624195 0.081270 -0.015800 303026.000000 0 0 1
8.379008 18.737761 27.243736 34.110594 1.150296 0.645684 0.092108 -0.015739 88601.800000 0 0 1
9.112508 19.582961 26.342986 34.065864 1.135269 0.686774 0.078700 -0.014341 -218184.000000 0 0 1
9.521708 20.846461 27.118056 35.505307 1.142340 0.701655 0.078199 -0.013176 -149215.000000 0 0 1
10.440208 20.486061 28.121846 36.325127 1.099478 0.685393 0.095813 -0.030425 -222209.000000 0 0 1
10.700608 21.664961 28.863796 37.642958 1.112030 0.696990 0.152937 -0.045552 -259930.000000 0 0 1
11.733608 21.444461 29.980836 38.683239 1.070134 0.684027 0.200013 -0.051153 1541470.000000 0 0 1
13.123108 21.318361 29.548076 38.726958 1.019001 0.702878 0.191329 -0.048109 1083350.000000 0 0 1
13.962208 21.250361 30.676326 39.844173 0.989492 0.692100 0.185614 -0.037994 -448607.000000 0 0 1
15.449308 21.203561 30.364866 40.128509 0.941120 0.712560 0.140330 -0.038226 -416672.000000 0 0 1
15.880008 22.344561 29.660896 40.388400 0.952933 0.746027 0.108247 -0.053788 -41944.700000 0 0 1
17.233508 22.233361 29.253426 40.584222 0.911412 0.765829 0.213178 -0.037195 426264.000000 0 0 1
-8.776947 16.796561 4.242167 19.420485 -1.089276 1.350583 0.019335 -0.012278 -37761.100000 0 1 0
-8.707347 18.177661 4.599767 20.673730 -1.124078 1.346425 0.031443 -0.015497 -606553.000000 0 1 0
-7.416047 18.616861 4.878767 20.624928 -1.191712 1.331986 0.035960 -0.009015 -898071.000000 0 1 0
-7.293647 19.962661 5.566867 21.970324 -1.220500 1.314622 0.048503 -0.011810 -126190.000000 0 1 0
-7.493447 21.086361 4.769267 22.880828 -1.229346 1.360817 0.064171 -0.019929 -236588.000000 0 1 0
-8.757947 21.205061 4.161567 23.316837 -1.179123 1.391356 0.065654 -0.029596 -333220.000000 0 1 0
-8.802647 22.408261 3.148367 24.280218 -1.196486 1.440762 0.117278 -0.042179 585937.000000 0 1 0
-8.052347 22.193361 1.906367 23.685857 -1.222740 1.490224 0.088463 -0.042542 345868.000000 0 1 0
-8.574647 21.146161 1.074567 22.843805 -1.185563 1.523739 0.101885 -0.044297 -940696.000000 0 1 0
-8.012347 21.214661 -0.372233 22.680347 -1.209678 1.587209 0.071165 -0.026780 190634.000000 0 1 0
-6.700947 20.783561 -0.633533 21.846292 -1.258904 1.599800 0.051456 -0.018121 -1169780.000000 0 1 0
-5.747147 21.553561 -0.061033 22.306713 -1.310214 1.573532 0.059602 -0.025877 -1522280.000000 0 1 0
-4.291247 21.205661 -0.463033 21.640455 -1.371129 1.592195 0.054240 -0.023563 200235.000000 0 1 0
-4.066847 21.491461 -1.834133 21.949629 -1.383777 1.654455 0.048354 -0.023664 -1266300.000000 0 1 0
-2.749047 21.426061 -2.206033 21.714049 -1.443190 1.672567 0.039963 -0.015861 -1177530.000000 0 1 0
-2.538347 21.616861 -3.711633 22.079586 -1.453907 1.739701 0.038776 -0.012840 -367362.000000 0 1 0
-1.270247 22.116561 -4.008233 22.512702 -1.513425 1.749794 0.050900 -0.013606 -500715.000000 0 1 0
-1.105447 22.375161 -5.384533 23.040466 -1.521431 1.806677 0.057544 -0.021173 1446220.000000 0 1 0
0.341153 22.836361 -5.870133 23.581227 1.555858 1.822374 0.060134 -0.026715 1638840.000000 0 1 0
1.433653 21.928561 -5.803233 22.728719 1.505511 1.828981 0.048712 -0.019076 120994.000000 0 1 0
2.461553 22.358261 -6.676133 23.463202 1.461142 1.859319 0.046365 -0.010015 156518.000000 0 1 0
3.537953 21.278561 -6.899733 22.647309 1.406035 1.880378 0.053038 -0.010624 -63974.200000 0 1 0
3.089453 20.392761 -7.844833 22.066963 1.420442 1.934247 0.046382 -0.015650 -12660.100000 0 1 0
3.934853 19.270261 -7.980733 21.225413 1.369372 1.956271 0.040546 -0.013912 26550.100000 0 1 0
3.678453 18.484261 -9.313733 21.022477 1.374358 2.029780 0.036387 -0.011565 -239104.000000 0 1 0
4.115853 19.179261 -10.463533 22.232180 1.359403 2.060821 0.044862 -0.013113 379176.000000 0 1 0
3.298053 18.764461 -11.574233 22.292264 1.396813 2.116716 0.049829 -0.013863 275413.000000 0 1 0
3.785653 19.225661 -12.938233 23.480952 1.376377 2.154370 0.054011 -0.013961 38608.900000 0 1 0
3.737353 20.593061 -13.153833 24.719735 1.391264 2.131897 0.084370 -0.022005 -17646.700000 0 1 0
4.427953 20.920561 -14.353533 25.754622 1.362219 2.161949 0.109215 -0.032209 272273.000000 0 0 1
4.715653 22.463261 -14.531033 27.165905 1.363874 2.135185 0.104099 -0.033657 -230959.000000 0 0 1
3.564753 23.209261 -14.823433 27.768893 1.418395 2.133901 0.125472 -0.034165 -327066.000000 0 0 1
3.895053 24.464061 -15.366033 29.150930 1.412906 2.126004 0.114600 -0.030194 -293158.000000 0 0 1
2.660153 25.271761 -15.777133 29.910805 1.465921 2.126419 0.115793 -0.032918 -425583.000000 0 0 1
1.877853 25.641961 -14.693833 29.613261 1.497693 2.090002 0.134879 -0.036933 -342869.000000 0 0 1
1.900953 27.009161 -14.459733 30.695151 1.500530 2.061306 0.121410 -0.035521 -436025.000000 0 0 1
1.037053 27.528361 -13.231833 30.560883 1.533142 2.018577 0.126865 -0.032105 457080.000000 0 0 1
-0.370747 27.520061 -13.373733 30.599803 -1.557325 2.023116 0.116270 -0.041165 314120.000000 0 0 1
-1.058147 26.265661 -13.441333 29.524127 -1.530532 2.043467 0.102843 -0.044039 -425020.000000 0 0 1
-0.950247 25.221061 -12.290333 28.072356 -1.533137 2.023957 0.121456 -0.040029 -914146.000000 0 0 1
-1.893947 25.360961 -11.286633 27.823614 -1.496255 1.988486 0.109729 -0.034171 -438571.000000 0 0 1
-2.154747 24.122261 -10.683233 26.469943 -1.481707 1.986243 0.116502 -0.027966 -15024.200000 0 0 1
-3.163147 24.081961 -9.508033 26.083502 -1.440195 1.943917 0.096317 -0.023112 -46359.000000 0 0 1
-2.858047 24.459561 -8.174133 25.947158 -1.454476 1.891285 0.110719 -0.025474 -290889.000000 0 0 1
-2.594747 25.869361 -7.997633 27.201447 -1.470829 1.869221 0.113533 -0.033987 -143151.000000 0 0 1
-2.332647 26.197561 -6.484633 27.088816 -1.481990 1.812528 0.103585 -0.036344 599269.000000 0 0 1
-1.101547 25.707561 -5.941233 26.408150 -1.527973 1.797716 0.094867 -0.034135 353047.000000 0 0 1
-0.960247 26.132861 -4.555233 26.544277 -1.534068 1.743259 0.098265 -0.038413 -42637.500000 0 0 1
-1.845647 25.474961 -3.461033 25.775159 -1.498473 1.705481 0.089511 -0.035728 179600.000000 0 0 1
-3.204547 25.889861 -3.486733 26.319410 -1.447647 1.703665 0.098128 -0.036866 204316.000000 0 0 1
-3.914247 25.559061 -2.295533 25.958745 -1.418832 1.659342 0.093670 -0.032542 -713311.000000 0 0 1
-5.114847 24.728661 -2.642233 25.389954 -1.366834 1.675051 0.085154 -0.033600 -1168700.000000 0 0 1
-6.156847 25.414761 -3.278733 26.354638 -1.333120 1.695528 0.087943 -0.032352 -742939.000000 0 0 1
-7.069347 24.523261 -3.848133 25.810350 -1.290134 1.720447 0.055858 -0.027165 257759.000000 0 0 1
-8.427447 25.235661 -4.141433 26.926046 -1.248491 1.725217 0.062659 -0.027272 31795.800000 0 0 1
-9.111747 25.471761 -2.937833 27.211494 -1.227261 1.678970 0.108846 -0.044510 258314.000000 0 0 1
-10.431047 26.005261 -3.147333 28.195497 -1.189331 1.682655 0.129657 -0.049332 1160460.000000 0 0 1
-11.157147 26.411761 -1.784133 28.727099 -1.171104 1.632943 0.146086 -0.053835 173431.000000 0 0 1
-11.753547 25.313461 -1.093533 27.930503 -1.136098 1.609958 0.143691 -0.051368 -503397.000000 0 0 1
-10.914647 24.355461 -0.540533 26.694760 -1.149491 1.591046 0.165699 -0.056409 -731544.000000 0 0 1
-11.548547 23.007561 -0.263433 25.744635 -1.105593 1.581029 0.128820 -0.049347 -311904.000000 0 0 1
-12.634547 23.133161 0.630167 26.366115 -1.070901 1.546893 0.151549 -0.058761 11731.700000 0 0 1
-13.447647 21.955361 0.613667 25.753712 -1.021237 1.546966 0.140402 -0.052590 44689.000000 0 0 1
-14.240647 21.899761 1.926567 26.193649 -0.994235 1.497179 0.136642 -0.055071 189781.000000 0 0 1
-13.465747 21.783961 3.142767 25.802021 -1.017138 1.448690 0.130803 -0.046853 298456.000000 0 0 1
-13.051847 23.001761 3.773967 26.714688 -1.054671 1.429053 0.135717 -0.060413 47645.300000 0 0 1
-12.768247 22.739961 5.286267 26.609746 -1.059175 1.370807 0.122098 -0.052389 863107.000000 0 0 1
-11.537447 22.080361 5.679567 25.552153 -1.089295 1.346651 0.114521 -0.039489 939217.000000 0 0 1
-11.631847 21.860561 7.065067 25.750712 -1.081805 1.292868 0.080662 -0.032968 1455890.000000 0 0 1
-10.183847 21.534861 7.656467 25.021640 -1.129062 1.259814 0.061285 -0.024034 1449740.000000 0 0 1
-9.363747 22.669861 8.034467 25.809979 -1.179092 1.254243 0.068911 -0.026578 1475640.000000 0 0 1
-8.191447 22.166261 8.758167 25.202151 -1.216816 1.215875 0.072592 -0.027588 704471.000000 0 0 1
-8.359147 21.957061 10.291967 25.649804 -1.207034 1.157916 0.078120 -0.037723 -577394.000000 0 0 1
-9.295447 20.969561 10.581367 25.260506 -1.153542 1.138574 0.079951 -0.031756 -369082.000000 0 0 1
-9.275647 20.582561 11.911667 25.525816 -1.147397 1.085295 0.063452 -0.024436 384940.000000 0 0 1
-10.355947 19.569761 12.486467 25.419147 -1.084077 1.057303 0.064108 -0.024910 277416.000000 0 0 1
-10.289647 18.289561 11.903067 24.126083 -1.058333 1.054837 0.078287 -0.043094 187342.000000 0 1 0
-11.065047 17.279861 12.544867 24.050001 -1.001239 1.022052 0.078163 -0.043582 -220016.000000 0 1 0
-11.023647 16.023661 11.649667 22.671419 -0.968196 1.031132 0.072585 -0.045928 -173020.000000 0 1 0
-11.644247 14.920061 12.321267 22.583409 -0.908095 0.993704 0.069281 -0.045834 132223.000000 0 1 0
-11.835647 13.771561 11.501267 21.494594 -0.860855 1.006197 0.049784 -0.021642 -57960.500000 0 1 0
-12.332347 12.675261 12.399567 21.598572 -0.799110 0.959302 0.041545 -0.025663 -328125.000000 0 1 0
-13.604347 12.834861 12.952467 22.750348 -0.756302 0.965105 0.079290 -0.023602 -240042.000000 0 1 0
-13.943947 11.698261 13.724467 22.795701 -0.698043 0.924713 0.054823 -0.007738 191160.000000 0 1 0
-14.934547 11.911561 14.897767 24.225389 -0.673266 0.908455 0.079305 -0.019495 141167.000000 0 1 0
-16.231347 12.304661 14.518567 25.012999 -0.648652 0.951526 0.103731 -0.034560 91859.400000 0 0 1
-17.007647 12.720461 15.670567 26.393879 -0.642172 0.935123 0.094565 -0.026712 263465.000000 0 0 1
-18.152347 13.646661 15.228467 27.343103 -0.644642 0.980099 0.086662 -0.029217 -229849.000000 0 0 1
-19.156447 13.017761 14.493267 27.321903 -0.596869 1.011649 0.119053 -0.036944 -259202.000000 0 0 1
-20.207747 13.895361 14.157267 28.317174 -0.602373 1.047251 0.154985 -0.041836 429503.000000 0 0 1
-21.382447 13.286061 13.329667 28.485233 -0.555973 1.083827 0.134104 -0.037908 88099.800000 0 0 1
-22.144247 12.368561 14.058967 29.000061 -0.509380 1.064672 0.136021 -0.029888 -182829.000000 0 0 1
-23.398347 12.292861 13.418967 29.642297 -0.483739 1.101009 0.122387 -0.028064 90997.000000 0 0 1
-24.402047 11.332161 14.133467 30.391326 -0.434759 1.087106 0.139009 -0.035874 314288.000000 0 0 1
-24.955677 11.825061 15.364467 31.601974 -0.442504 1.063075 0.125998 -0.027699 636159.000000 0 0 1
-26.223627 11.187561 15.550667 32.475582 -0.403243 1.071461 0.107212 -0.030709 467480.000000 0 0 1
-27.039967 11.694661 16.786667 33.907479 -0.408202 1.052878 0.090345 -0.022702 538156.000000 0 0 1
-27.958507 12.772961 16.487067 34.880511 -0.428539 1.078475 0.099875 -0.012020 328522.000000 0 0 1
-28.529537 13.391061 17.593167 36.093968 -0.438849 1.061656 0.089696 -0.009087 372643.000000 0 0 1
-29.693467 14.329361 17.116367 37.148386 -0.449612 1.091949 0.086075 -0.003456 417092.000000 0 0 1
-29.235257 15.426361 16.402967 36.901629 -0.485532 1.110174 0.088953 0.000426 -172083.000000 0 0 1
-30.274737 16.360161 16.267667 38.063783 -0.495435 1.129204 0.092382 0.011945 -26049.200000 0 0 1
-29.747427 17.802461 16.252767 38.288242 -0.539282 1.132404 0.103821 0.014190 -165579.000000 0 0 1
-29.246687 18.404861 17.411467 38.694532 -0.561684 1.104062 0.101475 0.007620 254932.000000 0 0 1
-30.176957 18.627161 18.501167 39.998913 -0.553017 1.089936 0.102291 -0.008404 -265245.000000 0 0 1
-29.590767 18.785061 19.896867 40.303565 -0.565636 1.054486 0.080420 -0.014891 126820.000000 0 0 1
-28.973877 17.801761 20.707067 39.814205 -0.550946 1.023837 0.077400 -0.015577 -334740.000000 0 0 1
-28.064897 16.948761 20.115267 38.464567 -0.543292 1.020481 0.094080 -0.006500 -609388.000000 0 0 1
-27.445607 15.829761 20.954967 37.986226 -0.523162 0.986459 0.082529 -0.015808 464365.000000 0 0 1
-28.462307 14.885661 21.326567 38.555263 -0.481874 0.984664 0.053070 -0.011008 690465.000000 0 0 1
-27.898047 13.605061 21.491467 37.752906 -0.453736 0.965183 0.055087 -0.007276 -343266.000000 0 0 1
-29.011657 12.582361 21.650667 38.324189 -0.409217 0.970442 0.067990 -0.017943 -402479.000000 0 0 1
-29.701177 12.378361 20.446567 38.124085 -0.394873 1.004730 0.084162 -0.016064 274734.000000 0 0 1
-30.800957 11.483261 20.700567 38.846850 -0.356859 1.008800 0.111572 -0.020517 272134.000000 0 0 1
-31.716047 11.332861 19.455167 38.895307 -0.343183 1.046974 0.118446 -0.027382 -562516.000000 0 0 1
-31.211487 10.777361 18.258767 37.731830 -0.332483 1.065680 0.140358 -0.032529 18001.400000 0 0 1
-30.674627 9.462761 18.438767 37.019788 -0.299226 1.049415 0.161199 -0.036575 -233513.000000 0 0 1
-29.778167 9.145161 17.244867 35.605599 -0.297967 1.065199 0.167299 -0.041517 80096.100000 0 0 1
-30.507637 8.843861 15.987867 35.560395 -0.282156 1.104482 0.172071 -0.038027 912149.000000 0 0 1
-31.175077 9.880861 15.262567 36.089650 -0.306931 1.134145 0.161961 -0.034025 346377.000000 0 0 1
-30.234867 10.968361 14.623567 35.331301 -0.348007 1.144064 0.140772 -0.021538 209551.000000 0 0 1
-29.526687 10.514261 13.456167 34.109286 -0.342093 1.165271 0.156158 -0.033163 202224.000000 0 0 1
-28.673517 11.522461 12.999967 33.525167 -0.382100 1.172588 0.132778 -0.025711 -335683.000000 0 0 1
-28.174457 11.265361 11.557567 32.469767 -0.380371 1.206867 0.185611 -0.019856 307825.000000 0 0 1
-27.338237 10.142461 11.258967 31.257208 -0.355258 1.202310 0.199848 -0.029476 730789.000000 0 0 1
-28.139347 9.000961 11.122267 31.568101 -0.309586 1.210741 0.211352 -0.028361 -7194.940000 0 0 1
-27.270217 7.929961 10.461567 30.265383 -0.282988 1.217853 0.238540 -0.039209 -82089.200000 0 0 1
-27.184077 8.016461 9.031667 29.745734 -0.286767 1.262297 0.250799 -0.030984 370158.000000 0 0 1
-26.528537 6.822361 8.547767 28.694463 -0.251716 1.268316 0.273277 -0.053978 8961.620000 0 0 1
-25.656417 7.160161 7.310167 27.621698 -0.272154 1.302952 0.270042 -0.043523 -225867.000000 0 0 1
-26.442787 7.691761 6.268967 28.243302 -0.283072 1.346969 0.280639 -0.046752 302065.000000 0 0 1
-25.584037 8.181661 5.247367 27.368182 -0.309517 1.377869 0.274422 -0.046345 -444556.000000 0 0 1
-26.228407 8.941761 4.066567 28.007524 -0.328562 1.425086 0.269142 -0.051081 -454641.000000 0 0 1
-27.130977 8.162661 3.295267 28.523284 -0.292247 1.455009 0.322823 -0.056445 116023.000000 0 0 1
-26.714497 6.943661 2.733767 27.737200 -0.254294 1.472076 0.312167 -0.055619 -906895.000000 0 0 1
-25.711807 7.018861 1.590467 26.700019 -0.266489 1.511193 0.303522 -0.047298 243229.000000 0 0 1
-24.412547 7.452461 2.020267 25.604553 -0.296286 1.491812 0.247316 -0.040119 951433.000000 0 0 1
-23.526947 7.499061 0.891167 24.709256 -0.308563 1.534722 0.242351 -0.025999 -193779.000000 0 1 0
-22.169547 8.077861 1.282867 23.630201 -0.349417 1.516480 0.159003 -0.028290 -378158.000000 0 1 0
-22.351647 9.458961 1.631167 24.325476 -0.400335 1.503690 0.172851 -0.041310 16145.200000 0 1 0
-21.351547 9.830361 2.518567 23.640384 -0.431473 1.464057 0.139677 -0.039570 -881927.000000 0 1 0
-21.561847 11.094961 3.368967 24.481858 -0.475231 1.432748 0.138425 -0.059330 -589490.000000 0 1 0
-21.222247 12.317461 2.642167 24.679641 -0.525885 1.463532 0.198418 -0.052021 238688.000000 0 1 0
-21.410247 13.559561 3.337267 25.561646 -0.564561 1.439865 0.196691 -0.057895 -159052.000000 0 0 1
-20.120047 14.107861 4.002867 24.897209 -0.611520 1.409320 0.147418 -0.046124 63994.100000 0 1 0
-19.810747 13.307861 5.071967 24.398560 -0.591513 1.361389 0.147082 -0.046279 -469652.000000 0 1 0
-18.927247 14.052561 5.841667 24.286627 -0.638652 1.327884 0.126351 -0.038549 -498603.000000 0 1 0
-18.256847 13.259561 6.968767 23.615507 -0.628146 1.271244 0.083529 -0.033436 249869.000000 0 1 0
-17.108247 12.533461 6.511567 22.185136 -0.632270 1.272899 0.069060 -0.021121 344315.000000 0 1 0
-16.607947 11.893261 7.614267 21.800244 -0.621462 1.214000 0.050662 -0.016466 -364129.000000 0 1 0
11.545553 -32.413304 -14.463733 37.324545 -1.228611 1.968728 0.044167 -0.023144 -338787.000000 0 0 1
12.769353 -32.362004 -13.780133 37.419884 -1.194972 1.947930 0.031420 -0.024130 -188126.000000 0 0 1
13.125153 -31.015604 -13.473333 36.273517 -1.170469 1.951353 0.040587 -0.029075 275207.000000 0 0 1
14.508753 -30.967504 -12.748533 36.496785 -1.132652 1.927626 0.057936 -0.025140 -137098.000000 0 0 1
15.563153 -31.391104 -13.552833 37.567172 -1.110529 1.939882 0.069487 -0.031569 36554.600000 0 0 1
16.801653 -30.940004 -12.970333 37.520780 -1.073313 1.923764 0.077120 -0.024864 512479.000000 0 0 1
18.023153 -31.525904 -13.693833 38.810279 -1.051451 1.931401 0.092418 -0.029777 -238713.000000 0 0 1
18.175653 -32.873904 -13.181733 39.809622 -1.065737 1.908286 0.095654 -0.038273 -5891.470000 0 0 1
19.193453 -33.560704 -13.913133 41.088743 -1.051293 1.916237 0.083259 -0.020702 410644.000000 0 0 1
19.277953 32.387561 -13.532133 40.046376 1.033894 1.915493 0.078493 -0.026836 35336.500000 0 0 1
19.940353 32.127661 -12.263633 39.751742 1.015324 1.884418 0.060988 -0.029177 235658.000000 0 0 1
19.793453 30.745361 -11.965533 38.473783 0.998801 1.887046 0.053884 -0.025388 228051.000000 0 0 1
20.537953 30.252861 -10.689333 38.095997 0.974388 1.855204 0.046725 -0.028149 157834.000000 0 0 1
21.922853 30.024361 -10.777633 38.706991 0.940108 1.852967 0.049852 -0.029886 -72727.700000 0 0 1
22.467153 29.805061 -9.502033 38.514975 0.924866 1.820080 0.036849 -0.022001 244569.000000 0 0 1
23.737553 28.926761 -9.390833 38.580004 0.883615 1.816678 0.042733 -0.015934 157618.000000 0 0 1
24.862253 29.359361 -10.107633 39.777732 0.868148 1.827716 0.048881 -0.021230 -31720.100000 0 0 1
25.995753 28.577761 -9.760133 39.846302 0.832675 1.818259 0.049955 -0.014549 39215.000000 0 0 1
27.226753 28.852161 -10.640733 41.072722 0.814374 1.832856 0.031734 -0.013352 -387107.000000 0 0 1
27.659553 30.189861 -10.433033 42.253127 0.829110 1.820294 0.044618 -0.024077 286234.000000 0 0 1
28.792153 30.437961 -11.271733 43.387896 0.813178 1.833601 0.048218 -0.018905 288386.000000 0 0 1
29.347553 31.839761 -11.034533 44.685682 0.826106 1.820314 0.044817 -0.024088 -417020.000000 0 0 1
28.613953 32.873561 -11.652633 45.113337 0.854564 1.832055 0.062191 -0.021722 -74029.100000 0 0 1
29.253753 -33.329404 -11.435833 45.797484 -0.850430 1.823171 0.052411 -0.022042 190354.000000 0 0 1
28.399053 -32.038404 -11.730233 44.391034 -0.845542 1.838220 0.053925 -0.016993 -165595.000000 0 0 1
27.290353 -31.951004 -10.891133 43.407912 -0.863909 1.824408 0.077197 -0.024342 -109001.000000 0 0 1
26.264553 -31.042004 -11.368033 42.221617 -0.868572 1.843407 0.081820 -0.025869 696756.000000 0 0 1
26.405753 -29.529604 -11.129033 41.147499 -0.841188 1.844674 0.069918 -0.019224 -921144.000000 0 0 1
27.317153 -28.904704 -11.955533 41.528828 -0.813628 1.862814 0.057007 -0.014607 -619283.000000 0 0 1
27.799053 -27.797704 -11.296833 40.903767 -0.785374 1.850614 0.042706 -0.018323 -380753.000000 0 0 1
28.794153 -26.899504 -12.033633 41.200666 -0.751392 1.867191 0.083012 -0.016953 951169.000000 0 0 1
30.133253 -27.383304 -12.270333 42.525514 -0.737623 1.863498 0.054278 -0.002771 965858.000000 0 0 1
30.275653 -28.178504 -13.436333 43.487680 -0.749537 1.884905 0.087437 -0.012656 -361617.000000 0 0 1
31.740153 -28.598904 -13.675633 44.859308 -0.733385 1.880584 0.086611 -0.008621 -33087.800000 0 0 1
32.068053 -29.646604 -12.804633 45.510875 -0.746182 1.856000 0.089324 -0.011484 -410349.000000 0 0 1
33.029953 -30.460304 -13.402733 46.887537 -0.744947 1.860688 0.078179 -0.009903 -435359.000000 0 0 1
33.435453 -31.605604 -12.428933 47.658390 -0.757272 1.834639 0.070972 -0.010440 -136092.000000 0 0 1
34.270353 -32.581104 -13.018033 49.045434 -0.760135 1.839444 0.070842 -0.019004 -199711.000000 0 0 1
35.028253 -33.176104 -12.004433 49.716585 -0.758249 1.814664 0.080450 -0.014804 -297335.000000 0 0 1
34.444353 32.977461 -11.367833 49.021975 0.763645 1.804819 0.073577 -0.017633 -263141.000000 0 0 1
33.443453 33.353761 -10.461233 48.377426 0.784055 1.788760 0.052168 -0.020903 -133016.000000 0 0 1
32.932953 32.250961 -9.730633 47.110393 0.774936 1.778844 0.050455 -0.018254 30416.900000 0 0 1
32.129753 32.652561 -8.456833 46.583568 0.793468 1.753350 0.046012 -0.012485 536962.000000 0 0 1
31.025653 33.519261 -8.723033 46.499713 0.824013 1.759508 0.030778 -0.017283 -72724.200000 0 0 1
30.258153 -33.712104 -7.574733 45.928622 -0.839339 1.736477 0.021875 -0.012890 -195199.000000 0 0 1
29.253253 -32.612704 -7.706833 44.482992 -0.839647 1.744928 0.010424 -0.013209 -617893.000000 0 0 1
29.894453 -31.362004 -7.724533 44.010476 -0.809351 1.747226 -0.004857 -0.015592 199322.000000 0 0 1
29.082653 -30.335004 -8.298533 42.835486 -0.806472 1.765759 -0.009864 0.001801 76470.700000 0 0 1
28.063753 -29.713804 -7.336833 41.524854 -0.813949 1.748414 0.002026 -0.000210 45336.700000 0 0 1
27.298953 -28.701204 -7.964233 40.403229 -0.810433 1.769214 0.014776 -0.013733 -669478.000000 0 0 1
26.404253 -28.100004 -7.112633 39.209493 -0.816500 1.753207 0.026739 -0.016276 -556642.000000 0 0 1
25.530753 -27.129104 -7.952333 38.092614 -0.815741 1.781106 0.092171 -0.027223 161659.000000 0 0 1
24.523753 -27.864304 -8.680033 38.120557 -0.849077 1.800511 0.117324 -0.031886 639006.000000 0 0 1
23.846853 -27.104404 -9.645033 37.367737 -0.849246 1.831863 0.143321 -0.045143 382441.000000 0 0 1
22.586553 -27.784304 -10.268433 37.249975 -0.888224 1.850075 0.132285 -0.041928 150671.000000 0 0 1
22.941253 -28.816004 -11.178333 38.491795 -0.898420 1.865450 0.142321 -0.040628 101232.000000 0 0 1
21.887753 -29.447804 -11.879833 38.566531 -0.931615 1.883923 0.121919 -0.039252 192310.000000 0 0 1
21.310953 -30.767804 -11.303433 39.097085 -0.965028 1.864095 0.111936 -0.042769 -300515.000000 0 0 1
22.243853 -31.763504 -11.467033 40.437631 -0.959872 1.858315 0.089377 -0.034196 -789823.000000 0 0 1
21.929753 -32.978104 -10.839833 41.060582 -0.983963 1.837959 0.068655 -0.032280 162707.000000 0 0 1
23.069053 33.413261 -10.767833 42.006826 0.966532 1.830025 0.058053 -0.025121 746402.000000 0 0 1
24.103453 33.699661 -9.821033 42.580469 0.949913 1.803538 0.056786 -0.019705 106939.000000 0 0 1
25.100253 32.714861 -9.868533 42.398972 0.916351 1.805705 0.060363 -0.022566 -672017.000000 0 0 1
26.382653 33.021561 -9.113433 43.237976 0.896695 1.783163 0.051673 -0.018723 -940927.000000 0 0 1
26.388953 32.833861 -7.704533 42.822881 0.893796 1.751698 0.031418 -0.015372 169592.000000 0 0 1
26.778353 31.496861 -7.399033 41.998549 0.866191 1.747894 0.043737 -0.017048 -290842.000000 0 0 1
26.673153 31.113561 -5.901933 41.404632 0.862089 1.713826 0.040560 -0.009216 -66844.900000 0 0 1
27.623953 31.779361 -5.027633 42.406222 0.855237 1.689635 0.038673 -0.009824 999720.000000 0 0 1
28.707353 30.964861 -4.559233 42.470241 0.823212 1.678355 0.051187 -0.006264 298897.000000 0 0 1
28.396653 29.722161 -3.661033 41.269601 0.808201 1.659623 0.054607 0.002281 -577266.000000 0 0 1
27.889953 30.023661 -2.357433 41.046647 0.822224 1.628261 0.050232 0.003018 192161.000000 0 0 1
27.853753 28.829461 -1.576733 40.118019 0.802610 1.610109 0.047483 0.005937 108572.000000 0 0 1
26.509153 28.065861 -1.696233 38.643304 0.813915 1.614705 0.059306 0.005877 -542706.000000 0 0 1
25.426153 28.819261 -1.264433 38.453060 0.847868 1.603685 0.066580 -0.003226 -1567070.000000 0 0 1
24.285353 28.109361 -1.560633 37.179969 0.858254 1.612784 0.076653 -0.007807 70092.800000 0 0 1
22.935853 28.768661 -1.066333 36.807965 0.897734 1.599771 0.082517 -0.010581 923999.000000 0 0 1
22.809453 28.734761 0.373067 36.689192 0.899852 1.560628 0.087139 -0.013732 -443565.000000 0 0 1
21.638553 29.343061 0.857667 36.468861 0.935386 1.547276 0.075117 -0.018871 -179434.000000 0 0 1
21.026753 28.490461 1.991167 35.465412 0.935002 1.514623 0.084259 -0.034413 -9418.840000 0 0 1
20.096653 27.488361 1.594267 34.088519 0.939503 1.524011 0.109084 -0.032343 594023.000000 0 0 1
19.605353 26.635461 2.627567 33.177127 0.936275 1.491515 0.130670 -0.038984 -25739.500000 0 0 1
18.918853 25.377861 2.041667 31.719509 0.930190 1.506386 0.143885 -0.033139 29038.400000 0 0 1
19.769053 24.379061 1.506267 31.423286 0.889443 1.522843 0.157331 -0.033489 245254.000000 0 0 1
20.668553 23.768561 2.403167 31.589694 0.855047 1.494648 0.135725 -0.018467 -623439.000000 0 0 1
21.830553 23.055061 1.749667 31.798903 0.812672 1.515746 0.153811 -0.028054 -643143.000000 0 0 1
21.416253 21.819661 1.146867 30.595242 0.794728 1.533302 0.165415 -0.030958 145080.000000 0 0 1
22.471653 21.058361 0.588067 30.802201 0.752943 1.551703 0.119404 -0.039049 -171685.000000 0 0 1
22.159553 20.131661 -0.624633 29.945279 0.737484 1.591657 0.148207 -0.034201 -737631.000000 0 0 1
22.056153 20.886561 -1.833633 30.431637 0.758169 1.631087 0.118684 -0.024284 294216.000000 0 0 1
22.233153 19.968561 -2.939233 30.028247 0.731788 1.668836 0.145666 -0.016564 -207285.000000 0 0 1
22.355753 20.760261 -4.246733 30.802644 0.748410 1.709106 0.122698 -0.039355 -199667.000000 0 0 1
23.429453 21.681461 -4.169233 32.193284 0.746669 1.700667 0.120271 -0.033685 170801.000000 0 0 1
23.677353 22.181861 -5.464133 32.901501 0.752799 1.737645 0.086538 -0.025319 -739682.000000 0 0 1
24.810553 23.187761 -5.477733 34.398276 0.751602 1.730722 0.079093 -0.013801 -638319.000000 0 0 1
24.661153 24.431761 -4.766733 35.040051 0.780726 1.707256 0.065318 -0.005950 -237281.000000 0 0 1
24.790653 24.373161 -3.313033 34.922824 0.776907 1.665806 0.079470 -0.011933 -599735.000000 0 0 1
23.603253 24.134661 -2.387033 33.842183 0.796529 1.641389 0.086175 -0.021340 -664754.000000 0 0 1
22.623953 25.218461 -2.261033 33.954768 0.839575 1.637435 0.103866 -0.022587 2033110.000000 0 0 1
21.530553 24.897761 -1.354133 32.943845 0.857796 1.611912 0.125772 -0.022426 1089050.000000 0 0 1
20.536753 23.754861 -1.774433 31.451554 0.857928 1.627244 0.156590 -0.036392 -609013.000000 0 0 1
19.714053 24.176461 -2.850633 31.325250 0.886721 1.661924 0.123675 -0.027383 -346266.000000 0 0 1
18.838453 23.222061 -3.281433 30.081876 0.889245 1.680097 0.130193 -0.036065 -393591.000000 0 0 1
18.012453 23.712761 -4.508733 30.117639 0.921173 1.721065 0.128165 -0.042999 -72924.700000 0 0 1
17.334553 22.645261 -5.150433 28.979675 0.917460 1.749471 0.145713 -0.051414 159740.000000 0 0 1
16.909653 23.023661 -6.433133 29.281573 0.937324 1.792302 0.142696 -0.050240 99179.800000 0 0 1
16.220353 21.904261 -7.323833 28.222952 0.933396 1.833300 0.157332 -0.042724 -209097.000000 0 0 1
17.101553 20.893061 -7.712233 28.079559 0.884860 1.849029 0.169945 -0.046753 98074.000000 0 0 1
16.471953 20.021761 -8.621033 27.322488 0.882365 1.891810 0.224912 -0.048086 -166995.000000 0 0 1
17.281053 18.760561 -8.965133 27.036402 0.826425 1.908790 0.214599 -0.046545 -385619.000000 0 0 1
18.413053 18.874361 -9.780333 28.123601 0.797769 1.925980 0.186327 -0.046185 245517.000000 0 0 1
18.956653 17.573361 -10.131633 27.763784 0.747549 1.944346 0.184272 -0.042686 193008.000000 0 0 1
20.478953 17.585861 -10.393933 28.925488 0.709540 1.938351 0.159509 -0.042733 -137207.000000 0 0 1
20.837753 17.989861 -11.706333 29.914633 0.712182 1.972867 0.161776 -0.040606 426103.000000 0 0 1
22.260053 17.991661 -11.720233 30.928526 0.679751 1.959453 0.156690 -0.032667 332108.000000 0 0 1
22.960453 18.373361 -13.041933 32.169159 0.674874 1.988232 0.152853 -0.037626 -126607.000000 0 0 1
22.843253 17.400961 -14.022533 31.956832 0.650982 2.025055 0.138782 -0.035978 150473.000000 0 0 1
23.209353 17.851761 -15.311133 33.042249 0.655653 2.052602 0.147152 -0.037822 -105870.000000 0 0 1
22.837253 16.924561 -16.426433 32.829995 0.637777 2.094797 0.127192 -0.035970 -126772.000000 0 0 1
23.770053 15.858961 -16.394233 32.943785 0.588360 2.091675 0.143514 -0.035489 316279.000000 0 0 1
23.706753 15.130761 -17.597733 33.175748 0.568069 2.129915 0.144773 -0.045324 140230.000000 0 0 1
24.498153 15.801061 -18.789533 34.682554 0.572845 2.143323 0.150949 -0.042987 194947.000000 0 0 1
25.903153 15.702461 -18.640333 35.566875 0.544965 2.122446 0.170707 -0.035923 604113.000000 0 0 1
26.680753 16.240061 -19.709133 36.933076 0.546778 2.133700 0.183205 -0.042367 770131.000000 0 0 1
28.223153 16.344161 -19.504033 38.001122 0.524914 2.109762 0.162053 -0.042560 597518.000000 0 0 1
28.573453 17.363161 -18.641733 38.281011 0.546038 2.079414 0.149219 -0.041279 310964.000000 0 0 1
29.971753 17.377161 -18.355833 39.207248 0.525423 2.058020 0.111256 -0.045216 402019.000000 0 0 1
30.318953 18.479361 -17.382933 39.533430 0.547375 2.026063 0.109870 -0.036426 -148869.000000 0 0 1
29.720853 18.357661 -16.126733 38.476023 0.553310 2.003291 0.107864 -0.035142 578559.000000 0 0 1
28.519853 19.129361 -15.985333 37.879352 0.590816 2.006454 0.122153 -0.030593 754804.000000 0 0 1
27.602153 18.892361 -14.734533 36.550056 0.600215 1.985734 0.116257 -0.031659 79580.100000 0 0 1
28.158253 19.259061 -13.501233 36.688989 0.599878 1.947644 0.092353 -0.028562 -379803.000000 0 0 1
27.248353 19.128961 -12.483433 35.555956 0.612082 1.929534 0.100612 -0.025720 -665815.000000 0 0 1
27.821953 19.524761 -11.136733 35.767362 0.611916 1.887426 0.077459 -0.015760 -260888.000000 0 0 1
27.887753 20.948861 -11.003033 36.573874 0.644259 1.876374 0.091505 -0.013450 46533.700000 0 0 1
28.235853 21.468961 -9.723733 36.779487 0.650088 1.838357 0.077042 -0.010385 216829.000000 0 0 1
27.190053 21.219561 -8.590033 35.543740 0.662685 1.814888 0.086844 -0.017165 -63989.500000 0 0 1
27.297153 19.886961 -8.075133 34.725114 0.629622 1.805489 0.092615 -0.030913 150777.000000 0 0 1
26.439053 19.712661 -6.966333 33.706710 0.640672 1.778972 0.107833 -0.038112 -404775.000000 0 0 1
25.038853 19.195061 -7.283733 32.379736 0.654048 1.797685 0.158501 -0.036594 -381536.000000 0 0 1
24.206853 20.073461 -8.045633 32.459941 0.692322 1.821271 0.119526 -0.030873 -93544.200000 0 0 1
22.931953 19.550961 -8.289533 31.254294 0.705981 1.839237 0.090541 -0.033534 -216108.000000 0 0 1
21.870353 20.692361 -8.360633 31.247181 0.757729 1.841661 0.128399 -0.041761 -389617.000000 0 0 1
21.990053 21.521661 -9.520633 32.208489 0.774634 1.870873 0.131725 -0.034836 667472.000000 0 0 1
21.031453 21.368961 -10.604533 31.802683 0.793358 1.910755 0.148375 -0.037525 254154.000000 0 0 1
19.579953 21.798661 -10.411433 31.095886 0.838967 1.912207 0.146563 -0.032824 -709760.000000 0 0 1
19.452853 23.162561 -10.114733 31.893974 0.872230 1.893505 0.119926 -0.037601 -187740.000000 0 0 1
18.111753 23.539361 -9.996033 31.337801 0.914979 1.895446 0.113002 -0.033271 -510383.000000 0 0 1
18.094153 24.993061 -9.457133 32.272106 0.944166 1.868205 0.089392 -0.036556 -219257.000000 0 0 1
18.527653 25.962261 -10.421933 33.554875 0.950976 1.886614 0.127640 -0.027121 225627.000000 0 0 1
18.330753 27.317061 -9.993933 34.381929 0.979774 1.865728 0.121437 -0.041122 -116205.000000 0 0 1
21.016553 29.090661 33.350906 48.992295 0.945162 0.822027 0.090674 -0.013600 729902.000000 0 0 1
19.599553 29.236161 33.295474 48.450843 0.980222 0.813167 0.112481 -0.026337 261112.000000 0 0 1
18.893953 28.086461 33.616806 47.706608 0.978624 0.788856 0.114227 -0.029110 829180.000000 0 0 1
17.332253 28.241261 33.461216 47.091706 1.020349 0.780511 0.136815 -0.038237 962628.000000 0 0 1
17.040353 28.369561 32.103727 46.106994 1.029894 0.800584 0.153638 -0.040561 -381323.000000 0 0 1
15.709253 28.819261 31.999569 45.839970 1.071726 0.798096 0.164352 -0.042001 -495629.000000 0 0 1
15.142653 28.776261 30.589926 44.644336 1.086393 0.815930 0.165402 -0.044524 -524015.000000 0 0 1
14.486953 27.562161 30.390646 43.510182 1.086871 0.797536 0.163094 -0.054240 -1009240.000000 0 0 1
13.107853 27.660161 30.465166 43.185955 1.128255 0.787750 0.155688 -0.037573 -903041.000000 0 0 1
12.317553 26.295461 30.486346 42.102146 1.132723 0.761061 0.137679 -0.041373 184534.000000 0 0 1
12.417153 25.508261 29.335156 40.809416 1.117773 0.768674 0.138932 -0.037593 1217260.000000 0 0 1
13.667753 24.789361 29.092596 40.591859 1.066913 0.771723 0.129338 -0.034625 1152280.000000 0 0 1
13.610653 23.989061 27.775186 39.143146 1.054716 0.781895 0.161930 -0.038514 -323725.000000 0 0 1
13.575053 24.777161 26.635826 38.828559 1.069578 0.814839 0.134964 -0.038501 145706.000000 0 0 1
13.721453 24.075261 25.472796 37.639870 1.052773 0.827457 0.138023 -0.036809 522940.000000 0 0 1
12.458953 23.221561 25.034766 36.348396 1.078357 0.811040 0.134374 -0.028986 504003.000000 0 0 1
12.539453 22.595261 23.825656 35.148906 1.064153 0.825963 0.149049 -0.035163 -131128.000000 0 0 1
11.252853 22.228361 23.393416 34.175703 1.102170 0.816873 0.148438 -0.030711 -118370.000000 0 0 1
11.171953 21.866561 21.861436 32.876761 1.098455 0.843368 0.174000 -0.044524 -218025.000000 0 0 1
11.143653 23.019961 21.070536 33.137096 1.119960 0.881675 0.171671 -0.044259 156260.000000 0 0 1
11.121253 22.753661 19.682636 32.075186 1.116175 0.910133 0.178120 -0.041182 -478337.000000 0 0 1
10.754253 24.018461 18.868936 32.381741 1.149816 0.948746 0.142443 -0.045937 353832.000000 0 0 1
9.401553 24.415961 18.710736 32.165510 1.203237 0.949977 0.141998 -0.050731 205791.000000 0 0 1
8.748953 24.911661 19.891636 33.057711 1.233054 0.925138 0.143596 -0.053023 396580.000000 0 0 1
7.309553 25.427161 19.585136 32.917285 1.290874 0.933555 0.135309 -0.053076 388663.000000 0 0 1
7.334553 26.541061 18.728936 33.301601 1.301178 0.973507 0.120270 -0.054960 -555221.000000 0 0 1
6.083753 26.773561 18.147936 32.911749 1.347360 0.986740 0.119619 -0.062910 -517378.000000 0 0 1
6.177953 27.981661 17.190636 33.416440 1.353497 1.030446 0.141047 -0.063430 139050.000000 0 0 1
6.780053 27.605161 15.943936 32.591765 1.329955 1.059622 0.122309 -0.048478 -266533.000000 0 0 1
7.905353 28.409961 15.706236 33.411171 1.299402 1.081404 0.128423 -0.052305 -133054.000000 0 0 1
8.777053 28.095061 14.472936 32.799924 1.267998 1.113806 0.103258 -0.043241 -292313.000000 0 0 1
8.156053 28.245761 13.233836 32.240947 1.289689 1.147830 0.128716 -0.044315 -128202.000000 0 0 1
7.594853 26.989761 12.707536 30.783282 1.296492 1.145263 0.115243 -0.044558 418552.000000 0 0 1
6.828453 27.245661 11.390836 30.310146 1.325229 1.185526 0.104464 -0.046182 14866.000000 0 0 1
7.634753 27.550561 10.247436 30.369933 1.300462 1.226621 0.080540 -0.036575 91552.100000 0 0 1
7.859953 28.922561 10.108136 31.630173 1.305446 1.245518 0.103493 -0.041869 -194503.000000 0 0 1
7.794453 29.380861 8.604136 31.591449 1.311480 1.294955 0.087034 -0.024502 565551.000000 0 0 1
6.487053 29.279261 8.012136 31.041123 1.352760 1.309727 0.077806 -0.022684 470295.000000 0 0 1
6.220953 28.058861 7.369636 29.670044 1.352615 1.319782 0.072819 -0.016601 678253.000000 0 0 1
4.667553 27.863461 7.215236 29.158501 1.404822 1.320750 0.094142 -0.029950 792493.000000 0 0 1
4.123553 28.748461 6.251936 29.707986 1.428332 1.358765 0.093806 -0.016712 -1146630.000000 0 0 1
2.762853 28.908161 6.410536 29.739034 1.475512 1.353531 0.093605 -0.007532 -839786.000000 0 0 1
2.062553 29.812061 5.388136 30.365196 1.501721 1.392407 0.116903 -0.011717 -167754.000000 0 0 1
1.830753 29.251961 4.138536 29.599939 1.508292 1.430521 0.105389 -0.012798 -152620.000000 0 0 1
1.264353 30.067861 3.181336 30.262118 1.528771 1.465476 0.106376 -0.019036 -254162.000000 0 0 1
0.272753 29.370861 2.260136 29.458956 1.561510 1.493999 0.124288 -0.032228 251416.000000 0 0 1
0.936853 28.590361 1.220036 28.631712 1.538040 1.528172 0.120507 -0.037601 497813.000000 0 0 1
0.045853 27.594361 0.742336 27.604383 1.569135 1.543901 0.120477 -0.039937 208382.000000 0 0 1
-0.433747 27.615261 -0.725464 27.628194 -1.555091 1.597057 0.117768 -0.046713 35124.700000 0 0 1
-1.370847 28.659761 -0.908464 28.706906 -1.523001 1.602448 0.130845 -0.047931 -58676.900000 0 0 1
-1.158847 29.302561 -2.163864 29.405192 -1.531269 1.644451 0.113954 -0.039643 -612106.000000 0 0 1
-2.261247 30.307261 -2.493064 30.493584 -1.496324 1.652645 0.147108 -0.036981 -12788.000000 0 0 1
-3.575547 29.864461 -2.739164 30.202212 -1.451638 1.661615 0.129342 -0.040686 106658.000000 0 0 1
-3.771247 29.031361 -3.872664 29.530320 -1.441617 1.702317 0.089088 -0.040116 -1083110.000000 0 0 1
-5.219647 28.947361 -4.354064 29.734699 -1.392398 1.717755 0.099323 -0.033090 -449937.000000 0 0 1
-5.781647 30.066961 -4.959864 31.016929 -1.380823 1.731394 0.108333 -0.037477 -349485.000000 0 0 1
-6.645447 29.646661 -5.962364 30.961852 -1.350286 1.764578 0.096138 -0.039355 -665988.000000 0 0 1
-7.138247 30.851061 -6.738364 32.375116 -1.343420 1.780463 0.102496 -0.034804 -441133.000000 0 0 1
-8.109847 31.627961 -6.088264 33.213921 -1.319790 1.755143 0.088183 -0.033364 -263289.000000 0 0 1
-8.461447 32.767961 -6.883964 34.535841 -1.318093 1.771469 0.086255 -0.041105 -56066.100000 0 0 1
-9.593947 33.519461 -6.138964 35.401765 -1.292029 1.745086 0.088081 -0.040804 977462.000000 0 0 1
-10.915047 32.960861 -6.222364 35.274275 -1.251010 1.748124 0.096207 -0.042098 422797.000000 0 0 1
-11.795547 -33.693504 -5.459764 36.113656 1.234047 1.722561 0.102481 -0.045848 -414836.000000 0 0 1
-13.255847 33.353861 -5.545164 36.317302 -1.192507 1.724082 0.139686 -0.044999 -382334.000000 0 0 1
-13.736047 33.491261 -6.871164 36.845033 -1.181581 1.758383 0.132286 -0.043621 704478.000000 0 0 1
-15.168347 33.404061 -6.936864 37.336713 -1.144549 1.757674 0.153257 -0.051057 450685.000000 0 0 1
-15.804147 33.046061 -8.292464 37.557665 -1.124703 1.793424 0.184404 -0.049726 527303.000000 0 0 1
-17.181247 32.702461 -8.307364 37.863683 -1.087051 1.791998 0.226427 -0.044579 630022.000000 0 0 1
-18.086947 -33.649304 -8.361164 39.106552 1.077590 1.786264 0.226987 -0.044327 -1099350.000000 0 0 1
-19.490747 33.427461 -8.802664 39.683388 -1.042914 1.794479 0.212003 -0.044295 30613.600000 0 0 1
-20.380547 32.847661 -7.823764 39.440421 -1.015471 1.770490 0.201605 -0.048567 488214.000000 0 0 1
-20.851147 -33.691404 -6.860164 40.211229 1.016605 1.742238 0.189354 -0.045198 -644677.000000 0 0 1
-21.691247 33.205261 -5.733264 40.074554 -0.992142 1.714354 0.201385 -0.047818 -264185.000000 0 0 1
-21.457647 -33.452804 -4.596364 40.008090 1.000469 1.685936 0.191853 -0.051935 306520.000000 0 0 1
-22.326047 33.726361 -3.493064 40.597061 -0.986048 1.656945 0.197553 -0.047193 240339.000000 0 0 1
-23.622047 -32.887104 -3.489664 40.641610 0.947909 1.656767 0.227688 -0.060047 303403.000000 0 0 1
-24.526047 -33.310004 -4.514464 41.610861 0.936123 1.679503 0.228923 -0.070496 -169077.000000 0 0 1
-25.494047 -32.365204 -4.848864 41.484507 0.903601 1.687948 0.234499 -0.083837 26330.500000 0 0 1
-26.156207 -32.649904 -6.232664 42.296684 0.895378 1.718691 0.264429 -0.067999 795905.000000 0 0 1
-25.151847 -32.459404 -7.281764 41.704345 0.911567 1.746300 0.269680 -0.050630 881829.000000 0 0 1
-25.516367 -32.886304 -8.605964 42.504783 0.910926 1.774676 0.209700 -0.049621 -44127.000000 0 0 1
-26.700187 -32.211804 -9.358264 42.872805 0.878683 1.790848 0.169529 -0.037409 -1480710.000000 0 0 1
-27.895517 -32.575504 -8.798764 43.780607 0.862636 1.773148 0.201288 -0.028823 -1647260.000000 0 0 1
-28.986627 -31.899404 -9.335864 44.101643 0.833202 1.784100 0.122166 -0.024617 -497994.000000 0 0 1
-29.171457 -30.359104 -9.115964 43.078416 0.805346 1.784022 0.105045 -0.007985 -563358.000000 0 0 1
-28.239417 -29.478604 -9.755064 41.971586 0.806865 1.805362 0.109843 -0.009597 303780.000000 0 0 1
-28.563047 -29.292804 -11.136464 42.402086 0.798011 1.836553 0.106590 -0.004951 -183930.000000 0 0 1
-27.687887 -28.219704 -11.784864 41.253531 0.794910 1.860501 0.132364 -0.010205 891250.000000 0 0 1
-26.309107 -28.628204 -11.907564 40.663660 0.827587 1.867982 0.124504 -0.021456 543404.000000 0 0 1
-25.586457 -27.778604 -12.742864 39.858477 0.826453 1.896212 0.108671 -0.028972 -430301.000000 0 0 1
-24.232847 -28.367804 -13.189464 39.571772 0.863847 1.910603 0.129632 -0.032404 -214265.000000 0 0 1
-24.165447 -29.506804 -14.010464 40.631434 0.884590 1.922842 0.145725 -0.042340 -241066.000000 0 0 1
-24.623847 -30.649004 -13.381664 41.530281 0.893977 1.898864 0.136189 -0.043814 -393398.000000 0 0 1
-24.327847 -31.927704 -14.186164 42.573110 0.919680 1.910512 0.149673 -0.034992 57577.000000 0 0 1
-24.712147 -33.048804 -13.392164 43.385063 0.928739 1.884603 0.137735 -0.038698 135047.000000 0 0 1
-24.658347 33.235461 -14.211564 43.756126 -0.932481 1.901586 0.140761 -0.034685 -43123.100000 0 0 1
-25.140567 31.969661 -13.348964 42.805399 -0.904410 1.887938 0.122911 -0.042062 189109.000000 0 0 1
-24.196147 31.456561 -12.425564 41.585616 -0.915125 1.874226 0.120057 -0.042846 214672.000000 0 0 1
-23.840747 32.370661 -11.378164 41.781617 -0.935996 1.846604 0.171417 -0.042941 -308604.000000 0 0 1
-23.260347 31.529861 -10.248564 40.499493 -0.935198 1.826632 0.172825 -0.041890 -304267.000000 0 0 1
-24.113847 31.279161 -9.193964 40.551110 -0.914038 1.799510 0.164055 -0.042425 -328281.000000 0 0 1
-23.360347 30.720661 -8.175364 39.449986 -0.920665 1.779543 0.156679 -0.040737 -181523.000000 0 0 1
-24.116847 29.655861 -7.397864 38.933544 -0.888044 1.761971 0.151691 -0.034495 26656.500000 0 0 1
-24.699347 28.662461 -8.305264 38.737215 -0.859531 1.786874 0.143843 -0.004097 326939.000000 0 0 1
-25.318357 27.605261 -7.589964 38.218807 -0.828583 1.770718 0.135007 -0.000902 163209.000000 0 0 1
-24.349647 26.551561 -6.921664 36.685149 -0.828630 1.760612 0.136361 -0.008615 73227.500000 0 0 1
-23.750747 27.020261 -5.704364 36.424336 -0.849707 1.728052 0.150504 -0.011239 280688.000000 0 0 1
-23.045247 25.861761 -5.193964 35.027009 -0.842924 1.719630 0.123587 -0.019677 2173.820000 0 0 1
-21.550847 26.207561 -5.090164 34.310130 -0.882597 1.719703 0.108031 -0.045310 109503.000000 0 0 1
-20.712047 26.455261 -6.246064 34.174304 -0.906564 1.754600 0.117319 -0.038941 866501.000000 0 0 1
-19.501447 27.100961 -5.873564 33.900845 -0.947047 1.744932 0.133675 -0.047419 451478.000000 0 0 1
-18.365447 27.240761 -6.921164 33.574562 -0.977603 1.778428 0.140868 -0.044752 -97992.500000 0 0 1
-18.645647 27.829361 -8.202564 34.487905 -0.980490 1.810937 0.139174 -0.046003 40858.200000 0 0 1
-18.825047 29.262561 -8.205464 35.749259 -0.999135 1.802389 0.168988 -0.046613 -43098.300000 0 0 1
-18.717647 29.782261 -9.644764 36.474030 -1.009696 1.838407 0.163971 -0.036726 189421.000000 0 0 1
-17.408047 29.723361 -10.189564 35.921380 -1.040981 1.858408 0.148854 -0.043631 75574.100000 0 0 1
-17.334547 30.528561 -11.343264 36.893756 -1.054379 1.883316 0.145478 -0.043712 235082.000000 0 0 1
-15.860047 30.619661 -11.827264 36.455300 -1.092877 1.901207 0.139695 -0.042740 470078.000000 0 0 1
-15.565347 31.422861 -13.003764 37.400189 -1.110875 1.925905 0.134596 -0.038246 -134374.000000 0 0 1
-16.083947 30.892861 -14.218764 37.619616 -1.090776 1.958390 0.136045 -0.037771 4467.750000 0 0 1
-15.533247 31.552061 -15.535264 38.446830 -1.113323 1.986760 0.167484 -0.047286 280528.000000 0 0 1
-14.128147 31.375661 -15.630664 37.793575 -1.147701 1.997179 0.177433 -0.057713 100271.000000 0 0 1
-13.711947 31.660261 -16.977564 38.452923 -1.162088 2.028083 0.171522 -0.063048 617163.000000 0 0 1
-12.212947 32.072661 -17.163564 38.371860 -1.206959 2.034536 0.187860 -0.064330 533354.000000 0 0 1
-11.337647 30.962361 -17.008764 37.101322 -1.219785 2.047036 0.195942 -0.074831 1602540.000000 0 0 1
-10.032247 31.105861 -17.684264 37.161187 -1.258810 2.066761 0.192063 -0.067088 1824020.000000 0 0 1
-10.035047 31.016661 -19.245264 37.856514 -1.257888 2.104092 0.187812 -0.072843 -717575.000000 0 0 1
-9.950847 29.703261 -19.714364 37.012960 -1.247539 2.132506 0.182122 -0.063150 61869.300000 0 0 1
-10.175247 29.459361 -21.123264 37.650789 -1.238226 2.166427 0.172049 -0.068521 656968.000000 0 0 1
-11.676447 29.183561 -21.478564 38.070308 -1.190201 2.170238 0.151792 -0.055062 949714.000000 0 0 1
-12.514047 30.340961 -21.474964 39.221797 -1.179606 2.150201 0.151818 -0.046830 -191418.000000 0 0 1
-13.818747 30.110661 -21.018764 39.235165 -1.140539 2.136148 0.137311 -0.046031 -430959.000000 0 0 1
-14.716347 31.322461 -21.138964 40.552722 -1.131572 2.119136 0.166591 -0.050918 -296753.000000 0 0 1
-15.390947 31.295361 -22.391364 41.444590 -1.113733 2.141557 0.123785 -0.045638 367374.000000 0 0 1
-16.220147 32.488961 -22.542464 42.740946 -1.107748 2.126358 0.106065 -0.037130 590872.000000 0 0 1
-16.848747 32.693361 -23.972264 43.902228 -1.094939 2.148423 0.082475 -0.019006 1199.900000 0 0 1
-15.944747 33.079461 -24.969464 44.406755 -1.121641 2.167949 0.096880 -0.023037 -99511.900000 0 0 1
-16.477247 32.915461 -26.315164 45.248372 -1.106674 2.191455 0.103408 -0.018071 316567.000000 0 0 1
-17.003247 -33.228404 -26.923964 46.023223 1.097826 2.195687 0.086678 -0.013876 180466.000000 0 0 1
-18.161347 -32.708204 -26.303264 45.733170 1.063929 2.183579 0.087384 -0.016424 -98634.100000 0 0 1
-18.680547 -31.670604 -27.119164 45.688500 1.037882 2.206280 0.083629 -0.003627 -362990.000000 0 0 1
-20.123347 -31.292304 -26.780564 45.840550 0.999304 2.194704 0.089769 -0.016783 -88136.700000 0 0 1
-21.048547 -32.258604 -27.245164 47.180058 0.992670 2.186425 0.097799 -0.017874 -350941.000000 0 0 1
-22.386547 -31.848904 -27.043364 47.400989 0.958128 2.177939 0.088775 -0.022761 786500.000000 0 0 1
-23.503047 -32.941304 -27.022564 48.659446 0.951079 2.159569 0.070366 -0.013779 425006.000000 0 0 1
-23.511147 33.667361 -25.899864 48.549647 -0.961188 2.133496 0.098349 -0.026004 -616423.000000 0 0 1
-24.507247 32.692561 -26.003364 48.431226 -0.927534 2.137570 0.071389 -0.017196 -106925.000000 0 0 1
-24.319847 31.533961 -27.066164 48.150004 -0.913848 2.167745 0.074705 -0.018506 660081.000000 0 0 1
-23.420147 30.409661 -26.765464 46.793598 -0.914520 2.179726 0.077095 -0.045507 581742.000000 0 0 1
-23.852047 29.579761 -25.678064 45.861154 -0.892187 2.165072 0.068048 -0.027908 70876.700000 0 0 1
32.958398 10.005361 -26.065393 43.194536 0.294734 2.218607 0.089971 -0.024778 7068.760000 0 0 1
32.490298 8.689561 -26.008743 42.515676 0.261334 2.229061 0.076693 -0.019195 409459.000000 0 0 1
31.063008 8.610361 -26.011613 41.420440 0.270401 2.249764 0.098327 -0.026521 623501.000000 0 0 1
30.727408 7.148861 -25.669693 40.672017 0.228588 2.253817 0.084276 -0.021285 -87652.800000 0 0 1
31.112508 6.865961 -24.349833 40.100423 0.217200 2.223355 0.066205 -0.011718 180260.000000 0 0 1
30.490508 5.671061 -23.893533 39.150133 0.183893 2.227242 0.070672 -0.014336 269710.000000 0 0 1
30.457108 5.610661 -22.357133 38.196287 0.182173 2.196074 0.075881 -0.006433 204202.000000 0 0 1
31.756118 5.343861 -21.865533 38.924407 0.166716 2.167288 0.095495 -0.014184 331721.000000 0 0 1
31.731218 5.332561 -20.463333 38.132065 0.166498 2.137251 0.087897 -0.013783 -336789.000000 0 0 1
32.970988 4.795561 -19.722633 38.717770 0.144435 2.105278 0.090626 -0.017017 -291548.000000 0 0 1
33.260488 3.435061 -19.884733 38.903243 0.102913 2.107299 0.103296 -0.010077 582922.000000 0 0 1
34.277678 3.105661 -18.926033 39.278481 0.090356 2.073552 0.105953 -0.016592 7188.060000 0 0 1
34.665448 1.584061 -19.007433 39.566211 0.045664 2.071902 0.111792 -0.024889 225179.000000 0 0 1
33.745078 0.624661 -18.465933 38.472213 0.018509 2.071429 0.104780 -0.021881 84336.000000 0 0 1
34.215868 -0.687939 -18.789933 39.041779 -0.020103 2.072908 0.106553 -0.019241 -237.280000 0 0 1
33.296538 -1.838439 -18.345533 38.060451 -0.055158 2.073744 0.114732 -0.017388 -30595.300000 0 0 1
33.261708 -2.053939 -16.945633 37.386018 -0.061673 2.041217 0.123725 -0.015345 166863.000000 0 0 1
32.061188 -1.585239 -16.347433 36.023206 -0.049404 2.041825 0.115248 -0.023434 40180.300000 0 0 1
31.767148 -2.028739 -14.909733 35.150642 -0.063776 2.008838 0.125763 -0.018914 -163414.000000 0 0 1
31.323028 -3.345339 -14.869733 34.834356 -0.106398 2.011825 0.112349 -0.032151 111659.000000 0 0 1
30.627308 -3.547739 -13.666733 33.725332 -0.115322 1.988034 0.109035 -0.028060 -228548.000000 0 0 1
30.448208 -5.048339 -13.342633 33.624470 -0.164306 1.978839 0.113781 -0.035249 -268062.000000 0 0 1
29.679708 -5.751639 -14.263133 33.427584 -0.191418 2.011623 0.096334 -0.041620 204364.000000 0 0 1
29.465508 -7.084839 -13.777233 33.289987 -0.235966 1.997481 0.105336 -0.044221 -79437.800000 0 0 1
28.765008 -7.951839 -14.857633 33.337767 -0.269706 2.032719 0.079586 -0.033945 -131181.000000 0 0 1
27.399008 -7.690739 -15.062933 32.198526 -0.273652 2.057613 0.090376 -0.029955 81956.000000 0 0 1
26.844508 -8.358539 -16.190433 32.444151 -0.301854 2.093269 0.078870 -0.027103 -1059520.000000 0 0 1
25.433208 -8.024739 -16.556033 31.390233 -0.305636 2.126365 0.066397 -0.028455 -1450840.000000 0 0 1
25.323708 -6.759939 -17.210033 31.355577 -0.260859 2.151804 0.062803 -0.025276 115929.000000 0 0 1
24.031108 -6.439439 -17.687733 30.525668 -0.261812 2.188835 0.096571 -0.029680 174346.000000 0 0 1
23.747408 -6.985039 -19.109633 31.271524 -0.286071 2.228230 0.054667 -0.013253 80635.300000 0 0 1
24.430408 -6.200439 -20.135533 32.260347 -0.248552 2.244849 0.057046 -0.018481 594211.000000 0 0 1
24.152908 -6.537139 -21.497233 32.988304 -0.264324 2.280570 0.068683 -0.020779 158170.000000 0 0 1
24.812408 -5.495439 -22.492733 33.937862 -0.217961 2.295298 0.067910 -0.020646 286120.000000 0 0 1
24.530908 -5.923739 -23.814033 34.698189 -0.236944 2.327212 0.087496 -0.027853 191688.000000 0 0 1
24.710608 -4.844939 -24.640733 35.231425 -0.193611 2.345349 0.076317 -0.030764 -126206.000000 0 0 1
24.704408 -5.226939 -26.116563 36.327724 -0.208504 2.373037 0.087199 -0.029617 130117.000000 0 0 1
23.486008 -5.878639 -26.445643 35.854191 -0.245265 2.400289 0.101524 -0.031485 13081.400000 0 0 1
23.381108 -5.951439 -27.825383 36.828627 -0.249247 2.427269 0.104118 -0.037759 -381699.000000 0 0 1
22.080008 -6.597139 -28.265843 36.469259 -0.290340 2.457605 0.100084 -0.043357 -287998.000000 0 0 1
22.162608 -7.982739 -28.085313 36.656379 -0.345723 2.443669 0.086540 -0.035382 793545.000000 0 0 1
20.878408 -8.582539 -28.279153 36.183952 -0.390015 2.467925 0.098105 -0.038224 459229.000000 0 0 1
20.939308 -10.136439 -28.024053 36.421828 -0.450836 2.448745 0.113850 -0.029012 -47733.900000 0 0 1
19.630908 -10.601039 -27.747723 35.604645 -0.495147 2.464390 0.127857 -0.028536 495559.000000 0 0 1
19.644508 -11.873039 -27.079773 35.499153 -0.543645 2.438473 0.126482 -0.032083 -39824.900000 0 0 1
20.007508 -13.117839 -27.915873 36.765120 -0.580334 2.433038 0.110729 -0.019077 -490292.000000 0 0 1
18.995508 -13.179739 -28.851873 36.972495 -0.606576 2.466038 0.090445 -0.017215 -135442.000000 0 0 1
19.070008 -14.414839 -29.538503 37.999684 -0.647260 2.461215 0.089858 -0.022020 -21258.300000 0 0 1
17.913208 -14.743539 -30.539833 38.352788 -0.688641 2.491929 0.089168 -0.022669 93293.400000 0 0 1
16.735008 -15.100839 -29.833943 37.391978 -0.734112 2.494550 0.109881 -0.022499 -63621.300000 0 0 1
15.794208 -15.528839 -30.795293 37.933520 -0.776926 2.518063 0.102509 -0.032065 -245665.000000 0 0 1
14.539708 -16.066139 -30.046343 37.044658 -0.835231 2.516800 0.119173 -0.038517 -51430.400000 0 0 1
14.627608 -17.436439 -29.613973 37.349481 -0.872776 2.486331 0.101889 -0.033995 -28352.900000 0 0 1
13.604708 -17.789739 -28.716983 36.417413 -0.917922 2.479245 0.098407 -0.028286 -170050.000000 0 0 1
13.820708 -19.198639 -28.015023 36.666623 -0.946853 2.440359 0.091350 -0.025207 420431.000000 0 0 1
14.996708 -19.209139 -27.185003 36.509131 -0.907931 2.410744 0.096588 -0.022059 638825.000000 0 0 1
14.978108 -20.366239 -26.388093 36.543931 -0.936680 2.377618 0.070414 -0.018741 -224753.000000 0 0 1
15.985908 -20.226039 -25.276283 36.104465 -0.901959 2.346316 0.060004 -0.010791 1086710.000000 0 0 1
17.389908 -20.479239 -25.558273 37.081443 -0.866797 2.331246 0.075542 -0.013650 1235240.000000 0 0 1
18.186608 -20.327739 -24.434433 36.619820 -0.840934 2.301302 0.076199 -0.008621 347726.000000 0 0 1
19.682108 -20.746539 -24.698133 37.786268 -0.811721 2.283164 0.055599 -0.001418 582593.000000 0 0 1
19.930008 -22.086739 -25.066433 38.901868 -0.836683 2.270970 0.084725 -0.017264 123522.000000 0 0 1
19.619308 -23.053339 -24.097933 38.692170 -0.865699 2.243128 0.081029 -0.026216 -619638.000000 0 0 1
20.408908 -24.366539 -24.221233 39.961480 -0.873557 2.221963 0.085211 -0.028184 -61589.600000 0 0 1
21.710108 -24.299039 -23.658833 40.268008 -0.841609 2.198805 0.100930 -0.031906 179161.000000 0 0 1
22.118008 -25.578699 -23.251933 41.038135 -0.857827 2.173162 0.121395 -0.042699 -174917.000000 0 0 1
21.973808 -25.784239 -21.659333 40.209475 -0.865016 2.139645 0.135815 -0.044840 51113.300000 0 0 1
20.617108 -25.915639 -21.258233 39.352229 -0.898777 2.141476 0.104806 -0.039359 392441.000000 0 0 1
20.485508 -26.026029 -19.864333 38.621263 -0.903961 2.111030 0.103839 -0.043035 162198.000000 0 0 1
19.112708 -26.591749 -19.429233 38.077708 -0.947600 2.106274 0.089212 -0.034290 -457511.000000 0 0 1
18.961708 -27.963009 -19.614933 39.066889 -0.974920 2.096805 0.091147 -0.033341 -219821.000000 0 0 1
17.889908 -28.630319 -19.002633 38.740728 -1.012299 2.083469 0.083196 -0.024091 319215.000000 0 0 1
16.477208 -28.350209 -19.616533 38.210484 -1.044313 2.109916 0.080828 -0.022532 18892.800000 0 0 1
15.905408 -27.266889 -18.895633 36.790083 -1.042729 2.110179 0.078413 -0.022597 -163665.000000 0 0 1
14.671808 -26.898699 -19.489533 36.313136 -1.071456 2.137326 0.062399 -0.006919 602622.000000 0 0 1
13.759908 -25.915299 -18.618133 34.750146 -1.082691 2.136217 0.053017 -0.012799 421056.000000 0 0 1
12.958908 -26.618009 -17.653833 34.468964 -1.117726 2.108501 0.043259 -0.014652 284336.000000 0 0 1
12.110108 -25.834019 -16.849733 33.135551 -1.132447 2.104249 0.061141 -0.021531 -221123.000000 0 0 1
10.618108 -26.032119 -17.097933 32.905239 -1.183511 2.117192 0.066966 -0.013266 -1028140.000000 0 0 1
9.907108 -26.969489 -16.345833 33.055867 -1.218754 2.088046 0.064617 -0.012851 492952.000000 0 0 1
8.486508 -26.865939 -16.513433 32.657204 -1.264832 2.100943 0.062281 -0.004757 981994.000000 0 0 1
7.915108 -27.549719 -17.773333 33.727249 -1.291029 2.125831 0.068008 0.001043 -571524.000000 0 0 1
8.063008 -26.844339 -18.998233 33.860943 -1.279008 2.166470 0.078748 0.002493 45476.600000 0 0 1
7.528208 -27.607469 -20.083433 34.959842 -1.304581 2.182755 0.074337 0.003296 -116053.000000 0 0 1
7.447408 -26.874649 -21.437033 35.174664 -1.300464 2.226157 0.077463 -0.003415 -113156.000000 0 0 1
6.426308 -25.893579 -21.638733 34.351268 -1.327530 2.252253 0.095300 -0.007832 464878.000000 0 0 1
6.565008 -25.337589 -22.944633 34.807311 -1.317270 2.290537 0.085883 -0.006409 -335246.000000 0 0 1
5.274408 -24.585839 -23.278133 34.265935 -1.359469 2.317656 0.064884 -0.014977 207452.000000 0 0 1
4.169008 -25.496759 -23.428033 34.876039 -1.408719 2.307367 0.055015 -0.007434 90982.900000 0 0 1
3.038008 -24.793739 -23.895833 34.568335 -1.448873 2.334033 0.064410 -0.011840 -125128.000000 0 0 1
1.949808 -25.704639 -24.427533 35.513864 -1.495087 2.329293 0.038206 -0.014750 -85633.700000 0 0 1
2.456108 -26.343109 -25.579043 36.800534 -1.477830 2.339317 0.048183 -0.018023 153318.000000 0 0 1
1.411008 -26.994969 -26.257903 37.685498 -1.518575 2.341673 0.071109 -0.030312 -214985.000000 0 0 1
1.837808 -27.965059 -27.332263 39.146834 -1.505173 2.343674 0.070391 -0.031634 -429041.000000 0 0 1
2.658208 -27.321779 -28.270083 39.404863 -1.473809 2.370897 0.060679 -0.029636 -92127.100000 0 0 1
3.053608 -28.230049 -29.291503 40.795249 -1.463047 2.371739 0.090391 -0.035251 1287280.000000 0 0 1
4.503808 -28.882519 -29.163363 41.291475 -1.416107 2.355027 0.105602 -0.031908 1082430.000000 0 0 1
4.517608 -29.866199 -28.223573 41.339674 -1.420673 2.322280 0.083534 -0.037172 718827.000000 0 0 1
5.761408 -30.604169 -28.181123 41.999817 -1.384718 2.306329 0.105780 -0.038960 702778.000000 0 0 1
5.840808 -31.840979 -27.246653 42.312446 -1.389376 2.270433 0.119360 -0.050462 -170912.000000 0 0 1
4.844308 -32.843379 -27.417233 43.056469 -1.424355 2.261103 0.102254 -0.055659 567986.000000 0 0 1
5.236108 33.377483 -26.832243 43.144437 1.415189 2.241984 0.101215 -0.054332 -445775.000000 0 0 1
3.980408 32.606884 -26.424413 42.158061 1.449325 2.248228 0.133551 -0.051393 -542066.000000 0 0 1
3.324508 32.122995 -27.562503 42.457399 1.467670 2.277302 0.120013 -0.051933 547824.000000 0 0 1
1.929008 32.303076 -27.302833 42.339750 1.511151 2.271625 0.066597 -0.050397 264373.000000 0 0 1
1.065408 32.459513 -28.579693 43.261460 1.537985 2.292450 0.097602 -0.043449 -12662.400000 0 0 1
0.971608 31.344617 -29.426093 43.003767 1.539809 2.324395 0.128370 -0.041149 250588.000000 0 0 1
-0.057692 31.609320 -30.361753 43.829082 -1.568971 2.336065 0.137049 -0.032744 222150.000000 0 0 1
-0.260892 30.568337 -31.422593 43.839145 -1.562262 2.369956 0.117239 -0.032351 -6217.700000 0 0 1
0.853808 30.500577 -32.277023 44.416443 1.542810 2.384289 0.132911 -0.029652 -29830.900000 0 0 1
0.515908 29.699917 -33.373333 44.678077 1.553427 2.414294 0.158866 -0.037626 606636.000000 0 0 1
1.706108 29.130787 33.191861 44.195171 1.512296 0.721177 0.133871 -0.025048 993813.000000 0 0 1
2.492308 30.043977 32.433485 44.280730 1.488030 0.748881 0.130714 -0.024847 476544.000000 0 0 1
3.561908 29.612067 31.598646 43.451538 1.451086 0.756539 0.127224 -0.027186 323765.000000 0 0 1
3.250108 28.628787 30.363956 41.858577 1.457754 0.759190 0.118013 -0.018667 -279203.000000 0 0 1
2.912208 27.276377 30.662736 41.142254 1.464433 0.729833 0.124241 -0.022604 278413.000000 0 0 1
4.072508 26.475527 30.878906 40.878425 1.418171 0.714556 0.113929 -0.015253 264533.000000 0 0 1
3.735108 24.987207 31.141356 40.101067 1.422414 0.681590 0.108560 -0.024476 -159982.000000 0 0 1
3.011008 24.468707 30.063496 38.879269 1.448356 0.686842 0.110899 -0.011082 -66838.100000 0 0 1
2.992108 23.054227 30.048016 37.991227 1.441732 0.658486 0.089024 -0.001723 -283560.000000 0 0 1
1.809008 22.438227 29.328596 36.971787 1.490349 0.654636 0.088206 -0.001021 145777.000000 0 0 1
0.521408 22.405227 29.948076 37.405258 1.547529 0.642437 0.081948 -0.005174 517680.000000 0 0 1
-0.404192 22.022827 28.935886 36.365557 -1.552445 0.650642 0.103627 -0.001657 -656041.000000 0 0 1
-1.777492 21.641927 29.428036 36.572418 -1.488848 0.635709 0.104801 0.001010 -962492.000000 0 0 1
-2.559092 22.741307 29.866796 37.626340 -1.458737 0.653808 0.111369 -0.002640 -246247.000000 0 0 1
-3.857592 22.259927 30.109506 37.642631 -1.399203 0.643705 0.083866 -0.003788 -585983.000000 0 0 1
-4.806992 23.337037 30.586216 38.771653 -1.367656 0.661810 0.067868 -0.015516 -372537.000000 0 0 1
-4.814892 23.822477 31.884434 40.091280 -1.371367 0.651301 0.077948 -0.009281 136899.000000 0 0 1
-5.831592 24.810507 32.016886 40.922484 -1.339941 0.672320 0.064385 -0.017781 192672.000000 0 0 1
-6.073492 25.141727 33.516386 42.336059 -1.333767 0.657251 0.094336 -0.013715 -209588.000000 0 0 1
-7.283192 25.780507 -33.643513 43.006574 -1.295464 2.469126 0.077936 -0.007872 -212670.000000 0 0 1
-7.311992 26.108137 -32.274253 42.151245 -1.297727 2.442890 0.075121 -0.009120 181270.000000 0 0 1
-8.631992 26.839697 -31.930423 42.596156 -1.259631 2.418266 0.106192 -0.004957 80350.100000 0 0 1
-8.730892 28.152767 -32.502003 43.876952 -1.270076 2.404988 0.096228 -0.017058 389427.000000 0 0 1
-9.969092 28.807557 -32.204123 44.343699 -1.237637 2.383631 0.074377 -0.019006 516658.000000 0 0 1
-10.261092 29.308017 -30.745123 43.697968 -1.234022 2.351223 0.070052 -0.009878 -370144.000000 0 0 1
-9.433592 30.364657 -30.334363 43.945177 -1.269573 2.332669 0.092829 -0.013017 109585.000000 0 0 1
-9.534692 30.513387 -28.904483 43.098100 -1.267934 2.305904 0.108575 -0.016842 -406065.000000 0 0 1
-8.717292 31.709316 -28.460783 43.491241 -1.302511 2.284189 0.095239 -0.028701 549330.000000 0 0 1
-7.297892 31.567469 -28.434803 43.108031 -1.343604 2.291106 0.089510 -0.034306 302041.000000 0 0 1
-6.635392 32.779856 -28.251993 43.780389 -1.371072 2.272227 0.117610 -0.027489 659283.000000 0 0 1
-5.099192 32.548250 -27.996793 43.234370 -1.415394 2.275173 0.129088 -0.034957 1189840.000000 0 0 1
-4.234592 33.681807 -27.766523 43.856307 -1.445729 2.256380 0.153728 -0.038868 535262.000000 0 0 1
-3.983892 -32.803209 -28.787803 43.825329 1.449940 2.287464 0.157335 -0.046185 -125970.000000 0 0 1
-2.968892 -33.202249 -29.906923 44.784235 1.481615 2.302046 0.137111 -0.042929 -186852.000000 0 0 1
-3.364592 33.296585 -30.860963 45.523423 -1.470089 2.315718 0.123747 -0.030531 368895.000000 0 0 1
-4.314192 -33.673119 -31.846553 46.547762 1.443371 2.324261 0.133149 -0.030097 525821.000000 0 0 1
-3.810692 -32.710099 -32.984523 46.609556 1.454820 2.357002 0.111959 -0.036717 -364551.000000 0 0 1
-3.758592 -31.413449 -32.505213 45.359901 1.451713 2.369721 0.117659 -0.045096 203922.000000 0 0 1
-3.151292 -30.488229 -33.361923 45.304311 1.467801 2.398524 0.110541 -0.066092 -53240.400000 0 0 1
35.031588 17.664061 12.755036 41.254359 0.467028 1.256465 0.108484 -0.031769 248731.000000 0 0 1
36.395028 17.373461 13.000936 42.372864 0.445371 1.258944 0.101512 -0.040772 146031.000000 0 0 1
36.539848 16.028361 13.395836 42.089396 0.413379 1.246891 0.122117 -0.020790 1136750.000000 0 0 1
38.016218 15.730061 13.939036 43.439203 0.392322 1.244131 0.088745 -0.029566 2431170.000000 0 0 1
-37.090417 15.182061 13.052836 42.149384 -0.388520 1.255939 0.081749 -0.009541 746243.000000 0 0 1
-37.466417 13.912661 12.556936 41.892376 -0.355555 1.266373 0.127870 -0.022280 -690330.000000 0 0 1
-36.283937 13.044161 12.077036 40.404567 -0.345115 1.267254 0.153321 -0.015992 383771.000000 0 0 1
-35.461016 12.403261 13.053936 39.770967 -0.336471 1.236370 0.115668 -0.011677 153852.000000 0 0 1
-36.111827 11.321561 13.683036 40.242605 -0.303808 1.223865 0.115478 -0.019868 -320224.000000 0 0 1
-35.467046 10.899361 14.981736 40.014496 -0.298149 1.187038 0.142136 -0.039155 -204110.000000 0 0 1
-35.735447 11.802561 16.050536 40.913840 -0.318996 1.167665 0.148709 -0.025569 -132475.000000 0 0 1
-35.033367 11.554461 17.236236 40.717689 -0.318579 1.133700 0.136597 -0.020790 -202376.000000 0 0 1
-35.168564 12.502361 18.420536 41.622747 -0.341565 1.112346 0.136178 -0.022420 1435470.000000 0 0 1
-36.551167 12.531661 18.893136 43.011405 -0.330293 1.116023 0.167454 -0.036202 1396080.000000 0 0 1
-36.576937 13.113961 20.170036 43.779889 -0.344254 1.091996 0.178076 -0.033851 -376173.000000 0 0 1
-37.955397 13.256861 20.819336 45.274731 -0.336029 1.092976 0.200992 -0.054016 -368083.000000 0 0 1
37.808148 11.993661 21.361436 45.051248 0.307183 1.076788 0.171410 -0.047547 -99858.800000 0 0 1
36.729808 12.082361 22.256636 44.614125 0.317803 1.048502 0.205710 -0.057747 -138313.000000 0 0 1
36.729288 10.729661 23.031956 44.661362 0.284219 1.028969 0.167636 -0.051905 33803.400000 0 0 1
37.960868 10.625861 23.720636 46.006576 0.272931 1.029098 0.149116 -0.034966 60646.900000 0 0 1
37.940058 11.093761 25.016736 46.779874 0.284472 1.006554 0.154637 -0.029689 -1438960.000000 0 0 1
-36.812677 11.162861 25.643746 46.231855 -0.294421 0.982822 0.125954 -0.031795 -150890.000000 0 0 1
-36.053617 12.334161 25.228746 45.699939 -0.329625 0.985973 0.108416 -0.037239 158001.000000 0 0 1
-35.277924 12.250261 24.065136 44.426699 -0.334223 0.998360 0.105056 -0.041017 -533978.000000 0 0 1
-34.416085 13.514161 23.935896 44.045733 -0.374171 0.996275 0.104860 -0.036550 -616341.000000 0 0 1
-33.396627 13.800361 24.820556 43.838849 -0.391856 0.968936 0.067709 -0.039460 -321525.000000 0 0 1
-33.867487 14.239361 26.116716 45.076035 -0.398005 0.952813 0.058849 -0.034366 -680428.000000 0 0 1
-32.795597 14.880161 27.010126 45.016856 -0.425947 0.927295 0.062614 -0.024210 -346788.000000 0 0 1
-32.327267 16.045761 26.405536 44.718799 -0.460726 0.939143 0.078147 -0.033690 -216427.000000 0 0 1
-31.532837 16.749861 27.349126 44.976131 -0.488286 0.917155 0.076469 -0.030748 32115.200000 0 0 1
-31.037217 18.170261 26.894526 44.908605 -0.529641 0.928704 0.092118 -0.029007 98229.400000 0 0 1
-32.072977 19.048961 26.510806 45.764196 -0.535941 0.952937 0.093431 -0.053740 447922.000000 0 0 1
-31.479227 20.283461 26.108886 45.651226 -0.572389 0.961951 0.103012 -0.055354 408056.000000 0 0 1
-32.580577 21.157661 25.464056 46.449529 -0.575950 0.990575 0.113763 -0.042350 421032.000000 0 0 1
-33.354527 21.914261 26.415846 47.859756 -0.581287 0.986104 0.124475 -0.046501 597977.000000 0 0 1
-34.515160 22.442561 25.796166 48.584020 -0.576532 1.011063 0.130792 -0.042746 -154441.000000 0 0 1
-34.674162 23.954661 25.861036 49.446097 -0.604559 1.020412 0.132282 -0.035460 -4442.520000 0 0 1
-35.495687 24.394461 24.782186 49.690948 -0.602119 1.048668 0.132988 -0.037577 91041.300000 0 0 1
-35.897571 25.765961 24.843536 50.692422 -0.622548 1.058610 0.131109 -0.038567 651464.000000 0 0 1
-36.957017 26.109761 23.723016 51.091313 -0.615068 1.087923 0.128741 -0.034492 663446.000000 0 0 1
-36.499957 25.941961 22.375996 50.059139 -0.617897 1.107397 0.140337 -0.038391 80791.000000 0 0 1
-37.582807 26.306761 21.557936 50.687846 -0.610704 1.131494 0.145791 -0.039467 -8851.000000 0 0 1
-37.223607 26.235361 20.082136 49.771310 -0.613943 1.155470 0.181357 -0.051285 78732.300000 0 0 1
-37.244137 24.980561 19.506536 48.904592 -0.590807 1.160513 0.170847 -0.051699 66620.400000 0 0 1
-36.669467 24.948061 18.216036 47.946632 -0.597416 1.181083 0.176219 -0.053649 22534.800000 0 0 1
-36.777767 23.558461 17.507136 47.054278 -0.569712 1.189566 0.174886 -0.037384 -333464.000000 0 0 1
38.036908 23.294561 17.136136 47.781692 0.549502 1.203992 0.163274 -0.040022 -670496.000000 0 0 1
-38.012147 22.481361 15.981536 46.965354 -0.534091 1.223578 0.137368 -0.027552 10748.400000 0 0 1
36.747918 22.379161 15.298036 45.664716 0.547005 1.229183 0.129693 -0.019924 115605.000000 0 0 1
35.791338 21.585561 15.970636 44.743911 0.542692 1.205812 0.140856 -0.027222 -23819.300000 0 0 1
34.630778 21.389161 15.190336 43.445752 0.553285 1.213610 0.123690 -0.024534 598465.000000 0 0 1
33.447978 20.487161 15.768736 42.274627 0.549566 1.188548 0.130406 -0.033860 900629.000000 0 0 1
32.758288 21.085361 16.816036 42.432028 0.571909 1.163307 0.128073 -0.033659 496171.000000 0 0 1
31.716788 22.029261 16.422236 41.963470 0.607067 1.168703 0.126943 -0.026127 729499.000000 0 0 1
30.805908 22.503661 17.595636 42.012202 0.630903 1.138649 0.105449 -0.028167 105652.000000 0 0 1
31.487278 23.368361 18.473736 43.345218 0.638460 1.130508 0.057481 -0.020467 150778.000000 0 0 1
30.646408 23.971461 19.461036 43.503623 0.663789 1.107004 0.053780 -0.015930 687021.000000 0 0 1
31.582988 24.615161 20.530336 44.998733 0.662041 1.097028 0.053974 -0.017696 217697.000000 0 0 1
32.296358 25.690461 20.074336 45.891541 0.671967 1.118058 0.073295 -0.025943 -224781.000000 0 0 1
33.355438 25.974261 20.980336 47.195572 0.661625 1.110135 0.073352 -0.033960 23827.300000 0 0 1
34.352688 27.027261 20.385736 48.230263 0.666614 1.134401 0.089642 -0.037504 862384.000000 0 0 1
35.437308 27.442561 21.250636 49.603291 0.658934 1.128062 0.086775 -0.030914 787154.000000 0 0 1
34.993088 28.225061 22.311536 50.189391 0.678746 1.110128 0.039318 -0.012747 -253794.000000 0 0 1
36.065368 28.368161 23.445816 51.528338 0.666502 1.098415 0.034323 -0.020757 225766.000000 0 0 1
37.174748 29.174061 23.182546 52.635712 0.665392 1.114715 0.078723 -0.021985 -505409.000000 0 0 1
37.837228 29.554761 24.364316 53.840130 0.663112 1.101195 0.072526 -0.020306 -1128420.000000 0 0 1
-37.067147 30.376761 24.125366 53.654024 -0.686522 1.104426 0.075251 -0.029326 -1964250.000000 0 0 1
-35.962177 29.668461 23.750686 52.321992 -0.689795 1.099622 0.103942 -0.029785 -1422260.000000 0 0 1
-34.863524 30.441861 24.186936 52.222410 -0.717794 1.089247 0.113318 -0.023755 130055.000000 0 0 1
-33.505327 29.777661 23.793746 50.748974 -0.726561 1.082806 0.151378 -0.032305 64023.600000 0 0 1
-33.256307 29.698661 22.388876 49.892426 -0.728947 1.105438 0.141071 -0.021961 58941.800000 0 0 1
-33.531247 28.482061 21.670636 49.042724 -0.704156 1.113111 0.143501 -0.017549 -395622.000000 0 0 1
-32.755387 27.261461 22.149336 48.028072 -0.694113 1.091478 0.138203 -0.023106 -151485.000000 0 0 1
-31.358347 27.504261 22.134336 47.220326 -0.720016 1.082926 0.122400 -0.022799 148994.000000 0 0 1
-30.594447 26.457761 22.695416 46.380117 -0.713018 1.059469 0.121887 -0.031175 -249313.000000 0 0 1
-30.286947 26.668661 24.219676 47.064948 -0.721955 1.030254 0.146196 -0.029868 529399.000000 0 0 1
-31.479767 26.726261 25.051326 48.299459 -0.703912 1.025505 0.128371 -0.026422 722221.000000 0 0 1
-31.195777 26.990861 26.420266 48.986871 -0.713258 1.001151 0.144446 -0.038326 114150.000000 0 0 1
-32.366267 27.337561 27.399186 50.454265 -0.701369 0.996731 0.132990 -0.037912 556448.000000 0 0 1
-33.247667 26.260561 27.761826 50.653168 -0.668519 0.990733 0.121049 -0.037184 655863.000000 0 0 1
-34.200130 26.711861 28.714666 52.035608 -0.663076 0.986243 0.114583 -0.029516 929693.000000 0 0 1
-35.165356 25.598761 29.309486 52.449450 -0.629242 0.977841 0.107291 -0.032313 539450.000000 0 0 1
-34.399117 24.850961 30.188876 52.079149 -0.625622 0.952469 0.119250 -0.042020 -368924.000000 0 0 1
-34.908488 23.587661 30.442676 51.978234 -0.594230 0.945076 0.101982 -0.045324 -397728.000000 0 0 1
-34.150269 22.624261 31.400292 51.614692 -0.585106 0.916804 0.131305 -0.056109 -675359.000000 0 0 1
-33.057837 22.056061 30.742846 50.243537 -0.588369 0.912365 0.135789 -0.044733 12846.000000 0 0 1
-32.411787 20.957261 31.432614 49.776902 -0.573977 0.887349 0.129257 -0.043943 452967.000000 0 0 1
-31.437087 21.258861 32.593954 50.025948 -0.594598 0.861182 0.132903 -0.046903 -451212.000000 0 0 1
-32.139737 21.704861 -33.673553 51.361190 -0.593975 2.285803 0.168105 -0.043559 539840.000000 0 0 1
-31.506557 21.548261 -32.392923 50.062882 -0.599859 2.274498 0.149699 -0.033009 647030.000000 0 0 1
-30.202617 22.405461 -32.104653 49.446047 -0.638257 2.277442 0.155873 -0.032679 859805.000000 0 0 1
-30.424577 23.738661 -31.640973 49.903207 -0.662579 2.257572 0.143369 -0.036285 155184.000000 0 0 1
-29.719117 23.866261 -30.422723 48.768498 -0.676605 2.244416 0.164272 -0.027110 190996.000000 0 0 1
-30.240297 25.120561 -29.626113 49.226261 -0.693181 2.216594 0.133562 -0.020014 -639650.000000 0 0 1
-29.859657 26.342761 -30.225873 49.991435 -0.722904 2.220086 0.137191 -0.020978 70134.400000 0 0 1
-30.600427 26.694961 -31.360083 51.307523 -0.717340 2.228395 0.119482 -0.018509 -356485.000000 0 0 1
-30.193597 28.109961 -31.768583 52.067899 -0.749676 2.227031 0.120676 -0.014360 -319536.000000 0 0 1
-30.616487 29.162061 -30.871013 52.352789 -0.761073 2.201450 0.098620 -0.026886 149853.000000 0 0 1
-30.063577 30.429861 -31.219543 52.957105 -0.791453 2.201267 0.107042 -0.044378 -40013.900000 0 0 1
-30.409777 31.642761 -30.335343 53.350276 -0.805266 2.175608 0.098880 -0.034566 -95715.000000 0 0 1
-29.955187 31.560361 -29.021203 52.302962 -0.811486 2.159000 0.095985 -0.026365 -50433.100000 0 0 1
-30.181337 32.822761 -28.424803 52.879261 -0.827298 2.138315 0.061516 -0.021641 -542338.000000 0 0 1
-29.557147 33.096261 -27.028003 51.956717 -0.841825 2.117884 0.030818 -0.013812 531526.000000 0 0 1
-28.141647 33.342961 -27.055743 51.339250 -0.869793 2.125862 0.060899 -0.011454 624365.000000 0 0 1
-27.810907 -32.785804 -27.371113 50.966002 0.867313 2.137728 0.054977 -0.004861 -549896.000000 0 0 1
-28.118027 -31.564804 -26.441653 49.861020 0.843086 2.129759 0.051862 -0.007786 355665.000000 0 0 1
-29.483197 -31.147004 -26.408393 50.366636 0.812833 2.122716 0.032385 -0.014525 164735.000000 0 0 1
-29.670877 -30.281004 -25.288723 49.364154 0.795575 2.108645 0.032082 -0.010061 -226758.000000 0 0 1
-31.107387 -29.872704 -24.948233 49.824314 0.765154 2.095231 0.011779 -0.004542 -99479.600000 0 0 1
-31.662237 -29.036404 -25.969453 50.199826 0.742165 2.114515 0.019604 -0.015717 -260354.000000 0 0 1
-33.056767 -28.965104 -25.871833 51.000773 0.719522 2.102826 0.017614 -0.016146 -313261.000000 0 0 1
-33.725287 -28.281104 -27.098583 51.687030 0.697822 2.122668 0.028240 -0.026130 425188.000000 0 0 1
-35.139806 -28.428704 -27.150923 52.727316 0.680215 2.111723 0.049875 -0.027070 517977.000000 0 0 1
-35.662506 -27.863304 -28.402243 53.430941 0.663237 2.131248 0.052331 -0.035948 565561.000000 0 0 1
-37.167357 -28.211104 -28.604543 54.731149 0.649255 2.120738 0.049175 -0.037094 539247.000000 0 0 1
-38.020657 -27.535804 -27.681293 54.498118 0.626805 2.103578 0.053498 -0.025890 556956.000000 0 0 1
36.761038 -28.025804 -27.890733 53.988078 -0.651376 2.113682 0.067471 -0.034530 456974.000000 0 0 1
35.792108 -27.239104 -27.037013 52.478985 -0.650527 2.112034 0.074634 -0.025387 -466657.000000 0 0 1
35.762438 -27.731804 -25.697053 52.041747 -0.659588 2.087225 0.062006 -0.031873 200023.000000 0 0 1
34.627578 -27.161004 -25.086433 50.656870 -0.665141 2.088888 0.081736 -0.019280 80008.400000 0 0 1
34.292308 -27.603304 -23.600433 49.948826 -0.677747 2.062913 0.061420 -0.010312 100413.000000 0 0 1
33.798378 -28.970604 -23.570733 50.370683 -0.708636 2.057761 0.094023 -0.020323 760176.000000 0 0 1
33.059568 -29.285404 -22.337833 49.492916 -0.724935 2.039056 0.104943 -0.008127 396974.000000 0 0 1
33.909178 -29.183204 -21.015233 49.428047 -0.710632 2.009944 0.084321 -0.003315 -1133660.000000 0 0 1
34.831588 -30.237304 -20.946733 50.658659 -0.714909 1.997078 0.057349 -0.005013 351816.000000 0 0 1
35.836118 -30.127804 -19.933033 50.884553 -0.699076 1.973308 0.021274 0.012356 616575.000000 0 0 1
36.879358 -29.007004 -20.135333 51.058055 -0.666478 1.976169 0.021034 0.005046 -792468.000000 0 0 1
36.328398 -27.722604 -19.940733 49.859083 -0.651840 1.982250 0.023602 0.016532 295999.000000 0 0 1
37.117488 -26.825204 -20.710733 50.261655 -0.625806 1.995508 0.013469 0.009612 379350.000000 0 0 1
36.391748 -25.421204 -20.656133 48.961952 -0.609747 2.006316 0.017897 0.012710 789018.000000 0 0 1
35.232028 -25.265104 -21.477533 48.382907 -0.622115 2.030751 0.033904 0.005378 21509.700000 0 0 1
34.161378 -24.912204 -20.639933 47.049171 -0.630089 2.024935 0.057586 -0.002586 -898668.000000 0 0 1
32.811388 -24.851204 -21.325133 46.356562 -0.648218 2.048819 0.084093 -0.018043 -769680.000000 0 0 1
32.215198 -26.089004 -21.570833 46.730675 -0.680709 2.050593 0.108401 -0.024837 -279045.000000 0 0 1
30.935608 -25.840604 -22.110033 45.973930 -0.695900 2.072506 0.115351 -0.033710 181767.000000 0 0 1
30.066308 -27.078104 -22.454133 46.275206 -0.733154 2.077423 0.136709 -0.035700 246687.000000 0 0 1
29.562408 -27.872504 -21.324733 45.886345 -0.755984 2.054125 0.149566 -0.032631 361353.000000 0 0 1
29.142108 -29.183204 -21.667933 46.587779 -0.786103 2.054543 0.143443 -0.026180 -144414.000000 0 0 1
28.587708 -29.965304 -20.471633 46.198098 -0.808921 2.029880 0.157596 -0.021788 -41098.700000 0 0 1
29.518108 -30.390704 -19.498533 46.638036 -0.799963 2.002129 0.154221 -0.016888 -51426.800000 0 0 1
30.130208 -31.638104 -19.837333 47.982485 -0.809805 1.997013 0.160504 -0.005169 650116.000000 0 0 1
30.948008 -32.309204 -18.612733 48.457174 -0.806913 1.965037 0.132918 -0.004424 166466.000000 0 0 1
30.257008 -32.753904 -17.486933 47.896739 -0.825004 1.944533 0.137290 -0.008265 -310055.000000 0 0 1
29.660808 -31.737604 -16.670133 46.528834 -0.819210 1.937216 0.113111 -0.011536 -94873.800000 0 0 1
28.911808 -32.330704 -15.485033 46.053809 -0.841166 1.913716 0.098537 -0.010150 -295678.000000 0 0 1
27.653008 -32.829604 -15.869233 45.763570 -0.870778 1.924917 0.129117 -0.019849 -213530.000000 0 0 1
27.031108 -33.434904 -14.732333 45.449040 -0.890912 1.900910 0.108024 -0.019785 -16583.800000 0 0 1
25.489708 -33.384304 -14.798533 44.533511 -0.918696 1.909539 0.119057 -0.019380 -11510.100000 0 0 1
24.997908 -32.076904 -14.552633 43.192619 -0.908798 1.914444 0.110362 -0.016253 -364436.000000 0 0 1
23.614508 -32.138704 -14.345933 42.383335 -0.937115 1.916098 0.098062 -0.028754 -571060.000000 0 0 1
0.086853 -6.890439 -29.105033 29.909675 -1.558192 2.909111 0.151015 -0.038270 20775.700000 0 0 1
0.063953 -8.288439 -29.028943 30.189101 -1.563081 2.863462 0.143131 -0.032179 -105651.000000 0 0 1
0.183853 -8.946339 -30.289903 31.583999 -1.550249 2.854343 0.167251 -0.051860 -167770.000000 0 0 1
0.412753 -10.462939 -30.229323 31.991490 -1.531368 2.808139 0.191977 -0.039703 -277767.000000 0 0 1
1.668453 -10.685039 -29.652883 31.563385 -1.415899 2.791879 0.108043 -0.045171 -398322.000000 0 0 1
1.831653 -12.003539 -29.326813 31.741170 -1.419372 2.749041 0.133263 -0.050970 -46057.700000 0 0 1
3.247253 -12.325539 -28.817903 31.510873 -1.313193 2.725162 0.103330 -0.037562 -348684.000000 0 0 1
4.279353 -12.150839 -29.782963 32.449663 -1.232176 2.733351 0.104457 -0.043666 493172.000000 0 0 1
5.603553 -12.453139 -29.374343 32.393402 -1.147966 2.706427 0.100273 -0.046658 411024.000000 0 0 1
5.983153 -13.875239 -28.934663 32.642535 -1.163677 2.660327 0.104991 -0.046251 -1183280.000000 0 0 1
5.449053 -14.240839 -27.683493 31.604896 -1.205348 2.638144 0.102968 -0.037990 -80837.900000 0 0 1
6.101553 -15.331539 -27.036473 31.674215 -1.192038 2.593615 0.115781 -0.034958 -44971.600000 0 0 1
5.760853 -16.740139 -27.579713 32.772858 -1.239357 2.570926 0.089674 -0.036600 54718.400000 0 0 1
6.394553 -16.924139 -28.830093 34.036613 -1.209541 2.581172 0.106493 -0.050540 214649.000000 0 0 1
6.139853 -18.243539 -29.198553 34.972561 -1.246154 2.558745 0.098570 -0.045244 -187898.000000 0 0 1
6.529753 -18.510139 -30.637953 36.386083 -1.231659 2.571821 0.102045 -0.055239 -649313.000000 0 0 1
7.905553 -18.659339 -30.827943 36.892150 -1.170046 2.560063 0.098997 -0.050050 -384926.000000 0 0 1
8.005653 -19.584039 -31.882413 38.263734 -1.182740 2.555717 0.100861 -0.048547 96589.900000 0 0 1
9.468553 -19.629739 -32.385693 39.036051 -1.121362 2.549251 0.101132 -0.041302 41953.600000 0 0 1
9.872453 -18.409939 -33.022013 39.074858 -1.078566 2.577541 0.116444 -0.046776 -202699.000000 0 0 1
11.047153 -18.653039 33.697816 40.068919 -1.036099 0.571674 0.105953 -0.043110 -371923.000000 0 0 1
11.572153 -17.335639 33.208238 39.207476 -0.982193 0.560504 0.118268 -0.036961 -28034.500000 0 0 1
10.549153 -16.848539 32.351259 37.970539 -1.011394 0.550985 0.125532 -0.035232 332988.000000 0 0 1
10.636053 -15.446339 32.107370 37.183305 -0.967775 0.528650 0.131212 -0.033097 52019.100000 0 0 1
9.515953 -14.894039 31.196836 35.855660 -1.002257 0.515458 0.166873 -0.050699 126939.000000 0 0 1
9.689153 -15.391939 29.896906 34.994520 -1.008971 0.546534 0.175070 -0.047938 306867.000000 0 0 1
8.725953 -14.875039 28.985856 33.728161 -1.040275 0.536709 0.161268 -0.049739 174112.000000 0 0 1
8.863953 -15.706239 27.679716 33.036681 -1.056996 0.577467 0.126682 -0.033370 -448766.000000 0 0 1
8.566053 -17.081139 27.830856 33.759430 -1.105956 0.601677 0.113415 -0.039439 218713.000000 0 0 1
8.634553 -17.711839 26.607986 33.109661 -1.117197 0.637423 0.093007 -0.037348 -150601.000000 0 0 1
8.221553 -19.216439 26.723406 33.926477 -1.166523 0.663753 0.099747 -0.043873 130072.000000 0 0 1
9.041553 -19.921039 27.654526 35.261456 -1.144729 0.669277 0.112541 -0.040798 258784.000000 0 0 1
8.406053 -21.048139 28.252286 36.219850 -1.190831 0.676095 0.091809 -0.044183 -327826.000000 0 0 1
8.670353 -21.339039 29.754636 37.628021 -1.184859 0.658751 0.101607 -0.042407 -105838.000000 0 0 1
8.103753 -20.400139 30.690256 37.732324 -1.192671 0.620878 0.116712 -0.046550 174288.000000 0 0 1
8.257753 -19.005139 30.645246 36.993471 -1.160906 0.594558 0.121175 -0.043617 -296326.000000 0 0 1
7.685853 -18.228339 31.853026 37.496132 -1.171772 0.555756 0.120230 -0.037965 -349498.000000 0 0 1
6.292753 -18.327539 32.012979 37.420960 -1.240058 0.544314 0.135459 -0.049332 -556593.000000 0 0 1
5.879653 -17.457139 32.985959 37.780888 -1.245924 0.509300 0.146178 -0.045701 89492.400000 0 0 1
4.416253 -17.647139 33.451016 38.077490 -1.325579 0.498086 0.151169 -0.051451 134083.000000 0 0 1
4.183853 -18.688139 -33.095313 38.236774 -1.350551 2.617016 0.117529 -0.052181 -136125.000000 0 0 1
3.111553 -18.283739 -32.272503 37.222188 -1.402230 2.619993 0.115516 -0.066040 -212809.000000 0 0 1
2.551553 -19.463139 -31.423843 37.051074 -1.440443 2.583227 0.091112 -0.036876 -1302290.000000 0 0 1
1.563053 -20.216939 -32.046453 37.922855 -1.493636 2.577442 0.078253 -0.032824 -192938.000000 0 0 1
0.872453 -21.098739 -31.155563 37.637575 -1.529469 2.545932 0.085743 -0.037023 364428.000000 0 0 1
-0.095647 -20.343339 -30.199583 36.412572 1.566095 2.548780 0.097662 -0.041598 -191802.000000 0 0 1
-1.331347 -19.937239 -30.827743 36.737116 1.504118 2.566504 0.113375 -0.045591 1095660.000000 0 0 1
-2.178747 -19.045139 -30.072653 35.662707 1.456892 2.574101 0.148781 -0.037070 379118.000000 0 0 1
-1.695147 -17.563339 -30.016773 34.818832 1.474578 2.610165 0.135290 -0.031547 -169126.000000 0 0 1
-2.406847 -16.626539 -29.179773 33.670371 1.427036 2.619206 0.157824 -0.035373 -120550.000000 0 0 1
-2.089047 -15.291039 -29.525953 33.316090 1.435018 2.659954 0.171411 -0.039619 -251654.000000 0 0 1
-3.139247 -14.246139 -29.129683 32.578302 1.353905 2.677311 0.148746 -0.029694 -1974.230000 0 0 1
-3.057047 -13.912039 -27.753843 31.195611 1.354493 2.667421 0.130839 -0.032893 674915.000000 0 0 1
-4.108847 -12.952239 -27.495953 30.670353 1.263608 2.682600 0.113102 -0.037241 686412.000000 0 0 1
-4.406547 -12.679539 -25.981173 29.243969 1.236322 2.664706 0.119876 -0.033514 -364775.000000 0 0 1
-4.942747 -13.817039 -25.348003 29.289291 1.227253 2.616816 0.132005 -0.036643 136627.000000 0 0 1
-4.997947 -13.621539 -23.978133 28.026356 1.219133 2.597421 0.109249 -0.035123 243510.000000 0 0 1
-6.160847 -12.732939 -23.360933 27.309650 1.120151 2.597137 0.097686 -0.037392 735227.000000 0 0 1
-7.415947 -13.380739 -23.577833 28.106132 1.064715 2.566029 0.100205 -0.038260 205078.000000 0 0 1
-8.460547 -12.417139 -23.526833 27.915552 0.972690 2.573235 0.087725 -0.034380 158639.000000 0 0 1
-9.879947 -12.948139 -23.796533 28.836481 0.919002 2.541394 0.121931 -0.046682 61868.400000 0 0 1
-10.388347 -13.652939 -22.646033 28.410620 0.920364 2.493269 0.091203 -0.044979 84970.400000 0 0 1
-11.719947 -14.002939 -22.996633 29.364683 0.873920 2.470494 0.087722 -0.036786 472327.000000 0 0 1
-12.344247 -15.247739 -22.339933 29.731239 0.890242 2.420971 0.087327 -0.038873 524620.000000 0 0 1
-11.522847 -16.354239 -22.753133 30.297561 0.957004 2.420355 0.082310 -0.041767 165732.000000 0 0 1
-12.009247 -17.574839 -22.211333 30.764270 0.971353 2.377463 0.090874 -0.044854 152448.000000 0 0 1
-12.973447 -18.329339 -23.148833 32.251255 0.954857 2.371384 0.085771 -0.031846 269508.000000 0 0 1
-14.203347 -17.694839 -23.364033 32.568703 0.894422 2.370826 0.073535 -0.024744 -550499.000000 0 0 1
-15.157847 -18.445639 -24.055033 33.891688 0.882929 2.359957 0.035949 -0.028555 148871.000000 0 0 1
-16.204347 -17.616539 -24.821133 34.482053 0.827129 2.374350 0.068876 -0.032739 261386.000000 0 0 1
-17.110647 -16.904639 -23.949133 33.942628 0.779342 2.354033 0.067093 -0.029446 -479299.000000 0 0 1
-18.149847 -16.584539 -24.805933 34.925609 0.740364 2.360650 0.051587 -0.025473 -599765.000000 0 0 1
-19.056947 -15.420639 -24.423133 34.604230 0.680318 2.354326 0.068018 -0.027417 -180533.000000 0 0 1
-19.936647 -15.584339 -23.334833 34.421736 0.663478 2.315712 0.058047 -0.020331 -77758.100000 0 0 1
-20.641147 -14.373739 -23.148233 34.183359 0.608281 2.314718 0.070405 -0.023811 52554.700000 0 0 1
-21.368547 -14.331139 -21.803533 33.725219 0.590766 2.273791 0.061316 -0.031774 -407453.000000 0 0 1
-20.427747 -14.340439 -20.788033 32.482047 0.612072 2.265275 0.077258 -0.026515 -95384.200000 0 0 1
-20.938447 -14.471839 -19.465733 32.043212 0.604769 2.223685 0.071968 -0.027830 23493.800000 0 0 1
-21.521847 -13.251039 -18.678633 31.427238 0.551885 2.207248 0.073287 -0.030868 56276.100000 0 0 1
-22.718147 -12.733839 -19.205433 32.359133 0.510879 2.206208 0.075486 -0.033394 7481.280000 0 0 1
-23.253547 -11.691339 -18.439133 31.896967 0.465866 2.187175 0.079628 -0.024060 -819555.000000 0 0 1
-24.663647 -11.216239 -18.674533 32.906499 0.426812 2.174266 0.095530 -0.022242 -867138.000000 0 0 1
-24.818047 -10.500839 -19.904733 33.502261 0.400271 2.206981 0.067482 -0.020364 -227991.000000 0 0 1
-26.158357 -10.638639 -20.299133 34.777796 0.386270 2.194051 0.089349 -0.029654 -281164.000000 0 0 1
-26.506307 -9.600239 -21.403233 35.395583 0.347490 2.220169 0.086522 -0.023058 -99533.000000 0 0 1
-26.241417 -9.936139 -22.756533 36.127533 0.361961 2.252214 0.067191 -0.019496 698326.000000 0 0 1
-27.175087 -9.195839 -23.566533 37.127218 0.326297 2.258482 0.057319 -0.023050 424227.000000 0 0 1
-27.251647 -9.780139 -24.989333 38.246178 0.344566 2.282839 0.056133 -0.010165 355404.000000 0 0 1
-26.044247 -9.487539 -25.659293 37.771888 0.349344 2.317635 0.041948 -0.017128 360952.000000 0 0 1
-25.197617 -10.610839 -25.942883 37.690091 0.398567 2.329968 0.035655 -0.004191 444349.000000 0 0 1
-24.177347 -10.421839 -27.110883 37.790989 0.406991 2.370845 0.053038 -0.020681 373567.000000 0 0 1
-24.818647 -10.300239 -28.392673 39.092250 0.393387 2.383719 0.057559 -0.008061 -87575.100000 0 0 1
-23.919747 -10.463139 -29.437533 39.347172 0.412349 2.416064 0.067228 -0.011346 225332.000000 0 0 1
-24.710047 -10.927339 -30.706483 40.900871 0.416367 2.419999 0.063652 -0.013462 1008080.000000 0 0 1
-25.688327 -10.042439 -31.268743 41.695024 0.372666 2.418767 0.057761 -0.017378 548173.000000 0 0 1
-25.054747 -9.115139 -32.121503 41.744665 0.348923 2.448816 0.050646 -0.024023 17795.500000 0 0 1
-25.996957 -7.968239 -32.692333 42.522032 0.297415 2.447810 0.051667 -0.026414 360509.000000 0 0 1
-26.998127 -8.314839 -33.649293 43.935297 0.298760 2.443210 0.064042 -0.025316 1471330.000000 0 0 1
-28.169917 -9.044039 -33.246423 44.504646 0.310658 2.414384 0.055199 -0.022820 584851.000000 0 0 1
-29.189847 -8.312939 -32.333373 44.346354 0.277444 2.387817 0.052990 -0.009673 -311868.000000 0 0 1
-30.447177 -8.944039 -32.255253 45.248511 0.285718 2.364345 0.061823 -0.009062 248017.000000 0 0 1
-31.329967 -8.454439 -31.268073 45.063697 0.263573 2.337637 0.068934 -0.005072 519281.000000 0 0 1
-32.851937 -8.640639 -31.515803 46.337417 0.257193 2.318746 0.067160 -0.007611 369467.000000 0 0 1
-33.102177 -10.019639 -31.543033 46.809296 0.293921 2.310221 0.061938 -0.003243 380517.000000 0 0 1
-34.496672 -10.252739 -31.384963 47.750968 0.288895 2.287978 0.066359 -0.001813 259852.000000 0 0 1
-34.656034 -11.745339 -31.146293 48.052942 0.326763 2.275970 0.059092 -0.003698 -13520.300000 0 0 1
-35.962937 -12.126639 -30.751883 48.847380 0.325225 2.251771 0.054958 -0.004094 116161.000000 0 0 1
-36.073407 -13.530639 -30.897613 49.386551 0.358846 2.246733 0.052262 -0.008749 -265971.000000 0 0 1
-37.480117 -14.086439 -30.639433 50.417872 0.359505 2.223970 0.056608 -0.012934 -236521.000000 0 0 1
-37.875057 -14.070239 -29.266823 49.890265 0.355691 2.197680 0.081817 -0.013821 81996.200000 0 0 1
-37.949907 -15.364339 -28.855913 50.089141 0.384688 2.184735 0.083335 -0.015988 -123603.000000 0 0 1
-37.848397 -15.563439 -27.359693 49.226767 0.390128 2.160108 0.113539 -0.014302 1131490.000000 0 0 1
-36.518747 -15.174639 -26.934713 47.847333 0.393822 2.168723 0.093165 -0.017797 1016100.000000 0 0 1
-36.361577 -15.464039 -25.541853 47.049836 0.402112 2.144645 0.131387 -0.023166 98251.000000 0 0 1
-34.959518 -15.234039 -24.934233 45.562702 0.410951 2.149873 0.140174 -0.024106 455289.000000 0 0 1
-33.919877 -16.113739 -25.404393 45.338657 0.443492 2.165575 0.127516 -0.027334 -556172.000000 0 0 1
-32.743417 -15.623039 -24.868033 43.984426 0.445189 2.171693 0.135059 -0.017151 -83576.900000 0 0 1
-31.491277 -16.558939 -25.088533 43.535428 0.484094 2.184964 0.117211 -0.027485 594275.000000 0 0 1
-31.392637 -17.773339 -24.359633 43.529082 0.515167 2.164720 0.133859 -0.041274 -45874.800000 0 0 1
-32.343227 -18.749239 -24.741833 44.830532 0.525356 2.155434 0.124353 -0.041115 -104761.000000 0 0 1
-32.223047 -20.095639 -24.005433 44.926832 0.557622 2.134503 0.124111 -0.039406 215412.000000 0 0 1
-30.997907 -20.766939 -24.265633 44.507942 0.590270 2.147421 0.115865 -0.029335 119912.000000 0 0 1
-30.896777 -21.912839 -23.454833 44.552357 0.616892 2.125222 0.116842 -0.032633 -473903.000000 0 0 1
-29.513537 -22.600439 -23.593533 44.028213 0.653515 2.136338 0.115131 -0.034729 589794.000000 0 0 1
-28.385887 -22.007739 -22.947733 42.622736 0.659501 2.139324 0.129532 -0.030037 298822.000000 0 0 1
-28.309097 -22.030739 -21.542533 41.843030 0.661319 2.111619 0.141573 -0.038329 -465246.000000 0 0 1
-28.270457 -23.381939 -20.844333 42.195024 0.691037 2.087480 0.122693 -0.029307 -272165.000000 0 0 1
-28.255467 -23.179339 -19.441333 41.395877 0.687026 2.059684 0.118945 -0.026681 99931.000000 0 0 1
-28.434537 -24.317339 -18.663133 41.811104 0.707508 2.033499 0.108849 -0.006938 3762.840000 0 0 1
-28.482897 -23.916139 -17.125333 40.945502 0.698464 2.002311 0.090854 -0.002904 87526.800000 0 0 1
-29.673187 -23.211239 -16.844533 41.267395 0.663811 1.991256 0.098504 -0.004259 48672.700000 0 0 1
-29.526267 -22.274039 -15.755533 40.201618 0.646299 1.973506 0.089492 -0.015045 152456.000000 0 0 1
-30.904117 -21.647639 -15.443533 40.769933 0.611046 1.959293 0.091879 0.004933 277569.000000 0 0 1
-31.497447 -20.863439 -16.495133 41.224527 0.585033 1.982454 0.113318 -0.009431 263156.000000 0 0 1
-32.480187 -19.982039 -15.994233 41.352871 0.551526 1.967928 0.112174 -0.008161 -62850.600000 0 0 1
-33.213697 -19.072739 -17.017933 41.910966 0.521265 1.988923 0.134948 -0.038550 -172589.000000 0 0 1
-34.221218 -19.752939 -17.735033 43.310527 0.523496 1.992686 0.087856 -0.031970 -348830.000000 0 0 1
-34.744652 -18.904139 -18.698033 43.751271 0.498293 2.012379 0.093825 -0.026605 -297630.000000 0 0 1
-36.060997 -19.452339 -19.337233 45.306926 0.494691 2.011753 0.069256 -0.023197 300940.000000 0 0 1
-37.235967 -19.472839 -18.580533 45.945020 0.481845 1.987128 0.070250 -0.018990 -161135.000000 0 0 1
-37.268417 -20.312539 -17.464133 45.896951 0.499022 1.961141 0.088264 -0.025641 -910047.000000 0 0 1
-37.641817 -21.844739 -17.588233 46.940867 0.525832 1.954858 0.073056 0.003015 75029.100000 0 0 1
37.090668 -22.067339 -17.503133 46.573005 -0.536703 1.956079 0.067091 -0.014568 120063.000000 0 0 1
36.765558 -23.391839 -17.199233 46.847604 -0.566644 1.946720 0.060810 -0.009944 413512.000000 0 0 1
35.318078 -23.458539 -16.611533 45.536938 -0.586298 1.944206 0.047007 -0.010128 498485.000000 0 0 1
34.268448 -23.342339 -17.562733 45.029334 -0.597970 1.971459 0.056321 -0.014315 216674.000000 0 0 1
33.074898 -23.566939 -16.838233 43.964481 -0.619088 1.963834 0.075489 -0.013386 -55517.900000 0 0 1
31.727578 -23.699439 -17.566333 43.322958 -0.641557 1.988294 0.090674 -0.030019 62934.000000 0 0 1
31.349238 -22.439539 -18.120733 42.598927 -0.621246 2.010178 0.060082 -0.026720 840403.000000 0 0 1
29.999908 -22.571439 -18.600133 41.897843 -0.645025 2.030787 0.107703 -0.036579 272634.000000 0 0 1
36.835208 28.651261 -17.726933 49.919650 0.661071 1.933827 0.067669 -0.026417 -92734.800000 0 0 1
35.801828 28.554261 -18.671733 49.454528 0.673254 1.957949 0.078658 -0.035949 322472.000000 0 0 1
36.427568 28.710861 -19.948333 50.489774 0.667481 1.976969 0.083664 -0.035765 58868.800000 0 0 1
35.458868 29.035461 -21.104333 50.455745 0.686129 2.002341 0.104310 -0.030403 -1174860.000000 0 0 1
34.529978 27.982961 -21.204033 49.244051 0.681048 2.015944 0.098346 -0.028547 -39902.500000 0 0 1
33.759788 27.904461 -22.390533 49.190632 0.690727 2.043369 0.106779 -0.020067 739153.000000 0 0 1
32.625038 28.994961 -22.496833 49.104057 0.726555 2.046705 0.113435 -0.017708 -11721.900000 0 0 1
33.208598 30.273261 -22.487533 50.249084 0.739192 2.034788 0.105407 -0.022734 -253925.000000 0 0 1
32.178258 31.224861 -22.634033 50.226803 0.770362 2.038275 0.121938 -0.015291 -243923.000000 0 0 1
32.548658 32.721661 -22.327433 51.270230 0.788049 2.021374 0.125177 -0.015926 -125581.000000 0 0 1
32.721398 33.038761 -20.962533 51.006641 0.790224 1.994321 0.130518 -0.012525 -165205.000000 0 0 1
34.005118 32.758561 -20.468533 51.462921 0.766729 1.979842 0.118353 -0.008692 -523009.000000 0 0 1
34.227608 32.883261 -18.970733 51.114839 0.765369 1.951032 0.093597 -0.015650 -250916.000000 0 0 1
34.262328 -33.241604 -18.428533 51.171498 -0.770278 1.939207 0.095026 -0.005735 181545.000000 0 0 1
34.279438 -33.105504 -17.030933 50.607381 -0.767979 1.914027 0.066873 -0.016771 -418120.000000 0 0 1
34.565688 -31.698104 -16.615833 49.755829 -0.742150 1.911285 0.066569 0.008174 1453020.000000 0 0 1
35.884848 -31.125704 -16.883233 50.414039 -0.714496 1.912286 0.058798 -0.001599 773282.000000 0 0 1
36.786078 -31.218404 -15.855533 50.785847 -0.703708 1.888308 0.066543 -0.005116 -636771.000000 0 0 1
-38.002107 -30.509504 -16.107133 51.326696 0.676469 1.890006 0.053885 0.005075 -86586.800000 0 0 1
-37.203767 -31.208804 -17.082833 51.477499 0.697992 1.909061 0.059089 0.002110 62727.500000 0 0 1
-35.995327 -30.467404 -17.212133 50.201432 0.702416 1.920758 0.055177 0.006130 -342423.000000 0 0 1
-35.089668 -31.019304 -18.261833 50.269042 0.723905 1.942584 0.056549 0.000683 -1076840.000000 0 0 1
-34.523934 -32.241104 -17.772833 50.470431 0.751219 1.930657 0.067084 -0.008318 57690.400000 0 0 1
-33.609317 -32.891304 -18.610333 50.574387 0.774601 1.947631 0.066205 -0.001485 136139.000000 0 0 1
-32.183697 -32.303904 -18.689633 49.281183 0.787262 1.959776 0.068890 -0.007578 -940978.000000 0 0 1
-32.167547 -31.219304 -19.612233 48.928884 0.770440 1.983220 0.069503 -0.003150 -134063.000000 0 0 1
-30.923217 -30.862604 -20.152133 48.112931 0.784417 2.002976 0.070234 -0.006524 -125038.000000 0 0 1
-30.111637 -31.865904 -20.979833 48.603497 0.813695 2.017121 0.068619 0.000077 -271058.000000 0 0 1
-30.745877 -32.165404 -22.208033 49.730463 0.807958 2.033722 0.056380 0.002495 186037.000000 0 0 1
-29.986567 -33.133704 -22.896833 50.212563 0.835216 2.044290 0.058738 -0.001804 -26178.600000 0 0 1
-30.855627 33.708861 -23.979433 51.607851 -0.829561 2.054032 0.047948 -0.010024 -64130.600000 0 0 1
-31.608327 32.521161 -23.545833 51.099105 -0.799631 2.049679 0.061648 -0.021942 506208.000000 0 0 1
-32.054547 31.651761 -24.604733 51.329532 -0.779076 2.070709 0.048662 -0.015124 901715.000000 0 0 1
-33.230997 32.248861 -25.480953 52.854207 -0.770400 2.073845 0.059590 -0.029736 402908.000000 0 0 1
-32.760937 33.317861 -26.350323 53.644183 -0.793826 2.084270 0.047730 -0.025147 -60223.000000 0 0 1
-33.829097 -33.437404 -26.968273 54.678657 0.779575 2.086577 0.048466 -0.022292 92199.400000 0 0 1
-33.399487 -32.440004 -28.084533 54.374816 0.770826 2.113554 0.046075 -0.023027 81968.200000 0 0 1
-33.063407 -33.084804 -29.355583 55.222671 0.785722 2.131268 0.053851 -0.027867 809202.000000 0 0 1
-34.207448 -33.369904 -30.197153 56.529356 0.773005 2.134340 0.068834 -0.026080 560537.000000 0 0 1
-33.870127 33.273361 -31.472013 56.963055 -0.776510 2.156155 0.085348 -0.031008 1381.780000 0 0 1
-33.141957 -33.505904 -32.465333 57.227902 0.790859 2.174019 0.081749 -0.038227 40949.600000 0 0 1
-33.288157 33.168761 -33.634403 57.788764 -0.783602 2.192011 0.079823 -0.043971 -815471.000000 0 0 1
-32.346157 33.611361 32.695692 56.964952 -0.804578 0.959461 0.091758 -0.046749 -160287.000000 0 0 1
-31.010057 33.192861 32.792432 56.024399 -0.819384 0.945517 0.098395 -0.041604 -231871.000000 0 0 1
-30.806247 31.824461 32.562288 54.973847 -0.801654 0.936857 0.118937 -0.046141 -82161.500000 0 0 1
-29.304957 31.410961 32.362475 53.784373 -0.820070 0.925159 0.126638 -0.041313 277167.000000 0 0 1
-28.644057 31.302161 33.579376 54.109905 -0.829711 0.901318 0.133931 -0.050599 50630.000000 0 0 1
-27.278947 30.924561 33.447496 53.096181 -0.847952 0.889318 0.140327 -0.045529 -117263.000000 0 0 1
-26.988637 29.441561 33.365076 52.042486 -0.828839 0.874850 0.159918 -0.049194 -674047.000000 0 0 1
-27.072247 28.756561 -32.823113 51.353706 -0.815558 2.264199 0.150861 -0.044738 241370.000000 0 0 1
-26.933917 27.346261 -32.974893 50.602346 -0.792995 2.280551 0.152130 -0.034590 -675081.000000 0 0 1
-26.713357 26.671261 -31.607833 49.234284 -0.784610 2.267885 0.160661 -0.034708 -394288.000000 0 0 1
-25.399297 26.669561 -31.117073 48.214749 -0.809789 2.272323 0.145727 -0.035636 -214582.000000 0 0 1
-25.066537 27.869161 -30.406673 48.265797 -0.838293 2.252329 0.121220 -0.037579 -117793.000000 0 0 1
-23.656947 27.770661 -29.789343 47.098468 -0.865219 2.255561 0.141325 -0.035102 -1031900.000000 0 0 1
-22.606347 28.050561 -30.659683 47.306417 -0.892460 2.275894 0.139934 -0.028937 -453367.000000 0 0 1
-21.354547 27.955161 -30.012893 46.241556 -0.918467 2.277126 0.103593 -0.021159 18905.500000 0 0 1
-20.930047 29.007861 -28.971023 46.030893 -0.945766 2.251554 0.078798 -0.012310 -1042100.000000 0 0 1
-20.588647 30.247461 -29.598043 47.062145 -0.973159 2.250952 0.075916 -0.004867 17219.100000 0 0 1
-20.419147 31.281361 -28.632243 47.066660 -0.992485 2.224756 0.086028 -0.018889 -95965.400000 0 0 1
-20.112547 32.633261 -29.282383 48.237975 -1.018463 2.223127 0.100281 -0.012926 -933861.000000 0 0 1
-18.840647 32.619261 -29.803343 48.033587 -1.047016 2.240137 0.085379 -0.011737 -1123360.000000 0 0 1
-18.772247 33.545161 -30.829043 49.275805 -1.060604 2.246751 0.087017 -0.010668 -501317.000000 0 0 1
-17.340747 -33.672204 -31.291533 49.129206 1.095231 2.261297 0.074620 -0.009435 -617210.000000 0 0 1
-16.524147 -33.052104 -30.277593 47.772604 1.107195 2.257234 0.085269 -0.021764 170817.000000 0 0 1
-15.201447 -32.795804 -30.680553 47.412499 1.136758 2.274569 0.108979 -0.024999 627337.000000 0 0 1
-14.181447 33.476761 -30.813743 47.658092 -1.170095 2.273861 0.114024 -0.025802 -137232.000000 0 0 1
-13.920647 32.895161 -29.581243 46.378077 -1.170466 2.262471 0.108295 -0.025427 -167538.000000 0 0 1
-13.235147 31.675961 -29.679853 45.380936 -1.175015 2.283677 0.091461 -0.022061 -225734.000000 0 0 1
-13.334147 30.748361 -28.407903 43.934840 -1.161619 2.273904 0.067082 -0.023910 -287389.000000 0 0 1
-12.434547 31.026961 -27.371943 43.203166 -1.189630 2.256947 0.092509 -0.024059 -164516.000000 0 0 1
-12.631647 30.210961 -26.222003 41.950615 -1.174772 2.246015 0.069058 -0.036027 446090.000000 0 0 1
-11.628747 30.748261 -25.135463 41.382059 -1.209230 2.223580 0.103026 -0.031814 1083660.000000 0 0 1
-10.299747 30.279561 -25.339333 40.804637 -1.242919 2.240803 0.115359 -0.025947 -151751.000000 0 0 1
-9.372847 30.905861 -24.497533 40.535807 -1.276341 2.219737 0.126540 -0.031887 281540.000000 0 0 1
-7.910647 30.639161 -24.954633 40.299755 -1.318127 2.238552 0.129482 -0.044837 135251.000000 0 0 1
-7.436547 29.360961 -24.563333 38.996482 -1.322733 2.252203 0.116912 -0.055859 207374.000000 0 0 1
-6.136147 29.200461 -25.116253 39.001864 -1.363671 2.270480 0.109463 -0.069312 259413.000000 0 0 1
-5.460347 27.893261 -24.592133 37.584870 -1.377482 2.284065 0.134073 -0.027459 254000.000000 0 0 1
-6.192947 26.676261 -24.847433 36.977972 -1.342685 2.307638 0.143828 -0.026944 659621.000000 0 0 1
-5.423547 25.572761 -24.299133 35.690739 -1.361810 2.319684 0.139615 -0.033434 243084.000000 0 0 1
-6.192547 24.251161 -24.186533 34.805960 -1.320788 2.339072 0.141771 -0.034047 -265085.000000 0 0 1
-6.453547 23.585961 -25.383213 35.245615 -1.303715 2.374859 0.134060 -0.030190 -8647.080000 0 0 1
-7.193547 22.435261 -25.131363 34.448127 -1.260517 2.388449 0.120958 -0.037608 -382259.000000 0 0 1
-7.245847 21.383461 -26.309133 34.668793 -1.244086 2.432374 0.093203 -0.021894 473517.000000 0 0 1
-6.055547 20.634161 -26.552303 34.168159 -1.285339 2.460852 0.113667 -0.042034 18570.200000 0 0 1
-6.028547 19.430061 -25.747613 32.814787 -1.269945 2.472903 0.107330 -0.038752 -209927.000000 0 0 1
-4.924847 18.428361 -26.041273 32.280126 -1.309656 2.509390 0.118962 -0.049407 -210033.000000 0 0 1
-5.021547 17.793061 -27.310963 32.980262 -1.295731 2.546507 0.122206 -0.055325 -237071.000000 0 0 1
-4.036547 16.770761 -27.368583 32.351066 -1.334599 2.579210 0.118509 -0.054793 167930.000000 0 0 1
-3.572947 16.488561 -28.853943 33.424372 -1.357403 2.612490 0.115468 -0.046577 184478.000000 0 0 1
-2.677147 17.494661 -29.303863 34.233707 -1.418948 2.598268 0.124670 -0.050144 221262.000000 0 0 1
-2.372947 17.266761 -30.651723 35.260460 -1.434223 2.624570 0.117624 -0.054473 255865.000000 0 0 1
-1.532847 18.397661 -31.402113 36.426862 -1.487671 2.610115 0.128403 -0.035513 567297.000000 0 0 1
-0.178347 18.468961 -30.973203 36.062080 -1.561140 2.603886 0.147960 -0.046574 217943.000000 0 0 1
0.462453 19.623061 -31.510463 37.123950 1.547234 2.584490 0.162872 -0.028358 246792.000000 0 0 1
0.344653 20.941561 -30.707453 37.170088 1.554340 2.543007 0.144790 -0.027483 -90066.200000 0 0 1
1.295753 21.062261 -29.655023 36.396679 1.509354 2.523134 0.158767 -0.055157 -30002.600000 0 0 1
1.005953 22.061561 -28.673463 36.192429 1.525230 2.485284 0.151555 -0.055974 -100139.000000 0 0 1
2.105953 22.113761 -27.609793 35.436622 1.475850 2.464076 0.166899 -0.057320 11616.200000 0 0 1
3.317053 22.662661 -28.026283 36.194911 1.425462 2.456429 0.131000 -0.052582 -48553.000000 0 0 1
4.431053 22.468861 -27.136693 35.508929 1.376086 2.440630 0.132470 -0.052593 1067570.000000 0 0 1
5.252553 23.798961 -26.977453 36.356056 1.353574 2.406897 0.139756 -0.049892 -67762.900000 0 0 1
5.917153 24.278461 -28.112883 37.613702 1.331737 2.414952 0.128342 -0.051019 51647.300000 0 0 1
6.197353 25.697061 -28.226143 38.671195 1.334146 2.388973 0.137958 -0.053367 -634252.000000 0 0 1
7.107153 26.189561 -29.330413 39.958452 1.305805 2.395023 0.170862 -0.048125 -615017.000000 0 0 1
8.456353 25.931261 -29.066343 39.859660 1.255564 2.387973 0.161306 -0.046904 -288827.000000 0 0 1
9.345553 26.525461 -30.011013 41.129069 1.232053 2.388649 0.157894 -0.044051 464395.000000 0 0 1
10.738953 26.655561 -29.320433 41.055229 1.187811 2.366235 0.147051 -0.039936 90201.900000 0 0 1
11.691153 27.276661 -30.132333 42.292515 1.165869 2.363815 0.150917 -0.039668 34780.700000 0 0 1
12.840453 27.699261 -29.414263 42.394872 1.136718 2.337572 0.133029 -0.037603 563632.000000 0 0 1
13.811953 28.646861 -30.191853 43.851576 1.121534 2.330216 0.127563 -0.037594 237244.000000 0 0 1
13.369653 30.009761 -30.233343 44.647379 1.151682 2.314690 0.122107 -0.032382 414200.000000 0 0 1
14.309553 30.788261 -30.947903 45.939667 1.135725 2.309952 0.127796 -0.036772 64673.100000 0 0 1
13.904453 32.270061 -31.097323 46.922640 1.163958 2.295263 0.123772 -0.043723 458250.000000 0 0 1
12.889553 32.457961 -32.092303 47.429693 1.192779 2.313971 0.103627 -0.038336 181982.000000 0 0 1
12.074853 33.551961 -31.842633 47.806793 1.225342 2.299723 0.109985 -0.037677 61234.100000 0 0 1
11.018753 33.724761 -32.988913 48.446267 1.255004 2.319839 0.078822 -0.029458 384659.000000 0 0 1
11.452153 -32.927504 33.385006 48.269358 -1.236084 0.807039 0.050240 -0.016616 -252453.000000 0 0 1
10.354553 -32.856904 32.546337 47.392583 -1.265507 0.813803 0.070794 -0.025036 -385772.000000 0 0 1
10.479453 -31.893804 31.370016 45.946834 -1.253336 0.819282 0.072052 -0.022179 -125530.000000 0 0 1
10.330753 -30.514204 31.721525 45.211683 -1.244353 0.793125 0.065058 -0.020966 -7838.730000 0 0 1
10.657153 -29.717904 30.628606 43.986819 -1.226471 0.800548 0.079111 -0.024759 -504913.000000 0 0 1
10.250753 -28.250604 30.860456 43.076006 -1.222719 0.772141 0.082116 -0.031997 -485311.000000 0 0 1
8.885953 -27.968904 30.772586 42.522603 -1.263174 0.761682 0.065775 -0.038668 -724606.000000 0 0 1
8.265953 -28.130404 32.002336 43.402709 -1.284997 0.741680 0.074116 -0.036376 -1092610.000000 0 0 1
6.730553 -28.090404 32.010763 43.116819 -1.335626 0.734122 0.082100 -0.042154 -310377.000000 0 0 1
6.112253 -29.285904 31.613244 43.524947 -1.365040 0.757837 0.116882 -0.055114 -89898.800000 0 0 1
6.169953 -29.760404 30.264466 42.891583 -1.366371 0.787521 0.105619 -0.051822 -505409.000000 0 0 1
5.656353 -28.812304 29.145786 41.371730 -1.376944 0.789098 0.095421 -0.054025 -15523.200000 0 0 1
4.253053 -28.693504 29.005466 41.021003 -1.423644 0.785424 0.142234 -0.058716 295422.000000 0 0 1
3.883853 -28.177004 27.690396 39.696170 -1.433822 0.798812 0.145392 -0.052173 20794.500000 0 0 1
2.475953 -28.529104 27.152476 39.462603 -1.484226 0.811990 0.131176 -0.049484 151780.000000 0 0 1
2.340053 -29.934404 26.734046 40.202657 -1.492782 0.843327 0.157943 -0.058323 20513.700000 0 0 1
2.247253 -30.814804 27.869956 41.609335 -1.497998 0.836856 0.200503 -0.062792 -800298.000000 0 0 1
2.396153 -32.282404 27.385236 42.401018 -1.496707 0.868644 0.220244 -0.056967 344587.000000 0 0 1
3.748053 -32.684304 27.171296 42.668384 -1.456621 0.880453 0.185074 -0.051216 540846.000000 0 0 1
4.297053 -32.264804 25.928276 41.614393 -1.438395 0.898147 0.178209 -0.065061 -193742.000000 0 0 1
5.823153 -32.048804 26.016056 41.687769 -1.391061 0.896857 0.184980 -0.040011 30162.300000 0 0 1
6.414353 -31.776104 24.766816 40.795341 -1.371612 0.918391 0.144721 -0.049529 -59494.500000 0 0 1
7.794353 -31.507304 24.914946 40.917193 -1.328283 0.916109 0.108486 -0.047061 -61448.900000 0 0 1
8.518053 -31.158304 23.587386 39.997024 -1.303937 0.940074 0.091140 -0.034875 -638525.000000 0 0 1
9.799653 -30.652504 23.779806 40.013602 -1.261364 0.934410 0.088744 -0.016686 -661718.000000 0 0 1
10.440553 -30.641704 22.540616 39.446147 -1.242403 0.962552 0.088829 -0.022880 -11861.600000 0 0 1
11.566953 -29.575604 22.398516 38.861347 -1.197988 0.956517 0.047785 -0.024284 -78668.300000 0 0 1
12.706353 -29.944104 23.122616 39.909349 -1.169488 0.952830 0.059390 -0.016967 -626074.000000 0 0 1
13.756653 -29.041204 22.927216 39.475236 -1.128414 0.951085 0.060264 -0.019060 234649.000000 0 0 1
15.061853 -29.335904 23.714426 40.618083 -1.096465 0.947347 0.083008 -0.015411 212062.000000 0 0 1
14.824153 -29.264004 25.121506 41.318610 -1.101910 0.917264 0.068868 -0.012822 -214764.000000 0 0 1
16.031553 -29.150004 25.802686 42.101212 -1.067978 0.911105 0.085591 -0.023051 -389619.000000 0 0 1
-11.509447 -13.886439 25.693486 31.391970 0.878724 0.612048 0.117075 -0.053972 -10437.600000 0 0 1
-10.142347 -13.921739 25.336666 30.637047 0.941181 0.597056 0.139031 -0.051074 -590308.000000 0 0 1
-9.418347 -14.074239 26.542596 31.484899 0.981048 0.567911 0.150745 -0.054707 -45646.200000 0 0 1
-7.899147 -13.964139 26.261596 30.774423 1.055999 0.548404 0.169158 -0.051057 -7620.850000 0 0 1
-7.372247 -14.963539 25.425426 30.409041 1.113021 0.580636 0.172497 -0.067394 -128073.000000 0 0 1
-7.472147 -14.776539 24.047866 29.197242 1.102618 0.603006 0.181687 -0.066201 -641727.000000 0 0 1
-6.821447 -15.862739 23.159246 28.887875 1.164673 0.640672 0.178557 -0.074228 -266170.000000 0 0 1
-7.355647 -17.174839 23.093096 29.704742 1.166150 0.680241 0.199002 -0.069874 -366908.000000 0 0 1
-7.507347 -17.865339 24.360456 31.128161 1.172983 0.671988 0.213359 -0.075996 -577424.000000 0 0 1
-8.169447 -19.195639 24.268806 32.002927 1.168427 0.710048 0.200301 -0.071246 700452.000000 0 0 1
-9.500647 -19.190239 23.712476 31.950103 1.111095 0.734491 0.169986 -0.059624 607965.000000 0 0 1
-10.067747 -20.464639 23.536176 32.773656 1.113603 0.769666 0.148959 -0.052681 580322.000000 0 0 1
-11.569647 -20.476539 23.080866 32.952568 1.056495 0.794801 0.114745 -0.044997 899203.000000 0 0 1
-12.357947 -20.258839 24.261486 33.937577 1.023054 0.774336 0.115075 -0.048452 372906.000000 0 0 1
-13.766547 -20.372539 24.051586 34.395304 0.976538 0.796421 0.080590 -0.035363 752181.000000 0 0 1
-14.472947 -20.205939 25.456656 35.577907 0.949233 0.773430 0.072092 -0.042723 -563181.000000 0 0 1
-14.276747 -21.334639 26.310416 36.759085 0.981055 0.773095 0.067126 -0.039302 491729.000000 0 0 1
-13.191347 -21.139639 27.237996 36.916181 1.012909 0.740941 0.110636 -0.047152 284396.000000 0 0 1
-12.853747 -22.397839 28.102876 38.166132 1.049802 0.743166 0.138280 -0.050810 -742871.000000 0 0 1
-13.889747 -22.850739 28.912076 39.382604 1.024627 0.746407 0.076887 -0.040155 -304020.000000 0 0 1
-13.543847 -24.139239 29.459546 40.422809 1.059492 0.754250 0.099400 -0.037076 -72910.500000 0 0 1
-14.654647 -24.713439 30.376746 41.812192 1.035552 0.757575 0.073087 -0.027782 214483.000000 0 0 1
-14.629647 -24.183339 31.676401 42.452972 1.026747 0.728532 0.111624 -0.033793 -215400.000000 0 0 1
-15.830247 -24.393339 32.381500 43.522330 0.995154 0.731729 0.092451 -0.028258 -489010.000000 0 0 1
-15.789247 -23.728939 -33.624793 44.079355 0.983671 2.438466 0.091394 -0.034997 29301.800000 0 0 1
-15.751447 -22.300439 -33.536823 43.245071 0.955835 2.458313 0.114297 -0.041734 -885820.000000 0 0 1
-16.956447 -21.720639 33.595376 43.450622 0.907959 0.686948 0.102812 -0.035456 -1085530.000000 0 0 1
-17.149347 -20.278039 -33.391743 42.665061 0.868798 2.469706 0.102530 -0.043730 -159403.000000 0 0 1
-17.211547 -20.059939 -32.023533 41.522827 0.861673 2.451563 0.097837 -0.041232 159840.000000 0 0 1
-17.551447 -18.758339 -31.667983 40.777319 0.818625 2.460060 0.084589 -0.036645 -141745.000000 0 0 1
-17.412547 -18.605139 -30.161323 39.484850 0.818497 2.440086 0.078022 -0.032826 331900.000000 0 0 1
-18.486147 -19.196839 -29.420453 39.696591 0.804256 2.405553 0.079823 -0.033197 235749.000000 0 0 1
-18.398047 -19.038739 -28.018793 38.548858 0.802510 2.384504 0.072504 -0.029782 502537.000000 0 0 1
-17.311847 -19.986939 -27.368833 38.055628 0.856996 2.373417 0.064115 -0.026633 440135.000000 0 0 1
-15.960147 -19.820839 -27.699783 37.614757 0.892880 2.398541 0.063608 -0.031012 -344239.000000 0 0 1
-15.218747 -20.868739 -27.107683 37.442503 0.940701 2.380353 0.047937 -0.030183 97442.400000 0 0 1
-13.736947 -20.977639 -27.532373 37.239718 0.991028 2.402868 0.155440 -0.035977 -579422.000000 0 0 1
-13.026347 -19.888539 -26.982753 35.962601 0.990937 2.419313 0.157166 -0.044912 269173.000000 0 0 1
-11.613347 -20.029339 -27.020313 35.582883 1.045350 2.433129 0.147960 -0.062785 501747.000000 0 0 1
-10.929547 -21.072539 -26.095243 35.277026 1.092330 2.403456 0.178451 -0.066027 -709934.000000 0 0 1
-11.136447 -22.427939 -26.396443 36.384132 1.109918 2.382547 0.184551 -0.064234 -116908.000000 0 0 1
-10.616147 -23.173239 -25.350623 35.949349 1.141210 2.353468 0.232131 -0.063980 -68516.900000 0 0 1
-10.686547 -24.654839 -25.784453 37.241125 1.161793 2.335558 0.215784 -0.053329 -356421.000000 0 0 1
-9.672747 -25.125689 -26.633613 37.870986 1.203310 2.350786 0.220207 -0.054154 -303025.000000 0 0 1
-9.914447 -26.343329 -27.250703 39.177392 1.210838 2.340012 0.212653 -0.043643 -246240.000000 0 0 1
-9.828547 -27.650879 -26.374223 39.455938 1.229273 2.302916 0.236838 -0.045227 -214307.000000 0 0 1
-10.861447 -27.745579 -25.422013 39.167166 1.197669 2.277150 0.184701 -0.046124 -107940.000000 0 0 1
-10.801747 -28.964659 -24.753233 39.602421 1.213843 2.245983 0.186925 -0.052484 -401670.000000 0 0 1
-11.644847 -29.009069 -23.488133 39.100140 1.189066 2.215194 0.173914 -0.056537 -813803.000000 0 0 1
-11.438447 -28.053649 -22.500533 37.737505 1.183640 2.209603 0.177457 -0.058772 23434.400000 0 0 1
-12.203747 -26.845339 -22.702533 37.215704 1.144128 2.226889 0.147679 -0.046889 128303.000000 0 0 1
-12.031747 -25.849119 -21.524733 35.724697 1.135160 2.217447 0.178993 -0.047352 126895.000000 0 0 1
-12.720947 -26.154429 -20.310033 35.473569 1.118105 2.180397 0.120722 -0.037608 201372.000000 0 0 1
-12.545847 -25.156109 -19.354733 34.129661 1.108173 2.173770 0.119625 -0.031958 -152445.000000 0 0 1
-13.272747 -25.595309 -18.049933 34.015963 1.092410 2.130141 0.159346 -0.041579 205822.000000 0 0 1
-14.680447 -25.505039 -18.261933 34.634098 1.048519 2.126195 0.186018 -0.051496 71649.700000 0 0 1
-15.204547 -25.837799 -17.015933 34.471903 1.038904 2.087041 0.174777 -0.047972 -284438.000000 0 0 1
-16.733847 -25.826529 -16.856033 35.087848 0.995876 2.071902 0.178532 -0.053016 -1151020.000000 0 0 1
-17.404147 -24.584239 -16.715833 34.448631 0.954762 2.077433 0.155591 -0.041472 622959.000000 0 0 1
-18.742047 -24.760839 -16.251233 35.049480 0.922879 2.052924 0.160878 -0.035556 559641.000000 0 0 1
-19.805447 -25.322379 -17.235933 36.476787 0.907046 2.062942 0.147511 -0.034410 -1069230.000000 0 0 1
-19.650247 -26.660389 -17.665133 37.536189 0.935630 2.060785 0.134345 -0.037388 -350256.000000 0 0 1
-19.906847 -27.667249 -16.734333 37.971004 0.947096 2.027190 0.136625 -0.045218 -933368.000000 0 0 1
-21.352447 -28.055259 -16.433333 38.898316 0.920238 2.006964 0.133513 -0.038341 -540058.000000 0 0 1
-21.859847 -28.901649 -17.421933 40.207984 0.923242 2.018942 0.111603 -0.037442 -95425.500000 0 0 1
-23.138147 -29.382229 -17.036533 41.096626 0.903731 1.998243 0.109558 -0.030686 37129.800000 0 0 1
-23.714247 -30.396139 -18.033533 42.561709 0.908262 2.008326 0.081743 -0.030221 -229350.000000 0 0 1
-22.985947 -31.582749 -18.227133 43.105129 0.941655 2.007388 0.070896 -0.030490 -130703.000000 0 0 1
-23.583847 -32.407179 -19.217333 44.449173 0.941698 2.017887 0.063752 -0.011248 207842.000000 0 0 1
-23.074147 33.569677 -19.355333 45.099539 -0.968610 2.014369 0.045895 -0.010168 -271164.000000 0 0 1
-23.638647 32.717911 -18.429233 44.372108 -0.945130 1.999106 0.060956 -0.009575 -158418.000000 0 0 1
-22.945147 31.504735 -18.416533 43.106807 -0.941323 2.012224 0.054303 -0.012913 -216985.000000 0 0 1
-23.786947 30.341677 -17.913233 42.512588 -0.905907 2.005744 0.065090 -0.019571 34640.100000 0 0 1
-24.366047 30.415837 -16.626633 42.370654 -0.895387 1.974046 0.065089 -0.024615 106596.000000 0 0 1
-25.059027 29.334327 -16.046833 41.784667 -0.863837 1.964960 0.065872 -0.018217 770545.000000 0 0 1
-24.150847 28.024907 -15.715333 40.194906 -0.859512 1.972491 0.062539 -0.025500 624255.000000 0 0 1
-23.719547 27.330687 -16.887833 39.934725 -0.856018 2.007424 0.035167 -0.013092 -120156.000000 0 0 1
-22.949547 26.219117 -16.538133 38.569854 -0.851797 2.013943 0.041439 -0.017903 -57819.800000 0 0 1
-22.305047 25.605607 -17.834933 38.356838 -0.854179 2.054402 0.037793 -0.010793 -948232.000000 0 0 1
-22.021647 24.228367 -17.680533 37.209783 -0.833075 2.065940 0.060340 -0.021764 -9865.690000 0 0 1
-21.493147 23.640527 -18.873633 37.108542 -0.832941 2.104361 0.061259 -0.017014 -239714.000000 0 0 1
-20.030047 24.050197 -19.081033 36.656522 -0.876347 2.118275 0.057779 -0.023068 -1063060.000000 0 0 1
-19.124847 23.420257 -18.140033 35.260871 -0.886019 2.111165 0.082831 -0.028354 1103280.000000 0 0 1
-17.878147 24.139837 -18.022233 35.030854 -0.933333 2.111183 0.106198 -0.039078 614323.000000 0 0 1
-17.866447 25.354807 -17.064733 35.401713 -0.956952 2.073768 0.133813 -0.039128 -414575.000000 0 0 1
-18.594547 26.421597 -17.624633 36.803337 -0.957549 2.070183 0.097591 -0.032368 -104823.000000 0 0 1
-18.280047 27.602867 -16.876833 37.160542 -0.985856 2.042226 0.112804 -0.042446 -297530.000000 0 0 1
-19.292347 28.766297 -17.021433 38.593052 -0.980036 2.027564 0.074260 -0.029007 124004.000000 0 0 1
-19.608647 29.282287 -18.295333 39.707311 -0.980737 2.049642 0.081717 -0.030672 217636.000000 0 0 1
-20.273647 28.405187 -19.196233 39.829270 -0.950915 2.073690 0.049591 -0.015951 -504433.000000 0 0 1
-20.417247 28.972097 -20.603433 40.996925 -0.956909 2.097354 0.043954 -0.021821 -219769.000000 0 0 1
-21.245647 30.088107 -20.806033 42.303223 -0.955978 2.084988 0.051615 -0.018389 18623.000000 0 0 1
-21.356747 30.270417 -22.165333 43.170717 -0.956367 2.109979 0.057226 -0.017709 -141000.000000 0 0 1
-22.197447 31.502682 -22.468833 44.609350 -0.956976 2.098650 0.065519 -0.022488 287382.000000 0 0 1
-21.472047 32.745545 -22.169833 44.998011 -0.990408 2.085969 0.049370 -0.021739 548128.000000 0 0 1
-21.789847 33.719577 -23.183633 46.360416 -0.997092 2.094480 0.071857 -0.016628 -40750.700000 0 0 1
-20.629747 -32.714259 -23.424933 45.216553 1.008177 2.115379 0.082068 -0.015974 564831.000000 0 0 1
-20.280347 -31.878429 -22.276533 43.860810 1.004199 2.103532 0.077752 -0.019435 -29253.300000 0 0 1
-19.648247 -32.470149 -21.183933 43.464045 1.026623 2.079894 0.080291 -0.030645 -532134.000000 0 0 1
-19.452347 -31.416709 -20.025733 42.028959 1.016399 2.067437 0.108047 -0.038619 -597766.000000 0 0 1
-18.413547 -30.529689 -20.261833 41.008078 1.028074 2.087588 0.103267 -0.038847 -423068.000000 0 0 1
-18.215347 -29.556949 -19.279133 39.712681 1.018492 2.077692 0.109319 -0.042406 220750.000000 0 0 1
-16.969547 -28.622229 -19.460033 38.547249 1.035629 2.099988 0.119565 -0.037762 -277406.000000 0 0 1
-15.809147 -29.349819 -19.564533 38.653744 1.076712 2.101509 0.129729 -0.042862 -1490140.000000 0 0 1
-14.709647 -28.513389 -19.701333 37.650094 1.094521 2.121485 0.125643 -0.045718 -1317480.000000 0 0 1
-13.390047 -29.240279 -19.946433 37.843724 1.141366 2.125950 0.201196 -0.061374 -343605.000000 0 0 1
-12.815747 -30.038979 -18.918133 37.742276 1.167540 2.095833 0.197056 -0.064580 -53169.100000 0 0 1
-12.048347 -29.208659 -18.103933 36.415118 1.179567 2.091112 0.159587 -0.054258 -1150880.000000 0 0 1
-11.319247 -29.978849 -17.012333 36.280521 1.209771 2.058854 0.174656 -0.040937 -518144.000000 0 0 1
-12.021747 -30.506199 -15.906033 36.443826 1.195408 2.022449 0.195906 -0.050283 -102336.000000 0 0 1
-12.693047 -31.718199 -16.127833 37.779155 1.190133 2.011856 0.198940 -0.048190 -5477.230000 0 0 1
-13.546947 -32.130559 -14.887933 37.914946 1.171790 1.974326 0.176179 -0.051233 -185449.000000 0 0 1
-12.722247 -32.554259 -13.799533 37.577419 1.198245 1.946825 0.167141 -0.044412 458970.000000 0 0 1
-13.437447 -33.208469 -12.761033 38.029085 1.186297 1.912996 0.161898 -0.044787 135444.000000 0 0 1
-12.484947 -33.612199 -11.601433 37.686165 1.215150 1.883722 0.143167 -0.035289 -76020.200000 0 0 1
-11.922847 -32.556169 -10.964133 36.363039 1.219742 1.877081 0.119532 -0.028409 -195495.000000 0 0 1
-11.570647 -32.881909 -9.616233 36.160361 1.232443 1.839968 0.132434 -0.036290 -409459.000000 0 0 1
-10.195747 -32.279769 -9.299533 35.105812 1.264857 1.838897 0.125076 -0.040572 -78095.900000 0 0 1
-9.124547 -33.065929 -9.813233 35.677900 1.301547 1.849439 0.093639 -0.041176 -361717.000000 0 0 1
-7.940747 -32.303289 -9.811733 34.681811 1.329757 1.857620 0.083724 -0.042865 28777.700000 0 0 1
-6.743847 -33.118169 -10.365133 35.351500 1.369913 1.868371 0.089956 -0.054151 175563.000000 0 0 1
-6.237947 33.414470 -9.395133 35.266234 -1.386237 1.840459 0.067091 -0.026206 -172853.000000 0 0 1
-5.183247 32.718731 -10.054933 34.619114 -1.413684 1.865488 0.080806 -0.026988 498471.000000 0 0 1
-4.420247 31.695852 -9.120533 33.276865 -1.432232 1.848430 0.091226 -0.030581 -16698.100000 0 0 1
-3.558347 32.354539 -8.241633 33.576815 -1.461257 1.818786 0.113581 -0.029708 -340150.000000 0 0 1
-2.870447 31.419007 -7.452233 32.418039 -1.479689 1.802750 0.099645 -0.038729 54843.600000 0 0 1
-2.287747 31.865503 -6.096933 32.524093 -1.499125 1.759371 0.114800 -0.040505 31023.100000 0 0 1
-1.266447 32.856402 -6.175833 33.455761 -1.532270 1.756458 0.099316 -0.038132 136726.000000 0 0 1
-0.872847 33.403039 -4.958133 33.780289 -1.544672 1.718104 0.105638 -0.038929 43391.200000 0 0 1
0.218553 32.745975 -4.091933 33.001372 1.564122 1.695109 0.103452 -0.040810 -14980.100000 0 0 1
1.559953 32.882252 -4.531833 33.229707 1.523391 1.707602 0.101568 -0.037597 192057.000000 0 0 1
2.402353 32.225200 -3.598833 32.514403 1.496385 1.681708 0.094266 -0.029859 323044.000000 0 0 1
3.922653 32.305753 -3.870433 32.772383 1.449965 1.689173 0.090311 -0.030631 158180.000000 0 0 1
4.554553 33.480094 -3.533833 33.972763 1.435589 1.675004 0.086598 -0.030771 -1107640.000000 0 0 1
5.917953 33.593627 -3.747133 34.316103 1.396422 1.680209 0.092797 -0.028648 -723746.000000 0 0 1
6.434753 -32.521969 -3.350633 33.321333 -1.375461 1.671522 0.099030 -0.029787 -149262.000000 0 0 1
6.166153 -31.624019 -4.352933 32.512275 -1.378229 1.705085 0.103463 -0.033720 -51587.600000 0 0 1
6.527553 -30.342459 -3.855733 31.275237 -1.358897 1.694395 0.101915 -0.034164 161928.000000 0 0 1
6.352753 -29.216249 -4.844933 30.288942 -1.356690 1.731444 0.093468 -0.037588 -441902.000000 0 0 1
7.323553 -29.296069 -5.847133 30.758463 -1.325833 1.762059 0.106589 -0.040273 -164049.000000 0 0 1
7.371653 -28.098879 -6.676033 29.807007 -1.314231 1.796688 0.099865 -0.035014 84740.200000 0 0 1
7.803353 -26.732799 -6.114533 28.511793 -1.286786 1.786931 0.094038 -0.033283 -61594.200000 0 0 1
6.913853 -26.207479 -5.150533 27.589152 -1.312861 1.758585 0.084601 -0.031089 -304221.000000 0 0 1
7.439553 -25.182609 -4.323633 26.612112 -1.283543 1.733988 0.063932 -0.036802 203294.000000 0 0 1
6.393453 -24.643739 -3.299133 25.672444 -1.316957 1.699661 0.070638 -0.034697 113212.000000 0 0 1
5.265153 -24.040539 -3.873733 24.913353 -1.355189 1.726918 0.063628 -0.037949 -444435.000000 0 1 0
4.444653 -23.618039 -2.801433 24.195345 -1.384783 1.686841 0.070508 -0.035961 -337928.000000 0 1 0
3.154153 -22.931639 -3.240833 23.373312 -1.434108 1.709900 0.085893 -0.040010 169225.000000 0 1 0
2.305053 -23.836539 -3.981933 24.276524 -1.474394 1.735565 0.089602 -0.040232 -18452.600000 0 1 0
1.027953 -23.292639 -4.218433 23.693857 -1.526693 1.749790 0.096980 -0.042436 232981.000000 0 1 0
-16.001547 23.131661 17.772936 33.271617 -0.965622 1.007262 0.019370 -0.015943 -145896.000000 0 0 1
-16.204547 22.530661 19.020036 33.644908 -0.947286 0.969979 0.047268 -0.015071 371112.000000 0 0 1
-15.919947 23.471961 20.112536 34.769121 -0.974815 0.953957 0.065078 -0.019574 -919536.000000 0 0 1
-15.989247 22.827761 21.508736 35.204949 -0.959782 0.913527 0.081033 -0.017119 -258384.000000 0 0 1
-15.027747 21.882661 21.965436 34.455253 -0.969024 0.879539 0.065805 -0.011459 485238.000000 0 0 1
-13.665447 22.277161 21.933936 34.119114 -1.020561 0.872565 0.064059 -0.023570 -97957.800000 0 0 1
-13.098347 23.227761 22.979916 35.201877 -1.057337 0.859517 0.087710 -0.020390 -516977.000000 0 0 1
-12.943247 22.753561 24.303396 35.719844 -1.053600 0.822503 0.080223 -0.017763 255508.000000 0 0 1
-12.316347 23.753061 25.130246 36.707351 -1.092446 0.816727 0.105487 -0.023066 242949.000000 0 0 1
-11.758847 23.211761 26.465166 37.114167 -1.101891 0.776923 0.103636 -0.019919 684463.000000 0 0 1
-10.373347 22.860861 26.443456 36.462058 -1.144820 0.759425 0.061744 -0.017399 418618.000000 0 0 1
-9.980647 22.382961 27.697876 36.983545 -1.151354 0.724359 0.051434 -0.019184 -227611.000000 0 0 1
-8.470347 22.024161 27.773136 36.443896 -1.203642 0.704278 0.047210 -0.025978 452450.000000 0 0 1
-7.629647 23.096161 28.152286 37.204776 -1.251740 0.712569 0.052777 -0.019980 34784.000000 0 0 1
-7.321347 24.079561 27.170216 37.035767 -1.275630 0.747161 0.052001 -0.019133 -766499.000000 0 0 1
-6.260047 25.106061 27.495556 37.755902 -1.326435 0.755038 0.055601 -0.023370 62116.600000 0 0 1
-4.895747 24.743661 27.508986 37.322398 -1.375461 0.742081 0.050262 -0.018764 104602.000000 0 0 1
-4.018547 25.828261 27.827816 38.178988 -1.416447 0.754115 0.074080 -0.011296 1189240.000000 0 0 1
-2.508447 25.395461 27.798516 37.735650 -1.472340 0.742671 0.085531 -0.020896 592681.000000 0 0 1
-1.930747 25.365161 26.527356 36.753501 -1.494825 0.764449 0.080564 -0.026009 -921028.000000 0 0 1
-0.604347 24.989361 26.548976 36.464799 -1.546617 0.755292 0.103691 -0.017282 -692473.000000 0 0 1
0.055453 24.542961 25.240166 35.205483 1.568537 0.771396 0.100659 -0.028659 -212738.000000 0 0 1
-0.355047 23.267961 24.874816 34.062891 -1.555538 0.752092 0.104730 -0.024072 -25253.100000 0 0 1
-0.199447 23.038661 23.487576 32.901154 -1.562139 0.775769 0.096089 -0.026104 -169317.000000 0 0 1
-0.680347 21.646461 22.990716 31.584888 -1.539377 0.755539 0.089453 -0.028099 -90783.800000 0 0 1
0.178453 20.531161 23.217096 30.993451 1.562105 0.724099 0.098188 -0.027091 -112178.000000 0 0 1
-0.081747 19.415361 22.448796 29.680151 -1.566586 0.713070 0.090956 -0.025191 363871.000000 0 0 1
0.914353 18.205661 22.728176 29.135067 1.520615 0.675976 0.102264 -0.017645 1551390.000000 0 0 1
2.171153 18.364961 22.035136 28.766872 1.453120 0.698216 0.089305 -0.015678 637044.000000 0 0 1
3.037753 17.235261 22.106936 28.195723 1.396336 0.669628 0.075871 -0.020250 44954.100000 0 0 1
4.429553 17.570661 21.537736 28.146459 1.323843 0.699441 0.078684 -0.010309 264032.000000 0 0 1
5.257753 18.483761 22.261936 29.408964 1.293664 0.712121 0.071796 -0.005154 -465374.000000 0 0 1
6.464753 18.748361 21.611836 29.331988 1.238746 0.742470 0.094791 -0.020647 -615540.000000 0 0 1
7.500653 19.316761 22.580296 30.647460 1.200419 0.742508 0.111734 -0.026879 -575258.000000 0 0 1
7.225253 20.575961 23.188696 31.832218 1.233097 0.754716 0.100965 -0.019191 74371.300000 0 0 1
7.288553 21.756961 22.392356 32.060973 1.247548 0.797594 0.116722 -0.029462 -269296.000000 0 0 1
5.966653 22.518961 22.593116 32.452326 1.311787 0.800714 0.085357 -0.021986 -118242.000000 0 0 1
5.859253 23.722261 21.916436 32.823874 1.328649 0.839684 0.091880 -0.031062 -132341.000000 0 0 1
4.731953 24.328161 22.485276 33.463987 1.378690 0.833992 0.068535 -0.023637 -469389.000000 0 0 1
4.254153 25.737661 22.066836 34.168264 1.406988 0.868688 0.078822 -0.018685 -29699.500000 0 0 1
3.956753 25.950261 20.705936 33.433632 1.419487 0.902927 0.077540 -0.025050 -1637.160000 0 0 1
2.797653 25.305061 20.220536 32.512199 1.460686 0.899583 0.093613 -0.034707 -456952.000000 0 0 1
2.532753 25.688761 18.805536 31.937055 1.472520 0.941184 0.097300 -0.039156 -109132.000000 0 0 1
1.950553 26.989061 18.525436 32.793381 1.498650 0.970467 0.130156 -0.046416 422217.000000 0 0 1
1.924053 27.398961 17.169736 32.391432 1.500688 1.012113 0.142177 -0.033034 -178643.000000 0 0 1
1.110553 28.682061 17.001636 33.360899 1.532096 1.036044 0.162137 -0.020271 -168834.000000 0 0 1
1.612453 29.831161 17.666836 34.707568 1.516796 1.036751 0.176781 -0.031002 580161.000000 0 0 1
0.636753 30.880961 17.711336 35.605205 1.550180 1.050155 0.159199 -0.028556 614060.000000 0 0 1
1.191853 32.123161 18.513036 37.095155 1.533711 1.048272 0.176853 -0.023879 200135.000000 0 0 1
1.374453 31.978261 19.908236 37.693981 1.527842 1.014371 0.202407 -0.028801 410710.000000 0 0 1
2.178853 33.081461 20.394736 38.923974 1.505028 1.019299 0.216684 -0.031504 -90178.300000 0 0 1
2.588353 32.905161 21.838336 39.577293 1.492297 0.986288 0.209829 -0.051129 -382022.000000 0 0 1
1.478853 32.858761 22.690446 39.959248 1.525820 0.966917 0.203436 -0.035230 -46808.100000 0 0 1
1.846953 32.522461 24.007996 40.466104 1.514067 0.935661 0.205973 -0.043141 218652.000000 0 0 1
0.599153 32.272961 24.898176 40.765453 1.552233 0.913768 0.193724 -0.026111 911288.000000 0 0 1
-0.399247 33.331461 24.892486 41.602663 -1.558819 0.929370 0.193358 -0.020889 1368360.000000 0 0 1
-1.510747 33.292261 25.778916 42.133235 -1.525449 0.912408 0.194942 -0.027070 523811.000000 0 0 1
-1.125147 33.529461 27.316656 43.263038 -1.537252 0.887428 0.195338 -0.038621 -882361.000000 0 0 1
-0.192047 32.616761 27.793366 42.852785 -1.564908 0.865082 0.193747 -0.048221 -231589.000000 0 0 1
0.008053 32.842261 29.175686 43.929886 1.570551 0.844451 0.196779 -0.054873 -720689.000000 0 0 1
1.090453 31.892661 29.771366 43.642470 1.536618 0.820077 0.167283 -0.051030 360432.000000 0 0 1
2.405553 32.038561 29.252836 43.450944 1.495854 0.832217 0.149574 -0.050914 337441.000000 0 0 1
2.641753 31.524261 27.960796 42.220422 1.487191 0.846968 0.144339 -0.051164 -1211780.000000 0 0 1
4.115453 31.463661 27.555636 42.026325 1.440735 0.855719 0.113920 -0.040446 -327460.000000 0 0 1
4.872953 30.523561 28.273916 41.890903 1.412487 0.829911 0.101437 -0.040664 393523.000000 0 0 1
6.246753 30.529861 27.889096 41.819804 1.368971 0.840773 0.106413 -0.046611 443144.000000 0 0 1
7.043353 29.347761 28.500886 41.511449 1.335255 0.814023 0.113672 -0.021385 7144.000000 0 0 1
7.181753 29.507961 29.866416 42.594602 1.332055 0.793747 0.133071 -0.039507 -123618.000000 0 0 1
7.802053 28.423861 30.453626 42.381733 1.302905 0.769073 0.113373 -0.031164 -158472.000000 0 0 1
7.779653 28.477461 32.007850 43.542982 1.304117 0.745002 0.146869 -0.039561 806328.000000 0 0 1
6.440153 28.294361 32.529341 43.591335 1.346997 0.728410 0.151000 -0.042621 818592.000000 0 0 1
6.200753 28.059061 -33.548633 44.173194 1.353303 2.433309 0.166984 -0.039004 -217264.000000 0 0 1
6.307353 26.557561 -33.257663 43.025096 1.337619 2.454326 0.160830 -0.035014 332718.000000 0 0 1
7.544753 25.888061 -33.510413 43.012356 1.287213 2.464006 0.148471 -0.035833 361266.000000 0 0 1
7.537253 24.657461 -32.793303 41.715720 1.274138 2.475292 0.153962 -0.038864 1825910.000000 0 0 1
9.010553 24.005661 -32.757363 41.599359 1.211718 2.477455 0.164874 -0.042653 1571220.000000 0 0 1
9.703153 23.842961 33.431326 42.193501 1.184304 0.656172 0.141242 -0.033532 910672.000000 0 0 1
10.984153 23.216661 33.456156 42.177949 1.128887 0.654727 0.151493 -0.047504 469075.000000 0 0 1
10.991853 21.753661 -33.476443 41.409115 1.102928 2.512279 0.162894 -0.050087 -1276450.000000 0 0 1
10.512253 20.936461 32.917671 40.403167 1.105468 0.618533 0.150051 -0.051841 73433.700000 0 0 1
10.150353 19.668861 33.314692 39.997031 1.094382 0.586416 0.142593 -0.042675 384081.000000 0 0 1
8.743653 19.582361 -33.472253 39.753139 1.150851 2.571781 0.161573 -0.050453 -178049.000000 0 0 1
8.779453 20.184061 -32.186593 38.992972 1.160512 2.541788 0.186252 -0.050996 54407.800000 0 0 1
7.506653 20.637561 -31.772373 38.623082 1.221936 2.536812 0.202428 -0.049877 2395.580000 0 0 1
7.476153 21.057761 -30.335463 37.677082 1.229647 2.506714 0.211105 -0.058440 -147773.000000 0 0 1
8.468153 22.018161 -30.118803 38.257696 1.203637 2.477151 0.208779 -0.043323 -77295.400000 0 0 1
8.502153 22.450661 -28.730303 37.439940 1.208782 2.445526 0.173181 -0.041608 -104000.000000 0 0 1
9.964053 22.742161 -28.298383 37.646869 1.157856 2.421401 0.183686 -0.051394 24006.000000 0 0 1
10.623553 21.530061 -28.147423 36.995687 1.112419 2.435387 0.198649 -0.046006 -715067.000000 0 0 1
12.017453 21.631561 -28.235863 37.544741 1.063701 2.421977 0.198532 -0.051067 -306448.000000 0 0 1
12.730753 20.306961 -28.167283 36.984329 1.010821 2.436576 0.198347 -0.056634 -392636.000000 0 0 1
12.831253 19.587661 -29.389683 37.577533 0.990867 2.468838 0.205821 -0.057843 92114.900000 0 0 1
11.597453 19.085361 -29.867883 37.293999 1.024762 2.499554 0.218156 -0.057289 -8980.020000 0 0 1
11.836853 18.104261 -31.026113 37.821886 0.991743 2.532770 0.212684 -0.060397 -258280.000000 0 0 1
12.102053 16.768461 -30.538783 36.881679 0.945645 2.546364 0.192280 -0.058053 85850.100000 0 0 1
12.085453 15.879361 -31.658823 37.423166 0.920242 2.579175 0.178586 -0.058029 189991.000000 0 0 1
13.414853 15.681261 -32.460693 38.465008 0.863135 2.575311 0.157475 -0.042991 289143.000000 0 0 1
13.905153 16.938661 -32.960243 39.580919 0.883434 2.554818 0.162939 -0.053633 -177330.000000 0 0 1
14.522553 16.891661 33.220322 39.997782 0.860671 0.590694 0.161203 -0.049478 221987.000000 0 0 1
13.603853 16.566561 31.997612 38.514451 0.883283 0.590262 0.160381 -0.042204 121883.000000 0 0 1
14.043253 17.388961 30.868016 38.110672 0.891441 0.626717 0.153265 -0.043456 43035.300000 0 0 1
13.407253 17.038961 29.683226 36.758326 0.904120 0.630854 0.144270 -0.033275 952336.000000 0 0 1
11.944953 17.602861 29.486946 36.359629 0.974591 0.624970 0.137946 -0.036095 1447270.000000 0 0 1
10.938853 16.976861 30.291356 36.406573 0.998411 0.588039 0.124698 -0.036171 249150.000000 0 0 1
9.657253 17.572661 30.181476 36.235100 1.068290 0.586406 0.117108 -0.041145 854572.000000 0 0 1
8.542053 16.725961 30.877246 36.140404 1.098620 0.546461 0.139360 -0.045934 443442.000000 0 0 1
8.793453 16.636761 32.270568 37.356341 1.084566 0.527918 0.155840 -0.042915 -29362.800000 0 0 1
7.946053 15.699761 32.906311 37.315514 1.102260 0.491046 0.175037 -0.048008 -57724.000000 0 0 1
7.880953 15.669761 -33.027253 37.395859 1.104799 2.653394 0.175284 -0.047265 -361517.000000 0 0 1
7.198353 16.751461 -32.490483 37.256667 1.164939 2.630216 0.162057 -0.053346 -138420.000000 0 0 1
6.974053 16.642361 -31.054383 35.916296 1.173973 2.615214 0.178309 -0.059255 304696.000000 0 0 1
5.960853 17.645061 -30.405283 35.656152 1.245013 2.591997 0.162890 -0.060457 -96455.500000 0 0 1
5.828153 17.356461 -29.010553 34.304902 1.246835 2.578612 0.157196 -0.066671 846463.000000 0 0 1
4.904053 18.188061 -28.230063 33.938058 1.307429 2.553159 0.156345 -0.068119 2019160.000000 0 0 1
3.355053 18.130661 -28.504643 33.948372 1.387818 2.567429 0.168129 -0.064197 -130925.000000 0 0 1
2.583753 17.067561 -27.996443 32.890398 1.420553 2.589072 0.168368 -0.059408 852331.000000 0 0 1
1.207053 17.048461 -28.411173 33.155720 1.500113 2.600024 0.166757 -0.053739 1292300.000000 0 0 1
0.355353 18.245361 -27.816413 33.268188 1.551322 2.560980 0.162181 -0.060185 -904074.000000 0 0 1
0.051953 18.181261 -26.426783 32.077029 1.567939 2.538973 0.169474 -0.063014 14998.600000 0 0 1
-0.491347 19.428361 -26.095903 32.537652 -1.545512 2.501469 0.174494 -0.050275 -27610.100000 0 0 1
-0.879447 19.704061 -24.556033 31.496384 -1.526193 2.464897 0.156902 -0.057181 174311.000000 0 0 1
-2.202247 19.305961 -24.235033 31.062950 -1.457216 2.465767 0.145554 -0.041770 192894.000000 0 0 1
-2.557647 19.485161 -22.873533 30.156452 -1.440281 2.431798 0.136439 -0.041932 660125.000000 0 0 1
-3.789047 18.725861 -22.242033 29.321030 -1.371149 2.431911 0.114034 -0.025937 1162780.000000 0 0 1
-5.062947 19.344761 -22.478933 30.085805 -1.314816 2.414576 0.123354 -0.022322 -201539.000000 0 0 1
-6.020847 18.455361 -22.013533 29.350410 -1.255445 2.418896 0.111401 -0.031439 -648566.000000 0 0 1
-7.454847 19.004661 -21.984733 30.001340 -1.196977 2.393212 0.147088 -0.025394 -120809.000000 0 0 1
-7.875747 19.928561 -21.013833 30.012599 -1.194436 2.346428 0.117056 -0.020708 149658.000000 0 0 1
-7.342647 21.244261 -21.274433 30.948903 -1.238020 2.328706 0.134323 -0.030640 -12162.400000 0 0 1
-7.736147 22.386361 -20.317433 31.205692 -1.238070 2.279804 0.140273 -0.035612 167124.000000 0 0 1
-7.108247 22.153261 -19.040033 30.063550 -1.260307 2.256640 0.147440 -0.034950 190693.000000 0 0 1
-7.201947 23.256261 -18.183133 30.386643 -1.270485 2.212289 0.153866 -0.035612 -109333.000000 0 0 1
-6.198747 23.416861 -17.006933 29.597460 -1.312019 2.182921 0.156133 -0.038988 577077.000000 0 0 1
-4.865347 23.605461 -17.477133 29.771456 -1.367532 2.198198 0.146116 -0.043769 -102667.000000 0 0 1
-4.012247 23.642061 -16.349433 29.023252 -1.402690 2.169197 0.122908 -0.041955 98515.200000 0 0 1
-2.541647 23.991961 -16.645533 29.311226 -1.465253 2.174736 0.113720 -0.042195 49428.800000 0 0 1
-2.399747 25.369661 -16.856333 30.553469 -1.476486 2.155197 0.107072 -0.044546 -819489.000000 0 0 1
-1.076047 25.653661 -17.151933 30.878099 -1.528876 2.159727 0.113359 -0.052417 -515368.000000 0 0 1
-0.864747 27.194061 -17.102633 32.136658 -1.539008 2.131975 0.112979 -0.062924 157240.000000 0 0 1
-1.752047 27.831061 -18.017133 33.200222 -1.507926 2.144422 0.124786 -0.061427 116924.000000 0 0 1
-1.156847 28.940761 -18.633033 34.439743 -1.530845 2.142461 0.139378 -0.068069 -356153.000000 0 0 1
-2.149947 29.837361 -19.452833 35.683373 -1.498865 2.147366 0.189562 -0.062365 795293.000000 0 0 1
-2.991947 30.747861 -18.693433 36.108547 -1.473796 2.114958 0.179653 -0.070728 742612.000000 0 0 1
-4.153747 30.107661 -18.142433 35.395943 -1.433699 2.108956 0.136940 -0.067092 278272.000000 0 0 1
-5.074547 31.091461 -17.360733 35.969780 -1.409009 2.074472 0.180847 -0.061924 338479.000000 0 0 1
-5.685147 32.094061 -18.159833 37.311248 -1.395475 2.079118 0.218236 -0.070973 16925.700000 0 0 1
-6.181147 33.144461 -17.363133 37.924139 -1.386423 2.046359 0.215141 -0.076739 -148803.000000 0 0 1
-6.905547 -33.211604 -18.139633 38.467434 1.365792 2.061853 0.210472 -0.069598 665945.000000 0 0 1
-8.247447 -33.603204 -18.473033 39.223063 1.330117 2.061191 0.193404 -0.073292 722375.000000 0 0 1
-9.177147 -32.548804 -18.411733 38.505020 1.295980 2.069360 0.219035 -0.074832 -34786.600000 0 0 1
29.225453 -20.113139 -26.633953 44.362517 -0.602767 2.214761 0.113797 -0.009727 196686.000000 0 0 1
29.426153 -21.347039 -25.953723 44.667553 -0.627599 2.190805 0.106052 -0.018008 188317.000000 0 0 1
28.162253 -21.957439 -25.709583 44.002548 -0.662225 2.194783 0.078188 -0.026593 -355983.000000 0 0 1
28.236053 -23.260439 -24.932633 44.271423 -0.689077 2.169021 0.099226 -0.019511 134093.000000 0 0 1
28.879153 -24.361739 -25.548113 45.609274 -0.700752 2.165365 0.108802 -0.005990 -44265.100000 0 0 1
30.293353 -24.268439 -25.565923 46.478605 -0.675420 2.153230 0.100885 -0.012728 -26162.500000 0 0 1
30.907553 -25.551909 -26.295183 47.954286 -0.690823 2.151172 0.105273 -0.022428 96008.300000 0 0 1
30.820853 -26.742219 -25.502123 48.118910 -0.714661 2.129375 0.119295 -0.027074 -356692.000000 0 0 1
30.827753 -27.947449 -26.229603 49.187420 -0.736432 2.133244 0.109143 -0.021680 -531.645000 0 0 1
29.581053 -28.402099 -27.021523 49.110901 -0.765068 2.153417 0.105874 -0.026332 -348736.000000 0 0 1
29.392753 -27.797289 -28.322483 49.384068 -0.757508 2.181586 0.087820 -0.026586 653240.000000 0 0 1
30.405453 -28.068599 -29.324353 50.717408 -0.745455 2.187306 0.061158 -0.030090 83110.800000 0 0 1
30.568553 -29.544369 -29.842343 51.941039 -0.768362 2.182842 0.068886 -0.021411 -718390.000000 0 0 1
31.157953 -30.496849 -28.974163 52.348619 -0.774676 2.157339 0.081723 -0.022076 -402120.000000 0 0 1
32.461753 -30.317729 -28.525043 52.788333 -0.751260 2.141669 0.090502 -0.024282 -1106330.000000 0 0 1
33.624153 -30.241029 -29.478043 53.982020 -0.732475 2.148464 0.082815 -0.029647 -1295450.000000 0 0 1
33.656153 -29.044149 -30.153853 53.717353 -0.711974 2.166804 0.083854 -0.039503 54106.400000 0 0 1
34.714653 -28.954269 -31.099833 54.869449 -0.695170 2.173409 0.073140 -0.040850 224070.000000 0 0 1
34.682453 -27.552849 -31.697063 54.467750 -0.671337 2.191911 0.068259 -0.025743 173178.000000 0 0 1
34.764553 -26.275029 -30.955343 53.452638 -0.647202 2.188442 0.075848 -0.016982 351640.000000 0 0 1
33.532453 -26.005189 -30.288653 52.135379 -0.659637 2.190706 0.089917 -0.020009 272414.000000 0 0 1
33.452953 -24.618339 -29.612643 51.010502 -0.634422 2.190164 0.085755 -0.019607 196474.000000 0 0 1
34.320753 -24.461339 -28.452873 50.851127 -0.619217 2.164618 0.088598 -0.021769 568811.000000 0 0 1
34.537753 -23.189739 -28.051383 50.174699 -0.591294 2.164065 0.086993 -0.018060 300385.000000 0 0 1
35.613853 -22.973939 -26.918313 50.207011 -0.572912 2.136662 0.102564 -0.025388 51416.000000 0 0 1
35.267953 -23.600239 -25.693173 49.607851 -0.589733 2.115220 0.093431 -0.031219 533676.000000 0 0 1
34.143953 -23.067739 -24.970333 48.181403 -0.594163 2.115608 0.108859 -0.019665 380821.000000 0 0 1
34.371653 -21.764239 -24.167433 47.319736 -0.564476 2.106826 0.120739 -0.016156 -333882.000000 0 0 1
34.445253 -20.609839 -24.963433 47.269587 -0.539195 2.127167 0.126960 -0.024593 103175.000000 0 0 1
34.626453 -19.431639 -24.258633 46.530217 -0.511385 2.119231 0.108668 -0.032959 -42875.000000 0 0 1
34.502853 -18.204439 -25.179253 46.431059 -0.485500 2.143961 0.087045 -0.033716 136482.000000 0 0 1
33.231253 -18.028939 -25.772353 45.755579 -0.497090 2.169124 0.110089 -0.019052 69663.400000 0 0 1
33.175453 -16.832039 -26.464913 45.654352 -0.469522 2.189132 0.115256 -0.010081 37652.000000 0 0 1
32.039853 -16.686639 -27.496613 45.398897 -0.480156 2.221400 0.103144 -0.003793 -154466.000000 0 0 1
30.763453 -16.393139 -26.999023 44.091635 -0.489602 2.229812 0.090075 -0.006467 135415.000000 0 0 1
29.763053 -16.419939 -28.019243 44.051466 -0.504139 2.260174 0.053090 -0.010118 1305260.000000 0 0 1
28.315353 -16.006139 -27.550043 42.625820 -0.514500 2.273552 0.024583 0.000175 1053040.000000 0 0 1
27.715553 -16.977339 -26.691393 42.057251 -0.549601 2.258344 0.065942 0.005264 -37059.000000 0 0 1
27.676553 -16.553939 -25.327993 41.006484 -0.539037 2.236558 0.076245 -0.005068 163896.000000 0 0 1
27.020153 -17.690539 -24.453933 40.509735 -0.579684 2.218875 0.076333 -0.006402 48636.300000 0 0 1
27.026253 -17.306139 -23.092233 39.536970 -0.569558 2.194526 0.080328 -0.002182 113437.000000 0 0 1
26.400253 -18.292339 -22.248033 39.071191 -0.605935 2.176600 0.089399 -0.007103 211227.000000 0 0 1
26.078253 -17.786439 -20.777133 37.790500 -0.598571 2.152918 0.090613 -0.007110 348929.000000 0 0 1
25.142553 -16.709839 -20.587333 36.540456 -0.586573 2.169306 0.080840 -0.008725 420631.000000 0 0 1
25.469853 -15.429539 -21.184933 36.545663 -0.544670 2.189137 0.076181 -0.001480 671804.000000 0 0 1
26.800353 -14.676439 -20.776233 36.950083 -0.501015 2.167935 0.074413 -0.002850 886652.000000 0 0 1
26.727153 -13.944439 -19.570633 35.941588 -0.480882 2.146604 0.078118 -0.013221 -192057.000000 0 0 1
27.970453 -13.330039 -19.469033 36.593434 -0.444733 2.131800 0.061932 -0.009984 -617043.000000 0 0 1
28.085453 -12.439839 -18.216133 35.712319 -0.416957 2.106074 0.072252 -0.010570 -265976.000000 0 0 1
28.303553 -13.122539 -16.996633 35.527140 -0.434135 2.069643 0.086220 -0.016853 195852.000000 0 0 1
28.323453 -12.208939 -15.972833 34.733378 -0.406987 2.048645 0.071567 -0.019107 -133074.000000 0 0 1
28.901653 -12.712339 -14.666333 34.813940 -0.414380 2.005650 0.096328 -0.029604 -5695.660000 0 0 1
28.132153 -13.782339 -14.016033 34.319383 -0.455546 1.991497 0.136160 -0.037203 683702.000000 0 0 1
28.669253 -14.245539 -12.795833 34.476003 -0.461159 1.951046 0.153756 -0.043346 -43091.200000 0 0 1
27.836553 -15.413539 -12.163733 34.064751 -0.505692 1.935933 0.167211 -0.065407 1115720.000000 0 0 1
26.486053 -15.082839 -11.762333 32.670407 -0.517663 1.939097 0.140490 -0.060962 1383500.000000 0 0 1
25.799953 -16.167339 -11.160533 32.428042 -0.559779 1.922144 0.117732 -0.057095 -1063760.000000 0 0 1
24.309453 -16.073139 -11.010833 31.153390 -0.584201 1.932042 0.117722 -0.061554 -1178600.000000 0 0 1
23.994053 -15.341939 -9.833833 30.129619 -0.568892 1.903272 0.089422 -0.056889 -256153.000000 0 0 1
22.624253 -15.424739 -9.583733 29.010814 -0.598392 1.907471 0.100288 -0.049995 -898491.000000 0 0 1
22.291453 -15.353339 -8.096633 28.252245 -0.603139 1.861455 0.086214 -0.037219 -418714.000000 0 0 1
22.524153 -14.069739 -7.530333 27.604364 -0.558348 1.847093 0.108094 -0.033802 438504.000000 0 0 1
22.260153 -13.872239 -6.134733 26.936747 -0.557295 1.800558 0.094683 -0.021851 38811.400000 0 0 1
23.262953 -14.465139 -5.088933 27.862205 -0.556302 1.754474 0.096454 -0.015872 262714.000000 0 0 1
24.572353 -13.920739 -5.073733 28.693732 -0.515438 1.748555 0.128577 -0.031042 757435.000000 0 0 1
25.446453 -14.785639 -4.334833 29.747737 -0.526368 1.717037 0.137311 -0.037905 129310.000000 0 0 1
26.951453 -14.529339 -4.532433 30.951986 -0.494431 1.717759 0.153329 -0.040550 -38943.900000 0 0 1
27.527153 -13.536939 -3.701133 30.898078 -0.457039 1.690870 0.169749 -0.042981 -101055.000000 0 0 1
28.767553 -13.096139 -4.192233 31.885040 -0.427203 1.702658 0.186950 -0.053040 -176976.000000 0 0 1
29.428053 -12.088239 -3.230133 31.977642 -0.389758 1.671981 0.235417 -0.064914 -1121340.000000 0 0 1
29.964153 -12.752539 -2.094933 32.632291 -0.402373 1.635039 0.248302 -0.064687 295338.000000 0 0 1
30.537753 -11.846239 -1.145133 32.774976 -0.370050 1.605743 0.252854 -0.066857 106888.000000 0 0 1
31.850053 -11.123039 -1.534533 33.771329 -0.335990 1.616251 0.278316 -0.069083 -818401.000000 0 0 1
31.829153 -10.430039 -2.750433 33.607225 -0.316661 1.652728 0.280113 -0.078619 172067.000000 0 0 1
33.118053 -10.250539 -3.322133 34.826937 -0.300163 1.666331 0.317296 -0.075319 164753.000000 0 0 1
33.024453 -9.932839 -4.819733 34.821051 -0.292165 1.709656 0.291659 -0.073335 -236556.000000 0 0 1
32.244653 -10.866339 -5.514633 34.470366 -0.325044 1.731469 0.290983 -0.073778 317799.000000 0 0 1
31.909953 -10.482939 -6.844133 34.277970 -0.317409 1.771813 0.268093 -0.070804 -549307.000000 0 0 1
30.697753 -11.313239 -7.258333 33.511562 -0.353092 1.789118 0.246003 -0.061489 -556387.000000 0 0 1
30.811253 -12.746039 -7.312733 34.136064 -0.392245 1.786693 0.253990 -0.059111 -502826.000000 0 0 1
29.680553 -13.356939 -7.828133 33.475703 -0.422873 1.806827 0.234669 -0.055100 -541841.000000 0 0 1
29.920953 -14.862039 -7.944333 34.340298 -0.461012 1.804253 0.232000 -0.052084 34779.000000 0 0 1
30.510553 -15.227339 -9.165633 35.309694 -0.462915 1.833382 0.242964 -0.062520 274417.000000 0 0 1
30.668653 -16.581039 -9.410133 36.111601 -0.495637 1.834424 0.220288 -0.060999 -74623.200000 0 0 1
30.994753 -16.958639 -10.898833 36.973703 -0.500649 1.870014 0.193443 -0.063732 -184902.000000 0 0 1
32.346253 -16.675439 -11.207533 38.078329 -0.475994 1.869549 0.209589 -0.055391 634016.000000 0 0 1
32.850353 -17.222639 -12.435233 39.120327 -0.482879 1.894280 0.190700 -0.044619 -103652.000000 0 0 1
32.362753 -16.459739 -13.703933 38.808099 -0.470505 1.931701 0.169946 -0.041333 -391830.000000 0 0 1
33.112053 -15.394739 -14.181433 39.172938 -0.435199 1.941232 0.145795 -0.043217 52647.300000 0 0 1
32.381453 -14.820039 -15.227433 38.730695 -0.429214 1.974864 0.125490 -0.037194 -124262.000000 0 0 1
33.283253 -13.908839 -16.124733 39.512501 -0.395836 1.991159 0.124194 -0.031285 1362190.000000 0 0 1
34.349553 -14.614339 -16.849333 40.955716 -0.402260 1.994790 0.088161 -0.038796 1857690.000000 0 0 1
35.605253 -14.638139 -16.143433 41.744695 -0.390058 1.967867 0.103321 -0.039951 30577.600000 0 0 1
36.703953 -15.088039 -17.139133 43.227063 -0.390016 1.978488 0.106209 -0.042440 -509204.000000 0 0 1
37.974153 -15.162339 -16.520833 44.100688 -0.379886 1.954779 0.110520 -0.047451 312262.000000 0 0 1
-37.240503 -15.563739 -17.545933 44.010735 0.395863 1.980867 0.125138 -0.055364 -302161.000000 0 0 1
-35.746703 -15.477739 -17.217133 42.588928 0.408613 1.986969 0.134853 -0.055848 -409155.000000 0 0 1
-35.241903 -16.356939 -16.215333 42.100810 0.434545 1.966172 0.125599 -0.051680 45703.800000 0 0 1
-35.620103 -16.292439 -14.868133 41.896260 0.428986 1.933582 0.099207 -0.041877 -521106.000000 0 0 1
-34.907403 -17.371439 -14.003633 41.429402 0.461761 1.915600 0.090776 -0.034364 -100745.000000 0 0 1
-33.540203 -17.131639 -13.774633 40.102104 0.472234 1.921426 0.098167 -0.033007 4817.250000 0 0 1
-33.071003 -17.892739 -12.631333 39.666004 0.495938 1.894882 0.076965 -0.013821 -265666.000000 0 0 1
-31.556703 -17.701039 -12.498133 38.279963 0.511195 1.903387 0.097612 -0.020018 -503782.000000 0 0 1
-31.147403 -16.392339 -12.214933 37.256866 0.484452 1.904831 0.105218 -0.035443 -94249.200000 0 0 1
-29.933303 -16.376139 -11.499733 36.005894 0.500604 1.895876 0.130755 -0.029547 -152198.000000 0 0 1
-30.050803 -16.101939 -9.986633 35.525428 0.491894 1.855749 0.131967 -0.029828 47630.500000 0 0 1
-30.642603 -17.272039 -9.380133 36.404386 0.513271 1.831401 0.106369 -0.028112 64677.700000 0 0 1
-30.809703 -17.067639 -7.976033 36.113144 0.505886 1.793495 0.130274 -0.032219 -402516.000000 0 0 1
-31.515903 -18.309939 -7.326833 37.177795 0.526313 1.769170 0.123310 -0.030354 19614.100000 0 0 1
-32.861403 -18.532839 -7.679633 38.500840 0.513505 1.771610 0.084709 -0.022450 -97630.100000 0 0 1
-33.057103 -19.004939 -8.976833 39.173247 0.521768 1.802008 0.086113 -0.015118 -850623.000000 0 0 1
-34.406903 -19.661139 -9.265133 40.696904 0.519147 1.800472 0.074607 -0.015743 490660.000000 0 0 1
-35.558303 -18.905339 -9.678233 41.418268 0.488663 1.806647 0.095148 -0.016524 755446.000000 0 0 1
-36.600803 -19.733439 -10.125233 42.796585 0.494477 1.809651 0.095563 -0.028412 -11935.000000 0 0 1
-37.816103 -18.888039 -10.575133 43.573490 0.463224 1.815941 0.109729 -0.046047 -347487.000000 0 0 1
-37.813803 -18.658339 -11.999033 43.840553 0.458375 1.848031 0.091296 -0.044840 944285.000000 0 0 1
37.119653 -17.947139 -12.368233 43.045808 -0.450356 1.862232 0.124631 -0.051386 395448.000000 0 0 1
36.770853 -18.108639 -13.854933 43.266356 -0.457608 1.896762 0.112635 -0.050511 -39641.100000 0 0 1
36.127753 -19.343139 -14.166633 43.359717 -0.491572 1.903631 0.086156 -0.043153 420349.000000 0 0 1
35.583853 -19.358939 -15.452233 43.356091 -0.498254 1.935211 0.081803 -0.043111 145209.000000 0 0 1
34.202053 -20.056939 -15.666333 42.632091 -0.530378 1.947092 0.109047 -0.044831 232193.000000 0 0 1
33.189253 -19.330339 -14.967833 41.221651 -0.527398 1.942396 0.143221 -0.046965 213823.000000 0 0 1
32.006653 -20.089239 -14.859833 40.605640 -0.560509 1.945455 0.158207 -0.047483 172607.000000 0 0 1
30.890353 -19.899139 -15.916133 40.043887 -0.572277 1.979551 0.161351 -0.044459 -224304.000000 0 0 1
30.114753 -18.709039 -15.787433 38.809400 -0.555904 1.989738 0.150597 -0.042355 276039.000000 0 0 1
29.535753 -18.425639 -17.046933 38.761615 -0.557766 2.026160 0.128182 -0.038324 58893.100000 0 0 1
28.686353 -17.107439 -16.902133 37.433319 -0.537740 2.039272 0.118949 -0.027258 -91115.300000 0 0 1
27.481453 -17.335639 -16.221533 36.316563 -0.562768 2.033837 0.130398 -0.030647 236466.000000 0 0 1
26.778553 -16.076739 -16.002733 35.094727 -0.540683 2.044277 0.104674 -0.025841 -607340.000000 0 0 1
25.404453 -16.302939 -15.381333 33.878569 -0.570543 2.042061 0.089193 -0.029525 290278.000000 0 0 1
24.304153 -16.926039 -16.075633 33.698792 -0.608323 2.068079 0.083878 -0.026937 1137750.000000 0 0 1
23.860353 -16.239139 -17.264633 33.631735 -0.597581 2.109873 0.084150 -0.008996 -1143710.000000 0 0 1
22.851653 -16.898639 -18.188633 33.742976 -0.636743 2.140087 0.069400 -0.002858 327585.000000 0 0 1
21.571153 -16.728439 -17.559133 32.457333 -0.659623 2.142412 0.058863 -0.006166 391641.000000 0 0 1
20.513453 -17.202239 -18.358533 32.461585 -0.697829 2.171892 0.047014 -0.008433 -9484.170000 0 0 1
19.105653 -17.263539 -17.759233 31.280123 -0.734791 2.174564 0.065444 -0.008796 -102742.000000 0 0 1
18.464253 -16.020539 -17.650033 30.151450 -0.714653 2.196144 0.078970 -0.012067 724594.000000 0 0 1
17.169053 -16.129139 -17.066733 29.089498 -0.754178 2.197771 0.097132 -0.019514 237821.000000 0 0 1
16.306853 -14.858139 -17.031833 27.870434 -0.738946 2.228255 0.117084 -0.030447 -429634.000000 0 0 1
15.578753 -14.508239 -18.178133 27.993411 -0.749833 2.277554 0.113466 -0.025172 -122238.000000 0 0 1
14.499353 -13.714639 -17.821433 26.756794 -0.757592 2.299700 0.123627 -0.020117 -304012.000000 0 0 1
13.631453 -13.204539 -19.008833 26.860977 -0.769491 2.356998 0.115474 -0.025861 48192.800000 0 0 1
13.944453 -11.938039 -19.509733 26.787949 -0.708033 2.386638 0.133576 -0.031409 68975.500000 0 0 1
13.395453 -11.872439 -20.824133 27.459743 -0.725196 2.431577 0.115243 -0.024812 209402.000000 0 0 1
13.859753 -10.507939 -21.462433 27.625089 -0.648704 2.460552 0.127203 -0.028137 1159930.000000 0 0 1
15.249953 -10.443339 -21.858933 28.625816 -0.600459 2.439681 0.123284 -0.025207 745069.000000 0 0 1
15.616453 -9.188839 -22.324833 28.752505 -0.531852 2.459806 0.132960 -0.031641 -761538.000000 0 0 1
17.067353 -9.046739 -22.711133 29.814989 -0.487406 2.436784 0.116646 -0.031432 -878330.000000 0 0 1
17.367553 -9.803439 -23.881033 31.113390 -0.513884 2.445804 0.158264 -0.025581 -146682.000000 0 0 1
18.637553 -9.637939 -24.448133 32.217378 -0.477253 2.432341 0.117877 -0.035518 -1017060.000000 0 0 1
21.611753 4.717261 -7.065533 23.221588 0.214902 1.879964 0.200603 -0.000900 -188680.000000 0 1 0
21.732853 6.055761 -7.472833 23.766202 0.271752 1.890654 0.246436 0.001352 536282.000000 0 1 0
21.805053 6.940561 -6.368633 23.752709 0.308161 1.842240 0.250735 0.001218 -218588.000000 0 1 0
21.699653 8.407761 -6.588033 24.186103 0.369650 1.846672 0.207894 0.016224 -259699.000000 0 1 0
20.387153 8.614561 -7.082233 23.238001 0.399792 1.880493 0.118815 -0.004389 593640.000000 0 1 0
19.990153 9.985761 -6.990833 23.413530 0.463275 1.874002 0.102260 -0.000595 -1282.030000 0 1 0
19.365653 10.481561 -5.628633 22.728246 0.496097 1.821049 0.115241 -0.012045 -315849.000000 0 1 0
20.305753 10.789661 -4.606633 23.451257 0.488420 1.768516 0.122557 -0.003780 517758.000000 0 1 0
20.791953 12.152461 -4.822733 24.561074 0.528929 1.768437 0.180913 -0.010448 229313.000000 0 1 0
21.524553 12.752861 -3.555233 25.270171 0.534872 1.711954 0.159555 -0.018910 257568.000000 0 0 1
22.751453 12.065861 -3.405933 25.977182 0.487619 1.702287 0.134399 -0.038566 192582.000000 0 0 1
23.461353 12.681561 -2.307733 26.769062 0.495543 1.657112 0.103950 -0.039435 837619.000000 0 0 1
24.567753 11.690261 -1.731633 27.262341 0.444132 1.634357 0.135947 -0.037783 123389.000000 0 0 1
25.767853 11.583161 -2.440933 28.356834 0.422455 1.656982 0.138976 -0.016718 -365955.000000 0 0 1
26.421353 10.479561 -1.829833 28.482580 0.377600 1.635085 0.165001 -0.024609 -210127.000000 0 0 1
27.734153 10.036261 -2.502333 29.600193 0.347213 1.655435 0.184783 -0.027165 225137.000000 0 0 1
28.716853 11.074761 -2.455233 30.876142 0.368078 1.650399 0.141315 -0.031887 94087.900000 0 0 1
29.986253 10.527661 -2.207533 31.857185 0.337639 1.640147 0.119878 -0.031389 -185917.000000 0 0 1
31.113253 11.545861 -1.932833 33.242702 0.355340 1.628972 0.096540 -0.032145 -580583.000000 0 0 1
30.919253 12.304161 -0.772333 33.286470 0.378734 1.594001 0.141385 -0.042516 129659.000000 0 0 1
31.958053 13.173761 -0.391733 34.569041 0.390997 1.582128 0.115359 -0.045769 -781947.000000 0 0 1
33.222453 12.479161 0.174667 35.489313 0.359318 1.565875 0.127910 -0.037737 288748.000000 0 0 1
34.296653 13.314661 0.625767 36.795818 0.370311 1.553789 0.131976 -0.053589 823428.000000 0 0 1
35.307753 13.706861 -0.284433 37.876066 0.370302 1.578306 0.150759 -0.033227 -185163.000000 0 0 1
34.988053 14.887261 -1.247633 38.044066 0.402290 1.603597 0.104692 -0.012227 150438.000000 0 0 1
33.985453 14.640361 -2.267933 37.074178 0.406759 1.632007 0.108008 -0.007160 450307.000000 0 0 1
33.906953 15.691261 -3.237333 37.501699 0.433426 1.657229 0.073642 0.006417 -504349.000000 0 0 1
32.640053 15.656261 -4.077233 36.429595 0.447247 1.682952 0.064201 -0.010367 -1322740.000000 0 0 1
32.424053 14.524761 -4.900333 35.865041 0.421158 1.707858 0.056279 -0.007313 415756.000000 0 0 1
31.218553 14.572861 -5.654433 34.913306 0.436738 1.733469 0.041132 -0.013831 -93624.700000 0 0 1
30.006153 14.142461 -4.817933 33.520007 0.440440 1.715029 0.059018 -0.017430 -1759910.000000 0 0 1
28.868153 14.089361 -5.581033 32.604114 0.454049 1.742819 0.097373 -0.032150 49618.000000 0 0 1
27.809853 13.279361 -5.011133 31.222441 0.445491 1.731991 0.117134 -0.012485 874826.000000 0 0 1
26.797353 12.788661 -6.078133 30.308277 0.445271 1.772709 0.114909 -0.014210 128849.000000 0 0 1
27.449153 11.963161 -7.051433 30.761923 0.411008 1.802079 0.107076 -0.002651 765362.000000 0 0 1
26.608653 11.742061 -8.185333 30.214170 0.415585 1.845135 0.144647 -0.000899 137063.000000 0 0 1
26.322653 12.912761 -9.143233 30.711890 0.456065 1.873089 0.158601 -0.000054 7182.460000 0 0 1
25.431553 13.817361 -8.514833 30.169285 0.497697 1.856920 0.144888 -0.016960 -274811.000000 0 0 1
25.376453 15.021361 -9.201733 30.891383 0.534473 1.873261 0.143380 -0.030058 -1059120.000000 0 0 1
24.298753 15.998561 -8.671633 30.357546 0.582265 1.860481 0.133976 -0.022456 1698480.000000 0 0 1
22.916353 15.606561 -8.949233 29.134391 0.597876 1.883015 0.183738 -0.039977 1577380.000000 0 0 1
22.498353 14.513661 -8.182033 27.995855 0.572922 1.867384 0.202850 -0.045255 -2437990.000000 0 0 1
21.045153 14.180061 -8.290233 26.696452 0.592920 1.886554 0.235198 -0.028603 -146371.000000 0 0 1
20.114953 14.892561 -7.405533 26.100606 0.637311 1.858478 0.290878 -0.062516 1471210.000000 0 0 1
18.729653 14.672161 -7.648933 24.991566 0.664515 1.881849 0.293312 -0.052051 566714.000000 0 1 0
17.804553 15.266561 -6.545233 24.349745 0.708805 1.842944 0.275287 -0.031532 -38731.900000 0 1 0
17.593653 14.330661 -5.494333 23.347209 0.683542 1.808356 0.240225 -0.038494 568841.000000 0 1 0
16.945753 14.988661 -4.412633 23.049725 0.724190 1.763425 0.204379 -0.022831 -42873.900000 0 1 0
16.668453 13.992461 -3.280533 22.008821 0.698342 1.720409 0.148541 -0.005967 200016.000000 0 1 0
17.906453 13.552061 -2.724133 22.621236 0.647855 1.691513 0.152665 -0.007511 941721.000000 0 1 0
17.739053 12.572361 -1.644433 21.804642 0.616567 1.646285 0.142214 -0.015383 -71935.200000 0 1 0
17.698553 13.214361 -0.220633 22.088612 0.641344 1.580785 0.161521 -0.024557 -317080.000000 0 1 0
16.471053 13.898861 -0.117633 21.551978 0.700904 1.576254 0.136274 -0.032492 426255.000000 0 1 0
16.432653 14.681961 1.019467 22.059723 0.729192 1.524566 0.126672 -0.027923 -391964.000000 0 1 0
15.060553 15.392961 1.053767 21.560935 0.796313 1.521903 0.127884 -0.028709 -310746.000000 0 1 0
14.933253 16.527661 0.183267 22.275530 0.836034 1.562569 0.144018 -0.029841 528060.000000 0 1 0
13.758853 17.147161 0.709367 21.996235 0.894595 1.538541 0.109489 -0.043673 339427.000000 0 1 0
13.685153 18.588461 0.285767 23.084540 0.936174 1.558417 0.114703 -0.053652 -125122.000000 0 1 0
13.413353 18.785761 -1.058133 23.107196 0.950725 1.616605 0.137110 -0.060677 210041.000000 0 1 0
12.897153 20.090561 -1.433833 23.917004 1.000100 1.630783 0.129110 -0.059774 609657.000000 0 1 0
11.365753 20.352061 -1.341733 23.349239 1.061483 1.628292 0.103787 -0.051252 277371.000000 0 1 0
10.834853 20.220161 -0.054733 22.940182 1.078886 1.573182 0.086303 -0.055398 -823347.000000 0 1 0
9.442153 20.238961 -0.194233 22.333999 1.134279 1.579493 0.066664 -0.044290 -235831.000000 0 1 0
8.652853 20.275661 1.126267 22.073577 1.167435 1.519751 0.038647 -0.040475 -77308.900000 0 1 0
8.692953 21.559661 1.652567 23.304879 1.187530 1.499826 0.035642 -0.037423 211336.000000 0 1 0
8.040453 21.570061 2.927167 23.205274 1.213991 1.444317 0.048399 -0.036075 58354.000000 0 1 0
7.581253 23.016161 3.329067 24.460208 1.252601 1.434271 0.044554 -0.027565 -13793.200000 0 1 0
7.837553 23.279961 4.671667 25.004166 1.246050 1.382856 0.047206 -0.032174 -42890.500000 0 0 1
7.543253 24.623461 4.988467 26.231666 1.273529 1.379461 0.046777 -0.026708 -156058.000000 0 0 1
7.908253 24.976261 6.399467 26.968635 1.264153 1.331218 0.054527 -0.031397 34548.500000 0 0 1
7.117753 24.418061 7.424467 26.495789 1.287160 1.286780 0.042497 -0.027209 -74694.900000 0 0 1
7.640453 24.873561 8.616767 27.410203 1.272773 1.251010 0.056474 -0.018984 -60074.500000 0 0 1
7.251453 23.862861 9.725267 26.769396 1.275783 1.198991 0.058834 -0.022114 -407479.000000 0 0 1
5.890753 23.727261 9.991367 26.410439 1.327447 1.182825 0.068694 -0.028632 -596007.000000 0 0 1
5.602053 22.758161 10.992867 25.887449 1.329439 1.132231 0.063770 -0.031075 306278.000000 0 0 1
4.197253 22.894561 11.638267 26.023588 1.389480 1.107142 0.051733 -0.032003 -110354.000000 0 0 1
3.109153 22.950661 10.777067 25.544958 1.436145 1.135272 0.053204 -0.030263 -887024.000000 0 0 1
1.934653 23.001661 11.535367 25.804728 1.486885 1.107359 0.068993 -0.031856 -504811.000000 0 0 1
0.696153 23.305861 10.693367 25.651431 1.540935 1.140795 0.086026 -0.021660 -565136.000000 0 0 1
0.789553 24.620561 10.156167 26.644759 1.538738 1.179735 0.084936 -0.025604 424232.000000 0 0 1
-0.144447 24.945961 9.127967 26.563916 -1.565006 1.220024 0.082099 -0.027655 1506620.000000 0 0 1
-1.635847 25.353961 9.461267 27.111159 -1.506365 1.214313 0.093031 -0.037549 1338450.000000 0 0 1
-2.472547 24.416861 10.166567 26.564181 -1.469876 1.178061 0.091663 -0.034980 101864.000000 0 0 1
-3.771147 24.951961 10.042667 27.160211 -1.420795 1.192049 0.102880 -0.034166 -302802.000000 0 0 1
-4.863247 24.108361 10.778867 26.852341 -1.371743 1.157738 0.085767 -0.034370 213419.000000 0 0 1
-5.173347 24.335261 12.167467 27.695049 -1.361328 1.115936 0.079495 -0.023081 401255.000000 0 0 1
-6.040947 25.461561 12.404167 28.959411 -1.337846 1.128153 0.078514 -0.014084 231352.000000 0 0 1
-6.505347 25.616461 13.870067 29.847971 -1.322102 1.087511 0.082362 -0.016183 786610.000000 0 0 1
-7.554147 24.680661 14.251067 29.483777 -1.273775 1.066316 0.074988 -0.012953 705302.000000 0 0 1
-7.900847 24.889361 15.629567 30.433321 -1.263418 1.031459 0.059400 -0.000740 -173371.000000 0 0 1
-9.194847 24.129761 15.943067 30.347520 -1.206725 1.017670 0.063925 -0.010169 234152.000000 0 0 1
-10.377847 24.771161 15.477367 30.997726 -1.174062 1.047998 0.065587 -0.010521 882639.000000 0 0 1
-11.531147 23.910361 15.427667 30.703186 -1.121437 1.044334 0.051675 -0.006038 771398.000000 0 0 1
-12.860247 24.581761 15.051767 31.562710 -1.088791 1.073690 0.046565 -0.008221 -64670.500000 0 0 1
-13.335647 25.461761 16.035967 32.913417 -1.088328 1.061897 0.050901 -0.014482 -555086.000000 0 0 1
-14.375447 26.244061 15.598167 33.744734 -1.069675 1.090277 0.036022 -0.012269 -911001.000000 0 0 1
-15.138147 27.115161 16.600967 35.213457 -1.061610 1.079876 0.038224 -0.013936 -306330.000000 0 0 1
-16.376347 26.571361 16.985467 35.534885 -1.018466 1.072427 0.039192 -0.022244 -495459.000000 0 0 1
-17.007547 27.500861 17.791167 36.906363 -1.016930 1.067789 0.064624 -0.032552 206270.000000 0 0 1
-18.347847 27.005861 18.417667 37.485604 -0.974028 1.057184 0.055362 -0.031680 635885.000000 0 0 1
-19.514347 27.186461 17.632067 37.825959 -0.948226 1.085877 0.047604 -0.039179 -437256.000000 0 0 1
-20.565447 26.491561 18.229567 38.171423 -0.910673 1.072908 0.063463 -0.034275 -205166.000000 0 0 1
-21.839147 26.533761 17.331567 38.488596 -0.882146 1.103691 0.065577 -0.034917 -238842.000000 0 0 1
-22.448547 27.763061 17.369067 39.704022 -0.890848 1.118020 0.060790 -0.037513 10459.700000 0 0 1
-23.233947 28.100061 16.239667 39.914365 -0.879909 1.151779 0.070142 -0.032337 -110767.000000 0 0 1
-24.204247 29.279161 16.352167 41.358291 -0.880003 1.164317 0.062507 -0.036738 -124412.000000 0 0 1
-25.387437 29.004761 17.060967 42.152992 -0.851805 1.154103 0.078395 -0.034527 -88713.300000 0 0 1
-26.290517 30.080061 17.082767 43.449077 -0.852523 1.166722 0.078394 -0.036750 -27281.300000 0 0 1
-27.670997 29.758961 17.690667 44.319742 -0.821739 1.160196 0.094436 -0.027719 -255812.000000 0 0 1
-28.441427 28.833261 16.985267 43.917776 -0.792239 1.173690 0.122135 -0.021520 19391.600000 0 0 1
-29.717277 28.743661 17.613967 44.939587 -0.768746 1.168049 0.161310 -0.022175 536826.000000 0 0 1
-30.122267 27.428061 18.388267 44.696509 -0.738618 1.146804 0.156458 -0.020135 -70338.200000 0 0 1
-30.109667 26.317261 17.599867 43.691482 -0.718290 1.156199 0.151015 -0.020449 73491.300000 0 0 1
-30.349457 25.181761 18.425667 43.528334 -0.692606 1.133709 0.152531 -0.016538 -4882.540000 0 0 1
-30.720147 23.927861 17.646767 42.751355 -0.661741 1.145296 0.150900 -0.019257 -760118.000000 0 0 1
-31.959047 23.912961 17.029767 43.396122 -0.642372 1.167529 0.174804 -0.024003 -863621.000000 0 0 1
-32.061577 22.841061 16.055267 42.513885 -0.619008 1.183542 0.162654 -0.021554 10572.800000 0 0 1
-32.344717 21.416661 16.635267 42.208841 -0.584861 1.165688 0.146898 -0.010500 -1225400.000000 0 0 1
-33.690457 21.243261 16.833167 43.239780 -0.562575 1.170927 0.146153 -0.005170 -1250880.000000 0 0 1
-33.961838 19.857361 16.831167 42.790296 -0.529091 1.166534 0.116210 -0.001115 977883.000000 0 0 1
-35.401685 19.481161 16.303567 43.572942 -0.503065 1.187298 0.108220 -0.008611 765833.000000 0 0 1
-35.610622 19.717561 14.938667 43.359686 -0.505679 1.219059 0.093183 -0.001538 14751.000000 0 0 1
-36.752517 19.160361 14.312867 43.848890 -0.480569 1.238290 0.111759 -0.010194 164124.000000 0 0 1
-36.876137 19.592861 12.822667 43.682382 -0.488385 1.272865 0.101771 -0.008427 -50905.800000 0 0 1
-37.015577 20.970061 12.648967 44.383474 -0.515438 1.281797 0.101322 -0.022048 58868.400000 0 0 1
-37.029477 21.569561 11.360467 44.333829 -0.527450 1.311657 0.056036 -0.010056 128424.000000 0 0 1
-35.901345 21.219061 10.340367 42.966014 -0.533804 1.327747 0.097101 -0.017063 -142098.000000 0 0 1
-36.260157 20.236261 9.442667 42.584847 -0.509030 1.347200 0.115796 -0.018461 492444.000000 0 0 1
-35.101200 19.777961 8.718067 41.222163 -0.513115 1.357697 0.132188 -0.021514 544624.000000 0 0 1
-34.345159 18.574561 9.395367 40.160643 -0.495768 1.334663 0.090274 -0.018536 52515.800000 0 0 1
-33.783937 18.929861 10.651267 40.163958 -0.510733 1.302391 0.109818 -0.022916 54190.300000 0 0 1
-33.382937 17.781761 11.331267 39.484290 -0.489433 1.279722 0.130701 -0.027284 -84345.200000 0 0 1
-32.884187 18.056061 12.796167 39.637520 -0.502137 1.242079 0.097055 -0.005581 879680.000000 0 0 1
-31.634647 18.734861 13.036067 39.008781 -0.534684 1.230058 0.135106 -0.005289 576613.000000 0 0 1
-31.709597 20.151661 12.834467 39.702790 -0.566119 1.241620 0.148642 -0.009876 -820838.000000 0 0 1
-30.390927 20.862561 12.903967 39.055951 -0.601590 1.234072 0.157376 -0.023886 -502338.000000 0 0 1
-29.675947 20.763861 14.128567 38.876936 -0.610516 1.198863 0.135362 -0.013670 1021410.000000 0 0 1
-28.489577 21.597361 14.195867 38.465890 -0.648652 1.192809 0.178923 -0.015450 1261880.000000 0 0 1
-27.671667 21.494961 15.549267 38.334504 -0.660425 1.153139 0.150675 -0.011436 176607.000000 0 0 1
-26.984407 20.298861 15.743367 37.256618 -0.644936 1.134522 0.178597 -0.025130 -185665.000000 0 0 1
-26.302087 20.331461 16.972767 37.326169 -0.658058 1.098744 0.141060 -0.011608 12783.100000 0 0 1
-25.759177 18.915961 17.298567 36.339912 -0.633402 1.074672 0.156030 -0.016041 -32415.700000 0 0 1
-25.028817 18.879461 18.469267 36.386667 -0.646253 1.038419 0.142811 -0.024599 -60098.900000 0 0 1
-24.291047 17.684361 18.711267 35.396372 -0.629285 1.013821 0.124094 -0.015666 132556.000000 0 0 1
-23.653947 17.716661 20.111167 35.747005 -0.642857 0.973272 0.103630 -0.010036 -283117.000000 0 0 1
-24.519647 17.414961 21.161667 36.773770 -0.617569 0.957635 0.097776 -0.006924 -257609.000000 0 0 1
-23.947347 17.783561 22.386267 37.294442 -0.638755 0.926973 0.117264 -0.012157 -112323.000000 0 0 1
-24.533547 17.080561 23.614967 38.096026 -0.608179 0.902206 0.098750 -0.016257 -320968.000000 0 0 1
-24.156447 15.789061 23.908267 37.475774 -0.578914 0.878942 0.094762 -0.030083 -408248.000000 0 0 1
-24.940637 15.215861 24.899667 38.386863 -0.547801 0.864986 0.088634 -0.035487 -50613.000000 0 0 1
22.661553 24.945861 -33.487023 47.510238 0.833344 2.352991 0.084017 -0.016883 342738.000000 0 0 1
23.287053 24.158461 32.922385 47.008526 0.803763 0.794910 0.112533 -0.025319 227757.000000 0 0 1
23.247253 22.765161 33.233831 46.509944 0.774921 0.774811 0.103519 -0.026625 457334.000000 0 0 1
22.062753 21.930361 32.572412 45.040735 0.782389 0.762405 0.102779 -0.038094 615036.000000 0 0 1
22.317653 21.332761 31.344551 43.995968 0.762839 0.777825 0.117103 -0.029907 358210.000000 0 0 1
21.373953 20.276861 31.116306 42.851155 0.759064 0.758093 0.146004 -0.033870 299022.000000 0 0 1
21.599553 19.620761 29.675656 41.619220 0.737430 0.776989 0.147862 -0.017828 -924181.000000 0 0 1
22.807553 18.963961 29.595086 41.900900 0.693642 0.786522 0.130999 -0.021351 -1074270.000000 0 0 1
22.879453 18.347361 28.321386 40.770037 0.675907 0.802847 0.125939 -0.021475 -80201.800000 0 0 1
23.984053 17.287161 28.352306 40.962593 0.624535 0.806331 0.135443 -0.025193 318468.000000 0 0 1
25.308353 17.787761 28.226116 41.876375 0.612630 0.831140 0.112809 -0.022303 40715.400000 0 0 1
26.250753 16.774461 28.504866 42.225726 0.568610 0.829751 0.100746 -0.014435 1291670.000000 0 0 1
27.751253 17.260361 28.632576 43.449701 0.556415 0.851332 0.104802 -0.019520 1071110.000000 0 0 1
28.512053 17.474261 27.456706 43.268437 0.549831 0.883349 0.113345 -0.010224 250232.000000 0 0 1
29.746353 18.089461 27.795576 44.549615 0.546371 0.897042 0.117014 -0.004681 669348.000000 0 0 1
30.841453 17.963061 26.678926 44.560429 0.527402 0.928903 0.111325 0.002208 328501.000000 0 0 1
30.787353 18.925261 25.643796 44.312875 0.551165 0.953664 0.128485 -0.000781 -189504.000000 0 0 1
31.707853 18.567761 24.643706 44.243213 0.529756 0.980021 0.130633 0.000909 -10229.100000 0 0 1
32.083953 19.720661 23.663546 44.477499 0.551128 1.009795 0.145620 -0.019255 -319077.000000 0 0 1
31.008353 20.060861 22.860666 43.434619 0.574228 1.016525 0.130414 -0.020363 -205014.000000 0 0 1
31.408553 20.981361 21.841336 43.632083 0.588935 1.046528 0.110563 -0.030415 179429.000000 0 0 1
32.013953 20.358761 20.533836 43.139434 0.566423 1.074710 0.137070 -0.029081 71910.000000 0 0 1
31.092753 19.573361 19.787936 41.730542 0.561840 1.076760 0.129446 -0.042337 57571.700000 0 0 1
31.650253 18.960461 18.648836 41.340255 0.539729 1.102792 0.155210 -0.041190 -786966.000000 0 0 1
32.633253 17.836461 18.918136 41.724866 0.500208 1.100218 0.182225 -0.056457 -503640.000000 0 0 1
32.172753 16.641861 19.489736 41.132559 0.477365 1.077164 0.199941 -0.053294 446624.000000 0 0 1
33.314453 15.792561 19.600236 41.754365 0.442669 1.082165 0.206106 -0.049779 142404.000000 0 0 1
32.884653 14.328161 20.071036 41.104052 0.410907 1.060658 0.215880 -0.048945 577836.000000 0 0 1
32.224453 14.148261 21.339536 41.157799 0.413714 1.025723 0.185091 -0.048803 466338.000000 0 0 1
31.046553 14.890261 21.609436 40.651889 0.447204 1.010340 0.194476 -0.033432 -335820.000000 0 0 1
30.347953 14.298861 22.849046 40.589833 0.440314 0.972875 0.151518 -0.027243 -186431.000000 0 0 1
29.837153 13.032161 22.538246 39.598806 0.411803 0.965307 0.144693 -0.024534 -98912.100000 0 0 1
29.274653 12.380761 23.698776 39.647453 0.400105 0.930120 0.136217 -0.018743 199653.000000 0 0 1
28.735253 10.997761 23.278726 38.581921 0.365528 0.923091 0.147015 -0.021238 74297.900000 0 0 1
27.514453 11.008761 22.571916 37.252239 0.380600 0.919873 0.115658 -0.012334 -76518.700000 0 0 1
27.319953 9.723261 22.051336 36.430524 0.341924 0.920656 0.119310 -0.007447 -134536.000000 0 0 1
26.173253 9.540261 21.037336 34.908813 0.349537 0.923995 0.099121 -0.010266 561828.000000 0 0 1
24.868753 9.825861 21.562336 34.350207 0.376283 0.892175 0.107599 -0.009882 743689.000000 0 0 1
23.878953 9.326961 20.675736 32.934521 0.372371 0.892094 0.101187 -0.002537 -129601.000000 0 0 1
22.445453 9.576361 21.174036 32.308588 0.403268 0.856126 0.109319 -0.013360 -72385.500000 0 0 1
22.108453 8.750961 22.306036 32.602488 0.376897 0.817315 0.116462 -0.012475 1460380.000000 0 0 1
20.669753 8.615161 22.476566 31.727838 0.394905 0.783542 0.125317 -0.018133 1510560.000000 0 0 1
20.191253 8.105661 23.872506 32.299922 0.381751 0.739080 0.108207 -0.016298 49677.900000 0 0 1
20.132453 6.670661 23.861256 31.924488 0.319954 0.726614 0.096349 -0.004517 192396.000000 0 0 1
19.933153 6.143961 25.176536 32.694599 0.298988 0.691874 0.097626 -0.017936 68926.100000 0 0 1
20.033353 4.596361 25.222206 32.536463 0.225532 0.683768 0.094667 -0.020755 -326551.000000 0 0 1
21.337953 4.118861 25.046076 33.159903 0.190685 0.714666 0.098994 -0.009695 -232110.000000 0 0 1
21.469253 2.759061 25.303926 33.299098 0.127812 0.707640 0.079358 -0.002419 -1070030.000000 0 0 1
22.864653 2.264161 25.029986 33.976742 0.098703 0.742649 0.069718 -0.007348 -627292.000000 0 0 1
23.817053 2.910861 25.881806 35.292960 0.121614 0.747572 0.071746 -0.013387 -514538.000000 0 0 1
25.108753 2.692561 25.395246 35.813655 0.106828 0.782584 0.076250 -0.016765 -343003.000000 0 0 1
26.225253 3.170461 26.346576 37.308950 0.120310 0.786718 0.071671 -0.019477 -596226.000000 0 0 1
26.523653 2.305861 27.469416 38.254280 0.086718 0.769765 0.076498 -0.025033 162573.000000 0 0 1
27.426253 2.852961 28.389106 39.576256 0.103650 0.770838 0.080017 -0.021963 -946568.000000 0 0 1
28.887153 2.995761 28.081596 40.398245 0.103336 0.802211 0.072849 -0.026910 -2196610.000000 0 0 1
29.150553 4.154761 27.302236 40.155060 0.141574 0.823143 0.095192 -0.026743 1461030.000000 0 0 1
30.574453 4.298261 27.052166 41.049871 0.139668 0.851298 0.105927 -0.029013 1007540.000000 0 0 1
31.393553 3.275261 26.309456 41.090996 0.103953 0.875943 0.120364 -0.028395 -1198900.000000 0 0 1
31.099453 3.267761 24.951456 40.005367 0.104690 0.897326 0.121427 -0.023482 -51606.800000 0 0 1
31.618953 2.201561 24.223206 39.891964 0.069516 0.918239 0.119267 -0.015060 -598504.000000 0 0 1
31.438953 2.330861 22.686456 38.839618 0.074004 0.947018 0.136951 -0.021577 164111.000000 0 0 1
32.064353 3.430561 22.003736 39.039158 0.106584 0.972020 0.123786 -0.024823 -926137.000000 0 0 1
33.445953 3.324161 22.023036 40.183279 0.099064 0.990748 0.117524 -0.029142 -838333.000000 0 0 1
34.128953 4.646861 21.539536 40.624258 0.135324 1.011944 0.132904 -0.038874 -316005.000000 0 0 1
33.763953 4.956961 20.193836 39.653083 0.145771 1.036468 0.119903 -0.033297 535448.000000 0 0 1
34.423553 6.197361 19.734536 40.160182 0.178125 1.057105 0.119896 -0.033638 1756710.000000 0 0 1
35.998453 6.134761 19.471436 41.384305 0.168796 1.080936 0.101919 -0.030198 1145870.000000 0 0 1
36.876753 5.942361 20.548536 42.631548 0.159768 1.067857 0.109545 -0.038310 36035.600000 0 0 1
37.005053 7.058461 21.376036 43.314325 0.188479 1.054676 0.131131 -0.042199 -817624.000000 0 0 1
37.579653 6.639261 22.675206 44.390033 0.174867 1.034661 0.140691 -0.043881 -345948.000000 0 0 1
36.729253 5.730661 23.346886 43.897102 0.154777 1.010007 0.146579 -0.033607 379060.000000 0 0 1
37.319053 5.295061 24.542666 44.978793 0.140945 0.993632 0.158856 -0.032023 51448.800000 0 0 1
36.408953 4.216261 25.170356 44.462743 0.115289 0.969029 0.167329 -0.029404 112829.000000 0 0 1
36.365953 2.993961 24.425016 43.909313 0.082143 0.980917 0.166408 -0.033892 -6971.380000 0 0 1
35.932953 1.962161 25.238416 43.954577 0.054552 0.959178 0.164492 -0.039975 -198189.000000 0 0 1
35.753553 0.653861 24.498046 43.346261 0.018286 0.970156 0.136921 -0.035274 -313503.000000 0 0 1
34.568253 0.511561 23.725656 41.930091 0.014798 0.969347 0.132739 -0.026774 213306.000000 0 0 1
34.470653 -0.843439 23.261346 41.593599 -0.024463 0.977312 0.123455 -0.025963 173419.000000 0 0 1
33.226153 -1.084439 22.366086 40.067381 -0.032627 0.978567 0.130395 -0.011271 1227680.000000 0 0 1
31.970353 -1.046539 23.089236 39.450114 -0.032723 0.945575 0.122787 -0.008355 1023240.000000 0 0 1
30.932053 -1.622539 22.298536 38.166074 -0.052407 0.946840 0.123584 -0.012073 -493445.000000 0 0 1
29.496153 -1.502439 22.729356 37.268002 -0.050893 0.914875 0.123012 -0.010742 -805383.000000 0 0 1
29.204753 -0.135639 22.537936 36.890304 -0.004644 0.913543 0.124202 -0.006101 -98862.000000 0 0 1
27.873353 0.124161 22.941686 36.100695 0.004454 0.882151 0.109946 -0.018727 166419.000000 0 0 1
27.363853 1.532561 22.455616 35.431397 0.055948 0.884370 0.095645 0.009134 64667.500000 0 0 1
27.472853 1.541061 21.049236 34.643944 0.056035 0.917776 0.104312 -0.005422 168620.000000 0 0 1
27.063053 2.830261 20.586836 34.120918 0.104201 0.923102 0.116814 -0.004673 -304883.000000 0 0 1
27.511553 3.095561 19.116936 33.644097 0.112047 0.966467 0.139386 -0.016876 -259781.000000 0 0 1
26.766453 2.714761 17.972736 32.354786 0.101078 0.981845 0.123295 -0.009496 327767.000000 0 0 1
25.591053 3.495361 17.727636 31.327123 0.135745 0.969287 0.133602 -0.017409 345196.000000 0 0 1
25.055853 3.259861 16.305236 30.071302 0.129377 0.997720 0.137647 -0.020905 152767.000000 0 0 1
26.053953 3.588461 15.337036 30.445200 0.136871 1.042852 0.133506 -0.014403 547724.000000 0 0 1
25.587753 3.757661 13.987436 29.402406 0.145812 1.075009 0.112535 -0.022567 -166975.000000 0 0 1
25.033853 2.528461 13.204336 28.415513 0.100660 1.087515 0.132161 -0.011940 -596163.000000 0 0 1
23.733253 2.167361 13.499536 27.389820 0.091069 1.055415 0.163571 -0.007152 -652974.000000 0 0 1
23.329853 1.033961 12.849836 26.654632 0.044290 1.067762 0.164519 -0.012043 71777.700000 0 0 1
21.872153 0.506761 13.144436 25.523011 0.023165 1.029785 0.213679 -0.028108 1104350.000000 0 0 1
20.763753 1.101261 12.455036 24.237866 0.052988 1.031110 0.247857 -0.030894 887617.000000 0 1 0
20.737453 0.976761 11.047836 23.517030 0.047067 1.081755 0.244531 -0.028772 -1295730.000000 0 1 0
20.557053 -0.513139 10.480736 23.080328 -0.024957 1.099437 0.246647 -0.031745 -576786.000000 0 1 0
21.602253 -1.455339 10.530736 24.076373 -0.067268 1.118103 0.234068 -0.055803 425049.000000 0 1 0
22.756953 -1.079339 9.765036 24.787089 -0.047393 1.165864 0.243965 -0.054477 -572633.000000 0 1 0
23.952153 -1.938839 10.094736 26.064697 -0.080770 1.173100 0.245921 -0.063246 -855023.000000 0 0 1
24.290653 -1.706039 11.417936 26.894528 -0.070119 1.132337 0.197709 -0.058642 320911.000000 0 0 1
25.371353 -2.528239 11.858136 28.119618 -0.099321 1.135473 0.129594 -0.049154 236252.000000 0 0 1
25.767053 -2.362939 13.361536 29.121386 -0.091448 1.094127 0.171482 -0.032817 -270541.000000 0 0 1
26.660453 -1.305339 13.470036 29.898587 -0.048923 1.103444 0.131830 -0.029326 -345391.000000 0 0 1
26.976853 -0.934839 14.803236 30.785716 -0.034640 1.069175 0.116343 -0.021880 -243037.000000 0 0 1
28.111253 0.073761 14.876936 31.805207 0.002624 1.084051 0.162389 -0.025390 -682329.000000 0 0 1
29.400553 -0.462139 14.900736 32.964193 -0.015717 1.101759 0.174373 -0.025108 -851426.000000 0 0 1
30.300353 0.592961 14.922836 33.780971 0.019567 1.113245 0.154724 -0.027664 -46553.200000 0 0 1
31.795753 0.245961 15.129836 35.212815 0.007736 1.126671 0.164213 -0.027812 26891.400000 0 0 1
32.415353 -0.538639 14.180136 35.385329 -0.016615 1.158478 0.186821 -0.036172 -704837.000000 0 0 1
33.778253 -0.518839 14.455936 36.745253 -0.015359 1.166459 0.168636 -0.034604 -414670.000000 0 0 1
34.691153 -1.493139 13.626136 37.301168 -0.043014 1.196841 0.150037 -0.044010 270226.000000 0 0 1
34.737153 -1.044239 12.318936 36.871621 -0.030052 1.230142 0.172008 -0.047332 383567.000000 0 0 1
35.537353 -1.921539 11.529436 37.410208 -0.054018 1.257507 0.167459 -0.053335 146964.000000 0 0 1
35.465653 -1.586839 10.047536 36.895577 -0.044713 1.294989 0.200778 -0.047383 -336740.000000 0 0 1
35.903653 -0.328939 9.578836 37.160928 -0.009161 1.310087 0.167881 -0.037643 72092.100000 0 0 1
34.990553 0.726961 9.693036 36.315592 0.020773 1.300610 0.167299 -0.037639 -841967.000000 0 0 1
35.413953 2.081061 9.171036 36.641326 0.058696 1.317814 0.168864 -0.037826 -286076.000000 0 0 1
35.487953 2.124161 7.761336 36.388806 0.059785 1.355856 0.152620 -0.035803 226845.000000 0 0 1
36.078853 3.336061 7.418036 36.984323 0.092204 1.368854 0.141572 -0.026245 -206645.000000 0 0 1
36.279653 3.443361 5.882236 36.914369 0.094628 1.410766 0.119690 -0.018471 -45581.900000 0 0 1
36.594953 4.773761 5.426536 37.301832 0.129716 1.424802 0.102200 -0.008070 196494.000000 0 0 1
37.080853 4.785461 4.066236 37.608836 0.128345 1.462465 0.132594 -0.020205 156276.000000 0 0 1
37.412053 6.214161 3.569136 38.092207 0.164598 1.476961 0.168224 -0.037466 -29997.600000 0 0 1
36.305053 7.061761 3.814136 37.181621 0.192113 1.468034 0.144379 -0.033679 852.118000 0 0 1
36.539153 8.415161 3.454036 37.654415 0.226358 1.478937 0.147231 -0.046020 253089.000000 0 0 1
35.235453 9.342961 3.549236 36.625471 0.259193 1.473738 0.160443 -0.056805 1682210.000000 0 0 1
34.159353 9.208861 2.614436 35.475341 0.263325 1.497032 0.162386 -0.058731 528303.000000 0 0 1
33.596553 7.945161 2.554236 34.617598 0.232221 1.496945 0.178631 -0.038752 -1128110.000000 0 0 1
32.377153 7.850761 1.610936 33.354304 0.237887 1.522480 0.208350 -0.038404 67508.200000 0 0 1
32.727253 7.735861 0.223536 33.629847 0.232113 1.564149 0.221779 -0.032559 638761.000000 0 0 1
31.619553 7.313761 -0.576364 32.459504 0.227307 1.588554 0.238121 -0.034317 87854.900000 0 0 1
32.060453 7.052761 -2.046164 32.890741 0.216534 1.633047 0.202891 -0.017102 -634899.000000 0 0 1
31.150353 6.365361 -2.868164 31.923168 0.201568 1.660763 0.261678 -0.023831 266932.000000 0 0 1
31.558153 6.220261 -4.197564 32.438067 0.194610 1.700563 0.204471 -0.019529 -295858.000000 0 0 1
30.635853 5.295961 -5.045864 31.497038 0.171176 1.731691 0.275873 -0.015461 -164472.000000 0 0 1
30.686953 3.949861 -4.773664 31.306203 0.128011 1.723877 0.282398 -0.019533 927659.000000 0 0 1
29.570353 3.381861 -5.444264 30.256946 0.113872 1.751716 0.302919 -0.022663 106176.000000 0 0 1
29.516553 1.857961 -5.199364 30.028525 0.062863 1.744821 0.343132 -0.017683 -289588.000000 0 0 1
29.484153 1.581261 -3.813564 29.771781 0.053580 1.699242 0.390216 -0.027376 439894.000000 0 0 1
29.448253 0.188761 -3.600364 29.668128 0.006410 1.692451 0.345575 -0.040770 -42682.700000 0 0 1
29.333753 -0.162239 -2.078064 29.407715 -0.005531 1.641519 0.352093 -0.048279 617738.000000 0 0 1
30.581553 0.230361 -1.492764 30.618831 0.007533 1.619569 0.298700 -0.042371 779040.000000 0 0 1
30.612353 -0.055639 -0.118364 30.612632 -0.001818 1.574663 0.314409 -0.046715 940987.000000 0 0 1
32.028153 0.375161 0.446136 32.033457 0.011713 1.556869 0.331372 -0.037667 1089650.000000 0 0 1
33.135753 -0.350139 -0.049164 33.137639 -0.010566 1.572280 0.247396 -0.033666 232715.000000 0 0 1
34.356353 0.244461 0.346336 34.358968 0.007115 1.560716 0.161799 -0.030790 96533.600000 0 0 1
-3.259247 -21.469539 -8.464133 23.306766 1.420139 1.942456 0.058807 -0.006466 -86402.000000 0 1 0
-3.510747 -21.649639 -7.112833 23.056986 1.410034 1.884401 0.057383 -0.024022 -311315.000000 0 1 0
-2.988947 -22.841839 -6.662633 23.980702 1.440682 1.852334 0.057161 -0.024871 -524612.000000 0 1 0
-3.519447 -23.114539 -5.248333 23.962750 1.419696 1.791607 0.066130 -0.031564 -598195.000000 0 1 0
-2.913847 -22.469139 -4.156333 23.035360 1.441834 1.752223 0.080262 -0.035517 -131372.000000 0 1 0
-3.373947 -23.034339 -2.930233 23.463814 1.425356 1.696006 0.085932 -0.040592 -69195.800000 0 1 0
-2.654947 -22.474139 -1.639933 22.689756 1.453208 1.643136 0.096568 -0.052962 -784713.000000 0 1 0
-1.291947 -22.653339 -1.693633 22.753270 1.513827 1.645300 0.095279 -0.040201 -1445420.000000 0 1 0
-0.734347 -22.515439 -0.406333 22.531075 1.538193 1.588832 0.090913 -0.039783 539216.000000 0 1 0
0.806253 -22.337439 -0.304733 22.354062 -1.534718 1.584429 0.091115 -0.041009 502195.000000 0 1 0
1.365353 -21.139239 -0.847833 21.200246 -1.506297 1.610799 0.069110 -0.038253 -426251.000000 0 1 0
2.559553 -20.754139 -0.236433 20.912711 -1.448089 1.582102 0.056046 -0.036346 55728.900000 0 1 0
3.313053 -19.636439 -1.051833 19.941725 -1.403651 1.623566 0.055201 -0.037919 628754.000000 0 1 0
4.090353 -20.135439 -2.141933 20.658043 -1.370381 1.674668 0.050965 -0.029550 -276696.000000 0 1 0
5.084453 -19.202639 -2.490133 20.019834 -1.311957 1.695503 0.059753 -0.023722 -376768.000000 0 1 0
5.981253 -19.773539 -3.623033 20.973664 -1.277059 1.744409 0.050383 -0.016481 -850654.000000 0 1 0
6.958653 -20.633139 -3.141533 22.000420 -1.245519 1.714080 0.064855 -0.025057 -231461.000000 0 1 0
7.755653 -21.359339 -4.088333 23.088655 -1.222496 1.748806 0.057226 -0.020649 1448080.000000 0 1 0
9.043953 -20.642639 -4.696433 23.021036 -1.157866 1.776245 0.069991 -0.024311 637110.000000 0 1 0
8.644053 -19.536439 -5.500733 22.060148 -1.154232 1.822807 0.053350 -0.019617 168610.000000 0 1 0
9.787553 -18.937039 -6.101733 22.172929 -1.093762 1.849582 0.074594 -0.023114 -454154.000000 0 1 0
9.626853 -17.861039 -7.166133 21.518514 -1.076448 1.910303 0.059008 -0.011306 -354771.000000 0 1 0
10.859653 -17.318439 -7.592733 21.806191 -1.010719 1.926438 0.078880 -0.019950 147669.000000 0 1 0
10.766953 -16.341739 -8.622933 21.385385 -0.988216 1.985825 0.073418 -0.009363 -245947.000000 0 1 0
10.908753 -16.872939 -10.082333 22.480000 -0.996869 2.035885 0.068074 0.004815 -342187.000000 0 1 0
9.782553 -17.621039 -10.478733 22.715704 -1.063998 2.050255 0.061524 -0.011414 -292823.000000 0 1 0
8.810953 -16.796639 -11.065833 21.959340 -1.087689 2.098932 0.041970 -0.021399 -417501.000000 0 1 0
8.504953 -17.096539 -12.532233 22.840375 -1.109178 2.151590 0.061380 -0.032157 -590785.000000 0 1 0
7.281253 -17.741539 -12.728633 23.017318 -1.181351 2.156760 0.045507 -0.019733 -151142.000000 0 1 0
7.075553 -18.203039 -14.025433 24.044268 -1.200068 2.193603 0.063314 -0.009566 236401.000000 0 1 0
5.811953 -19.105239 -14.051933 24.418144 -1.275484 2.183976 0.057043 0.004181 190075.000000 0 1 0
6.080953 -20.252639 -13.206633 24.931156 -1.279106 2.129072 0.062642 -0.010928 122553.000000 0 1 0
4.947753 -21.057339 -12.914933 25.193000 -1.340017 2.109053 0.095708 -0.015301 -81770.000000 0 0 1
5.235853 -22.488739 -12.427533 26.222149 -1.342050 2.064548 0.059193 -0.012900 -371140.000000 0 0 1
5.788053 -23.293939 -13.465633 27.521490 -1.327250 2.082057 0.086046 -0.016983 -17676.500000 0 0 1
5.493653 -24.706139 -13.341633 28.610709 -1.351996 2.055918 0.068849 -0.020185 745530.000000 0 0 1
4.015353 -25.049359 -13.759433 28.860274 -1.411851 2.067762 0.087802 -0.021140 379650.000000 0 0 1
3.093353 -24.526339 -12.809333 27.842219 -1.445335 2.048869 0.098288 -0.026231 -258900.000000 0 0 1
1.741153 -24.743739 -13.165733 28.082392 -1.500545 2.058757 0.081910 -0.035214 286561.000000 0 0 1
1.152653 -26.133529 -12.751433 29.101357 -1.526719 2.024362 0.067948 -0.023805 -768755.000000 0 0 1
1.686853 -27.214809 -13.533933 30.441068 -1.508893 2.031518 0.081936 -0.020990 350267.000000 0 0 1
1.172953 -28.489559 -13.196833 31.419535 -1.529648 2.004264 0.075415 -0.028228 767723.000000 0 0 1
-0.307747 -28.843039 -13.564033 31.874733 1.560127 2.010357 0.061771 -0.027514 484889.000000 0 0 1
-1.341147 -28.102079 -12.993133 30.989466 1.523108 2.003444 0.054706 -0.027519 -13135.100000 0 0 1
-2.598447 -28.505859 -13.508533 31.651483 1.479893 2.011736 0.082871 -0.017941 260167.000000 0 0 1
-3.835447 -27.662589 -13.086533 30.841317 1.433024 2.009005 0.084559 -0.017141 242418.000000 0 0 1
-4.200947 -27.565889 -11.703933 30.240837 1.419563 1.968198 0.063255 -0.024585 304685.000000 0 0 1
-4.809547 -28.801579 -11.230233 31.285473 1.405334 1.937950 0.072874 -0.029875 -293390.000000 0 0 1
-5.339647 -28.811529 -9.756533 30.883749 1.387545 1.892214 0.056194 -0.026650 333537.000000 0 0 1
-6.751947 -28.720259 -9.648833 31.040973 1.339896 1.886875 0.071309 -0.026790 262661.000000 0 0 1
-7.184547 -27.376089 -9.302533 29.792702 1.314145 1.888348 0.076677 -0.023129 -466202.000000 0 0 1
-8.615747 -27.243299 -8.750433 29.883081 1.264497 1.867974 0.097302 -0.021819 497524.000000 0 0 1
-9.738847 -27.404279 -9.611533 30.630397 1.229339 1.889979 0.130356 -0.029070 364155.000000 0 0 1
-9.901547 -28.696579 -10.191733 32.021956 1.238545 1.894704 0.143045 -0.043768 -404246.000000 0 0 1
-11.271547 -28.897569 -10.907833 32.880056 1.198895 1.908950 0.161031 -0.043401 174992.000000 0 0 1
-11.369647 -28.159779 -12.082933 32.683930 1.187057 1.949472 0.173445 -0.050043 129020.000000 0 0 1
-12.287047 -28.695529 -13.013033 33.819283 1.166230 1.965767 0.184061 -0.051754 -211187.000000 0 0 1
-12.410647 -27.842799 -14.284433 33.664382 1.151491 2.009006 0.188111 -0.048770 49797.500000 0 0 1
-13.293747 -26.717369 -14.318733 33.099360 1.109095 2.018169 0.179688 -0.059294 330674.000000 0 0 1
-13.009747 -25.665829 -13.387333 31.736556 1.101652 2.006256 0.189739 -0.053089 -97443.600000 0 0 1
-14.025147 -24.495139 -13.499233 31.288111 1.050791 2.016895 0.205531 -0.047247 -307009.000000 0 0 1
-13.736547 -23.674739 -14.634433 31.037922 1.045048 2.061789 0.203673 -0.050112 443802.000000 0 0 1
-14.703147 -22.640239 -14.903933 30.836507 0.994825 2.075241 0.221311 -0.049868 53999.300000 0 0 1
-14.458947 -22.039939 -16.288533 30.986067 0.990191 2.124302 0.200581 -0.043856 -861027.000000 0 0 1
-13.279547 -21.334539 -16.330233 29.969742 1.014037 2.147055 0.176658 -0.038407 -651686.000000 0 0 1
-13.159147 -20.738739 -17.606033 30.219709 1.005380 2.192722 0.115231 -0.034010 -120092.000000 0 0 1
-13.328047 -19.209439 -17.596933 29.262458 0.964225 2.215984 0.110956 -0.024687 97273.400000 0 0 1
-12.123747 -18.519439 -17.325833 28.109417 0.991159 2.234922 0.082952 -0.012282 364066.000000 0 0 1
-12.414847 -17.160739 -17.438333 27.435649 0.944508 2.259593 0.087571 -0.006987 -79277.700000 0 0 1
-11.161147 -16.304039 -17.589633 26.453508 0.970506 2.298191 0.082358 -0.014494 -339579.000000 0 0 1
-10.403147 -16.204839 -16.433233 25.315478 1.000081 2.277247 0.104304 -0.011876 -707147.000000 0 0 1
-9.210447 -15.528539 -16.635533 24.550128 1.035443 2.315311 0.073916 -0.013063 -1419050.000000 0 1 0
-8.616747 -14.823139 -15.390533 23.040015 1.044237 2.302303 0.067412 -0.011322 -64009.900000 0 1 0
-8.169547 -15.703239 -14.367833 22.798417 1.091083 2.252622 0.059330 -0.003914 118402.000000 0 1 0
-7.077447 -16.508739 -14.779933 23.261022 1.165788 2.259316 0.052301 -0.001871 -985560.000000 0 1 0
-6.593747 -17.318039 -13.549933 22.956320 1.206999 2.202163 0.047926 -0.005818 -862018.000000 0 1 0
-5.870147 -16.692639 -12.525833 21.679467 1.232643 2.186795 0.048472 -0.009092 85899.400000 0 1 0
-5.576147 -17.595839 -11.496133 21.745529 1.263907 2.127825 0.047042 -0.008431 -273114.000000 0 1 0
-4.457847 -18.638639 -11.745733 22.477400 1.336034 2.120644 0.045083 -0.008450 -383165.000000 0 1 0
-3.185747 -18.011139 -11.874433 21.807161 1.395731 2.146613 0.048239 -0.006905 -11775.900000 0 1 0
-2.204547 -19.041839 -11.868233 22.545656 1.455536 2.125168 0.039952 -0.002145 235180.000000 0 1 0
-0.757947 -18.695139 -12.247233 22.362411 1.530276 2.150374 0.041872 0.005179 -773515.000000 0 1 0
-0.551847 -18.342639 -13.598033 22.839953 1.540720 2.208512 0.054047 -0.001794 648684.000000 0 1 0
0.821853 -17.930939 -13.707133 22.584940 -1.524994 2.222969 0.073951 -0.006725 1896660.000000 0 1 0
1.983153 -19.029439 -13.700633 23.532101 -1.466956 2.192241 0.076991 -0.014017 -121072.000000 0 1 0
2.144953 -19.890139 -14.834933 24.905696 -1.463371 2.208864 0.101224 -0.007201 -233075.000000 0 1 0
1.242453 -20.945939 -14.747233 25.646772 -1.511549 2.183417 0.100244 -0.010388 -817564.000000 0 0 1
1.279753 -21.924939 -15.962833 27.150557 -1.512493 2.199303 0.113699 -0.012203 803526.000000 0 0 1
2.486853 -22.685439 -16.166633 27.967366 -1.461609 2.187138 0.122726 -0.015015 559146.000000 0 0 1
3.590253 -21.919639 -16.597233 27.727759 -1.408446 2.212521 0.112444 -0.021593 -184875.000000 0 0 1
4.891453 -22.756939 -16.759733 28.682629 -1.359074 2.194834 0.114168 -0.016182 222327.000000 0 0 1
5.268753 -22.798039 -18.097433 29.580862 -1.343678 2.229125 0.108650 -0.015315 180774.000000 0 0 1
6.548853 -23.389039 -18.229533 30.368577 -1.297791 2.214643 0.110009 -0.020555 312390.000000 0 0 1
7.069353 -23.284039 -19.734033 31.329766 -1.276028 2.252197 0.107695 -0.007746 52929.700000 0 0 1
7.200753 -21.923939 -20.163733 30.644511 -1.253454 2.288941 0.129890 -0.018499 133536.000000 0 0 1
7.502353 -21.825039 -21.559633 31.582200 -1.239700 2.322181 0.122045 -0.012954 -7364.110000 0 0 1
7.779653 -20.381439 -21.930233 30.933172 -1.206162 2.358812 0.105057 -0.020804 -211204.000000 0 0 1
6.629353 -19.613039 -22.112333 30.291498 -1.244845 2.389096 0.131742 -0.029120 -319366.000000 0 0 1
6.972853 -18.251839 -22.361233 29.694697 -1.205872 2.423463 0.136062 -0.029212 -261013.000000 0 0 1
5.828753 -17.318239 -22.726233 29.161231 -1.246138 2.464393 0.142949 -0.032942 -1172430.000000 0 0 1
5.186153 -17.649739 -23.934633 30.187350 -1.285003 2.486300 0.135364 -0.039287 -337811.000000 0 0 1
4.121553 -16.804539 -24.262533 29.800172 -1.330280 2.522102 0.151911 -0.042219 -38560.000000 0 0 1
2.779253 -17.057539 -23.563733 29.222139 -1.409282 2.508778 0.160169 -0.033435 -673561.000000 0 0 1
2.883053 -16.524239 -22.262233 27.874172 -1.398061 2.495876 0.163346 -0.036094 168069.000000 0 0 1
1.637053 -16.090739 -21.703233 27.066993 -1.469406 2.501154 0.155182 -0.033047 664264.000000 0 0 1
1.892053 -15.262839 -20.408533 25.554693 -1.447461 2.495798 0.154068 -0.031639 97345.500000 0 0 1
2.485853 -13.982339 -20.682133 25.088561 -1.394850 2.539876 0.136921 -0.021965 76004.700000 0 0 1
2.560753 -13.210239 -19.534133 23.720249 -1.379325 2.538387 0.128632 -0.023006 -53628.600000 0 1 0
3.651953 -12.145139 -19.731533 23.455800 -1.278704 2.570336 0.116581 -0.028172 -139375.000000 0 1 0
4.983253 -12.654239 -19.715033 23.950889 -1.195645 2.537722 0.108111 -0.022663 275533.000000 0 1 0
5.950553 -11.700939 -20.104033 24.010273 -1.100329 2.563140 0.095769 -0.011692 325024.000000 0 1 0
6.469353 -10.793839 -18.948633 22.746652 -1.030850 2.555358 0.101045 -0.011396 -699999.000000 0 1 0
5.482653 -9.904039 -18.482033 21.673371 -1.065211 2.592030 0.068600 -0.005949 18296.200000 0 1 0
5.521453 -8.587639 -19.093433 21.651632 -0.999391 2.650562 0.081740 -0.021741 -220218.000000 0 1 0
4.852253 -8.433439 -20.492533 22.685043 -1.048692 2.698313 0.099389 -0.032828 -1148830.000000 0 1 0
3.486253 -8.575439 -20.472733 22.468309 -1.184665 2.716942 0.098708 -0.029543 -1122750.000000 0 1 0
2.895053 -9.035539 -21.680433 23.665660 -1.260724 2.729073 0.100866 -0.029084 546145.000000 0 1 0
1.346253 -8.901739 -21.715433 23.507730 -1.420699 2.748574 0.071967 -0.026016 450097.000000 0 1 0
1.050053 -7.510339 -21.746333 23.030649 -1.431883 2.806058 0.067854 -0.028516 -20645.200000 0 1 0
-0.361147 -7.409839 -21.874833 23.098581 1.522096 2.814625 0.068728 -0.024053 473031.000000 0 1 0
-0.854147 -6.363339 -22.957433 23.838317 1.437364 2.868894 0.066670 -0.017521 185364.000000 0 1 0
-0.310347 -6.627939 -24.251833 25.143136 1.524006 2.874532 0.064766 -0.016630 -353556.000000 0 0 1
-0.947947 -6.083639 -25.385373 26.121379 1.416220 2.903644 0.088819 -0.031203 -79497.500000 0 0 1
-0.576747 -4.621839 -25.669353 26.088498 1.446651 2.962096 0.103730 -0.029365 2168.430000 0 0 1
-1.060347 -4.139939 -26.943223 27.280042 1.320060 2.984289 0.097651 -0.028725 115471.000000 0 0 1
-0.741747 -2.770539 -27.253133 27.403637 1.309205 3.036739 0.097149 -0.025616 -544670.000000 0 0 1
-1.424747 -1.700339 -26.354403 26.447601 0.873357 3.057617 0.096540 -0.030606 661835.000000 0 0 1
-2.843147 -1.806439 -26.216443 26.431962 0.566019 3.013805 0.084189 -0.032722 289196.000000 0 0 1
-3.545147 -1.173139 -27.231803 27.486641 0.319572 3.005316 0.099447 -0.031767 -881237.000000 0 0 1
-5.068547 -1.247139 -27.131663 27.629199 0.241262 2.951530 0.083272 -0.035035 -290015.000000 0 0 1
-5.574747 -0.267739 -26.245423 26.832289 0.047990 2.932061 0.088597 -0.025930 -395774.000000 0 0 1
-6.946947 -0.488739 -26.064033 26.978376 0.070237 2.880499 0.107793 -0.045161 -168208.000000 0 0 1
-7.724047 0.629161 -25.274293 26.435708 -0.081275 2.844073 0.122840 -0.038202 -448172.000000 0 0 1
-7.987547 1.913661 -25.942133 27.211345 -0.235148 2.834966 0.144529 -0.043920 307360.000000 0 0 1
-8.976247 1.945661 -26.965743 28.487013 -0.213455 2.813311 0.149815 -0.049560 566329.000000 0 0 1
-10.447747 1.616561 -26.560913 28.587599 -0.153511 2.762785 0.147023 -0.053605 141894.000000 0 0 1
-11.414047 2.230761 -27.413313 29.778289 -0.193007 2.740361 0.152029 -0.063878 896621.000000 0 0 1
-12.734747 1.806161 -27.047673 29.950169 -0.140890 2.697706 0.092081 -0.042391 427321.000000 0 0 1
-13.839047 2.202361 -28.039023 31.345756 -0.157818 2.678125 0.075482 -0.032300 95513.800000 0 0 1
-15.090947 1.673961 -27.559013 31.464870 -0.110473 2.638024 0.067425 -0.030022 579011.000000 0 0 1
-16.200947 2.152461 -28.280073 32.662919 -0.132087 2.617575 0.071655 -0.028547 123503.000000 0 0 1
-16.881147 3.439761 -27.636443 32.566518 -0.201012 2.584158 0.083316 -0.016372 -284274.000000 0 0 1
-16.349947 4.767461 -27.815133 32.614891 -0.283722 2.592188 0.102843 -0.020281 -57029.600000 0 0 1
-16.154547 5.325461 -29.090933 33.698847 -0.318438 2.612493 0.079129 -0.023228 -670476.000000 0 0 1
-17.410247 5.759361 -29.834683 35.019927 -0.319471 2.590465 0.087851 -0.017957 -504078.000000 0 0 1
-18.082147 6.776861 -29.137003 34.955040 -0.358579 2.556311 0.100865 -0.015384 238931.000000 0 0 1
-19.083147 7.389561 -29.959663 36.281587 -0.369449 2.542334 0.088731 -0.011014 294815.000000 0 0 1
-19.983547 8.439561 -29.259403 36.423633 -0.399603 2.503626 0.092739 -0.012053 -132359.000000 0 0 1
-19.307347 9.457661 -28.566873 35.753143 -0.455493 2.496432 0.091434 -0.012464 164844.000000 0 0 1
-20.242947 10.434961 -28.125693 36.190053 -0.475960 2.460947 0.107025 -0.005233 325603.000000 0 0 1
-9.282747 24.916561 30.522696 40.480111 -1.214172 0.716640 0.078095 -0.014232 -1101000.000000 0 0 1
-10.050247 26.050061 30.602036 41.425810 -1.202586 0.739628 0.074786 -0.013235 -425667.000000 0 0 1
-9.709647 27.021661 31.546674 42.657239 -1.225836 0.738412 0.083845 -0.019289 -192228.000000 0 0 1
-8.326447 27.677761 31.336206 42.630341 -1.278573 0.745029 0.088169 -0.020091 -176033.000000 0 0 1
-8.187347 28.508361 30.233636 42.353655 -1.291132 0.775833 0.095229 -0.005559 731162.000000 0 0 1
-6.806047 28.535261 29.854966 41.855733 -1.336657 0.776626 0.103567 -0.007172 758595.000000 0 0 1
-6.471347 29.794461 28.964396 42.053829 -1.356919 0.811039 0.125323 -0.014232 -143037.000000 0 0 1
-6.728947 31.047261 29.603996 43.423585 -1.357365 0.820645 0.124589 -0.016769 346527.000000 0 0 1
-6.471147 32.078761 28.674316 43.510218 -1.371741 0.851275 0.133065 -0.018505 -277097.000000 0 0 1
-6.792647 33.498761 29.209586 44.961172 -1.370736 0.863656 0.145271 -0.028756 485682.000000 0 0 1
-5.813947 -33.559004 30.232256 45.541169 1.399254 0.844849 0.154623 -0.035382 701247.000000 0 0 1
-6.231647 -32.734804 31.304806 45.720802 1.382680 0.816611 0.159304 -0.041438 -85628.800000 0 0 1
-7.400847 -33.258904 32.185161 46.870159 1.351841 0.813874 0.123572 -0.034130 210145.000000 0 0 1
-6.984547 33.298361 33.180335 47.523672 -1.364037 0.797937 0.126678 -0.032438 124985.000000 0 0 1
-6.852247 31.956661 32.706822 46.237622 -1.359572 0.785035 0.113360 -0.022369 -98191.700000 0 0 1
-6.913247 30.840661 -33.685973 46.191819 -1.350281 2.388040 0.102219 -0.020819 282767.000000 0 0 1
-5.747247 30.773261 -32.867293 45.390345 -1.386162 2.380530 0.106445 -0.015785 205466.000000 0 0 1
-6.012547 30.004261 -31.711513 44.068429 -1.373026 2.374018 0.101805 -0.019203 -831142.000000 0 0 1
-4.756747 29.676261 -30.854723 43.073438 -1.411860 2.369322 0.118500 -0.021974 649849.000000 0 0 1
-3.953547 28.591761 -31.318263 42.590526 -1.433392 2.396956 0.130754 -0.010206 282808.000000 0 0 1
-3.479347 28.633061 -32.638813 43.557435 -1.449874 2.417843 0.105179 -0.014995 -1127340.000000 0 0 1
-2.566647 27.405261 -32.916363 42.908309 -1.477413 2.445156 0.111613 -0.023547 192540.000000 0 0 1
-1.254847 27.416661 -32.312243 42.394917 -1.525059 2.437459 0.124382 -0.018369 981656.000000 0 0 1
-0.610647 26.150661 -32.479923 41.703422 -1.547449 2.463596 0.137648 -0.019232 164909.000000 0 0 1
0.041453 25.911361 33.587886 42.421061 1.569197 0.657089 0.113823 -0.010653 -530169.000000 0 0 1
-0.934247 25.617061 32.608115 41.477654 -1.534343 0.666224 0.120538 -0.011168 124883.000000 0 0 1
-0.398747 25.472161 31.306406 40.361876 -1.555143 0.683063 0.120741 -0.008860 12291.900000 0 0 1
-0.123547 26.741761 30.511466 40.571993 -1.566176 0.719656 0.110750 -0.014010 377983.000000 0 0 1
-1.280547 27.493061 30.066666 40.761656 -1.524253 0.741256 0.113484 -0.018359 681045.000000 0 0 1
-0.937647 28.696361 29.424896 41.111858 -1.538133 0.773131 0.110077 -0.017797 -377659.000000 0 0 1
-2.002447 29.788161 29.478426 41.956191 -1.503674 0.791751 0.121208 -0.013829 -430576.000000 0 0 1
-2.051147 30.412161 30.711846 43.270362 -1.503453 0.781630 0.137125 -0.029970 -431107.000000 0 0 1
-3.005347 31.387361 30.763726 44.052303 -1.475337 0.797713 0.133714 -0.027334 -673019.000000 0 0 1
-2.681847 32.198761 32.065964 45.521188 -1.487698 0.789193 0.137415 -0.019002 302085.000000 0 0 1
-1.498347 32.954661 31.888689 45.881840 -1.525361 0.802352 0.200832 -0.046057 192237.000000 0 0 1
-0.814647 33.282161 33.092660 46.941347 -1.546324 0.788403 0.155662 -0.031704 -417614.000000 0 0 1
0.691153 33.532861 33.038649 47.079537 1.550188 0.792928 0.169410 -0.053459 -429150.000000 0 0 1
0.994053 -32.770504 32.253447 45.991074 -1.540472 0.793580 0.207835 -0.067693 -1421030.000000 0 0 1
2.341653 -32.632204 32.148826 45.868193 -1.499160 0.794144 0.174630 -0.069724 -1561460.000000 0 0 1
2.692153 -31.202804 31.730528 44.583507 -1.484730 0.778867 0.180828 -0.068927 -27125.700000 0 0 1
2.144953 -30.421204 32.778722 44.771588 -1.500404 0.749349 0.174074 -0.060777 364101.000000 0 0 1
2.486153 -29.046804 32.690251 43.801259 -1.485413 0.728263 0.143825 -0.061962 27244.400000 0 0 1
1.968453 -28.247804 -33.511473 43.872908 -1.501224 2.440024 0.135895 -0.053150 -21263.200000 0 0 1
0.576353 -28.050004 -33.562403 43.744369 -1.550252 2.445322 0.137849 -0.056275 1962.850000 0 0 1
0.068853 -27.371204 -32.439943 42.444522 -1.568281 2.440737 0.130615 -0.040591 -77997.500000 0 0 1
-1.465347 -27.255104 -32.345693 42.322946 1.517084 2.440688 0.164314 -0.046961 -155024.000000 0 0 1
-1.830447 -26.756304 -31.085603 41.055634 1.502491 2.429748 0.167784 -0.046999 -280875.000000 0 0 1
-3.222447 -26.654204 -30.994653 41.006088 1.450482 2.427755 0.188640 -0.051295 -447506.000000 0 0 1
-3.614747 -25.914404 -29.659853 39.551607 1.432203 2.418711 0.199202 -0.063264 -143006.000000 0 0 1
-3.717947 -26.698404 -28.506103 39.232969 1.432429 2.384135 0.205874 -0.066003 129043.000000 0 0 1
-3.987347 -25.935504 -27.264153 37.840235 1.418250 2.375329 0.217210 -0.056152 420251.000000 0 0 1
-2.753347 -25.272404 -26.560593 36.766023 1.462278 2.378095 0.202377 -0.054641 353921.000000 0 0 1
-2.098247 -24.288004 -27.332883 36.625077 1.484620 2.413265 0.193593 -0.051592 751579.000000 0 0 1
-0.974547 -23.788204 -26.584713 35.687188 1.529852 2.411237 0.156329 -0.047352 224156.000000 0 0 1
-0.142547 -22.600104 -27.244063 35.398079 1.564489 2.449086 0.106700 -0.033808 1120590.000000 0 0 1
0.736153 -22.918004 -28.345273 36.458625 -1.538686 2.461420 0.066144 -0.040012 641915.000000 0 0 1
1.761153 -23.887204 -28.143173 36.955898 -1.497202 2.436473 0.059190 -0.033770 -241836.000000 0 0 1
2.652653 -24.130704 -29.369243 38.103542 -1.461307 2.450852 0.051264 -0.036946 27576.200000 0 0 1
3.699153 -23.174904 -29.465463 37.669264 -1.412513 2.469010 0.072634 -0.030403 -133014.000000 0 0 1
4.423853 -23.433904 -30.615043 38.807205 -1.384212 2.479815 0.087139 -0.031857 -678788.000000 0 0 1
5.722853 -22.657404 -30.869913 38.717703 -1.323389 2.493617 0.100440 -0.038193 591249.000000 0 0 1
6.906453 -22.965704 -30.064663 38.457855 -1.278671 2.468273 0.068901 -0.033864 1775200.000000 0 0 1
7.675853 -24.130104 -30.426043 39.584400 -1.262815 2.447504 0.077985 -0.024758 137408.000000 0 0 1
8.241053 -24.191004 -31.917363 40.888112 -1.242461 2.466426 0.085645 -0.026688 -674711.000000 0 0 1
7.305653 -24.428904 -32.943473 41.658328 -1.280204 2.482914 0.069887 -0.033541 -200263.000000 0 0 1
7.795653 -24.133504 33.226409 41.799432 -1.258354 0.651952 0.086667 -0.030944 -255300.000000 0 0 1
7.302853 -22.737804 32.753645 40.535671 -1.260026 0.630012 0.090936 -0.027539 30481.400000 0 0 1
5.899253 -22.739104 32.970757 40.483810 -1.316960 0.619070 0.092639 -0.029875 -119901.000000 0 0 1
5.321653 -21.689804 32.273059 39.246884 -1.330196 0.605340 0.105182 -0.047810 110128.000000 0 0 1
3.818853 -21.463104 32.594542 39.212914 -1.394713 0.589499 0.088459 -0.050562 1314890.000000 0 0 1
2.792653 -22.441004 32.263767 39.399851 -1.446989 0.611339 0.084279 -0.047095 830902.000000 0 0 1
2.797353 -23.586704 33.083561 40.726893 -1.452749 0.622665 0.085097 -0.034511 -523706.000000 0 0 1
1.491853 -24.396504 33.000955 41.066751 -1.509722 0.637489 0.097058 -0.046262 46178.000000 0 0 1
1.230853 -25.124104 31.744301 40.502299 -1.521845 0.670091 0.102591 -0.044984 -385052.000000 0 0 1
-0.067047 -25.621804 31.695212 40.756200 1.568180 0.679832 0.156229 -0.051366 -643074.000000 0 0 1
-0.364647 -26.597904 30.508636 40.476639 1.557088 0.717070 0.151369 -0.065666 389429.000000 0 0 1
-1.696947 -26.489404 30.017086 40.069859 1.506822 0.724065 0.187953 -0.065406 354374.000000 0 0 1
-1.951347 -27.509804 29.112206 40.101342 1.499982 0.758359 0.195207 -0.072368 -250914.000000 0 0 1
-3.337447 -27.399504 28.473406 39.656099 1.449587 0.769860 0.217634 -0.069092 -505875.000000 0 0 1
-4.404547 -27.786104 29.279216 40.604681 1.413588 0.765437 0.237218 -0.071729 -207006.000000 0 0 1
-5.580947 -28.015504 28.528806 40.372122 1.374161 0.786049 0.233794 -0.059855 -112516.000000 0 0 1
-6.777647 -28.530804 29.312146 41.462576 1.337564 0.785614 0.195267 -0.052009 -398528.000000 0 0 1
-7.890647 -28.983604 28.555676 41.445606 1.304993 0.810699 0.186690 -0.050300 -209657.000000 0 0 1
-9.028847 -29.170104 29.332746 42.341765 1.270625 0.805485 0.155234 -0.048268 -622674.000000 0 0 1
-9.101047 -30.524404 30.103566 43.826852 1.281032 0.813616 0.108251 -0.036894 -658976.000000 0 0 1
-9.331347 -31.672504 29.283766 44.133440 1.284283 0.845272 0.125156 -0.035411 1664050.000000 0 0 1
-10.728447 -31.939304 28.950416 44.422351 1.246737 0.860962 0.112091 -0.035756 1324260.000000 0 0 1
-10.798647 -33.432504 28.455816 45.211465 1.258376 0.890023 0.117969 -0.025060 -285580.000000 0 0 1
-10.701147 33.066261 29.464886 45.563930 -1.257806 0.867584 0.122368 -0.022572 468779.000000 0 0 1
-10.322647 31.796761 28.974486 44.239258 -1.256886 0.856680 0.122369 -0.029532 -96602.700000 0 0 1
-10.925047 30.712661 29.954716 44.270862 -1.229037 0.827629 0.097624 -0.007469 262402.000000 0 0 1
-12.333847 30.626061 29.827036 44.494174 -1.187944 0.836105 0.091595 0.002196 98531.300000 0 0 1
-12.881147 29.443061 30.352386 44.205035 -1.158391 0.813957 0.080055 0.001530 71315.700000 0 0 1
-13.015747 29.265161 31.880051 45.190674 -1.152315 0.787729 0.087810 -0.016805 -866312.000000 0 0 1
-13.972647 30.058461 32.478423 46.406831 -1.135663 0.795591 0.095186 -0.012598 -197986.000000 0 0 1
-14.169047 29.631261 -33.595763 46.983495 -1.124757 2.367498 0.092392 -0.016187 332682.000000 0 0 1
-15.382947 30.271061 -32.849273 47.244544 -1.100631 2.339638 0.084094 -0.018740 306898.000000 0 0 1
-15.609547 29.739861 -31.579613 46.101944 -1.087452 2.325394 0.060055 -0.011985 192365.000000 0 0 1
-16.785447 30.222061 -30.944733 46.397206 -1.063814 2.300908 0.077699 -0.013781 245115.000000 0 0 1
-17.033147 29.694761 -29.524063 45.205943 -1.050009 2.282469 0.082351 -0.013518 -163992.000000 0 0 1
-17.378947 28.328461 -29.464793 44.415127 -1.020524 2.296144 0.068393 -0.017117 152172.000000 0 0 1
-17.385147 28.001461 -28.077373 43.297391 -1.015176 2.276379 0.060317 -0.009283 -212552.000000 0 0 1
-17.774947 26.568061 -27.698273 42.296631 -0.981156 2.284791 0.047835 -0.017174 1209800.000000 0 0 1
-19.199547 26.353261 -27.837053 42.872118 -0.941168 2.277466 0.058559 -0.011904 1033610.000000 0 0 1
-19.568747 25.056061 -27.297783 41.903592 -0.907750 2.280281 0.043697 -0.014493 478344.000000 0 0 1
-21.013847 24.544961 -27.577593 42.480119 -0.862750 2.277313 0.064284 -0.017740 747057.000000 0 0 1
-21.991147 25.086861 -26.666853 42.709275 -0.851061 2.245135 0.067353 -0.018737 147531.000000 0 0 1
-23.238147 24.484261 -26.906213 43.167521 -0.811504 2.243749 0.095014 -0.023812 -359398.000000 0 0 1
-24.211847 24.590961 -25.741263 43.052776 -0.793166 2.211675 0.106526 -0.021156 -583177.000000 0 0 1
-24.896747 25.823361 -25.691663 44.122053 -0.803665 2.192334 0.080086 -0.013339 -172217.000000 0 0 1
-26.131467 25.815361 -25.015033 44.441403 -0.779313 2.168658 0.090144 -0.012774 87317.600000 0 0 1
-26.241097 25.459261 -23.481133 43.452650 -0.770277 2.141690 0.076426 -0.002603 -769848.000000 0 0 1
-26.049257 24.047761 -23.244133 42.392786 -0.745467 2.151131 0.087266 -0.008605 -272220.000000 0 0 1
-27.203147 23.256961 -23.076233 42.584152 -0.707353 2.143489 0.096450 -0.005277 16981.100000 0 0 1
-28.035177 23.390561 -21.733933 42.490627 -0.695326 2.107725 0.080455 -0.005046 59400.200000 0 0 1
-27.438837 22.913761 -20.540433 41.229111 -0.695771 2.092320 0.071216 -0.010710 -129002.000000 0 0 1
-26.528097 23.872661 -20.066333 40.942663 -0.732760 2.083010 0.059964 -0.001543 -78099.300000 0 0 1
-25.581557 23.332061 -18.944933 39.467856 -0.739441 2.071462 0.050217 -0.006146 -102296.000000 0 0 1
-26.164167 23.193161 -17.705233 39.191347 -0.725277 2.039538 0.050900 -0.000593 -381583.000000 0 0 1
-25.184817 23.043561 -16.745233 38.022146 -0.741029 2.026849 0.072132 -0.016615 -316688.000000 0 0 1
-25.797617 23.285361 -15.326833 37.982060 -0.734259 1.986166 0.066009 -0.018763 -5376.840000 0 0 1
-25.846957 24.673161 -14.969833 38.741786 -0.762168 1.967522 0.063957 -0.021737 227161.000000 0 0 1
-26.539047 24.875961 -13.718933 38.876003 -0.753063 1.931454 0.057379 -0.029556 379562.000000 0 0 1
-26.517287 26.357061 -13.209833 39.653006 -0.782368 1.910424 0.070704 -0.020768 371235.000000 0 0 1
-25.185127 26.768561 -12.947733 38.967811 -0.815867 1.909503 0.074719 -0.030912 106302.000000 0 0 1
-25.075747 27.678761 -11.882333 39.193070 -0.834700 1.878818 0.080925 -0.027207 -1233880.000000 0 0 1
-23.644847 27.902761 -11.505733 38.340902 -0.867813 1.875584 0.096436 -0.029010 -1271640.000000 0 0 1
-23.185847 26.827861 -10.732433 37.047304 -0.858090 1.864705 0.099685 -0.030203 -562966.000000 0 0 1
-22.059347 27.157961 -9.994933 36.387750 -0.888624 1.849052 0.087972 -0.027596 -498535.000000 0 0 1
-21.177947 26.024861 -9.447333 34.857581 -0.887722 1.845256 0.139177 -0.031933 76256.900000 0 0 1
-20.396847 25.343961 -10.419133 34.160007 -0.893135 1.880745 0.122180 -0.032584 394975.000000 0 0 1
-19.711647 24.174261 -9.898033 32.724838 -0.886737 1.878071 0.143937 -0.032499 -438354.000000 0 0 1
-18.907247 23.480161 -10.958533 32.076337 -0.892866 1.919457 0.131460 -0.034680 -344447.000000 0 0 1
-18.412047 22.209461 -10.557733 30.720179 -0.878610 1.921623 0.101127 -0.016145 25039.800000 0 0 1
-17.683247 21.540861 -11.535033 30.162276 -0.883431 1.963224 0.125891 -0.007327 39150.200000 0 0 1
-17.304347 20.103361 -11.235233 28.806528 -0.860084 1.971454 0.113754 -0.003909 201861.000000 0 0 1
-18.493147 19.364761 -10.989233 28.943975 -0.808417 1.960239 0.118343 -0.004912 392193.000000 0 0 1
-18.153147 18.065361 -10.493433 27.676816 -0.782974 1.959665 0.142452 -0.022678 -442779.000000 0 0 1
-19.414547 17.227761 -10.243533 27.904307 -0.725790 1.946680 0.130930 -0.014904 103633.000000 0 0 1
-20.147547 16.628461 -11.281233 28.455151 -0.689999 1.978450 0.123712 -0.017818 398308.000000 0 0 1
-20.936547 17.571061 -12.024933 29.861015 -0.698222 1.985257 0.139848 -0.015383 -543810.000000 0 0 1
-21.573247 17.059461 -13.314733 30.556707 -0.669087 2.021655 0.132841 -0.017770 -651539.000000 0 0 1
-20.705547 16.694361 -14.300733 30.198218 -0.678555 2.064127 0.129289 -0.027209 -319266.000000 0 0 1
-21.464947 16.361561 -15.466333 31.107107 -0.651292 2.091160 0.134002 -0.023691 98094.800000 0 0 1
-20.622947 16.075661 -16.698633 31.025428 -0.662118 2.139125 0.146688 -0.034170 -208530.000000 0 0 1
-19.857747 17.185661 -17.127833 31.353465 -0.713389 2.148715 0.123328 -0.033020 128732.000000 0 0 1
-19.240447 16.891561 -18.353833 31.502108 -0.720481 2.192748 0.116383 -0.022636 -382245.000000 0 0 1
-18.234747 17.960461 -18.844233 31.783475 -0.777820 2.205444 0.099185 -0.020577 -539101.000000 0 0 1
-17.040947 18.016461 -18.124533 30.716208 -0.813217 2.201935 0.124920 -0.027785 -427312.000000 0 0 1
-16.389147 19.218361 -18.346333 31.217583 -0.864687 2.199000 0.130347 -0.018346 -211786.000000 0 0 1
34.245918 30.665461 2.190967 46.021232 0.730295 1.523171 0.105978 0.001625 -201818.000000 0 0 1
35.415168 30.301261 1.502367 46.633225 0.707737 1.538574 0.119797 -0.004899 -87360.900000 0 0 1
35.514028 30.875061 0.234267 47.059223 0.715636 1.565818 0.102106 -0.000349 809285.000000 0 0 1
36.995418 30.780361 -0.292533 48.126679 0.693954 1.576875 0.074882 0.002235 575352.000000 0 0 1
37.915118 31.593461 0.364467 49.354187 0.694700 1.563412 0.074443 -0.000229 -320524.000000 0 0 1
-36.992007 31.531761 -0.334733 48.608359 -0.705882 1.577683 0.071139 0.005663 153793.000000 0 0 1
-35.942157 32.639161 0.039967 48.550542 -0.737274 1.569973 0.065565 0.000686 -12094.500000 0 0 1
-35.203952 32.348461 1.168167 47.823695 -0.743153 1.546367 0.054146 -0.006400 -346394.000000 0 0 1
-34.556974 33.548561 1.547767 48.188028 -0.770593 1.538671 0.047771 0.003629 -269486.000000 0 0 1
-33.736897 33.211161 2.833567 47.425611 -0.777545 1.511013 0.070312 0.005874 181039.000000 0 0 1
-33.035997 -33.121204 3.350567 46.900081 0.786686 1.499295 0.074881 0.016069 386666.000000 0 0 1
-32.548097 -33.244504 4.705767 46.762377 0.795983 1.469994 0.090617 0.000485 -350483.000000 0 0 1
-32.519377 -31.882904 5.424167 45.863396 0.775516 1.452251 0.097245 0.003999 423763.000000 0 0 1
-33.731867 -31.337104 5.938767 46.423291 0.748611 1.442518 0.081407 0.005166 649991.000000 0 0 1
-34.310050 -32.198904 7.002667 47.570856 0.753667 1.423054 0.081541 -0.012890 -926470.000000 0 0 1
-35.358247 -31.552004 7.973167 48.055239 0.728574 1.404109 0.094768 -0.011016 661903.000000 0 0 1
-36.638277 -31.251204 7.446567 48.728354 0.706213 1.417377 0.060281 -0.010314 361273.000000 0 0 1
-37.380747 -32.423704 7.069167 49.985898 0.714504 1.428897 0.063146 -0.010758 -1019550.000000 0 0 1
37.224858 -32.176104 6.944767 49.691262 -0.712778 1.430579 0.070967 -0.009205 6585.260000 0 0 1
36.589408 -32.220604 8.220567 49.442187 -0.721992 1.403754 0.061837 -0.008962 1610730.000000 0 0 1
35.166338 -32.002104 7.985467 48.213833 -0.738324 1.404404 0.044546 0.000317 1549160.000000 0 0 1
34.199058 -32.399904 9.153367 47.990765 -0.758390 1.378889 0.049002 -0.013678 -488324.000000 0 0 1
32.858878 -32.234404 8.778767 46.859678 -0.775805 1.382341 0.069876 -0.016425 -8427.800000 0 0 1
31.978368 -32.330804 9.900767 46.539468 -0.790878 1.356419 0.090336 -0.025301 28028.900000 0 0 1
31.921068 -31.058804 10.891967 45.850178 -0.771708 1.330948 0.086163 -0.024649 -713676.000000 0 0 1
31.409358 -29.805704 10.419767 44.536494 -0.759207 1.334647 0.074979 -0.030611 314532.000000 0 0 1
32.058678 -29.200004 9.290367 44.347604 -0.738766 1.359743 0.069119 -0.027592 87056.300000 0 0 1
31.465678 -27.781504 8.931767 42.914768 -0.723295 1.361136 0.069949 -0.031077 114512.000000 0 0 1
31.853398 -27.292204 7.678967 42.643521 -0.708432 1.389735 0.070113 -0.031831 -344243.000000 0 0 1
31.283918 -26.044104 7.481467 41.387815 -0.694251 1.389032 0.075071 -0.026927 -63102.200000 0 0 1
31.502548 -25.372904 6.104067 40.907877 -0.678039 1.421022 0.064808 -0.011785 291335.000000 0 0 1
32.819468 -24.892704 5.892067 41.611064 -0.648902 1.428720 0.055994 -0.014982 -2463.160000 0 0 1
32.798118 -24.155004 4.671767 41.000075 -0.634789 1.456603 0.058939 -0.013524 -671092.000000 0 0 1
34.171888 -23.633504 4.307667 41.771000 -0.605071 1.467487 0.064797 -0.023722 -105710.000000 0 0 1
35.036108 -24.718804 3.891067 43.054484 -0.614424 1.480297 0.044897 -0.013374 -796671.000000 0 0 1
36.331008 -24.314704 3.685567 43.871749 -0.589792 1.486689 0.050402 -0.016251 -288528.000000 0 0 1
37.394698 -25.487804 3.596867 45.397457 -0.598262 1.491483 0.051805 -0.013695 307734.000000 0 0 1
37.320498 -26.303104 4.768167 45.906517 -0.613933 1.466742 0.034922 -0.005512 -235726.000000 0 0 1
37.926838 -27.550304 4.626267 47.104848 -0.628230 1.472426 0.040505 -0.005265 -1057680.000000 0 0 1
37.249088 -28.566604 5.617167 47.276823 -0.654234 1.451701 0.045534 -0.000421 1186700.000000 0 0 1
35.931428 -29.020604 5.249967 46.484676 -0.679398 1.457615 0.030951 0.000006 760535.000000 0 0 1
34.919728 -28.023404 5.356467 45.093130 -0.676269 1.451728 0.034769 -0.010518 -1157360.000000 0 0 1
33.567418 -28.751804 5.494667 44.537952 -0.708278 1.447111 0.060032 -0.009789 -415869.000000 0 0 1
32.980708 -29.372904 4.394967 44.382545 -0.727602 1.471609 0.046090 -0.009683 40176.600000 0 0 1
32.094268 -28.534404 3.642967 43.099019 -0.726750 1.486170 0.058533 -0.011058 -30077.600000 0 0 1
30.620308 -28.975804 3.734667 42.321959 -0.757811 1.482437 0.064354 -0.009156 -59741.800000 0 0 1
30.370608 -30.192704 3.028967 42.931898 -0.782461 1.500185 0.070356 -0.006176 -145047.000000 0 0 1
29.072708 -30.727404 3.215167 42.423260 -0.813062 1.494936 0.076929 -0.007807 237704.000000 0 0 1
28.965508 -32.141004 2.689667 43.350653 -0.837318 1.508712 0.074371 -0.001117 -277985.000000 0 0 1
29.011908 -32.206404 1.276067 43.365558 -0.837533 1.541366 0.075694 0.000827 122761.000000 0 0 1
28.770808 -33.448204 0.779067 44.126508 -0.860433 1.553140 0.073851 0.002325 -156602.000000 0 0 1
28.517608 -33.488804 -0.708233 43.991540 -0.865399 1.586896 0.064141 0.001776 165673.000000 0 0 1
29.665708 -33.143904 -1.474633 44.505586 -0.840718 1.603936 0.067881 -0.001969 268350.000000 0 0 1
29.446308 -33.327804 -2.807333 44.561292 -0.847152 1.633837 0.055750 0.001496 761356.000000 0 0 1
30.600508 -32.843904 -3.803433 45.050852 -0.820743 1.655322 0.045026 0.001183 885666.000000 0 0 1
30.569108 -31.438104 -3.786633 44.013218 -0.799412 1.656937 0.035913 0.004107 203622.000000 0 0 1
31.438258 -30.851804 -4.751833 44.303248 -0.775984 1.678260 0.032977 0.004047 87143.800000 0 0 1
31.639488 -29.327204 -4.583533 43.383763 -0.747489 1.676645 0.035378 0.005847 334174.000000 0 0 1
30.444908 -28.593104 -4.890333 42.052032 -0.754042 1.687352 0.014762 -0.011812 482641.000000 0 0 1
30.619308 -27.157604 -4.880333 41.217656 -0.725555 1.689479 0.016078 -0.008627 68463.700000 0 0 1
31.564748 -26.574104 -6.002333 41.695855 -0.699768 1.715253 0.056700 -0.011203 546146.000000 0 0 1
32.934548 -26.718604 -5.607033 42.778582 -0.681571 1.702246 0.065149 -0.003704 493104.000000 0 0 1
33.865918 -26.292204 -6.604233 43.379676 -0.660160 1.723633 0.084301 -0.011881 307751.000000 0 0 1
34.104658 -27.232504 -7.811033 44.336771 -0.673824 1.747896 0.093268 -0.003399 -311978.000000 0 0 1
32.966558 -27.309604 -8.672433 43.678594 -0.691822 1.770676 0.082741 -0.009956 172913.000000 0 0 1
33.103728 -28.243004 -9.729733 44.589144 -0.706330 1.790775 0.068563 -0.003693 118823.000000 0 0 1
32.986178 -29.759504 -9.250433 45.379363 -0.734019 1.776082 0.067270 -0.002402 401392.000000 0 0 1
34.239868 -30.252604 -8.797133 46.529326 -0.723651 1.761008 0.080108 0.000850 -189169.000000 0 0 1
34.050318 -31.577004 -8.295733 47.173621 -0.747729 1.747571 0.091381 -0.003975 846249.000000 0 0 1
35.314038 -32.382004 -7.766233 48.538540 -0.742113 1.731488 0.094464 -0.007536 724797.000000 0 0 1
35.166968 -33.556704 -6.931633 49.100057 -0.761971 1.712443 0.082542 -0.006286 -320746.000000 0 0 1
34.662648 -33.490804 -5.630633 48.526665 -0.768206 1.687090 0.084526 -0.002192 -98163.100000 0 0 1
34.521888 32.603561 -4.926033 47.739070 0.756828 1.674167 0.057884 0.003014 113452.000000 0 0 1
33.576788 31.743061 -5.555333 46.539063 0.757332 1.690451 0.070847 -0.011092 345429.000000 0 0 1
33.561528 30.457061 -5.025233 45.598922 0.736943 1.681226 0.071765 0.002691 241554.000000 0 0 1
32.326198 29.615161 -5.461733 44.179989 0.741658 1.694738 0.080480 -0.011402 255159.000000 0 0 1
32.413548 29.152861 -6.797233 44.121761 0.732485 1.725469 0.066501 -0.005011 -123384.000000 0 0 1
31.169508 28.677161 -7.238833 42.968809 0.743777 1.740071 0.060328 -0.011248 -58387.500000 0 0 1
31.095908 28.465861 -8.785733 43.063324 0.741270 1.776258 0.060560 -0.013321 47344.600000 0 0 1
31.922398 27.350361 -9.170633 43.025368 0.708415 1.785589 0.079043 -0.007432 329318.000000 0 0 1
32.318428 27.365261 -10.524533 43.636042 0.702598 1.814387 0.066598 -0.012098 438937.000000 0 0 1
33.549928 28.237761 -10.933533 45.194148 0.699635 1.815144 0.093936 -0.018935 -291073.000000 0 0 1
34.798978 27.702361 -10.535433 45.709792 0.672339 1.803373 0.089325 -0.020609 969801.000000 0 0 1
35.928838 28.445961 -11.056733 47.141335 0.669678 1.807546 0.107854 -0.026478 749719.000000 0 0 1
36.186208 29.878361 -10.553533 48.099222 0.690207 1.792008 0.107084 -0.025588 -979845.000000 0 0 1
36.763718 29.864661 -9.239233 48.257978 0.682221 1.763441 0.088316 -0.012775 398141.000000 0 0 1
36.703748 31.105661 -8.662233 48.885188 0.703029 1.748932 0.076604 -0.012975 -281596.000000 0 0 1
37.716288 31.300161 -7.469033 49.578271 0.692699 1.722023 0.066314 -0.004823 1209500.000000 0 0 1
-37.006797 31.458861 -7.683333 49.175162 -0.704542 1.727683 0.087069 -0.007571 911938.000000 0 0 1
-36.372977 30.235361 -8.171633 47.999439 -0.693513 1.741874 0.087916 -0.015617 -1034410.000000 0 0 1
-34.978934 30.538361 -8.715933 47.244945 -0.717725 1.756343 0.143703 -0.022722 -1089500.000000 0 0 1
-34.165129 31.021561 -7.652133 46.777649 -0.737211 1.735120 0.114902 -0.023889 841192.000000 0 0 1
-32.826047 31.300461 -8.105533 46.075676 -0.761612 1.747634 0.160359 -0.041640 722912.000000 0 0 1
-32.610487 32.580861 -8.999733 46.967559 -0.784944 1.763605 0.124893 -0.045073 -635745.000000 0 0 1
-32.677527 -33.569804 -8.424133 47.599565 0.798866 1.748713 0.102075 -0.036318 -386526.000000 0 0 1
-31.835677 -33.397004 -7.365033 46.723805 0.809328 1.729086 0.149309 -0.044165 -743631.000000 0 0 1
-31.945757 -31.926004 -6.777833 45.669904 0.785089 1.719756 0.108777 -0.031342 -153088.000000 0 0 1
-32.920657 -31.619004 -5.813833 46.014473 0.765233 1.697483 0.106756 -0.035480 -27447.100000 0 0 1
-32.663167 -32.309904 -4.582533 46.171550 0.779961 1.670210 0.112925 -0.035793 447915.000000 0 0 1
-33.946350 -32.330104 -3.689033 47.023391 0.761017 1.649328 0.085461 -0.019540 281195.000000 0 0 1
-34.381035 -31.029604 -3.330533 46.432579 0.734206 1.642586 0.056639 -0.010420 155598.000000 0 0 1
-35.145017 -31.041804 -2.138633 46.939744 0.723483 1.616373 0.061339 -0.004693 333349.000000 0 0 1
-35.893203 -29.701204 -1.748433 46.621246 0.691279 1.608308 0.072161 -0.003661 615765.000000 0 0 1
-36.900067 -29.853804 -0.751933 47.470306 0.680232 1.586637 0.059537 0.008586 236264.000000 0 0 1
-37.493017 -28.608604 -0.450033 47.163345 0.651793 1.580338 0.074912 -0.001883 -144529.000000 0 0 1
37.751088 -28.582804 0.809467 47.357962 -0.648054 1.553703 0.061473 0.003885 231003.000000 0 0 1
36.573418 -29.373004 0.557167 46.911605 -0.676643 1.558919 0.047122 0.007127 1014170.000000 0 0 1
35.447968 -29.221804 1.422567 45.961897 -0.689418 1.539840 0.042442 0.001338 948627.000000 0 0 1
34.573198 -27.962204 1.118067 44.479669 -0.680073 1.545657 0.031151 0.002672 -159963.000000 0 0 1
33.512828 -28.006904 0.160267 43.675188 -0.696137 1.567127 0.039206 -0.002752 248639.000000 0 0 1
32.879778 -26.796604 -0.016633 42.416248 -0.683813 1.571188 0.044656 -0.002131 -500692.000000 0 0 1
31.530618 -26.899604 -0.754533 41.452840 -0.706306 1.589000 0.043149 -0.010353 787159.000000 0 0 1
30.396908 -27.359904 0.050467 40.896686 -0.732864 1.569562 0.049409 -0.001093 1147040.000000 0 0 1
30.268508 -28.778604 0.095967 41.766013 -0.760171 1.568499 0.054115 -0.001346 -330698.000000 0 0 1
29.715308 -29.393904 -1.207333 41.814576 -0.779961 1.599674 0.042133 -0.002918 -270239.000000 0 0 1
28.332508 -29.177904 -1.410933 40.694863 -0.800097 1.605474 0.050040 0.001358 166246.000000 0 0 1
27.999208 -29.639504 -2.763333 40.866758 -0.813849 1.638466 0.042463 -0.002127 -863635.000000 0 0 1
26.562408 -29.925204 -3.106233 40.133877 -0.844860 1.648271 0.044969 -0.001405 -737491.000000 0 0 1
25.739108 -28.813804 -3.329933 38.779188 -0.841700 1.656771 0.060002 0.002312 384839.000000 0 0 1
24.372108 -29.200704 -3.522433 38.198015 -0.875287 1.663143 0.038358 0.005815 1024010.000000 0 0 1
23.471208 -27.913404 -3.779933 36.665292 -0.871634 1.674073 0.039446 0.010494 282216.000000 0 0 1
23.834308 -27.131904 -4.881033 36.442269 -0.850010 1.705139 0.055101 0.008698 413437.000000 0 0 1
23.129708 -25.869504 -4.756933 35.026319 -0.841255 1.707028 0.087256 -0.006872 374175.000000 0 0 1
22.401408 -25.429404 -6.049433 34.424894 -0.848620 1.747442 0.085304 -0.029356 847935.000000 0 0 1
21.079008 -25.930604 -6.307533 34.007437 -0.888238 1.757352 0.092884 -0.030012 494675.000000 0 0 1
20.493908 -25.387504 -7.464333 33.470015 -0.891654 1.795703 0.116726 -0.036992 995390.000000 0 0 1
18.942608 -25.557304 -7.642533 32.717068 -0.932963 1.806569 0.103895 -0.032530 775002.000000 0 0 1
18.168808 -24.790404 -6.745433 31.466976 -0.938331 1.786838 0.094068 -0.037420 -245431.000000 0 0 1
16.802608 -25.039204 -6.956433 30.946427 -0.979764 1.797523 0.089948 -0.037554 -192460.000000 0 0 1
15.941708 -24.196504 -5.985633 29.587779 -0.988229 1.774503 0.077257 -0.028977 75096.100000 0 0 1
16.183108 -24.632604 -4.660733 29.839246 -0.989530 1.727633 0.063189 -0.023525 223671.000000 0 0 1
15.348808 -23.800704 -3.902333 28.588243 -0.998023 1.707725 0.067420 -0.022665 61328.200000 0 0 1
15.222008 -24.169804 -2.412633 28.665480 -1.008757 1.655061 0.063424 -0.020247 266190.000000 0 0 1
14.509108 -25.453404 -2.311933 29.389369 -1.052708 1.649543 0.054701 -0.016504 527479.000000 0 0 1
15.329308 -26.633804 -2.291733 30.815568 -1.048543 1.645234 0.054428 -0.016360 161725.000000 0 0 1
14.526208 -27.986804 -2.330633 31.618093 -1.092035 1.644575 0.045652 -0.009730 163505.000000 0 0 1
13.656108 -28.253904 -1.249033 31.405931 -1.120569 1.610577 0.070830 -0.025595 -160373.000000 0 0 1
13.164008 -29.563704 -1.154333 32.382653 -1.151878 1.606451 0.082832 -0.027642 -83549.500000 0 0 1
14.124808 -30.736704 -0.770233 33.835609 -1.140036 1.593562 0.060538 -0.022274 241074.000000 0 0 1
14.716308 -31.415904 -1.882233 34.742935 -1.132718 1.624999 0.059229 -0.019416 290849.000000 0 0 1
15.526108 -32.571704 -1.589733 36.117907 -1.125982 1.614826 0.056198 -0.016482 -460164.000000 0 0 1
16.987708 -32.443004 -2.015733 36.676885 -1.088434 1.625783 0.043587 -0.003927 -387983.000000 0 0 1
17.622308 -31.482404 -1.196833 36.098752 -1.060498 1.603957 0.041388 0.005866 345476.000000 0 0 1
18.954308 -31.148104 -1.582433 36.496223 -1.024134 1.614169 0.037365 0.006481 524248.000000 0 0 1
19.582208 -30.018404 -0.697933 35.847658 -0.992778 1.590267 0.038323 0.007109 -132683.000000 0 0 1
19.161308 -28.752404 -1.147033 34.571262 -0.982961 1.603981 0.045554 0.005044 282535.000000 0 0 1
19.604808 -27.659504 -0.332033 33.904379 -0.954195 1.580590 0.045577 0.010528 -277270.000000 0 0 1
19.241808 -26.224404 -0.826333 32.536893 -0.937785 1.596196 0.039289 0.001191 42207.900000 0 0 1
19.905108 -25.633104 -1.958833 32.513172 -0.910525 1.631080 0.049864 -0.000219 700106.000000 0 0 1
19.254108 -26.144004 -3.148433 32.621193 -0.936015 1.667462 0.060990 -0.003523 403047.000000 0 0 1
35.031238 -29.548904 13.273367 47.712762 -0.700709 1.288884 0.090910 -0.039889 44513.200000 0 0 1
35.513728 -29.601204 14.591667 48.480645 -0.694845 1.265077 0.079494 -0.031179 233337.000000 0 0 1
34.841368 -30.564804 15.431967 48.849501 -0.720106 1.249382 0.060763 -0.023508 107542.000000 0 0 1
35.446698 -30.672104 16.860767 49.814976 -0.713311 1.225508 0.060563 -0.019992 -424682.000000 0 0 1
34.654118 -31.292604 17.855267 49.989454 -0.734469 1.205549 0.057583 -0.019968 42688.300000 0 0 1
35.337218 -31.610104 19.057767 51.099082 -0.729783 1.188602 0.038789 -0.021594 410177.000000 0 0 1
36.345828 -32.829304 18.941367 52.512454 -0.734607 1.201775 0.026542 -0.009403 754601.000000 0 0 1
37.448918 -32.627704 18.051067 52.847229 -0.716707 1.222209 0.041009 -0.004739 87234.100000 0 0 1
-37.919697 33.662561 17.975667 53.797733 -0.725996 1.230110 0.041532 -0.004170 595989.000000 0 0 1
-36.675647 -33.637604 16.991367 52.586101 0.742218 1.241777 0.057155 -0.008677 536466.000000 0 0 1
-35.717101 -32.759504 17.537567 51.540884 0.742234 1.223597 0.075617 -0.009270 443887.000000 0 0 1
-34.768268 -32.430504 16.502967 50.328103 0.750623 1.236708 0.092051 -0.003611 -232881.000000 0 0 1
-33.418777 -31.856604 16.961467 49.186881 0.761471 1.218731 0.084952 -0.007656 23454.200000 0 0 1
-32.352927 -31.808204 16.038867 48.121918 0.776908 1.230998 0.096928 -0.010166 3040.600000 0 0 1
-32.554187 -30.934504 14.881867 47.309498 0.759892 1.250799 0.098352 -0.016800 -1280480.000000 0 0 1
-31.423867 -30.774304 13.900767 46.127525 0.774955 1.264683 0.090872 -0.022639 -1357840.000000 0 0 1
-30.332747 -30.155404 14.463267 45.150969 0.782466 1.244717 0.070093 -0.025041 -1127730.000000 0 0 1
-29.299227 -30.104904 13.495167 44.123344 0.798960 1.259964 0.055843 -0.012204 -32961.100000 0 0 1
-28.017707 -29.541004 14.150667 43.103413 0.811857 1.236298 0.052741 -0.017394 -270941.000000 0 0 1
-26.943097 -29.620804 13.235967 42.172424 0.832702 1.251547 0.048043 -0.012660 -1040190.000000 0 0 1
-25.844647 -29.150604 13.976067 41.388814 0.845439 1.226348 0.039224 -0.016399 120618.000000 0 0 1
-24.525947 -29.302604 13.126567 40.403854 0.873905 1.239907 0.058830 -0.015646 521598.000000 0 0 1
-24.227847 -30.606304 12.710367 41.052258 0.901200 1.256009 0.078179 -0.028324 -227739.000000 0 0 1
-22.873447 -30.751004 12.356067 40.267744 0.931257 1.258917 0.064703 -0.036190 65371.700000 0 0 1
-22.507047 -32.220904 12.022867 41.101133 0.961062 1.273936 0.055619 -0.030870 105423.000000 0 0 1
-23.132447 -32.741404 10.827667 41.525270 0.955708 1.306999 0.060393 -0.035460 114307.000000 0 0 1
-23.016247 33.344561 10.754867 41.919859 -0.966641 1.311337 0.080752 -0.018914 462004.000000 0 0 1
-24.028447 32.671161 9.737867 41.708478 -0.936664 1.335147 0.087416 -0.010483 428655.000000 0 0 1
-23.653447 32.950561 8.405267 41.423104 -0.948193 1.366465 0.095494 -0.011707 782955.000000 0 0 1
-24.847647 33.005961 7.608367 42.008169 -0.925491 1.388675 0.089037 -0.009825 246943.000000 0 0 1
-24.548747 33.513461 6.195767 42.002150 -0.938587 1.422745 0.102321 -0.008875 -104447.000000 0 0 1
-23.669547 32.659061 5.436667 40.699129 -0.943654 1.436814 0.084461 -0.004242 1095280.000000 0 0 1
-22.262147 32.614861 5.649967 39.890531 -0.971860 1.428682 0.091627 -0.010017 114831.000000 0 0 1
-21.450347 -33.575904 5.418467 40.209682 1.002291 1.435630 0.110534 -0.011829 -901249.000000 0 0 1
-21.599147 -32.570604 6.375667 39.598189 0.985233 1.409083 0.108968 -0.030893 164574.000000 0 0 1
-20.879147 -32.843604 7.577867 39.649277 1.004529 1.378491 0.094687 -0.034860 -176142.000000 0 0 1
-20.839447 -31.621304 8.516367 38.816465 0.988098 1.349596 0.089154 -0.044866 -131817.000000 0 0 1
-20.008247 -30.569204 8.072267 37.416142 0.991248 1.353344 0.115185 -0.060231 -189779.000000 0 0 1
-19.828747 -29.474204 9.005767 36.647125 0.978595 1.322510 0.105463 -0.057546 302896.000000 0 0 1
-19.008147 -29.635704 10.298867 36.683120 1.000495 1.286219 0.086768 -0.042930 -61688.100000 0 0 1
-17.699047 -30.112104 10.156667 36.375170 1.039417 1.287815 0.082194 -0.048221 -324684.000000 0 0 1
-16.970147 -30.070704 11.399967 36.361963 1.057009 1.251905 0.083012 -0.045712 251097.000000 0 0 1
-15.597447 -30.778004 11.259067 36.295075 1.101745 1.255383 0.081718 -0.039437 -149768.000000 0 0 1
-14.687147 -29.895704 10.670467 34.976053 1.114149 1.260775 0.098573 -0.041088 -784345.000000 0 0 1
-13.691547 -30.602904 10.006067 34.987392 1.150112 1.280756 0.089994 -0.029645 -557044.000000 0 0 1
-12.600647 -29.794804 9.287567 33.656583 1.170694 1.291217 0.111201 -0.020518 72298.200000 0 0 1
-11.795347 -29.151104 10.263567 33.079569 1.186307 1.255320 0.108561 -0.031738 50994.700000 0 0 1
-10.706947 -28.434704 9.659467 31.882227 1.210672 1.262985 0.129658 -0.031040 584876.000000 0 0 1
-9.569547 -28.165404 10.632667 31.589869 1.243271 1.227509 0.142327 -0.026781 -92978.900000 0 0 1
-10.047047 -27.136104 11.517767 31.144346 1.216200 1.191982 0.117472 -0.037245 20573.300000 0 0 1
-9.152147 -26.936704 12.600067 31.114458 1.243269 1.153863 0.110705 -0.033404 182785.000000 0 0 1
-9.279647 -25.486004 13.237867 30.180944 1.221609 1.116737 0.104361 -0.040212 116493.000000 0 0 1
-8.688847 -24.508704 12.437367 28.824655 1.230100 1.124660 0.095308 -0.040353 378644.000000 0 0 1
-9.630647 -23.970504 11.463867 28.262248 1.188764 1.153134 0.094924 -0.033658 652337.000000 0 0 1
-9.148247 -22.701204 10.773267 26.741323 1.187719 1.156146 0.106272 -0.035527 -87163.200000 0 0 1
-8.081247 -22.930404 9.865967 26.238279 1.231963 1.185305 0.092982 -0.041602 -237744.000000 0 0 1
-7.507247 -21.689704 9.593367 24.876389 1.237582 1.174893 0.094578 -0.027751 -54887.700000 0 1 0
-6.171947 -21.850604 8.838967 24.365327 1.295507 1.199560 0.100740 -0.034772 -70312.400000 0 1 0
-4.996047 -22.217204 9.500067 24.674195 1.349603 1.175566 0.102235 -0.041539 61944.700000 0 1 0
-4.020547 -22.698704 8.555767 24.588557 1.395488 1.215405 0.100885 -0.040556 813454.000000 0 1 0
-2.896947 -23.483204 9.286867 25.418479 1.448054 1.196778 0.118473 -0.045593 1173550.000000 0 0 1
-1.949447 -22.796804 10.164567 25.036235 1.485490 1.152730 0.095020 -0.035224 411795.000000 0 0 1
-0.905847 -23.636904 10.602467 25.921730 1.532492 1.149418 0.125046 -0.051190 728844.000000 0 0 1
0.076353 -22.934604 11.601167 25.701925 -1.567467 1.102492 0.115606 -0.047314 104346.000000 0 0 1
-0.566647 -22.617904 12.811067 26.000271 1.545749 1.055574 0.116319 -0.046306 -163833.000000 0 0 1
0.301753 -22.283704 13.880467 26.254940 -1.557256 1.013751 0.143475 -0.051208 194714.000000 0 0 1
1.115753 -20.947604 13.857267 25.141020 -1.517583 0.987017 0.111314 -0.045181 529761.000000 0 0 1
2.239053 -20.873704 12.976667 24.680332 -1.463938 1.017153 0.109795 -0.049743 165270.000000 0 1 0
2.691753 -19.548504 12.827967 23.536063 -1.433961 0.994366 0.091651 -0.045188 519.093000 0 1 0
4.161653 -19.314804 12.449067 23.352950 -1.358576 1.008556 0.100519 -0.047639 -39511.900000 0 1 0
4.476453 -19.848104 11.153267 23.203044 -1.348972 1.069365 0.091319 -0.036135 226296.000000 0 1 0
5.891753 -20.033704 11.029367 23.615863 -1.284768 1.084865 0.125984 -0.037646 819515.000000 0 1 0
6.292153 -20.941904 9.882967 23.996407 -1.278920 1.146311 0.119352 -0.040201 -517047.000000 0 1 0
6.186053 -20.343504 8.545067 22.916011 -1.275601 1.188679 0.105583 -0.035157 -400540.000000 0 1 0
6.486953 -21.172504 7.463567 23.367934 -1.273491 1.245707 0.102179 -0.037027 50876.900000 0 1 0
7.946453 -21.734904 7.422067 24.303071 -1.220285 1.260442 0.096481 -0.021138 719825.000000 0 1 0
9.000153 -20.897604 6.920167 23.782374 -1.164126 1.275547 0.109664 -0.029309 414939.000000 0 1 0
9.233953 -19.652604 7.555467 22.990777 -1.131551 1.235943 0.107811 -0.025040 -446884.000000 0 1 0
10.153153 -19.702304 8.808667 23.850784 -1.094961 1.192515 0.102243 -0.019414 713579.000000 0 1 0
9.413353 -20.061004 9.984367 24.305199 -1.132061 1.147474 0.120356 -0.027641 166597.000000 0 1 0
10.279953 -19.731604 11.040067 24.837405 -1.090499 1.110187 0.118900 -0.018839 408448.000000 0 1 0
9.538353 -19.865904 12.378167 25.275548 -1.123165 1.059018 0.151336 -0.031576 66074.300000 0 0 1
9.308253 -21.239604 12.721867 26.450147 -1.157757 1.069030 0.122063 -0.028175 -160100.000000 0 0 1
8.715853 -21.307704 13.993967 26.940962 -1.182515 1.024612 0.162596 -0.041841 -17212.800000 0 0 1
9.134753 -22.498304 14.766467 28.419464 -1.185111 1.024425 0.145864 -0.026852 -12363.500000 0 0 1
8.669753 -23.655104 14.106867 28.874422 -1.219493 1.060359 0.159236 -0.032356 -193938.000000 0 0 1
8.919953 -24.875304 14.750267 30.264116 -1.226492 1.061704 0.173104 -0.039044 85423.700000 0 0 1
8.892853 -26.086104 13.745867 30.797995 -1.242248 1.108144 0.184294 -0.047426 476862.000000 0 0 1
10.151653 -26.310704 13.126867 31.106653 -1.202558 1.135151 0.152458 -0.035287 -4210.330000 0 0 1
10.078753 -27.471304 12.280667 31.734344 -1.219161 1.173438 0.146372 -0.043897 339758.000000 0 0 1
11.362853 -27.958904 11.534567 32.308837 -1.184774 1.205732 0.112356 -0.036016 237626.000000 0 0 1
12.383653 -28.433704 12.360867 33.385946 -1.160043 1.191527 0.095514 -0.035688 -320952.000000 0 0 1
13.458753 -28.983204 11.651767 34.013642 -1.136062 1.221154 0.120813 -0.031987 102035.000000 0 0 1
14.566353 -29.626204 12.553267 35.319614 -1.113834 1.207434 0.106048 -0.040944 -453367.000000 0 0 1
15.430553 -28.691104 13.110067 35.116311 -1.077355 1.188197 0.098960 -0.034411 40540.400000 0 0 1
16.341253 -29.254804 14.056467 36.338194 -1.061387 1.173612 0.084469 -0.031392 -219140.000000 0 0 1
17.742153 -29.488004 13.528867 36.977785 -1.029147 1.196235 0.096281 -0.031601 -543797.000000 0 0 1
18.499753 -28.279904 13.294067 36.314268 -0.991498 1.195999 0.087312 -0.033798 1839800.000000 0 0 1
19.939853 -28.499104 13.253367 37.221612 -0.960295 1.206741 0.065914 -0.025323 1276270.000000 0 0 1
20.689353 -27.181104 13.071367 36.574887 -0.920187 1.205328 0.041998 -0.022166 -893997.000000 0 0 1
21.991153 -27.378304 12.668267 37.331854 -0.894087 1.224579 0.041351 -0.022432 -623846.000000 0 0 1
22.744953 -26.316404 12.116367 36.833305 -0.858066 1.235603 0.034152 -0.020221 251406.000000 0 0 1
24.085453 -26.716304 11.478167 37.757360 -0.837139 1.261910 0.050520 -0.019321 130841.000000 0 0 1
25.062953 -27.202004 12.374867 39.003051 -0.826302 1.247937 0.057218 -0.023170 23335.000000 0 0 1
26.074253 -27.916904 11.712967 39.955147 -0.819514 1.273273 0.062675 -0.029985 -370453.000000 0 0 1
27.185953 -28.549704 12.634567 41.397994 -0.809861 1.260650 0.085381 -0.031174 319838.000000 0 0 1
28.233053 -27.762204 13.133367 41.717270 -0.776990 1.250531 0.071226 -0.025737 -14430.100000 0 0 1
29.187853 -27.519104 12.113267 41.904213 -0.755979 1.277541 0.042795 -0.027533 -1065730.000000 0 0 1
30.523353 -26.949604 12.587667 42.619310 -0.723297 1.270973 0.068994 -0.039457 -504716.000000 0 0 1
30.526453 -25.600904 12.942067 41.889948 -0.697866 1.256703 0.083826 -0.037805 -348856.000000 0 0 1
29.833053 -25.138804 14.047267 41.464397 -0.700211 1.225177 0.086274 -0.033770 -382596.000000 0 0 1
30.685853 -25.015104 15.356167 42.463971 -0.683941 1.200783 0.092262 -0.024388 251175.000000 0 0 1
31.048453 -26.306704 15.881967 43.683933 -0.702912 1.198704 0.103378 -0.022861 84033.300000 0 0 1
31.944753 -26.226404 16.974767 44.681475 -0.687411 1.181101 0.121307 -0.007488 143536.000000 0 0 1
32.198653 -27.596904 17.691467 45.949215 -0.708592 1.175564 0.095516 0.007331 -573303.000000 0 0 1
31.140853 -28.127904 18.409667 45.824093 -0.734607 1.157373 0.085952 -0.002902 -674192.000000 0 0 1
31.557953 -29.163604 19.277667 47.096164 -0.745987 1.149082 0.105661 -0.012137 -91180.700000 0 0 1
30.422753 -29.923604 19.972867 47.115617 -0.777127 1.133036 0.105730 -0.010152 -572756.000000 0 0 1
29.500353 -29.167904 20.753067 46.386714 -0.779732 1.106949 0.100273 -0.004422 1024740.000000 0 0 1
28.321353 -29.874504 21.165467 46.287817 -0.812080 1.095887 0.102643 -0.012010 1098970.000000 0 0 1
27.231553 -30.135704 20.090267 45.313761 -0.835979 1.111454 0.137514 -0.018379 -590031.000000 0 0 1
27.581753 -31.216904 19.265667 45.895687 -0.847143 1.137604 0.138900 -0.015586 103996.000000 0 0 1
27.012753 -31.289404 17.936467 45.060320 -0.858620 1.161401 0.147798 -0.017994 157301.000000 0 0 1
27.631453 -30.329804 16.840767 44.350937 -0.831919 1.181307 0.141226 -0.014018 225424.000000 0 0 1
28.919853 -30.726304 16.401067 45.270947 -0.815675 1.200076 0.134397 -0.021598 548229.000000 0 0 1
29.614253 -29.667804 15.683867 44.756745 -0.786301 1.212772 0.133956 -0.033024 -322440.000000 0 0 1
30.934153 -30.126304 15.097567 45.743333 -0.772169 1.234440 0.131204 -0.036099 -725338.000000 0 0 1
30.767753 -31.032904 14.028267 45.896493 -0.789689 1.260175 0.162640 -0.030766 184605.000000 0 0 1
30.800553 -32.398404 14.489467 46.992290 -0.810676 1.257352 0.164345 -0.039394 135638.000000 0 0 1
29.738453 -33.387904 13.868167 46.812966 -0.843146 1.270036 0.174910 -0.042405 244162.000000 0 0 1
29.852053 -33.570904 12.479567 46.624996 -0.843967 1.299834 0.168436 -0.037166 350442.000000 0 0 1
29.239853 32.638261 12.147367 45.472889 0.840264 1.300378 0.146757 -0.039673 -87194.500000 0 0 1
29.498053 32.253861 10.666267 44.991287 0.829996 1.331443 0.132564 -0.040249 -954312.000000 0 0 1
30.841753 32.034761 10.420867 45.673123 0.804370 1.340607 0.143085 -0.043947 -548704.000000 0 0 1
31.013853 31.287661 9.221067 45.008942 0.789793 1.364464 0.140523 -0.044448 201122.000000 0 0 1
32.506253 30.920261 8.965067 45.750316 0.760398 1.373564 0.128320 -0.037555 357424.000000 0 0 1
32.954953 30.043561 9.973367 45.695870 0.739217 1.350770 0.116392 -0.033646 -87962.800000 0 0 1
34.262553 29.560861 9.754667 46.291690 0.711864 1.358483 0.134280 -0.028700 -165001.000000 0 0 1
34.764053 28.633261 10.884967 46.334496 0.688994 1.333659 0.130645 -0.043477 3940.140000 0 0 1
34.166653 27.342261 10.937367 45.106379 0.674900 1.325876 0.131032 -0.046534 153628.000000 0 0 1
34.207253 26.868361 12.293167 45.201404 0.665811 1.295363 0.138077 -0.044845 83283.300000 0 0 1
34.209053 25.353861 12.401767 44.349537 0.637810 1.287380 0.130428 -0.041330 660781.000000 0 0 1
35.353553 24.841861 11.680567 44.759663 0.612515 1.306778 0.126206 -0.035928 621750.000000 0 0 1
35.545553 23.446061 11.857267 44.201797 0.583099 1.299217 0.127828 -0.032656 544669.000000 0 0 1
34.483553 22.452461 11.172767 42.638705 0.577153 1.305668 0.110138 -0.032492 691954.000000 0 0 1
33.226853 22.508461 11.776267 41.825053 0.595409 1.285377 0.136197 -0.042016 -243110.000000 0 0 1
32.112653 22.398061 10.897867 40.640609 0.609035 1.299322 0.151667 -0.040936 1009710.000000 0 0 1
30.782053 22.165161 11.698467 39.694877 0.624068 1.271645 0.168773 -0.038711 629037.000000 0 0 1
30.198753 23.212461 12.417067 40.062034 0.655335 1.255660 0.171351 -0.030678 -325930.000000 0 0 1
28.977953 22.950861 13.037567 39.197474 0.669851 1.231724 0.203700 -0.030939 -346587.000000 0 0 1
25.876453 9.288961 25.386906 37.421526 0.344647 0.825208 0.105519 -0.013772 -133923.000000 0 0 1
25.579953 8.161261 26.171406 37.495102 0.308840 0.798202 0.096714 -0.022149 512421.000000 0 0 1
24.154853 8.041961 26.118566 36.473409 0.321391 0.772599 0.091266 -0.018130 539740.000000 0 0 1
23.737853 6.934761 27.118046 36.701022 0.284230 0.739374 0.111220 -0.025270 -124383.000000 0 0 1
23.863953 7.263361 28.494826 37.870830 0.295457 0.719066 0.099454 -0.024431 -311725.000000 0 0 1
25.112553 6.864261 28.972566 38.950840 0.266822 0.732023 0.086963 -0.026951 -492925.000000 0 0 1
25.211153 6.779261 30.460006 40.116986 0.262686 0.708591 0.094646 -0.036000 -188103.000000 0 0 1
25.391253 8.085461 31.043356 40.911861 0.308283 0.709349 0.112534 -0.042121 126289.000000 0 0 1
25.076253 8.070661 32.435853 41.785627 0.311375 0.682110 0.124734 -0.036782 -97773.500000 0 0 1
25.289953 9.462161 33.130382 42.740337 0.358023 0.683836 0.162751 -0.047287 -905734.000000 0 0 1
26.558453 9.951561 32.918840 43.451525 0.358511 0.711169 0.121588 -0.050762 -1134650.000000 0 0 1
27.043053 10.611661 -33.387333 44.256616 0.373936 2.425541 0.133365 -0.048734 597024.000000 0 0 1
28.401453 11.347861 -33.677683 45.492887 0.380120 2.404290 0.103875 -0.048990 372785.000000 0 0 1
28.412153 12.526761 32.948142 45.274167 0.415256 0.755765 0.108629 -0.050368 138659.000000 0 0 1
27.776353 13.661361 33.508176 45.617501 0.457094 0.745798 0.107162 -0.043984 -304484.000000 0 0 1
27.372053 14.797661 32.549585 45.029718 0.495607 0.762883 0.093992 -0.039228 64295.400000 0 0 1
28.515353 15.537761 32.098427 45.660228 0.498912 0.791211 0.079332 -0.023630 683056.000000 0 0 1
28.472053 16.869061 32.611947 46.462481 0.534870 0.792737 0.085422 -0.032864 -178395.000000 0 0 1
28.803453 17.165161 -33.393903 47.322663 0.537430 2.354156 0.075013 -0.028255 -353815.000000 0 0 1
27.829353 16.752561 -32.443653 45.909823 0.541870 2.355594 0.062188 -0.022516 337317.000000 0 0 1
28.436753 16.157461 -31.326843 45.288890 0.516701 2.334653 0.085931 -0.031186 -104477.000000 0 0 1
27.426653 15.566561 -30.326843 43.752217 0.516233 2.336646 0.080707 -0.023625 -163598.000000 0 0 1
26.685853 14.470461 -30.736893 43.200528 0.496875 2.362418 0.095156 -0.018027 -188546.000000 0 0 1
25.844753 14.049061 -29.687583 41.793300 0.497912 2.360782 0.122867 -0.018429 -26903.500000 0 0 1
25.059553 12.759961 -30.025403 41.137849 0.470969 2.388932 0.108982 -0.019302 -309476.000000 0 0 1
24.189753 12.917261 -31.110773 41.471436 0.490474 2.419121 0.120056 -0.032261 291723.000000 0 0 1
23.362453 11.880561 -31.606653 41.060108 0.470450 2.449270 0.116576 -0.036429 620595.000000 0 0 1
22.347253 11.127561 -30.691923 39.562817 0.461997 2.458742 0.114110 -0.039440 231754.000000 0 0 1
21.333353 11.986961 -30.162603 38.840466 0.511925 2.460010 0.137372 -0.028699 478705.000000 0 0 1
20.472553 11.238061 -29.287913 37.459328 0.502024 2.468438 0.121372 -0.024048 -11533.600000 0 0 1
19.261753 12.019961 -28.790513 36.665900 0.557903 2.473835 0.097608 -0.013814 -401071.000000 0 0 1
18.346553 12.390861 -29.790843 37.116354 0.594009 2.502494 0.076522 -0.012425 -262165.000000 0 0 1
17.177953 12.853461 -29.139433 36.185634 0.642382 2.506938 0.076843 -0.022385 -962651.000000 0 0 1
16.046753 13.111261 -30.096623 36.540528 0.685061 2.538615 0.091348 -0.032570 -613737.000000 0 0 1
15.455953 11.985961 -30.719603 36.417630 0.659617 2.574631 0.085479 -0.025016 -444546.000000 0 0 1
14.207653 11.667661 -30.160683 35.322210 0.687549 2.594178 0.081029 -0.026906 -266523.000000 0 0 1
13.210453 11.285761 -31.281693 35.783080 0.706988 2.634589 0.091406 -0.029117 150371.000000 0 0 1
12.763653 12.374061 -32.119053 36.710513 0.769901 2.636083 0.113097 -0.032392 1460300.000000 0 0 1
11.536053 12.061161 -32.868003 36.862688 0.807647 2.671736 0.112442 -0.028642 1431210.000000 0 0 1
11.138053 12.900461 33.407166 37.503558 0.858583 0.471752 0.135001 -0.032890 -143297.000000 0 0 1
12.071653 12.870261 32.350773 36.850250 0.817406 0.499341 0.115655 -0.022051 -45230.600000 0 0 1
11.511253 13.266061 31.106426 35.722641 0.856103 0.514018 0.136624 -0.038383 -311920.000000 0 0 1
12.432253 13.174661 29.875506 34.938209 0.814383 0.545061 0.129691 -0.028617 -482645.000000 0 0 1
12.709353 11.847961 29.537906 34.269370 0.750336 0.531726 0.103928 -0.027214 -92258.600000 0 0 1
12.858953 11.732561 28.128206 33.078719 0.739626 0.554162 0.122347 -0.021954 -118621.000000 0 0 1
13.388153 10.356561 27.615486 32.390061 0.658411 0.549872 0.124575 -0.023405 -74311.700000 0 0 1
12.504653 9.294361 27.822546 31.888016 0.639181 0.510484 0.125950 -0.030454 73069.200000 0 0 1
13.205253 8.102361 27.596886 31.648303 0.550339 0.511551 0.097959 -0.031124 -507222.000000 0 0 1
12.304153 6.921161 27.843836 31.218165 0.512394 0.469242 0.101940 -0.035156 -834109.000000 0 0 1
11.166553 6.993661 27.046716 30.085346 0.559537 0.453316 0.119330 -0.037672 -219734.000000 0 0 1
10.231053 5.906161 27.295096 29.741880 0.523545 0.408462 0.114671 -0.050113 532067.000000 0 0 1
10.582653 4.474661 26.786806 29.147009 0.400031 0.405198 0.124740 -0.046707 -699942.000000 0 0 1
11.547953 3.899361 27.596756 30.168546 0.325646 0.415901 0.110209 -0.043992 -336736.000000 0 0 1
11.969353 2.694061 26.978536 29.637219 0.221391 0.426806 0.116748 -0.045553 -123165.000000 0 0 1
12.480453 1.663161 28.004716 30.704917 0.132481 0.422517 0.087989 -0.036163 -41016.200000 0 0 1
11.417653 1.365361 28.873866 31.079368 0.119018 0.378996 0.068104 -0.025577 -69861.500000 0 0 1
11.562853 0.111461 29.562656 31.743702 0.009639 0.372853 0.059018 -0.020368 -408862.000000 0 0 1
10.460153 -0.061439 30.585176 32.324473 -0.005874 0.329536 0.070826 -0.012929 -652816.000000 0 0 1
10.527353 0.949461 31.517938 33.243150 0.089947 0.323580 0.042950 -0.017316 26644.800000 0 0 1
9.422953 1.057561 32.401627 33.760567 0.111765 0.284694 0.056556 -0.015604 35360.300000 0 0 1
9.643353 2.355861 33.315482 34.762993 0.239606 0.289592 0.055563 -0.027573 -18071.300000 0 0 1
9.491153 3.654661 32.623970 34.172532 0.367561 0.302200 0.045978 -0.027297 413714.000000 0 0 1
10.548853 3.901461 31.701098 33.637172 0.354245 0.340935 0.053990 -0.024986 -21097.600000 0 0 1
10.386053 5.252361 30.984616 33.098396 0.468208 0.359319 0.062512 -0.026940 87443.100000 0 0 1
10.604253 6.340661 31.867741 34.179044 0.538900 0.369864 0.070834 -0.029420 29563.300000 0 0 1
10.947653 7.556461 31.222506 33.938121 0.604143 0.402758 0.078908 -0.034045 -109449.000000 0 0 1
11.246553 8.696461 32.223663 35.220418 0.658219 0.415501 0.116584 -0.039473 -178031.000000 0 0 1
10.132753 9.226761 32.885856 35.627031 0.738634 0.394837 0.124912 -0.041051 -366357.000000 0 0 1
9.607853 8.407661 -33.519783 35.868865 0.718877 2.777674 0.109499 -0.036367 597832.000000 0 0 1
8.101453 8.743761 -33.218943 35.292847 0.823510 2.797071 0.104347 -0.042227 723562.000000 0 0 1
7.521953 7.846961 -32.324853 34.103529 0.806542 2.817201 0.114188 -0.037183 1236000.000000 0 0 1
6.127353 8.156061 -32.012853 33.598937 0.926487 2.833104 0.109873 -0.038428 1740560.000000 0 0 1
5.665153 7.617461 -30.653253 32.089587 0.931335 2.841266 0.103819 -0.028120 -452965.000000 0 0 1
6.337453 8.299861 -29.627873 31.414358 0.918672 2.802725 0.114167 -0.036709 165208.000000 0 0 1
5.925653 7.831461 -28.348313 30.001200 0.923055 2.808104 0.113517 -0.032948 -956546.000000 0 0 1
4.516653 8.065561 -27.882113 29.374575 1.060314 2.821455 0.102762 -0.028986 -1149820.000000 0 0 1
3.576053 7.296661 -28.580333 29.713042 1.115105 2.864586 0.102775 -0.021829 -1236180.000000 0 0 1
2.306253 7.373861 -28.037813 29.082840 1.267674 2.872706 0.130861 -0.019760 764.011000 0 0 1
1.197653 6.599661 -28.864713 29.633791 1.391278 2.913269 0.138224 -0.034585 485927.000000 0 0 1
0.868053 7.192661 -30.105283 30.964753 1.450691 2.905433 0.109881 -0.031893 -52089.200000 0 0 1
0.347753 6.281661 -31.060813 31.691549 1.515493 2.941749 0.137466 -0.031786 -311157.000000 0 0 1
0.236853 6.894461 -32.517873 33.241567 1.536456 2.932546 0.150892 -0.038197 706881.000000 0 0 1
1.492753 7.392661 -33.008703 33.859330 1.371552 2.916967 0.112594 -0.024311 441879.000000 0 0 1
2.411953 6.489761 -33.573673 34.280111 1.214961 2.938226 0.116005 -0.035392 -89693.000000 0 0 1
2.201353 6.118361 32.436233 33.081559 1.225423 0.197843 0.121649 -0.035201 71419.400000 0 0 1
1.038953 5.320361 32.226806 32.679545 1.377945 0.166649 0.132606 -0.037390 -5900.250000 0 0 1
0.691353 5.227761 30.847656 31.295133 1.439313 0.169309 0.160606 -0.037848 -6411.490000 0 0 1
1.565353 4.355161 29.951696 30.307125 1.225750 0.153301 0.159984 -0.040190 -104066.000000 0 0 1
1.155453 4.521661 28.574466 28.953076 1.320613 0.161897 0.133079 -0.035633 124882.000000 0 0 1
1.913153 3.729661 27.686706 28.002218 1.096838 0.150257 0.105696 -0.025323 -77287.600000 0 0 1
1.790153 4.147861 26.252106 26.637989 1.163362 0.170419 0.102458 -0.023868 -39729.200000 0 0 1
2.426153 5.365161 25.996236 26.654746 1.146110 0.222744 0.102294 -0.022184 -215817.000000 0 0 1
2.337453 5.798361 24.631106 25.412124 1.187601 0.248567 0.080803 -0.022324 -517128.000000 0 0 1
3.113653 7.127561 24.415976 25.624926 1.158934 0.308397 0.091307 -0.028057 1349740.000000 0 0 1
4.544953 6.996161 24.516656 25.897283 0.994678 0.328001 0.092813 -0.020338 673009.000000 0 0 1
5.212053 6.525661 23.372796 24.820100 0.896848 0.343183 0.093460 -0.033149 -192627.000000 0 1 0
6.740653 6.356361 23.621536 25.373543 0.756065 0.373786 0.122191 -0.035018 528955.000000 0 0 1
7.231953 5.290061 24.496106 26.083426 0.631545 0.350665 0.134310 -0.040018 206897.000000 0 0 1
6.709653 3.956661 24.430316 25.642054 0.532809 0.308651 0.141813 -0.035177 -602861.000000 0 0 1
6.803753 3.244861 23.042286 24.243909 0.445016 0.316161 0.154408 -0.042814 923520.000000 0 1 0
5.848553 3.747061 22.057836 23.125617 0.569797 0.305067 0.093493 -0.027884 1409240.000000 0 1 0
4.517253 3.217961 22.200636 22.882943 0.618981 0.244813 0.092049 -0.023907 1111580.000000 0 1 0
3.437553 3.649261 21.148636 21.734734 0.815263 0.232758 0.034192 -0.014406 555194.000000 0 1 0
3.170453 5.048161 21.184536 22.007278 1.010013 0.274300 0.029931 -0.022172 -302003.000000 0 1 0
2.134453 5.441561 20.322436 21.146344 1.196989 0.280064 0.017878 -0.020182 -186194.000000 0 1 0
1.731053 6.918861 20.538536 21.741634 1.325636 0.334228 0.019894 -0.008866 129292.000000 0 1 0
2.555953 7.832661 19.836836 21.479840 1.255371 0.393665 0.014058 -0.011310 -383234.000000 0 1 0
2.161653 9.160361 20.073436 22.170426 1.339057 0.438440 0.029256 -0.010767 -20052.800000 0 1 0
3.137553 10.205761 19.555736 22.280678 1.272537 0.499756 0.043903 -0.019810 -770036.000000 0 1 0
3.039253 10.541661 18.125536 21.187230 1.290100 0.544293 0.024703 -0.018138 315763.000000 0 1 0
4.023753 11.481361 17.639036 21.427735 1.233712 0.603795 0.027697 -0.017901 860449.000000 0 1 0
5.519653 11.084661 17.726836 21.623529 1.108787 0.609745 0.035312 -0.023290 -108591.000000 0 1 0
5.849153 9.859161 17.087536 20.576675 1.035339 0.590913 0.036747 -0.020093 -649636.000000 0 1 0
7.138953 9.461161 17.415636 21.066148 0.924387 0.597558 0.046286 -0.020479 -524527.000000 0 1 0
7.036153 8.027361 17.803436 20.758331 0.851105 0.540109 0.054681 -0.024139 -214479.000000 0 1 0
6.812453 7.881161 19.217636 21.859546 0.858003 0.496738 0.069769 -0.023529 -76884.300000 0 1 0
6.756253 6.512261 19.669636 21.793372 0.767011 0.445138 0.073441 -0.036206 757077.000000 0 1 0
8.177653 5.944961 20.063436 22.466821 0.628602 0.466773 0.127841 -0.038283 1284800.000000 0 1 0
9.094953 6.079061 18.933136 21.866339 0.589201 0.523934 0.118207 -0.040072 -261033.000000 0 1 0
10.377353 5.590161 19.217536 22.544468 0.494117 0.550185 0.148143 -0.043156 -228489.000000 0 1 0
10.600953 4.073661 19.078736 22.202997 0.366876 0.536923 0.169696 -0.042643 -457292.000000 0 1 0
10.149553 3.356561 20.230936 22.881667 0.319388 0.486115 0.192492 -0.046636 29302.400000 0 1 0
10.522953 2.017161 20.094936 22.772965 0.189394 0.489851 0.198908 -0.051708 80166.600000 0 1 0
9.759153 0.999661 21.009136 23.186724 0.102077 0.436860 0.210476 -0.050533 244600.000000 0 1 0
10.171653 1.174161 22.349356 24.583224 0.114926 0.429605 0.196552 -0.046361 154241.000000 0 1 0
9.613553 0.197661 23.152276 25.069650 0.020558 0.393642 0.205408 -0.049347 -312635.000000 0 0 1
10.262253 0.398461 24.525526 26.588983 0.038808 0.396562 0.187602 -0.043898 -52398.200000 0 0 1
11.579453 -0.067939 24.726126 27.303290 -0.005867 0.437981 0.188435 -0.042944 -35408.800000 0 0 1
11.713753 -1.488039 24.869956 27.530728 -0.126357 0.443273 0.175785 -0.036018 -117388.000000 0 0 1
13.155153 -2.046039 24.962366 28.290706 -0.154295 0.489959 0.146463 -0.028738 128605.000000 0 0 1
13.159153 -3.454839 24.980666 28.445261 -0.256748 0.498708 0.145848 -0.024122 -230024.000000 0 0 1
14.423953 -4.030539 24.859496 29.022236 -0.272484 0.542216 0.131764 -0.017888 -442518.000000 0 0 1
14.268453 -5.584839 24.749566 29.108765 -0.373081 0.554347 0.126493 -0.016031 -25843.800000 0 0 1
13.690153 -6.135539 23.584926 27.951992 -0.421332 0.566535 0.149439 -0.019531 226739.000000 0 0 1
13.628353 -7.558539 23.707616 28.371016 -0.506382 0.581521 0.149287 -0.031915 -36990.500000 0 0 1
13.150253 -8.265539 22.462836 27.309839 -0.561145 0.604972 0.154793 -0.030757 -3727.490000 0 0 1
12.820053 -9.558939 22.877866 27.912789 -0.640695 0.610050 0.169127 -0.027421 -418085.000000 0 0 1
12.838053 -10.428139 21.725336 27.304796 -0.682186 0.650700 0.151051 -0.029734 181891.000000 0 0 1
12.259353 -11.904239 21.816336 27.712004 -0.770703 0.664456 0.179818 -0.031272 -418874.000000 0 0 1
10.914353 -11.775839 22.126636 27.338279 -0.823347 0.627727 0.183308 -0.022005 -651884.000000 0 0 1
10.172053 -13.042039 22.131436 27.629077 -0.908405 0.641800 0.157278 -0.026369 1848700.000000 0 0 1
8.647553 -12.840039 22.534756 27.339751 -0.978089 0.601922 0.118381 -0.024166 1524440.000000 0 0 1
7.897053 -12.016939 21.640636 25.982444 -0.989404 0.586479 0.104117 -0.019292 128934.000000 0 0 1
6.573353 -11.787639 22.092736 25.889117 -1.062100 0.548400 0.057570 -0.017563 277137.000000 0 0 1
5.890953 -10.705839 21.238636 24.503020 -1.067757 0.522095 0.035850 -0.018256 76266.900000 0 1 0
6.233253 -9.397639 21.663436 24.422807 -0.985143 0.479953 0.069087 -0.020286 311361.000000 0 1 0
5.474353 -8.435039 20.890836 23.185026 -0.995123 0.448615 0.043319 -0.016131 533606.000000 0 1 0
5.715053 -6.967539 21.425736 23.243721 -0.883835 0.398134 0.073855 -0.025354 468546.000000 0 1 0
4.597053 -6.119139 21.185836 22.525905 -0.926490 0.346668 0.050989 -0.024671 102143.000000 0 1 0
4.815553 -4.829739 21.704936 22.751267 -0.786869 0.304457 0.092163 -0.040516 -93161.600000 0 1 0
-8.881847 -15.616439 -20.664733 27.382322 1.053672 2.425954 0.071245 -0.025864 -224064.000000 0 0 1
-8.220647 -15.015439 -19.596533 26.020502 1.069890 2.423586 0.064764 -0.016579 61446.700000 0 0 1
-7.309247 -14.015139 -20.033733 25.518614 1.090077 2.473595 0.072483 -0.023935 123743.000000 0 0 1
-6.535447 -13.376039 -18.851933 24.021363 1.116315 2.473168 0.053129 -0.018344 565205.000000 0 1 0
-5.593147 -14.286639 -18.215733 23.816051 1.197643 2.441607 0.061763 -0.017322 446778.000000 0 1 0
-5.124047 -13.641139 -17.035233 22.417308 1.211472 2.433978 0.073446 -0.018883 -74688.000000 0 1 0
-3.969047 -14.429539 -16.364633 22.175801 1.302371 2.400824 0.057615 -0.015747 -316153.000000 0 1 0
-2.781947 -14.279539 -17.100833 22.451792 1.378386 2.436681 0.055180 -0.024875 -196369.000000 0 1 0
-1.797747 -15.131939 -16.483533 22.448036 1.452546 2.395427 0.061609 -0.022008 48480.300000 0 1 0
-0.416347 -15.093239 -17.158233 22.855725 1.543218 2.419947 0.077617 -0.021310 -51310.200000 0 1 0
-0.184947 -15.980739 -18.235333 24.247589 1.559224 2.421959 0.134550 -0.043130 -213383.000000 0 1 0
-0.355747 -17.430139 -17.958433 25.028816 1.550389 2.371018 0.121920 -0.033938 -378785.000000 0 0 1
-0.823647 -18.177439 -19.166533 26.428274 1.525516 2.382162 0.136251 -0.060183 38514.500000 0 0 1
-2.190947 -18.108039 -19.521133 26.716586 1.450389 2.390106 0.132651 -0.052633 -23451.600000 0 0 1
-2.367547 -18.688039 -20.785833 28.051719 1.444780 2.405329 0.131882 -0.051251 644306.000000 0 0 1
-3.759047 -18.389239 -21.464833 28.513744 1.369159 2.423085 0.138706 -0.055314 882106.000000 0 0 1
-4.004247 -17.078339 -22.015633 28.149454 1.340493 2.468822 0.131424 -0.060493 -161351.000000 0 0 1
-4.440147 -16.106739 -21.065933 26.887087 1.301807 2.471069 0.084172 -0.046240 -736865.000000 0 0 1
-3.367347 -15.210039 -20.492233 25.741327 1.352921 2.491591 0.100299 -0.029310 -512994.000000 0 0 1
-2.962047 -14.236139 -21.444533 25.909638 1.365658 2.545733 0.086501 -0.020898 -206390.000000 0 0 1
-1.894247 -13.487439 -20.937133 24.977244 1.431264 2.564859 0.086844 -0.009328 -311194.000000 0 1 0
-1.413547 -12.417239 -21.902633 25.217281 1.457447 2.623078 0.078534 -0.014359 78858.600000 0 0 1
-2.321847 -11.359739 -22.173733 25.022172 1.369181 2.659795 0.060313 -0.022340 245800.000000 0 0 1
-2.060547 -10.849039 -23.463533 25.932313 1.383103 2.701704 0.070279 -0.014433 3181.430000 0 0 1
-2.902247 -9.582439 -23.822833 25.841315 1.276707 2.743725 0.036241 -0.011823 -52273.400000 0 0 1
-4.281447 -9.802739 -23.987633 26.264634 1.159007 2.722124 0.081858 -0.024486 -320704.000000 0 0 1
-4.888847 -8.563239 -24.003533 25.949942 1.052040 2.751815 0.041294 -0.023908 -177161.000000 0 0 1
-6.385247 -8.713739 -23.567133 25.925092 0.938408 2.711788 0.070314 -0.039993 707057.000000 0 0 1
-7.335047 -8.917139 -24.612033 27.185850 0.882439 2.702941 0.107144 -0.041083 508894.000000 0 0 1
-7.818047 -7.745739 -25.266603 27.559382 0.780752 2.730803 0.095564 -0.043503 62605.300000 0 0 1
-8.670747 -8.133839 -26.527903 29.070102 0.753459 2.720271 0.064463 -0.040992 209075.000000 0 0 1
-9.642347 -7.186639 -26.866243 29.434973 0.640499 2.720718 0.099059 -0.054069 36233.000000 0 0 1
-10.526647 -7.733339 -27.861393 30.771286 0.633601 2.703199 0.084814 -0.040759 97042.000000 0 0 1
-11.578947 -6.676939 -28.295053 31.293187 0.523069 2.700281 0.073919 -0.044070 48289.500000 0 0 1
-11.038547 -5.650939 -29.074013 31.608240 0.473144 2.738428 0.044527 -0.037601 -143026.000000 0 0 1
-11.976447 -5.236539 -30.031953 32.753241 0.412189 2.731078 0.090771 -0.034055 108943.000000 0 0 1
-11.388047 -4.075839 -30.892123 33.175644 0.343700 2.768402 0.065207 -0.023481 281498.000000 0 0 1
-10.222647 -4.462139 -31.600973 33.511710 0.411567 2.802278 0.044634 -0.020462 48652.600000 0 0 1
-9.865547 -3.398639 -32.437093 34.074107 0.331763 2.830361 0.045281 -0.020582 -311518.000000 0 0 1
-8.863647 -3.661739 -33.552403 34.896079 0.391764 2.863187 0.040569 -0.019174 38858.400000 0 0 1
-7.497047 -3.639039 -33.169623 34.200471 0.451897 2.895446 0.042406 -0.019927 59434.600000 0 0 1
-6.679147 -3.967739 33.177489 34.074914 0.536032 0.230014 0.051823 -0.022792 926462.000000 0 0 1
-5.144347 -3.802339 33.504266 34.109499 0.636508 0.188661 0.095521 -0.036757 843485.000000 0 0 1
-4.711747 -2.477639 33.456976 33.877847 0.484108 0.157791 0.124643 -0.048468 -429994.000000 0 0 1
-3.348447 -2.241039 33.674786 33.914975 0.589808 0.119084 0.131594 -0.044264 -412211.000000 0 0 1
-3.047447 -0.815939 -33.359683 33.508523 0.261609 3.047304 0.144297 -0.049414 -223074.000000 0 0 1
-3.438747 -0.633839 -32.028713 32.219019 0.182277 3.032850 0.146331 -0.048443 66183.000000 0 0 1
-3.819247 0.705961 -31.775223 32.011714 -0.182780 3.019964 0.173716 -0.053137 -777602.000000 0 0 1
-4.361547 0.869561 -30.410613 30.734095 -0.196790 2.996378 0.170646 -0.063805 -292359.000000 0 0 1
-5.467747 0.036461 -30.195053 30.686134 -0.006668 2.962449 0.138092 -0.061791 201466.000000 0 0 1
-6.694447 0.795861 -30.162333 30.906558 -0.118328 2.921697 0.128635 -0.062422 -174479.000000 0 0 1
-7.907047 -0.092239 -30.273383 31.289097 0.011665 2.886095 0.102285 -0.059342 -788580.000000 0 0 1
-8.327447 -0.665139 -29.072373 30.248829 0.079704 2.861781 0.096024 -0.050915 507583.000000 0 0 1
-9.436247 -1.565139 -29.298223 30.820096 0.164368 2.826026 0.062233 -0.040449 631511.000000 0 0 1
-9.742747 -2.424139 -28.056313 29.798562 0.243863 2.797947 0.066107 -0.042459 -198114.000000 0 0 1
-10.416747 -1.704539 -27.053963 29.040162 0.162197 2.769601 0.078457 -0.039658 16245.600000 0 0 1
-10.543347 -2.462339 -25.890993 28.063656 0.229432 2.745514 0.077040 -0.036507 -131221.000000 0 0 1
-11.322147 -1.745339 -24.779533 27.299496 0.152949 2.708547 0.092242 -0.039748 -193242.000000 0 0 1
-10.693947 -0.598839 -24.351433 26.602846 0.055939 2.727221 0.079597 -0.034894 29966.300000 0 0 1
-11.450847 -0.038639 -23.283433 25.946901 0.003374 2.684522 0.097294 -0.041763 381201.000000 0 0 1
-10.745447 1.265761 -22.796333 25.233699 -0.117255 2.698449 0.112771 -0.040427 309504.000000 0 0 1
-10.866147 2.432161 -23.673533 26.161512 -0.220200 2.701939 0.106129 -0.038696 -124709.000000 0 0 1
-10.000747 3.431061 -23.201033 25.496570 -0.330497 2.714000 0.116285 -0.031613 -393177.000000 0 0 1
-10.139247 4.770461 -23.997433 26.484683 -0.439766 2.704739 0.156808 -0.044005 -214671.000000 0 0 1
-11.391847 5.398961 -24.064933 27.166965 -0.442577 2.659046 0.165582 -0.042299 -178751.000000 0 0 1
-12.224447 4.916961 -25.111133 28.358114 -0.382422 2.658367 0.140890 -0.042441 6832.060000 0 0 1
-13.675647 5.437261 -25.117483 29.111425 -0.378425 2.611589 0.127914 -0.028969 123290.000000 0 0 1
-13.784747 6.755461 -25.512883 29.775203 -0.455670 2.599925 0.129727 -0.034725 -436967.000000 0 0 1
-15.139847 6.996161 -25.758033 30.686113 -0.432873 2.566981 0.133737 -0.037775 -254114.000000 0 0 1
-15.500947 8.511161 -25.922743 31.380055 -0.502132 2.542930 0.147173 -0.031699 -89832.700000 0 0 1
-15.319547 9.097161 -24.664033 30.426327 -0.535868 2.515998 0.205825 -0.045586 124429.000000 0 0 1
-15.327247 10.490661 -24.808033 30.990595 -0.600210 2.498929 0.183674 -0.036345 45593.300000 0 0 1
-14.973447 11.278961 -23.507233 30.066744 -0.645587 2.468400 0.187260 -0.045765 -91441.600000 0 0 1
-15.911847 11.048261 -22.522833 29.707389 -0.606918 2.431277 0.210043 -0.045418 -438985.000000 0 0 1
-15.521947 11.767261 -21.414033 28.947540 -0.648668 2.403500 0.192140 -0.043499 167723.000000 0 0 1
-16.527847 11.676661 -20.227233 28.612150 -0.615064 2.355967 0.190459 -0.046115 142335.000000 0 0 1
-17.785847 12.253561 -20.455033 29.747176 -0.603271 2.329015 0.171572 -0.038784 -70672.200000 0 0 1
-18.358647 12.889061 -19.319733 29.604390 -0.612114 2.281803 0.155824 -0.031258 -470254.000000 0 0 1
-19.857047 13.098761 -19.505133 30.762478 -0.583131 2.257583 0.126350 -0.031620 -543224.000000 0 0 1
-20.221047 14.309661 -20.171533 31.946015 -0.615850 2.254187 0.101465 -0.027313 319449.000000 0 0 1
-21.625547 14.508861 -20.165633 32.936668 -0.590937 2.229706 0.080155 -0.021970 351756.000000 0 0 1
-21.952347 15.866161 -20.872933 34.195321 -0.625835 2.227366 0.083000 -0.021388 10958.900000 0 0 1
-21.600447 15.769461 -22.240533 34.783567 -0.630612 2.264511 0.095594 -0.026525 191052.000000 0 0 1
-22.081547 16.927461 -22.913033 36.043595 -0.654034 2.259716 0.083659 -0.019694 57872.400000 0 0 1
-22.034847 16.798861 -24.464633 36.962880 -0.651375 2.294107 0.076183 -0.015719 -156060.000000 0 0 1
-20.779947 16.977161 -25.052633 36.710552 -0.685020 2.321888 0.071730 -0.020995 -167544.000000 0 0 1
-20.916447 16.635061 -26.413423 37.575151 -0.671875 2.350332 0.065381 -0.019922 -138389.000000 0 0 1
-19.881747 17.309961 -27.348633 37.985081 -0.716359 2.374575 0.030430 -0.004267 63462.600000 0 0 1
-20.265547 18.644661 -27.618453 39.001215 -0.743765 2.357662 0.027358 -0.016344 833247.000000 0 0 1
-19.554647 19.568261 -26.739593 38.474757 -0.785746 2.339203 0.008094 -0.028456 -142355.000000 0 0 1
-20.186147 21.022361 -26.809823 39.600339 -0.805688 2.314489 0.053055 -0.015877 1514130.000000 0 0 1
-21.403747 21.294861 -26.076883 39.894803 -0.782848 2.283182 0.083582 -0.014822 1617320.000000 0 0 1
-22.622147 20.587061 -26.382223 40.393197 -0.738335 2.282514 0.117966 -0.028734 433671.000000 0 0 1
-23.628647 20.939061 -25.248713 40.425917 -0.725123 2.245374 0.127525 -0.015099 -88218.100000 0 0 1
-23.330347 20.377461 -23.964133 39.164087 -0.717941 2.229245 0.083849 -0.011628 171827.000000 0 0 1
-24.193747 20.928861 -22.982033 39.389446 -0.713168 2.193775 0.079015 -0.018623 154455.000000 0 0 1
-23.905447 20.225161 -21.619233 38.051528 -0.702195 2.175061 0.082898 -0.007621 -254527.000000 0 0 1
-22.770847 20.767561 -21.013733 37.301207 -0.739419 2.169234 0.073518 -0.010694 -197639.000000 0 0 1
-21.967147 19.850761 -20.251233 35.870890 -0.734832 2.170695 0.074301 -0.013463 188138.000000 0 0 1
-22.544647 19.357861 -18.931933 35.233592 -0.709492 2.138060 0.094554 -0.023173 -388346.000000 0 0 1
-23.568247 18.321561 -19.081033 35.429193 -0.660797 2.139533 0.126432 -0.029370 668103.000000 0 0 1
-24.254647 18.144361 -17.876433 35.172043 -0.642270 2.103956 0.117460 -0.027245 291497.000000 0 0 1
-25.297897 19.260961 -17.512833 36.299691 -0.650736 2.074247 0.077814 -0.021417 -166857.000000 0 0 1
-26.526207 19.171661 -18.227033 37.462208 -0.625828 2.078927 0.080031 -0.012838 668025.000000 0 0 1
-27.486147 20.119761 -17.790233 38.428967 -0.631879 2.052103 0.064701 -0.008694 920448.000000 0 0 1
-28.990857 19.921961 -18.248533 39.627810 -0.602071 2.049353 0.034878 0.005566 1488710.000000 0 0 1
-29.712757 18.750561 -17.811933 39.391578 -0.562946 2.040000 0.039065 -0.002824 352801.000000 0 0 1
-29.887647 18.608561 -16.410133 38.843822 -0.556884 2.006959 0.046684 -0.020446 -677590.000000 0 0 1
-30.818367 17.395261 -16.111533 38.883780 -0.513865 1.998026 0.042270 -0.024899 -34587.300000 0 0 1
-30.245177 16.140861 -16.214633 37.923772 -0.490217 2.012587 0.066972 -0.034790 302120.000000 0 0 1
-31.154867 15.221461 -15.575833 38.012172 -0.454465 1.992986 0.066715 -0.028058 782963.000000 0 0 1
-30.409747 13.905361 -15.255533 36.753817 -0.428880 1.998820 0.124897 -0.019774 159894.000000 0 0 1
-29.621937 13.836961 -14.051233 35.585921 -0.436998 1.976705 0.140318 -0.021046 218086.000000 0 0 1
-30.361487 13.875861 -12.842133 35.767021 -0.428678 1.938046 0.096634 -0.009276 252728.000000 0 0 1
-29.573617 14.601761 -11.702033 34.996398 -0.458629 1.911742 0.123395 -0.035197 296384.000000 0 0 1
-29.680357 16.031261 -11.793933 35.735442 -0.495234 1.907137 0.108811 -0.019880 593647.000000 0 0 1
-30.648137 16.798861 -11.002533 36.641040 -0.501399 1.875781 0.071448 -0.019279 543634.000000 0 0 1
-30.671037 18.305761 -11.274533 37.455687 -0.538094 1.876548 0.141392 -0.011314 -181481.000000 0 0 1
-29.605537 18.924661 -10.583833 36.696705 -0.568765 1.863366 0.073341 -0.031826 -9708.420000 0 0 1
-29.405877 20.252061 -10.893833 37.329977 -0.603107 1.866931 0.032722 -0.028262 245938.000000 0 0 1
-27.970627 20.710861 -10.484633 36.348635 -0.637361 1.863400 0.092305 -0.023533 565489.000000 0 0 1
-27.886007 22.108561 -10.352733 37.062069 -0.670347 1.853898 0.105613 -0.023638 415505.000000 0 0 1
-26.528137 22.540361 -10.223833 36.281355 -0.704307 1.856459 0.101012 -0.013724 301028.000000 0 0 1
-26.464627 23.945261 -9.465733 36.923599 -0.735462 1.830051 0.141738 -0.006811 -129813.000000 0 0 1
-26.926727 23.898061 -8.103833 36.903090 -0.725878 1.792198 0.108205 -0.016021 1075460.000000 0 0 1
-28.358367 24.072361 -8.040733 38.056917 -0.703833 1.783682 0.145210 -0.016319 944264.000000 0 0 1
-28.868577 23.911461 -6.565533 38.055998 -0.691753 1.744187 0.133280 -0.016848 -44305.800000 0 0 1
-28.642607 22.593161 -6.046633 36.978530 -0.667872 1.735051 0.137901 -0.026114 -11257.900000 0 0 1
-29.310797 22.255561 -4.864333 37.122696 -0.649424 1.702208 0.133977 -0.029312 -766061.000000 0 0 1
-29.372927 20.742861 -4.731533 36.268754 -0.614868 1.701627 0.143457 -0.029553 -281654.000000 0 0 1
-28.173847 20.042061 -4.516833 34.869065 -0.618317 1.700698 0.145375 -0.025996 -45691.000000 0 0 1
-27.251927 19.993161 -5.610133 34.261752 -0.632950 1.735280 0.121187 -0.018932 -567633.000000 0 0 1
-27.621557 19.242761 -6.903433 34.364104 -0.608479 1.773064 0.147483 -0.032056 -720577.000000 0 0 1
-27.562747 17.858061 -6.668033 33.512357 -0.574902 1.771106 0.137111 -0.032670 391503.000000 0 0 1
-27.949387 17.135961 -7.879133 33.717802 -0.550001 1.806656 0.097052 -0.028530 -25867.600000 0 0 1
-27.761417 15.596861 -7.792033 32.782223 -0.511871 1.810784 0.159235 -0.025443 297757.000000 0 0 1
-28.657067 14.767261 -7.045933 32.999162 -0.475820 1.785971 0.143219 -0.021832 98560.000000 0 0 1
-28.551717 13.491961 -7.599333 32.480509 -0.441443 1.806951 0.164699 -0.033264 224401.000000 0 0 1
-29.252467 12.290161 -6.864133 32.463383 -0.397748 1.783847 0.174954 -0.029643 -185371.000000 0 0 1
-30.655717 12.321061 -7.008633 33.774287 -0.382158 1.779829 0.191624 -0.027490 -339008.000000 0 0 1
-31.253107 11.268961 -6.305333 33.815727 -0.346061 1.758356 0.217966 -0.036828 242747.000000 0 0 1
-31.734037 10.006461 -7.114933 34.026470 -0.305454 1.781451 0.171857 -0.023934 132140.000000 0 0 1
-30.628487 9.272261 -7.599233 32.891145 -0.293962 1.803945 0.194747 -0.022447 110478.000000 0 0 1
-31.019537 8.010061 -8.060033 33.035389 -0.252706 1.817266 0.165338 -0.018564 241791.000000 0 0 1
-29.804997 7.049561 -8.319333 31.737131 -0.232255 1.836028 0.239732 -0.024246 203057.000000 0 0 1
-29.095127 7.505461 -9.470133 31.504631 -0.252459 1.876113 0.250498 -0.041818 165929.000000 0 0 1
-28.355497 6.432561 -10.060233 30.767196 -0.223079 1.903902 0.255768 -0.042390 -593787.000000 0 0 1
-27.368227 6.940561 -11.112433 30.342667 -0.248363 1.945752 0.197621 -0.037087 -141201.000000 0 0 1
-26.187307 7.483761 -10.557233 29.210219 -0.278359 1.940589 0.242516 -0.055491 -342209.000000 0 0 1
-25.192617 7.754061 -11.457433 28.741367 -0.298589 1.980829 0.191273 -0.029136 -585068.000000 0 0 1
-33.836677 25.160161 -33.125723 53.621525 -0.639377 2.236699 0.096126 -0.018993 -41630.400000 0 0 1
-33.844367 26.566061 -33.281163 54.395152 -0.665495 2.229182 0.088958 -0.027495 324136.000000 0 0 1
-33.956801 26.856461 32.792277 54.310840 -0.669168 0.922551 0.083255 -0.027547 -190318.000000 0 0 1
-34.065648 28.383961 32.635567 55.056315 -0.694668 0.936306 0.101640 -0.037339 -26127.000000 0 0 1
-34.313472 28.768561 31.284926 54.624089 -0.697724 0.960962 0.131157 -0.035980 192151.000000 0 0 1
-34.503521 30.145861 31.177466 55.419314 -0.718095 0.973300 0.132463 -0.037360 -49821.300000 0 0 1
-34.396681 30.767761 29.741726 54.903161 -0.729767 0.998323 0.134900 -0.039219 368572.000000 0 0 1
-33.062557 30.581861 29.269286 53.712885 -0.746440 0.994501 0.122851 -0.041635 542654.000000 0 0 1
-32.923727 31.242361 28.031726 53.346365 -0.759201 1.017533 0.146198 -0.043482 -235002.000000 0 0 1
-31.483297 31.462061 27.543786 52.342329 -0.785061 1.016643 0.145133 -0.036846 -486769.000000 0 0 1
-30.845137 30.241261 27.183256 51.038082 -0.775513 1.009118 0.162257 -0.040831 -38096.400000 0 0 1
-29.650897 30.342261 26.460526 49.999880 -0.796922 1.013125 0.139114 -0.028262 -381035.000000 0 0 1
-29.789497 30.907461 25.023086 49.687424 -0.803815 1.043024 0.141194 -0.028223 -598188.000000 0 0 1
-29.941607 32.296061 25.057406 50.669606 -0.823210 1.053508 0.126804 -0.033556 -758015.000000 0 0 1
-30.790517 32.690861 24.063616 50.949053 -0.815325 1.078890 0.135379 -0.032048 -637415.000000 0 0 1
-31.173027 -33.276204 24.350666 51.691569 0.818020 1.080286 0.126013 -0.025638 -29138.500000 0 0 1
-31.908587 -33.168904 25.559586 52.646240 0.804762 1.063865 0.125720 -0.034904 110390.000000 0 0 1
-31.783587 -31.888004 26.134466 52.058155 0.787038 1.044858 0.096546 -0.032779 -162282.000000 0 0 1
-32.131767 -32.035204 27.655576 53.136952 0.783893 1.023409 0.110991 -0.040160 338903.000000 0 0 1
-33.493167 -32.407104 27.827096 54.280382 0.768919 1.032522 0.076979 -0.042116 283956.000000 0 0 1
-33.583447 -32.674204 29.227196 55.223913 0.771676 1.013081 0.072797 -0.037729 -437934.000000 0 0 1
-35.039102 -32.911704 29.600156 56.454302 0.754100 1.018879 0.077108 -0.041656 -535865.000000 0 0 1
-35.329464 -33.040104 30.967856 57.435421 0.751926 1.001337 0.076388 -0.045962 -1039270.000000 0 0 1
-36.692197 -33.109904 31.169036 58.430231 0.734122 1.008134 0.066454 -0.051896 -1297190.000000 0 0 1
-37.040107 -33.527804 32.623115 59.668675 0.735667 0.992333 0.065690 -0.036181 -272892.000000 0 0 1
-36.924697 32.558261 32.911168 59.216709 -0.722639 0.981501 0.047858 -0.030639 -3550.290000 0 0 1
-37.579307 32.165561 -33.363733 59.665453 -0.707931 2.164193 0.050366 -0.031148 -24722.300000 0 0 1
-37.247777 30.780061 -32.872693 58.441621 -0.690609 2.168188 0.048242 -0.033266 1375880.000000 0 0 1
-36.025847 30.752861 -32.067253 57.200602 -0.706600 2.165919 0.056855 -0.033804 1043910.000000 0 0 1
-35.566243 29.430261 -31.772243 56.040819 -0.691272 2.173593 0.057374 -0.031202 391662.000000 0 0 1
-34.643125 29.348361 -30.522433 54.709152 -0.702845 2.162654 0.058826 -0.025989 265829.000000 0 0 1
-35.293747 29.340061 -29.267683 54.434227 -0.693543 2.138468 0.070874 -0.032413 -265382.000000 0 0 1
-35.768474 30.617161 -28.846483 55.216971 -0.707957 2.120484 0.055184 -0.025467 423647.000000 0 0 1
-36.841417 30.619961 -27.718763 55.346200 -0.693436 2.095348 0.051196 -0.021996 342446.000000 0 0 1
-36.319277 30.392061 -26.377383 54.208243 -0.696782 2.078983 0.049213 -0.032932 400837.000000 0 0 1
-37.344277 30.166061 -25.424883 54.323208 -0.679469 2.057856 0.068510 -0.031848 -373601.000000 0 0 1
-36.718677 30.097161 -24.046733 53.219787 -0.686620 2.039621 0.076617 -0.037581 -90743.800000 0 0 1
-36.498797 31.378161 -23.514833 53.569568 -0.710101 2.025236 0.070841 -0.025531 69076.900000 0 0 1
-36.047987 31.389461 -22.181633 52.695166 -0.716429 2.005280 0.077925 -0.032454 -818479.000000 0 0 1
-37.116367 31.027161 -21.149333 52.797763 -0.696276 1.982938 0.061418 -0.025080 -179131.000000 0 0 1
37.905008 31.927461 -21.027233 53.835833 0.700008 1.972059 0.067818 -0.022251 427943.000000 0 0 1
-37.944867 33.271961 -20.548433 54.489214 -0.719877 1.957470 0.067118 -0.020741 -547419.000000 0 0 1
-37.860977 33.326061 -19.029833 53.909317 -0.721780 1.931569 0.074958 -0.022967 71111.500000 0 0 1
-36.735087 32.527661 -18.724533 52.517840 -0.724727 1.935355 0.073007 -0.028237 22287.000000 0 0 1
-36.578297 32.094061 -17.348333 51.662029 -0.720192 1.913255 0.075981 -0.021386 440342.000000 0 0 1
-35.285539 31.240061 -17.116433 50.139635 -0.724662 1.919176 0.084561 -0.030259 431160.000000 0 0 1
-35.086815 30.958461 -15.777633 49.380610 -0.722971 1.896009 0.078369 -0.017091 -32665.100000 0 0 1
-33.902727 30.229161 -15.526733 48.002881 -0.728179 1.900174 0.087005 -0.017832 -201836.000000 0 0 1
-33.685037 29.939361 -14.034733 47.201915 -0.726594 1.872695 0.116984 -0.019782 -354901.000000 0 0 1
-34.574939 29.091161 -13.379333 47.124608 -0.699477 1.858670 0.098931 -0.015424 -262376.000000 0 0 1
-34.285532 29.013361 -11.996033 46.488468 -0.702300 1.831793 0.122452 -0.012523 111309.000000 0 0 1
-35.042653 27.839561 -11.287733 46.156707 -0.671346 1.817854 0.108046 -0.018842 103210.000000 0 0 1
-34.629497 27.507161 -9.983633 45.337831 -0.671273 1.792821 0.126103 -0.016915 134207.000000 0 0 1
-35.161490 26.240961 -9.549633 44.901157 -0.641128 1.785114 0.130480 -0.018376 -124761.000000 0 0 1
-34.356413 25.660061 -8.361633 43.688886 -0.641500 1.763375 0.138569 -0.021170 50562.500000 0 0 1
-34.169367 26.375961 -7.105033 43.746068 -0.657382 1.733934 0.134310 -0.020551 300793.000000 0 0 1
-33.371217 27.559761 -7.191533 43.873645 -0.690308 1.735454 0.129272 -0.017497 -231065.000000 0 0 1
-32.987707 28.030461 -5.780633 43.672775 -0.704334 1.703548 0.148041 -0.014755 -466026.000000 0 0 1
-32.106857 27.172461 -5.141433 42.374842 -0.702350 1.692428 0.156680 -0.019290 -238916.000000 0 0 1
-31.805997 27.493161 -3.835233 42.216163 -0.712796 1.661769 0.156996 -0.024891 -62338.000000 0 0 1
-30.909477 26.439761 -3.113133 40.793974 -0.707617 1.647184 0.164102 -0.028089 -945.591000 0 0 1
-31.536637 25.168261 -2.998833 40.459781 -0.673559 1.644983 0.139493 -0.031803 -136850.000000 0 0 1
-30.827687 24.271461 -2.182633 39.296489 -0.666965 1.626368 0.155015 -0.033167 179838.000000 0 0 1
-31.745587 23.103261 -1.737033 39.300894 -0.629117 1.615009 0.146780 -0.036900 -43995.100000 0 0 1
-32.060167 22.264561 -2.841533 39.136164 -0.606999 1.643467 0.138038 -0.030915 -149551.000000 0 0 1
-32.950637 21.253661 -2.441533 39.286431 -0.572863 1.632983 0.110793 -0.029423 -85499.700000 0 0 1
-33.512787 20.373461 -3.536833 39.378852 -0.546231 1.660733 0.164218 -0.023189 185172.000000 0 0 1
-32.524377 19.449261 -3.980133 38.104466 -0.538940 1.675440 0.152365 -0.032988 210317.000000 0 0 1
-32.998487 18.598361 -4.973833 38.203903 -0.513234 1.701359 0.159463 -0.029851 -506929.000000 0 0 1
-31.992707 17.563861 -5.420433 36.897204 -0.502072 1.718236 0.133992 -0.029814 -363852.000000 0 0 1
-31.775257 16.538261 -4.455233 36.097509 -0.479894 1.694534 0.174179 -0.027637 -516506.000000 0 0 1
-30.977617 15.560661 -4.946433 35.017341 -0.465501 1.712527 0.178451 -0.035378 -1030510.000000 0 0 1
-30.945517 14.330561 -3.965033 34.332368 -0.433686 1.686544 0.195934 -0.033199 -1014590.000000 0 0 1
-32.125957 13.709761 -3.605433 35.114581 -0.403352 1.673654 0.181373 -0.026226 -722075.000000 0 0 1
-31.976837 12.530261 -2.823033 34.460050 -0.373465 1.652810 0.171188 -0.038487 566947.000000 0 0 1
-33.350197 11.855361 -2.426933 35.477813 -0.341549 1.639257 0.169318 -0.036197 415628.000000 0 0 1
-33.915687 11.089261 -3.431233 35.847160 -0.316009 1.666661 0.200206 -0.019719 184210.000000 0 0 1
-34.764958 10.093761 -2.837633 36.311685 -0.282574 1.649023 0.195673 -0.012708 209929.000000 0 0 1
-35.650954 9.341961 -3.859733 37.056178 -0.256278 1.675145 0.138780 -0.010180 -29254.100000 0 0 1
-34.905699 8.614361 -4.803233 36.272388 -0.241955 1.703608 0.128044 -0.013109 68142.800000 0 0 1
-35.730458 8.132161 -5.805533 37.101239 -0.223785 1.727920 0.136806 -0.012731 -240757.000000 0 0 1
-34.901422 7.298561 -6.816133 36.302037 -0.206149 1.759679 0.157029 -0.020254 -110906.000000 0 0 1
-34.466954 6.107261 -6.240633 35.555802 -0.175372 1.747227 0.146785 -0.025403 54659.000000 0 0 1
-33.789067 5.344461 -7.194233 34.957421 -0.156872 1.778077 0.155114 -0.020830 -376846.000000 0 0 1
-32.678737 4.457361 -6.618133 33.638781 -0.135563 1.768829 0.182492 -0.033052 -2351.480000 0 0 1
-31.426117 5.083061 -6.408333 32.473144 -0.160358 1.769443 0.189443 -0.041157 589642.000000 0 0 1
-30.508367 4.186161 -5.770333 31.330196 -0.136362 1.756032 0.199345 -0.045528 714809.000000 0 0 1
-29.043537 4.641361 -5.484233 29.918992 -0.158467 1.755141 0.241799 -0.050128 647367.000000 0 0 1
-28.322727 4.747161 -6.699433 29.488893 -0.166066 1.799982 0.247330 -0.037137 384616.000000 0 0 1
-26.911647 4.683861 -6.510633 28.081376 -0.172320 1.804774 0.260477 -0.051276 793888.000000 0 0 1
-26.140387 4.798661 -7.911433 27.729727 -0.181551 1.860121 0.240988 -0.044460 -83031.400000 0 0 1
-26.343887 3.889561 -8.937033 28.089137 -0.146587 1.894592 0.230713 -0.055275 722562.000000 0 0 1
-25.271607 4.020461 -9.876833 27.429365 -0.157768 1.939153 0.218728 -0.054051 374888.000000 0 0 1
-25.628397 3.238861 -11.135733 28.130224 -0.125711 1.977804 0.183144 -0.053814 111661.000000 0 0 1
-26.594877 3.893161 -11.936933 29.409770 -0.145355 1.988741 0.190492 -0.031490 366302.000000 0 0 1
-27.052457 3.130561 -13.051433 30.198936 -0.115209 2.017707 0.176351 -0.032530 6792.950000 0 0 1
-27.885837 4.094361 -13.939033 31.443288 -0.145784 2.030081 0.160045 -0.029216 -193535.000000 0 0 1
-27.174307 5.200761 -14.530933 31.251222 -0.189099 2.054399 0.127129 -0.017858 306337.000000 0 0 1
-27.964547 6.233061 -15.064233 32.369709 -0.219307 2.054861 0.159153 -0.029510 156578.000000 0 0 1
-28.835027 6.008761 -16.384433 33.704802 -0.205444 2.078436 0.094561 0.001498 -93213.200000 0 0 1
-29.946377 5.239861 -16.110933 34.406450 -0.173221 2.058109 0.129753 -0.017328 -677238.000000 0 0 1
-30.623767 4.844861 -17.311633 35.510286 -0.156905 2.080032 0.134332 0.001155 98632.700000 0 0 1
-31.970847 4.119961 -17.202833 36.538290 -0.128160 2.061012 0.140599 -0.013896 -159509.000000 0 0 1
-31.962707 2.876461 -16.523933 36.096108 -0.089753 2.046288 0.147752 -0.025072 111513.000000 0 0 1
-31.866927 1.757361 -17.375533 36.338664 -0.055091 2.069350 0.168111 -0.018416 96961.400000 0 0 1
-32.177747 0.569261 -16.431033 36.134614 -0.017689 2.042851 0.159745 -0.018278 -111456.000000 0 0 1
-31.998217 -0.675639 -17.077333 36.276407 0.021112 2.060944 0.177382 -0.012821 273383.000000 0 0 1
-32.442557 -1.707839 -16.278933 36.337858 0.052593 2.035310 0.175336 -0.023049 -300499.000000 0 0 1
-32.209327 -3.105439 -16.867633 36.491116 0.096117 2.051315 0.170162 -0.020723 -280853.000000 0 0 1
-33.114097 -3.348239 -17.901833 37.791927 0.100770 2.064278 0.194061 -0.023213 94885.400000 0 0 1
-32.880027 -4.595339 -18.564633 38.037599 0.138861 2.080662 0.196171 -0.029359 466728.000000 0 0 1
-34.002006 -4.965639 -19.608533 39.563728 0.145014 2.089344 0.218238 -0.033360 388898.000000 0 0 1
-33.693117 -6.148439 -20.278133 39.802413 0.180497 2.105365 0.221835 -0.034081 297086.000000 0 0 1
-34.509935 -6.296639 -21.414833 41.099615 0.180473 2.118874 0.216625 -0.035387 5335.260000 0 0 1
-33.835257 -7.372739 -22.289033 41.182313 0.214547 2.142693 0.214456 -0.035311 -657813.000000 0 0 1
-32.696567 -6.904939 -22.899633 40.510948 0.208124 2.171557 0.202300 -0.032784 -779068.000000 0 0 1
-32.072607 -7.948739 -23.642333 40.629970 0.242941 2.191852 0.181462 -0.025523 880773.000000 0 0 1
-30.690237 -7.456939 -24.249133 39.818551 0.238355 2.225584 0.158363 -0.012717 625121.000000 0 0 1
-30.719477 -6.416339 -25.268453 40.290823 0.205908 2.248687 0.136082 -0.016514 -228750.000000 0 0 1
-30.944967 -6.851339 -26.597123 41.375582 0.217889 2.268973 0.101492 -0.013275 1132600.000000 0 0 1
-32.439177 -6.742039 -27.139263 42.828669 0.204919 2.257085 0.125485 -0.006977 1244270.000000 0 0 1
-33.323287 -7.634839 -26.504883 43.257844 0.225227 2.230292 0.130260 -0.009920 -149603.000000 0 0 1
-34.516100 -7.785939 -27.250283 44.660496 0.221861 2.227065 0.126563 -0.011096 174825.000000 0 0 1
-35.534527 -8.798039 -26.743403 45.335612 0.242710 2.201729 0.124104 -0.016103 -519362.000000 0 0 1
-35.228252 -10.081939 -27.224513 45.649199 0.278739 2.209787 0.118410 -0.013874 61346.400000 0 0 1
-36.081467 -11.134539 -26.801663 46.305284 0.299323 2.188057 0.104025 -0.009499 1085970.000000 0 0 1
-37.438437 -11.197239 -27.639273 47.863808 0.290616 2.186406 0.093031 -0.000179 390047.000000 0 0 1
37.824258 -10.144439 -27.428303 47.811044 -0.262033 2.181790 0.094389 -0.012774 -543751.000000 0 0 1
37.121138 -9.879339 -28.625123 47.905928 -0.260109 2.211211 0.085974 -0.019857 306735.000000 0 0 1
35.918038 -8.891839 -28.423403 46.658977 -0.242680 2.225814 0.088559 -0.016787 695885.000000 0 0 1
34.718418 -9.487839 -27.917353 45.549602 -0.266766 2.230522 0.083010 -0.019877 5832.940000 0 0 1
33.908118 -8.425939 -27.548293 44.493431 -0.243560 2.238461 0.053402 -0.011940 -535535.000000 0 0 1
32.631748 -8.791239 -26.782633 43.121066 -0.263160 2.240946 0.055933 -0.005660 -176970.000000 0 0 1
32.863668 -9.143039 -25.446863 42.557710 -0.271349 2.211722 0.034095 0.012691 569622.000000 0 0 1
31.672188 -9.593839 -24.776933 41.340847 -0.294125 2.213464 0.021261 0.010530 364000.000000 0 0 1
31.775988 -9.689739 -23.230533 40.537170 -0.295982 2.181040 0.007733 0.007891 -172195.000000 0 0 1
32.528818 -10.781039 -22.788433 41.154192 -0.320037 2.157637 -0.001132 0.005089 97391.500000 0 0 1
32.715588 -10.639039 -21.387233 40.508179 -0.314411 2.127009 0.009590 -0.001703 -13967.200000 0 0 1
33.520358 -11.701339 -20.587433 41.041176 -0.335856 2.096277 0.049811 -0.008823 -387368.000000 0 0 1
34.891708 -11.627239 -20.849433 42.276741 -0.321665 2.086521 0.065676 -0.015330 -55142.800000 0 0 1
35.609698 -12.629639 -20.064933 42.780368 -0.340828 2.058979 0.107346 -0.020151 747879.000000 0 0 1
37.112928 -12.709039 -20.492333 44.258613 -0.329926 2.052188 0.134164 -0.034446 93453.400000 0 0 1
37.883298 -11.526839 -20.367433 44.529144 -0.295372 2.045861 0.174366 -0.039373 363042.000000 0 0 1
37.826598 -10.529639 -21.394433 44.715172 -0.271493 2.069697 0.180505 -0.027960 -455811.000000 0 0 1
-37.579747 -10.884439 -22.766833 45.266291 0.281921 2.097809 0.143329 -0.026447 222849.000000 0 0 1
37.974098 -11.978039 -23.483733 46.227603 -0.305549 2.103660 0.133568 -0.018482 527610.000000 0 0 1
36.669528 -11.780839 -24.004533 45.383478 -0.310855 2.128132 0.150297 -0.017722 -57477.600000 0 0 1
36.182318 -12.947839 -24.933633 45.809308 -0.343651 2.146341 0.116248 -0.021240 -62774.600000 0 0 1
36.038018 -14.228939 -24.321233 45.746299 -0.376043 2.131349 0.115408 -0.027567 487870.000000 0 0 1
35.046818 -14.364639 -23.320033 44.479729 -0.388986 2.122671 0.080385 -0.016354 -226226.000000 0 0 1
-30.196137 8.792161 -19.253033 36.875304 -0.283335 2.120122 0.087187 -0.011136 291652.000000 0 0 1
-29.086987 7.918661 -19.146333 35.711904 -0.265799 2.136646 0.090591 -0.002125 -137320.000000 0 0 1
-28.454527 7.757661 -20.390433 35.855421 -0.266165 2.175702 0.084614 -0.020332 -282310.000000 0 0 1
-27.301127 6.745561 -20.245633 34.651693 -0.242229 2.194766 0.060244 -0.018286 -264078.000000 0 0 1
-26.311237 7.262061 -19.375333 33.472709 -0.269301 2.188101 0.063345 -0.008010 -1281670.000000 0 0 1
-25.255247 6.406861 -19.315933 32.434251 -0.248443 2.208736 0.076849 -0.015438 -509840.000000 0 0 1
-24.003347 7.108261 -18.698633 31.246231 -0.287908 2.212334 0.073157 -0.014751 611355.000000 0 0 1
-23.345547 8.025661 -19.575733 31.506113 -0.331120 2.241237 0.074500 -0.008695 -154517.000000 0 0 1
-22.136247 8.563461 -19.106233 30.469566 -0.369121 2.248569 0.086536 -0.007535 -37046.000000 0 0 1
-21.550647 9.631261 -20.030733 30.958389 -0.420284 2.274467 0.083924 -0.011564 13724.400000 0 0 1
-21.117347 9.165161 -21.314333 31.372652 -0.409478 2.317730 0.131121 -0.017923 -19143.100000 0 0 1
-20.757647 10.178061 -22.271533 32.101309 -0.455880 2.337533 0.111021 -0.018136 296998.000000 0 0 1
-19.772947 9.608761 -23.350933 32.071230 -0.452349 2.386336 0.164285 -0.021112 474520.000000 0 0 1
-20.285747 8.572261 -24.226133 32.739895 -0.399815 2.403804 0.151458 -0.015460 374122.000000 0 0 1
-19.229847 8.098861 -25.071333 32.618251 -0.398614 2.447491 0.134831 -0.013419 360829.000000 0 0 1
-19.621747 6.864061 -25.912133 33.219978 -0.336514 2.465489 0.114741 -0.007089 16300.100000 0 0 1
-19.826047 5.729361 -25.072333 32.473368 -0.281318 2.452918 0.120740 -0.007737 232036.000000 0 0 1
-20.461047 4.717761 -25.858243 33.310065 -0.226612 2.459554 0.106079 -0.008011 -272057.000000 0 0 1
-20.638247 3.435161 -25.013633 32.610112 -0.164934 2.445029 0.109817 -0.003465 298075.000000 0 0 1
-19.512947 2.604561 -24.784933 31.651726 -0.132694 2.470353 0.105382 -0.002567 265830.000000 0 0 1
-18.465947 3.052661 -23.947033 30.393590 -0.163831 2.478184 0.115624 -0.009791 192436.000000 0 0 1
-17.528647 1.854061 -23.523133 29.394367 -0.105381 2.498525 0.120887 -0.012680 135875.000000 0 0 1
-17.943047 0.992161 -22.460433 28.764707 -0.055239 2.466794 0.117034 -0.010154 87996.900000 0 0 1
-19.268547 0.469861 -22.483733 29.614455 -0.024380 2.432902 0.114654 -0.002777 333975.000000 0 0 1
-19.637947 -0.417339 -21.266233 28.949539 0.021248 2.395868 0.144487 -0.016161 -252547.000000 0 0 1
-18.853847 -1.535239 -21.044533 28.296588 0.081249 2.409404 0.142725 -0.024495 -232692.000000 0 0 1
-19.381547 -2.307739 -20.010133 27.953094 0.118511 2.368632 0.155856 -0.024166 -84308.900000 0 0 1
-18.722347 -3.707539 -19.840733 27.530471 0.195498 2.375583 0.118103 -0.034783 -7513.280000 0 0 1
-18.979347 -4.372739 -21.053933 28.681084 0.226443 2.395093 0.119702 -0.034644 326323.000000 0 0 1
-19.350247 -5.689839 -20.807233 28.978393 0.285984 2.371758 0.123282 -0.030637 -208360.000000 0 0 1
-19.429447 -6.531439 -22.102333 30.144257 0.324294 2.393840 0.093738 -0.035566 -781454.000000 0 0 1
-18.166747 -6.914539 -22.506733 29.738772 0.363684 2.429222 0.100728 -0.031043 -828130.000000 0 0 1
-18.127247 -7.614339 -23.749333 30.831900 0.397670 2.450083 0.113853 -0.037547 669728.000000 0 0 1
-16.675247 -7.698639 -24.308933 30.467312 0.432525 2.494549 0.131439 -0.044502 -67412.000000 0 0 1
-16.789347 -8.375939 -25.561353 31.708379 0.462755 2.508394 0.144226 -0.065783 744828.000000 0 0 1
-15.555847 -8.402939 -26.299293 31.689850 0.495272 2.549718 0.156299 -0.063490 544894.000000 0 0 1
-14.449947 -9.329339 -25.760873 30.975153 0.573298 2.552891 0.132971 -0.057098 -482519.000000 0 0 1
-13.669047 -8.781639 -24.690133 29.556094 0.571047 2.559593 0.132401 -0.046149 -120633.000000 0 0 1
-12.826947 -9.761039 -24.174933 29.055737 0.650491 2.553534 0.110472 -0.040111 -176379.000000 0 0 1
-11.939147 -9.227139 -23.016733 27.521870 0.657964 2.561309 0.115018 -0.040768 274956.000000 0 0 1
-12.607947 -8.908039 -21.792133 26.706002 0.615103 2.525256 0.114123 -0.039260 428665.000000 0 0 1
-11.726247 -8.112439 -20.999133 25.382674 0.605214 2.545084 0.111654 -0.034149 -21113.700000 0 0 1
-12.328047 -7.723039 -19.611833 24.418232 0.559649 2.503383 0.096714 -0.031659 386743.000000 0 1 0
-13.381547 -6.780839 -19.521233 24.619588 0.469018 2.486374 0.089692 -0.025634 1490220.000000 0 1 0
-14.716247 -7.305639 -19.714533 25.663264 0.460790 2.446822 0.098919 -0.040074 1480710.000000 0 0 1
-15.948147 -6.396339 -19.382233 25.902268 0.381429 2.416267 0.113951 -0.031063 296359.000000 0 0 1
-15.970547 -5.857539 -18.084533 24.827796 0.351537 2.386778 0.099443 -0.032052 410357.000000 0 1 0
-15.309747 -4.609039 -18.035833 24.102342 0.292422 2.416295 0.107517 -0.031973 -700669.000000 0 1 0
-14.899947 -4.174839 -16.603533 22.696145 0.273186 2.391400 0.112097 -0.025935 -302378.000000 0 1 0
-15.957047 -3.837739 -15.743533 22.742349 0.236022 2.335407 0.154465 -0.039758 -37721.300000 0 1 0
-16.616647 -2.595839 -16.065533 23.258390 0.154967 2.333310 0.109520 -0.038828 14079.100000 0 1 0
-17.788747 -2.556439 -15.057233 23.445579 0.142734 2.268188 0.105484 -0.046750 -229651.000000 0 1 0
-17.363147 -2.210539 -13.756533 22.262245 0.126631 2.236905 0.115747 -0.042511 956195.000000 0 1 0
-18.493847 -1.782039 -13.002033 22.677101 0.096062 2.181391 0.133341 -0.041771 341691.000000 0 1 0
-18.095147 -0.643339 -12.067833 21.759615 0.035538 2.158676 0.120900 -0.042792 59941.000000 0 1 0
-17.756347 0.454361 -12.907133 21.956511 -0.025583 2.199195 0.142339 -0.046889 -229938.000000 0 1 0
-16.803647 1.259061 -12.325733 20.877535 -0.074788 2.202329 0.110449 -0.034977 -1198450.000000 0 1 0
-16.297647 2.317561 -13.287633 21.155273 -0.141255 2.249906 0.113099 -0.032223 459233.000000 0 1 0
-15.527247 1.857161 -14.428133 21.277112 -0.119041 2.315979 0.110459 -0.036402 448601.000000 0 1 0
-14.288047 1.238161 -14.203833 20.184900 -0.086441 2.351368 0.107109 -0.028989 -654835.000000 0 1 0
-13.761447 0.405661 -15.371833 20.635776 -0.029470 2.411199 0.097798 -0.027743 -23961.400000 0 1 0
-13.241447 1.143661 -16.427933 21.131040 -0.086156 2.461368 0.109397 -0.036949 189969.000000 0 1 0
-12.786047 0.279661 -17.472333 21.652797 -0.021869 2.509735 0.064947 -0.022632 20938.800000 0 1 0
-12.159947 1.040061 -18.660533 22.297119 -0.085324 2.562397 0.085189 -0.025095 -73247.000000 0 1 0
-10.859047 1.531761 -18.453333 21.466036 -0.140134 2.605386 0.053842 -0.014111 -475681.000000 0 1 0
-10.454247 2.289061 -19.563633 22.299480 -0.215558 2.641032 0.060636 -0.012390 -472900.000000 0 1 0
-9.024247 2.769261 -19.459333 21.628025 -0.297747 2.689941 0.041384 -0.006219 -1546080.000000 0 1 0
-8.052747 1.764361 -19.529633 21.198261 -0.215692 2.742167 0.040293 -0.005941 283375.000000 0 1 0
-6.683147 2.123661 -19.301733 20.536097 -0.307673 2.793113 0.037075 -0.000130 1233780.000000 0 1 0
-6.091547 3.184661 -20.279033 21.412337 -0.481721 2.814786 0.043352 0.000310 -1274600.000000 0 1 0
-5.966647 2.746161 -21.616233 22.592118 -0.431347 2.846600 0.044019 0.000818 149954.000000 0 1 0
-5.788947 3.781361 -22.578433 23.613476 -0.578624 2.844417 0.065251 0.001897 -183983.000000 0 1 0
-5.251247 3.208661 -23.921733 24.700616 -0.548489 2.889799 0.091473 -0.019875 -468323.000000 0 1 0
-4.032047 2.571361 -23.747233 24.223963 -0.567702 2.942872 0.093682 -0.026401 -505818.000000 0 1 0
-3.469547 2.052961 -24.973633 25.296932 -0.534301 2.981546 0.128007 -0.035947 436124.000000 0 0 1
-2.044247 1.440761 -24.910533 25.035762 -0.613932 3.041531 0.110047 -0.027825 -252550.000000 0 0 1
-1.100947 2.444861 -24.612333 24.757956 -1.147684 3.033079 0.106547 -0.030532 675066.000000 0 1 0
0.284153 2.078561 -24.678533 24.767542 1.434932 3.056788 0.101187 -0.029445 832208.000000 0 1 0
0.894753 1.034261 -23.757933 23.797262 0.857594 3.084093 0.084088 -0.027040 -1126530.000000 0 1 0
0.612353 -0.312039 -24.028133 24.037960 -0.471277 3.112998 0.088268 -0.028413 -52521.400000 0 1 0
1.185453 -1.212339 -23.101133 23.163277 -0.796610 3.068325 0.074467 -0.021666 -103314.000000 0 1 0
0.356853 -2.524839 -22.831533 22.973486 -1.430389 3.030369 0.091656 -0.035894 196383.000000 0 1 0
-0.832547 -2.299239 -22.107933 22.242759 1.223386 3.031432 0.074309 -0.023784 -559531.000000 0 1 0
-1.953847 -2.676639 -22.888433 23.127090 0.940243 2.997807 0.080620 -0.025227 -331871.000000 0 1 0
-3.011247 -1.584339 -22.785633 23.038290 0.484341 2.993357 0.099234 -0.027112 -940883.000000 0 1 0
-3.782547 -1.600239 -21.599733 21.986744 0.400225 2.953689 0.073784 -0.021967 416318.000000 0 1 0
-4.704447 -0.487339 -21.605833 22.117444 0.103223 2.926087 0.039469 -0.018131 937724.000000 0 1 0
-6.112047 -0.714839 -22.222633 23.058914 0.116427 2.871450 0.062468 -0.012912 -173800.000000 0 1 0
-6.879347 -1.723239 -21.639433 22.771913 0.245444 2.824893 0.073369 -0.003584 50048.200000 0 1 0
-8.225647 -1.600539 -22.070533 23.607868 0.192178 2.778718 0.065933 0.005182 208510.000000 0 1 0
-9.133247 -2.770039 -21.710333 23.715562 0.294474 2.727413 0.060897 -0.006962 -332510.000000 0 1 0
-8.633047 -3.889539 -22.380833 24.301434 0.423303 2.741353 0.072492 -0.014755 431888.000000 0 1 0
-9.442247 -5.053139 -22.188833 24.638071 0.491381 2.691924 0.075663 -0.005663 164428.000000 0 1 0
-10.475147 -5.463139 -23.271033 26.098191 0.480726 2.671822 0.087856 -0.021836 -805469.000000 0 0 1
-11.641247 -4.749439 -23.133633 26.329466 0.387370 2.643764 0.090549 -0.034497 -1291050.000000 0 0 1
-12.546547 -5.209339 -24.114433 27.677770 0.393542 2.628553 0.092251 -0.050777 388558.000000 0 0 1
-14.035447 -4.955039 -23.705633 27.991128 0.339378 2.580921 0.119049 -0.055623 509210.000000 0 0 1
-14.575847 -3.671339 -23.935533 28.263825 0.246746 2.580851 0.120165 -0.050161 -691577.000000 0 0 1
-15.947247 -3.634839 -23.779833 28.861864 0.224100 2.539088 0.127444 -0.049481 -465536.000000 0 0 1
-16.766347 -2.356339 -24.120433 29.469612 0.139625 2.529565 0.117081 -0.038100 -71575.300000 0 0 1
-16.632247 -1.994139 -25.444003 30.463183 0.119326 2.559361 0.102029 -0.032974 -24724.200000 0 0 1
-17.221947 -0.772639 -25.803363 31.032338 0.044834 2.552597 0.090659 -0.030618 656935.000000 0 0 1
-18.733547 -0.916639 -26.227593 32.243955 0.048891 2.520789 0.101667 -0.021652 758852.000000 0 0 1
-19.040947 -1.686239 -27.442233 33.443642 0.088328 2.533172 0.116743 -0.030869 -128509.000000 0 0 1
-18.672747 -0.981939 -28.556393 34.133609 0.052538 2.561855 0.091732 -0.034434 -427205.000000 0 0 1
-18.909547 -1.767039 -29.850563 35.380072 0.093176 2.574956 0.098137 -0.030349 649218.000000 0 0 1
-20.220847 -2.228139 -30.199863 36.412621 0.109747 2.548792 0.107188 -0.036923 453494.000000 0 0 1
-20.260147 -2.779939 -31.502043 37.557693 0.136361 2.565806 0.113031 -0.042625 -263069.000000 0 0 1
-21.598747 -3.498139 -31.902753 38.684991 0.160566 2.540433 0.079733 -0.039490 2014090.000000 0 0 1
-22.722647 -2.580939 -32.212973 39.505133 0.113100 2.524237 0.068587 -0.030598 1578190.000000 0 0 1
-23.292047 -1.969739 -31.057573 38.871226 0.084366 2.496404 0.059337 -0.020642 -438981.000000 0 0 1
-24.362047 -0.885039 -31.362083 39.722448 0.036313 2.480840 0.044960 -0.016270 75603.700000 0 0 1
-23.770547 0.281161 -31.843073 39.737882 -0.011828 2.500308 0.048783 -0.018741 502201.000000 0 0 1
-24.689747 1.087861 -32.591573 40.902050 -0.044033 2.492810 0.036926 -0.020111 290259.000000 0 0 1
-24.090447 2.482661 -32.942383 40.886597 -0.102693 2.507655 0.048178 -0.019171 -334489.000000 0 0 1
-23.645647 3.347361 -31.906963 39.854432 -0.140629 2.499071 0.037327 -0.016942 500949.000000 0 0 1
-24.572347 3.772761 -30.902523 39.661063 -0.152347 2.464129 0.038262 -0.021239 146674.000000 0 0 1
-25.752247 4.689661 -31.345733 40.837803 -0.180133 2.445832 0.028441 -0.024823 -327138.000000 0 0 1
-26.826947 4.010761 -31.928043 41.894764 -0.148406 2.437348 0.055708 -0.028271 -160574.000000 0 0 1
-27.464617 4.827361 -32.914853 43.139265 -0.173989 2.438723 0.077457 -0.040944 158836.000000 0 0 1
-28.675277 4.157761 -33.607703 44.373823 -0.143991 2.430083 0.098367 -0.040209 134315.000000 0 0 1
-28.313367 2.987961 33.057195 43.627432 -0.105143 0.710991 0.098596 -0.034290 79334.900000 0 0 1
-29.232157 2.785061 32.025196 43.449842 -0.094987 0.742085 0.113725 -0.040422 -469716.000000 0 0 1
-29.737107 1.367361 31.860576 43.603458 -0.045949 0.751465 0.118358 -0.033447 53990.200000 0 0 1
-30.532977 1.010761 33.011205 44.978039 -0.033092 0.746691 0.134200 -0.033350 399206.000000 0 0 1
-30.976337 -0.337739 32.935776 45.215184 0.010903 0.754779 0.121830 -0.023457 -507430.000000 0 0 1
-30.596077 -1.116039 -33.226073 45.181162 0.036460 2.397048 0.094002 -0.019741 187917.000000 0 0 1
-29.199807 -1.386539 -33.242873 44.267819 0.047449 2.420294 0.089723 -0.027612 816150.000000 0 0 1
-28.346357 -0.399739 -32.650133 43.240108 0.014101 2.426586 0.090566 -0.020648 -404202.000000 0 0 1
-28.456617 -0.043939 -31.110033 42.161773 0.001544 2.400710 0.114213 -0.022117 -348183.000000 0 0 1
-27.763967 -0.984039 -30.251603 41.072688 0.035428 2.398734 0.092095 -0.029012 559102.000000 0 0 1
-27.920987 -0.600139 -28.917123 40.201265 0.021491 2.373603 0.106191 -0.030993 149821.000000 0 0 1
-26.807967 -1.090039 -27.932863 38.731126 0.040639 2.376328 0.107258 -0.027600 327566.000000 0 0 1
-26.930267 -2.506039 -27.532133 38.594532 0.092789 2.365090 0.085576 -0.019378 -535924.000000 0 0 1
-25.828227 -2.818039 -26.773913 37.307922 0.108677 2.371214 0.099911 -0.016218 -778296.000000 0 0 1
-25.915707 -4.122039 -25.979833 36.926505 0.157734 2.351184 0.081962 -0.021791 66270.700000 0 0 1
-26.835517 -3.938539 -24.918933 36.832191 0.145726 2.313868 0.109420 -0.019982 -71607.600000 0 0 1
-27.094247 -5.177739 -24.251933 36.729599 0.188824 2.291992 0.087555 -0.020350 247992.000000 0 0 1
-27.945967 -4.939739 -22.968733 36.509462 0.174953 2.251213 0.112984 -0.021897 88371.600000 0 0 1
-28.209947 -6.111539 -22.325033 36.490535 0.213348 2.229135 0.120633 -0.031906 452573.000000 0 0 1
-29.214097 -5.808839 -21.323533 36.631942 0.196277 2.192108 0.180138 -0.026767 498405.000000 0 0 1
-29.626717 -7.019039 -20.426533 36.664049 0.232627 2.161718 0.191820 -0.041952 -428739.000000 0 0 1
-28.646517 -7.548939 -19.586533 35.513965 0.257663 2.154977 0.175477 -0.044505 -473860.000000 0 0 1
-29.036977 -8.638039 -18.759733 35.632700 0.289147 2.125246 0.200695 -0.035187 233991.000000 0 0 1
-29.971837 -8.175639 -17.567933 35.690116 0.266299 2.085452 0.201604 -0.040051 181954.000000 0 0 1
-29.271487 -7.382339 -16.656933 34.478577 0.247050 2.074999 0.160668 -0.043470 233837.000000 0 0 1
-30.034157 -6.578239 -15.768533 34.553878 0.215620 2.044681 0.163772 -0.037450 -386656.000000 0 0 1
-29.086117 -5.911639 -14.790433 33.161824 0.200515 2.033096 0.168146 -0.031705 338126.000000 0 0 1
-28.126287 -5.026939 -15.418633 32.466789 0.176860 2.065652 0.170647 -0.024840 705299.000000 0 0 1
-27.326777 -4.449639 -14.405733 31.210210 0.161414 2.050562 0.149919 -0.031471 -416975.000000 0 0 1
-14.427047 20.995161 -4.988733 25.958119 -0.968740 1.764183 0.133664 -0.040866 111139.000000 0 0 1
-14.318447 20.314561 -6.232933 25.623208 -0.956832 1.816515 0.154459 -0.037343 573952.000000 0 0 1
-15.382047 19.341561 -6.332133 25.510768 -0.898937 1.821633 0.142928 -0.049207 688301.000000 0 0 1
-15.520847 18.611861 -7.660533 25.416173 -0.875711 1.876961 0.158322 -0.042696 475651.000000 0 0 1
-14.364647 17.790661 -7.940333 24.205363 -0.891544 1.905025 0.136874 -0.035868 562427.000000 0 1 0
-14.488447 16.807661 -9.002633 23.947024 -0.859368 1.956207 0.116431 -0.038164 -69395.500000 0 1 0
-15.208947 15.451161 -8.596833 23.322864 -0.793298 1.948300 0.115494 -0.052261 209785.000000 0 1 0
-16.583447 15.638961 -8.371433 24.283095 -0.756095 1.922762 0.127091 -0.044678 -221640.000000 0 1 0
-16.984047 15.113061 -7.091733 23.815020 -0.727173 1.873167 0.125982 -0.024411 834019.000000 0 1 0
-18.458747 15.396561 -6.638433 24.936885 -0.695194 1.840255 0.159589 -0.028003 1089050.000000 0 1 0
-19.483247 14.803961 -7.445633 25.577170 -0.649763 1.866178 0.151891 -0.038028 287961.000000 0 0 1
-20.736047 15.272361 -6.960233 26.677210 -0.634813 1.834756 0.130797 -0.036900 445411.000000 0 0 1
-21.953147 14.673261 -7.734033 27.514733 -0.589195 1.855723 0.125286 -0.020460 240724.000000 0 0 1
-22.299447 13.337061 -7.402933 27.017512 -0.539013 1.848351 0.176333 -0.038041 305918.000000 0 0 1
-23.189847 12.745861 -8.349033 27.747655 -0.502560 1.876424 0.186213 -0.041848 343156.000000 0 0 1
-23.387547 11.300461 -8.007933 27.180964 -0.450104 1.869849 0.183143 -0.034934 41489.500000 0 0 1
-22.149147 10.622261 -8.130833 25.875231 -0.447178 1.890444 0.173458 -0.027953 240202.000000 0 0 1
-22.329847 9.297861 -7.655033 25.370688 -0.394553 1.877300 0.203053 -0.041442 726500.000000 0 0 1
-20.934347 8.581261 -7.574133 23.859011 -0.389023 1.893839 0.147764 -0.016747 373150.000000 0 1 0
-20.899647 7.231061 -8.023733 23.525811 -0.333098 1.918842 0.144864 -0.021912 136571.000000 0 1 0
-19.723047 6.603061 -7.565133 22.132109 -0.323060 1.919646 0.097978 -0.017424 -235430.000000 0 1 0
-19.345547 5.325961 -8.392833 21.749844 -0.268651 1.966958 0.076020 -0.027955 -900123.000000 0 1 0
-20.361647 4.391261 -8.448633 22.477973 -0.212410 1.956124 0.118218 -0.031445 -220231.000000 0 1 0
-20.148047 3.356761 -9.404933 22.486983 -0.165088 2.002302 0.122454 -0.034216 -242840.000000 0 1 0
-21.209147 2.240861 -9.537133 23.362497 -0.105265 1.991304 0.131220 -0.036674 -74002.800000 0 1 0
-20.950947 1.259661 -8.529133 22.655574 -0.060052 1.956779 0.125612 -0.044921 523617.000000 0 1 0
-21.975247 0.287761 -8.287933 23.487957 -0.013094 1.931421 0.144052 -0.042823 310202.000000 0 1 0
-21.973047 -0.830439 -9.325233 23.884397 0.037776 1.971897 0.134294 -0.055131 575780.000000 0 1 0
-20.766647 -1.579139 -9.136133 22.742389 0.075896 1.984194 0.098840 -0.035849 816363.000000 0 1 0
-20.887147 -2.911439 -9.510533 23.134382 0.138497 1.994456 0.093687 -0.027850 116409.000000 0 1 0
-21.861447 -3.822339 -8.745633 23.854124 0.173094 1.946180 0.099158 -0.032669 169436.000000 0 1 0
-21.265647 -4.081139 -7.466533 22.904859 0.189607 1.902845 0.080009 -0.032030 1233760.000000 0 1 0
-22.211347 -4.545639 -6.463633 23.575100 0.201866 1.848525 0.098133 -0.039231 338105.000000 0 1 0
-22.630447 -6.063339 -6.536033 24.323259 0.261780 1.842855 0.111911 -0.042601 -114686.000000 0 1 0
-21.540747 -6.975139 -6.405533 23.530559 0.313156 1.846498 0.098500 -0.035926 777929.000000 0 1 0
-21.909747 -8.334139 -6.290533 24.270676 0.363483 1.832972 0.117045 -0.040387 -290293.000000 0 1 0
-20.746747 -9.022339 -5.596933 23.305703 0.410209 1.813320 0.110402 -0.045617 446266.000000 0 1 0
-19.549847 -9.331639 -6.332133 22.569269 0.445344 1.855178 0.117246 -0.037066 379767.000000 0 1 0
-18.611047 -9.745839 -5.395533 21.690187 0.482395 1.822191 0.116254 -0.031582 -218474.000000 0 1 0
-17.610847 -10.894439 -5.789233 21.502231 0.553999 1.843399 0.094560 -0.042781 -121342.000000 0 1 0
-16.689547 -10.610139 -6.790733 20.910047 0.566282 1.901554 0.102985 -0.046180 128924.000000 0 1 0
-17.235447 -10.542739 -8.126133 21.777144 0.548970 1.953198 0.111683 -0.042716 -325148.000000 0 1 0
-16.416347 -10.916839 -9.412733 21.846587 0.586847 2.016237 0.114270 -0.023956 19983.500000 0 1 0
-16.061547 -12.291239 -9.618033 22.395410 0.653195 2.014696 0.103400 -0.026958 693159.000000 0 1 0
-15.079747 -12.344039 -10.662233 22.213898 0.685970 2.071429 0.105107 -0.015667 412017.000000 0 1 0
-15.305747 -13.623039 -11.571833 23.532114 0.727296 2.084891 0.123919 -0.015323 590163.000000 0 1 0
-16.509647 -13.580739 -12.346533 24.686875 0.688367 2.094540 0.139462 -0.016936 572367.000000 0 1 0
-16.524847 -14.732439 -13.172333 25.760933 0.728117 2.107528 0.131856 -0.012337 302205.000000 0 0 1
-17.584847 -14.731939 -14.329733 27.048070 0.697347 2.129146 0.168137 -0.014977 135473.000000 0 0 1
-17.628447 -15.906139 -15.111933 28.144945 0.734084 2.137593 0.149158 -0.010904 162414.000000 0 0 1
-17.905247 -15.606339 -16.465833 28.901200 0.716905 2.176972 0.131082 -0.008308 -304546.000000 0 0 1
-18.208347 -16.824339 -17.358733 30.264301 0.745912 2.181655 0.135193 -0.029219 276272.000000 0 0 1
-19.426147 -17.475939 -17.008833 31.178262 0.732599 2.147824 0.107380 -0.020007 -84190.000000 0 0 1
-20.184847 -17.857939 -18.123833 32.477798 0.724309 2.162815 0.102346 -0.015787 931589.000000 0 0 1
-21.705247 -17.979139 -17.716433 33.290227 0.691779 2.131971 0.096933 -0.016465 815114.000000 0 0 1
-22.344147 -16.777939 -17.294233 32.861081 0.644069 2.125020 0.082514 -0.005057 343342.000000 0 0 1
-22.509547 -16.717239 -15.900833 32.233248 0.638795 2.086682 0.096967 -0.004650 -335534.000000 0 0 1
-22.329747 -15.240439 -15.352633 31.090061 0.598896 2.087264 0.086167 -0.017864 -209049.000000 0 0 1
-23.393647 -14.334739 -15.498733 31.511239 0.549751 2.085007 0.101891 -0.022382 207470.000000 0 0 1
-23.091547 -13.115839 -14.790833 30.397591 0.516552 2.078966 0.104205 -0.024871 -204912.000000 0 0 1
-24.327447 -12.319739 -14.329733 30.804900 0.468765 2.054631 0.113311 -0.034004 -252842.000000 0 0 1
-25.116347 -13.069039 -13.417333 31.331382 0.479787 2.013340 0.132434 -0.029300 1004740.000000 0 0 1
-26.231097 -12.240539 -13.001833 31.732458 0.436607 1.992958 0.134643 -0.034010 491965.000000 0 0 1
-27.047807 -12.846839 -11.818033 32.191475 0.443422 1.946704 0.134716 -0.037326 137257.000000 0 0 1
-27.966117 -11.854939 -11.331833 32.419959 0.400942 1.927869 0.128874 -0.042770 188260.000000 0 0 1
-28.872917 -12.429539 -10.431233 33.120226 0.406513 1.891201 0.133752 -0.036951 146816.000000 0 0 1
-29.612037 -11.233139 -9.689433 33.120104 0.362573 1.867693 0.122181 -0.041141 -124048.000000 0 0 1
-28.747627 -10.536039 -8.844133 31.869309 0.351299 1.852000 0.133170 -0.046863 -393996.000000 0 0 1
-29.305987 -9.426239 -8.243933 31.869379 0.311198 1.832451 0.186815 -0.051666 -420124.000000 0 0 1
-28.290027 -8.457939 -7.601433 30.490066 0.290514 1.822762 0.179075 -0.047061 -165679.000000 0 0 1
-27.722977 -8.903639 -6.417233 29.816424 0.310759 1.787718 0.161710 -0.046502 151827.000000 0 0 1
-26.857907 -7.975739 -5.759433 28.602983 0.288666 1.773540 0.157788 -0.047027 145259.000000 0 0 1
-27.529247 -6.744339 -5.114133 28.801040 0.240256 1.749311 0.168605 -0.049905 -560786.000000 0 0 1
-28.340657 -6.923539 -3.986333 29.445188 0.239604 1.706595 0.190923 -0.048826 197427.000000 0 0 1
-27.725047 -7.121639 -2.709433 28.753035 0.251431 1.665168 0.203328 -0.038161 -218094.000000 0 0 1
-27.007357 -5.922639 -2.085333 27.727669 0.215880 1.646075 0.219744 -0.037910 562832.000000 0 0 1
-27.912587 -4.820939 -1.965433 28.393959 0.171028 1.640072 0.249649 -0.050710 435502.000000 0 0 1
-27.254827 -3.944239 -1.158433 27.563102 0.143719 1.612837 0.210439 -0.054267 -375531.000000 0 0 1
-28.079817 -2.697239 -0.775833 28.219730 0.095762 1.598292 0.247964 -0.061215 123929.000000 0 0 1
-28.990747 -2.871739 0.329967 29.134502 0.098735 1.559470 0.248544 -0.044115 481374.000000 0 0 1
-28.412377 -3.059639 1.606867 28.621785 0.107273 1.514625 0.236505 -0.048672 41367.400000 0 0 1
-29.524357 -3.003539 2.707367 29.799979 0.101382 1.479820 0.248535 -0.037313 72379.400000 0 0 1
-30.199737 -4.182139 2.691667 30.606527 0.137607 1.482738 0.262861 -0.045965 -50593.000000 0 0 1
-31.211227 -4.308839 3.709967 31.724922 0.137187 1.453586 0.291494 -0.061436 684410.000000 0 0 1
-32.324277 -5.349039 3.429167 32.942834 0.163994 1.466513 0.266244 -0.064409 -431506.000000 0 0 1
-32.006907 -6.704939 3.805967 32.922389 0.206498 1.454933 0.280218 -0.059976 36742.000000 0 0 1
-33.042137 -7.635339 3.616367 34.105122 0.227093 1.464561 0.292927 -0.081633 -491094.000000 0 0 1
-32.525637 -9.038139 3.816167 33.973050 0.271039 1.458230 0.251777 -0.059878 -69748.600000 0 0 1
-32.198857 -9.334739 5.162667 33.919860 0.282173 1.418001 0.242657 -0.048966 97240.900000 0 0 1
-31.844307 -10.701839 5.313467 34.012089 0.324209 1.413931 0.239758 -0.043305 -102485.000000 0 0 1
-31.241837 -11.110839 6.713867 33.831629 0.341690 1.371021 0.221969 -0.045286 587726.000000 0 0 1
-29.889987 -10.660139 6.892367 32.473907 0.342583 1.356926 0.197817 -0.038997 819822.000000 0 0 1
-29.400327 -10.857239 8.222467 32.401664 0.353755 1.314224 0.205951 -0.053926 -38391.900000 0 0 1
-29.975707 -10.031139 9.388267 32.974328 0.322928 1.282088 0.202895 -0.057290 181800.000000 0 0 1
-29.167117 -8.831339 9.568767 31.941737 0.294009 1.266555 0.177456 -0.036165 795755.000000 0 0 1
-29.807287 -7.881839 10.402367 32.539315 0.258510 1.245398 0.180250 -0.036025 -507450.000000 0 0 1
-28.925027 -6.747239 10.830067 31.614439 0.229169 1.221148 0.192937 -0.025326 -473132.000000 0 0 1
-28.617487 -5.893639 9.738067 30.798141 0.203106 1.249085 0.211805 -0.025590 252300.000000 0 0 1
-28.039947 -4.682539 10.177167 30.195025 0.165468 1.227017 0.192859 -0.031869 -216693.000000 0 0 1
-28.148547 -3.597739 9.083467 29.795869 0.127123 1.261008 0.216579 -0.046187 318462.000000 0 0 1
-27.288007 -3.911639 7.964067 28.694296 0.142377 1.289555 0.203754 -0.038869 548472.000000 0 0 1
-27.321067 -3.022339 6.861467 28.331166 0.110175 1.326176 0.217039 -0.055525 -543038.000000 0 0 1
-26.403807 -3.508639 5.790567 27.258068 0.132110 1.356730 0.199829 -0.038255 404087.000000 0 0 1
-24.980317 -3.422739 6.005367 25.919024 0.136170 1.336974 0.204508 -0.057227 1122730.000000 0 0 1
-24.390147 -3.651839 4.758167 25.116834 0.148622 1.380203 0.200369 -0.032244 -809553.000000 0 0 1
-22.885347 -3.507339 4.580967 23.601394 0.152074 1.375459 0.186343 -0.035702 -479736.000000 0 1 0
-22.456747 -2.207439 4.519867 23.013202 0.097983 1.373108 0.156568 -0.037479 -113078.000000 0 1 0
-21.074247 -2.150039 4.235167 21.602852 0.101670 1.373472 0.139944 -0.029225 -47343.000000 0 1 0
-20.451547 -0.753239 4.431867 20.939785 0.036814 1.357535 0.108744 -0.036362 -511176.000000 0 1 0
-20.792847 0.226461 3.459167 21.079839 -0.010891 1.405952 0.128409 -0.031716 1128270.000000 0 1 0
-22.112547 0.791861 3.510767 22.403510 -0.035795 1.413442 0.129131 -0.051547 603545.000000 0 1 0
-22.220147 2.024661 2.577667 22.460600 -0.090867 1.455779 0.158730 -0.038950 -215848.000000 0 1 0
-21.456047 3.144161 2.971267 21.887808 -0.145504 1.434626 0.120874 -0.041838 154456.000000 0 1 0
-21.415047 4.159361 1.972667 21.904245 -0.191838 1.480615 0.132339 -0.027898 162050.000000 0 1 0
-20.381147 4.044961 0.806067 20.794293 -0.195920 1.532023 0.088083 -0.012803 -851721.000000 0 1 0
-20.440747 4.822761 -0.364133 21.005137 -0.231701 1.588133 0.096138 -0.001193 985132.000000 0 1 0
-21.568247 4.648861 -1.281433 22.100753 -0.212294 1.628810 0.160575 -0.020585 985056.000000 0 1 0
-21.529347 3.301061 -2.110833 21.882994 -0.152144 1.667407 0.168376 -0.023100 -103158.000000 0 1 0
-21.683847 2.163361 -1.343633 21.832881 -0.099439 1.632377 0.151884 -0.023136 311231.000000 0 1 0
-21.151847 1.065561 -2.016633 21.274465 -0.050334 1.665730 0.134245 -0.020102 303384.000000 0 1 0
-20.149447 0.147561 -1.225533 20.187222 -0.007323 1.631542 0.116098 -0.015265 219295.000000 0 1 0
-20.802847 -0.696939 -0.334133 20.817200 0.033490 1.586848 0.130913 -0.022827 367565.000000 0 1 0
-19.913947 -1.110139 0.685967 19.956659 0.055689 1.536417 0.103379 -0.020452 -377440.000000 0 1 0
-19.357247 -2.466239 0.338267 19.516654 0.126724 1.553463 0.085005 -0.014615 36865.300000 0 1 0
-18.473247 -3.033739 1.317567 18.767003 0.162770 1.500532 0.071963 -0.013429 1166420.000000 0 1 0
-17.749147 -4.223539 0.908967 18.267368 0.233613 1.521017 0.054111 -0.010063 396940.000000 0 1 0
-18.677047 -5.449139 0.715767 19.468886 0.283876 1.534023 0.058932 -0.011289 -200880.000000 0 1 0
-19.167747 -5.893239 1.934467 20.146339 0.298283 1.474627 0.073826 -0.016478 101787.000000 0 1 0
-20.374347 -6.552739 1.606167 21.462343 0.311169 1.495890 0.094254 -0.015732 -229943.000000 0 1 0
-21.048947 -6.895139 2.959567 22.346368 0.316560 1.437965 0.116206 -0.022683 -312302.000000 0 1 0
-20.408947 -7.974139 3.636067 22.211101 0.372479 1.406351 0.113610 -0.018527 820763.000000 0 1 0
-21.060647 -8.359839 4.841367 23.170598 0.377867 1.360301 0.115673 -0.024845 -79014.300000 0 1 0
-20.077147 -9.194339 5.642567 22.791803 0.429446 1.320625 0.091059 -0.020866 -332449.000000 0 1 0
-19.677647 -10.397439 5.058267 22.823291 0.486099 1.347313 0.102900 -0.017224 -361566.000000 0 1 0
-18.620247 -10.941039 5.765367 22.353062 0.531243 1.309925 0.107003 -0.028436 -762370.000000 0 1 0
-18.229047 -12.258139 5.150167 22.562898 0.591996 1.340508 0.095022 -0.012926 -84341.800000 0 1 0
-19.225447 -13.275639 5.282467 23.953389 0.604338 1.348437 0.135895 -0.019276 245573.000000 0 1 0
-18.810647 -14.513939 4.714567 24.222345 0.657171 1.374909 0.127309 -0.011606 -70616.900000 0 1 0
-19.616647 -15.730339 5.166567 25.670018 0.675891 1.368144 0.137649 -0.022342 -177625.000000 0 0 1
-19.150047 -16.911039 4.678567 25.972996 0.723388 1.389676 0.143804 -0.032564 -910.076000 0 0 1
-19.877347 -17.997239 5.223467 27.318385 0.735799 1.378405 0.136884 -0.027552 76884.600000 0 0 1
-19.191447 -19.307939 4.887067 27.658481 0.788424 1.393171 0.152548 -0.040988 -832696.000000 0 0 1
-19.168647 -19.671939 3.514267 27.690653 0.798355 1.443541 0.150679 -0.043842 -197917.000000 0 0 1
-18.321647 -20.759939 3.352867 27.890850 0.847707 1.450291 0.139882 -0.039694 228394.000000 0 0 1
-16.798947 -20.377039 3.319367 26.616659 0.881350 1.445761 0.147836 -0.038168 -349822.000000 0 0 1
-16.103047 -21.551339 3.591667 27.141636 0.929093 1.438077 0.129166 -0.040338 36537.600000 0 0 1
-14.688247 -21.364039 3.460767 26.156140 0.968494 1.438095 0.132575 -0.040942 418244.000000 0 0 1
-13.950147 -22.526639 4.057967 26.805282 1.016326 1.418825 0.169439 -0.036445 -485316.000000 0 0 1
-14.079647 -23.610839 3.227067 27.678911 1.033086 1.453941 0.151749 -0.041171 120312.000000 0 0 1
-13.306247 -24.721739 3.625567 28.308397 1.077026 1.442370 0.118657 -0.038150 -8748.570000 0 0 1
19.255653 18.611261 -23.780233 35.814225 0.768383 2.296937 0.108076 -0.024918 3448.360000 0 0 1
18.616753 19.020961 -24.894933 36.443630 0.796137 2.322806 0.103187 -0.029735 -715266.000000 0 0 1
19.623153 19.233461 -25.787193 37.682536 0.775370 2.324477 0.094449 -0.018485 -248156.000000 0 0 1
18.978053 19.515761 -27.177333 38.466074 0.799366 2.355375 0.099769 -0.021327 144464.000000 0 0 1
18.412753 20.784761 -27.171363 38.849952 0.845839 2.345343 0.090775 -0.019170 546942.000000 0 0 1
17.586053 20.883361 -28.378873 39.379493 0.870902 2.375537 0.107199 -0.023283 526173.000000 0 0 1
17.102753 22.323861 -28.700563 40.181852 0.917058 2.366372 0.133333 -0.029031 -168871.000000 0 0 1
16.138153 22.883861 -27.836953 39.484263 0.956576 2.353239 0.126777 -0.024750 243884.000000 0 0 1
15.965653 24.266361 -28.005923 40.349598 0.988864 2.337940 0.128868 -0.019442 -108988.000000 0 0 1
15.015953 24.944161 -27.003193 39.709727 1.028920 2.318579 0.129883 -0.023289 512445.000000 0 0 1
13.679753 24.421261 -27.020433 38.905494 1.060188 2.338541 0.153077 -0.040061 515903.000000 0 0 1
12.932453 25.137861 -26.061993 38.449810 1.095647 2.315588 0.126802 -0.031540 -537977.000000 0 0 1
11.419053 24.828961 -25.979713 37.706996 1.139733 2.330890 0.146002 -0.036012 182315.000000 0 0 1
10.646053 25.688761 -25.159193 37.499812 1.177917 2.306239 0.126165 -0.038639 -26878.800000 0 0 1
10.501253 27.017361 -25.692013 38.733624 1.200082 2.296016 0.124190 -0.038577 -702223.000000 0 0 1
9.805953 27.912761 -24.695433 38.537558 1.232957 2.266355 0.136873 -0.047713 -344486.000000 0 0 1
10.685353 28.236661 -23.666333 38.361193 1.209030 2.235638 0.128078 -0.041632 98035.400000 0 0 1
10.153753 29.284561 -22.873833 38.521377 1.237040 2.206565 0.135107 -0.049126 86449.800000 0 0 1
11.099853 29.706161 -21.707633 38.430250 1.213205 2.171057 0.119855 -0.044264 -38733.500000 0 0 1
12.265453 30.348861 -22.134033 39.514682 1.186719 2.165360 0.109503 -0.049814 -123416.000000 0 0 1
13.014653 30.872661 -21.063733 39.575033 1.171844 2.132050 0.090907 -0.038874 -237104.000000 0 0 1
14.297753 31.626161 -21.419733 40.785350 1.146209 2.123725 0.095692 -0.028034 51449.300000 0 0 1
15.399753 30.799161 -21.788533 40.748999 1.107144 2.134950 0.096007 -0.032741 -223596.000000 0 0 1
16.452853 31.662761 -22.111633 41.977984 1.091570 2.125561 0.081964 -0.029723 -1174340.000000 0 0 1
17.685053 30.996661 -22.649933 42.267879 1.052315 2.136330 0.051932 -0.018198 -690673.000000 0 0 1
18.564253 30.489261 -21.666433 41.757165 1.023874 2.116322 0.055669 -0.008656 -127543.000000 0 0 1
19.746153 30.051361 -22.294733 42.308982 0.989460 2.125805 0.051652 -0.004645 -148599.000000 0 0 1
20.690053 29.257361 -21.392733 41.733925 0.955272 2.109004 0.053898 0.002248 -256376.000000 0 0 1
21.418053 29.954061 -20.414533 42.103823 0.950054 2.077001 0.055683 0.006391 321232.000000 0 0 1
22.470153 29.122961 -19.920233 41.831451 0.913638 2.067127 0.078791 0.006764 417857.000000 0 0 1
23.344953 29.700661 -18.789033 42.191751 0.904646 2.032333 0.080966 -0.004342 -198380.000000 0 0 1
24.161253 30.801461 -19.086633 43.552218 0.905628 2.024444 0.108940 -0.011753 315226.000000 0 0 1
24.857053 31.201661 -17.893833 43.721917 0.898097 1.992444 0.101496 -0.013280 575054.000000 0 0 1
26.156853 32.077661 -18.015733 45.141156 0.886722 1.981329 0.120514 -0.012150 1186340.000000 0 0 1
27.281453 31.362161 -18.534233 45.512423 0.854871 1.990220 0.139836 -0.013207 -405776.000000 0 0 1
28.456753 32.026561 -18.242133 46.564609 0.844351 1.973340 0.145422 -0.016211 -266326.000000 0 0 1
29.728753 31.514261 -18.963433 47.292274 0.814544 1.983387 0.158425 -0.020742 446368.000000 0 0 1
30.265953 30.285961 -18.463333 46.627910 0.785729 1.977922 0.124099 -0.016676 1023280.000000 0 0 1
31.656453 30.127861 -18.825533 47.583818 0.760662 1.977549 0.102618 -0.015063 806638.000000 0 0 1
32.335053 28.886061 -18.347933 47.080854 0.729121 1.971114 0.100987 -0.024270 -325703.000000 0 0 1
32.610553 28.959561 -16.969633 46.798214 0.726169 1.941866 0.086600 -0.010998 -63590.900000 0 0 1
33.154253 27.795161 -16.387533 46.263665 0.697697 1.932877 0.092286 -0.020638 -253316.000000 0 0 1
33.541453 27.947861 -14.879933 46.125095 0.694679 1.899271 0.094398 -0.018471 -91877.400000 0 0 1
34.653353 28.768161 -14.571533 47.337000 0.692868 1.883703 0.094512 -0.019047 3366.530000 0 0 1
34.499753 30.131661 -14.775133 48.129560 0.717916 1.882822 0.093054 -0.029580 -815039.000000 0 0 1
35.816553 30.893861 -14.917533 49.596259 0.711740 1.876306 0.084646 -0.023657 -684302.000000 0 0 1
36.609353 30.765261 -13.785433 49.767300 0.698874 1.851465 0.085321 -0.024360 -648515.000000 0 0 1
37.865353 31.277861 -14.169533 51.116193 0.690412 1.851678 0.090126 -0.031161 690527.000000 0 0 1
-37.245603 31.566561 -12.965433 50.515197 -0.703055 1.830365 0.085417 -0.023188 754479.000000 0 0 1
-37.725103 32.706161 -12.243433 51.407957 -0.714258 1.811270 0.097313 -0.026673 743697.000000 0 0 1
-36.891303 33.008161 -11.119333 50.736047 -0.729902 1.791750 0.108266 -0.018116 204015.000000 0 0 1
-37.464403 -33.203104 -10.305233 51.109935 0.725170 1.773817 0.103626 -0.012798 236148.000000 0 0 1
-36.534503 -32.510704 -9.483933 49.816270 0.727186 1.762344 0.115485 -0.017159 97753.300000 0 0 1
-36.275203 -33.102904 -8.242633 49.795919 0.739705 1.737090 0.095857 -0.018231 -41916.800000 0 0 1
-36.065803 -32.080704 -7.084833 48.786356 0.726986 1.716533 0.110233 -0.009542 474192.000000 0 0 1
-37.223103 -31.256804 -6.884733 49.091208 0.698493 1.711504 0.103646 -0.006580 463363.000000 0 0 1
-37.006003 -30.359304 -5.834933 48.220100 0.687050 1.692100 0.130411 -0.007753 828159.000000 0 0 1
37.764653 -29.628704 -5.502833 48.314700 -0.665256 1.684940 0.117574 -0.007396 855282.000000 0 0 1
36.763253 -30.469804 -4.953133 48.004992 -0.692064 1.674160 0.074389 0.002265 98944.400000 0 0 1
35.566253 -29.849304 -4.553933 46.654878 -0.698225 1.668561 0.065736 0.007660 -118445.000000 0 0 1
35.525353 -28.991904 -3.284633 45.971404 -0.684476 1.642307 0.053249 0.008376 -272660.000000 0 0 1
36.273853 -27.795504 -3.362933 45.822394 -0.653832 1.644253 0.083269 -0.004980 305155.000000 0 0 1
35.606853 -26.901004 -2.527933 44.697902 -0.647012 1.627382 0.067813 -0.002232 -71600.900000 0 0 1
35.979653 -25.421504 -2.774633 44.141668 -0.615110 1.633695 0.093103 -0.015088 -248284.000000 0 0 1
35.697853 -24.996904 -4.096533 43.771720 -0.610884 1.664522 0.091222 -0.017117 343925.000000 0 0 1
35.517153 -23.614304 -4.198433 42.857092 -0.586758 1.668917 0.097940 -0.026478 -372352.000000 0 0 1
35.172453 -23.036104 -5.584333 42.414011 -0.579845 1.702842 0.104475 -0.032149 200569.000000 0 0 1
36.236353 -23.050604 -6.547933 43.442825 -0.566555 1.722098 0.130105 -0.031577 1029080.000000 0 0 1
35.687853 -22.900904 -7.867033 43.127305 -0.570518 1.754238 0.118512 -0.041164 -103940.000000 0 0 1
36.818953 -22.658104 -8.868333 44.132440 -0.551661 1.773122 0.124142 -0.046179 444745.000000 0 0 1
37.685653 -23.801704 -9.029133 45.478069 -0.563321 1.770663 0.110529 -0.023115 1483290.000000 0 0 1
-37.168903 -23.581304 -9.680033 45.070037 0.565356 1.787260 0.116760 -0.025145 1261980.000000 0 0 1
-36.590403 -24.761504 -10.513133 45.414927 0.594931 1.804406 0.127940 -0.020369 240756.000000 0 0 1
-35.864103 -25.792804 -9.852633 45.261208 0.623484 1.790237 0.174335 -0.022631 458634.000000 0 0 1
-36.734903 -26.691704 -9.211933 46.333140 0.628358 1.770950 0.143295 -0.018770 490984.000000 0 0 1
-35.894503 -27.883604 -8.590433 46.256959 0.660447 1.757592 0.134352 -0.007333 367307.000000 0 0 1
-35.258703 -28.600004 -9.596933 46.402990 0.681501 1.779117 0.139001 -0.012326 35786.000000 0 0 1
-34.428803 -29.626004 -9.065733 46.316629 0.710559 1.767802 0.161455 -0.024168 -122403.000000 0 0 1
-33.707003 -30.358404 -10.198133 46.495125 0.733177 1.791932 0.149158 -0.025376 -233358.000000 0 0 1
-32.599503 -29.718604 -10.795433 45.414363 0.739202 1.810804 0.106245 -0.010729 133447.000000 0 0 1
-32.123603 -30.481904 -11.907933 45.857073 0.759181 1.833482 0.075510 -0.010972 -41021.000000 0 0 1
-32.164703 -29.758904 -13.265533 45.783565 0.746567 1.864756 0.048219 0.001850 198201.000000 0 0 1
-31.263003 -28.653304 -13.260633 44.432326 0.741870 1.873860 0.042641 -0.004688 72822.200000 0 0 1
-31.399803 -27.813004 -14.368233 44.339113 0.724897 1.900807 0.028018 0.007520 516541.000000 0 0 1
-30.054803 -27.105504 -14.771433 43.083579 0.733847 1.920751 0.050322 0.001681 684624.000000 0 0 1
-29.128903 -28.075004 -15.238933 43.231052 0.766977 1.931037 0.078238 -0.007762 -786122.000000 0 0 1
-27.950403 -27.452104 -15.653533 42.188578 0.776404 1.950922 0.098968 0.001279 -449293.000000 0 0 1
-26.900503 -28.423604 -16.204333 42.357039 0.812922 1.963368 0.107961 -0.013756 -503379.000000 0 0 1
-27.174303 -29.023604 -17.475133 43.430319 0.818293 1.984902 0.091093 -0.017263 -125561.000000 0 0 1
-27.368703 -28.234004 -18.653233 43.521810 0.800959 2.013734 0.070390 -0.002981 -399610.000000 0 0 1
-26.085603 -27.592804 -19.153133 42.528391 0.813469 2.037966 0.086719 -0.008325 -365451.000000 0 0 1
-25.644303 -26.635204 -18.231733 41.224513 0.804350 2.028907 0.101875 -0.011155 -1057360.000000 0 0 1
-24.335103 -26.250504 -18.457133 40.273464 0.823245 2.046872 0.117267 -0.028530 -597637.000000 0 0 1
-23.874803 -25.059204 -17.560933 38.811806 0.809597 2.040322 0.127847 -0.020015 109469.000000 0 0 1
-24.051303 -25.358504 -16.191033 38.518417 0.811848 2.004622 0.135209 -0.024770 101049.000000 0 0 1
-23.695603 -24.245104 -15.420233 37.243660 0.796860 1.997680 0.146795 -0.022339 -118948.000000 0 0 1
-24.110703 -24.352804 -13.993433 37.016229 0.790394 1.958469 0.126839 -0.016700 -1068350.000000 0 0 1
-25.474203 -24.331504 -13.811533 37.838017 0.762459 1.944448 0.092521 -0.005076 -1026730.000000 0 0 1
-25.790603 -24.113504 -12.420833 37.428510 0.751804 1.909066 0.090312 0.003168 435475.000000 0 0 1
-27.315203 -23.904604 -12.185533 38.288870 0.718909 1.894682 0.079549 0.013586 101426.000000 0 0 1
-28.071103 -25.109104 -12.277533 39.613025 0.729758 1.885923 0.097186 0.007445 1731910.000000 0 0 1
-29.393403 -25.068804 -11.644433 40.348604 0.706159 1.863556 0.077002 0.013431 1462850.000000 0 0 1
-30.539203 -24.350004 -12.405633 40.981280 0.673114 1.878336 0.090436 0.007560 -916789.000000 0 0 1
-30.597703 -22.927604 -12.324633 40.172018 0.643069 1.882622 0.079627 0.010654 160431.000000 0 0 1
-31.096603 -22.431704 -11.083133 39.912603 0.624915 1.852180 0.110480 -0.000045 -459431.000000 0 0 1
-32.586903 -22.626304 -10.705533 41.090927 0.606915 1.834370 0.087309 -0.005481 178993.000000 0 0 1
-33.627003 -21.955604 -11.394433 41.745143 0.578422 1.847257 0.120514 -0.023851 516387.000000 0 0 1
-33.717703 -22.298404 -12.791233 42.399504 0.584296 1.877254 0.114859 -0.015959 -843399.000000 0 0 1
-34.996403 -21.673704 -13.427533 43.298918 0.554499 1.886108 0.073625 -0.020334 424648.000000 0 0 1
-36.168003 -22.362104 -13.039133 44.477040 0.553755 1.868332 0.101356 -0.022733 -413095.000000 0 0 1
-37.334003 -21.877704 -13.612133 45.362450 0.530061 1.875568 0.121895 -0.035154 -364719.000000 0 0 1
37.492953 -22.534404 -13.095833 45.662038 -0.541177 1.861680 0.099737 -0.014816 -93389.400000 0 0 1
37.267853 -23.801504 -13.702433 46.294288 -0.568362 1.871283 0.082755 -0.003217 508657.000000 0 0 1
36.271253 -24.589004 -13.049233 45.722045 -0.595753 1.860224 0.071463 -0.018484 249629.000000 0 0 1
36.016753 -26.009904 -13.632633 46.471177 -0.625445 1.868533 0.058717 -0.017159 234143.000000 0 0 1
35.403253 -26.004904 -14.932033 46.396239 -0.633529 1.898466 0.054543 -0.018940 136624.000000 0 0 1
35.402553 -27.258604 -15.611433 47.329579 -0.656155 1.906936 0.044205 0.013975 213985.000000 0 0 1
34.638353 -27.259504 -16.991133 47.239757 -0.666748 1.938720 0.039642 0.000011 472530.000000 0 0 1
33.234053 -27.357604 -16.857133 46.228819 -0.688716 1.944048 0.122021 -0.001321 -49115.300000 0 0 1
32.515953 -27.437704 -18.047433 46.214983 -0.700897 1.971982 0.111589 -0.009449 -880809.000000 0 0 1
31.032453 -27.580704 -17.854933 45.194104 -0.726576 1.976943 0.119585 -0.027493 -831205.000000 0 0 1
30.376253 -26.540504 -17.133033 43.825289 -0.718108 1.972448 0.106075 -0.025799 105073.000000 0 0 1
29.004353 -26.844404 -17.018733 43.029197 -0.746742 1.977426 0.141699 -0.031439 609158.000000 0 0 1
28.054953 -25.929904 -16.140933 41.472521 -0.746055 1.970555 0.129897 -0.038498 527891.000000 0 0 1
27.870153 -24.624804 -16.629833 40.739143 -0.723655 1.991281 0.131351 -0.048761 40839.500000 0 0 1
27.355553 -23.842704 -15.581833 39.491699 -0.716893 1.976385 0.120101 -0.048249 -263097.000000 0 0 1
27.146853 -22.341004 -15.951033 38.607092 -0.688590 1.996721 0.115328 -0.050342 -4676.950000 0 0 1
25.869353 -21.980504 -16.453833 37.723926 -0.704304 2.022128 0.127708 -0.053804 76315.100000 0 0 1
25.624753 -20.658504 -16.147833 36.662709 -0.678506 2.026888 0.116180 -0.050265 308081.000000 0 0 1
24.140953 -20.219404 -16.291433 35.454488 -0.697225 2.048232 0.101845 -0.048701 538076.000000 0 0 1
23.272853 -20.535004 -15.202833 34.560645 -0.722983 2.026271 0.097156 -0.048146 1163620.000000 0 0 1
22.054553 -19.753604 -15.120033 33.244903 -0.730418 2.042952 0.085618 -0.042557 884814.000000 0 0 1
21.990753 -18.411304 -14.306133 32.050503 -0.697033 2.033492 0.074080 -0.032126 -344124.000000 0 0 1
21.434753 -18.700604 -13.022633 31.284983 -0.717380 2.000123 0.078393 -0.048051 223599.000000 0 0 1
20.962653 -17.547604 -12.389433 30.014151 -0.696951 1.996307 0.084855 -0.055472 -189973.000000 0 0 1
20.046253 -17.776104 -11.146733 29.018818 -0.725449 1.965052 0.092829 -0.046957 -26260.200000 0 0 1
20.697553 -18.285204 -9.983433 29.366755 -0.723595 1.917667 0.099225 -0.057691 569815.000000 0 0 1
19.793353 -18.294204 -8.871233 28.375227 -0.746058 1.888767 0.084318 -0.048846 390071.000000 0 0 1
20.498953 -19.075604 -7.721633 29.046675 -0.749447 1.839867 0.090368 -0.052078 -296785.000000 0 0 1
21.479953 -18.268904 -7.168533 29.095173 -0.704790 1.819742 0.087870 -0.052613 -550614.000000 0 0 1
22.154053 -19.030104 -6.201933 29.856505 -0.709690 1.780045 0.085032 -0.040788 -353385.000000 0 0 1
23.467953 -18.414904 -5.669333 30.364368 -0.665331 1.758609 0.089744 -0.035150 -213659.000000 0 0 1
24.401953 -18.396304 -6.729733 31.291670 -0.645984 1.787554 0.084693 -0.050567 -291367.000000 0 0 1
25.425353 -17.496604 -6.393633 31.519173 -0.602733 1.775063 0.107600 -0.046604 -898818.000000 0 0 1
26.422453 -17.288704 -7.561033 32.468670 -0.579405 1.805826 0.149120 -0.061937 124008.000000 0 0 1
27.399753 -18.325904 -7.490433 33.803725 -0.589502 1.794237 0.174713 -0.074667 286249.000000 0 0 1
27.204753 -19.292804 -8.515933 34.421388 -0.616854 1.820795 0.170473 -0.082131 -362156.000000 0 0 1
28.275353 -20.382604 -8.437533 35.862767 -0.624590 1.808296 0.160942 -0.081600 -45597.400000 0 0 1
29.505953 -19.990904 -9.007033 36.760905 -0.595480 1.818333 0.172743 -0.065628 530020.000000 0 0 1
30.546953 -20.954404 -8.756333 38.064114 -0.601250 1.802917 0.140858 -0.058753 488997.000000 0 0 1
-30.817667 29.082361 4.122767 42.573578 -0.756436 1.473806 0.134313 -0.035920 63412.100000 0 0 1
-30.318427 29.976661 3.176167 42.753892 -0.779730 1.496438 0.138327 -0.028571 99746.300000 0 0 1
-29.451617 31.027361 3.642167 42.934372 -0.811447 1.485863 0.114424 -0.007019 466607.000000 0 0 1
-29.251837 32.065261 2.552967 43.478369 -0.831249 1.512044 0.112862 -0.004431 -20469.500000 0 0 1
-28.386107 31.639461 1.477867 42.532466 -0.839545 1.536043 0.118389 -0.004698 560120.000000 0 0 1
-27.991827 32.666161 0.558567 43.022465 -0.862307 1.557813 0.137005 -0.026336 119120.000000 0 0 1
-26.958217 33.673361 1.114767 43.149547 -0.895702 1.544958 0.149840 -0.008179 337068.000000 0 0 1
-25.611817 33.208661 1.274067 41.957164 -0.913840 1.540426 0.133769 -0.011485 768862.000000 0 0 1
-24.790547 -33.226404 1.796967 41.494509 0.929790 1.527477 0.142330 -0.006385 817726.000000 0 0 1
-23.271747 -33.549804 2.012367 40.880474 0.964346 1.521551 0.134209 -0.020722 624045.000000 0 0 1
-22.564947 -33.472204 0.816467 40.376130 0.977638 1.550573 0.177171 -0.029141 527614.000000 0 0 1
-21.177847 33.671761 1.004367 39.790671 -1.009362 1.545552 0.165101 -0.032609 725655.000000 0 0 1
-20.149647 -33.521104 -0.152133 39.111326 1.029566 1.574686 0.188638 -0.042075 479333.000000 0 0 1
-19.824547 -32.149304 -0.419933 37.772566 1.018231 1.581914 0.196571 -0.045098 456188.000000 0 0 1
-19.006847 -31.583704 0.604767 36.866738 1.029060 1.554391 0.200930 -0.037519 -317932.000000 0 0 1
-18.745947 -30.024004 0.477567 35.398862 1.012654 1.557305 0.214968 -0.052062 -137470.000000 0 0 1
-17.729547 -29.560804 -0.386033 34.472119 1.030549 1.581995 0.191167 -0.034499 173322.000000 0 0 1
-17.668247 -28.125604 -0.444333 33.217676 1.009906 1.584173 0.168240 -0.030424 65086.300000 0 0 1
-16.610447 -27.738204 -1.524933 32.367273 1.031238 1.617927 0.133870 -0.021525 162093.000000 0 0 1
-17.022047 -27.976504 -2.865433 32.873174 1.024193 1.658073 0.118690 -0.020441 56984.000000 0 0 1
-16.027247 -27.536004 -3.762933 32.082142 1.043682 1.688358 0.106600 -0.014640 -307887.000000 0 0 1
-16.475147 -27.531804 -5.192933 32.502266 1.031551 1.731255 0.132067 -0.020562 125973.000000 0 0 1
-17.308947 -26.390504 -5.410733 32.020843 0.990300 1.740586 0.129621 -0.016627 -71348.100000 0 0 1
-17.774247 -26.170904 -6.701233 32.338006 0.974194 1.779534 0.153525 -0.024377 317557.000000 0 0 1
-18.517647 -24.779304 -6.744133 31.660709 0.929024 1.785454 0.111894 -0.016576 333628.000000 0 0 1
-17.608147 -23.692604 -6.636833 30.256138 0.931667 1.791950 0.101337 -0.006724 248851.000000 0 0 1
-18.183847 -22.421004 -6.928133 29.687586 0.889373 1.806336 0.103113 -0.010042 129813.000000 0 0 1
-17.054047 -21.383204 -6.884333 28.204184 0.897555 1.817377 0.108203 0.001116 586069.000000 0 0 1
-16.121647 -21.494304 -7.959533 28.022612 0.927268 1.858801 0.137351 -0.007685 -751687.000000 0 0 1
-14.921247 -20.849804 -7.783733 26.794485 0.949641 1.865543 0.152603 -0.031965 -563676.000000 0 0 1
-14.020847 -20.732504 -9.016633 26.603018 0.976172 1.916579 0.125927 -0.022771 52876.300000 0 0 1
-14.614147 -20.031604 -10.074233 26.764316 0.940509 1.956710 0.152426 -0.027279 134874.000000 0 0 1
-13.784147 -20.132304 -11.251433 26.868329 0.970428 2.002878 0.136252 -0.015846 585545.000000 0 0 1
-14.337747 -19.291304 -12.413533 27.052194 0.931646 2.047523 0.167991 -0.015352 -87699.300000 0 0 1
-15.306747 -19.904204 -13.213833 28.373918 0.915233 2.055226 0.153730 0.018128 -474959.000000 0 0 1
-15.856447 -18.893304 -14.067133 28.394860 0.872569 2.089105 0.164734 -0.024158 -413659.000000 0 0 1
-17.177747 -19.347104 -14.657633 29.736033 0.844722 2.086245 0.184125 -0.032711 -356768.000000 0 0 1
-18.286747 -19.292404 -13.766333 29.935162 0.812153 2.048647 0.177688 -0.023016 30894.400000 0 0 1
-19.467947 -19.411304 -14.510233 31.086115 0.783941 2.056437 0.158036 -0.012994 -109774.000000 0 0 1
-20.780147 -19.523504 -13.668833 31.619910 0.754229 2.017822 0.137785 -0.003486 826506.000000 0 0 1
-21.854447 -19.750004 -14.568333 32.862073 0.734859 2.030093 0.146141 -0.004882 560973.000000 0 0 1
-23.195647 -19.769304 -14.093733 33.578218 0.705819 2.003942 0.125178 0.004986 799405.000000 0 0 1
-24.221347 -20.374404 -15.091933 35.065032 0.699349 2.015730 0.111065 -0.003697 -42476.700000 0 0 1
-24.332247 -19.795504 -16.362433 35.378658 0.682949 2.051603 0.104101 -0.013170 1869.660000 0 0 1
-24.977977 -20.580004 -17.285633 36.690994 0.689161 2.061349 0.115336 -0.016731 -236488.000000 0 0 1
-25.245437 -19.854404 -18.613233 37.121179 0.666427 2.096033 0.118520 -0.017919 151077.000000 0 0 1
-24.017547 -19.638804 -19.285333 36.530115 0.685432 2.126957 0.107015 -0.026661 237787.000000 0 0 1
-24.154147 -19.100304 -20.596833 37.046916 0.669086 2.160321 0.107116 -0.029128 -802652.000000 0 0 1
-22.942047 -18.418804 -21.184133 36.254067 0.676471 2.194844 0.085103 -0.018160 92614.500000 0 0 1
-21.772947 -19.234504 -21.335133 36.044629 0.723575 2.204221 0.059460 -0.015642 663616.000000 0 0 1
-20.735947 -18.578904 -22.031333 35.504011 0.730587 2.240216 0.055057 -0.022064 414530.000000 0 0 1
-19.452747 -19.383904 -22.382433 35.427650 0.783626 2.254642 0.070503 -0.019881 144664.000000 0 0 1
-19.562847 -20.411104 -23.315833 36.646231 0.806615 2.260412 0.043733 -0.013228 427590.000000 0 0 1
-18.466247 -21.317204 -23.114833 36.465339 0.856938 2.257362 0.047188 -0.007412 477561.000000 0 0 1
-18.523847 -22.623504 -23.990233 37.821781 0.884704 2.257895 0.045080 -0.011231 -152655.000000 0 0 1
-18.508347 -22.463304 -25.403103 38.632585 0.881629 2.288367 0.039937 -0.012067 221641.000000 0 0 1
-18.931047 -23.648304 -26.078713 39.971566 0.895736 2.281585 0.055514 -0.018028 21743.400000 0 0 1
-18.697747 -23.467304 -27.636653 40.793439 0.898036 2.315125 0.062791 -0.005454 -438901.000000 0 0 1
-17.360847 -23.342504 -28.018673 40.389572 0.931311 2.337424 0.063244 -0.010774 -535472.000000 0 0 1
-17.290647 -23.284104 -29.430573 41.319180 0.932052 2.363529 0.089343 -0.017153 -934647.000000 0 0 1
-15.908847 -23.175504 -30.018423 41.125432 0.969222 2.389006 0.064743 -0.025392 -981221.000000 0 0 1
-15.054547 -24.223204 -29.658113 41.146162 1.014723 2.375751 0.072491 -0.023486 -126425.000000 0 0 1
-13.758247 -24.042004 -30.206743 40.984810 1.051025 2.399451 0.099874 -0.030031 149037.000000 0 0 1
-12.824347 -25.152304 -29.738733 41.006030 1.099286 2.382162 0.111816 -0.024464 -676405.000000 0 0 1
-13.243747 -26.416104 -30.253353 42.290339 1.106068 2.367954 0.090749 -0.018151 1002110.000000 0 0 1
-12.242547 -27.444304 -29.993083 42.457683 1.151201 2.355228 0.111345 -0.021772 1017090.000000 0 0 1
-10.971447 -27.489604 -30.905073 42.792225 1.191055 2.377792 0.145013 -0.031896 -40609.000000 0 0 1
-10.156047 -26.473004 -30.406693 41.575620 1.204474 2.391108 0.199602 -0.053710 -523315.000000 0 0 1
-8.866947 -26.442604 -30.990933 41.692589 1.247252 2.408816 0.180675 -0.045939 153499.000000 0 0 1
-7.930347 -25.354204 -30.427573 40.392614 1.267654 2.423855 0.238637 -0.057855 -68679.200000 0 0 1
-8.363447 -24.053804 -30.718763 39.902069 1.236174 2.449409 0.261050 -0.059209 -24552.100000 0 0 1
-9.091547 -23.488304 -29.659583 38.910764 1.201489 2.437573 0.229908 -0.045257 -54084.800000 0 0 1
-9.267547 -21.958004 -29.685073 38.068950 1.171420 2.465097 0.247951 -0.055010 -212829.000000 0 0 1
-10.099047 -21.491804 -30.692863 38.806446 1.131516 2.483110 0.226816 -0.053213 -312922.000000 0 0 1
-10.420647 -20.086404 -30.630053 38.082196 1.092229 2.505317 0.234521 -0.054416 523939.000000 0 0 1
-11.668347 -19.758004 -31.525153 38.991849 1.037345 2.512406 0.180169 -0.047089 413166.000000 0 0 1
-12.053447 -18.424604 -31.536263 38.461507 0.991472 2.532109 0.178377 -0.042023 28339.500000 0 0 1
-13.154647 -18.269704 -32.413063 39.464332 0.946757 2.534527 0.154410 -0.036066 26678.500000 0 0 1
-13.995547 -16.962804 -32.258923 39.041647 0.880953 2.543249 0.174223 -0.033565 198455.000000 0 0 1
-13.361647 -15.666704 -32.483673 38.459956 0.864639 2.576633 0.161819 -0.035231 77026.000000 0 0 1
-12.475547 -15.220504 -31.474083 37.120357 0.884186 2.582794 0.152462 -0.026248 225796.000000 0 0 1
-12.166647 -13.708204 -31.583253 36.516353 0.844905 2.615762 0.121047 -0.028174 5378.600000 0 0 1
-11.452947 -13.300904 -32.740653 37.148814 0.859913 2.649482 0.121423 -0.026869 102245.000000 0 0 1
-12.080647 -13.420304 33.419736 37.985857 0.837884 0.495367 0.120730 -0.025113 67537.500000 0 0 1
-12.776547 -12.130304 32.770731 37.206253 0.759458 0.493278 0.101805 -0.014562 -874696.000000 0 0 1
-13.911847 -11.777704 33.429726 38.076244 0.702514 0.499195 0.093588 -0.009445 -1551000.000000 0 0 1
-14.446247 -10.768204 32.603665 37.251138 0.640549 0.504866 0.082460 -0.021972 169137.000000 0 0 1
-15.594447 -10.012404 33.310420 38.118488 0.570766 0.507700 0.104348 -0.025842 301185.000000 0 0 1
-15.056947 -9.072204 -33.208523 37.574227 0.542275 2.654743 0.097643 -0.029123 763498.000000 0 0 1
-15.974847 -8.738204 -32.137193 36.937124 0.500535 2.626103 0.115994 -0.040378 671795.000000 0 0 1
-15.321747 -7.600804 -31.335003 35.698888 0.460506 2.641960 0.117278 -0.047014 -53795.200000 0 0 1
-15.214647 -6.328704 -31.973233 35.969787 0.394190 2.665716 0.117802 -0.051776 1148250.000000 0 0 1
-16.425647 -5.510404 -32.024853 36.410955 0.323677 2.645689 0.136120 -0.048336 1042450.000000 0 0 1
-16.774747 -4.770704 -30.717143 35.322721 0.277082 2.625217 0.138884 -0.052660 -260586.000000 0 0 1
-17.054547 -5.641304 -29.650993 34.667900 0.319451 2.596900 0.141114 -0.056125 -220574.000000 0 0 1
-17.195147 -5.137904 -28.328963 33.535075 0.290355 2.576906 0.137182 -0.057247 28909.700000 0 0 1
-15.909247 -4.678204 -27.600713 32.199210 0.285994 2.600577 0.130802 -0.058044 322094.000000 0 0 1
-15.228447 -3.612504 -28.262853 32.307037 0.232915 2.635861 0.126500 -0.053898 -285770.000000 0 0 1
-14.179447 -3.028204 -27.570133 31.150264 0.210402 2.657439 0.112563 -0.050910 -351996.000000 0 0 1
-13.690047 -1.752304 -28.228793 31.422169 0.127306 2.686845 0.081894 -0.033429 -59417.400000 0 0 1
-13.559647 -1.892304 -29.664653 32.671646 0.138659 2.709194 0.083004 -0.037021 101631.000000 0 0 1
-13.528347 -0.629304 -30.261043 33.153324 0.046484 2.720788 0.069757 -0.042129 -97690.800000 0 0 1
-13.897647 -0.749304 -31.757133 34.673067 0.053864 2.728546 0.076034 -0.047741 -784309.000000 0 0 1
-15.249647 -0.886304 -32.078073 35.529425 0.058054 2.697171 0.092764 -0.042645 -351087.000000 0 0 1
-15.492047 -1.429304 -33.324213 36.777026 0.092000 2.704804 0.094287 -0.038391 -681848.000000 0 0 1
-16.949147 -1.438304 33.702286 37.751641 0.084657 0.467413 0.096417 -0.039198 -661557.000000 0 0 1
-17.064147 -1.996304 32.411164 36.683155 0.116459 0.487421 0.108240 -0.037426 794166.000000 0 0 1
-18.345147 -1.780304 31.795504 36.751435 0.096742 0.525347 0.102285 -0.030744 653335.000000 0 0 1
-18.314947 -2.020304 30.267746 35.435228 0.109865 0.546842 0.117351 -0.022381 -64022.800000 0 0 1
-17.618047 -0.926304 29.719516 34.561586 0.052529 0.535722 0.107649 -0.002122 95910.500000 0 0 1
-17.710647 -1.008304 28.327626 33.423616 0.056871 0.559476 0.105503 -0.011862 -50827.200000 0 0 1
-17.094847 0.220696 27.577836 32.447181 -0.012909 0.554944 0.092244 -0.010926 57674.300000 0 0 1
-17.584647 1.517696 27.874906 32.992933 -0.086095 0.564465 0.090819 -0.011364 32495.300000 0 0 1
-18.900047 1.897696 27.497856 33.420729 -0.100072 0.604514 0.107178 -0.022666 348709.000000 0 0 1
-19.050247 2.688696 26.152766 32.467032 -0.140211 0.634248 0.111960 -0.021307 -312612.000000 0 0 1
-18.549947 3.993696 26.227176 32.371514 -0.212057 0.626315 0.103394 -0.016376 -152031.000000 0 0 1
-18.843247 4.815696 25.133366 31.779631 -0.250210 0.658577 0.092116 -0.010363 -472913.000000 0 0 1
-18.807947 6.345696 25.286196 32.146515 -0.325401 0.665526 0.088516 -0.012078 815990.000000 0 0 1
-17.500447 6.941696 25.272386 31.514224 -0.377622 0.640268 0.088503 -0.009649 241345.000000 0 0 1
-16.983047 7.066696 24.033666 30.265148 -0.394311 0.653265 0.073319 -0.006793 -825160.000000 0 0 1
-15.789447 8.007696 24.006266 29.828353 -0.469355 0.635435 0.091073 -0.010078 -365565.000000 0 0 1
-14.544047 7.422696 24.323206 29.295803 -0.471901 0.591218 0.092538 -0.007149 -519499.000000 0 0 1
-13.562347 8.234696 23.751926 28.563989 -0.545677 0.588933 0.098522 -0.009941 -200082.000000 0 0 1
-12.153047 7.995696 24.362016 28.374910 -0.581921 0.538311 0.078532 -0.002475 -715103.000000 0 0 1
-11.146647 8.502696 23.559586 27.415282 -0.651645 0.536780 0.062954 -0.012966 -762430.000000 0 0 1
-9.900347 8.506696 24.211406 27.505871 -0.709829 0.494456 0.059560 -0.011953 -71088.400000 0 0 1
-9.620747 9.828696 24.983906 28.519425 -0.796090 0.503226 0.067264 -0.020580 -522460.000000 0 0 1
-10.525047 10.074696 26.069386 29.864511 -0.763540 0.509636 0.060809 -0.026675 387009.000000 0 0 1
-10.377447 11.361696 26.709006 30.824512 -0.830643 0.522677 0.055892 -0.026243 -281451.000000 0 0 1
-11.008647 12.530696 25.874776 30.784942 -0.849968 0.572589 0.045452 -0.033110 228542.000000 0 0 1
-12.420247 12.657696 25.837046 31.337402 -0.794866 0.601514 0.064610 -0.033707 218373.000000 0 0 1
-13.004747 11.914696 24.780166 30.416115 -0.741683 0.618576 0.072601 -0.023030 -465576.000000 0 0 1
-14.534447 11.829696 24.783246 31.070905 -0.683164 0.647432 0.075370 -0.027589 -414549.000000 0 0 1
-15.141547 13.050696 24.414436 31.553951 -0.711370 0.686078 0.080694 -0.032092 240335.000000 0 0 1
-16.485847 13.003696 23.947356 31.848942 -0.667862 0.719851 0.080017 -0.011546 457478.000000 0 0 1
-16.732247 12.392696 22.552856 30.694923 -0.637489 0.745510 0.074007 -0.002026 -351210.000000 0 0 1
-16.605247 11.024696 22.440336 30.014111 -0.586105 0.726266 0.080505 -0.007297 -69260.800000 0 0 1
-16.731247 10.692696 21.110236 28.981208 -0.568664 0.754796 0.080697 -0.005650 106953.000000 0 0 1
-17.187347 9.249696 20.736236 28.477241 -0.493714 0.755150 0.071819 -0.003279 968829.000000 0 0 1
-18.592047 9.060696 20.964336 29.449343 -0.453470 0.778628 0.068929 0.007125 448188.000000 0 0 1
-18.957247 7.708696 20.723936 29.125294 -0.386214 0.779103 0.071638 -0.000263 735174.000000 0 0 1
-20.470247 7.375696 20.952936 30.206910 -0.345833 0.804256 0.094051 -0.010242 641574.000000 0 0 1
-20.908147 7.699696 22.231936 31.475306 -0.352851 0.786497 0.096483 -0.011464 -541785.000000 0 0 1
-22.300047 7.689696 22.358846 32.501408 -0.332060 0.812157 0.081825 -0.011765 -565561.000000 0 0 1
-22.771747 8.555696 23.524616 33.840212 -0.359398 0.802143 0.075660 -0.018377 -976914.000000 0 0 1
-22.599147 9.967696 23.480966 34.079791 -0.415399 0.810688 0.070007 -0.007933 -68221.600000 0 0 1
-21.289747 10.484696 23.331826 33.279968 -0.457611 0.793889 0.078323 -0.003137 700438.000000 0 0 1
-20.265347 10.111696 24.494026 33.359976 -0.462819 0.746259 0.088463 -0.021743 -217504.000000 0 0 1
-20.573347 10.729696 25.700066 34.624881 -0.480726 0.734385 0.100144 -0.028726 24534.600000 0 0 1
-20.269847 9.902696 26.807596 35.036799 -0.454440 0.699558 0.108927 -0.034358 -47979.500000 0 0 1
-31.922427 -13.168939 19.826136 39.818814 0.391261 1.049611 0.109363 -0.002013 -190293.000000 0 0 1
-31.181837 -14.347739 19.703536 39.577695 0.431247 1.049685 0.108720 -0.014094 115551.000000 0 0 1
-31.867627 -15.418339 18.986236 40.171482 0.450624 1.078524 0.103818 0.002437 260647.000000 0 0 1
-31.775857 -15.300539 17.431536 39.340438 0.448750 1.111749 0.117807 0.005310 -371776.000000 0 0 1
-32.549137 -14.249039 16.951036 39.367741 0.412637 1.125659 0.123154 -0.008118 -214753.000000 0 0 1
-32.303987 -13.810239 15.622236 38.448986 0.403994 1.152383 0.113982 -0.013806 -831882.000000 0 0 1
-33.251467 -12.690639 15.143136 38.678508 0.364594 1.168521 0.125726 -0.021576 1410060.000000 0 0 1
-34.638976 -12.957939 14.812736 39.839478 0.357969 1.189838 0.134258 -0.018517 1428050.000000 0 0 1
-35.545065 -13.327139 15.798836 41.117727 0.358715 1.176418 0.135836 -0.017523 -472992.000000 0 0 1
-36.287207 -12.195839 16.559536 41.709928 0.324231 1.162532 0.138832 -0.012825 -724347.000000 0 0 1
-37.211797 -12.639639 17.475236 43.010024 0.327440 1.152389 0.104754 -0.012429 -504325.000000 0 0 1
-37.936547 -11.488939 17.883536 43.485609 0.294066 1.146969 0.097514 -0.004700 -10410.900000 0 0 1
37.202228 -11.851739 19.019636 43.430589 -0.308411 1.117499 0.102641 -0.001293 -32903.100000 0 0 1
37.878338 -12.258939 20.207336 44.647357 -0.313001 1.101119 0.106648 0.000867 -240648.000000 0 0 1
37.187428 -11.895639 21.337336 44.493741 -0.309597 1.070645 0.090895 -0.007004 -1093140.000000 0 0 1
-38.036787 -12.132439 22.616596 45.885768 0.308765 1.055389 0.082708 -0.016789 947882.000000 0 0 1
-36.829127 -11.370439 22.675356 44.719607 0.299451 1.039030 0.089007 -0.014567 707503.000000 0 0 1
-35.807591 -11.969539 21.867936 43.630953 0.322597 1.045809 0.091947 -0.016551 -957928.000000 0 0 1
-34.465352 -11.240939 21.903336 42.355346 0.315273 1.027299 0.109788 -0.023055 -246853.000000 0 0 1
-34.508024 -10.003339 21.214336 41.724316 0.282151 1.037423 0.129633 -0.022928 -45531.900000 0 0 1
-33.222607 -9.433839 21.142136 40.493566 0.276676 1.021472 0.152488 -0.028976 -414361.000000 0 0 1
-33.276667 -8.182239 20.220436 39.788838 0.241102 1.037710 0.160604 -0.020870 56309.700000 0 0 1
-33.570497 -8.360039 18.861636 39.403424 0.244065 1.071646 0.161745 -0.021855 495608.000000 0 0 1
-34.976470 -8.351639 18.640836 40.504124 0.234390 1.092553 0.150914 -0.025281 23348.900000 0 0 1
-35.398024 -8.530739 17.173736 40.258301 0.236485 1.130079 0.150456 -0.023480 -755211.000000 0 0 1
-36.751367 -8.337239 16.917136 41.308135 0.223080 1.148852 0.064687 -0.015778 -531758.000000 0 0 1
-37.014427 -8.481339 15.537136 41.029301 0.225248 1.182422 0.093201 -0.012569 408183.000000 0 0 1
37.594808 -8.437739 15.197336 41.418885 -0.220780 1.195103 0.098324 -0.022971 331197.000000 0 0 1
36.885998 -9.595139 15.537336 41.158867 -0.254489 1.183705 0.086849 0.000457 243675.000000 0 0 1
35.490878 -9.336439 15.528736 39.848628 -0.257238 1.170498 0.070033 -0.001198 678633.000000 0 0 1
34.492358 -10.499039 15.902536 39.406132 -0.295477 1.155398 0.057606 -0.001380 453475.000000 0 0 1
34.385788 -11.036439 17.217236 40.007732 -0.310573 1.125918 0.034699 -0.007243 295915.000000 0 0 1
33.181358 -11.800039 17.285236 39.230381 -0.341675 1.114520 0.073881 -0.012888 373169.000000 0 0 1
32.898078 -12.290439 18.723936 39.798545 -0.357535 1.080975 0.070659 -0.012374 -135048.000000 0 0 1
33.651088 -13.411539 19.081136 40.943313 -0.379253 1.085989 0.067831 -0.002852 -303259.000000 0 0 1
33.897748 -13.277939 20.509536 41.785189 -0.373336 1.057751 0.081120 -0.002921 -479031.000000 0 0 1
34.564048 -14.507639 21.140036 43.035406 -0.397400 1.057302 0.085053 -0.010303 108226.000000 0 0 1
35.070998 -14.433339 22.474356 44.083930 -0.390420 1.035834 0.083775 -0.022555 40494.200000 0 0 1
35.485988 -15.722539 22.937506 45.084174 -0.417070 1.037040 0.087063 -0.031257 290569.000000 0 0 1
36.171268 -15.738839 24.357136 46.360994 -0.410411 1.017635 0.097051 -0.023884 986553.000000 0 0 1
37.365018 -14.918839 24.346226 47.026110 -0.379879 1.026616 0.096562 -0.017735 686340.000000 0 0 1
37.906428 -14.922339 25.651756 48.141314 -0.375031 1.008840 0.099245 -0.019799 -431847.000000 0 0 1
-37.091007 -13.900739 25.831366 47.288823 0.358572 0.992920 0.083389 -0.018808 -320695.000000 0 0 1
-35.877933 -14.436639 25.337596 46.234580 0.382558 0.990798 0.069614 -0.019724 -182934.000000 0 0 1
-34.849712 -13.475739 25.498626 45.235803 0.368972 0.971959 0.085762 -0.023969 7491.900000 0 0 1
-33.445977 -14.070339 25.297766 44.233299 0.398213 0.961956 0.073897 -0.025739 -549156.000000 0 0 1
-33.076207 -14.222239 23.960246 43.248132 0.406085 0.983613 0.083644 -0.020206 100408.000000 0 0 1
-31.760227 -14.733539 23.811836 42.341383 0.434352 0.973538 0.081287 -0.021315 229059.000000 0 0 1
-31.422827 -16.222739 24.141156 42.817832 0.476581 0.971804 0.080152 -0.013056 -756743.000000 0 0 1
-31.426757 -16.442339 25.535586 43.704207 0.482031 0.946801 0.081915 -0.013912 15057.400000 0 0 1
-31.127617 -17.776639 25.889416 44.217636 0.518890 0.945300 0.085314 -0.020343 -199219.000000 0 0 1
-30.603317 -17.861039 27.353466 44.763733 0.528296 0.913393 0.087887 -0.034603 -3404.510000 0 0 1
-29.344747 -17.228739 27.442206 43.715195 0.530891 0.892137 0.088847 -0.032509 -148946.000000 0 0 1
-28.779097 -17.525839 28.708516 44.267035 0.546995 0.865144 0.110772 -0.042878 287415.000000 0 0 1
-27.604527 -16.601239 29.118296 43.422186 0.541445 0.835798 0.088364 -0.036933 190539.000000 0 0 1
-27.963797 -15.318239 29.537676 43.463740 0.501144 0.823588 0.103483 -0.041298 189847.000000 0 0 1
-26.798807 -14.530839 29.387476 42.343182 0.496850 0.803723 0.090222 -0.039540 -91858.000000 0 0 1
-26.864437 -13.209739 30.216886 42.535343 0.457000 0.780737 0.093185 -0.035108 -94520.900000 0 0 1
-26.675217 -13.341339 31.628476 43.473199 0.463759 0.756067 0.091684 -0.036688 234715.000000 0 0 1
-26.384327 -12.114739 32.295093 43.426635 0.430449 0.732253 0.095249 -0.025361 -157921.000000 0 0 1
-25.765397 -12.310739 33.710676 44.179403 0.445731 0.702792 0.083701 -0.023702 600842.000000 0 0 1
-24.339747 -12.480839 -33.708863 43.410622 0.473816 2.459907 0.076355 -0.024600 929626.000000 0 0 1
-23.837447 -13.834639 -33.708323 43.541614 0.525864 2.456189 0.070472 -0.025349 -153122.000000 0 0 1
-23.891847 -14.648839 -32.337853 42.791887 0.550019 2.427519 0.072304 -0.024060 -201217.000000 0 0 1
-22.804647 -14.275139 -31.467723 41.401076 0.559300 2.434217 0.059169 -0.016326 675331.000000 0 0 1
-22.760647 -15.058239 -30.282283 40.765356 0.584480 2.408104 0.070415 -0.029838 114359.000000 0 0 1
-21.474047 -14.950239 -29.412603 39.366808 0.608171 2.414548 0.066930 -0.031528 165054.000000 0 0 1
-21.257047 -13.747339 -28.724533 38.287729 0.574065 2.419203 0.084629 -0.035648 67998.500000 0 0 1
-21.884947 -13.629739 -27.477193 37.679130 0.557009 2.388009 0.079742 -0.030313 -86184.400000 0 0 1
-21.175547 -12.532439 -26.634533 36.261056 0.534394 2.395758 0.076884 -0.029745 -167383.000000 0 0 1
-19.912347 -12.871539 -26.111233 35.270024 0.573847 2.404348 0.084118 -0.035315 -267719.000000 0 0 1
-19.413147 -11.741739 -25.485293 34.120945 0.543967 2.414200 0.076969 -0.037808 -101603.000000 0 0 1
-17.970647 -11.777839 -24.952833 32.928795 0.580157 2.430703 0.097103 -0.042686 -765258.000000 0 0 1
-17.884547 -12.527539 -23.762433 32.271496 0.611039 2.398425 0.103146 -0.042867 334126.000000 0 0 1
-16.614747 -12.735239 -23.140633 31.204567 0.653979 2.406216 0.107835 -0.047849 120955.000000 0 0 1
-15.542347 -13.452839 -23.935433 31.550727 0.713459 2.432009 0.098364 -0.041371 -1047030.000000 0 0 1
-14.785647 -12.619839 -24.783933 31.497921 0.706534 2.476474 0.118468 -0.049641 141988.000000 0 0 1
-14.118847 -13.414339 -25.781273 32.310376 0.759816 2.494642 0.129470 -0.046065 93915.400000 0 0 1
-13.215047 -12.565039 -26.716243 32.346179 0.760190 2.542677 0.135702 -0.041661 518326.000000 0 0 1
-13.924147 -11.776439 -27.655603 33.127010 0.702025 2.558630 0.133103 -0.047976 301575.000000 0 0 1
-12.907247 -11.100039 -28.382453 33.096397 0.710262 2.601322 0.136217 -0.052423 306846.000000 0 0 1
-13.430947 -9.988939 -29.318223 33.759849 0.639473 2.622833 0.103211 -0.037680 -557726.000000 0 0 1
-12.464447 -9.278639 -30.022053 33.805018 0.639913 2.663979 0.092730 -0.029095 -312161.000000 0 0 1
-12.199147 -9.961639 -31.297463 35.036904 0.684772 2.675367 0.104655 -0.023848 -33583.600000 0 0 1
-11.368647 -9.064539 -32.264353 35.389271 0.673109 2.718196 0.079544 -0.023934 -121049.000000 0 0 1
-10.080447 -8.880339 -31.747743 34.473106 0.722188 2.741288 0.082965 -0.030395 -271590.000000 0 0 1
-9.529947 -7.557939 -32.093373 34.320940 0.670503 2.779326 0.052222 -0.024584 112873.000000 0 0 1
-7.997947 -7.354639 -32.032493 33.825116 0.743520 2.814571 0.080787 -0.028173 -37529.800000 0 0 1
-7.360747 -7.716139 -30.837873 32.629646 0.808966 2.808659 0.063680 -0.026618 -397323.000000 0 0 1
-7.587047 -6.857339 -29.723693 31.433808 0.734923 2.810219 0.063978 -0.016440 -758122.000000 0 0 1
-7.281847 -5.319139 -29.848663 31.181104 0.630881 2.848198 0.048171 -0.024521 -77902.600000 0 0 1
-5.888947 -5.125139 -29.765513 30.772269 0.716161 2.885092 0.059478 -0.025641 -270493.000000 0 0 1
-5.545847 -3.953239 -30.467273 31.219213 0.619284 2.921669 0.091658 -0.043628 536619.000000 0 0 1
-4.056047 -3.530039 -30.240633 30.714957 0.716170 2.965623 0.123891 -0.034383 684.120000 0 0 1
-3.139947 -4.495139 -30.707223 31.192933 0.961064 2.964891 0.127235 -0.036358 -76697.400000 0 0 1
-1.793747 -4.204639 -30.405813 30.747520 1.167562 2.992368 0.147863 -0.029711 -23099.100000 0 0 1
-1.100947 -3.098639 -31.246783 31.419343 1.229407 3.036739 0.145495 -0.025086 -481808.000000 0 0 1
0.050353 -2.516539 -30.605113 30.708443 -1.550790 3.059535 0.113781 -0.029915 425816.000000 0 0 1
0.411653 -1.474239 -31.456993 31.494210 -1.298501 3.092973 0.118855 -0.019172 -278696.000000 0 0 1
1.178053 -0.472939 -30.598183 30.624505 -0.381763 3.100129 0.111591 -0.037876 -472754.000000 0 0 1
0.475753 0.107461 -29.547153 29.551178 0.222148 3.125087 0.121285 -0.036744 -818970.000000 0 0 1
1.002553 1.283961 -29.140103 29.185600 0.907855 3.085748 0.151523 -0.051546 -582212.000000 0 0 1
0.126153 2.031361 -28.118523 28.192085 1.508773 3.069337 0.127629 -0.046591 274187.000000 0 0 1
-1.069147 2.522261 -28.707363 28.837780 -1.169871 3.046452 0.109992 -0.057907 -197032.000000 0 0 1
-1.688847 3.484361 -27.908113 28.175446 -1.119469 3.003729 0.145474 -0.055163 -191065.000000 0 0 1
-3.007147 3.951361 -28.553803 28.982337 -0.920266 2.969415 0.176904 -0.057439 79151.400000 0 0 1
-2.793947 4.524361 -29.838313 30.308430 -1.017584 2.965233 0.175833 -0.063616 -705455.000000 0 0 1
-4.015847 4.875061 -30.373813 31.023568 -0.881739 2.936569 0.207562 -0.049861 -700281.000000 0 0 1
-3.772247 5.517961 -31.761923 32.457626 -0.971141 2.934174 0.198219 -0.043586 106057.000000 0 0 1
-3.511647 4.650361 -32.880263 33.392652 -0.924017 2.966186 0.223490 -0.050260 -407120.000000 0 0 1
-2.398947 3.828261 -32.945413 33.253733 -1.011018 3.005313 0.199554 -0.052053 -768130.000000 0 0 1
-1.920047 3.247761 33.192421 33.406157 -1.036879 0.113181 0.164364 -0.042473 25539.600000 0 0 1
-2.859247 2.295061 32.683903 32.888906 -0.676373 0.111711 0.165617 -0.056596 433468.000000 0 0 1
-2.579247 1.802961 31.350673 31.508219 -0.610072 0.100043 0.144326 -0.043596 54447.400000 0 0 1
-2.424847 2.723261 30.148816 30.368522 -0.843299 0.120361 0.136747 -0.032530 1139080.000000 0 0 1
-3.687647 3.327961 29.756556 30.168306 -0.734174 0.165406 0.131971 -0.032060 1102280.000000 0 0 1
-3.483147 4.271261 28.736686 29.260436 -0.886685 0.189490 0.124172 -0.030043 542806.000000 0 0 1
-4.729247 5.201361 28.642916 29.492992 -0.832904 0.240676 0.109845 -0.020767 470070.000000 0 0 1
-4.812247 5.877961 27.401846 28.435353 -0.884761 0.270437 0.102436 -0.016502 562394.000000 0 0 1
-6.098247 6.494561 27.173176 28.596319 -0.816859 0.316812 0.096700 -0.018529 729857.000000 0 0 1
-6.156247 7.327361 25.857586 27.571804 -0.872035 0.354480 0.089766 -0.018401 -191285.000000 0 0 1
-5.558047 8.582061 25.995166 27.933713 -0.996085 0.374743 0.103362 -0.021602 -194607.000000 0 0 1
-5.406247 9.249161 24.748626 26.967925 -1.041843 0.408530 0.080927 -0.016160 21850.900000 0 0 1
-4.555247 10.524061 24.864106 27.381196 -1.162303 0.432138 0.079283 -0.018732 -604065.000000 0 0 1
-4.634647 11.330761 23.705196 26.679626 -1.182528 0.476702 0.084592 -0.021529 313667.000000 0 0 1
-4.040447 12.639961 23.816606 27.263979 -1.261405 0.508336 0.079415 -0.016342 -751032.000000 0 0 1
-2.540547 12.771461 23.994216 27.299945 -1.374436 0.497223 0.080687 -0.015203 -1025850.000000 0 0 1
-1.901947 12.290261 25.175846 28.080085 -1.417262 0.458826 0.096027 -0.020352 -132843.000000 0 0 1
-2.089547 13.052361 26.346016 29.476141 -1.412054 0.465030 0.110373 -0.023721 -252573.000000 0 0 1
-1.106747 12.662561 27.466546 30.265104 -1.483615 0.433427 0.117011 -0.027253 -346808.000000 0 0 1
0.207753 13.088361 27.338536 30.310789 1.554925 0.446554 0.120901 -0.036563 -962584.000000 0 0 1
0.952753 12.639961 28.458086 31.153475 1.495562 0.419039 0.124853 -0.035651 -1438720.000000 0 0 1
2.421553 12.633161 28.255236 31.045435 1.381411 0.427210 0.107126 -0.034863 -1323490.000000 0 0 1
3.006753 13.957761 28.379856 31.769103 1.358621 0.466126 0.113112 -0.039967 46000.900000 0 0 1
4.388953 13.812661 28.079586 31.599299 1.263137 0.476481 0.111618 -0.038629 438463.000000 0 0 1
5.154553 15.162961 28.210016 32.439017 1.243108 0.516339 0.113091 -0.038761 -86128.900000 0 0 1
5.080053 15.702661 29.504136 33.806428 1.257908 0.510014 0.128353 -0.033194 527033.000000 0 0 1
4.007653 16.635161 29.730356 34.302827 1.334387 0.522242 0.103841 -0.031671 496711.000000 0 0 1
4.247253 18.107461 29.193596 34.614814 1.340403 0.567245 0.118177 -0.028439 144965.000000 0 0 1
5.421453 18.733461 29.667156 35.503167 1.289093 0.581536 0.135501 -0.017991 -181909.000000 0 0 1
5.657753 19.872761 28.859206 35.493529 1.293436 0.621367 0.108733 -0.019425 127241.000000 0 0 1
6.606353 20.931361 29.472836 36.747977 1.265072 0.640117 0.107680 -0.012111 -340345.000000 0 0 1
6.174453 21.512661 30.687186 37.981862 1.291295 0.630143 0.103030 -0.021103 -163163.000000 0 0 1
7.132453 22.284961 31.376962 39.140837 1.261042 0.640758 0.104143 -0.023694 -28754.500000 0 0 1
7.526953 23.635561 30.732396 39.493986 1.262492 0.679075 0.108664 -0.012548 37778.700000 0 0 1
8.194253 23.485361 29.489096 38.578683 1.235094 0.700704 0.079419 -0.011111 -34345.600000 0 0 1
8.508453 24.719461 28.906056 38.974422 1.239297 0.735244 0.082908 -0.018077 21519.700000 0 0 1
8.832853 24.555861 27.415946 37.850280 1.225502 0.760740 0.100299 -0.021613 -110590.000000 0 0 1
7.731453 24.065961 26.678556 36.751751 1.259950 0.758436 0.089316 -0.015027 345556.000000 0 0 1
7.969553 24.133661 25.293096 35.856493 1.251845 0.787812 0.096288 -0.023549 -107030.000000 0 0 1
31.010408 2.217261 7.414467 31.961477 0.071379 1.336682 0.201675 -0.016204 -12970.200000 0 0 1
30.739308 3.523061 7.862467 31.923900 0.114113 1.321948 0.189511 -0.031902 349703.000000 0 0 1
29.560908 3.471761 8.676467 31.002927 0.116909 1.287148 0.182947 -0.027695 428773.000000 0 0 1
29.525208 4.546661 9.831767 31.449542 0.152792 1.252846 0.156596 -0.029328 -150772.000000 0 0 1
29.341008 5.975361 9.583067 31.439384 0.200905 1.261056 0.168255 -0.021682 810105.000000 0 0 1
30.442208 6.677461 8.962767 32.429118 0.215929 1.290771 0.178332 -0.036477 640845.000000 0 0 1
30.041008 8.142861 8.763067 32.335116 0.264698 1.296357 0.207217 -0.043994 -214044.000000 0 0 1
28.866308 8.280361 8.043567 31.089019 0.279351 1.309092 0.174778 -0.033325 -613750.000000 0 0 1
29.051408 9.209361 6.963367 31.261560 0.306981 1.346167 0.199858 -0.068614 -129055.000000 0 0 1
28.046908 9.128461 5.808367 30.061520 0.314658 1.376357 0.172554 -0.052912 296348.000000 0 0 1
26.715208 9.495261 6.130667 29.007713 0.341500 1.357844 0.187451 -0.052489 272898.000000 0 0 1
25.879408 9.544761 4.970567 28.027714 0.353339 1.392509 0.186772 -0.048325 994692.000000 0 0 1
24.408908 9.966961 5.314067 26.895621 0.387669 1.371907 0.149267 -0.050777 666010.000000 0 0 1
24.377608 11.358761 5.477167 27.446104 0.436039 1.369887 0.157844 -0.047350 1071180.000000 0 0 1
23.032108 11.830161 5.730667 26.519262 0.474498 1.352984 0.160027 -0.045089 1078120.000000 0 0 1
22.929008 13.347861 5.973367 27.195329 0.527183 1.349344 0.161947 -0.033033 -43347.800000 0 0 1
22.881208 14.187361 4.808067 27.348646 0.555028 1.394071 0.151581 -0.044660 184031.000000 0 0 1
22.918708 15.489961 5.272767 28.160401 0.594344 1.382444 0.186138 -0.034630 -288797.000000 0 0 1
22.540608 16.443161 4.169367 28.210640 0.630245 1.422459 0.144567 -0.033570 -537.960000 0 0 1
21.137808 16.451061 3.982067 27.079535 0.661354 1.423210 0.160776 -0.027146 323818.000000 0 0 1
20.736008 17.306161 2.952867 27.169922 0.695482 1.461900 0.149424 -0.019364 1465880.000000 0 0 1
19.197908 17.311861 2.493567 25.970716 0.733785 1.474634 0.138844 -0.025311 1489860.000000 0 0 1
18.350708 17.752761 3.500767 25.771387 0.768838 1.434536 0.146160 -0.035774 528939.000000 0 0 1
16.961908 17.668661 3.180167 24.698206 0.805804 1.441677 0.122619 -0.042370 272018.000000 0 1 0
16.052108 18.503661 4.065267 24.831070 0.856224 1.406339 0.128058 -0.055889 -1001300.000000 0 1 0
14.697008 18.281261 3.853867 23.770967 0.893659 1.407953 0.123412 -0.060024 -777510.000000 0 1 0
14.079608 19.480761 4.142167 24.390428 0.944968 1.400142 0.097477 -0.057052 80363.800000 0 1 0
12.560608 19.569561 3.808467 23.563553 1.000176 1.408459 0.093008 -0.046890 505789.000000 0 1 0
11.683708 18.787461 4.629367 22.603291 1.014438 1.364527 0.075141 -0.049998 -441086.000000 0 1 0
10.421508 19.341061 4.480067 22.422210 1.076571 1.369638 0.066465 -0.026821 -295531.000000 0 1 0
9.323708 18.856361 5.492567 21.740795 1.111591 1.315390 0.040199 -0.027512 128290.000000 0 1 0
9.621008 19.338161 6.762567 22.633175 1.109139 1.267372 0.066386 -0.034505 -203103.000000 0 1 0
8.856508 18.666261 7.719067 22.055635 1.127784 1.213245 0.064744 -0.031811 -305556.000000 0 1 0
7.922008 19.649861 8.492767 22.825476 1.187570 1.189554 0.056255 -0.026724 -83866.100000 0 1 0
6.734008 19.955661 7.822767 22.467109 1.245347 1.215159 0.047197 -0.026777 -245123.000000 0 1 0
6.667408 21.314161 7.392067 23.524253 1.267624 1.251149 0.054652 -0.022824 -864741.000000 0 1 0
5.603708 21.568961 6.321767 23.164334 1.316612 1.294380 0.053690 -0.020795 988237.000000 0 1 0
4.227608 21.559561 6.798267 22.997908 1.377163 1.270709 0.056833 -0.029440 1268960.000000 0 1 0
3.751508 22.547161 7.666467 24.108567 1.405922 1.247180 0.055496 -0.032667 -674485.000000 0 1 0
3.674308 23.981661 7.103767 25.280113 1.418765 1.285958 0.076610 -0.027091 -42699.400000 0 0 1
2.699108 24.102361 6.074367 25.002139 1.459276 1.325386 0.055989 -0.020161 290719.000000 0 0 1
2.867408 25.312661 5.428167 26.046456 1.457998 1.360854 0.069900 -0.021157 -536088.000000 0 0 1
1.701608 25.582461 4.498467 26.030636 1.504380 1.397110 0.072758 -0.020057 276603.000000 0 0 1
0.470108 25.848061 5.210167 26.372128 1.552611 1.371925 0.075464 -0.019379 75317.200000 0 0 1
-0.544092 26.128161 4.288967 26.483430 -1.549975 1.408131 0.091350 -0.022092 -1202010.000000 0 0 1
-1.744792 26.621261 5.022767 27.147082 -1.505349 1.384704 0.104982 -0.017891 -993378.000000 0 0 1
-2.857592 26.777061 4.169567 27.249993 -1.464481 1.417181 0.133743 -0.031046 -322157.000000 0 0 1
-3.897392 27.462161 4.823667 28.153645 -1.429819 1.398613 0.134370 -0.034378 -311834.000000 0 0 1
-4.858092 28.130861 3.817967 28.801446 -1.399787 1.437843 0.138843 -0.040612 -139521.000000 0 0 1
-4.291092 29.180561 3.027167 29.649323 -1.424790 1.468519 0.151479 -0.041858 -42599.600000 0 0 1
-5.040092 29.411461 1.877567 29.899195 -1.401080 1.507958 0.161453 -0.049308 -267817.000000 0 0 1
-4.216892 30.237061 0.861567 30.541846 -1.432229 1.542583 0.165560 -0.047197 322157.000000 0 0 1
-3.840392 31.610061 1.142367 31.862981 -1.449896 1.534936 0.179258 -0.043529 229445.000000 0 0 1
-2.729192 31.711461 2.017567 31.892567 -1.484945 1.507493 0.179569 -0.044582 113072.000000 0 0 1
-1.893492 33.021661 1.799767 33.124833 -1.513518 1.516437 0.175032 -0.039241 -762545.000000 0 0 1
-1.234692 33.213061 0.573867 33.240957 -1.533639 1.553532 0.143318 -0.038542 -71248.500000 0 0 1
-0.287192 -33.231004 0.700567 33.239629 1.562154 1.549719 0.136183 -0.038076 279952.000000 0 0 1
1.073208 -33.525504 1.384167 33.571225 -1.538796 1.529554 0.113143 -0.022897 -591700.000000 0 0 1
0.977308 -33.430004 2.817567 33.562762 -1.541570 1.486748 0.121141 -0.026446 -487512.000000 0 0 1
2.167508 33.629861 3.407267 33.871450 1.506433 1.470032 0.096771 -0.018528 -515778.000000 0 0 1
2.172008 -33.701704 4.917267 34.127731 -1.506437 1.426209 0.101978 -0.024111 62768.900000 0 0 1
1.249208 32.925861 5.579667 33.418641 1.532874 1.403048 0.152434 -0.039634 -49571.700000 0 0 1
0.649208 33.509961 6.736967 34.186630 1.551425 1.372434 0.162882 -0.030843 351027.000000 0 0 1
1.480608 33.510561 8.068367 34.499978 1.526642 1.334744 0.137785 -0.028359 165095.000000 0 0 1
1.797208 32.207761 8.465567 33.350197 1.515054 1.314150 0.149145 -0.035725 151944.000000 0 0 1
2.764308 32.168161 9.505667 33.656941 1.485074 1.284472 0.171224 -0.041787 45045.800000 0 0 1
3.479008 30.834961 9.659667 32.499346 1.458445 1.269010 0.161162 -0.039646 297934.000000 0 0 1
2.679008 29.809961 10.287967 31.648904 1.481168 1.239715 0.181883 -0.038898 583423.000000 0 0 1
3.403308 28.573261 10.255567 30.548166 1.452247 1.228429 0.130809 -0.038184 126731.000000 0 0 1
2.899508 27.408961 11.183267 29.744306 1.465401 1.185342 0.132309 -0.041309 -351706.000000 0 0 1
3.255108 27.682661 12.599167 30.588633 1.453747 1.146269 0.149289 -0.044711 457518.000000 0 0 1
2.707408 26.739761 13.549767 30.098855 1.469890 1.103834 0.162328 -0.037120 592426.000000 0 0 1
1.157508 26.482661 13.618967 29.801803 1.527116 1.096194 0.132482 -0.028803 613069.000000 0 0 1
0.434908 27.553161 14.204567 31.002186 1.555013 1.094850 0.146568 -0.027318 107234.000000 0 0 1
0.082008 28.609961 13.282667 31.543079 1.567930 1.136143 0.168660 -0.034499 -354383.000000 0 0 1
-0.822692 29.683661 13.924667 32.797758 -1.543088 1.132319 0.176844 -0.035128 1137000.000000 0 0 1
-2.102692 29.262461 14.467567 32.711213 -1.499063 1.112655 0.154541 -0.030957 1136080.000000 0 0 1
-2.629292 30.382961 15.164667 34.058841 -1.484473 1.109344 0.176945 -0.027424 332721.000000 0 0 1
-3.950192 30.123061 15.957667 34.316905 -1.440405 1.087152 0.167537 -0.012634 845919.000000 0 0 1
-5.125192 30.041561 15.150467 34.033802 -1.401820 1.109444 0.143804 -0.015596 154145.000000 0 0 1
-6.201892 29.582361 15.925267 34.164217 -1.364141 1.085875 0.117035 -0.011951 -770213.000000 0 0 1
-7.462192 29.383461 15.097967 33.867694 -1.322095 1.108737 0.105877 -0.021023 -648453.000000 0 0 1
-8.610192 29.003861 15.803167 34.133553 -1.282219 1.089442 0.096104 -0.021136 -223177.000000 0 0 1
-9.642792 28.567761 14.930467 33.645494 -1.245264 1.111008 0.079584 -0.015163 411157.000000 0 0 1
-10.862992 28.082161 15.771567 33.990509 -1.201696 1.088292 0.076376 -0.011869 340358.000000 0 0 1
-11.519392 29.142561 16.521467 35.425191 -1.194368 1.085607 0.062267 -0.024082 363652.000000 0 0 1
-11.762592 28.745161 17.878567 35.836937 -1.182382 1.048483 0.078588 -0.023072 -387779.000000 0 0 1
-12.642392 29.808461 18.539967 37.310921 -1.169671 1.050768 0.070070 -0.020311 102067.000000 0 0 1
-13.982092 29.735661 18.025467 37.478339 -1.131261 1.069050 0.084610 -0.024800 649219.000000 0 0 1
-14.760092 30.889561 18.255267 38.797939 -1.125038 1.080915 0.075143 -0.017677 -5175.800000 0 0 1
-15.610492 30.833361 19.521267 39.692109 -1.102133 1.056621 0.081275 -0.024293 -344727.000000 0 0 1
-14.845292 30.722961 20.702367 39.910789 -1.120680 1.025448 0.077371 -0.027261 181177.000000 0 0 1
-15.715592 30.301061 21.744767 40.471830 -1.092342 1.003586 0.068700 -0.023075 304685.000000 0 0 1
-15.089292 30.351961 23.144867 41.044039 -1.109436 0.971692 0.068896 -0.017811 -71002.700000 0 0 1
-14.006492 29.451061 23.394367 40.135312 -1.126871 0.948519 0.077998 -0.020768 544870.000000 0 0 1
-13.690592 29.212861 24.726567 40.647591 -1.132542 0.916860 0.086330 -0.013030 -136148.000000 0 0 1
-13.197292 30.350561 25.638267 41.864613 -1.160630 0.911692 0.081762 -0.012425 -81362.200000 0 0 1
-14.220692 31.349161 25.825467 43.034320 -1.144934 0.927154 0.084443 -0.019909 508797.000000 0 0 1
-13.852792 32.500061 26.530267 44.181545 -1.167877 0.926691 0.091638 -0.024594 -25260.800000 0 0 1
-15.079792 33.334661 27.015267 45.479934 -1.145968 0.934769 0.113245 -0.035786 111045.000000 0 0 1
-15.757092 33.046061 28.206967 46.216459 -1.125862 0.914328 0.092129 -0.038853 463758.000000 0 0 1
-14.943792 32.975961 29.400267 46.638039 -1.145307 0.888738 0.105119 -0.028844 -300804.000000 0 0 1
-15.710992 32.245761 30.438267 47.043729 -1.117420 0.867126 0.088182 -0.027499 -21432.700000 0 0 1
-16.893792 32.898361 30.876567 48.177430 -1.096396 0.875136 0.089222 -0.029149 -66340.800000 0 0 1
-17.542392 32.317561 31.964967 48.722884 -1.073488 0.855215 0.079555 -0.020517 -816159.000000 0 0 1
-18.992092 32.736361 32.007067 49.566332 -1.045098 0.868802 0.084001 -0.024201 -831755.000000 0 0 1
-19.240092 -33.429904 32.411767 50.381170 1.048560 0.871955 0.105952 -0.024235 48681.400000 0 0 1
-20.632892 -33.172704 32.331267 50.709519 1.014369 0.879446 0.115272 -0.019333 177729.000000 0 0 1
-20.887092 -31.676404 32.663967 50.065956 0.987849 0.860025 0.122610 -0.013088 -188022.000000 0 0 1
-20.649692 -31.218604 -33.428102 50.184151 0.986411 2.299776 0.115579 -0.013047 813150.000000 0 0 1
-21.680992 -31.650804 -32.486002 50.271057 0.970204 2.273413 0.109633 -0.016812 781341.000000 0 0 1
-21.565692 -31.150404 -31.017402 48.964334 0.965251 2.256825 0.114434 -0.017996 66435.700000 0 0 1
-21.787292 -29.732004 -30.810102 48.041030 0.938401 2.267025 0.123657 -0.008320 34464.100000 0 0 1
-21.145992 -29.304004 -29.617602 46.723441 0.945715 2.257371 0.110857 -0.008173 262368.000000 0 0 1
-21.180792 -27.793504 -29.428502 45.685244 0.919611 2.270718 0.113414 -0.016380 702428.000000 0 0 1
-22.526192 -27.375104 -29.190202 45.922691 0.882264 2.259631 0.112025 -0.016127 287197.000000 0 0 1
-22.732892 -26.032204 -29.509302 45.445120 0.852952 2.277512 0.107573 -0.016855 872514.000000 0 0 1
-24.102992 -25.463804 -28.969502 45.481772 0.812845 2.261328 0.116186 -0.019035 810212.000000 0 0 1
-24.150992 -25.585804 -27.527802 44.673075 0.814238 2.234712 0.108385 -0.020967 84484.000000 0 0 1
-23.342992 -24.664504 -26.801202 43.261270 0.812918 2.238927 0.108531 -0.035230 65349.200000 0 0 1
-23.130992 -25.130704 -25.346702 42.532933 0.826809 2.209221 0.111337 -0.028483 631699.000000 0 0 1
-24.349292 -24.965004 -24.616202 42.686026 0.797883 2.185456 0.113143 -0.033731 611630.000000 0 0 1
-24.187692 -25.505704 -23.295102 42.169268 0.811915 2.156060 0.109319 -0.026109 306593.000000 0 0 1
-25.494992 -25.336904 -22.430602 42.368446 0.782288 2.128710 0.102999 -0.026126 2028260.000000 0 0 1
-26.650592 -26.082604 -22.961102 43.792334 0.774628 2.122710 0.103459 -0.023707 940748.000000 0 0 1
-26.692792 -27.470004 -22.787202 44.568631 0.799747 2.107474 0.091658 -0.021868 78507.300000 0 0 1
-28.172492 -27.969804 -22.909602 45.835020 0.781788 2.094196 0.056640 -0.017796 1010440.000000 0 0 1
-28.976392 -27.471604 -21.839202 45.511219 0.758747 2.071296 0.059075 -0.009171 96861.000000 0 0 1
-30.220092 -26.943804 -22.268002 46.206996 0.728147 2.073639 0.063375 -0.010362 539711.000000 0 0 1
-30.998292 -26.154804 -21.138002 45.736014 0.700854 2.051242 0.077997 -0.001880 -148637.000000 0 0 1
-31.588392 -26.945804 -20.169802 46.159763 0.706250 2.023008 0.072906 -0.001965 14997.500000 0 0 1
-32.212092 -26.163104 -19.179602 45.716343 0.682144 2.003729 0.076907 0.002788 -629608.000000 0 0 1
-32.808692 -26.991104 -17.986302 46.134987 0.688419 1.971279 0.062198 -0.004231 872903.000000 0 0 1
-33.978892 -27.831704 -18.240402 47.559238 0.686272 1.964412 0.057557 0.009480 2012570.000000 0 0 1
-35.194392 -27.127304 -18.577402 48.162804 0.656671 1.966785 0.047612 0.010299 478809.000000 0 0 1
-35.978692 -26.558504 -17.352602 47.968043 0.635889 1.940944 0.059591 0.009825 -434216.000000 0 0 1
-35.460992 -25.254304 -17.002202 46.736888 0.618848 1.943125 0.053464 0.017364 532723.000000 0 0 1
-36.041592 -24.671204 -15.842102 46.461133 0.600261 1.918751 0.054988 0.010855 -93688.100000 0 0 1
-35.550092 -25.306804 -14.517402 45.989111 0.618644 1.891959 0.085443 0.011184 -55266.000000 0 0 1
-36.177192 -26.559604 -14.326302 47.110983 0.633282 1.879787 0.098607 0.017717 180453.000000 0 0 1
-35.822592 -27.227204 -13.151802 46.878019 0.649906 1.855167 0.104477 0.007284 -130563.000000 0 0 1
-36.641092 -28.497304 -12.845802 48.163062 0.661021 1.840779 0.120082 -0.008262 208650.000000 0 0 1
-36.094492 -29.585104 -13.631102 48.619931 0.686613 1.854966 0.100537 -0.002676 577828.000000 0 0 1
-36.213392 -30.843604 -12.992102 49.310571 0.705491 1.837419 0.095298 -0.013720 -502831.000000 0 0 1
-35.813992 -32.143304 -13.721102 50.041010 0.731436 1.848551 0.094824 -0.014294 -276277.000000 0 0 1
-34.410192 -32.216104 -13.838602 49.126831 0.752479 1.856353 0.069103 -0.014903 175412.000000 0 0 1
-34.035592 -33.275904 -14.747802 49.831767 0.774112 1.871248 0.084343 -0.026445 767598.000000 0 0 1
-32.498992 -33.469204 -14.985602 48.999391 0.800104 1.881609 0.098764 -0.021617 833884.000000 0 0 1
-32.220292 32.890361 -15.779402 48.671476 -0.795689 1.900965 0.096835 -0.020683 645919.000000 0 0 1
-30.813292 32.795761 -16.089402 47.790059 -0.816555 1.914173 0.096799 -0.017806 802131.000000 0 0 1
9.758353 20.011861 -9.792333 24.322620 1.117095 1.985154 0.109209 -0.012013 -222074.000000 0 1 0
8.436853 19.539961 -9.597533 23.347446 1.163202 1.994428 0.103473 -0.020703 -109446.000000 0 1 0
7.724253 19.632961 -10.815233 23.708364 1.195964 2.044492 0.113367 -0.019598 22879.700000 0 1 0
7.699953 18.262961 -11.536033 22.932621 1.171796 2.097909 0.094437 -0.017214 -438068.000000 0 1 0
8.901453 17.881661 -12.193233 23.402235 1.108912 2.118852 0.142155 -0.030000 89116.100000 0 1 0
8.999553 16.577761 -12.763833 22.775635 1.073444 2.165684 0.126375 -0.046847 -138273.000000 0 1 0
10.266753 16.412461 -13.636133 23.679511 1.011804 2.184455 0.151523 -0.036901 331998.000000 0 1 0
10.156253 15.226561 -14.362333 23.265301 0.982557 2.236139 0.152823 -0.046763 690692.000000 0 1 0
11.369753 14.971561 -15.077533 24.098774 0.921292 2.246768 0.183385 -0.050646 343700.000000 0 1 0
11.428353 13.564961 -15.684333 23.677283 0.870678 2.294842 0.170714 -0.052319 -190205.000000 0 1 0
11.416453 12.495861 -14.707833 22.423253 0.830508 2.286195 0.170862 -0.053512 715490.000000 0 1 0
12.615553 12.333361 -13.964533 22.500492 0.774088 2.240345 0.189252 -0.057325 788147.000000 0 1 0
13.862353 11.593461 -14.575333 23.216664 0.696502 2.249515 0.211706 -0.065335 755353.000000 0 1 0
14.544053 12.234561 -15.640833 24.614013 0.699367 2.259380 0.179162 -0.052483 386754.000000 0 1 0
15.692053 11.470861 -15.982733 25.164835 0.631229 2.258962 0.186652 -0.070263 185840.000000 0 0 1
16.293053 11.871561 -17.331333 26.585196 0.629682 2.280906 0.132510 -0.057860 -86700.500000 0 0 1
16.962053 13.102561 -17.327533 27.561418 0.657723 2.250661 0.115741 -0.042823 -423943.000000 0 0 1
17.692353 13.352361 -18.474233 28.854847 0.646500 2.265616 0.071540 -0.028175 222655.000000 0 0 1
18.956653 14.228861 -18.245233 29.911598 0.643885 2.226821 0.076403 -0.011161 98811.000000 0 0 1
18.597153 15.583761 -17.841933 30.117143 0.697465 2.204853 0.096297 -0.023529 313769.000000 0 0 1
18.310353 16.548761 -18.863233 31.063678 0.734907 2.223384 0.081128 -0.012571 33346.400000 0 0 1
18.017753 17.998761 -18.286233 31.352530 0.784871 2.193515 0.102573 -0.027498 -423834.000000 0 0 1
19.159053 18.780461 -18.186233 32.411635 0.775420 2.166513 0.107887 -0.023099 -383297.000000 0 0 1
18.882453 19.918161 -17.385533 32.489028 0.812085 2.135446 0.096021 -0.019343 37715.200000 0 0 1
20.002853 21.028761 -17.485033 33.882876 0.810396 2.113022 0.118246 -0.025623 690891.000000 0 0 1
21.202453 20.602761 -16.852833 34.029924 0.771054 2.088902 0.132182 -0.025991 -66498.400000 0 0 1
21.169253 20.782561 -15.432833 33.439863 0.776181 2.050493 0.135101 -0.024373 -760736.000000 0 0 1
21.849853 22.061761 -14.897633 34.439466 0.790224 2.018143 0.139370 -0.022309 -234734.000000 0 0 1
23.244253 21.920361 -14.929433 35.265925 0.756094 2.007924 0.139856 -0.035055 -379970.000000 0 0 1
23.929453 23.046861 -14.412933 36.214764 0.766612 1.980116 0.113434 -0.041634 -751192.000000 0 0 1
25.431153 22.888561 -14.379633 37.113389 0.732826 1.968662 0.098799 -0.026678 -891005.000000 0 0 1
26.086753 22.951461 -15.606033 38.089848 0.721549 1.992939 0.113678 -0.019118 1242780.000000 0 0 1
27.419953 23.524261 -15.427033 39.284068 0.709077 1.974367 0.104720 -0.006888 1583780.000000 0 0 1
28.173153 23.792061 -16.790433 40.517988 0.701289 1.998074 0.122675 -0.017385 356929.000000 0 0 1
28.841653 22.656361 -17.392233 40.591149 0.665863 2.013599 0.125708 -0.024510 400886.000000 0 0 1
28.945953 22.791761 -18.759233 41.342973 0.667005 2.041762 0.131597 -0.029291 -244846.000000 0 0 1
29.497953 21.612561 -19.585533 41.482829 0.632324 2.062508 0.119157 -0.040155 379193.000000 0 0 1
30.901453 21.426661 -19.548833 42.381110 0.606274 2.050214 0.107491 -0.021967 -15942.600000 0 0 1
31.374753 20.949061 -20.771933 43.066361 0.588721 2.074102 0.136441 -0.037101 -39360.800000 0 0 1
32.845253 21.255561 -21.146033 44.472061 0.574364 2.066318 0.131332 -0.043193 -86393.600000 0 0 1
32.998753 22.575561 -21.701733 45.492185 0.599998 2.068084 0.108233 -0.032629 616476.000000 0 0 1
34.367753 22.974561 -21.579133 46.632948 0.589265 2.051885 0.106940 -0.024065 487939.000000 0 0 1
34.694653 24.370161 -22.063633 47.795686 0.612347 2.050621 0.104264 -0.028520 -516223.000000 0 0 1
34.689453 24.523761 -23.460633 48.530138 0.615376 2.075358 0.092778 -0.025604 694773.000000 0 0 1
33.366953 24.526661 -24.035633 47.881336 0.633870 2.096687 0.096525 -0.027268 543147.000000 0 0 1
33.315353 24.840261 -25.501983 48.757589 0.640686 2.121206 0.110015 -0.035958 -482610.000000 0 0 1
33.418953 26.251661 -25.725023 49.676483 0.665857 2.115133 0.117136 -0.038059 1137590.000000 0 0 1
32.134153 26.873661 -26.037933 49.323133 0.696484 2.126928 0.112428 -0.027502 1406880.000000 0 0 1
31.475053 26.550561 -27.387513 49.453889 0.700733 2.157716 0.114504 -0.026990 -258056.000000 0 0 1
30.929453 25.257161 -27.493333 48.481322 0.684785 2.173766 0.112350 -0.039191 -104243.000000 0 0 1
30.654753 25.035461 -28.881133 48.996000 0.684836 2.201185 0.106244 -0.038704 -146959.000000 0 0 1
29.907353 23.686961 -29.063563 47.960532 0.669851 2.221805 0.112315 -0.044625 -179144.000000 0 0 1
28.676453 23.742461 -28.387913 46.817913 0.691549 2.222255 0.096789 -0.034417 -348787.000000 0 0 1
27.851253 22.675361 -28.751683 46.005691 0.683315 2.245876 0.092012 -0.044205 -446963.000000 0 0 1
26.438053 22.786461 -28.170343 44.852666 0.711351 2.249859 0.065977 -0.033079 -414739.000000 0 0 1
26.447253 22.499461 -26.775703 43.847705 0.704917 2.227680 0.083179 -0.022611 220023.000000 0 0 1
25.168553 22.626061 -26.208613 42.805211 0.732252 2.229733 0.075064 -0.028213 -315224.000000 0 0 1
25.256753 22.549261 -24.681733 41.899412 0.728824 2.200705 0.093835 -0.023427 -154402.000000 0 0 1
25.551953 21.202061 -24.228133 41.102702 0.692627 2.201179 0.093224 -0.023876 310603.000000 0 0 1
25.810653 21.175561 -22.865533 40.465131 0.687068 2.171311 0.113155 -0.034648 -102156.000000 0 0 1
26.508753 19.911061 -22.286633 39.948196 0.644213 2.162636 0.123013 -0.030521 -129094.000000 0 0 1
27.802353 19.772561 -22.814833 41.041949 0.618192 2.160230 0.111939 -0.034272 -387723.000000 0 0 1
28.613953 19.006661 -21.956833 40.769032 0.586324 2.139531 0.154000 -0.047648 -126471.000000 0 0 1
29.822953 18.459561 -22.755533 41.808829 0.554253 2.146322 0.174277 -0.055559 -73660.400000 0 0 1
30.906453 17.980861 -21.997833 41.981244 0.526917 2.122327 0.176090 -0.057451 -631113.000000 0 0 1
31.858553 17.424561 -22.844233 42.900370 0.500487 2.132342 0.164797 -0.048655 -483387.000000 0 0 1
33.184253 17.226861 -22.081533 43.422960 0.478832 2.104264 0.153462 -0.038892 -287717.000000 0 0 1
33.897153 18.422861 -21.878233 44.351729 0.497834 2.086663 0.126319 -0.032505 980850.000000 0 0 1
35.185553 18.118061 -21.262633 44.926460 0.475519 2.063803 0.120794 -0.022722 1516420.000000 0 0 1
35.786253 19.355761 -20.436933 45.529876 0.495808 2.036295 0.085920 -0.030894 -35287.600000 0 0 1
35.292053 19.485461 -19.151733 44.631839 0.504470 2.014298 0.112273 -0.027932 263390.000000 0 0 1
35.978853 20.536961 -18.457533 45.353337 0.518677 1.989933 0.088966 -0.015133 641368.000000 0 0 1
35.224253 20.675561 -17.086133 44.273725 0.530783 1.967002 0.088937 -0.023530 487357.000000 0 0 1
35.613753 19.609061 -16.227233 43.774168 0.503307 1.950563 0.090628 -0.034184 332195.000000 0 0 1
35.057853 19.715961 -14.929333 42.902881 0.512301 1.926212 0.079362 -0.025543 -227309.000000 0 0 1
35.288353 18.459161 -14.122533 42.254638 0.481952 1.911579 0.081505 -0.015995 -393458.000000 0 0 1
36.679953 18.279261 -13.980733 43.301400 0.462323 1.899557 0.066577 -0.022281 -139623.000000 0 0 1
36.995153 17.058361 -13.335733 42.865730 0.432044 1.887152 0.059376 0.002156 -172594.000000 0 0 1
36.949953 17.156661 -11.809933 42.416088 0.434700 1.852956 0.068244 -0.011200 363129.000000 0 0 1
38.021053 17.946861 -11.222533 43.515923 0.441018 1.831639 0.061414 -0.014975 711084.000000 0 0 1
37.840153 18.357861 -9.915433 43.211157 0.451691 1.802324 0.070654 -0.015064 -201592.000000 0 0 1
36.815553 19.503261 -9.689033 42.774285 0.487168 1.799295 0.079134 -0.016537 655512.000000 0 0 1
35.471553 19.116161 -9.982633 41.512789 0.494293 1.813648 0.081016 -0.024561 -45855.900000 0 0 1
34.596853 20.188961 -10.107533 41.312209 0.528235 1.817968 0.062653 -0.009086 -549434.000000 0 0 1
33.163953 19.677761 -10.247533 39.900802 0.535514 1.830532 0.041777 -0.003967 -459921.000000 0 0 1
33.059853 19.064761 -11.488633 39.854833 0.523092 1.863208 0.070265 -0.006231 607573.000000 0 0 1
31.725553 18.539661 -11.541733 38.515469 0.528852 1.875138 0.063958 -0.008606 691326.000000 0 0 1
31.327553 17.924661 -12.887733 38.324962 0.519704 1.913755 0.100090 -0.014111 122212.000000 0 0 1
32.258353 16.884361 -13.165833 38.717207 0.482200 1.917768 0.088187 -0.011446 324370.000000 0 0 1
31.887053 16.088661 -14.282633 38.465865 0.467282 1.951212 0.075798 -0.013893 -301622.000000 0 0 1
33.066753 15.388961 -14.968733 39.424526 0.435579 1.960247 0.103820 -0.023616 175387.000000 0 0 1
33.787153 14.482461 -14.096933 39.370508 0.404948 1.936984 0.083627 -0.020496 154624.000000 0 0 1
34.812853 13.810261 -14.767633 40.258428 0.377658 1.946386 0.093887 -0.019068 -297902.000000 0 0 1
35.618753 12.848761 -13.866533 40.324521 0.346202 1.921835 0.065554 -0.029314 -273595.000000 0 0 1
36.432853 13.593961 -12.975333 40.993997 0.357125 1.892853 0.068969 -0.006858 -195111.000000 0 0 1
37.109453 12.711661 -12.157533 41.067060 0.330018 1.871341 0.063322 -0.009020 -188737.000000 0 0 1
-37.971003 13.351861 -11.237033 41.789235 -0.338129 1.843045 0.087052 -0.001061 276362.000000 0 0 1
-36.669603 13.615761 -11.726533 40.835772 -0.355531 1.862060 0.081407 -0.006453 312075.000000 0 0 1
-35.748303 13.810161 -10.667833 39.780200 -0.368655 1.842289 0.085013 -0.009649 -1138630.000000 0 0 1
-34.286903 13.866661 -11.044633 38.598703 -0.384320 1.860992 0.129804 -0.020173 -841377.000000 0 0 1
-33.773203 12.682661 -11.622233 37.901918 -0.359230 1.882457 0.155377 -0.037173 95522.400000 0 0 1
-33.454603 11.673861 -10.693933 37.011480 -0.335736 1.863911 0.180762 -0.030750 -1046330.000000 0 0 1
-32.284603 10.796961 -11.130333 35.815559 -0.322738 1.886797 0.211229 -0.036611 -398616.000000 0 0 1
-32.472203 10.131961 -12.395733 36.204347 -0.302447 1.920248 0.192383 -0.020547 95503.300000 0 0 1
-31.637803 9.007461 -12.624133 35.234268 -0.277367 1.937233 0.231138 -0.036187 -100493.000000 0 0 1
-31.697103 8.492161 -14.087633 35.711126 -0.261768 1.976308 0.222566 -0.041889 -404563.000000 0 0 1
-32.967203 8.057761 -14.473533 36.895083 -0.239718 1.973915 0.179533 -0.031069 -76221.000000 0 0 1
-32.932103 7.496061 -15.708933 37.248958 -0.223808 2.006147 0.189289 -0.043986 -191956.000000 0 0 1
-34.337303 7.060861 -16.152433 38.598021 -0.202805 2.002566 0.190461 -0.046677 -352328.000000 0 0 1
-34.923703 6.038161 -15.384333 38.636797 -0.171203 1.980326 0.201635 -0.041336 -542651.000000 0 0 1
-36.001703 5.478961 -16.049333 39.796014 -0.151027 1.985906 0.153867 -0.045997 -614582.000000 0 0 1
-36.873303 4.757361 -14.945633 40.070499 -0.128310 1.953019 0.154099 -0.048084 310593.000000 0 0 1
-38.058403 4.251661 -15.575533 41.341454 -0.111253 1.957085 0.151208 -0.041050 296949.000000 0 0 1
37.251653 3.711361 -14.562233 40.168625 0.099302 1.941775 0.156374 -0.037746 -829630.000000 0 0 1
36.196053 2.799361 -15.031533 39.292972 0.077185 1.963351 0.168819 -0.038907 -1142860.000000 0 0 1
36.678453 1.477761 -15.188933 39.726520 0.040268 1.963121 0.170460 -0.034041 548987.000000 0 0 1
35.712653 0.399161 -15.131033 38.787898 0.011177 1.971533 0.156239 -0.027330 382278.000000 0 0 1
35.209753 0.061361 -13.744733 37.797462 0.001743 1.942971 0.171721 -0.034478 529007.000000 0 0 1
36.305353 -0.320939 -12.863433 38.518172 -0.008840 1.911295 0.179246 -0.031750 1001210.000000 0 0 1
36.008853 -0.387339 -11.519633 37.808590 -0.010756 1.880402 0.189141 -0.032193 -308475.000000 0 0 1
36.072853 0.952261 -10.727433 37.646186 0.026392 1.859755 0.174069 -0.035690 105569.000000 0 0 1
35.150553 1.968461 -11.151333 36.929506 0.055942 1.877547 0.168864 -0.024566 403802.000000 0 0 1
35.334253 3.268361 -10.554133 37.021363 0.092236 1.859889 0.150125 -0.030830 -225286.000000 0 0 1
34.214253 4.295761 -10.827433 36.142800 0.124901 1.875042 0.136458 -0.034264 -163616.000000 0 0 1
34.101253 4.715061 -12.167133 36.512551 0.137395 1.910525 0.140836 -0.028829 -111370.000000 0 0 1
32.882053 5.306561 -12.483133 35.569897 0.160002 1.929378 0.130775 -0.034461 -593536.000000 0 0 1
32.908953 6.050861 -13.802333 36.195531 0.181836 1.962028 0.093988 -0.029209 -242307.000000 0 0 1
32.795253 5.332761 -15.010333 36.459252 0.161197 1.995117 0.100506 -0.020773 466078.000000 0 0 1
33.231653 6.008761 -16.259533 37.480933 0.178882 2.019511 0.099744 -0.021101 -180043.000000 0 0 1
32.106753 6.881661 -16.882833 36.921957 0.211142 2.045705 0.115556 -0.023907 342763.000000 0 0 1
31.035553 6.244461 -17.542833 36.193229 0.198552 2.076816 0.095000 -0.021657 478958.000000 0 0 1
30.064153 5.574361 -16.739533 34.858840 0.183334 2.071689 0.085365 -0.013806 -352755.000000 0 0 1
28.716653 5.533161 -17.508933 34.085551 0.190349 2.110260 0.061686 -0.010230 -145570.000000 0 0 1
28.664553 4.544461 -18.516033 34.426040 0.157231 2.138681 0.067644 -0.006259 -140488.000000 0 0 1
27.678953 4.829561 -19.458633 34.177295 0.172746 2.176504 0.053090 -0.004642 -480702.000000 0 0 1
27.198153 3.489061 -20.039233 33.962979 0.127586 2.201894 0.056737 -0.007218 -463198.000000 0 0 1
26.300253 2.827761 -19.189733 32.679434 0.107107 2.198406 0.067122 -0.006663 34712.100000 0 0 1
25.575553 1.848961 -19.904733 32.461145 0.072169 2.230884 0.081426 -0.010890 -14955.000000 0 0 1
24.535653 1.084761 -19.044533 31.078436 0.044183 2.230382 0.091826 -0.012538 558350.000000 0 0 1
23.343653 1.833361 -18.824633 30.044203 0.078377 2.247934 0.094489 -0.023758 451490.000000 0 0 1
22.319053 1.076361 -18.189933 28.812711 0.048189 2.254046 0.120360 -0.033054 227695.000000 0 0 1
21.035253 1.881561 -17.904133 27.687183 0.089211 2.273991 0.142974 -0.041788 -725664.000000 0 0 1
20.271553 2.088161 -19.049133 27.895622 0.102647 2.322483 0.142281 -0.035976 39312.500000 0 0 1
19.324053 3.128161 -18.890733 27.204121 0.160487 2.338392 0.135380 -0.030794 296235.000000 0 0 1
17.942953 2.829861 -18.254633 25.752462 0.156426 2.358663 0.192631 -0.053426 -688998.000000 0 0 1
17.903353 2.661761 -16.856033 24.733396 0.147593 2.320619 0.200048 -0.056539 753045.000000 0 1 0
16.598153 2.259261 -16.410033 23.449779 0.135284 2.345907 0.165710 -0.039548 1275590.000000 0 1 0
15.483153 3.359561 -16.312333 22.739984 0.213670 2.370775 0.166089 -0.039320 -53424.200000 0 1 0
14.950453 3.711561 -17.550133 23.351636 0.243338 2.421219 0.167234 -0.029790 -260542.000000 0 1 0
13.840153 4.531261 -17.378933 22.673982 0.316401 2.444124 0.150009 -0.038552 -529638.000000 0 1 0
-20.786447 -21.641839 -17.878233 34.929598 0.805556 2.108117 0.149043 -0.024138 93789.000000 0 0 1
-20.677847 -22.469939 -18.985133 35.957013 0.826908 2.127035 0.134603 -0.026847 -188240.000000 0 0 1
-21.583647 -22.134539 -19.979933 36.810180 0.797998 2.144543 0.139713 -0.020482 -334333.000000 0 0 1
-21.639947 -23.167639 -21.150433 38.109941 0.819479 2.159141 0.115144 -0.015974 144804.000000 0 0 1
-21.973747 -24.453439 -20.676533 38.837292 0.838758 2.132216 0.092175 -0.021806 -384681.000000 0 0 1
-20.969647 -25.320389 -21.070333 39.048779 0.879112 2.140746 0.085450 -0.029486 -382189.000000 0 0 1
-21.081647 -26.806919 -20.587633 39.835880 0.904387 2.113918 0.087846 0.001232 -231920.000000 0 0 1
-22.116447 -27.509359 -21.234033 41.192065 0.893645 2.112374 0.097429 0.012684 -142570.000000 0 0 1
-22.010647 -28.904309 -21.047333 41.987116 0.919975 2.095875 0.124691 -0.026216 536404.000000 0 0 1
-23.308547 -29.672639 -21.524233 43.440148 0.904945 2.089197 0.112770 -0.026610 653816.000000 0 0 1
-23.776147 -29.227929 -22.782533 44.029772 0.887894 2.114647 0.090591 -0.025143 419339.000000 0 0 1
-22.960447 -29.639919 -23.907533 44.466583 0.911707 2.138446 0.088486 -0.030659 117447.000000 0 0 1
-23.526247 -28.956089 -25.161953 45.000703 0.888492 2.164151 0.083197 -0.023160 710625.000000 0 0 1
-24.763747 -29.522019 -25.621453 46.273660 0.872827 2.157590 0.082325 -0.019978 965157.000000 0 0 1
-25.575187 -28.675619 -26.412763 46.626338 0.842486 2.173021 0.078053 -0.015819 175299.000000 0 0 1
-25.280917 -28.891609 -27.902913 47.459692 0.851951 2.199292 0.087050 -0.020518 -150524.000000 0 0 1
-25.650707 -30.219829 -28.289173 48.697784 0.866997 2.190646 0.077347 -0.013034 172795.000000 0 0 1
-25.239837 -30.408299 -29.616283 49.384595 0.878010 2.213931 0.117287 -0.015172 70395.900000 0 0 1
-25.765897 -31.709219 -30.352703 50.898355 0.888439 2.209730 0.093016 -0.017787 123592.000000 0 0 1
-25.331097 -32.918519 -29.786413 51.112853 0.914926 2.192914 0.101484 -0.030567 463390.000000 0 0 1
-26.228767 33.545017 -30.282843 52.251956 -0.907191 2.188978 0.096487 -0.027542 272405.000000 0 0 1
-25.530547 32.228037 -30.565703 51.231996 -0.900839 2.210071 0.096282 -0.024527 540314.000000 0 0 1
-24.476647 32.296589 -31.534963 51.348124 -0.922277 2.232093 0.118748 -0.037859 1214430.000000 0 0 1
-23.467647 31.254327 -31.379583 50.122267 -0.926745 2.247287 0.119360 -0.031633 1359390.000000 0 0 1
-22.128147 31.475847 -32.152333 50.141364 -0.958046 2.266901 0.118702 -0.030614 166068.000000 0 0 1
-22.264947 31.109067 -33.524133 50.866191 -0.949607 2.290371 0.113478 -0.025782 249113.000000 0 0 1
-21.820147 29.803907 33.607956 49.938826 -0.938835 0.832563 0.096165 -0.016391 -74448.500000 0 0 1
-22.105047 29.493557 32.103896 48.879066 -0.927623 0.854226 0.084556 -0.016134 311346.000000 0 0 1
-21.335347 30.314937 31.195456 48.449447 -0.957531 0.871242 0.085441 -0.021540 653154.000000 0 0 1
-21.474847 29.908347 29.838436 47.392093 -0.948077 0.889748 0.093334 -0.018423 -33867.800000 0 0 1
-20.867047 30.961027 28.918446 47.226003 -0.977749 0.911777 0.098697 -0.033554 9439.910000 0 0 1
-21.735447 32.082637 28.873566 48.326060 -0.975343 0.930449 0.093627 -0.030440 266118.000000 0 0 1
-21.123447 33.226192 28.387156 48.538752 -1.004506 0.946120 0.100693 -0.044604 -753315.000000 0 0 1
-22.068347 -33.061689 28.427776 48.869476 0.982224 0.949969 0.119561 -0.053146 -340155.000000 0 0 1
-22.401247 -32.704439 29.701696 49.533695 0.970235 0.927763 0.107503 -0.036308 323367.000000 0 0 1
-23.599447 -31.944969 29.932476 49.732967 0.934532 0.924963 0.127132 -0.037280 531123.000000 0 0 1
-23.602747 -30.442999 29.569026 48.561231 0.911293 0.916121 0.128413 -0.027411 -317727.000000 0 0 1
-23.971747 -30.175009 28.240896 47.777861 0.899465 0.938390 0.087745 -0.027946 6566.430000 0 0 1
-23.986147 -28.744229 27.994316 46.746633 0.875389 0.928729 0.078998 -0.029070 -291643.000000 0 0 1
-25.317627 -28.375539 27.331926 46.831481 0.842288 0.947613 0.084021 -0.014636 -359166.000000 0 0 1
-26.454727 -28.286589 28.178586 47.895891 0.818850 0.941804 0.107673 -0.014917 788765.000000 0 0 1
-27.306257 -29.457889 28.203266 49.079763 0.823285 0.958630 0.100034 -0.023796 139127.000000 0 0 1
-28.333077 -29.528889 27.072566 49.067732 0.806062 0.986349 0.070361 -0.007166 -677612.000000 0 0 1
-27.712237 -29.883369 25.828306 48.250235 0.823076 1.005935 0.066668 -0.008168 124843.000000 0 0 1
-28.561217 -29.795879 24.725696 48.113382 0.806552 1.031066 0.063362 -0.009252 -702113.000000 0 0 1
-27.787727 -30.008279 23.445696 47.141863 0.823800 1.050262 0.054744 -0.008031 -409140.000000 0 0 1
-27.090277 -28.751039 23.229286 45.826903 0.815130 1.039221 0.030956 -0.014146 936468.000000 0 0 1
-26.345697 -28.574269 21.986936 44.654338 0.825954 1.055973 0.051786 -0.019365 760688.000000 0 0 1
-25.062417 -29.427449 21.742036 44.348795 0.865335 1.058419 0.060870 -0.022113 -295223.000000 0 0 1
-25.286457 -30.730459 21.235336 45.107710 0.882279 1.080634 0.072318 -0.028712 1708060.000000 0 0 1
-24.017447 -31.399039 20.895736 44.714306 0.917821 1.084543 0.069328 -0.013133 1536150.000000 0 0 1
-23.265047 -32.089669 22.043436 45.353306 0.943487 1.063246 0.074182 -0.020073 -308221.000000 0 0 1
-22.626047 -31.196129 22.917376 44.836844 0.943302 1.034299 0.085464 -0.029675 152021.000000 0 0 1
-22.013347 -31.927579 24.006446 45.609946 0.967167 1.016503 0.099213 -0.041662 -243572.000000 0 0 1
-21.202347 -31.052279 25.003776 45.154981 0.971711 0.983956 0.093210 -0.030979 -127106.000000 0 0 1
-19.866547 -30.837609 24.557646 44.144261 0.998487 0.980864 0.107829 -0.038166 337508.000000 0 0 1
-19.196947 -29.988509 25.504366 43.798472 1.001381 0.949227 0.114103 -0.038159 130590.000000 0 0 1
-18.257547 -30.829559 26.387506 44.498317 1.036125 0.936017 0.096876 -0.054898 -566267.000000 0 0 1
-19.008247 -31.649269 27.260446 45.892500 1.029943 0.934766 0.119625 -0.056839 284108.000000 0 0 1
-18.183247 -32.225939 28.246406 46.551059 1.057084 0.918789 0.133477 -0.050030 -503897.000000 0 0 1
-18.189447 -31.500959 29.580746 46.884826 1.047141 0.888053 0.147953 -0.044087 -81164.400000 0 0 1
-17.665447 -30.196889 29.588806 45.819401 1.041473 0.868765 0.141125 -0.034363 419939.000000 0 0 1
-18.295447 -29.478279 30.680346 46.313885 1.015337 0.846720 0.131457 -0.027181 116744.000000 0 0 1
-17.927247 -27.941459 30.701966 45.218603 1.000349 0.824441 0.131829 -0.024800 429459.000000 0 0 1
-18.876747 -27.073579 30.029626 44.621617 0.961926 0.832561 0.118800 -0.024554 735689.000000 0 0 1
-19.068747 -27.198649 28.616176 43.843690 0.959338 0.859672 0.113538 -0.024907 -198646.000000 0 0 1
-17.825147 -26.755289 27.841436 42.529130 0.983097 0.857085 0.094129 -0.027816 -82771.700000 0 0 1
-17.546347 -25.349369 27.858186 41.551695 0.965337 0.835986 0.076630 -0.020991 71075.000000 0 0 1
-16.337847 -25.073909 27.175826 40.424642 0.993306 0.833540 0.073901 -0.023937 -223896.000000 0 0 1
-16.277847 -23.750439 26.388746 39.056594 0.969957 0.828945 0.051131 -0.017256 -587883.000000 0 0 1
-17.131747 -23.693239 25.263046 38.640494 0.944758 0.858204 0.087760 -0.018930 -34584.600000 0 0 1
-17.144747 -22.504439 24.571226 37.471820 0.919762 0.855653 0.075387 -0.029904 -89514.800000 0 0 1
-17.970947 -21.271539 25.087346 37.480771 0.869308 0.837477 0.066277 -0.025462 -260538.000000 0 0 1
-17.840247 -20.202339 24.173516 36.204527 0.847409 0.839691 0.079036 -0.025928 60675.300000 0 0 1
-18.226647 -19.001939 24.821856 36.185755 0.806220 0.814879 0.066840 -0.016758 -121476.000000 0 0 1
-17.826947 -17.763939 24.040846 34.804020 0.783628 0.808272 0.075713 -0.027135 207170.000000 0 0 1
-16.410347 -17.594239 24.036636 34.009066 0.820200 0.785872 0.082171 -0.030563 123718.000000 0 0 1
-16.003847 -16.499339 23.304996 32.733380 0.800641 0.778505 0.091390 -0.027454 -821401.000000 0 0 1
-14.597547 -16.007739 23.536086 31.988802 0.831442 0.744008 0.105362 -0.040669 -579116.000000 0 0 1
-13.600247 -16.896539 23.001266 31.615154 0.893067 0.756068 0.082815 -0.035499 -116464.000000 0 0 1
-12.290647 -16.465439 23.229506 31.012588 0.929570 0.724192 0.105264 -0.047284 -479746.000000 0 0 1
-11.700547 -15.620739 22.039536 29.438944 0.927910 0.724769 0.125561 -0.050421 -90507.600000 0 0 1
-11.106647 -16.391939 20.975836 28.845086 0.975285 0.756578 0.154500 -0.047259 413518.000000 0 0 1
-9.768347 -16.781639 21.269436 28.799877 1.043653 0.739916 0.142506 -0.045906 -337789.000000 0 0 1
-9.293647 -18.024439 20.500436 28.836091 1.094736 0.779977 0.131147 -0.041621 2316.950000 0 0 1
-9.128247 -17.839139 19.083636 27.672097 1.097834 0.809812 0.118587 -0.040419 -95455.500000 0 0 1
-8.739347 -19.064639 18.454836 27.935955 1.140974 0.849162 0.107276 -0.036559 215338.000000 0 0 1
-8.635947 -18.918739 16.896136 26.795105 1.142570 0.888511 0.096745 -0.044795 342593.000000 0 0 1
-7.455247 -18.190139 16.595036 25.726583 1.181827 0.869702 0.100720 -0.043809 -12168.100000 0 0 1
-7.324047 -17.954539 15.219236 24.650198 1.183480 0.905353 0.114782 -0.040490 631462.000000 0 1 0
-6.190147 -16.874139 14.994936 23.407319 1.219197 0.875505 0.084689 -0.040881 619148.000000 0 1 0
-6.435347 -15.638639 15.689536 23.068209 1.180413 0.822847 0.095793 -0.048505 -338794.000000 0 1 0
-5.282547 -14.864939 15.591936 22.180626 1.229346 0.791255 0.067660 -0.028532 -334700.000000 0 1 0
-5.421347 -13.759639 16.689536 22.299311 1.195470 0.725100 0.051508 -0.021360 -165372.000000 0 1 0
-4.988747 -14.020439 18.038136 23.384496 1.228946 0.689803 0.070592 -0.024429 -28008.000000 0 1 0
-5.798147 -14.938339 18.774636 24.683181 1.200557 0.706522 0.104990 -0.042685 1057130.000000 0 1 0
-7.187147 -14.314539 19.244836 25.038467 1.105480 0.694130 0.150381 -0.054250 767021.000000 0 0 1
-7.140247 -13.148539 20.027836 24.999628 1.073309 0.641623 0.137144 -0.057810 -198216.000000 0 1 0
-8.398047 -12.773639 20.549736 25.612198 0.989201 0.639588 0.138774 -0.042783 252775.000000 0 0 1
-8.178147 -11.973939 21.769536 26.156643 0.971574 0.587596 0.135163 -0.034365 -223393.000000 0 0 1
-7.487947 -10.761839 21.450736 25.140020 0.962903 0.548609 0.095351 -0.026682 192082.000000 0 0 1
-7.252547 -10.024539 22.636536 25.797356 0.944486 0.500224 0.089897 -0.026446 709086.000000 0 0 1
-5.830147 -10.311639 23.234386 26.079824 1.056211 0.471484 0.087959 -0.021493 496509.000000 0 0 1
-5.794247 -11.581339 23.832606 27.123676 1.106902 0.497739 0.106456 -0.023697 -627510.000000 0 0 1
-4.463747 -11.811339 24.161176 27.261606 1.209468 0.481565 0.089252 -0.017352 -632918.000000 0 0 1
-4.240847 -13.138739 25.003926 28.562345 1.258579 0.504501 0.107919 -0.031503 58151.100000 0 0 1
-2.935247 -13.369839 25.525746 28.964322 1.354682 0.492228 0.089078 -0.028909 394747.000000 0 0 1
-2.850647 -14.626539 26.236556 30.173145 1.378314 0.516540 0.099837 -0.029478 28384.000000 0 0 1
-2.624647 -15.918539 25.321766 30.024665 1.407387 0.567280 0.123768 -0.063632 -384174.000000 0 0 1
-1.328647 -16.238739 24.887446 29.746376 1.489159 0.579649 0.109672 -0.064772 -264309.000000 0 0 1
-1.212547 -17.552439 24.247956 29.958667 1.501824 0.627700 0.129970 -0.063282 -514754.000000 0 0 1
0.236353 -18.110939 24.249696 30.267304 -1.557747 0.641524 0.128644 -0.068918 459039.000000 0 0 1
0.683653 -18.490439 25.563376 31.557089 -1.533840 0.626529 0.134866 -0.069652 57940.200000 0 0 1
1.063353 -17.414439 26.407176 31.650155 -1.509810 0.583851 0.133244 -0.065608 -1140790.000000 0 0 1
1.713953 -17.817939 27.693386 32.974842 -1.474899 0.573819 0.104224 -0.051130 -382806.000000 0 0 1
2.912353 -18.579839 27.513056 33.326573 -1.415313 0.599604 0.099120 -0.057853 356775.000000 0 0 1
3.740353 -18.772239 28.632546 34.441398 -1.374123 0.589280 0.112085 -0.061164 308984.000000 0 0 1
4.592553 -17.583939 29.147426 34.349074 -1.315324 0.557529 0.134060 -0.058991 -507927.000000 0 0 1
3.853653 -16.456139 29.560416 34.051040 -1.340764 0.519393 0.140962 -0.065123 -486384.000000 0 0 1
4.673053 -15.450139 30.071706 34.129924 -1.277084 0.492624 0.167133 -0.077088 -607357.000000 0 0 1
3.982553 -14.307239 30.743286 34.142458 -1.299310 0.450013 0.185645 -0.075771 -303260.000000 0 0 1
3.304953 -14.761939 31.870510 35.278421 -1.350545 0.443164 0.160970 -0.075439 -162307.000000 0 0 1
2.143553 -14.010839 32.168638 35.152805 -1.418981 0.415019 0.166567 -0.067007 69067.200000 0 0 1
1.363653 -14.621339 33.353906 36.443465 -1.477801 0.414735 0.155052 -0.061855 16186.400000 0 0 1
1.920553 -14.486639 -32.800823 35.908846 -1.438991 2.722471 0.166945 -0.057585 -341333.000000 0 0 1
1.154853 -15.154539 -31.826713 35.269440 -1.494738 2.696075 0.160366 -0.063539 -147170.000000 0 0 1
1.883653 -15.341139 -30.464953 34.161558 -1.448623 2.672084 0.148738 -0.047701 95195.400000 0 0 1
1.127753 -15.935339 -29.416523 33.474448 -1.500144 2.644087 0.135316 -0.042914 -673032.000000 0 0 1
1.811953 -15.906839 -28.227923 32.451908 -1.457375 2.625671 0.138341 -0.039777 -106529.000000 0 0 1
1.735953 -17.206639 -27.320553 32.334108 -1.470248 2.577259 0.137757 -0.042537 -34501.100000 0 0 1
2.513953 -18.197839 -27.933673 33.433088 -1.433520 2.559856 0.120094 -0.037737 -4772.400000 0 0 1
2.304053 -19.400239 -27.192953 33.483348 -1.452586 2.518596 0.115703 -0.045834 -823148.000000 0 0 1
3.246953 -20.541639 -27.600013 34.558101 -1.414026 2.495854 0.086370 -0.036872 338164.000000 0 0 1
4.594053 -20.546039 -27.137683 34.346745 -1.350817 2.481784 0.098775 -0.035762 113580.000000 0 0 1
4.890953 -20.314039 -25.772363 33.178250 -1.334526 2.460341 0.118002 -0.033533 -269671.000000 0 0 1
6.409453 -20.656239 -25.482653 33.423448 -1.269925 2.437839 0.092226 -0.029245 968016.000000 0 0 1
6.794053 -22.024639 -25.637263 34.474819 -1.271582 2.409312 0.085266 -0.016362 101390.000000 0 0 1
6.796653 -22.483539 -26.984033 35.774880 -1.277236 2.425343 0.077426 -0.018888 -888360.000000 0 0 1
5.989153 -23.793039 -27.144883 36.589935 -1.324201 2.406647 0.069967 -0.017907 -104463.000000 0 0 1
6.586053 -24.991029 -26.639723 37.116067 -1.313118 2.371349 0.078285 -0.005788 -83540.500000 0 0 1
5.794053 -26.122089 -26.955073 37.980397 -1.352523 2.359883 0.089973 -0.011887 81189.800000 0 0 1
6.103153 -27.273189 -25.958943 38.143702 -1.350645 2.319318 0.101811 -0.023360 -78506.400000 0 0 1
7.450753 -27.640679 -25.830153 38.557978 -1.307497 2.304876 0.105236 -0.026446 -457971.000000 0 0 1
7.634453 -28.970799 -25.340933 39.239711 -1.313132 2.272865 0.111720 -0.040112 138065.000000 0 0 1
9.105853 -29.405359 -25.128123 39.736812 -1.270495 2.255397 0.105098 -0.043873 121449.000000 0 0 1
9.848053 -29.494579 -26.298203 40.724806 -1.248542 2.272807 0.122962 -0.049344 -128069.000000 0 0 1
11.155853 -30.012119 -26.154963 41.343227 -1.214912 2.255741 0.142395 -0.028303 233988.000000 0 0 1
11.911253 -30.018409 -27.499863 42.417276 -1.193053 2.276169 0.138032 -0.045197 90296.800000 0 0 1
11.420453 -31.018409 -28.380883 43.566535 -1.218015 2.280274 0.148725 -0.047235 259708.000000 0 0 1
12.004453 -30.707879 -29.627823 44.327064 -1.198138 2.302840 0.131732 -0.024631 -342611.000000 0 0 1
-35.396794 -5.222239 -5.449433 36.192556 0.146478 1.721939 0.281847 -0.053600 221496.000000 0 0 1
-34.794605 -4.480539 -4.394333 35.356045 0.128066 1.695407 0.249689 -0.056931 258833.000000 0 0 1
-34.242726 -3.201639 -4.781633 34.722886 0.093227 1.708944 0.257067 -0.061807 30316.000000 0 0 1
-35.170361 -2.069439 -5.332633 35.632483 0.058773 1.721017 0.256827 -0.046119 177941.000000 0 0 1
-36.124117 -1.513439 -4.430133 36.426205 0.041871 1.692718 0.187023 -0.035017 815946.000000 0 0 1
-37.054527 -0.674339 -5.154833 37.417443 0.018197 1.709001 0.175646 -0.038023 625959.000000 0 0 1
37.919708 -0.060839 -4.339933 38.167303 -0.001604 1.684751 0.165564 -0.027626 -34227.500000 0 0 1
-37.731027 0.748261 -3.302933 37.882709 -0.019829 1.658096 0.162167 -0.024789 58606.900000 0 0 1
37.341098 1.227561 -2.477133 37.443300 0.032862 1.637002 0.150244 -0.024431 -442427.000000 0 0 1
37.782798 2.392861 -1.511633 37.888661 0.063248 1.610704 0.131620 -0.024400 329238.000000 0 0 1
-37.822457 3.573961 -2.169033 38.052808 -0.094213 1.627828 0.153061 -0.043622 233827.000000 0 0 1
-36.501727 3.431061 -2.637633 36.757385 -0.093722 1.642616 0.134195 -0.013715 -501756.000000 0 0 1
-35.647607 4.702261 -2.823033 36.067058 -0.131152 1.649148 0.122044 -0.014625 4501.190000 0 0 1
-35.066782 5.150561 -1.602433 35.479223 -0.145836 1.615977 0.139457 -0.027744 101995.000000 0 0 1
-34.765555 6.499461 -1.777533 35.412518 -0.184818 1.621012 0.178364 -0.043603 -146675.000000 0 0 1
-34.000941 7.017961 -0.529433 34.721695 -0.203546 1.586045 0.210434 -0.051529 -787631.000000 0 0 1
-32.613187 6.821661 -0.528833 33.323186 -0.206196 1.586667 0.243993 -0.044407 -243515.000000 0 0 1
-31.946427 7.198361 0.637067 32.753572 -0.221625 1.551345 0.285857 -0.059361 -112337.000000 0 0 1
-32.034057 8.696661 1.103967 33.211918 -0.265092 1.537550 0.304179 -0.067383 -17507.100000 0 0 1
-33.323807 9.068161 1.612167 34.573209 -0.265689 1.524149 0.253881 -0.062342 616124.000000 0 0 1
-33.296347 10.401361 1.996867 34.940271 -0.302782 1.513614 0.278901 -0.053697 -210143.000000 0 0 1
-34.630683 11.151561 1.886267 36.430750 -0.311529 1.518996 0.252441 -0.054631 -900800.000000 0 0 1
-35.024822 11.459061 0.584567 36.856342 -0.316193 1.554935 0.201831 -0.043062 540552.000000 0 0 1
-36.163257 12.304561 0.449067 38.201899 -0.327963 1.559041 0.185377 -0.027348 1785000.000000 0 0 1
-37.612897 11.720561 0.787467 39.404590 -0.302074 1.550811 0.192482 -0.047791 968521.000000 0 0 1
-37.976957 10.698161 -0.105333 39.455177 -0.274586 1.573466 0.187137 -0.034414 -111423.000000 0 0 1
36.822578 10.244761 0.057667 38.221208 0.271357 1.569288 0.173865 -0.039432 238991.000000 0 0 1
36.534388 9.047861 -0.892133 37.648655 0.242769 1.594495 0.169184 -0.031347 168280.000000 0 0 1
36.091998 9.399561 -2.184033 37.359792 0.254774 1.629289 0.156432 -0.026151 117314.000000 0 0 1
35.521218 8.314361 -2.894433 36.595946 0.229928 1.649971 0.145160 -0.032906 -250448.000000 0 0 1
34.957098 8.760961 -4.211833 36.283504 0.245562 1.687140 0.109437 -0.022145 -633622.000000 0 0 1
33.599628 9.092861 -4.224533 35.063682 0.264293 1.691571 0.156493 -0.025251 -340632.000000 0 0 1
33.301268 9.557161 -5.556133 35.088238 0.279480 1.729813 0.126863 -0.014957 277625.000000 0 0 1
31.831938 10.014461 -5.757733 33.863154 0.304801 1.741656 0.180048 -0.023753 195181.000000 0 0 1
30.809608 9.087361 -5.563433 32.600060 0.286819 1.742293 0.210454 -0.014137 749888.000000 0 0 1
29.524108 9.545561 -5.986533 31.601096 0.312706 1.761389 0.243092 -0.016346 950462.000000 0 0 1
28.438208 8.423161 -6.160733 30.292507 0.287959 1.775600 0.276986 -0.009596 302351.000000 0 0 1
28.758508 7.523661 -7.245433 30.596627 0.255880 1.809872 0.261019 -0.016749 1020730.000000 0 0 1
27.759308 6.493861 -7.429833 29.461022 0.229802 1.825741 0.323432 -0.014223 417412.000000 0 0 1
28.163708 5.555061 -8.636833 29.977459 0.194742 1.863050 0.294668 -0.027563 -528277.000000 0 0 1
29.282908 4.764861 -8.449533 30.847807 0.161304 1.848253 0.262435 -0.025178 -131708.000000 0 0 1
29.304908 3.708161 -9.370233 30.989182 0.125868 1.877976 0.242412 -0.022543 -240925.000000 0 0 1
30.316308 2.626761 -8.959933 31.721583 0.086429 1.857149 0.196295 -0.020136 -152743.000000 0 0 1
31.698158 2.924461 -9.155633 33.123275 0.091999 1.850854 0.152519 -0.013281 804928.000000 0 0 1
32.546158 2.322861 -8.182933 33.639389 0.071250 1.816516 0.132351 -0.017180 -124091.000000 0 0 1
32.612288 0.793661 -7.992133 33.586685 0.024331 1.811057 0.111908 -0.020028 -679550.000000 0 0 1
31.462358 0.268361 -7.317233 32.303156 0.008529 1.799297 0.177187 -0.022370 524031.000000 0 0 1
31.538388 -1.035539 -6.738633 32.266878 -0.032822 1.781186 0.175088 -0.021923 -84788.100000 0 0 1
31.139708 -2.174839 -7.718233 32.155598 -0.069728 1.813191 0.167936 -0.025021 -46065.400000 0 0 1
32.126248 -2.262839 -8.744733 33.371944 -0.070320 1.835930 0.151077 -0.019322 568202.000000 0 0 1
31.840498 -3.291739 -9.637733 33.429609 -0.103016 1.863247 0.128495 -0.035519 -962280.000000 0 0 1
32.883708 -3.385839 -10.693233 34.744027 -0.102602 1.883647 0.146512 -0.027884 -1236930.000000 0 0 1
34.136368 -3.784239 -10.214133 35.832117 -0.110406 1.859860 0.183071 -0.025914 -4826.030000 0 0 1
34.966278 -4.050639 -11.364433 36.989169 -0.115330 1.883084 0.192102 -0.042304 533338.000000 0 0 1
36.454048 -4.421539 -11.079633 38.356302 -0.120701 1.863833 0.229065 -0.049896 229579.000000 0 0 1
36.693658 -5.587739 -10.260533 38.508777 -0.151120 1.840501 0.232928 -0.054392 636671.000000 0 0 1
-38.047657 -5.696339 -9.968033 39.742096 0.148612 1.824322 0.249100 -0.054731 191576.000000 0 0 1
-37.764467 -6.812139 -8.992933 39.413615 0.178466 1.800992 0.254001 -0.070176 -182603.000000 0 0 1
37.757848 -6.593939 -7.729433 39.100886 -0.172894 1.769786 0.270739 -0.061078 463913.000000 0 0 1
37.584288 -7.868839 -7.095733 39.049286 -0.206384 1.753524 0.271659 -0.059132 -466260.000000 0 0 1
36.733798 -7.812939 -5.816533 38.003237 -0.209568 1.724454 0.269458 -0.054827 -707978.000000 0 0 1
37.352968 -7.343439 -4.598833 38.344747 -0.194120 1.691020 0.295935 -0.053264 642980.000000 0 0 1
37.822908 -8.391339 -3.709733 38.919777 -0.218322 1.666259 0.300154 -0.051052 1069470.000000 0 0 1
-37.020087 -9.207939 -4.212633 38.379933 0.243781 1.680779 0.295936 -0.055896 426302.000000 0 0 1
-37.382297 -10.218439 -5.123533 39.090961 0.266831 1.702241 0.287251 -0.055257 158977.000000 0 0 1
-36.261857 -10.827639 -5.692433 38.269620 0.290168 1.720096 0.229973 -0.048280 -502987.000000 0 0 1
-36.658077 -11.589839 -6.978033 39.074697 0.306216 1.750341 0.242696 -0.041949 10337.700000 0 0 1
-36.979697 -10.736839 -8.098433 39.349235 0.282575 1.778087 0.208748 -0.050897 340305.000000 0 0 1
-37.565117 -11.534839 -9.122333 40.341139 0.297923 1.798899 0.220000 -0.042545 -43704.000000 0 0 1
-37.645777 -10.883139 -10.501233 40.569978 0.281421 1.832620 0.211005 -0.048813 -861802.000000 0 0 1
37.440838 -9.971839 -10.487933 40.140387 -0.260294 1.835146 0.200680 -0.055532 -312029.000000 0 0 1
37.447538 -9.349539 -11.714833 40.335708 -0.244668 1.865476 0.178590 -0.054911 190415.000000 0 0 1
36.114768 -8.584739 -12.024233 39.019949 -0.233376 1.884050 0.182473 -0.049325 108650.000000 0 0 1
36.157978 -7.842039 -13.170933 39.273024 -0.213575 1.912793 0.181496 -0.049490 -53684.900000 0 0 1
35.013398 -7.108739 -13.440233 38.172138 -0.200306 1.930605 0.147335 -0.049155 -738734.000000 0 0 1
35.215888 -6.188039 -14.683433 38.652992 -0.173942 1.960461 0.144852 -0.048016 -228098.000000 0 0 1
36.205418 -5.210539 -14.573033 39.374552 -0.142935 1.949927 0.142480 -0.028587 179890.000000 0 0 1
36.599628 -4.623939 -15.792333 40.128685 -0.125673 1.975278 0.159099 -0.036408 -74511.700000 0 0 1
37.658258 -3.516239 -15.667933 40.938887 -0.093102 1.963530 0.160062 -0.028388 -257815.000000 0 0 1
-37.714667 -3.240439 -16.820033 41.422338 0.085709 1.988937 0.171677 -0.028059 1385730.000000 0 0 1
-36.380507 -2.703039 -16.606233 40.082598 0.074163 1.997970 0.198101 -0.025418 1128010.000000 0 0 1
-36.309857 -1.190539 -16.154833 39.759298 0.032777 1.989215 0.183026 -0.022582 -433685.000000 0 0 1
-36.715977 -0.266839 -17.176633 40.536044 0.007268 2.008364 0.151184 -0.020355 239322.000000 0 0 1
-36.503037 1.070061 -16.718233 40.163616 -0.029306 2.000117 0.152029 -0.025313 -16232.500000 0 0 1
-36.815537 2.162561 -17.732933 40.920867 -0.058673 2.019000 0.133458 -0.027441 -35755.100000 0 0 1
-35.884196 2.207461 -18.782633 40.562738 -0.061439 2.052231 0.132873 -0.021137 159110.000000 0 0 1
-36.041407 3.425061 -19.460533 41.102633 -0.094747 2.064013 0.127372 -0.019179 75069.100000 0 0 1
-35.068149 3.607261 -20.675833 40.869028 -0.102504 2.101227 0.126749 -0.011896 974276.000000 0 0 1
-33.697217 3.843861 -20.286533 39.519883 -0.113580 2.109851 0.130002 -0.014615 950653.000000 0 0 1
-33.008247 4.118161 -21.485133 39.599426 -0.124120 2.144280 0.113771 -0.012974 626946.000000 0 0 1
-31.485227 4.512161 -21.468333 38.374060 -0.142341 2.164517 0.121400 -0.016847 818360.000000 0 0 1
-30.708667 3.518261 -20.843533 37.280736 -0.114072 2.164092 0.127476 -0.004954 314145.000000 0 0 1
-29.318687 3.798461 -21.010033 36.268929 -0.128840 2.188647 0.095908 0.003441 149278.000000 0 0 1
-28.445357 2.717261 -20.409733 35.115225 -0.095237 2.191026 0.123104 -0.000254 -331732.000000 0 0 1
-28.017687 3.012261 -19.083333 34.032897 -0.107101 2.166066 0.118391 0.002879 193242.000000 0 0 1
-27.315117 1.888161 -18.539833 33.066693 -0.069015 2.166003 0.111765 -0.000671 -375140.000000 0 0 1
-26.529227 2.177961 -17.306533 31.749953 -0.081913 2.147291 0.099567 -0.005962 -489490.000000 0 0 1
-25.478447 3.078761 -17.533733 31.081535 -0.120255 2.170164 0.086248 -0.007249 -210707.000000 0 0 1
-24.758247 3.356661 -16.348933 29.858426 -0.134756 2.150228 0.096142 -0.020114 156122.000000 0 0 1
-23.543747 4.295461 -16.581033 29.115111 -0.180461 2.176693 0.126449 -0.021295 216004.000000 0 0 1
-22.407347 3.656961 -17.117333 28.433531 -0.161777 2.216815 0.155645 -0.036744 -813842.000000 0 0 1
-21.331447 4.517561 -17.126833 27.726655 -0.208696 2.236615 0.146216 -0.038224 -447771.000000 0 0 1
-20.059647 3.843061 -17.728033 27.045179 -0.189288 2.285637 0.211540 -0.051533 105466.000000 0 0 1
-19.513047 2.887861 -16.827233 25.927872 -0.146930 2.277068 0.254123 -0.055252 230316.000000 0 0 1
-18.363947 2.228061 -17.327033 25.346102 -0.120738 2.323504 0.203035 -0.054681 -233313.000000 0 0 1
-18.209347 0.800861 -16.665633 24.697470 -0.043952 2.311478 0.228972 -0.049755 502108.000000 0 1 0
-19.042047 -0.293039 -17.154633 25.631365 0.015388 2.304039 0.188025 -0.041239 1909140.000000 0 0 1
-20.434347 -0.180639 -16.732633 26.411668 0.008840 2.256906 0.191453 -0.049721 840673.000000 0 0 1
-21.361447 -1.216239 -17.310833 27.521911 0.056875 2.251042 0.160573 -0.053204 -580968.000000 0 0 1
-21.342947 -2.485739 -16.616833 27.162832 0.115944 2.229066 0.159948 -0.044327 1016250.000000 0 0 1
-22.472447 -3.299539 -16.992633 28.366308 0.145784 2.213101 0.143372 -0.031322 598302.000000 0 0 1
-22.908147 -4.470839 -16.087033 28.347209 0.192741 2.174262 0.150201 -0.033116 -89395.400000 0 0 1
-23.332147 -3.853739 -14.883033 27.941816 0.163691 2.132518 0.144007 -0.039205 279513.000000 0 0 1
-23.715147 -4.785339 -13.885433 27.894675 0.199110 2.091834 0.154672 -0.048659 -262116.000000 0 0 1
-23.965947 -4.119239 -12.514633 27.348689 0.170216 2.046085 0.163018 -0.059732 136097.000000 0 0 1
-25.067727 -3.216939 -12.483533 28.188264 0.127632 2.029585 0.149581 -0.041987 513682.000000 0 0 1
-25.203437 -2.726139 -11.154833 27.696126 0.107746 1.985324 0.173864 -0.057682 -305878.000000 0 0 1
-26.086087 -1.527539 -10.836633 28.288689 0.058491 1.963917 0.180995 -0.053059 -385769.000000 0 0 1
-26.022527 -1.233639 -9.473733 27.720848 0.047371 1.919580 0.170325 -0.064900 908891.000000 0 0 1
-26.854737 -0.096639 -9.109433 28.357856 0.003599 1.897826 0.176872 -0.064879 157568.000000 0 0 1
-26.788537 0.112561 -7.550533 27.832516 -0.004202 1.845524 0.198815 -0.065419 -567260.000000 0 0 1
-25.466927 0.257661 -7.143833 26.451184 -0.010117 1.844268 0.193323 -0.065032 -290535.000000 0 0 1
-25.371637 0.379661 -5.702233 26.007299 -0.014963 1.791847 0.193309 -0.069375 -287029.000000 0 0 1
-24.080647 1.080861 -5.269033 24.674046 -0.044855 1.785999 0.140523 -0.057515 -244977.000000 0 1 0
-24.167347 2.478361 -5.219233 24.848407 -0.102193 1.782415 0.209432 -0.061043 261416.000000 0 1 0
-22.855647 2.947161 -5.428633 23.675650 -0.128239 1.802146 0.202259 -0.038366 7172.500000 0 1 0
-22.751247 4.431461 -5.752833 23.882047 -0.192370 1.814074 0.214039 -0.036436 -141696.000000 0 1 0
-22.931247 5.305661 -4.645033 23.991008 -0.227372 1.765642 0.211135 -0.032310 378896.000000 0 1 0
-22.346047 6.564561 -4.953933 23.811357 -0.285730 1.780376 0.177350 -0.027983 -195640.000000 0 1 0
-22.799847 7.737961 -3.974533 24.402991 -0.327189 1.734396 0.198764 -0.028361 -377899.000000 0 1 0
-22.395947 7.707761 -2.586633 23.826009 -0.331462 1.679574 0.184402 -0.027939 724960.000000 0 1 0
-21.010547 7.984861 -2.388133 22.603192 -0.363183 1.676649 0.190685 -0.027379 263187.000000 0 1 0
-20.557747 9.454261 -2.561733 22.772055 -0.431046 1.683530 0.174048 -0.026213 -598088.000000 0 1 0
-20.338047 9.811061 -3.895233 22.914317 -0.449468 1.741617 0.134834 -0.021681 458957.000000 0 1 0
-20.006547 11.196761 -4.000633 23.273041 -0.510226 1.743554 0.138027 -0.017605 42604.400000 0 1 0
-19.932147 11.781561 -5.444633 23.785283 -0.533837 1.801752 0.126537 -0.021411 163429.000000 0 1 0
-18.868047 11.134861 -6.124533 22.748588 -0.533141 1.843387 0.092174 -0.018393 141164.000000 0 1 0
-18.730947 11.727661 -7.380233 23.299233 -0.559398 1.893107 0.090398 -0.015793 719611.000000 0 1 0
-17.283247 11.634161 -7.986733 22.312603 -0.592475 1.936865 0.056559 -0.002739 340424.000000 0 1 0
-16.684147 10.358461 -8.326633 21.330525 -0.555614 1.971821 0.009211 -0.000738 675489.000000 0 1 0
-17.439747 9.459061 -9.160933 21.852719 -0.496978 2.003374 0.038916 -0.014591 -124201.000000 0 1 0
-17.786647 9.916861 -10.602333 22.959060 -0.508618 2.050812 0.046038 -0.015809 -497678.000000 0 1 0
-16.737847 9.685961 -11.477833 22.488086 -0.524600 2.106442 0.051744 -0.019330 -451793.000000 0 1 0
-16.882247 10.396061 -12.708033 23.549575 -0.551955 2.140793 0.073505 -0.026538 289804.000000 0 1 0
-15.901247 9.997761 -13.870233 23.349267 -0.561285 2.206859 0.051204 -0.008035 127164.000000 0 1 0
-16.072847 8.696261 -14.404333 23.268996 -0.495948 2.238310 0.092292 -0.027864 280447.000000 0 1 0
-15.504447 7.627261 -13.613933 21.997776 -0.457179 2.238109 0.064676 -0.024012 -242287.000000 0 1 0
-15.610747 6.263261 -14.400633 22.142766 -0.381553 2.278846 0.084718 -0.029963 5105.340000 0 1 0
-14.683247 6.081061 -15.461833 22.173077 -0.392645 2.342454 0.110307 -0.027837 391900.000000 0 1 0
-14.758847 4.791961 -16.030233 22.310420 -0.313946 2.372452 0.123492 -0.035949 20336.300000 0 1 0
33.871888 -15.568839 27.413336 46.272935 -0.430841 0.936728 0.076700 -0.020152 -232793.000000 0 0 1
33.353638 -14.354039 27.910826 45.798666 -0.406401 0.915462 0.093298 -0.024596 -194672.000000 0 0 1
32.368828 -14.502639 28.893416 45.748192 -0.421226 0.887213 0.093201 -0.024321 -147820.000000 0 0 1
32.900748 -14.494839 30.330966 47.037507 -0.414978 0.870002 0.080973 -0.031986 -53492.900000 0 0 1
33.527438 -13.304539 30.733506 47.388271 -0.377767 0.865123 0.079397 -0.031342 82191.600000 0 0 1
33.692168 -13.241839 32.159985 48.422857 -0.374478 0.844442 0.064452 -0.028436 -251153.000000 0 0 1
34.089998 -11.866939 32.697527 48.704009 -0.334987 0.834765 0.070745 -0.028620 -51569.600000 0 0 1
33.898088 -11.666839 -33.341173 48.957424 -0.331475 2.319956 0.062130 -0.038972 178169.000000 0 0 1
33.936218 -10.306039 -32.943093 48.405875 -0.294837 2.319323 0.096321 -0.033306 -382316.000000 0 0 1
33.346068 -10.142839 -31.569443 47.026239 -0.295277 2.306779 0.101747 -0.033103 -1258100.000000 0 0 1
31.975508 -10.137939 -31.481743 46.003381 -0.307028 2.324488 0.146703 -0.037030 -1135660.000000 0 0 1
31.556378 -9.933139 -30.181103 44.781371 -0.304956 2.310360 0.135220 -0.033206 -347639.000000 0 0 1
30.052708 -10.188539 -29.971613 43.649389 -0.326862 2.327660 0.125313 -0.024768 -136507.000000 0 0 1
29.603008 -9.729439 -28.713533 42.372952 -0.317542 2.315343 0.113398 -0.024568 203133.000000 0 0 1
28.810208 -10.698239 -28.061193 41.616234 -0.355554 2.310792 0.132509 -0.021442 -523062.000000 0 0 1
28.120708 -10.141039 -26.810823 40.155138 -0.346109 2.301886 0.111036 -0.014826 -309862.000000 0 0 1
27.320008 -8.950839 -26.918053 39.383778 -0.316608 2.323317 0.095903 -0.018236 821971.000000 0 0 1
26.099608 -9.006639 -27.642553 39.069423 -0.332291 2.356785 0.088405 -0.025904 446401.000000 0 0 1
24.927908 -9.878939 -27.125243 38.141485 -0.377313 2.361963 0.089570 -0.005396 -608657.000000 0 0 1
25.177508 -11.263839 -27.304233 38.811108 -0.420671 2.351129 0.093352 -0.010244 -378613.000000 0 0 1
24.102208 -12.119739 -27.073883 38.220409 -0.465923 2.357971 0.083193 -0.027290 -511049.000000 0 0 1
24.442208 -13.543739 -27.638833 39.303428 -0.505995 2.350708 0.089091 0.003791 157392.000000 0 0 1
24.579508 -13.552639 -29.049413 40.394240 -0.503902 2.373371 0.097217 -0.009381 -662294.000000 0 0 1
25.879308 -13.778039 -29.463493 41.565254 -0.489227 2.358662 0.080197 -0.004592 -893615.000000 0 0 1
26.127508 -13.704239 -30.943563 42.754613 -0.483066 2.380015 0.092618 -0.011895 -125050.000000 0 0 1
25.522208 -14.773739 -31.631093 43.245491 -0.524729 2.391214 0.096218 -0.002695 19747.600000 0 0 1
26.060108 -15.064339 -32.913403 44.602193 -0.524132 2.400798 0.101045 -0.002345 65594.100000 0 0 1
25.986708 -14.033139 33.446246 44.619383 -0.495143 0.723354 0.079963 -0.013843 578479.000000 0 0 1
24.652008 -13.899639 32.945361 43.431766 -0.513402 0.709704 0.077288 -0.009117 536670.000000 0 0 1
24.627508 -13.250839 31.667290 42.248268 -0.493623 0.723411 0.067452 -0.018061 -141534.000000 0 0 1
23.919508 -11.838839 31.555956 41.328916 -0.459595 0.702031 0.087755 -0.031027 -76890.100000 0 0 1
22.530908 -11.830439 31.670860 40.628124 -0.483507 0.676881 0.079353 -0.017261 -497644.000000 0 0 1
21.758208 -11.792639 30.499696 39.277441 -0.496669 0.681673 0.062981 -0.023338 -128184.000000 0 0 1
20.283808 -12.044339 30.903486 38.878328 -0.535841 0.651992 0.083402 -0.022068 -73981.400000 0 0 1
19.661608 -10.880139 31.371666 38.589347 -0.505427 0.621576 0.078210 -0.018502 233532.000000 0 0 1
18.451308 -11.107739 32.101281 38.656498 -0.541891 0.590928 0.081578 -0.009456 -117225.000000 0 0 1
17.566408 -9.934939 32.241307 38.036609 -0.514714 0.559277 0.090429 -0.015391 -1436470.000000 0 0 1
16.865608 -9.663939 31.026296 36.612450 -0.520327 0.559681 0.127695 -0.022723 -8016.280000 0 0 1
15.942708 -8.600939 31.035556 35.935384 -0.494739 0.528332 0.128584 -0.021843 496117.000000 0 0 1
14.749808 -8.736839 32.024571 36.324404 -0.534765 0.491498 0.139261 -0.019248 -1498650.000000 0 0 1
13.951808 -9.838739 31.841319 36.129259 -0.614204 0.492155 0.138576 -0.020928 238518.000000 0 0 1
12.780808 -9.971539 32.643970 36.447351 -0.662548 0.460912 0.124411 -0.021343 694460.000000 0 0 1
11.533608 -9.094539 32.457042 35.625754 -0.667705 0.424959 0.142886 -0.024812 -477006.000000 0 0 1
11.778408 -7.703739 32.749767 35.645837 -0.579221 0.405883 0.137469 -0.028212 69410.000000 0 0 1
10.859908 -6.922439 32.018350 34.511339 -0.567488 0.382423 0.154867 -0.025906 -146124.000000 0 0 1
11.170908 -5.425939 31.871297 34.205403 -0.452159 0.371560 0.139326 -0.025440 -135989.000000 0 0 1
11.051208 -4.756239 33.101806 35.220457 -0.406420 0.348617 0.112712 -0.021242 253001.000000 0 0 1
11.506708 -3.446639 32.863178 34.989600 -0.291028 0.350425 0.078359 -0.014986 -249601.000000 0 0 1
11.420308 -2.514139 -33.392633 35.380959 -0.216690 2.804748 0.068854 -0.019740 -179765.000000 0 0 1
10.095808 -2.203139 -32.998733 34.578831 -0.214855 2.838120 0.069479 -0.002636 4219.410000 0 0 1
9.972508 -1.205539 -32.020343 33.559002 -0.120302 2.837606 0.073647 -0.005195 203798.000000 0 0 1
8.486308 -1.022139 -31.613743 32.748907 -0.119868 2.877529 0.097982 -0.000783 513140.000000 0 0 1
7.755108 -0.194839 -32.563853 33.475128 -0.025119 2.907726 0.088282 -0.003467 279589.000000 0 0 1
6.451508 -0.014739 -32.040273 32.683348 -0.002285 2.942893 0.103278 -0.002776 -227817.000000 0 0 1
5.615208 0.967861 -32.812473 33.303539 0.170687 2.969653 0.122087 -0.013943 -270572.000000 0 0 1
6.301608 2.188461 -32.884573 33.554355 0.334255 2.941453 0.092332 -0.015858 400010.000000 0 0 1
5.577608 3.026661 33.649646 34.242796 0.497179 0.186398 0.105358 -0.017330 -103407.000000 0 0 1
6.354808 4.281161 33.253475 34.124852 0.592848 0.226470 0.083036 -0.024769 -231983.000000 0 0 1
5.720108 5.219661 32.425407 33.337240 0.739684 0.234424 0.101646 -0.037841 -166737.000000 0 0 1
6.633208 6.237461 32.153422 33.417778 0.754660 0.275956 0.099577 -0.038081 93380.000000 0 0 1
5.921008 7.333561 31.287486 32.676387 0.891568 0.292607 0.123577 -0.036945 -98775.100000 0 0 1
4.998308 8.121261 31.994458 33.385376 1.019087 0.289672 0.132686 -0.043279 -149081.000000 0 0 1
4.615508 9.359261 31.424931 33.112309 1.112645 0.320618 0.145436 -0.053279 163715.000000 0 0 1
3.985608 9.423861 29.979976 31.677961 1.170683 0.328899 0.144447 -0.052163 1032320.000000 0 0 1
2.624708 8.973661 29.802356 31.234534 1.286243 0.303997 0.137584 -0.046663 508032.000000 0 0 1
2.399108 8.710661 28.487086 29.885538 1.302038 0.307126 0.109007 -0.035208 151025.000000 0 0 1
1.076708 7.996761 28.126906 29.261414 1.436958 0.279373 0.099912 -0.031584 -416646.000000 0 0 1
-0.041392 8.785661 28.329066 29.660168 -1.566085 0.300726 0.115485 -0.032553 -1357660.000000 0 0 1
-1.061792 8.378861 27.446566 28.716662 -1.444746 0.298525 0.110509 -0.028503 583376.000000 0 0 1
-2.508592 8.506261 28.013326 29.383600 -1.284015 0.306597 0.109390 -0.023069 602863.000000 0 0 1
-2.959192 9.794961 28.350986 30.140944 -1.277402 0.346363 0.119700 -0.025068 -181680.000000 0 0 1
-4.268092 9.720861 28.890406 30.779332 -1.157073 0.352159 0.098052 -0.010819 -24120.100000 0 0 1
-4.744092 11.015661 29.564216 31.904452 -1.164135 0.385399 0.088156 -0.010836 -50990.200000 0 0 1
-5.089592 12.097161 28.723216 31.579557 -1.172551 0.428594 0.078326 -0.018709 -154776.000000 0 0 1
-6.292492 12.107661 27.999596 31.147525 -1.091504 0.453464 0.076333 -0.018649 -297873.000000 0 0 1
-6.771792 13.396261 27.386836 31.230686 -1.102759 0.501379 0.070505 -0.015151 28103.700000 0 0 1
-5.774092 14.000661 26.580776 30.592422 -1.179633 0.517885 0.072918 -0.022187 -152318.000000 0 0 1
-6.109492 15.275861 26.306766 31.027790 -1.190338 0.558888 0.054392 -0.017780 -169977.000000 0 0 1
-5.005592 16.143961 25.676996 30.740715 -1.270136 0.582161 0.103273 -0.020418 -71124.000000 0 0 1
-4.683392 15.808461 24.317326 29.379822 -1.282776 0.595821 0.087276 -0.011293 -803038.000000 0 0 1
-3.781892 16.728861 23.883076 29.403381 -1.348464 0.622787 0.118354 -0.016745 -721868.000000 0 0 1
-3.462792 16.556961 22.375756 28.049926 -1.364624 0.647305 0.111501 -0.021627 65372.700000 0 0 1
-2.548292 15.502561 22.054136 27.077816 -1.407875 0.618977 0.075934 -0.021996 202458.000000 0 0 1
-2.396892 15.415661 20.677336 25.902508 -1.416547 0.646370 0.066238 -0.018501 1104850.000000 0 0 1
-1.317692 14.329761 20.158936 24.768146 -1.479099 0.619953 0.058727 -0.014914 927228.000000 0 1 0
-1.797792 13.033461 20.195036 24.102752 -1.433725 0.577422 0.051884 -0.012466 -138376.000000 0 1 0
-0.901192 12.266361 19.457236 23.018684 -1.497460 0.563707 0.045107 -0.001353 -270071.000000 0 1 0
-1.516892 10.841561 19.126736 22.037977 -1.431784 0.519840 0.021296 -0.009440 54820.400000 0 1 0
-1.778192 9.943061 20.179336 22.566170 -1.393830 0.464089 0.038787 -0.019659 -70032.600000 0 1 0
-2.703992 10.355461 21.156036 23.709176 -1.315382 0.468350 0.063900 -0.017554 -91526.000000 0 1 0
-4.207292 10.121061 20.889136 23.590108 -1.176832 0.483219 0.050864 -0.013184 202523.000000 0 1 0
-4.786292 8.824261 21.119636 23.384080 -1.073806 0.443715 0.050763 -0.010199 105917.000000 0 1 0
-6.188892 8.857561 20.949836 23.572323 -0.960935 0.476191 0.047471 -0.010122 211841.000000 0 1 0
-6.847292 7.477161 20.973636 23.295638 -0.829341 0.450282 0.044647 -0.011320 -258862.000000 0 1 0
-6.820492 6.825461 22.231636 24.235339 -0.785762 0.409492 0.062342 -0.011966 -72947.100000 0 1 0
-7.488092 5.594761 22.168736 24.058797 -0.641677 0.399026 0.056885 -0.013989 77073.500000 0 1 0
-7.699392 5.019661 23.590156 25.317446 -0.577749 0.371525 0.061417 -0.017294 -64265.700000 0 0 1
-8.742592 5.531061 24.391496 26.494728 -0.564086 0.401139 0.052975 -0.011463 -69606.100000 0 0 1
-8.974992 4.812061 25.578536 27.531217 -0.492158 0.378895 0.058979 -0.000002 -396776.000000 0 0 1
-9.942592 5.497761 26.527396 28.857984 -0.505106 0.404652 0.063728 0.002639 -409640.000000 0 0 1
-9.457192 6.644861 27.162636 29.519510 -0.612486 0.402311 0.060312 -0.009925 -142120.000000 0 0 1
-10.397892 7.104561 28.112556 30.804330 -0.599409 0.421156 0.073923 -0.006006 264851.000000 0 0 1
-9.797192 8.164361 29.070866 31.745189 -0.694740 0.413409 0.080005 -0.004812 301207.000000 0 0 1
-8.736092 7.686161 29.871096 32.057429 -0.721552 0.371457 0.091755 -0.007899 -7642.580000 0 0 1
-8.280692 8.625861 30.824336 33.062290 -0.805812 0.370045 0.089558 -0.010008 201421.000000 0 0 1
-7.218492 7.979961 31.752921 33.526622 -0.835458 0.326734 0.129992 -0.011993 722075.000000 0 0 1
-5.926692 7.723961 31.198796 32.682566 -0.916307 0.302480 0.123779 -0.019393 -278765.000000 0 0 1
-5.165592 7.074061 32.151255 33.323098 -0.940078 0.265986 0.149571 -0.017910 447172.000000 0 0 1
-3.629392 7.173361 31.852287 32.851146 -1.102397 0.247228 0.120647 -0.017211 774515.000000 0 0 1
-3.159692 8.507961 31.887969 33.154361 -1.215203 0.277281 0.102575 -0.026766 -747078.000000 0 0 1
-1.759192 8.557761 31.915137 33.089364 -1.368054 0.267202 0.098597 -0.028912 -52270.000000 0 0 1
-1.201492 9.921461 31.444311 32.994298 -1.450283 0.307733 0.101910 -0.031990 -69382.900000 0 0 1
-1.505992 11.003861 32.256320 34.114852 -1.434781 0.331604 0.117554 -0.045621 -246188.000000 0 0 1
-1.521492 12.198461 31.511446 33.824379 -1.446709 0.371953 0.118350 -0.046351 -10339.200000 0 0 1
-1.798492 13.467661 32.361712 35.098332 -1.438040 0.397504 0.108068 -0.053351 166902.000000 0 0 1
-0.680692 13.764961 33.184306 35.932376 -1.521386 0.393635 0.163282 -0.057111 -126420.000000 0 0 1
-0.809892 15.003461 -33.564783 36.774372 -1.516868 2.720694 0.147789 -0.058704 -181141.000000 0 0 1
0.453008 15.306961 -32.753753 36.156834 1.541210 2.704249 0.130571 -0.055004 48887.400000 0 0 1
1.549308 15.718461 -33.573873 37.103576 1.472548 2.701868 0.148656 -0.054667 130197.000000 0 0 1
2.650208 16.091761 -32.774053 36.607471 1.407568 2.679863 0.163108 -0.054692 -470794.000000 0 0 1
3.706008 16.786161 -33.591463 37.734548 1.353504 2.668590 0.167611 -0.039101 -297716.000000 0 0 1
3.290508 18.108661 33.459086 38.187190 1.391048 0.502905 0.146056 -0.031861 -105741.000000 0 0 1
4.412908 18.814761 33.019919 38.259431 1.340416 0.529513 0.114271 -0.005740 46348.900000 0 0 1
4.124808 20.293461 32.991207 38.952001 1.370270 0.560535 0.107968 -0.013533 52106.200000 0 0 1
3.966908 20.775661 -33.136073 39.311115 1.382127 2.573481 0.127750 -0.040035 101725.000000 0 0 1
4.061108 22.180961 -33.166423 40.106100 1.389712 2.544488 0.105341 -0.024316 -18462.200000 0 0 1
3.682108 22.809061 -31.830503 39.331821 1.410745 2.513724 0.111277 -0.032790 -47307.900000 0 0 1
3.432908 24.188461 -31.836163 40.129887 1.429814 2.487053 0.114278 -0.034277 191742.000000 0 0 1
3.349308 24.642561 -30.498293 39.352504 1.435709 2.457516 0.122786 -0.037019 -68525.800000 0 0 1
2.847908 26.110461 -30.484873 40.239213 1.462154 2.430411 0.135327 -0.048584 -178364.000000 0 0 1
3.884908 27.028161 -30.657843 41.055053 1.428039 2.413958 0.153656 -0.045743 -32190.100000 0 0 1
3.434308 28.289261 -30.272133 41.574978 1.449988 2.386391 0.145191 -0.041557 118038.000000 0 0 1
4.561308 29.354461 -30.157523 42.331621 1.416642 2.363725 0.156004 -0.046337 315920.000000 0 0 1
5.560508 29.042661 -29.206513 41.562192 1.381626 2.350007 0.144657 -0.061130 339026.000000 0 0 1
6.264208 30.259661 -28.813703 42.250644 1.366665 2.321250 0.160186 -0.062022 176042.000000 0 0 1
7.319408 30.019561 -27.701323 41.498326 1.331641 2.301681 0.172892 -0.064672 -266335.000000 0 0 1
8.424808 29.288461 -28.194923 41.518009 1.290709 2.317334 0.177810 -0.061020 1465670.000000 0 0 1
9.718808 29.966061 -28.090663 42.207883 1.257173 2.299002 0.169839 -0.058298 1314100.000000 0 0 1
10.061208 31.306461 -28.780543 43.699452 1.259844 2.289756 0.185663 -0.058603 -1142700.000000 0 0 1
9.583608 32.437861 -28.076793 43.958693 1.283524 2.263615 0.196241 -0.060485 269038.000000 0 0 1
9.475608 33.645561 -28.783503 45.280249 1.296277 2.259678 0.184724 -0.057513 -548617.000000 0 0 1
8.418508 -33.727704 -29.888963 45.845168 -1.326192 2.280956 0.164386 -0.037747 -476135.000000 0 0 1
8.526308 32.841561 -31.007093 45.964181 1.316785 2.311209 0.151204 -0.032014 103669.000000 0 0 1
7.303708 32.818561 -31.724453 46.226000 1.351817 2.327173 0.119869 -0.024321 188774.000000 0 0 1
7.296308 31.911161 -32.919283 46.424536 1.346016 2.359006 0.141526 -0.039629 11983.300000 0 0 1
7.711308 32.591661 33.335282 47.253801 1.338465 0.787736 0.165966 -0.039817 184562.000000 0 0 1
7.229308 31.980261 32.176007 45.937952 1.348478 0.794806 0.140627 -0.036473 -175490.000000 0 0 1
6.847408 32.964261 31.124256 45.850287 1.365987 0.824637 0.134738 -0.051605 -332740.000000 0 0 1
7.964308 33.567961 30.544356 46.078150 1.337844 0.846135 0.132983 -0.052508 -189928.000000 0 0 1
7.704508 -33.542804 29.219526 45.147091 -1.345021 0.866881 0.110318 -0.062311 -49314.700000 0 0 1
19.298253 -21.548339 28.733236 40.771955 -0.840429 0.788753 0.128482 -0.020312 -610139.000000 0 0 1
18.400953 -20.461039 28.926546 39.924857 -0.838359 0.760452 0.133397 -0.019979 -97259.400000 0 0 1
17.082553 -20.910539 29.090996 39.690683 -0.885814 0.748159 0.133624 -0.017557 -230185.000000 0 0 1
16.754053 -21.445639 30.551716 40.914802 -0.907604 0.727686 0.112062 -0.026768 -823710.000000 0 0 1
17.437253 -22.594539 30.981876 42.124193 -0.913522 0.744408 0.125025 -0.030259 117994.000000 0 0 1
17.128453 -22.819139 32.378228 43.156073 -0.926900 0.722343 0.121956 -0.026743 335559.000000 0 0 1
18.054153 -23.888239 33.016633 44.572395 -0.923609 0.736623 0.117139 -0.032564 -62486.900000 0 0 1
17.717053 -25.139159 32.543191 44.776451 -0.956883 0.757156 0.140209 -0.036789 506937.000000 0 0 1
18.542053 -26.120579 33.204773 46.137288 -0.953481 0.767433 0.134674 -0.040947 452725.000000 0 0 1
17.848653 -27.530119 33.153566 46.643765 -0.995595 0.780186 0.120014 -0.030178 193834.000000 0 0 1
18.154453 -28.220639 32.005003 46.371422 -0.999143 0.809047 0.116096 -0.031390 22771.300000 0 0 1
17.864653 -29.609699 32.089506 47.176440 -1.027926 0.822758 0.123135 -0.037557 -416220.000000 0 0 1
18.412653 -30.457599 30.920316 47.146124 -1.027050 0.855501 0.127060 -0.033972 643373.000000 0 0 1
19.780453 -30.801989 31.141526 48.060623 -0.999937 0.865889 0.141849 -0.041919 908902.000000 0 0 1
20.446153 -31.351769 29.953966 47.939740 -0.992909 0.895888 0.117984 -0.033796 483664.000000 0 0 1
21.864153 -31.904889 30.185036 49.062200 -0.970010 0.908106 0.104564 -0.035846 857047.000000 0 0 1
22.931853 -30.982479 30.504846 49.156174 -0.933626 0.901327 0.091538 -0.038539 872129.000000 0 0 1
24.224153 -31.530999 30.389426 50.045286 -0.915708 0.918216 0.081101 -0.037179 94710.400000 0 0 1
25.266853 -30.381109 30.512396 49.924262 -0.877044 0.913254 0.071032 -0.044811 -524011.000000 0 0 1
26.383653 -30.470989 29.705166 50.069703 -0.857166 0.935674 0.073372 -0.040913 -167491.000000 0 0 1
27.392253 -29.541719 30.099896 50.289685 -0.823134 0.929131 0.060987 -0.033273 -265209.000000 0 0 1
28.552453 -29.407689 29.161016 50.303276 -0.800153 0.952431 0.057933 -0.029598 -1201200.000000 0 0 1
29.565153 -30.338239 29.303396 51.509184 -0.798303 0.965633 0.048328 -0.026011 -520616.000000 0 0 1
30.421153 -30.281219 28.171816 51.342477 -0.783093 0.989983 0.046166 -0.035928 69860.900000 0 0 1
31.671153 -31.162309 28.345506 52.703122 -0.777300 1.002931 0.041992 -0.036429 -124206.000000 0 0 1
31.276053 -32.516519 28.503446 53.366299 -0.804841 1.007342 0.025187 -0.030635 95023.400000 0 0 1
32.299853 -33.297049 29.101156 54.761768 -0.800599 1.010528 0.041958 -0.027067 -798253.000000 0 0 1
31.778753 32.896361 29.849806 54.617493 0.802677 0.992588 0.023861 -0.022210 -504462.000000 0 0 1
31.116053 33.021404 31.077396 54.994785 0.815097 0.970245 0.047620 -0.025683 482345.000000 0 0 1
30.039153 -33.523909 31.228346 54.785151 -0.840167 0.964272 0.041729 -0.026000 261703.000000 0 0 1
28.774053 -33.681869 30.337056 53.691260 -0.863817 0.970329 0.041891 -0.027420 -15643.500000 0 0 1
27.990453 32.594443 30.616966 52.756628 0.861245 0.951646 0.039350 -0.026243 17380.000000 0 0 1
26.691653 32.619926 30.097986 51.791820 0.885019 0.950675 0.053358 -0.028347 -257139.000000 0 0 1
26.102253 31.243997 30.216256 50.700464 0.874820 0.932316 0.085568 -0.039440 -392219.000000 0 0 1
26.178453 30.574527 28.975586 49.595339 0.862704 0.946853 0.074845 -0.033878 209093.000000 0 0 1
25.869953 29.203267 29.069366 48.652988 0.845850 0.930437 0.115001 -0.046955 -196107.000000 0 0 1
25.298053 28.652637 27.709996 47.210263 0.847497 0.943512 0.115561 -0.048071 142813.000000 0 0 1
23.962853 29.067017 27.440696 46.605810 0.881353 0.941244 0.145562 -0.049122 304004.000000 0 0 1
23.609653 28.713207 26.084396 45.412109 0.882630 0.958934 0.135928 -0.047238 826952.000000 0 0 1
22.127753 29.106757 25.746586 44.718312 0.920782 0.957275 0.165823 -0.045009 524080.000000 0 0 1
21.952053 30.454567 25.369496 45.309873 0.946238 0.976518 0.167263 -0.052843 -40706.800000 0 0 1
20.616153 30.693847 24.989046 44.627238 0.979337 0.976470 0.146982 -0.044854 -394219.000000 0 0 1
20.377953 32.036967 24.313006 45.086034 1.004272 1.001241 0.165628 -0.039526 -315067.000000 0 0 1
21.138253 32.314839 23.167416 45.031141 0.991520 1.030401 0.158124 -0.036481 -197357.000000 0 0 1
22.391253 32.885978 23.462856 46.188325 0.973021 1.037955 0.160057 -0.033666 -390047.000000 0 0 1
23.134953 33.141382 22.141036 46.084734 0.961368 1.069638 0.163240 -0.043033 -423483.000000 0 0 1
22.674853 -33.201179 21.486536 45.586604 -0.971603 1.079993 0.159050 -0.026540 205982.000000 0 0 1
23.053753 -33.157959 20.102736 45.111481 -0.963252 1.108926 0.175696 -0.032063 -23887.900000 0 0 1
22.543253 -31.891359 19.406836 43.610575 -0.955470 1.109619 0.152489 -0.029691 -162228.000000 0 0 1
23.186253 -30.732729 19.874336 43.325422 -0.924454 1.094240 0.145961 -0.019738 343753.000000 0 0 1
22.665253 -29.579449 19.217936 41.928350 -0.916976 1.094656 0.133550 -0.026053 -330670.000000 0 0 1
23.532953 -29.022319 18.107236 41.520680 -0.889470 1.119534 0.118419 -0.025895 -457304.000000 0 0 1
23.414553 -29.707919 16.864436 41.415105 -0.903318 1.151405 0.109508 -0.031228 533426.000000 0 0 1
24.197653 -29.114169 15.827736 41.032651 -0.877360 1.174792 0.088955 -0.031092 -339744.000000 0 0 1
23.815253 -29.617309 14.427136 40.650873 -0.893561 1.207986 0.054607 -0.030807 -369474.000000 0 0 1
24.309053 -30.870359 13.996836 41.711156 -0.903751 1.228591 0.112183 -0.033086 -46567.000000 0 0 1
24.213153 -31.083019 12.597936 41.365914 -0.909002 1.261332 0.095003 -0.034575 -202662.000000 0 0 1
22.837153 -31.114629 11.864136 40.378378 -0.937635 1.272571 0.095239 -0.031259 -276503.000000 0 0 1
22.075653 -32.186189 12.360536 40.939810 -0.969614 1.264091 0.087539 -0.034208 -679935.000000 0 0 1
20.824553 -32.103689 11.697836 40.014350 -0.995360 1.274122 0.062901 -0.021056 -185525.000000 0 0 1
19.876353 -32.904079 12.635636 40.464887 -1.027390 1.253223 0.055658 -0.024153 -435675.000000 0 0 1
19.570353 -32.279549 13.889236 40.222865 -1.025774 1.218230 0.055613 -0.021600 469525.000000 0 0 1
20.258053 -32.884529 15.011136 41.438088 -1.018669 1.200111 0.069794 -0.030263 -686086.000000 0 0 1
20.127053 -32.069129 16.348936 41.240938 -1.010319 1.163177 0.074344 -0.028572 720623.000000 0 0 1
18.795953 -31.627879 16.661736 40.388414 -1.034590 1.145558 0.082408 -0.029069 904966.000000 0 0 1
17.695953 -32.461729 16.937936 40.666992 -1.071698 1.141201 0.068606 -0.026402 -189565.000000 0 0 1
17.834153 -33.396819 18.190936 42.003746 -1.080314 1.122890 0.051824 -0.025161 -506339.000000 0 0 1
18.523053 32.839085 18.037836 41.795604 1.057226 1.124561 0.052577 -0.020585 -9361.850000 0 0 1
18.801453 32.287416 19.350736 42.076393 1.043482 1.092919 0.053987 -0.026738 -189523.000000 0 0 1
19.659653 31.056507 19.209136 41.472876 1.006445 1.089224 0.080705 -0.030067 -454698.000000 0 0 1
18.997253 29.981247 18.572336 40.058737 1.006010 1.088711 0.033019 -0.023647 -117305.000000 0 0 1
19.858353 28.865117 18.324436 39.539020 0.968189 1.088910 0.043257 -0.031394 -190997.000000 0 0 1
19.188453 27.514747 18.229036 38.177949 0.961826 1.073017 0.043718 -0.023577 -259686.000000 0 0 1
18.890353 26.917707 19.513836 38.238700 0.958876 1.035244 0.063087 -0.036742 93928.100000 0 0 1
18.497553 25.552297 19.359436 37.011716 0.944203 1.020356 0.069148 -0.035592 -397531.000000 0 0 1
18.320153 24.799807 20.687836 37.130109 0.934553 0.979821 0.111559 -0.040623 588327.000000 0 0 1
17.098253 25.060597 21.401736 37.127053 0.972065 0.956424 0.110866 -0.038625 1277580.000000 0 0 1
16.079253 24.086427 21.028536 35.789630 0.982172 0.942757 0.098108 -0.036451 486112.000000 0 0 1
14.700953 24.404267 21.650136 35.782882 1.028619 0.920978 0.134683 -0.051455 14805.900000 0 0 1
14.086153 25.548587 21.116536 36.014692 1.066919 0.944274 0.104970 -0.045396 114273.000000 0 0 1
12.798353 25.754637 21.690236 36.021736 1.109605 0.924614 0.117159 -0.045836 183759.000000 0 0 1
12.002853 26.897837 20.952236 36.146345 1.151075 0.952497 0.094895 -0.048240 -153816.000000 0 0 1
12.342753 28.261067 21.243936 37.447780 1.159024 0.967579 0.072733 -0.042338 -242165.000000 0 0 1
11.814653 29.156207 20.308836 37.444883 1.185799 0.997545 0.068123 -0.045254 -134958.000000 0 0 1
12.483453 30.533887 20.319536 38.743236 1.182693 1.018708 0.042201 -0.037037 -107965.000000 0 0 1
12.137753 31.378137 21.471936 39.911860 1.201702 1.002753 0.038957 -0.033785 -205865.000000 0 0 1
12.735253 31.021167 22.677846 40.481899 1.181242 0.976172 0.044621 -0.028347 -402115.000000 0 0 1
12.125353 31.736551 23.870296 41.521366 1.205848 0.958324 0.050063 -0.028705 142321.000000 0 0 1
10.744753 31.581077 24.138566 41.176261 1.242854 0.944405 0.045377 -0.025476 -50794.300000 0 0 1
10.440953 32.223723 25.347026 42.306661 1.257456 0.928387 0.048833 -0.034250 1024280.000000 0 0 1
8.970653 32.002388 25.944836 42.163491 1.297498 0.907980 0.154287 -0.047586 1109550.000000 0 0 1
7.946153 32.778078 25.390176 42.216167 1.332962 0.925503 0.137065 -0.037595 -48633.300000 0 0 1
7.395053 32.432848 24.116866 41.087707 1.346618 0.943497 0.142447 -0.053711 -188112.000000 0 0 1
6.314053 31.342067 24.038556 40.000557 1.372001 0.926100 0.132079 -0.045734 -406256.000000 0 0 1
6.764453 30.099117 24.478916 39.381874 1.349730 0.900040 0.110757 -0.046143 -150352.000000 0 0 1
6.112553 28.990417 23.837846 38.026970 1.362993 0.893271 0.105044 -0.043488 -197808.000000 0 0 1
6.990753 27.690117 24.028706 37.322807 1.323500 0.871332 0.103442 -0.038186 -2761.720000 0 0 1
8.042953 27.604297 23.052136 36.852235 1.287279 0.894987 0.086562 -0.034700 727706.000000 0 0 1
9.228853 28.344237 23.323426 37.849038 1.256023 0.906859 0.114087 -0.041203 -481408.000000 0 0 1
10.105553 27.762787 24.406376 38.321870 1.221707 0.880354 0.106658 -0.050850 -1738750.000000 0 0 1
9.662053 27.985407 25.727016 39.222667 1.238356 0.855393 0.109556 -0.045133 166358.000000 0 0 1
10.601153 27.605467 26.716126 39.852197 1.204138 0.836075 0.112684 -0.032050 1198630.000000 0 0 1
11.967353 28.401287 26.856996 40.879688 1.172007 0.853995 0.103455 -0.029930 776985.000000 0 0 1
11.753153 29.635207 27.461326 42.077387 1.193229 0.859735 0.093453 -0.035003 -234759.000000 0 0 1
12.986753 30.255347 27.602976 42.964707 1.165341 0.873096 0.077601 -0.024267 -592680.000000 0 0 1
12.787853 31.487763 28.488326 44.346286 1.185024 0.873163 0.063049 -0.033361 -54732.300000 0 0 1
12.566553 31.355587 29.885316 45.102363 1.189622 0.846497 0.063014 -0.046181 697685.000000 0 0 1
11.194153 31.101027 30.203256 44.775212 1.225304 0.830437 0.114218 -0.043874 419157.000000 0 0 1
11.134953 30.985417 31.726041 45.723352 1.225806 0.803947 0.113800 -0.036692 -32842.100000 0 0 1
11.250653 29.583717 32.113513 45.089369 1.207388 0.778142 0.113174 -0.035210 297314.000000 0 0 1
11.585253 29.542497 33.529206 46.164758 1.197071 0.757881 0.128697 -0.039999 9377.680000 0 0 1
11.720353 28.120197 -33.348323 45.168825 1.175896 2.401349 0.146192 -0.045551 692930.000000 0 0 1
12.908253 27.467427 33.603536 45.280019 1.131478 0.734558 0.150524 -0.041127 612068.000000 0 0 1
13.008153 26.170677 -33.273083 44.285600 1.109511 2.420871 0.165955 -0.044739 291993.000000 0 0 1
14.334253 25.467667 -33.715923 44.618789 1.058148 2.427433 0.199932 -0.043636 493137.000000 0 0 1
14.626853 24.130007 -33.318463 43.661448 1.025853 2.438907 0.182360 -0.042497 -22737.000000 0 0 1
14.732953 23.876247 -31.955293 42.523826 1.017931 2.421081 0.188974 -0.044984 -294423.000000 0 0 1
15.088153 22.403227 -31.644043 41.604115 0.978091 2.435031 0.164077 -0.060191 298191.000000 0 0 1
16.382253 22.101627 -32.163143 42.324082 0.932936 2.433995 0.168974 -0.046812 282969.000000 0 0 1
16.581753 20.687427 -32.238413 41.740142 0.895118 2.453344 0.167280 -0.047551 936475.000000 0 0 1
18.024953 20.326527 -32.758523 42.558048 0.845339 2.449226 0.199509 -0.060674 821064.000000 0 0 1
19.075953 20.540127 -31.861563 42.437577 0.822340 2.420048 0.139552 -0.052661 -527502.000000 0 0 1
20.282253 20.007927 -32.320243 43.084626 0.778590 2.419096 0.158357 -0.051160 -90416.900000 0 0 1
21.471253 20.185827 -31.327113 43.010119 0.754551 2.386731 0.111194 -0.037574 319727.000000 0 0 1
22.044053 21.478827 -31.417423 43.981072 0.772412 2.366476 0.069960 -0.029042 -252552.000000 0 0 1
22.803053 21.978927 -30.355373 43.869136 0.766997 2.334987 0.034729 -0.007248 -447709.000000 0 0 1
22.010153 22.176427 -29.084893 42.686903 0.789161 2.320407 0.044959 -0.018080 103913.000000 0 0 1
21.101553 23.281407 -29.163303 42.869542 0.834473 2.318941 0.037718 -0.004867 289626.000000 0 0 1
20.519953 23.690677 -27.938973 41.986937 0.856994 2.298853 0.048654 -0.000810 111529.000000 0 0 1
21.513153 24.302327 -26.866643 42.133542 0.846202 2.262246 0.050844 -0.005436 575328.000000 0 0 1
22.312853 25.358567 -27.387833 43.485787 0.849201 2.252106 0.060281 -0.002606 -15237.500000 0 0 1
21.587153 26.542437 -27.484673 43.885229 0.887994 2.247575 0.069576 -0.003966 -308308.000000 0 0 1
22.484353 27.732337 -27.972193 45.354958 0.889527 2.235390 0.062731 -0.004321 210029.000000 0 0 1
22.617053 27.899037 -29.391903 46.408742 0.889580 2.256641 0.073390 -0.005563 37711.300000 0 0 1
22.977753 26.781917 -30.228773 46.465330 0.861700 2.279126 0.067286 -0.002910 583509.000000 0 0 1
24.424653 26.148697 -30.101733 46.759302 0.819475 2.270197 0.087975 -0.013176 -54323.700000 0 0 1
25.393953 27.069297 -30.412033 47.984283 0.817321 2.257242 0.084430 -0.011863 -1186320.000000 0 0 1
26.615153 26.423767 -30.187763 48.144396 0.781790 2.248525 0.098108 -0.025903 -157387.000000 0 0 1
27.889853 27.275877 -30.472333 49.501317 0.774269 2.233926 0.098163 -0.017209 282625.000000 0 0 1
28.006353 28.354967 -29.516173 49.593996 0.791583 2.208256 0.083854 -0.010892 -80526.500000 0 0 1
29.211353 29.048807 -29.727673 50.802272 0.782608 2.195879 0.083110 -0.022389 45531.800000 0 0 1
29.474353 30.291327 -28.851693 51.173451 0.799067 2.169778 0.089076 -0.014113 -145326.000000 0 0 1
29.709953 29.999367 -27.502943 50.389038 0.790245 2.148154 0.117445 -0.014895 6154.900000 0 0 1
28.849153 30.636477 -26.620113 49.794555 0.815435 2.134829 0.110210 -0.006491 -495611.000000 0 0 1
29.525753 30.754697 -25.243123 49.546309 0.805782 2.105383 0.133362 -0.009441 -324623.000000 0 0 1
29.894553 29.566607 -24.551333 48.689182 0.779883 2.099305 0.115775 -0.006197 832234.000000 0 0 1
28.877753 28.564077 -24.186033 47.273621 0.779937 2.107863 0.129624 -0.014974 718996.000000 0 0 1
27.902353 29.017967 -23.062633 46.394706 0.804995 2.091045 0.122565 -0.003752 -282959.000000 0 0 1
27.015953 30.038797 -23.349633 46.662580 0.838330 2.094849 0.164783 -0.014645 -363437.000000 0 0 1
26.257953 30.371207 -22.220333 45.887182 0.857906 2.076289 0.122145 0.000053 34111.200000 0 0 1
3.968953 -26.000069 -19.167133 32.544357 -1.419314 2.200560 0.090737 -0.007789 -249033.000000 0 0 1
3.839453 -27.113759 -18.369033 32.974516 -1.430126 2.161647 0.095986 -0.004258 264438.000000 0 0 1
3.818153 -26.774419 -17.000633 31.944785 -1.429147 2.131979 0.105373 -0.005813 -126435.000000 0 0 1
3.979853 -27.978489 -16.060333 32.504913 -1.429497 2.087583 0.084740 -0.008872 150730.000000 0 0 1
5.288553 -28.475349 -15.853133 33.017209 -1.387165 2.071619 0.068061 -0.016559 -115462.000000 0 0 1
5.318953 -29.364089 -14.764133 33.294453 -1.391601 2.030231 0.079005 -0.024025 -653190.000000 0 0 1
6.672153 -29.897149 -14.365733 33.833880 -1.351224 2.009312 0.082151 -0.023762 -977061.000000 0 0 1
7.520453 -28.950309 -13.781433 32.933349 -1.316643 2.002550 0.078168 -0.016434 887249.000000 0 0 1
8.901153 -29.395409 -13.716833 33.637361 -1.276766 1.990824 0.074965 -0.018464 1165700.000000 0 0 1
9.312953 -30.197809 -12.457933 33.968203 -1.271653 1.946312 0.065187 -0.026503 -829975.000000 0 0 1
9.405353 -29.377339 -11.306933 32.853241 -1.260951 1.922146 0.069244 -0.032655 26653.500000 0 0 1
9.502753 -30.072369 -10.095533 33.114490 -1.264730 1.880596 0.078625 -0.029328 170412.000000 0 0 1
10.758453 -30.935539 -9.831033 34.196507 -1.236110 1.862398 0.064749 -0.026715 780174.000000 0 0 1
12.025453 -30.264539 -9.778333 34.002494 -1.192581 1.862492 0.064701 -0.028080 561705.000000 0 0 1
13.091453 -31.152409 -9.614633 35.132604 -1.172965 1.848000 0.061539 -0.029256 230896.000000 0 0 1
14.322153 -30.606539 -8.830433 34.926506 -1.133121 1.826399 0.070619 -0.032318 372993.000000 0 0 1
15.179353 -29.622459 -9.419133 34.592237 -1.097256 1.846569 0.069917 -0.037092 212802.000000 0 0 1
16.198453 -29.399789 -8.458933 34.616340 -1.067207 1.817658 0.070453 -0.036330 -930605.000000 0 0 1
17.412953 -28.801089 -9.116533 34.868680 -1.027006 1.835324 0.088639 -0.037964 -948097.000000 0 0 1
17.299153 -27.429939 -9.521033 33.798111 -1.008132 1.856365 0.103117 -0.044645 53140.000000 0 0 1
16.521153 -27.227649 -10.686933 33.593212 -1.025408 1.894550 0.087837 -0.042912 -390464.000000 0 0 1
16.093053 -25.711619 -10.866233 32.220315 -1.011546 1.914788 0.098272 -0.041433 -507535.000000 0 0 1
15.042353 -25.306749 -9.983433 31.086538 -1.034504 1.897740 0.078098 -0.040045 599482.000000 0 0 1
14.547253 -24.011739 -10.290233 29.901088 -1.026094 1.922122 0.056649 -0.024378 72919.600000 0 0 1
13.902953 -23.666139 -11.677133 29.828403 -1.039647 1.973032 0.045111 -0.020396 199019.000000 0 0 1
14.855253 -23.331239 -12.702533 30.436484 -1.003820 2.001319 0.056599 -0.022925 584081.000000 0 0 1
14.165853 -23.334739 -13.960933 30.660872 -1.025193 2.043543 0.071323 -0.023475 85211.300000 0 0 1
15.001153 -22.838239 -15.128233 31.232726 -0.989625 2.076441 0.065267 -0.024617 233515.000000 0 0 1
16.076653 -23.705639 -15.510533 32.572883 -0.974866 2.067101 0.063879 -0.025469 618676.000000 0 0 1
16.772753 -23.010939 -16.557033 32.938790 -0.940934 2.097470 0.066371 -0.024010 -496909.000000 0 0 1
17.795853 -23.867339 -17.311333 34.438706 -0.930107 2.097482 0.077823 -0.027373 338578.000000 0 0 1
19.063053 -24.153139 -16.746933 35.031898 -0.902640 2.069227 0.107881 -0.038585 238270.000000 0 0 1
20.038553 -23.151639 -16.961133 35.003171 -0.857352 2.076656 0.119355 -0.043932 48910.800000 0 0 1
21.471453 -23.476439 -16.472833 35.826257 -0.829976 2.048564 0.114673 -0.047067 421484.000000 0 0 1
22.189753 -24.474539 -17.198833 37.244973 -0.834321 2.050793 0.142584 -0.046507 1013420.000000 0 0 1
23.602053 -24.227739 -17.031833 37.869824 -0.798479 2.037278 0.166134 -0.032811 1119250.000000 0 0 1
24.510853 -25.201549 -17.850133 39.427493 -0.799291 2.040625 0.167704 -0.029958 -126626.000000 0 0 1
24.522853 -24.952039 -19.228433 39.921262 -0.794073 2.073343 0.188064 -0.035375 675910.000000 0 0 1
25.447853 -25.798859 -19.962333 41.372322 -0.792247 2.074308 0.170308 -0.035001 663582.000000 0 0 1
26.912453 -25.377789 -20.187733 42.140916 -0.756058 2.070372 0.155550 -0.048966 -1515.480000 0 0 1
27.083253 -24.275939 -21.065633 42.030759 -0.730792 2.095776 0.153463 -0.044979 -93790.700000 0 0 1
26.958453 -23.004839 -20.410833 40.897223 -0.706432 2.093329 0.149814 -0.034413 -1600490.000000 0 0 1
25.618353 -22.307039 -20.402133 39.625131 -0.716415 2.111662 0.161189 -0.042173 -864541.000000 0 0 1
25.238753 -21.705439 -21.658133 39.713920 -0.710274 2.147607 0.146892 -0.035595 225010.000000 0 0 1
24.749053 -22.666439 -22.607533 40.464597 -0.741504 2.163613 0.112515 -0.034224 -471980.000000 0 0 1
24.185353 -22.066039 -23.931233 40.552993 -0.739609 2.202007 0.081378 -0.026809 221694.000000 0 0 1
25.139853 -21.417539 -24.766033 41.280498 -0.705617 2.214229 0.072834 -0.014571 144782.000000 0 0 1
24.468253 -20.509839 -25.638703 40.947429 -0.697617 2.247385 0.053546 -0.005686 95629.400000 0 0 1
25.231553 -20.182639 -26.934333 42.064575 -0.674678 2.265697 0.060176 -0.004924 -460117.000000 0 0 1
24.626753 -19.105739 -27.616743 41.643615 -0.659817 2.295841 0.045600 0.006624 -216437.000000 0 0 1
25.224753 -18.658939 -28.795733 42.586834 -0.636881 2.313341 0.054612 0.009723 143023.000000 0 0 1
24.392353 -17.473539 -29.479693 42.063805 -0.621617 2.347361 0.095671 -0.001817 168558.000000 0 0 1
23.227353 -17.877039 -30.147313 42.047104 -0.655962 2.370270 0.093710 -0.007892 -214979.000000 0 0 1
22.630553 -16.790839 -30.799043 41.745122 -0.638332 2.400584 0.113259 -0.016936 474726.000000 0 0 1
21.199753 -17.158239 -31.308263 41.521585 -0.680422 2.424963 0.088891 -0.016853 458566.000000 0 0 1
21.388753 -18.069839 -32.357583 42.790314 -0.701484 2.428266 0.085018 -0.014468 -109809.000000 0 0 1
20.181853 -18.471239 -32.935713 42.816528 -0.741171 2.448430 0.111546 -0.024613 -385065.000000 0 0 1
20.379753 -19.338739 33.221309 43.508350 -0.759194 0.701985 0.123107 -0.015648 -232863.000000 0 0 1
20.910053 -20.579739 33.535096 44.557363 -0.777437 0.718753 0.127730 -0.019017 8040.320000 0 0 1
21.229653 -21.305139 32.380358 44.193831 -0.787173 0.748531 0.122682 -0.027628 -238105.000000 0 0 1
22.210353 -22.436339 32.691889 45.447208 -0.790460 0.767948 0.107484 -0.027231 -324980.000000 0 0 1
21.649253 -23.563439 33.355416 46.222392 -0.827710 0.764644 0.133328 -0.025270 19476.300000 0 0 1
21.534053 -23.373839 -32.686143 45.589864 -0.826343 2.370229 0.135740 -0.033770 -543596.000000 0 0 1
20.633353 -24.356439 -31.934233 45.152703 -0.867964 2.356397 0.145629 -0.040624 -484717.000000 0 0 1
21.016753 -25.745799 -31.867413 46.044349 -0.886184 2.335194 0.141544 -0.045902 -193773.000000 0 0 1
22.006753 -26.003299 -30.907693 45.997328 -0.868451 2.307629 0.121602 -0.046441 -68889.700000 0 0 1
22.137053 -27.529829 -30.654313 46.772080 -0.893553 2.285505 0.118353 -0.048364 156019.000000 0 0 1
20.876553 -28.054639 -30.265093 46.247909 -0.931057 2.284198 0.116200 -0.045638 99338.200000 0 0 1
20.766453 -29.428739 -30.237393 47.027611 -0.956287 2.269168 0.105811 -0.040877 -621040.000000 0 0 1
19.385353 -29.946789 -29.857823 46.519798 -0.996303 2.267679 0.138793 -0.051406 -179706.000000 0 0 1
18.341253 -29.948529 -30.803583 46.713774 -1.021290 2.290832 0.143845 -0.058758 -95537.900000 0 0 1
18.465553 -30.817269 -31.936873 48.069164 -1.030969 2.297479 0.148196 -0.057969 -815559.000000 0 0 1
17.138153 -31.477779 -32.333303 48.270170 -1.072222 2.304790 0.147720 -0.058929 -43854.600000 0 0 1
16.232353 -30.531659 -32.905983 47.733376 -1.082145 2.331416 0.136570 -0.050795 110272.000000 0 0 1
15.038053 -31.243879 -33.244523 48.036666 -1.122211 2.335143 0.096388 -0.032404 460849.000000 0 0 1
13.963053 -30.303379 33.555136 47.320278 -1.139018 0.782566 0.079097 -0.018032 203987.000000 0 0 1
13.364953 -29.538459 -32.858913 46.161138 -1.145899 2.362898 0.101270 -0.026521 -245631.000000 0 0 1
12.468853 -28.628009 -33.459103 45.766218 -1.160026 2.390711 0.092997 -0.027431 -107031.000000 0 0 1
11.494553 -27.963359 -32.466893 44.364099 -1.180794 2.391797 0.118040 -0.039215 61096.700000 0 0 1
10.435353 -28.772249 -31.982013 44.267234 -1.222863 2.378173 0.120335 -0.032395 -43574.300000 0 0 1
9.763453 -28.016049 -31.005103 42.913173 -1.235463 2.378219 0.099767 -0.037984 17257.000000 0 0 1
8.703153 -28.861149 -30.218773 42.683545 -1.277916 2.357419 0.080860 -0.030380 568612.000000 0 0 1
7.470053 -29.228489 -30.813933 43.123134 -1.320578 2.366787 0.084669 -0.025714 212455.000000 0 0 1
7.578453 -30.204799 -31.810373 44.515870 -1.324969 2.366827 0.091217 -0.024139 -697181.000000 0 0 1
6.263853 -30.545189 -32.511843 45.047357 -1.368532 2.377089 0.145858 -0.036393 14391.300000 0 0 1
5.362853 -31.208039 -31.648383 44.769655 -1.400616 2.355925 0.163151 -0.049773 756767.000000 0 0 1
4.118153 -31.609509 -32.245203 45.341739 -1.441244 2.361942 0.184273 -0.058437 693660.000000 0 0 1
3.095053 -32.293659 -31.287433 45.070647 -1.475247 2.338085 0.156091 -0.054475 -132167.000000 0 0 1
2.258253 -31.470429 -30.556333 43.922398 -1.499161 2.340175 0.135363 -0.053448 804922.000000 0 0 1
0.919853 -31.448819 -31.112063 44.247427 -1.541555 2.350598 0.114833 -0.023271 925709.000000 0 0 1
0.069153 -30.305099 -30.499953 42.995941 -1.568514 2.359398 0.084352 -0.017733 -211096.000000 0 0 1
-0.490347 -30.473329 -29.246333 42.239936 1.554707 2.335587 0.045226 -0.024120 496533.000000 0 0 1
-1.466147 -29.441659 -28.990283 41.344859 1.521039 2.347851 0.132385 -0.033145 793431.000000 0 0 1
-2.247347 -29.501459 -27.658013 40.501263 1.494766 2.322511 0.152679 -0.044458 171846.000000 0 0 1
-1.321447 -29.238179 -26.630043 39.569894 1.525631 2.309037 0.117717 -0.039891 224312.000000 0 0 1
-1.873847 -29.498589 -25.342013 38.934505 1.507358 2.279550 0.152356 -0.050483 128315.000000 0 0 1
-0.773747 -29.576699 -24.255133 38.258218 1.544642 2.257492 0.095871 -0.048686 -84579.000000 0 0 1
-1.260947 -29.634319 -22.922533 37.486336 1.528272 2.228739 0.166954 -0.057319 -513367.000000 0 0 1
-0.222447 -29.977819 -22.064233 37.222970 1.563376 2.205276 0.135042 -0.049289 -315041.000000 0 0 1
-0.625047 -29.962469 -20.584133 36.357210 1.549938 2.172641 0.087620 -0.029432 124073.000000 0 0 1
-0.855847 -28.676639 -20.063133 35.008733 1.540960 2.181067 0.073819 -0.022318 804185.000000 0 0 1
0.389553 -28.250029 -19.491533 34.323982 -1.557008 2.174711 0.085996 -0.019430 517549.000000 0 0 1
0.310853 -26.867109 -18.816233 32.802268 -1.559227 2.181722 0.087824 -0.021305 -287809.000000 0 0 1
-0.471047 -26.901639 -17.649933 32.178256 1.553288 2.151371 0.083154 -0.017158 121307.000000 0 0 1
-0.436547 -25.661479 -17.038933 30.806287 1.553786 2.156876 0.075229 -0.015448 -102685.000000 0 0 1
-1.476947 -25.596709 -15.907733 30.173313 1.513160 2.126113 0.057882 -0.013379 -380042.000000 0 0 1
-1.562947 -24.345639 -15.322433 28.808504 1.506686 2.131606 0.040973 -0.009474 196535.000000 0 0 1
-2.305847 -24.571839 -14.129933 28.438481 1.477229 2.090773 0.047585 -0.015684 -150766.000000 0 0 1
-2.336847 -23.502539 -13.032233 26.975346 1.471692 2.075007 0.042921 -0.011653 516502.000000 0 0 1
-1.174047 -23.534939 -12.173333 26.522854 1.520952 2.047638 0.049869 -0.027879 596533.000000 0 0 1
-1.081847 -22.372139 -11.366733 25.117436 1.522477 2.040412 0.057394 -0.020085 78192.100000 0 0 1
0.232253 -22.339339 -10.556033 24.708902 -1.560400 2.012207 0.054968 -0.027386 142369.000000 0 1 0
0.433853 -21.124139 -9.900733 23.333280 -1.550261 2.009005 0.051007 -0.023322 -271279.000000 0 1 0
1.627553 -21.177339 -9.139933 23.122867 -1.494094 1.977166 0.041575 -0.023796 420842.000000 0 1 0
2.239153 -19.723739 -9.164033 21.863650 -1.457755 2.003299 0.056019 -0.021696 -1217630.000000 0 1 0
2.652753 -19.382239 -10.461533 22.184498 -1.434776 2.061866 0.050516 -0.001894 40422.500000 0 1 0
3.628153 -18.350439 -10.469833 21.436406 -1.375599 2.081067 0.042266 -0.000852 1170250.000000 0 1 0
5.072853 -18.649739 -9.922033 21.725407 -1.305215 2.045081 0.064946 -0.022135 -17980.000000 0 1 0
5.041553 -18.969239 -8.577633 21.420202 -1.311026 1.982800 0.054520 -0.024772 -512487.000000 0 1 0
6.177953 -19.650639 -8.100133 22.134291 -1.266191 1.945454 0.059862 -0.030101 -185195.000000 0 1 0
5.785753 -20.670439 -6.998233 22.576918 -1.297876 1.885961 0.057461 -0.033142 -132714.000000 0 1 0
5.061753 -21.714039 -7.591333 23.553113 -1.341776 1.898962 0.074268 -0.035019 -104514.000000 0 1 0
4.686253 -22.674739 -6.656833 24.091869 -1.366993 1.850749 0.086974 -0.040306 136794.000000 0 1 0
3.853953 -23.777039 -7.381833 25.193094 -1.410107 1.868170 0.073953 -0.037983 566191.000000 0 0 1
4.655753 -24.550739 -8.266333 26.320089 -1.383384 1.890273 0.091388 -0.037128 316889.000000 0 0 1
3.763653 -25.264139 -9.101333 27.115974 -1.422912 1.913086 0.083126 -0.031485 205018.000000 0 0 1
4.371653 -26.101839 -10.253433 28.382217 -1.404852 1.940418 0.069445 -0.026826 -381739.000000 0 0 1
5.262653 -27.038989 -9.723433 29.212113 -1.378568 1.910127 0.085566 -0.034325 89049.000000 0 0 1
5.853353 -27.835019 -10.794833 30.423320 -1.363529 1.933519 0.102441 -0.025883 364350.000000 0 0 1
5.593353 -29.342069 -10.522233 31.669543 -1.382431 1.909485 0.095072 -0.037658 1305590.000000 0 0 1
4.240153 -29.795609 -10.809233 31.978066 -1.429437 1.915609 0.100525 -0.038050 1336610.000000 0 0 1
4.296053 -31.212209 -10.799933 33.306104 -1.434016 1.901029 0.113877 -0.042494 310765.000000 0 0 1
2.904753 -31.853819 -11.081833 33.851298 -1.479858 1.904313 0.112381 -0.046477 140539.000000 0 0 1
2.524053 -31.635889 -12.461033 34.095126 -1.491180 1.944943 0.112791 -0.049203 299288.000000 0 0 1
1.665153 -32.688249 -12.838033 35.158348 -1.519900 1.944589 0.112164 -0.046686 -427942.000000 0 0 1
1.321753 -32.639319 -14.312933 35.664159 -1.530323 1.983760 0.106943 -0.033746 48122.600000 0 0 1
0.329253 -31.674959 -14.666633 34.907328 -1.560402 2.004417 0.101280 -0.033219 334374.000000 0 0 1
0.040053 -31.890239 -16.054933 35.703638 -1.569540 2.037195 0.089030 -0.033144 -221499.000000 0 0 1
-1.043747 -30.933229 -16.571633 35.108020 1.537067 2.062375 0.100020 -0.032902 44784.800000 0 0 1
-2.331147 -31.170669 -16.016233 35.122138 1.496149 2.044309 0.133229 -0.037668 80359.200000 0 0 1
-3.251847 -30.638779 -16.959233 35.169942 1.465057 2.073970 0.125688 -0.028541 -98647.700000 0 0 1
-4.728247 -30.705039 -16.527633 35.189748 1.418007 2.059715 0.152459 -0.026939 -343340.000000 0 0 1
-5.023447 -29.667829 -15.638333 33.911245 1.403064 2.050093 0.139734 -0.019832 762537.000000 0 0 1
-6.389547 -29.240949 -15.692333 33.795099 1.355664 2.053683 0.127477 -0.029874 1131690.000000 0 0 1
-7.486747 -29.889949 -14.788033 34.178156 1.325369 2.018254 0.127188 -0.035167 280219.000000 0 0 1
-7.869047 -31.194459 -15.098533 35.538456 1.323694 2.009593 0.140806 -0.035981 -148411.000000 0 0 1
-8.898347 -31.598539 -14.233033 35.780266 1.296299 1.979903 0.122927 -0.025261 215844.000000 0 0 1
-9.468347 -33.045099 -14.248133 37.210717 1.291744 1.963734 0.166812 -0.043930 -143170.000000 0 0 1
-8.447647 33.506137 -14.048033 37.301088 -1.323821 1.956932 0.158107 -0.047815 -245154.000000 0 0 1
-9.031747 32.249166 -14.159033 36.360134 -1.297731 1.970788 0.195162 -0.049408 227489.000000 0 0 1
-8.549847 -21.929339 -3.472033 23.791822 1.199043 1.717253 0.130585 -0.034732 -19.418700 0 1 0
-8.021347 -20.924039 -4.285633 22.814996 1.204720 1.759762 0.090384 -0.029548 -586714.000000 0 1 0
-6.737747 -21.254939 -4.729033 22.793276 1.263820 1.779789 0.083187 -0.022194 -114265.000000 0 1 0
-6.180747 -20.184539 -5.732733 21.874219 1.273650 1.835970 0.064175 -0.025974 526816.000000 0 1 0
-6.996347 -20.256139 -6.925233 22.521520 1.238231 1.883355 0.065392 -0.025352 129177.000000 0 1 0
-6.655147 -19.365539 -7.953433 21.967525 1.239781 1.941267 0.039997 -0.012973 -680577.000000 0 1 0
-7.582847 -19.381139 -9.116933 22.721060 1.197857 1.983683 0.047838 -0.022446 -142316.000000 0 1 0
-7.044147 -20.274939 -10.113933 23.727300 1.236412 2.011148 0.051045 -0.016487 48853.400000 0 1 0
-7.995747 -20.427539 -11.144633 24.605267 1.197708 2.040853 0.073703 -0.017040 14304.000000 0 1 0
-7.516047 -21.213639 -12.386733 25.689309 1.230294 2.073932 0.066569 -0.018747 -355234.000000 0 0 1
-6.535347 -20.578239 -13.173333 25.292516 1.263285 2.118630 0.056581 -0.009766 -165465.000000 0 0 1
-6.199447 -21.405339 -14.276633 26.465901 1.288888 2.140562 0.034525 -0.011711 207481.000000 0 0 1
-5.250447 -20.678639 -15.282933 26.243882 1.322144 2.192404 0.010028 0.000299 694714.000000 0 0 1
-3.909447 -20.516839 -14.791633 25.593297 1.382505 2.187010 0.017840 -0.006672 917939.000000 0 0 1
-3.034647 -19.678839 -15.547833 25.262638 1.417793 2.233750 0.047133 -0.005394 348930.000000 0 0 1
-3.474647 -18.179139 -15.670633 24.251247 1.381940 2.273363 0.056641 -0.006715 412175.000000 0 1 0
-4.725147 -17.852239 -16.343833 24.660704 1.312049 2.295279 0.055083 -0.001829 974794.000000 0 1 0
-4.808747 -17.936739 -17.725533 25.671875 1.308861 2.332928 0.070852 -0.012134 443821.000000 0 0 1
-6.311347 -17.895639 -18.195933 26.290283 1.231740 2.335213 0.061861 -0.013654 1298940.000000 0 0 1
-6.948647 -19.189539 -17.932633 27.168022 1.223378 2.291700 0.041385 -0.008523 2459910.000000 0 0 1
-8.412747 -19.226839 -18.141133 27.740698 1.158342 2.283595 0.030590 -0.010613 2105670.000000 0 0 1
-9.054647 -20.511939 -17.734833 28.587595 1.155089 2.240008 0.062344 -0.026773 -452512.000000 0 0 1
-8.564347 -21.671439 -18.353133 29.662043 1.194443 2.237936 0.080540 -0.019392 247838.000000 0 0 1
-9.264947 -22.839639 -17.943533 30.487025 1.185427 2.200076 0.124319 -0.015460 -46030.200000 0 0 1
-8.748347 -24.036739 -18.671833 31.669161 1.221742 2.201348 0.145912 -0.028209 -644787.000000 0 0 1
-8.998147 -23.848739 -20.111333 32.468365 1.210010 2.238791 0.130454 -0.027163 427340.000000 0 0 1
-8.152147 -24.598739 -20.968633 33.335252 1.250782 2.251092 0.162214 -0.046958 1357900.000000 0 0 1
-6.595647 -24.266539 -21.013933 32.771220 1.305407 2.266898 0.129544 -0.029633 877874.000000 0 0 1
-6.257447 -23.008139 -21.553433 32.141571 1.305252 2.305784 0.150859 -0.055561 2171.530000 0 0 1
-6.283347 -21.937039 -20.581033 30.729351 1.291838 2.304671 0.112398 -0.049415 -650081.000000 0 0 1
-5.417447 -21.979939 -19.293633 29.744087 1.329141 2.276611 0.110407 -0.026702 353626.000000 0 0 1
-4.020747 -21.772639 -19.524333 29.519719 1.388184 2.293480 0.112451 -0.038655 438785.000000 0 0 1
-3.274347 -21.789239 -18.326333 28.659148 1.421639 2.264590 0.061071 -0.035924 -1005670.000000 0 0 1
-1.977647 -22.501039 -18.519633 29.209324 1.483130 2.257552 0.108406 -0.029326 -743801.000000 0 0 1
-0.969147 -21.764639 -19.210933 29.046492 1.526297 2.293461 0.155436 -0.033142 -268182.000000 0 0 1
0.245253 -22.443139 -19.325733 29.618214 -1.559869 2.281668 0.105430 -0.029391 233554.000000 0 0 1
1.335953 -21.568139 -20.029033 29.464072 -1.508934 2.318256 0.110943 -0.028828 503264.000000 0 0 1
1.041353 -21.388039 -21.377833 30.257964 -1.522146 2.355364 0.105067 -0.037182 -369582.000000 0 0 1
2.133353 -20.754939 -21.969933 30.298459 -1.468368 2.382001 0.122221 -0.032960 -415212.000000 0 0 1
1.970453 -20.752539 -23.513633 31.423582 -1.476130 2.416262 0.141121 -0.042387 276272.000000 0 0 1
1.158553 -19.739439 -24.061333 31.143786 -1.512171 2.453704 0.141133 -0.047852 835298.000000 0 0 1
-0.266747 -19.841439 -23.842033 31.019290 1.557353 2.447477 0.141551 -0.046661 767615.000000 0 0 1
-1.089947 -18.740239 -24.510533 30.873140 1.512701 2.488011 0.144082 -0.055396 120637.000000 0 0 1
-0.688747 -17.440439 -24.044833 29.711904 1.531325 2.513698 0.115870 -0.045738 394751.000000 0 0 1
-1.518847 -16.438839 -24.689933 29.700759 1.478664 2.552220 0.146268 -0.054141 604260.000000 0 0 1
-0.940547 -14.994939 -24.545033 28.778316 1.508154 2.592312 0.136455 -0.033047 643859.000000 0 0 1
0.316153 -14.884139 -25.218603 29.285073 -1.549559 2.608308 0.141003 -0.039360 61956.500000 0 0 1
1.000453 -13.673439 -24.973833 28.489580 -1.497759 2.639537 0.121315 -0.036292 96874.900000 0 0 1
0.504553 -12.408539 -25.693013 28.536947 -1.530157 2.691351 0.128133 -0.025877 -126669.000000 0 0 1
1.279853 -11.252439 -25.358263 27.772233 -1.457543 2.721570 0.105687 -0.025642 217887.000000 0 0 1
1.024353 -10.117039 -26.148983 28.056605 -1.469890 2.770711 0.090416 -0.023067 -1174230.000000 0 0 1
1.751553 -8.897239 -25.621483 27.178837 -1.376417 2.801428 0.092268 -0.024700 1003250.000000 0 0 1
3.164553 -8.804239 -25.880003 27.519149 -1.225741 2.794707 0.086374 -0.025049 872662.000000 0 0 1
3.648953 -8.977839 -27.224123 28.897566 -1.184751 2.799607 0.081131 -0.028606 -449479.000000 0 0 1
5.112053 -8.492339 -27.432183 29.168092 -1.028936 2.794854 0.079825 -0.034228 -354300.000000 0 0 1
5.203153 -7.102839 -27.460733 28.837735 -0.938560 2.831319 0.084699 -0.030600 524558.000000 0 0 1
6.364153 -6.668339 -28.165833 29.635845 -0.808735 2.825308 0.090438 -0.023397 -73517.200000 0 0 1
7.744853 -6.650239 -27.484273 29.318828 -0.709503 2.785963 0.100348 -0.026362 -3568.940000 0 0 1
8.411553 -7.878739 -27.116353 29.463967 -0.752702 2.739701 0.088575 -0.025209 577548.000000 0 0 1
8.748453 -8.721739 -28.229063 30.813701 -0.783869 2.729090 0.074376 -0.036681 -666958.000000 0 0 1
9.215853 -10.137339 -27.763453 30.959763 -0.832976 2.683187 0.097840 -0.024272 553503.000000 0 0 1
8.155053 -10.908339 -27.133243 30.359671 -0.928834 2.676381 0.092194 -0.033889 669956.000000 0 0 1
8.537253 -12.000639 -26.348843 30.185452 -0.952460 2.631909 0.106382 -0.033096 -865824.000000 0 0 1
9.463953 -13.124039 -26.894473 31.386613 -0.946039 2.599978 0.103817 -0.039220 38956.400000 0 0 1
8.978553 -13.795739 -28.016513 32.494027 -0.993844 2.610403 0.118730 -0.053160 -619109.000000 0 0 1
9.911553 -14.724839 -28.472353 33.551969 -0.978341 2.584138 0.120608 -0.055152 -169526.000000 0 0 1
9.345953 -15.649939 -29.551343 34.721021 -1.032447 2.588889 0.119629 -0.052569 -329342.000000 0 0 1
9.603553 -15.038339 -30.813803 35.607167 -1.002474 2.616709 0.128770 -0.055686 478831.000000 0 0 1
8.886853 -15.693139 -31.858023 36.608529 -1.055533 2.626475 0.141834 -0.053985 14386.800000 0 0 1
7.485253 -15.134739 -32.176183 36.337255 -1.111499 2.658338 0.149725 -0.055648 1511.860000 0 0 1
7.612253 -13.941539 -32.948033 36.577121 -1.071020 2.692365 0.157867 -0.055432 -461997.000000 0 0 1
6.332253 -13.538539 -33.258283 36.462348 -1.133304 2.719239 0.160211 -0.074902 -579693.000000 0 0 1
6.539353 -12.168639 33.425526 36.167730 -1.077683 0.391911 0.201748 -0.060678 -210761.000000 0 0 1
6.879553 -12.310839 32.053493 35.018729 -1.061206 0.414484 0.197985 -0.052189 191650.000000 0 0 1
7.211753 -11.098139 31.418555 34.092575 -0.994550 0.398701 0.202943 -0.062669 -198858.000000 0 0 1
7.550653 -11.365039 29.921506 32.885757 -0.984382 0.427845 0.221619 -0.065286 -470345.000000 0 0 1
6.539953 -11.852139 29.083546 32.079539 -1.066576 0.435623 0.198099 -0.057942 -175711.000000 0 0 1
6.899653 -11.861939 27.715636 30.926805 -1.043969 0.459738 0.174818 -0.055467 111185.000000 0 0 1
5.946853 -12.687139 26.776666 30.221158 -1.132475 0.482099 0.140897 -0.058805 70299.100000 0 0 1
5.970153 -14.061239 27.049766 31.065270 -1.169280 0.514092 0.130002 -0.050031 -127811.000000 0 0 1
5.440953 -14.971739 26.140646 30.611931 -1.222221 0.547293 0.067821 -0.037952 702106.000000 0 0 1
3.873553 -15.126539 26.137556 30.446484 -1.320107 0.538507 0.068546 -0.048646 662940.000000 0 0 1
3.113253 -14.023939 25.645396 29.394719 -1.352343 0.510605 0.072354 -0.050636 -441706.000000 0 0 1
1.971453 -14.490939 25.003886 28.966675 -1.435579 0.529232 0.070848 -0.047913 38386.400000 0 0 1
0.913853 -13.364439 24.692356 28.091917 -1.502523 0.497068 0.081799 -0.046243 49917.300000 0 0 1
1.400853 -12.440039 23.708896 26.810981 -1.458660 0.485808 0.031449 -0.023729 -230622.000000 0 0 1
0.521153 -11.389139 23.425986 26.053040 -1.525069 0.452938 0.039482 -0.015787 424717.000000 0 0 1
-0.818347 -11.758439 22.710966 25.587469 1.501312 0.478728 0.054309 -0.023819 239132.000000 0 0 1
-0.581547 -12.369339 21.445636 24.763967 1.523816 0.523646 0.052043 -0.024662 213640.000000 0 1 0
-1.821847 -12.867639 20.972636 24.672793 1.430148 0.554752 0.082633 -0.045097 430005.000000 0 1 0
-1.682947 -13.537739 19.546736 23.836476 1.447116 0.609325 0.107802 -0.049725 -32447.000000 0 1 0
-1.053147 -14.815639 19.607836 24.598364 1.499832 0.648287 0.123848 -0.055465 -103728.000000 0 1 0
-1.136347 -15.598139 18.455636 24.190984 1.498073 0.702988 0.131192 -0.046727 -334969.000000 0 1 0
-2.455347 -16.349339 18.331436 24.685444 1.421730 0.733851 0.127994 -0.060300 -568326.000000 0 1 0
-2.617347 -17.039739 17.105736 24.285992 1.418385 0.789295 0.107550 -0.060338 95181.600000 0 1 0
-3.693147 -17.980739 17.261736 25.197496 1.368219 0.816114 0.119189 -0.044749 187323.000000 0 0 1
-3.440147 -19.401639 16.703636 25.831563 1.395308 0.867629 0.109776 -0.052172 -279656.000000 0 0 1
-2.529947 -20.181239 17.431336 26.786834 1.446086 0.862234 0.132500 -0.052137 -194533.000000 0 0 1
-2.327847 -21.444239 16.823736 27.355298 1.462666 0.908400 0.117842 -0.073554 790516.000000 0 0 1
-1.213647 -22.323739 17.570036 28.434634 1.516484 0.904715 0.144847 -0.057588 1155910.000000 0 0 1
0.110053 -21.854839 17.388036 27.928299 -1.565761 0.898741 0.130919 -0.058863 -612010.000000 0 0 1
1.028653 -22.684739 18.029136 28.994917 -1.525482 0.899753 0.165331 -0.049552 666503.000000 0 0 1
2.333553 -22.853939 17.157236 28.672613 -1.469042 0.929314 0.166153 -0.053507 785541.000000 0 0 1
3.157553 -21.694839 17.128336 27.821144 -1.426267 0.907574 0.153716 -0.059675 -46859.500000 0 0 1
4.261253 -21.834639 16.242436 27.544990 -1.378059 0.940147 0.157838 -0.047685 188762.000000 0 0 1
5.274153 -20.681039 16.500036 26.977273 -1.321095 0.912680 0.132636 -0.037681 -587306.000000 0 0 1
6.108053 -20.955039 17.612336 28.046681 -1.287171 0.891861 0.123790 -0.028338 217831.000000 0 0 1
6.849753 -19.908339 18.237536 27.854421 -1.239419 0.856951 0.111467 -0.025514 282098.000000 0 0 1
7.806553 -19.058239 17.383336 26.950679 -1.182028 0.869766 0.101358 -0.029029 -69132.900000 0 0 1
7.116753 -18.269239 16.351736 25.530228 -1.199332 0.875666 0.089612 -0.027638 611944.000000 0 0 1
8.056453 -17.600739 15.514936 24.807371 -1.141530 0.895131 0.120945 -0.035196 709862.000000 0 1 0
7.316953 -16.683139 14.443636 23.248302 -1.157477 0.900425 0.080389 -0.027403 319887.000000 0 1 0
6.451853 -17.288639 13.509036 22.869576 -1.213618 0.938871 0.086926 -0.030631 -19879.900000 0 1 0
5.972853 -16.244639 12.707336 21.471834 -1.218457 0.937489 0.053842 -0.026200 -201870.000000 0 1 0
6.548753 -16.251139 11.273836 20.834708 -1.187731 0.999042 0.061678 -0.031791 447619.000000 0 1 0
7.935553 -15.936039 11.240136 21.054002 -1.108780 1.007623 0.080324 -0.029548 460917.000000 0 1 0
8.554653 -16.314739 9.997236 20.959425 -1.087858 1.073580 0.095488 -0.032330 263271.000000 0 1 0
9.881153 -15.606839 9.694236 20.861179 -1.006372 1.087498 0.085602 -0.025561 93656.000000 0 1 0
10.614953 -16.218639 8.646536 21.224610 -0.991270 1.151210 0.086506 -0.019197 -283645.000000 0 1 0
11.942853 -15.757939 8.622336 21.570560 -0.922262 1.159577 0.086591 -0.019952 135500.000000 0 1 0
12.973753 -16.577139 7.788636 22.445103 -0.906737 1.216417 0.107301 -0.025578 367847.000000 0 1 0
13.393753 -17.792839 8.388136 23.797869 -0.925531 1.210583 0.123557 -0.031750 -19867.500000 0 1 0
14.341053 -18.480439 7.605936 24.597615 -0.910854 1.256430 0.120749 -0.023316 206755.000000 0 1 0
15.000953 -19.699539 8.333736 26.125688 -0.919984 1.246137 0.115045 -0.025306 364629.000000 0 0 1
14.035253 -20.681739 8.685636 26.460592 -0.974557 1.236348 0.105481 -0.019521 644557.000000 0 0 1
14.686953 -21.795339 9.286136 27.874284 -0.977832 1.231161 0.080684 -0.010596 239627.000000 0 0 1
13.582153 -22.567339 9.993036 28.171269 -1.029018 1.208177 0.095973 -0.019423 26093.900000 0 0 1
13.305753 -22.067339 11.276136 28.127597 -1.028202 1.158306 0.109376 -0.022528 -119142.000000 0 0 1
12.276153 -22.786939 11.938436 28.503943 -1.076642 1.138635 0.135016 -0.031617 31161.700000 0 0 1
12.604553 -24.270439 12.377936 30.019031 -1.091799 1.145779 0.104412 -0.027577 33827.300000 0 0 1
13.772353 -24.359439 13.175236 30.929707 -1.056221 1.130759 0.086142 -0.023193 24062.100000 0 0 1
13.881953 -25.641209 13.788536 32.253743 -1.074586 1.129069 0.093492 -0.037597 -869143.000000 0 0 1
15.120653 -25.925449 14.578436 33.366058 -1.042795 1.118620 0.077570 -0.029765 -863328.000000 0 0 1
15.088653 -25.239949 15.820836 33.391935 -1.031990 1.077204 0.079612 -0.018681 607746.000000 0 0 1
16.079353 -25.861599 16.641936 34.703341 -1.014540 1.070656 0.079454 -0.022085 143788.000000 0 0 1
15.966753 -25.289069 18.096236 34.956372 -1.007630 1.026659 0.091836 -0.018952 -8368.370000 0 0 1
16.271653 -23.930939 18.210236 34.191654 -0.973659 1.009135 0.076827 -0.012442 266334.000000 0 0 1
17.553253 -23.703039 18.781836 34.967243 -0.933372 1.003769 0.078779 -0.015909 193961.000000 0 0 1
17.855253 -22.252039 19.089636 34.327503 -0.894588 0.981107 0.085021 -0.021247 -23263.100000 0 0 1
18.030653 -21.361639 17.993336 33.244311 -0.869757 0.998879 0.082948 -0.020693 257113.000000 0 0 1
16.852153 -20.624139 17.754136 32.008741 -0.885710 0.982836 0.103148 -0.019228 -314548.000000 0 0 1
17.085453 -19.613739 16.577736 30.845304 -0.854182 1.003389 0.102819 -0.023388 784256.000000 0 0 1
18.067553 -18.574939 16.846136 30.907234 -0.799244 0.994342 0.100122 -0.027188 1356560.000000 0 0 1
19.465053 -18.844539 16.693536 31.822619 -0.769202 1.018574 0.096642 -0.027711 439746.000000 0 0 1
20.345053 -17.623439 16.935936 31.801457 -0.713840 1.009183 0.104442 -0.033624 -336007.000000 0 0 1
20.543353 -17.344339 18.317536 32.532869 -0.701164 0.972728 0.098895 -0.030469 316247.000000 0 0 1
21.266353 -16.125039 18.425336 32.430967 -0.648755 0.966552 0.099591 -0.030525 -85427.500000 0 0 1
21.796953 -15.805339 19.859436 33.456137 -0.627385 0.935276 0.088916 -0.025031 272067.000000 0 0 1
22.882653 -16.650139 20.233336 34.788372 -0.629031 0.950087 0.084175 -0.027016 79533.300000 0 0 1
23.319753 -16.333039 21.489536 35.670424 -0.610991 0.924233 0.083342 -0.022542 -266150.000000 0 0 1
35.953338 -2.121939 -7.630233 36.815290 -0.058951 1.779567 0.167628 -0.022733 252154.000000 0 0 1
37.139708 -1.732339 -8.295333 38.094245 -0.046610 1.790313 0.191687 -0.019549 613258.000000 0 0 1
-37.950487 -2.706739 -8.187833 38.917946 0.071202 1.782767 0.224384 -0.038829 819982.000000 0 0 1
-36.589817 -2.308039 -8.830833 37.711078 0.062995 1.807162 0.210510 -0.046392 12070.500000 0 0 1
-35.497459 -3.124139 -8.587933 36.654910 0.087784 1.807286 0.252752 -0.041393 229770.000000 0 0 1
-34.304716 -2.548839 -9.143633 35.593766 0.074164 1.830598 0.283364 -0.048693 -47986.600000 0 0 1
-33.055347 -3.391239 -8.964133 34.416742 0.102235 1.834293 0.272844 -0.051106 -1213350.000000 0 0 1
-32.514647 -3.320039 -7.684533 33.574946 0.101756 1.801720 0.284481 -0.053839 464193.000000 0 0 1
-31.331087 -4.110939 -7.660133 32.514835 0.130464 1.808621 0.266335 -0.068226 -55537.200000 0 0 1
-30.750337 -4.282039 -6.251433 31.670167 0.138362 1.769493 0.282298 -0.088084 -108291.000000 0 0 1
-30.290007 -3.071839 -5.632233 30.961957 0.101069 1.753723 0.264748 -0.076704 489242.000000 0 0 1
-30.037037 -3.211639 -4.265433 30.507903 0.106518 1.711070 0.267577 -0.072748 -229948.000000 0 0 1
-29.953647 -1.836639 -3.616033 30.226973 0.061239 1.690713 0.272252 -0.069874 -471805.000000 0 0 1
-28.768077 -1.088439 -3.765533 29.033880 0.037817 1.700857 0.211897 -0.059321 46865.900000 0 0 1
-28.861157 0.222461 -3.176933 29.036336 -0.007708 1.680428 0.249341 -0.079735 249174.000000 0 0 1
-27.514797 0.917661 -2.789733 27.671082 -0.033339 1.671786 0.273195 -0.053728 390355.000000 0 0 1
-26.986317 0.340361 -1.601733 27.035952 -0.012612 1.630076 0.252624 -0.060999 1366240.000000 0 0 1
-25.577757 0.681061 -1.491033 25.630230 -0.026621 1.629004 0.232290 -0.052064 1633260.000000 0 0 1
-24.778947 -0.045039 -0.345633 24.781399 0.001818 1.584744 0.211167 -0.052858 326742.000000 0 1 0
-24.756347 -1.473439 -0.318133 24.802197 0.059447 1.583623 0.195878 -0.049359 441118.000000 0 1 0
-23.810947 -1.960939 0.647367 23.900326 0.082169 1.543707 0.168144 -0.036769 299759.000000 0 1 0
-23.697947 -3.503939 0.810267 23.969289 0.146795 1.536986 0.139519 -0.020514 -66334.300000 0 1 0
-24.880847 -4.045739 1.355867 25.244067 0.161194 1.517060 0.159821 -0.036791 32723.700000 0 0 1
-24.778247 -5.461339 1.442667 25.413954 0.216940 1.513999 0.131917 -0.013229 -337634.000000 0 0 1
-26.010137 -6.318639 1.779567 26.825721 0.238313 1.504409 0.181929 -0.026626 -86970.300000 0 0 1
-26.508417 -6.005139 3.104667 27.356842 0.222777 1.457064 0.194267 -0.036598 168470.000000 0 0 1
-27.562927 -6.884839 3.441167 28.617435 0.244777 1.450257 0.219314 -0.031432 76218.400000 0 0 1
-27.771317 -7.239139 4.985667 29.129162 0.254995 1.398792 0.212007 -0.031562 681683.000000 0 0 1
-26.765087 -8.163139 5.495767 28.516840 0.296030 1.376863 0.218499 -0.018495 607733.000000 0 0 1
-26.741747 -8.279639 6.863767 28.823337 0.300254 1.330354 0.194906 -0.029225 -158431.000000 0 0 1
-26.222657 -7.134839 7.748767 28.259106 0.265656 1.293034 0.161950 -0.017358 -294898.000000 0 0 1
-24.812447 -7.136139 7.717267 26.946952 0.280045 1.280342 0.187539 -0.027978 -306650.000000 0 0 1
-24.382647 -5.904639 8.194567 26.391839 0.237592 1.255081 0.186842 -0.039224 -335179.000000 0 0 1
-22.955947 -5.558639 7.758967 24.861125 0.237571 1.253402 0.172156 -0.045381 201071.000000 0 1 0
-21.929247 -6.218839 8.513167 24.331869 0.276331 1.213356 0.170503 -0.052030 -227073.000000 0 1 0
-20.678647 -5.937639 7.952667 22.937021 0.279616 1.216727 0.149499 -0.043542 97242.700000 0 1 0
-19.477247 -6.410339 8.832767 22.326517 0.317953 1.164056 0.148296 -0.044556 292897.000000 0 1 0
-19.270847 -5.470939 9.856967 22.326140 0.276619 1.113528 0.128963 -0.036152 296771.000000 0 1 0
-18.151047 -5.733239 10.678767 21.825824 0.305945 1.059541 0.119535 -0.044476 -258651.000000 0 1 0
-17.787847 -4.650439 11.741267 21.814936 0.255716 1.002471 0.094964 -0.036977 603228.000000 0 1 0
-18.840847 -4.568039 12.712867 23.183216 0.237864 0.990388 0.112142 -0.037754 865266.000000 0 1 0
-19.648447 -3.380439 12.742567 23.661400 0.170378 1.002095 0.153042 -0.035905 -101981.000000 0 1 0
-20.930947 -3.643039 13.506267 25.175296 0.172324 1.004525 0.151214 -0.039892 -801722.000000 0 0 1
-20.681147 -3.859139 14.885067 25.771457 0.184480 0.955036 0.142972 -0.033629 -227787.000000 0 0 1
-21.882047 -3.999339 15.575367 27.155308 0.180773 0.959944 0.129516 -0.021903 -495009.000000 0 0 1
-21.679447 -4.629139 16.924267 27.890109 0.210367 0.918743 0.112031 -0.017677 -275978.000000 0 0 1
-22.727947 -4.550039 17.851467 29.256406 0.197584 0.914517 0.102654 -0.014317 266422.000000 0 0 1
-22.337747 -5.062139 19.078367 29.809131 0.222854 0.876275 0.099584 -0.004838 -197056.000000 0 0 1
-23.364247 -4.454139 20.036667 31.099766 0.188379 0.870727 0.118393 -0.018285 -336563.000000 0 0 1
-23.357047 -3.107039 20.336867 31.125448 0.132247 0.858750 0.138303 -0.023354 256943.000000 0 0 1
-24.021747 -2.829139 21.599867 32.428423 0.117234 0.841858 0.134586 -0.022156 205928.000000 0 0 1
-24.093547 -1.389539 21.971867 32.637291 0.057609 0.832250 0.119521 -0.020342 -143413.000000 0 0 1
-25.080817 -0.737039 21.223167 32.863558 0.029378 0.868730 0.132092 -0.034743 -368402.000000 0 0 1
-25.172147 0.621261 21.503767 33.112459 -0.024675 0.863980 0.119701 -0.033985 -871448.000000 0 0 1
-26.476007 1.277661 21.144567 33.907287 -0.048220 0.897458 0.142733 -0.043021 -365774.000000 0 0 1
-27.564567 0.854761 21.940467 35.240886 -0.030999 0.898754 0.141755 -0.047145 167815.000000 0 0 1
-28.802397 1.495361 21.701867 36.094116 -0.051871 0.925722 0.114558 -0.042476 651760.000000 0 0 1
-29.868137 1.414261 22.838467 37.625807 -0.047315 0.918530 0.087620 -0.037473 -168316.000000 0 0 1
-29.360877 1.960561 24.047267 38.002315 -0.066676 0.885653 0.078843 -0.037388 -283717.000000 0 0 1
-30.270927 1.951161 25.085667 39.362758 -0.064368 0.879814 0.082116 -0.036046 -724303.000000 0 0 1
-29.858137 2.832061 26.314867 39.899889 -0.094568 0.850613 0.098443 -0.037040 -268513.000000 0 0 1
-28.792527 2.324761 27.067867 39.586406 -0.080567 0.817884 0.073976 -0.042199 92571.700000 0 0 1
-28.161517 3.451661 27.754467 39.689992 -0.121958 0.796405 0.070642 -0.038260 -2201.250000 0 0 1
-26.892967 3.026261 28.518067 39.315011 -0.112058 0.759219 0.087496 -0.042292 -234872.000000 0 0 1
-27.151957 2.168561 29.580867 40.211430 -0.079698 0.744195 0.086592 -0.039326 285530.000000 0 0 1
-25.916917 1.795461 30.171267 39.814766 -0.069167 0.710876 0.069288 -0.039239 222704.000000 0 0 1
-26.054147 0.573961 31.054467 40.540448 -0.022026 0.698182 0.068705 -0.041573 -138007.000000 0 0 1
-26.467787 -0.575939 30.355167 40.277930 0.021757 0.717210 0.055733 -0.042010 -28435.300000 0 0 1
-26.974767 -1.612439 31.140767 41.230879 0.059705 0.714718 0.062092 -0.038436 -232970.000000 0 0 1
-27.818457 -2.701939 30.375967 41.277917 0.096824 0.743818 0.057680 -0.031366 1552480.000000 0 0 1
-29.135227 -2.416239 29.813767 41.755962 0.082743 0.775601 0.080725 -0.043781 1256180.000000 0 0 1
-29.294117 -1.202139 29.046967 41.271258 0.041014 0.790055 0.077141 -0.038808 -2056100.000000 0 0 1
-30.591567 -0.944139 28.353067 41.720880 0.030853 0.823594 0.102278 -0.048063 -909043.000000 0 0 1
-31.509467 -0.682239 29.399767 43.100560 0.021648 0.820138 0.134088 -0.046248 -956618.000000 0 0 1
-32.825437 -0.667439 28.938467 43.765165 0.020330 0.848351 0.132290 -0.053281 -779664.000000 0 0 1
-33.867277 -0.199839 29.917667 45.189592 0.005901 0.847249 0.154006 -0.055301 -475521.000000 0 0 1
-34.264789 -1.193939 30.812667 46.096873 0.034830 0.838696 0.163279 -0.054858 -9024.550000 0 0 1
-34.965410 -0.678639 31.937567 47.360834 0.019406 0.830718 0.188461 -0.050850 241062.000000 0 0 1
-35.452809 -1.786239 32.952967 48.435425 0.050341 0.822558 0.177480 -0.050488 108901.000000 0 0 1
-36.486157 -2.644039 32.541367 48.960915 0.072340 0.843785 0.133335 -0.043075 -104142.000000 0 0 1
-36.521477 -3.851739 33.274667 49.556611 0.105077 0.834636 0.124732 -0.034951 -115699.000000 0 0 1
-37.699607 -4.791639 32.968967 50.310764 0.126423 0.856208 0.114035 -0.037144 221505.000000 0 0 1
37.164248 -4.336039 33.444867 50.185075 -0.116147 0.841385 0.115552 -0.040867 167424.000000 0 0 1
36.147918 -5.047139 32.740267 49.031324 -0.138728 0.839625 0.105539 -0.039593 499920.000000 0 0 1
34.687608 -4.609439 33.156167 48.205897 -0.132110 0.812338 0.107011 -0.035951 404468.000000 0 0 1
34.410478 -4.970239 -32.965402 47.911398 -0.143448 2.329594 0.099756 -0.042699 162398.000000 0 0 1
34.119058 -6.363839 -32.704802 47.688706 -0.184400 2.326495 0.112395 -0.039197 -130698.000000 0 0 1
32.739058 -6.924239 -33.180202 47.124482 -0.208426 2.351947 0.099538 -0.035792 63366.200000 0 0 1
31.672658 -6.556339 -32.342502 45.740357 -0.204120 2.356169 0.096260 -0.034449 -558809.000000 0 0 1
30.511908 -7.244839 -32.711002 45.315272 -0.233126 2.377274 0.098251 -0.030794 -119214.000000 0 0 1
29.298308 -6.616639 -31.955202 43.855509 -0.222111 2.387141 0.100593 -0.029780 840536.000000 0 0 1
28.008708 -7.106839 -32.336002 43.366023 -0.248493 2.412311 0.088880 -0.025710 748807.000000 0 0 1
26.920908 -6.285839 -31.936002 42.239262 -0.229383 2.428090 0.093069 -0.021709 -83830.800000 0 0 1
25.664308 -6.663839 -32.751802 42.139578 -0.254044 2.461035 0.092746 -0.027250 172586.000000 0 0 1
25.071308 -7.963139 -32.643202 41.923272 -0.307542 2.463294 0.100816 -0.041127 297663.000000 0 0 1
24.629408 -8.346239 -31.364402 40.743014 -0.326728 2.449341 0.110215 -0.045407 -505448.000000 0 0 1
24.281108 -9.841539 -31.268602 40.794038 -0.385081 2.444169 0.094891 -0.035437 355143.000000 0 0 1
23.028608 -10.253839 -31.813502 40.590109 -0.418910 2.471517 0.102419 -0.041762 519737.000000 0 0 1
22.885108 -11.671239 -31.706402 40.807376 -0.471610 2.460646 0.087424 -0.021963 -1055600.000000 0 0 1
21.731508 -12.296639 -32.511402 40.993378 -0.514926 2.486660 0.082467 -0.021412 469371.000000 0 0 1
20.413408 -12.216439 -32.004302 39.877612 -0.539280 2.502376 0.085845 -0.018586 317880.000000 0 0 1
19.874908 -10.940439 -31.705602 38.986541 -0.503200 2.520503 0.090972 -0.029154 -1809520.000000 0 0 1
18.474108 -11.011639 -31.126202 37.833706 -0.537516 2.536960 0.111665 -0.032450 -150308.000000 0 0 1
17.480808 -11.507239 -32.054902 38.282005 -0.582173 2.563188 0.093841 -0.012812 -227792.000000 0 0 1
16.230208 -11.380639 -31.459002 37.183429 -0.611532 2.579326 0.119313 -0.017713 -395576.000000 0 0 1
15.074608 -11.756039 -32.428602 37.643890 -0.662337 2.608929 0.115809 -0.014060 -438033.000000 0 0 1
14.892908 -13.172439 -32.558502 38.149284 -0.724173 2.593366 0.140634 -0.014950 705633.000000 0 0 1
13.712908 -13.459739 -33.327502 38.469869 -0.776081 2.618598 0.128411 -0.019419 1571220.000000 0 0 1
12.344808 -13.478039 -32.529502 37.312469 -0.829255 2.629688 0.105664 -0.024411 462600.000000 0 0 1
11.820508 -12.198939 -32.318902 36.510956 -0.801152 2.657685 0.164564 -0.031666 -561550.000000 0 0 1
10.768208 -12.213439 -31.403202 35.373486 -0.848202 2.663254 0.151627 -0.039349 -177896.000000 0 0 1
9.577108 -11.302939 -31.813702 35.094003 -0.867865 2.705782 0.133819 -0.038289 -28036.800000 0 0 1
9.827308 -9.938439 -31.650202 34.598899 -0.791020 2.725746 0.123199 -0.032572 270862.000000 0 0 1
8.709608 -9.187539 -32.102602 34.508625 -0.812096 2.765965 0.107748 -0.027882 181130.000000 0 0 1
9.023308 -7.666039 -32.302002 34.403598 -0.704251 2.790256 0.116571 -0.026077 -95203.000000 0 0 1
9.211808 -6.953839 -31.112902 33.184725 -0.646619 2.786364 0.122356 -0.024123 243077.000000 0 0 1
9.407108 -5.566739 -31.396202 33.244605 -0.534338 2.806561 0.101936 -0.009709 -78095.600000 0 0 1
9.459808 -4.627439 -30.180002 31.964569 -0.454945 2.805864 0.092686 -0.010959 -464902.000000 0 0 1
8.220108 -4.357039 -29.602502 31.030019 -0.487395 2.837088 0.096773 -0.015213 -584599.000000 0 0 1
8.327008 -3.464939 -28.578002 29.967433 -0.394315 2.835889 0.118951 -0.022454 -739454.000000 0 0 1
7.064108 -2.783639 -28.110902 29.118260 -0.375370 2.877787 0.131570 -0.025213 -1809040.000000 0 0 1
6.494608 -1.931239 -29.101402 29.879779 -0.289033 2.912839 0.116320 -0.011454 1610840.000000 0 0 1
5.175708 -1.391939 -28.780202 29.274997 -0.262721 2.957476 0.143448 -0.024458 1269680.000000 0 0 1
4.021108 -2.377539 -28.644802 29.023209 -0.533972 2.979935 0.131365 -0.024295 -1115720.000000 0 0 1
4.054308 -3.122939 -27.453302 27.926223 -0.656352 2.957296 0.135100 -0.041171 -318482.000000 0 0 1
3.003508 -4.051039 -27.494402 27.953070 -0.932811 2.960189 0.129620 -0.037096 -29964.200000 0 0 1
3.111408 -5.098239 -26.402902 27.070023 -1.022844 2.919124 0.095683 -0.038123 -167172.000000 0 0 1
3.116208 -4.655539 -25.044602 25.663532 -0.980935 2.921526 0.094583 -0.045574 100195.000000 0 0 1
3.473308 -5.733139 -24.204902 25.115932 -1.026101 2.871428 0.081465 -0.043100 65758.900000 0 0 1
3.432608 -5.312039 -22.741202 23.604297 -0.997101 2.870336 0.110780 -0.056318 303627.000000 0 1 0
4.455508 -4.346839 -22.557102 23.400201 -0.773053 2.872342 0.110719 -0.058683 194517.000000 0 1 0
4.352508 -3.800239 -21.254902 22.026280 -0.717761 2.876160 0.098547 -0.053925 -469655.000000 0 1 0
5.207208 -2.586239 -20.976302 21.767152 -0.460976 2.871206 0.093868 -0.052685 -727207.000000 0 1 0
6.527708 -3.017039 -20.794102 22.002458 -0.432944 2.808638 0.091579 -0.054325 -1186650.000000 0 1 0
7.323508 -1.925039 -20.551002 21.901672 -0.257043 2.788565 0.100045 -0.034996 -709649.000000 0 1 0
8.815508 -2.218339 -20.482202 22.408811 -0.246522 2.723893 0.111367 -0.041398 -1357180.000000 0 1 0
9.564908 -2.287139 -21.689402 23.814883 -0.234711 2.715893 0.119714 -0.057753 638194.000000 0 1 0
10.844008 -2.913639 -21.599402 24.343705 -0.262487 2.662185 0.106017 -0.050142 754598.000000 0 1 0
11.950208 -2.283739 -20.753502 24.056824 -0.188828 2.611355 0.104802 -0.044689 -956926.000000 0 1 0
11.588308 -2.403239 -19.373002 22.701931 -0.204486 2.593200 0.093171 -0.023004 217786.000000 0 1 0
12.591908 -1.864939 -18.508002 22.462865 -0.147037 2.539121 0.098714 -0.032404 353522.000000 0 1 0
12.896708 -0.323039 -18.480502 22.537932 -0.025043 2.532161 0.095457 -0.034918 51961.300000 0 1 0
13.520408 0.203461 -19.611102 23.820960 0.015047 2.537946 0.121407 -0.044757 94737.500000 0 1 0
13.240008 1.615061 -19.678102 23.772546 0.121384 2.545910 0.127576 -0.051072 189208.000000 0 1 0
13.922308 2.306861 -20.890802 25.210670 0.164203 2.547487 0.133571 -0.049006 133270.000000 0 0 1
15.337508 2.356261 -20.939602 26.062580 0.152436 2.503839 0.148316 -0.051855 373089.000000 0 0 1
15.793908 3.447761 -21.722402 27.077617 0.214925 2.501813 0.130564 -0.044795 743423.000000 0 0 1
17.318408 3.302961 -22.058402 28.238447 0.188456 2.467298 0.095450 -0.031375 717868.000000 0 0 1
17.667408 2.294761 -23.003302 29.095621 0.129164 2.482602 0.070121 -0.022907 683811.000000 0 0 1
19.086508 2.113961 -23.034102 29.988889 0.110307 2.446646 0.074992 -0.030449 388158.000000 0 0 1
10.203053 26.807261 3.233567 28.864987 1.207118 1.458537 0.034261 -0.024850 49580.400000 0 0 1
10.161153 26.869861 4.644967 29.100072 1.209257 1.410490 0.044031 -0.026745 496471.000000 0 0 1
11.369353 27.465461 5.102267 30.160353 1.178321 1.400808 0.041017 -0.023654 49809.600000 0 0 1
11.312253 27.821061 6.599267 30.749453 1.184607 1.354500 0.049516 -0.027772 27785.500000 0 0 1
11.218953 26.705361 7.515367 29.925273 1.173082 1.316941 0.047765 -0.031519 174690.000000 0 0 1
10.884653 27.231961 8.768867 30.609613 1.190547 1.280251 0.050684 -0.023865 -639042.000000 0 0 1
11.001753 26.211561 9.938367 30.114044 1.173399 1.234467 0.069698 -0.017468 995489.000000 0 0 1
12.328953 25.774861 10.305167 30.373393 1.124633 1.224642 0.057997 -0.017635 1291960.000000 0 0 1
13.010853 24.910461 9.392767 29.631697 1.089465 1.248249 0.060659 -0.026300 -439000.000000 0 0 1
14.302853 24.222961 9.818967 29.794892 1.037416 1.234967 0.071626 -0.023233 371758.000000 0 0 1
15.403553 25.142061 9.900067 31.103119 1.021119 1.246863 0.076961 -0.023750 1272020.000000 0 0 1
16.680853 24.525061 10.161967 31.352752 0.973513 1.240718 0.073188 -0.020297 1453910.000000 0 0 1
17.759253 25.563961 10.667067 32.904308 0.963637 1.240647 0.064229 -0.016770 -505386.000000 0 0 1
18.313253 26.389761 9.635767 33.535693 0.964140 1.279360 0.047280 -0.020069 831974.000000 0 0 1
19.742453 26.342761 9.663567 34.308746 0.927650 1.285268 0.037782 -0.016464 650635.000000 0 0 1
20.484553 26.989761 10.848567 35.577458 0.921576 1.260933 0.037984 -0.018966 -1014190.000000 0 0 1
20.512053 28.439961 10.770967 36.682277 0.945957 1.272776 0.043277 -0.031259 -37792.500000 0 0 1
19.269353 29.048461 11.053567 36.569146 0.985092 1.263729 0.030743 -0.015325 -55542.600000 0 0 1
19.527753 30.550161 11.167467 37.938869 1.002049 1.272017 0.025666 -0.015913 -864147.000000 0 0 1
19.921053 31.249361 9.997267 38.383802 1.003268 1.307303 0.056891 -0.035286 488345.000000 0 0 1
18.936353 31.438861 8.958167 37.778780 1.028670 1.331394 0.061995 -0.038383 741169.000000 0 0 1
17.604253 32.141061 9.328467 37.815048 1.069706 1.321537 0.062038 -0.028978 44855.000000 0 0 1
17.825453 33.500861 9.695967 39.167158 1.081808 1.320642 0.059465 -0.025407 1418750.000000 0 0 1
16.519553 -33.345204 9.901467 38.507627 -1.110827 1.310745 0.071794 -0.025770 1548690.000000 0 0 1
16.691553 -31.838604 10.111467 37.343626 -1.087933 1.296605 0.084169 -0.021295 194867.000000 0 0 1
17.356353 -31.242504 8.997867 36.855104 -1.063712 1.324162 0.092715 -0.023737 212123.000000 0 0 1
17.571353 -29.892704 9.016467 35.827683 -1.039385 1.316399 0.077603 -0.027827 -161451.000000 0 0 1
18.153853 -29.318304 7.706567 35.334353 -1.016380 1.350925 0.074204 -0.023559 37798.400000 0 0 1
17.356753 -29.699604 6.581767 35.023464 -1.041919 1.381748 0.073851 -0.021402 258694.000000 0 0 1
17.707853 -28.990704 5.377767 34.394031 -1.022465 1.413795 0.065026 -0.011231 -128974.000000 0 0 1
17.062653 -29.609504 4.148267 34.424773 -1.048019 1.450000 0.065001 -0.016897 -12180.400000 0 0 1
17.592353 -30.860904 3.777567 35.723330 -1.052688 1.464853 0.068105 -0.021422 33303.700000 0 0 1
17.520953 -30.946604 2.335467 35.638890 -1.055625 1.505218 0.057747 -0.020398 -249798.000000 0 0 1
17.968853 -32.336404 1.920367 37.043360 -1.063599 1.518932 0.061243 -0.018423 -1291710.000000 0 0 1
19.329953 -32.495304 2.005067 37.863071 -1.034169 1.517816 0.057769 -0.007470 -1121910.000000 0 0 1
19.697753 33.725861 1.384967 39.081368 1.042184 1.535351 0.083773 -0.011898 -525535.000000 0 0 1
21.115253 33.270361 1.680067 39.441013 1.005283 1.528186 0.102561 -0.013769 -595553.000000 0 0 1
21.300053 32.922261 3.014467 39.327529 0.996547 1.494071 0.092706 -0.041050 844647.000000 0 0 1
22.547453 32.243661 3.276467 39.481344 0.960552 1.487713 0.063536 -0.022299 701832.000000 0 0 1
22.840053 32.093161 4.779667 39.679771 0.952275 1.450047 0.067203 -0.009195 -174150.000000 0 0 1
22.327853 30.986661 5.495667 38.586378 0.946402 1.427885 0.082318 -0.025235 15672.500000 0 0 1
23.091353 29.803361 5.322267 38.075943 0.911617 1.430557 0.067972 -0.026826 -374242.000000 0 0 1
22.493153 28.591861 5.995967 36.869880 0.904219 1.407446 0.080553 -0.036051 222545.000000 0 0 1
21.192553 28.295661 5.493167 35.776300 0.927956 1.416644 0.083359 -0.034962 367187.000000 0 0 1
20.291453 28.129961 6.587467 35.304851 0.945887 1.383108 0.066820 -0.038189 914455.000000 0 0 1
18.758953 28.169061 6.195667 34.406113 0.983296 1.389734 0.089510 -0.033664 1087570.000000 0 0 1
18.261553 29.540261 6.067767 35.255200 1.017108 1.397825 0.085361 -0.040859 245065.000000 0 0 1
18.780853 30.283661 4.954167 35.977275 1.015682 1.432655 0.101792 -0.040849 -458119.000000 0 0 1
18.570253 31.744361 5.080867 37.126459 1.041484 1.433513 0.108181 -0.040731 -537587.000000 0 0 1
17.276453 32.241761 5.158967 36.940790 1.078889 1.430683 0.090385 -0.039206 -689050.000000 0 0 1
17.307653 33.654761 5.253167 38.207245 1.095798 1.432868 0.087275 -0.040962 1449980.000000 0 0 1
15.862053 -33.137204 5.508267 37.148621 -1.124351 1.421971 0.087397 -0.039897 1130370.000000 0 0 1
15.152053 -33.155904 4.300167 36.706813 -1.142141 1.453378 0.073934 -0.034491 -549112.000000 0 0 1
13.966653 -32.436504 4.581767 35.611610 -1.164205 1.441779 0.066968 -0.030177 10901.300000 0 0 1
13.208153 -32.015004 3.305167 34.789940 -1.179508 1.475649 0.064476 -0.026255 -478372.000000 0 0 1
12.032053 -31.280604 3.443867 33.691345 -1.203593 1.468399 0.063976 -0.029114 -393101.000000 0 0 1
11.605653 -31.034904 2.122067 33.201801 -1.212942 1.506839 0.066648 -0.024623 -827653.000000 0 0 1
10.426753 -30.060104 2.037367 31.882250 -1.236918 1.506850 0.071540 -0.021293 -356063.000000 0 0 1
9.978753 -29.649104 0.772967 31.292848 -1.246143 1.546093 0.086653 -0.019195 -92051.900000 0 0 1
9.071153 -30.572904 0.237067 31.891135 -1.282365 1.563363 0.073426 -0.022703 -378432.000000 0 0 1
9.584753 -31.116504 -1.164333 32.580055 -1.271991 1.606542 0.088633 -0.025971 -165195.000000 0 0 1
10.717653 -31.923604 -1.084333 33.692141 -1.246892 1.602985 0.079758 -0.027998 -467105.000000 0 0 1
10.944453 -32.759004 -2.247133 34.611891 -1.248365 1.635766 0.097315 -0.023213 -100027.000000 0 0 1
12.170953 -33.654504 -2.069733 35.847476 -1.223786 1.628566 0.075887 -0.024300 -530002.000000 0 0 1
11.921253 32.803761 -1.109733 34.920403 1.222224 1.602581 0.065245 -0.023967 -134059.000000 0 0 1
13.017953 31.950861 -1.027033 34.516365 1.183896 1.600556 0.078571 -0.022295 -503970.000000 0 0 1
13.152253 31.184561 0.287867 33.845849 1.171677 1.562291 0.069393 -0.031155 -579027.000000 0 0 1
13.349853 31.961461 1.410367 34.666161 1.175137 1.530101 0.058580 -0.026890 1347020.000000 0 0 1
14.631753 32.651261 1.590267 35.815109 1.149505 1.526380 0.067111 -0.025484 1609680.000000 0 0 1
15.902853 31.771961 1.852367 35.577936 1.106724 1.518708 0.078406 -0.031307 -134191.000000 0 0 1
16.365253 31.225161 0.634867 35.259541 1.088051 1.552790 0.082881 -0.026823 -462887.000000 0 0 1
17.215253 30.164061 0.924967 34.743216 1.052184 1.544170 0.098914 -0.026196 -712285.000000 0 0 1
17.803753 29.633461 -0.361233 34.572332 1.029790 1.581245 0.089864 -0.017153 803869.000000 0 0 1
18.951553 30.320461 -0.920733 35.767855 1.012167 1.596541 0.064689 -0.001206 1103250.000000 0 0 1
18.493553 31.328661 -1.818933 36.425335 1.037534 1.620753 0.067765 -0.005572 147994.000000 0 0 1
19.692753 32.005661 -2.504433 37.662170 1.019210 1.637343 0.060229 0.004973 5716.160000 0 0 1
20.476053 32.845361 -1.700333 38.742453 1.013343 1.614699 0.049342 0.010210 -231959.000000 0 0 1
21.442053 33.511161 -2.465633 39.860242 1.001591 1.632693 0.051708 0.013766 -1626730.000000 0 0 1
22.493453 -33.207404 -1.659433 40.142756 -0.975425 1.612146 0.051173 0.012144 -1034940.000000 0 0 1
23.491453 33.518861 -0.996433 40.943318 0.959505 1.595136 0.046209 0.008894 797934.000000 0 0 1
24.338753 32.663561 -1.814033 40.774672 0.930416 1.615300 0.051709 0.013593 135004.000000 0 0 1
25.207753 33.346561 -2.957433 41.906686 0.923509 1.641427 0.048002 0.011182 -469613.000000 0 0 1
24.442353 -33.659504 -4.053533 41.794999 -0.942725 1.667935 0.034067 0.001706 132074.000000 0 0 1
25.289653 -33.052304 -4.998433 41.916652 -0.917676 1.690328 0.034127 0.000576 86294.500000 0 0 1
24.523553 -32.619804 -6.294433 41.292568 -0.926145 1.723828 0.034951 -0.005104 98243.300000 0 0 1
23.729853 -31.453304 -6.086433 39.868044 -0.924455 1.724060 0.049431 0.001074 94372.900000 0 0 1
23.034453 -31.150404 -7.273133 39.418678 -0.934076 1.756369 0.054889 -0.000949 -59403.900000 0 0 1
22.163853 -29.871404 -7.110633 37.869490 -0.932451 1.759684 0.070146 -0.002548 845925.000000 0 0 1
20.974553 -30.092804 -6.332133 37.223711 -0.962090 1.741738 0.067829 0.003614 221941.000000 0 0 1
20.238553 -28.908104 -6.171933 35.824157 -0.960004 1.743944 0.080643 -0.011849 -332397.000000 0 0 1
19.109953 -29.059404 -5.173933 35.162606 -0.989085 1.718476 0.058564 -0.000117 -343082.000000 0 0 1
17.970553 -29.752904 -5.614833 35.209408 -1.027446 1.730950 0.058894 -0.008601 -72394.200000 0 0 1
17.004853 -29.827704 -4.579033 34.638483 -1.052650 1.703379 0.038969 -0.009419 832764.000000 0 0 1
15.660753 -30.597904 -4.849933 34.713294 -1.097734 1.710969 0.035320 -0.013721 649163.000000 0 0 1
15.740553 -31.985904 -5.189033 36.024840 -1.113481 1.715340 0.039627 0.000804 -153371.000000 0 0 1
14.451553 -32.544404 -5.349433 36.008361 -1.152896 1.719909 0.060205 -0.004346 -21796.600000 0 0 1
14.476053 33.393561 -5.663433 36.834230 1.161750 1.725163 0.058518 -0.010276 -187408.000000 0 0 1
14.825253 32.608361 -4.553933 36.108609 1.144086 1.697251 0.067170 -0.020495 -89383.300000 0 0 1
14.936553 31.227161 -4.755233 34.940642 1.124643 1.707315 0.074092 -0.021842 -146224.000000 0 0 1
13.665853 30.386861 -5.002933 33.691931 1.148168 1.719838 0.079203 -0.035805 -265251.000000 0 0 1
12.830853 30.014161 -3.944333 32.879149 1.166816 1.691051 0.077217 -0.030848 41585.300000 0 0 1
13.445053 29.054961 -3.120033 32.166673 1.137394 1.667945 0.089408 -0.031571 -137217.000000 0 0 1
12.416253 28.150261 -2.406133 30.860817 1.155393 1.648843 0.069372 -0.029521 35144.100000 0 0 1
11.542853 28.792161 -1.522933 31.057130 1.189512 1.619853 0.052928 -0.031107 -313043.000000 0 0 1
10.676753 27.865561 -0.887333 29.854144 1.204898 1.600523 0.040109 -0.023759 36941.500000 0 0 1
9.474553 28.603261 -0.296333 30.133064 1.250931 1.580631 0.029629 -0.011563 112841.000000 0 0 1
8.496853 27.837261 0.390167 29.107763 1.274545 1.557392 0.033053 -0.013286 243772.000000 0 0 1
7.332353 28.594261 0.681867 29.527278 1.319778 1.547701 0.047536 -0.009992 -74083.500000 0 0 1
6.400353 27.851561 1.626967 28.623784 1.344916 1.513926 0.042246 -0.015285 -309518.000000 0 0 1
5.733453 26.791861 1.037267 27.418101 1.359976 1.532956 0.056753 -0.021993 -341321.000000 0 0 1
4.410153 26.599861 1.465067 27.002750 1.406495 1.516513 0.055162 -0.025432 87218.100000 0 0 1
3.678853 25.371661 0.888867 25.652392 1.426801 1.536139 0.060199 -0.033209 413637.000000 0 0 1
2.303653 25.251461 1.238367 25.386545 1.479820 1.521997 0.069212 -0.031032 367555.000000 0 0 1
1.870653 23.916061 0.986567 24.009387 1.492738 1.529694 0.061225 -0.036011 -136118.000000 0 1 0
0.353853 23.769661 1.186667 23.801895 1.555911 1.520920 0.058402 -0.028233 -462776.000000 0 1 0
-0.466947 24.211561 0.089867 24.216230 -1.551513 1.567085 0.066809 -0.039445 -911281.000000 0 1 0
-1.794047 23.922761 0.242567 23.991164 -1.495943 1.560685 0.065186 -0.033561 -945667.000000 0 1 0
-2.673947 24.666561 1.306467 24.845444 -1.462814 1.518188 0.094608 -0.043726 -833670.000000 0 1 0
-4.036547 24.452861 1.079367 24.807281 -1.407197 1.527272 0.091477 -0.031204 -264878.000000 0 1 0
-4.856147 24.889261 2.162767 25.450640 -1.378107 1.485715 0.089895 -0.041218 -696864.000000 0 0 1
-6.265647 25.226461 1.775067 26.053475 -1.327347 1.502612 0.115371 -0.044306 -972336.000000 0 0 1
-6.310347 26.383461 0.976867 27.145198 -1.336029 1.534802 0.128610 -0.047260 357021.000000 0 0 1
-7.381247 26.364961 0.014767 27.378718 -1.297821 1.570257 0.130320 -0.042116 392415.000000 0 0 1
-7.351047 27.542261 -0.994333 28.523723 -1.309976 1.605663 0.132689 -0.041861 -93721.300000 0 0 1
-7.577947 28.822561 -0.484033 29.806033 -1.313698 1.587036 0.165021 -0.051193 45464.100000 0 0 1
-7.788447 29.719061 -1.539133 30.761200 -1.314491 1.620852 0.168394 -0.051146 -67056.000000 0 0 1
-7.681147 31.208161 -1.072233 32.157410 -1.329467 1.604146 0.155885 -0.051069 -557439.000000 0 0 1
-7.799847 32.246761 -1.963633 33.234727 -1.333474 1.629915 0.136111 -0.038558 -571792.000000 0 0 1
-6.963247 32.365261 -3.092133 33.249936 -1.358881 1.663928 0.118730 -0.037436 443352.000000 0 0 1
-5.450947 32.645961 -2.804433 33.216509 -1.405351 1.655326 0.146309 -0.045892 180951.000000 0 0 1
-5.161547 -33.478604 -2.463933 33.963649 1.417826 1.643406 0.151113 -0.046816 -2941.250000 0 0 1
-4.403747 -33.371604 -1.273833 33.685006 1.439593 1.608621 0.159375 -0.045312 51944.200000 0 0 1
-4.135447 -31.881104 -0.967633 32.162759 1.441802 1.600886 0.156610 -0.041235 233017.000000 0 0 1
-5.355847 -31.200904 -0.719433 31.665424 1.400796 1.593518 0.155812 -0.042128 188769.000000 0 0 1
-5.485947 -30.087604 -1.566733 30.623752 1.390445 1.621979 0.162742 -0.038373 261123.000000 0 0 1
-6.954547 -29.579404 -1.567733 30.426381 1.339876 1.622345 0.171555 -0.042512 143544.000000 0 0 1
-7.262247 -29.000104 -0.320733 29.897310 1.325421 1.581524 0.170211 -0.037173 -387947.000000 0 0 1
-8.568547 -28.497504 -0.443233 29.761119 1.278718 1.585690 0.128147 -0.025621 235805.000000 0 0 1
-9.080747 -27.761504 0.831967 29.220767 1.254668 1.542321 0.139504 -0.026108 484868.000000 0 0 1
-8.128647 -26.705604 0.947967 27.931395 1.275326 1.536851 0.163998 -0.036180 264627.000000 0 0 1
-7.798947 -26.401104 2.289767 27.623992 1.283563 1.487811 0.175363 -0.026943 63894.900000 0 0 1
-8.745947 -25.430704 3.056267 27.065718 1.239555 1.457635 0.157060 -0.023872 204588.000000 0 0 1
-8.547647 -24.083004 2.842067 25.712462 1.229741 1.460037 0.153142 -0.032646 74133.300000 0 0 1
-9.463547 -23.368904 3.679867 25.479518 1.186019 1.425865 0.144783 -0.029972 354648.000000 0 0 1
-8.999047 -21.943904 3.917067 24.038744 1.181619 1.407118 0.106284 -0.009569 1477990.000000 0 1 0
-7.795847 -21.982904 4.759567 23.804974 1.230001 1.369500 0.104980 -0.013453 1121480.000000 0 1 0
-6.994247 -20.816504 4.848867 22.489061 1.246652 1.353480 0.067770 -0.011606 14584.500000 0 1 0
-7.555447 -19.593804 5.594767 21.732541 1.202762 1.310427 0.075687 -0.022180 -146605.000000 0 1 0
-7.908547 -19.891504 6.900767 22.490835 1.192374 1.258940 0.075566 -0.023834 422179.000000 0 1 0
-8.786847 -18.916104 7.491267 22.161831 1.135936 1.225978 0.060968 -0.021427 419670.000000 0 1 0
-28.489777 28.197961 -5.084133 40.405950 -0.780250 1.696957 0.194665 -0.016339 -480311.000000 0 0 1
-27.944877 29.257861 -4.420033 40.699819 -0.808347 1.679612 0.179766 -0.028934 -945718.000000 0 0 1
-26.567217 29.190961 -4.330133 39.707421 -0.832419 1.680065 0.162060 -0.006305 -621555.000000 0 0 1
-25.815497 30.364661 -3.670733 40.024078 -0.866196 1.662639 0.143918 -0.010734 -107828.000000 0 0 1
-26.102997 30.544361 -2.290333 40.243883 -0.863642 1.627738 0.117957 -0.026875 209754.000000 0 0 1
-25.283567 31.565561 -1.732633 40.480186 -0.895455 1.613611 0.118545 -0.026789 -507448.000000 0 0 1
-23.999247 31.130961 -1.056233 39.321956 -0.914045 1.597661 0.098616 -0.009148 -847414.000000 0 0 1
-23.073747 30.676061 -1.977133 38.436020 -0.925905 1.622259 0.133355 -0.022503 602991.000000 0 0 1
-21.774947 30.381861 -1.401233 37.405471 -0.948944 1.608266 0.110328 -0.012010 1631120.000000 0 0 1
-20.895547 29.311161 -2.183833 36.062962 -0.951474 1.631390 0.115675 -0.024171 945070.000000 0 0 1
-19.630947 29.102261 -1.557933 35.138908 -0.977355 1.615147 0.119481 -0.013865 120657.000000 0 0 1
-18.759447 28.199761 -2.169533 33.938920 -0.983786 1.634765 0.122474 -0.014545 216449.000000 0 0 1
-17.300347 28.387661 -1.691733 33.286984 -1.023470 1.621641 0.134813 -0.028075 52588.800000 0 0 1
-17.012447 28.013561 -0.351433 32.776615 -1.025031 1.581519 0.118766 -0.040526 -39065.700000 0 0 1
-15.683547 28.410661 -0.090433 32.452234 -1.066396 1.573583 0.134860 -0.058752 91308.400000 0 0 1
-15.118647 27.976861 1.300867 31.827198 -1.075355 1.529912 0.134020 -0.056296 478882.000000 0 0 1
-15.951147 28.448061 2.414267 32.704128 -1.059767 1.496908 0.111522 -0.052653 690982.000000 0 0 1
-15.517347 27.869361 3.638367 32.104939 -1.062756 1.457225 0.112344 -0.062627 345150.000000 0 0 1
-14.275347 28.461161 4.383067 32.140854 -1.105891 1.433999 0.116435 -0.053440 503107.000000 0 0 1
-14.439847 29.621761 5.129067 33.350641 -1.117219 1.416391 0.091524 -0.037902 -550444.000000 0 0 1
-14.253847 30.820761 4.440367 34.246290 -1.137616 1.440770 0.114844 -0.042316 -114314.000000 0 0 1
-14.023347 32.039161 5.380867 35.385249 -1.158223 1.418139 0.117393 -0.039266 -351041.000000 0 0 1
-15.149547 32.404261 6.120867 36.290632 -1.133471 1.401324 0.103690 -0.042998 -315957.000000 0 0 1
-14.889047 33.581361 6.874067 37.371705 -1.153468 1.385805 0.112702 -0.046581 -356641.000000 0 0 1
-16.070147 -33.336304 7.660267 37.792043 1.121602 1.366687 0.093852 -0.041263 -329539.000000 0 0 1
-16.393847 33.422461 8.812167 38.255371 -1.114774 1.338358 0.066227 -0.037741 610262.000000 0 0 1
-17.570447 -33.489504 9.444767 38.980394 1.087620 1.326065 0.068741 -0.032388 161568.000000 0 0 1
-17.843847 33.265261 10.810167 39.266273 -1.078446 1.291890 0.055278 -0.023244 466909.000000 0 0 1
-16.945147 33.557161 11.892567 39.429104 -1.103186 1.264406 0.053461 -0.023434 -355455.000000 0 0 1
-15.651247 33.066761 11.797167 38.438853 -1.128717 1.258854 0.070537 -0.020300 -663918.000000 0 0 1
-14.853847 32.997261 13.136867 38.497186 -1.147814 1.222558 0.051419 -0.017635 -70755.900000 0 0 1
-15.370547 32.145761 14.206267 38.359115 -1.124780 1.191411 0.036913 -0.014766 -162107.000000 0 0 1
-14.943747 30.801061 14.143767 37.041424 -1.119083 1.179014 0.039780 -0.015516 -277590.000000 0 0 1
-15.814347 29.866561 13.308567 36.321110 -1.083828 1.195644 0.048293 -0.022918 -23960.900000 0 0 1
-15.448447 29.985661 11.934867 35.780378 -1.095067 1.230720 0.052120 -0.018161 -67242.800000 0 0 1
-16.418147 29.358661 11.158067 35.439935 -1.060897 1.250504 0.034601 -0.019975 -303935.000000 0 0 1
-16.097147 29.105561 9.678367 34.639899 -1.065606 1.287628 0.039559 -0.016360 126565.000000 0 0 1
-15.265547 27.965461 9.449367 33.232431 -1.071128 1.282477 0.028621 -0.015473 126407.000000 0 0 1
-14.975947 27.886561 8.101267 32.673687 -1.077965 1.320238 0.045196 -0.021892 -322037.000000 0 0 1
-14.132547 26.640561 7.694867 31.123293 -1.083055 1.320967 0.056688 -0.025934 399578.000000 0 0 1
-12.858047 26.567161 8.346467 30.672576 -1.120044 1.295206 0.065028 -0.026641 568856.000000 0 0 1
-12.124947 25.401261 8.076767 29.282633 -1.125443 1.291353 0.072998 -0.029091 156973.000000 0 0 1
-10.994747 25.598761 7.043867 28.736686 -1.165118 1.323155 0.113881 -0.046684 39997.700000 0 0 1
-11.547647 25.936561 5.776967 28.972862 -1.151919 1.370059 0.126597 -0.051389 797140.000000 0 0 1
-10.455247 25.829461 4.868367 28.287352 -1.186176 1.397831 0.160648 -0.047910 468977.000000 0 0 1
-10.790347 26.225261 3.382367 28.559347 -1.180460 1.452085 0.173971 -0.048860 38916.500000 0 0 1
-10.523747 27.608661 3.105267 29.709091 -1.206622 1.466083 0.178340 -0.047851 134297.000000 0 0 1
-10.955847 27.986361 1.788267 30.107556 -1.197664 1.511365 0.190223 -0.054165 70865.400000 0 0 1
-10.550047 29.389661 1.398267 31.257173 -1.226152 1.526047 0.209277 -0.058276 63243.200000 0 0 1
-11.192547 30.434561 2.106267 32.495723 -1.218390 1.505934 0.181075 -0.063972 -197929.000000 0 0 1
-10.832947 31.755561 1.602767 33.590732 -1.242040 1.523064 0.177603 -0.056238 -201946.000000 0 0 1
-11.361247 32.992961 2.422167 34.978284 -1.239160 1.501493 0.150961 -0.056759 -108850.000000 0 0 1
-12.673247 33.448561 2.265367 35.840610 -1.208622 1.507547 0.160662 -0.052940 -660455.000000 0 0 1
-12.899347 -33.474804 1.024867 35.888801 1.202987 1.542236 0.143412 -0.045248 -465660.000000 0 0 1
-14.367447 -33.523404 0.527167 36.476295 1.165898 1.556344 0.150975 -0.037952 138843.000000 0 0 1
-14.824747 32.599261 0.569767 35.816331 -1.143993 1.554888 0.130118 -0.035856 311597.000000 0 0 1
-15.819747 32.250361 -0.419733 35.923897 -1.114754 1.582481 0.142896 -0.037822 -77221.100000 0 0 1
-15.413747 32.197261 -1.917233 35.748049 -1.124310 1.624454 0.148910 -0.038795 348787.000000 0 0 1
-14.426447 31.172061 -2.194033 34.418506 -1.137349 1.634585 0.141716 -0.041679 822714.000000 0 0 1
-13.105147 31.686661 -2.167133 34.358199 -1.178633 1.633913 0.153848 -0.040927 363815.000000 0 0 1
-11.951147 30.688261 -2.536233 33.030770 -1.199429 1.647656 0.107865 -0.048253 602421.000000 0 0 1
-11.878947 30.260661 -3.923933 32.744683 -1.196725 1.690919 0.102697 -0.042538 -594196.000000 0 0 1
-10.599847 29.825461 -4.258333 31.938195 -1.229323 1.704525 0.095233 -0.048532 -457978.000000 0 0 1
-10.343847 29.278561 -5.670333 31.565519 -1.231193 1.751414 0.090826 -0.045690 -242837.000000 0 0 1
-10.901647 27.950661 -5.815733 30.559910 -1.198913 1.762270 0.090559 -0.029472 209168.000000 0 0 1
-10.633747 27.310261 -7.041933 30.141595 -1.199489 1.806604 0.075768 -0.019620 -108187.000000 0 0 1
-11.299347 25.937661 -7.150933 29.181730 -1.159953 1.818366 0.091477 -0.021000 -69670.000000 0 0 1
-10.880347 24.958261 -6.193233 27.922265 -1.159695 1.794459 0.068522 -0.014338 -136223.000000 0 0 1
-11.343147 23.706761 -6.458133 27.062613 -1.124515 1.811758 0.112522 -0.019938 -437962.000000 0 0 1
-10.740347 22.600461 -5.601533 25.642018 -1.127163 1.791024 0.102048 -0.028126 -431861.000000 0 0 1
-9.376747 22.323461 -5.821033 24.902705 -1.173134 1.806730 0.088708 -0.022605 -144776.000000 0 1 0
-8.918647 21.071761 -5.380133 23.505472 -1.170408 1.801732 0.088614 -0.018351 -318574.000000 0 1 0
-8.799947 20.759361 -3.818733 22.868600 -1.169856 1.738568 0.092645 -0.037214 -597077.000000 0 1 0
-9.950147 20.745361 -3.025833 23.206273 -1.123575 1.701557 0.106386 -0.038051 -577265.000000 0 1 0
-10.698047 19.546961 -3.152633 22.504911 -1.070029 1.711345 0.107514 -0.034416 -567090.000000 0 1 0
-11.892147 19.572161 -2.208333 23.008029 -1.024804 1.666925 0.096102 -0.035315 -533625.000000 0 1 0
-11.561047 19.413461 -0.862433 22.611592 -1.033680 1.608947 0.080336 -0.042623 135395.000000 0 1 0
-11.424147 18.064361 -0.457833 21.378538 -1.006884 1.592214 0.071851 -0.037609 -42660.700000 0 1 0
-11.138447 17.941361 1.042767 21.143434 -1.015205 1.521458 0.064101 -0.039161 775868.000000 0 1 0
-12.310747 18.312661 1.811867 22.140256 -0.978936 1.488869 0.086066 -0.033855 1038230.000000 0 1 0
-11.999247 18.583761 3.173367 22.347447 -0.997461 1.428313 0.074585 -0.018511 217640.000000 0 1 0
-13.275647 18.539761 4.059467 23.161279 -0.949371 1.394617 0.087630 -0.026263 288737.000000 0 1 0
-13.751247 17.213561 4.159167 22.421021 -0.896750 1.384213 0.049929 -0.022416 -253377.000000 0 1 0
-14.935047 17.255061 4.909667 23.343042 -0.857346 1.358887 0.072632 -0.031468 -233867.000000 0 1 0
-15.274847 15.809961 5.388367 22.634273 -0.802611 1.330426 0.046652 -0.022666 -139124.000000 0 1 0
-14.580747 15.246061 6.493067 22.072619 -0.807700 1.272211 0.042734 -0.017066 -204424.000000 0 1 0
-15.026347 15.739661 7.741167 23.096617 -0.808579 1.229016 0.046597 -0.014813 -731657.000000 0 1 0
-14.076047 15.515561 8.968567 22.788219 -0.834006 1.166294 0.042166 -0.014621 580263.000000 0 1 0
-12.884747 16.284061 8.938767 22.607276 -0.901414 1.164300 0.040672 -0.018628 760800.000000 0 1 0
-11.898647 15.829361 7.967467 21.345421 -0.926220 1.188272 0.036078 -0.023719 -719868.000000 0 1 0
-10.823747 16.862761 7.716467 21.472077 -1.000156 1.203201 0.054328 -0.028600 -310549.000000 0 1 0
-9.867847 16.996561 8.759967 21.517308 -1.044779 1.151506 0.050222 -0.029498 -426324.000000 0 1 0
-9.018847 18.010561 8.363267 21.809726 -1.106546 1.177251 0.042025 -0.036658 -829258.000000 0 1 0
-7.830147 18.260761 9.280667 21.929373 -1.165715 1.133814 0.042608 -0.031757 -499770.000000 0 1 0
-6.855547 17.195361 9.153367 20.650983 -1.191423 1.111585 0.034910 -0.024544 2142960.000000 0 1 0
-5.524247 17.488161 9.727267 20.759885 -1.264831 1.083135 0.031367 -0.032829 1979880.000000 0 1 0
-4.700047 18.664961 9.166067 21.318724 -1.324114 1.126355 0.024930 -0.030369 -1611880.000000 0 1 0
-5.134347 19.956061 9.433567 22.662703 -1.318975 1.141469 0.034574 -0.034712 -366029.000000 0 1 0
-4.632347 20.966961 8.581367 23.123840 -1.353354 1.190598 0.044519 -0.033320 232470.000000 0 1 0
-3.171647 21.487561 8.784467 23.429501 -1.424251 1.186473 0.048409 -0.027185 899544.000000 0 1 0
-2.151947 20.579861 8.308967 22.297993 -1.466609 1.188952 0.034379 -0.017573 553855.000000 0 1 0
-0.980147 21.349361 8.037267 22.833168 -1.524919 1.211090 0.035083 -0.019176 227490.000000 0 1 0
0.305753 20.525961 7.856167 21.980171 1.555902 1.205292 0.029941 -0.019116 205880.000000 0 1 0
0.718353 19.913661 9.110167 21.910387 1.534739 1.141983 0.024792 -0.019775 -767783.000000 0 1 0
2.057753 19.534761 9.047367 21.626283 1.465845 1.139168 0.016315 -0.016004 -642480.000000 0 1 0
2.503453 18.899061 10.416167 21.724142 1.439099 1.070741 0.009361 -0.031328 -546446.000000 0 1 0
3.890653 18.719261 10.348067 21.740065 1.365872 1.074706 0.027053 -0.014315 -507730.000000 0 1 0
4.390553 18.396861 11.608267 22.191740 1.336521 1.020324 0.024747 -0.020177 -1279370.000000 0 1 0
5.813453 18.880661 11.768167 22.994899 1.272103 1.033549 0.052949 -0.018885 -305550.000000 0 1 0
6.812753 18.178061 11.006267 22.315766 1.212220 1.055025 0.051411 -0.018708 469801.000000 0 1 0
7.296753 17.097561 11.834967 22.037142 1.167426 1.003865 0.050201 -0.023431 -608384.000000 0 1 0
8.560953 16.411961 11.260667 21.666680 1.089996 1.024270 0.056668 -0.022615 -48147.900000 0 1 0
9.692853 17.238661 11.312967 22.783899 1.058578 1.051196 0.072371 -0.026591 -598047.000000 0 1 0
10.835753 16.559161 10.884667 22.585290 0.991358 1.067933 0.071517 -0.027399 93992.400000 0 1 0
11.728753 17.423461 9.936567 23.235232 0.978313 1.128904 0.071212 -0.038653 697535.000000 0 1 0
12.903253 16.779761 9.405567 23.162880 0.915260 1.152656 0.078670 -0.037527 281049.000000 0 1 0
13.637453 17.811161 8.813767 24.101869 0.917342 1.196424 0.101110 -0.032847 -97611.300000 0 1 0
14.558853 17.326961 7.648667 23.889033 0.871994 1.244882 0.117139 -0.031411 -13707.300000 0 1 0
15.695053 16.629661 8.098467 24.258308 0.814303 1.230419 0.117076 -0.039354 -100336.000000 0 1 0
16.603953 16.423361 7.054867 24.396500 0.779930 1.277431 0.095894 -0.034890 498684.000000 0 1 0
18.118453 16.245661 7.430167 25.444198 0.730954 1.274460 0.109318 -0.037646 728211.000000 0 0 1
18.394453 14.943561 8.011667 25.017049 0.682253 1.244805 0.126843 -0.045378 552801.000000 0 0 1
19.555253 15.150361 8.811467 26.259918 0.659152 1.228609 0.139762 -0.047169 -39145.800000 0 0 1
19.964753 14.076661 9.731567 26.295383 0.614124 1.191694 0.137917 -0.053954 -281942.000000 0 0 1
20.400853 12.909061 9.177267 25.827522 0.564168 1.207530 0.160208 -0.061035 163401.000000 0 0 1
21.008053 12.052161 10.172867 26.269376 0.520851 1.173147 0.174244 -0.063474 291581.000000 0 0 1
22.080553 11.185361 9.413067 26.481483 0.468890 1.207392 0.178791 -0.054478 904082.000000 0 0 1
23.429553 11.625961 9.727667 27.905814 0.460610 1.214731 0.179879 -0.055870 1033240.000000 0 0 1
24.449353 10.929461 9.081367 28.278883 0.420377 1.243868 0.199182 -0.051415 -545611.000000 0 0 1
24.834253 9.458561 9.376067 28.180048 0.363905 1.231610 0.210507 -0.053419 -482363.000000 0 0 1
23.789653 8.514761 9.171567 26.880595 0.343712 1.222607 0.223392 -0.055156 655942.000000 0 0 1
24.183653 7.141261 9.531867 26.957432 0.287133 1.209391 0.218994 -0.043685 534191.000000 0 0 1
25.191453 6.502661 8.489467 27.367224 0.252615 1.255387 0.229223 -0.048470 849600.000000 0 0 1
24.567753 6.103161 7.228967 26.326432 0.243493 1.292633 0.217662 -0.035426 158105.000000 0 0 1
25.441953 5.464561 6.356667 26.787340 0.211571 1.331210 0.211915 -0.034363 -557861.000000 0 0 1
24.850453 5.088061 4.995867 25.853280 0.201956 1.376334 0.202922 -0.045910 -156373.000000 0 0 1
23.837453 4.097761 4.960467 24.690525 0.170240 1.368514 0.194319 -0.041359 432361.000000 0 1 0
23.554853 3.799661 3.625667 24.133255 0.159933 1.419990 0.214875 -0.043049 -232291.000000 0 1 0
22.549253 2.640361 3.491867 22.970273 0.116562 1.418188 0.199563 -0.035911 -129241.000000 0 1 0
23.035453 1.372361 3.875367 23.399443 0.059506 1.404412 0.222330 -0.042410 -3362.790000 0 1 0
22.060553 0.398761 3.672167 22.367651 0.018074 1.405877 0.205867 -0.037816 -371367.000000 0 1 0
22.592053 -1.031839 3.916867 22.952285 -0.045641 1.399304 0.238447 -0.046891 -382580.000000 0 1 0
22.701153 -1.443939 5.232367 23.341057 -0.063521 1.344705 0.214353 -0.047008 479742.000000 0 1 0
23.107653 -2.755039 5.253567 23.856945 -0.118666 1.348765 0.227330 -0.053124 -294782.000000 0 1 0
23.129453 -3.343139 6.684467 24.307000 -0.143546 1.292205 0.250801 -0.057629 -117807.000000 0 1 0
23.253753 -4.729239 6.675567 24.650881 -0.200639 1.296568 0.229366 -0.054238 398745.000000 0 1 0
23.541853 -5.178439 7.945267 25.380353 -0.216519 1.252396 0.281174 -0.059762 -151167.000000 0 0 1
22.949853 -6.562239 8.240367 25.251978 -0.278507 1.238383 0.259271 -0.057791 924235.000000 0 0 1
21.558853 -6.607939 8.596467 24.131892 -0.297416 1.206568 0.253963 -0.057213 1318790.000000 0 1 0
21.036153 -7.899039 8.970167 24.194595 -0.359207 1.190979 0.227146 -0.054932 131367.000000 0 1 0
-28.113087 -32.934804 5.191667 43.611930 0.864217 1.451471 0.103368 -0.008784 -8362.900000 0 0 1
-29.138857 33.623061 5.545267 44.836740 -0.856725 1.446802 0.112018 -0.015847 80024.300000 0 0 1
-29.199207 33.454461 6.920767 44.940980 -0.853211 1.416184 0.081935 -0.000234 -164397.000000 0 0 1
-30.075797 32.267861 7.311767 44.712754 -0.820545 1.406531 0.088244 -0.016789 375960.000000 0 0 1
-31.463847 32.598161 7.410067 45.907765 -0.803103 1.408675 0.104157 -0.008365 54723.700000 0 0 1
-32.176067 31.421461 7.628467 45.615798 -0.773533 1.402774 0.137592 -0.041055 229102.000000 0 0 1
-33.701687 31.739361 7.696967 46.930098 -0.755421 1.406043 0.153033 -0.032994 303823.000000 0 0 1
-34.344883 31.901461 6.434567 47.314669 -0.748531 1.434378 0.141103 -0.027644 472534.000000 0 0 1
-35.756801 31.919061 6.588967 48.381709 -0.728751 1.434185 0.114752 -0.023718 -79442.300000 0 0 1
-36.515907 31.699561 5.292167 48.644431 -0.714910 1.461788 0.101855 -0.015017 -554509.000000 0 0 1
-36.363067 30.398961 4.809267 47.639254 -0.696301 1.469672 0.115069 -0.027379 335387.000000 0 0 1
-37.191687 30.071961 3.712467 47.972147 -0.679943 1.493331 0.107396 -0.003956 -482182.000000 0 0 1
-36.689537 28.907461 2.970067 46.803683 -0.667315 1.507296 0.107999 -0.023962 -466283.000000 0 0 1
-36.865607 27.660061 3.574167 46.226904 -0.643690 1.493401 0.146768 -0.042710 421048.000000 0 0 1
-36.222237 26.536961 2.934767 44.998596 -0.632282 1.505531 0.123553 -0.036368 -220116.000000 0 0 1
-36.581847 25.200361 3.588767 44.566456 -0.603221 1.490183 0.150806 -0.039300 607476.000000 0 0 1
-37.902317 24.665261 3.349267 45.345103 -0.576908 1.496867 0.142749 -0.036647 580989.000000 0 0 1
37.572588 24.274761 4.528567 44.960776 0.573612 1.469903 0.141766 -0.040604 -113180.000000 0 0 1
36.088158 24.024461 4.177967 43.554395 0.587344 1.474723 0.155332 -0.036277 -705941.000000 0 0 1
35.694648 23.036561 3.271967 42.608647 0.573120 1.493930 0.129009 -0.035106 -60913.400000 0 0 1
35.998298 21.665861 3.597767 42.169076 0.541785 1.485375 0.117262 -0.032694 -485153.000000 0 0 1
35.472568 20.546561 2.595667 41.075562 0.525003 1.507562 0.114398 -0.019047 525789.000000 0 0 1
34.062198 20.345361 2.596467 39.760643 0.538432 1.505447 0.110927 -0.027763 804139.000000 0 0 1
33.566388 19.425961 3.634467 38.952275 0.524635 1.477355 0.084289 -0.025795 -136886.000000 0 0 1
33.691928 17.910161 3.389067 38.306732 0.488596 1.482209 0.109990 -0.026121 -596842.000000 0 0 1
32.805628 17.354461 2.449567 37.193910 0.486584 1.504889 0.079062 -0.035718 74238.700000 0 0 1
32.870378 15.924161 2.201567 36.590813 0.451133 1.510593 0.097566 -0.032016 -643849.000000 0 0 1
32.197928 14.978461 3.270967 35.661746 0.435422 1.478945 0.125788 -0.034844 167200.000000 0 0 1
30.787008 15.127461 3.263467 34.457658 0.456711 1.475945 0.087263 -0.027600 36374.600000 0 0 1
30.177208 14.357561 4.246967 33.687389 0.444080 1.444390 0.091643 -0.041123 85756.400000 0 0 1
28.634008 14.520661 4.211767 32.380473 0.469321 1.440356 0.082778 -0.037190 196727.000000 0 0 1
27.976608 14.041761 3.071667 31.453089 0.465175 1.472982 0.084691 -0.042915 328096.000000 0 0 1
26.583608 14.334761 3.033867 30.354208 0.494539 1.470680 0.077614 -0.030840 528491.000000 0 0 1
25.913208 13.955261 1.693767 29.480714 0.494001 1.513311 0.097730 -0.027374 -146218.000000 0 0 1
26.471908 14.585961 0.550667 30.229380 0.503609 1.552579 0.097320 -0.027945 -94592.000000 0 0 1
27.521408 13.846261 -0.002733 30.808227 0.466132 1.570885 0.093649 -0.031126 -1024240.000000 0 0 1
28.249608 14.616261 -1.115433 31.826399 0.477468 1.605851 0.115629 -0.035215 177913.000000 0 0 1
28.833208 15.889461 -0.747033 32.930031 0.503674 1.593484 0.064874 -0.021292 233153.000000 0 0 1
29.790408 15.900961 0.271467 33.769553 0.490290 1.562757 0.070031 -0.023616 -1409960.000000 0 0 1
30.326308 17.331261 0.286767 34.930500 0.519194 1.562587 0.068118 -0.016775 -1051930.000000 0 0 1
31.178608 17.615561 -0.756233 35.818787 0.514278 1.591911 0.054605 -0.015948 -413161.000000 0 0 1
31.544598 18.962561 -0.743033 36.812939 0.541254 1.590982 0.045326 -0.005293 380860.000000 0 0 1
32.642968 19.224361 -1.832533 37.927531 0.532239 1.619132 0.051009 -0.003244 505942.000000 0 0 1
33.226818 20.510061 -2.189133 39.108520 0.553024 1.626801 0.021940 0.004089 918690.000000 0 0 1
32.272778 21.583961 -2.415833 38.900332 0.589477 1.632939 0.053126 0.002075 -25764.900000 0 0 1
32.855778 23.003761 -2.759633 40.203119 0.610822 1.639493 0.091702 -0.002243 40363.900000 0 0 1
33.155278 23.940061 -1.715033 40.930922 0.625378 1.612709 0.081374 -0.006703 111046.000000 0 0 1
34.263768 23.610661 -0.925433 41.621215 0.603363 1.593033 0.084706 0.005330 -429496.000000 0 0 1
34.674278 24.404061 0.364567 42.402791 0.613278 1.562199 0.090966 -0.012738 6326.790000 0 0 1
35.088858 25.717961 0.113167 43.504647 0.632492 1.568195 0.102254 -0.003493 -433389.000000 0 0 1
36.155408 26.047061 0.937667 44.570642 0.624299 1.549757 0.116745 -0.020571 -101835.000000 0 0 1
36.867388 27.400361 0.575167 45.938164 0.639144 1.558276 0.105697 -0.020263 257843.000000 0 0 1
37.495148 27.481461 -0.739033 46.493688 0.632489 1.586692 0.107828 -0.013908 337501.000000 0 0 1
36.624568 27.421261 -1.843433 45.789549 0.642676 1.611066 0.092760 -0.011542 -42723.500000 0 0 1
37.367198 27.079461 -3.174433 46.256694 0.627102 1.639477 0.099139 -0.009111 800408.000000 0 0 1
-37.726757 27.978661 -3.646933 47.110655 -0.638112 1.648286 0.101573 -0.018545 811493.000000 0 0 1
-37.263417 27.633361 -4.931733 46.652834 -0.638083 1.676706 0.106087 -0.015738 529722.000000 0 0 1
37.815688 27.827861 -6.124333 47.348956 0.634404 1.700504 0.089795 -0.012381 582253.000000 0 0 1
36.827538 26.841961 -6.190133 45.989958 0.629831 1.705804 0.100122 -0.005469 -849080.000000 0 0 1
35.827918 27.053361 -7.104733 45.453287 0.646752 1.727748 0.084583 0.001058 114143.000000 0 0 1
34.641818 26.013661 -6.964533 43.877909 0.644098 1.730196 0.093865 0.001940 401124.000000 0 0 1
34.855208 24.669261 -7.328233 43.326216 0.615918 1.740754 0.073549 0.000961 -292974.000000 0 0 1
35.696908 23.941661 -6.480933 43.468091 0.590785 1.720451 0.088212 -0.004530 -162576.000000 0 0 1
35.588108 22.446461 -6.815833 42.624085 0.562709 1.731391 0.087705 -0.000336 302855.000000 0 0 1
34.457888 21.775761 -6.276233 41.242223 0.563584 1.723570 0.052624 0.014603 156712.000000 0 0 1
34.590248 20.359461 -6.309033 40.629999 0.531987 1.726707 0.057269 0.010488 -302846.000000 0 0 1
33.566518 19.439861 -5.620833 39.194555 0.524943 1.714701 0.053523 0.003561 -986110.000000 0 0 1
32.291778 19.614661 -6.147833 38.279103 0.545857 1.732100 0.040129 -0.002340 -1251020.000000 0 0 1
31.497698 18.765361 -5.400933 37.059599 0.537303 1.717054 0.070578 -0.018368 -878605.000000 0 0 1
30.185608 18.399961 -6.090333 35.872297 0.547420 1.741401 0.041053 -0.019419 -670716.000000 0 0 1
30.410008 17.621461 -7.274933 35.891631 0.525182 1.774902 0.020849 -0.014362 -1105200.000000 0 0 1
29.331908 17.333061 -8.051233 35.008830 0.533723 1.802851 0.048170 -0.025944 -1461450.000000 0 0 1
29.608908 16.469661 -9.290733 35.131964 0.507621 1.838432 0.052132 -0.020619 -449292.000000 0 0 1
28.546408 16.358861 -10.198733 34.445957 0.520377 1.871382 0.081980 -0.018812 -38540.500000 0 0 1
28.785908 15.338761 -11.109733 34.457688 0.489586 1.899078 0.082982 -0.014839 286472.000000 0 0 1
27.892208 15.353161 -12.426333 34.177604 0.503186 1.942906 0.107832 -0.007584 108163.000000 0 0 1
26.507708 15.161061 -12.229933 32.895100 0.519538 1.951728 0.101596 -0.016281 132522.000000 0 0 1
25.735208 15.365361 -13.396833 32.830937 0.538252 1.991119 0.111668 -0.023325 -171507.000000 0 0 1
25.660708 14.044661 -14.236733 32.533199 0.500785 2.023731 0.109985 -0.030997 -413936.000000 0 0 1
26.853408 13.565261 -14.848933 33.550151 0.467767 2.029280 0.117892 -0.033699 248456.000000 0 0 1
27.234708 14.262661 -16.039933 34.676105 0.482423 2.051682 0.120682 -0.037252 144360.000000 0 0 1
28.648508 13.843861 -16.530033 35.855704 0.450143 2.049935 0.146145 -0.034256 254122.000000 0 0 1
28.630508 12.446661 -16.802733 35.453592 0.410087 2.064552 0.150704 -0.037899 -359920.000000 0 0 1
29.769108 11.978161 -17.461933 36.532113 0.382547 2.069160 0.145814 -0.020420 -303611.000000 0 0 1
29.628308 10.510061 -17.924033 36.187968 0.340883 2.088981 0.126033 -0.024749 -49718.900000 0 0 1
28.871208 10.389561 -19.102333 36.144001 0.345431 2.127636 0.120888 -0.027800 -143073.000000 0 0 1
29.070208 9.163761 -19.769133 36.330017 0.305369 2.146177 0.093432 -0.013503 511446.000000 0 0 1
30.481708 8.812361 -20.365633 37.703465 0.281430 2.141415 0.112663 -0.023682 106399.000000 0 0 1
30.998708 9.788861 -21.321633 38.876133 0.305873 2.151306 0.118201 -0.028949 553345.000000 0 0 1
31.687638 9.215661 -22.448033 39.911765 0.283021 2.168132 0.103750 -0.025530 -296846.000000 0 0 1
33.108828 8.748461 -22.156933 40.787985 0.258329 2.145066 0.099083 -0.024183 -791036.000000 0 0 1
34.165638 9.690261 -22.156233 41.857982 0.276368 2.128594 0.104538 -0.023103 -263636.000000 0 0 1
35.391468 9.029161 -22.247033 42.766953 0.249794 2.117872 0.082425 -0.017430 -630160.000000 0 0 1
36.571658 9.979261 -22.069633 43.865026 0.266384 2.098008 0.093576 -0.026375 -479029.000000 0 0 1
36.743738 10.657061 -20.836633 43.564212 0.282292 2.069511 0.083176 -0.022411 -88876.900000 0 0 1
37.883638 11.449561 -20.667333 44.647521 0.293501 2.052060 0.049894 -0.008519 -326362.000000 0 0 1
37.855218 12.169561 -19.274833 44.188629 0.311042 2.022162 0.051340 -0.010671 -18313.300000 0 0 1
-37.899767 11.318761 -18.229633 43.552569 -0.290218 2.002662 0.064371 -0.011578 64182.700000 0 0 1
-37.931397 12.067561 -17.025833 43.293139 -0.308016 1.974980 0.060001 -0.010731 -65035.900000 0 0 1
-37.727897 11.135061 -15.764433 42.378074 -0.286993 1.951954 0.058574 -0.020840 -488797.000000 0 0 1
37.438018 10.112261 -15.655333 41.820479 0.263811 1.954488 0.051091 -0.014703 -4427.460000 0 0 1
37.918038 8.976161 -14.948933 41.735113 0.232446 1.937121 0.043391 -0.019022 -167938.000000 0 0 1
36.837928 7.924561 -14.649833 40.428322 0.211890 1.941601 0.096481 -0.018746 -226023.000000 0 0 1
35.876548 8.274061 -13.680833 39.277882 0.226663 1.926563 0.103871 -0.025090 253183.000000 0 0 1
36.164228 7.792861 -12.417433 39.022721 0.212240 1.894637 0.112215 -0.030482 -352184.000000 0 0 1
35.153668 8.343861 -11.392533 37.883904 0.233042 1.876246 0.119711 -0.031067 -145394.000000 0 0 1
35.180558 9.734961 -11.327233 38.219725 0.269959 1.871687 0.115038 -0.029297 343552.000000 0 0 1
34.227548 10.321261 -10.452933 37.246709 0.292877 1.855258 0.092475 -0.023677 -188064.000000 0 0 1
34.588648 10.280861 -8.927733 37.172236 0.288916 1.813339 0.112827 -0.021833 270111.000000 0 0 1
35.779958 10.966561 -8.537833 38.384443 0.297409 1.795102 0.127246 -0.024116 510372.000000 0 0 1
35.583468 12.338761 -8.150333 38.533831 0.333781 1.783917 0.118749 -0.023650 -147785.000000 0 0 1
35.119988 12.577361 -6.705233 37.902028 0.343895 1.748642 0.102929 -0.020248 584336.000000 0 0 1
36.155668 12.197861 -5.763233 38.590608 0.325380 1.720700 0.145127 -0.021896 758025.000000 0 0 1
35.923308 12.758361 -4.506133 38.387043 0.341260 1.688454 0.128523 -0.015409 82692.000000 0 0 1
37.115458 12.666061 -3.508433 39.373791 0.328868 1.660020 0.161140 -0.015595 715041.000000 0 0 1
-38.023757 13.677761 -3.788133 40.586170 -0.345304 1.664268 0.170955 -0.007527 312560.000000 0 0 1
-36.862897 13.566961 -2.999233 39.394556 -0.352653 1.647003 0.174080 -0.014197 -2665.600000 0 0 1
-36.057577 14.864761 -3.089833 39.123613 -0.391023 1.649855 0.164735 -0.012555 175469.000000 0 0 1
-36.711407 15.908261 -2.356533 40.079339 -0.408907 1.629627 0.175967 -0.011744 715612.000000 0 0 1
-35.823689 17.021061 -2.213933 39.723478 -0.443558 1.626559 0.174057 -0.016416 430555.000000 0 0 1
-36.387407 18.177361 -1.318233 40.696408 -0.463288 1.603194 0.171153 -0.014885 457113.000000 0 0 1
-37.557467 18.770561 -1.874933 42.028713 -0.463474 1.615422 0.162016 -0.010292 625612.000000 0 0 1
37.929548 19.672561 -0.976333 42.738899 0.478464 1.593642 0.155462 -0.009239 208778.000000 0 0 1
37.204548 20.832061 -1.657633 42.672016 0.510437 1.609652 0.118516 -0.005924 566277.000000 0 0 1
-37.961777 21.837361 -2.043633 43.842255 -0.522019 1.617427 0.131494 -0.006204 726017.000000 0 0 1
37.750918 22.532661 -3.195733 44.080215 0.538120 1.643358 0.096693 -0.000120 -596444.000000 0 0 1
-37.478227 23.678461 -3.611233 44.478400 -0.563469 1.652077 0.112806 -0.008591 -709700.000000 0 0 1
-36.230537 23.197661 -4.048133 43.210771 -0.569511 1.664617 0.137986 -0.013316 -488140.000000 0 0 1
-35.493014 24.276561 -4.596533 43.246198 -0.599894 1.677285 0.150027 -0.023878 522752.000000 0 0 1
-34.032668 23.790161 -4.881833 41.809408 -0.610081 1.687827 0.132589 -0.034051 340531.000000 0 0 1
-33.911827 22.883961 -5.971433 41.344234 -0.593618 1.715735 0.120118 -0.024384 519321.000000 0 0 1
-32.571087 22.808361 -6.475933 40.286906 -0.610903 1.732242 0.132997 -0.016879 357206.000000 0 0 1
-32.423937 21.820661 -7.689733 39.831959 -0.592361 1.765070 0.118895 -0.021542 -205989.000000 0 0 1
-33.196407 22.155161 -8.804733 40.870233 -0.588508 1.787930 0.115297 -0.025342 -138954.000000 0 0 1
-32.666897 21.632161 -9.959133 40.425993 -0.584907 1.819714 0.076741 -0.022688 -728789.000000 0 0 1
-33.608257 21.862961 -11.131533 41.610276 -0.576743 1.841613 0.086753 -0.016433 -325277.000000 0 0 1
-33.753427 23.263061 -11.450133 42.562535 -0.603445 1.843171 0.089879 -0.016671 -128986.000000 0 0 1
-34.408344 23.435861 -12.659033 43.513502 -0.597935 1.865987 0.065820 -0.013099 -1050000.000000 0 0 1
-34.402887 24.864861 -13.202333 44.453589 -0.625835 1.872337 0.085389 -0.020070 -28763.500000 0 0 1
-33.212237 25.598361 -13.344933 44.004727 -0.656650 1.878910 0.087556 -0.011459 -684005.000000 0 0 1
-32.250347 25.188861 -14.292733 43.345655 -0.663074 1.906823 0.081550 -0.008548 19975.600000 0 0 1
-30.897227 25.812061 -13.831433 42.570056 -0.695967 1.901713 0.087829 -0.004868 110939.000000 0 0 1
-30.152857 25.089561 -12.836733 41.273025 -0.693998 1.887062 0.071218 -0.018294 437822.000000 0 0 1
-30.685397 25.122561 -11.481533 41.286345 -0.686048 1.852607 0.101118 -0.019817 -15750.200000 0 0 1
-31.055767 26.430861 -10.753233 42.174437 -0.705119 1.828613 0.126328 -0.011578 207018.000000 0 0 1
-29.901547 27.215861 -10.459633 41.763735 -0.738412 1.823939 0.157549 -0.011538 51425.100000 0 0 1
-30.066977 28.460861 -9.892233 42.566419 -0.757963 1.805336 0.150108 -0.012646 -471817.000000 0 0 1
-28.771497 29.048561 -9.349133 41.940723 -0.790190 1.795598 0.156625 -0.022279 -277824.000000 0 0 1
-28.927967 30.453961 -9.243333 43.008258 -0.811090 1.787406 0.143825 -0.035734 9457.250000 0 0 1
-27.851507 31.073161 -8.572333 42.599680 -0.840018 1.773410 0.172679 -0.028567 118632.000000 0 0 1
36.591758 -25.093979 33.331735 55.494766 -0.601120 0.926509 0.065593 -0.029592 -139836.000000 0 0 1
36.287988 -23.713439 33.510816 54.791606 -0.578817 0.912709 0.063771 -0.032387 75880.800000 0 0 1
35.343338 -23.573439 -32.906633 53.737371 -0.588222 2.229839 0.064841 -0.021853 -62424.800000 0 0 1
35.003318 -22.086039 -32.654593 52.719520 -0.562881 2.238777 0.054622 -0.015948 32222.200000 0 0 1
34.410938 -21.454639 33.683536 52.716172 -0.557508 0.877651 0.035563 -0.015888 202065.000000 0 0 1
33.698638 -20.298439 -33.349803 51.573580 -0.542147 2.273974 0.028403 -0.006536 177973.000000 0 0 1
33.247628 -19.425539 32.893894 50.643505 -0.528772 0.863845 0.032410 -0.007145 -1101220.000000 0 0 1
34.255418 -18.866339 32.197134 50.655975 -0.503423 0.882006 0.056080 -0.015741 -907012.000000 0 0 1
33.839188 -18.335039 30.930086 49.375445 -0.496548 0.893836 0.062143 -0.014987 50391.900000 0 0 1
35.052258 -18.169039 29.984236 49.576498 -0.478213 0.921272 0.060318 -0.022087 -207571.000000 0 0 1
35.884208 -17.094539 30.280156 49.967865 -0.444574 0.919783 0.058153 -0.031120 549823.000000 0 0 1
37.028638 -17.182739 29.400416 50.306570 -0.434467 0.946625 0.082715 -0.031323 389906.000000 0 0 1
37.947838 -15.959339 29.534676 50.665925 -0.398104 0.948467 0.086952 -0.028085 -388040.000000 0 0 1
-36.960637 -16.044439 28.863786 49.564411 0.409549 0.949181 0.089092 -0.031647 -195503.000000 0 0 1
-35.867018 -15.636339 29.648956 49.091737 0.411111 0.922348 0.075981 -0.032326 -293508.000000 0 0 1
-34.651725 -15.194639 28.769086 47.531878 0.413246 0.920705 0.106621 -0.032771 253276.000000 0 0 1
-33.531117 -14.592339 29.347166 46.888467 0.410468 0.894520 0.087790 -0.031012 151732.000000 0 0 1
-32.725177 -15.491739 30.108546 47.089869 0.442133 0.877098 0.088099 -0.039322 178913.000000 0 0 1
-31.363567 -14.922639 30.643206 46.318080 0.444097 0.847870 0.099272 -0.042499 816822.000000 0 0 1
-31.637307 -13.898239 31.571347 46.806305 0.413919 0.830495 0.095328 -0.037863 975507.000000 0 0 1
-30.402967 -13.271439 31.952741 46.059192 0.411586 0.804138 0.082006 -0.040485 662591.000000 0 0 1
-30.561917 -12.500839 33.307631 46.900960 0.388269 0.781057 0.069863 -0.002015 -28341.800000 0 0 1
-30.786977 -13.332139 -33.023903 47.076130 0.408665 2.348296 0.088502 -0.012472 337055.000000 0 0 1
-30.884277 -12.597139 -31.793953 46.080168 0.387283 2.332245 0.087632 0.005663 -249017.000000 0 0 1
-31.061837 -13.517039 -30.568253 45.628567 0.410449 2.304920 0.085897 -0.012296 -106828.000000 0 0 1
-32.288107 -14.202639 -30.441143 46.592918 0.414400 2.282788 0.083074 -0.008000 66602.300000 0 0 1
-32.514437 -14.589139 -29.061433 45.984764 0.421770 2.254901 0.102495 0.003416 -118169.000000 0 0 1
-33.745577 -15.478539 -28.966003 47.089048 0.430052 2.233350 0.084449 -0.009213 -520240.000000 0 0 1
-33.539557 -16.707439 -29.574913 47.735897 0.462160 2.238969 0.076802 -0.011740 -438130.000000 0 0 1
-34.675031 -17.499039 -29.572743 48.817223 0.467367 2.221549 0.067798 -0.015663 -790198.000000 0 0 1
-34.575101 -18.815939 -30.369663 49.717136 0.498383 2.227929 0.054510 -0.013326 -189780.000000 0 0 1
-35.662418 -19.676039 -30.136543 50.667206 0.504171 2.207806 0.039943 -0.015334 -228675.000000 0 0 1
-35.381217 -20.929439 -30.684133 51.297056 0.534176 2.212006 0.032835 -0.017225 253672.000000 0 0 1
-36.607227 -21.858439 -30.968453 52.696542 0.538290 2.198979 0.044006 -0.018108 341565.000000 0 0 1
-37.188107 -22.517439 -29.821063 52.718935 0.544455 2.172031 0.042992 -0.018018 331884.000000 0 0 1
37.989458 -23.533639 -30.125013 53.893854 -0.554619 2.163939 0.070238 -0.022029 165172.000000 0 0 1
-37.510397 -24.924539 -30.486563 54.384677 0.586480 2.165873 0.053954 -0.020953 478381.000000 0 0 1
-36.805637 -24.938839 -31.765303 54.640965 0.595521 2.191178 0.067746 -0.026554 -7434.450000 0 0 1
-36.167017 -26.172719 -31.903783 54.871812 0.626431 2.191274 0.055108 -0.026102 -655804.000000 0 0 1
-36.733087 -27.122629 -32.995133 56.335029 0.636017 2.196533 0.070984 -0.037984 371244.000000 0 0 1
38.049168 -27.574399 -32.814703 57.313972 -0.627114 2.180400 0.079965 -0.034463 248608.000000 0 0 1
37.728908 -28.784799 -33.476893 58.075275 -0.651730 2.185161 0.076142 -0.039022 27543.500000 0 0 1
-37.724827 -30.090439 -32.922003 58.416225 0.673294 2.169505 0.077229 -0.042114 -215886.000000 0 0 1
37.937408 -30.523209 -31.660363 58.080046 -0.677520 2.147324 0.080105 -0.045825 -171559.000000 0 0 1
-37.521307 -31.655179 -31.215683 58.174889 0.700801 2.137179 0.073900 -0.041042 -368590.000000 0 0 1
-38.014277 -32.070799 -29.858633 58.009994 0.700797 2.111472 0.062792 -0.039571 70806.900000 0 0 1
36.948968 -32.876939 -29.831223 57.758300 -0.727147 2.113536 0.084284 -0.035948 25263.600000 0 0 1
36.502748 -33.037289 -28.531163 56.902903 -0.735605 2.096013 0.086895 -0.032264 -152632.000000 0 0 1
35.243328 33.553697 -28.520373 56.403497 0.760843 2.100930 0.092570 -0.033815 -132895.000000 0 0 1
34.104368 -33.484949 -29.214163 56.016221 -0.776234 2.119440 0.101329 -0.038765 5728.950000 0 0 1
32.894718 33.385768 -28.756023 54.987097 0.792807 2.121116 0.092263 -0.029575 226141.000000 0 0 1
31.695828 -33.641299 -29.579993 54.875664 -0.815165 2.140089 0.073527 -0.024794 -442655.000000 0 0 1
31.538498 33.337239 -30.919103 55.335696 0.813117 2.163680 0.070870 -0.025918 -473330.000000 0 0 1
30.239608 33.485567 -31.422853 54.982841 0.836291 2.179132 0.077568 -0.017350 -244614.000000 0 0 1
29.990208 32.667591 -32.716233 55.108402 0.828102 2.206409 0.070130 -0.029312 71912.000000 0 0 1
29.745208 31.290957 -32.540783 54.062963 0.810718 2.216681 0.061038 -0.027964 -56353.800000 0 0 1
29.644508 30.715457 33.630096 54.343532 0.803139 0.903528 0.072148 -0.029365 -48878.900000 0 0 1
29.748408 29.183807 33.695096 53.591248 0.775818 0.890861 0.072178 -0.038103 -236950.000000 0 0 1
31.083908 28.850297 -33.513213 54.052608 0.748148 2.239553 0.070398 -0.033489 -639701.000000 0 0 1
31.299568 27.448107 -33.429193 53.390753 0.719932 2.247368 0.064122 -0.028534 -1191360.000000 0 0 1
32.743928 27.058597 -33.405833 54.039635 0.690615 2.237212 0.083453 -0.025610 -1330540.000000 0 0 1
33.291038 27.390167 -32.192053 53.803743 0.688459 2.212204 0.095191 -0.030155 32019.500000 0 0 1
34.422558 26.598867 -31.806803 53.889562 0.657882 2.202130 0.103668 -0.032172 660294.000000 0 0 1
35.161818 26.997077 -30.499293 53.808944 0.654793 2.173421 0.103948 -0.037300 -71647.900000 0 0 1
35.998918 28.188107 -30.487993 54.954610 0.664305 2.158901 0.095081 -0.030035 312700.000000 0 0 1
35.465668 29.503077 -30.709803 55.419646 0.693878 2.158116 0.090222 -0.016263 -613794.000000 0 0 1
34.356468 29.883057 -29.732313 54.381747 0.715874 2.149254 0.092444 -0.011994 -479233.000000 0 0 1
34.726988 30.064607 -28.403383 54.005522 0.713562 2.124610 0.088071 -0.018291 290962.000000 0 0 1
33.638068 30.092197 -27.475383 52.838969 0.729817 2.117628 0.100988 -0.024651 611009.000000 0 0 1
34.166978 30.387727 -25.998043 52.599378 0.726922 2.087786 0.118766 -0.022840 372707.000000 0 0 1
34.899978 31.595159 -25.921883 53.742037 0.735739 2.074119 0.105598 -0.019882 580328.000000 0 0 1
35.637278 31.650178 -24.630333 53.650747 0.726213 2.047763 0.097188 -0.025065 290875.000000 0 0 1
36.047308 33.146839 -24.396533 54.711170 0.743505 2.032993 0.102634 -0.022087 454393.000000 0 0 1
34.923688 -33.431369 -24.206333 54.067245 -0.763570 2.034997 0.111686 -0.020048 472831.000000 0 0 1
35.180118 -32.095629 -23.943333 53.301532 -0.739582 2.036672 0.096123 -0.024512 -743389.000000 0 0 1
35.609038 -31.283799 -25.158603 53.662230 -0.720829 2.058765 0.082131 -0.026418 123801.000000 0 0 1
36.864398 -31.462269 -25.800073 54.904480 -0.706499 2.059983 0.086501 -0.029258 -334208.000000 0 0 1
37.806808 -30.622859 -25.202923 54.793262 -0.680798 2.048751 0.086083 -0.025046 -1392310.000000 0 0 1
-36.911177 -30.839949 -25.721513 54.544786 0.696026 2.061863 0.068985 -0.018392 -338668.000000 0 0 1
-36.229617 -32.105829 -25.417703 54.675671 0.725125 2.054297 0.064150 -0.019882 216091.000000 0 0 1
-36.036417 -32.539239 -24.089833 54.200973 0.734445 2.031361 0.070415 -0.014297 392494.000000 0 0 1
-34.769883 -31.930519 -23.358833 52.670085 0.742855 2.030289 0.049662 -0.012391 715255.000000 0 0 1
-34.853485 -30.556209 -23.302933 51.879418 0.719795 2.036638 0.031802 -0.009523 -232081.000000 0 0 1
-34.385188 -30.095989 -22.085533 50.753133 0.718977 2.021008 0.051564 -0.015397 -491970.000000 0 0 1
-34.345731 -28.570169 -21.942833 49.773203 0.693857 2.027349 0.059213 0.001763 422400.000000 0 0 1
-35.630260 -27.984579 -22.124833 50.419841 0.665785 2.025073 0.034873 0.001724 103596.000000 0 0 1
-36.027717 -27.840069 -23.449733 51.214801 0.657897 2.046394 0.041746 -0.010055 -635891.000000 0 0 1
-37.288057 -26.995099 -23.682033 51.768458 0.626627 2.045934 0.043103 -0.009817 -161306.000000 0 0 1
-37.245847 -25.658769 -23.216533 50.839285 0.603239 2.045039 0.038715 -0.012111 -32664.100000 0 0 1
37.953978 -24.930439 -24.041033 51.380955 -0.581182 2.057707 0.049196 -0.017316 320765.000000 0 0 1
-37.644597 -24.440839 -25.437313 51.589991 0.575849 2.086408 0.051097 -0.015319 -31183.400000 0 0 1
-36.485157 -23.631939 -25.271073 50.281829 0.574766 2.097387 0.037643 -0.021560 -84081.200000 0 0 1
-36.229867 -23.081539 -26.504713 50.476336 0.567243 2.123619 0.039928 -0.016595 -813305.000000 0 0 1
-34.959807 -22.274839 -26.401063 49.146441 0.567293 2.137900 0.050603 -0.023894 -1072560.000000 0 0 1
-34.982742 -21.000939 -25.733033 48.239203 0.540657 2.133466 0.073102 -0.021705 -248539.000000 0 0 1
-35.605541 -19.909439 -26.374763 48.577448 0.509854 2.144733 0.090143 -0.018456 701638.000000 0 0 1
-37.026477 -19.524939 -25.795163 49.168828 0.485267 2.123070 0.114084 -0.025516 870318.000000 0 0 1
-37.026717 -19.013739 -24.460233 48.278391 0.474400 2.102091 0.107221 -0.038421 -316956.000000 0 0 1
-36.547717 -19.808939 -23.384633 47.696653 0.496682 2.083205 0.064011 -0.035737 -112367.000000 0 0 1
-37.515337 -20.858339 -22.749533 48.579955 0.507434 2.058151 0.064468 -0.023086 -170842.000000 0 0 1
37.589428 -20.248239 -22.007033 48.034007 -0.494102 2.046715 0.083334 -0.022963 -603111.000000 0 0 1
36.986008 -21.351539 -21.446033 47.788967 -0.523551 2.036180 0.069811 -0.004063 -615879.000000 0 0 1
35.909668 -21.125639 -20.373833 46.377688 -0.531772 2.025618 0.084443 -0.013656 -329256.000000 0 0 1
34.713898 -20.593539 -20.874533 45.441112 -0.535431 2.048088 0.103078 -0.007428 -93057.300000 0 0 1
33.610388 -21.115539 -20.138533 44.509377 -0.560929 2.040314 0.079837 -0.008481 -62299.700000 0 0 1
32.234908 -20.814539 -20.725733 43.610668 -0.573356 2.066038 0.090454 -0.017392 -1024440.000000 0 0 1
31.890408 -21.611339 -21.853233 44.290088 -0.595585 2.086804 0.085536 -0.007712 -505860.000000 0 0 1
30.624708 -21.382839 -22.370733 43.537894 -0.609532 2.110430 0.109882 -0.014445 -560463.000000 0 0 1
30.485308 -20.080439 -23.145633 43.223817 -0.582462 2.135876 0.109243 -0.015088 -478320.000000 0 0 1
30.549208 -18.937339 -22.347533 42.323624 -0.554921 2.127058 0.109895 -0.015595 -114920.000000 0 0 1
30.784408 -17.742639 -23.125333 42.394127 -0.522849 2.147763 0.089402 -0.008347 40013.000000 0 0 1
31.447908 -16.560039 -22.342133 41.980671 -0.484690 2.131994 0.091239 -0.007459 -35843.600000 0 0 1
30.664108 -16.015139 -21.265533 40.607821 -0.481309 2.121962 0.075548 -0.012329 158847.000000 0 0 1
31.328748 -15.175639 -20.354833 40.325051 -0.451090 2.099911 0.058562 -0.014560 -210643.000000 0 0 1
32.410268 -15.782439 -19.426633 40.950030 -0.453160 2.065077 0.082438 -0.022826 -241788.000000 0 0 1
33.578138 -16.121939 -20.093433 42.322031 -0.447627 2.065504 0.079390 -0.022664 -112327.000000 0 0 1
34.462928 -16.950239 -19.312633 42.988159 -0.457098 2.036727 0.078743 -0.021450 -145997.000000 0 0 1
35.690238 -17.434939 -20.049133 44.494246 -0.454411 2.038234 0.091754 -0.038090 122761.000000 0 0 1
36.655028 -16.415539 -20.403733 45.048566 -0.421055 2.040843 0.104019 -0.047211 917115.000000 0 0 1
37.795928 -16.987139 -21.013933 46.461602 -0.422391 2.040123 0.121808 -0.051752 -300097.000000 0 0 1
-37.359417 -16.060039 -21.711433 46.098126 0.405996 2.061201 0.135980 -0.055356 -529544.000000 0 0 1
-36.501887 -15.334939 -20.894233 44.767366 0.397725 2.056385 0.154734 -0.061702 -44769.600000 0 0 1
-35.880342 -14.239639 -21.594133 44.232034 0.377801 2.080824 0.161062 -0.052052 -406417.000000 0 0 1
-34.521170 -13.745239 -21.035233 42.698054 0.378926 2.085930 0.167727 -0.049766 467698.000000 0 0 1
-33.347217 -14.479739 -21.307733 42.139283 0.409647 2.100932 0.168284 -0.056674 369195.000000 0 0 1
-33.304297 -15.596239 -20.462733 42.084942 0.437964 2.078560 0.149400 -0.054894 -513222.000000 0 0 1
-32.142907 -16.528839 -20.898333 41.750561 0.474966 2.095033 0.119780 -0.056471 180309.000000 0 0 1
-32.085047 -17.763339 -20.172833 41.856059 0.505628 2.073684 0.135511 -0.070037 264005.000000 0 0 1
-30.991357 -18.594139 -20.543033 41.571895 0.540403 2.087661 0.139120 -0.067552 45664.500000 0 0 1
-31.202847 -20.002439 -19.963333 42.098098 0.570054 2.064863 0.120065 -0.020083 130465.000000 0 0 1
-32.217757 -20.790939 -20.586533 43.520712 0.573082 2.063521 0.109978 -0.034675 382082.000000 0 0 1
-32.274697 -22.037939 -20.035233 43.917393 0.599105 2.044520 0.089583 -0.011365 583455.000000 0 0 1
-33.344617 -22.986139 -20.735033 45.499095 0.603543 2.043982 0.056588 -0.023897 456376.000000 0 0 1
-33.019167 -23.389639 -22.023133 46.069068 0.616318 2.069225 0.061952 -0.026784 151120.000000 0 0 1
-33.929947 -24.380339 -22.531633 47.469113 0.623067 2.065373 0.045791 -0.014874 316957.000000 0 0 1
-33.583237 -24.600939 -24.025833 48.065379 0.632230 2.094230 0.038004 -0.013924 -298975.000000 0 0 1
-32.379487 -25.270099 -24.251633 47.698541 0.662697 2.104163 0.054741 -0.023341 -554432.000000 0 0 1
-32.047217 -25.308499 -25.612603 48.203212 0.668444 2.130985 0.045755 -0.014651 -86808.800000 0 0 1
-30.621887 -25.803239 -25.888983 47.683818 0.700206 2.144719 0.065836 -0.022219 9222.610000 0 0 1
-29.589737 -24.856239 -25.805073 46.468128 0.698677 2.159554 0.088776 -0.034243 -377620.000000 0 0 1
-28.281287 -25.374689 -25.884203 45.974971 0.731280 2.168815 0.087622 -0.029187 633880.000000 0 0 1
-27.282527 -24.191239 -26.121933 44.854294 0.725415 2.192441 0.103525 -0.032325 155161.000000 0 0 1
-27.555367 -23.577539 -27.373643 45.436933 0.707761 2.217368 0.108070 -0.034476 -358488.000000 0 0 1
-26.745097 -22.459139 -27.475793 44.436835 0.698512 2.237388 0.115982 -0.030179 -29065.100000 0 0 1
-26.565527 -21.930639 -28.958923 45.003326 0.690115 2.269838 0.091455 -0.025071 17267.400000 0 0 1
-25.773117 -22.764639 -29.777633 45.488348 0.723495 2.284478 0.090983 -0.013136 128285.000000 0 0 1
-25.664277 -22.096139 -31.030573 45.932461 0.710828 2.312533 0.084736 -0.012510 -88539.900000 0 0 1
-25.018427 -23.093039 -32.091123 46.787288 0.745400 2.326628 0.074347 -0.018936 273547.000000 0 0 1
-25.964767 -23.897739 -32.779213 48.163761 0.743967 2.319348 0.060645 -0.016196 -77970.400000 0 0 1
-25.415027 -25.113609 -33.250733 48.808075 0.779433 2.320272 0.074891 -0.004195 198704.000000 0 0 1
-20.259947 -14.787239 -11.785533 27.713294 0.630497 2.010053 0.106897 0.002990 159342.000000 0 0 1
-20.706147 -14.043339 -10.607933 27.175138 0.595959 1.971813 0.121108 -0.001697 263016.000000 0 0 1
-19.788947 -14.223639 -9.550333 26.174858 0.623210 1.944286 0.111025 -0.014106 -62416.200000 0 0 1
-20.250347 -13.736639 -8.145833 25.790045 0.596041 1.892151 0.147537 -0.038899 -528993.000000 0 0 1
-21.299047 -14.539039 -7.721733 26.919477 0.598962 1.861729 0.176748 -0.037347 -4776.010000 0 0 1
-22.011547 -14.105739 -6.563233 26.954705 0.569904 1.816760 0.165594 -0.044297 157409.000000 0 0 1
-23.161347 -15.069539 -6.181133 28.315109 0.576820 1.790866 0.155980 -0.043706 -347835.000000 0 0 1
-22.856347 -16.170639 -5.374833 28.509489 0.615735 1.760459 0.141430 -0.042209 303210.000000 0 0 1
-22.743247 -15.968639 -4.005433 28.076613 0.612152 1.713946 0.159979 -0.043477 -164477.000000 0 0 1
-22.577947 -17.221439 -3.145133 28.569801 0.651614 1.681106 0.136306 -0.033301 -416434.000000 0 0 1
-23.759647 -17.946939 -3.007333 29.927537 0.646919 1.671453 0.135507 -0.032593 -81714.900000 0 0 1
-23.573247 -19.047939 -2.211333 30.387694 0.679619 1.643631 0.129689 -0.029798 -173082.000000 0 0 1
-24.799747 -19.956539 -2.333133 31.917619 0.677605 1.643960 0.137680 -0.050440 -299418.000000 0 0 1
-24.812847 -20.714439 -3.479033 32.509522 0.695619 1.678017 0.122788 -0.050753 -234724.000000 0 0 1
-25.876967 -21.613239 -3.641733 33.911823 0.695857 1.678392 0.132014 -0.044672 -99068.000000 0 0 1
-25.465247 -22.770439 -4.605933 34.470078 0.729589 1.704818 0.135238 -0.050082 -291509.000000 0 0 1
-24.417647 -23.577739 -4.123433 34.192601 0.767900 1.691685 0.158683 -0.045851 -305466.000000 0 0 1
-23.795047 -24.377639 -5.113133 34.447317 0.797491 1.719780 0.158909 -0.042722 425587.000000 0 0 1
-22.326047 -23.938039 -5.369033 33.170900 0.820227 1.733371 0.137712 -0.033968 -89235.300000 0 0 1
-22.116247 -22.695539 -5.993233 32.251119 0.798325 1.757713 0.111284 -0.023069 50449.200000 0 0 1
-22.086647 -21.617839 -5.084533 31.320974 0.774672 1.733854 0.114275 -0.022587 -702887.000000 0 0 1
-21.764547 -20.314039 -5.865433 30.344011 0.750940 1.765319 0.111820 -0.007140 722858.000000 0 0 1
-20.445247 -20.006339 -6.334633 29.298281 0.774548 1.788729 0.103852 0.001486 669006.000000 0 0 1
-20.465547 -18.738539 -6.852333 28.581916 0.741375 1.812898 0.096176 -0.002286 382542.000000 0 0 1
-19.300147 -18.489339 -7.853433 27.857274 0.763946 1.856588 0.132966 -0.004932 -101513.000000 0 0 1
-19.328647 -19.356539 -8.972633 28.788545 0.786119 1.887750 0.139467 -0.009584 474919.000000 0 0 1
-18.185447 -19.362239 -9.847033 28.329681 0.816729 1.925793 0.155957 -0.004787 198664.000000 0 0 1
-17.946947 -18.009739 -10.671833 27.574111 0.787144 1.968198 0.142993 -0.003099 26577.700000 0 0 1
-17.410647 -16.957339 -9.869733 26.231538 0.772209 1.956547 0.138715 -0.010802 -302655.000000 0 0 1
-16.094347 -17.038539 -9.416333 25.258803 0.813888 1.952815 0.138503 -0.011838 -699311.000000 0 0 1
-15.704347 -15.868839 -8.508433 23.892258 0.790608 1.934905 0.100283 -0.016879 157347.000000 0 1 0
-16.437447 -16.027539 -7.301333 24.091101 0.772773 1.878711 0.097704 -0.018685 373563.000000 0 1 0
-16.632047 -14.785439 -6.623833 23.218729 0.726689 1.860095 0.116242 -0.027379 55704.500000 0 1 0
-17.412747 -14.945639 -5.304533 23.552366 0.709302 1.797968 0.130192 -0.043891 -91329.200000 0 1 0
-17.877447 -13.803539 -4.696333 23.069381 0.657508 1.775804 0.116539 -0.034689 -31639.500000 0 1 0
-18.589147 -14.130239 -3.544933 23.617506 0.649955 1.721463 0.119298 -0.027867 133479.000000 0 1 0
-19.559947 -12.967739 -3.123633 23.675111 0.585442 1.703120 0.145811 -0.022797 -495566.000000 0 1 0
-20.823247 -12.952339 -3.719133 24.803279 0.556449 1.721309 0.174820 -0.043329 -163639.000000 0 1 0
-21.443947 -11.809439 -3.120233 24.678768 0.503390 1.697570 0.163480 -0.019439 -369388.000000 0 1 0
-22.979347 -11.875039 -3.226633 26.066801 0.476973 1.694898 0.134868 -0.013227 -314920.000000 0 0 1
-23.423047 -11.369039 -4.471533 26.417585 0.451882 1.740879 0.149848 -0.042811 -349485.000000 0 0 1
-24.764347 -11.665539 -4.685233 27.772452 0.440230 1.740308 0.141933 -0.024507 -612091.000000 0 0 1
-25.269307 -11.254639 -6.098533 28.326611 0.419012 1.787789 0.146438 -0.043164 -102174.000000 0 0 1
-25.167087 -12.283239 -7.053633 28.879300 0.454056 1.817538 0.135584 -0.041047 96038.900000 0 0 1
-25.483247 -11.765839 -8.329633 29.278211 0.432548 1.859281 0.148946 -0.042008 -139221.000000 0 0 1
-24.302547 -11.859839 -9.321033 28.603343 0.454008 1.902730 0.141186 -0.053358 -343384.000000 0 0 1
-23.378347 -10.856239 -9.052433 27.319436 0.434741 1.908536 0.144710 -0.048455 -44642.200000 0 0 1
-22.175047 -11.119539 -9.759433 26.657520 0.464802 1.945616 0.131189 -0.046174 -429671.000000 0 0 1
-21.020047 -10.162639 -9.581333 25.237344 0.450339 1.960213 0.141860 -0.053140 -595969.000000 0 0 1
-21.317147 -8.921039 -10.117933 25.226539 0.396345 1.983495 0.129784 -0.054188 281435.000000 0 0 1
-20.327147 -8.011439 -9.737733 23.920692 0.375432 1.990056 0.137390 -0.043430 -461573.000000 0 1 0
-20.285647 -6.699839 -10.629633 23.861777 0.318995 2.032492 0.155713 -0.052204 -332256.000000 0 1 0
-19.702047 -6.896239 -11.861533 24.008847 0.336698 2.087536 0.142228 -0.042761 271047.000000 0 1 0
-19.645147 -5.714539 -12.615233 24.036053 0.283076 2.123331 0.151711 -0.050087 -209638.000000 0 1 0
-18.933647 -5.838839 -13.968833 24.242593 0.299131 2.184881 0.171596 -0.050717 -724598.000000 0 1 0
-19.652847 -6.490139 -14.917533 25.512528 0.318963 2.195324 0.159077 -0.055590 -440247.000000 0 0 1
-19.066147 -6.604839 -16.197633 25.874798 0.333479 2.247210 0.176056 -0.067158 -315920.000000 0 0 1
-19.856347 -7.486639 -17.156733 27.288785 0.360558 2.250690 0.142369 -0.054386 -610110.000000 0 0 1
-21.166147 -7.120139 -17.501133 28.372378 0.324502 2.235514 0.122557 -0.053363 140489.000000 0 0 1
-21.545847 -7.897239 -18.596433 29.536710 0.351326 2.251840 0.115653 -0.046928 1155890.000000 0 0 1
-23.012947 -7.498439 -19.104433 30.835072 0.314988 2.238989 0.106093 -0.042493 772021.000000 0 0 1
-23.061347 -6.469339 -20.118633 31.279985 0.273498 2.269439 0.111608 -0.042749 1428890.000000 0 0 1
-24.387247 -6.257639 -20.663433 32.571050 0.251176 2.258043 0.085546 -0.041017 2551450.000000 0 0 1
-25.636267 -5.835739 -19.735133 32.874755 0.223822 2.214688 0.128252 -0.040580 725745.000000 0 0 1
-25.691767 -4.513939 -19.204033 32.391935 0.173921 2.205408 0.138696 -0.038009 476489.000000 0 0 1
-26.841447 -4.426439 -18.360233 32.820037 0.163440 2.164484 0.144227 -0.026533 -44149.700000 0 0 1
-27.089027 -2.980339 -17.902433 32.606670 0.109579 2.152014 0.141322 -0.023427 23852.900000 0 0 1
-27.474187 -2.073739 -18.947633 33.438662 0.075337 2.173217 0.146778 -0.012463 315193.000000 0 0 1
-28.789967 -2.211139 -19.450633 34.814917 0.076652 2.163598 0.161019 -0.006389 135462.000000 0 0 1
-29.317817 -0.969939 -20.269133 35.655476 0.033072 2.175443 0.158927 -0.011846 43333.000000 0 0 1
-28.683707 -0.913039 -21.513133 35.866469 0.031821 2.214062 0.154520 -0.009970 21955.900000 0 0 1
-29.416737 -1.559039 -22.558533 37.103402 0.052949 2.224324 0.151580 -0.010933 -200561.000000 0 0 1
-28.779137 -1.507439 -23.952233 37.472931 0.052332 2.264238 0.137046 -0.015985 -347674.000000 0 0 1
-28.688367 -0.216239 -24.606633 37.796237 0.007537 2.279742 0.150848 -0.008352 345463.000000 0 0 1
-27.940477 0.817261 -23.961833 36.817219 -0.029242 2.279476 0.137651 -0.001875 825879.000000 0 0 1
-26.394817 0.771961 -23.694533 35.478348 -0.029238 2.302125 0.147161 -0.001709 958969.000000 0 0 1
-25.575437 0.819861 -24.861433 35.677248 -0.032046 2.341782 0.133490 -0.010117 -315360.000000 0 0 1
-24.230347 0.567761 -24.556733 34.503119 -0.023428 2.362747 0.117905 -0.008725 -222906.000000 0 0 1
-23.456847 -0.002939 -25.748853 34.831410 0.000125 2.402741 0.111725 -0.012278 -204302.000000 0 0 1
-23.275747 0.890461 -26.825243 35.526708 -0.038238 2.426561 0.087041 -0.007456 -155951.000000 0 0 1
-22.375547 0.345161 -27.733773 35.636307 -0.015425 2.462662 0.084527 -0.010577 -183565.000000 0 0 1
-21.871547 1.277861 -28.855043 36.229974 -0.058359 2.492183 0.072498 -0.001450 -284040.000000 0 0 1
-21.049247 2.373261 -28.481873 35.495356 -0.112274 2.502121 0.089844 -0.005980 160306.000000 0 0 1
-20.885347 3.330861 -29.504053 36.301260 -0.158151 2.519663 0.070993 -0.007446 -185775.000000 0 0 1
-20.275547 2.933661 -30.841023 37.025301 -0.143692 2.555253 0.058898 -0.007039 -1081680.000000 0 0 1
-18.895747 2.828861 -30.714983 36.172668 -0.148605 2.585116 0.066736 -0.006957 -1011900.000000 0 0 1
-18.426947 2.084261 -31.786743 36.800728 -0.112631 2.613467 0.054388 -0.008241 -920914.000000 0 0 1
-16.930747 1.889061 -31.809793 36.084369 -0.111116 2.649909 0.069923 -0.020051 -828616.000000 0 0 1
-16.212547 3.083061 -32.016883 36.019894 -0.187921 2.665662 0.073463 -0.016196 311798.000000 0 0 1
-14.824547 2.883861 -32.281343 35.639430 -0.192133 2.704004 0.073751 -0.015646 679977.000000 0 0 1
-14.083247 4.225361 -32.534803 35.703010 -0.291482 2.717135 0.081919 -0.016823 -107164.000000 0 0 1
-13.981947 5.037261 -31.416053 34.753953 -0.345794 2.699729 0.092831 -0.036013 -194288.000000 0 0 1
-13.297547 6.177661 -31.774583 34.994462 -0.434905 2.709255 0.118535 -0.016361 -304897.000000 0 0 1
-12.865647 7.184761 -30.624073 33.984990 -0.509304 2.693110 0.119343 -0.031639 -109571.000000 0 0 1
-11.670547 6.837461 -29.953643 32.865990 -0.529967 2.717439 0.139223 -0.049269 -24383.800000 0 0 1
-11.756847 5.885961 -28.895953 31.746560 -0.464160 2.714581 0.139476 -0.046585 498354.000000 0 0 1
-10.461547 4.998261 -28.965143 31.199457 -0.445710 2.760843 0.154824 -0.066765 23285.100000 0 0 1
-10.080547 4.303561 -30.166873 32.096391 -0.403494 2.793086 0.142379 -0.065251 207986.000000 0 0 1
-10.933147 3.201961 -30.464653 32.525088 -0.284900 2.783739 0.141324 -0.057926 -226770.000000 0 0 1
-10.431747 2.344161 -31.605923 33.365413 -0.221042 2.815390 0.130357 -0.062878 -38053.400000 0 0 1
-11.263547 1.214361 -31.934063 33.884016 -0.107399 2.800687 0.123013 -0.052840 333496.000000 0 0 1
-10.813147 0.553561 -33.111823 34.837098 -0.051149 2.825560 0.106955 -0.037017 -414297.000000 0 0 1
-11.167247 1.248961 33.032342 34.891302 -0.111379 0.327898 0.120535 -0.034866 175002.000000 0 0 1
-12.563547 1.297761 32.796268 35.144304 -0.102931 0.367611 0.072142 -0.026568 -77522.600000 0 0 1
-12.871047 1.677961 31.463490 34.035725 -0.129636 0.391270 0.072198 -0.021347 -1257540.000000 0 0 1
-14.270547 1.462261 31.032576 34.187827 -0.102111 0.433006 0.076683 -0.015761 -710698.000000 0 0 1
-15.290147 2.380161 31.453101 35.053549 -0.154427 0.457211 0.089094 0.000207 -430982.000000 0 0 1
-16.526347 1.897661 31.118186 35.285447 -0.114326 0.490922 0.093095 -0.001750 -474474.000000 0 0 1
-17.764247 2.844861 31.091116 35.921013 -0.158797 0.524566 0.095608 0.013554 500778.000000 0 0 1
-18.157647 3.479561 32.319226 37.233585 -0.189335 0.519610 0.089482 0.003757 486128.000000 0 0 1
-17.396347 4.673261 32.604248 37.249285 -0.262439 0.504743 0.081454 0.010509 186414.000000 0 0 1
-18.116947 5.555761 33.652696 38.621163 -0.297557 0.512842 0.080080 0.004296 453361.000000 0 0 1
-19.366247 6.111061 33.284492 38.990435 -0.305663 0.547828 0.070027 0.001800 370522.000000 0 0 1
-20.408147 5.603661 -33.319873 39.472870 -0.267975 2.575720 0.060555 -0.001396 1036560.000000 0 0 1
-21.794247 6.332561 -33.373043 40.359021 -0.282775 2.544376 0.046000 -0.002231 539271.000000 0 0 1
-21.807947 7.681661 -32.932583 40.238657 -0.338670 2.529472 0.059169 -0.004227 -85171.200000 0 0 1
-21.420847 8.615561 33.525566 40.706807 -0.382405 0.603091 0.046609 -0.005396 -188361.000000 0 0 1
-21.066647 10.001361 -33.339773 40.686255 -0.443243 2.531222 0.055771 -0.004060 -438597.000000 0 0 1
-19.859447 10.058161 -32.592283 39.469243 -0.468808 2.542352 0.075618 -0.003362 350709.000000 0 0 1
-19.446047 11.357061 -32.145883 39.249069 -0.528594 2.530502 0.085813 -0.007145 -166986.000000 0 0 1
-18.913547 12.239561 -33.233443 40.149606 -0.574356 2.545865 0.063922 -0.020287 -542278.000000 0 0 1
-19.819847 12.531361 33.139215 40.596415 -0.563805 0.615805 0.078628 -0.027436 64125.500000 0 0 1
-19.165947 12.741861 31.945031 39.372244 -0.586721 0.624323 0.089407 -0.032594 -252492.000000 0 0 1
-19.950047 12.162961 30.756436 38.625126 -0.547500 0.649675 0.091956 -0.041473 -412452.000000 0 0 1
-20.097747 10.750261 30.730236 38.260096 -0.491175 0.638161 0.075306 -0.023755 177798.000000 0 0 1
-18.930147 10.039561 30.334716 37.139443 -0.487630 0.614990 0.088578 -0.028159 261818.000000 0 0 1
-19.008247 8.477061 30.407866 36.848505 -0.419495 0.600217 0.099514 -0.011662 284227.000000 0 0 1
-19.761047 7.886961 29.336126 36.239639 -0.379745 0.627490 0.099043 -0.016773 298048.000000 0 0 1
-19.763647 6.478761 29.575366 36.156305 -0.316773 0.612895 0.086933 -0.008124 -76789.400000 0 0 1
-20.406447 5.734361 28.408006 35.444616 -0.273943 0.641037 0.088755 -0.011872 -597306.000000 0 0 1
-21.795247 5.870261 28.355226 36.242401 -0.263094 0.672323 0.109510 -0.025424 -745071.000000 0 0 1
-22.319647 4.943561 27.436026 35.711916 -0.217970 0.694678 0.099017 -0.030707 -217959.000000 0 0 1
-23.840647 4.822861 27.293956 36.559492 -0.199602 0.727916 0.079885 -0.024598 -208478.000000 0 0 1
-24.423347 5.808961 26.475656 36.485672 -0.233506 0.758825 0.072761 -0.027491 51632.300000 0 0 1
-25.813777 5.817161 26.276226 37.291159 -0.221649 0.788904 0.073856 -0.025101 -331336.000000 0 0 1
-26.246057 6.569461 24.993896 36.833520 -0.245264 0.824991 0.073020 -0.031164 -177941.000000 0 0 1
-25.926887 5.991061 23.767856 35.679227 -0.227089 0.841756 0.074254 -0.026142 880066.000000 0 0 1
-26.854347 4.919761 23.454176 35.992477 -0.181192 0.861050 0.072522 -0.024915 464774.000000 0 0 1
-26.894707 4.636361 21.961336 35.030293 -0.170711 0.893197 0.091291 -0.028077 -216233.000000 0 0 1
-27.750657 5.442961 21.218936 35.354887 -0.193679 0.927083 0.081935 -0.025673 -261663.000000 0 0 1
-27.854257 4.858561 19.933436 34.594900 -0.172691 0.956730 0.100831 -0.023678 -263310.000000 0 0 1
-28.706077 5.509961 18.863536 34.788382 -0.189638 0.997700 0.116225 -0.034634 -211707.000000 0 0 1
-30.075067 5.274161 19.053736 35.991267 -0.173601 1.012904 0.134495 -0.035136 -13396.900000 0 0 1
-30.951287 5.685961 18.008636 36.257734 -0.181681 1.051022 0.143749 -0.038730 723014.000000 0 0 1
-32.457207 5.717061 18.398036 37.744441 -0.174353 1.061644 0.142430 -0.035095 364216.000000 0 0 1
-32.750247 6.784761 19.203136 38.566463 -0.204277 1.049594 0.154879 -0.042216 -451622.000000 0 0 1
-34.119327 6.680261 19.485236 39.855098 -0.193345 1.059966 0.158908 -0.034376 -327894.000000 0 0 1
-34.689669 7.797361 20.389936 40.986845 -0.221100 1.050111 0.159376 -0.037644 -27445.300000 0 0 1
-34.371437 7.678561 21.740536 41.388488 -0.219791 1.017752 0.127233 -0.035593 4571.290000 0 0 1
-34.865883 8.733361 22.514026 42.412059 -0.245435 1.011205 0.139989 -0.035081 137993.000000 0 0 1
-0.443647 32.636961 11.746067 34.689165 -1.557204 1.225358 0.217833 -0.047497 233733.000000 0 0 1
-0.824247 32.747161 13.142667 35.295689 -1.545632 1.189247 0.210739 -0.048388 64267.800000 0 0 1
-0.364947 -33.474704 13.663067 36.157550 1.559895 1.183295 0.199632 -0.061565 96738.900000 0 0 1
-0.516247 -33.435704 15.209067 36.735930 1.555358 1.143941 0.204826 -0.056558 -77312.300000 0 0 1
-1.846047 -33.446804 15.659967 36.977441 1.515659 1.133490 0.172365 -0.043813 -362458.000000 0 0 1
-1.950947 -33.391504 17.071467 37.553079 1.512436 1.098878 0.162258 -0.045039 310810.000000 0 0 1
-3.388047 -33.013104 17.519567 37.527045 1.468527 1.085069 0.150175 -0.035682 397359.000000 0 0 1
-4.303847 33.379861 17.681667 38.018148 -1.442568 1.087066 0.172034 -0.032521 -44684.300000 0 0 1
-5.040747 33.604361 18.859367 38.863067 -1.421904 1.064116 0.129903 -0.019547 -430929.000000 0 0 1
-6.050147 32.466361 19.098567 38.150022 -1.386558 1.046484 0.123407 -0.020844 129917.000000 0 0 1
-7.170847 32.662261 18.237067 38.089828 -1.354680 1.071519 0.112238 -0.020257 -8065.450000 0 0 1
-8.213347 31.769461 18.578367 37.708268 -1.317806 1.055622 0.104168 -0.029168 -30017.800000 0 0 1
-9.249647 31.690661 17.430367 37.331912 -1.286812 1.085011 0.080786 -0.030312 91837.800000 0 0 1
-10.219447 32.725061 17.336167 38.417567 -1.268110 1.102624 0.076132 -0.018421 -57942.700000 0 0 1
-10.952647 32.510261 16.125467 37.906573 -1.245841 1.131392 0.061885 -0.016373 270278.000000 0 0 1
-12.047447 33.597661 15.929167 39.085575 -1.226498 1.151031 0.061853 -0.025228 -421270.000000 0 0 1
-13.112947 33.475361 16.801767 39.684362 -1.197449 1.133618 0.047648 -0.020094 -526654.000000 0 0 1
-13.996047 -32.889404 16.659767 39.435391 1.168461 1.134642 0.033151 -0.019745 143732.000000 0 0 1
-15.310547 -33.014504 17.454367 40.361185 1.136565 1.123583 0.069187 -0.023366 -66649.800000 0 0 1
-15.202947 -32.713404 18.847467 40.700411 1.135759 1.089331 0.069759 -0.019822 -55476.200000 0 0 1
-16.397047 -32.926804 19.577967 41.669346 1.108762 1.081686 0.069292 -0.029415 236238.000000 0 0 1
-16.199847 -32.550504 21.048967 42.012253 1.109004 1.046020 0.074552 -0.038835 -105471.000000 0 0 1
-15.947447 -31.166604 21.309667 40.985122 1.097845 1.024020 0.090861 -0.033652 120582.000000 0 0 1
-16.021847 -30.828304 22.642367 41.469998 1.091504 0.993221 0.090891 -0.039724 70332.300000 0 0 1
-15.988247 -29.274904 22.853067 40.433980 1.070920 0.970127 0.106750 -0.047086 -23377.400000 0 0 1
-16.296847 -28.862104 24.207067 41.043762 1.056779 0.940002 0.117904 -0.065276 -60772.600000 0 0 1
-16.220447 -27.472004 24.346667 40.131959 1.037439 0.918937 0.095185 -0.041423 458864.000000 0 0 1
-17.445147 -26.661504 23.776467 39.755369 0.991390 0.929706 0.105553 -0.030451 291143.000000 0 0 1
-18.558347 -26.679804 24.631467 40.779080 0.963033 0.922258 0.101137 -0.029839 158483.000000 0 0 1
-19.627147 -25.890204 24.092867 40.447420 0.922137 0.932711 0.097801 -0.021689 197683.000000 0 0 1
-20.709747 -25.496704 25.131167 41.358809 0.888629 0.917714 0.100342 -0.014050 200211.000000 0 0 1
-21.548747 -26.490804 25.714267 42.747336 0.887912 0.925368 0.109257 -0.019641 391051.000000 0 0 1
-22.349447 -27.311604 24.882267 43.180421 0.884988 0.956676 0.111379 -0.026753 -735887.000000 0 0 1
-23.666647 -26.704604 24.404867 43.230124 0.845637 0.970928 0.076283 -0.011236 -874544.000000 0 0 1
-23.632247 -25.500204 23.636767 42.040936 0.823399 0.973714 0.077982 -0.010177 -832058.000000 0 0 1
-24.808447 -25.343604 22.934367 42.234376 0.796068 0.996760 0.060975 -0.006017 -877448.000000 0 0 1
-25.119777 -23.828904 22.730467 41.418522 0.759032 0.989869 0.056103 0.005558 45878.200000 0 0 1
-25.611557 -23.250304 23.939367 42.066873 0.737111 0.965411 0.051045 0.004160 164347.000000 0 0 1
-26.150107 -21.949404 23.641467 41.527381 0.698286 0.965144 0.045102 0.006251 144633.000000 0 0 1
-26.843407 -21.238504 24.816167 42.278655 0.669352 0.943489 0.049145 0.006863 -146413.000000 0 0 1
-27.853827 -22.026804 25.375067 43.645272 0.669106 0.950356 0.031828 0.005435 96784.600000 0 0 1
-28.359097 -21.441004 26.602867 44.403464 0.647364 0.928399 0.035414 -0.005271 -1236710.000000 0 0 1
-29.292427 -22.301704 27.416167 45.902707 0.650724 0.930707 0.048431 -0.011073 -5504.520000 0 0 1
-30.689377 -22.278904 27.164767 46.648816 0.627930 0.949211 0.062635 -0.007592 528265.000000 0 0 1
-31.129197 -22.578104 25.889667 46.358091 0.627507 0.978254 0.048440 -0.000115 -982818.000000 0 0 1
-32.695107 -22.621504 25.877867 47.438028 0.605264 0.993800 0.065730 -0.017459 597529.000000 0 0 1
-33.371287 -23.006904 24.724667 47.479149 0.603591 1.023070 0.049296 -0.008663 96054.400000 0 0 1
-33.169697 -24.381704 24.487067 47.898985 0.633870 1.034189 0.039600 -0.005250 -598165.000000 0 0 1
-33.492737 -24.883304 23.029967 47.658385 0.638971 1.066456 0.050045 -0.001955 -443607.000000 0 0 1
-34.829801 -24.815704 22.650267 48.393892 0.619056 1.083725 0.072371 -0.012997 -590216.000000 0 0 1
-34.997847 -25.484404 21.412467 48.299047 0.629383 1.111485 0.070494 -0.005124 -374052.000000 0 0 1
-36.403567 -26.061204 21.195967 49.534585 0.621316 1.128626 0.084047 -0.004456 -252780.000000 0 0 1
-36.878447 -27.061204 22.087667 50.795607 0.633049 1.120942 0.079584 -0.004885 21219.300000 0 0 1
-36.110297 -28.218404 22.127467 50.890635 0.663327 1.120975 0.054259 -0.008441 -789810.000000 0 0 1
-36.353037 -29.343704 21.069667 51.249655 0.679108 1.147116 0.067210 -0.011636 -191370.000000 0 0 1
-36.147297 -29.046504 19.753267 50.403552 0.676908 1.168098 0.063185 -0.014832 324289.000000 0 0 1
-36.608377 -30.155704 18.993167 51.090901 0.689049 1.189900 0.060673 -0.009372 -197380.000000 0 0 1
-37.076207 -29.782504 17.571567 50.699139 0.676737 1.216868 0.073564 -0.011222 -28786.200000 0 0 1
-36.055877 -29.267104 16.674667 49.342012 0.681844 1.226068 0.107376 -0.020927 609813.000000 0 0 1
-36.511747 -28.640104 15.486967 48.920439 0.665161 1.248680 0.117219 -0.022115 -104253.000000 0 0 1
-37.037797 -29.593204 14.366967 49.537520 0.674131 1.276547 0.103755 -0.024028 496498.000000 0 0 1
-35.985517 -30.414404 13.847767 49.109613 0.701692 1.284943 0.092232 -0.028414 428822.000000 0 0 1
-36.335917 -31.219904 12.745267 49.572403 0.709812 1.310772 0.089315 -0.026569 -39564.300000 0 0 1
-36.725377 -30.571504 11.378767 49.120734 0.694208 1.337024 0.099152 -0.028462 -870305.000000 0 0 1
-37.980947 -30.032704 11.282167 49.717230 0.669063 1.341875 0.095566 -0.035914 -949659.000000 0 0 1
38.007518 -29.186304 10.151367 48.984304 -0.654865 1.362046 0.070363 -0.022053 -314737.000000 0 0 1
36.663318 -28.467404 10.032667 47.489435 -0.660218 1.357931 0.098980 -0.019907 -408089.000000 0 0 1
36.681898 -27.403404 9.036667 46.670864 -0.641614 1.375940 0.111733 -0.056108 479810.000000 0 0 1
35.501558 -26.607204 8.933467 45.256058 -0.643159 1.372093 0.092557 -0.049068 306650.000000 0 0 1
35.736228 -25.523804 7.860667 44.613145 -0.620211 1.393675 0.082756 -0.044289 156270.000000 0 0 1
36.463118 -24.428304 8.376967 44.681927 -0.590269 1.382200 0.097864 -0.051531 52112.600000 0 0 1
36.641338 -23.568004 7.275667 44.169829 -0.571586 1.405322 0.085607 -0.044869 91764.000000 0 0 1
37.384488 -22.258704 7.659567 44.178262 -0.537030 1.396537 0.096256 -0.042272 -20507.700000 0 0 1
36.550458 -21.399604 8.416167 43.182299 -0.529675 1.374642 0.102611 -0.048666 53826.100000 0 0 1
37.038978 -20.029804 8.526567 42.962557 -0.495734 1.371005 0.108150 -0.034432 486471.000000 0 0 1
36.107208 -19.062604 9.354967 41.888289 -0.485753 1.345566 0.101318 -0.027894 479967.000000 0 0 1
36.394868 -19.100804 10.778167 42.492306 -0.483307 1.314345 0.087169 -0.039282 494476.000000 0 0 1
35.519238 -18.288704 11.575567 41.594311 -0.475493 1.288776 0.100985 -0.025507 244745.000000 0 0 1
36.022988 -18.261704 13.017767 42.433569 -0.469189 1.258988 0.098903 -0.036321 -25009.600000 0 0 1
37.251768 -17.598004 13.208567 43.264884 -0.441331 1.260548 0.065053 -0.019872 178164.000000 0 0 1
37.730558 -17.720504 14.519967 44.141146 -0.439082 1.235611 0.068368 -0.008327 -675725.000000 0 0 1
-37.097557 -16.986804 14.823567 43.411040 0.429400 1.222316 0.090375 -0.022614 340815.000000 0 0 1
-35.951867 -17.508404 14.099367 42.401334 0.453190 1.231820 0.085779 -0.019051 2019480.000000 0 0 1
-34.718604 -16.863504 14.544967 41.247004 0.452158 1.210415 0.077808 -0.020314 848148.000000 0 0 1
-33.545187 -16.946304 13.586167 39.962992 0.467782 1.223913 0.099344 -0.020528 -166997.000000 0 0 1
-32.862567 -18.241404 13.473567 39.927862 0.506736 1.226592 0.100529 -0.023630 667274.000000 0 0 1
-31.794277 -18.058704 12.542267 38.656194 0.516547 1.240359 0.113761 -0.029958 104900.000000 0 0 1
-31.028347 -19.396504 12.438667 38.648456 0.558687 1.243123 0.094309 -0.028400 193004.000000 0 0 1
-31.654407 -20.289404 11.492067 39.315760 0.569998 1.274163 0.096034 -0.026976 109910.000000 0 0 1
-30.695087 -21.140304 10.904167 38.832997 0.603115 1.286173 0.090627 -0.032792 -282521.000000 0 0 1
-31.295737 -21.928004 9.745967 39.436587 0.611176 1.321079 0.090682 -0.028493 1049100.000000 0 0 1
-32.286137 -22.927404 10.079967 40.861550 0.617493 1.321537 0.088827 -0.031998 428421.000000 0 0 1
-33.605627 -22.517504 10.351767 41.755661 0.590342 1.320271 0.105175 -0.038639 -235172.000000 0 0 1
-34.554750 -23.757904 10.424767 43.210468 0.602317 1.327137 0.132226 -0.043067 132935.000000 0 0 1
-34.916381 -24.333004 9.159167 43.533195 0.608638 1.358817 0.103358 -0.034664 -191957.000000 0 0 1
-35.652830 -25.498504 9.395267 44.828217 0.620847 1.359647 0.107774 -0.027575 -73037.400000 0 0 1
-35.870975 -26.423504 8.189267 45.298924 0.634887 1.389014 0.099316 -0.030236 -19403.200000 0 0 1
-34.702715 -26.863704 7.538067 44.528188 0.658754 1.400690 0.092873 -0.027359 -249442.000000 0 0 1
-34.978036 -27.679204 6.410767 45.063280 0.669433 1.428051 0.079115 -0.015491 -182090.000000 0 0 1
-33.720137 -27.969404 5.580467 44.164203 0.692446 1.444100 0.068506 -0.007901 41591.700000 0 0 1
-33.072967 -26.898304 4.956767 42.917473 0.682799 1.455043 0.076623 0.001521 67939.100000 0 0 1
-31.821327 -27.211604 4.374467 42.097556 0.707469 1.466696 0.096955 -0.013918 525034.000000 0 0 1
-30.947957 -26.099104 3.744267 40.656596 0.700605 1.478571 0.076422 -0.013731 302043.000000 0 0 1
-31.428547 -25.578104 2.522567 40.599955 0.683129 1.508624 0.090623 -0.017135 -267265.000000 0 0 1
-30.569807 -24.569604 2.069767 39.274196 0.677006 1.518071 0.110032 -0.043035 -204518.000000 0 0 1
-30.880457 -23.941004 0.679967 39.079875 0.659485 1.553396 0.129720 -0.040754 -213574.000000 0 0 1
-30.628127 -24.753604 -0.453933 39.383107 0.679720 1.582323 0.131040 -0.046656 -234578.000000 0 0 1
-30.770657 -24.098304 -1.671533 39.119760 0.664387 1.613538 0.142886 -0.045275 -179466.000000 0 0 1
-32.214407 -23.959604 -2.187533 40.207163 0.639492 1.625230 0.148479 -0.037881 -388475.000000 0 0 1
-32.945087 -22.954104 -1.605833 40.185176 0.608534 1.610768 0.135498 -0.031348 1168670.000000 0 0 1
-34.290569 -22.893104 -2.192833 41.288568 0.588663 1.623931 0.141540 -0.027098 1231110.000000 0 0 1
-35.069523 -21.663104 -1.856233 41.262660 0.553346 1.615797 0.131656 -0.024089 -528050.000000 0 0 1
-35.302119 -21.404404 -0.478133 41.287005 0.545054 1.582377 0.126491 -0.033999 192674.000000 0 0 1
-35.929423 -20.185204 -0.248233 41.211983 0.511859 1.576820 0.124709 -0.028630 -509086.000000 0 0 1
-36.201627 -19.927304 1.246167 41.342571 0.503191 1.540649 0.120302 -0.033182 -418153.000000 0 0 1
-37.084417 -20.812604 1.861367 42.566221 0.511418 1.527054 0.090029 -0.034732 -24266.100000 0 0 1
-37.191937 -20.466004 3.216067 42.572768 0.503059 1.495181 0.086708 -0.033628 -648310.000000 0 0 1
37.752198 -21.188804 3.889167 43.466303 -0.511447 1.481201 0.103613 -0.027014 49414.400000 0 0 1
36.487128 -20.972204 3.326267 42.216204 -0.521672 1.491923 0.081415 -0.019940 -230259.000000 0 0 1
35.821228 -19.796004 3.733667 41.097232 -0.504863 1.479821 0.086001 -0.024409 75384.200000 0 0 1
34.620738 -19.426504 2.755267 39.794171 -0.511343 1.501503 0.085217 -0.000376 1260400.000000 0 0 1
33.549288 -20.349304 3.029067 39.355103 -0.545221 1.493753 0.083837 -0.007177 -241982.000000 0 0 1
32.361928 -19.974504 2.393367 38.105163 -0.552987 1.507945 0.116553 -0.011351 486614.000000 0 0 1
31.123408 -20.907604 2.660967 37.588232 -0.591524 1.499945 0.107025 -0.002850 536718.000000 0 0 1
31.214368 -22.170604 1.951467 38.336415 -0.617585 1.519871 0.080062 -0.007756 108018.000000 0 0 1
30.182908 -23.110604 2.291867 38.083600 -0.653464 1.510580 0.084383 -0.004582 324968.000000 0 0 1
29.820608 -24.101104 1.213867 38.361509 -0.679723 1.539148 0.070382 -0.001291 116109.000000 0 0 1
28.998108 -23.572704 0.175467 37.371024 -0.682560 1.566101 0.068867 -0.008764 622285.000000 0 0 1
28.303808 -24.566704 -0.617833 37.483466 -0.714831 1.587280 0.050344 -0.010551 527126.000000 0 0 1
27.286308 -24.091504 -1.708433 36.439840 -0.723296 1.617697 0.055144 -0.017635 197926.000000 0 0 1
27.804008 -23.315004 -2.792033 36.392963 -0.697808 1.647591 0.051366 -0.026708 -137041.000000 0 0 1
28.525508 -23.979604 -3.800633 37.458922 -0.699033 1.672433 0.036157 -0.027474 -231142.000000 0 0 1
27.667808 -24.767004 -4.926833 37.459122 -0.730132 1.702704 0.032897 -0.022661 333226.000000 0 0 1
27.052008 -23.959504 -5.889033 36.613518 -0.724849 1.732341 0.040986 -0.040377 69319.800000 0 0 1
25.851308 -23.370204 -5.485633 35.278162 -0.735034 1.726926 0.069939 -0.044222 -620911.000000 0 0 1
25.150308 -22.397804 -6.542933 34.307574 -0.727574 1.762686 0.082513 -0.054104 30832.200000 0 0 1
24.632908 -23.116004 -7.659933 34.638193 -0.753640 1.793781 0.096082 -0.063340 473677.000000 0 0 1
23.442608 -22.713404 -8.304833 33.681224 -0.769601 1.819937 0.085736 -0.068285 -89781.400000 0 0 1
23.385208 -21.290204 -8.885033 32.849423 -0.738539 1.844685 0.090359 -0.062419 -639612.000000 0 0 1
24.061808 -21.113504 -10.127233 33.575460 -0.720227 1.877194 0.096188 -0.057786 291857.000000 0 0 1
23.883008 -19.811304 -10.666733 32.812574 -0.692480 1.901893 0.088628 -0.057729 288705.000000 0 0 1
24.749808 -19.669804 -12.000033 33.815011 -0.671529 1.933575 0.084867 -0.060431 414272.000000 0 0 1
26.130708 -19.662704 -11.710633 34.735785 -0.645083 1.914668 0.126982 -0.061666 -296216.000000 0 0 1
26.847108 -19.510004 -12.896833 35.605277 -0.628427 1.941442 0.122809 -0.065203 1286360.000000 0 0 1
28.430808 -19.667604 -12.856233 36.883712 -0.605182 1.926832 0.123166 -0.053809 1456420.000000 0 0 1
28.903208 -20.966404 -13.149133 38.051087 -0.627571 1.923637 0.098198 -0.050853 434110.000000 0 0 1
29.365108 -21.731904 -12.012833 38.456383 -0.637108 1.888489 0.123961 -0.056665 -395128.000000 0 0 1
29.709108 -23.154204 -12.433833 39.665457 -0.662031 1.889639 0.098666 -0.051029 409305.000000 0 0 1
30.887608 -23.161804 -13.282633 40.828199 -0.643420 1.902157 0.079622 -0.047419 1095450.000000 0 0 1
31.308808 -24.475004 -13.643633 42.016854 -0.663500 1.901510 0.071024 -0.036257 -13299.000000 0 0 1
-2.966647 -9.092439 -27.916113 29.509029 1.255411 2.811522 0.051552 -0.017644 21837.700000 0 0 1
-3.219947 -7.890939 -27.268873 28.569676 1.183364 2.838671 0.067077 -0.014384 -484415.000000 0 0 1
-4.324847 -7.202439 -27.755833 28.999408 1.030031 2.847678 0.069038 -0.018048 -494556.000000 0 0 1
-4.485247 -5.867239 -27.045303 28.035519 0.918107 2.875022 0.063293 -0.023671 -181180.000000 0 0 1
-5.045547 -5.907439 -25.758153 26.904234 0.863926 2.848661 0.051150 -0.023403 127228.000000 0 0 1
-4.936047 -4.612039 -25.187473 26.077658 0.751477 2.879555 0.056032 -0.020188 -30603.100000 0 0 1
-5.586647 -4.529639 -23.829533 24.891261 0.681290 2.848467 0.046583 -0.016023 82002.400000 0 1 0
-4.945047 -5.485539 -22.969133 24.127281 0.837170 2.830496 0.046850 -0.019266 654233.000000 0 1 0
-5.534947 -5.417539 -21.677833 23.019857 0.774679 2.798448 0.042171 -0.012919 136922.000000 0 1 0
-4.815547 -6.354439 -20.667033 22.151628 0.922307 2.773403 0.038818 -0.016508 -184605.000000 0 1 0
-5.169147 -7.679339 -20.809833 22.775897 0.978337 2.723039 0.033473 -0.012778 569615.000000 0 1 0
-4.391847 -8.572639 -19.981133 22.181617 1.097349 2.692398 0.036656 -0.019687 -916493.000000 0 1 0
-5.014547 -9.956539 -20.126933 23.008081 1.104238 2.635771 0.043116 -0.013371 242650.000000 0 1 0
-6.196747 -10.196339 -19.380133 22.758615 1.024703 2.589734 0.042765 -0.012808 949157.000000 0 1 0
-7.374947 -9.556339 -19.946633 23.314837 0.913530 2.597377 0.047951 -0.012580 -181772.000000 0 1 0
-8.536747 -9.584739 -18.930933 22.871893 0.843165 2.545783 0.054191 -0.007656 -660379.000000 0 1 0
-9.272847 -10.739439 -18.955633 23.677780 0.858552 2.499036 0.073536 -0.011420 -260449.000000 0 1 0
-9.991247 -10.959639 -17.767333 23.143397 0.831587 2.446050 0.076108 -0.008672 -5928.440000 0 1 0
-10.865747 -12.266639 -17.874133 24.249114 0.845884 2.399572 0.081154 0.002376 -253033.000000 0 1 0
-12.138147 -12.125839 -18.421033 25.173499 0.784891 2.391701 0.111977 -0.023259 -851677.000000 0 0 1
-12.196447 -12.076239 -19.840333 26.234094 0.780446 2.428405 0.121731 -0.029809 -1561580.000000 0 0 1
-13.560347 -11.669139 -20.436333 27.160551 0.710578 2.422535 0.134934 -0.032712 1132970.000000 0 0 1
-14.654047 -12.633939 -20.274533 28.025242 0.711504 2.379566 0.116229 -0.033526 986450.000000 0 0 1
-14.966947 -12.822539 -18.900033 27.306378 0.708385 2.335256 0.118707 -0.023296 -1909560.000000 0 0 1
-16.099447 -13.841739 -18.727933 28.311153 0.710136 2.293618 0.118735 -0.017018 -285894.000000 0 0 1
-15.718547 -15.126539 -19.174733 29.044023 0.766208 2.291875 0.120635 -0.024482 124564.000000 0 0 1
-16.415547 -15.517439 -20.355333 30.407247 0.757281 2.304229 0.127078 -0.022916 171195.000000 0 0 1
-16.123847 -16.926339 -20.775933 31.274891 0.809674 2.297354 0.079126 -0.011173 21561.600000 0 0 1
-16.544147 -17.902239 -19.847433 31.434369 0.824804 2.254144 0.097824 -0.008447 55116.600000 0 0 1
-16.284547 -19.212839 -20.340233 32.373519 0.867705 2.250160 0.078328 -0.007215 -100701.000000 0 0 1
-16.786347 -20.411039 -19.503533 32.844783 0.882536 2.206581 0.096506 -0.016832 -120028.000000 0 0 1
-16.530247 -21.547239 -20.238333 33.869200 0.916401 2.211231 0.084401 -0.013506 51130.700000 0 0 1
-17.086147 -22.691739 -19.666133 34.548636 0.925399 2.176366 0.101302 -0.015056 -70398.300000 0 0 1
-16.557647 -23.956939 -20.360933 35.533902 0.966040 2.180958 0.109957 -0.013443 -164858.000000 0 0 1
-16.997847 -24.270939 -21.640533 36.692205 0.959844 2.201590 0.061621 -0.007611 -145609.000000 0 0 1
-16.411147 -25.473279 -22.059533 37.481151 0.998474 2.200061 0.066472 -0.008907 -202872.000000 0 0 1
-17.067947 -26.053889 -23.321133 38.910091 0.990843 2.213497 0.064258 -0.012996 966847.000000 0 0 1
-18.412747 -26.570029 -23.162933 39.768293 0.964791 2.192532 0.085906 -0.016653 839452.000000 0 0 1
-18.544947 -27.974149 -23.143933 40.768980 0.985384 2.174487 0.096582 -0.012943 277750.000000 0 0 1
-19.333947 -28.643629 -24.374033 42.288917 0.977059 2.185075 0.101347 -0.022260 254055.000000 0 0 1
-18.686447 -28.612879 -25.651313 42.730200 0.992260 2.214683 0.098026 -0.016924 -33371.300000 0 0 1
-18.832547 -27.371849 -26.296153 42.371814 0.968152 2.240310 0.120451 -0.024993 -52212.200000 0 0 1
-17.754147 -27.030379 -27.344653 42.350693 0.989640 2.272699 0.114483 -0.022074 -471689.000000 0 0 1
-17.899447 -27.638979 -28.573063 43.597285 0.996099 2.285490 0.114901 -0.017237 22906.200000 0 0 1
-16.788647 -27.324219 -29.387873 43.498491 1.019839 2.312584 0.088052 -0.010594 42455.200000 0 0 1
-17.032247 -27.635039 -30.876863 44.801490 1.018457 2.331171 0.105425 -0.012205 114510.000000 0 0 1
-16.919047 -29.029089 -31.252573 45.887531 1.043097 2.320018 0.095507 -0.013051 352886.000000 0 0 1
-17.429147 -29.212209 -32.624393 47.132572 1.032852 2.335307 0.096542 -0.010324 319176.000000 0 0 1
-17.364747 -30.595789 -33.215403 48.382845 1.054576 2.327477 0.099473 -0.019725 -334055.000000 0 0 1
-16.065347 -30.964169 -33.596113 48.431126 1.092193 2.337394 0.108199 -0.023275 -280900.000000 0 0 1
-15.987347 -31.958099 32.820566 48.519119 1.106941 0.827870 0.103919 -0.027904 -344593.000000 0 0 1
-14.587947 -32.292189 32.296069 47.944027 1.146489 0.831700 0.095443 -0.030758 7788.300000 0 0 1
-13.725147 -33.062799 33.114387 48.765674 1.177321 0.824327 0.105853 -0.035988 -193366.000000 0 0 1
-12.646847 -33.582369 32.399754 48.347309 1.210631 0.836391 0.106050 -0.037891 -387536.000000 0 0 1
-11.745247 32.925095 33.214998 48.220833 -1.228142 0.810950 0.108598 -0.034387 319654.000000 0 0 1
-10.903647 33.644887 -33.319793 48.590910 -1.257396 2.326390 0.119312 -0.031814 63352.100000 0 0 1
-10.338347 32.802930 -32.369093 47.229988 -1.265485 2.325881 0.107995 -0.034939 129300.000000 0 0 1
-9.541047 33.565317 -31.265693 46.853022 -1.293848 2.301393 0.104775 -0.034435 201414.000000 0 0 1
-10.401247 -33.119109 -30.460693 46.183494 1.266495 2.291027 0.117766 -0.037594 -129313.000000 0 0 1
-9.719547 -32.174689 -29.697333 44.850995 1.277426 2.294458 0.138832 -0.043962 -492706.000000 0 0 1
-10.720247 -31.239599 -28.987613 43.944487 1.240226 2.291138 0.137358 -0.040635 485486.000000 0 0 1
-11.206447 -31.396919 -27.638153 43.303793 1.227963 2.263004 0.166690 -0.044612 124738.000000 0 0 1
-11.830347 -32.654889 -27.455133 44.272827 1.223220 2.239711 0.133023 -0.042128 -567360.000000 0 0 1
-11.983747 -32.930659 -25.969673 43.617226 1.221785 2.208559 0.143893 -0.038920 38559.000000 0 0 1
-10.840347 -32.909419 -25.137403 42.806915 1.252590 2.198426 0.163753 -0.064374 -391030.000000 0 0 1
-11.202847 -33.077959 -23.813733 42.269954 1.244241 2.169258 0.151704 -0.071220 -459207.000000 0 0 1
-10.130947 -32.883289 -22.763433 41.256765 1.271936 2.155258 0.199473 -0.091906 -379707.000000 0 0 1
-9.320047 33.440923 -22.612133 41.430269 -1.298992 2.148125 0.172656 -0.077051 30282.600000 0 0 1
-8.235747 33.718167 -21.723633 40.947021 -1.331234 2.130022 0.207201 -0.086517 145874.000000 0 0 1
-7.485447 32.462239 -21.270633 39.525545 -1.344168 2.139036 0.193956 -0.071761 -1042350.000000 0 0 1
-6.673947 32.046915 -22.325933 39.623145 -1.365476 2.169361 0.173743 -0.083198 -70214.000000 0 0 1
-5.583647 31.272387 -21.826833 38.542832 -1.394109 2.172807 0.150923 -0.063143 504256.000000 0 0 1
-4.258947 32.113803 -21.736533 39.011688 -1.438945 2.161782 0.141529 -0.062928 66892.500000 0 0 1
-3.567247 32.325670 -22.960533 39.810303 -1.460888 2.185539 0.158742 -0.059768 247039.000000 0 0 1
-2.593547 31.305247 -23.190433 39.045373 -1.488138 2.206738 0.161073 -0.076753 -111340.000000 0 0 1
-2.199347 31.232027 -24.670633 39.861219 -1.500493 2.238155 0.155737 -0.033387 241931.000000 0 0 1
-1.264347 32.218286 -25.143303 40.887678 -1.531573 2.233101 0.147189 -0.058366 209157.000000 0 0 1
-1.769347 33.524537 -25.351143 42.067869 -1.518068 2.217583 0.152386 -0.054068 -372005.000000 0 0 1
-0.908647 -32.940139 -26.139573 42.061332 1.543219 2.241405 0.057234 -0.028531 -241335.000000 0 0 1
0.320653 -32.609929 -25.539613 41.422000 -1.560964 2.235176 0.086644 -0.034489 317160.000000 0 0 1
1.077553 -31.686489 -26.383533 41.246642 -1.536803 2.264843 0.054900 -0.022597 945829.000000 0 0 1
2.469353 -31.250119 -25.802783 40.601124 -1.491941 2.259477 0.058018 -0.013954 193471.000000 0 0 1
2.404853 -30.358129 -24.721433 39.224336 -1.491745 2.252681 0.053972 -0.016025 -224873.000000 0 0 1
3.657953 -29.929109 -24.269933 38.706095 -1.449179 2.248533 0.035519 -0.009318 -578977.000000 0 0 1
3.638153 -29.181919 -22.880633 37.260487 -1.446765 2.232006 0.044687 -0.004142 -193800.000000 0 0 1
3.650453 -30.069069 -21.782233 37.308717 -1.449985 2.194244 0.048073 -0.006649 491994.000000 0 0 1
3.861553 -29.404169 -20.515233 36.060942 -1.440217 2.175970 0.050579 -0.000950 -303345.000000 0 0 1
3.927853 -30.271679 -19.208233 36.066034 -1.441764 2.132448 0.053006 -0.000545 90266.800000 0 0 1
2.656153 -30.741699 -18.777133 36.120464 -1.484608 2.117469 0.077375 -0.024184 295597.000000 0 0 1
2.349153 -32.076469 -19.008033 37.359385 -1.497691 2.104573 0.078281 -0.024281 -404239.000000 0 0 1
3.144953 -33.217109 -18.297533 38.053472 -1.476399 2.072406 0.050519 -0.034672 -443193.000000 0 0 1
4.482553 -33.385199 -18.653633 38.504841 -1.437327 2.076530 0.040891 -0.023078 -583343.000000 0 0 1
5.021853 33.130699 -17.789633 37.938546 1.420364 2.058849 0.048456 -0.039937 508169.000000 0 0 1
6.150453 32.202103 -18.380833 37.585350 1.382074 2.081788 0.059894 -0.038134 1557660.000000 0 0 1
7.418453 32.852891 -18.683833 38.515341 1.348713 2.077275 0.088191 -0.036410 706180.000000 0 0 1
8.191853 31.838478 -19.333433 38.138914 1.318964 2.102406 0.073366 -0.048704 -1487860.000000 0 0 1
9.580253 32.325824 -19.486733 38.941917 1.282677 2.094863 0.083582 -0.048180 -1225590.000000 0 0 1
10.371053 32.534966 -18.296933 38.740941 1.262213 2.062683 0.074043 -0.041586 494552.000000 0 0 1
11.641853 33.094871 -18.573833 39.696227 1.232544 2.057709 0.078139 -0.029693 1152280.000000 0 0 1
12.640553 33.245500 -17.296133 39.550007 1.207458 2.023416 0.060052 -0.023775 743751.000000 0 0 1
13.207353 32.036465 -16.885433 38.547206 1.179766 2.024220 0.074369 -0.027819 -311499.000000 0 0 1
13.997653 32.288384 -15.753933 38.557236 1.161732 1.991700 0.065376 -0.034550 -602953.000000 0 0 1
15.141453 31.316237 -15.589433 38.118246 1.120434 1.992128 0.068550 -0.029041 -369518.000000 0 0 1
14.889353 30.150997 -14.851533 36.760624 1.112100 1.986689 0.088606 -0.032203 -111101.000000 0 0 1
15.985153 29.255177 -15.018633 36.564324 1.070718 1.994068 0.089609 -0.027208 472332.000000 0 0 1
16.199353 28.003827 -14.068133 35.278119 1.046359 1.980980 0.096968 -0.023756 -432577.000000 0 0 1
16.394053 28.234157 -12.689233 35.027835 1.044729 1.941489 0.093646 -0.032500 -62808.200000 0 0 1
15.270353 28.251257 -11.820633 34.220528 1.075261 1.923488 0.084393 -0.034497 435312.000000 0 0 1
14.522153 26.852827 -11.617833 32.664067 1.075040 1.934434 0.087763 -0.033633 -330718.000000 0 0 1
13.759553 26.482367 -12.757033 32.455861 1.091612 1.974751 0.094656 -0.033405 620938.000000 0 0 1
12.833253 25.387537 -12.554333 31.093901 1.102763 1.986414 0.117337 -0.033222 1259330.000000 0 0 1
11.798053 25.412327 -11.374933 30.238543 1.136143 1.956459 0.121948 -0.026186 -988920.000000 0 0 1
10.846453 26.386857 -11.288633 30.681346 1.180796 1.947580 0.125263 -0.030015 -818925.000000 0 0 1
10.199553 26.409327 -10.074733 30.049687 1.202234 1.912687 0.112886 -0.019383 -1198030.000000 0 0 1
9.068753 27.372137 -10.083433 30.547533 1.250865 1.907195 0.112566 -0.014070 -1000710.000000 0 0 1
9.474953 28.662417 -10.352233 31.913596 1.251534 1.901156 0.097964 -0.024980 -647382.000000 0 0 1
8.428853 29.567377 -10.265633 32.413863 1.293090 1.893050 0.090884 -0.022480 -231388.000000 0 0 1
8.946753 30.966617 -10.631833 33.941297 1.289539 1.889401 0.094471 -0.035880 43548.300000 0 0 1
9.898553 31.463207 -9.712833 34.383918 1.265993 1.857177 0.074231 -0.036918 -273612.000000 0 0 1
10.371553 32.784393 -9.941033 35.793989 1.264402 1.852226 0.084716 -0.039349 -39698.400000 0 0 1
11.363553 33.075177 -11.086633 36.688024 1.239864 1.877782 0.066481 -0.027530 -277327.000000 0 0 1
12.623853 32.464439 -10.843533 36.481278 1.199937 1.872592 0.059176 -0.030936 -573062.000000 0 0 1
13.462653 32.991941 -11.795033 37.534437 1.183362 1.890458 0.053396 -0.029267 -231.355000 0 0 1
14.989653 32.704913 -11.590833 37.797466 1.141037 1.882474 0.067722 -0.035056 850261.000000 0 0 1
15.527553 33.499567 -10.547533 38.400212 1.136760 1.849047 0.067493 -0.029594 -374830.000000 0 0 1
16.928253 33.522167 -10.592033 39.019131 1.103167 1.845703 0.073856 -0.033198 -406828.000000 0 0 1
17.568553 -33.101719 -9.524033 38.666329 -1.082857 1.819671 0.082187 -0.026445 -196604.000000 0 0 1
17.521053 -33.702979 -8.249633 38.870741 -1.091382 1.784655 0.066914 -0.027228 289911.000000 0 0 1
18.190653 -32.884519 -7.293933 38.281756 -1.065524 1.762501 0.066577 -0.018309 -829724.000000 0 0 1
18.477353 -33.622009 -5.928733 38.820123 -1.068290 1.724120 0.058909 -0.008000 64114.600000 0 0 1
19.439253 32.803046 -5.898433 38.583881 1.035832 1.724271 0.053398 -0.013631 -377145.000000 0 0 1
20.728753 33.322122 -6.136533 39.720297 1.014305 1.725911 0.063594 -0.002422 -974369.000000 0 0 1
21.612153 32.294006 -6.921733 39.470221 0.981020 1.747074 0.049752 -0.005710 152579.000000 0 0 1
21.922153 31.046357 -6.288133 38.522690 0.955981 1.734762 0.055377 -0.000051 115958.000000 0 0 1
22.855853 31.153307 -5.219933 38.989309 0.937837 1.705081 0.053293 0.008140 -415295.000000 0 0 1
23.427753 29.828427 -4.736833 38.223451 0.905011 1.695041 0.050406 -0.000808 -186196.000000 0 0 1
24.117853 29.094507 -5.729033 38.222807 0.878651 1.721248 0.046295 -0.004075 39279.200000 0 0 1
24.277753 27.706747 -5.373233 37.228279 0.851265 1.715634 0.066667 -0.012220 -36044.000000 0 0 1
25.322853 26.970867 -6.271233 37.523365 0.816902 1.738713 0.042934 -0.005267 -885534.000000 0 0 1
26.566553 27.570127 -6.132433 38.774996 0.803934 1.729617 0.049541 -0.001820 -656951.000000 0 0 1
27.593953 26.715127 -6.639033 38.976929 0.769218 1.741963 0.030920 -0.003860 295950.000000 0 0 1
28.321253 25.977377 -5.492833 38.821240 0.742259 1.712763 0.032091 0.002095 -785409.000000 0 0 1
29.308553 26.739717 -4.842733 39.968185 0.739598 1.692259 0.046335 0.002022 -187832.000000 0 0 1
30.160753 25.847707 -4.152733 39.937703 0.708543 1.674965 0.056701 -0.001210 169520.000000 0 0 1
31.499853 26.451497 -3.673433 41.296689 0.698504 1.659866 0.066753 0.001252 301173.000000 0 0 1
31.193853 27.405957 -2.618333 41.605271 0.720848 1.633771 0.076627 0.000001 602705.000000 0 0 1
32.140153 27.232347 -1.554433 42.154554 0.702924 1.607679 0.075699 -0.003714 441040.000000 0 0 1
32.248553 28.465397 -0.705333 43.020291 0.723167 1.587192 0.089167 -0.000661 177269.000000 0 0 1
32.678653 29.609467 -1.404333 44.120143 0.736164 1.602631 0.076940 0.013660 216330.000000 0 0 1
31.604853 30.518187 -1.619633 43.964186 0.767908 1.607644 0.090142 0.000320 257922.000000 0 0 1
34.874328 22.808261 19.044336 45.816179 0.579191 1.142119 0.153630 -0.034720 261462.000000 0 0 1
35.121798 22.528961 20.435436 46.461832 0.570343 1.115384 0.135722 -0.038577 141992.000000 0 0 1
36.179828 23.297161 20.975636 47.871860 0.572094 1.117243 0.137343 -0.035850 20939.500000 0 0 1
36.122498 23.152861 22.528776 48.460660 0.569990 1.087288 0.114680 -0.029248 499930.000000 0 0 1
34.926128 23.724961 23.064796 48.111257 0.596691 1.070819 0.094201 -0.025032 524089.000000 0 0 1
34.794778 23.600161 24.449056 48.635384 0.595991 1.044076 0.085202 -0.022439 200780.000000 0 0 1
33.481838 24.303061 24.900496 48.287752 0.627870 1.029008 0.068585 -0.022300 316749.000000 0 0 1
33.405188 25.701161 24.613956 48.808843 0.655787 1.042233 0.038460 -0.022300 430011.000000 0 0 1
32.095558 26.169361 24.921066 48.332389 0.684036 1.029067 0.032720 -0.021685 273068.000000 0 0 1
31.944508 27.652761 25.100426 49.144259 0.713510 1.034739 0.015627 -0.004060 -254090.000000 0 0 1
32.127438 28.425961 23.941756 49.126523 0.724347 1.061745 0.024775 -0.020533 288110.000000 0 0 1
31.758708 29.766361 24.216476 49.810536 0.753027 1.063093 0.029700 -0.013623 -114292.000000 0 0 1
31.969028 30.774061 23.031816 49.995261 0.766355 1.092035 0.051327 -0.018456 214641.000000 0 0 1
33.325338 31.174061 22.926356 51.068758 0.752057 1.105228 0.011021 -0.018580 -45255.400000 0 0 1
33.667698 31.630161 21.661636 51.021637 0.754205 1.132323 0.025618 -0.015144 2053030.000000 0 0 1
35.248508 31.959761 21.665936 52.280938 0.736504 1.143498 -0.002196 -0.025813 2074090.000000 0 0 1
35.474358 33.266661 22.182236 53.452338 0.753293 1.142863 0.018540 -0.005235 -93545.100000 0 0 1
36.871828 33.455061 22.228636 54.524170 0.736852 1.150880 0.016113 -0.005315 8550.330000 0 0 1
37.244968 -32.649804 22.883396 54.560491 -0.719749 1.137997 0.027567 -0.003085 -406154.000000 0 0 1
36.880378 -31.388204 22.319836 53.325010 -0.705122 1.138935 0.027929 0.005363 -91315.100000 0 0 1
36.979788 -30.425004 23.357886 53.280169 -0.688458 1.116982 0.047963 0.001942 -1037570.000000 0 0 1
36.042378 -29.183404 23.170776 51.842154 -0.680626 1.107445 0.041350 -0.003246 1702750.000000 0 0 1
34.599968 -29.366104 23.250726 50.991393 -0.703758 1.097331 0.031979 0.005277 1674860.000000 0 0 1
34.146388 -30.150304 22.139236 50.647433 -0.723327 1.118397 0.031436 0.007158 -1461130.000000 0 0 1
33.463368 -31.477804 22.439846 51.129207 -0.754833 1.116439 0.024149 0.007732 -573421.000000 0 0 1
32.312648 -31.374204 23.234276 50.678195 -0.770664 1.094527 0.052237 -0.004784 35327.000000 0 0 1
31.741038 -32.618104 23.581906 51.259541 -0.799025 1.092746 0.042714 -0.007004 -172700.000000 0 0 1
30.630508 -32.555704 24.636126 51.039598 -0.815857 1.067077 0.035533 -0.012394 -175258.000000 0 0 1
30.299508 33.607461 25.122016 51.755554 0.837114 1.063979 0.038887 -0.017942 229079.000000 0 0 1
29.477908 33.600861 26.282416 51.852969 0.850667 1.039253 0.041803 -0.020510 -634774.000000 0 0 1
29.161808 32.120261 26.581936 50.879481 0.833637 1.021076 0.045461 -0.010189 694658.000000 0 0 1
28.414908 31.389161 25.565576 49.459935 0.835091 1.027577 0.050818 -0.018583 901132.000000 0 0 1
27.071708 31.828161 25.358426 48.876978 0.865978 1.025325 0.054460 -0.026253 -67041.600000 0 0 1
26.425008 31.529061 24.005036 47.629870 0.873242 1.042583 0.101695 -0.029355 17872.500000 0 0 1
26.846908 32.317061 22.892236 47.845620 0.877594 1.071896 0.136740 -0.034234 205236.000000 0 0 1
28.157808 32.171161 22.388626 48.260712 0.851825 1.088393 0.098454 -0.025577 -141971.000000 0 0 1
28.584208 33.122261 21.276836 48.650230 0.858809 1.118154 0.133359 -0.028808 -201965.000000 0 0 1
29.917708 32.940461 20.869736 49.149661 0.833450 1.132259 0.127747 -0.028284 -145612.000000 0 0 1
30.164508 33.665561 19.684636 49.302662 0.840193 1.160086 0.121720 -0.034982 -305769.000000 0 0 1
31.621248 33.684361 19.231436 50.043857 0.816979 1.176356 0.130110 -0.037568 -176180.000000 0 0 1
32.225478 32.513361 18.689136 49.445767 0.789845 1.183191 0.129116 -0.049145 211586.000000 0 0 1
33.342338 32.735761 17.858736 50.022755 0.776219 1.205729 0.114062 -0.034018 -20687.800000 0 0 1
34.239088 31.595061 17.326036 49.706686 0.745258 1.214756 0.075943 -0.032573 42954.600000 0 0 1
35.003818 31.047961 18.388136 50.272922 0.725579 1.196340 0.034570 -0.030559 -372888.000000 0 0 1
35.814638 30.022461 17.905436 50.046390 0.697647 1.204910 0.058471 -0.034255 -401972.000000 0 0 1
36.875058 29.639961 18.942636 50.961953 0.677050 1.189955 0.057194 -0.044134 -158879.000000 0 0 1
37.767568 30.720261 19.260436 52.355401 0.682860 1.194070 0.070693 -0.038068 110279.000000 0 0 1
-37.445247 30.194561 20.207736 52.174809 -0.678610 1.173086 0.102796 -0.035196 633257.000000 0 0 1
-36.317667 31.217461 20.587936 52.128360 -0.710022 1.164786 0.118208 -0.032637 496426.000000 0 0 1
-35.345862 31.631161 19.636936 51.336825 -0.729993 1.178283 0.126823 -0.032610 1085850.000000 0 0 1
-34.211925 32.388061 20.120036 51.227514 -0.758020 1.167167 0.123853 -0.015985 889384.000000 0 0 1
-34.489504 33.685861 20.945736 52.564123 -0.773611 1.160938 0.091471 -0.012397 -569752.000000 0 0 1
-34.783655 33.476861 22.311736 53.182859 -0.766256 1.137870 0.095345 -0.009344 252631.000000 0 0 1
-34.991955 -32.751004 22.998756 53.160210 0.752330 1.123387 0.072939 -0.004048 -197675.000000 0 0 1
-35.193318 -32.966204 24.495776 54.086813 0.752735 1.100784 0.070507 -0.013809 -390792.000000 0 0 1
-36.384977 -33.542004 24.959806 55.424945 0.744764 1.103656 0.057771 -0.008526 -491808.000000 0 0 1
-36.443957 33.728261 26.349686 56.214443 -0.746717 1.082938 0.065280 -0.006429 973312.000000 0 0 1
-37.795397 33.179461 26.977306 57.071392 -0.720453 1.078451 0.029839 -0.010744 1074400.000000 0 0 1
-37.641607 32.828261 28.368266 57.439915 -0.717200 1.054253 0.056180 -0.024808 798020.000000 0 0 1
37.153318 32.723561 28.908116 57.331315 0.722089 1.042307 0.053991 -0.028934 712680.000000 0 0 1
37.077708 31.489961 29.859806 57.078736 0.704085 1.020273 0.061519 -0.024203 -288951.000000 0 0 1
37.164668 30.176561 29.339176 56.148238 0.681997 1.020980 0.047003 -0.030990 354994.000000 0 0 1
-37.816377 29.778361 28.591176 55.984681 -0.667039 1.034802 0.058393 -0.030617 -129205.000000 0 0 1
-37.837167 28.260761 28.205866 55.008115 -0.641517 1.032402 0.064018 -0.028399 -186705.000000 0 0 1
37.202198 28.065961 27.296186 54.007254 0.646322 1.040931 0.045445 -0.026599 577320.000000 0 0 1
36.853598 26.714061 27.125476 52.986982 0.627223 1.033370 0.064160 -0.032213 121519.000000 0 0 1
36.356288 25.836961 28.325436 52.836148 0.617845 1.004987 0.058242 -0.035206 -536746.000000 0 0 1
37.429878 25.256961 29.048016 53.690754 0.593599 0.999141 0.064502 -0.031468 160890.000000 0 0 1
37.191168 23.891661 29.347616 53.059184 0.571015 0.984703 0.067791 -0.022787 -90464.100000 0 0 1
37.844748 22.955161 28.302046 52.537322 0.545230 1.001899 0.087723 -0.026653 -178858.000000 0 0 1
37.226018 22.921161 27.028106 51.397223 0.551905 1.017062 0.082912 -0.025529 -101523.000000 0 0 1
37.874708 22.106661 26.062876 51.014424 0.528332 1.034574 0.092232 -0.038124 -363082.000000 0 0 1
37.657458 20.585061 26.241496 50.303529 0.500260 1.021997 0.093560 -0.036729 874870.000000 0 0 1
36.254138 20.266261 26.081426 49.044109 0.509731 1.010077 0.109923 -0.013295 997506.000000 0 0 1
36.023578 18.923661 26.460296 48.538134 0.483692 0.994235 0.125400 -0.014520 -98487.700000 0 0 1
35.587488 18.701961 27.968576 48.974217 0.483855 0.962966 0.096869 -0.013601 469695.000000 0 0 1
34.329768 19.201361 28.433486 48.535434 0.509971 0.944893 0.083267 -0.016788 607775.000000 0 0 1
34.334138 20.615161 28.545316 49.179803 0.540734 0.951543 0.077212 -0.024819 -178148.000000 0 0 1
33.099588 21.194161 29.301626 49.024081 0.569537 0.930169 0.060910 -0.018717 313564.000000 0 0 1
31.840858 21.103061 28.665856 47.758881 0.585298 0.927020 0.067600 -0.016935 179138.000000 0 0 1
31.431878 21.873661 27.505726 47.148542 0.607974 0.947907 0.077516 -0.001654 373.643000 0 0 1
31.188408 23.384861 27.849586 47.907911 0.643369 0.950452 0.068796 -0.006845 -849993.000000 0 0 1
32.385008 24.079361 27.825556 49.019037 0.639350 0.967150 0.057776 -0.022548 -685302.000000 0 0 1
32.426908 25.241761 28.657946 50.099189 0.661443 0.961825 0.043368 -0.018910 -186091.000000 0 0 1
32.750058 25.097361 30.160346 51.108613 0.653871 0.939586 0.035792 -0.028669 163864.000000 0 0 1
34.063558 24.545361 30.298356 51.776357 0.624402 0.945697 0.023874 -0.014979 433410.000000 0 0 1
34.457138 24.659861 31.746060 52.945401 0.621164 0.927795 0.040809 -0.023871 124378.000000 0 0 1
33.884318 23.556861 32.708323 52.658400 0.607507 0.900598 0.050877 -0.020262 -276043.000000 0 0 1
34.094468 23.815661 -33.371613 53.322444 0.609732 2.247011 0.058042 -0.034717 296110.000000 0 0 1
33.482638 22.784061 -32.542983 51.954271 0.597501 2.247694 0.058757 -0.031889 -31377.800000 0 0 1
34.043148 22.618661 -31.109043 51.364505 0.586440 2.221382 0.058360 -0.044273 -113080.000000 0 0 1
33.749008 23.701861 -30.214023 51.123976 0.612267 2.203088 0.049916 -0.051013 246469.000000 0 0 1
34.148608 23.289061 -28.890393 50.429779 0.598537 2.180816 0.091798 -0.061036 -298568.000000 0 0 1
35.536658 23.803361 -28.511053 51.403640 0.590186 2.158739 0.086888 -0.034473 -515389.000000 0 0 1
36.071468 23.082161 -27.469503 50.877407 0.569243 2.141133 0.097748 -0.036799 -837141.000000 0 0 1
37.230578 23.640461 -26.946403 51.682647 0.565740 2.119266 0.098683 -0.026216 -641568.000000 0 0 1
37.728988 22.690161 -25.876923 51.067946 0.541447 2.102167 0.091540 -0.027119 -461323.000000 0 0 1
-37.620237 21.608261 -26.382183 50.776164 -0.521367 2.117153 0.090220 -0.024394 225132.000000 0 0 1
-37.409277 20.554761 -25.466363 49.704003 -0.502426 2.108727 0.064300 -0.012522 -336301.000000 0 0 1
-36.230137 19.650361 -25.890813 48.673337 -0.496971 2.131675 0.070378 -0.000586 -221739.000000 0 0 1
-35.037128 20.179161 -25.357963 47.726567 -0.522538 2.130951 0.076087 -0.003508 529080.000000 0 0 1
-33.924527 19.251661 -25.512993 46.609150 -0.516168 2.150029 0.052621 -0.002365 816587.000000 0 0 1
-32.663537 19.639761 -24.741433 45.439690 -0.541356 2.146577 0.046571 -0.000104 -440883.000000 0 0 1
-32.784147 19.490661 -23.318533 44.703917 -0.536377 2.119547 0.046006 0.002871 358998.000000 0 0 1
-31.545427 19.704861 -22.652933 43.549408 -0.558348 2.117842 0.061211 -0.000664 421737.000000 0 0 1
-31.783057 20.061361 -21.202033 43.152603 -0.563043 2.084409 0.049501 -0.003958 -77447.100000 0 0 1
-32.328647 18.994161 -20.506133 42.736648 -0.531202 2.071252 0.035848 -0.010205 -192415.000000 0 0 1
-32.743657 19.304561 -19.203233 42.586117 -0.532712 2.038600 0.031251 -0.005037 -474838.000000 0 0 1
-33.866597 18.328461 -18.696533 42.807000 -0.496059 2.022794 0.021022 -0.003336 852472.000000 0 0 1
-34.642939 18.655361 -17.524033 43.072584 -0.493974 1.989798 0.032773 -0.011394 388578.000000 0 0 1
-35.452336 19.786861 -17.822133 44.339784 -0.509060 1.984436 0.024380 -0.018120 -225677.000000 0 0 1
-36.578617 20.037461 -16.703933 44.927903 -0.501146 1.951737 0.035074 -0.023868 636853.000000 0 0 1
-36.153447 20.447861 -15.417133 44.304342 -0.514730 1.926215 0.035309 -0.027640 121471.000000 0 0 1
-37.207607 20.227661 -14.482333 44.758265 -0.497950 1.900294 0.054116 -0.024436 -465413.000000 0 0 1
-37.210537 21.232961 -13.241033 44.841807 -0.518534 1.870548 0.059725 -0.024694 -274697.000000 0 0 1
-37.492927 22.585361 -13.529033 45.813239 -0.542175 1.870575 0.085209 -0.037157 459380.000000 0 0 1
37.227128 22.781461 -13.586933 45.710598 0.549166 1.872595 0.085576 -0.034416 59655.100000 0 0 1
36.824308 24.053261 -14.294833 46.248582 0.578614 1.885029 0.097558 -0.032370 -89939.800000 0 0 1
37.308748 25.227861 -13.623533 47.053037 0.594568 1.864538 0.091118 -0.024235 226828.000000 0 0 1
37.038878 26.430361 -14.330933 47.705536 0.619785 1.875912 0.089476 -0.018416 -344129.000000 0 0 1
-37.840237 27.143961 -14.856933 48.881557 -0.622263 1.879619 0.102639 -0.014637 -148492.000000 0 0 1
-37.266917 26.636261 -16.044633 48.536005 -0.620552 1.907706 0.088236 -0.019146 161669.000000 0 0 1
-36.007827 27.271861 -16.226633 47.996059 -0.648212 1.915675 0.081455 -0.018828 -162343.000000 0 0 1
-35.664701 27.150261 -17.753333 48.210875 -0.650671 1.947915 0.082416 -0.024442 -141105.000000 0 0 1
-35.274935 25.877461 -18.268833 47.410066 -0.632918 1.966369 0.096510 -0.021896 724161.000000 0 0 1
-33.906907 25.521361 -18.051533 46.118067 -0.645220 1.972971 0.078373 -0.014775 711092.000000 0 0 1
-33.297807 24.417161 -19.015233 45.459001 -0.632725 2.002363 0.072634 -0.004476 -2071.990000 0 0 1
-33.330017 24.775761 -20.341633 46.244031 -0.639229 2.026257 0.072679 -0.011252 357439.000000 0 0 1
-32.721377 23.694961 -21.074233 45.566029 -0.626746 2.051608 0.061625 -0.003961 57573.100000 0 0 1
-32.934947 23.664261 -22.602433 46.428202 -0.623045 2.079248 0.066596 -0.007839 10646.000000 0 0 1
-34.307096 23.432661 -22.880933 47.429986 -0.599243 2.074206 0.078007 -0.013575 355121.000000 0 0 1
-34.460158 23.160561 -24.280033 48.098172 -0.591752 2.099948 0.073314 -0.009659 131377.000000 0 0 1
-35.168337 24.252361 -25.127193 49.561727 -0.603717 2.102483 0.079142 -0.015371 170432.000000 0 0 1
-34.328534 25.408261 -25.100933 49.538721 -0.637167 2.102141 0.073634 -0.013819 117557.000000 0 0 1
-34.913351 26.392461 -25.874953 50.843065 -0.647293 2.104724 0.085251 -0.020379 -166038.000000 0 0 1
-34.187965 27.746761 -26.032013 51.150420 -0.681771 2.104738 0.064241 -0.021422 43605.600000 0 0 1
-32.991257 27.559361 -26.765113 50.639043 -0.695929 2.127684 0.078673 -0.020388 -130796.000000 0 0 1
-32.363247 28.835461 -27.025203 51.080575 -0.727817 2.128301 0.081998 -0.022189 85349.000000 0 0 1
-30.995167 28.792761 -27.691053 50.562020 -0.748578 2.150367 0.088332 -0.024071 -585086.000000 0 0 1
-29.948417 28.225561 -26.915893 49.173726 -0.755791 2.150007 0.094164 -0.023884 754423.000000 0 0 1
-28.680767 28.228661 -27.606023 48.800986 -0.777454 2.172061 0.100521 -0.019712 1444750.000000 0 0 1
-27.852667 29.576261 -27.410413 49.008745 -0.815402 2.164333 0.088676 -0.027648 -176311.000000 0 0 1
-27.263507 29.771661 -26.149073 48.098073 -0.829345 2.145590 0.066101 -0.023859 -48652.800000 0 0 1
-28.215617 30.192761 -25.191013 48.397428 -0.819236 2.118236 0.069417 -0.016178 -340471.000000 0 0 1
-27.733937 30.541161 -23.750833 47.602898 -0.833533 2.093168 0.033853 -0.014164 -33606.700000 0 0 1
-26.867507 31.654461 -23.769333 47.841917 -0.867014 2.090739 0.026474 -0.013156 152508.000000 0 0 1
-26.431667 32.105661 -22.512933 47.288885 -0.882026 2.066979 0.050322 -0.003616 208926.000000 0 0 1
-25.795097 33.529761 -22.503933 47.917209 -0.915045 2.059682 0.045460 0.008885 -35609.600000 0 0 1
-26.748917 -32.912404 -22.568933 48.042561 0.888341 2.059826 0.029580 -0.007222 352.545000 0 0 1
-26.120307 -31.648604 -22.814733 46.951215 0.880804 2.078217 0.054036 -0.013361 61424.600000 0 0 1
17.666753 8.189361 -24.763333 31.502420 0.434062 2.475233 0.060687 -0.019350 209895.000000 0 0 1
16.487253 7.666661 -24.146033 30.226447 0.435262 2.496157 0.053290 -0.019239 486620.000000 0 0 1
16.297553 6.287361 -24.492933 30.083964 0.368193 2.522064 0.047463 -0.021480 -102331.000000 0 0 1
14.820753 5.888261 -24.699533 29.400566 0.378175 2.568271 0.056862 -0.019372 -77218.100000 0 0 1
13.989753 6.078761 -23.594833 28.095919 0.409902 2.567703 0.095704 -0.047714 -260467.000000 0 0 1
12.657953 5.764361 -23.921033 27.670697 0.427331 2.614931 0.106563 -0.038830 -466761.000000 0 0 1
11.763553 5.850161 -22.669333 26.201226 0.461495 2.616348 0.131539 -0.047876 -397883.000000 0 0 1
11.924353 4.858461 -21.672933 25.209341 0.386904 2.605514 0.102118 -0.034155 -65599.900000 0 0 1
11.300753 5.031261 -20.411833 23.867625 0.418867 2.596752 0.116920 -0.036013 -289053.000000 0 1 0
11.225453 6.333861 -19.617333 23.472715 0.513711 2.560294 0.116691 -0.051175 -173458.000000 0 1 0
11.097253 6.254961 -18.195833 22.211751 0.513262 2.530808 0.111747 -0.046126 -249285.000000 0 1 0
11.165153 7.559261 -17.637833 22.201266 0.595150 2.488901 0.109501 -0.049671 559784.000000 0 1 0
12.623453 7.974161 -17.240533 22.807341 0.563399 2.427855 0.113626 -0.048116 520495.000000 0 1 0
13.079253 7.515761 -16.001233 21.990748 0.521558 2.385664 0.131466 -0.060034 -119663.000000 0 1 0
14.434253 7.847761 -15.860033 22.835842 0.497986 2.338554 0.138191 -0.060863 -363923.000000 0 1 0
15.193853 7.506361 -14.565833 22.346412 0.458868 2.280778 0.142468 -0.060559 935339.000000 0 1 0
16.475753 8.181361 -14.509533 23.428864 0.460900 2.238649 0.121945 -0.062136 1090450.000000 0 1 0
17.111553 7.970861 -13.295833 23.089371 0.435930 2.184430 0.115225 -0.060637 -25390.500000 0 1 0
18.075553 9.099161 -12.873133 23.984118 0.466361 2.137360 0.178091 -0.061851 449662.000000 0 1 0
17.336053 10.300361 -12.510133 23.730563 0.536113 2.126068 0.198745 -0.057382 1431200.000000 0 1 0
18.228153 11.399061 -12.233433 24.735825 0.558854 2.088129 0.268939 -0.071204 187144.000000 0 1 0
17.443353 12.662561 -11.795033 24.570996 0.627914 2.071495 0.276506 -0.065291 -663404.000000 0 1 0
16.889953 12.491561 -10.541933 23.504084 0.636802 2.035899 0.317757 -0.048637 505155.000000 0 1 0
16.056453 13.556361 -10.070333 23.302279 0.701172 2.017684 0.206639 -0.038764 -169875.000000 0 1 0
14.688753 13.764961 -10.715633 22.804789 0.752943 2.059957 0.168213 -0.046520 -876511.000000 0 1 0
13.861153 14.816561 -10.207533 22.712459 0.818701 2.036917 0.204776 -0.045166 366036.000000 0 1 0
14.321853 16.178661 -10.329633 23.949235 0.846201 2.016745 0.225602 -0.047843 -292600.000000 0 1 0
13.485753 17.128761 -9.473233 23.769774 0.903837 1.980722 0.208637 -0.027553 40413.300000 0 1 0
13.835253 16.888361 -8.150033 23.303519 0.884446 1.928083 0.233522 -0.031350 702494.000000 0 1 0
12.880153 17.421161 -7.233533 22.841173 0.934153 1.893032 0.206750 -0.018856 307266.000000 0 1 0
13.399353 17.161561 -5.804833 22.533485 0.907887 1.831343 0.194079 -0.019462 33761.700000 0 1 0
14.225053 18.230461 -5.417633 23.749791 0.908190 1.800935 0.225917 -0.027419 -99039.200000 0 1 0
14.702953 18.047261 -4.134033 23.642561 0.887161 1.746555 0.225723 -0.020536 -292639.000000 0 1 0
15.902753 19.012461 -3.878233 25.088083 0.874228 1.726003 0.209527 -0.035295 75698.500000 0 0 1
17.032953 18.566761 -4.597233 25.612119 0.828456 1.751269 0.228792 -0.057682 -68755.300000 0 0 1
17.964953 19.585861 -4.833433 27.013100 0.828537 1.750694 0.154168 -0.055585 253813.000000 0 0 1
19.214953 19.155161 -5.690733 27.722176 0.783840 1.777543 0.156758 -0.044304 -191700.000000 0 0 1
20.167253 18.574261 -4.876033 27.847746 0.744303 1.746800 0.149984 -0.057790 -524218.000000 0 0 1
20.860353 17.586261 -5.629433 27.858956 0.700444 1.774266 0.193315 -0.054148 18437.800000 0 0 1
21.842353 16.670561 -4.832533 27.898913 0.651910 1.744890 0.162749 -0.054191 184153.000000 0 0 1
23.171853 17.134561 -4.859833 29.225775 0.636719 1.737858 0.110762 -0.052189 -336915.000000 0 0 1
24.033853 16.286361 -4.195833 29.333882 0.595563 1.714326 0.101980 -0.052377 699386.000000 0 0 1
25.573553 16.526461 -4.430833 30.769511 0.573722 1.715299 0.095795 -0.044715 924692.000000 0 0 1
26.086153 17.709561 -3.879033 31.767323 0.596415 1.693209 0.092509 -0.045578 496121.000000 0 0 1
27.467653 17.594061 -3.545833 32.811520 0.569694 1.679074 0.067329 -0.033073 317430.000000 0 0 1
27.932353 18.812261 -2.730033 33.787136 0.592714 1.651685 0.086688 -0.031625 -275555.000000 0 0 1
28.129453 19.940961 -3.546833 34.662488 0.616674 1.673301 0.076807 -0.034303 292554.000000 0 0 1
28.335553 21.081061 -2.703033 35.420631 0.639637 1.647183 0.105691 -0.022364 -351321.000000 0 0 1
28.207053 22.393061 -3.410333 36.176199 0.670999 1.665207 0.089206 -0.022507 -279116.000000 0 0 1
29.239953 22.817061 -4.277333 37.334819 0.662637 1.685615 0.061445 -0.005982 207673.000000 0 0 1
29.353153 22.082661 -5.484433 37.139339 0.644978 1.719010 0.048675 -0.006130 175638.000000 0 0 1
30.471753 22.630061 -6.425733 38.495941 0.638785 1.738501 0.043618 -0.006166 178047.000000 0 0 1
29.979153 23.607661 -7.350033 38.859931 0.667053 1.761084 0.039798 0.002885 230690.000000 0 0 1
30.974453 24.385861 -8.005433 40.226533 0.666942 1.771143 0.046852 0.001217 124504.000000 0 0 1
31.802253 23.664661 -9.094633 40.670774 0.639727 1.796319 0.047994 -0.004265 -10139.000000 0 0 1
31.069653 23.330561 -10.257133 40.185161 0.644084 1.828899 0.049739 0.002711 -146907.000000 0 0 1
31.927453 23.234861 -11.349833 41.085761 0.629101 1.850684 0.034839 -0.001028 -41025.000000 0 0 1
31.230853 22.675061 -12.657433 40.616932 0.627994 1.887704 0.069710 -0.001835 284854.000000 0 0 1
31.706053 23.328761 -13.844133 41.727268 0.634340 1.908983 0.074354 -0.008823 213203.000000 0 0 1
31.836953 22.477861 -14.966233 41.747263 0.614762 1.937453 0.085146 -0.013384 55763.300000 0 0 1
32.116753 23.189061 -16.319433 42.843229 0.625355 1.961577 0.091846 -0.019912 -728156.000000 0 0 1
33.418453 23.642361 -16.421533 44.106927 0.615718 1.952295 0.097594 -0.018115 -823415.000000 0 0 1
33.643053 24.333861 -17.633233 45.110118 0.626190 1.972398 0.112585 -0.027287 89546.300000 0 0 1
35.060253 24.949861 -17.660333 46.514560 0.618488 1.960239 0.102154 -0.029278 -518262.000000 0 0 1
36.047653 24.014461 -17.873433 46.857094 0.587670 1.962156 0.097344 -0.020140 -1543220.000000 0 0 1
37.296353 24.600761 -17.926133 48.141060 0.583096 1.952354 0.086487 -0.020909 -511545.000000 0 0 1
-37.652603 23.579161 -17.835233 47.872653 -0.559483 1.952558 0.071555 -0.031345 109330.000000 0 0 1
-37.646603 22.668561 -18.913033 47.841751 -0.541992 1.977218 0.059191 -0.028970 437194.000000 0 0 1
-36.548503 22.933161 -19.780333 47.465614 -0.560375 2.000641 0.087767 -0.011088 -213055.000000 0 0 1
-36.420803 21.993161 -21.006933 47.449607 -0.543255 2.029427 0.091672 -0.013090 -174607.000000 0 0 1
-36.211103 20.623161 -20.671633 46.517471 -0.517711 2.031283 0.077750 -0.010925 314089.000000 0 0 1
-36.015003 19.954861 -21.902033 46.636637 -0.505963 2.059670 0.064376 -0.006484 -38064.600000 0 0 1
-35.840403 18.425561 -21.999933 45.913319 -0.474864 2.070496 0.049908 -0.002818 16722.600000 0 0 1
-37.013603 17.674261 -21.778433 46.440138 -0.445492 2.058906 0.056612 -0.008533 142254.000000 0 0 1
-36.859403 16.342861 -22.325433 46.088281 -0.417338 2.076480 0.040432 -0.013678 258016.000000 0 0 1
-38.033903 15.339161 -22.059933 46.567244 -0.383350 2.064309 0.038771 -0.011992 1192440.000000 0 0 1
36.939853 15.533861 -22.929933 46.169637 0.398068 2.090526 0.106844 -0.020348 1496410.000000 0 0 1
35.844053 14.629061 -22.878433 44.969192 0.387496 2.104538 0.148056 -0.025990 195397.000000 0 0 1
36.191653 13.268761 -23.430033 45.109447 0.351408 2.116950 0.102287 -0.029203 -873206.000000 0 0 1
36.166753 13.254861 -24.831433 45.829307 0.351292 2.143402 0.106603 -0.019709 191638.000000 0 0 1
36.622753 12.025561 -25.277743 46.095601 0.317271 2.151218 0.083495 -0.012192 -440660.000000 0 0 1
36.646553 11.921061 -26.837203 46.960803 0.314502 2.179106 0.087736 -0.008434 601226.000000 0 0 1
35.331753 11.741661 -27.402533 46.228759 0.320844 2.205277 0.083981 -0.007624 926550.000000 0 0 1
34.804253 12.970461 -27.914653 46.462853 0.356725 2.215292 0.103978 -0.009567 -125930.000000 0 0 1
35.175153 13.334661 -29.402133 47.745052 0.362354 2.234217 0.096192 -0.012563 -889288.000000 0 0 1
36.534253 13.588361 -29.503693 48.886226 0.356081 2.218702 0.093860 -0.010118 -1244950.000000 0 0 1
36.851553 13.702361 -30.879703 49.993477 0.355985 2.236579 0.102495 -0.010209 -350031.000000 0 0 1
-37.757903 13.920161 -31.141823 50.884607 -0.353209 2.229394 0.101552 -0.005149 418467.000000 0 0 1
-36.900103 12.886261 -30.697253 49.699041 -0.335980 2.236564 0.106652 -0.006545 54675.400000 0 0 1
-36.779203 12.766561 -29.281313 48.714373 -0.334101 2.215650 0.078194 -0.003016 -1316520.000000 0 0 1
-35.618203 11.857161 -28.840803 47.339630 -0.321357 2.225888 0.095006 -0.014773 -35698.100000 0 0 1
-35.861103 10.551461 -29.283173 47.485326 -0.286156 2.235313 0.108161 -0.022514 32494.300000 0 0 1
-34.773603 9.679361 -29.121153 46.378174 -0.271481 2.249657 0.106399 -0.024351 -185191.000000 0 0 1
-35.034203 8.271761 -29.711983 46.675682 -0.231859 2.260829 0.120282 -0.026458 -485586.000000 0 0 1
-35.119403 8.266761 -31.145203 47.662726 -0.231182 2.282929 0.132838 -0.031321 160067.000000 0 0 1
-35.398403 7.011061 -31.808033 48.103564 -0.195531 2.293268 0.140430 -0.028270 857354.000000 0 0 1
-36.852303 6.478861 -31.503573 48.913628 -0.174028 2.270597 0.154206 -0.023582 508047.000000 0 0 1
-36.894403 5.762361 -30.276733 48.073717 -0.154934 2.252090 0.155062 -0.027475 179345.000000 0 0 1
37.867153 5.464161 -30.066223 48.659594 0.143309 2.236851 0.136811 -0.009411 3725.320000 0 0 1
37.662153 4.792761 -28.712333 47.600487 0.126576 2.218296 0.134809 -0.020253 -196043.000000 0 0 1
-37.871003 3.542761 -28.675743 47.634675 -0.093277 2.216791 0.148703 -0.014742 142073.000000 0 0 1
37.947453 2.871461 -27.439053 46.916480 0.075525 2.195490 0.147410 -0.015256 -308999.000000 0 0 1
-37.572003 1.507561 -27.383563 46.516531 -0.040103 2.200227 0.189553 -0.013773 59399.900000 0 0 1
-36.277903 1.511561 -26.786383 45.120742 -0.041642 2.206396 0.181116 -0.009672 228317.000000 0 0 1
-35.712603 0.219261 -26.906853 44.714839 -0.006140 2.216478 0.190906 -0.010562 565544.000000 0 0 1
-34.374603 0.227261 -26.086503 43.152875 -0.006611 2.219952 0.184121 -0.014141 587019.000000 0 0 1
-34.705503 0.370261 -24.677333 42.586145 -0.010668 2.188873 0.171652 -0.010332 -859483.000000 0 0 1
-33.595303 0.432761 -23.899133 41.231059 -0.012881 2.189082 0.189041 -0.005184 -1216140.000000 0 0 1
-33.783303 0.322861 -22.405533 40.539162 -0.009557 2.156383 0.189212 0.003871 -458780.000000 0 0 1
-33.959103 -1.028439 -22.075633 40.516810 0.030275 2.147008 0.204764 -0.014623 302307.000000 0 0 1
-34.212703 -1.279739 -20.685633 40.000527 0.037388 2.114295 0.175430 -0.016978 -8375.730000 0 0 1
-35.640903 -1.044439 -20.137333 40.949688 0.029296 2.084904 0.158780 -0.013171 213605.000000 0 0 1
-36.557703 -2.081239 -20.500333 41.964995 0.056869 2.081178 0.167248 -0.017693 -694.536000 0 0 1
-37.813603 -1.958239 -19.906833 42.778327 0.051740 2.054825 0.144042 -0.011848 172664.000000 0 0 1
37.432853 -3.261239 -19.779633 42.462784 -0.086903 2.055347 0.129673 -0.020655 276065.000000 0 0 1
36.981653 -4.000139 -20.929933 42.681446 -0.107747 2.083317 0.130717 -0.013727 27478.700000 0 0 1
37.984453 -4.437139 -21.807233 44.023429 -0.116288 2.089040 0.143881 -0.029029 -438503.000000 0 0 1
37.496853 -5.224039 -23.032833 44.314963 -0.138428 2.117358 0.144758 -0.029888 -466713.000000 0 0 1
37.077353 -6.492639 -22.621133 43.915830 -0.173353 2.111923 0.151718 -0.031790 233298.000000 0 0 1
36.438053 -7.267739 -23.616033 44.025774 -0.196871 2.136978 0.150587 -0.027388 1840640.000000 0 0 1
34.897253 -7.003839 -23.981033 42.918084 -0.198067 2.163690 0.111251 -0.018061 1317840.000000 0 0 1
34.623653 -5.807639 -24.664633 42.905362 -0.166189 2.183231 0.125514 -0.021330 614596.000000 0 0 1
33.231453 -5.647739 -24.964333 41.945731 -0.168343 2.208258 0.086830 -0.013118 642557.000000 0 0 1
32.971653 -4.438339 -25.916823 42.172390 -0.133806 2.232605 0.109239 -0.031100 -43952.100000 0 0 1
33.108553 -4.653339 -27.238383 43.124927 -0.139633 2.254432 0.107823 -0.034355 264854.000000 0 0 1
32.764253 -3.492639 -27.970743 43.221028 -0.106198 2.274644 0.108487 -0.034053 -16037.000000 0 0 1
32.231053 -3.892139 -29.386163 43.789680 -0.120176 2.306454 0.104642 -0.033194 -108662.000000 0 0 1
31.734153 -2.851739 -30.175073 43.883071 -0.089623 2.329008 0.072353 -0.034912 45579.400000 0 0 1
31.418953 -3.295739 -31.490383 44.605568 -0.104514 2.354594 0.081648 -0.040794 -881815.000000 0 0 1
31.098253 -2.136439 -32.485753 45.022104 -0.068592 2.376836 0.082499 -0.035384 -227874.000000 0 0 1
29.971253 -1.313439 -32.198463 44.008433 -0.043795 2.391525 0.054920 -0.025021 226433.000000 0 0 1
28.706753 -1.902839 -32.028803 43.052789 -0.066189 2.409747 0.055452 -0.022708 -583820.000000 0 0 1
27.992453 -2.295839 -33.325743 43.582719 -0.081833 2.441302 0.070701 -0.029395 -788727.000000 0 0 1
28.761353 -3.232339 33.396826 44.192889 -0.111915 0.714065 0.078983 -0.035376 -381792.000000 0 0 1
28.086553 -3.648239 32.281717 42.945004 -0.129170 0.720162 0.070496 -0.032444 -710095.000000 0 0 1
28.658153 -4.918739 31.591019 42.935722 -0.169979 0.743986 0.055873 -0.040035 1104350.000000 0 0 1
29.903353 -4.782939 30.847306 43.227807 -0.158603 0.776175 0.072000 -0.037531 958163.000000 0 0 1
30.036653 -3.892639 29.777796 42.474349 -0.128878 0.793889 0.086185 -0.035298 -556437.000000 0 0 1
30.607553 -2.511239 30.199976 43.071651 -0.081863 0.793778 0.065526 -0.033282 -489173.000000 0 0 1
31.937253 -2.493439 30.654086 44.338227 -0.077915 0.807414 0.077372 -0.036003 -319260.000000 0 0 1
32.188953 -1.227839 31.163166 44.819406 -0.038126 0.801952 0.068971 -0.029629 -20222.900000 0 0 1
33.562853 -1.219839 31.870344 46.299805 -0.036329 0.811588 0.074573 -0.035554 455664.000000 0 0 1
34.655353 -1.534839 31.016516 46.533574 -0.044260 0.841238 0.098982 -0.039364 111565.000000 0 0 1
35.925553 -1.426239 31.631343 47.887591 -0.039679 0.849268 0.114960 -0.043073 105117.000000 0 0 1
36.989153 -1.989339 30.674856 48.094716 -0.053730 0.879157 0.140977 -0.038365 -418824.000000 0 0 1
37.285653 -1.258639 29.515756 47.570831 -0.033744 0.901468 0.146967 -0.037074 159115.000000 0 0 1
-37.856303 -2.013039 28.819356 47.620450 0.053126 0.920794 0.144913 -0.040507 58197.200000 0 0 1
-37.307903 -1.343139 27.575806 46.412376 0.035986 0.934591 0.143656 -0.045105 718203.000000 0 0 1
37.935653 -1.485439 26.441466 46.265229 -0.039137 0.962440 0.137725 -0.052921 718474.000000 0 0 1
-37.455203 -0.992839 25.314026 45.218114 0.026501 0.976627 0.150751 -0.054361 201488.000000 0 0 1
-28.721657 14.940261 10.801767 34.129506 -0.479656 1.248766 0.183304 -0.034196 -305005.000000 0 0 1
-29.875807 14.389361 11.350767 35.049358 -0.448851 1.240999 0.080507 0.007472 -520633.000000 0 0 1
-30.526167 15.194061 12.268667 36.238468 -0.461837 1.225417 0.106621 -0.002172 -422094.000000 0 0 1
-31.695967 14.378061 12.855967 37.103084 -0.425864 1.216966 0.111668 0.004766 -29550.200000 0 0 1
-32.435017 15.160261 13.760167 38.356304 -0.437233 1.203872 0.107586 0.000277 84365.700000 0 0 1
-33.459017 14.454761 14.470767 39.215419 -0.407796 1.192856 0.123220 -0.003288 414261.000000 0 0 1
-34.115453 15.205161 15.613367 40.482568 -0.419270 1.174850 0.100875 -0.001838 -39349.500000 0 0 1
-33.341347 15.251861 16.787367 40.324687 -0.429029 1.141419 0.067494 0.007175 97421.700000 0 0 1
-34.069943 15.900061 17.845667 41.617794 -0.436645 1.127633 0.073671 -0.013744 744352.000000 0 0 1
-33.217997 16.139761 19.165467 41.608201 -0.452283 1.092106 0.107258 -0.011201 375870.000000 0 0 1
-32.653467 15.007861 19.779567 41.020923 -0.430817 1.067652 0.114072 -0.018575 -47353.100000 0 0 1
-31.683107 15.361761 20.753967 40.872119 -0.451460 1.038193 0.096540 -0.012823 137277.000000 0 0 1
-32.223187 15.942861 22.127367 42.215270 -0.459450 1.019073 0.106589 -0.030992 -651194.000000 0 0 1
-32.749197 17.232561 22.012067 43.058126 -0.484386 1.034196 0.093265 -0.033228 -16493.800000 0 0 1
-33.207797 17.905961 23.185567 44.282635 -0.494521 1.019747 0.090315 -0.034898 -1196090.000000 0 0 1
-34.295261 17.231261 24.027967 45.281613 -0.465597 1.011448 0.079595 -0.036791 -808610.000000 0 0 1
-35.508370 16.955461 23.385967 45.773742 -0.445491 1.034561 0.152493 -0.035056 -301469.000000 0 0 1
-36.304137 18.096161 23.124067 46.692439 -0.462415 1.052683 0.161356 -0.036571 -835722.000000 0 0 1
-37.789607 17.688761 22.953167 47.621367 -0.437791 1.067868 0.125701 -0.039595 74938.200000 0 0 1
37.733188 17.177861 24.118467 47.964287 0.427207 1.043913 0.142505 -0.041139 -31891.700000 0 0 1
36.969048 16.037361 23.728167 46.764660 0.409305 1.038637 0.180830 -0.043960 176154.000000 0 0 1
36.635238 15.050161 24.870167 46.767224 0.389791 1.010088 0.195406 -0.028731 -117513.000000 0 0 1
35.790048 15.614861 25.854567 46.831721 0.411395 0.985947 0.144092 -0.030868 -30555.800000 0 0 1
35.636348 14.839661 27.002167 47.109255 0.394580 0.960413 0.150312 -0.028357 -108858.000000 0 0 1
34.518848 13.751561 26.980167 45.919339 0.379108 0.942762 0.153732 -0.031666 99946.200000 0 0 1
34.887808 12.510861 26.379567 45.492443 0.344318 0.952231 0.145579 -0.031161 208861.000000 0 0 1
33.908908 11.522161 26.680667 44.659067 0.327557 0.930504 0.134221 -0.025755 460110.000000 0 0 1
34.429248 10.041561 26.387867 44.525561 0.283786 0.936457 0.130420 -0.037029 -193673.000000 0 0 1
35.410958 9.586861 27.265067 45.708071 0.264393 0.931658 0.128411 -0.025115 -185614.000000 0 0 1
36.065498 8.457061 26.722167 45.676211 0.230330 0.945874 0.140489 -0.022768 481115.000000 0 0 1
37.205008 7.835361 27.622067 46.995575 0.207566 0.942510 0.118682 -0.025977 157966.000000 0 0 1
-37.734257 8.576161 27.611067 47.537309 -0.223481 0.951049 0.114751 -0.027998 -554369.000000 0 0 1
-36.738927 7.694061 28.122067 46.902004 -0.206442 0.927805 0.137326 -0.027865 148577.000000 0 0 1
-35.390879 8.446661 28.330567 46.113788 -0.234285 0.909219 0.143554 -0.026196 159284.000000 0 0 1
-34.724329 8.822261 27.168167 44.963548 -0.248802 0.922002 0.118972 -0.024103 -926888.000000 0 0 1
-33.504747 9.373561 27.494367 44.343793 -0.272794 0.902019 0.100674 -0.013596 -549871.000000 0 0 1
-32.744007 10.105661 26.308567 43.202258 -0.299352 0.916044 0.087130 -0.017302 493173.000000 0 0 1
-32.104317 9.175361 25.389367 41.946328 -0.278377 0.920676 0.077057 -0.020497 217375.000000 0 0 1
-31.286447 9.855961 24.486967 40.934012 -0.305182 0.929536 0.077764 -0.022791 -329731.000000 0 0 1
-30.223417 8.963261 23.857667 39.534583 -0.288304 0.922959 0.061994 -0.019703 199846.000000 0 0 1
-29.306887 9.573761 22.925267 38.420286 -0.315744 0.931418 0.075559 -0.026555 415138.000000 0 0 1
-28.518077 8.548761 22.337767 37.220127 -0.291242 0.927104 0.050892 -0.013298 -198139.000000 0 0 1
-27.505287 9.080761 21.321767 35.966913 -0.318879 0.936245 0.067060 -0.009483 -918780.000000 0 0 1
-26.396517 9.673361 21.960467 35.673690 -0.351266 0.907658 0.068453 -0.014194 516403.000000 0 0 1
-25.477487 10.404161 21.125167 34.693250 -0.387698 0.916107 0.065199 -0.009024 786790.000000 0 0 1
-24.592547 9.631461 20.128967 33.207435 -0.373280 0.919575 0.063345 -0.012111 -344832.000000 0 0 1
-25.416487 9.136861 19.058367 33.056034 -0.345100 0.956300 0.052351 -0.011582 432786.000000 0 0 1
-24.770847 8.274061 18.136867 31.796240 -0.322372 0.963792 0.082485 -0.028027 -343198.000000 0 0 1
-24.725847 6.777861 18.475067 31.601187 -0.267548 0.946370 0.092087 -0.021558 42728.800000 0 0 1
-23.450747 6.325861 18.940867 30.801145 -0.263480 0.908486 0.089463 -0.018884 722286.000000 0 0 1
-23.344047 4.963361 19.251667 30.662782 -0.209498 0.892007 0.102748 -0.026589 -253473.000000 0 0 1
-23.617347 3.920861 18.139967 30.036821 -0.164516 0.922381 0.118857 -0.030908 -101905.000000 0 0 1
-24.989627 3.649261 17.865067 30.934757 -0.145006 0.955124 0.143109 -0.042731 584807.000000 0 0 1
-25.285247 2.688161 16.837267 30.496942 -0.105916 0.985919 0.160255 -0.042709 76510.800000 0 0 1
-25.022887 1.232561 17.313667 30.453689 -0.049218 0.966085 0.162533 -0.041216 -818526.000000 0 0 1
-23.687147 0.919361 17.530367 29.482875 -0.038793 0.934035 0.131856 -0.032520 -408114.000000 0 0 1
-23.587147 -0.301839 18.289067 29.848527 0.012796 0.911287 0.153765 -0.034392 -17460.300000 0 0 1
-22.146347 -0.839639 18.427867 28.822768 0.037895 0.877142 0.148846 -0.025215 -13602.800000 0 0 1
-21.262947 -0.201939 19.313367 28.725596 0.009497 0.833431 0.112052 -0.023700 38205.100000 0 0 1
-20.097547 -1.002339 19.431967 27.973513 0.049832 0.802855 0.090912 -0.016035 439851.000000 0 0 1
-19.108747 -0.695839 20.584067 28.095057 0.036399 0.748577 0.105442 -0.016293 615638.000000 0 0 1
-19.761947 -0.696539 21.865167 29.480591 0.035232 0.735225 0.116658 -0.022846 219766.000000 0 0 1
-18.799847 -0.566839 22.902967 29.636151 0.030142 0.687547 0.102156 -0.014786 83049.300000 0 0 1
-19.433647 -0.842039 24.305167 31.130641 0.043302 0.674935 0.114591 -0.014035 882562.000000 0 0 1
-20.291247 0.172961 24.873867 32.100995 -0.008524 0.684298 0.123638 -0.021329 92586.000000 0 0 1
-21.638447 0.114061 24.454867 32.653881 -0.005271 0.724378 0.134286 -0.034773 -49026.600000 0 0 1
-22.493147 1.239961 25.125767 33.745864 -0.055070 0.730923 0.118124 -0.042084 17440.900000 0 0 1
-22.100847 2.511361 24.666467 33.214289 -0.113147 0.733783 0.110114 -0.037126 829511.000000 0 0 1
-23.173947 3.067661 23.878267 33.415775 -0.131610 0.774772 0.094791 -0.039344 -51130.900000 0 0 1
-22.650447 4.130561 22.926567 32.492026 -0.180379 0.787518 0.096711 -0.034376 -129468.000000 0 0 1
-22.059347 3.657961 21.760067 31.200897 -0.164328 0.799008 0.119566 -0.026939 981745.000000 0 0 1
-20.676547 3.288861 21.934467 30.322550 -0.157741 0.762124 0.105032 -0.020305 3998.020000 0 0 1
-20.021847 2.756761 20.701967 28.931739 -0.136827 0.773392 0.092030 -0.019483 -412972.000000 0 0 1
-19.629047 3.775761 19.782167 28.122767 -0.190035 0.790596 0.088699 -0.018261 109227.000000 0 0 1
-19.293847 3.103261 18.580767 26.965305 -0.159476 0.810602 0.103401 -0.016986 28016.100000 0 0 1
-18.751747 3.964561 17.420067 25.899894 -0.208355 0.833090 0.081421 -0.020243 -1291210.000000 0 0 1
-17.422147 4.274461 17.292967 24.916840 -0.240594 0.803728 0.094146 -0.029869 -1328520.000000 0 1 0
-17.048047 4.968161 16.169967 24.016377 -0.283568 0.832148 0.097280 -0.032035 -20399.300000 0 1 0
-15.531047 5.210961 16.049667 22.933804 -0.323716 0.795643 0.090885 -0.030194 524539.000000 0 1 0
-14.796147 6.050961 17.028967 23.356494 -0.388202 0.753806 0.079371 -0.035633 705065.000000 0 1 0
-15.217647 7.397761 17.218067 24.140536 -0.452491 0.776682 0.084285 -0.037209 -969348.000000 0 1 0
-14.801847 8.321261 16.050067 23.365417 -0.512144 0.813560 0.054996 -0.032999 -77750.900000 0 1 0
-15.386247 8.261861 14.740667 22.853495 -0.492780 0.869764 0.065893 -0.034225 642010.000000 0 1 0
-16.814947 8.370861 14.787967 23.906019 -0.461904 0.903852 0.074655 -0.029051 470129.000000 0 1 0
-17.517447 7.925961 13.498367 23.492291 -0.424899 0.958697 0.088106 -0.033614 -300224.000000 0 1 0
-17.387247 6.576261 13.315167 22.866072 -0.361594 0.949228 0.078862 -0.031792 -147775.000000 0 1 0
-18.145847 6.111061 12.266667 22.739568 -0.324845 1.001023 0.092701 -0.032116 -111429.000000 0 1 0
-17.838447 4.567561 12.077367 22.021254 -0.250666 0.990297 0.094883 -0.039153 246197.000000 0 1 0
-18.128047 3.845561 13.226567 22.767444 -0.209034 0.950911 0.094985 -0.032138 202717.000000 0 1 0
-17.687847 2.510561 13.132367 22.172549 -0.140995 0.936910 0.080308 -0.036004 -237856.000000 0 1 0
-18.310047 1.667161 14.306167 23.296001 -0.090801 0.909546 0.073465 -0.031328 217451.000000 0 1 0
-19.667647 1.361561 14.073467 24.222565 -0.069118 0.950832 0.104650 -0.030661 -213417.000000 0 1 0
-20.139747 0.268861 14.815967 25.003891 -0.013349 0.936580 0.120598 -0.044601 -381993.000000 0 0 1
-21.654847 0.113061 14.683667 26.164007 -0.005221 0.974942 0.127152 -0.044500 -522105.000000 0 0 1
-22.141947 -0.234639 13.391867 25.877847 0.010597 1.026866 0.152759 -0.046300 899423.000000 0 0 1
-23.576847 -0.275939 13.418967 27.129551 0.011703 1.053392 0.194857 -0.059098 652415.000000 0 0 1
-24.012447 -1.087639 12.194467 26.953397 0.045264 1.101310 0.210155 -0.065126 -341006.000000 0 0 1
-23.819147 -2.414139 12.452967 26.986223 0.101008 1.091160 0.176993 -0.049483 147118.000000 0 0 1
-24.299547 -3.186439 11.447467 27.049323 0.130388 1.133814 0.186294 -0.040861 -325311.000000 0 0 1
-24.094147 -4.706939 11.778667 27.229032 0.192926 1.123447 0.138805 -0.042307 -72199.800000 0 0 1
-24.974667 -5.224039 12.760467 28.528128 0.206200 1.107059 0.126664 -0.035147 352809.000000 0 0 1
-24.837547 -6.649639 12.775067 28.711039 0.261590 1.109674 0.110895 -0.034784 135051.000000 0 0 1
-25.695247 -7.352339 13.889467 30.120091 0.278690 1.091521 0.109662 -0.025567 1147280.000000 0 0 1
-27.113097 -7.275439 13.668567 31.223097 0.262161 1.117678 0.155338 -0.033463 501844.000000 0 0 1
-27.812977 -7.530939 14.834267 32.408829 0.264430 1.095364 0.162377 -0.018894 84764.600000 0 0 1
-29.268187 -6.922739 14.793767 33.517259 0.232259 1.113663 0.180398 -0.031041 966473.000000 0 0 1
-30.296347 -7.562239 14.047367 34.240103 0.244611 1.148056 0.166438 -0.031589 540551.000000 0 0 1
-30.549827 -8.968739 14.101367 34.822102 0.285554 1.153867 0.165997 -0.044401 -415213.000000 0 0 1
-31.005587 -9.579839 15.492667 35.960290 0.299667 1.125387 0.158878 -0.043433 115234.000000 0 0 1
-29.902177 -9.624639 16.396867 35.434886 0.311399 1.089721 0.167797 -0.028816 356001.000000 0 0 1
-30.212207 -10.269539 17.637367 36.459808 0.327661 1.065864 0.150265 -0.021421 -700306.000000 0 0 1
-29.025287 -10.666639 18.468367 36.018399 0.352174 1.032414 0.160713 -0.025067 -784424.000000 0 0 1
-28.197147 -11.686339 17.930367 35.399826 0.392902 1.039664 0.120595 -0.026410 -530514.000000 0 0 1
-27.112317 -11.737539 18.816967 35.027501 0.408562 1.003676 0.115970 -0.026235 -593664.000000 0 0 1
-25.957047 -12.568139 18.202467 34.103610 0.450920 1.007779 0.068466 -0.013862 -348368.000000 0 0 1
-25.523607 -11.967939 16.995967 32.917305 0.438457 1.028244 0.069420 -0.016321 -144215.000000 0 0 1
-24.726047 -12.952739 16.394667 32.371839 0.482545 1.039735 0.069080 -0.027896 -189851.000000 0 0 1
-24.292847 -12.610739 14.931767 31.179012 0.478821 1.071390 0.068867 -0.021476 38420.200000 0 0 1
-23.205947 -11.690639 14.840567 29.923727 0.466665 1.051872 0.067188 -0.027465 42223.300000 0 0 1
-23.034047 -11.539639 13.476867 29.075016 0.464433 1.088832 0.066616 -0.019832 787080.000000 0 0 1
-21.739347 -10.736139 13.078567 27.548372 0.458722 1.076117 0.088197 -0.033170 229530.000000 0 0 1
-21.953047 -9.349739 13.314567 27.324560 0.402630 1.061830 0.095650 -0.037288 190630.000000 0 0 1
-20.802247 -8.552839 13.136267 26.046997 0.390081 1.042191 0.104948 -0.046395 -58187.900000 0 0 1
-20.080547 -8.507439 11.776967 24.785113 0.400740 1.075647 0.143998 -0.046361 -573217.000000 0 1 0
-19.204947 -9.592839 11.558067 24.381170 0.463246 1.076903 0.129216 -0.046145 225563.000000 0 1 0
-18.910847 -9.746239 10.204367 23.595305 0.475874 1.123561 0.136922 -0.037727 -587631.000000 0 1 0
-18.077447 -10.970739 9.770667 23.294144 0.545459 1.137960 0.087847 -0.029236 728443.000000 0 1 0
-16.659047 -11.005239 9.909167 22.289700 0.583802 1.110110 0.107368 -0.038047 789694.000000 0 1 0
-16.221947 -11.226739 11.213267 22.692038 0.605385 1.053940 0.121897 -0.034440 -1022780.000000 0 1 0
-14.782247 -11.669639 11.355167 21.991706 0.668266 1.028226 0.136899 -0.032052 -596513.000000 0 1 0
-14.623547 -13.038739 10.993767 22.465969 0.728169 1.059450 0.136800 -0.034128 -344527.000000 0 1 0
-13.282747 -13.407739 11.053067 21.871651 0.790081 1.040997 0.149252 -0.032620 -555740.000000 0 1 0
-12.932947 -14.923239 10.873967 22.543454 0.856726 1.067454 0.155254 -0.034996 63254.900000 0 1 0
-13.193847 -15.417939 9.543567 22.424766 0.862976 1.131192 0.134124 -0.038291 211145.000000 0 1 0
-13.168047 -16.826739 9.557167 23.406752 0.906776 1.150196 0.112693 -0.033571 1233.380000 0 1 0
-13.362847 -17.534139 8.220367 23.528411 0.919593 1.213887 0.108212 -0.028296 215624.000000 0 1 0
-12.287247 -17.344539 7.303667 22.475609 0.954441 1.239827 0.112764 -0.031653 206810.000000 0 1 0
-12.608647 -18.159939 6.166467 22.951834 0.963899 1.298784 0.084969 -0.027039 758187.000000 0 1 0
-11.577647 -18.127239 4.942767 22.069654 1.002415 1.344918 0.080660 -0.026638 645706.000000 0 1 0
-12.056447 -18.887339 3.849067 22.735540 1.002665 1.400680 0.097192 -0.034953 928656.000000 0 1 0
-11.142047 -18.696739 2.734467 21.936056 1.033371 1.445815 0.109237 -0.046353 679199.000000 0 1 0
-11.562447 -19.556739 1.593367 22.774877 1.036853 1.500778 0.107531 -0.040324 13198.300000 0 1 0
-11.493747 -20.964339 1.795267 23.975669 1.069296 1.495847 0.113792 -0.045871 13165.400000 0 1 0
-11.971647 -21.847239 0.754367 24.923708 1.069512 1.540525 0.118338 -0.042196 -306893.000000 0 1 0
-11.067247 -21.886339 -0.461333 24.529749 1.102624 1.589605 0.127789 -0.042738 -379066.000000 0 1 0
-11.039147 -20.827939 -1.398633 23.614021 1.083425 1.630060 0.114256 -0.053872 -186400.000000 0 1 0
-12.109147 -20.797839 -2.314333 24.177214 1.043545 1.666667 0.123497 -0.047485 553195.000000 0 1 0
-13.265147 -19.807239 -1.852433 23.910716 0.980688 1.648347 0.132205 -0.045664 231650.000000 0 1 0
-14.165147 -20.354039 -0.967133 24.816801 0.962802 1.609777 0.133263 -0.036319 -603765.000000 0 1 0
-15.340847 -19.631639 -0.765633 24.926472 0.907479 1.601517 0.152396 -0.020008 -122628.000000 0 1 0
27.375153 -19.273439 -4.280333 33.751825 -0.613438 1.697957 0.146276 -0.042936 330586.000000 0 0 1
26.106553 -19.521239 -3.649733 32.801698 -0.642061 1.682294 0.116536 -0.035903 732196.000000 0 0 1
26.165153 -20.642139 -2.750733 33.440688 -0.667946 1.653146 0.103358 -0.037465 1083060.000000 0 0 1
24.817153 -20.927239 -1.924433 32.519899 -0.700566 1.630008 0.089398 -0.030037 1541370.000000 0 0 1
23.711153 -21.293139 -2.741233 31.986417 -0.731721 1.656601 0.091572 -0.033880 -275716.000000 0 0 1
22.727253 -21.912539 -1.953733 31.630752 -0.767149 1.632603 0.085089 -0.025023 -317634.000000 0 0 1
21.792153 -22.677139 -2.899433 31.584130 -0.805297 1.662726 0.086358 -0.028597 -680134.000000 0 0 1
21.040053 -21.830639 -3.668633 30.540456 -0.803837 1.691211 0.094885 -0.042572 -856895.000000 0 0 1
20.165453 -22.616339 -4.438133 30.624194 -0.842624 1.716231 0.096689 -0.034402 587095.000000 0 0 1
19.109253 -21.741339 -5.257433 29.419211 -0.849741 1.750469 0.089538 -0.024752 456939.000000 0 0 1
18.026653 -21.137839 -4.601833 28.159285 -0.864671 1.734954 0.086155 -0.019134 393396.000000 0 0 1
18.397753 -19.975439 -3.808133 27.422570 -0.826489 1.710115 0.080122 -0.024344 -878681.000000 0 0 1
17.226953 -19.466139 -3.022633 26.169348 -0.846347 1.686558 0.101623 -0.016606 -577132.000000 0 0 1
16.795953 -20.449639 -2.111033 26.547094 -0.883182 1.650401 0.089971 -0.014204 -108695.000000 0 0 1
15.679953 -20.027639 -1.376933 25.472793 -0.906560 1.624878 0.091697 -0.002256 -399080.000000 0 0 1
15.321653 -20.714139 -0.031733 25.764891 -0.933938 1.572028 0.078436 -0.006563 111963.000000 0 0 1
14.628753 -21.965839 -0.021933 26.391267 -0.983271 1.571627 0.080730 -0.014207 45769.200000 0 0 1
14.245153 -22.311639 1.285367 26.502562 -1.002574 1.522278 0.070908 -0.001482 -70183.000000 0 0 1
13.221653 -23.470539 1.266167 26.968157 -1.057777 1.523829 0.076275 -0.010190 -15224.100000 0 0 1
13.755053 -24.767339 1.233967 28.357454 -1.063839 1.527268 0.057890 -0.009618 275951.000000 0 0 1
12.742653 -25.665059 0.800467 28.665505 -1.109954 1.542868 0.050185 -0.018580 414324.000000 0 0 1
12.967653 -26.997979 1.557467 29.991275 -1.123017 1.518842 0.055457 -0.008374 103110.000000 0 0 1
12.567453 -27.021169 2.905467 29.942047 -1.135459 1.473607 0.064922 -0.015371 -114245.000000 0 0 1
13.153453 -28.055929 3.616367 31.196579 -1.132394 1.454613 0.061038 -0.021656 -125382.000000 0 0 1
12.705353 -28.135069 5.097067 31.288787 -1.146626 1.407163 0.071431 -0.019996 -208453.000000 0 0 1
13.487253 -29.071599 5.749467 32.559487 -1.136417 1.393282 0.072956 -0.024199 -519073.000000 0 0 1
13.058453 -29.338949 7.035567 32.875467 -1.152034 1.355122 0.080127 -0.023203 -199784.000000 0 0 1
13.885553 -30.368819 7.876067 34.308981 -1.141946 1.339168 0.089578 -0.014201 70188.500000 0 0 1
13.425253 -30.796629 9.144967 34.818101 -1.159702 1.305029 0.084205 -0.018243 -110111.000000 0 0 1
12.486653 -31.880479 9.105667 35.428726 -1.197491 1.310866 0.072062 -0.020436 264657.000000 0 0 1
12.140253 -32.273349 10.583467 36.068886 -1.211001 1.272990 0.077651 -0.012033 -375266.000000 0 0 1
13.224653 -32.765689 11.325967 37.104708 -1.187179 1.260602 0.065367 -0.014143 -259962.000000 0 0 1
12.959053 -33.134449 12.675667 37.769052 -1.197981 1.228544 0.076713 -0.004001 462077.000000 0 0 1
11.855553 33.260696 13.067867 37.650991 1.228393 1.216342 0.075000 -0.015286 484786.000000 0 0 1
12.213053 31.986268 12.500467 36.449165 1.206058 1.220734 0.067569 -0.023849 -71438.000000 0 0 1
11.311153 30.965987 12.801467 35.365408 1.220577 1.200408 0.058777 -0.017524 -339350.000000 0 0 1
11.527653 29.773377 11.869167 34.061971 1.201390 1.214871 0.078206 -0.021042 -136059.000000 0 0 1
11.077553 29.911607 10.563767 33.600738 1.216115 1.250981 0.096579 -0.025096 136804.000000 0 0 1
11.956253 30.730397 9.778867 34.393829 1.199748 1.282499 0.043312 -0.014612 110658.000000 0 0 1
11.416153 31.053747 8.377667 34.129885 1.218506 1.322798 0.044118 -0.013788 1099370.000000 0 0 1
10.160653 31.794726 8.424167 34.425427 1.261483 1.323578 0.058455 -0.011199 971911.000000 0 0 1
9.562353 32.054295 7.166067 34.209193 1.280884 1.359755 0.065047 -0.014936 -172912.000000 0 0 1
10.234653 33.257673 6.428867 35.385749 1.272256 1.388102 0.057792 -0.011083 -69033.100000 0 0 1
9.803553 -33.016209 7.021067 35.149325 -1.282157 1.369694 0.061410 -0.014353 19309.500000 0 0 1
10.144353 -31.901449 6.212367 34.047083 -1.262917 1.387304 0.065783 -0.019512 331580.000000 0 0 1
9.250753 -30.630549 6.526867 32.655887 -1.277496 1.369573 0.057500 -0.011314 372612.000000 0 0 1
9.485053 -30.176429 7.852267 32.592042 -1.266254 1.327477 0.078251 -0.017666 336170.000000 0 0 1
8.719153 -29.040509 8.314067 31.440396 -1.279118 1.303174 0.089210 -0.020024 424971.000000 0 0 1
9.339253 -27.649729 7.868067 30.226406 -1.245058 1.307459 0.100482 -0.023177 870432.000000 0 0 1
10.569153 -27.278839 8.557867 30.480799 -1.201157 1.286208 0.098984 -0.025252 1034100.000000 0 0 1
11.261753 -26.173139 7.930167 29.576136 -1.164463 1.299348 0.086062 -0.027755 -20673.200000 0 0 1
10.530253 -25.006849 7.193567 28.070912 -1.172238 1.311641 0.092696 -0.023630 -692496.000000 0 0 1
10.189953 -25.422639 5.909767 28.019119 -1.189582 1.358281 0.095566 -0.024022 -297026.000000 0 0 1
9.641653 -24.364339 5.175967 26.709045 -1.193978 1.375772 0.091447 -0.019106 -78751.500000 0 0 1
9.216253 -24.703939 3.738567 26.630824 -1.213720 1.429946 0.074183 -0.017349 70773.700000 0 0 1
8.194553 -25.658979 3.620367 27.177950 -1.261670 1.437189 0.068842 -0.023133 -258907.000000 0 0 1
8.630753 -27.010309 3.843867 28.615066 -1.261515 1.436059 0.070718 -0.020652 -393085.000000 0 0 1
7.566553 -28.006289 3.456867 29.215661 -1.306923 1.452196 0.076530 -0.019579 516825.000000 0 0 1
6.540953 -28.304809 4.452167 29.389931 -1.343693 1.418725 0.066203 -0.015755 920814.000000 0 0 1
5.517553 -29.201919 4.017567 29.988936 -1.384053 1.436424 0.066596 -0.013616 480607.000000 0 0 1
5.785453 -30.696179 4.298467 31.530995 -1.384507 1.434045 0.056165 -0.007916 -32176.000000 0 0 1
6.749253 -31.269889 3.434767 32.173840 -1.358219 1.463836 0.060672 -0.010102 130261.000000 0 0 1
7.146153 -32.580829 3.726067 33.562799 -1.354879 1.459549 0.063526 -0.004716 366584.000000 0 0 1
8.222953 -33.217889 2.775267 34.332888 -1.328129 1.489874 0.067073 -0.006706 526661.000000 0 0 1
7.769253 -33.424339 1.457867 34.346369 -1.342409 1.528338 0.068718 -0.012611 358563.000000 0 0 1
8.709053 33.108327 0.898567 34.246406 1.313576 1.544555 0.055475 -0.013448 79659.900000 0 0 1
8.232953 32.486174 -0.412633 33.515717 1.322593 1.583108 0.067332 -0.012431 602785.000000 0 0 1
7.125153 31.601471 -0.286533 32.396031 1.349036 1.579641 0.063693 -0.010636 339707.000000 0 0 1
5.831653 32.190630 -0.383933 32.716849 1.391580 1.582532 0.070717 -0.011496 514972.000000 0 0 1
4.712353 31.192917 0.071167 31.546939 1.420859 1.568540 0.064314 -0.010621 361108.000000 0 0 1
4.645453 30.147557 -0.855733 30.515368 1.417908 1.598843 0.075464 -0.012805 -183369.000000 0 0 1
3.354953 29.593107 -0.755233 29.792248 1.457909 1.596149 0.074025 -0.020937 -1894.580000 0 0 1
3.036153 28.508457 -1.749633 28.723014 1.464696 1.631748 0.077014 -0.020693 -186121.000000 0 0 1
2.575153 29.040667 -3.001133 29.308677 1.482354 1.673374 0.088824 -0.029391 187414.000000 0 0 1
2.361953 28.082737 -4.034233 28.469176 1.486887 1.712980 0.084760 -0.041732 -198771.000000 0 0 1
2.136853 28.681637 -5.404433 29.264489 1.496431 1.756538 0.096040 -0.045569 -939104.000000 0 0 1
0.860553 29.212927 -5.472833 29.733610 1.541347 1.755914 0.111295 -0.045228 -592957.000000 0 0 1
0.637353 29.938707 -6.677933 30.681055 1.549511 1.790209 0.108866 -0.037066 -358701.000000 0 0 1
0.582753 29.231057 -8.045233 30.323589 1.550863 1.839325 0.119127 -0.039761 -374740.000000 0 0 1
-0.692447 28.679807 -8.341033 29.876138 -1.546657 1.853744 0.123636 -0.030379 400013.000000 0 0 1
-1.040747 28.613457 -9.721933 30.237874 -1.534440 1.898125 0.125700 -0.036112 -120733.000000 0 0 1
-1.148347 29.809577 -10.647733 31.674971 -1.532293 1.913629 0.129280 -0.043676 353950.000000 0 0 1
0.057453 30.560867 -10.903733 32.447824 1.568916 1.913504 0.119335 -0.044302 638127.000000 0 0 1
-0.235147 31.886998 -11.302633 33.831722 -1.563422 1.911429 0.119043 -0.048334 33000.700000 0 0 1
-0.189347 32.888501 -10.156333 34.421511 -1.565039 1.870312 0.114212 -0.050482 235665.000000 0 0 1
1.077553 33.234318 -9.619833 34.615346 1.538385 1.852410 0.106751 -0.047335 100586.000000 0 0 1
0.850753 -33.410709 -8.436433 34.469880 -1.545338 1.818056 0.100735 -0.041712 43851.000000 0 0 1
1.985953 -33.309689 -7.374833 34.174077 -1.511246 1.788309 0.087476 -0.041850 626944.000000 0 0 1
3.143753 -32.636449 -7.872833 33.719467 -1.474766 1.806452 0.095592 -0.042292 -80488.400000 0 0 1
4.034553 -32.234809 -6.896933 33.210363 -1.446282 1.779993 0.094486 -0.043646 -190813.000000 0 0 1
5.379153 -31.587599 -7.413033 32.888672 -1.402121 1.798148 0.092603 -0.046304 564776.000000 0 0 1
6.288353 -32.410019 -8.045733 33.980679 -1.379153 1.809840 0.103482 -0.039846 -20482.700000 0 0 1
6.916553 -33.410489 -7.232533 34.877055 -1.366662 1.779684 0.101954 -0.032354 -1213020.000000 0 0 1
7.213153 32.708428 -8.004433 34.437505 1.353742 1.805375 0.085941 -0.028784 -563171.000000 0 0 1
6.130953 31.936395 -8.388633 33.584089 1.381130 1.823249 0.080403 -0.027563 -643806.000000 0 0 1
5.163153 32.525372 -9.229733 34.201549 1.413368 1.844047 0.087877 -0.035563 -68692.700000 0 0 1
4.058253 31.594550 -9.771833 33.319269 1.443048 1.868451 0.084005 -0.038891 107906.000000 0 0 1
4.557953 30.621697 -10.657033 32.741955 1.423034 1.902322 0.076851 -0.024198 98853.400000 0 0 1
3.702253 29.494717 -10.712133 31.597386 1.445927 1.916671 0.093004 -0.038673 401036.000000 0 0 1
4.314253 28.407487 -11.669533 31.012515 1.420078 1.956579 0.093979 -0.029596 191927.000000 0 0 1
4.386253 28.813457 -13.012133 31.918178 1.419727 1.990699 0.096595 -0.029509 117456.000000 0 0 1
5.632753 28.435877 -13.566533 32.005903 1.375242 2.008517 0.086274 -0.032645 152722.000000 0 0 1
5.775653 28.868187 -15.018833 33.049897 1.373334 2.042527 0.082068 -0.030746 -320041.000000 0 0 1
4.846053 28.219337 -15.835433 32.719660 1.400727 2.075986 0.082312 -0.032772 -229612.000000 0 0 1
4.668753 28.911357 -17.039133 33.882087 1.410693 2.097741 0.092360 -0.031688 -533433.000000 0 0 1
3.529853 28.312287 -17.809433 33.633634 1.446761 2.128822 0.081733 -0.038625 -537331.000000 0 0 1
3.913253 27.029697 -18.287833 32.868874 1.427019 2.160828 0.098596 -0.029695 247516.000000 0 0 1
2.983253 26.538277 -19.250733 32.920672 1.458853 2.195382 0.089361 -0.035377 344273.000000 0 0 1
3.517453 25.283557 -19.967033 32.408535 1.432563 2.234583 0.107078 -0.035757 222131.000000 0 0 1
3.534253 24.103157 -19.197733 31.016222 1.425204 2.238211 0.112970 -0.042283 438994.000000 0 0 1
4.687553 23.339247 -19.576133 30.820749 1.372589 2.259013 0.112317 -0.042152 758802.000000 0 0 1
5.026453 22.093527 -18.708833 29.383832 1.347096 2.261014 0.126910 -0.041374 -147711.000000 0 0 1
4.069553 21.106127 -18.858533 28.595002 1.380320 2.290956 0.137631 -0.032295 -440898.000000 0 0 1
4.586653 19.860527 -18.355033 27.429640 1.343832 2.303885 0.131624 -0.026544 338781.000000 0 0 1
3.487453 18.814427 -18.034333 26.294147 1.387516 2.326593 0.118464 -0.036694 272032.000000 0 0 1
2.763953 19.039727 -16.827633 25.560122 1.426636 2.289427 0.109690 -0.030480 -265379.000000 0 0 1
1.864753 17.993927 -16.547133 24.516654 1.467533 2.311672 0.073635 -0.016513 -236063.000000 0 1 0
2.399453 16.806227 -15.719333 23.136639 1.428983 2.317759 0.064951 -0.019978 663615.000000 0 1 0
3.370353 16.007027 -16.476033 23.217318 1.363273 2.359789 0.081423 -0.025449 439934.000000 0 1 0
2.823253 15.017027 -17.342833 23.113972 1.384962 2.419340 0.094462 -0.026685 -177731.000000 0 1 0
3.015353 15.340627 -18.892133 24.522232 1.376711 2.450278 0.098014 -0.021293 582774.000000 0 1 0
4.387353 15.577027 -19.244533 25.144476 1.296253 2.442394 0.128900 -0.029902 474254.000000 0 0 1
4.545553 15.841727 -20.601333 26.382518 1.291368 2.466855 0.134058 -0.032122 -437213.000000 0 0 1
4.715053 14.569727 -21.507333 26.402160 1.257813 2.522844 0.131985 -0.053702 616823.000000 0 0 1
3.555153 13.752927 -21.763633 25.989187 1.317832 2.563326 0.118654 -0.043973 546945.000000 0 0 1
2.497153 14.375227 -22.470833 26.792186 1.398800 2.565704 0.129656 -0.045867 627885.000000 0 0 1
1.369753 13.343827 -22.910233 26.548309 1.468504 2.611903 0.114700 -0.032075 534341.000000 0 0 1
0.853953 12.693127 -21.760233 25.206198 1.503621 2.612547 0.104529 -0.019970 936776.000000 0 0 1
-0.114447 11.678827 -22.233633 25.114588 -1.560997 2.657908 0.055375 -0.015979 950908.000000 0 0 1
-0.676547 10.697827 -21.177033 23.735373 -1.507639 2.673021 0.030875 -0.014451 569732.000000 0 1 0
-1.759747 11.179027 -20.330633 23.268046 -1.414662 2.633672 0.034289 -0.011806 626018.000000 0 1 0
-2.120247 10.222227 -19.334833 21.973282 -1.366281 2.646500 0.020423 -0.011003 715268.000000 0 1 0
-3.170847 9.138827 -19.789233 22.026942 -1.236828 2.686933 0.030154 -0.009641 18164.600000 0 1 0
-2.564247 8.193427 -20.619333 22.335275 -1.267489 2.747053 0.028628 -0.007481 -811088.000000 0 1 0
-3.382147 7.101827 -20.901433 22.332594 -1.126340 2.781647 0.037449 -0.002353 -483258.000000 0 1 0
-2.793247 5.910027 -21.781533 22.741280 -1.129285 2.850034 0.046586 -0.009533 -673024.000000 0 1 0
-1.810747 5.196427 -21.128533 21.833382 -1.235494 2.886805 0.046783 0.004373 -411565.000000 0 1 0
-1.591047 3.891327 -21.678633 22.082504 -1.182667 2.950045 0.066864 -0.011430 -413525.000000 0 1 0
-0.793647 2.919927 -20.825833 21.044504 -1.305404 2.997309 0.051755 -0.012322 1076610.000000 0 1 0
0.630553 3.177827 -20.878033 21.127907 1.374918 2.987644 0.044000 -0.012154 1170970.000000 0 1 0
1.371953 2.249027 -20.071233 20.243388 1.023041 3.011083 0.038024 -0.007624 675938.000000 0 1 0
2.912653 2.400427 -20.247533 20.596315 0.689287 2.957298 0.023184 -0.007873 311409.000000 0 1 0
3.396153 1.726127 -21.362433 21.699468 0.470233 2.965114 0.053071 -0.011773 -785376.000000 0 1 0
4.783953 1.750727 -21.274833 21.876238 0.350820 2.906569 0.070883 -0.014253 -958207.000000 0 1 0
5.585253 1.186127 -22.396333 23.112717 0.209259 2.891966 0.072647 -0.018586 -279264.000000 0 1 0
6.992253 1.236127 -22.240933 23.346921 0.174977 2.832560 0.081397 -0.027564 268734.000000 0 1 0
7.593053 0.824427 -23.485133 24.695862 0.108153 2.827168 0.093681 -0.029673 -1898430.000000 0 1 0
9.051453 0.623527 -23.540933 25.228815 0.068778 2.773727 0.097528 -0.033953 -1926050.000000 0 0 1
9.693053 1.828327 -23.329533 25.329137 0.186432 2.741578 0.090911 -0.045146 185630.000000 0 0 1
11.095453 1.629427 -23.129433 25.704762 0.145813 2.690133 0.101935 -0.045687 426583.000000 0 0 1
13.512753 -19.891439 22.728536 33.088520 -0.974081 0.813580 0.103176 -0.021319 -460414.000000 0 0 1
12.965053 -21.200839 22.555836 33.560898 -1.021938 0.833773 0.096979 -0.019667 538708.000000 0 0 1
11.857153 -21.201939 21.619836 32.519711 -1.060880 0.843540 0.088465 -0.007386 628172.000000 0 0 1
12.048953 -20.690639 20.203936 31.328562 -1.043465 0.869898 0.114638 -0.026819 -533230.000000 0 0 1
12.119053 -19.279639 20.096036 30.371476 -1.009617 0.847746 0.140779 -0.030599 30279.600000 0 0 1
12.292453 -19.025239 18.729836 29.391680 -0.997159 0.879872 0.149548 -0.029277 -54370.400000 0 0 1
12.354953 -17.478639 18.391036 28.220168 -0.955481 0.860975 0.186088 -0.047806 422705.000000 0 0 1
11.081253 -16.866639 18.599936 27.445132 -0.989521 0.826148 0.200217 -0.052453 346809.000000 0 0 1
11.034953 -15.529139 18.114436 26.287965 -0.952994 0.810582 0.217063 -0.049539 177640.000000 0 0 1
9.730253 -14.931839 18.662236 25.805361 -0.993266 0.762383 0.187362 -0.045075 767507.000000 0 0 1
8.507953 -15.400539 18.077336 25.226017 -1.066078 0.771860 0.141216 -0.033894 146103.000000 0 0 1
7.399253 -14.719039 18.580436 24.832069 -1.104991 0.725386 0.101808 -0.018336 450981.000000 0 1 0
5.992653 -15.322639 18.277936 24.592236 -1.197988 0.732896 0.035000 0.001726 513783.000000 0 1 0
5.651953 -15.119839 16.884836 23.359190 -1.213069 0.762900 0.012139 -0.010595 -23023.300000 0 1 0
4.314353 -15.423039 16.556536 23.034814 -1.298034 0.768777 -0.002390 -0.007817 336789.000000 0 1 0
3.669053 -16.887639 16.598436 23.961685 -1.356859 0.805560 -0.004041 0.000279 -313698.000000 0 1 0
2.308253 -16.833039 16.315336 23.555666 -1.434520 0.805669 0.002107 -0.000017 -978329.000000 0 1 0
1.711753 -18.100139 16.297336 24.416148 -1.476506 0.839974 0.024842 -0.020363 317533.000000 0 1 0
0.249053 -18.064939 15.800736 24.001402 -1.557011 0.852204 0.045065 -0.011461 -64945.200000 0 1 0
0.159353 -17.572639 14.456636 22.755600 -1.561728 0.882399 0.045399 -0.015493 846743.000000 0 1 0
-1.243247 -17.535739 14.126236 22.552125 1.500017 0.893894 0.049925 -0.017261 828077.000000 0 1 0
-1.625547 -18.695439 13.194336 22.940190 1.484066 0.957994 0.046276 -0.007736 36827.900000 0 1 0
-3.019447 -18.981639 13.152236 23.289504 1.413046 0.970693 0.047331 -0.013291 390845.000000 0 1 0
-3.268547 -20.102039 12.317736 23.801302 1.409609 1.026842 0.076519 -0.024624 -527438.000000 0 1 0
-4.748047 -20.414239 12.217036 24.259865 1.342274 1.043047 0.064124 -0.026483 -466682.000000 0 1 0
-5.335847 -20.889039 13.434536 25.402952 1.320706 1.013543 0.062282 -0.033305 398267.000000 0 0 1
-6.653047 -21.384639 13.208636 26.000651 1.269175 1.037921 0.067629 -0.032812 7691.060000 0 0 1
-7.305847 -21.828839 14.520036 27.215897 1.247827 1.008048 0.066700 -0.038504 981604.000000 0 0 1
-8.736347 -21.771539 14.337136 27.493220 1.189192 1.022213 0.082738 -0.038603 508415.000000 0 0 1
-9.463847 -22.440639 15.299036 28.761209 1.171700 1.009915 0.078997 -0.032613 11677.700000 0 0 1
-10.958347 -22.068939 15.336336 29.022864 1.109912 1.014055 0.112004 -0.039665 34386.900000 0 0 1
-11.138847 -20.712639 15.784636 28.323878 1.077383 0.979677 0.102851 -0.034362 -970133.000000 0 0 1
-12.410247 -20.198839 15.602736 28.380498 1.019853 0.988708 0.099226 -0.032242 -601833.000000 0 0 1
-12.534547 -18.933939 16.494936 28.065848 0.986021 0.942555 0.110585 -0.030128 -154493.000000 0 0 1
-12.560647 -19.205539 17.872736 29.087064 0.991606 0.909099 0.114573 -0.032596 -123373.000000 0 0 1
-13.027947 -18.120039 18.633436 29.073496 0.947445 0.875116 0.115017 -0.036039 -159965.000000 0 0 1
-13.634247 -18.622339 19.949236 30.506658 0.938821 0.858028 0.113921 -0.037858 504949.000000 0 0 1
-14.957947 -19.129539 19.746536 31.298644 0.907172 0.888075 0.115792 -0.031969 265659.000000 0 0 1
-15.423447 -19.705139 20.922436 32.617841 0.906686 0.874421 0.097211 -0.028558 -274561.000000 0 0 1
-16.819047 -20.286439 20.662936 33.486966 0.878574 0.905815 0.109587 -0.033466 -837084.000000 0 0 1
-16.793747 -21.398239 19.807636 33.649027 0.905381 0.941403 0.113556 -0.035621 684025.000000 0 0 1
-18.070347 -21.647339 19.212436 34.121290 0.875216 0.972709 0.103057 -0.029402 1721960.000000 0 0 1
-19.214447 -22.284639 20.156536 35.666315 0.859246 0.970191 0.104153 -0.032047 557301.000000 0 0 1
-19.845647 -21.411639 21.112836 36.028597 0.823337 0.944680 0.101986 -0.032846 239601.000000 0 0 1
-20.442047 -22.139539 22.164236 37.407083 0.825242 0.936620 0.080205 -0.022964 112675.000000 0 0 1
-21.231347 -21.399339 23.273706 38.083687 0.789339 0.913321 0.064695 -0.020046 38273.000000 0 0 1
-22.395447 -20.729939 22.858946 38.128963 0.746797 0.927899 0.073212 -0.010119 134841.000000 0 0 1
-22.872347 -19.764539 23.786616 38.465366 0.712637 0.904103 0.071157 -0.009158 418737.000000 0 0 1
-23.911747 -18.713539 23.291516 38.268301 0.664046 0.916454 0.073341 -0.006333 182505.000000 0 0 1
-23.374247 -17.729939 22.432936 36.931596 0.648934 0.917989 0.085012 -0.004228 18357.600000 0 0 1
-24.375347 -16.872439 21.864236 36.835873 0.605467 0.935323 0.073206 -0.005244 148445.000000 0 0 1
-24.001547 -16.164239 20.504236 35.465202 0.592695 0.954336 0.074508 -0.013245 -222350.000000 0 0 1
-22.794147 -15.449339 20.407036 34.273931 0.595655 0.933021 0.083337 -0.009405 -382341.000000 0 0 1
-22.502147 -15.107439 19.088636 33.150526 0.591257 0.957193 0.073245 -0.011694 337192.000000 0 0 1
-21.380247 -14.055939 18.892336 31.805734 0.581578 0.934785 0.073813 -0.023532 292657.000000 0 0 1
-21.213847 -13.852239 17.496236 30.790097 0.578468 0.966428 0.066632 -0.033016 -168242.000000 0 0 1
-20.371147 -12.768739 17.190836 29.555865 0.559896 0.950055 0.069970 -0.035918 -419762.000000 0 0 1
-19.944147 -12.760339 15.713136 28.416507 0.569174 0.984886 0.084289 -0.043506 703787.000000 0 0 1
-19.123947 -11.703839 15.153636 27.061742 0.549196 0.976452 0.080755 -0.038546 1045530.000000 0 0 1
-17.918947 -11.267639 15.793936 26.410164 0.561335 0.929762 0.141952 -0.057203 331413.000000 0 0 1
-17.161247 -10.194139 14.982936 24.958310 0.536011 0.926897 0.127398 -0.054255 144491.000000 0 1 0
-17.578947 -8.862739 15.349536 24.963489 0.466976 0.908563 0.135895 -0.052590 255079.000000 0 1 0
-16.976847 -7.923239 14.469836 23.672076 0.436662 0.913142 0.129518 -0.046462 -269821.000000 0 1 0
-17.252547 -6.520139 15.140636 23.862134 0.361331 0.883429 0.136432 -0.036360 536707.000000 0 1 0
-16.543347 -6.226839 16.367436 24.090430 0.359993 0.823829 0.132670 -0.035467 980217.000000 0 1 0
-15.124647 -6.112339 16.160636 22.962617 0.384062 0.790092 0.127035 -0.038385 185238.000000 0 1 0
-14.249447 -5.999239 17.397636 23.274779 0.398491 0.726523 0.110178 -0.036837 -137104.000000 0 1 0
-14.251847 -7.083539 18.243036 24.209503 0.461266 0.717353 0.103665 -0.038196 225658.000000 0 1 0
-13.677847 -8.308039 17.695636 23.858804 0.545849 0.735222 0.117029 -0.043417 -319779.000000 0 1 0
-13.975847 -9.554739 18.530236 25.099541 0.599676 0.740295 0.125906 -0.042689 -149967.000000 0 0 1
-15.308247 -9.991439 18.539236 26.036024 0.578259 0.778367 0.132559 -0.045107 -510195.000000 0 0 1
-15.981947 -9.451139 19.657736 27.040215 0.534045 0.756881 0.101802 -0.039534 -1069820.000000 0 0 1
-17.368647 -10.094239 19.894636 28.272957 0.526463 0.790257 0.083990 -0.026198 647477.000000 0 0 1
-18.402347 -9.973339 18.911336 28.209085 0.496650 0.836050 0.087071 -0.026716 414434.000000 0 0 1
-18.765547 -8.653539 18.554236 27.772093 0.432079 0.839158 0.081853 -0.029615 -1021930.000000 0 0 1
-19.822047 -8.526139 17.470836 27.763982 0.406211 0.890192 0.096124 -0.032931 213324.000000 0 0 1
-21.122447 -8.984939 17.833136 29.067295 0.402187 0.910296 0.086039 -0.026137 -118555.000000 0 0 1
-21.948847 -9.172039 16.736136 29.085674 0.395827 0.957693 0.095848 -0.014256 348691.000000 0 0 1
-23.444747 -9.458639 17.068036 30.503112 0.383472 0.976953 0.079502 -0.014875 114053.000000 0 0 1
-24.130347 -8.352139 17.558136 30.989031 0.333219 0.968432 0.099953 -0.012664 -57270.500000 0 0 1
-25.470317 -8.791839 17.759036 32.270991 0.332374 0.988061 0.106755 -0.008607 388842.000000 0 0 1
-26.362657 -7.680139 18.449136 33.080883 0.283481 0.979187 0.140899 -0.017370 139197.000000 0 0 1
-26.225537 -7.536039 19.828636 33.730483 0.279816 0.942391 0.145758 -0.019817 243471.000000 0 0 1
-26.971877 -6.458939 20.388236 34.422089 0.235043 0.936885 0.135590 -0.025324 -472704.000000 0 0 1
-27.031857 -6.381739 21.981236 35.420653 0.231837 0.901318 0.131800 -0.024224 391186.000000 0 0 1
-25.844107 -6.002039 22.641566 34.879548 0.228195 0.864348 0.134823 -0.027724 838975.000000 0 0 1
-24.676147 -6.836339 22.531966 34.107730 0.270264 0.849163 0.143188 -0.019538 141599.000000 0 0 1
-23.640247 -6.707639 23.663206 34.114528 0.276472 0.804266 0.151600 -0.020678 -343943.000000 0 0 1
-22.995547 -5.484439 23.548346 33.367632 0.234126 0.787351 0.135190 -0.026258 28363.300000 0 0 1
-22.391447 -5.150539 24.808296 33.813555 0.226090 0.747076 0.127634 -0.023935 324950.000000 0 0 1
-21.667547 -3.784739 24.876606 33.206210 0.172929 0.724010 0.119134 -0.025369 199317.000000 0 0 1
-20.797047 -3.529439 25.986476 33.470450 0.168107 0.681862 0.111085 -0.030302 137185.000000 0 0 1
-21.354747 -3.269239 27.287256 34.803843 0.151912 0.669664 0.116567 -0.036557 335629.000000 0 0 1
-22.134447 -1.914439 27.473356 35.332480 0.086277 0.680010 0.116519 -0.040558 228595.000000 0 0 1
-23.355347 -1.737439 26.821646 35.607466 0.074255 0.717793 0.118178 -0.042329 -571117.000000 0 0 1
-24.287147 -1.100239 27.689906 36.848432 0.045270 0.720533 0.098536 -0.036923 616278.000000 0 0 1
-25.626217 -0.741339 26.999956 37.232381 0.028921 0.759509 0.102920 -0.044598 -542011.000000 0 0 1
-25.410467 0.215961 25.959866 36.327030 -0.008499 0.774722 0.109661 -0.050218 468450.000000 0 0 1
-26.628647 0.537561 25.271436 36.715382 -0.020185 0.811644 0.103106 -0.043804 601181.000000 0 0 1
-27.461197 -0.592639 24.594926 36.869757 0.021578 0.840519 0.101321 -0.037026 -1031940.000000 0 0 1
-28.188647 -1.350239 25.496736 38.032966 0.047864 0.836069 0.083627 -0.033889 -383317.000000 0 0 1
-28.600677 -2.625739 25.058786 38.116086 0.091550 0.853389 0.067044 -0.033966 -152835.000000 0 0 1
-27.592957 -3.786439 25.156776 37.530944 0.136373 0.836191 0.092866 -0.036129 932.066000 0 0 1
-27.418837 -4.230539 26.492636 38.360785 0.153086 0.808454 0.071310 -0.036539 -244786.000000 0 0 1
-26.576877 -5.344839 26.552406 37.946383 0.198461 0.795770 0.095394 -0.035641 -80356.800000 0 0 1
-26.199957 -5.945339 27.920886 38.747396 0.223143 0.766147 0.068589 -0.029347 577353.000000 0 0 1
-27.373967 -6.359339 28.634776 40.121387 0.228264 0.776025 0.077937 -0.025008 579805.000000 0 0 1
-27.022287 -7.067239 29.807676 40.849081 0.255804 0.752910 0.080984 -0.022303 -515974.000000 0 0 1
-28.270447 -7.451139 30.608756 42.327693 0.257706 0.762462 0.046195 -0.026517 -327941.000000 0 0 1
-29.114807 -8.286639 29.900976 42.548898 0.277287 0.791549 0.042600 -0.027492 306573.000000 0 0 1
-30.456317 -8.278239 30.390526 43.814388 0.265395 0.804294 0.055369 -0.028448 867861.000000 0 0 1
-31.544217 -9.049939 29.594766 44.190375 0.279393 0.836977 0.048257 -0.029501 -155607.000000 0 0 1
-31.347827 -10.462739 29.600406 44.365969 0.322137 0.840370 0.067178 -0.024339 260282.000000 0 0 1
-32.092707 -11.252739 28.648186 44.466668 0.337238 0.870738 0.046716 -0.019577 56089.300000 0 0 1
-31.284117 -12.411139 28.015026 43.790113 0.377678 0.876614 0.067846 -0.031228 -25351.800000 0 0 1
-30.293897 -11.987839 27.105476 42.380837 0.376810 0.876859 0.081547 -0.027504 -463200.000000 0 0 1
-29.404537 -13.021639 26.829406 41.880866 0.416888 0.875501 0.087604 -0.027759 -742769.000000 0 0 1
-28.126287 -12.527939 26.126226 40.380898 0.419037 0.867160 0.113048 -0.034744 -565773.000000 0 0 1
-27.188477 -11.901039 26.960816 40.096554 0.412598 0.833353 0.105111 -0.034706 -115430.000000 0 0 1
-27.535737 -10.674439 27.626516 40.439892 0.369821 0.818729 0.108511 -0.038645 -953300.000000 0 0 1
-27.668027 -9.431639 26.783486 39.646320 0.328532 0.829072 0.108627 -0.028578 -109538.000000 0 0 1
-26.426407 -8.962939 26.325116 38.362755 0.326991 0.814523 0.109660 -0.030213 19336.300000 0 0 1
-25.791067 -9.687539 25.198576 37.336253 0.359311 0.829955 0.108994 -0.027952 147403.000000 0 0 1
-26.466407 -9.659639 23.795416 36.878193 0.349955 0.869454 0.109505 -0.022650 279300.000000 0 0 1
-27.716287 -10.351239 23.708576 37.913550 0.357430 0.895239 0.106581 -0.024999 297394.000000 0 0 1
-28.275467 -10.237239 22.431546 37.516361 0.347373 0.929901 0.122382 -0.016429 216966.000000 0 0 1
-29.652167 -10.969039 22.265036 38.669143 0.354313 0.957235 0.119075 -0.024280 1801930.000000 0 0 1
-30.864327 -10.400239 22.837926 39.778669 0.325017 0.959261 0.129957 -0.024336 966638.000000 0 0 1
-30.863507 -10.408039 24.231406 40.596113 0.325252 0.931177 0.124840 -0.028184 -310881.000000 0 0 1
-32.248297 -10.180839 24.918596 42.006411 0.305799 0.935757 0.073125 -0.025108 113888.000000 0 0 1
-32.753047 -8.925039 24.717226 41.992376 0.266036 0.941455 0.082229 -0.031725 699809.000000 0 0 1
-34.171974 -8.755939 24.909166 43.183988 0.250835 0.955972 0.079970 -0.020600 1277680.000000 0 0 1
-34.797238 -8.701139 26.344866 44.504040 0.245028 0.937301 0.058952 -0.021364 -17453.700000 0 0 1
-34.932771 -9.981539 26.936766 45.227414 0.278319 0.932803 0.054510 -0.029765 310756.000000 0 0 1
-35.873244 -9.901539 28.004206 46.574303 0.269309 0.925694 0.076691 -0.034798 -578771.000000 0 0 1
-36.187697 -11.274239 28.732656 47.562836 0.302018 0.922162 0.072849 -0.019905 -354816.000000 0 0 1
-37.303567 -11.953939 28.257906 48.300746 0.310111 0.945866 0.063164 -0.025862 -115425.000000 0 0 1
37.578088 -11.403039 28.688436 48.632997 -0.294618 0.939866 0.091712 -0.027905 -539549.000000 0 0 1
36.371668 -12.127039 28.136286 47.556429 -0.321828 0.937705 0.104080 -0.030536 -450275.000000 0 0 1
36.117978 -11.642139 26.850336 46.486431 -0.311821 0.955017 0.107134 -0.019557 142488.000000 0 0 1
34.928618 -12.251039 26.345416 45.433218 -0.337338 0.952226 0.115485 -0.015555 316822.000000 0 0 1
34.711748 -11.961239 24.893906 44.358576 -0.331845 0.974965 0.111945 -0.017677 -27102.900000 0 0 1
34.117208 -10.713439 24.712636 43.468104 -0.304268 0.966086 0.128410 -0.033670 -16939.900000 0 0 1
34.359878 -10.181539 23.372516 42.784804 -0.288078 0.992879 0.108419 -0.024644 -236715.000000 0 0 1
33.925188 -8.773439 23.259966 42.058503 -0.253067 0.984790 0.132101 -0.009683 229943.000000 0 0 1
32.528638 -8.554539 23.141186 40.826547 -0.257162 0.968159 0.148039 -0.017207 1227.710000 0 0 1
32.271928 -7.243139 22.828096 40.187839 -0.220782 0.966680 0.150963 -0.005436 725781.000000 0 0 1
30.763208 -6.951839 22.515176 38.750951 -0.222246 0.950812 0.153878 0.004363 704107.000000 0 0 1
30.361108 -7.497839 21.283336 37.828493 -0.242111 0.973236 0.150116 0.007984 -1036150.000000 0 0 1
29.018408 -7.269339 21.080636 36.596510 -0.245457 0.956934 0.152264 -0.014549 -1094980.000000 0 0 1
15.904553 -17.177239 25.534166 34.641102 -0.823850 0.742018 0.126067 -0.026846 95960.300000 0 0 1
15.289453 -18.439939 25.325666 34.859548 -0.878533 0.757573 0.120331 -0.019371 -65210.700000 0 0 1
16.166253 -19.506539 25.564606 35.991692 -0.878763 0.780884 0.118090 -0.022314 -1165200.000000 0 0 1
15.517353 -20.916239 25.670216 36.568255 -0.932512 0.792621 0.104316 -0.027250 -230450.000000 0 0 1
14.710753 -21.175939 26.789376 37.181948 -0.963642 0.766282 0.101894 -0.022661 -153450.000000 0 0 1
13.442653 -20.596639 26.604946 36.231886 -0.992552 0.746167 0.106253 -0.020874 -1003910.000000 0 0 1
12.473553 -20.688939 27.802986 36.832428 -1.028240 0.715370 0.103408 -0.017246 63733.400000 0 0 1
12.981853 -20.063839 28.974436 37.558009 -0.996514 0.689667 0.105605 -0.020658 -297958.000000 0 0 1
12.195353 -19.028839 29.457626 37.129167 -1.000853 0.654451 0.109442 -0.021568 49283.900000 0 0 1
12.025953 -17.624439 28.616256 35.695020 -0.972018 0.640683 0.129478 -0.023901 -768875.000000 0 0 1
13.286553 -17.095139 28.673426 35.929676 -0.910106 0.646756 0.122253 -0.015542 -1183330.000000 0 0 1
13.222653 -15.789739 28.240786 34.952774 -0.873651 0.630098 0.129147 -0.018504 320572.000000 0 0 1
14.485053 -14.943339 28.571826 35.347834 -0.800970 0.629529 0.123239 -0.014952 314217.000000 0 0 1
14.311853 -13.598939 28.059576 34.308892 -0.759861 0.613129 0.160194 -0.029472 96877.600000 0 0 1
14.811853 -12.670439 28.970536 34.917373 -0.707636 0.592247 0.153861 -0.027280 -223748.000000 0 0 1
14.205753 -11.234739 28.819176 34.037739 -0.669142 0.561076 0.142678 -0.022803 136526.000000 0 0 1
14.479453 -10.529439 27.546596 32.853289 -0.628748 0.576321 0.176014 -0.033240 -554930.000000 0 0 1
15.811153 -10.312739 27.214086 33.120260 -0.577952 0.606453 0.151314 -0.031726 -992329.000000 0 0 1
15.955353 -9.118239 26.294846 32.080126 -0.519188 0.609976 0.137846 -0.025921 47099.900000 0 0 1
16.069753 -7.865539 26.910856 32.315597 -0.455182 0.586738 0.135939 -0.031613 236459.000000 0 0 1
17.360353 -7.692939 27.479486 33.401876 -0.417128 0.604664 0.127339 -0.033352 -348111.000000 0 0 1
17.867653 -6.249039 27.363676 33.272726 -0.336443 0.605170 0.117965 -0.034441 810694.000000 0 0 1
19.256053 -6.035439 27.672366 34.248824 -0.303733 0.630081 0.101214 -0.040662 792164.000000 0 0 1
19.685153 -4.715639 27.392716 34.060290 -0.235122 0.636397 0.103156 -0.031896 850864.000000 0 0 1
21.185053 -4.603839 26.904066 34.551853 -0.213988 0.678273 0.094087 -0.031482 79163.400000 0 0 1
21.477553 -5.353339 25.747246 33.953854 -0.244275 0.710093 0.097505 -0.028274 810333.000000 0 0 1
22.695553 -5.064539 25.013216 34.152579 -0.219554 0.748962 0.096615 -0.026530 248500.000000 0 0 1
23.935653 -5.563539 25.725996 35.576612 -0.228382 0.762494 0.090436 -0.027648 -1386780.000000 0 0 1
24.323253 -4.668039 26.721586 36.434247 -0.189611 0.747458 0.083599 -0.029451 -547517.000000 0 0 1
25.328153 -5.117339 27.578306 37.792399 -0.199358 0.752867 0.090003 -0.039372 -475541.000000 0 0 1
26.028153 -4.000039 28.419596 38.744528 -0.152488 0.747321 0.083930 -0.032314 -111603.000000 0 0 1
26.816353 -3.236639 27.537536 38.573417 -0.120115 0.775745 0.080670 -0.026933 -45224.300000 0 0 1
27.109753 -2.004239 28.164196 39.143040 -0.073796 0.767686 0.073867 -0.034304 -2867.840000 0 0 1
27.999853 -1.073839 27.256386 39.090350 -0.038333 0.799220 0.091198 -0.036824 139207.000000 0 0 1
29.371853 -1.338639 27.287666 40.113768 -0.045544 0.822683 0.094336 -0.037674 -642380.000000 0 0 1
30.143653 -0.606339 26.368656 40.053882 -0.020112 0.852199 0.100979 -0.022136 184916.000000 0 0 1
31.653353 -0.701539 26.679236 41.403002 -0.022160 0.870585 0.108089 -0.031534 -74267.400000 0 0 1
32.057253 0.099161 27.741236 42.394026 0.003093 0.857452 0.098799 -0.033194 -854244.000000 0 0 1
33.416553 -0.136539 27.895766 43.529971 -0.004086 0.875204 0.119724 -0.042947 -430934.000000 0 0 1
34.193053 0.937961 28.742226 44.678409 0.027424 0.871978 0.126304 -0.038639 141965.000000 0 0 1
34.220953 2.227061 28.150086 44.367339 0.064987 0.883464 0.133851 -0.031295 247550.000000 0 0 1
34.205753 3.252061 29.128576 45.045348 0.094789 0.867612 0.118096 -0.025877 -124415.000000 0 0 1
34.195253 4.610561 28.340376 44.651422 0.134022 0.883173 0.125665 -0.032350 -371316.000000 0 0 1
34.318353 5.703961 29.225626 45.435908 0.164702 0.872090 0.138347 -0.027820 -83251.300000 0 0 1
33.100153 6.103661 29.778946 44.940632 0.182351 0.846473 0.124904 -0.024377 -633242.000000 0 0 1
33.236553 7.197761 30.802736 45.883382 0.213268 0.834799 0.087878 -0.021973 -174813.000000 0 0 1
33.889353 6.730761 31.959788 47.066118 0.196059 0.824342 0.102132 -0.019565 122917.000000 0 0 1
33.777653 7.669361 33.026814 47.859371 0.223269 0.809196 0.118319 -0.024590 103942.000000 0 0 1
34.261953 7.134461 -33.034253 48.125293 0.205299 2.327353 0.114690 -0.022501 269649.000000 0 0 1
33.398753 6.134161 -32.451143 46.970004 0.181640 2.333517 0.081114 -0.018659 360873.000000 0 0 1
33.514353 4.817761 -32.973073 47.261466 0.142774 2.342941 0.094818 -0.017896 -121640.000000 0 0 1
33.949453 3.865461 -31.910413 46.752343 0.113371 2.322031 0.102023 -0.027644 -136357.000000 0 0 1
33.845853 2.506961 -32.283143 46.840452 0.073935 2.331201 0.096929 -0.032099 82017.600000 0 0 1
34.182453 1.647061 -31.224133 46.326012 0.048147 2.310418 0.083581 -0.021443 12838.500000 0 0 1
34.090453 0.180061 -31.685093 46.541772 0.005282 2.319635 0.081378 -0.032734 121300.000000 0 0 1
35.171553 -0.206439 -32.580203 47.943199 -0.005869 2.317957 0.091752 -0.032104 768088.000000 0 0 1
35.617153 -1.549939 -32.333743 48.129563 -0.043489 2.307441 0.082640 -0.032268 248886.000000 0 0 1
36.363653 -1.813239 -30.985463 47.809016 -0.049823 2.275895 0.089991 -0.028493 -144101.000000 0 0 1
35.586853 -1.583539 -29.786323 46.434435 -0.044469 2.267210 0.104757 -0.026017 -250883.000000 0 0 1
36.381453 -1.425939 -28.668663 46.341511 -0.039174 2.237805 0.145945 -0.031137 -690353.000000 0 0 1
35.609453 -1.090539 -27.415783 44.953838 -0.030615 2.226687 0.145067 -0.023604 -416973.000000 0 0 1
35.245853 0.279361 -27.576173 44.752581 0.007926 2.234695 0.123429 -0.018902 408049.000000 0 0 1
34.372953 0.731361 -26.540353 43.432996 0.021274 2.228201 0.098805 -0.009768 113867.000000 0 0 1
34.058653 2.227261 -26.687193 43.326191 0.065302 2.234400 0.075302 -0.012092 488396.000000 0 0 1
33.222353 2.520661 -27.843423 43.420441 0.075727 2.266924 0.093247 -0.022330 1387400.000000 0 0 1
32.078353 3.323461 -27.487853 42.375089 0.103236 2.276644 0.078175 -0.010517 591279.000000 0 0 1
31.272253 3.898161 -28.675503 42.607909 0.124013 2.309066 0.092045 -0.011943 -799582.000000 0 0 1
30.100253 4.455261 -28.213833 41.495722 0.146947 2.318452 0.089316 -0.012253 -441168.000000 0 0 1
29.475653 5.434261 -29.075453 41.757961 0.182317 2.341005 0.068647 -0.018894 217572.000000 0 0 1
28.324653 6.153361 -28.336033 40.534930 0.213920 2.344868 0.070431 -0.019925 85019.000000 0 0 1
27.200453 5.320861 -28.088353 39.460509 0.193177 2.362867 0.099472 -0.026476 1223860.000000 0 0 1
26.210553 5.977661 -27.238913 38.271189 0.224228 2.362760 0.109956 -0.030337 1750130.000000 0 0 1
24.810553 5.263161 -27.029383 37.065509 0.209035 2.387996 0.134383 -0.027510 781062.000000 0 0 1
24.066753 5.150661 -28.212763 37.439256 0.210835 2.424259 0.141357 -0.025473 -113304.000000 0 0 1
22.849253 4.498461 -27.937593 36.370780 0.194390 2.446716 0.116282 -0.019474 -177420.000000 0 0 1
21.994953 4.124061 -29.164273 36.760586 0.185348 2.487100 0.112456 -0.015333 -90630.500000 0 0 1
22.350553 2.892061 -29.770403 37.338829 0.128681 2.493612 0.112918 -0.025726 -109694.000000 0 0 1
21.676953 2.565661 -30.967193 37.887200 0.117811 2.527597 0.084945 -0.022948 -133043.000000 0 0 1
21.980753 3.368161 -32.303033 39.217138 0.152050 2.538696 0.106868 -0.024948 447669.000000 0 0 1
23.271353 3.202461 -32.886743 40.414719 0.136755 2.521340 0.093226 -0.026382 429517.000000 0 0 1
23.286553 3.765161 33.262365 40.777750 0.160301 0.616860 0.097683 -0.021901 -519656.000000 0 0 1
24.702653 3.605161 32.731420 41.165083 0.144919 0.651581 0.090611 -0.018750 -376583.000000 0 0 1
24.983353 2.296061 32.307138 40.904657 0.091646 0.660288 0.103494 -0.026755 -647433.000000 0 0 1
26.312153 2.104461 31.937337 41.433702 0.079811 0.690691 0.092355 -0.026000 -810833.000000 0 0 1
26.692753 0.624161 31.742982 41.479025 0.023379 0.699323 0.069001 -0.026636 -413032.000000 0 0 1
26.122653 -0.065739 30.620226 40.249168 -0.002517 0.706303 0.070106 -0.029785 1302780.000000 0 0 1
24.690853 -0.267339 30.595696 39.316743 -0.010827 0.679026 0.098133 -0.041248 978110.000000 0 0 1
24.108653 -1.291039 31.599579 39.767164 -0.053500 0.652423 0.098404 -0.050058 -413310.000000 0 0 1
24.477653 -2.600539 31.179956 39.725407 -0.105844 0.668283 0.093550 -0.052206 417505.000000 0 0 1
23.741853 -3.535239 31.971418 39.979308 -0.147817 0.644002 0.109306 -0.050252 57097.300000 0 0 1
23.847753 -5.027839 31.472726 39.806117 -0.207788 0.658926 0.112608 -0.043492 -290364.000000 0 0 1
25.086753 -5.686439 31.461847 40.639003 -0.222904 0.685380 0.089764 -0.034650 -406926.000000 0 0 1
24.945753 -7.053239 31.244526 40.598758 -0.275551 0.692593 0.118684 -0.043838 -183109.000000 0 0 1
26.215853 -7.813039 30.822306 41.210788 -0.289646 0.725876 0.091252 -0.039763 90013.700000 0 0 1
26.534653 -7.539039 29.466746 40.363523 -0.276826 0.752425 0.098977 -0.042021 -596390.000000 0 0 1
27.789753 -7.991339 29.044366 40.984229 -0.280009 0.783182 0.093244 -0.025352 -109162.000000 0 0 1
28.134153 -7.599939 27.622926 40.153651 -0.263835 0.812162 0.109576 -0.033657 -493631.000000 0 0 1
27.380553 -8.274739 26.704926 39.132072 -0.293485 0.819713 0.094451 -0.037852 -665695.000000 0 0 1
27.606253 -7.888939 25.340316 38.294545 -0.278348 0.847684 0.120488 -0.034533 -107126.000000 0 0 1
26.775853 -8.621539 24.310996 37.179319 -0.311506 0.858088 0.100370 -0.024761 793435.000000 0 0 1
25.349153 -8.554939 24.434316 36.232614 -0.325482 0.830680 0.101488 -0.022975 538932.000000 0 0 1
24.668753 -9.529139 23.678046 35.496503 -0.368626 0.840550 0.118613 -0.026722 -294761.000000 0 0 1
23.258153 -9.073939 23.336146 34.173875 -0.371978 0.819119 0.095111 -0.022615 -432438.000000 0 0 1
22.290353 -9.290039 24.320526 34.273206 -0.394883 0.781855 0.072929 -0.022288 176706.000000 0 0 1
21.019653 -8.690139 24.091086 33.131929 -0.392029 0.756670 0.091230 -0.018250 1030650.000000 0 0 1
20.149053 -8.481139 25.388856 33.503851 -0.398410 0.710878 0.071665 -0.020844 33147.600000 0 0 1
19.499753 -9.561539 25.994276 33.872788 -0.455891 0.696006 0.092705 -0.025408 196285.000000 0 0 1
20.395753 -10.436939 26.652306 35.146292 -0.472981 0.710057 0.074571 -0.029913 -44080.600000 0 0 1
19.600253 -11.543439 27.357826 35.579088 -0.532250 0.693631 0.083099 -0.029378 326243.000000 0 0 1
18.731253 -12.276339 26.495966 34.693004 -0.580157 0.701730 0.110044 -0.030923 538466.000000 0 0 1
18.106453 -13.452339 27.097076 35.257064 -0.638979 0.694213 0.120219 -0.032613 841612.000000 0 0 1
19.115153 -14.540339 27.735076 36.688485 -0.650296 0.713675 0.126536 -0.021844 176862.000000 0 0 1
18.423653 -15.458639 28.514516 37.302522 -0.698111 0.700667 0.119053 -0.012021 172829.000000 0 0 1
19.148953 -16.598439 29.033946 38.537781 -0.714171 0.717595 0.108356 -0.011186 -251959.000000 0 0 1
19.571653 -17.713239 28.014126 38.491553 -0.735596 0.755689 0.114202 -0.018164 -272613.000000 0 0 1
20.479553 -17.208639 27.078876 38.063301 -0.698826 0.779284 0.112011 -0.021435 -85811.100000 0 0 1
20.635253 -18.035039 25.991716 37.770962 -0.718259 0.811874 0.099909 -0.015060 -686075.000000 0 0 1
21.918953 -17.744539 25.240866 37.847199 -0.680538 0.840735 0.092602 -0.028565 -864198.000000 0 0 1
23.077953 -17.857139 26.017916 39.094773 -0.658544 0.842621 0.077303 -0.021842 -410966.000000 0 0 1
24.166853 -17.347639 25.295416 39.049141 -0.622591 0.866124 0.064897 -0.023778 -87830.100000 0 0 1
25.525053 -17.277239 26.043476 40.352124 -0.595036 0.869243 0.067116 -0.028827 247181.000000 0 0 1
26.132853 -18.451639 26.435486 41.499685 -0.614789 0.880190 0.071557 -0.027364 194491.000000 0 0 1
27.137753 -19.025339 25.611856 41.885419 -0.611441 0.912874 0.063672 -0.031324 73837.500000 0 0 1
27.693853 -20.366339 26.080156 43.149876 -0.634098 0.921773 0.057230 -0.028905 79433.900000 0 0 1
28.621153 -20.306339 27.151786 44.370455 -0.617065 0.912293 0.057150 -0.019119 83440.800000 0 0 1
29.265853 -21.491339 27.498236 45.546907 -0.633409 0.922619 0.057329 -0.024260 -9724.560000 0 0 1
28.415053 -22.478739 28.342456 46.000041 -0.669282 0.906964 0.060535 -0.020222 -183275.000000 0 0 1
28.177953 -22.117139 29.660726 46.507242 -0.665471 0.879202 0.070492 -0.015680 -80111.700000 0 0 1
27.685553 -23.255039 30.376616 47.223145 -0.698642 0.872052 0.092066 -0.021551 -356521.000000 0 0 1
27.416753 -23.038739 31.868150 47.937885 -0.698845 0.843597 0.083479 -0.014862 -139031.000000 0 0 1
26.903053 -24.160139 32.487494 48.609915 -0.731734 0.838834 0.081978 -0.023380 -90823.500000 0 0 1
26.687453 -23.970139 -33.612133 49.158551 -0.731809 2.323685 0.088095 -0.017206 -330950.000000 0 0 1
26.236353 -25.289539 -32.904043 49.097689 -0.767025 2.305241 0.078979 -0.020237 1302250.000000 0 0 1
24.914153 -25.828819 -33.135713 48.844840 -0.803422 2.316362 0.116670 -0.035259 708152.000000 0 0 1
24.757953 -26.372429 33.040666 48.991293 -0.816963 0.830619 0.106320 -0.033266 -63497.700000 0 0 1
23.419553 -27.123429 32.850504 48.613902 -0.858549 0.828824 0.129664 -0.038205 269910.000000 0 0 1
23.455953 -28.400709 33.398186 49.721432 -0.880465 0.834287 0.134639 -0.048255 773785.000000 0 0 1
22.142153 -28.976359 33.394576 49.447973 -0.918303 0.829360 0.150328 -0.050030 457336.000000 0 0 1
22.084853 -30.521179 33.714106 50.556147 -0.944412 0.840803 0.125183 -0.049985 -90535.600000 0 0 1
22.654453 -31.047989 -32.548633 50.364822 -0.940441 2.273466 0.108166 -0.054316 922169.000000 0 0 1
24.063153 -31.276099 -32.637193 51.209531 -0.915008 2.261820 0.078638 -0.039650 -12907.200000 0 0 1
24.587053 -32.218979 -31.565403 51.370813 -0.918949 2.232500 0.067614 -0.043117 -377872.000000 0 0 1
25.959653 -32.541899 -31.643983 52.289773 -0.897441 2.220770 0.061208 -0.030932 61225.800000 0 0 1
26.375653 -33.163049 -30.440523 52.173636 -0.898908 2.193762 0.052075 -0.015096 352618.000000 0 0 1
27.439053 -32.415079 -29.577493 51.753908 -0.868343 2.179132 0.053709 -0.019024 77783.300000 0 0 1
27.736053 -33.076319 -28.352153 51.644710 -0.872989 2.151945 0.073416 -0.014753 -32356.100000 0 0 1
28.125653 -32.150229 -27.337443 50.715139 -0.852068 2.140092 0.080354 -0.018793 -385624.000000 0 0 1
28.606253 -32.751049 -25.960093 50.644598 -0.852847 2.108999 0.093007 -0.021800 852712.000000 0 0 1
29.972353 -33.170379 -26.060423 51.747093 -0.836002 2.098570 0.092349 -0.007122 148604.000000 0 0 1
30.845253 -32.251499 -25.481923 51.389855 -0.807682 2.089616 0.107839 -0.015301 -282576.000000 0 0 1
-28.210407 -30.295004 9.622567 42.499508 0.821014 1.342400 0.093873 -0.008222 -392206.000000 0 0 1
-27.491617 -31.402604 9.148267 42.727080 0.851708 1.355016 0.085518 -0.016558 890231.000000 0 0 1
-26.250237 -31.620104 9.878667 42.266937 0.877925 1.334893 0.072433 -0.014838 782415.000000 0 0 1
-26.375467 -32.405204 11.156967 43.246277 0.887621 1.309858 0.065692 -0.022571 -827060.000000 0 0 1
-26.685327 33.679561 11.111167 44.383303 -0.900750 1.317759 0.076830 -0.006158 175250.000000 0 0 1
-28.053977 33.345561 10.904467 44.920591 -0.871369 1.325597 0.054592 -0.024965 164850.000000 0 0 1
-28.186847 31.808061 10.733667 43.834492 -0.845684 1.323413 0.065430 -0.022052 345987.000000 0 0 1
-27.495307 31.396061 9.526967 42.807332 -0.851538 1.346362 0.111355 -0.035504 365602.000000 0 0 1
-27.758907 30.043761 9.228767 41.932740 -0.824906 1.348895 0.133699 -0.038859 230571.000000 0 0 1
-27.005917 29.685361 7.896267 40.900994 -0.832627 1.376518 0.116063 -0.028488 -36596.100000 0 0 1
-25.617017 29.495861 8.009867 39.879761 -0.855662 1.368570 0.104008 -0.017514 -349245.000000 0 0 1
-25.100027 29.492961 6.722267 39.306933 -0.865692 1.398932 0.095053 -0.002996 -1090760.000000 0 0 1
-23.690647 28.956061 6.670867 38.002641 -0.885081 1.394345 0.096778 -0.005024 -848110.000000 0 0 1
-23.594447 27.565961 6.820867 36.920244 -0.862871 1.384983 0.100414 -0.011605 3364.590000 0 0 1
-23.828547 26.749661 5.702467 36.274815 -0.843088 1.412940 0.100014 -0.020324 -410335.000000 0 0 1
-24.003047 25.297161 6.078967 35.398397 -0.811642 1.398211 0.122004 -0.020441 -749892.000000 0 0 1
-25.094997 25.063861 6.902367 36.133069 -0.784777 1.378589 0.155953 -0.020599 -191385.000000 0 0 1
-25.245127 23.693561 7.370967 35.398198 -0.753705 1.361031 0.183228 -0.029877 -214383.000000 0 0 1
-25.649467 22.533261 6.412767 34.738546 -0.720813 1.385131 0.182611 -0.040968 -559350.000000 0 0 1
-27.031547 22.625661 6.159767 35.785022 -0.696904 1.397802 0.166839 -0.043668 -72099.700000 0 0 1
-27.387567 21.947161 4.941667 35.442585 -0.675567 1.430913 0.149410 -0.032115 32330.000000 0 0 1
-27.178037 22.772261 3.619967 35.641629 -0.697423 1.469055 0.138436 -0.034722 986503.000000 0 0 1
-25.787127 23.128661 3.426367 34.808776 -0.731104 1.472203 0.137536 -0.039124 1180050.000000 0 0 1
-25.707757 23.899461 2.233467 35.171884 -0.748962 1.507252 0.121837 -0.023593 -205203.000000 0 0 1
-24.381347 24.634661 2.074767 34.722058 -0.790566 1.511007 0.079572 -0.013563 -174351.000000 0 0 1
-24.346247 25.316361 0.844667 35.133622 -0.804930 1.546752 0.064329 -0.013697 -82405.100000 0 0 1
-23.123447 26.018161 0.742767 34.816522 -0.844236 1.549461 0.073966 -0.010561 -451834.000000 0 0 1
-22.873747 26.572361 -0.698333 35.068310 -0.860060 1.590711 0.113119 -0.017122 -5195.830000 0 0 1
-22.588947 25.529361 -1.615833 34.126525 -0.846430 1.618162 0.111116 -0.018940 1043330.000000 0 0 1
-21.381047 24.752861 -1.364533 32.737063 -0.858356 1.612490 0.101238 -0.037530 548920.000000 0 0 1
-21.047847 23.568561 -2.316933 31.683704 -0.841836 1.643989 0.127656 -0.051331 79300.800000 0 0 1
-21.953847 22.484761 -2.129233 31.497135 -0.797345 1.638449 0.111793 -0.034291 262757.000000 0 0 1
-21.615747 21.436261 -2.982133 30.588346 -0.781229 1.668444 0.118902 -0.041174 -107978.000000 0 0 1
-22.703247 21.189761 -4.040533 31.317237 -0.750931 1.700176 0.105620 -0.031532 -102985.000000 0 0 1
-22.751647 21.994061 -5.184833 32.066473 -0.768469 1.733199 0.101262 -0.029105 -758921.000000 0 0 1
-23.960947 21.931861 -5.857133 33.006659 -0.741213 1.749194 0.118796 -0.026985 -576720.000000 0 0 1
-23.997347 22.521161 -7.265933 33.702658 -0.753676 1.788092 0.123332 -0.020119 -219186.000000 0 0 1
-23.289547 21.741761 -8.212133 32.902072 -0.751040 1.823056 0.102474 -0.025547 260132.000000 0 0 1
-22.819547 22.540661 -9.284533 33.391851 -0.779250 1.852558 0.102799 -0.026148 -321319.000000 0 0 1
-22.384147 21.771261 -10.559833 32.962827 -0.771519 1.896901 0.092927 -0.019400 250114.000000 0 0 1
-23.526747 21.360561 -11.285233 33.721475 -0.737177 1.912041 0.065549 -0.015928 623314.000000 0 0 1
-23.024847 20.742361 -12.515433 33.421927 -0.733295 1.954619 0.061538 -0.006035 336541.000000 0 0 1
-24.151847 20.427061 -13.519733 34.399996 -0.702037 1.974705 0.045154 -0.023949 -149683.000000 0 0 1
-24.870647 19.309961 -13.135833 34.117060 -0.660194 1.966028 0.064166 -0.016746 -1347740.000000 0 0 1
-26.182827 19.433661 -13.526933 35.301353 -0.638509 1.964038 0.073401 -0.026481 -985569.000000 0 0 1
-26.898827 18.075561 -13.561033 35.130819 -0.591674 1.967104 0.131003 -0.030412 35213.200000 0 0 1
-26.390767 17.283861 -14.620633 34.770208 -0.579827 2.004785 0.123874 -0.031028 399812.000000 0 0 1
-27.119617 16.058361 -14.578733 34.725841 -0.534613 2.004047 0.136784 -0.040722 183135.000000 0 0 1
-26.723087 15.255561 -15.845833 34.611356 -0.518729 2.046340 0.145424 -0.034112 210192.000000 0 0 1
-25.386537 14.817261 -15.711033 33.329627 -0.528323 2.061655 0.155923 -0.029997 -35935.800000 0 0 1
-24.849047 14.385061 -16.945533 33.340009 -0.524759 2.103964 0.142998 -0.038420 288930.000000 0 0 1
-24.027947 13.062261 -16.883733 32.140712 -0.497938 2.123872 0.129999 -0.031017 315376.000000 0 0 1
-22.738047 13.151461 -16.328033 30.928698 -0.524378 2.126952 0.138958 -0.039145 -55718.300000 0 0 1
-22.011547 11.931061 -16.449833 29.957561 -0.496709 2.152089 0.129804 -0.033961 1045390.000000 0 0 1
-20.685247 11.875161 -15.594433 28.497109 -0.521149 2.149846 0.136103 -0.041672 844058.000000 0 0 1
-19.689147 12.802961 -15.965833 28.398700 -0.576554 2.167844 0.120160 -0.034199 22805.500000 0 0 1
-18.513347 12.687261 -15.204133 27.108602 -0.600794 2.166221 0.108939 -0.028892 152401.000000 0 0 1
-17.646647 13.993161 -15.229933 27.187563 -0.670436 2.165400 0.095892 -0.024700 661676.000000 0 0 1
-16.832147 14.096961 -16.439533 27.428156 -0.697194 2.213506 0.124815 -0.033280 441973.000000 0 0 1
-16.062147 15.276161 -16.402433 27.575233 -0.760323 2.207844 0.114235 -0.024386 -47403.800000 0 0 1
-15.291947 15.439061 -17.740733 28.052484 -0.790185 2.255460 0.141661 -0.031768 413080.000000 0 0 1
-14.255847 14.450061 -17.891533 27.058093 -0.792164 2.293249 0.137911 -0.030682 157596.000000 0 0 1
-13.853047 14.282761 -19.244433 27.681264 -0.800670 2.339515 0.168196 -0.039599 914558.000000 0 0 1
-12.480147 13.534961 -19.469133 26.795455 -0.825922 2.384132 0.149282 -0.035877 805136.000000 0 0 1
-12.649647 12.191461 -19.790833 26.463605 -0.766956 2.415615 0.182658 -0.038295 -153853.000000 0 0 1
-11.427447 11.485161 -19.715433 25.518499 -0.787917 2.453713 0.153159 -0.019569 33249.700000 0 0 1
-11.377947 10.121261 -20.390933 25.449710 -0.727012 2.500135 0.178793 -0.036774 -98054.900000 0 0 1
-11.427347 10.224361 -21.818633 26.667857 -0.729894 2.529004 0.193927 -0.051295 -213552.000000 0 0 1
-11.340447 8.955061 -22.424033 26.676509 -0.668402 2.569170 0.203974 -0.032884 -12290.200000 0 0 1
-11.603147 9.019861 -23.943533 28.094193 -0.660785 2.591085 0.173815 -0.045010 1231620.000000 0 0 1
-10.522747 9.613761 -24.747833 28.558849 -0.740288 2.619055 0.153698 -0.049207 663480.000000 0 0 1
-10.396747 8.840261 -25.941283 29.311990 -0.704663 2.657303 0.126591 -0.051452 159483.000000 0 0 1
-9.818547 9.619461 -27.205863 30.481091 -0.775156 2.673762 0.142367 -0.057900 826871.000000 0 0 1
-8.455347 10.043261 -27.173173 30.178491 -0.871028 2.691519 0.114604 -0.054991 377704.000000 0 0 1
-8.226647 11.179361 -26.401803 29.828024 -0.936395 2.657579 0.094402 -0.045224 -1074480.000000 0 0 1
-6.800847 11.656961 -26.568413 29.799611 -1.042661 2.671594 0.091262 -0.039217 -826400.000000 0 0 1
-6.389447 11.971261 -27.877413 31.004617 -1.080529 2.688591 0.089680 -0.057569 -585740.000000 0 0 1
-5.087647 12.464561 -27.792523 30.881609 -1.183268 2.690497 0.104527 -0.052579 -553535.000000 0 0 1
-4.389347 12.526361 -29.195933 32.071461 -1.233757 2.714901 0.113514 -0.047591 -479415.000000 0 0 1
-3.067247 12.953061 -29.078583 31.980522 -1.338282 2.712297 0.135520 -0.058769 -457058.000000 0 0 1
-2.479547 13.004861 -30.396033 33.154086 -1.382394 2.730816 0.134455 -0.058481 605445.000000 0 0 1
-1.032147 12.442561 -30.456253 32.916045 -1.488033 2.752545 0.164124 -0.072741 -118681.000000 0 0 1
-0.937747 11.045161 -30.220863 32.189680 -1.486098 2.790034 0.131249 -0.044057 806470.000000 0 0 1
0.412853 10.553161 -30.064963 31.865995 1.531695 2.803778 0.144354 -0.052382 1223020.000000 0 0 1
1.238253 10.302461 -31.335923 33.009302 1.451180 2.821817 0.155569 -0.046411 -159665.000000 0 0 1
1.471253 11.426861 -32.123003 34.126603 1.442747 2.797225 0.165155 -0.057400 -176635.000000 0 0 1
1.720653 10.926061 -33.434783 35.216817 1.414598 2.822111 0.168634 -0.050498 49497.200000 0 0 1
2.049653 11.973261 32.964541 35.131482 1.401254 0.353060 0.166063 -0.058226 39921.000000 0 0 1
3.402553 12.385861 32.969228 35.383003 1.302697 0.371507 0.163185 -0.063763 -213454.000000 0 0 1
3.631753 13.256161 31.834987 34.675378 1.303391 0.407571 0.167993 -0.060950 232834.000000 0 0 1
5.157053 13.496061 31.703581 34.840435 1.205802 0.427596 0.165760 -0.061727 -63945.400000 0 0 1
5.779553 12.317561 31.284296 34.114993 1.132081 0.410241 0.168789 -0.059644 -390021.000000 0 0 1
7.172653 12.526161 31.192006 34.369942 1.050757 0.433414 0.167837 -0.052671 513354.000000 0 0 1
7.960253 11.228661 30.723566 33.665798 0.954107 0.421186 0.143520 -0.044792 544128.000000 0 0 1
7.378353 10.734461 29.525406 32.271014 0.968610 0.415486 0.125588 -0.038084 441604.000000 0 0 1
8.227653 9.707461 28.974246 31.645474 0.867721 0.413826 0.119014 -0.029392 462204.000000 0 0 1
7.629453 8.895561 27.803016 30.171961 0.861866 0.398909 0.101262 -0.029054 -412708.000000 0 0 1
6.597953 8.083361 28.233986 30.100360 0.886232 0.353996 0.101590 -0.037189 -527945.000000 0 0 1
6.298253 7.110761 27.236846 28.845740 0.845918 0.335566 0.133319 -0.040780 540839.000000 0 0 1
5.370953 5.958461 27.769696 28.905128 0.837209 0.281216 0.150977 -0.041859 594200.000000 0 0 1
6.175153 4.981961 28.430466 29.516840 0.678859 0.272152 0.116593 -0.037466 562964.000000 0 0 1
5.401153 4.002461 29.110526 29.876661 0.637741 0.226952 0.107879 -0.039130 -217595.000000 0 0 1
6.291853 2.863161 29.667306 30.462012 0.427053 0.228922 0.106935 -0.026127 211492.000000 0 0 1
6.633453 1.935961 28.685076 29.505664 0.283961 0.236394 0.117281 -0.026143 -224786.000000 0 0 1
8.007853 1.893361 28.387426 29.555989 0.232174 0.282137 0.136732 -0.026990 -236559.000000 0 0 1
8.286153 0.558961 27.602856 28.825170 0.067355 0.292259 0.146387 -0.035941 -296893.000000 0 0 1
8.257253 -0.572839 28.463486 29.642544 -0.069263 0.282993 0.110311 -0.024610 -10866.000000 0 0 1
8.383653 -1.806839 27.795856 29.088828 -0.212272 0.299274 0.138306 -0.027289 -257090.000000 0 0 1
8.851853 -3.026539 28.666716 30.154533 -0.329450 0.315439 0.107048 -0.018066 8870.590000 0 0 1
10.219353 -2.927139 28.969106 30.857939 -0.278962 0.351697 0.088688 -0.023291 -410681.000000 0 0 1
11.049753 -3.873439 28.336296 30.660173 -0.337161 0.391847 0.118494 -0.027049 714153.000000 0 0 1
12.570753 -3.681039 28.693786 31.542150 -0.284862 0.428244 0.093284 -0.020217 1050880.000000 0 0 1
13.487953 -4.647839 28.220396 31.621480 -0.331849 0.468063 0.119027 -0.021863 206679.000000 0 0 1
13.710253 -5.646539 29.216706 32.763857 -0.390678 0.469630 0.131872 -0.024907 -474799.000000 0 0 1
13.207653 -7.064039 28.860976 32.516129 -0.491133 0.478711 0.153961 -0.028372 226674.000000 0 0 1
11.785253 -7.071339 28.778316 31.891809 -0.540431 0.445551 0.152896 -0.029027 59541.700000 0 0 1
11.275353 -8.371739 28.556646 31.822973 -0.638672 0.457047 0.178955 -0.032582 882253.000000 0 0 1
9.749453 -8.319939 28.207526 30.982862 -0.706450 0.426490 0.184221 -0.040714 727174.000000 0 0 1
8.837553 -8.315239 29.278876 31.693818 -0.754957 0.392896 0.201694 -0.050852 -564982.000000 0 0 1
7.578053 -8.001339 28.784446 30.821951 -0.812561 0.365642 0.188424 -0.044595 -396341.000000 0 0 1
6.536853 -7.292139 29.681856 31.255692 -0.839960 0.318691 0.162203 -0.050183 54191.700000 0 0 1
5.952853 -8.088339 30.662916 32.265649 -0.936329 0.316512 0.173479 -0.065878 -151321.000000 0 0 1
5.375953 -7.319739 31.749276 33.022658 -0.937324 0.278608 0.175035 -0.050963 -148531.000000 0 0 1
6.154853 -6.365539 32.733562 33.910004 -0.802224 0.264180 0.165275 -0.021153 -195441.000000 0 0 1
6.826653 -5.288439 32.148936 33.288509 -0.659107 0.262413 0.160716 -0.022515 -69376.300000 0 0 1
7.268353 -4.305139 33.043677 34.106418 -0.534748 0.250291 0.117830 -0.000006 133212.000000 0 0 1
7.454553 -2.931539 32.338140 33.315455 -0.374678 0.242816 0.113899 -0.014593 479619.000000 0 0 1
6.181153 -2.584039 31.812299 32.510095 -0.395970 0.207563 0.143760 -0.023056 444423.000000 0 0 1
6.357653 -1.403639 31.106936 31.780991 -0.217294 0.206324 0.113127 -0.012106 -116265.000000 0 0 1
5.074553 -0.790039 30.524016 30.953042 -0.154446 0.166689 0.142074 -0.026261 -25862.500000 0 0 1
4.145253 -0.358039 31.482053 31.755802 -0.086159 0.131399 0.134280 -0.018184 -220082.000000 0 0 1
2.948653 0.151561 30.921926 31.062566 0.051355 0.095195 0.134096 -0.032344 -816489.000000 0 0 1
2.007553 0.445961 32.019323 32.085296 0.218592 0.064138 0.132388 -0.029665 -815139.000000 0 0 1
2.336753 1.623261 32.762227 32.885543 0.607137 0.086628 0.124844 -0.024944 -58346.100000 0 0 1
1.426653 1.753761 -33.635653 33.711544 0.887889 3.074481 0.108014 -0.030940 -367186.000000 0 0 1
1.817053 2.937961 -32.722033 32.903871 1.016904 3.036412 0.104479 -0.031769 -416297.000000 0 0 1
2.816653 2.676061 -31.794163 32.030667 0.759808 3.019997 0.082022 -0.013144 -456299.000000 0 0 1
3.116453 3.832861 -31.079263 31.469409 0.888126 2.983964 0.079576 -0.021745 -385994.000000 0 0 1
4.166253 3.629061 -29.983943 30.488762 0.716595 2.959365 0.089876 -0.015431 -3655.670000 0 0 1
3.676153 2.981661 -28.826723 29.212743 0.681462 2.978846 0.100112 -0.020706 246811.000000 0 0 1
4.679853 3.113461 -27.840213 28.401974 0.587049 2.942372 0.114131 -0.026021 161936.000000 0 0 1
4.313853 2.338961 -26.542383 26.992187 0.496833 2.958777 0.103075 -0.026848 10845.400000 0 0 1
4.491353 0.958661 -26.629973 27.023078 0.210290 2.970816 0.121242 -0.031331 128416.000000 0 0 1
4.001353 0.306661 -25.453533 25.767949 0.076490 2.985217 0.119851 -0.032367 -298339.000000 0 0 1
4.465853 -1.159739 -25.255833 25.673838 -0.254078 2.960896 0.133070 -0.044918 32341.900000 0 0 1
5.788153 -1.307339 -24.774433 25.475172 -0.222137 2.906502 0.119888 -0.049803 -238359.000000 0 0 1
6.081453 -2.659539 -24.630633 25.509318 -0.412259 2.878362 0.117760 -0.051771 -324042.000000 0 0 1
7.539553 -2.880839 -24.182633 25.493996 -0.364978 2.819458 0.122349 -0.063166 1779.030000 0 0 1
8.369453 -2.357439 -25.209083 26.666517 -0.274558 2.809450 0.124830 -0.053804 -408569.000000 0 0 1
9.701653 -2.826939 -25.064633 27.024979 -0.283537 2.758363 0.103589 -0.050662 348120.000000 0 0 1
-31.197717 -3.761139 17.430836 35.934354 0.119979 1.064348 0.185858 -0.023798 1663760.000000 0 0 1
-32.647657 -3.852639 17.518036 37.250422 0.117463 1.081191 0.166424 -0.010979 1028510.000000 0 0 1
-32.975197 -5.045139 18.197336 37.999475 0.151821 1.071413 0.149684 -0.023414 1163640.000000 0 0 1
-34.490073 -4.852939 18.628136 39.498400 0.139788 1.079672 0.131016 -0.017674 1192400.000000 0 0 1
-35.397958 -4.812939 17.535536 39.795412 0.135138 1.114482 0.126761 -0.013492 419292.000000 0 0 1
-36.735147 -4.687839 18.024836 41.186668 0.126926 1.117827 0.100544 -0.009371 432517.000000 0 0 1
-37.742837 -4.635239 16.850436 41.592600 0.122199 1.153675 0.084210 -0.013461 -196912.000000 0 0 1
37.063868 -4.418639 17.265336 41.125984 -0.118657 1.137554 0.075429 -0.006270 -478395.000000 0 0 1
36.124528 -4.616839 16.219936 39.867067 -0.127114 1.151793 0.080676 -0.016254 -464312.000000 0 0 1
34.730148 -4.799439 16.783736 38.870446 -0.137323 1.124324 0.078155 -0.012072 -955227.000000 0 0 1
34.084688 -3.654439 17.299136 38.397669 -0.106808 1.103442 0.095476 -0.017104 -445073.000000 0 0 1
32.891728 -4.087139 17.868836 37.654559 -0.123627 1.076348 0.138343 -0.021549 -529130.000000 0 0 1
32.607638 -3.287639 19.208036 37.987041 -0.100485 1.040665 0.141366 -0.024178 37490.700000 0 0 1
31.793658 -2.103839 19.197536 37.199573 -0.066075 1.028541 0.139844 -0.018716 257627.000000 0 0 1
32.285058 -0.967339 18.511336 37.228085 -0.029953 1.050380 0.126510 -0.011706 88372.400000 0 0 1
31.468858 0.297661 18.979836 36.750671 0.009459 1.028098 0.168385 -0.017780 438857.000000 0 0 1
31.929778 1.452461 18.319436 36.840496 0.045458 1.050354 0.138456 -0.019031 -277627.000000 0 0 1
31.286258 2.570461 18.758636 36.569436 0.081975 1.032168 0.130393 -0.019181 -738604.000000 0 0 1
31.689958 3.841061 17.931936 36.613680 0.120619 1.058981 0.106800 -0.019423 -183029.000000 0 0 1
31.326568 4.047761 16.593936 35.680484 0.128500 1.087082 0.134099 -0.003364 -468964.000000 0 0 1
29.945208 4.153261 16.403536 34.395364 0.137816 1.073659 0.147384 -0.018800 -275695.000000 0 0 1
29.464708 4.369061 14.916036 33.312848 0.147209 1.106542 0.146163 -0.011984 116690.000000 0 0 1
29.382108 5.720261 14.500836 33.261147 0.192280 1.119681 0.157098 -0.028161 -17423.900000 0 0 1
28.765608 5.761961 13.241336 32.186851 0.197691 1.146818 0.141633 -0.019839 -210063.000000 0 0 1
28.175708 7.146961 12.949636 31.822047 0.248417 1.151696 0.163082 -0.006667 -470470.000000 0 0 1
27.039808 7.522361 13.676436 31.221500 0.271335 1.117373 0.150365 -0.006082 -533905.000000 0 0 1
26.307808 8.316261 12.807736 30.418729 0.306174 1.136196 0.180865 -0.036107 -156779.000000 0 0 1
25.066208 8.954561 13.585536 29.884206 0.343107 1.098867 0.182965 -0.039174 845213.000000 0 0 1
23.787408 8.391561 13.380236 28.553280 0.339143 1.083084 0.185915 -0.023086 640106.000000 0 0 1
23.651208 7.076161 13.881036 28.321986 0.290712 1.058574 0.195328 -0.026652 -1482080.000000 0 0 1
22.331308 6.404461 13.534836 26.886730 0.279297 1.043265 0.213068 -0.015618 -700361.000000 0 0 1
22.172208 6.031561 12.154536 25.994601 0.265605 1.084246 0.239504 -0.028669 498905.000000 0 0 1
21.098508 5.130161 12.047536 24.831607 0.238524 1.064239 0.232585 -0.022267 -415512.000000 0 1 0
20.756908 4.784061 10.590736 23.788656 0.226525 1.109397 0.244082 -0.029694 -273945.000000 0 1 0
21.705808 4.036561 9.863536 24.181093 0.183866 1.150640 0.253395 -0.039140 363233.000000 0 1 0
21.212608 3.634561 8.625736 23.185946 0.169692 1.189607 0.265524 -0.036190 320813.000000 0 1 0
22.395408 3.165261 7.709036 23.895657 0.140405 1.242308 0.257647 -0.033391 -312561.000000 0 1 0
22.893108 1.864761 8.117336 24.361094 0.081276 1.231091 0.263452 -0.040292 626533.000000 0 1 0
23.662708 1.264861 7.067736 24.728051 0.053403 1.280936 0.249804 -0.034160 -450813.000000 0 1 0
25.123708 1.758661 7.035136 26.149316 0.069886 1.298403 0.232613 -0.034965 -697782.000000 0 0 1
26.055508 1.215561 7.933236 27.263590 0.046619 1.275542 0.194716 -0.019022 276926.000000 0 0 1
25.877208 1.673861 9.239836 27.528282 0.064595 1.228502 0.193511 -0.025789 -611456.000000 0 0 1
26.609108 0.787261 10.312836 28.548538 0.029578 1.201200 0.134084 -0.018415 -421035.000000 0 0 1
27.983308 1.016061 10.248536 29.818290 0.036294 1.219943 0.142854 -0.036117 -339616.000000 0 0 1
28.706508 0.222761 11.211336 30.818944 0.007760 1.198473 0.136841 -0.028554 1124440.000000 0 0 1
30.254808 0.480361 11.175636 32.256457 0.015876 1.216999 0.177451 -0.030805 968936.000000 0 0 1
30.750208 1.753861 11.592836 32.909652 0.056974 1.210809 0.167372 -0.027071 -21889.800000 0 0 1
32.146848 1.893461 11.545336 34.209645 0.058832 1.226550 0.170005 -0.033189 -544477.000000 0 0 1
32.574978 3.263661 12.096336 34.901319 0.099856 1.216866 0.157207 -0.030349 174941.000000 0 0 1
33.945098 3.523261 11.813236 36.114202 0.103423 1.237555 0.150269 -0.040675 480597.000000 0 0 1
34.348798 4.789061 12.220936 36.771270 0.138531 1.232002 0.132921 -0.037363 580700.000000 0 0 1
35.846848 5.084061 11.830936 38.089569 0.140888 1.254963 0.160946 -0.036865 795658.000000 0 0 1
36.745858 4.250261 12.572936 39.069189 0.115155 1.243154 0.162169 -0.032382 164754.000000 0 0 1
38.023448 4.324461 11.982736 40.100742 0.113245 1.267345 0.171852 -0.028233 -142931.000000 0 0 1
-37.086807 3.315461 12.578436 39.301916 -0.089160 1.245018 0.187390 -0.026497 -400423.000000 0 0 1
-37.177957 1.955561 12.224136 39.184872 -0.052552 1.253540 0.178318 -0.024323 61416.700000 0 0 1
37.809038 1.226961 12.626436 39.880518 0.032440 1.248646 0.174743 -0.024817 -142834.000000 0 0 1
37.652368 0.945561 14.166136 40.240208 0.025108 1.211047 0.161843 -0.022223 -524389.000000 0 0 1
-37.489707 0.121461 14.723036 40.277297 -0.003240 1.196582 0.141472 -0.017738 -16557.400000 0 0 1
-37.729097 -0.133139 16.108336 41.024151 0.003529 1.167280 0.125963 -0.021284 467583.000000 0 0 1
-36.543497 -0.922039 16.793236 40.227977 0.025226 1.140157 0.116757 -0.010707 302775.000000 0 0 1
-35.447818 -0.121139 17.122336 39.366698 0.003417 1.120819 0.128728 -0.018552 -408358.000000 0 0 1
-34.451685 -0.806539 17.862136 38.815268 0.023406 1.092595 0.123071 -0.011357 140420.000000 0 0 1
-34.557250 -0.837439 19.438136 39.657861 0.024229 1.058539 0.098975 -0.022367 85618.100000 0 0 1
-35.565875 -1.735539 19.915536 40.799168 0.048759 1.060844 0.097428 -0.030802 374472.000000 0 0 1
-35.649179 -1.652839 21.337436 41.579827 0.046331 1.031925 0.091813 -0.033397 266389.000000 0 0 1
-36.352517 -2.861539 21.991636 42.583165 0.078554 1.028108 0.086119 -0.028051 409714.000000 0 0 1
-35.471597 -3.991339 21.915536 41.886223 0.112051 1.020176 0.104667 -0.027686 460319.000000 0 0 1
-35.900423 -5.129839 22.649666 42.757023 0.141930 1.012514 0.104234 -0.033446 -103578.000000 0 0 1
-36.041157 -5.006739 24.214816 43.708006 0.138034 0.983619 0.111460 -0.038452 65619.500000 0 0 1
-34.781693 -4.911839 24.825566 43.013964 0.140291 0.955560 0.112806 -0.042706 -546498.000000 0 0 1
-34.965610 -4.595639 26.177786 43.920272 0.130684 0.932249 0.117204 -0.059762 -28512.000000 0 0 1
-33.752467 -3.871339 26.802826 43.273638 0.114199 0.902844 0.105851 -0.059781 -266598.000000 0 0 1
-33.643457 -2.453739 26.424176 42.850206 0.072805 0.906298 0.101975 -0.051089 125303.000000 0 0 1
-33.242017 -2.318839 25.015826 41.667737 0.069643 0.926840 0.093101 -0.038855 -408970.000000 0 0 1
-33.003257 -0.875639 24.602796 41.173770 0.026526 0.930372 0.104980 -0.038723 345979.000000 0 0 1
-34.197066 -0.121239 24.428966 42.026520 0.003545 0.950502 0.113781 -0.049665 250717.000000 0 0 1
-33.894927 1.206161 24.023896 41.562826 -0.035570 0.954503 0.112287 -0.043301 33137.000000 0 0 1
-35.152265 2.110861 23.936016 42.580164 -0.059977 0.973825 0.119200 -0.031599 355365.000000 0 0 1
-35.935657 1.776261 22.798666 42.594668 -0.049389 1.005996 0.123718 -0.031370 173826.000000 0 0 1
-37.042767 2.594661 22.430956 43.382562 -0.069931 1.027395 0.139137 -0.026860 579716.000000 0 0 1
-36.671097 3.955061 21.805936 42.847529 -0.107437 1.036867 0.117534 -0.011789 -352603.000000 0 0 1
-36.043607 3.949361 20.524536 41.665281 -0.109136 1.055715 0.109204 -0.023294 297093.000000 0 0 1
-36.946807 3.620061 19.432936 41.902391 -0.097669 1.088554 0.136487 -0.038579 721342.000000 0 0 1
-36.220547 2.923561 18.235236 40.657091 -0.080541 1.105695 0.150415 -0.029456 331162.000000 0 0 1
-35.373959 3.709861 17.409836 39.600283 -0.104494 1.115599 0.143316 -0.037612 39269.800000 0 0 1
-35.154015 3.118761 16.179536 38.824075 -0.088485 1.140940 0.162393 -0.021865 76082.200000 0 0 1
-34.205642 3.963661 15.268836 37.667943 -0.115363 1.153431 0.149910 -0.025780 347818.000000 0 0 1
-34.781475 5.203261 14.956036 38.216593 -0.148497 1.168699 0.178145 -0.037205 125655.000000 0 0 1
-33.883957 5.917661 14.124736 37.183994 -0.172901 1.181151 0.188712 -0.032849 16083.000000 0 0 1
-34.459024 7.165961 13.501736 37.697112 -0.205034 1.204496 0.209026 -0.041856 -670148.000000 0 0 1
-33.487317 7.754861 12.731936 36.655702 -0.227565 1.216065 0.229406 -0.034858 -369791.000000 0 0 1
-33.947428 8.862361 11.937136 37.060283 -0.255362 1.242849 0.200173 -0.033471 -814937.000000 0 0 1
-32.875607 9.574561 11.165736 36.015989 -0.283397 1.255581 0.216551 -0.031889 -676223.000000 0 0 1
-33.328367 10.616461 10.354436 36.478811 -0.308379 1.282992 0.175822 -0.005516 -290208.000000 0 0 1
-32.280417 11.293761 9.727936 35.555690 -0.336554 1.293665 0.194538 -0.031446 -222548.000000 0 0 1
-32.702457 12.660961 9.319636 36.285069 -0.369385 1.311040 0.152261 -0.012868 331619.000000 0 0 1
-31.634477 13.327561 8.662336 35.403391 -0.398731 1.323612 0.172397 -0.019605 296800.000000 0 0 1
-31.870827 14.751961 8.617736 36.161241 -0.433503 1.330167 0.150920 -0.016654 13102.000000 0 0 1
-31.024627 15.499261 7.558736 35.494916 -0.463311 1.356200 0.164813 -0.023619 68882.100000 0 0 1
-29.636597 15.558061 7.813736 34.372018 -0.483417 1.341463 0.209987 -0.021025 -45807.600000 0 0 1
-29.025467 16.552161 6.999836 34.138680 -0.518267 1.364291 0.201130 -0.049975 305262.000000 0 0 1
-27.490357 16.699961 7.218736 32.965415 -0.545905 1.350028 0.210996 -0.031888 495022.000000 0 0 1
-27.017257 17.068161 8.551236 33.081384 -0.563439 1.309337 0.192112 -0.027433 350437.000000 0 0 1
-27.142017 18.420661 8.870836 33.980900 -0.596271 1.306683 0.188827 -0.046226 -206864.000000 0 0 1
-27.226017 18.554961 10.435436 34.560685 -0.598212 1.264064 0.199399 -0.019577 630956.000000 0 0 1
-25.938887 18.589361 11.080636 33.781218 -0.621820 1.236598 0.185946 -0.017453 701939.000000 0 0 1
-25.901347 18.894961 12.460936 34.397300 -0.630250 1.200100 0.197264 -0.021471 -404763.000000 0 0 1
-26.455817 17.903461 13.510236 34.683867 -0.594938 1.170680 0.161378 -0.006245 84724.200000 0 0 1
-25.698117 16.697361 13.695936 33.567451 -0.576200 1.150520 0.167986 -0.019148 -176220.000000 0 0 1
-26.150727 16.038161 14.853336 34.083790 -0.550139 1.119882 0.144367 -0.018411 -350745.000000 0 0 1
-25.250157 15.012861 15.529136 33.228158 -0.536414 1.084507 0.156161 -0.016330 -580768.000000 0 0 1
-24.183647 15.608361 16.226036 33.041701 -0.573142 1.057470 0.141532 -0.004514 -350045.000000 0 0 1
-23.129147 14.698261 16.431236 31.952807 -0.566105 1.030681 0.119741 -0.022469 -99695.100000 0 0 1
-23.338747 13.641761 17.634336 32.276378 -0.528953 0.992791 0.123767 -0.011620 -370619.000000 0 0 1
-22.866947 14.120561 18.863136 32.834516 -0.553195 0.958814 0.116257 -0.012344 -20937.100000 0 0 1
-23.079247 13.196561 19.876336 33.194421 -0.519421 0.928813 0.096981 -0.017505 -409566.000000 0 0 1
-22.709847 13.830561 21.260336 34.044434 -0.547019 0.896321 0.097939 -0.009871 1152590.000000 0 0 1
-21.300947 13.964061 21.542736 33.358879 -0.580274 0.868743 0.126159 -0.020228 788807.000000 0 0 1
-20.842347 15.268161 21.196036 33.418440 -0.632242 0.883743 0.120008 0.001592 134217.000000 0 0 1
-19.379747 15.456061 21.744736 32.974202 -0.673237 0.850714 0.110690 -0.017384 1057120.000000 0 0 1
-18.326047 14.798261 21.048236 31.588934 -0.679297 0.841538 0.094177 -0.012525 -40780.000000 0 0 1
-17.835547 15.745661 20.140736 31.171812 -0.723245 0.868306 0.092880 -0.019522 -3445280.000000 0 0 1
-16.700447 15.134461 19.328936 29.691154 -0.736247 0.861895 0.095175 -0.008701 -261845.000000 0 0 1
-15.515547 14.847861 20.041136 29.374110 -0.763412 0.819930 0.094102 -0.010128 -230974.000000 0 0 1
-14.975947 15.963361 20.655336 30.095694 -0.817302 0.814377 0.071549 -0.011556 -2086340.000000 0 0 1
-13.869547 15.540361 21.709936 30.086351 -0.842148 0.764704 0.062517 -0.017149 618631.000000 0 0 1
-12.734447 14.911961 21.162036 28.850728 -0.863999 0.747338 0.043673 -0.009661 58692.000000 0 0 1
-11.836447 14.392261 22.150236 28.946012 -0.882535 0.699404 0.039252 -0.005967 236499.000000 0 0 1
-10.533347 13.825861 21.577436 27.707248 -0.919749 0.678102 0.050350 -0.004188 -1289950.000000 0 0 1
-10.011847 12.947961 22.523706 27.842488 -0.912588 0.628400 0.050131 -0.008332 485378.000000 0 0 1
-8.710847 12.400961 22.313036 26.972843 -0.958439 0.596618 0.058903 0.005283 294682.000000 0 0 1
-7.488247 13.272261 22.181236 26.911596 -1.057114 0.601962 0.058085 0.005138 -1255370.000000 0 0 1
-7.442247 14.091361 21.015036 26.373950 -1.084889 0.648799 0.049136 0.001285 -244455.000000 0 0 1
-6.627247 15.235961 21.144136 26.891066 -1.160508 0.666018 0.048231 -0.000609 -230405.000000 0 0 1
-7.384947 16.438861 21.791836 28.278220 -1.148577 0.690979 0.055235 0.002635 272424.000000 0 0 1
-8.513847 16.967461 21.136836 28.410318 -1.105730 0.731783 0.016688 -0.009169 -394656.000000 0 0 1
-8.196547 17.637761 19.932436 27.849165 -1.135772 0.773130 0.036696 -0.019025 -328369.000000 0 0 1
-9.426447 17.653661 18.941536 27.555244 -1.080347 0.812890 0.047237 -0.024757 1087020.000000 0 0 1
-10.523247 18.496461 19.192836 28.656985 -1.053534 0.836933 0.027940 -0.025250 42298.100000 0 0 1
-11.300847 18.109461 20.345436 29.488956 -1.012895 0.809398 0.029884 -0.011318 392035.000000 0 0 1
-12.625947 18.994961 20.464136 30.643171 -0.984157 0.839520 0.024030 -0.015177 641955.000000 0 0 1
-13.502447 18.752061 19.421336 30.185165 -0.946739 0.871856 0.026751 -0.011744 -460900.000000 0 0 1
-14.723147 19.422761 19.615236 31.285335 -0.922172 0.893128 0.014830 -0.010193 503145.000000 0 0 1
-15.715547 19.489361 18.386536 31.062491 -0.892186 0.937356 0.039107 -0.008184 367074.000000 0 0 1
-16.146247 18.226961 17.905636 30.224745 -0.845857 0.936741 0.056171 -0.005683 -91589.600000 0 0 1
-16.881147 18.446161 16.745936 30.094192 -0.829670 0.980688 0.084615 -0.020620 -1011320.000000 0 0 1
-17.395047 17.093761 16.165036 29.259062 -0.776663 0.985460 0.081703 -0.027518 78202.800000 0 0 1
-18.439247 16.386961 16.806736 29.849702 -0.726537 0.972730 0.087272 -0.021337 34512.700000 0 0 1
-19.685547 17.041061 16.912536 31.047583 -0.713518 0.994730 0.098779 -0.021429 -342950.000000 0 0 1
36.057218 -9.002939 11.391067 38.870713 -0.244682 1.273381 0.108012 -0.043892 901133.000000 0 0 1
34.747188 -9.587739 11.204167 37.746857 -0.269229 1.269431 0.090875 -0.034747 942600.000000 0 0 1
34.636298 -10.624239 12.106167 38.198258 -0.297626 1.248306 0.081764 -0.031229 389769.000000 0 0 1
33.204968 -11.232739 12.251567 37.132805 -0.326200 1.234557 0.113065 -0.022353 -350894.000000 0 0 1
32.221768 -10.282539 12.684167 36.122860 -0.308902 1.212008 0.123278 -0.019190 -386669.000000 0 0 1
31.018708 -10.979339 12.702167 35.271110 -0.340197 1.202390 0.129744 -0.020645 -779468.000000 0 0 1
30.772908 -11.939739 13.956267 35.837224 -0.370115 1.170778 0.122017 -0.006443 -1423230.000000 0 0 1
30.527408 -11.268339 15.226967 35.927129 -0.353607 1.133127 0.141627 -0.009776 299934.000000 0 0 1
29.445708 -11.799739 15.976767 35.518174 -0.381134 1.104233 0.149125 -0.014909 744686.000000 0 0 1
28.024808 -11.310739 15.546367 33.985471 -0.383604 1.095680 0.156986 -0.038384 140365.000000 0 0 1
27.718408 -9.994939 15.985267 33.522197 -0.346076 1.073722 0.152713 -0.030917 -300358.000000 0 0 1
26.738708 -9.456639 15.117867 32.139328 -0.339939 1.081069 0.172911 -0.038705 176987.000000 0 0 1
26.421508 -7.985639 15.527567 31.669731 -0.293511 1.058366 0.188618 -0.035434 12791.900000 0 0 1
27.520408 -7.113139 15.464167 32.359080 -0.252932 1.072542 0.175403 -0.029965 -326303.000000 0 0 1
27.214808 -5.863939 15.932467 32.076082 -0.212224 1.050994 0.166837 -0.023831 685177.000000 0 0 1
28.490308 -4.937139 15.933967 33.014607 -0.171588 1.067137 0.175782 -0.022408 1017770.000000 0 0 1
29.026008 -4.667839 14.600367 32.824817 -0.159451 1.109849 0.183055 -0.028896 166813.000000 0 0 1
30.149008 -3.821639 14.679267 33.749793 -0.126086 1.120820 0.173409 -0.025376 2356.110000 0 0 1
30.556608 -3.238639 13.344667 33.500376 -0.105594 1.161086 0.164771 -0.034284 148390.000000 0 0 1
31.165808 -4.167139 12.406267 33.802191 -0.132920 1.194987 0.147982 -0.037190 434334.000000 0 0 1
31.041108 -3.708339 11.110467 33.177472 -0.118902 1.229319 0.161682 -0.050265 4272.270000 0 0 1
31.533458 -4.740339 10.034267 33.429273 -0.149210 1.265932 0.155251 -0.048162 -880005.000000 0 0 1
32.905908 -4.870939 10.081067 34.758492 -0.146959 1.276536 0.169893 -0.050613 -764207.000000 0 0 1
33.380748 -5.726139 9.062267 35.059773 -0.169887 1.309347 0.160441 -0.052763 -231955.000000 0 0 1
34.810548 -6.276839 9.181467 36.544115 -0.178397 1.316832 0.154171 -0.050878 -505007.000000 0 0 1
35.823868 -5.384739 8.833667 37.287781 -0.149195 1.331617 0.146804 -0.050998 -540552.000000 0 0 1
36.973128 -6.120239 8.474967 38.422579 -0.164045 1.348395 0.153896 -0.069536 -521728.000000 0 0 1
-37.958837 -5.213739 8.225167 39.188133 0.136498 1.359335 0.162711 -0.062734 -348486.000000 0 0 1
-38.033177 -4.542639 6.996467 38.937240 0.118876 1.390129 0.154424 -0.060768 -103490.000000 0 0 1
-36.819637 -3.850639 6.780567 37.636275 0.104202 1.389647 0.187354 -0.043594 180103.000000 0 0 1
-36.652677 -3.282039 5.350567 37.186276 0.089306 1.426410 0.182637 -0.052431 -39175.400000 0 0 1
-36.274517 -4.315639 4.442867 36.799516 0.118415 1.449769 0.211496 -0.070277 86655.900000 0 0 1
-36.037837 -3.804439 3.136867 36.373609 0.105178 1.484449 0.228673 -0.067882 -192146.000000 0 0 1
-35.694765 -4.907239 2.130767 36.093454 0.136621 1.511727 0.316591 -0.077944 -392192.000000 0 0 1
-36.655097 -5.857839 1.735767 37.160776 0.158470 1.524070 0.272677 -0.062491 -653594.000000 0 0 1
-37.223227 -5.772439 0.485767 37.671284 0.153851 1.557901 0.220879 -0.051339 -968524.000000 0 0 1
-36.368667 -5.913939 -0.769333 36.854396 0.161200 1.591673 0.294156 -0.060257 -1259780.000000 0 0 1
-35.773115 -7.165939 -0.881333 36.494427 0.197700 1.594948 0.300926 -0.079675 23752.600000 0 0 1
-34.859716 -7.276039 -1.941933 35.663871 0.205769 1.625274 0.283962 -0.076409 227241.000000 0 0 1
-33.492777 -6.539339 -1.815133 34.173437 0.192820 1.623937 0.268691 -0.074974 -406435.000000 0 0 1
-32.695887 -6.935739 -0.708233 33.430930 0.209030 1.591983 0.273374 -0.072118 631271.000000 0 0 1
-31.428587 -6.246439 -0.722433 32.051459 0.196194 1.593338 0.288397 -0.072576 547780.000000 0 0 1
-30.470877 -7.078039 0.150467 31.282513 0.228241 1.565986 0.249043 -0.062898 -609447.000000 0 0 1
-30.132397 -8.280439 -0.444633 31.252595 0.268182 1.585024 0.232282 -0.044913 93631.400000 0 0 1
-29.338817 -8.942839 0.510367 30.675740 0.295866 1.554158 0.261780 -0.055421 -202796.000000 0 0 1
-28.801387 -10.316439 0.004567 30.593281 0.343954 1.570647 0.196014 -0.033575 110219.000000 0 0 1
-27.883567 -10.072839 -1.070533 29.666504 0.346659 1.606890 0.178289 -0.035090 487132.000000 0 0 1
-27.402347 -11.228339 -1.799833 29.668226 0.388890 1.631499 0.151541 -0.013955 257882.000000 0 0 1
-28.461407 -12.136439 -2.527133 31.044021 0.403071 1.652291 0.139802 -0.015849 252241.000000 0 0 1
-29.375407 -12.747039 -1.605333 32.062106 0.409415 1.620887 0.187692 -0.032420 797735.000000 0 0 1
-29.924207 -13.924539 -2.258933 33.082529 0.435526 1.639131 0.145761 -0.016377 44023.000000 0 0 1
-31.031717 -14.634939 -1.421333 34.339032 0.440681 1.612199 0.189035 -0.021583 64484.300000 0 0 1
-30.554067 -15.563039 -0.432433 34.292072 0.471108 1.583407 0.161311 -0.015898 760342.000000 0 0 1
-31.594267 -16.208339 0.320267 35.510710 0.474005 1.561777 0.170507 -0.018145 625806.000000 0 0 1
-32.153887 -17.577239 -0.120933 36.644869 0.500275 1.574096 0.163206 -0.023285 411586.000000 0 0 1
-31.137667 -18.551639 0.148767 36.245548 0.537321 1.566692 0.209234 -0.037407 587981.000000 0 0 1
-31.413527 -19.918039 -0.146933 37.196230 0.565087 1.574747 0.177804 -0.035029 13212.300000 0 0 1
-32.436207 -20.587839 0.833367 38.427349 0.565557 1.549108 0.149101 -0.038655 -266030.000000 0 0 1
-31.847477 -20.979839 2.071767 38.193031 0.582509 1.516525 0.143902 -0.036643 38284.300000 0 0 1
-32.778767 -21.400739 3.023967 39.263005 0.578400 1.493702 0.106888 -0.031462 -167033.000000 0 0 1
-32.012507 -21.716339 4.303667 38.921993 0.596062 1.459998 0.103112 -0.027704 158627.000000 0 0 1
-31.484497 -20.544239 4.839867 37.904665 0.578144 1.442762 0.093026 -0.023932 364042.000000 0 0 1
-30.570237 -20.781739 5.931667 37.438012 0.597042 1.411686 0.101201 -0.028575 549579.000000 0 0 1
-30.031797 -19.519539 6.590367 36.419146 0.576349 1.388835 0.108520 -0.023126 86115.500000 0 0 1
-29.061727 -19.686239 7.599267 35.914911 0.595392 1.357594 0.101956 -0.022163 -141736.000000 0 0 1
-28.594167 -18.435439 8.102067 34.973351 0.572660 1.337008 0.124381 -0.030451 -539262.000000 0 0 1
-27.516167 -18.521939 9.122667 34.400941 0.592463 1.302399 0.150473 -0.029102 -806352.000000 0 0 1
-27.931707 -19.067939 10.407567 35.384799 0.598995 1.272256 0.132773 -0.035522 -244583.000000 0 0 1
-26.936337 -19.205439 11.388767 34.987414 0.619393 1.239245 0.125844 -0.023135 -184942.000000 0 0 1
-26.514197 -17.928239 12.172867 34.243293 0.594556 1.207367 0.111505 -0.030788 -321319.000000 0 0 1
-25.850597 -16.910039 11.391067 32.923536 0.579284 1.217507 0.116718 -0.032330 408095.000000 0 0 1
-25.296077 -15.836439 12.154967 32.224642 0.559349 1.184031 0.109000 -0.024056 719215.000000 0 0 1
-24.284947 -16.052339 13.342967 32.022976 0.584069 1.141019 0.087819 -0.016923 -219501.000000 0 0 1
-24.856947 -16.693639 14.430267 33.238201 0.591402 1.121705 0.084562 -0.031452 -307477.000000 0 0 1
-23.963047 -16.986439 15.470067 33.197736 0.616647 1.086034 0.091164 -0.029840 -24717.000000 0 0 1
-24.746447 -17.687239 16.589667 34.647397 0.620549 1.071493 0.073097 -0.008986 443338.000000 0 0 1
-25.577387 -16.808639 17.364167 35.188739 0.581398 1.054735 0.070563 -0.011093 361663.000000 0 0 1
-26.478427 -17.574439 18.147067 36.596230 0.585964 1.051957 0.065296 0.002213 -613427.000000 0 0 1
-27.591217 -16.746439 18.739167 37.321239 0.545513 1.044766 0.077785 0.006655 -812504.000000 0 0 1
-27.319897 -16.177639 20.045567 37.548869 0.534632 1.007646 0.069262 -0.002213 207118.000000 0 0 1
-28.152127 -15.051239 20.328367 37.846064 0.490974 1.003762 0.079792 -0.008658 -174537.000000 0 0 1
-27.651877 -14.221039 21.503867 37.805827 0.475013 0.965753 0.082048 -0.012889 496616.000000 0 0 1
-26.413107 -13.571839 21.208767 36.491901 0.474650 0.950605 0.078844 -0.014443 687761.000000 0 0 1
-25.648647 -13.162939 22.362467 36.485559 0.474153 0.911055 0.068218 -0.016038 73291.300000 0 0 1
-24.314647 -12.569539 21.864467 35.032132 0.477118 0.896784 0.069917 -0.012991 -319750.000000 0 0 1
-24.343347 -11.295639 21.300267 34.262098 0.434446 0.899903 0.085221 -0.014818 205142.000000 0 0 1
-23.112547 -10.967439 20.681367 32.896709 0.443059 0.890947 0.091010 -0.019551 -328550.000000 0 0 1
-22.728947 -9.508739 21.062967 32.414036 0.396228 0.863462 0.109157 -0.019096 -27623.600000 0 0 1
-22.366247 -9.332439 22.453367 33.037813 0.395293 0.823543 0.117675 -0.023762 509434.000000 0 0 1
-20.999447 -9.685739 22.616167 32.346272 0.432160 0.796533 0.078634 -0.021103 114207.000000 0 0 1
-20.316647 -9.620339 24.002567 32.885259 0.442240 0.752638 0.085973 -0.019453 242988.000000 0 0 1
-20.584547 -10.769739 24.781367 33.968029 0.482031 0.753133 0.095049 -0.024670 -375667.000000 0 0 1
-19.772047 -10.793839 25.910467 34.333557 0.499701 0.715647 0.097870 -0.023358 -1388990.000000 0 0 1
-20.142447 -11.856139 26.953967 35.676358 0.532006 0.714359 0.092279 -0.033862 325036.000000 0 0 1
-21.431247 -11.817139 27.566267 36.862477 0.503916 0.726033 0.091005 -0.020323 -664906.000000 0 0 1
-22.359947 -12.299839 26.696867 36.932045 0.502907 0.762857 0.080562 -0.023241 -1016910.000000 0 0 1
-23.633947 -12.914539 27.376467 38.403382 0.500106 0.777220 0.069701 -0.021247 475170.000000 0 0 1
-23.468147 -14.217439 28.062467 39.247822 0.544687 0.774162 0.060166 -0.021285 -388677.000000 0 0 1
-22.893447 -14.097739 29.294367 39.761993 0.551955 0.742556 0.053674 -0.017401 -274843.000000 0 0 1
-23.339947 -15.199539 30.347367 41.191526 0.577235 0.742563 0.041483 -0.021478 -479795.000000 0 0 1
-23.005747 -16.581639 30.120267 41.369622 0.624524 0.755284 0.041350 -0.017001 -98127.000000 0 0 1
-23.208247 -17.479339 31.228067 42.653748 0.645515 0.749353 0.035963 -0.016637 263055.000000 0 0 1
-24.693047 -17.703939 31.641467 43.867510 0.622018 0.765124 0.069233 -0.021063 501333.000000 0 0 1
-25.311617 -16.660839 32.423067 44.379238 0.582138 0.751609 0.080900 -0.024928 -693993.000000 0 0 1
-26.658247 -16.969939 32.592467 45.397245 0.566879 0.769959 0.080035 -0.030703 -579859.000000 0 0 1
-27.464197 -15.923439 33.444067 46.112294 0.525426 0.759363 0.083590 -0.029838 253620.000000 0 0 1
-27.064177 -15.919639 -32.640802 45.291572 0.531711 2.375581 0.098496 -0.032030 35097.300000 0 0 1
-27.571147 -14.742639 -32.050502 44.774415 0.491031 2.368597 0.094407 -0.023607 -318812.000000 0 0 1
-27.003437 -14.442639 -30.603802 43.293973 0.491133 2.355879 0.079472 -0.012352 78702.100000 0 0 1
-27.736347 -15.112239 -29.567902 43.265986 0.498883 2.323204 0.080891 -0.004608 501652.000000 0 0 1
-27.011577 -15.131139 -28.350902 41.980356 0.510620 2.312218 0.083532 0.002363 279844.000000 0 0 1
-27.961707 -15.628939 -27.222302 42.037775 0.509682 2.275184 0.091845 0.002115 566474.000000 0 0 1
-28.890337 -14.669039 -26.667902 41.964381 0.469828 2.259438 0.117754 -0.000568 448297.000000 0 0 1
-28.450167 -13.450339 -26.085102 40.874884 0.441626 2.262915 0.108094 -0.004268 -821371.000000 0 0 1
-27.568737 -13.480839 -24.824402 39.471752 0.454801 2.250954 0.101414 -0.011356 15859.100000 0 0 1
-26.304477 -14.035039 -25.108502 38.978772 0.490134 2.270719 0.071519 -0.022738 -109754.000000 0 0 1
-25.532477 -14.209439 -23.934102 37.771110 0.507838 2.257074 0.065457 -0.023652 261340.000000 0 0 1
-24.726347 -15.561339 -24.019102 37.821485 0.561716 2.258889 0.062195 -0.012858 192282.000000 0 0 1
-23.708847 -15.640939 -24.999802 37.838320 0.583170 2.292548 0.063777 -0.011771 -5371.290000 0 0 1
-23.102547 -16.901139 -24.987402 37.996663 0.631601 2.288453 0.082113 -0.013612 -2997.500000 0 0 1
-22.325147 -17.189339 -26.324902 38.560161 0.656150 2.322243 0.068458 -0.018132 249237.000000 0 0 1
-23.112847 -17.240139 -27.504902 39.849037 0.640879 2.332600 0.080556 -0.017826 962699.000000 0 0 1
-24.118047 -18.314239 -27.505402 40.910129 0.649464 2.308158 0.095088 -0.022701 517652.000000 0 0 1
-24.970207 -18.282139 -28.794602 42.271467 0.631984 2.320174 0.087864 -0.017560 -179911.000000 0 0 1
-24.248147 -18.627139 -29.963702 42.810821 0.655040 2.346067 0.084559 -0.025245 171638.000000 0 0 1
-24.991307 -18.364639 -31.137402 43.947277 0.633729 2.358191 0.066966 -0.018631 -460262.000000 0 0 1
-24.253547 -18.618639 -32.507102 44.627345 0.654712 2.386798 0.067608 -0.027170 -258886.000000 0 0 1
-23.136147 -17.800039 -32.885402 43.972404 0.655777 2.415636 0.062333 -0.021159 -629879.000000 0 0 1
-21.986847 -18.335139 -32.351202 43.199526 0.695081 2.417165 0.072169 -0.029254 -1269610.000000 0 0 1
-21.257747 -19.452139 -33.147302 43.920623 0.741074 2.426007 0.061090 -0.025543 -588578.000000 0 0 1
-20.694147 -19.046539 33.039167 43.388995 0.743963 0.705227 0.054496 -0.024641 214603.000000 0 0 1
-20.289647 -20.104239 32.185867 43.032316 0.780808 0.725834 0.049930 -0.024524 77355.000000 0 0 1
-21.465747 -20.947439 31.611267 43.575747 0.773178 0.759134 0.049548 -0.023520 491294.000000 0 0 1
-22.181747 -21.761439 32.557967 45.006792 0.775834 0.762080 0.042779 -0.015000 1011130.000000 0 0 1
-23.488647 -22.205239 32.120067 45.568497 0.757318 0.788550 0.048866 -0.007771 1096240.000000 0 0 1
-23.612447 -23.266039 30.996267 45.383089 0.778009 0.818946 0.061749 -0.005652 -493792.000000 0 0 1
-22.959847 -24.418339 31.435167 45.951927 0.816172 0.817444 0.064884 0.002774 -119017.000000 0 0 1
-23.042647 -25.531389 30.530367 45.988245 0.836589 0.844810 0.086332 0.010545 20907.700000 0 0 1
-22.601947 -26.859989 31.111567 46.906680 0.871274 0.845623 0.104070 -0.002705 -202063.000000 0 0 1
-23.532447 -27.367849 32.015667 48.247053 0.860607 0.845205 0.094514 -0.002638 -478327.000000 0 0 1
-23.080047 -28.485209 32.693967 49.122206 0.889839 0.842547 0.105287 -0.008688 222515.000000 0 0 1
-24.203347 -29.145279 33.609467 50.644304 0.877769 0.845125 0.109072 -0.003885 656878.000000 0 0 1
-25.323037 -29.826259 33.047667 51.215332 0.866873 0.869421 0.094025 -0.007980 715842.000000 0 0 1
-26.335397 -28.986519 32.501867 50.893445 0.833283 0.878085 0.089178 -0.004851 -289287.000000 0 0 1
-27.341387 -28.575909 33.597367 51.893324 0.807472 0.866587 0.061484 -0.008804 -1356930.000000 0 0 1
-28.441857 -27.885949 33.106567 51.793920 0.775529 0.877341 0.049405 -0.003202 -760680.000000 0 0 1
-29.326397 -27.690749 -33.308202 52.309191 0.756719 2.261080 0.047435 0.000688 -1021490.000000 0 0 1
-30.530497 -26.825879 -33.622702 52.746802 0.720898 2.261962 0.042172 -0.011532 -169225.000000 0 0 1
-31.531567 -27.507319 33.033767 53.311557 0.717341 0.902517 0.035464 -0.018979 755205.000000 0 0 1
-32.664597 -26.638649 32.906267 53.473507 0.684133 0.907935 0.040362 -0.031354 290536.000000 0 0 1
