# x y z rho theta phi s1 s2 stress_xx np intf bulk
-0.668051 -10.751419 -14.345678 17.939838 1.508740 2.497517 0.003420 0.000921 -794703.000000 1 0 0
2.057449 -13.325519 -12.922678 18.676139 -1.417607 2.334962 0.014799 -0.002605 606476.000000 1 0 0
2.240149 -11.200619 -14.691378 18.609372 -1.373399 2.480727 0.009420 0.000778 611936.000000 1 0 0
-5.620851 -6.237619 -16.347278 18.377577 0.837362 2.667096 0.027298 -0.010077 -91106.500000 1 0 0
4.533649 -14.158119 -11.515878 18.804833 -1.260898 2.229876 0.010272 0.002870 475711.000000 1 0 0
14.033749 -10.602219 -7.851378 19.261290 -0.646999 1.990648 0.057175 -0.018847 -548288.000000 1 0 0
7.074849 10.878881 -10.805478 16.886738 0.994190 2.265138 0.025803 -0.012225 562890.000000 1 0 0
5.730549 -4.248219 -12.535278 14.422890 -0.637928 2.624225 0.004510 -0.001140 1149690.000000 1 0 0
13.647349 0.520781 -10.062378 16.963868 0.038141 2.205781 0.035224 -0.006895 687668.000000 1 0 0
14.199149 5.038581 -10.436178 18.328037 0.340990 2.176585 0.045621 -0.011275 -689174.000000 1 0 0
4.166249 4.366081 -13.539778 14.823828 0.808814 2.722305 0.005888 -0.003856 2018890.000000 1 0 0
10.410749 -4.982219 -13.634378 17.863439 -0.446353 2.439134 0.037881 -0.009108 -729843.000000 1 0 0
2.527449 -7.546419 -12.012478 14.409582 -1.247618 2.556471 -0.002771 0.003327 2534660.000000 1 0 0
-5.584351 -2.070019 -15.166078 16.293553 0.354980 2.767398 0.017437 -0.008215 738023.000000 1 0 0
10.667149 0.147981 -9.749578 14.452136 0.013872 2.311235 0.013391 -0.003848 1734070.000000 1 0 0
-1.609451 -9.513319 -16.839378 19.407685 1.403205 2.621283 0.013925 -0.003816 1799440.000000 1 0 0
8.686449 1.809581 -17.994278 20.062977 0.205385 2.683482 0.050622 -0.014000 977593.000000 1 0 0
16.376049 -5.908519 -8.886878 19.546411 -0.346266 2.042781 0.060984 -0.008122 -10611.600000 1 0 0
10.109249 7.574281 -9.904578 16.052019 0.643016 2.235759 0.030879 -0.008840 178350.000000 1 0 0
13.807149 -2.291619 -10.597278 17.555375 -0.164474 2.218866 0.041562 -0.009012 -1282650.000000 1 0 0
7.208749 -1.936919 -13.672278 15.577192 -0.262490 2.641861 0.014504 -0.006721 303528.000000 1 0 0
-2.789051 6.621981 -13.737378 15.503064 -1.172165 2.659674 0.014793 -0.005085 721386.000000 1 0 0
11.258949 1.782181 -14.057378 18.098342 0.156988 2.460241 0.035139 -0.010408 -12943.100000 1 0 0
-2.351151 10.733981 -12.890178 16.938210 -1.355164 2.435668 0.018103 -0.003068 -1131780.000000 1 0 0
2.897249 -1.115619 -15.270678 15.583076 -0.367562 2.941020 0.010582 -0.005135 1330840.000000 1 0 0
-9.014951 0.459781 -15.243778 17.715911 -0.050958 2.606962 0.018745 -0.004783 -384173.000000 1 0 0
2.461249 -1.872319 -18.027278 18.290601 -0.650326 2.971703 0.028615 -0.012376 471636.000000 1 0 0
1.083449 7.808281 -13.217178 15.389507 1.432920 2.603804 0.004657 -0.002026 -1832530.000000 1 0 0
9.313449 -9.034319 -9.893278 16.316746 -0.770186 2.222229 0.024166 -0.003725 -221264.000000 1 0 0
3.940949 7.278481 -13.600978 15.921494 1.074539 2.594908 0.000355 -0.002347 1025000.000000 1 0 0
-2.650051 8.985781 -15.479678 18.093852 -1.284010 2.597353 0.017326 -0.003441 529223.000000 1 0 0
5.525849 -7.641119 -15.343978 18.009980 -0.944687 2.590534 0.030025 -0.007414 737824.000000 1 0 0
4.227649 7.312081 -16.478978 18.517459 1.046581 2.667957 0.008427 -0.000365 280405.000000 1 0 0
-0.169651 5.027381 -13.515678 14.421404 -1.537064 2.785298 0.009792 -0.006943 2329320.000000 1 0 0
8.879649 4.381681 -16.696478 19.411844 0.458396 2.606297 0.046288 -0.008883 734375.000000 1 0 0
5.362249 0.225781 -14.354078 15.324629 0.042081 2.783786 0.004979 0.000028 689403.000000 1 0 0
6.251749 7.977781 -11.624278 15.422490 0.906108 2.424504 0.007997 -0.003780 -1554820.000000 1 0 0
2.795249 -8.358019 -15.002278 17.399375 -1.248051 2.610454 0.010695 -0.005762 -439255.000000 1 0 0
4.000349 11.466981 -13.814178 18.393639 1.235139 2.420417 0.016158 -0.007271 -2031950.000000 1 0 0
0.657949 -4.479719 -13.719678 14.447503 -1.424966 2.822826 0.004719 -0.000380 983091.000000 1 0 0
8.431149 -0.170919 -11.639278 14.373110 -0.020269 2.514600 0.006587 -0.000278 -404256.000000 1 0 0
-0.958751 -5.086619 -16.269178 17.072758 1.384497 2.833561 0.012517 -0.010790 305204.000000 1 0 0
4.491249 0.929681 -11.719778 12.585262 0.204116 2.768571 -0.001156 -0.002648 988594.000000 1 0 0
-2.948451 -7.176919 -15.584378 17.409031 1.180994 2.679652 0.008054 -0.002258 -93792.900000 1 0 0
11.351349 -3.729919 -11.367478 16.491967 -0.317474 2.331282 0.026893 -0.006810 1531130.000000 1 0 0
6.502749 -7.157919 -12.607178 15.889068 -0.833322 2.487253 0.018932 -0.001637 -238335.000000 1 0 0
3.460649 -4.025719 -14.649478 15.581711 -0.860735 2.793929 0.014539 -0.003434 1780800.000000 1 0 0
-0.489351 -1.594919 -18.272878 18.348877 1.273096 3.050546 0.032571 -0.019974 1331280.000000 1 0 0
14.985049 2.977281 -8.527678 17.496777 0.196129 2.079890 0.035023 -0.007449 -741443.000000 1 0 0
6.983549 4.237881 -14.346578 16.509207 0.545432 2.623984 0.010220 -0.003209 2494920.000000 1 0 0
10.171549 -9.640419 -14.040178 19.837457 -0.758596 2.357120 0.058656 -0.016413 -516266.000000 1 0 0
9.134049 -3.199919 -15.563778 18.327616 -0.336968 2.585261 0.038939 -0.014646 738297.000000 1 0 0
-5.170251 -2.152919 -18.096778 18.943599 0.394568 2.841462 0.005912 -0.002473 -147443.000000 1 0 0
4.993749 -9.158419 -11.115078 15.243330 -1.071597 2.387914 -0.001463 0.004007 987114.000000 1 0 0
-2.424051 3.916081 -17.237878 17.842538 -1.016524 2.880511 0.017184 0.001945 1859830.000000 1 0 0
9.387049 9.263181 -14.456078 19.567867 0.778757 2.402034 0.065916 -0.017518 -298463.000000 1 0 0
9.749349 10.022781 -11.572978 18.150476 0.799226 2.262192 0.041138 -0.017481 239315.000000 1 0 0
12.004549 -5.968519 -9.640878 16.512993 -0.461396 2.194242 0.031346 -0.006312 365348.000000 1 0 0
8.122649 6.857181 -13.636478 17.290226 0.701120 2.479457 0.019960 -0.008727 55661.200000 1 0 0
4.084749 -4.194319 -17.536578 18.488079 -0.798632 2.819371 0.038297 -0.014525 708182.000000 1 0 0
9.317349 -7.447019 -12.366978 17.181770 -0.674292 2.374272 0.035094 -0.011399 -414144.000000 1 0 0
12.000249 -8.634319 -8.863178 17.236977 -0.623701 2.110866 0.043407 -0.013294 1415440.000000 1 0 0
-2.948051 -2.505319 -13.883078 14.412060 0.704391 2.869817 0.007292 -0.007570 -3375870.000000 1 0 0
-0.391851 6.060481 -17.647778 18.663522 -1.506229 2.810156 0.017737 -0.005405 95429.400000 1 0 0
1.089549 -8.482619 -17.466978 19.448323 -1.443051 2.686278 0.018421 -0.005039 1128020.000000 1 0 0
0.116949 8.457581 -16.045978 18.138847 1.556969 2.656474 0.010209 -0.002610 1037660.000000 1 0 0
1.779149 3.382481 -15.035478 15.513612 1.086574 2.892675 0.012331 -0.006120 1485300.000000 1 0 0
-1.924551 -0.480719 -15.813378 15.937312 0.244774 3.016801 0.015281 -0.008876 2236680.000000 1 0 0
14.134849 -4.348819 -8.434078 17.024684 -0.298475 2.089095 0.041355 -0.008727 76183.900000 1 0 0
0.656549 0.596181 -14.574878 14.601834 0.737247 3.080820 0.005133 -0.006456 2852530.000000 1 0 0
8.843749 2.682481 -12.669478 15.681941 0.294499 2.511380 0.012414 -0.002154 449071.000000 1 0 0
5.907749 1.147981 -17.131278 18.157644 0.191926 2.803758 0.029009 -0.006478 761567.000000 1 0 0
15.233849 1.524281 -12.428578 19.719613 0.099727 2.252691 0.051010 -0.015439 -846262.000000 1 0 0
8.803349 -11.252219 -11.955178 18.628947 -0.906901 2.267578 0.040899 -0.007015 959811.000000 1 0 0
-4.608051 0.731481 -15.027478 15.735129 -0.157426 2.840548 0.017436 -0.007249 1763170.000000 1 0 0
2.354249 5.118581 -17.354378 18.246008 1.139706 2.827681 0.014121 -0.008091 2728810.000000 1 0 0
5.920249 -11.654219 -12.344878 17.979604 -1.100776 2.327605 0.016476 -0.006483 -322928.000000 1 0 0
12.771249 7.161281 -8.721378 17.042629 0.511047 2.108004 0.025077 -0.012573 -70336.000000 1 0 0
-4.978951 3.597381 -15.772578 16.926468 -0.625679 2.770218 0.014670 0.002201 1709590.000000 1 0 0
-0.617951 -4.349219 -19.111878 19.610238 1.429658 2.915665 0.026684 -0.016217 326263.000000 1 0 0
9.827049 4.387981 -10.340078 14.924560 0.419957 2.336193 0.007514 -0.005073 -32720.200000 1 0 0
13.297349 3.574081 -12.904278 18.870982 0.262576 2.323776 0.050792 -0.016143 -8023.440000 1 0 0
-6.226851 5.878581 -17.122578 19.144557 -0.756636 2.677848 0.020153 0.000282 355472.000000 1 0 0
-10.259351 3.097781 -15.488878 18.834964 -0.293242 2.536320 0.035087 -0.001459 -1643220.000000 1 0 0
10.557249 13.511581 -8.388878 19.089044 0.907532 2.025794 0.067155 -0.015620 -192976.000000 1 0 0
7.398449 13.407181 -12.433978 19.725450 1.066551 2.252803 0.049318 -0.011664 498789.000000 1 0 0
5.324749 15.133281 -11.256578 19.597952 1.232468 2.182637 0.022990 -0.011711 1200120.000000 1 0 0
14.336049 9.322381 -9.913778 19.766439 0.576569 2.096181 0.090890 -0.020915 188238.000000 1 0 0
8.382349 -17.255419 -2.015178 19.289225 -1.118589 1.675459 0.022502 -0.004759 -231886.000000 1 0 0
0.743349 -16.102519 0.105722 16.120014 -1.524666 1.564238 0.011361 -0.008267 2510660.000000 1 0 0
-9.197951 -11.759019 7.512222 16.712579 0.907001 1.104596 0.022968 -0.015021 1927300.000000 1 0 0
2.029049 -15.899319 -2.559178 16.231290 -1.443864 1.729126 0.012643 -0.009314 2150270.000000 1 0 0
-1.314751 -10.946419 -9.388778 14.481084 1.451261 2.276209 0.004591 0.002866 1070980.000000 1 0 0
-4.886951 -12.674919 -13.008178 18.808204 1.202799 2.334529 0.026541 -0.005061 -785061.000000 1 0 0
-8.596251 -17.675419 -1.680578 19.726639 1.118137 1.656093 0.045253 -0.017801 688399.000000 1 0 0
-11.533751 -7.063019 -8.846278 16.160764 0.549471 2.150041 0.018934 -0.007488 3628660.000000 1 0 0
-13.589751 -11.654619 -4.670678 18.502073 0.708892 1.825998 0.008726 -0.001431 173680.000000 1 0 0
-5.748151 -13.581619 9.735022 17.671227 1.170426 0.987358 0.024032 -0.009029 273221.000000 1 0 0
0.118649 -13.988819 -3.625078 14.451378 -1.562315 1.824351 0.010382 -0.005916 -1368030.000000 1 0 0
-14.825251 -11.544719 2.041822 18.900731 0.661630 1.462556 0.014495 -0.011173 1167300.000000 1 0 0
-4.018651 -16.567119 -7.540778 18.640877 1.332825 1.987260 0.020152 -0.005657 -128905.000000 1 0 0
0.456149 -15.304319 -9.210078 17.867730 -1.541000 2.112339 0.009498 -0.002302 1743780.000000 1 0 0
4.596949 -14.285419 -2.526178 15.217973 -1.259468 1.737568 0.003723 0.001329 82275.400000 1 0 0
-3.466551 -17.969819 -2.389178 18.456422 1.380228 1.700610 0.021854 -0.014624 1304480.000000 1 0 0
-0.854851 -13.504719 0.681422 13.548894 1.507581 1.520482 0.011119 -0.005566 2692530.000000 1 0 0
-8.512651 -11.349619 -10.515278 17.659279 0.927271 2.208626 0.021399 -0.003896 2413900.000000 1 0 0
-3.666051 -14.167319 -0.417878 14.639927 1.317582 1.599344 0.012415 -0.006495 4351950.000000 1 0 0
-1.670151 -14.951419 -7.296378 16.720390 1.459552 2.022363 0.007582 -0.002383 554867.000000 1 0 0
-14.178951 -8.044319 -1.837378 16.405172 0.516060 1.683032 0.002566 -0.005712 1971990.000000 1 0 0
-10.864651 -7.302019 -11.631778 17.511664 0.591748 2.297260 0.031068 -0.009995 -715279.000000 1 0 0
-9.525951 -14.748419 6.867722 18.852724 0.997311 1.197934 0.017647 -0.009344 1700000.000000 1 0 0
-2.661851 -14.374119 -12.317378 19.115924 1.387687 2.270972 0.026140 -0.000211 -9067.790000 1 0 0
2.276449 -17.715819 -4.785978 18.491567 -1.442999 1.832596 0.019412 -0.009860 -575031.000000 1 0 0
-6.672751 -9.669319 -9.191378 14.916526 0.966749 2.234689 0.018489 -0.005770 579690.000000 1 0 0
-11.076151 -15.366019 0.560322 18.950188 0.946233 1.541224 0.022728 -0.010695 -114232.000000 1 0 0
-12.626251 -11.033119 4.108722 17.263647 0.718163 1.330492 0.020115 -0.011609 2008890.000000 1 0 0
-17.019851 -8.919219 -1.626378 19.284006 0.482700 1.655235 0.005111 -0.008052 -1814550.000000 1 0 0
-1.344951 -19.223119 -3.955178 19.671823 1.500945 1.773234 0.026410 -0.004588 -326502.000000 1 0 0
3.320549 -14.293019 -8.824078 17.122523 -1.342526 2.112211 0.009395 -0.001379 1066990.000000 1 0 0
-4.274151 -8.048819 -12.998778 15.875140 1.082635 2.530137 0.012383 -0.003583 3104040.000000 1 0 0
5.587249 -16.534219 1.242922 17.496931 -1.244923 1.499700 0.015610 -0.008382 3618290.000000 1 0 0
-2.788651 -13.824319 -3.235978 14.469275 1.371747 1.796349 0.009114 -0.005109 -1154190.000000 1 0 0
-0.434851 -13.956519 3.663622 14.435915 1.539649 1.314205 0.008501 -0.003293 -3842520.000000 1 0 0
1.248249 -16.201719 7.065322 17.719272 -1.493904 1.160658 0.020559 -0.003143 2824470.000000 1 0 0
-5.569551 -10.261919 -14.554478 18.659038 1.073544 2.465499 0.030860 -0.006601 -1056910.000000 1 0 0
-0.402351 -17.254519 -5.844078 18.221788 1.547482 1.897285 0.019327 -0.005836 145523.000000 1 0 0
-6.481951 -13.424419 -1.279478 14.962211 1.120964 1.656415 0.014398 -0.007336 3540040.000000 1 0 0
-1.713551 -17.821219 -0.044078 17.903464 1.474939 1.573258 0.017144 -0.008230 956251.000000 1 0 0
-9.483651 -9.890719 -4.819078 14.525476 0.806406 1.908973 0.016652 -0.004668 1379560.000000 1 0 0
-0.694951 -16.679719 4.823622 17.377091 1.529156 1.289517 0.025097 -0.008339 2910650.000000 1 0 0
-6.859451 -9.983519 -6.315378 13.660407 0.968796 2.051398 0.017147 -0.006039 1468010.000000 1 0 0
-6.022051 -14.579019 -8.593278 17.962664 1.179080 2.069624 0.014497 -0.005716 -1037870.000000 1 0 0
-5.735751 -12.148019 -10.262678 16.905495 1.129672 2.223154 0.021750 -0.005798 1162820.000000 1 0 0
-10.819351 -12.258619 -8.948678 18.638963 0.847683 2.071572 0.030123 -0.008774 -201625.000000 1 0 0
4.086549 -16.945819 6.745022 18.691067 -1.334161 1.201597 0.027895 -0.009001 916394.000000 1 0 0
-6.763351 -14.439919 -4.164878 16.480303 1.132764 1.826285 0.020589 -0.009662 -502733.000000 1 0 0
-2.918651 -12.154019 -7.093078 14.371863 1.335120 2.086951 0.010622 -0.002671 2458580.000000 1 0 0
-7.050451 -12.863119 4.491322 15.340816 1.069403 1.273674 0.015219 -0.007767 742386.000000 1 0 0
2.685049 -16.379519 2.422522 16.773990 -1.408314 1.425868 0.014272 -0.009795 1605300.000000 1 0 0
-6.224451 -12.044519 7.292722 15.394740 1.093809 1.077292 0.015361 -0.007916 1974500.000000 1 0 0
-11.412451 -12.831519 -0.850978 17.193489 0.843864 1.620311 0.015321 -0.004876 1039050.000000 1 0 0
-14.225051 -8.746119 4.694122 17.345934 0.551259 1.296761 0.017707 -0.011171 374038.000000 1 0 0
-7.942551 -15.591319 4.473322 18.060563 1.099640 1.320507 0.023222 -0.004639 854654.000000 1 0 0
-16.507651 -9.126919 1.204422 18.901159 0.505059 1.507031 0.001737 -0.005093 -490002.000000 1 0 0
-6.664751 -17.073419 2.380322 18.482058 1.198629 1.441647 0.026709 -0.005849 1136320.000000 1 0 0
-11.594051 -14.930119 -4.676978 19.473176 0.910516 1.813343 0.032926 -0.005453 -160428.000000 1 0 0
-10.157751 -9.968219 -12.524378 18.957989 0.775981 2.292465 0.027815 -0.008600 679581.000000 1 0 0
-4.345651 -16.009619 -4.564578 17.205463 1.305743 1.839310 0.011977 -0.006127 209233.000000 1 0 0
-11.841551 -8.294419 0.083022 14.457752 0.611028 1.565054 0.004520 -0.003529 701327.000000 1 0 0
-9.583451 -11.230719 3.555622 15.185981 0.864375 1.334464 0.013318 -0.005657 2899900.000000 1 0 0
-14.331551 -12.771719 -0.580978 19.205408 0.727910 1.601052 0.015345 -0.003617 -862618.000000 1 0 0
5.652249 -14.867419 -7.145978 17.437117 -1.207495 1.993047 0.007816 -0.006357 -370529.000000 1 0 0
-7.497551 -10.613419 -1.246478 13.054181 0.955773 1.666427 0.014160 -0.004089 1017640.000000 1 0 0
-11.695551 -8.313019 -6.085278 15.585981 0.617927 1.971898 0.011750 -0.004939 1619880.000000 1 0 0
-14.594051 -6.578219 -9.272778 18.499830 0.423475 2.095823 0.036632 -0.011484 2120400.000000 1 0 0
-3.954951 -16.478819 1.453222 17.008967 1.335249 1.485253 0.017036 -0.009776 972254.000000 1 0 0
-8.057151 -15.430419 0.235222 17.408930 1.089578 1.557284 0.029740 -0.009228 1454090.000000 1 0 0
1.115249 -18.590419 3.613622 18.971181 -1.510878 1.379146 0.019242 -0.009432 242260.000000 1 0 0
-14.149151 -8.850519 -4.589778 17.308848 0.558970 1.839176 0.007725 -0.006776 -1095160.000000 1 0 0
-3.310551 -14.389619 11.231722 18.551885 1.344666 0.920500 0.018174 -0.016240 66736.800000 1 0 0
-10.843551 -12.102319 -3.661978 16.657094 0.840201 1.792452 0.018319 -0.009921 1315250.000000 1 0 0
-10.005751 -10.678219 0.661722 14.648457 0.817898 1.525607 0.011025 -0.003372 1707190.000000 1 0 0
-0.266951 -13.182419 -11.114178 17.244488 1.550549 2.271173 0.007739 -0.001267 1324180.000000 1 0 0
-5.928451 -12.682719 -6.371478 15.381600 1.133532 1.997890 0.011036 -0.006999 2034160.000000 1 0 0
1.665349 -15.830719 9.899822 18.745440 -1.465985 1.014412 0.021846 -0.007664 603430.000000 1 0 0
-9.050751 -15.708819 -5.549878 18.960069 1.048093 1.867860 0.045384 -0.013490 -1767780.000000 1 0 0
-3.225951 -15.446119 5.823722 16.819782 1.364904 1.217234 0.013587 -0.007835 -70491.900000 1 0 0
-17.549951 -5.391119 -6.563878 19.497421 0.298037 1.914157 0.032478 -0.016508 -574387.000000 1 0 0
19.024749 5.739381 -2.908478 20.083347 0.292997 1.716128 0.021130 0.005256 -1348730.000000 1 0 0
12.784949 -12.530119 -5.927678 18.857258 -0.775332 1.890563 0.049819 -0.004635 -247726.000000 1 0 0
11.058049 -13.466919 -1.616678 17.500057 -0.883305 1.663310 0.031412 -0.002810 1475410.000000 1 0 0
18.801649 -2.873419 4.550722 19.556779 -0.151655 1.335951 0.059453 -0.012183 -952839.000000 1 0 0
8.716949 -16.807619 4.989022 19.579877 -1.092355 1.313152 0.036031 -0.015914 -58488.700000 1 0 0
18.020649 -1.081819 6.646122 19.237595 -0.059960 1.218051 0.066578 -0.014224 -1941110.000000 1 0 0
17.955149 -4.080919 -5.153278 19.120605 -0.223487 1.843685 0.073324 -0.008631 -382048.000000 1 0 0
5.538449 -11.722219 14.816022 19.687543 -1.129411 0.718858 0.015091 0.001384 209933.000000 1 0 0
15.989649 -8.895919 -0.797578 18.315086 -0.507709 1.614358 0.050241 -0.001525 134356.000000 1 0 0
13.902449 -12.470719 -1.447478 18.732114 -0.731164 1.648146 0.051520 -0.002932 1807790.000000 1 0 0
11.037649 -1.874019 13.877122 17.830203 -0.168180 0.678854 0.040224 -0.006578 411118.000000 1 0 0
17.096449 -6.108219 -1.436178 18.211576 -0.343146 1.649739 0.060148 -0.004827 -1216330.000000 1 0 0
17.839749 3.614881 -1.129478 18.237317 0.199924 1.632768 0.004877 0.002029 130954.000000 1 0 0
9.773549 -11.111119 9.513322 17.592115 -0.849356 0.999442 0.022770 -0.000949 543909.000000 1 0 0
9.030549 -11.015319 4.357422 14.895475 -0.884088 1.273921 0.007244 -0.007023 94726.700000 1 0 0
14.079749 -10.127519 6.965222 18.690112 -0.623560 1.188913 0.043757 -0.008457 -797914.000000 1 0 0
16.291149 -0.467519 -4.693878 16.960324 -0.028690 1.851213 0.027181 -0.005747 -30506.500000 1 0 0
15.826649 -0.476819 -1.799478 15.935755 -0.030118 1.683958 0.024034 -0.002506 2154650.000000 1 0 0
12.954849 -5.136019 -0.324778 13.939594 -0.377447 1.594097 0.015501 -0.002700 1877100.000000 1 0 0
14.319049 -7.521219 1.126722 16.213371 -0.483651 1.501247 0.036993 -0.000482 3529940.000000 1 0 0
15.616549 2.475281 3.565722 16.208578 0.157196 1.348992 0.019995 -0.006907 2084740.000000 1 0 0
15.967249 -7.109219 5.101122 18.207566 -0.418886 1.286830 0.060351 -0.012134 -864495.000000 1 0 0
13.702649 -12.038019 3.220522 18.521562 -0.720819 1.396028 0.033559 -0.006296 74605.000000 1 0 0
13.971249 -0.918419 9.157322 16.730088 -0.065642 0.991594 0.040510 -0.012303 776444.000000 1 0 0
14.266349 -2.822819 -1.715078 14.643719 -0.195342 1.688186 0.014146 0.000088 381009.000000 1 0 0
15.112449 1.841681 9.018322 17.694859 0.121267 1.036009 0.040279 -0.012939 -1083220.000000 1 0 0
14.417349 -10.007419 -3.018878 17.807920 -0.606771 1.741143 0.054708 -0.008660 927327.000000 1 0 0
7.269249 -12.622919 6.149322 15.811205 -1.048303 1.171335 0.005009 -0.003351 -149503.000000 1 0 0
12.477949 -4.619219 7.065622 15.065172 -0.354547 1.082634 0.023634 -0.006971 4358050.000000 1 0 0
14.951349 -8.813319 -5.662078 18.255864 -0.532638 1.886148 0.066720 -0.013131 -340174.000000 1 0 0
14.386849 -4.509119 4.650922 15.777980 -0.303722 1.271578 0.027298 -0.008420 1654320.000000 1 0 0
17.140949 -4.248719 1.000722 17.687996 -0.242972 1.514190 0.036364 -0.005063 -1197980.000000 1 0 0
10.293449 -14.354419 1.160822 17.701749 -0.948691 1.505173 0.031091 -0.006939 147974.000000 1 0 0
16.406549 -2.616619 8.542522 18.681441 -0.158154 1.095870 0.068086 -0.013250 142663.000000 1 0 0
16.113149 -2.622519 3.205722 16.636942 -0.161342 1.376897 0.029550 -0.004672 2241150.000000 1 0 0
7.813849 -15.124119 2.732822 17.241332 -1.093919 1.411621 0.011382 -0.008903 3354990.000000 1 0 0
16.702549 -6.982019 7.937922 19.767001 -0.395945 1.157561 0.070932 -0.012806 -507140.000000 1 0 0
10.278349 -8.534619 5.138522 14.313930 -0.692975 1.203613 0.013559 -0.007849 911214.000000 1 0 0
10.911749 -11.789919 2.236122 16.219392 -0.824062 1.432489 0.019649 -0.005242 6549.850000 1 0 0
12.326449 -7.182319 12.002422 18.643636 -0.527583 0.871367 0.055598 -0.014441 -1167270.000000 1 0 0
15.183249 -9.837819 4.387122 18.616137 -0.574925 1.332896 0.037950 -0.010952 -1279020.000000 1 0 0
7.350349 -10.218019 7.819922 14.818459 -0.947200 1.014888 0.004281 -0.000350 920894.000000 1 0 0
15.181649 -3.226319 -4.457178 16.148004 -0.209399 1.850447 0.034045 -0.007112 1735590.000000 1 0 0
11.781349 -8.928119 9.834622 17.754754 -0.648486 0.983737 0.038581 -0.006842 -2106440.000000 1 0 0
16.998349 -6.707619 2.484422 18.442027 -0.375846 1.435670 0.054357 -0.006312 861029.000000 1 0 0
17.628249 3.930181 1.938222 18.164751 0.219360 1.463890 0.013317 -0.000145 222960.000000 1 0 0
14.790949 -5.010219 8.873522 17.961455 -0.326605 1.054076 0.062332 -0.012749 1159960.000000 1 0 0
12.877949 -12.599319 5.977422 18.981938 -0.774462 1.250445 0.029428 -0.009208 -2076490.000000 1 0 0
18.278749 0.722781 -0.812178 18.311054 0.039522 1.615165 0.023021 -0.003376 264793.000000 1 0 0
11.746549 -2.039719 10.986422 16.212444 -0.171930 0.826229 0.027139 -0.006656 306574.000000 1 0 0
5.889849 -12.512319 10.587322 17.416654 -1.130843 0.917402 0.007783 0.004357 -1986510.000000 1 0 0
10.768849 -4.913319 11.000622 16.159285 -0.428042 0.821994 0.032452 -0.008608 567697.000000 1 0 0
17.900949 1.249181 5.044922 18.640163 0.069670 1.296730 0.044508 -0.008941 -1533060.000000 1 0 0
12.263649 -7.727419 7.202122 16.185816 -0.562264 1.109661 0.029725 -0.009676 568488.000000 1 0 0
10.740149 -7.827119 14.386722 19.585514 -0.629776 0.745779 0.059329 -0.010293 -402099.000000 1 0 0
14.260049 -0.237619 3.725622 14.740615 -0.016662 1.315280 0.011029 -0.004116 1927850.000000 1 0 0
11.687449 -7.663219 2.530222 14.202937 -0.580357 1.391693 0.017943 -0.002604 311994.000000 1 0 0
9.346649 6.031481 3.550922 11.676800 0.573071 1.261802 0.009001 -0.003456 3720570.000000 1 0 0
-4.068151 14.787681 -9.859178 18.232629 -1.302333 2.142117 0.007467 -0.006617 -130963.000000 1 0 0
8.809349 -6.323019 9.238622 14.245607 -0.622548 0.865152 0.004955 -0.002946 -146891.000000 1 0 0
5.754049 -10.568519 -8.472378 14.716788 -1.072223 2.184250 -0.000931 -0.000431 107306.000000 1 0 0
5.378649 1.122081 0.516722 5.518690 0.205668 1.477028 0.004009 -0.001192 3557320.000000 1 0 0
-0.573951 9.934881 11.008522 14.839772 -1.513089 0.735008 0.001032 0.001311 45030.000000 1 0 0
-6.315251 -5.265719 1.036122 8.287565 0.695019 1.445447 0.012232 -0.004736 2943110.000000 1 0 0
-1.006651 3.928581 -10.888878 11.619585 -1.319956 2.785064 0.012714 -0.005435 847878.000000 1 0 0
10.932849 5.744081 1.226222 12.410692 0.483758 1.471831 0.006724 -0.000696 1097300.000000 1 0 0
-10.054051 -1.765719 -13.652178 17.046515 0.173850 2.499556 0.021097 -0.010917 -57525.800000 1 0 0
7.462149 10.930681 -6.088178 14.568095 0.971790 2.001942 0.009419 -0.005410 384690.000000 1 0 0
-12.378551 -2.901319 -9.591078 15.925921 0.230227 2.217089 0.013104 -0.003078 -863523.000000 1 0 0
-3.953251 -8.690819 2.518722 9.874334 1.143894 1.312868 0.011290 -0.003400 -2274640.000000 1 0 0
7.974749 -6.607019 -5.905578 11.921626 -0.691874 2.089053 0.000671 -0.002561 2758000.000000 1 0 0
14.303149 3.151681 -4.286878 15.260750 0.216883 1.855537 0.017524 0.000005 856255.000000 1 0 0
-2.487651 -4.939119 9.819022 11.269272 1.104223 0.512932 0.003891 -0.000548 1197500.000000 1 0 0
3.460949 -1.860819 -4.537678 6.002611 -0.493321 2.427902 -0.000090 -0.000625 -1629140.000000 1 0 0
-4.003951 8.340581 -3.504578 9.893381 -1.123230 1.932892 0.003408 -0.002694 1834290.000000 1 0 0
5.815349 0.082381 11.745222 13.106308 0.014165 0.459780 0.007115 -0.002725 1848810.000000 1 0 0
7.229449 4.815181 12.331822 15.083923 0.587576 0.613657 0.015249 -0.007977 1472210.000000 1 0 0
1.216449 -14.572919 12.448322 19.204438 -1.487516 0.865578 0.015201 -0.006990 544658.000000 1 0 0
3.038349 8.713381 -9.070878 12.939684 1.235281 2.347612 0.000609 -0.001530 1168080.000000 1 0 0
-4.519551 -8.999919 -4.563478 11.056682 1.105409 1.996251 0.018349 -0.005774 659817.000000 1 0 0
5.705549 -6.566219 -3.971978 9.562695 -0.855418 1.999137 -0.002259 -0.000451 1840380.000000 1 0 0
-3.082851 3.491081 8.554822 9.740462 -0.847417 0.498550 0.000688 0.001232 1860230.000000 1 0 0
-3.770151 3.149781 -11.171678 12.204161 -0.695988 2.727295 0.011041 -0.008031 1145170.000000 1 0 0
3.098849 -6.117419 8.589822 10.991393 -1.101913 0.673723 -0.000017 0.000271 -184910.000000 1 0 0
-5.177551 -8.677319 10.488522 14.564065 1.032824 0.766757 0.011822 -0.006965 1838890.000000 1 0 0
-13.209151 -2.574019 6.494122 14.942585 0.192454 1.121197 0.016231 -0.002007 320236.000000 1 0 0
3.908549 -5.981719 -8.340678 10.982924 -0.992024 2.433221 -0.004461 0.003356 3368830.000000 1 0 0
2.930449 -0.492719 12.440622 12.790597 -0.166579 0.234468 0.001690 -0.001698 1670080.000000 1 0 0
1.391049 -1.386819 -7.456478 7.710859 -0.783875 2.884016 0.005651 -0.002432 -268571.000000 1 0 0
3.630549 -3.496419 3.473622 6.121428 -0.766580 0.967387 -0.000966 -0.000671 2482840.000000 1 0 0
1.604549 0.451081 -11.785278 11.902556 0.274053 3.001098 0.005151 -0.005879 -638949.000000 1 0 0
3.983349 3.612881 -10.643078 11.924558 0.736667 2.673730 -0.000557 -0.001602 519953.000000 1 0 0
2.838449 3.290081 3.330022 5.474530 0.858959 0.916910 -0.000645 0.002021 133251.000000 1 0 0
-5.341551 0.917581 2.491222 5.964923 -0.170121 1.139944 0.004577 -0.001204 2443090.000000 1 0 0
-9.467851 -9.300619 5.723622 14.453427 0.776488 1.163635 0.013195 -0.008405 -1657420.000000 1 0 0
-3.104851 3.792481 -0.673778 4.947423 -0.884765 1.707409 0.007802 -0.004243 -797016.000000 1 0 0
-15.898351 -6.547519 5.074822 17.927113 0.390668 1.283792 0.036643 -0.015745 1062620.000000 1 0 0
1.085149 6.669981 -8.094378 10.544437 1.409518 2.445954 0.003371 -0.003118 1408960.000000 1 0 0
-1.595551 6.544381 -9.468578 11.620184 -1.331657 2.523248 0.009483 -0.004252 1079710.000000 1 0 0
2.086249 -0.352919 5.259822 5.669454 -0.167578 0.382465 0.002523 0.002028 3436610.000000 1 0 0
-3.480051 -0.642419 -6.289378 7.216629 0.182545 2.629073 0.016039 -0.009309 -69043.600000 1 0 0
1.955849 -1.147819 -2.312478 3.238887 -0.530705 2.365953 0.005911 -0.003440 1714900.000000 1 0 0
2.449649 -8.714419 -7.559978 11.793860 -1.296765 2.266609 -0.003446 0.002710 3387750.000000 1 0 0
-2.436351 13.950581 -5.572878 15.218788 -1.397898 1.945701 -0.000141 0.000876 2308750.000000 1 0 0
6.831049 -5.129019 -8.234278 11.864797 -0.644038 2.337839 0.001073 -0.000261 4019010.000000 1 0 0
-14.260151 -5.075919 -2.154578 15.289181 0.341967 1.712189 0.002742 -0.003175 49687.100000 1 0 0
-2.691651 6.898481 -6.833278 10.076097 -1.198784 2.316062 0.010409 -0.004360 -379908.000000 1 0 0
-5.726251 -1.267719 -8.117078 10.014191 0.217873 2.515900 0.012647 -0.010761 -243116.000000 1 0 0
-5.738251 -10.620719 3.514622 12.572977 1.075440 1.287484 0.010573 -0.006257 -3720810.000000 1 0 0
8.112349 -7.490019 6.643322 12.885818 -0.745532 1.029143 0.003943 -0.006222 266154.000000 1 0 0
8.883049 -5.922919 13.116622 16.912578 -0.588072 0.683204 0.030046 -0.006117 -166818.000000 1 0 0
-4.644951 9.473281 -0.762278 10.578265 -1.114922 1.642920 0.001039 0.001041 1511030.000000 1 0 0
2.864549 6.668381 12.185122 14.182741 1.165060 0.537187 -0.000160 -0.004872 163884.000000 1 0 0
6.034449 -2.772019 11.014222 12.861250 -0.430615 0.542563 0.005852 -0.001328 102116.000000 1 0 0
-9.753651 -6.552419 -1.038478 11.796030 0.591542 1.658947 0.007970 -0.005358 -1095650.000000 1 0 0
0.869149 -13.365019 6.325222 14.811738 -1.505856 1.129578 0.007250 -0.003911 635523.000000 1 0 0
-0.478551 -3.130619 8.725022 9.282014 1.419109 0.348189 0.002724 -0.001264 2055780.000000 1 0 0
4.198249 0.714081 3.349022 5.417671 0.168478 0.904388 -0.000830 0.001549 2373390.000000 1 0 0
-10.177951 5.605481 8.242422 14.246039 -0.503417 0.953814 -0.000857 -0.002161 651873.000000 1 0 0
9.436549 7.955181 -0.083578 12.342624 0.700427 1.577568 0.004366 -0.000338 2103520.000000 1 0 0
4.331049 2.991681 8.189122 9.734981 0.604492 0.571287 -0.000808 0.000136 4087470.000000 1 0 0
1.301749 2.631781 -9.776778 10.208145 1.111457 2.849846 0.007500 -0.005685 1990210.000000 1 0 0
-1.400551 -10.089719 3.049822 10.633220 1.432868 1.279890 0.007677 -0.004151 -1882860.000000 1 0 0
-9.825651 9.569581 8.993322 16.401224 -0.772196 0.990428 0.010336 -0.003504 574541.000000 1 0 0
9.802549 -1.917619 -7.729078 12.629564 -0.193185 2.229362 0.012380 -0.002609 708461.000000 1 0 0
-5.185651 -1.948019 6.675522 8.674580 0.359345 0.692660 0.003342 -0.002875 603264.000000 1 0 0
3.169849 -7.837919 -4.855578 9.749746 -1.186481 2.092111 -0.004719 0.000171 1193450.000000 1 0 0
-5.117251 4.857681 -13.127578 14.903578 -0.759382 2.648417 0.008528 -0.004698 2043670.000000 1 0 0
-5.616251 9.698681 5.527322 12.496319 -1.045906 1.112617 -0.001331 0.000581 936777.000000 1 0 0
-0.483151 -1.804419 -9.339778 9.524748 1.309174 2.944194 0.008778 -0.005934 1383440.000000 1 0 0
-16.776151 0.006081 6.462122 17.977717 -0.000363 1.203116 0.033117 -0.007937 -467124.000000 1 0 0
-5.932551 -2.944519 4.033022 7.754393 0.460709 1.023834 0.001274 -0.002991 2679470.000000 1 0 0
1.010949 -5.734019 -5.092678 7.735396 -1.396283 2.289435 0.005042 -0.001803 1741430.000000 1 0 0
-7.132351 1.373981 -8.450478 11.143107 -0.190309 2.431589 0.009045 -0.004437 249407.000000 1 0 0
8.051749 2.014881 4.738422 9.557356 0.245206 1.052054 0.002426 -0.001013 639508.000000 1 0 0
0.612649 -8.125819 -0.459178 8.161808 -1.495543 1.627085 0.003230 -0.001151 667063.000000 1 0 0
5.449549 5.580181 -3.443178 8.525930 0.797241 1.986515 0.000725 -0.001138 -1090760.000000 1 0 0
-0.778751 -0.366519 -1.171278 1.453507 0.439893 2.507871 0.010971 -0.005229 871682.000000 1 0 0
9.014949 6.371081 -6.372778 12.746462 0.615225 2.094354 0.007511 -0.004761 475873.000000 1 0 0
-14.948651 -7.079019 2.492722 16.726874 0.442269 1.421214 0.002582 -0.006290 137920.000000 1 0 0
-6.422651 6.881081 8.903222 12.956353 -0.819843 0.813209 0.001318 0.000600 -195220.000000 1 0 0
-9.466951 -3.224319 -9.673678 13.914002 0.328264 2.339561 0.017152 -0.007092 1309010.000000 1 0 0
14.902349 3.411781 -1.403178 15.352171 0.225064 1.662323 0.002668 0.002460 1853030.000000 1 0 0
12.076149 1.699281 -5.844078 13.523098 0.139796 2.017678 0.014731 -0.001959 -171435.000000 1 0 0
1.686549 -9.495219 12.750622 15.986932 -1.395009 0.647548 0.003609 -0.002605 -1110690.000000 1 0 0
-3.627451 6.367981 7.897522 10.774063 -1.053000 0.748056 -0.001261 0.003273 1613350.000000 1 0 0
-4.186651 13.079381 -12.369978 18.482820 -1.261007 2.304021 0.015100 -0.006291 1895270.000000 1 0 0
-10.170751 7.806581 6.442122 14.348792 -0.654640 1.105188 -0.003062 -0.001157 -521974.000000 1 0 0
8.027849 -9.243819 -7.182478 14.194454 -0.855685 2.101344 0.004143 -0.001294 -430972.000000 1 0 0
5.806249 -3.752719 -0.331278 6.921356 -0.573787 1.618678 0.001412 -0.001986 -517586.000000 1 0 0
-1.674851 -4.480319 4.187022 6.356849 1.213057 0.851756 0.004437 -0.001541 960788.000000 1 0 0
9.915349 -1.992619 -2.549078 10.429884 -0.198321 1.817699 0.007840 -0.002464 -1827940.000000 1 0 0
13.573649 7.042281 1.413122 15.356907 0.478590 1.478647 0.005925 0.000549 -441164.000000 1 0 0
5.421749 -3.678719 -3.239578 7.309118 -0.596158 2.029989 -0.000422 -0.000519 -2440290.000000 1 0 0
-12.245251 -5.932919 1.970822 13.748812 0.451177 1.426956 0.004155 -0.002567 957795.000000 1 0 0
3.760849 -5.749219 -0.188178 6.872620 -0.991510 1.598181 0.001025 -0.002201 -95349.000000 1 0 0
-5.216951 3.669581 -8.696178 10.784522 -0.613001 2.508763 0.011940 -0.006281 1100600.000000 1 0 0
-1.713251 -9.236119 7.305722 11.900197 1.387386 0.909784 0.006474 -0.004868 2304630.000000 1 0 0
-7.463151 -7.432819 2.565722 10.841049 0.783362 1.331862 0.009760 -0.005090 -2491710.000000 1 0 0
-5.803351 12.991181 -8.477278 16.562425 -1.150678 2.108119 0.007533 -0.008479 2084450.000000 1 0 0
9.180549 -13.844119 -4.162478 17.125079 -0.985241 1.816319 0.022547 -0.001467 1374420.000000 1 0 0
-6.627751 -5.274219 -6.651078 10.769462 0.672161 2.236467 0.016620 -0.008265 284256.000000 1 0 0
3.429549 0.410681 -6.248878 7.139954 0.119180 2.636643 0.001333 -0.003421 1752770.000000 1 0 0
-3.635751 5.777381 4.977822 8.448404 -1.009105 0.940725 -0.001124 0.003925 -423625.000000 1 0 0
-2.636551 -10.784619 -2.825478 11.456122 1.331026 1.820003 0.013832 -0.003528 1677770.000000 1 0 0
-12.597951 -0.433819 1.721422 12.722416 0.034422 1.435074 0.001475 -0.001923 1195960.000000 1 0 0
8.318549 -11.921819 -6.030578 15.738357 -0.961576 1.964030 0.012871 -0.005531 -274169.000000 1 0 0
6.234249 3.981781 0.981322 7.462134 0.568387 1.438907 0.002262 -0.002027 -562798.000000 1 0 0
3.355549 -4.808619 -10.935878 12.408705 -0.961535 2.649417 -0.000306 0.001349 -1135360.000000 1 0 0
-7.624951 4.286181 8.637622 12.293077 -0.512105 0.791694 -0.000906 -0.001107 1282520.000000 1 0 0
8.167149 8.663481 4.073622 12.583824 0.814879 1.241139 0.014220 -0.004973 -319487.000000 1 0 0
0.234549 10.606981 -6.329978 12.354420 1.548687 2.108733 0.001845 0.000282 577469.000000 1 0 0
5.381549 8.086281 3.253822 10.243846 0.983591 1.247560 0.006832 -0.001880 2606400.000000 1 0 0
8.079649 6.669481 -3.768778 11.134020 0.690078 1.916110 0.000936 -0.001266 355180.000000 1 0 0
10.487649 2.514981 -8.309578 13.614882 0.235360 2.227274 0.005266 -0.001551 1678410.000000 1 0 0
3.330049 -12.580519 -0.285078 13.016910 -1.312032 1.592699 0.000090 -0.004917 -1450710.000000 1 0 0
0.655549 2.146981 5.219522 5.681785 1.274452 0.406169 0.003033 0.002543 951547.000000 1 0 0
-4.794651 13.434481 1.415722 14.334512 -1.227995 1.471872 -0.000959 0.001744 584576.000000 1 0 0
8.204949 4.141881 -8.107278 12.255788 0.467482 2.293622 -0.000862 -0.001189 1284180.000000 1 0 0
-13.969051 -0.603219 -3.565478 14.429515 0.043156 1.820479 0.005139 -0.000713 594994.000000 1 0 0
-8.712051 -0.105719 -0.527578 8.728651 0.012134 1.631275 0.001259 -0.002696 33462.400000 1 0 0
1.773749 -3.800619 -1.077478 4.330340 -1.134142 1.822259 0.005051 -0.002275 -2463070.000000 1 0 0
8.047449 -5.604119 -0.291478 9.810838 -0.608295 1.600511 0.004619 -0.002410 1269880.000000 1 0 0
-2.307951 -1.234219 7.368622 7.819624 0.491074 0.341288 0.004798 -0.000304 1035660.000000 1 0 0
-5.862451 8.857081 -11.630078 15.750395 -0.986105 2.401490 0.008946 -0.001650 -413294.000000 1 0 0
-6.195051 9.167481 -8.757178 14.110618 -0.976522 2.240316 0.005966 -0.001054 1437310.000000 1 0 0
-1.585551 13.921981 -8.429078 16.351908 -1.457397 2.112364 0.010872 -0.003629 542959.000000 1 0 0
-1.437451 7.217981 9.734022 12.203143 -1.374220 0.647383 -0.001780 0.000816 139715.000000 1 0 0
10.066849 2.370281 -4.057778 11.109692 0.231242 1.944694 0.003403 -0.001214 -1063630.000000 1 0 0
-3.049751 -7.503219 -6.899578 10.639711 1.184734 2.276375 0.012555 -0.004387 2211990.000000 1 0 0
-5.493451 -5.087719 -1.603378 7.657265 0.747072 1.781751 0.014955 -0.005134 -51701.600000 1 0 0
5.667249 7.415481 -8.845878 12.859107 0.918240 2.329399 -0.002436 -0.001017 -552037.000000 1 0 0
-9.661351 5.188681 -7.475178 13.271865 -0.492851 2.169092 0.003826 0.002901 1731030.000000 1 0 0
-0.429251 6.111181 -5.389478 8.159490 -1.500671 2.292303 0.007909 -0.003836 -3373720.000000 1 0 0
-8.348651 2.766581 -6.336478 10.839968 -0.319992 2.195119 0.006300 -0.001462 1512580.000000 1 0 0
3.712349 1.375281 -2.053578 4.459834 0.354786 2.049310 0.002404 -0.003507 1830600.000000 1 0 0
-6.771551 12.427581 -3.417578 14.559482 -1.071892 1.807739 0.011150 -0.001131 2852420.000000 1 0 0
-6.677551 3.052781 -2.442978 7.738043 -0.428801 1.892001 0.008421 -0.001215 -1651810.000000 1 0 0
12.127249 3.969481 -0.805578 12.785770 0.316328 1.633844 0.007629 -0.000772 -447870.000000 1 0 0
2.235549 12.379881 -5.471478 13.718463 1.392142 1.981048 0.004072 -0.004815 -132184.000000 1 0 0
-9.330051 -1.479519 -4.314178 10.385132 0.157266 1.999199 0.003992 -0.001731 -623625.000000 1 0 0
-1.195351 5.738781 3.414822 6.784061 -1.365439 1.043314 -0.000035 0.002374 1488120.000000 1 0 0
11.684049 2.708581 12.023422 16.982817 0.227795 0.784169 0.031179 -0.001341 -472670.000000 1 0 0
-7.094451 -2.509319 -5.801478 9.501845 0.339969 2.227568 0.015351 -0.006569 1343700.000000 1 0 0
7.529449 -7.314819 10.871922 15.112838 -0.770940 0.767882 0.005890 0.000280 -642102.000000 1 0 0
-5.517751 -1.967719 -10.942278 12.411726 0.342557 2.650055 0.014245 -0.008267 -438317.000000 1 0 0
0.820149 -6.186419 4.547322 7.721564 -1.438992 0.941084 0.001167 -0.001757 1959780.000000 1 0 0
-4.858351 -9.358419 7.402522 12.883358 1.091952 0.958705 0.007161 -0.006536 3845770.000000 1 0 0
-8.729951 9.361581 1.667022 12.908533 -0.820297 1.441294 0.002557 -0.001735 1491190.000000 1 0 0
-8.126651 7.173581 -9.086578 14.144562 -0.723187 2.268432 0.005140 0.000157 -250217.000000 1 0 0
-1.237851 -10.618519 -0.063578 10.690615 1.454745 1.576743 0.008932 -0.003018 315258.000000 1 0 0
-3.955451 10.431281 7.832622 13.631111 -1.208356 0.958664 0.001367 0.002778 1640180.000000 1 0 0
-7.431051 12.137881 1.937722 14.363267 -1.021440 1.435476 0.001754 -0.003329 1248550.000000 1 0 0
-8.299051 -8.284419 -2.805378 12.057196 0.784516 1.805621 0.016959 -0.004957 -764393.000000 1 0 0
5.426349 4.642181 -8.122478 10.815256 0.707672 2.420402 -0.001494 0.000310 199419.000000 1 0 0
-8.974051 -0.168719 -10.233978 13.612361 0.018799 2.421607 0.015607 -0.006283 -1401770.000000 1 0 0
-15.253251 -2.282019 -1.568678 15.502581 0.148507 1.672158 0.005180 -0.002886 -373655.000000 1 0 0
-7.251951 -5.797619 8.820222 12.806228 0.674409 0.811040 0.009909 -0.002937 86932.200000 1 0 0
8.204449 3.406881 -0.967078 8.936166 0.393582 1.679229 0.002163 0.000082 51480.700000 1 0 0
11.836649 7.291381 -5.919478 15.109955 0.552102 1.973340 0.012761 -0.002847 -59186.400000 1 0 0
3.729949 13.290181 -9.588378 16.807095 1.297181 2.177906 0.001557 -0.005071 1652460.000000 1 0 0
-9.798551 5.372381 -0.468778 11.184536 -0.501524 1.612722 -0.000616 0.001936 1181010.000000 1 0 0
11.193349 -1.236919 -5.216178 12.410864 -0.110058 2.004563 0.015198 -0.004479 -345457.000000 1 0 0
10.669449 1.745281 -1.330278 10.892786 0.162141 1.693227 0.005478 -0.001413 -273525.000000 1 0 0
14.716449 5.033681 4.851622 16.292638 0.329570 1.268430 0.014059 -0.008020 1597040.000000 1 0 0
0.927149 -0.731119 10.297222 10.364696 -0.667730 0.114167 0.001215 0.000444 2149600.000000 1 0 0
-7.913951 1.444181 -12.596678 14.946323 -0.180499 2.573250 0.008404 -0.005005 307951.000000 1 0 0
3.141449 -11.592019 -7.727978 14.281640 -1.306152 2.142556 -0.001419 0.001033 -29452.800000 1 0 0
2.955549 5.015081 -6.739778 8.905668 1.038258 2.429194 0.000090 -0.001015 -1622580.000000 1 0 0
6.488849 8.093281 0.508722 10.385816 0.894985 1.521794 0.007283 -0.003282 781103.000000 1 0 0
-9.093651 -5.413819 6.761622 12.558800 0.536986 1.002262 0.005470 -0.001453 -1848360.000000 1 0 0
-0.299351 -6.814219 -11.829578 13.655113 1.526894 2.618566 0.000435 0.003262 1803640.000000 1 0 0
6.433749 -13.376619 -4.624178 15.547028 -1.122488 1.872798 0.003823 -0.002607 1861870.000000 1 0 0
-3.259751 -0.419719 9.952922 10.481545 0.128053 0.318947 0.003647 0.000647 -1089720.000000 1 0 0
8.571449 8.444881 6.972522 13.906898 0.777960 1.045613 0.012198 -0.006096 -59141.400000 1 0 0
-8.042051 5.663281 -2.710478 10.202648 -0.613545 1.839689 0.008016 -0.001046 -388528.000000 1 0 0
-5.447951 5.779081 -6.468278 10.242879 -0.814884 2.254270 0.011457 -0.002813 298590.000000 1 0 0
3.309749 -13.589519 2.585122 14.223653 -1.331896 1.388032 0.006777 -0.007180 -609030.000000 1 0 0
-11.301951 -7.098919 6.513622 14.851128 0.560836 1.116762 0.014990 -0.007707 64994.300000 1 0 0
-12.981551 -3.707219 -6.788878 15.111353 0.278172 2.036730 0.011976 -0.005093 322570.000000 1 0 0
5.973649 0.333181 -7.362178 9.486683 0.055717 2.459181 0.000430 0.001297 197311.000000 1 0 0
-1.476951 2.127881 -2.527878 3.619314 -0.964045 2.344014 0.012319 -0.006328 1650120.000000 1 0 0
7.583049 1.034181 -5.018078 9.151681 0.135544 2.151154 0.000649 0.001549 1295820.000000 1 0 0
3.662149 -4.433619 10.914022 12.336295 -0.880404 0.484929 -0.000197 0.000680 -231540.000000 1 0 0
6.054649 -2.530819 2.067422 6.880265 -0.395923 1.265594 0.004763 -0.002319 -737584.000000 1 0 0
-6.218251 7.714681 1.174422 9.978087 -0.892390 1.452823 -0.001246 0.000749 1369350.000000 1 0 0
6.028949 -3.354119 7.996622 10.561453 -0.507694 0.711855 0.001950 -0.002520 143063.000000 1 0 0
6.750749 -2.255319 -7.904578 10.636796 -0.322426 2.408540 -0.000866 -0.000239 1927420.000000 1 0 0
12.112749 -8.074819 -5.873478 15.697743 -0.587983 1.954288 0.034882 -0.010592 659826.000000 1 0 0
5.595149 -9.642719 9.994722 14.972715 -1.045028 0.839911 0.000225 0.001499 1269770.000000 1 0 0
-6.694051 7.509481 -4.444878 10.998162 -0.842746 1.986843 0.008573 -0.003488 29814.100000 1 0 0
-1.262251 -7.540419 9.794122 12.424814 1.404936 0.662802 0.006992 -0.004122 -1128030.000000 1 0 0
10.030749 -9.230919 0.790122 13.654672 -0.743898 1.512899 0.013170 -0.004124 482760.000000 1 0 0
11.235849 6.085081 9.713522 16.050702 0.496354 0.920808 0.023392 -0.011588 2040250.000000 1 0 0
-15.373351 -4.203619 -4.973878 16.695802 0.266911 1.873301 0.014481 -0.010796 1365480.000000 1 0 0
-4.771551 -4.618319 7.856922 10.287263 0.769081 0.701690 0.004654 -0.002410 -273201.000000 1 0 0
2.975949 10.807281 -11.100678 15.775889 1.302091 2.351315 -0.002329 -0.002105 533664.000000 1 0 0
9.889249 -1.321919 1.587922 10.102782 -0.132885 1.412965 0.005926 -0.001776 383690.000000 1 0 0
-1.631751 -2.621219 0.618122 3.148884 1.013985 1.373215 0.007750 -0.004539 979984.000000 1 0 0
1.583649 2.999681 0.795822 3.484159 1.085048 1.340351 0.001824 -0.001241 86734.000000 1 0 0
-8.931251 -2.434419 4.264822 10.192269 0.266109 1.139073 -0.001616 -0.001727 2880530.000000 1 0 0
9.913049 4.885081 -2.747978 11.387886 0.457865 1.814509 0.002850 -0.000182 2355160.000000 1 0 0
2.589349 8.426681 2.435922 9.145895 1.272674 1.301202 -0.001414 0.000647 2113030.000000 1 0 0
-8.177451 -0.072419 2.414522 8.526773 0.008856 1.283699 -0.000601 -0.002313 840584.000000 1 0 0
6.867449 2.173081 13.683822 15.463865 0.306463 0.484538 0.018845 -0.007135 -505617.000000 1 0 0
6.773149 4.393081 3.777222 8.913031 0.575392 1.133175 0.001388 -0.001585 1135680.000000 1 0 0
-0.259951 3.407481 7.743622 8.464171 -1.494656 0.415609 -0.000038 0.002686 -693378.000000 1 0 0
2.754149 -10.227119 9.240522 14.055836 -1.307738 0.853413 0.004244 -0.005350 2029290.000000 1 0 0
1.415049 -4.538119 6.895322 8.375103 -1.268537 0.603575 -0.000813 -0.000594 817396.000000 1 0 0
-0.228151 10.776981 -1.988878 10.961342 -1.549629 1.753252 0.001153 -0.001464 2572940.000000 1 0 0
8.843449 5.534281 7.953922 13.118679 0.559179 0.919390 0.008636 -0.004873 -1017110.000000 1 0 0
2.610149 11.413981 -2.876078 12.056686 1.345982 1.811665 0.003748 -0.005658 1243230.000000 1 0 0
1.501649 2.465081 -6.764278 7.354389 1.023663 2.738267 0.006002 -0.004393 761981.000000 1 0 0
-13.674151 -2.263219 3.605722 14.321515 0.164024 1.316288 0.007665 -0.002246 952441.000000 1 0 0
-0.990351 -10.613319 -5.248078 11.881315 1.477754 2.028298 0.006618 -0.000306 1839250.000000 1 0 0
-5.743351 2.870281 0.356722 6.430540 -0.463453 1.515295 0.006997 -0.001739 257691.000000 1 0 0
3.743049 7.304381 -5.047978 9.635688 1.097247 2.122200 0.001747 -0.003080 -2814860.000000 1 0 0
2.913049 9.774681 -6.483178 12.085605 1.281157 2.137007 0.001027 -0.001996 -1680680.000000 1 0 0
-12.276251 1.615581 -2.506378 12.633225 -0.130850 1.770517 0.001450 0.000497 811399.000000 1 0 0
-2.464751 9.596781 -5.756478 11.459069 -1.319399 2.097112 0.002641 -0.000577 617799.000000 1 0 0
-1.376851 3.342281 1.660322 3.977843 -1.180031 1.140222 0.003105 -0.000023 1605740.000000 1 0 0
12.910249 3.753181 9.528822 16.479058 0.282915 0.954229 0.027932 -0.008063 237775.000000 1 0 0
-2.559051 -9.598519 11.570322 15.249677 1.310248 0.709442 0.004809 -0.010784 219534.000000 1 0 0
-0.487651 -8.916219 -7.441078 11.623528 1.516158 2.265521 0.006287 0.001971 1791600.000000 1 0 0
2.328649 7.561181 -0.538578 7.929952 1.272040 1.638766 0.000726 -0.002536 718327.000000 1 0 0
-11.987651 -1.348419 -5.529378 13.270118 0.112013 2.000585 0.009333 0.000653 -436837.000000 1 0 0
-6.220851 -7.143319 -10.907178 14.446194 0.854314 2.426482 0.014234 -0.006573 922079.000000 1 0 0
-4.714851 -2.294519 -1.418678 5.432061 0.452917 1.835028 0.011810 -0.005143 -443583.000000 1 0 0
-10.445851 3.631681 4.550222 11.958655 -0.334595 1.180464 -0.001184 -0.000375 2180370.000000 1 0 0
6.691549 9.307881 -3.693878 12.044012 0.947490 1.882519 0.003156 -0.002284 -494795.000000 1 0 0
1.263849 -2.655219 -11.541778 11.910506 -1.126543 2.892116 0.003819 -0.002791 -758000.000000 1 0 0
1.227849 8.823181 7.565022 11.686988 1.432523 0.866756 -0.004597 0.005124 360248.000000 1 0 0
10.440749 0.503381 10.455622 14.784541 0.048176 0.785267 0.016688 -0.003849 634066.000000 1 0 0
-5.334151 -0.971519 -4.011778 6.744730 0.180157 2.207816 0.014432 -0.008188 60119.600000 1 0 0
11.820649 5.688881 5.399522 14.186118 0.448549 1.180330 0.007621 -0.004616 4208950.000000 1 0 0
9.903849 -3.487719 3.695122 11.131232 -0.338596 1.232416 0.014077 -0.006105 -970985.000000 1 0 0
7.322149 -1.551519 -3.380578 8.212757 -0.208805 1.995033 0.002610 -0.000341 -2060040.000000 1 0 0
2.349549 9.320481 10.475422 14.217110 1.323857 0.742445 -0.000259 0.000581 2556320.000000 1 0 0
2.427549 -10.873819 6.428822 12.863230 -1.351151 1.047448 -0.002635 -0.003092 1769790.000000 1 0 0
5.890749 -7.601819 -1.236878 9.696311 -0.911541 1.698707 -0.000914 -0.003011 464999.000000 1 0 0
-0.171051 -5.594319 -2.282978 6.044638 1.540230 1.958093 0.008358 -0.001596 2261510.000000 1 0 0
7.684449 -5.099519 2.621122 9.587811 -0.585887 1.293891 0.005897 -0.005179 1716870.000000 1 0 0
-2.663251 -12.465719 4.668322 13.574987 1.360315 1.219738 0.007568 -0.003722 -1489150.000000 1 0 0
4.914149 -10.366219 -1.096378 11.524296 -1.128120 1.666077 -0.000928 -0.005743 1701170.000000 1 0 0
0.962549 0.219481 1.073622 1.458539 0.224188 0.743515 0.001956 -0.000712 -1744390.000000 1 0 0
-1.640051 8.556681 2.396522 9.036032 -1.381424 1.302366 -0.004765 0.004538 -788660.000000 1 0 0
-7.619351 0.504681 -3.075278 8.232044 -0.066140 1.953655 0.007655 -0.003025 -253545.000000 1 0 0
4.440449 -6.337419 12.922922 15.062615 -0.959620 0.539537 0.009144 -0.001140 384908.000000 1 0 0
-5.171151 13.209581 8.482622 16.528421 -1.197665 1.031871 0.010978 -0.005704 2215270.000000 1 0 0
0.650949 6.109681 8.179422 10.230097 1.464653 0.644259 -0.001128 0.003377 33074.400000 1 0 0
7.962949 -0.419919 -0.739478 8.008228 -0.052685 1.663268 0.004131 -0.001612 4101190.000000 1 0 0
2.501649 -9.296919 -2.383278 9.918213 -1.307939 1.813464 -0.003105 -0.001129 29161.500000 1 0 0
-7.143151 12.223881 4.849222 14.965388 -1.041956 1.240811 0.000887 -0.003586 166169.000000 1 0 0
-14.948751 0.244481 0.206022 14.952169 -0.016353 1.557017 0.005168 -0.002539 122716.000000 1 0 0
6.857449 -0.476919 3.926622 7.916465 -0.069436 1.051802 0.002922 0.000208 1783910.000000 1 0 0
-4.227251 -5.105119 5.086322 8.354792 0.879189 0.916261 0.005927 -0.004062 330953.000000 1 0 0
2.898149 5.188081 6.798622 9.029768 1.061362 0.718321 -0.002721 0.001550 -668877.000000 1 0 0
2.085849 -7.222519 1.833322 7.737998 -1.289648 1.331597 -0.001487 -0.001914 495804.000000 1 0 0
-2.464651 6.391281 -1.835178 7.091605 -1.202742 1.832557 0.003888 -0.001001 1700640.000000 1 0 0
2.665649 -3.787119 -6.515678 7.993874 -0.957476 2.523670 -0.001237 -0.000004 -200518.000000 1 0 0
-5.108551 0.940581 -12.159078 13.222147 -0.182080 2.737856 0.009649 -0.004968 410173.000000 1 0 0
-7.513151 6.366181 -11.888978 15.437730 -0.702947 2.449833 0.006202 -0.006313 3381200.000000 1 0 0
-1.055151 11.088781 -9.071878 14.365702 -1.475927 2.254277 0.008856 -0.002174 546122.000000 1 0 0
4.641349 5.945981 -0.665978 7.572341 0.908006 1.658859 0.003658 -0.002423 530393.000000 1 0 0
-2.627751 13.381981 3.566522 14.096190 -1.376899 1.315003 -0.000994 0.004168 1508230.000000 1 0 0
1.508049 -7.878819 10.293222 13.049920 -1.381678 0.662011 -0.002064 -0.002137 -733233.000000 1 0 0
13.002349 -0.266419 -1.086278 13.050366 -0.020487 1.654130 0.014041 -0.003253 693509.000000 1 0 0
-1.023251 3.089381 -5.444878 6.343344 -1.250953 2.602862 0.011380 -0.007632 1585060.000000 1 0 0
6.647449 1.193181 7.308422 9.951145 0.177603 0.745970 0.000954 0.001027 1594300.000000 1 0 0
5.476549 -6.111919 6.890222 10.715563 -0.840171 0.872373 -0.000752 -0.001497 1508370.000000 1 0 0
12.240349 -4.865019 2.609922 13.427816 -0.378313 1.375184 0.014420 -0.004573 178320.000000 1 0 0
4.425749 -9.166919 13.843322 17.183050 -1.121007 0.634044 0.006808 0.000438 1617180.000000 1 0 0
-2.700651 -4.402919 -1.423278 5.357698 1.020598 1.839676 0.016244 -0.006490 3247370.000000 1 0 0
-9.379651 -5.229819 -7.581978 13.145921 0.508637 2.185547 0.013619 -0.005547 1333440.000000 1 0 0
-10.578451 -3.201919 7.888322 13.578716 0.293917 0.950922 0.007487 -0.001655 1132420.000000 1 0 0
12.110849 -0.541019 1.688122 12.239899 -0.044643 1.432436 0.009528 -0.003608 969573.000000 1 0 0
-7.620851 4.668681 4.359922 9.943987 -0.549647 1.116925 -0.000805 0.000312 2151910.000000 1 0 0
-1.047451 10.626981 6.931622 12.730957 -1.472548 0.995039 -0.003408 0.007515 1233720.000000 1 0 0
7.361949 -9.937619 1.914422 12.514774 -0.933199 1.417220 0.003222 -0.005853 2989870.000000 1 0 0
-4.370851 -1.742919 1.599522 4.969967 0.379437 1.243127 0.004715 -0.000776 1210590.000000 1 0 0
6.797649 -14.963119 -0.951678 16.462340 -1.144378 1.628638 0.012396 -0.005083 -603674.000000 1 0 0
-10.530951 1.603381 2.401322 10.919620 -0.151094 1.349075 -0.004297 0.001265 853974.000000 1 0 0
-3.077651 8.270181 -11.374478 14.396062 -1.214537 2.481785 0.011951 -0.001715 -690332.000000 1 0 0
-1.306051 -5.147319 -6.869978 8.683159 1.322306 2.483539 0.006234 -0.003688 59085.300000 1 0 0
12.789549 -0.540119 6.361122 14.294340 -0.042206 1.109611 0.014221 -0.007168 2411360.000000 1 0 0
5.934449 -13.203019 3.707822 14.942735 -1.148378 1.320041 0.003434 -0.006467 546351.000000 1 0 0
-5.649351 3.450781 -5.063178 8.334196 -0.548343 2.223729 0.012686 -0.004564 3131280.000000 1 0 0
-4.356351 8.160681 3.415022 9.860877 -1.080459 1.217151 -0.002547 0.003313 -523456.000000 1 0 0
13.911749 6.137681 -4.073078 15.741597 0.415501 1.832520 0.019207 0.000569 -812429.000000 1 0 0
-6.733651 -8.463619 5.322922 12.054393 0.898744 1.113443 0.010960 -0.005885 -455148.000000 1 0 0
1.652249 11.349681 2.689722 11.780484 1.426235 1.340444 -0.003622 0.000732 1776860.000000 1 0 0
-7.352051 7.287981 5.985222 11.957851 -0.781022 1.046589 0.000254 -0.001915 -1882490.000000 1 0 0
-17.541651 -4.171919 5.255722 18.781295 0.233491 1.287171 0.046126 -0.010774 -955731.000000 1 0 0
7.445149 -12.995119 -8.585378 17.263026 -1.050527 2.091312 0.021862 -0.003970 -1334430.000000 1 0 0
-2.301751 12.778481 -2.827278 13.288384 -1.392580 1.785198 -0.000915 0.000672 -877575.000000 1 0 0
-5.507251 13.803081 -5.698878 15.916409 -1.191163 1.936975 0.006931 -0.000567 3520940.000000 1 0 0
-5.655151 2.469881 7.428322 9.657174 -0.411780 0.693204 0.003213 -0.001004 1437680.000000 1 0 0
-7.443751 5.096081 1.415322 9.131408 -0.600324 1.415174 0.001401 0.000578 1385930.000000 1 0 0
10.727349 -5.603419 -5.046078 13.112483 -0.481366 1.965820 0.015325 -0.004780 3172160.000000 1 0 0
-9.513451 -0.839819 6.779022 11.711797 0.088049 0.953515 -0.003810 -0.001186 -749245.000000 1 0 0
-11.321351 -4.676719 -2.575878 12.517181 0.391738 1.778065 0.003043 -0.004371 797901.000000 1 0 0
6.589549 -4.309219 13.555622 15.676301 -0.579145 0.526202 0.019145 -0.007578 -643483.000000 1 0 0
0.214249 10.180781 -11.728078 15.531968 1.549755 2.426592 0.006795 -0.000055 -1175850.000000 1 0 0
-11.825451 -3.228519 1.456122 12.344428 0.266519 1.452563 0.003546 -0.003362 4610700.000000 1 0 0
5.187749 6.054781 5.449322 9.657548 0.862367 0.971265 0.001713 0.000021 -5369610.000000 1 0 0
-7.070151 -0.053219 7.995522 10.673249 0.007527 0.724067 -0.000858 -0.000937 1059110.000000 1 0 0
1.862249 2.115481 9.626922 10.030995 0.848975 0.284801 0.001737 0.000100 2516870.000000 1 0 0
10.520649 -4.860319 -2.004878 11.761220 -0.432771 1.742098 0.010797 -0.001285 1206510.000000 1 0 0
-9.718051 -2.486419 -1.701878 10.174438 0.250482 1.738856 0.004772 -0.002989 -1846890.000000 1 0 0
-2.009151 -5.159919 -9.850478 11.300149 1.199482 2.629482 0.012263 -0.006079 315537.000000 1 0 0
7.653949 -1.565219 6.539122 10.187883 -0.201717 0.873884 0.002831 -0.001440 534605.000000 1 0 0
1.569349 -11.908619 -2.592978 12.288270 -1.439769 1.783407 0.004251 -0.004786 -3267300.000000 1 0 0
-0.753651 -1.516419 4.802922 5.092698 1.109556 0.338964 0.006866 0.000434 2201130.000000 1 0 0
7.679449 1.581781 9.938822 12.659232 0.203135 0.667931 0.007243 -0.003073 1670510.000000 1 0 0
-3.829651 10.708181 -7.934978 13.867056 -1.227333 2.180004 0.004562 0.000049 3625600.000000 1 0 0
-9.615751 12.684281 6.335722 17.131697 -0.922141 1.191976 0.014211 -0.005798 2377120.000000 1 0 0
-2.551651 -2.410919 -11.082678 11.625369 0.757047 2.834837 0.012449 -0.009640 -2194610.000000 1 0 0
1.195549 -11.963919 11.052922 16.331925 -1.471197 0.827433 0.004625 -0.004239 1954410.000000 1 0 0
1.379349 3.375181 -2.050378 4.183121 1.182835 2.083064 0.005334 -0.004224 3848420.000000 1 0 0
-1.765551 -9.328919 -11.998478 15.300633 1.383753 2.472173 0.000060 0.001985 46449.500000 1 0 0
1.235149 -2.642719 1.600722 3.327441 -1.133585 1.068925 0.006855 -0.001717 1313510.000000 1 0 0
-1.147951 -2.207619 -6.587378 7.041656 1.091281 2.780431 0.011496 -0.007838 505460.000000 1 0 0
1.806749 5.840981 3.967722 7.288637 1.270809 0.995157 -0.004993 0.003007 -722505.000000 1 0 0
-10.898351 8.572281 3.636122 14.334554 -0.666496 1.314333 -0.000816 -0.002524 1726190.000000 1 0 0
-16.449551 -1.675019 4.022722 17.016924 0.101478 1.332142 0.029397 -0.006592 592520.000000 1 0 0
-12.149951 0.206681 6.809922 13.929790 -0.017009 1.059997 0.001253 0.001023 368245.000000 1 0 0
-5.161551 3.056081 4.591622 7.554087 -0.534580 0.917468 -0.000565 0.002377 1148290.000000 1 0 0
5.159849 -6.023519 3.963322 8.866495 -0.862473 1.107388 -0.002075 -0.002727 1191940.000000 1 0 0
9.959149 3.439281 6.218222 12.234361 0.332516 1.037635 0.003222 -0.001040 -738230.000000 1 0 0
-12.112651 5.813981 3.231422 13.818856 -0.447514 1.334769 -0.001127 -0.000378 1589090.000000 1 0 0
-4.844651 12.284281 -1.262678 13.265314 -1.195146 1.666127 -0.003297 0.003584 1413950.000000 1 0 0
-1.708051 -12.190319 10.314022 16.059276 1.431587 0.873370 0.014456 -0.010558 1623020.000000 1 0 0
5.274949 6.367281 13.915822 16.186953 0.878949 0.536127 0.011120 -0.008409 1572200.000000 1 0 0
12.869649 -3.681819 -5.934178 14.642340 -0.278643 1.988076 0.011925 -0.005300 46489.000000 1 0 0
3.543849 -2.556919 6.421522 7.767409 -0.625016 0.597532 -0.002904 0.002325 144119.000000 1 0 0
7.289249 -11.843619 -0.586578 13.919358 -1.019088 1.612950 0.004386 -0.002278 -141508.000000 1 0 0
-6.128251 -6.713519 -4.027878 9.942364 0.830942 1.987909 0.019516 -0.006607 -2032720.000000 1 0 0
0.282749 -8.942919 5.092122 10.294923 -1.539190 1.053394 0.003832 -0.004633 1683410.000000 1 0 0
-10.322251 2.394481 -0.383678 10.603283 -0.227941 1.606989 -0.001946 0.001848 -903760.000000 1 0 0
-1.787951 8.886981 -0.398478 9.073808 -1.372259 1.614726 0.002261 0.000790 -1076880.000000 1 0 0
-3.575751 2.261681 -6.669278 7.898131 -0.563978 2.576263 0.017700 -0.009513 1556930.000000 1 0 0
-12.673951 2.948181 6.421422 14.510529 -0.228553 1.112372 -0.000995 -0.000581 598106.000000 1 0 0
11.437149 1.620281 7.892022 13.989914 0.140732 0.971427 0.014117 -0.007822 -1460900.000000 1 0 0
6.049049 2.733181 -3.193478 7.366110 0.424380 2.019210 -0.000671 -0.000851 1923220.000000 1 0 0
10.494549 -2.491119 6.370022 12.526708 -0.233059 1.037337 0.013132 -0.008035 4854410.000000 1 0 0
-0.970351 10.999381 4.066922 11.767235 -1.482805 1.217903 -0.003789 0.005730 275089.000000 1 0 0
-1.602851 -12.216719 7.479822 14.414058 1.440340 1.025203 0.007567 -0.006132 3995.330000 1 0 0
8.061549 8.738381 -7.873178 14.259552 0.825664 2.155717 0.010671 -0.004182 1541870.000000 1 0 0
-4.734651 -5.913319 -8.680578 11.521141 0.895643 2.424086 0.016127 -0.007578 896573.000000 1 0 0
-8.574251 -5.323219 -11.688178 15.442407 0.555601 2.429335 0.017091 -0.006106 2369660.000000 1 0 0
6.031349 -0.640219 -9.947878 11.651066 -0.105752 2.594070 -0.000391 0.001592 -292314.000000 1 0 0
-11.315351 -5.536419 -5.415578 13.711950 0.455038 1.976813 0.003387 -0.005210 -166328.000000 1 0 0
3.830849 8.883381 -2.737778 10.054119 1.163654 1.846583 0.006735 -0.005412 2774810.000000 1 0 0
11.687049 -10.415319 -4.047278 16.169305 -0.727923 1.823793 0.027659 -0.007792 620130.000000 1 0 0
3.966349 -11.239319 3.998522 12.571491 -1.231541 1.247111 -0.000222 -0.003903 -1143990.000000 1 0 0
-0.990151 0.903781 3.234222 3.501059 -0.739826 0.392949 0.006290 -0.000064 -535856.000000 1 0 0
-10.614951 -5.085519 4.543822 12.616893 0.446780 1.202381 0.007420 -0.002401 3903290.000000 1 0 0
4.537349 -8.662019 2.792022 10.169242 -1.088274 1.292669 -0.003091 -0.002811 4897050.000000 1 0 0
-3.702851 -5.771019 2.569722 7.322515 1.000329 1.212228 0.007775 -0.002290 2688100.000000 1 0 0
10.150949 5.158781 12.241022 16.718176 0.470191 0.749252 0.030346 -0.006310 -61530.000000 1 0 0
1.547049 -12.430019 -5.265178 13.587525 -1.446972 1.968715 0.002407 -0.002814 1171960.000000 1 0 0
9.905649 -10.690419 -1.702678 14.673311 -0.823483 1.687097 0.011948 -0.003890 269795.000000 1 0 0
9.582449 -4.502019 -9.213678 14.035076 -0.439213 2.286933 0.016261 -0.005372 653840.000000 1 0 0
-7.501551 -3.011519 -13.102578 15.395456 0.381758 2.588812 0.014487 -0.007520 2314920.000000 1 0 0
0.430949 6.174481 -2.598578 6.712864 1.501114 1.968285 0.005984 -0.003390 2222460.000000 1 0 0
-5.956351 -9.584119 1.013722 11.329655 1.014731 1.481201 0.014606 -0.005198 862356.000000 1 0 0
-8.952051 -4.093319 0.607322 9.862216 0.428866 1.509177 0.000943 -0.003277 4996950.000000 1 0 0
1.895049 3.862281 12.105222 12.846977 1.114652 0.341473 0.001279 -0.006587 896420.000000 1 0 0
6.703749 4.384881 9.610122 12.510870 0.579248 0.694863 0.003729 -0.001692 2054250.000000 1 0 0
-8.335251 9.856181 -3.642778 13.412328 -0.868811 1.845851 0.009094 -0.002559 1926470.000000 1 0 0
16.425349 2.230781 -6.048678 17.645254 0.134987 1.920685 0.042176 -0.003944 -2466690.000000 1 0 0
-11.040951 2.631681 -5.033578 12.416330 -0.233990 1.988213 0.004349 0.002262 1185720.000000 1 0 0
-13.758751 3.960981 1.518622 14.397875 -0.280308 1.465124 0.000704 0.005371 144699.000000 1 0 0
-17.367951 10.454181 3.423422 20.558586 -0.541833 1.403497 0.036718 -0.012615 -127345.000000 1 0 0
-14.392151 2.822081 -1.131178 14.709783 -0.193628 1.647772 0.004166 0.003417 669970.000000 1 0 0
-14.361651 5.052181 5.205322 16.089653 -0.338262 1.241349 0.003215 0.001512 450679.000000 1 0 0
-17.285351 7.589081 3.128422 19.135426 -0.413708 1.406571 0.028512 -0.003133 -1860250.000000 1 0 0
-15.231851 12.643681 -3.354578 20.077977 -0.692816 1.738661 0.051043 -0.013027 -688734.000000 1 0 0
-8.606551 12.382981 -9.584278 17.868109 -0.963413 2.136950 0.014812 -0.016378 2557490.000000 1 0 0
-12.437851 8.770581 -9.949678 18.182941 -0.614176 2.149810 0.019772 -0.004533 -1204390.000000 1 0 0
-13.959951 -3.467919 -12.138378 18.821448 0.243490 2.271718 0.032368 -0.006540 753002.000000 1 0 0
-14.792951 5.772481 -7.683378 17.640500 -0.372046 2.021449 0.038885 0.002163 -1500940.000000 1 0 0
-10.955851 13.467881 -8.241378 19.218086 -0.887890 2.013999 0.026058 -0.019122 1469750.000000 1 0 0
-10.885051 13.526981 3.825122 17.779064 -0.893201 1.353953 0.011358 -0.009657 -1389070.000000 1 0 0
-15.210951 3.179581 3.145922 15.854955 -0.206065 1.371052 0.004879 0.000630 762290.000000 1 0 0
-11.153951 9.465581 -12.517278 19.253314 -0.703698 2.278560 0.013452 -0.012325 -418228.000000 1 0 0
-13.142351 11.516181 -8.902878 19.611350 -0.719546 2.042007 0.034248 -0.025838 1730.290000 1 0 0
-8.948851 14.547481 -3.405978 17.415850 -1.019313 1.767633 0.020164 -0.007771 1079930.000000 1 0 0
-16.725551 8.241481 -4.183978 19.109467 -0.457829 1.791532 0.037860 -0.006064 -992211.000000 1 0 0
-16.927351 6.700981 0.379522 18.209404 -0.376938 1.549953 0.038037 0.000375 -1423200.000000 1 0 0
-10.440851 2.824681 -12.596778 16.603283 -0.264216 2.432099 0.012013 -0.005591 255859.000000 1 0 0
-16.841751 0.767381 2.402622 17.029564 -0.045533 1.429239 0.018542 -0.004360 -299404.000000 1 0 0
-12.854551 1.206381 -6.908578 14.643199 -0.093575 2.062121 0.014741 -0.001240 1724830.000000 1 0 0
-12.362251 8.948081 -5.459278 16.207934 -0.626536 1.914342 0.023711 -0.003802 -172341.000000 1 0 0
-9.624251 13.989181 1.153422 17.019218 -0.968184 1.502973 0.018625 -0.007476 1047730.000000 1 0 0
-12.179451 11.093481 2.691622 16.692788 -0.738770 1.408845 0.007668 -0.004552 -155930.000000 1 0 0
-12.624251 6.839681 -3.712278 14.830171 -0.496517 1.823806 0.010262 0.002170 -783853.000000 1 0 0
-16.002851 3.696881 -9.390078 18.919084 -0.227031 2.090161 0.056215 -0.002710 -1945280.000000 1 0 0
-15.089451 5.869181 -4.802878 16.888057 -0.370952 1.859172 0.029446 0.001789 1396590.000000 1 0 0
-17.853851 5.138681 7.551622 20.054751 -0.280245 1.184727 0.028385 -0.006817 -1094070.000000 1 0 0
-15.910851 10.075581 -2.106978 18.950247 -0.564511 1.682211 0.037920 -0.005298 41024.400000 1 0 0
-8.877251 9.832981 -8.359578 15.664471 -0.836434 2.133725 0.009378 -0.005369 1331680.000000 1 0 0
-17.011351 4.237381 -1.275378 17.577487 -0.244123 1.643418 0.021064 0.001149 256968.000000 1 0 0
-10.328351 5.386081 -4.587578 12.519208 -0.480688 1.945980 0.005800 0.002252 36731.200000 1 0 0
-18.193251 2.579781 6.282922 19.419700 -0.140860 1.241335 0.045786 -0.011938 -1756090.000000 1 0 0
-10.410251 10.114281 -5.744678 15.610040 -0.770979 1.947666 0.014917 -0.004885 819382.000000 1 0 0
-15.558551 0.412781 -5.878078 16.637028 -0.026525 1.931906 0.028727 -0.002491 -679498.000000 1 0 0
-16.491551 -4.066319 -8.854078 19.154657 0.241748 2.051318 0.040163 -0.020982 -1295670.000000 1 0 0
-10.016451 9.522781 -1.084578 13.863223 -0.760138 1.649111 0.008082 -0.002038 1056280.000000 1 0 0
-17.435251 -2.982319 -3.251178 17.984781 0.169412 1.752570 0.026915 -0.008097 650810.000000 1 0 0
-11.979951 5.030181 -11.605478 17.421512 -0.397529 2.299842 0.022274 -0.004534 -682486.000000 1 0 0
-16.294751 6.994681 5.908022 18.690885 -0.405473 1.249190 0.028118 -0.000097 -452902.000000 1 0 0
-12.186551 5.869981 -8.947278 16.217968 -0.448882 2.155185 0.020102 0.001012 2120640.000000 1 0 0
-14.558351 8.375081 -0.079078 16.795649 -0.522042 1.575505 0.024901 -0.002523 1103300.000000 1 0 0
-14.850951 11.896081 3.838122 19.411303 -0.675370 1.371759 0.024518 -0.012114 603743.000000 1 0 0
-17.448251 4.210781 -4.109678 18.413625 -0.236802 1.795879 0.037296 -0.004053 -108709.000000 1 0 0
-13.930851 13.216581 -0.694578 19.215334 -0.759093 1.606951 0.031119 -0.017329 -60986.600000 1 0 0
-10.100651 6.929881 -13.090178 17.927609 -0.601324 2.389365 0.005743 -0.010985 955880.000000 1 0 0
-15.940251 -1.087919 -8.405978 18.053688 0.068144 2.055120 0.029256 -0.008965 137720.000000 1 0 0
-11.429451 11.866581 -0.104878 16.476016 -0.804160 1.577162 0.015813 -0.009438 653613.000000 1 0 0
-11.993851 7.348381 -0.945078 14.097672 -0.549690 1.637885 0.003239 0.003966 2094600.000000 1 0 0
-11.459851 0.175881 -11.729578 16.399455 -0.015346 2.367767 0.015794 -0.006606 -36564.000000 1 0 0
-19.260551 -1.191919 -4.762178 19.876313 0.061805 1.812740 0.044132 -0.009297 -1690200.000000 1 0 0
-18.081851 1.438881 -5.097778 18.841737 -0.079409 1.844769 0.030678 -0.001120 -499710.000000 1 0 0
-13.296451 -0.093919 -9.421578 16.296336 0.007063 2.187245 0.017931 -0.006720 -735297.000000 1 0 0
-6.271851 11.174681 -13.262378 18.441808 -1.059353 2.373371 0.007570 -0.007903 685420.000000 1 0 0
16.496249 5.717981 7.074822 18.838117 0.333663 1.185797 0.037807 -0.013826 19595.900000 1 0 0
14.887249 10.120781 -5.431478 18.803227 0.597060 1.863831 0.061184 -0.015274 1435910.000000 1 0 0
2.403449 16.817081 4.368022 17.540536 1.428840 1.319124 0.012791 -0.006934 1776640.000000 1 0 0
-4.000051 18.048781 -5.886878 19.401398 -1.352697 1.879082 0.010173 -0.008288 462760.000000 1 0 0
5.490449 14.498481 5.689122 16.514149 1.208793 1.219090 0.012000 -0.010398 -405422.000000 1 0 0
10.050449 6.141281 14.967722 19.046248 0.548502 0.666708 0.048714 -0.011154 -1230280.000000 1 0 0
4.719249 12.699881 -1.181378 13.599778 1.215012 1.657773 0.009639 -0.007547 2016920.000000 1 0 0
3.662149 13.696581 12.981722 19.223235 1.309531 0.829406 0.018182 -0.011631 -732722.000000 1 0 0
-0.775851 12.418081 9.229222 15.491586 -1.508400 0.932588 0.002589 -0.001565 897685.000000 1 0 0
-7.800851 14.030881 8.284922 18.065404 -1.063376 1.094369 0.017901 -0.014362 844187.000000 1 0 0
11.478949 12.903581 -4.241778 17.783739 0.843760 1.811638 0.041088 -0.009810 1364810.000000 1 0 0
-5.782051 16.162781 0.817122 17.185322 -1.227244 1.523231 0.008176 -0.001399 726565.000000 1 0 0
3.213849 10.604281 6.761322 12.980566 1.276525 1.022914 -0.004006 0.001781 1194690.000000 1 0 0
-1.186751 15.577781 2.426822 15.810285 -1.494761 1.416691 0.003473 -0.001297 -668661.000000 1 0 0
9.968849 8.848481 9.407922 16.315102 0.725929 0.956188 0.028907 -0.014668 1900500.000000 1 0 0
7.238449 12.190581 6.267722 15.501282 1.034967 1.154544 0.015774 -0.010310 315087.000000 1 0 0
11.899449 13.992781 -1.531578 18.432052 0.866071 1.653985 0.030626 -0.005386 -555585.000000 1 0 0
9.703249 15.926881 -1.118278 18.683392 1.023612 1.630686 0.017169 -0.001806 1650810.000000 1 0 0
10.136349 13.602881 2.971022 17.222396 0.930399 1.397420 0.019001 -0.008773 2341510.000000 1 0 0
-6.017951 14.654481 6.186222 17.007025 -1.181138 1.198511 0.002263 -0.006727 683407.000000 1 0 0
-1.045651 18.153281 -6.243878 19.225531 -1.513259 1.901565 0.016810 -0.000702 2043160.000000 1 0 0
-3.437451 15.749681 5.457622 17.019229 -1.355911 1.244356 -0.000064 -0.002670 3158280.000000 1 0 0
7.101849 12.236481 10.591422 17.673312 1.044926 0.928184 0.013862 -0.011557 2645570.000000 1 0 0
1.490949 14.597881 6.216222 15.936200 1.469015 1.170090 0.002415 -0.004528 1670900.000000 1 0 0
17.417649 7.666081 -1.492078 19.088468 0.414618 1.649043 0.010415 0.003066 275277.000000 1 0 0
2.042349 16.162981 -3.334478 16.629248 1.445103 1.772684 0.009890 -0.007328 1180770.000000 1 0 0
6.746349 11.166481 0.552322 13.057894 1.027323 1.528486 0.013817 -0.005200 1271140.000000 1 0 0
12.655849 9.289181 3.160722 16.014043 0.633171 1.372120 0.011657 -0.002226 -577850.000000 1 0 0
6.029649 14.272781 -3.438878 15.871195 1.171081 1.789203 0.008615 -0.004537 721990.000000 1 0 0
3.177849 16.456181 1.552522 16.831962 1.380035 1.478429 0.016192 -0.015725 -1065020.000000 1 0 0
2.881149 18.797281 -2.523878 19.183555 1.418705 1.702744 0.021830 -0.018471 -543321.000000 1 0 0
4.004449 11.940781 10.699722 16.525796 1.247224 0.866555 0.006380 -0.006986 1172650.000000 1 0 0
7.980349 11.451881 3.402222 14.366860 0.962181 1.331715 0.012848 -0.004183 2262610.000000 1 0 0
0.730649 12.503581 0.189522 12.526345 1.512428 1.555666 0.001307 -0.001820 -1730180.000000 1 0 0
11.965449 9.907181 -4.608778 16.203859 0.691572 1.859203 0.026109 -0.007409 793755.000000 1 0 0
-1.312051 16.575981 9.980122 19.392975 -1.491807 1.030225 0.018042 -0.007593 -1161810.000000 1 0 0
8.040849 14.879181 -7.952878 18.689397 1.075346 2.010343 0.033394 -0.001761 584200.000000 1 0 0
14.496849 7.540281 -1.435278 16.403491 0.479624 1.658407 0.015099 0.000201 1501600.000000 1 0 0
12.631049 8.293681 5.977422 16.249865 0.581008 1.194107 0.017535 -0.009215 -99674.500000 1 0 0
-3.009251 14.345181 10.215422 17.866020 -1.364020 0.962123 0.017993 -0.012960 2109410.000000 1 0 0
-4.722351 17.096281 -3.136478 18.011689 -1.301295 1.745824 0.013084 -0.003389 -1100670.000000 1 0 0
-7.207251 16.406781 -1.778178 18.008022 -1.156889 1.669701 0.019260 -0.003600 -371643.000000 1 0 0
8.360749 11.210281 -1.939678 14.118601 0.929982 1.708617 0.011931 -0.005508 638218.000000 1 0 0
8.573849 13.011481 -4.177678 16.132654 0.988159 1.832739 0.030826 -0.005576 3644350.000000 1 0 0
2.566049 14.806581 -7.328178 16.718901 1.399196 2.024522 -0.000239 -0.007303 136496.000000 1 0 0
11.414549 11.340381 9.721422 18.798995 0.782139 1.027308 0.038444 -0.018373 -995778.000000 1 0 0
8.631149 15.547581 1.482222 17.844355 1.064012 1.487637 0.008370 -0.010700 1688970.000000 1 0 0
5.986949 9.869281 7.792922 13.927523 1.025520 0.976973 0.006382 0.001039 1399820.000000 1 0 0
14.494049 11.343581 2.583322 18.585689 0.664064 1.431350 0.023544 -0.006079 1452460.000000 1 0 0
12.228549 12.627081 1.063622 17.609994 0.801431 1.510361 0.023961 -0.003116 1643770.000000 1 0 0
5.128549 15.877581 8.209122 18.595410 1.258369 1.113572 0.017312 -0.010076 -1633050.000000 1 0 0
11.565349 14.906281 5.133922 19.552792 0.910942 1.305115 0.030591 -0.011957 193163.000000 1 0 0
6.056549 16.783381 1.797322 17.933043 1.224474 1.470404 0.007938 -0.014705 1000030.000000 1 0 0
-0.661851 16.192481 -4.261778 16.757006 -1.529945 1.827949 0.007356 -0.001439 997122.000000 1 0 0
16.047949 6.400881 2.561622 17.466249 0.379523 1.423604 0.004177 -0.001499 51613.300000 1 0 0
7.675249 16.617181 -3.113578 18.567028 1.138102 1.739286 0.013573 -0.009458 -822127.000000 1 0 0
15.055749 8.136381 7.434422 18.658695 0.495456 1.160978 0.037876 -0.015506 538680.000000 1 0 0
2.113049 12.939381 8.611322 15.685899 1.408921 0.989647 0.003950 -0.003642 1095480.000000 1 0 0
15.982549 7.408981 -5.813878 18.550905 0.434079 1.889569 0.033796 -0.002553 283757.000000 1 0 0
-2.945951 17.085181 0.614422 17.348186 -1.400048 1.535372 0.003700 -0.003783 2067290.000000 1 0 0
-2.820951 18.581081 4.609922 19.351117 -1.420128 1.330258 0.008789 -0.005514 1415930.000000 1 0 0
-0.797851 19.116381 0.807822 19.150070 -1.529084 1.528600 0.015590 -0.009899 526623.000000 1 0 0
6.886049 16.787381 -5.977978 19.104190 1.181535 1.889056 0.013944 -0.002918 230440.000000 1 0 0
11.034049 10.055381 0.759822 14.947851 0.739026 1.519943 0.007078 -0.002332 -1342270.000000 1 0 0
9.162749 8.855081 14.339522 19.183074 0.768324 0.726492 0.039635 -0.014408 281597.000000 1 0 0
6.293949 12.506981 -8.346178 16.300217 1.104564 2.108341 0.017545 -0.006203 -986792.000000 1 0 0
6.336849 8.977481 13.363922 17.301596 0.956148 0.688170 0.018795 -0.016047 881030.000000 1 0 0
16.664849 9.405281 2.928922 19.358592 0.513815 1.418915 0.019353 -0.005267 -1003840.000000 1 0 0
2.620949 14.700281 -0.742878 14.950569 1.394358 1.620506 0.009452 -0.008780 1003650.000000 1 0 0
9.170449 12.800981 8.307122 17.803666 0.949157 1.085358 0.027636 -0.016552 799194.000000 1 0 0
7.261349 9.278081 10.515922 15.792232 0.906734 0.842107 0.012547 -0.010825 2780280.000000 1 0 0
4.302649 15.787381 -5.258778 17.187465 1.304721 1.881749 0.016153 -0.007185 913813.000000 1 0 0
0.183849 16.278281 -8.175578 18.216924 1.559503 2.036207 0.007420 -0.004255 -194222.000000 1 0 0
-2.427051 15.665381 -2.052278 15.984574 -1.417088 1.699543 0.001369 -0.001888 1299410.000000 1 0 0
13.400549 10.434581 7.725022 18.658273 0.661598 1.143923 0.036085 -0.016360 1729550.000000 1 0 0
-0.994551 15.966881 7.101822 17.503323 -1.508588 1.153007 0.009433 -0.004010 2709820.000000 1 0 0
13.404649 13.146781 6.688822 19.931453 0.775686 1.228563 0.042417 -0.022192 13392.300000 1 0 0
5.388649 17.266281 4.531322 18.646579 1.268284 1.325328 0.013284 -0.016978 620542.000000 1 0 0
10.860149 9.488181 -1.912178 14.547331 0.718076 1.702623 0.007085 0.000742 2290750.000000 1 0 0
3.203449 12.728181 4.712922 13.945620 1.324236 1.226058 -0.000445 0.002704 2610870.000000 1 0 0
-0.153051 18.023181 3.459722 18.352879 -1.562305 1.381150 0.006333 -0.008243 2210310.000000 1 0 0
-7.721951 15.853981 -5.840278 18.576493 -1.117549 1.890611 0.030003 -0.013567 -127496.000000 1 0 0
-12.474151 -9.195919 8.294022 17.577263 0.635257 1.079396 0.023087 -0.012659 -840904.000000 1 0 0
-13.336451 -11.724319 6.779022 19.007254 0.721158 1.206112 0.033400 -0.017066 -2045290.000000 1 0 0
-6.622851 -12.273819 12.183722 18.518959 1.075979 0.852762 0.033031 -0.013552 -1619540.000000 1 0 0
-1.729851 -10.724919 14.339922 17.990265 1.410881 0.648330 0.010842 -0.010752 1018650.000000 1 0 0
-8.822951 2.833181 10.962022 14.354000 -0.310714 0.701785 -0.002553 -0.001453 1944700.000000 1 0 0
0.515349 10.032681 15.233022 18.247335 1.519474 0.583012 -0.002795 -0.005524 -81617.900000 1 0 0
0.978749 -6.737219 16.558722 17.903612 -1.426531 0.390072 0.007059 -0.014140 2001530.000000 1 0 0
6.196349 2.412981 17.751222 18.955820 0.371352 0.358420 0.035154 -0.013344 902745.000000 1 0 0
-4.889651 -2.855719 17.656422 18.542196 0.528596 0.310342 0.021450 -0.010630 1177620.000000 1 0 0
-4.258051 8.153181 12.930822 15.868570 -1.089503 0.618291 -0.002161 -0.003036 -651997.000000 1 0 0
0.258949 -4.881819 18.584122 19.216368 -1.517802 0.257229 0.012439 -0.016774 65694.200000 1 0 0
-11.677051 2.090781 11.185422 16.304556 -0.177173 0.814777 0.021670 -0.003273 2293660.000000 1 0 0
-3.353451 -6.082619 14.342522 15.935866 1.066943 0.450992 0.014298 -0.008281 1401110.000000 1 0 0
-7.353651 -2.249619 14.625822 16.524274 0.296878 0.484063 0.021739 -0.002455 1529730.000000 1 0 0
-6.143051 -1.168919 10.473922 12.198626 0.188035 0.538235 0.005891 -0.001884 1798800.000000 1 0 0
-3.986251 2.401881 11.064422 12.003360 -0.542286 0.398157 0.002072 -0.000123 1476630.000000 1 0 0
-6.424751 6.233681 13.435522 16.144642 -0.770305 0.587738 -0.008003 -0.004045 1251720.000000 1 0 0
-9.012451 5.455881 12.479622 16.331928 -0.544360 0.701114 0.007548 -0.007566 1463940.000000 1 0 0
-12.152851 -2.156919 15.882322 20.114478 0.175653 0.660645 0.037192 -0.000309 -591488.000000 1 0 0
-3.421151 -7.646719 16.881822 18.846020 1.150106 0.460621 0.021006 -0.009246 -1053390.000000 1 0 0
-0.522851 -5.333619 14.370722 15.337487 1.473079 0.356949 0.005339 -0.002884 2299850.000000 1 0 0
-14.243151 -2.195819 13.785022 19.942813 0.152962 0.807610 0.057945 -0.008064 -250501.000000 1 0 0
-6.424251 1.488681 12.064022 13.748738 -0.227709 0.500247 0.005219 -0.001942 1414720.000000 1 0 0
2.235449 -2.188719 14.600722 14.932140 -0.774836 0.211081 -0.001266 -0.000203 -305040.000000 1 0 0
-12.524351 4.029481 9.156922 16.029514 -0.311273 0.962764 0.005291 -0.003588 286314.000000 1 0 0
-9.053451 -3.087719 12.625722 15.840070 0.328683 0.648361 0.009852 0.003183 901886.000000 1 0 0
-7.093051 -7.110419 15.327722 18.325078 0.786621 0.580052 0.030254 -0.007096 -920810.000000 1 0 0
-3.275751 6.032581 19.461822 20.636984 -1.073336 0.339097 0.047340 -0.019755 -234540.000000 1 0 0
0.672949 5.526881 16.203122 17.133022 1.449633 0.330979 0.002112 -0.010604 1062360.000000 1 0 0
3.472949 1.578881 16.873922 17.299812 0.426691 0.222350 0.011312 -0.007537 1932530.000000 1 0 0
-11.715451 11.451281 7.859322 18.170101 -0.773996 1.123487 0.016957 -0.006429 -598925.000000 1 0 0
0.670549 -9.477119 15.433222 18.123183 -1.500160 0.551817 0.003467 -0.002010 27916.000000 1 0 0
-2.312651 -3.548519 19.037122 19.502624 0.993211 0.218926 0.022347 -0.012384 1334000.000000 1 0 0
-12.799851 2.437081 13.754022 18.945941 -0.188147 0.758365 0.032403 -0.017770 -485359.000000 1 0 0
-5.316051 -0.510319 15.790622 16.669270 0.095703 0.326130 0.017722 -0.000593 1017000.000000 1 0 0
-4.446151 -5.980119 11.600422 13.787671 0.931475 0.570998 0.010503 -0.001922 -577233.000000 1 0 0
2.414249 1.906281 14.008322 14.342092 0.668365 0.216161 0.003910 -0.005195 -45056.000000 1 0 0
0.120649 3.426881 14.342822 14.747020 1.535604 0.234670 0.007711 -0.010430 -277150.000000 1 0 0
-12.907451 7.060881 12.266822 19.155502 -0.500567 0.875802 0.026972 -0.004957 935689.000000 1 0 0
0.882149 1.429581 18.284022 18.361028 1.017921 0.091618 0.015338 -0.010017 1400170.000000 1 0 0
-1.990051 6.414081 12.466422 14.160241 -1.269951 0.494129 -0.000285 -0.004747 1197530.000000 1 0 0
-13.470551 -2.699719 10.971122 17.581517 0.197796 0.896927 0.039812 -0.005807 1009210.000000 1 0 0
-2.487251 3.578681 13.363922 14.056592 -0.963421 0.315238 0.000050 -0.005462 -355317.000000 1 0 0
3.506949 6.109481 16.228022 17.691047 1.049701 0.409547 0.007446 -0.012813 -1019190.000000 1 0 0
-3.749251 12.509881 12.427622 18.027751 -1.279612 0.810190 0.021394 -0.003573 282570.000000 1 0 0
3.705749 -1.371219 17.100422 17.550990 -0.354402 0.227079 0.017994 -0.009441 -70652.800000 1 0 0
-15.817751 0.262381 9.211322 18.306243 -0.016586 1.043523 0.048295 -0.008475 -729221.000000 1 0 0
-4.647151 4.557381 15.133922 16.474263 -0.775646 0.406171 0.007693 -0.008141 515519.000000 1 0 0
-8.070051 -8.136819 10.578522 15.596111 0.789518 0.825378 0.021169 -0.008695 3809750.000000 1 0 0
-2.630651 -0.344919 14.728522 14.965582 0.130372 0.178227 0.012499 0.000122 1247980.000000 1 0 0
-1.778451 1.087481 17.192722 17.318637 -0.548816 0.120659 0.021601 -0.012245 915313.000000 1 0 0
-0.709151 -2.401619 14.417322 14.633176 1.283675 0.171973 0.005156 -0.001521 1017080.000000 1 0 0
5.112349 -8.194519 16.452522 19.078043 -1.013007 0.530844 0.018624 -0.010057 623956.000000 1 0 0
-4.439551 10.070281 10.612022 15.288400 -1.155572 0.803596 0.000976 -0.001549 -831270.000000 1 0 0
-6.225351 2.057481 15.012622 16.381912 -0.319199 0.411768 0.009786 -0.006549 -521715.000000 1 0 0
-4.926751 6.677881 17.205722 19.102456 -0.935167 0.449401 0.019961 -0.012336 -1583310.000000 1 0 0
-4.033151 9.062181 15.774022 18.633550 -1.152064 0.561347 0.004352 -0.006586 -884358.000000 1 0 0
-4.628751 -9.893419 18.291522 21.304573 1.133188 0.538317 0.038761 -0.014170 -64051.200000 1 0 0
-6.853951 -4.131119 11.115722 13.696790 0.542428 0.623985 0.014571 0.000358 1114870.000000 1 0 0
-2.226851 -0.772919 19.588422 19.729737 0.334080 0.119759 0.028257 -0.013069 -105992.000000 1 0 0
-5.644751 -4.455519 15.419522 17.014009 0.668195 0.436389 0.020471 -0.001730 1851500.000000 1 0 0
-12.969751 -0.027019 9.752622 16.227409 0.002083 0.926049 0.023172 -0.003557 1307380.000000 1 0 0
-14.553751 8.849681 10.643922 20.085358 -0.546331 1.012273 0.040332 -0.000272 -1993600.000000 1 0 0
-8.428651 10.629481 12.644722 18.545000 -0.900369 0.820521 0.020905 -0.014716 -458579.000000 1 0 0
-10.449451 7.238081 10.703622 16.617712 -0.605793 0.870938 0.014008 -0.006405 -454891.000000 1 0 0
-9.923451 -6.637619 14.884722 19.081085 0.589535 0.676007 0.042508 -0.009765 1485580.000000 1 0 0
-0.763051 -13.485419 14.438222 19.771217 1.514273 0.752087 0.017312 -0.010561 -626095.000000 1 0 0
3.814749 -5.550719 16.877322 18.171593 -0.968677 0.379702 0.023823 -0.016688 1835290.000000 1 0 0
-7.267351 9.372981 10.352522 15.742995 -0.911267 0.853174 0.008497 -0.003867 251430.000000 1 0 0
-10.359351 -6.711519 11.927122 17.164407 0.574877 0.802550 0.029734 -0.007993 1618120.000000 1 0 0
-10.892651 -3.978719 10.729422 15.798751 0.350210 0.824218 0.017631 0.002902 -241638.000000 1 0 0
-10.177851 -10.267019 9.825222 17.479568 0.789760 0.973877 0.024842 -0.014153 1067290.000000 1 0 0
-9.800551 -3.671619 15.290222 18.528963 0.358450 0.600229 0.032728 -0.010988 1556760.000000 1 0 0
5.610249 -3.242019 16.115322 17.369202 -0.523992 0.382297 0.023355 -0.009807 1364550.000000 1 0 0
-11.322651 0.498581 15.232722 18.986491 -0.044006 0.639670 0.031787 -0.010779 -80749.500000 1 0 0
-3.035851 3.318581 18.763622 19.295152 -0.829862 0.235265 0.027171 -0.018616 -207155.000000 1 0 0
0.510749 7.429981 13.910422 15.778635 1.502163 0.491558 -0.001687 -0.009992 612826.000000 1 0 0
-13.260851 -7.411119 12.188022 19.476209 0.509629 0.894652 0.039814 -0.011637 1762460.000000 1 0 0
-1.445951 -0.954419 12.115622 12.238872 0.583417 0.142037 0.001615 0.001541 1087780.000000 1 0 0
2.046849 -4.824319 13.116722 14.124873 -1.169538 0.380105 0.000091 -0.002693 -295766.000000 1 0 0
-14.564051 -4.163519 8.642922 17.439798 0.278450 1.052287 0.028733 -0.010274 -1102580.000000 1 0 0
8.084249 0.966481 16.086022 18.029123 0.118986 0.468549 0.047459 -0.010326 1287050.000000 1 0 0
-1.299251 11.385881 13.442422 17.664231 -1.457177 0.705948 0.012812 -0.003989 112197.000000 1 0 0
2.853849 -12.191919 -13.658878 18.529768 -1.340859 2.399612 0.011052 -0.001380 -889002.000000 1 0 0
0.868749 -10.614219 -14.104278 17.673342 -1.489131 2.494855 0.001481 0.003520 -3080930.000000 1 0 0
3.123349 -14.269819 -12.264278 19.073425 -1.355316 2.269210 0.015014 -0.004924 -411156.000000 1 0 0
-5.166851 -10.068319 -16.081778 19.664460 1.096661 2.528390 0.030951 -0.005910 -353170.000000 1 0 0
-0.902751 -12.245319 -14.996878 19.382186 1.497207 2.455529 0.017387 -0.002761 -296796.000000 1 0 0
5.647349 -14.991419 -12.275978 20.182538 -1.210531 2.224647 0.022676 -0.000338 199555.000000 1 0 0
1.985849 -11.966319 -16.078478 20.140850 -1.406342 2.495267 0.014824 -0.001171 -627674.000000 1 0 0
1.297249 -14.247719 -14.001178 20.017825 -1.479997 2.345404 0.028376 0.004147 -329118.000000 1 0 0
-1.169951 -10.652719 -15.844778 19.128675 1.461408 2.546909 0.011768 -0.004959 -662640.000000 1 0 0
-5.868751 -5.545819 -14.898678 16.946060 0.757114 2.644940 0.020959 -0.009585 -15198.700000 1 0 0
-6.534951 -7.554219 -16.369378 19.176244 0.857616 2.593707 0.025640 -0.009300 414312.000000 1 0 0
5.044749 -12.673619 -11.494978 17.838291 -1.191971 2.271034 0.006582 0.005533 -137008.000000 1 0 0
-1.823251 -15.369419 -13.240478 20.367954 1.452720 2.278465 0.030774 -0.000926 267335.000000 1 0 0
15.576749 -7.289219 -8.965378 19.394479 -0.437685 2.051343 0.040503 -0.004617 115596.000000 1 0 0
19.275949 -3.636919 -4.355478 20.093770 -0.186484 1.789288 0.088246 -0.019524 678667.000000 1 0 0
14.966549 -11.562319 -8.724278 20.827814 -0.657774 2.003004 0.070291 -0.022065 325584.000000 1 0 0
17.867449 -3.322119 -6.576878 19.327119 -0.183832 1.918025 0.078854 -0.008169 494973.000000 1 0 0
9.478349 -9.218619 -15.448578 20.334222 -0.771507 2.433699 0.070833 -0.022872 480261.000000 1 0 0
1.336349 1.842681 -15.285878 15.454429 0.943344 2.993767 0.010702 -0.006410 -134479.000000 1 0 0
4.855449 -4.327919 -13.930178 15.373878 -0.728017 2.704755 0.011500 -0.001384 28597.600000 1 0 0
13.102849 -5.557419 -8.615478 16.637188 -0.401140 2.115126 0.037800 -0.007160 -1432820.000000 1 0 0
2.966049 1.029481 -12.214578 12.611629 0.334079 2.890000 0.001580 -0.004423 -3233230.000000 1 0 0
0.767849 6.246381 -13.149378 14.577826 1.448483 2.695205 0.011757 -0.002688 -412478.000000 1 0 0
3.164249 -1.175919 -16.841078 17.176064 -0.355810 2.943771 0.021802 -0.007687 -665416.000000 1 0 0
13.311949 4.117581 -11.399378 18.003008 0.299980 2.256468 0.038057 -0.014242 693866.000000 1 0 0
-3.787351 9.363581 -16.529678 19.371395 -1.186437 2.593085 0.021418 -0.003308 -580259.000000 1 0 0
-0.274451 -5.119919 -17.718278 18.445223 1.517243 2.859910 0.017830 -0.011313 561598.000000 1 0 0
-0.510751 -8.508419 -17.505778 19.470653 1.510839 2.688472 0.015333 -0.005680 -638412.000000 1 0 0
5.496749 -10.160019 -12.215278 16.812295 -1.074876 2.384110 0.007802 -0.002262 163078.000000 1 0 0
1.562949 -9.894419 -18.064278 20.655761 -1.414128 2.635282 0.028050 -0.008566 -656810.000000 1 0 0
10.915949 8.765781 -14.619478 20.241690 0.676583 2.377840 0.077566 -0.023585 150571.000000 1 0 0
10.967449 -3.684819 -12.887978 17.319434 -0.324129 2.410034 0.029790 -0.011023 517435.000000 1 0 0
4.863749 7.546681 -12.288978 15.219311 0.998305 2.510629 -0.000156 -0.003096 243435.000000 1 0 0
9.644949 -5.944719 -12.644078 16.977557 -0.552359 2.410960 0.027962 -0.007556 -1068340.000000 1 0 0
-3.336251 0.291681 -15.915578 16.264110 -0.087206 2.934197 0.019260 -0.006353 -554058.000000 1 0 0
-0.795851 10.818081 -12.793278 16.772961 -1.497362 2.438324 0.011514 -0.000290 -2152690.000000 1 0 0
6.587649 -5.554719 -12.474078 15.160958 -0.700534 2.537075 0.011316 -0.002863 -434923.000000 1 0 0
17.772649 -6.200319 -8.089378 20.487778 -0.335667 1.976689 0.062150 -0.010378 1306110.000000 1 0 0
13.075549 4.765081 -13.887278 19.660429 0.349469 2.355134 0.050358 -0.025036 421778.000000 1 0 0
14.161449 0.772181 -11.550278 18.290758 0.054473 2.254259 0.036019 -0.008046 -235383.000000 1 0 0
14.995249 6.062981 -11.301878 19.731946 0.384231 2.180678 0.054630 -0.014521 -401727.000000 1 0 0
8.339449 1.440881 -11.779578 14.504517 0.171090 2.518593 0.002182 0.002180 723440.000000 1 0 0
9.814449 1.280881 -9.046278 13.408923 0.129776 2.311282 0.003550 -0.001242 467039.000000 1 0 0
-0.150851 -5.594919 -12.929278 14.088723 1.543841 2.733058 0.003820 -0.000332 4036.640000 1 0 0
10.542349 -5.701619 -8.992578 14.983859 -0.495776 2.214486 0.018992 -0.006031 -571438.000000 1 0 0
10.185449 8.505181 -11.211578 17.371844 0.695740 2.272327 0.041324 -0.021644 1031140.000000 1 0 0
8.373649 8.028181 -14.648078 18.685178 0.764339 2.471785 0.045302 -0.012317 922957.000000 1 0 0
8.650749 10.650181 -10.579078 17.325666 0.888623 2.227616 0.048390 -0.016558 -75829.900000 1 0 0
7.077749 1.890081 -17.888978 19.330869 0.260956 2.752912 0.040267 -0.010241 -952704.000000 1 0 0
12.137049 2.476281 -12.949678 17.920215 0.201264 2.378395 0.038311 -0.013955 -1480020.000000 1 0 0
2.768449 -0.853319 -19.256878 19.473567 -0.298990 2.992274 0.037606 -0.018533 -291415.000000 1 0 0
10.327149 -2.111819 -15.432478 18.688798 -0.201711 2.542346 0.043662 -0.015123 581761.000000 1 0 0
8.287049 -0.948119 -13.018078 15.461063 -0.113914 2.571760 0.009733 -0.002516 442796.000000 1 0 0
0.547549 4.288581 -14.681678 15.305013 1.443807 2.855212 0.007639 -0.006696 -1053810.000000 1 0 0
3.975249 -7.505619 -15.697678 17.848082 -1.083722 2.645641 0.029441 -0.012850 -730611.000000 1 0 0
11.651049 -5.693019 -14.317778 19.317251 -0.454508 2.405640 0.057685 -0.014529 -1066430.000000 1 0 0
-5.911251 4.299181 -16.876178 18.391064 -0.628806 2.732870 0.023697 0.001187 600964.000000 1 0 0
11.440949 7.911681 -9.149078 16.649194 0.605014 2.152587 0.038367 -0.013238 -1853970.000000 1 0 0
9.570849 6.194781 -13.326778 17.537944 0.574443 2.433929 0.025499 -0.008476 493679.000000 1 0 0
12.087049 0.706281 -10.216778 15.842290 0.058367 2.271696 0.017768 -0.003427 -1765930.000000 1 0 0
5.556749 -7.397719 -13.793578 16.609229 -0.926564 2.550759 0.022188 -0.004634 -1551000.000000 1 0 0
8.609449 -10.187719 -10.763778 17.139753 -0.869165 2.249778 0.024915 -0.003172 169572.000000 1 0 0
10.269349 4.747881 -15.900578 19.514874 0.433064 2.523168 0.059284 -0.013286 1045120.000000 1 0 0
9.867649 -0.421919 -10.995178 14.779799 -0.042732 2.409733 0.008043 0.000883 -497700.000000 1 0 0
-1.702851 5.435781 -13.875078 14.998840 -1.267213 2.752034 0.010766 -0.006899 1303110.000000 1 0 0
1.357549 -0.775919 -14.952578 15.034114 -0.519244 3.037398 0.006622 -0.006713 -434508.000000 1 0 0
11.565849 -10.373019 -14.349478 21.148898 -0.731081 2.316512 0.082877 -0.021808 189864.000000 1 0 0
9.387649 -7.702619 -10.791778 16.245638 -0.687120 2.297337 0.027228 -0.006800 -481520.000000 1 0 0
14.082749 -0.976619 -9.719778 17.139186 -0.069238 2.173787 0.030145 -0.004329 1018160.000000 1 0 0
4.031349 11.196381 -12.250378 17.078715 1.225189 2.370700 0.009300 -0.004527 -518044.000000 1 0 0
-1.239851 2.817581 -17.096278 17.371204 -1.156255 2.963444 0.018400 -0.005411 364842.000000 1 0 0
5.823249 -0.300419 -17.796678 18.727580 -0.051544 2.824970 0.016304 -0.004006 93342.400000 1 0 0
6.439249 -6.526019 -16.052578 18.486160 -0.792091 2.622675 0.036059 -0.008407 8331.060000 1 0 0
-1.782651 -5.159219 -19.944078 20.677564 1.238112 2.874444 0.032683 -0.015984 443116.000000 1 0 0
0.065349 -4.457519 -15.202178 15.842347 -1.556137 2.856342 0.006831 -0.006252 67356.200000 1 0 0
0.575849 0.761981 -12.971178 13.006294 0.923641 3.068093 0.005253 -0.007964 643276.000000 1 0 0
15.682349 0.512681 -13.632778 20.785850 0.032680 2.286129 0.068412 -0.019666 672994.000000 1 0 0
-0.111151 6.916081 -16.314478 17.720235 -1.554726 2.740588 0.011707 -0.004158 -647969.000000 1 0 0
-4.581151 -0.667319 -18.267778 18.845264 0.144649 2.893394 0.006513 -0.006616 -244078.000000 1 0 0
10.372449 -8.403819 -13.077978 18.688108 -0.680933 2.345917 0.034643 -0.017747 28063.400000 1 0 0
4.135249 8.691681 -17.323678 19.818058 1.126719 2.634450 0.021351 -0.013338 -445808.000000 1 0 0
9.265849 0.789181 -16.906378 19.295191 0.084966 2.638709 0.041002 -0.010358 -263964.000000 1 0 0
3.387749 4.848381 -18.567478 19.486788 0.960918 2.833204 0.024183 -0.012564 -170142.000000 1 0 0
1.593849 -8.253019 -16.005878 18.078739 -1.380022 2.658027 0.010955 -0.003184 -907491.000000 1 0 0
4.557649 7.773381 -14.985278 17.485885 1.040500 2.600202 0.003669 -0.003511 626231.000000 1 0 0
-5.665751 -0.479419 -15.195578 16.224555 0.084416 2.783534 0.014938 -0.005465 -89772.200000 1 0 0
2.905949 3.448381 -13.880478 14.594641 0.870556 2.827467 0.005262 -0.004739 216662.000000 1 0 0
-2.353851 -10.379319 -17.994678 20.906442 1.347786 2.607487 0.022438 0.000178 -162423.000000 1 0 0
6.142549 -9.083419 -15.566178 19.040622 -0.976197 2.527896 0.032536 -0.012534 -138096.000000 1 0 0
-1.752551 5.340981 -17.316378 18.205891 -1.253734 2.827708 0.016826 -0.004709 -627741.000000 1 0 0
10.081349 -12.164519 -11.639878 19.623860 -0.878769 2.205761 0.061448 -0.012128 192200.000000 1 0 0
10.901649 3.528081 -9.501678 14.885402 0.312991 2.263113 0.009030 -0.003879 -452150.000000 1 0 0
4.780249 -0.427519 -10.919678 11.927821 -0.089197 2.727495 0.001741 -0.003058 126712.000000 1 0 0
6.305649 9.528281 -11.311978 16.078253 0.986183 2.351188 0.016316 -0.012122 364974.000000 1 0 0
10.792749 -9.483919 -9.455678 17.199942 -0.720939 2.152862 0.038888 -0.008908 -450434.000000 1 0 0
3.289549 -2.452719 -14.492478 15.062167 -0.640685 2.865682 0.010682 -0.004089 -524400.000000 1 0 0
9.399949 -4.545519 -14.765178 18.084006 -0.450416 2.526079 0.042001 -0.009501 -293338.000000 1 0 0
-4.078351 -6.583219 -16.499178 18.226206 1.016157 2.702752 0.015471 -0.006873 -1468260.000000 1 0 0
5.864549 -7.810319 -11.252578 14.900152 -0.926737 2.426754 0.004237 -0.000214 514417.000000 1 0 0
5.453449 6.389781 -16.863478 18.840019 0.864295 2.679425 0.025142 -0.017036 -1521060.000000 1 0 0
9.048949 1.305781 -19.449578 21.491269 0.143313 2.702174 0.069007 -0.016859 321469.000000 1 0 0
13.108849 5.825281 -9.530978 17.222525 0.418169 2.157239 0.024090 -0.012002 1093990.000000 1 0 0
-1.470251 -0.921719 -17.256478 17.343507 0.559973 3.041371 0.020887 -0.012685 -267706.000000 1 0 0
-0.357151 -0.603319 -19.515178 19.527768 1.036297 3.105682 0.037627 -0.020527 -346386.000000 1 0 0
2.828349 6.495081 -16.628378 18.074529 1.160099 2.738850 0.008785 -0.002510 233974.000000 1 0 0
7.758849 3.861681 -15.680178 17.915923 0.461816 2.636664 0.028411 -0.003913 -217468.000000 1 0 0
3.182449 -9.933019 -14.890778 18.180432 -1.260739 2.530559 0.013968 -0.002591 -44534.800000 1 0 0
9.091949 -10.657019 -13.416078 19.396565 -0.864481 2.334599 0.055694 -0.011492 725843.000000 1 0 0
3.828649 0.093781 -14.765878 15.254459 0.024490 2.887817 0.009876 -0.004062 -1731880.000000 1 0 0
-1.161551 -2.901519 -18.866978 19.124091 1.190010 2.977430 0.039886 -0.013413 157524.000000 1 0 0
9.125449 10.045381 -13.102378 18.864141 0.833347 2.338612 0.056139 -0.021906 354527.000000 1 0 0
4.663549 2.201881 -10.800178 11.968326 0.441118 2.696096 -0.003016 -0.000373 270535.000000 1 0 0
-0.476651 7.073481 -18.894878 20.181124 -1.503512 2.782639 0.025942 -0.009439 36035.300000 1 0 0
0.937749 -1.974919 -17.624078 17.759161 -1.127487 3.018174 0.031299 -0.014914 -1813960.000000 1 0 0
-4.440551 -2.283819 -14.115778 14.972959 0.475030 2.801583 0.014550 -0.010318 -4832760.000000 1 0 0
10.141349 6.008181 -10.440878 15.746655 0.534845 2.295687 0.017895 -0.003478 -66540.600000 1 0 0
8.385649 5.727181 -17.334278 20.089722 0.599208 2.611664 0.061498 -0.020616 -351982.000000 1 0 0
11.338649 0.217681 -13.812878 17.871988 0.019196 2.454162 0.030643 0.001258 475945.000000 1 0 0
6.748449 12.110681 -11.799078 18.205175 1.062418 2.275905 0.035029 -0.010969 -561854.000000 1 0 0
-0.887351 0.503481 -15.108878 15.143285 -0.516103 3.074169 0.010499 -0.007659 1091430.000000 1 0 0
-4.235251 -3.095319 -18.986178 19.697546 0.631130 2.872023 0.020348 -0.007879 -200175.000000 1 0 0
5.733349 -12.096119 -13.893878 19.293191 -1.128178 2.374806 0.019548 -0.009086 -106347.000000 1 0 0
2.218649 -4.744619 -13.999278 14.947026 -1.133392 2.783574 0.004664 0.000142 -1221570.000000 1 0 0
11.909149 1.962381 -15.533778 19.671732 0.163312 2.481034 0.063485 -0.011492 485183.000000 1 0 0
9.744549 2.257281 -13.940378 17.157672 0.227631 2.519201 0.024410 -0.007852 -294282.000000 1 0 0
-2.199351 -4.129119 -16.417678 17.071231 1.081376 2.863993 0.009629 -0.011053 -1650170.000000 1 0 0
-2.775751 10.051281 -14.300078 17.698172 -1.301353 2.511542 0.020271 -0.005722 423784.000000 1 0 0
3.555349 5.767381 -13.822778 15.393908 1.018363 2.685859 0.002271 -0.000659 -473597.000000 1 0 0
-5.143151 -2.675619 -16.566978 17.552085 0.479700 2.804969 0.018963 -0.007105 395102.000000 1 0 0
-4.268651 6.176081 -13.410078 15.368655 -0.966029 2.631215 0.010035 -0.004861 -889034.000000 1 0 0
5.888649 -1.243419 -14.145378 15.372508 -0.208098 2.739320 0.008680 0.000900 -2230580.000000 1 0 0
6.711649 -3.027119 -12.589378 14.584311 -0.423706 2.612398 0.008540 -0.003792 337174.000000 1 0 0
3.043949 -3.324319 -18.392678 18.936930 -0.829396 2.901264 0.035827 -0.014342 -51609.700000 1 0 0
7.432249 -12.041019 -12.069978 18.598624 -1.017794 2.277028 0.026082 -0.005028 -1509950.000000 1 0 0
-6.248551 -5.291419 -17.484578 19.306837 0.702647 2.703626 0.040400 -0.012751 425842.000000 1 0 0
0.476649 8.585881 -11.987878 14.753094 1.515338 2.519339 0.006491 -0.000727 257655.000000 1 0 0
0.540749 8.558581 -14.534278 16.875632 1.507698 2.608537 0.009532 -0.000721 345449.000000 1 0 0
7.720649 -2.675619 -15.022178 17.100678 -0.333601 2.643416 0.021809 -0.015466 76857.300000 1 0 0
14.437449 1.519581 -9.064778 17.114884 0.104867 2.128976 0.039929 -0.004243 970419.000000 1 0 0
2.808549 10.741381 -14.561378 18.311170 1.315052 2.490164 0.003426 -0.001633 -994264.000000 1 0 0
6.161849 1.047781 -15.488078 16.701700 0.168432 2.758025 0.018316 -0.003855 605121.000000 1 0 0
16.764349 -5.357619 -10.369478 20.427275 -0.309326 2.103227 0.087468 -0.018253 510758.000000 1 0 0
4.803049 -4.294619 -11.231178 12.948065 -0.729570 2.620754 0.001222 0.003711 -1991110.000000 1 0 0
9.075649 -3.579019 -17.137878 19.720133 -0.375630 2.624085 0.049018 -0.014739 289022.000000 1 0 0
13.317849 -9.582119 -8.822878 18.628615 -0.623690 2.064192 0.064285 -0.016581 631442.000000 1 0 0
2.258249 -7.810119 -13.585578 15.832422 -1.289329 2.602327 -0.000014 0.000730 387577.000000 1 0 0
-6.698151 -2.298219 -18.602178 19.904474 0.330526 2.777853 0.009758 -0.007290 143194.000000 1 0 0
-1.577151 -6.473519 -15.751078 17.102348 1.331821 2.741408 0.004750 -0.005331 -1163240.000000 1 0 0
1.601949 -7.310619 -18.388478 19.853149 -1.355080 2.755068 0.037920 -0.013407 -293749.000000 1 0 0
5.376649 10.905881 -14.433878 18.872823 1.112761 2.441522 0.027380 -0.018100 -86518.600000 1 0 0
5.478449 -3.378519 -17.315078 18.472675 -0.552603 2.785697 0.037752 -0.015019 336500.000000 1 0 0
3.924549 13.040481 -14.054978 19.570351 1.278467 2.371975 0.019210 -0.010255 -184041.000000 1 0 0
9.036649 10.338581 -15.598978 20.781612 0.852493 2.419788 0.078106 -0.022624 381083.000000 1 0 0
2.503049 3.896781 -16.349078 16.992425 0.999827 2.865541 0.015256 -0.008893 163214.000000 1 0 0
16.573949 1.877281 -11.617278 20.326857 0.112786 2.179158 0.067520 -0.011508 378603.000000 1 0 0
9.945449 -3.717119 -10.557178 14.972740 -0.357675 2.353351 0.019359 -0.004001 744912.000000 1 0 0
14.719649 -2.213619 -11.895278 19.054286 -0.149267 2.245010 0.060261 -0.012167 304504.000000 1 0 0
-2.696151 -8.668719 -15.999878 18.395978 1.269260 2.625489 0.011081 0.001715 -218565.000000 1 0 0
14.008449 8.105181 -8.900678 18.470319 0.524530 2.073608 0.064307 -0.017492 -497840.000000 1 0 0
-8.195051 0.217681 -16.634878 18.545226 -0.026556 2.683708 0.007760 -0.004640 -263370.000000 1 0 0
-3.418451 3.876581 -15.981278 16.796278 -0.848116 2.828798 0.012866 -0.001085 -400242.000000 1 0 0
15.246349 4.106081 -9.699278 18.530706 0.263074 2.121652 0.045898 -0.011454 325658.000000 1 0 0
5.433849 1.002381 -12.987678 14.114222 0.182419 2.739346 0.001517 -0.001295 10161.900000 1 0 0
7.925049 -7.821019 -12.978078 17.099861 -0.778791 2.432508 0.037248 -0.005859 -2854310.000000 1 0 0
3.253049 -6.076819 -11.923378 13.772327 -1.079293 2.617441 0.000374 0.000987 -841910.000000 1 0 0
-3.197451 3.623981 -18.631378 19.247992 -0.847845 2.887791 0.018175 0.000672 -166073.000000 1 0 0
0.834749 5.111181 -17.917878 18.651309 1.408907 2.860225 0.018090 -0.011464 -469417.000000 1 0 0
6.277849 7.112381 -10.270878 13.981713 0.847642 2.395864 0.003587 -0.002594 380225.000000 1 0 0
9.684249 3.644281 -11.738878 15.648218 0.359919 2.419121 0.017811 -0.006042 -72569.100000 1 0 0
4.532949 1.958281 -17.415978 18.102453 0.407794 2.865318 0.020153 -0.011093 -10686.800000 1 0 0
2.603549 8.083081 -13.373578 15.841946 1.259191 2.575845 -0.000439 -0.000902 -3158860.000000 1 0 0
14.297949 -3.564619 -9.826178 17.711342 -0.244329 2.158914 0.043951 -0.007686 -195645.000000 1 0 0
-1.272051 9.239981 -16.272778 18.756297 -1.433988 2.621132 0.019127 -0.002548 -457155.000000 1 0 0
-5.316751 2.029181 -15.700678 16.700201 -0.364595 2.793864 0.019804 -0.004958 794778.000000 1 0 0
4.485249 4.332281 -11.960278 13.488305 0.768052 2.660986 0.001217 -0.002709 633680.000000 1 0 0
9.206549 3.298481 -17.815578 20.323271 0.344028 2.639567 0.051355 -0.007887 619546.000000 1 0 0
-4.522251 14.335181 -13.324078 20.086793 -1.265212 2.296050 0.036789 -0.011951 -236130.000000 1 0 0
15.568049 -4.824919 -7.991378 18.152303 -0.300537 2.026663 0.052641 -0.008411 -668759.000000 1 0 0
1.274649 9.178581 -16.958578 19.325229 1.432807 2.641495 0.007117 0.001172 310682.000000 1 0 0
0.539449 -3.089319 -12.908378 13.283867 -1.397922 2.903262 0.004139 -0.002312 138133.000000 1 0 0
7.511949 3.407381 -13.087078 15.469688 0.425839 2.579201 0.003147 -0.001280 -695812.000000 1 0 0
-2.866351 7.467381 -15.083278 17.072874 -1.204290 2.654003 0.014643 -0.002757 160352.000000 1 0 0
12.127549 -5.094819 -10.986078 17.138510 -0.397715 2.266619 0.036708 -0.008755 -1067500.000000 1 0 0
0.707049 -4.476019 -20.052878 20.558516 -1.414127 2.919347 0.048748 -0.015095 -100450.000000 1 0 0
3.445549 -4.450419 -16.166978 17.118680 -0.911981 2.806578 0.028180 -0.011068 -142184.000000 1 0 0
-5.665951 4.160681 -14.435578 16.056157 -0.633397 2.688433 0.009972 -0.001217 1021920.000000 1 0 0
12.201149 -7.501719 -9.945078 17.436984 -0.551258 2.177721 0.030675 -0.005817 -327830.000000 1 0 0
-1.988251 -1.820319 -14.932978 15.174338 0.741333 2.962997 0.015028 -0.006904 364286.000000 1 0 0
7.081949 5.849581 -14.225578 16.933360 0.690386 2.568249 0.015877 -0.007484 -498049.000000 1 0 0
4.413549 -5.528819 -18.327378 19.645357 -0.897105 2.773211 0.052180 -0.017284 156222.000000 1 0 0
7.511549 7.481381 -12.346478 16.273597 0.783386 2.432083 0.014910 -0.008914 -1961340.000000 1 0 0
12.276549 -2.489819 -10.991078 16.664833 -0.200097 2.290999 0.025382 -0.006234 -857227.000000 1 0 0
7.400849 -0.809619 -10.690278 13.027283 -0.108962 2.533268 0.002129 -0.000037 -2490630.000000 1 0 0
5.413849 3.971581 -14.480778 15.961709 0.632920 2.707423 0.003651 -0.002680 -445402.000000 1 0 0
14.716349 2.882981 -13.121078 19.925993 0.193453 2.289608 0.049672 -0.019624 -141325.000000 1 0 0
-6.511651 6.666181 -15.720278 18.274756 -0.797124 2.606494 0.015253 -0.002266 336614.000000 1 0 0
-11.384751 3.573781 -16.437678 20.312108 -0.304168 2.513679 0.061948 -0.017947 -1459720.000000 1 0 0
-5.009351 6.585681 -17.941378 19.757476 -0.920519 2.709474 0.021570 0.008912 410801.000000 1 0 0
-10.187151 1.502981 -15.545078 18.646352 -0.146480 2.556533 0.043034 -0.011347 -175387.000000 1 0 0
-7.607951 5.971481 -17.943878 20.384363 -0.665466 2.647241 0.024073 -0.003100 -25787.500000 1 0 0
-8.871951 3.752881 -15.933178 18.618856 -0.400180 2.597805 0.021771 0.011149 -1033850.000000 1 0 0
9.006649 13.437681 -12.295878 20.319440 0.980315 2.220724 0.083561 -0.020475 -8283.900000 1 0 0
14.038049 9.049681 -11.455278 20.253073 0.572608 2.171965 0.082602 -0.019539 295384.000000 1 0 0
8.229149 16.028181 -9.061078 20.167415 1.096472 2.036770 0.046996 -0.009570 -355153.000000 1 0 0
7.109349 13.561381 -14.012278 20.755670 1.087949 2.311905 0.056755 -0.012253 4518.680000 1 0 0
4.827349 15.979881 -12.548978 20.883888 1.277424 2.215414 0.036009 -0.015171 -139836.000000 1 0 0
11.067049 10.918781 -11.630278 19.415528 0.778654 2.213072 0.086144 -0.023358 -400259.000000 1 0 0
15.905949 9.592681 -9.587778 20.903211 0.542687 2.047300 0.104608 -0.018479 804802.000000 1 0 0
13.491849 10.670681 -9.513978 19.657294 0.669166 2.076008 0.109679 -0.021718 198207.000000 1 0 0
10.469649 11.910281 -8.381678 17.936579 0.849681 2.057025 0.054707 -0.008419 394882.000000 1 0 0
5.313649 16.093781 -9.954978 19.655693 1.251897 2.101880 0.025444 -0.013961 -624395.000000 1 0 0
6.814749 14.686881 -11.712278 19.983062 1.136359 2.197046 0.035939 0.000170 386006.000000 1 0 0
10.574949 14.107881 -9.858578 20.200332 0.927566 2.080640 0.075702 -0.013914 -620123.000000 1 0 0
8.208349 -18.654019 -1.261978 20.419157 -1.156263 1.632639 0.041173 -0.006901 -376317.000000 1 0 0
7.355949 -17.326019 -3.261678 19.103388 -1.169298 1.742375 0.026641 -0.008126 8826.300000 1 0 0
4.730149 -18.096119 5.810722 19.585921 -1.315126 1.269584 0.033976 -0.004529 429254.000000 1 0 0
9.864449 -17.167019 -2.631878 19.973499 -1.049250 1.702949 0.045258 -0.003643 -433770.000000 1 0 0
-9.753651 -12.322719 -10.135878 18.700779 0.901249 2.143615 0.029052 -0.001597 39418.200000 1 0 0
-5.104651 -7.048919 -12.007078 14.829519 0.944029 2.514393 0.013334 -0.006319 352296.000000 1 0 0
-10.710751 -9.552219 -5.744078 15.458315 0.728285 1.951512 0.009543 -0.004629 -494475.000000 1 0 0
-4.660151 -11.448619 -13.986678 18.665879 1.184228 2.417828 0.026709 -0.005341 164108.000000 1 0 0
-2.825451 -15.372119 7.352222 17.272532 1.389022 1.131105 0.014777 -0.006761 96280.600000 1 0 0
-4.885051 -11.955219 -11.569878 17.339350 1.182888 2.301322 0.024348 -0.005077 13141.700000 1 0 0
-14.377451 -12.940919 -4.038878 19.760845 0.732862 1.776635 0.021128 -0.008550 118697.000000 1 0 0
-3.147451 -12.272919 -3.201878 13.068397 1.319752 1.818326 0.013963 -0.004592 599479.000000 1 0 0
-2.392751 -17.325519 -1.363378 17.543023 1.433559 1.648591 0.012341 -0.009179 -118386.000000 1 0 0
-5.783051 -12.132619 3.914022 13.998703 1.126000 1.287420 0.013051 -0.007105 -390358.000000 1 0 0
-8.796051 -10.583219 -11.894678 18.189513 0.877359 2.283564 0.021562 -0.005943 1207980.000000 1 0 0
-10.070951 -12.220019 -7.505278 17.523758 0.881511 2.013398 0.027379 -0.006258 424045.000000 1 0 0
-10.916351 -15.057419 6.085622 19.568530 0.943500 1.254562 0.047129 -0.020981 -111316.000000 1 0 0
-9.530251 -15.382719 0.833122 18.114850 1.016131 1.524789 0.028158 -0.009436 -2227770.000000 1 0 0
-14.911551 -7.474519 -7.995878 18.497482 0.464653 2.017803 0.029269 -0.017495 -460372.000000 1 0 0
-2.289051 -16.609719 5.133922 17.535098 1.433845 1.273664 0.018405 -0.003040 1119140.000000 1 0 0
4.468549 -15.503619 6.166122 17.272845 -1.290176 1.205760 0.019869 -0.007270 -640813.000000 1 0 0
4.219649 -14.824919 -10.087778 18.421371 -1.293497 2.150305 0.009870 0.001727 923452.000000 1 0 0
-7.539751 -14.026119 -0.229578 15.925845 1.077561 1.585212 0.018283 -0.006016 754700.000000 1 0 0
2.869749 -14.822019 9.576722 17.878515 -1.379549 1.005513 0.017058 -0.005734 -378662.000000 1 0 0
2.401749 -17.199119 10.249922 20.165291 -1.432050 1.037592 0.046730 -0.008630 -359307.000000 1 0 0
-8.291451 -17.032119 -5.952178 19.856224 1.117754 1.875241 0.043702 -0.014892 -153127.000000 1 0 0
-6.520351 -9.184719 -7.694878 13.641304 0.953448 2.170123 0.016768 -0.005943 450623.000000 1 0 0
-6.132251 -13.152719 -4.872078 15.308026 1.134524 1.894700 0.012870 -0.005465 478275.000000 1 0 0
2.335349 -19.303119 -4.978878 20.071210 -1.450398 1.821474 0.022928 -0.012737 352529.000000 1 0 0
-5.460551 -12.975319 8.310722 16.347618 1.172453 1.037500 0.018666 -0.008537 1018290.000000 1 0 0
2.320649 -17.517519 3.478622 18.009711 -1.439087 1.376422 0.016965 -0.008782 808026.000000 1 0 0
-17.813651 -9.831719 -2.655478 20.519269 0.504316 1.700574 0.040353 -0.016740 742837.000000 1 0 0
-3.547351 -15.432719 2.620822 16.050583 1.344862 1.406777 0.013031 -0.005440 138577.000000 1 0 0
-10.082651 -10.280019 -14.108378 20.158992 0.795090 2.345991 0.035461 -0.017688 -4190.490000 1 0 0
6.106649 -14.510219 -5.677978 16.735502 -1.172445 1.916945 0.002084 -0.004875 243372.000000 1 0 0
-7.273951 -12.316719 -10.727878 17.880137 1.037336 2.214283 0.023948 -0.006974 -993695.000000 1 0 0
-7.091551 -14.331319 3.959222 16.472772 1.111294 1.328070 0.015755 -0.004630 983326.000000 1 0 0
3.297649 -15.025519 -3.051578 15.682883 -1.354752 1.766626 0.005872 -0.006478 -40144.700000 1 0 0
-7.619251 -11.449319 7.831322 15.826228 0.983618 1.053155 0.019058 -0.014025 780309.000000 1 0 0
-12.899451 -12.229619 -0.854178 17.795759 0.758749 1.618814 0.010995 -0.001749 -2117620.000000 1 0 0
-1.919551 -13.593819 3.964122 14.289536 1.430516 1.289695 0.004821 -0.001393 -3741590.000000 1 0 0
-3.120951 -13.916119 5.237222 15.192998 1.350178 1.218863 0.007536 -0.003581 -341019.000000 1 0 0
-14.544051 -10.381019 -4.382878 18.398494 0.619904 1.811328 0.011973 -0.002886 1293570.000000 1 0 0
-6.381351 -8.608519 -10.344178 14.893967 0.932897 2.338551 0.020822 -0.004080 505762.000000 1 0 0
0.891549 -19.533019 2.357922 19.695011 -1.525185 1.450787 0.021578 -0.010550 195816.000000 1 0 0
6.391149 -14.063419 -8.224878 17.500719 -1.144246 2.060057 0.015364 -0.003329 -3292190.000000 1 0 0
-3.985351 -16.700719 -5.947578 18.170600 1.336544 1.904261 0.013230 -0.006415 -637421.000000 1 0 0
-3.787151 -13.725719 -13.203478 19.418283 1.301578 2.318492 0.033211 -0.001730 -2452940.000000 1 0 0
-8.257851 -14.795819 -4.501678 17.532069 1.061740 1.830473 0.027770 -0.008263 -1722670.000000 1 0 0
-4.433151 -14.407219 10.097922 18.143561 1.272287 0.980561 0.021857 -0.008696 -274153.000000 1 0 0
-0.375651 -12.140519 -9.899278 15.669365 1.539864 2.254618 0.004616 0.000347 787163.000000 1 0 0
2.523649 -17.147419 6.928522 18.665669 -1.424672 1.190505 0.021525 -0.009614 -1502000.000000 1 0 0
-2.788351 -19.105319 -3.281178 19.584541 1.425873 1.739129 0.025867 -0.009807 -486779.000000 1 0 0
0.614849 -15.303819 -2.981978 15.603753 -1.530642 1.763086 0.009273 -0.009549 -41993.700000 1 0 0
5.957549 -17.875619 0.483122 18.848436 -1.249096 1.545162 0.014411 -0.009760 -597080.000000 1 0 0
-7.077251 -16.806919 3.949222 18.658948 1.172241 1.357530 0.025134 -0.003822 -118156.000000 1 0 0
-5.236951 -13.506919 -9.490378 17.318481 1.200918 2.150757 0.020012 -0.004353 74621.100000 1 0 0
5.753549 -15.266519 -2.121378 16.452056 -1.210384 1.700099 0.007672 -0.000994 -1132940.000000 1 0 0
-8.925251 -10.431819 -0.534278 13.739301 0.863072 1.609693 0.010530 -0.002682 635330.000000 1 0 0
-7.724151 -17.974419 -2.978578 19.789243 1.164926 1.721886 0.043031 -0.021596 699.757000 1 0 0
8.065449 -15.979819 -1.077878 17.932314 -1.103374 1.630941 0.013290 -0.002462 602306.000000 1 0 0
-8.176651 -10.243819 -9.413178 16.136956 0.897152 2.193619 0.020947 -0.004686 152390.000000 1 0 0
-9.323951 -14.967319 -6.973978 18.962939 1.013670 1.947405 0.045445 -0.015226 -128074.000000 1 0 0
-11.562851 -10.569719 -12.031178 19.752664 0.740556 2.225711 0.042924 0.000347 14552.000000 1 0 0
6.606349 -16.193719 2.431322 17.657624 -1.183449 1.432665 0.015203 -0.009178 397938.000000 1 0 0
-2.348851 -11.155219 -5.961578 12.864541 1.363267 2.052638 0.008281 -0.001741 645787.000000 1 0 0
-12.489651 -15.415319 -3.426378 20.133641 0.889860 1.741810 0.021818 -0.002632 38847.600000 1 0 0
-0.281151 -19.712519 -2.860478 19.920963 1.556535 1.714886 0.029811 -0.007950 19382.300000 1 0 0
-5.897551 -15.684619 -4.738778 17.413914 1.211142 1.846398 0.011084 -0.007042 -1174480.000000 1 0 0
1.925149 -16.080819 -0.971378 16.224750 -1.451646 1.630702 0.012435 -0.008907 567538.000000 1 0 0
-13.190251 -12.005719 5.205522 18.580028 0.738420 1.286828 0.025819 -0.015487 342852.000000 1 0 0
2.014049 -15.173119 -8.847978 17.679554 -1.438830 2.094931 0.015406 -0.003445 -1261830.000000 1 0 0
-11.640751 -16.850419 0.243422 20.481771 0.966252 1.558911 0.045029 -0.015630 415925.000000 1 0 0
-7.804951 -16.571919 -0.846778 18.337469 1.130638 1.616990 0.032945 -0.007884 658551.000000 1 0 0
-2.929051 -14.499819 -1.807878 14.902768 1.371473 1.692407 0.011375 -0.008078 571382.000000 1 0 0
-1.640251 -10.528919 -13.070178 16.863514 1.416253 2.457601 0.005618 -0.000228 391658.000000 1 0 0
1.616949 -19.528319 4.837722 20.183491 -1.488185 1.328753 0.032128 -0.014412 151594.000000 1 0 0
-17.452351 -9.167919 2.499022 19.871598 0.483691 1.444704 0.030464 -0.016141 -357963.000000 1 0 0
-2.763551 -15.760919 -8.138778 17.952256 1.397219 2.041324 0.007647 -0.001936 -499924.000000 1 0 0
-10.657351 -12.114019 0.375722 16.139075 0.849280 1.547514 0.011915 -0.000236 835961.000000 1 0 0
-6.997751 -11.509519 -6.594078 14.997313 1.024518 2.026043 0.018077 -0.005272 436553.000000 1 0 0
-2.256351 -13.595919 -6.739178 15.341338 1.406337 2.025596 0.004711 -0.001319 579121.000000 1 0 0
-14.429851 -14.293219 -0.994578 20.334844 0.780641 1.619726 0.034121 -0.005392 68281.500000 1 0 0
-9.553751 -11.426519 -4.342278 15.514344 0.874425 1.854474 0.017437 -0.007064 919075.000000 1 0 0
9.492949 -15.085519 -5.148778 18.552597 -1.009128 1.852012 0.029671 -0.005311 344548.000000 1 0 0
-5.652151 -10.839519 -9.385478 15.411981 1.090145 2.225561 0.020507 -0.003462 -1302540.000000 1 0 0
-10.447851 -16.034219 -4.955078 19.768828 0.993299 1.824149 0.043062 -0.009348 -1817490.000000 1 0 0
2.130249 -17.375719 -3.250678 17.805069 -1.448806 1.754396 0.013686 -0.009929 638018.000000 1 0 0
-0.339251 -14.601519 -8.064778 16.684127 1.547567 2.075308 0.009342 -0.002437 -765150.000000 1 0 0
-0.586051 -18.371219 -7.030978 19.679425 1.538907 1.936146 0.020258 -0.002078 47822.400000 1 0 0
-1.602451 -9.786719 -10.485878 14.432649 1.408499 2.384067 0.003145 0.000603 253468.000000 1 0 0
-5.103151 -17.325119 2.161622 18.189956 1.284345 1.451679 0.028078 -0.008974 -1204130.000000 1 0 0
0.262549 -12.788419 -2.616778 13.056037 -1.550269 1.772590 0.008016 -0.006820 -1831800.000000 1 0 0
2.637749 -14.922019 3.130222 15.473288 -1.395835 1.367092 0.013465 -0.005748 -661880.000000 1 0 0
-9.459751 -13.140119 6.739122 17.537542 0.946830 1.176381 0.016359 -0.013663 -338500.000000 1 0 0
-0.912251 -17.774319 -4.412978 18.336657 1.519517 1.813847 0.019844 -0.011101 -704469.000000 1 0 0
-10.091351 -17.174019 -2.170978 20.037351 1.039549 1.679356 0.055629 -0.031998 1368200.000000 1 0 0
1.436549 -16.222719 1.479822 16.353292 -1.482475 1.480182 0.009822 -0.012760 -860663.000000 1 0 0
-0.262451 -18.029819 4.138722 18.500602 1.556241 1.345180 0.019658 -0.011635 -711407.000000 1 0 0
-17.405451 -9.205619 -0.121078 19.690297 0.486494 1.576945 0.008169 -0.007288 696833.000000 1 0 0
-15.101851 -7.204919 -10.671078 19.845621 0.445151 2.138508 0.057516 -0.018235 589595.000000 1 0 0
3.067649 -12.714919 -8.837578 15.785513 -1.334057 2.165006 -0.001156 0.000429 739068.000000 1 0 0
-11.812051 -14.748019 1.876722 18.988172 0.895492 1.471798 0.029448 -0.006982 220212.000000 1 0 0
-2.184651 -15.470819 10.960722 19.085501 1.430513 0.959053 0.027845 -0.001144 -788826.000000 1 0 0
-7.092151 -15.858419 1.415822 17.429647 1.150259 1.489476 0.025315 -0.007809 -1086170.000000 1 0 0
-12.484751 -14.806119 -6.017378 20.280508 0.870254 1.872039 0.026186 -0.012319 425087.000000 1 0 0
0.955349 -13.840219 -4.934878 14.724720 -1.501879 1.912553 0.008577 -0.005623 -404735.000000 1 0 0
6.059149 -16.400719 -7.292378 18.944013 -1.216905 1.965943 0.031617 -0.016186 159065.000000 1 0 0
-6.537551 -12.935819 6.012122 15.691418 1.102851 1.177595 0.019321 -0.008833 163275.000000 1 0 0
-2.467451 -13.725819 0.581222 13.957945 1.392929 1.529143 0.011550 -0.006732 1773390.000000 1 0 0
-4.305451 -15.522519 0.215622 16.109996 1.300230 1.557412 0.014592 -0.007522 276482.000000 1 0 0
-17.554551 -7.490019 -2.059678 19.196482 0.403285 1.678298 -0.001351 -0.011186 325365.000000 1 0 0
1.004749 -12.655419 -11.904178 17.403408 -1.491570 2.324048 0.005002 0.001246 238740.000000 1 0 0
1.155549 -16.963819 -5.639078 17.913839 -1.502783 1.891031 0.021026 -0.009122 -1023750.000000 1 0 0
-12.974651 -6.404619 -9.259878 17.178651 0.458535 2.140086 0.024842 -0.003528 1888340.000000 1 0 0
-11.695251 -13.629619 -9.092478 20.130041 0.861632 2.039452 0.041503 -0.009127 592002.000000 1 0 0
-4.331551 -9.892319 3.591522 11.380656 1.158075 1.249727 0.011465 -0.005368 -4126850.000000 1 0 0
-7.078451 -14.479119 9.627122 18.773141 1.116090 1.032337 0.024622 -0.007730 -778563.000000 1 0 0
-5.347351 -15.974119 -8.156378 18.716120 1.247770 2.021717 0.015568 -0.004952 -1030530.000000 1 0 0
-0.195051 -13.463419 2.169522 13.638494 1.556310 1.411044 0.008740 -0.005109 723910.000000 1 0 0
-10.955151 -13.482119 -4.406478 17.922051 0.888438 1.819213 0.028516 -0.008804 -671285.000000 1 0 0
-9.801551 -10.555319 6.630122 15.856975 0.822409 1.139421 0.021858 -0.012928 -156918.000000 1 0 0
-15.558951 -8.178219 -4.860978 18.237141 0.483939 1.840601 0.022270 -0.010842 -449906.000000 1 0 0
-14.533551 -7.353119 5.491122 17.188510 0.468389 1.245632 0.024652 -0.012919 314916.000000 1 0 0
-1.752551 -19.369919 0.065622 19.449151 1.480564 1.567422 0.025653 -0.011941 -434815.000000 1 0 0
-15.460751 -11.978219 -1.399378 19.607927 0.659154 1.642225 0.018387 -0.001427 361615.000000 1 0 0
-4.468451 -12.088619 -6.719478 14.534550 1.216732 2.051396 0.010688 -0.002423 -715410.000000 1 0 0
-7.381451 -18.431719 1.945722 19.949935 1.189880 1.473111 0.034932 -0.004826 34601.700000 1 0 0
-2.602051 -11.555619 -8.605578 14.641003 1.349314 2.199099 0.009042 0.000633 520362.000000 1 0 0
-1.433651 -20.303419 -5.124278 20.989102 1.500302 1.817429 0.035325 -0.003691 -176247.000000 1 0 0
-5.442751 -8.887119 -13.754678 17.256755 1.021286 2.493208 0.022563 -0.005873 1164920.000000 1 0 0
-8.815351 -19.057419 -0.952578 21.019111 1.137540 1.616131 0.052186 -0.006673 374487.000000 1 0 0
-17.108851 -7.394219 5.713922 19.494516 0.407942 1.273324 0.048536 -0.020047 -404615.000000 1 0 0
-3.621951 -14.604519 -4.329778 15.657505 1.327699 1.850978 0.007409 -0.004459 -2300850.000000 1 0 0
-3.227751 -15.018619 -10.960478 18.870860 1.359100 2.190526 0.023787 -0.004188 102842.000000 1 0 0
-0.008951 -16.815019 6.260822 17.942765 1.570264 1.214364 0.030729 -0.006932 -122622.000000 1 0 0
-11.143951 -11.604719 3.819522 16.536199 0.805650 1.337712 0.017725 -0.009312 1110020.000000 1 0 0
-0.086751 -14.709119 -0.070178 14.709542 1.564899 1.575567 0.007954 -0.006340 876248.000000 1 0 0
-7.368951 -9.513119 -2.386478 12.267687 0.911730 1.766578 0.016817 -0.003989 -77330.200000 1 0 0
-11.327951 -14.420119 -0.700678 18.350838 0.904919 1.608988 0.027361 -0.010785 287198.000000 1 0 0
0.235849 -14.585819 -10.560078 18.008803 -1.554628 2.197384 0.009635 -0.002336 375290.000000 1 0 0
-1.398651 -13.968519 -3.918278 14.574932 1.471000 1.842982 0.008682 -0.004625 -4580480.000000 1 0 0
-11.602151 -8.161519 -7.692278 16.136649 0.613037 2.067689 0.012908 -0.006159 643751.000000 1 0 0
-0.188651 -17.431619 -0.052578 17.432719 1.559974 1.573812 0.014359 -0.010764 -556833.000000 1 0 0
-12.800451 -9.485219 4.546822 16.567876 0.637720 1.292793 0.018353 -0.011649 -205652.000000 1 0 0
4.038049 -16.773919 1.654722 17.332290 -1.334558 1.475180 0.013302 -0.012984 631372.000000 1 0 0
-3.846351 -18.058019 -8.062478 20.146712 1.360933 1.982519 0.035190 -0.011135 -11265.000000 1 0 0
-13.422651 -11.195619 2.725322 17.690020 0.695181 1.416120 0.015937 -0.010039 113772.000000 1 0 0
-8.491251 -12.196419 4.218422 15.448270 0.962619 1.294216 0.021093 -0.011816 -181932.000000 1 0 0
-8.238951 -9.439219 -5.750178 13.785634 0.853190 2.001064 0.018803 -0.005481 -647512.000000 1 0 0
3.715449 -17.161419 -5.231278 18.321712 -1.357587 1.860349 0.002654 -0.007629 -410347.000000 1 0 0
-2.611051 -12.989119 11.354122 17.448521 1.372422 0.862263 0.016072 -0.012703 291664.000000 1 0 0
0.013649 -16.859119 -9.358478 19.282406 -1.569987 2.077546 0.020021 -0.002009 -129154.000000 1 0 0
-7.072151 -10.757519 -14.512078 19.399483 0.989226 2.415938 0.033595 -0.003085 -1861160.000000 1 0 0
-4.626951 -18.666419 -1.511778 19.290654 1.327818 1.649245 0.034340 -0.018684 176928.000000 1 0 0
-2.586151 -17.271219 1.171622 17.503024 1.422163 1.503808 0.020288 -0.011698 630712.000000 1 0 0
4.096549 -14.701519 -7.437978 16.977629 -1.299042 2.024285 0.007816 -0.001770 -326957.000000 1 0 0
-1.117351 -15.876019 -6.128078 17.054319 1.500532 1.938343 0.008126 -0.003244 -489114.000000 1 0 0
-9.600351 -15.123419 8.417622 19.792445 1.005181 1.131509 0.033635 -0.015100 -689259.000000 1 0 0
-7.143451 -12.074919 -1.771478 14.141099 1.036581 1.696398 0.014830 -0.005232 991142.000000 1 0 0
-7.346851 -15.016419 -9.356578 19.157625 1.115782 2.081051 0.028684 -0.010953 -430197.000000 1 0 0
-4.967751 -13.241419 -0.618878 14.156155 1.211879 1.614528 0.017326 -0.007586 2947160.000000 1 0 0
-6.403451 -13.872719 -7.250578 16.912344 1.138349 2.013866 0.015433 -0.006963 405650.000000 1 0 0
5.834449 -15.298719 0.282822 16.375945 -1.206454 1.553525 0.006883 -0.004319 -121453.000000 1 0 0
-14.494851 -12.696519 0.994822 19.294869 0.719358 1.519215 0.007101 -0.012051 815051.000000 1 0 0
0.744549 -15.344119 11.135422 18.973506 -1.522311 0.943580 0.024997 -0.008975 335426.000000 1 0 0
-9.234051 -10.918919 2.025522 14.442757 0.868808 1.430088 0.012028 -0.004547 13577.300000 1 0 0
-9.558251 -8.952119 -3.476978 13.549537 0.752664 1.830312 0.012594 -0.004818 -584724.000000 1 0 0
-12.332051 -7.317919 -12.246478 18.857562 0.535557 2.277618 0.040552 -0.013072 -599029.000000 1 0 0
-13.234051 -8.515619 -0.609578 15.748887 0.571766 1.609512 0.003164 -0.004436 -992976.000000 1 0 0
-11.248651 -9.703519 0.605522 14.867988 0.711786 1.530059 0.002914 -0.001360 417341.000000 1 0 0
-15.905551 -12.152519 3.073222 20.251295 0.652428 1.418453 0.042113 -0.010203 314768.000000 1 0 0
-10.592151 -12.383119 -2.138578 16.434987 0.863193 1.701290 0.023208 -0.011125 724984.000000 1 0 0
-3.281951 -8.963419 -12.119378 15.427035 1.219808 2.474451 0.007735 0.000701 -1413520.000000 1 0 0
-0.258751 -15.489819 3.845822 15.962198 1.554093 1.327469 0.017460 -0.006388 -798602.000000 1 0 0
-15.685751 -7.745919 1.247722 17.538496 0.458690 1.499594 0.000336 -0.006390 615908.000000 1 0 0
-6.252151 -13.498519 -13.297978 19.953336 1.137042 2.300239 0.037583 -0.010636 83308.000000 1 0 0
-15.394651 -10.253519 1.258422 18.539513 0.587572 1.502866 0.007940 -0.008122 -31009.900000 1 0 0
-10.020551 -8.369419 -12.428878 18.025971 0.695854 2.331593 0.027134 -0.007053 300798.000000 1 0 0
-13.475051 -11.796219 -6.255478 18.969944 0.719063 1.906843 0.029885 -0.003861 174484.000000 1 0 0
-12.243451 -11.343819 -3.866778 17.132901 0.747276 1.798451 0.006447 -0.001673 -1073110.000000 1 0 0
-11.713351 -10.993219 -9.255178 18.539465 0.753694 2.093489 0.030160 -0.010972 -167981.000000 1 0 0
-13.249851 -8.641719 -5.889678 16.879756 0.577929 1.927214 0.011766 -0.007047 -630965.000000 1 0 0
-13.564151 -8.186419 -3.295678 16.182247 0.543014 1.775891 0.009137 -0.006701 -182750.000000 1 0 0
-4.245751 -16.924019 -3.283178 17.754663 1.324998 1.756786 0.013585 -0.012190 436242.000000 1 0 0
-15.474951 -8.996019 -1.791378 17.989205 0.526577 1.670542 0.006634 -0.003139 -2495010.000000 1 0 0
-9.353451 -15.719319 3.693422 18.660798 1.034040 1.371557 0.025461 -0.008607 -807975.000000 1 0 0
4.913649 -17.130319 8.109522 19.579482 -1.291457 1.143749 0.038900 -0.015140 441611.000000 1 0 0
-8.294251 -15.461819 6.036622 18.555410 1.078428 1.239436 0.024181 -0.005172 835394.000000 1 0 0
0.744849 -15.958119 8.580222 18.133851 -1.524155 1.077922 0.022670 -0.005100 781376.000000 1 0 0
-11.039751 -7.803619 -10.136278 16.897239 0.615319 2.214145 0.026081 -0.007358 806682.000000 1 0 0
-4.746251 -15.977319 5.744622 17.629586 1.282037 1.238884 0.021770 -0.009083 -444442.000000 1 0 0
-1.593951 -13.260819 -11.982978 17.943850 1.451170 2.302051 0.013177 0.000991 -579764.000000 1 0 0
-6.419451 -14.356919 -2.613378 15.942403 1.150329 1.735466 0.018054 -0.007096 526250.000000 1 0 0
-17.628751 -6.785519 -7.356578 20.271541 0.367432 1.942176 0.037086 -0.021264 -28758.600000 1 0 0
-17.437151 -4.175619 -10.138978 20.598274 0.235041 2.085440 0.062039 -0.021806 648184.000000 1 0 0
-15.310851 -5.180619 -8.933678 18.468123 0.326270 2.075714 0.027036 -0.021854 175597.000000 1 0 0
-16.215451 -5.352119 -5.733078 18.012612 0.318804 1.894712 0.023910 -0.011811 -249518.000000 1 0 0
-15.359051 -4.340719 -12.207678 20.094021 0.275433 2.223741 0.059199 -0.021401 1167780.000000 1 0 0
-18.869551 -5.307819 -5.613978 20.389940 0.274205 1.849730 0.052334 -0.018482 786178.000000 1 0 0
-17.489151 -4.185619 -7.639478 19.538460 0.234908 1.972511 0.038244 -0.022145 710080.000000 1 0 0
12.219349 -7.817219 8.784722 16.958559 -0.569129 1.026272 0.041555 -0.008662 189770.000000 1 0 0
15.995649 -3.434019 1.799222 16.458751 -0.211475 1.461260 0.029101 -0.004979 214667.000000 1 0 0
11.968849 -2.114619 12.571322 17.486083 -0.174872 0.768530 0.045018 -0.008010 1156810.000000 1 0 0
9.639849 -9.955719 5.344222 14.852735 -0.801516 1.202728 0.009306 -0.006184 -236802.000000 1 0 0
17.031449 -2.139319 7.175622 18.604744 -0.124955 1.174843 0.065295 -0.015256 -1108010.000000 1 0 0
5.184349 -12.949419 9.224122 16.722719 -1.189985 0.986524 0.011022 0.006606 -354150.000000 1 0 0
15.140749 -8.916619 -2.167478 17.704416 -0.532229 1.693530 0.044433 -0.007137 57383.500000 1 0 0
11.113549 -8.563019 6.488522 15.457593 -0.656494 1.137612 0.017749 -0.008811 -2001480.000000 1 0 0
20.128149 -3.001219 3.684922 20.681594 -0.148015 1.391666 0.091046 -0.017649 7874.760000 1 0 0
13.618149 -8.592019 6.887722 17.513351 -0.562848 1.166596 0.042732 -0.009553 -173426.000000 1 0 0
8.313749 -10.955519 8.859222 16.359328 -0.921646 0.998529 0.006428 -0.001391 -1280960.000000 1 0 0
16.880149 -0.037119 -0.651278 16.892749 -0.002199 1.609360 0.022728 0.000610 180660.000000 1 0 0
12.418449 -12.243119 2.301722 17.590047 -0.778289 1.439566 0.023925 -0.007312 -1992200.000000 1 0 0
10.330549 -11.583719 3.643122 15.942870 -0.842521 1.340248 0.011387 -0.006288 -249193.000000 1 0 0
16.375849 3.014381 2.268922 16.804849 0.182037 1.435367 0.012346 -0.003227 -394777.000000 1 0 0
18.276949 -3.177319 0.608922 18.561062 -0.172123 1.537984 0.049072 -0.009022 130324.000000 1 0 0
13.516149 -11.516519 -0.209878 17.758393 -0.705687 1.582615 0.046844 -0.004040 -253896.000000 1 0 0
16.975449 -7.623819 -0.907878 18.630961 -0.422112 1.619545 0.057569 -0.003247 98436.900000 1 0 0
10.173749 -5.599219 9.669122 15.111199 -0.503119 0.876474 0.022537 -0.011224 88858.700000 1 0 0
11.396249 -13.149619 5.907022 18.376068 -0.856709 1.243534 0.027095 -0.011913 -1363320.000000 1 0 0
13.177349 -1.723619 10.324322 16.828696 -0.130063 0.910317 0.041709 -0.007708 820733.000000 1 0 0
15.642249 -2.035419 -1.512078 15.846428 -0.129396 1.666362 0.024179 -0.004699 -398299.000000 1 0 0
10.481149 -12.331419 8.793722 18.418684 -0.866328 1.073063 0.031264 -0.011028 37036.800000 1 0 0
14.593249 1.244681 3.288122 15.010793 0.085086 1.349955 0.014034 -0.005111 1288150.000000 1 0 0
15.086849 -5.811119 5.266222 17.003388 -0.367664 1.255902 0.049207 -0.011549 -304844.000000 1 0 0
14.247349 -3.310219 -3.186078 14.969823 -0.228289 1.785270 0.012782 -0.001580 736238.000000 1 0 0
14.125249 0.633681 9.495722 17.032115 0.044832 0.979403 0.036068 -0.010226 651438.000000 1 0 0
15.538549 -3.441319 4.468522 16.530483 -0.217952 1.297071 0.035425 -0.007706 -930152.000000 1 0 0
19.035249 5.246381 -4.485978 20.248191 0.268937 1.794200 0.045048 0.008292 738253.000000 1 0 0
18.097849 -5.676519 -5.339878 19.704550 -0.303939 1.845225 0.075209 -0.007906 521965.000000 1 0 0
17.303849 0.021581 5.787622 18.246102 0.001247 1.248023 0.049711 -0.011874 -52513.900000 1 0 0
17.130549 -6.798919 4.071022 18.874698 -0.377821 1.353401 0.068141 -0.012022 170546.000000 1 0 0
9.801149 -6.562519 14.249422 18.497978 -0.590007 0.691448 0.043861 -0.009247 -1146360.000000 1 0 0
8.540149 -12.241619 5.211822 15.809948 -0.961661 1.234859 0.006075 -0.007018 -873150.000000 1 0 0
16.850749 -10.241319 -0.588378 19.727609 -0.546111 1.600626 0.059983 -0.001410 70025.200000 1 0 0
15.055649 -8.770519 0.465922 17.430194 -0.527482 1.544062 0.051517 -0.003597 -346105.000000 1 0 0
9.962649 -12.841719 1.520222 16.324068 -0.910985 1.477534 0.017977 -0.008987 261172.000000 1 0 0
17.179249 -8.170819 8.923322 21.012248 -0.443955 1.132196 0.081393 -0.013428 557041.000000 1 0 0
19.198949 -0.163019 -1.808778 19.284655 -0.008491 1.664728 0.055434 -0.004905 -134199.000000 1 0 0
13.311749 -1.182919 7.741822 15.444668 -0.088630 1.045740 0.020633 -0.009398 -67816.200000 1 0 0
12.827749 -9.783919 -3.107378 16.429608 -0.651589 1.761075 0.031432 -0.005590 -700569.000000 1 0 0
8.918949 -15.128719 1.499922 17.625991 -1.038105 1.485596 0.024092 -0.007501 841689.000000 1 0 0
11.437049 -8.219219 11.211822 18.001850 -0.623132 0.898461 0.051610 -0.007323 -36727.200000 1 0 0
14.081249 -4.043419 -0.702078 14.667097 -0.279626 1.618682 0.015760 -0.003585 -421303.000000 1 0 0
7.295449 -13.242719 10.708122 18.527197 -1.067260 0.954560 0.020162 0.006109 -960759.000000 1 0 0
15.472249 -6.757219 1.974222 16.998472 -0.411765 1.454392 0.037762 -0.006595 94336.200000 1 0 0
16.194249 -6.055119 -2.742578 17.505425 -0.357811 1.728115 0.063202 -0.002229 -333357.000000 1 0 0
11.261149 -8.446219 3.856522 14.595371 -0.643521 1.303392 0.020063 -0.009832 618794.000000 1 0 0
10.689449 -14.415819 -0.365178 17.950306 -0.932752 1.591142 0.036411 -0.008252 650213.000000 1 0 0
13.552949 -12.864519 4.561022 19.234895 -0.759344 1.331394 0.030279 -0.004317 318400.000000 1 0 0
12.907249 -11.099019 6.551922 18.240421 -0.710217 1.203388 0.029478 -0.006948 -669099.000000 1 0 0
10.850049 -10.447319 1.405722 15.127660 -0.766491 1.477738 0.014166 -0.005145 514480.000000 1 0 0
13.880949 -7.619119 12.003722 19.870105 -0.501991 0.922148 0.067334 -0.015769 -8305.870000 1 0 0
15.292149 -1.695419 -4.963678 16.166706 -0.110418 1.882868 0.030365 -0.007194 42448.600000 1 0 0
12.869349 -11.332719 -7.040178 18.536849 -0.721992 1.960370 0.059939 -0.011286 467711.000000 1 0 0
17.710949 -5.376419 1.987722 18.615441 -0.294724 1.463814 0.071858 -0.006781 611731.000000 1 0 0
10.582949 -9.797019 9.228522 17.121507 -0.746853 1.001545 0.024007 -0.002754 -1070970.000000 1 0 0
16.478049 1.894181 9.845522 19.288554 0.114449 1.035108 0.063476 -0.012778 179519.000000 1 0 0
18.184749 3.745281 0.438222 18.571598 0.203117 1.547198 -0.000432 -0.000084 579639.000000 1 0 0
13.442849 -3.996019 5.858422 15.198666 -0.288941 1.175094 0.024826 -0.010845 85608.000000 1 0 0
12.147549 -6.168719 6.704922 15.184598 -0.469881 1.113459 0.022235 -0.010842 68784.600000 1 0 0
16.568049 -10.225919 3.697222 19.817646 -0.552976 1.383135 0.035599 -0.006154 -446305.000000 1 0 0
16.315449 -7.950119 -5.719778 19.029297 -0.453416 1.876094 0.070235 -0.007398 738175.000000 1 0 0
14.014749 -0.437519 5.320422 14.997050 -0.031208 1.208134 0.016398 -0.005559 719890.000000 1 0 0
18.379849 -4.289619 5.176722 19.570849 -0.229283 1.303099 0.079293 -0.011860 250843.000000 1 0 0
13.618849 -13.560919 7.031222 20.464839 -0.783267 1.220075 0.037740 -0.008488 30499.200000 1 0 0
15.069149 -13.468619 -0.887878 20.230454 -0.729372 1.614699 0.055675 -0.002663 1001220.000000 1 0 0
17.790249 -5.774719 7.966422 20.329885 -0.313870 1.168146 0.078515 -0.018980 -408256.000000 1 0 0
14.347249 3.252881 9.038722 17.266247 0.222956 1.019853 0.026854 -0.014634 -172865.000000 1 0 0
18.838449 3.747181 2.979922 19.437296 0.196349 1.416880 0.035962 -0.007013 151493.000000 1 0 0
14.723549 -10.591119 8.345522 19.965030 -0.623583 1.139546 0.031581 -0.009469 -587171.000000 1 0 0
14.812849 -4.877619 10.445722 18.770316 -0.318101 0.980626 0.065023 -0.015155 22062.900000 1 0 0
17.810849 -7.921719 1.857122 19.581340 -0.418496 1.475812 0.086853 -0.011316 -136696.000000 1 0 0
18.588149 -5.707119 -1.900978 19.537252 -0.297894 1.668251 0.075915 -0.009822 229373.000000 1 0 0
14.282549 -13.021119 -5.563778 20.112095 -0.739231 1.851091 0.078047 -0.011945 153445.000000 1 0 0
15.470049 -1.465719 9.142522 18.029322 -0.094464 1.038989 0.076019 -0.017929 -203426.000000 1 0 0
12.918849 -9.929719 10.257122 19.253689 -0.655313 1.008967 0.032829 -0.015601 -2189660.000000 1 0 0
16.701649 2.245481 4.732222 17.503748 0.133645 1.297035 0.030930 -0.010570 -631472.000000 1 0 0
15.129049 2.363281 -0.234978 15.314321 0.154956 1.586141 0.007725 -0.000256 -1527930.000000 1 0 0
14.999649 -9.767919 -6.929578 19.194290 -0.577225 1.940161 0.066481 -0.017442 559039.000000 1 0 0
16.351649 0.026481 -3.213578 16.664460 0.001619 1.764852 0.029818 -0.001911 -24289.300000 1 0 0
12.197249 2.474481 13.536222 18.388182 0.200156 0.743451 0.046026 -0.001676 -187684.000000 1 0 0
17.522549 -3.039719 9.609522 20.214414 -0.171765 1.075401 0.065820 -0.014591 -22303.800000 1 0 0
7.915349 -18.072419 4.411922 20.217075 -1.157983 1.350798 0.047065 -0.016510 -547741.000000 1 0 0
6.794949 -11.214619 6.687622 14.719487 -1.026049 1.099167 0.006496 -0.005109 125191.000000 1 0 0
17.976649 2.125081 -1.592178 18.171706 0.117667 1.658527 0.011130 0.001242 377066.000000 1 0 0
17.647249 -2.351519 3.595422 18.162657 -0.132471 1.371523 0.039144 -0.007441 -795805.000000 1 0 0
12.606249 -13.368719 -1.916978 18.474711 -0.814744 1.674746 0.044955 0.001872 80656.100000 1 0 0
15.043249 -8.262419 4.434322 17.726537 -0.502263 1.317959 0.042472 -0.007010 -24951.100000 1 0 0
11.868749 -2.690519 14.985522 19.304713 -0.222922 0.682081 0.085612 -0.017758 598944.000000 1 0 0
11.903849 -13.672819 -6.540678 19.272469 -0.854452 1.917053 0.027079 -0.009391 -437460.000000 1 0 0
10.658549 -11.961019 -1.213778 16.066857 -0.842916 1.646414 0.023314 -0.007563 -1128090.000000 1 0 0
13.173149 -8.018219 2.143822 15.569832 -0.546777 1.432667 0.030998 -0.002275 -1137480.000000 1 0 0
8.719349 -7.766619 9.920322 15.321886 -0.727672 0.866548 0.008406 -0.000230 -1534700.000000 1 0 0
15.600949 -3.893819 8.083822 17.997211 -0.244591 1.104959 0.070192 -0.017159 -1375410.000000 1 0 0
10.281749 -17.153119 5.131022 20.646337 -1.030811 1.319645 0.048101 -0.018149 -46433.800000 1 0 0
15.250449 -6.498719 8.360322 18.566220 -0.402830 1.103698 0.062129 -0.008109 -576573.000000 1 0 0
16.673949 -5.002419 -0.336878 17.411440 -0.291470 1.590146 0.044540 -0.003307 -906755.000000 1 0 0
13.994449 -10.501519 3.587722 17.860522 -0.643761 1.368546 0.039590 -0.011149 -442552.000000 1 0 0
15.051849 -9.836519 -4.488678 18.532768 -0.578838 1.815431 0.067388 -0.017238 713642.000000 1 0 0
13.622049 -6.581519 -0.048178 15.128745 -0.450078 1.573981 0.028579 -0.002286 814270.000000 1 0 0
17.826749 -0.857519 -5.025178 18.541325 -0.048066 1.845255 0.057399 -0.007343 697894.000000 1 0 0
14.395549 0.242781 -1.664878 14.493536 0.016863 1.685921 0.015933 -0.000774 -899305.000000 1 0 0
5.066749 -12.979319 11.857122 18.295518 -1.198618 0.865724 0.012804 0.004697 -403877.000000 1 0 0
11.968049 -7.257919 13.535722 19.471193 -0.545142 0.802145 0.062516 -0.018235 -289230.000000 1 0 0
12.093849 -5.684119 11.471922 17.611797 -0.439362 0.861398 0.050046 -0.013564 397286.000000 1 0 0
13.287349 -4.644919 8.434322 16.409348 -0.336296 1.030961 0.040650 -0.010410 -635956.000000 1 0 0
15.438149 -1.169219 3.138922 15.797353 -0.075591 1.370766 0.022444 -0.003506 535476.000000 1 0 0
15.210049 -10.393519 5.885922 19.339465 -0.599452 1.261543 0.041971 -0.011301 -545394.000000 1 0 0
13.693849 -7.870419 -5.711478 16.795415 -0.521640 1.917779 0.049939 -0.012652 -1343560.000000 1 0 0
9.493449 -2.301219 13.637622 16.775158 -0.237814 0.621570 0.022059 -0.006334 474651.000000 1 0 0
10.156549 -9.161519 13.680322 19.345287 -0.733936 0.785315 0.061889 -0.001440 -289114.000000 1 0 0
20.409849 6.462881 -2.566678 21.561971 0.306666 1.690117 0.077176 0.004145 -935957.000000 1 0 0
11.188149 -3.490019 10.542422 15.763806 -0.302374 0.838238 0.027868 -0.005507 877886.000000 1 0 0
10.165249 -14.000219 -2.887878 17.540760 -0.942782 1.736187 0.024796 -0.003009 1352770.000000 1 0 0
14.869849 -12.732919 2.414822 19.724883 -0.708135 1.448063 0.034921 -0.002931 -779755.000000 1 0 0
11.118449 -0.300719 14.126222 17.979446 -0.027040 0.666990 0.052749 -0.010003 503966.000000 1 0 0
19.073749 -1.890719 5.787622 20.021970 -0.098804 1.277548 0.084554 -0.016524 350179.000000 1 0 0
18.772549 -0.392719 7.886322 20.365581 -0.020917 1.173163 0.068162 -0.015498 111074.000000 1 0 0
19.068449 0.910681 0.577522 19.098917 0.047722 1.540553 0.036280 -0.007941 54001.100000 1 0 0
18.610549 0.661781 3.740222 18.994203 0.035545 1.372587 0.037599 -0.011070 186363.000000 1 0 0
16.691649 -3.762819 -4.248278 17.630026 -0.221725 1.814160 0.049927 -0.006266 209909.000000 1 0 0
11.209949 -8.074519 15.930622 21.086619 -0.624220 0.714402 0.085611 -0.014090 458487.000000 1 0 0
16.643949 -7.574519 6.462022 19.394641 -0.427080 1.231116 0.064772 -0.010635 620250.000000 1 0 0
18.881449 2.075981 5.979922 19.914273 0.109508 1.265807 0.049238 -0.010706 -207926.000000 1 0 0
15.495349 1.670281 7.470022 17.282850 0.107378 1.123841 0.043538 -0.011671 421287.000000 1 0 0
8.611549 -15.599619 3.999122 18.261978 -1.066391 1.350021 0.021753 -0.013811 209761.000000 1 0 0
11.429849 -15.074519 2.014522 19.024743 -0.922053 1.464708 0.036541 -0.004535 -31859.800000 1 0 0
8.093749 -16.226519 6.321622 19.203426 -1.108111 1.235348 0.031114 -0.005328 -275245.000000 1 0 0
14.549449 -11.518519 -2.539378 18.729954 -0.669648 1.706794 0.057220 -0.007268 451232.000000 1 0 0
13.725249 -4.820819 3.205922 14.896331 -0.337777 1.353884 0.022474 -0.003022 -1180000.000000 1 0 0
-1.047251 10.192881 -5.541578 11.649062 -1.468412 2.066568 0.000195 0.000441 -2916430.000000 1 0 0
8.282949 -1.702219 -8.066578 11.686508 -0.202687 2.332627 0.000558 -0.001314 -1910000.000000 1 0 0
2.952449 -10.050819 7.687122 12.993373 -1.285081 0.937731 0.001323 -0.004836 496919.000000 1 0 0
-6.308051 1.294181 8.355022 10.548592 -0.202355 0.656635 0.000648 -0.001850 44063.900000 1 0 0
7.106149 -6.197519 -7.139078 11.826793 -0.717205 2.218850 -0.000203 -0.001014 -321906.000000 1 0 0
-11.494451 -4.655919 -4.123678 13.069227 0.384859 1.891807 0.004661 -0.004137 219703.000000 1 0 0
2.110749 -3.196019 2.885622 4.795478 -0.987123 0.925121 0.001899 -0.000510 2725380.000000 1 0 0
-3.607451 -4.273419 8.872922 10.488305 0.869702 0.562391 0.003867 -0.002509 -1071080.000000 1 0 0
-4.941151 -1.174319 -2.491978 5.657204 0.233332 2.026948 0.010072 -0.003324 -466979.000000 1 0 0
5.008149 -5.193719 -3.544478 8.038631 -0.803586 2.027432 0.000208 -0.000380 168557.000000 1 0 0
2.706449 14.275581 -8.836478 17.005894 1.383434 2.117194 0.007565 -0.007069 63173.200000 1 0 0
5.489849 -5.427419 13.722922 15.745282 -0.779680 0.512426 0.014079 -0.004570 -752825.000000 1 0 0
-4.696451 -1.035619 9.801022 10.917380 0.217038 0.456173 0.007083 -0.000763 -2682020.000000 1 0 0
-1.058451 11.886681 -2.729578 12.241900 -1.481985 1.795657 -0.003805 -0.000600 -2178920.000000 1 0 0
3.080649 9.343081 -10.548178 14.423856 1.252297 2.391024 0.000972 -0.002893 -320257.000000 1 0 0
-10.635851 2.607281 1.146622 11.010630 -0.240400 1.466469 -0.004989 0.002593 176961.000000 1 0 0
5.696749 -9.066219 -0.617778 10.725247 -1.009792 1.628429 -0.000908 -0.004919 311911.000000 1 0 0
-7.042351 5.540081 9.436222 13.012667 -0.666566 0.759534 -0.002093 -0.002078 -204926.000000 1 0 0
-5.459851 -1.943519 5.132422 7.741382 0.341979 0.845997 0.003265 -0.003476 496877.000000 1 0 0
6.688449 -3.776519 -7.392078 10.660219 -0.514008 2.337030 -0.000641 0.000587 381213.000000 1 0 0
6.285449 4.940181 11.040122 13.630721 0.666128 0.626740 0.006493 -0.006391 706110.000000 1 0 0
3.682949 -9.839119 3.386922 11.038279 -1.212625 1.258931 -0.005295 -0.002466 775049.000000 1 0 0
-6.669251 6.554181 -5.743078 10.973566 -0.776696 2.121581 0.008761 -0.002684 114521.000000 1 0 0
-11.006251 8.437881 5.219322 14.818121 -0.654069 1.210848 -0.000567 -0.001263 478877.000000 1 0 0
-9.175951 -5.557319 5.135722 11.893591 0.544556 1.124302 0.003410 -0.002480 -684826.000000 1 0 0
3.292949 9.864481 -8.021878 13.134003 1.248609 2.227831 0.000977 -0.002802 846822.000000 1 0 0
-8.119751 -8.548019 6.070122 13.260670 0.811087 1.095329 0.010539 -0.005876 -2259300.000000 1 0 0
-7.872951 -5.843919 -7.479178 12.331782 0.638541 2.222443 0.013994 -0.006304 777182.000000 1 0 0
9.183349 -1.659819 6.976122 11.651402 -0.178812 0.928873 0.007246 -0.006041 1670270.000000 1 0 0
-4.138451 -0.482719 -4.893978 6.427349 0.116118 2.436313 0.016401 -0.009544 -1528080.000000 1 0 0
9.112349 1.183081 -4.574778 10.264657 0.129111 2.032733 0.000500 0.000230 -2088350.000000 1 0 0
-1.943851 -10.671019 10.586022 15.156288 1.390610 0.797557 0.006400 -0.008418 388959.000000 1 0 0
-12.988251 0.246281 -2.606278 13.249453 -0.018960 1.768796 0.003802 -0.000533 -795998.000000 1 0 0
-9.913951 -5.158219 -6.061778 12.713725 0.479755 2.067796 0.010117 -0.004934 -969042.000000 1 0 0
-5.441251 8.228681 -0.184878 9.866742 -0.986550 1.589535 0.000982 0.001383 697416.000000 1 0 0
6.315649 9.666681 0.273322 11.550189 0.992075 1.547130 0.010906 -0.004878 480244.000000 1 0 0
-0.484251 -12.056419 0.102722 12.066577 1.530653 1.562283 0.009661 -0.004355 32650.700000 1 0 0
6.238049 4.804081 2.358522 8.219190 0.656258 1.279752 0.004099 -0.001681 302670.000000 1 0 0
3.445449 -7.534419 -8.213578 11.666253 -1.141893 2.351875 -0.004075 0.001134 1324750.000000 1 0 0
-6.580851 -9.863019 4.591022 12.714724 0.982407 1.201371 0.011451 -0.005345 -2819860.000000 1 0 0
-0.020551 6.564481 -9.230678 11.326882 -1.567666 2.523414 0.007105 -0.003798 -900243.000000 1 0 0
-17.505451 -2.822019 4.415922 18.273067 0.159833 1.326717 0.048965 -0.011332 862705.000000 1 0 0
-8.441251 0.828381 -9.129078 12.461180 -0.097822 2.392932 0.007451 -0.004380 -190151.000000 1 0 0
-10.067151 -5.937519 -11.816978 16.620548 0.532879 2.361696 0.018215 -0.003594 477732.000000 1 0 0
2.143649 9.484081 6.421422 11.652368 1.348506 0.987135 -0.004181 0.003698 -420278.000000 1 0 0
-11.471351 1.596481 -1.129778 11.636883 -0.138283 1.668035 0.000064 -0.000047 -2056750.000000 1 0 0
-5.975551 -5.470119 -3.080678 8.667179 0.741268 1.934183 0.021436 -0.007791 721885.000000 1 0 0
-6.907351 -8.342519 1.356222 10.915514 0.879232 1.446227 0.013691 -0.005130 -258962.000000 1 0 0
-0.025651 10.955281 -7.845578 13.474863 -1.568455 2.192275 0.005973 -0.000892 870612.000000 1 0 0
-2.865151 9.195581 -4.268378 10.535030 -1.268751 1.987951 0.003312 -0.002644 616234.000000 1 0 0
3.476549 -4.760719 9.390322 11.087334 -0.940051 0.560590 -0.000546 -0.001358 -933754.000000 1 0 0
-9.027051 1.444181 -0.366578 9.149191 -0.158639 1.610874 -0.000978 -0.000087 -1089750.000000 1 0 0
2.409149 3.582281 -10.513178 11.365019 0.978754 2.751956 0.003153 -0.002982 -880386.000000 1 0 0
-13.674951 0.562781 1.100222 13.730677 -0.041131 1.490582 0.002906 -0.001452 -784629.000000 1 0 0
9.378049 -12.461819 -4.967878 16.368401 -0.925670 1.879164 0.026583 -0.006403 -1978980.000000 1 0 0
-4.690251 9.413281 -8.274678 13.382026 -1.108543 2.237429 0.006508 -0.002040 -478378.000000 1 0 0
-2.337451 7.197781 8.373922 11.286908 -1.256794 0.734875 0.000455 0.003654 -182016.000000 1 0 0
-10.872351 -1.443219 -4.458678 11.839371 0.131971 1.956917 0.005563 -0.002935 -4080070.000000 1 0 0
2.740049 -7.082919 9.756622 12.363951 -1.201675 0.661424 -0.000218 -0.001160 -1591230.000000 1 0 0
-16.106051 -6.576619 3.485022 17.742665 0.387669 1.373090 0.021936 -0.008482 -28004.100000 1 0 0
-10.749051 -0.126719 6.166822 12.393056 0.011788 1.049963 0.000182 -0.000749 -2652300.000000 1 0 0
-8.369551 9.998581 9.393322 16.070330 -0.873855 0.946516 0.008544 -0.004714 -1531530.000000 1 0 0
0.383449 -6.145319 -3.659878 7.162868 -1.508480 2.107088 0.006351 -0.001343 153000.000000 1 0 0
4.940449 1.550481 -3.018278 5.993499 0.304100 2.098548 -0.000606 -0.000924 -102251.000000 1 0 0
0.335949 5.377781 3.616322 6.489313 1.508408 0.979698 -0.001027 0.004000 -1722570.000000 1 0 0
6.124949 -11.298219 -1.539778 12.943557 -1.074026 1.690040 -0.004266 -0.004106 -1296450.000000 1 0 0
6.192949 -13.417419 5.331622 15.710058 -1.138370 1.224543 0.005822 -0.008003 -950608.000000 1 0 0
8.184849 -8.192419 -5.998678 13.041918 -0.785860 2.048739 0.000124 -0.001494 709396.000000 1 0 0
-13.318951 -1.433419 -4.702478 14.197269 0.107210 1.908397 0.007355 -0.000784 -3156370.000000 1 0 0
-6.829451 -1.810019 -7.163378 10.061389 0.259075 2.363092 0.013558 -0.004419 -1024060.000000 1 0 0
-5.676751 12.726681 -4.515378 14.648637 -1.151231 1.884145 0.001996 -0.000682 184831.000000 1 0 0
-4.275651 6.824181 -6.757178 10.512378 -1.011087 2.268922 0.011191 -0.003050 -1199660.000000 1 0 0
-9.318251 -3.743419 -8.182378 12.953544 0.381997 2.254503 0.013585 -0.003823 712763.000000 1 0 0
-2.144651 -6.334519 9.188822 11.364863 1.244344 0.629148 0.006900 -0.003081 -92094.900000 1 0 0
7.502449 -5.892719 10.089822 13.885798 -0.665799 0.757394 0.006164 -0.001778 226323.000000 1 0 0
9.712849 -4.929719 12.183622 16.342650 -0.469666 0.729495 0.028939 -0.006783 -799726.000000 1 0 0
-6.498051 2.736381 -9.010778 11.441441 -0.398570 2.477630 0.007645 -0.004315 76524.200000 1 0 0
7.494749 5.531181 8.803022 12.816334 0.635782 0.813637 0.006837 -0.004559 -224874.000000 1 0 0
12.787049 3.309481 11.096822 17.251109 0.253258 0.872057 0.032639 -0.004283 -816980.000000 1 0 0
-7.547551 -7.302619 -3.769378 11.158045 0.768906 1.915393 0.019746 -0.007554 -1919800.000000 1 0 0
2.374049 1.562881 -5.811878 6.469670 0.582201 2.686742 0.002415 -0.003810 324469.000000 1 0 0
12.724949 6.845581 -7.154378 16.123630 0.493557 2.030542 0.015469 -0.006740 239395.000000 1 0 0
0.928649 -7.968819 1.070522 8.093854 -1.454784 1.438144 -0.002385 -0.002117 -22201.100000 1 0 0
-10.349151 -6.021319 -8.531578 14.702008 0.526943 2.189894 0.013232 -0.005366 -151374.000000 1 0 0
-6.703451 0.230781 3.034222 7.361794 -0.034414 1.145975 0.000938 -0.001808 838123.000000 1 0 0
10.757149 -7.916319 1.287422 13.417966 -0.634424 1.474701 0.011899 -0.003933 -548299.000000 1 0 0
6.312049 0.997381 10.565822 12.348009 0.156717 0.543952 0.005882 -0.000966 224900.000000 1 0 0
-12.948551 5.261081 1.956722 14.112856 -0.385931 1.431700 -0.000639 0.003414 445108.000000 1 0 0
2.072349 7.341081 3.513922 8.398438 1.295661 1.139111 -0.004760 0.001641 -100665.000000 1 0 0
10.269449 -9.432119 -0.807478 13.967049 -0.742923 1.628642 0.008515 -0.002244 837659.000000 1 0 0
6.758949 -11.645319 -9.067278 16.233064 -1.044913 2.163455 0.002995 -0.004040 -551793.000000 1 0 0
10.358349 3.593681 11.963822 16.227846 0.333942 0.741820 0.021025 -0.003624 -550973.000000 1 0 0
-11.059251 -3.217619 -1.981978 11.687101 0.283128 1.741207 0.000783 -0.002118 -1517030.000000 1 0 0
12.262649 0.912681 6.701522 14.004140 0.074291 1.071807 0.014840 -0.006464 -4089.760000 1 0 0
-9.506351 9.177981 3.076622 13.567301 -0.767825 1.342039 -0.000310 0.000192 438771.000000 1 0 0
-6.624551 7.644581 -8.747178 13.373011 -0.856762 2.283778 0.005820 -0.002768 -459394.000000 1 0 0
8.633749 5.528081 12.063422 15.831218 0.569517 0.704397 0.023749 -0.009492 -2161560.000000 1 0 0
1.337349 4.826481 -2.744878 5.711198 1.300492 2.072150 0.004415 -0.004323 802113.000000 1 0 0
1.556549 0.523381 9.505422 9.646233 0.324369 0.171074 0.002134 0.000545 602800.000000 1 0 0
2.569549 12.604981 -3.915778 13.446987 1.369700 1.866278 0.004540 -0.004417 470051.000000 1 0 0
2.082749 0.673181 13.011222 13.194048 0.312619 0.166666 0.002026 -0.005299 -280780.000000 1 0 0
-12.288751 -1.786019 0.831722 12.445683 0.144327 1.503918 -0.000201 -0.001670 40380.000000 1 0 0
3.177949 8.679081 -1.286278 9.331684 1.219797 1.709076 0.004624 -0.003715 -698839.000000 1 0 0
3.674349 -2.817119 -5.743978 7.377688 -0.654103 2.463165 -0.000563 -0.000758 -705755.000000 1 0 0
-7.871151 -7.126519 9.379622 14.167554 0.735789 0.847246 0.011939 -0.005687 -436114.000000 1 0 0
-7.111051 10.868781 -3.476978 13.445699 -0.991430 1.832363 0.014112 -0.000546 281358.000000 1 0 0
0.371349 0.514081 2.499822 2.579009 0.945224 0.248447 0.002938 0.001033 -1565040.000000 1 0 0
-7.247151 4.471981 -2.062778 8.762127 -0.552875 1.808447 0.008310 -0.001250 -1108430.000000 1 0 0
-7.122151 -4.050319 -5.800778 10.038881 0.517082 2.186865 0.011799 -0.006195 -273418.000000 1 0 0
2.951249 -6.073919 13.437022 15.038481 -1.118501 0.465696 0.004237 -0.003303 -1202070.000000 1 0 0
-5.616251 -0.464519 -11.533878 12.836993 0.082522 2.687108 0.011791 -0.006965 -1419280.000000 1 0 0
11.887949 2.434081 -0.562178 12.147598 0.201961 1.617092 0.006445 -0.001154 -910984.000000 1 0 0
6.184949 -10.912419 10.684422 16.476994 -1.055161 0.865257 0.006211 -0.000244 -77070.100000 1 0 0
-8.198851 6.322181 -10.438278 14.701999 -0.656873 2.360281 0.005727 -0.003378 633307.000000 1 0 0
2.844049 7.915681 11.148722 13.965695 1.225867 0.646340 -0.001372 -0.001959 968640.000000 1 0 0
-6.234251 -10.269319 -0.384378 12.019673 1.025191 1.602781 0.018693 -0.004366 -165861.000000 1 0 0
11.295949 4.297681 6.035022 13.508887 0.363551 1.107673 0.006422 -0.006369 83835.100000 1 0 0
-7.838951 10.645981 1.393422 13.293897 -0.936102 1.465787 0.001460 -0.001033 824243.000000 1 0 0
4.301449 -2.651819 -3.488878 6.140593 -0.552459 2.175072 -0.000223 -0.001037 -4659080.000000 1 0 0
6.431449 6.440881 6.225222 11.027324 0.786131 0.970936 0.004350 -0.001856 -6403110.000000 1 0 0
-0.294451 10.375981 -10.238778 14.580133 -1.542426 2.349338 0.004777 -0.000102 -191647.000000 1 0 0
13.933549 6.477981 -2.507478 15.569055 0.435192 1.732556 0.012771 0.001075 705271.000000 1 0 0
1.392649 9.549681 -6.206278 11.474048 1.425985 2.142300 0.001932 -0.001971 -2586800.000000 1 0 0
0.626949 7.370081 7.203222 10.324610 1.485934 0.798649 -0.004580 0.004009 68945.700000 1 0 0
12.259549 6.304981 1.893922 13.915325 0.475015 1.434269 0.006638 -0.002023 -1264150.000000 1 0 0
-6.958951 6.707281 -3.119578 10.156101 -0.766985 1.883007 0.007431 -0.002287 -280098.000000 1 0 0
1.026849 9.986681 11.126522 14.986251 1.468335 0.734078 -0.000776 0.001024 86719.300000 1 0 0
-3.715551 13.670081 -10.953978 17.907152 -1.305406 2.229016 0.009692 -0.004739 -112582.000000 1 0 0
-10.127951 -5.657919 -2.276978 11.822523 0.509455 1.764604 0.003890 -0.004692 -541181.000000 1 0 0
-4.035051 3.860581 -12.573778 13.758111 -0.763305 2.723629 0.009851 -0.005769 -664026.000000 1 0 0
-3.202751 8.537981 2.381322 9.424725 -1.211922 1.315360 -0.000858 0.006253 -3309160.000000 1 0 0
6.993449 8.805281 7.160922 13.331171 0.899581 1.003734 0.013803 -0.001486 772997.000000 1 0 0
-1.466251 -2.222919 -8.135178 8.559929 0.987698 2.825249 0.009692 -0.007576 -665282.000000 1 0 0
0.851749 -1.340319 4.846422 5.099974 -1.004694 0.316651 0.004424 0.000736 288222.000000 1 0 0
2.761749 -8.906419 -5.995278 11.085798 -1.270113 2.142193 -0.003204 0.000853 486194.000000 1 0 0
5.352649 4.070581 8.835722 11.103624 0.650175 0.650549 0.003317 -0.000535 104629.000000 1 0 0
6.066149 -7.630919 -2.790978 10.139953 -0.899146 1.849642 -0.001676 -0.002406 870530.000000 1 0 0
1.772749 2.246581 -8.320078 8.798492 0.902745 2.810308 0.004551 -0.003652 -94846.000000 1 0 0
-5.370151 10.916481 -0.632778 12.182303 -1.113625 1.622762 -0.000686 0.000311 728863.000000 1 0 0
-5.585351 3.130181 -3.542778 7.317476 -0.510813 2.076191 0.011477 -0.001136 -451965.000000 1 0 0
2.022949 13.720281 -6.287578 15.227347 1.424409 1.996447 -0.000643 -0.005219 570042.000000 1 0 0
-5.241151 -2.599819 2.666022 6.429338 0.460474 1.143222 0.001958 -0.003259 51627.700000 1 0 0
10.521149 -3.251219 -1.815778 11.160737 -0.299709 1.734216 0.006923 -0.001232 -174856.000000 1 0 0
2.391049 -3.313219 7.156822 8.241033 -0.945675 0.518754 -0.001320 0.000266 -2181710.000000 1 0 0
-2.904951 9.832581 -11.696978 15.554346 -1.283527 2.421898 0.013662 -0.002507 -2579050.000000 1 0 0
0.551949 -2.006419 9.331622 9.560833 -1.302345 0.219410 0.002513 -0.000800 800961.000000 1 0 0
9.492649 2.679981 4.871022 11.000888 0.275160 1.112095 0.006152 -0.003645 -410389.000000 1 0 0
13.444649 2.047381 -5.083178 14.518576 0.151121 1.928491 0.017186 -0.002278 -1623510.000000 1 0 0
-6.395251 3.808681 7.707422 10.714926 -0.537140 0.767979 -0.001187 -0.000162 -8252.070000 1 0 0
10.624049 0.108281 1.849722 10.784415 0.010192 1.398426 0.005581 -0.001145 2331040.000000 1 0 0
15.301949 6.563881 -4.658978 17.289889 0.405218 1.843631 0.016980 -0.002502 -927644.000000 1 0 0
8.087649 -5.050619 -9.259878 13.291507 -0.558229 2.341550 0.004517 0.000937 260114.000000 1 0 0
4.474449 5.678981 -2.215378 7.561708 0.903479 1.868131 0.002707 -0.003490 -353033.000000 1 0 0
-1.651651 -10.320619 1.482022 10.556491 1.412108 1.429941 0.008553 -0.003204 -1438970.000000 1 0 0
-2.968251 12.220581 -12.963678 18.061287 -1.332521 2.371377 0.019545 -0.003820 76257.800000 1 0 0
8.393549 4.341481 -9.668678 13.519743 0.477344 2.367639 0.003174 -0.002111 -1347020.000000 1 0 0
4.117549 7.661981 -8.933078 12.468362 1.077678 2.369510 0.001410 -0.002588 -3726680.000000 1 0 0
-1.702351 -5.075519 -2.501078 5.908831 1.247183 2.007857 0.011811 -0.005673 1005490.000000 1 0 0
-3.282451 -8.984019 7.174622 11.956683 1.220499 0.927231 0.008584 -0.005070 593142.000000 1 0 0
1.060249 7.229981 -1.511978 7.462093 1.425188 1.774830 0.002895 -0.004024 597925.000000 1 0 0
0.448549 -0.606419 -2.137778 2.266944 -0.933940 2.802395 0.008683 -0.006311 -793205.000000 1 0 0
4.267749 -6.771219 7.708122 11.112076 -1.008411 0.804224 -0.002282 -0.001525 -478824.000000 1 0 0
-13.951951 3.721781 6.007122 15.639505 -0.260687 1.176564 0.000848 0.003258 -1179850.000000 1 0 0
4.323849 6.422081 12.668322 14.846723 0.978230 0.548565 0.006496 -0.005394 -2703540.000000 1 0 0
8.339449 10.173281 -7.239078 15.014870 0.884134 2.073878 0.024431 -0.007934 352802.000000 1 0 0
12.638349 5.342081 9.369222 16.614693 0.399911 0.971681 0.034364 -0.009280 1076060.000000 1 0 0
7.662249 4.056681 0.347022 8.676817 0.486919 1.530792 0.002268 -0.001026 -2120080.000000 1 0 0
-10.880951 -7.599119 -0.974678 13.307580 0.609643 1.644104 0.008867 -0.005647 -2581600.000000 1 0 0
10.482849 6.807281 0.173722 12.500375 0.575934 1.556899 0.006013 -0.000812 -811532.000000 1 0 0
14.740149 3.597881 4.246722 15.755995 0.239406 1.297891 0.011303 -0.006088 243226.000000 1 0 0
2.157149 5.562981 8.160822 10.109355 1.200879 0.631311 -0.003073 0.002462 -729609.000000 1 0 0
4.216849 0.173681 11.701122 12.438980 0.041164 0.346162 0.005902 -0.001947 -3267.080000 1 0 0
-1.376651 -1.703219 -0.617978 2.275526 0.891036 1.845826 0.011001 -0.005472 -1214360.000000 1 0 0
2.952449 -5.304019 -9.484378 11.260684 -1.062867 2.572251 -0.002248 0.003332 1218200.000000 1 0 0
-3.956351 -5.423519 -1.294678 6.836919 0.940558 1.761312 0.014014 -0.006559 -234178.000000 1 0 0
-1.094051 -8.481319 8.527822 12.076980 1.442509 0.786790 0.006325 -0.002570 -363086.000000 1 0 0
3.813749 8.570781 -5.999978 11.135651 1.152132 2.139818 0.004839 -0.002633 -149621.000000 1 0 0
-14.314751 -1.859119 -2.752978 14.695146 0.129151 1.759249 0.003533 -0.002276 -1136120.000000 1 0 0
8.785349 -10.513519 -6.673178 15.239676 -0.874708 2.024038 0.000926 -0.002309 108420.000000 1 0 0
14.810949 6.096481 1.610622 16.097373 0.390483 1.470574 0.002013 0.000075 -1569730.000000 1 0 0
-5.936551 0.299681 -8.405078 10.294551 -0.050438 2.526048 0.011644 -0.008780 37251.200000 1 0 0
-8.111651 -4.486019 -12.989178 15.957506 0.505170 2.521777 0.016794 -0.007840 584235.000000 1 0 0
0.913249 -10.688219 12.030522 16.118483 -1.485559 0.728190 0.005469 -0.006220 -366106.000000 1 0 0
0.234449 11.729281 3.325422 12.193828 1.550811 1.294584 -0.003781 0.004021 -1036520.000000 1 0 0
5.168249 -13.295419 -3.615078 14.715561 -1.200048 1.819001 0.000021 -0.003566 679670.000000 1 0 0
-7.539551 1.534681 -6.965278 10.378592 -0.200807 2.306515 0.008545 -0.002294 562598.000000 1 0 0
1.491849 2.815581 4.038022 5.143805 1.083551 0.668058 0.001925 0.002009 -1269570.000000 1 0 0
17.269049 5.490581 2.081222 18.240012 0.307836 1.456445 0.006088 -0.005255 180016.000000 1 0 0
2.551649 -8.124919 -3.402678 9.170792 -1.266498 1.950919 -0.003015 -0.000691 346932.000000 1 0 0
-0.275251 -9.455319 -0.610178 9.478984 1.541694 1.635213 0.009651 -0.002431 -827118.000000 1 0 0
0.754849 11.886481 -5.576078 13.151079 1.507377 2.008655 0.001786 -0.001807 -1830230.000000 1 0 0
6.002649 -4.922819 7.793422 11.000153 -0.686882 0.783450 0.001646 -0.000665 -1159610.000000 1 0 0
-6.061051 -2.055619 -9.466778 11.427239 0.326978 2.547112 0.013553 -0.008549 -389147.000000 1 0 0
2.057449 -1.248519 11.312022 11.565195 -0.545425 0.209625 -0.000217 -0.000667 5616.730000 1 0 0
17.961149 2.303581 -5.753378 19.000282 0.127557 1.878431 0.042652 -0.002639 -1761650.000000 1 0 0
-8.857351 4.778481 7.795122 12.729905 -0.494741 0.911770 0.000664 -0.003303 -805653.000000 1 0 0
11.397249 -7.044919 -4.906278 14.268838 -0.553640 1.921806 0.017390 -0.007781 65605.400000 1 0 0
10.914549 0.590581 8.959222 14.133076 0.054057 0.884187 0.011980 -0.006117 -171098.000000 1 0 0
-8.544251 -7.515519 -1.422178 11.467774 0.721429 1.695132 0.012833 -0.005605 -789107.000000 1 0 0
10.317849 -10.385919 -3.186378 14.982601 -0.788686 1.785105 0.016772 -0.005193 703869.000000 1 0 0
7.638049 -13.892419 -3.722478 16.284837 -1.068107 1.801421 0.013161 -0.006253 -2083700.000000 1 0 0
1.893849 -1.167019 -11.538678 11.751157 -0.552257 2.951139 0.002189 -0.005677 287819.000000 1 0 0
-11.922551 -2.619019 -6.417678 13.791050 0.216235 2.054827 0.011196 -0.004018 -441920.000000 1 0 0
2.617149 -12.294319 -6.394578 14.102850 -1.361052 2.041400 -0.000052 0.000965 -19430.200000 1 0 0
-5.623251 1.450681 1.059022 5.903131 -0.252474 1.390420 0.005506 0.000236 481922.000000 1 0 0
0.139549 6.754881 -4.070778 7.887910 1.550140 2.113062 0.006804 -0.004015 671232.000000 1 0 0
5.432649 -11.688919 3.690422 13.407599 -1.135728 1.291948 -0.003461 -0.007708 -3529800.000000 1 0 0
-4.396751 -9.225719 1.105622 10.279480 1.126063 1.463032 0.014595 -0.003802 -543868.000000 1 0 0
7.146249 -6.287819 -4.571178 10.559413 -0.721585 2.018505 0.001843 -0.000663 -197692.000000 1 0 0
-6.987751 -6.009019 2.263022 9.489902 0.710234 1.330010 0.007997 -0.004383 -29435.400000 1 0 0
-6.109851 -0.753019 6.955322 9.288370 0.122628 0.724516 0.002331 -0.001197 -1236710.000000 1 0 0
4.156249 -4.983719 3.227222 7.247539 -0.875685 1.109304 -0.003430 -0.001330 -196262.000000 1 0 0
-2.508451 10.513381 -8.897678 13.999721 -1.336579 2.259531 0.006419 -0.001174 -39899.200000 1 0 0
-2.296551 -4.913519 2.742222 6.077548 1.133572 1.102681 0.005236 -0.001129 1465660.000000 1 0 0
15.190449 5.112281 6.373822 17.248501 0.324639 1.192294 0.025510 -0.011225 108374.000000 1 0 0
6.807649 0.402081 0.078022 6.819959 0.058995 1.559356 0.002880 -0.000944 3367280.000000 1 0 0
-9.666451 9.164981 0.418422 13.327124 -0.758775 1.539395 0.004649 -0.001831 -1790220.000000 1 0 0
7.134449 10.419381 -2.659278 12.904869 0.970393 1.778351 0.006688 -0.002252 814525.000000 1 0 0
1.686149 -4.314819 -5.326478 7.059187 -1.198263 2.425758 0.002122 -0.000329 12930.700000 1 0 0
0.904549 -8.170419 -7.727678 11.282329 -1.460535 2.325313 -0.000060 0.003379 1520000.000000 1 0 0
-10.464151 0.231981 -10.511878 14.834145 -0.022166 2.358347 0.014484 -0.003656 -4507600.000000 1 0 0
5.844549 -2.406319 0.526322 6.342408 -0.390569 1.487716 0.001628 -0.001820 73424.100000 1 0 0
-3.402051 5.265281 -1.225078 6.387328 -0.997147 1.763790 0.007060 -0.002928 907878.000000 1 0 0
-0.355651 4.500181 -5.176878 6.868638 -1.491930 2.424467 0.008858 -0.005266 -1665250.000000 1 0 0
4.015949 -9.744619 10.091322 14.591786 -1.179886 0.807128 -0.000141 -0.002500 -2187690.000000 1 0 0
7.363849 -13.447319 -0.783278 15.351553 -1.069792 1.621841 0.009442 -0.005560 489661.000000 1 0 0
13.060149 -0.095619 0.502522 13.070163 -0.007321 1.532339 0.008061 -0.002992 385072.000000 1 0 0
9.394049 2.431581 -0.678878 9.727365 0.253284 1.640644 0.004635 -0.000471 -1934960.000000 1 0 0
-0.754851 -5.747819 4.523322 7.353071 1.440215 0.908206 0.002056 -0.001004 984926.000000 1 0 0
11.431849 -3.759619 3.346122 12.490734 -0.317730 1.299596 0.014119 -0.005725 -1307630.000000 1 0 0
1.819549 -8.223419 11.780422 14.481495 -1.353040 0.620684 -0.001023 -0.001526 222722.000000 1 0 0
9.393749 -5.802719 -5.930578 12.533388 -0.553348 2.063696 0.006051 -0.005705 925610.000000 1 0 0
3.156749 6.219481 -0.202878 6.977691 1.101120 1.599876 0.000200 -0.001117 -1134140.000000 1 0 0
6.398549 -1.333919 11.560422 13.280215 -0.205528 0.514580 0.005592 -0.000656 215591.000000 1 0 0
-5.045851 -7.760519 -3.752278 9.988286 0.994284 1.955914 0.018847 -0.008319 -1340740.000000 1 0 0
-3.552851 -8.535319 -5.761278 10.893426 1.176358 2.128073 0.015969 -0.002477 -91064.900000 1 0 0
9.766149 5.385381 2.189622 11.365494 0.503943 1.376929 0.007774 -0.002889 -811851.000000 1 0 0
8.833149 -1.319419 0.348622 8.937949 -0.148275 1.531782 0.005163 -0.002661 1115850.000000 1 0 0
-3.834651 9.699381 9.191522 13.902037 -1.194305 0.848428 -0.000701 0.000897 261234.000000 1 0 0
-14.430851 -3.489619 -6.069778 16.039610 0.237262 1.958890 0.016792 -0.006187 475109.000000 1 0 0
10.560849 6.362481 -5.974878 13.700798 0.542226 2.022053 0.010108 -0.005503 -1768790.000000 1 0 0
-1.846751 4.520381 2.628422 5.545533 -1.182951 1.077001 0.001210 0.002202 490713.000000 1 0 0
6.982549 -3.703419 2.625922 8.328671 -0.487657 1.250037 0.004477 -0.004120 -1852590.000000 1 0 0
8.386449 -11.113519 -1.541278 14.007796 -0.924347 1.681050 0.008256 -0.003655 -1458670.000000 1 0 0
4.527349 0.465081 1.764422 4.881227 0.102368 1.200951 0.003912 0.000427 403603.000000 1 0 0
-10.819051 2.248281 3.863822 11.706227 -0.204892 1.234423 -0.005629 0.000035 104241.000000 1 0 0
-0.875951 -3.109219 4.477422 5.521036 1.296187 0.624980 0.004245 -0.000662 425780.000000 1 0 0
8.529749 -8.654619 -8.568178 14.868514 -0.792664 2.184945 0.008233 -0.000902 -637688.000000 1 0 0
12.102749 -4.753519 0.986022 13.040119 -0.374253 1.495110 0.011434 -0.002423 532952.000000 1 0 0
2.999449 4.872981 3.533422 6.725155 1.019038 1.017607 -0.002652 0.001101 -903937.000000 1 0 0
6.158449 7.537581 1.966222 9.930139 0.885756 1.371474 0.005689 -0.002222 -129144.000000 1 0 0
-1.709551 -1.331119 -10.265178 10.491345 0.661578 2.933576 0.010871 -0.007144 1406420.000000 1 0 0
-1.023151 -8.709919 5.966022 10.606740 1.453863 0.973421 0.000597 -0.003761 -317219.000000 1 0 0
-4.292251 -0.258319 2.163922 4.813804 0.060110 1.104564 0.004356 -0.000713 803904.000000 1 0 0
-8.518351 6.200981 -7.921878 13.182209 -0.629243 2.215488 0.003785 0.001091 -23182.600000 1 0 0
6.539849 11.272381 -9.337478 16.031990 1.045089 2.192509 0.012203 -0.008329 62543.100000 1 0 0
-11.094851 -5.750219 3.159522 12.889659 0.478163 1.323152 0.006351 -0.002127 1106000.000000 1 0 0
1.493149 -6.385119 3.082922 7.245940 -1.341076 1.131316 -0.001041 -0.001660 687384.000000 1 0 0
10.120449 2.211581 7.170322 12.598734 0.215144 0.965349 0.011331 -0.002856 -508487.000000 1 0 0
-4.054851 -2.446719 -10.662478 11.666906 0.542920 2.723606 0.010871 -0.011036 -3688400.000000 1 0 0
-8.295751 11.878481 5.876822 15.635052 -0.961155 1.185456 0.006725 -0.002188 36207.600000 1 0 0
6.878449 6.006681 -2.946478 9.595573 0.717844 1.882905 0.001996 -0.000448 -3069830.000000 1 0 0
3.944549 -9.942919 -2.310278 10.943422 -1.193121 1.783508 -0.006589 -0.003936 -2043460.000000 1 0 0
8.385649 -12.849419 -7.320378 17.000430 -0.992589 2.015953 0.016089 -0.005597 256127.000000 1 0 0
-1.147751 9.473781 3.632922 10.211170 -1.450234 1.207049 -0.004862 0.005048 -76872.300000 1 0 0
0.456149 -13.186919 4.771922 14.031184 -1.536219 1.223779 0.005093 -0.004332 -1122800.000000 1 0 0
-11.398951 -7.071419 -5.130678 14.361925 0.555254 1.936109 0.005034 -0.006192 155329.000000 1 0 0
3.535449 10.256181 -3.396978 11.367855 1.238838 1.874256 0.004393 -0.005177 -433582.000000 1 0 0
11.573949 -8.165719 -7.387578 15.975343 -0.614425 2.051537 0.036569 -0.010106 483717.000000 1 0 0
11.659549 -4.646119 -5.915778 13.875444 -0.379197 2.011249 0.016122 -0.007014 -1472000.000000 1 0 0
1.395749 -10.363619 -2.717878 10.804609 -1.436924 1.825076 -0.000455 -0.002180 -1260070.000000 1 0 0
2.418649 -12.119119 -3.931278 12.968340 -1.373811 1.878787 0.001219 -0.002729 -1190030.000000 1 0 0
-7.683951 -5.721119 7.286422 12.036039 0.640007 0.920548 0.005544 -0.001040 -3371340.000000 1 0 0
-7.218451 -1.001319 9.293122 11.809775 0.137837 0.665026 0.001619 0.000259 119085.000000 1 0 0
16.209049 2.697381 -7.555578 18.085793 0.164901 2.001778 0.051177 -0.004621 -540932.000000 1 0 0
-1.948451 6.344381 -5.515978 8.629812 -1.272825 2.264224 0.008460 -0.003241 -2338830.000000 1 0 0
7.724949 1.276481 8.433722 11.507906 0.163762 0.748275 0.005071 -0.002537 -837169.000000 1 0 0
7.889649 8.258381 -3.869378 12.059001 0.808229 1.897445 0.005352 -0.000081 305067.000000 1 0 0
7.998249 0.635381 3.920722 8.930160 0.079274 1.116263 0.002592 -0.001575 437609.000000 1 0 0
-6.997051 5.839581 5.338922 10.562363 -0.695472 1.040874 0.002288 -0.001422 49338.700000 1 0 0
-6.199051 -2.199019 -4.511478 7.976049 0.340887 2.171991 0.013646 -0.006735 -927298.000000 1 0 0
-15.209451 -2.313219 3.191222 15.711851 0.150934 1.366264 0.018185 -0.005430 -392286.000000 1 0 0
1.048549 1.248481 -10.526978 10.652485 0.872219 2.987936 0.006482 -0.007492 542102.000000 1 0 0
1.542449 -9.186819 9.481922 13.292239 -1.404450 0.776540 0.001470 -0.003834 -253449.000000 1 0 0
-0.005551 -6.734219 -1.070878 6.818835 1.569972 1.728496 0.004688 -0.000871 508923.000000 1 0 0
-0.418751 -10.248319 -8.268678 13.174765 1.529959 2.249282 0.005397 0.001454 -499348.000000 1 0 0
-4.331551 6.629681 3.828022 8.795951 -0.992065 1.120533 -0.000082 0.001921 -283884.000000 1 0 0
10.780849 -1.047119 -8.690078 13.886707 -0.096824 2.246933 0.016156 -0.004021 775611.000000 1 0 0
3.098249 -1.023519 6.320522 7.113068 -0.319067 0.476559 -0.001432 0.003658 699721.000000 1 0 0
1.961749 -12.339619 6.904722 14.275498 -1.413136 1.065946 0.001625 -0.003997 453713.000000 1 0 0
2.868249 -4.900619 -1.206878 5.805124 -1.041268 1.780223 0.004430 -0.001491 -1886900.000000 1 0 0
-1.013351 9.428381 -1.687978 9.631746 -1.463729 1.746958 0.001706 -0.003293 -322431.000000 1 0 0
4.583949 -2.608119 2.656322 5.905160 -0.517289 1.104221 0.001560 0.000772 -1735560.000000 1 0 0
17.865749 6.788881 -2.751578 19.309197 0.363142 1.713784 0.007294 0.009110 -423960.000000 1 0 0
-7.232251 3.468281 -5.473678 9.710591 -0.447160 2.169632 0.009386 -0.003054 209383.000000 1 0 0
-13.779751 -6.018819 2.359322 15.220845 0.411812 1.415163 0.002300 -0.003461 -577205.000000 1 0 0
6.695549 -5.989819 3.489822 9.637799 -0.729822 1.200279 0.001746 -0.004840 135097.000000 1 0 0
-4.593251 2.045281 3.452522 6.099265 -0.418922 0.969083 0.003289 -0.000081 1057730.000000 1 0 0
6.834449 -11.971419 -5.393378 14.802469 -1.052051 1.943738 0.005448 -0.002153 55354.600000 1 0 0
2.938649 -12.297419 3.428322 13.100212 -1.336230 1.306013 0.001803 -0.005547 -1118640.000000 1 0 0
3.292049 11.266781 -6.031578 13.196889 1.286519 2.045467 0.001243 -0.002885 63255.900000 1 0 0
-5.597551 -8.366919 6.398822 11.928236 0.981173 1.004579 0.009031 -0.003190 -1253480.000000 1 0 0
-3.982451 6.546581 6.392122 9.978821 -1.024278 0.875557 -0.001083 0.002531 333109.000000 1 0 0
4.379049 4.332881 -6.945478 9.283835 0.780099 2.416030 -0.001500 -0.000050 -613203.000000 1 0 0
-0.326751 -2.684619 1.641422 3.163575 1.449680 1.025291 0.005085 -0.003205 -886290.000000 1 0 0
-13.191251 -1.001219 6.651522 14.807237 0.075755 1.104918 0.011252 -0.000549 22158.700000 1 0 0
-0.584051 -9.237419 -5.911578 10.982612 1.507654 2.139176 0.004991 0.001077 219595.000000 1 0 0
2.039549 -1.606919 -3.865178 4.656345 -0.667306 2.550063 0.004825 -0.000819 -650582.000000 1 0 0
11.377449 -1.873219 1.173122 11.590147 -0.163179 1.469406 0.008815 -0.003848 1730030.000000 1 0 0
0.566749 -4.213819 -1.987278 4.693266 -1.437101 2.008026 0.006266 -0.002439 -1719780.000000 1 0 0
1.082849 -7.429719 -11.302078 13.568723 -1.426070 2.555215 -0.002528 0.004536 -148986.000000 1 0 0
-4.458451 4.056281 -10.071778 11.737628 -0.738201 2.602308 0.011079 -0.006256 381573.000000 1 0 0
-1.022751 5.763081 -2.088378 6.214535 -1.395159 1.913513 0.006843 -0.002985 -1317680.000000 1 0 0
-11.329851 1.684781 -3.798678 12.067890 -0.147621 1.891017 0.003515 0.000866 -33155.500000 1 0 0
-1.771651 -11.231219 4.138922 12.099987 1.414342 1.221688 0.010305 -0.003618 -538757.000000 1 0 0
-3.547451 -5.283719 -9.531178 11.460604 0.979529 2.552864 0.010552 -0.002326 -1521060.000000 1 0 0
-13.001751 -3.735019 -8.358878 15.901784 0.279738 2.124283 0.020225 -0.003431 82500.200000 1 0 0
11.410449 4.402981 0.561422 12.243357 0.368269 1.524925 0.007352 0.000571 522714.000000 1 0 0
-8.920851 -2.417019 -3.069478 9.738853 0.264588 1.891441 0.009172 -0.004080 -164030.000000 1 0 0
-2.532751 -6.070119 -6.354278 9.145382 1.175509 2.338948 0.009829 -0.003284 410770.000000 1 0 0
-0.071251 2.601081 -1.994278 3.278391 -1.543410 2.224726 0.008767 -0.005265 149621.000000 1 0 0
8.059049 6.024181 -5.208478 11.329928 0.641903 2.048465 0.002046 -0.001586 -1213580.000000 1 0 0
-9.904251 -1.054819 -1.049378 10.015389 0.106102 1.675766 0.002938 -0.003161 -207003.000000 1 0 0
6.122749 0.579881 -8.921278 10.835752 0.094428 2.538030 -0.003237 0.001472 463751.000000 1 0 0
-4.122851 2.528981 7.818122 9.193295 -0.550219 0.554022 0.000621 0.001576 -1275770.000000 1 0 0
-10.164051 -3.330219 1.452022 10.793825 0.316624 1.435864 0.000694 -0.002304 3769750.000000 1 0 0
-1.798351 -8.086919 -7.785178 11.368435 1.351979 2.325134 0.007291 -0.001691 466615.000000 1 0 0
-9.409951 -9.794219 4.197822 14.216033 0.805405 1.271040 0.009232 -0.007865 -552917.000000 1 0 0
-1.109651 -10.710719 7.502922 13.124201 1.467563 0.962237 0.008665 -0.006707 499061.000000 1 0 0
9.472649 3.793081 -3.811378 10.892435 0.380872 1.928272 0.001287 -0.000262 -894478.000000 1 0 0
12.900949 -0.735619 3.047822 13.276477 -0.056959 1.339165 0.009078 -0.004057 -324786.000000 1 0 0
6.567449 12.049081 -6.786078 15.308906 1.071755 2.030047 0.007589 -0.002341 55840.600000 1 0 0
-11.960751 -0.015219 -6.381278 13.556567 0.001272 2.060897 0.010402 -0.001662 694192.000000 1 0 0
-7.605951 -6.594919 -11.487878 15.274645 0.714323 2.422021 0.017947 -0.006308 -550533.000000 1 0 0
4.079549 6.187681 6.559122 9.897080 0.987910 0.846334 -0.001196 0.000319 -2325220.000000 1 0 0
-4.308351 -1.459319 -7.410178 8.694955 0.326589 2.591046 0.015534 -0.011093 -871184.000000 1 0 0
9.670749 9.255581 0.797622 13.409898 0.763466 1.511281 0.011632 -0.002965 -1787910.000000 1 0 0
-8.887751 3.741881 4.867522 10.802155 -0.398491 1.103352 0.000337 -0.001816 637891.000000 1 0 0
-7.037751 7.880981 -12.092078 16.057963 -0.841860 2.423447 0.006455 -0.006685 -672836.000000 1 0 0
11.136449 -3.660319 7.265822 13.791686 -0.317556 1.015934 0.016815 -0.006385 1507090.000000 1 0 0
12.020349 6.879081 6.457422 15.280996 0.519792 1.134508 0.017889 -0.009064 215447.000000 1 0 0
-9.729151 -0.895419 -14.924478 17.838111 0.091776 2.561957 0.007665 0.000095 -40501.400000 1 0 0
1.761949 -13.142619 11.989122 17.876575 -1.437527 0.835697 0.010108 -0.005721 397046.000000 1 0 0
2.952049 3.080381 13.062822 13.741931 0.806669 0.315694 0.004277 -0.006404 -460833.000000 1 0 0
-2.516351 -1.293519 11.010422 11.368140 0.474821 0.251528 0.005440 -0.001034 -915478.000000 1 0 0
2.494849 -10.208519 -8.123878 13.282903 -1.331106 2.228883 -0.004603 0.004437 -1352500.000000 1 0 0
13.917349 3.661681 -7.541178 16.247150 0.257271 2.053475 0.022554 -0.006770 -2617720.000000 1 0 0
7.430549 -1.549119 4.994022 9.085873 -0.205536 0.988855 0.003111 -0.000425 460143.000000 1 0 0
-1.137751 8.712581 10.144222 13.420462 -1.440944 0.713803 -0.000621 0.000944 35594.200000 1 0 0
-12.284551 -4.695519 0.927822 13.184041 0.365094 1.500363 0.003001 -0.004050 254194.000000 1 0 0
-4.908151 4.821281 -5.325678 8.700434 -0.776470 2.229531 0.012612 -0.003502 5140.170000 1 0 0
-11.197151 0.229681 2.066522 11.388567 -0.020510 1.388330 -0.006083 0.000842 -3260160.000000 1 0 0
-1.316851 2.161281 -4.146778 4.858086 -1.023573 2.593620 0.013584 -0.007917 962486.000000 1 0 0
3.160649 -9.908019 13.122622 16.744006 -1.262002 0.670163 0.007006 -0.001835 -1211090.000000 1 0 0
8.914849 4.597281 -1.580778 10.154230 0.476119 1.727109 0.002062 -0.001858 -1806390.000000 1 0 0
4.085149 2.294381 3.623822 5.923235 0.511736 0.912465 -0.001988 0.000059 663880.000000 1 0 0
-5.551351 -3.299719 7.479622 9.881821 0.536291 0.712229 0.002937 -0.002272 -429049.000000 1 0 0
1.855449 -5.807019 7.708022 9.827398 -1.261530 0.669165 -0.000858 -0.001026 -1267540.000000 1 0 0
-5.871651 -6.160719 -9.731778 12.928196 0.809418 2.423035 0.017066 -0.006197 -452881.000000 1 0 0
-11.743551 -5.876519 5.498322 14.236432 0.463971 1.174272 0.011247 -0.006265 -317485.000000 1 0 0
10.621049 6.236781 4.475922 13.104885 0.530962 1.222235 0.006069 -0.004369 -433328.000000 1 0 0
1.405549 -3.770219 0.485122 4.052834 -1.213953 1.450809 0.009179 -0.002116 -891301.000000 1 0 0
8.861149 4.374081 6.854622 12.026570 0.458534 0.964343 0.004761 -0.001076 -601195.000000 1 0 0
-7.842451 12.080481 3.473622 14.815806 -0.994995 1.334140 0.004775 -0.004977 -195154.000000 1 0 0
-6.223651 13.091081 -6.942978 16.072187 -1.127012 2.017491 0.012398 -0.007408 544256.000000 1 0 0
4.529649 -6.894619 -0.935378 8.302314 -0.989528 1.683701 0.000438 -0.002760 -1317140.000000 1 0 0
-1.939351 -8.191219 11.092522 13.924841 1.338317 0.649147 0.005211 -0.006924 -310676.000000 1 0 0
11.593549 8.896581 -5.843578 15.738709 0.654528 1.951191 0.025619 -0.006649 436675.000000 1 0 0
-3.326051 -2.982719 -1.931578 4.867260 0.731030 1.978880 0.016141 -0.006445 -1389590.000000 1 0 0
-2.078751 5.963281 4.743522 7.898287 -1.235377 0.926575 -0.000840 0.003478 -630447.000000 1 0 0
0.303249 -11.505019 -5.619378 12.807608 -1.544444 2.025007 0.001350 -0.002807 447980.000000 1 0 0
-8.978751 6.216981 -1.563278 11.032346 -0.605614 1.712974 0.005781 -0.000226 -751461.000000 1 0 0
2.849149 -0.062619 3.859822 4.797895 -0.021974 0.635993 0.000036 0.001428 486363.000000 1 0 0
-10.065951 3.877781 -1.020578 10.835227 -0.367716 1.665127 0.004141 0.001042 -298886.000000 1 0 0
6.643649 5.573781 13.576622 16.109928 0.698052 0.568427 0.025227 -0.008054 364848.000000 1 0 0
-8.792051 -1.653219 5.651322 10.581622 0.185865 1.007390 -0.002995 -0.001411 -23891.400000 1 0 0
13.030349 -1.816919 -1.477478 13.239114 -0.138544 1.682629 0.012491 -0.004114 -1289220.000000 1 0 0
5.164549 -5.532819 5.471122 9.339048 -0.819811 0.944889 -0.001738 -0.003719 -79037.800000 1 0 0
-9.030851 -1.237119 3.174022 9.652002 0.136141 1.235715 -0.002370 -0.001723 351704.000000 1 0 0
1.928949 5.507481 5.522322 8.034254 1.233906 0.812966 -0.000825 0.001309 -548578.000000 1 0 0
9.271549 3.113081 -7.492078 12.320070 0.323939 2.224486 0.002091 -0.001398 -896982.000000 1 0 0
2.290749 -2.346319 -1.411478 3.570016 -0.797381 1.977267 0.005912 -0.002020 -176450.000000 1 0 0
-6.353251 0.225981 -3.995378 7.508523 -0.035554 2.131890 0.007869 -0.001688 -1571140.000000 1 0 0
-4.184551 4.249181 5.017022 7.793364 -0.793061 0.871400 0.003109 0.001646 47213.600000 1 0 0
-6.391651 1.869881 -12.396678 14.072217 -0.284609 2.648626 0.007830 -0.006280 -1761170.000000 1 0 0
-0.035951 3.143781 6.217322 6.967047 -1.559361 0.468183 0.000258 0.002088 1097850.000000 1 0 0
-8.874951 9.355781 -2.207078 13.083065 -0.811767 1.740304 0.008006 -0.001245 100857.000000 1 0 0
-1.332251 -3.730019 -6.078978 7.255474 1.227748 2.564124 0.008382 -0.004319 584404.000000 1 0 0
-3.310751 7.023181 -3.047778 8.341169 -1.130287 1.944848 0.005718 -0.001568 737072.000000 1 0 0
7.017549 -0.283619 -4.298778 8.234436 -0.040394 2.120048 0.001180 0.001602 -106056.000000 1 0 0
-5.194951 -10.851919 6.938822 13.888805 1.124323 1.047661 0.009449 -0.007329 757222.000000 1 0 0
9.744149 8.394881 -1.571978 12.957376 0.711150 1.692415 0.006290 0.000385 191281.000000 1 0 0
13.599449 4.597381 -4.335278 14.995852 0.325995 1.864081 0.009080 -0.002585 659141.000000 1 0 0
4.668649 1.070781 -6.936878 8.429895 0.225456 2.537275 -0.001440 -0.000551 -2789100.000000 1 0 0
8.972549 -4.770719 3.509222 10.750862 -0.488686 1.238290 0.008246 -0.005293 -426410.000000 1 0 0
-8.793751 -3.331019 -0.735778 9.432238 0.362093 1.648882 0.005394 -0.003425 325411.000000 1 0 0
-8.543551 -4.269319 -10.471278 14.172756 0.463418 2.402131 0.014441 -0.008262 64304.800000 1 0 0
10.562749 -1.063119 10.761122 15.116337 -0.100310 0.778615 0.020675 -0.003947 -187165.000000 1 0 0
2.216349 -11.622119 9.838622 15.387798 -1.382358 0.877107 0.002654 -0.006564 666690.000000 1 0 0
-6.382251 -10.641519 2.085422 12.582688 1.030561 1.404291 0.015891 -0.005260 -1120620.000000 1 0 0
-3.656251 -1.541319 6.632122 7.728446 0.398951 0.539152 0.006552 -0.002036 -2437510.000000 1 0 0
4.673649 -7.542119 3.934622 9.706070 -1.016037 1.153405 -0.005090 -0.002226 172485.000000 1 0 0
11.598149 -9.484719 -5.333278 15.903484 -0.685488 1.912776 0.029319 -0.008864 527818.000000 1 0 0
11.432549 1.281381 11.401322 16.196767 0.111616 0.789887 0.020553 -0.003064 -234672.000000 1 0 0
-10.228451 -3.466619 4.415422 11.667673 0.326769 1.182695 0.004300 -0.001275 1352990.000000 1 0 0
2.004249 8.852681 8.992222 12.776816 1.348150 0.790075 -0.002406 -0.000098 -11681.100000 1 0 0
6.585049 8.740881 4.143722 11.701979 0.925147 1.208840 0.009026 -0.003752 -403801.000000 1 0 0
-4.320151 3.508981 0.305322 5.574036 -0.682157 1.515993 0.007994 -0.001408 -1975850.000000 1 0 0
4.830449 6.984081 4.200722 9.474001 0.965705 1.111414 0.003331 -0.000279 -1713030.000000 1 0 0
-8.188351 13.260281 1.114322 15.624528 -1.017602 1.499417 0.005289 -0.000997 250414.000000 1 0 0
8.800349 8.138481 -9.162778 15.087661 0.746344 2.223457 0.014672 -0.008703 -936206.000000 1 0 0
7.068649 1.998281 6.009722 9.490821 0.275507 0.885097 0.000241 0.000261 -325752.000000 1 0 0
11.565249 -6.207419 3.076722 13.481589 -0.492598 1.340551 0.015080 -0.003138 42111.800000 1 0 0
11.403149 4.700581 -2.051978 12.503515 0.390994 1.735654 0.008617 -0.000018 1510710.000000 1 0 0
-3.954851 14.241481 -5.915478 15.920224 -1.299922 1.951496 0.000242 -0.000526 75460.500000 1 0 0
7.144549 -2.958219 6.957022 10.401721 -0.392562 0.838157 0.003295 -0.002068 -1111160.000000 1 0 0
-8.145551 -0.577619 0.907122 8.216235 0.070794 1.460165 -0.000359 -0.001897 501812.000000 1 0 0
-3.380151 1.063781 10.492122 11.074370 -0.304901 0.325710 0.003401 0.001563 -3381.430000 1 0 0
7.089549 -1.214219 -1.812678 7.417670 -0.169623 1.817669 0.004285 -0.000195 -1542530.000000 1 0 0
-7.876151 5.315881 2.946822 9.948674 -0.593704 1.270082 -0.001239 0.002168 875223.000000 1 0 0
9.523949 -2.127019 2.915822 10.184882 -0.219728 1.280445 0.007905 -0.004428 -1406150.000000 1 0 0
0.224949 3.442681 1.504622 3.763847 1.505548 1.159545 0.002960 0.001062 -1469640.000000 1 0 0
-7.545751 -3.138819 3.969122 9.085399 0.394199 1.118682 0.000396 -0.002045 271076.000000 1 0 0
-2.213351 8.382781 -6.798578 11.017741 -1.312652 2.235794 0.005655 -0.002938 -631605.000000 1 0 0
4.491349 9.808681 7.323822 13.039203 1.141396 0.974385 -0.001493 0.004626 -1099370.000000 1 0 0
-11.816951 -3.235519 6.867722 14.045445 0.267253 1.059894 0.013184 -0.005920 -1297290.000000 1 0 0
-4.871751 2.233681 -5.775278 7.878904 -0.429897 2.393526 0.013918 -0.007148 -878719.000000 1 0 0
-2.761251 2.872781 -1.912678 4.419923 -0.805191 2.018326 0.011054 -0.003111 958948.000000 1 0 0
2.459949 5.261081 11.516522 12.898085 1.133424 0.467082 0.002540 -0.005931 439786.000000 1 0 0
-0.698051 1.624881 4.589922 4.918831 -1.165035 0.367767 0.005246 0.001068 -99530.500000 1 0 0
5.140449 1.641281 7.718922 9.418056 0.309057 0.610105 -0.000548 0.004201 1395730.000000 1 0 0
3.395249 -8.132219 1.837222 9.002004 -1.175290 1.365262 -0.001749 -0.002158 282208.000000 1 0 0
5.063649 6.486781 -4.714878 9.484142 0.907991 2.091088 0.004825 -0.002993 -2408510.000000 1 0 0
-4.135451 2.743881 -8.036678 9.445583 -0.585809 2.588378 0.016379 -0.008769 -516752.000000 1 0 0
-8.778151 -2.111919 -12.830278 15.688600 0.236101 2.528390 0.016223 -0.010653 -1809930.000000 1 0 0
-7.710751 8.175081 1.286122 11.311134 -0.814619 1.456846 -0.000424 0.001416 -1477780.000000 1 0 0
7.270849 0.950881 -6.563178 9.840972 0.130042 2.300869 -0.000784 0.001181 1496830.000000 1 0 0
8.854549 8.821781 5.491222 13.652120 0.783544 1.156851 0.016805 -0.005078 236574.000000 1 0 0
9.424249 -1.015119 -1.356378 9.575317 -0.107300 1.712928 0.004211 -0.001070 1622880.000000 1 0 0
5.376249 0.125981 4.277722 6.871596 0.023429 0.898835 -0.002984 0.002188 525436.000000 1 0 0
-4.221351 -7.298819 -7.952178 11.590069 1.046440 2.326938 0.017072 -0.007721 -190800.000000 1 0 0
-2.183251 7.333181 -0.594378 7.674335 -1.281431 1.648324 0.003518 -0.001535 170158.000000 1 0 0
13.384449 -3.338919 -7.438678 15.672453 -0.244473 2.065344 0.023615 -0.006963 1301380.000000 1 0 0
-4.770051 -5.082819 1.550922 7.140994 0.817131 1.351866 0.009956 -0.003518 1599030.000000 1 0 0
-8.957351 1.282181 2.482522 9.383019 -0.142177 1.303032 -0.003491 -0.000380 -728111.000000 1 0 0
-1.056351 11.237781 10.220522 15.227038 -1.477072 0.834958 0.002093 -0.001240 368958.000000 1 0 0
-8.490451 0.215281 7.305722 11.203021 -0.025350 0.860418 -0.003220 -0.002192 -579747.000000 1 0 0
-6.061851 12.898981 -2.059578 14.400403 -1.131478 1.714311 0.000969 0.000429 128545.000000 1 0 0
-13.077751 -0.835019 3.240922 13.499200 0.063764 1.328345 0.003871 -0.002429 511963.000000 1 0 0
-6.731251 12.926881 8.739022 16.993661 -1.090713 1.030661 0.016541 -0.007599 -27388.100000 1 0 0
-8.022351 0.954981 -14.105678 16.255469 -0.118483 2.621453 0.011803 -0.005653 -356355.000000 1 0 0
7.286049 2.931681 3.685722 8.675587 0.382547 1.132013 0.001858 0.000493 -178220.000000 1 0 0
-1.725551 0.594781 -2.046078 2.741847 -0.331937 2.413193 0.013012 -0.006427 723549.000000 1 0 0
-6.212351 9.693981 -10.292578 15.443566 -1.000883 2.300252 0.004973 -0.002115 -183277.000000 1 0 0
-10.023351 13.715681 5.168122 17.756603 -0.939700 1.275468 0.006923 -0.008639 -77643.300000 1 0 0
-5.630451 8.313581 2.528922 10.354374 -0.975496 1.324063 -0.002319 0.002151 -1898300.000000 1 0 0
-2.394651 -10.810419 -1.189978 11.136227 1.352803 1.677857 0.011256 -0.003497 249893.000000 1 0 0
-2.236651 -12.527619 8.823822 15.485595 1.394120 0.964524 0.009154 -0.004857 73016.800000 1 0 0
-14.717451 -6.511219 -1.632378 16.176031 0.416528 1.671882 0.005955 -0.005781 448738.000000 1 0 0
-2.741751 -9.299719 3.304122 10.243007 1.284098 1.242349 0.007851 -0.003935 -1271990.000000 1 0 0
4.680049 -2.620119 7.512022 9.230295 -0.510373 0.620059 -0.001302 0.001943 -1788930.000000 1 0 0
-15.008151 -1.255519 -0.345478 15.064537 0.083461 1.593732 0.004657 -0.004307 -40623.800000 1 0 0
5.475949 8.794781 -2.883178 10.753926 1.013899 1.842222 0.005252 -0.001971 -91227.600000 1 0 0
-5.678351 -5.758019 8.503822 11.735137 0.792364 0.760276 0.006922 -0.002904 -1508410.000000 1 0 0
3.453249 3.699781 6.973022 8.616052 0.819850 0.627827 -0.001556 0.001315 629367.000000 1 0 0
3.417449 2.467881 9.415522 10.316077 0.625432 0.420944 0.003211 -0.001538 191766.000000 1 0 0
9.887549 -3.357719 5.226222 11.676956 -0.327371 1.106753 0.013261 -0.006204 -190631.000000 1 0 0
6.584949 10.028381 -5.109978 13.040010 0.989774 1.973459 0.003413 -0.003020 -88491.000000 1 0 0
-4.550851 12.015181 -8.462678 15.384790 -1.208735 2.153242 0.005040 -0.004544 -846579.000000 1 0 0
-3.381751 -7.287319 2.181622 8.324706 1.136312 1.305634 0.009137 -0.005301 742669.000000 1 0 0
-7.388651 -4.085319 1.151622 8.521046 0.505081 1.435231 0.008897 -0.003782 3143760.000000 1 0 0
-2.050751 -3.934019 -10.902778 11.770839 1.090265 2.755144 0.012236 -0.006808 -812880.000000 1 0 0
-5.304351 8.243681 -4.426278 10.755759 -0.999043 1.994924 0.007356 -0.004029 -1213140.000000 1 0 0
-11.008551 -3.380719 -10.112578 15.325850 0.297957 2.291399 0.019303 -0.002045 -1932090.000000 1 0 0
4.706549 -11.375219 -7.551878 14.442232 -1.178489 2.121049 0.000572 -0.004247 -1140510.000000 1 0 0
-9.304551 -3.950619 7.292522 12.464467 0.401523 0.945836 0.003765 -0.001637 -410093.000000 1 0 0
-5.788551 -9.740419 -5.145278 12.444154 1.034592 1.997058 0.019473 -0.007242 -436058.000000 1 0 0
4.686349 4.466681 -9.485678 11.484389 0.761403 2.542704 -0.001534 0.000895 -75711.200000 1 0 0
-3.386851 -7.211319 -14.064278 16.164090 1.131716 2.626189 0.007553 -0.002428 108210.000000 1 0 0
0.609549 -0.826919 -8.739878 8.800046 -0.935581 3.024588 0.007715 -0.008540 -225422.000000 1 0 0
-7.842351 2.045981 -2.863078 8.595681 -0.255200 1.910368 0.007926 -0.002305 -154716.000000 1 0 0
-2.394951 7.494181 -12.556178 14.817427 -1.261479 2.581852 0.011974 -0.003877 -19935.600000 1 0 0
-9.786351 8.923481 7.495022 15.217639 -0.739312 1.055811 0.000922 -0.002727 -369347.000000 1 0 0
-10.693451 -3.144619 -14.290378 18.123284 0.286007 2.479178 0.024915 -0.004797 69203.300000 1 0 0
-3.145551 4.905281 7.897822 9.814880 -1.000591 0.635663 0.000065 0.001450 -496989.000000 1 0 0
8.723449 -2.269019 -3.506378 9.671696 -0.254467 1.941788 0.004076 0.000376 -4604410.000000 1 0 0
2.032449 -8.510919 -1.089678 8.817822 -1.336382 1.694690 -0.000947 -0.001493 -439993.000000 1 0 0
-13.504951 -2.938419 5.022422 14.705194 0.214242 1.222241 0.020355 -0.007799 427677.000000 1 0 0
7.155449 2.665181 -1.975678 7.887138 0.356550 1.823986 -0.000532 -0.001288 1404400.000000 1 0 0
-11.022151 4.419381 8.796122 14.778041 -0.381329 0.933262 0.003291 -0.003740 -2254010.000000 1 0 0
-1.711651 -2.539919 7.910422 8.482671 0.977803 0.369414 0.004238 -0.001171 -676007.000000 1 0 0
2.927549 11.965881 -9.973878 15.850272 1.330852 2.251392 -0.002298 -0.003183 867128.000000 1 0 0
3.549749 -5.011019 -7.105978 9.391802 -0.954463 2.428917 -0.004180 0.001500 395624.000000 1 0 0
8.358849 -13.668919 -9.729878 18.745139 -1.021948 2.116549 0.028734 -0.001002 350081.000000 1 0 0
-6.314051 -5.814419 -0.471778 8.596353 0.744226 1.625705 0.016498 -0.005447 -419543.000000 1 0 0
-1.235251 -4.010419 9.867222 10.722470 1.272007 0.402109 0.002733 -0.000944 -236288.000000 1 0 0
2.774549 3.351781 1.749522 4.689711 0.879342 1.188496 -0.000409 0.000841 -446106.000000 1 0 0
-9.142351 13.394081 7.705822 17.954489 -0.971867 1.127205 0.015738 -0.015391 -137818.000000 1 0 0
4.070949 -11.178219 0.036222 11.896491 -1.221540 1.567752 -0.002546 -0.002895 39631.800000 1 0 0
-12.436951 -1.391119 -9.076178 15.459300 0.111391 2.198270 0.017570 -0.003730 297783.000000 1 0 0
-4.267351 0.843081 -13.507178 14.190311 -0.195054 2.830041 0.012425 -0.006517 154830.000000 1 0 0
3.901249 -3.121919 4.977922 7.053072 -0.674885 0.787272 -0.002850 0.003777 -420133.000000 1 0 0
1.705249 -1.190119 1.054722 2.331672 -0.609325 1.101403 0.004301 -0.000557 356668.000000 1 0 0
8.106449 -8.876719 7.403522 14.118172 -0.830722 1.018790 0.008085 -0.004372 -659984.000000 1 0 0
-0.038351 2.250381 -6.444278 6.826010 -1.553756 2.805580 0.008372 -0.007770 -243551.000000 1 0 0
-3.723251 -9.723519 -3.330678 10.931735 1.205107 1.880398 0.018681 -0.003416 389269.000000 1 0 0
-9.542751 2.272281 -5.397978 11.196675 -0.233763 2.073853 0.003823 0.000902 -1045390.000000 1 0 0
9.075349 -7.520919 5.359222 12.947874 -0.692009 1.144054 0.007968 -0.006507 369447.000000 1 0 0
-5.573551 -4.381419 4.588622 8.444924 0.666213 0.996364 0.003746 -0.003538 -159660.000000 1 0 0
-0.145251 -12.533219 10.386922 16.278538 1.559208 0.878801 0.012275 -0.007811 -862853.000000 1 0 0
-14.198251 -8.271319 3.198422 16.740219 0.527496 1.378552 0.006419 -0.008864 -939606.000000 1 0 0
10.808449 -1.175619 -3.671578 11.475414 -0.108343 1.896475 0.011166 -0.001835 -41161.300000 1 0 0
-13.655951 2.924481 2.765222 14.236714 -0.210968 1.375322 -0.001565 0.002109 -661884.000000 1 0 0
-6.264251 6.130981 0.988522 8.820825 -0.774647 1.458494 0.002669 0.002210 1268160.000000 1 0 0
7.198349 -6.908719 -0.619278 9.996506 -0.764870 1.632785 0.003085 -0.004759 11537.700000 1 0 0
-6.844951 7.878181 10.075822 14.506594 -0.855461 0.802977 -0.001448 -0.000938 222844.000000 1 0 0
-12.697451 -5.136019 -1.952778 13.835364 0.384373 1.712413 0.001478 -0.006492 -2492570.000000 1 0 0
-9.426851 -5.580819 0.250122 10.957811 0.534526 1.547968 0.006145 -0.004274 -1042300.000000 1 0 0
-1.818351 1.840981 2.184822 3.386600 -0.791582 0.869593 0.006731 0.000375 208331.000000 1 0 0
-7.114351 7.364281 7.551722 12.723016 -0.802658 0.935336 0.000852 -0.001608 -320953.000000 1 0 0
5.513249 7.293281 -0.428778 9.152689 0.923507 1.617661 0.005442 -0.002177 -1963420.000000 1 0 0
0.005849 -4.056119 7.485822 8.514086 -1.569354 0.496557 0.002274 -0.000704 -500068.000000 1 0 0
6.374749 0.769481 13.089822 14.579882 0.120127 0.456047 0.013006 -0.004346 647332.000000 1 0 0
5.794249 6.145681 -7.901278 11.566024 0.814823 2.322858 -0.003666 -0.000163 -761018.000000 1 0 0
10.020649 5.357181 9.002722 14.496958 0.490954 0.900769 0.010772 -0.007612 -1611000.000000 1 0 0
-1.232551 -4.915519 -8.472778 9.872663 1.325115 2.602561 0.010843 -0.004365 479232.000000 1 0 0
9.923249 -3.489619 -8.006678 13.219501 -0.338154 2.221406 0.014762 -0.008557 466860.000000 1 0 0
8.321749 -5.661019 1.277922 10.145527 -0.597360 1.444502 0.007511 -0.004243 1333570.000000 1 0 0
15.716249 3.226981 -5.034178 16.815375 0.202513 1.874839 0.018871 -0.000309 -397169.000000 1 0 0
-7.001251 3.623181 1.017922 7.948655 -0.477553 1.442382 0.002341 -0.000992 881603.000000 1 0 0
-1.848151 3.811181 0.222522 4.241495 -1.119278 1.518309 0.008119 -0.003549 -1688080.000000 1 0 0
-2.586951 10.175881 6.983922 12.610156 -1.321846 0.983835 -0.002827 0.005122 770775.000000 1 0 0
5.446149 -5.765219 -8.784478 11.834920 -0.813850 2.407219 -0.002225 0.001482 358436.000000 1 0 0
-1.228151 -0.922219 6.246022 6.432078 0.644077 0.241109 0.004609 -0.000069 273288.000000 1 0 0
-5.661451 4.954881 -7.823978 10.854377 -0.718941 2.375771 0.010540 -0.003747 -50069.300000 1 0 0
6.778249 -1.235719 2.516622 7.335192 -0.180326 1.220593 0.002882 -0.001230 -1555750.000000 1 0 0
8.770949 7.476481 3.211822 11.964243 0.705894 1.299011 0.011459 -0.004899 -94425.000000 1 0 0
-5.409151 -4.954219 -7.613578 10.572122 0.741528 2.374824 0.017035 -0.011305 372484.000000 1 0 0
-2.252951 7.820181 -10.084978 12.959082 -1.290298 2.462618 0.010125 -0.004005 112317.000000 1 0 0
-2.864851 -2.242819 1.556822 3.957436 0.664211 1.166479 0.006264 -0.000636 -957159.000000 1 0 0
5.905149 -2.061219 -9.265678 11.179097 -0.335832 2.547827 -0.001765 0.003727 1215610.000000 1 0 0
1.130249 -7.614619 5.169822 9.272914 -1.423441 0.979403 0.000176 -0.002217 344775.000000 1 0 0
1.731249 11.786981 1.194522 11.973180 1.424961 1.470864 -0.000151 -0.000450 248055.000000 1 0 0
-1.130951 7.037981 2.488722 7.550230 -1.411466 1.234893 -0.001240 0.002557 571865.000000 1 0 0
8.698149 7.904381 -6.698078 13.527797 0.737625 2.088786 0.012468 -0.005104 125172.000000 1 0 0
3.718349 -11.092719 5.558622 12.952714 -1.247361 1.127248 0.002091 -0.003281 -311333.000000 1 0 0
8.087549 -7.130319 12.393122 16.426788 -0.722579 0.715987 0.019483 -0.002281 486051.000000 1 0 0
-8.858851 -0.026119 -3.928478 9.690865 0.002948 1.988190 0.005747 -0.002994 -492262.000000 1 0 0
-3.292251 -4.980319 11.186722 12.680112 0.986691 0.490227 0.006165 -0.002973 -4292.150000 1 0 0
-8.225651 0.219081 -11.568178 14.196199 -0.026628 2.523316 0.011467 -0.007286 -2645050.000000 1 0 0
1.444249 -4.997819 5.369822 7.476566 -1.289484 0.769555 0.000007 -0.000831 -837521.000000 1 0 0
6.681249 3.754481 -7.867578 10.983351 0.511966 2.369308 -0.002577 0.000962 -1483860.000000 1 0 0
16.346249 4.111681 -1.384678 16.912218 0.246424 1.652763 0.000957 0.004679 -157477.000000 1 0 0
7.880549 7.475381 0.017922 10.862076 0.759019 1.569146 0.007118 -0.004200 495305.000000 1 0 0
5.527949 -10.351819 13.979722 18.252424 -1.080314 0.698340 0.010180 0.000134 460455.000000 1 0 0
-5.247151 -9.208519 8.981122 13.892083 1.052868 0.867819 0.009385 -0.008204 574173.000000 1 0 0
-12.656051 -3.202419 2.833522 13.358891 0.247833 1.357065 0.003645 -0.004433 95467.500000 1 0 0
-2.195651 -1.373619 -5.779678 6.333434 0.559037 2.720313 0.014182 -0.009508 -1804990.000000 1 0 0
-2.542551 12.924581 -4.391578 13.885076 -1.376555 1.892602 -0.000038 0.002452 263514.000000 1 0 0
3.964049 -0.462519 -5.016178 6.410121 -0.116153 2.469532 0.000739 0.000066 -501162.000000 1 0 0
-8.847051 3.818281 -7.376478 12.135156 -0.407438 2.224159 0.007404 0.000069 251377.000000 1 0 0
-4.618751 7.909081 -11.255278 14.510952 -1.042239 2.458525 0.010103 -0.003325 -1644610.000000 1 0 0
-10.127851 -6.425019 7.416122 14.101528 0.565324 1.017013 0.007702 -0.003408 -1201550.000000 1 0 0
8.073249 5.233881 4.222322 10.507087 0.575179 1.157255 0.005017 -0.002184 698808.000000 1 0 0
-6.725051 -7.553219 4.010222 10.879306 0.843335 1.193283 0.009873 -0.003391 -521711.000000 1 0 0
-4.170551 11.987681 8.146922 15.082120 -1.235991 1.000156 0.005452 -0.004474 644658.000000 1 0 0
-7.330251 9.872281 -7.835578 14.580494 -0.932107 2.138149 0.009863 -0.005122 873537.000000 1 0 0
13.182949 5.369281 4.550722 14.944176 0.386775 1.261367 0.003751 -0.005731 764787.000000 1 0 0
5.403749 4.051681 -3.729278 7.715189 0.643367 2.075295 0.000242 -0.000870 493635.000000 1 0 0
-2.917151 -4.262419 5.128822 7.278928 0.970625 0.788920 0.005901 -0.002211 -2626030.000000 1 0 0
12.396749 -2.295719 -5.338978 13.691399 -0.183113 1.971375 0.013321 -0.005659 -1322890.000000 1 0 0
-5.188351 9.813081 7.059922 13.155153 -1.084439 1.004316 -0.002452 0.002938 -520506.000000 1 0 0
1.873049 3.776081 -0.573278 4.253910 1.110330 1.705973 0.000614 -0.001872 740983.000000 1 0 0
-0.103251 9.654181 7.694322 12.345706 -1.560102 0.897919 -0.002702 0.003748 -1478020.000000 1 0 0
-5.703751 2.197081 5.839322 8.453261 -0.367682 0.808233 0.001397 -0.000557 758448.000000 1 0 0
8.943749 1.015881 10.718922 13.997069 0.113101 0.698516 0.016647 -0.003498 -545872.000000 1 0 0
0.378649 -2.881519 -10.230378 10.635185 -1.440139 2.864801 0.005006 -0.004586 -1998180.000000 1 0 0
1.197949 10.673381 -2.730678 11.082092 1.459027 1.819765 0.002586 -0.003780 -421586.000000 1 0 0
2.276649 -4.251719 11.666822 12.624380 -1.079180 0.391992 -0.000217 -0.000166 -493496.000000 1 0 0
6.484449 -2.916219 9.460222 11.834197 -0.422625 0.644505 0.004031 -0.001317 272053.000000 1 0 0
-10.666151 -8.278319 5.705122 14.657617 0.660016 1.171005 0.009087 -0.006072 -1865750.000000 1 0 0
-2.956351 0.759481 -6.839078 7.489313 -0.251461 2.721812 0.016672 -0.010199 1058130.000000 1 0 0
11.028949 2.678481 -5.213978 12.489898 0.238247 2.001440 0.008781 -0.002253 -2725070.000000 1 0 0
-1.951951 -4.105019 0.019422 4.545511 1.126937 1.566524 0.009758 -0.004642 1196740.000000 1 0 0
-1.290051 -6.365919 -10.623578 12.451890 1.370854 2.592829 0.008266 -0.000469 1215260.000000 1 0 0
0.384349 6.761181 -6.639678 9.484019 1.514011 2.346321 0.005560 -0.001267 -2688120.000000 1 0 0
1.981349 3.895481 -6.248678 7.625385 1.100271 2.531260 0.002899 -0.003490 -2340740.000000 1 0 0
1.597049 -14.768119 6.468422 16.201493 -1.463073 1.160099 0.011378 -0.003800 -301556.000000 1 0 0
-1.678351 5.365281 -10.565378 11.967887 -1.267623 2.652609 0.011188 -0.004566 46149.800000 1 0 0
13.679649 4.262281 -0.845078 14.353188 0.302045 1.629708 0.010485 -0.001005 -1193330.000000 1 0 0
-2.437751 3.312181 -6.142578 7.392188 -0.936318 2.551619 0.015030 -0.007577 149447.000000 1 0 0
5.741349 7.825081 14.247722 17.239274 0.937802 0.597990 0.018055 -0.009704 454744.000000 1 0 0
15.933349 0.730181 -5.748278 16.954276 0.045795 1.916699 0.022856 -0.003054 102740.000000 1 0 0
6.244549 -8.227119 10.517822 14.741250 -0.921547 0.776321 -0.000106 0.002268 704853.000000 1 0 0
-0.027651 -5.904919 -6.301578 8.635897 1.566114 2.388673 0.004633 -0.001291 -886648.000000 1 0 0
8.644749 5.553381 -7.618178 12.790949 0.571014 2.208798 0.004452 -0.004037 -556357.000000 1 0 0
-16.027651 -0.855719 5.316022 16.907925 0.053340 1.250961 0.027086 -0.011407 94447.000000 1 0 0
-0.204851 3.981081 -12.247078 12.879515 -1.519386 2.826914 0.007379 -0.006067 278487.000000 1 0 0
-11.253151 3.584581 5.924922 13.213150 -0.308378 1.105810 0.000063 0.000602 925821.000000 1 0 0
4.991249 -9.788419 -9.642578 14.618653 -1.099249 2.291093 -0.009135 0.003909 -113284.000000 1 0 0
1.527249 11.029981 -11.769278 16.202126 1.433208 2.383870 0.002723 -0.000646 -1879120.000000 1 0 0
5.904749 2.461681 1.219922 6.512614 0.394989 1.382366 0.003860 -0.000774 -208413.000000 1 0 0
5.588149 4.621381 4.855922 8.727231 0.690987 0.980737 -0.001434 -0.000242 160018.000000 1 0 0
0.290049 -1.503319 -6.265778 6.450122 -1.380199 2.901939 0.008829 -0.003847 883098.000000 1 0 0
12.687349 6.923581 -4.640878 15.180335 0.499542 1.881487 0.013748 -0.003633 -934000.000000 1 0 0
7.479549 3.302681 12.724222 15.124721 0.415814 0.571138 0.014080 -0.004492 -44422.400000 1 0 0
-2.495951 -0.259119 8.579622 8.939062 0.103445 0.284543 0.001962 0.000838 389876.000000 1 0 0
2.434349 -15.291319 13.241322 20.373588 -1.412923 0.863309 0.020046 -0.007720 314909.000000 1 0 0
18.922349 4.442081 -1.984478 19.537798 0.230578 1.672543 0.010242 -0.000705 939931.000000 1 0 0
-0.382451 -13.228019 7.254122 15.091356 1.541892 1.069366 0.005813 -0.006370 -1985750.000000 1 0 0
4.360649 1.661881 -0.628278 4.708699 0.364115 1.704625 0.003829 -0.003295 307970.000000 1 0 0
2.667349 -0.479719 -7.354278 7.837748 -0.177946 2.788522 0.001370 -0.001523 -504567.000000 1 0 0
7.185849 -11.261719 0.963022 13.393661 -1.002848 1.498833 0.000838 -0.001927 53058.700000 1 0 0
-11.959451 -7.331019 1.364622 14.093775 0.549916 1.473820 0.006634 -0.002981 -334544.000000 1 0 0
0.167749 -7.045719 10.147222 12.354611 -1.546992 0.607056 0.001533 -0.004010 -2678610.000000 1 0 0
-4.662651 -7.164619 10.577022 13.599466 0.993867 0.679714 0.010513 -0.002737 -911307.000000 1 0 0
11.863649 0.705081 -1.701078 12.005706 0.059362 1.712964 0.007541 -0.002240 386102.000000 1 0 0
6.507549 -9.569619 -7.492178 13.786172 -0.973605 2.145345 -0.004471 -0.000613 -1109860.000000 1 0 0
-10.911451 4.884181 3.632222 12.494320 -0.420873 1.275828 -0.004432 0.000338 -527329.000000 1 0 0
5.992449 -9.054119 2.089222 11.056734 -0.986137 1.380699 -0.001941 -0.005481 3278070.000000 1 0 0
11.579949 -1.434019 5.741322 13.004400 -0.123209 1.113537 0.015555 -0.009624 984185.000000 1 0 0
-6.536051 3.595381 4.037822 8.482378 -0.502908 1.074667 -0.001311 0.001619 -2097870.000000 1 0 0
9.516649 6.322181 -3.210878 11.867869 0.586382 1.844763 0.005230 -0.000720 -589995.000000 1 0 0
-2.246351 6.542481 10.885622 12.897555 -1.240059 0.566086 -0.001185 -0.000054 -150142.000000 1 0 0
1.833549 9.778081 2.820622 10.340633 1.385433 1.294525 -0.005015 0.001727 -120421.000000 1 0 0
2.879249 6.157081 -5.620378 8.819772 1.133377 2.261718 0.000478 -0.002026 -2685080.000000 1 0 0
11.749949 0.130581 -5.810878 13.108953 0.011113 2.030046 0.013058 -0.004358 33121.300000 1 0 0
-2.668851 -12.484819 6.289822 14.232193 1.360198 1.113033 0.008724 -0.004743 420869.000000 1 0 0
10.967249 1.894281 -2.844278 11.487331 0.171034 1.821000 0.009048 -0.001934 264011.000000 1 0 0
-8.843851 5.436981 0.802122 10.412390 -0.551213 1.493685 -0.000981 0.000632 -892498.000000 1 0 0
1.208249 -10.174819 5.592722 11.673274 -1.452601 1.071162 0.000149 -0.004734 830118.000000 1 0 0
9.401949 -5.577619 -1.106678 10.987776 -0.535435 1.671686 0.009687 -0.002451 -230153.000000 1 0 0
-7.805251 8.600181 -4.515178 12.460814 -0.833816 1.941585 0.008981 -0.003799 -899909.000000 1 0 0
-7.574851 -0.204819 -1.639878 7.753033 0.027033 1.783920 0.004483 -0.001808 -1598540.000000 1 0 0
4.145449 8.882181 2.707922 10.169107 1.134129 1.301255 0.002990 -0.003043 458345.000000 1 0 0
-1.295051 -10.460119 -3.696878 11.169519 1.447615 1.908137 0.011886 -0.000493 79798.200000 1 0 0
3.172649 7.824281 -3.687078 9.213014 1.185568 1.982535 0.005323 -0.004655 -736201.000000 1 0 0
-4.246251 1.641381 -11.042578 11.944175 -0.368857 2.750560 0.011368 -0.007449 -439303.000000 1 0 0
1.377249 2.909681 10.927422 11.391734 1.128709 0.286491 0.000952 -0.001353 426211.000000 1 0 0
2.263849 5.535181 -8.109278 10.075894 1.182562 2.506168 0.001504 -0.001140 513275.000000 1 0 0
15.628149 6.060381 4.046522 17.243596 0.369933 1.333919 0.015227 -0.005583 88563.800000 1 0 0
-4.407251 9.152581 4.673122 11.181756 -1.122033 1.139638 -0.002478 0.003631 -592040.000000 1 0 0
-0.968851 -8.046119 -12.541678 14.932260 1.450961 2.567904 0.001099 0.003082 -780521.000000 1 0 0
14.212649 -4.219019 -5.286278 15.739894 -0.288564 1.913306 0.023511 -0.002012 864827.000000 1 0 0
-6.085051 -6.352119 -5.586378 10.420407 0.806868 2.136606 0.020077 -0.006389 573899.000000 1 0 0
-8.885651 2.676781 -12.325578 15.428539 -0.292601 2.496230 0.012882 -0.004573 -1056170.000000 1 0 0
10.728049 5.640481 13.606222 18.221837 0.484050 0.727711 0.047590 -0.006520 715816.000000 1 0 0
-0.428051 10.899581 5.511522 12.221333 -1.531544 1.102938 -0.003551 0.008666 309022.000000 1 0 0
0.242049 11.276781 -0.576378 11.294096 1.549335 1.621852 -0.000314 -0.002227 -174279.000000 1 0 0
-1.470551 -0.508419 3.781122 4.088752 0.332869 0.390387 0.005912 0.000787 288953.000000 1 0 0
-4.845251 6.691481 8.901922 12.144818 -0.944083 0.748102 -0.001638 0.000841 -847570.000000 1 0 0
3.483249 -8.716619 -11.421278 14.783709 -1.190626 2.453657 -0.006154 0.004298 234725.000000 1 0 0
6.725049 -3.801319 12.011222 14.280958 -0.514474 0.571546 0.013068 -0.003235 -509594.000000 1 0 0
-2.505751 -1.851719 -12.515878 12.897862 0.636416 2.897611 0.006893 -0.008721 1013560.000000 1 0 0
-16.154651 -4.957319 5.334522 17.720183 0.297744 1.265011 0.033583 -0.013042 -67574.900000 1 0 0
-8.876951 7.291181 5.778322 12.858872 -0.687631 1.104742 -0.000306 0.000422 -5689680.000000 1 0 0
-12.839051 1.444481 6.075622 14.277287 -0.112036 1.131233 -0.001129 -0.002142 491685.000000 1 0 0
-3.435651 3.558681 10.077722 11.226237 -0.802986 0.456289 0.000791 0.001215 618815.000000 1 0 0
2.052649 -12.213619 -1.118378 12.435297 -1.404290 1.660854 0.004311 -0.005317 -2673700.000000 1 0 0
10.171149 -5.132219 -3.588478 11.944418 -0.467310 1.875941 0.016659 -0.001881 1089680.000000 1 0 0
2.924349 -13.373019 1.040222 13.728492 -1.355510 1.494953 0.000065 -0.004855 492165.000000 1 0 0
9.955849 -1.565219 -6.167978 11.815786 -0.155940 2.120004 0.012750 -0.001974 13356.200000 1 0 0
11.991849 -5.279919 -1.611978 13.201532 -0.414752 1.693207 0.014213 -0.001573 -958412.000000 1 0 0
1.495749 0.970081 5.915622 6.178423 0.575361 0.292712 0.002178 0.001534 237564.000000 1 0 0
-10.840451 11.689881 6.574122 17.244935 -0.823082 1.179680 0.011817 -0.005898 -450651.000000 1 0 0
4.835249 -13.990419 2.916622 15.087019 -1.238036 1.376252 0.003093 -0.007576 -3214290.000000 1 0 0
5.218649 -3.323919 -1.704978 6.417919 -0.567133 1.839684 0.002794 -0.001177 -1302360.000000 1 0 0
1.960149 -2.861919 -7.579478 8.335541 -0.970272 2.712387 0.000791 0.000931 -561986.000000 1 0 0
-2.918051 14.740381 -8.778678 17.402846 -1.375360 2.099529 0.011771 -0.008128 -1685440.000000 1 0 0
-2.279351 6.004281 -8.127878 10.359017 -1.207981 2.472877 0.012299 -0.005502 -70654.900000 1 0 0
2.562749 -3.518819 -11.360378 12.165852 -0.941330 2.775665 0.001015 0.001965 -1878070.000000 1 0 0
14.549849 2.726281 -2.775378 15.060991 0.185227 1.756131 0.009317 0.002464 569049.000000 1 0 0
-3.497051 13.126881 2.228522 13.766288 -1.310439 1.408198 -0.001851 0.003062 -1548640.000000 1 0 0
7.957349 -4.977219 13.970022 16.830140 -0.558949 0.591582 0.028794 -0.009350 -1514550.000000 1 0 0
-11.482851 7.247881 2.933622 13.892220 -0.563039 1.358024 -0.003822 -0.001651 1187730.000000 1 0 0
-2.258851 11.909281 4.103422 12.797322 -1.383351 1.244384 -0.002818 0.005420 -657268.000000 1 0 0
1.849549 1.435781 0.633122 2.425519 0.660114 1.306712 0.000390 -0.001115 -1192750.000000 1 0 0
-6.793151 8.644781 5.301422 12.205909 -0.904768 1.121499 0.000393 -0.000285 -991798.000000 1 0 0
-1.136151 9.133981 1.020722 9.260795 -1.447045 1.460352 -0.000867 0.002411 -86539.000000 1 0 0
4.800549 12.866981 -8.443578 16.121368 1.213701 2.122044 0.007308 -0.015765 -3219710.000000 1 0 0
8.901649 6.897181 7.125822 13.326207 0.659198 1.006617 0.005769 -0.005623 -1501900.000000 1 0 0
7.288549 -13.625019 2.952322 15.731506 -1.079590 1.382008 0.009440 -0.006748 -283576.000000 1 0 0
4.183249 -13.550419 -1.160878 14.228881 -1.271361 1.652473 -0.004594 0.002912 -3180940.000000 1 0 0
12.150749 -11.846719 -4.592578 17.580592 -0.772730 1.835093 0.037639 -0.006126 -479158.000000 1 0 0
3.102549 -0.097419 -1.961478 3.671879 -0.031389 2.134345 0.004130 -0.002132 716236.000000 1 0 0
-13.534951 -3.024219 -10.667278 17.496617 0.219827 2.226449 0.022261 -0.007769 217793.000000 1 0 0
-6.485351 13.725481 4.925922 15.959741 -1.129386 1.257026 0.005143 -0.006966 917211.000000 1 0 0
7.295149 -4.257419 -0.625378 8.469705 -0.528270 1.644701 0.000408 -0.000342 -933642.000000 1 0 0
11.779449 2.133081 -7.356578 14.050790 0.179144 2.121833 0.015590 -0.002490 342055.000000 1 0 0
-7.572251 -4.488119 9.693222 13.093538 0.535039 0.737271 0.010491 -0.001659 239164.000000 1 0 0
1.015349 2.873181 8.486122 9.016672 1.231106 0.344753 0.001505 0.001654 -1332520.000000 1 0 0
1.571149 8.062381 -8.699078 11.964300 1.378334 2.384865 0.002767 -0.003225 1318320.000000 1 0 0
-8.640151 -2.028619 -5.639478 10.515285 0.230613 2.136858 0.011905 -0.004280 876745.000000 1 0 0
6.701249 -0.395819 7.095322 9.767651 -0.058998 0.757712 0.001866 0.000403 457323.000000 1 0 0
-10.874951 6.513681 7.108622 14.533586 -0.539656 1.059719 -0.001640 0.000928 640810.000000 1 0 0
-5.990351 11.116681 4.902822 13.546312 -1.076545 1.200458 -0.003107 0.000664 119436.000000 1 0 0
6.112849 -1.224419 -6.935178 9.325386 -0.197686 2.409367 0.000121 0.001447 -557726.000000 1 0 0
4.480149 -5.742019 11.430122 13.553236 -0.908221 0.567309 0.003023 -0.002059 -1323190.000000 1 0 0
-9.055051 -7.410819 2.699822 12.008464 0.685871 1.344031 0.007615 -0.004132 -1726140.000000 1 0 0
-1.332251 12.642381 -9.377478 15.796892 -1.465804 2.206356 0.011833 -0.003741 682502.000000 1 0 0
-4.604451 9.220781 -2.311078 10.562427 -1.107664 1.791383 0.002138 -0.001967 802691.000000 1 0 0
-3.123351 9.665681 -0.286378 10.161827 -1.258249 1.598982 0.000001 -0.000032 -2515170.000000 1 0 0
-3.509251 10.675281 -6.351678 12.908148 -1.253197 2.085259 0.003278 0.000138 601506.000000 1 0 0
4.909149 -4.827119 0.411522 6.897113 -0.776973 1.511095 0.000561 -0.002693 -1127480.000000 1 0 0
-2.189051 2.905081 -10.993278 11.579448 -0.925043 2.822048 0.013178 -0.005943 -766170.000000 1 0 0
-3.548351 12.059681 -2.213178 12.764203 -1.284639 1.745067 -0.001887 0.002039 -852791.000000 1 0 0
-0.313151 0.318981 0.169522 0.478069 -0.794621 1.208314 0.006946 -0.001677 -1440600.000000 1 0 0
-4.880651 -1.759919 0.069522 5.188728 0.346079 1.557397 0.005942 -0.002082 219952.000000 1 0 0
2.553849 2.402081 -2.526178 4.321310 0.754784 2.195166 0.000666 -0.004045 903174.000000 1 0 0
5.981149 -9.766519 8.466322 14.242108 -1.021299 0.934206 0.002085 -0.000077 -614117.000000 1 0 0
-4.321651 -5.498819 6.633422 9.639292 0.904698 0.811840 0.004128 -0.003679 -2377.540000 1 0 0
-6.337351 5.269581 -12.167178 14.695943 -0.693662 2.546199 0.006253 -0.003969 841748.000000 1 0 0
-12.878551 3.017181 8.017122 15.467214 -0.230129 1.025899 0.005206 -0.001553 690090.000000 1 0 0
4.699249 -7.405519 -4.881278 10.037506 -1.005352 2.078651 -0.003628 0.000404 -639126.000000 1 0 0
-6.054351 2.459281 -1.127378 6.631305 -0.385840 1.741635 0.009251 -0.002345 -499452.000000 1 0 0
-6.916451 -2.734619 -14.573678 16.361770 0.376516 2.669713 0.016382 -0.007358 -63206.500000 1 0 0
2.716649 -6.126019 0.890422 6.760262 -1.153394 1.438698 0.000385 -0.001706 -620912.000000 1 0 0
4.841649 -7.857619 12.993822 15.938103 -1.018570 0.617605 0.007660 -0.000165 -92667.100000 1 0 0
-10.002551 -1.723819 8.058722 12.960153 0.170662 0.899748 0.005191 0.000265 -1118.650000 1 0 0
-4.400051 13.293981 -0.120878 14.003750 -1.251165 1.579428 -0.002437 0.003866 539759.000000 1 0 0
6.820349 2.326381 -4.483278 8.486990 0.328719 2.127338 -0.000541 0.000160 -998018.000000 1 0 0
5.234849 4.627981 -0.060478 6.987526 0.723945 1.579452 0.001920 -0.002113 -993436.000000 1 0 0
-5.853651 12.296681 1.794522 13.736590 -1.126504 1.439784 -0.002798 0.000489 -874820.000000 1 0 0
6.573149 -7.219419 6.457622 11.705861 -0.832220 0.986447 0.000086 -0.004152 -1629760.000000 1 0 0
-0.266951 4.967781 7.648022 9.123725 -1.517112 0.576718 -0.001298 0.003346 -1602150.000000 1 0 0
-5.767051 -3.500219 -1.546378 6.921105 0.545502 1.796128 0.013069 -0.004948 -490736.000000 1 0 0
2.334249 -6.600819 -5.216978 8.731345 -1.230891 2.211176 -0.000822 0.000930 -961076.000000 1 0 0
-14.547251 -4.899419 -3.775778 15.807698 0.324861 1.811985 0.006097 -0.008027 186377.000000 1 0 0
-12.508851 -5.166019 -6.394678 14.968333 0.391653 2.012205 0.010789 -0.010126 -897731.000000 1 0 0
-14.880551 -3.837819 -1.270878 15.419947 0.252408 1.653308 0.001698 -0.002982 595999.000000 1 0 0
11.925049 2.949481 8.574122 14.980714 0.242469 0.961435 0.015508 -0.008796 -1568430.000000 1 0 0
8.718449 -6.387519 7.642622 13.237123 -0.632300 0.955301 0.008268 -0.006409 143842.000000 1 0 0
-8.874551 -1.744319 -9.801878 13.337058 0.194079 2.396368 0.013288 -0.007579 -239149.000000 1 0 0
-8.878951 5.202281 -3.940578 11.019422 -0.529996 1.936496 0.007390 0.002321 -1386220.000000 1 0 0
-4.133251 -6.257019 4.019522 8.508267 0.987021 1.078756 0.008313 -0.002064 -1663430.000000 1 0 0
-0.144351 -9.263819 3.561422 9.925870 1.555215 1.203812 0.002503 -0.003264 54705.900000 1 0 0
7.930149 -10.347819 3.384822 13.469285 -0.916907 1.316774 0.003375 -0.007897 166419.000000 1 0 0
-0.010851 6.502681 9.584822 11.582478 -1.569128 0.596107 -0.003494 -0.000560 101294.000000 1 0 0
-0.051951 3.468381 -9.708278 10.309366 -1.555819 2.798429 0.008941 -0.005556 -615150.000000 1 0 0
4.476649 -3.101719 11.085722 12.351286 -0.605922 0.456647 0.000522 -0.001041 -1939520.000000 1 0 0
8.529449 -9.028419 1.268222 12.484880 -0.813809 1.469040 0.005317 -0.004575 -399319.000000 1 0 0
-0.278051 -0.241919 11.250222 11.256257 0.716020 0.032749 0.003157 -0.000153 -854033.000000 1 0 0
11.007849 6.080081 11.267122 16.884554 0.504638 0.840214 0.034969 -0.011248 364857.000000 1 0 0
-6.321051 -2.955719 -11.949778 13.837961 0.437393 2.613065 0.011599 -0.006893 1136910.000000 1 0 0
-1.635551 2.871681 8.322622 8.954754 -1.053072 0.377990 0.002080 0.001185 -925794.000000 1 0 0
-1.680751 13.450381 -6.890378 15.205755 -1.446481 2.041084 0.004630 -0.001339 398090.000000 1 0 0
7.740749 3.161181 9.822622 12.899464 0.387711 0.705210 0.007446 -0.001877 884330.000000 1 0 0
6.477149 8.552881 -8.077578 13.429539 0.922636 2.216147 0.004389 -0.003923 117820.000000 1 0 0
6.686649 -2.957819 -3.790278 8.235665 -0.416471 2.049048 0.000617 0.001276 -2357350.000000 1 0 0
2.010049 8.071781 0.943222 8.371596 1.326739 1.457887 0.000117 -0.001098 861970.000000 1 0 0
-17.599451 6.207881 6.362822 19.717098 -0.339106 1.242209 0.035360 -0.003148 70758.500000 1 0 0
-14.905851 3.018081 -10.302978 18.369664 -0.199775 2.166232 0.056670 -0.001875 -702581.000000 1 0 0
-18.521451 0.151381 -4.317478 19.018614 -0.008173 1.799806 0.044895 -0.005913 386577.000000 1 0 0
-13.073751 7.906381 0.101922 15.278881 -0.543907 1.564126 0.004019 0.001020 -1390040.000000 1 0 0
-12.783751 -4.381919 -12.739778 18.572222 0.330222 2.326717 0.036331 -0.004348 -130728.000000 1 0 0
-17.371851 -0.479819 -8.795878 19.477651 0.027613 2.039341 0.046589 -0.014207 -90342.900000 1 0 0
-16.740051 -2.186419 -2.110978 17.013699 0.129875 1.695192 0.021143 -0.006077 -981819.000000 1 0 0
-15.350351 4.043881 1.774122 15.972907 -0.257587 1.459496 0.008828 0.003798 -559484.000000 1 0 0
-13.182951 5.810081 4.457522 15.080343 -0.415116 1.270729 -0.000848 0.000279 306424.000000 1 0 0
-10.235251 14.283881 2.585522 17.761603 -0.949043 1.424709 0.021319 -0.008302 68027.600000 1 0 0
-12.020551 2.439281 -6.274178 13.777121 -0.200207 2.043624 0.010107 0.002528 553514.000000 1 0 0
-15.841351 10.649081 3.878022 19.477946 -0.591846 1.370359 0.021990 -0.006408 -257038.000000 1 0 0
-12.822451 1.168581 -8.505278 15.431156 -0.090885 2.154569 0.018806 -0.000790 638952.000000 1 0 0
-12.275951 14.268481 4.051322 19.253616 -0.860322 1.358793 0.032587 -0.018844 -666693.000000 1 0 0
-10.449551 11.009381 -1.021478 15.213251 -0.811481 1.637991 0.010665 -0.006331 6218.530000 1 0 0
-16.927651 5.473581 8.791222 19.844169 -0.312740 1.111840 0.035715 -0.008258 -1823.990000 1 0 0
-11.871951 12.465681 -9.111278 19.476956 -0.809789 2.057594 0.026357 -0.016477 -320478.000000 1 0 0
-17.174551 -0.603419 3.130922 17.468027 0.035120 1.390585 0.026900 -0.003123 452656.000000 1 0 0
-13.544851 14.660081 -0.134878 19.959939 -0.824918 1.577554 0.049814 -0.020167 -44144.900000 1 0 0
-16.898751 4.748881 -10.266878 20.335399 -0.273954 2.100036 0.086116 -0.011842 1014390.000000 1 0 0
-11.903051 7.446281 -9.214678 16.794047 -0.559015 2.151589 0.014142 -0.000867 -201181.000000 1 0 0
-14.717451 13.454381 -2.076078 20.048288 -0.740594 1.674536 0.042023 -0.018755 647075.000000 1 0 0
-11.939951 10.486981 -5.434878 16.795151 -0.720702 1.900326 0.028982 -0.011087 596791.000000 1 0 0
-17.788751 2.898781 -0.901278 18.045911 -0.161536 1.620761 0.038475 -0.001955 -23479.700000 1 0 0
-9.381151 15.470681 0.547422 18.101040 -1.025697 1.540549 0.018662 -0.009741 -204740.000000 1 0 0
-8.214651 13.169581 -3.555978 15.923672 -1.013090 1.796009 0.013471 -0.003357 740451.000000 1 0 0
-17.788951 11.580181 2.378622 21.358961 -0.577061 1.459201 0.067485 -0.003938 -163227.000000 1 0 0
-8.156551 15.473381 -7.377078 18.983575 -1.085678 1.969911 0.043816 -0.028166 -175321.000000 1 0 0
-6.422851 15.062381 -5.450578 17.257959 -1.167726 1.892127 0.012817 -0.006599 -2105980.000000 1 0 0
-17.320151 5.220781 -0.062178 18.089999 -0.292767 1.574233 0.040315 0.002230 566764.000000 1 0 0
-5.545551 12.227481 -12.296878 18.206528 -1.145009 2.312317 0.007562 -0.007636 18853.600000 1 0 0
-11.095251 3.715181 -11.457378 16.376162 -0.323110 2.345686 0.011682 -0.005113 -16991.700000 1 0 0
-11.858151 10.988281 1.174622 16.209189 -0.747342 1.498266 0.011788 -0.005954 271397.000000 1 0 0
-12.890951 0.142281 -10.979878 16.933830 -0.011037 2.276276 0.015658 -0.007387 873153.000000 1 0 0
-14.144151 -2.120019 -12.961778 19.301792 0.148779 2.307071 0.045145 -0.012524 151706.000000 1 0 0
-18.870551 -2.278219 -3.617278 19.348712 0.120147 1.758855 0.037203 -0.007994 2505990.000000 1 0 0
-18.486751 4.917181 -5.103478 19.798589 -0.259965 1.831510 0.065392 -0.008679 113610.000000 1 0 0
-8.355151 15.429881 -2.211878 17.685649 -1.074509 1.696191 0.022595 -0.005515 -486770.000000 1 0 0
-16.149451 9.139581 -5.355378 19.313643 -0.514997 1.851763 0.039821 -0.005421 -456983.000000 1 0 0
-18.193751 1.587481 2.179922 18.392518 -0.087034 1.451995 0.041797 -0.008549 -462156.000000 1 0 0
-15.845351 -2.605819 -8.872478 18.346289 0.162994 2.075573 0.029231 -0.006151 271221.000000 1 0 0
-9.786851 10.485781 -7.198678 16.048521 -0.819861 2.035947 0.017952 -0.007453 256668.000000 1 0 0
-13.936451 11.863981 -7.531578 19.791498 -0.705243 1.961183 0.046235 -0.023303 374982.000000 1 0 0
-11.084851 6.550781 -3.875878 13.446527 -0.533751 1.863189 0.005525 0.002945 -2161060.000000 1 0 0
-13.080751 4.818381 -12.730878 18.878509 -0.352934 2.310892 0.046568 -0.013303 -284106.000000 1 0 0
-17.544751 9.081781 2.670922 19.935668 -0.477656 1.436415 0.033388 -0.009528 939560.000000 1 0 0
-13.498151 8.690381 -6.557878 17.341527 -0.572019 1.958605 0.023511 -0.002776 -455924.000000 1 0 0
-15.721651 7.044981 -3.897578 17.663329 -0.421279 1.793287 0.022378 0.002677 -1453260.000000 1 0 0
-14.862751 -0.240419 -9.265178 17.515784 0.016175 2.128173 0.034390 -0.009753 -810812.000000 1 0 0
-10.218151 5.764681 -6.108678 13.227173 -0.513650 2.050851 0.005846 0.001653 406022.000000 1 0 0
-12.721351 12.202081 -0.953078 17.653099 -0.764567 1.624812 0.016949 -0.009978 -903739.000000 1 0 0
-10.631451 3.481181 -14.015278 17.932495 -0.316439 2.467955 0.017865 -0.005083 164640.000000 1 0 0
-11.096751 6.257281 -12.060578 17.542776 -0.513440 2.328831 0.014021 -0.005248 -928242.000000 1 0 0
-5.973951 11.491481 -14.788978 19.658487 -1.091388 2.422335 0.020548 -0.017958 23169.600000 1 0 0
-15.469751 13.292181 3.356322 20.670273 -0.709832 1.407700 0.027821 -0.015847 81271.900000 1 0 0
-15.226551 11.061281 -3.145178 19.081193 -0.628256 1.736383 0.040079 -0.006814 606466.000000 1 0 0
-18.136751 7.692981 -4.720178 20.258425 -0.401163 1.805956 0.039010 -0.007438 -195765.000000 1 0 0
-4.120651 16.230581 -10.578878 19.807175 -1.322167 2.134231 0.023135 -0.010875 -151853.000000 1 0 0
-15.919251 4.480181 -4.512478 17.142259 -0.274336 1.837172 0.033596 0.002065 662129.000000 1 0 0
-18.710351 -1.756019 -6.160278 19.776498 0.093579 1.887562 0.040092 -0.011563 368199.000000 1 0 0
-10.818251 8.588281 -5.804278 14.982749 -0.670992 1.968603 0.013353 -0.000994 794865.000000 1 0 0
-11.385751 13.466181 -6.653378 18.847833 -0.868916 1.931577 0.033170 -0.011311 305785.000000 1 0 0
-9.467051 10.535281 -4.531978 14.871316 -0.838753 1.880468 0.007797 -0.003346 -803832.000000 1 0 0
-11.082451 6.258381 -0.211078 12.729203 -0.514067 1.587379 -0.001438 0.001551 -1256970.000000 1 0 0
-14.699551 9.302781 -1.340778 17.447528 -0.564233 1.647718 0.027372 -0.002034 1295600.000000 1 0 0
-18.732651 3.206581 4.893222 19.624933 -0.169533 1.318801 0.054755 -0.013266 440258.000000 1 0 0
-14.956551 12.634681 0.390822 19.582807 -0.701444 1.550838 0.034049 -0.023237 -55171.200000 1 0 0
-17.008451 2.621281 -8.866978 19.359283 -0.152913 2.046565 0.062147 -0.009107 -374631.000000 1 0 0
-9.151651 8.356281 -8.924478 15.271754 -0.740000 2.194910 0.009820 -0.001479 -2343590.000000 1 0 0
-17.686851 4.765881 -2.650278 18.508438 -0.263208 1.714483 0.033493 0.000117 1159450.000000 1 0 0
-13.534251 5.828681 -4.573978 15.429541 -0.406656 1.871762 0.017352 0.005255 -2126790.000000 1 0 0
-12.056351 9.647681 3.311922 15.792472 -0.674872 1.359513 0.003668 -0.000522 1083520.000000 1 0 0
-17.701951 2.620581 -4.074378 18.352849 -0.146972 1.794664 0.039665 -0.001578 1102490.000000 1 0 0
-11.256751 1.452881 -12.655478 16.999601 -0.128358 2.410518 0.020155 -0.002029 214249.000000 1 0 0
-11.066351 11.984981 3.448822 16.673280 -0.825229 1.362445 0.007683 -0.008810 523262.000000 1 0 0
-16.692151 13.172681 -3.767178 21.594885 -0.668093 1.746141 0.065540 -0.013638 100248.000000 1 0 0
-11.203551 4.098481 -4.417578 12.721325 -0.350698 1.925442 -0.000308 0.000942 -463050.000000 1 0 0
-11.135051 14.974581 -8.777678 20.622199 -0.931406 2.010468 0.040404 -0.027393 220093.000000 1 0 0
-15.578251 7.115781 -0.339678 17.129846 -0.428475 1.590627 0.030235 0.001326 -426133.000000 1 0 0
-12.878951 8.367981 -4.091378 15.894334 -0.576193 1.831138 0.015957 -0.000531 466764.000000 1 0 0
-19.296451 1.964081 -6.036578 20.313811 -0.101435 1.872520 0.062840 -0.008319 483009.000000 1 0 0
-12.760351 9.962681 -8.936678 18.491776 -0.662894 2.075192 0.025938 -0.014688 638072.000000 1 0 0
-16.944651 10.813681 -1.086078 20.130486 -0.568019 1.624774 0.049873 -0.010648 1231310.000000 1 0 0
-10.608051 6.540881 -14.556778 19.162820 -0.552533 2.433550 0.022177 -0.016959 -80867.100000 1 0 0
-14.220851 13.036581 -4.537678 19.818567 -0.741978 1.801806 0.050373 -0.007610 286945.000000 1 0 0
-18.039551 7.739481 -0.040278 19.629737 -0.405278 1.572848 0.053653 -0.003750 -521231.000000 1 0 0
-12.813251 6.634281 -2.148578 14.587991 -0.477760 1.718618 0.003188 0.004902 644070.000000 1 0 0
-13.785351 8.428181 -10.758778 19.411889 -0.548750 2.158242 0.027577 -0.007287 -355893.000000 1 0 0
-15.100851 1.398181 -0.876078 15.190725 -0.092326 1.628500 0.007062 0.002973 -350253.000000 1 0 0
-13.393451 2.738881 -2.390278 13.878020 -0.201713 1.743894 0.005798 0.002083 -155007.000000 1 0 0
-11.347651 9.373581 -10.933078 18.334814 -0.690417 2.209682 0.013946 -0.009160 -342272.000000 1 0 0
-15.380451 4.326881 -8.052978 17.892195 -0.274236 2.037655 0.036847 -0.002346 582659.000000 1 0 0
-18.380351 10.442581 4.681822 21.651888 -0.516662 1.352843 0.065706 -0.026216 704074.000000 1 0 0
-15.380151 6.224881 -6.288678 17.743891 -0.384581 1.933083 0.036201 0.004078 613692.000000 1 0 0
-7.868651 11.222181 -13.002278 18.892122 -0.959286 2.329854 -0.001017 -0.011649 -255075.000000 1 0 0
-16.876751 9.120581 -2.869078 19.396941 -0.495461 1.719255 0.040963 -0.006854 450258.000000 1 0 0
-20.826651 -0.969819 -4.784578 21.391169 0.046533 1.796375 0.068872 -0.016770 -483794.000000 1 0 0
-15.441651 4.330981 4.258522 16.593282 -0.273448 1.311251 0.014426 -0.000694 231055.000000 1 0 0
-6.988951 12.520081 -9.461878 17.179203 -1.061665 2.154089 0.012766 -0.008185 905108.000000 1 0 0
-17.139351 1.464581 5.958022 18.204405 -0.085244 1.237368 0.030858 -0.012503 6285.540000 1 0 0
-10.493851 14.248381 -3.063878 17.958971 -0.935995 1.742239 0.035058 -0.017649 42875.800000 1 0 0
-10.007151 8.478481 -13.020478 18.481357 -0.702891 2.352542 -0.000793 -0.009131 -227384.000000 1 0 0
-13.666351 11.616781 2.835522 18.159266 -0.704510 1.414007 0.024221 -0.009635 -1255340.000000 1 0 0
-16.753751 6.725281 1.933522 18.156434 -0.381729 1.464102 0.027115 0.001845 436562.000000 1 0 0
-9.388751 13.201381 -8.474378 18.282237 -0.952597 2.052772 0.023690 -0.019712 -235006.000000 1 0 0
-5.666751 9.733981 -12.925478 17.144400 -1.043597 2.424803 0.013677 -0.006401 -152772.000000 1 0 0
-15.841751 1.696881 3.211422 16.252806 -0.106708 1.371896 0.006428 -0.001053 -618508.000000 1 0 0
-18.728451 -5.026619 4.609322 19.931573 0.262215 1.337427 0.057858 -0.012801 52336.600000 1 0 0
-5.340251 14.429381 -9.018378 17.834138 -1.216332 2.100967 0.009835 -0.010341 -1224070.000000 1 0 0
-15.582551 -0.910419 -6.821778 17.034712 0.058359 1.982819 0.027167 -0.006387 781572.000000 1 0 0
-9.020551 10.832081 -9.566378 17.035842 -0.876395 2.167047 0.006002 -0.012362 273568.000000 1 0 0
-16.839951 1.295581 -6.033478 17.935031 -0.076784 1.913896 0.030457 -0.004160 -2150120.000000 1 0 0
-11.237451 8.606981 -1.505978 14.234760 -0.653612 1.676791 0.004070 -0.001180 -1611750.000000 1 0 0
-10.810851 11.006281 -12.979978 20.161661 -0.794356 2.270244 0.012969 -0.006537 -338938.000000 1 0 0
-14.168151 11.669281 -10.128578 20.964177 -0.688983 2.075031 0.050383 -0.024227 -114010.000000 1 0 0
-13.243351 5.666081 -7.771778 16.367387 -0.404277 2.065571 0.022177 0.004402 -2338300.000000 1 0 0
-8.871551 15.326481 -4.818578 18.352769 -1.046082 1.836464 0.028530 -0.015704 714988.000000 1 0 0
-8.694051 6.136281 -12.964178 16.772310 -0.614610 2.454276 0.006758 -0.007129 292464.000000 1 0 0
-16.290151 7.526481 4.401422 18.476727 -0.432810 1.330269 0.028856 0.000849 488842.000000 1 0 0
-12.789051 5.227081 -10.286678 17.224922 -0.387997 2.210799 0.028417 0.001590 330360.000000 1 0 0
-12.474351 9.012281 -13.305278 20.343576 -0.625645 2.283694 0.034672 -0.022578 -1357350.000000 1 0 0
-10.886051 5.006081 -8.502678 14.692260 -0.431025 2.187952 0.007146 0.002839 400197.000000 1 0 0
-17.814751 -4.382919 -2.602978 18.529728 0.241236 1.711738 0.022390 -0.011550 544285.000000 1 0 0
-8.938351 13.107681 -10.957478 19.281384 -0.972310 2.175226 0.032012 -0.023788 157855.000000 1 0 0
-14.991451 6.108081 6.169122 17.323693 -0.386902 1.206696 0.016885 -0.001100 -434410.000000 1 0 0
-16.419151 -3.167419 -4.448278 17.303417 0.190569 1.830791 0.017008 -0.007627 -1070640.000000 1 0 0
-11.148951 -1.133919 -12.658378 16.906195 0.101358 2.416959 0.018697 -0.003980 353420.000000 1 0 0
-15.379351 6.873181 -8.701078 18.959795 -0.420281 2.047578 0.031621 0.003401 64383.100000 1 0 0
-14.851651 9.385181 1.142222 17.605619 -0.563566 1.505872 0.026123 -0.005154 -147085.000000 1 0 0
-19.391551 5.176181 8.012822 21.610886 -0.260848 1.190951 0.066259 -0.021625 16633.800000 1 0 0
-16.314051 0.449581 0.953422 16.348070 -0.027551 1.512443 0.016576 -0.001022 -648842.000000 1 0 0
-17.421251 3.683381 7.080722 19.162565 -0.208362 1.192317 0.027196 -0.006209 671235.000000 1 0 0
-15.438751 3.993781 -1.458478 16.013509 -0.253136 1.662001 0.015217 0.002170 -593064.000000 1 0 0
-10.677051 13.220181 0.255622 16.995233 -0.891419 1.555755 0.018757 -0.017093 -393939.000000 1 0 0
-13.535051 3.305081 0.107122 13.933149 -0.239500 1.563108 0.003272 0.005407 -604549.000000 1 0 0
-15.179051 0.154681 -4.297978 15.776569 -0.010190 1.846712 0.019575 -0.000709 248040.000000 1 0 0
-18.665651 6.825381 3.435422 20.169147 -0.350562 1.399631 0.036438 -0.003709 370810.000000 1 0 0
-14.337051 1.299281 -6.327878 15.725177 -0.090377 1.984938 0.023144 -0.000049 -1022460.000000 1 0 0
-14.172651 12.054581 5.311522 19.349140 -0.704815 1.292717 0.025714 -0.011810 476484.000000 1 0 0
17.788449 5.322381 6.187722 19.571524 0.290727 1.249118 0.034825 -0.013744 306084.000000 1 0 0
18.450649 7.500081 -0.233878 19.918142 0.386092 1.582539 0.022015 -0.000027 644993.000000 1 0 0
16.853149 5.271781 8.589722 19.636793 0.303164 1.118058 0.049906 -0.009183 578598.000000 1 0 0
11.753149 12.161781 11.036922 20.195521 0.802483 0.992613 0.048507 -0.022001 569280.000000 1 0 0
-2.244251 16.383681 -0.646678 16.549316 -1.434663 1.609882 0.000749 0.000002 59070.500000 1 0 0
15.173649 12.527681 3.425522 19.972897 0.690169 1.398436 0.037660 -0.011194 441721.000000 1 0 0
13.618749 11.567981 6.636322 19.061199 0.704155 1.215190 0.036728 -0.016184 744296.000000 1 0 0
-0.659451 15.998481 8.660222 18.204003 -1.529600 1.075001 0.009483 -0.002680 101897.000000 1 0 0
0.735249 12.902081 9.383022 15.970141 1.513871 0.942787 0.000282 -0.003303 -1395010.000000 1 0 0
0.682149 15.457981 -3.831078 15.940253 1.526696 1.813512 0.006338 -0.003275 -422719.000000 1 0 0
5.311749 10.191281 13.598022 17.804019 1.090329 0.701676 0.024721 -0.016781 394183.000000 1 0 0
-1.462851 16.540181 -2.947378 16.864299 -1.482584 1.746469 0.003457 0.003235 -966617.000000 1 0 0
8.603349 9.964381 3.314322 13.575391 0.858568 1.324162 0.015555 -0.008151 699144.000000 1 0 0
12.633049 13.659981 -5.058378 19.281499 0.824436 1.836246 0.060998 -0.013795 446658.000000 1 0 0
2.449149 11.602081 7.786322 14.185677 1.362755 0.989765 0.001934 0.002157 550533.000000 1 0 0
-0.405951 14.937481 -8.727378 17.304921 -1.543626 2.099401 0.007093 -0.001599 -1176350.000000 1 0 0
2.494249 15.901681 0.217022 16.097573 1.415210 1.557314 0.014652 -0.010364 -308683.000000 1 0 0
1.861749 13.367281 5.326622 14.509418 1.432410 1.194891 0.001196 0.004556 542215.000000 1 0 0
17.429649 9.235281 -1.904478 19.816915 0.487250 1.667049 0.004666 0.004604 240628.000000 1 0 0
-7.241351 14.986281 7.136222 18.109430 -1.120680 1.165750 0.015985 -0.014800 -1417340.000000 1 0 0
8.507649 15.689781 -0.082378 17.848141 1.073929 1.575412 0.006541 -0.010899 -142174.000000 1 0 0
15.720049 10.427681 2.090922 18.979685 0.585694 1.460406 0.024365 -0.002139 400720.000000 1 0 0
14.363749 7.459981 8.692622 18.371997 0.479017 1.077939 0.036514 -0.016311 -1175340.000000 1 0 0
4.240949 18.299181 -1.895978 18.879630 1.343061 1.671390 0.025035 -0.019497 -1300630.000000 1 0 0
-0.333451 17.542681 -5.000378 18.244469 -1.551791 1.848426 0.012561 -0.001735 -175106.000000 1 0 0
1.355349 13.708181 -0.680178 13.791804 1.472245 1.620134 0.002976 -0.005067 35561.600000 1 0 0
10.300649 14.598481 4.209822 18.355970 0.956324 1.339393 0.021588 -0.013708 27875.100000 1 0 0
-1.643251 15.274081 -5.103978 16.187910 -1.463624 1.891565 0.003433 -0.003487 200042.000000 1 0 0
15.053249 8.707981 -6.131878 18.439880 0.524445 1.909785 0.045844 -0.012614 737178.000000 1 0 0
-2.307751 18.546281 0.768822 18.705116 -1.447001 1.529683 0.009836 -0.007461 214396.000000 1 0 0
-3.691551 19.176281 3.398922 19.821957 -1.380617 1.398472 0.016081 -0.017141 -146011.000000 1 0 0
1.796449 17.608681 -2.667678 17.899983 1.469127 1.720386 0.012221 -0.010635 108373.000000 1 0 0
2.888549 12.159281 3.319922 12.931114 1.337560 1.311150 0.001418 0.001172 529577.000000 1 0 0
-2.554851 16.193681 1.869122 16.500188 -1.414318 1.457274 0.005275 -0.004836 -838047.000000 1 0 0
11.965349 12.848681 -2.683278 17.761142 0.820981 1.722453 0.030627 -0.002323 713772.000000 1 0 0
7.179449 11.595381 4.800722 14.458364 1.016404 1.232333 0.014021 -0.004184 -111769.000000 1 0 0
7.118549 15.610081 2.022722 17.275410 1.142945 1.453440 0.007430 -0.011223 -161949.000000 1 0 0
5.522849 12.137381 10.266322 16.829000 1.143769 0.914688 0.009005 -0.006054 -73414.100000 1 0 0
-1.307951 14.141081 3.083722 14.532387 -1.478566 1.356974 -0.000381 0.002646 -502703.000000 1 0 0
4.686149 16.008881 1.610122 16.758185 1.286030 1.474568 0.011118 -0.014896 -2569690.000000 1 0 0
7.287649 13.003981 12.013022 19.144870 1.059991 0.892484 0.025437 -0.015813 149432.000000 1 0 0
0.804149 17.074781 -9.420978 19.517931 1.523735 2.074512 0.011579 -0.005455 287824.000000 1 0 0
9.783849 9.595381 15.623922 20.782252 0.775673 0.720021 0.045102 -0.014845 -233859.000000 1 0 0
13.570549 7.540081 -0.108378 15.524960 0.507148 1.577777 0.008451 0.003075 23684.800000 1 0 0
12.570249 13.522381 -0.171878 18.463356 0.821872 1.580106 0.030944 -0.008515 380796.000000 1 0 0
9.355749 12.323981 3.511422 15.866337 0.921465 1.347636 0.015178 -0.001773 1539810.000000 1 0 0
-0.643351 12.932581 0.798722 12.973185 -1.521091 1.509190 0.000166 -0.002166 -1515030.000000 1 0 0
16.004849 7.177081 -0.973578 17.567400 0.421549 1.626244 0.014724 0.000643 -941563.000000 1 0 0
-4.158051 18.376881 -2.322578 18.984033 -1.348278 1.693447 0.012549 -0.004368 -93761.400000 1 0 0
11.655849 9.176181 -3.243178 15.184839 0.666924 1.786034 0.017738 -0.004363 30985.200000 1 0 0
14.850449 9.677881 7.796822 19.364598 0.577562 1.156405 0.040150 -0.015511 961497.000000 1 0 0
4.522149 13.685681 4.672522 15.151903 1.251662 1.257308 0.007474 0.000175 1421090.000000 1 0 0
2.244549 15.869881 5.644722 16.992764 1.430294 1.232178 0.006202 -0.003709 18757.000000 1 0 0
6.049749 18.333481 5.548422 20.087334 1.252064 1.290943 0.024393 -0.022084 -149189.000000 1 0 0
10.687349 17.076781 -0.599678 20.154293 1.011593 1.600555 0.028278 -0.007210 -784938.000000 1 0 0
10.046149 13.659081 -4.423178 17.523131 0.936645 1.825976 0.039356 -0.006944 1632910.000000 1 0 0
16.545949 7.933981 2.315222 18.495317 0.447123 1.445288 0.008849 -0.003289 -82126.600000 1 0 0
3.999349 13.938681 -0.474378 14.508848 1.291378 1.603498 0.007984 -0.009119 137543.000000 1 0 0
5.632649 13.128081 -2.402578 14.486050 1.165497 1.737421 0.009997 -0.006996 -628922.000000 1 0 0
-6.238151 16.839381 -2.970978 18.201813 -1.216021 1.734754 0.011052 -0.003298 -2746520.000000 1 0 0
18.140349 9.976281 2.635222 20.869663 0.502805 1.444188 0.040439 -0.005087 95715.500000 1 0 0
8.002849 12.833381 9.422722 17.819342 1.013207 1.013620 0.024714 -0.013026 635853.000000 1 0 0
-2.580151 15.877681 6.795622 17.462486 -1.409703 1.171082 0.005136 -0.003822 268479.000000 1 0 0
11.230949 15.931181 6.289222 20.481481 0.956745 1.258685 0.037669 -0.017623 -118793.000000 1 0 0
13.616549 11.882481 1.359922 18.123277 0.717497 1.495688 0.030191 -0.004482 11973.300000 1 0 0
17.509049 7.844981 -5.538878 19.969720 0.421234 1.851846 0.021260 0.015168 -59858.800000 1 0 0
9.460449 9.328881 7.926822 15.471349 0.778396 1.032872 0.022485 -0.009346 -134024.000000 1 0 0
-2.061251 14.114281 -1.983578 14.401260 -1.425781 1.708972 -0.000387 -0.000693 184527.000000 1 0 0
11.070249 11.639881 0.650922 16.076721 0.810476 1.530297 0.011007 0.003137 -401096.000000 1 0 0
11.864449 9.621881 -0.593378 15.287179 0.681403 1.609621 0.007043 0.001578 -539754.000000 1 0 0
-0.169051 16.410481 11.079422 19.801163 -1.560495 0.976973 0.015554 -0.009007 -282523.000000 1 0 0
2.212349 20.022981 -1.708278 20.217134 1.460752 1.655394 0.032674 -0.017521 -461680.000000 1 0 0
9.236749 14.089781 1.783922 16.941719 0.990520 1.465303 0.010899 -0.008606 -434001.000000 1 0 0
8.460649 11.710981 -5.113178 15.325608 0.945159 1.910955 0.024130 -0.005281 -692352.000000 1 0 0
10.664249 10.038881 10.243122 17.872518 0.755201 0.960487 0.028774 -0.015697 527097.000000 1 0 0
-5.046851 15.857381 5.834122 17.634178 -1.262668 1.233601 -0.002674 -0.007027 2037070.000000 1 0 0
14.453649 9.034881 -2.006278 17.162815 0.558667 1.687961 0.030490 -0.000246 -901384.000000 1 0 0
12.348649 9.442081 7.041622 17.065359 0.652795 1.145461 0.024256 -0.011592 -1671430.000000 1 0 0
3.193149 12.962281 9.796922 16.558883 1.329264 0.937703 0.007599 -0.005003 -226008.000000 1 0 0
8.560749 12.603981 -2.657978 15.466468 0.974160 1.743508 0.017915 -0.006000 -454142.000000 1 0 0
9.585249 16.687581 2.103022 19.359108 1.049417 1.461949 0.018559 -0.014661 -86777.000000 1 0 0
9.394749 14.172781 -7.509478 18.588203 0.985425 1.986673 0.057602 -0.017868 -938120.000000 1 0 0
6.393249 11.347581 7.349222 14.955009 1.057722 1.057074 0.010332 -0.003375 -694396.000000 1 0 0
5.379149 16.921581 -5.485078 18.583897 1.263011 1.870411 0.022127 -0.002412 -1790980.000000 1 0 0
-4.351651 17.003281 -4.689078 18.166890 -1.320244 1.831863 0.009947 -0.007412 296702.000000 1 0 0
-0.205551 18.797581 -0.644278 18.809742 -1.559862 1.605055 0.009946 0.000914 -729877.000000 1 0 0
6.534649 15.559881 -2.667978 17.085949 1.173196 1.727588 0.012560 -0.005179 781348.000000 1 0 0
-0.885951 20.705481 1.089622 20.753051 -1.528034 1.518268 0.020049 -0.008771 63440.900000 1 0 0
-1.248851 18.864681 4.254722 19.378816 -1.504692 1.349438 0.007577 -0.008151 653790.000000 1 0 0
7.199949 13.821281 -4.433378 16.202528 1.090544 1.847954 0.018799 -0.001205 362550.000000 1 0 0
-0.951851 12.020881 7.712722 14.314108 -1.491778 1.001761 0.000099 0.004189 531452.000000 1 0 0
7.741349 10.785981 10.900822 17.178294 0.948274 0.883345 0.019788 -0.014597 806139.000000 1 0 0
1.447549 15.967981 -7.294278 17.614719 1.480390 1.997752 0.003802 -0.009151 -134308.000000 1 0 0
9.011449 7.274781 14.576622 18.617373 0.679165 0.671389 0.041737 -0.017229 -24609.900000 1 0 0
11.334449 11.364681 -4.785478 16.748926 0.786730 1.860552 0.038988 -0.010037 -506990.000000 1 0 0
-3.189951 17.015681 4.605222 17.914164 -1.385476 1.310806 0.001570 -0.004399 -809276.000000 1 0 0
3.951649 15.298081 -6.738578 17.177173 1.318012 1.973925 0.014151 -0.009550 -614209.000000 1 0 0
-4.423151 14.265681 9.454222 17.676432 -1.270140 1.006467 0.022051 -0.010207 450784.000000 1 0 0
6.459349 17.719181 0.530022 18.867260 1.221228 1.542700 0.009366 -0.012515 -198697.000000 1 0 0
9.863949 10.716881 -2.084978 14.713809 0.826818 1.712977 0.013476 -0.002538 -261552.000000 1 0 0
7.198649 18.009481 -2.537978 19.560248 1.190536 1.700915 0.020760 -0.006430 -54023.900000 1 0 0
3.530349 10.419781 10.464222 15.183384 1.244123 0.810427 0.001480 -0.000721 680113.000000 1 0 0
0.110349 18.482181 1.938222 18.583862 1.564826 1.466310 0.010341 -0.010537 11982.200000 1 0 0
-0.957751 17.153781 -7.527278 18.757117 -1.515021 1.983735 0.013516 0.000447 -504169.000000 1 0 0
10.111049 9.044581 13.066922 18.835663 0.729782 0.804137 0.038916 -0.011544 197658.000000 1 0 0
3.682549 11.448581 5.497022 13.223027 1.259588 1.142067 -0.001442 0.001715 846272.000000 1 0 0
13.375149 13.709681 8.212822 20.839876 0.797749 1.165717 0.052025 -0.026049 -109586.000000 1 0 0
-0.475051 17.447181 6.743522 18.711090 -1.543575 1.202097 0.008058 -0.007293 -308783.000000 1 0 0
12.149549 13.537881 5.750222 19.077495 0.839393 1.264621 0.029652 -0.014559 217482.000000 1 0 0
4.798449 14.605981 -4.396578 15.990300 1.253378 1.849337 0.010761 -0.003721 -1085770.000000 1 0 0
3.813949 17.533981 4.561922 18.514801 1.356615 1.321839 0.011962 -0.012476 -933083.000000 1 0 0
7.048149 11.605081 2.084722 13.736826 1.025002 1.418446 0.016744 -0.005027 495820.000000 1 0 0
6.509649 8.669981 11.795622 16.021261 0.926767 0.743287 0.014404 -0.010136 802318.000000 1 0 0
-5.363351 14.891681 1.693222 15.918376 -1.225101 1.464226 0.002248 -0.000483 34018.500000 1 0 0
6.749449 13.713681 6.263222 16.518113 1.113433 1.181894 0.015648 -0.009626 -620188.000000 1 0 0
5.923349 15.844281 5.011222 17.641986 1.213036 1.282780 0.009325 -0.013606 524801.000000 1 0 0
1.270649 17.958281 4.225522 18.492416 1.500158 1.340259 0.014085 -0.008968 494626.000000 1 0 0
7.267349 18.094181 -6.845278 20.665711 1.188877 1.908412 0.022035 -0.000101 225652.000000 1 0 0
-2.519251 18.589481 -5.768778 19.626366 -1.436097 1.869132 0.017590 -0.004386 -1752650.000000 1 0 0
13.531849 10.179881 -4.569978 17.539260 0.644965 1.834395 0.035027 -0.003899 -921006.000000 1 0 0
-1.662851 18.118981 9.777322 20.655716 -1.479279 1.077710 0.027618 -0.012197 -492745.000000 1 0 0
3.465349 11.768581 -1.608978 12.373236 1.284432 1.701203 0.006867 -0.006180 588137.000000 1 0 0
4.274549 13.980581 -10.931278 18.254349 1.274074 2.212838 0.011745 -0.013205 -230781.000000 1 0 0
11.590849 13.263481 2.371622 17.773360 0.852594 1.436960 0.024066 -0.009740 317464.000000 1 0 0
15.886749 6.539481 -7.177678 18.619148 0.390493 1.966546 0.030068 -0.000218 270646.000000 1 0 0
2.492649 16.041281 2.939822 16.497835 1.416640 1.391645 0.010626 -0.007661 7613.400000 1 0 0
13.472649 10.589181 3.525522 17.494923 0.666131 1.367890 0.019314 -0.001350 -650917.000000 1 0 0
-5.047851 19.278081 -5.831278 20.763647 -1.314702 1.855466 0.012048 -0.007821 303952.000000 1 0 0
5.525749 12.022181 0.040322 13.231341 1.139963 1.567749 0.013473 -0.007652 -476352.000000 1 0 0
4.759749 15.357681 9.700622 18.778063 1.270258 1.027929 0.020264 -0.011600 45025.200000 1 0 0
7.735649 9.442481 13.995722 18.570971 0.884434 0.717222 0.026493 -0.018194 -1158370.000000 1 0 0
-4.997251 13.724381 7.005922 16.199201 -1.221603 1.123549 0.001080 -0.003368 -984452.000000 1 0 0
-4.543951 17.107281 0.459622 17.706434 -1.311176 1.544836 0.009813 -0.006870 -425051.000000 1 0 0
-0.669951 16.544681 3.546522 16.933787 -1.530325 1.359800 0.008459 -0.006483 -2166330.000000 1 0 0
7.815649 16.715581 -4.678978 19.036488 1.133430 1.819131 0.019556 -0.008748 290330.000000 1 0 0
2.965649 16.334181 -4.602378 17.227375 1.391192 1.841236 0.008336 -0.008582 -762380.000000 1 0 0
9.521049 14.358181 8.032322 19.008576 0.985260 1.134525 0.028343 -0.020989 205511.000000 1 0 0
12.801049 10.930281 9.115022 19.142140 0.706730 1.074496 0.036064 -0.021829 -691372.000000 1 0 0
3.815849 12.295681 12.260922 17.778490 1.269880 0.809792 0.012553 -0.004596 845350.000000 1 0 0
-3.200451 19.265381 6.042622 20.442874 -1.406175 1.270728 0.015210 -0.006564 30944.800000 1 0 0
-2.645251 15.878081 10.430722 19.181001 -1.405715 0.995832 0.020104 -0.010537 -686186.000000 1 0 0
2.077549 14.233081 7.671022 16.301576 1.425854 1.080860 0.006366 -0.002742 -208651.000000 1 0 0
4.220249 17.141881 7.887522 19.335656 1.329402 1.150615 0.013298 -0.014943 -45829.200000 1 0 0
-1.836351 13.584781 9.419822 16.632844 -1.436434 0.968740 0.010417 -0.005865 -291950.000000 1 0 0
6.046949 17.710581 3.143622 18.976634 1.241775 1.404372 0.011440 -0.016643 751592.000000 1 0 0
7.131649 15.428681 -6.800178 18.307022 1.137816 1.951369 0.015551 -0.001365 -755801.000000 1 0 0
11.051549 7.650881 9.271022 16.328643 0.605533 0.966994 0.022626 -0.015174 782618.000000 1 0 0
9.088649 16.304881 -2.535478 18.838295 1.062275 1.705798 0.023440 -0.007798 -1411880.000000 1 0 0
14.927849 11.321981 -6.531678 19.841642 0.648885 1.906242 0.102303 -0.013505 660627.000000 1 0 0
11.217249 6.578481 15.985922 20.607105 0.530405 0.682897 0.068113 -0.024349 127741.000000 1 0 0
8.583849 8.436681 10.107022 15.716614 0.776752 0.872284 0.016708 -0.013091 601450.000000 1 0 0
16.364549 9.410881 4.545022 19.417013 0.521892 1.334530 0.024680 -0.006260 -86723.700000 1 0 0
-3.215651 14.313681 4.712722 15.408817 -1.349810 1.259970 -0.005957 0.001428 -1183650.000000 1 0 0
4.952049 14.647981 12.758022 20.046278 1.244788 0.880937 0.025689 -0.008009 -510572.000000 1 0 0
16.187449 10.451481 -4.528078 19.793192 0.573314 1.801610 0.061602 -0.016070 698529.000000 1 0 0
14.675049 13.843581 6.007922 21.049868 0.756251 1.281358 0.048793 -0.020776 -781245.000000 1 0 0
6.153749 9.374181 9.280122 14.555568 0.989895 0.879463 0.003442 -0.005630 1843800.000000 1 0 0
10.533449 12.120981 8.698822 18.263112 0.855360 1.074348 0.033650 -0.015321 -927912.000000 1 0 0
7.994849 11.527781 -0.431578 14.035441 0.964427 1.601550 0.010099 -0.004267 548367.000000 1 0 0
7.206949 13.722881 -8.684778 17.767469 1.087210 2.081513 0.030585 -0.005593 -1030950.000000 1 0 0
2.727249 15.240681 -2.251278 15.645591 1.393725 1.715190 0.010762 -0.007751 179914.000000 1 0 0
11.972049 13.856481 -7.728978 19.876346 0.858228 1.970183 0.069278 -0.019713 -629650.000000 1 0 0
-8.124251 14.829281 9.628522 19.458147 -1.069604 1.053154 0.035261 -0.019565 134737.000000 1 0 0
11.473049 9.658781 2.185422 15.155823 0.699753 1.426095 0.015148 -0.000785 -1800980.000000 1 0 0
12.079449 8.692181 4.531522 15.556407 0.623749 1.275215 0.012388 -0.005106 418427.000000 1 0 0
14.186749 7.916881 6.089822 17.350124 0.509001 1.212162 0.020199 -0.009418 -1454590.000000 1 0 0
16.449149 7.329081 7.231122 19.405645 0.419155 1.188955 0.045804 -0.014457 745635.000000 1 0 0
13.649149 8.285181 2.411722 16.148062 0.545559 1.420885 0.006991 -0.000348 -2009460.000000 1 0 0
-4.179451 17.349081 -7.327878 19.291351 -1.334397 1.960434 0.009734 -0.009603 14207.800000 1 0 0
3.246549 19.452881 -3.952078 20.114015 1.405427 1.768567 0.025773 -0.011794 572207.000000 1 0 0
-0.109351 14.904881 6.280222 16.174320 -1.563460 1.172028 0.005410 -0.001415 1126330.000000 1 0 0
6.659749 16.326781 8.186022 19.440345 1.183495 1.136156 0.030585 -0.011610 -747838.000000 1 0 0
12.835649 15.194581 -2.062378 19.997065 0.869357 1.674114 0.054503 -0.011958 48071.600000 1 0 0
12.729849 15.487881 4.182322 20.479632 0.882830 1.365131 0.034892 -0.014492 -89851.500000 1 0 0
3.102249 18.055781 1.401622 18.373887 1.400643 1.494439 0.019547 -0.015068 -517626.000000 1 0 0
10.441949 14.515781 -1.267778 17.926223 0.947201 1.641577 0.025485 0.000230 -1773210.000000 1 0 0
-6.475951 15.733481 -0.540678 17.022712 -1.180327 1.602564 0.010319 -0.004481 -520187.000000 1 0 0
-3.955051 15.817181 -2.602778 16.510606 -1.325773 1.729099 0.006398 -0.001244 571544.000000 1 0 0
-6.770251 16.979981 1.765522 18.364998 -1.191394 1.474512 0.015557 -0.009595 -457543.000000 1 0 0
-0.222051 19.554681 -6.529878 20.617327 -1.559441 1.893064 0.022944 0.000491 388777.000000 1 0 0
4.792349 14.772081 7.086322 17.070353 1.257090 1.142717 0.013195 -0.010157 -991423.000000 1 0 0
8.683049 12.165081 6.912522 16.467164 0.950890 1.137598 0.025466 -0.013617 -1035180.000000 1 0 0
-7.520351 17.449481 -5.754478 19.853315 -1.163873 1.864866 0.030907 -0.013260 -246415.000000 1 0 0
-7.927051 17.721881 -1.342778 19.460377 -1.150187 1.639852 0.036197 -0.009322 -208694.000000 1 0 0
-13.765951 -9.234119 9.232122 18.973730 0.590855 1.062633 0.039047 -0.020449 -431009.000000 1 0 0
-12.724751 -12.962819 7.575122 19.680864 0.794666 1.175699 0.037718 -0.018220 392021.000000 1 0 0
-3.998251 -14.737219 12.671422 19.842796 1.305870 0.878131 0.030499 -0.016407 118143.000000 1 0 0
-2.106951 -14.181519 14.895222 20.674195 1.423305 0.766311 0.038805 -0.010235 -1607380.000000 1 0 0
-7.237451 -13.734619 12.626122 20.010982 1.085822 0.888007 0.041402 -0.014968 68499.200000 1 0 0
-9.984751 -11.576119 8.908722 17.693702 0.859073 1.043155 0.023451 -0.012457 625645.000000 1 0 0
-10.755351 -10.784419 11.239922 18.929266 0.786748 0.935041 0.043673 -0.017761 515248.000000 1 0 0
-5.984151 -12.344619 10.737822 17.421265 1.119417 0.906681 0.025851 -0.008761 568509.000000 1 0 0
-12.547051 -10.387419 7.238022 17.824587 0.691510 1.152647 0.020859 -0.015075 -377379.000000 1 0 0
-7.736051 -11.157319 12.239222 18.279245 0.964540 0.837168 0.035868 -0.021163 -793601.000000 1 0 0
-14.853651 -11.480719 7.139222 20.084978 0.658011 1.207400 0.043442 -0.021868 -1071110.000000 1 0 0
-11.149251 -9.221819 9.154322 17.121605 0.691063 1.006685 0.017389 -0.012057 -1461370.000000 1 0 0
-5.484751 -11.807519 13.211422 18.548360 1.135939 0.778071 0.034348 -0.017016 -454273.000000 1 0 0
4.114149 -12.471119 14.718422 19.725287 -1.252144 0.728505 0.012319 -0.003333 -239175.000000 1 0 0
6.698349 -12.771719 14.401722 20.381223 -1.087767 0.786090 0.030911 0.006350 145950.000000 1 0 0
6.661449 -8.366919 16.060622 19.295694 -0.898398 0.587476 0.018075 -0.008564 -424659.000000 1 0 0
0.731749 -1.678419 14.469522 14.584910 -1.159666 0.125873 0.003426 -0.001915 -1072600.000000 1 0 0
-0.190051 -6.294419 15.552822 16.779335 1.540612 0.384721 0.004867 -0.007345 -134760.000000 1 0 0
-1.337351 -4.690919 18.633622 19.261492 1.293071 0.256031 0.009503 -0.009952 -957293.000000 1 0 0
-5.214951 12.716881 13.026922 18.937145 -1.181630 0.812200 0.025196 -0.006164 -341944.000000 1 0 0
-4.017451 8.872281 11.558822 15.115014 -1.145609 0.700183 -0.000850 0.005219 -221643.000000 1 0 0
-0.542351 -3.874919 15.006822 15.508509 1.431735 0.255049 0.003528 -0.003499 -364855.000000 1 0 0
-4.403451 9.119681 14.201422 17.442458 -1.120961 0.619469 0.003702 -0.011190 744657.000000 1 0 0
-13.236151 -2.601119 16.941822 21.656104 0.194044 0.672428 0.052078 0.001248 -696686.000000 1 0 0
-0.193751 0.916381 17.223522 17.248971 -1.362435 0.054328 0.017413 -0.008546 -889710.000000 1 0 0
-3.240351 -7.370219 15.320122 17.306823 1.156579 0.483857 0.015962 -0.010762 278803.000000 1 0 0
-7.390351 5.462481 12.473922 15.493699 -0.636512 0.634958 -0.006184 -0.002470 -283982.000000 1 0 0
-9.821251 10.210681 13.315022 19.442345 -0.804836 0.816403 0.036239 -0.013220 -232756.000000 1 0 0
-5.607451 2.390281 11.088522 12.653548 -0.402945 0.502633 0.005358 -0.002288 -833948.000000 1 0 0
-7.099951 -7.451919 16.881722 19.772024 0.809581 0.547519 0.026889 -0.012130 -75806.000000 1 0 0
-4.580351 3.140281 18.322922 19.146030 -0.600995 0.294288 0.019514 -0.019795 -157519.000000 1 0 0
1.096449 -8.366719 16.510922 18.542242 -1.440490 0.472465 0.013392 -0.007884 640815.000000 1 0 0
-14.982851 -3.568319 14.069422 20.860665 0.233805 0.830580 0.068229 -0.010762 33279.900000 1 0 0
-14.288251 2.532181 13.118022 19.561405 -0.175400 0.835769 0.045981 -0.011945 -18479.900000 1 0 0
-5.561451 1.044181 16.063522 17.031054 -0.185593 0.338692 0.018780 -0.005555 732281.000000 1 0 0
4.534149 5.647981 15.088522 16.736836 0.894356 0.447537 0.010645 -0.009513 132866.000000 1 0 0
-0.938451 -12.013819 13.918822 18.410490 1.492840 0.713575 0.008618 -0.009355 -431866.000000 1 0 0
-5.777851 -3.934619 16.889822 18.279247 0.597849 0.392413 0.027064 -0.006178 123278.000000 1 0 0
-12.928351 -1.589119 9.956722 16.395239 0.122304 0.918147 0.024714 -0.000503 -564707.000000 1 0 0
-14.428851 10.422981 10.376122 20.603257 -0.625583 1.043018 0.026802 0.007249 683291.000000 1 0 0
-3.332751 -3.267419 17.824822 18.425730 0.775500 0.256091 0.017961 -0.009287 253146.000000 1 0 0
-7.832751 9.412981 11.820722 17.020155 -0.876773 0.803053 0.001918 -0.005673 48924.400000 1 0 0
-4.103551 10.504281 16.440622 19.936728 -1.198372 0.601231 -0.007035 -0.008519 262407.000000 1 0 0
-12.387251 12.899381 8.257622 19.698384 -0.805648 1.138229 0.033820 -0.011289 262963.000000 1 0 0
-12.611151 3.254581 10.554222 16.763801 -0.252561 0.889779 0.019713 -0.005169 716181.000000 1 0 0
-10.089851 -3.514019 13.727922 17.395668 0.335135 0.661360 0.028141 -0.000749 -1354360.000000 1 0 0
-4.237251 -6.515719 17.668822 19.302750 0.994202 0.414414 0.023832 -0.009866 -549661.000000 1 0 0
0.966349 -3.724719 17.757622 18.169769 -1.316951 0.213398 0.012319 -0.018820 -840264.000000 1 0 0
-5.802751 1.747081 13.519122 14.815224 -0.292446 0.421404 0.006010 -0.000727 -1011900.000000 1 0 0
-10.447751 8.752581 10.202522 17.025118 -0.697338 0.928216 0.013188 -0.007999 -289373.000000 1 0 0
4.700749 2.556581 17.239322 18.050689 0.498122 0.300966 0.018960 -0.010905 -540373.000000 1 0 0
0.585849 -5.393519 13.206322 14.277262 -1.462600 0.389787 0.002125 -0.001572 -1430810.000000 1 0 0
-4.248951 5.629081 20.673922 21.843791 -0.924217 0.328759 0.063869 -0.023073 -113913.000000 1 0 0
-10.745451 10.906481 8.981322 17.750498 -0.792835 1.040283 0.018013 -0.009295 453460.000000 1 0 0
0.697649 4.270281 13.086922 13.783669 1.408854 0.319313 0.005948 -0.008166 -2376810.000000 1 0 0
-3.116351 7.154481 13.310622 15.429546 -1.159998 0.530269 -0.000167 0.000039 -1741590.000000 1 0 0
0.759049 8.940281 14.119822 16.729440 1.486097 0.566079 -0.001840 -0.004728 231138.000000 1 0 0
-4.215551 -6.533819 13.068722 15.207010 0.997810 0.536725 0.016253 -0.003304 255364.000000 1 0 0
-5.086751 8.065481 16.416222 18.984714 -1.008122 0.526229 0.016657 -0.009950 -7909.630000 1 0 0
1.630049 -10.756519 15.759122 19.149665 -1.420400 0.604221 0.008608 -0.003227 34407.000000 1 0 0
-15.099151 -0.994819 14.391022 20.882422 0.065791 0.810488 0.065873 -0.008361 300735.000000 1 0 0
-13.506551 -5.337719 8.621322 16.889208 0.376357 1.035073 0.028250 -0.011096 -1212160.000000 1 0 0
-14.247651 -2.023819 12.193622 18.862020 0.141102 0.867855 0.054251 -0.006467 520766.000000 1 0 0
9.490849 1.261081 16.876522 19.403184 0.132100 0.516038 0.070868 -0.011160 684097.000000 1 0 0
4.946649 -6.629319 16.712022 18.646954 -0.929746 0.459592 0.026652 -0.019485 -151026.000000 1 0 0
-6.149051 -2.694419 11.099522 12.971897 0.412985 0.543973 0.006433 -0.001549 -33150.500000 1 0 0
0.582449 -6.349019 18.014322 19.109293 -1.479314 0.340165 0.013751 -0.017314 -15037.000000 1 0 0
-8.569451 12.023681 11.850322 18.932367 -0.951588 0.894474 0.027105 -0.013939 123743.000000 1 0 0
-6.700051 -5.613319 15.010422 17.369882 0.697370 0.527310 0.030198 -0.004361 -105042.000000 1 0 0
-4.259651 -9.012019 17.014022 19.718977 1.129256 0.529965 0.027624 -0.012141 303254.000000 1 0 0
2.379749 -5.973619 16.243822 17.470234 -1.191690 0.376927 0.012033 -0.014277 752495.000000 1 0 0
2.235449 5.259281 16.015722 17.004723 1.168885 0.342733 0.004526 -0.011806 -2887060.000000 1 0 0
0.938649 -8.927119 13.981922 16.615314 -1.466035 0.570728 0.004653 -0.005341 -816650.000000 1 0 0
-9.829151 -2.862619 11.259822 15.218094 0.283399 0.737879 0.003057 0.000501 -105203.000000 1 0 0
-1.263351 10.106481 12.446922 16.083000 -1.446437 0.685792 0.001741 -0.001662 -314052.000000 1 0 0
-12.314351 -3.732519 11.401222 17.191940 0.294301 0.845747 0.026014 0.001616 -844705.000000 1 0 0
-1.992551 6.902681 19.889622 21.147443 -1.289772 0.346635 0.035568 -0.014887 -78032.100000 1 0 0
0.086349 -13.444419 15.786022 20.735437 -1.564374 0.705471 0.012968 -0.008542 -706328.000000 1 0 0
4.118449 -8.717619 15.284122 18.071051 -1.129448 0.562772 0.013112 -0.007950 73093.800000 1 0 0
4.355049 -4.273719 16.122122 17.238154 -0.775973 0.361809 0.023281 -0.008925 -154190.000000 1 0 0
8.007249 1.901381 14.801222 16.935391 0.233140 0.507460 0.023309 -0.004035 582102.000000 1 0 0
-6.335651 -0.066019 11.633722 13.247200 0.010420 0.498706 0.006177 -0.000560 174957.000000 1 0 0
-3.446851 -11.039319 18.412922 21.743574 1.268154 0.560816 0.048317 -0.011575 1185120.000000 1 0 0
3.250049 -1.441519 13.662022 14.117069 -0.417467 0.254592 0.001467 -0.001487 -87229.800000 1 0 0
-2.556851 8.437381 15.885222 18.167751 -1.276554 0.506673 0.007451 -0.008742 -1179710.000000 1 0 0
-3.278051 3.939681 14.698622 15.566509 -0.876810 0.335498 0.013902 -0.010173 -1371980.000000 1 0 0
-4.597651 -9.029819 19.646922 22.106052 1.099845 0.476169 0.042579 -0.017942 13838.600000 1 0 0
-5.513151 -2.678119 19.114122 20.072788 0.452198 0.310305 0.023696 -0.016222 -995966.000000 1 0 0
-6.644251 -8.602619 11.118022 15.548682 0.913143 0.774107 0.022392 -0.010737 -995735.000000 1 0 0
-11.644751 2.557381 12.710122 17.426635 -0.216185 0.753425 0.031819 -0.016078 -827219.000000 1 0 0
-11.732951 -7.507319 11.602522 18.128444 0.569206 0.876275 0.032032 -0.010371 1855830.000000 1 0 0
-11.165551 -7.431319 15.550822 20.535873 0.587234 0.711702 0.064071 -0.027320 1035250.000000 1 0 0
0.284949 5.752381 17.750622 18.661609 1.521301 0.313747 0.002063 -0.013711 -373676.000000 1 0 0
-2.265151 -0.061319 13.187122 13.380391 0.027064 0.170171 0.004319 0.000846 405278.000000 1 0 0
-6.115351 -10.444519 18.135922 21.803604 1.041101 0.588480 0.058156 -0.021087 -508446.000000 1 0 0
0.320249 2.593681 19.250322 19.426905 1.447945 0.134933 0.033646 -0.015908 -655725.000000 1 0 0
-0.788151 10.878581 14.879422 18.448900 -1.498473 0.632553 0.013005 -0.003485 -263219.000000 1 0 0
-12.747551 -2.253019 14.380022 19.348415 0.174935 0.732934 0.041450 -0.004032 -39581.200000 1 0 0
-13.799751 8.383181 11.967922 20.098309 -0.545907 0.932947 0.041712 0.001840 539371.000000 1 0 0
-18.130251 -0.722319 6.930922 19.423322 0.039819 1.205919 0.070100 -0.016431 -53057.600000 1 0 0
-2.018951 -7.827019 17.627122 19.392107 1.318353 0.429955 0.012656 -0.010154 -1820610.000000 1 0 0
5.699549 2.867481 14.470322 15.814472 0.466130 0.415276 0.017334 -0.008239 -2320290.000000 1 0 0
-14.318451 -7.036519 11.014822 19.387030 0.456768 0.966535 0.057342 -0.014651 554555.000000 1 0 0
3.251449 7.670181 16.231022 18.244168 1.169851 0.474206 0.008344 -0.021583 -490037.000000 1 0 0
1.009749 2.174581 14.677422 14.871957 1.136080 0.161922 0.007272 -0.010605 -2276630.000000 1 0 0
-14.438151 0.553481 9.874422 17.500593 -0.038316 0.971292 0.035644 -0.003570 -2791250.000000 1 0 0
-9.632251 -5.223619 15.597422 19.061637 0.496916 0.612415 0.034115 -0.004594 -387483.000000 1 0 0
-2.449651 -0.044319 18.136822 18.301559 0.018090 0.134274 0.025516 -0.011487 268809.000000 1 0 0
6.955949 3.772481 17.466622 19.175498 0.496942 0.425379 0.049086 -0.014510 -646126.000000 1 0 0
-4.156851 -0.780119 14.729622 15.324808 0.185513 0.279615 0.016731 0.001547 -1253340.000000 1 0 0
4.723649 -8.990019 17.782022 20.477636 -1.087010 0.518904 0.026372 -0.008605 -245066.000000 1 0 0
1.963149 6.971681 13.481122 15.303560 1.296315 0.493006 0.002104 -0.005353 -1118640.000000 1 0 0
-3.644351 -0.761319 20.366422 20.703914 0.205942 0.180806 0.035531 -0.016596 -578768.000000 1 0 0
-10.697251 1.705481 16.067122 19.377622 -0.158101 0.593196 0.031781 -0.017880 -709718.000000 1 0 0
-4.037851 6.977681 18.470822 20.153499 -1.046200 0.411537 0.028749 -0.016641 -872050.000000 1 0 0
-12.643451 1.033681 14.457522 19.233962 -0.081575 0.720211 0.042697 -0.015073 593105.000000 1 0 0
-16.000951 -4.888019 8.636322 18.828415 0.296479 1.094281 0.050065 -0.016213 -1297660.000000 1 0 0
-2.283251 0.881081 15.686022 15.875794 -0.368283 0.154773 0.021900 -0.003640 127926.000000 1 0 0
-13.644451 -8.867219 12.794822 20.700388 0.576289 0.904478 0.039190 -0.018984 779714.000000 1 0 0
6.116349 -3.160519 14.576122 16.120234 -0.476944 0.441263 0.018496 -0.007885 1026230.000000 1 0 0
-15.730951 0.030081 7.638722 17.487533 -0.001912 1.118747 0.036906 -0.011258 -53097.000000 1 0 0
-13.931851 5.839581 12.503622 19.609634 -0.396908 0.879383 0.043650 -0.008774 354590.000000 1 0 0
0.382049 9.372081 16.740922 19.189589 1.530054 0.510713 -0.003568 -0.013102 -502614.000000 1 0 0
-10.369151 -5.494419 10.897222 16.014286 0.487266 0.822394 0.019039 -0.004293 123310.000000 1 0 0
-3.132651 -11.195019 15.010222 18.985487 1.297950 0.658983 0.024039 -0.011211 -60450.700000 1 0 0
-3.336351 2.564281 12.497022 13.186445 -0.655292 0.324791 0.001625 -0.001543 -1290310.000000 1 0 0
-12.420251 -7.794319 7.457822 16.450931 0.560430 1.100290 0.023264 -0.013306 161507.000000 1 0 0
-8.127251 -1.912719 13.252322 15.663165 0.231140 0.562205 0.014314 -0.000971 289308.000000 1 0 0
-9.817851 6.428981 9.536522 15.121748 -0.579760 0.888407 0.001801 -0.002770 -1051270.000000 1 0 0
-17.961551 -3.884719 6.796422 19.593359 0.212999 1.216560 0.057578 -0.013057 163027.000000 1 0 0
-1.282051 0.049181 20.586222 20.626163 -0.038343 0.062242 0.038250 -0.014118 -1237560.000000 1 0 0
-2.813751 2.577181 20.147722 20.505847 -0.741543 0.187166 0.045108 -0.019082 -522310.000000 1 0 0
-3.826751 11.410581 11.221022 16.454687 -1.247215 0.820392 0.008335 -0.006667 -403403.000000 1 0 0
-4.140451 -4.841619 14.972722 16.271663 0.863303 0.402278 0.014887 -0.006378 731022.000000 1 0 0
-0.034051 -14.456019 13.427822 19.730282 1.568441 0.822257 0.018780 -0.008522 -527291.000000 1 0 0
-12.122751 0.370581 8.426122 14.768140 -0.030560 0.963608 0.005951 0.001840 3206.870000 1 0 0
-7.805951 2.148581 15.202422 17.223905 -0.268598 0.489358 0.008784 -0.006420 -939040.000000 1 0 0
3.458749 -2.063019 18.540422 18.972776 -0.537815 0.213894 0.024657 -0.010974 -269986.000000 1 0 0
-2.092351 4.862681 12.517822 13.591154 -1.164456 0.400087 -0.001263 -0.002602 -390840.000000 1 0 0
-10.454551 -6.303619 13.427222 18.147273 0.542589 0.737870 0.031679 -0.006696 -199450.000000 1 0 0
2.337049 -3.755419 14.272922 14.942599 -1.014131 0.300518 0.000599 -0.002930 -928818.000000 1 0 0
6.897249 1.122781 17.138122 18.508050 0.161371 0.387168 0.033649 -0.003091 -774442.000000 1 0 0
-1.917951 -5.766719 13.745622 15.029162 1.249715 0.416287 0.007868 -0.006091 -1711570.000000 1 0 0
-12.678151 3.614981 14.836922 19.847868 -0.277764 0.726457 0.024940 -0.008545 50345.300000 1 0 0
-13.395851 -6.279619 13.312422 19.902337 0.438356 0.838085 0.051180 -0.023213 -268251.000000 1 0 0
-9.490051 6.898481 11.926322 16.729832 -0.628564 0.777203 0.011654 -0.004863 -454818.000000 1 0 0
-1.009251 -2.299519 12.846222 13.089377 1.157214 0.193051 0.001109 0.002691 235500.000000 1 0 0
0.188149 6.773681 15.323822 16.755228 1.543027 0.416354 -0.000489 -0.008481 347611.000000 1 0 0
-16.578551 -1.006019 9.922222 19.347116 0.060608 1.032292 0.070940 -0.007132 551639.000000 1 0 0
-1.201351 2.802581 13.807222 14.139911 -1.165831 0.217353 0.002644 -0.004818 -3198390.000000 1 0 0
-10.972251 -3.124219 16.182022 19.799214 0.277397 0.614076 0.028533 -0.008730 -2165170.000000 1 0 0
-5.002051 -1.368619 17.104522 17.873396 0.267075 0.294380 0.021302 -0.002749 335531.000000 1 0 0
-11.904651 6.693381 11.058922 17.573327 -0.512199 0.890142 0.029905 -0.005444 -1060060.000000 1 0 0
-2.607251 4.777881 18.759322 19.532999 -1.071267 0.282393 0.037431 -0.015089 55567.800000 1 0 0
5.080749 -1.807419 16.490722 17.350063 -0.341778 0.316050 0.020507 -0.008065 -1194430.000000 1 0 0
-8.015751 -4.243119 12.225622 15.222423 0.486849 0.638262 0.017254 -0.000727 -1017250.000000 1 0 0
-11.708151 -0.677719 16.240222 20.032097 0.057820 0.625432 0.049634 -0.003818 452670.000000 1 0 0
2.173049 2.117981 17.596822 17.856543 0.772566 0.170765 0.009172 -0.007457 -798691.000000 1 0 0
-9.013651 -7.486819 11.723722 16.575404 0.693128 0.785130 0.023652 -0.008980 -341917.000000 1 0 0
-7.142551 6.839081 14.712622 17.727107 -0.763697 0.591777 0.003426 -0.010781 -1163370.000000 1 0 0
-5.752151 3.458981 15.569622 16.954790 -0.541402 0.407026 0.006540 -0.009922 644103.000000 1 0 0
-9.386951 4.247681 11.522722 15.457385 -0.424939 0.729585 0.001852 -0.007365 -169806.000000 1 0 0
-10.269051 0.039181 14.109422 17.450809 -0.003815 0.629154 0.014274 -0.001135 -221241.000000 1 0 0
8.156649 -0.591119 15.664622 17.670900 -0.072344 0.481148 0.041330 -0.012874 182076.000000 1 0 0
-8.535051 -7.432519 14.762122 18.601335 0.716459 0.654084 0.041747 -0.011392 -1248630.000000 1 0 0
-0.160551 4.320181 15.650822 16.236932 -1.533650 0.269506 0.003622 -0.012679 38994.200000 1 0 0
-8.116851 3.085481 9.576922 12.927525 -0.363263 0.736511 -0.003214 -0.000581 -736058.000000 1 0 0
-2.065451 -9.772219 13.079022 16.456706 1.362502 0.652195 0.006398 -0.007770 620128.000000 1 0 0
-6.005451 10.316681 10.411622 15.839862 -1.043635 0.853559 0.016036 -0.004402 -1984440.000000 1 0 0
-8.473751 -2.780819 15.643222 18.006882 0.317095 0.518152 0.025123 -0.008642 514917.000000 1 0 0
4.167349 5.687681 17.584122 18.945128 0.938461 0.381356 0.013188 -0.013003 -124823.000000 1 0 0
-6.744351 -0.927619 15.244322 16.695391 0.136683 0.420008 0.017908 0.001708 -155066.000000 1 0 0
-0.849951 -9.935219 15.460422 18.397164 1.485455 0.572831 0.004919 -0.005303 -402557.000000 1 0 0
-4.290551 5.564681 16.303822 17.753566 -0.913970 0.406929 0.014387 -0.009523 151583.000000 1 0 0
3.771749 0.150681 17.511722 17.913939 0.039929 0.212308 0.018856 -0.008182 -557156.000000 1 0 0
1.333249 0.179581 19.250122 19.297072 0.133889 0.069771 0.014235 -0.012090 -513842.000000 1 0 0
-6.362951 6.248281 17.743722 19.858697 -0.776306 0.465719 0.018514 -0.017031 -1031660.000000 1 0 0
-12.246151 0.628181 11.002122 16.474511 -0.051251 0.839511 0.024045 -0.003575 -418564.000000 1 0 0
-5.239251 5.251881 13.890622 15.747425 -0.786602 0.490519 -0.003347 -0.002371 -628480.000000 1 0 0
-8.812151 -9.442619 9.965922 16.313695 0.819922 0.913608 0.025776 -0.012028 -104872.000000 1 0 0
6.876349 -3.561119 17.088722 18.761401 -0.477848 0.425470 0.033862 -0.011471 593379.000000 1 0 0
-16.753951 1.498581 9.418122 19.278009 -0.089209 1.060378 0.062773 -0.019594 -160029.000000 1 0 0
-4.127951 -9.557319 11.346622 15.398966 1.163083 0.742407 0.012848 -0.009863 -325165.000000 1 0 0
-11.033651 -3.948119 9.203722 14.900926 0.343629 0.905031 0.013559 0.000339 -439841.000000 1 0 0
3.742549 -5.251319 18.465722 19.559292 -0.951606 0.335974 0.024232 -0.019481 -74037.000000 1 0 0
2.450249 -1.699019 16.120122 16.393557 -0.606287 0.182899 0.004094 -0.004562 728059.000000 1 0 0
-3.069551 -4.086819 20.360822 20.992553 0.926601 0.245948 0.022595 -0.012772 -653762.000000 1 0 0
-6.106651 -3.226019 14.455322 16.020447 0.486014 0.445711 0.015487 -0.000305 489387.000000 1 0 0
-9.577051 5.182581 13.964522 17.708386 -0.496020 0.662296 0.020847 -0.008232 78539.700000 1 0 0
-5.863251 -5.269919 11.651322 14.067802 0.732154 0.594861 0.013209 -0.001740 -893589.000000 1 0 0
6.048349 2.092981 19.352822 20.383690 0.333144 0.319391 0.056899 -0.020372 253696.000000 1 0 0
-2.746251 12.001081 13.572322 18.324185 -1.345836 0.736717 0.025312 -0.006536 -1423900.000000 1 0 0
3.285049 1.444181 15.274722 15.690581 0.414191 0.230745 0.007141 -0.005148 -508626.000000 1 0 0
-5.631551 7.402881 12.708722 15.748925 -0.920467 0.631813 -0.010257 -0.006508 -597816.000000 1 0 0
-1.797751 -1.605819 15.232922 15.422466 0.729066 0.156942 0.009826 -0.001769 -376267.000000 1 0 0
-7.405851 10.727981 13.925722 19.075166 -0.966590 0.752409 0.037860 -0.019451 735504.000000 1 0 0
-10.144651 1.958581 10.658022 14.843969 -0.190719 0.769867 0.002490 -0.000609 855309.000000 1 0 0
-13.565851 5.253581 9.020622 17.117361 -0.369480 1.015745 0.015504 -0.006502 226603.000000 1 0 0
0.800849 -4.890519 20.059022 20.662112 -1.408482 0.242204 0.029223 -0.026516 -282936.000000 1 0 0
-14.414951 -3.110119 7.420722 16.508506 0.212499 1.104581 0.026087 -0.004464 871994.000000 1 0 0
-2.183051 2.599381 17.613522 17.937632 -0.872233 0.190386 0.018816 -0.013781 -192624.000000 1 0 0
-6.184351 -8.232919 14.609622 17.873673 0.926545 0.613944 0.019580 -0.008196 -384812.000000 1 0 0
-7.953151 1.978681 12.019422 14.547656 -0.243842 0.598449 -0.001694 -0.003019 126470.000000 1 0 0
-14.525051 -3.494719 10.044822 18.002461 0.236112 0.978859 0.032822 -0.009194 604973.000000 1 0 0
-0.556351 7.057581 12.802122 14.629194 -1.492129 0.505138 -0.000330 -0.004251 -511211.000000 1 0 0
-1.549551 -2.236319 19.363922 19.554122 0.964850 0.139590 0.019768 -0.013300 16855.300000 1 0 0
-12.839551 10.389581 7.464422 18.124985 -0.680317 1.146334 0.015992 -0.006318 27060.000000 1 0 0
-19.434251 2.038381 7.126322 20.799749 -0.104504 1.221097 0.071895 -0.017710 191002.000000 1 0 0
-16.109551 8.258281 6.863122 19.360250 -0.473703 1.208422 0.031580 0.000636 513315.000000 1 0 0
-12.161751 7.331481 13.652722 19.699127 -0.542499 0.805068 0.021417 -0.004689 -268956.000000 1 0 0
-16.095851 8.573681 10.869422 21.230374 -0.489436 1.033314 0.043211 0.017471 -1269720.000000 1 0 0
1.777249 11.036581 15.203022 18.870522 1.411134 0.634026 0.001524 -0.007672 -102691.000000 1 0 0
2.437049 14.488381 12.326022 19.177675 1.404149 0.872743 0.013159 -0.012246 -414675.000000 1 0 0
-3.161351 13.811481 11.718422 18.386750 -1.345780 0.879768 0.014183 -0.009576 399694.000000 1 0 0
9.323449 4.849481 15.603322 18.812438 0.479628 0.592736 0.048467 -0.009638 142882.000000 1 0 0
-0.344051 12.566681 12.882922 18.000265 -1.543425 0.773160 0.011169 -0.006088 -2979.040000 1 0 0
3.623949 13.590081 14.600322 20.272955 1.310199 0.766724 0.021372 -0.007920 166994.000000 1 0 0
-2.824951 -4.044919 -13.705378 14.566369 0.961148 2.796050 0.005826 -0.009069 -317921.000000 1 0 0
5.841049 -11.414519 16.354522 20.781710 -1.097816 0.664918 0.017984 -0.003409 205055.000000 1 0 0
7.759649 -13.489019 7.349322 17.209832 -1.048769 1.129577 0.001962 -0.003745 -400709.000000 1 0 0
-0.093551 15.595881 1.236022 15.645064 -1.564798 1.491710 0.004200 -0.004716 -1721080.000000 1 0 0
-14.087651 8.145981 9.309522 18.747963 -0.524263 1.051163 0.028604 0.005990 482327.000000 1 0 0
-15.502351 -9.719819 4.963822 18.958831 0.560029 1.305888 0.032596 -0.013824 21088.500000 1 0 0
9.685649 -11.252119 11.099522 18.537027 -0.860075 0.928825 0.032633 0.003492 -46438.100000 1 0 0
-5.618551 -10.737319 -16.582678 20.538825 1.088704 2.510498 0.039959 -0.007617 34529.900000 1 0 0
-1.394651 -12.859219 -14.464378 19.404195 1.462763 2.411969 0.028702 -0.005817 -111267.000000 1 0 0
5.335449 -15.317619 -13.111878 20.857080 -1.235618 2.250617 0.033583 -0.011268 168261.000000 1 0 0
1.600449 -12.834619 -16.081778 20.637647 -1.446739 2.464256 0.020732 -0.004860 361332.000000 1 0 0
0.635849 -14.865419 -13.712278 20.233921 -1.528049 2.315410 0.038153 0.015491 298275.000000 1 0 0
-6.363351 -6.042419 -14.257378 16.741442 0.759534 2.589868 0.014365 -0.012392 -16796.600000 1 0 0
-6.339451 -8.022219 -17.172678 19.986133 0.902037 2.604558 0.028937 -0.007731 64870.300000 1 0 0
-2.284651 -16.197319 -13.304978 21.085426 1.430670 2.253642 0.030897 -0.004374 345787.000000 1 0 0
16.160649 -8.038619 -8.960978 20.151553 -0.461581 2.031612 0.063723 -0.013046 64638.400000 1 0 0
19.098049 -2.969819 -3.702878 19.679091 -0.154268 1.760088 0.082096 -0.019962 133910.000000 1 0 0
15.592449 -12.124819 -8.283278 21.418412 -0.660938 1.967886 0.065932 -0.007497 67750.200000 1 0 0
18.699849 -3.017419 -6.918478 20.165677 -0.159982 1.920992 0.184862 -0.008982 -350635.000000 1 0 0
9.088049 -9.936119 -15.933578 20.861400 -0.829947 2.439950 0.078282 -0.010145 183412.000000 1 0 0
-4.475451 9.906481 -16.163278 19.478696 -1.146471 2.549532 0.020056 -0.003197 444756.000000 1 0 0
2.457849 -9.844919 -18.379178 20.994229 -1.326141 2.637141 0.036103 -0.000591 186445.000000 1 0 0
10.976749 7.945981 -15.095578 20.285564 0.626582 2.410063 0.088438 -0.042098 482150.000000 1 0 0
17.833949 -6.917319 -7.469078 20.534999 -0.370009 1.943059 0.039333 -0.011359 -21005.000000 1 0 0
13.133949 5.607881 -13.452778 19.619536 0.403543 2.326338 0.082202 -0.026792 4098.000000 1 0 0
15.902249 5.989781 -11.029178 20.258376 0.360227 2.146501 0.049217 -0.018415 87579.000000 1 0 0
3.413549 -0.176219 -19.090278 19.393867 -0.051577 2.964421 0.045307 -0.017876 180552.000000 1 0 0
10.138749 -1.501519 -14.729278 17.944370 -0.147028 2.533659 0.030277 -0.010905 -56627.000000 1 0 0
12.339349 -6.057819 -13.773978 19.459681 -0.456369 2.357206 0.053242 -0.010131 276066.000000 1 0 0
10.187549 6.670281 -12.782678 17.654339 0.579706 2.380457 0.043379 -0.014738 463713.000000 1 0 0
10.786549 5.483481 -16.206978 20.225834 0.470316 2.500263 0.074439 -0.028628 506671.000000 1 0 0
11.918949 -10.284419 -15.226978 21.901860 -0.711914 2.339546 0.089853 -0.019111 382317.000000 1 0 0
-1.346351 1.957381 -17.485178 17.645834 -0.968283 3.006550 0.015512 -0.012819 248332.000000 1 0 0
6.510649 -0.877219 -17.484678 18.678116 -0.133929 2.782184 0.031274 0.007336 130932.000000 1 0 0
7.217549 -6.873919 -16.471778 19.252617 -0.761017 2.597429 0.035964 0.005536 236191.000000 1 0 0
-2.250351 -4.580119 -20.534278 21.158879 1.114109 2.898011 0.044582 -0.021653 398928.000000 1 0 0
16.064549 -0.326219 -13.403278 20.924245 -0.020304 2.266026 0.062087 -0.013395 40767.700000 1 0 0
-3.732251 -0.709119 -18.692078 19.074232 0.187760 2.941082 0.011714 -0.006651 89529.200000 1 0 0
4.406449 8.682981 -18.234078 20.671056 1.101182 2.651112 0.034290 -0.012194 97379.700000 1 0 0
10.194849 0.592081 -16.881278 19.729751 0.058011 2.597554 0.060546 -0.026383 10757.000000 1 0 0
4.257949 4.574281 -18.302778 19.340265 0.821199 2.812562 0.028306 -0.016446 514494.000000 1 0 0
-2.792351 -11.120319 -17.593178 20.999491 1.324779 2.564020 0.032269 -0.018361 117099.000000 1 0 0
5.540749 -9.624819 -16.063478 19.528757 -1.048456 2.536686 0.027816 -0.016524 10692.900000 1 0 0
10.133649 -12.455919 -10.737178 19.316515 -0.887841 2.160187 0.037613 -0.001687 108451.000000 1 0 0
6.259949 6.885581 -16.942378 19.329831 0.832955 2.639316 0.044064 -0.023434 356861.000000 1 0 0
8.340849 1.104781 -20.050178 21.743964 0.131688 2.744277 0.072568 -0.024509 116778.000000 1 0 0
-0.911951 -0.868419 -20.239278 20.278417 0.760952 3.079453 0.043091 -0.019641 164603.000000 1 0 0
-0.692551 6.618081 -19.700178 20.793644 -1.466531 2.815850 0.027176 -0.012105 62587.400000 1 0 0
8.864449 5.951581 -18.123478 21.034739 0.591272 2.609205 0.080147 -0.028100 64876.800000 1 0 0
11.467749 -0.129219 -12.937978 17.289223 -0.011268 2.416331 -0.010295 -0.010247 -132937.000000 1 0 0
-4.249751 -2.929919 -19.921478 20.579361 0.603599 2.888058 0.017709 -0.012990 231102.000000 1 0 0
5.743949 -11.421719 -14.562978 19.378569 -1.104834 2.421128 0.025773 -0.010804 120762.000000 1 0 0
11.807549 2.873981 -15.781178 19.917921 0.238759 2.485383 0.070196 -0.010904 -43340.500000 1 0 0
-2.922051 -4.390619 -16.975978 17.776382 0.983587 2.840368 0.018713 -0.013633 346471.000000 1 0 0
-6.876451 -4.665919 -17.142378 19.050394 0.596175 2.690208 0.023288 -0.020358 44115.000000 1 0 0
3.035249 10.084181 -15.208778 18.498929 1.278430 2.535963 0.000489 -0.016151 187695.000000 1 0 0
17.343649 -6.000219 -10.761978 21.274984 -0.333072 2.101165 0.097196 -0.019174 2019.130000 1 0 0
9.933149 -3.628919 -17.543678 20.484559 -0.350270 2.599119 0.056328 -0.022483 31426.600000 1 0 0
-6.975351 -1.739219 -19.318478 20.612715 0.244355 2.785344 -0.000796 0.005162 517963.000000 1 0 0
1.551449 -7.619219 -19.285478 20.793969 -1.369919 2.758346 0.049481 -0.018623 240256.000000 1 0 0
5.660649 10.008881 -14.302378 18.351531 1.056083 2.464434 0.028343 -0.014991 472630.000000 1 0 0
6.266449 -3.907819 -17.352778 18.858906 -0.557599 2.739227 0.054083 -0.031972 572102.000000 1 0 0
4.534049 13.361981 -14.708878 20.382621 1.243663 2.376962 0.028313 -0.012800 103649.000000 1 0 0
9.581149 11.115481 -15.647278 21.452032 0.859397 2.388252 0.101061 -0.019406 -11272.400000 1 0 0
17.186849 1.153581 -11.561278 20.745643 0.067019 2.161911 0.087823 -0.005660 163187.000000 1 0 0
14.879549 -3.000219 -12.403278 19.602133 -0.198966 2.255898 0.063045 -0.010235 121676.000000 1 0 0
-8.650851 0.207781 -17.468378 19.494220 -0.024014 2.681654 0.024002 -0.010438 377837.000000 1 0 0
-3.404751 4.390881 -19.152278 19.941964 -0.911228 2.859234 0.026652 -0.000867 179607.000000 1 0 0
3.717149 1.545581 -17.157678 17.623619 0.394050 2.911133 0.012282 -0.005433 600528.000000 1 0 0
-5.378851 14.251381 -13.726278 20.504746 -1.209900 2.304223 0.040756 -0.019501 444062.000000 1 0 0
1.123549 9.007581 -17.880778 20.052958 1.446704 2.671835 0.013839 -0.013191 417195.000000 1 0 0
1.278449 -5.139619 -19.684678 20.384716 -1.327000 2.878763 0.042953 -0.012915 479525.000000 1 0 0
3.756949 -6.213019 -18.270478 19.660281 -1.026936 2.763334 0.047138 -0.014000 -71977.100000 1 0 0
-7.329651 7.148081 -15.687678 18.732915 -0.772858 2.563377 0.020066 -0.009971 162003.000000 1 0 0
-12.040751 2.897481 -16.558778 20.677723 -0.236150 2.499431 0.080081 -0.030604 372562.000000 1 0 0
-4.757151 7.376481 -17.479278 19.559349 -0.998009 2.676218 0.014673 0.021431 326964.000000 1 0 0
-8.272551 5.394781 -17.585778 20.169243 -0.577871 2.629887 0.029609 -0.007809 405042.000000 1 0 0
-8.435251 4.158181 -15.193278 17.868398 -0.457994 2.587328 0.003953 -0.013035 564517.000000 1 0 0
9.490349 13.603381 -13.096478 21.133775 0.961652 2.239149 0.088919 -0.029684 447713.000000 1 0 0
14.582049 9.552381 -12.050278 21.191823 0.579937 2.175634 0.132347 -0.028775 209183.000000 1 0 0
8.508049 15.848281 -9.951278 20.556820 1.078110 2.076115 0.053688 -0.010520 128094.000000 1 0 0
7.136349 12.705581 -14.423778 20.503772 1.059037 2.351064 0.088540 -0.038905 63854.200000 1 0 0
4.196149 15.444081 -13.014678 20.627874 1.305501 2.253544 0.025148 -0.018035 232174.000000 1 0 0
11.670849 10.748981 -10.916778 19.259423 0.744303 2.173447 0.107502 -0.050612 -95154.700000 1 0 0
16.061149 10.425581 -9.158078 21.225542 0.575755 2.016912 0.105795 -0.046362 251300.000000 1 0 0
13.424249 10.785181 -8.573278 19.236208 0.676817 2.032735 0.114320 -0.036351 169855.000000 1 0 0
10.562949 11.478581 -7.540578 17.326109 0.826916 2.021073 0.054101 -0.018050 1096.420000 1 0 0
5.878249 16.857481 -9.980678 20.453421 1.235278 2.080560 0.044309 -0.009490 170706.000000 1 0 0
10.964749 13.604781 -10.563778 20.418355 0.892439 2.114567 0.101586 -0.044074 106028.000000 1 0 0
7.592649 -19.241319 -1.684278 20.753637 -1.194953 1.652041 0.028910 -0.016771 -417310.000000 1 0 0
7.708649 -17.180019 -4.131678 19.278150 -1.149025 1.786791 0.032283 -0.002530 -94844.200000 1 0 0
4.033749 -18.692519 5.562222 19.915313 -1.358261 1.287738 0.037107 -0.015438 370131.000000 1 0 0
10.180649 -17.982619 -3.002278 20.881424 -1.055647 1.715074 0.044288 0.002137 603189.000000 1 0 0
-3.376951 -14.815119 7.888922 17.120941 1.346686 1.091927 0.037481 -0.030284 -8197.800000 1 0 0
-15.322351 -12.843619 -4.053978 20.400189 0.697620 1.770851 0.024545 -0.009008 -96845.100000 1 0 0
-9.241751 -12.680019 -7.562278 17.417832 0.940973 2.019912 0.025033 -0.005552 10870.600000 1 0 0
-11.715251 -15.003019 6.596822 20.145861 0.907836 1.237190 0.049273 -0.020354 311429.000000 1 0 0
-14.833351 -7.024219 -7.162978 17.907434 0.442258 1.982313 0.053897 -0.035116 -179937.000000 1 0 0
4.898649 -14.961419 6.817022 17.155541 -1.254378 1.162152 0.021108 -0.016032 216930.000000 1 0 0
2.583649 -13.985419 9.229422 16.954333 -1.388117 0.995159 0.010524 -0.004193 424880.000000 1 0 0
3.120149 -17.075019 10.859122 20.474670 -1.390059 1.011761 0.037053 -0.008344 249450.000000 1 0 0
-8.132351 -17.648119 -5.246578 20.127538 1.138993 1.834509 0.025113 -0.009276 -6410.200000 1 0 0
2.310049 -19.789319 -4.163078 20.353984 -1.454590 1.776784 0.031772 -0.013120 80042.400000 1 0 0
-17.264151 -10.514519 -3.021878 20.438634 0.547038 1.719192 -0.045789 -0.021990 -12596.400000 1 0 0
-4.085451 -14.650419 2.592522 15.428767 1.298843 1.401964 0.012059 -0.003882 177713.000000 1 0 0
-10.863551 -9.928519 -14.519578 20.673906 0.740458 2.349440 0.041937 -0.014787 258625.000000 1 0 0
0.991349 -20.450819 2.582122 20.637008 -1.522359 1.445347 0.032536 -0.010374 163552.000000 1 0 0
5.760849 -18.680819 0.947422 19.571867 -1.271666 1.522370 0.014183 0.001145 253791.000000 1 0 0
-6.805451 -18.004719 -2.738778 19.441835 1.209414 1.712137 -0.010306 -0.040829 31502.700000 1 0 0
-9.404251 -15.483919 -7.767178 19.710929 1.024986 1.975835 0.049998 -0.016513 29239.700000 1 0 0
-11.896251 -11.137419 -12.716078 20.670305 0.752466 2.233418 0.040256 0.006396 242528.000000 1 0 0
-13.360051 -15.062019 -3.284478 20.399587 0.845209 1.732507 0.025840 -0.007313 209792.000000 1 0 0
-0.610751 -20.273519 -2.168278 20.398284 1.540680 1.677295 0.035271 -0.013052 316395.000000 1 0 0
-12.268151 -16.878819 -0.469378 20.871568 0.942285 1.593287 0.050247 -0.009924 47772.500000 1 0 0
0.929049 -20.108819 5.141522 20.776500 -1.524628 1.320730 0.038726 -0.018471 223149.000000 1 0 0
-18.227151 -8.619419 2.463322 20.312345 0.441725 1.449225 0.054039 -0.015582 25443.800000 1 0 0
-15.175451 -14.728319 -0.598078 21.155977 0.770447 1.599070 0.046794 -0.013774 11555.100000 1 0 0
9.945949 -15.796619 -4.711078 19.252255 -1.008878 1.818009 0.034268 -0.001540 -27997.900000 1 0 0
-0.076951 -19.170319 -6.961978 20.395494 1.566782 1.919148 0.031233 -0.002474 114032.000000 1 0 0
-10.451151 -17.643719 -2.914178 20.712793 1.036025 1.711959 0.048879 0.010893 527390.000000 1 0 0
-14.728151 -6.705919 -11.387978 19.788224 0.427263 2.184003 0.050783 -0.016769 41058.200000 1 0 0
-12.709051 -15.006619 2.053222 19.772058 0.868107 1.466764 0.052125 -0.021797 334960.000000 1 0 0
-2.239751 -15.907519 10.118822 18.985684 1.430918 1.008688 0.027954 -0.022008 425741.000000 1 0 0
-11.954251 -14.365619 -6.670778 19.843749 0.876761 1.913638 0.009772 -0.009009 196505.000000 1 0 0
5.365949 -17.004019 -7.051578 19.174327 -1.265118 1.947397 0.026209 -0.014775 79926.100000 1 0 0
-17.233351 -7.229419 -2.914878 18.914264 0.397204 1.725523 -0.020282 -0.013315 -201356.000000 1 0 0
-12.436751 -13.619919 -9.686278 20.832641 0.830774 2.054382 0.057392 -0.015859 26783.200000 1 0 0
-7.832551 -13.921819 9.779822 18.729944 1.058323 1.021428 0.041192 -0.013988 295959.000000 1 0 0
-15.723551 -8.306219 -5.787878 18.700878 0.486004 1.885461 0.028231 -0.005529 119567.000000 1 0 0
-1.111251 -19.680519 0.693922 19.724077 1.514392 1.535608 0.020252 -0.007208 165875.000000 1 0 0
-15.037051 -11.484619 -2.091778 19.036410 0.652246 1.680902 0.008960 0.003722 56067.200000 1 0 0
-7.090851 -18.823619 1.130622 20.146640 1.210536 1.514647 0.045245 -0.019216 197489.000000 1 0 0
-2.297951 -20.660019 -5.292278 21.450528 1.460025 1.820091 0.040328 -0.003762 177890.000000 1 0 0
-9.369151 -19.610019 -1.491578 21.784366 1.125087 1.639320 0.064002 -0.010172 177444.000000 1 0 0
-17.755451 -7.741019 5.110422 20.032369 0.411134 1.312837 0.050502 -0.018227 172212.000000 1 0 0
-2.893451 -15.881919 -10.747178 19.393536 1.390588 2.158153 0.026422 -0.003399 68084.200000 1 0 0
-3.032851 -18.533319 -7.941278 20.389850 1.408591 1.970855 0.023275 -0.000783 168572.000000 1 0 0
4.370449 -17.038819 -4.554278 18.170405 -1.319710 1.824140 0.015773 -0.025607 604775.000000 1 0 0
0.735049 -17.475719 -9.402678 19.858283 -1.528760 2.064044 0.035173 0.002394 -159636.000000 1 0 0
-7.677751 -10.122619 -14.876178 19.563127 0.921893 2.434755 0.029803 -0.009559 413431.000000 1 0 0
-4.455751 -19.592519 -1.387078 20.140618 1.347179 1.639721 0.028591 -0.008013 319110.000000 1 0 0
-10.432551 -15.476319 8.709922 20.596536 0.977667 1.134172 0.044894 -0.024186 83046.100000 1 0 0
-7.129551 -15.401419 -10.197378 19.799513 1.137254 2.111841 0.019115 -0.005515 335133.000000 1 0 0
-12.548651 -8.069719 -12.785278 19.648215 0.571491 2.279315 0.041654 -0.005978 173787.000000 1 0 0
-15.563651 -12.982719 3.383722 20.548182 0.695231 1.405370 0.041753 -0.013413 257748.000000 1 0 0
-6.304851 -14.325719 -12.833778 20.240633 1.156200 2.257589 0.022766 -0.009545 387499.000000 1 0 0
-14.248351 -11.663119 -6.790878 19.625490 0.685956 1.924126 0.042210 -0.014263 -30850.800000 1 0 0
-11.907751 -10.523519 -8.452578 17.999585 0.723766 2.059632 0.031003 -0.004977 250757.000000 1 0 0
-9.880451 -14.933019 3.613622 18.266817 0.986274 1.371658 0.018673 -0.007152 578609.000000 1 0 0
4.925149 -18.007219 8.474722 20.502144 -1.303816 1.144658 0.041061 -0.012763 325707.000000 1 0 0
-4.969051 -16.388119 4.917422 17.816928 1.276397 1.291169 0.026063 -0.009852 53804.700000 1 0 0
-18.210451 -7.465719 -7.038078 20.901962 0.389071 1.914226 0.038471 -0.019078 38349.600000 1 0 0
-17.247151 -4.929719 -10.684578 20.878854 0.278405 2.108007 0.076625 -0.012198 -212393.000000 1 0 0
-15.786151 -4.302119 -13.055378 20.932121 0.266064 2.244265 0.059934 -0.020314 333981.000000 1 0 0
-19.619251 -5.745019 -6.000178 21.305454 0.284862 1.856285 0.079204 -0.019286 58527.100000 1 0 0
5.603749 -13.635919 8.718822 17.127701 -1.180882 1.036718 0.027837 -0.000162 238442.000000 1 0 0
19.971249 -3.555319 2.929322 20.495658 -0.176176 1.427381 0.073560 -0.011845 116874.000000 1 0 0
17.972549 -2.296419 0.425122 18.123653 -0.127085 1.547337 0.037334 -0.015901 189278.000000 1 0 0
14.332749 -11.221319 0.175522 18.203749 -0.664236 1.561154 0.049150 0.000121 151347.000000 1 0 0
11.304749 -13.991819 5.477222 18.803412 -0.891224 1.275223 0.028686 0.004160 565572.000000 1 0 0
10.413849 -12.053119 7.887822 17.774804 -0.858233 1.111002 0.036156 -0.035110 7114.130000 1 0 0
19.148849 4.303681 -4.457278 20.126287 0.221075 1.794113 0.077684 0.004284 -62329.000000 1 0 0
18.728249 -6.122619 -4.786578 20.276713 -0.315966 1.809108 0.071405 -0.012481 -98326.500000 1 0 0
17.751349 -10.070919 -0.338878 20.411973 -0.516053 1.587399 0.076400 -0.005319 334970.000000 1 0 0
17.950449 -8.669819 8.680922 21.742649 -0.449944 1.160089 0.114190 -0.023052 -119803.000000 1 0 0
19.896049 0.302481 -2.255878 20.025815 0.015202 1.683684 0.067297 -0.006152 41961.600000 1 0 0
7.572849 -13.589919 11.547822 19.374884 -1.062411 0.932261 0.024320 0.011618 413333.000000 1 0 0
16.461849 -6.525319 -3.523478 18.055114 -0.377391 1.767208 0.068861 -0.004920 55311.000000 1 0 0
14.427449 -6.849519 11.896822 19.914858 -0.443249 0.930561 0.081385 -0.033061 340757.000000 1 0 0
17.221049 2.094881 9.288522 19.678153 0.121052 1.079213 0.116461 -0.029130 250592.000000 1 0 0
16.580249 -10.210719 2.747422 19.664988 -0.551983 1.430626 0.031502 -0.008031 256026.000000 1 0 0
16.155549 -7.023419 -5.854478 18.563542 -0.410089 1.891648 0.062982 -0.006842 87784.700000 1 0 0
18.477149 -4.341619 6.120222 19.942713 -0.230786 1.258873 0.127380 -0.013958 -46870.500000 1 0 0
13.461549 -13.385119 7.951422 20.581541 -0.782551 1.174139 0.047227 -0.017762 173798.000000 1 0 0
15.295649 -14.160019 -1.498778 20.897592 -0.746863 1.642578 0.062289 -0.004680 212397.000000 1 0 0
18.687649 -6.076919 7.890322 21.175796 -0.314398 1.188976 0.111565 -0.025457 267919.000000 1 0 0
19.721749 3.654281 2.642722 20.230797 0.183214 1.439793 0.047812 -0.002990 290492.000000 1 0 0
15.655849 -10.410519 8.317022 20.558632 -0.586820 1.154308 0.056480 -0.031802 247381.000000 1 0 0
14.198449 -4.241019 10.791722 18.331488 -0.290260 0.941348 0.061181 -0.013322 -88085.700000 1 0 0
18.748149 -7.860619 1.999822 20.427474 -0.397011 1.472741 0.094050 -0.012412 180295.000000 1 0 0
18.729349 -4.789319 -1.700478 19.406641 -0.250347 1.658532 0.059853 -0.007810 258001.000000 1 0 0
14.890849 -13.190319 -6.273678 20.858594 -0.724914 1.876298 0.100108 -0.022887 514684.000000 1 0 0
13.735849 -9.533719 10.536722 19.763295 -0.606739 1.008482 0.040937 -0.009800 355504.000000 1 0 0
14.318849 2.066981 0.162922 14.468186 0.143364 1.559535 0.002982 -0.002920 -292660.000000 1 0 0
13.109749 2.657681 13.726922 19.166564 0.200015 0.772467 0.044103 -0.006373 227209.000000 1 0 0
18.306949 -2.505219 9.570222 20.808884 -0.136000 1.092902 0.091103 -0.017310 133313.000000 1 0 0
6.979049 -18.039219 4.569222 19.874565 -1.201649 1.338818 0.033310 -0.025839 368811.000000 1 0 0
12.788149 -2.456919 15.036822 19.891687 -0.189812 0.713715 0.078910 -0.009797 363213.000000 1 0 0
11.129449 -13.465919 -7.050678 18.838993 -0.880110 1.954395 0.029305 -0.011411 167790.000000 1 0 0
10.477449 -18.080719 5.070322 21.503430 -1.045600 1.332764 0.029946 -0.000027 569734.000000 1 0 0
18.183149 -0.449619 -5.805678 19.092799 -0.024722 1.879766 0.063688 -0.007143 135372.000000 1 0 0
4.521849 -13.739219 11.689822 18.597451 -1.252843 0.891082 0.016379 0.000217 275675.000000 1 0 0
9.160549 -2.574619 14.484322 17.330317 -0.273987 0.581246 0.031674 -0.007419 335500.000000 1 0 0
9.237349 -9.301619 13.875122 19.088419 -0.788865 0.757018 0.048529 -0.009464 286151.000000 1 0 0
21.196249 5.938881 -2.468978 22.150556 0.273181 1.682492 0.094620 0.005565 307876.000000 1 0 0
14.615149 -13.473119 1.876522 19.966192 -0.744762 1.476672 0.030635 -0.001397 181492.000000 1 0 0
12.016249 -0.071319 14.335722 18.705835 -0.005935 0.697614 0.091212 -0.019418 -93964.000000 1 0 0
19.673949 -0.157119 7.700622 21.127909 -0.007986 1.197726 0.111310 -0.024388 80803.300000 1 0 0
19.922349 1.277281 0.380322 19.966875 0.064025 1.551748 0.049700 -0.008464 -115179.000000 1 0 0
18.014549 0.352481 3.068222 18.277369 0.019564 1.402128 0.031111 -0.006429 13142.200000 1 0 0
10.541949 -8.267719 16.577822 21.314597 -0.665075 0.679689 0.075299 -0.004449 85975.600000 1 0 0
18.783349 3.014281 5.868322 19.908222 0.159120 1.271583 0.028086 -0.002552 -19857.600000 1 0 0
15.142549 2.406581 6.984222 16.848376 0.157610 1.143366 0.029692 -0.012985 -1669.670000 1 0 0
11.278049 -16.011819 2.045422 19.691533 -0.957152 1.466735 0.013593 0.002919 263858.000000 1 0 0
8.540549 -16.602819 7.070722 19.964711 -1.095692 1.208780 0.030247 0.006525 447714.000000 1 0 0
6.295049 6.607981 7.150422 11.594033 0.809646 0.906211 0.005047 -0.000874 -972315.000000 1 0 0
18.451649 2.848781 -6.357178 19.722896 0.153182 1.898981 0.054606 -0.000299 344710.000000 1 0 0
14.141349 4.554281 -7.305378 16.555597 0.311565 2.027802 0.024879 -0.008540 172521.000000 1 0 0
-10.523851 -3.906419 -13.748678 17.749301 0.355432 2.456885 0.021775 -0.012311 -224751.000000 1 0 0
7.815349 -14.060619 -10.403478 19.157584 -1.063486 2.144858 0.024232 -0.000429 128363.000000 1 0 0
2.267949 -15.625019 14.115022 21.178259 -1.426654 0.841310 0.025103 -0.009943 461332.000000 1 0 0
-9.510451 -7.956919 2.069822 12.571611 0.696692 1.405401 0.010668 -0.002831 340702.000000 1 0 0
-14.051151 2.923881 -9.899078 17.434898 -0.205161 2.174595 0.043595 -0.000716 288970.000000 1 0 0
-12.940851 -5.244119 -13.106378 19.150550 0.385013 2.324558 0.038470 -0.008633 31821.300000 1 0 0
-18.124551 -0.997719 -8.535578 20.058686 0.054992 2.010344 0.086087 -0.027232 448854.000000 1 0 0
-12.169951 15.190181 4.255322 19.923782 -0.895341 1.355558 0.036760 -0.023337 461575.000000 1 0 0
-17.219851 6.170281 9.367122 20.550879 -0.344071 1.097524 0.036227 -0.010525 157526.000000 1 0 0
-14.235151 15.156881 0.288322 20.795521 -0.816748 1.556931 0.053885 -0.038793 -54045.700000 1 0 0
-16.381151 5.425481 -10.687478 20.297787 -0.319832 2.125315 0.076382 -0.007888 67393.900000 1 0 0
-18.351951 2.873481 -0.136578 18.576050 -0.155315 1.578149 0.063403 0.000303 3360.690000 1 0 0
-9.873051 15.585681 -0.257178 18.451470 -1.006130 1.584735 0.017416 -0.010205 -15805.600000 1 0 0
-18.576651 12.103581 2.468122 22.308749 -0.577463 1.459935 0.105770 -0.029718 129022.000000 1 0 0
-7.640951 15.984681 -7.989578 19.435214 -1.124889 1.994443 0.047173 -0.035869 266587.000000 1 0 0
-14.992551 -1.731719 -12.782678 19.778076 0.114996 2.273529 0.054361 -0.030260 61291.600000 1 0 0
-19.314851 5.127781 -4.688078 20.526463 -0.259498 1.801222 0.086954 -0.009758 69889.800000 1 0 0
-16.810051 9.609281 -5.850978 20.227458 -0.519305 1.864249 0.051728 0.005723 -82367.100000 1 0 0
-18.916451 1.349181 2.748722 19.162669 -0.071203 1.426858 0.052695 -0.020207 199066.000000 1 0 0
-14.212351 12.773081 -7.530378 20.538966 -0.732114 1.946190 0.049836 0.012606 31623.100000 1 0 0
-12.833151 4.922981 -13.642078 19.365738 -0.366302 2.352436 0.057165 -0.020376 -20872.300000 1 0 0
-14.139151 9.391281 -6.542678 18.191162 -0.586296 1.938702 0.032786 -0.009307 -14772.100000 1 0 0
-6.741951 11.347581 -15.329278 20.228897 -1.034703 2.430717 0.025345 -0.034993 140537.000000 1 0 0
-14.826951 13.808881 2.884722 20.465710 -0.749861 1.429371 0.032871 -0.025748 -18092.600000 1 0 0
-18.749351 8.379281 -4.957478 21.126455 -0.420282 1.807662 0.066626 -0.016175 284730.000000 1 0 0
-4.648751 16.084881 -11.354978 20.230418 -1.289449 2.166731 0.017204 -0.008497 147384.000000 1 0 0
-19.354651 -2.252919 -6.650678 20.589067 0.115880 1.899715 0.042246 -0.017674 -36970.800000 1 0 0
-10.673451 13.716581 -6.076878 18.411833 -0.909526 1.907156 0.031225 -0.019913 167822.000000 1 0 0
-19.642051 3.054481 4.664422 20.418052 -0.154272 1.340315 0.086477 -0.015348 -40682.500000 1 0 0
-14.893351 11.688781 0.452522 18.937906 -0.665424 1.546899 0.015269 -0.021327 120774.000000 1 0 0
-17.418851 2.748981 -8.019778 19.372406 -0.156526 1.997618 0.043703 -0.013385 201658.000000 1 0 0
-16.853551 14.031781 -3.395078 22.191431 -0.694288 1.724390 0.054542 0.031981 358110.000000 1 0 0
-10.537551 15.555781 -8.321878 20.549355 -0.975397 1.987743 0.036059 -0.033504 131526.000000 1 0 0
-19.895351 1.350281 -6.445178 20.956826 -0.067765 1.883409 0.117429 -0.026552 289442.000000 1 0 0
-17.269151 10.299181 -0.356278 20.110287 -0.537762 1.588513 0.050660 -0.006934 55209.800000 1 0 0
-11.231851 7.236581 -14.728078 19.885645 -0.572351 2.404817 0.026347 -0.015142 78528.900000 1 0 0
-14.066451 12.252181 -5.050878 19.325950 -0.716572 1.835219 0.046742 -0.019967 270559.000000 1 0 0
-18.911251 7.397081 0.119322 20.306808 -0.372851 1.564920 0.066548 -0.009433 90623.100000 1 0 0
-14.311751 9.141781 -11.099578 20.287903 -0.568433 2.149696 0.028430 0.007237 454859.000000 1 0 0
-18.866551 11.254181 4.767922 22.479689 -0.537853 1.357074 0.077357 -0.029097 199093.000000 1 0 0
-8.443851 11.802681 -13.486678 19.811421 -0.949797 2.319586 0.002111 -0.019518 540771.000000 1 0 0
-21.269451 -1.708819 -5.185078 21.958931 0.080169 1.809174 0.071751 -0.024955 222266.000000 1 0 0
-10.853551 13.395081 -3.276178 17.548821 -0.889828 1.758588 0.024662 -0.005338 585776.000000 1 0 0
-18.706951 -4.889619 3.669422 19.680524 0.255660 1.383249 0.049508 -0.016829 -5287.610000 1 0 0
-11.171951 11.356581 -13.785778 21.067323 -0.793593 2.284143 0.020430 -0.007337 132405.000000 1 0 0
-14.897151 11.060681 -10.153678 21.150909 -0.638664 2.071518 0.052866 -0.030779 256939.000000 1 0 0
-12.942651 9.664281 -13.813278 21.253640 -0.641386 2.278282 0.063923 -0.029177 139425.000000 1 0 0
-18.367951 -4.974719 -3.099078 19.280398 0.264492 1.732234 0.016899 -0.015413 -347477.000000 1 0 0
-9.312951 12.488181 -11.572678 19.406509 -0.930026 2.209717 0.022035 -0.020526 50388.600000 1 0 0
-15.822451 7.604381 -8.286978 19.412640 -0.448013 2.011842 0.037566 -0.000531 74189.100000 1 0 0
-14.426351 9.098381 1.941922 17.165990 -0.562672 1.457428 0.023827 -0.002370 -123068.000000 1 0 0
-19.751751 6.047781 7.898622 22.115505 -0.297126 1.205578 0.073848 -0.020366 255031.000000 1 0 0
-18.522851 6.006681 3.895722 19.858320 -0.313585 1.373340 0.025627 -0.002335 17307.900000 1 0 0
-14.442251 12.875081 5.707422 20.172283 -0.728092 1.283945 0.036781 -0.017109 145674.000000 1 0 0
18.071049 5.948881 5.531822 19.812952 0.318021 1.287833 0.032889 -0.015931 57164.600000 1 0 0
18.290949 8.039881 0.531322 19.987016 0.414134 1.544210 0.028766 0.006716 -68888.200000 1 0 0
16.052449 5.175381 9.091722 19.160509 0.311883 1.076397 0.018444 0.001192 566.018000 1 0 0
12.468749 12.751781 10.831322 20.866125 0.796620 1.025015 0.064070 -0.029070 97952.000000 1 0 0
15.663149 12.198181 4.170022 20.285930 0.661669 1.363758 0.041719 -0.012878 308003.000000 1 0 0
4.749349 10.125581 14.360822 18.202113 1.132218 0.661674 0.027479 -0.022528 302207.000000 1 0 0
12.422349 14.584281 -5.120478 19.830162 0.865280 1.831972 0.044631 0.029332 271297.000000 1 0 0
17.646349 9.363881 -2.820478 20.175010 0.487859 1.711056 0.005832 0.001459 -203632.000000 1 0 0
14.643649 7.839381 9.517322 19.143453 0.491521 1.050476 0.038491 -0.016153 116327.000000 1 0 0
4.891849 18.990281 -1.930678 19.705037 1.318680 1.668933 0.021586 -0.012015 418800.000000 1 0 0
-4.437851 19.685181 3.693022 20.514368 -1.349062 1.389788 0.010957 0.006627 340180.000000 1 0 0
6.832449 12.596581 12.740522 19.174909 1.073803 0.844056 0.034869 -0.016932 -88306.000000 1 0 0
0.264549 17.286681 -10.173578 20.059936 1.555494 2.102682 0.010301 0.009210 -51560.600000 1 0 0
10.726249 9.712281 15.598222 21.276404 0.735828 0.747894 0.055348 -0.015018 206444.000000 1 0 0
-1.333751 12.280181 0.785122 12.377325 -1.462610 1.507321 -0.006473 0.003307 395233.000000 1 0 0
-4.682151 19.164781 -2.406278 19.874646 -1.331180 1.692167 0.017286 0.001998 55575.000000 1 0 0
6.651749 17.955881 6.178922 20.120599 1.216021 1.258658 0.031921 -0.031848 -302194.000000 1 0 0
11.358849 17.373681 -1.202478 20.792167 0.991757 1.628662 0.036043 -0.007446 444029.000000 1 0 0
18.410949 10.717181 3.164822 21.536878 0.527161 1.423313 0.035295 -0.003019 332886.000000 1 0 0
11.953049 16.340781 6.751222 21.341872 0.939250 1.248931 0.052685 -0.009331 -9632.430000 1 0 0
18.138249 7.229881 -5.896978 20.397098 0.379298 1.864092 0.028252 0.012559 470133.000000 1 0 0
0.260149 15.564781 11.023922 19.075035 1.554084 0.954614 0.007977 -0.005161 346410.000000 1 0 0
1.320849 20.138081 -2.015678 20.281763 1.505301 1.670344 0.029483 -0.011228 227253.000000 1 0 0
14.569749 9.739981 -1.380278 17.579818 0.589276 1.649392 0.033506 -0.005150 25788.700000 1 0 0
10.447249 16.390081 2.369622 19.580472 1.003321 1.449479 0.040885 -0.030200 339758.000000 1 0 0
0.209249 17.950681 -0.759378 17.967955 1.559140 1.613072 0.011722 0.000725 59978.200000 1 0 0
-0.074451 21.080481 1.411222 21.127797 -1.567265 1.503952 0.023993 -0.008361 218688.000000 1 0 0
5.744149 18.293781 0.283522 19.176498 1.266550 1.556011 0.006184 0.003740 -40302.700000 1 0 0
7.710549 18.393081 -1.835578 20.028164 1.173841 1.662575 0.022265 -0.009903 34292.200000 1 0 0
9.873649 9.844781 12.613222 18.801650 0.783934 0.835432 0.031701 -0.018943 84092.600000 1 0 0
13.677649 14.600081 8.347422 21.677636 0.818007 1.175512 0.064835 -0.022823 77246.900000 1 0 0
0.398349 17.625681 7.071922 18.995668 1.548200 1.189320 0.009044 -0.007501 282046.000000 1 0 0
7.017649 18.041281 -7.760378 20.855664 1.199828 1.952066 0.025248 -0.000919 -46368.300000 1 0 0
-0.895951 18.659281 9.927522 21.154839 -1.522817 1.082322 0.032386 -0.002674 63055.800000 1 0 0
16.333949 6.928181 -7.920178 19.430049 0.401158 1.990648 0.076551 -0.003592 -187698.000000 1 0 0
-5.149751 19.723781 -6.664078 21.446618 -1.315404 1.886756 0.009282 -0.005623 316000.000000 1 0 0
4.332849 16.009681 10.243922 19.494138 1.306489 1.017509 0.024576 -0.005774 129150.000000 1 0 0
8.948249 14.840881 7.448022 18.862554 1.028214 1.164884 0.023741 -0.016201 102806.000000 1 0 0
-2.620651 19.093781 6.775322 20.429030 -1.434397 1.232743 0.017773 -0.008488 114718.000000 1 0 0
4.589949 17.998481 8.066422 20.250435 1.321100 1.161097 0.019210 -0.021751 176899.000000 1 0 0
14.996849 12.174281 -6.117778 20.261930 0.681888 1.877518 0.078064 -0.007308 171140.000000 1 0 0
11.897549 7.055481 15.525322 20.793439 0.535271 0.727792 0.071603 -0.019531 153906.000000 1 0 0
17.124849 9.164681 5.058622 20.070912 0.491385 1.316011 0.029434 -0.011661 185486.000000 1 0 0
5.236349 14.843781 11.872922 19.716071 1.231661 0.924548 0.021082 -0.032015 291779.000000 1 0 0
15.994549 10.974181 -3.758678 19.758186 0.601350 1.762197 0.058881 -0.009569 247271.000000 1 0 0
15.331949 14.193681 6.598322 21.910434 0.746865 1.264898 0.053591 0.004157 198788.000000 1 0 0
12.585149 13.345681 -8.244278 20.111224 0.814719 1.993178 0.118018 -0.047111 168268.000000 1 0 0
-8.772951 15.519281 9.553422 20.225742 -1.056287 1.078853 0.051272 -0.018834 157288.000000 1 0 0
-3.599051 17.614581 -8.031578 19.690934 -1.369248 1.990929 -0.002225 0.036892 11848.700000 1 0 0
2.456749 19.626781 -4.450578 20.274462 1.446271 1.792115 0.023627 -0.015062 153624.000000 1 0 0
7.010649 16.519181 9.047622 20.097065 1.169439 1.103811 0.030333 -0.020302 554110.000000 1 0 0
13.700749 15.180081 -1.670278 20.516706 0.836575 1.652297 0.079445 -0.020881 172735.000000 1 0 0
13.211749 16.224981 4.538522 21.410243 0.887406 1.357197 0.051523 -0.024198 375921.000000 1 0 0
2.524049 18.411081 0.736722 18.597890 1.434552 1.531173 0.016320 -0.015151 -89891.700000 1 0 0
-7.518351 17.389481 1.346922 18.992995 -1.162716 1.499820 0.018459 -0.001921 372556.000000 1 0 0
0.145549 19.895181 -5.722778 20.702406 1.563481 1.850874 0.031697 0.003138 206258.000000 1 0 0
-7.585251 17.859581 -6.608978 20.498275 -1.169166 1.899077 0.044727 -0.018862 262652.000000 1 0 0
-7.417951 18.487281 -1.103078 19.950498 -1.189216 1.626115 0.036111 -0.008137 16695.100000 1 0 0
-14.517651 -9.693319 8.876422 19.583500 0.588712 1.100377 0.048470 -0.010944 288729.000000 1 0 0
-13.414451 -13.459419 7.999722 20.617929 0.787071 1.172338 0.046172 -0.018640 34832.600000 1 0 0
-3.588551 -15.471219 13.114022 20.596453 1.342877 0.880569 0.040093 -0.002961 111004.000000 1 0 0
-2.137951 -14.463319 15.801922 21.528101 1.424040 0.746583 0.040285 -0.005541 244957.000000 1 0 0
-7.697551 -13.647119 13.452722 20.651195 1.057236 0.861334 0.031993 -0.011862 192917.000000 1 0 0
-10.150551 -11.456719 11.530822 19.163766 0.845775 0.925170 0.048572 -0.010480 45098.700000 1 0 0
-7.548451 -10.496519 12.895422 18.260556 0.947341 0.786694 0.039535 -0.014630 280549.000000 1 0 0
-15.510051 -11.908719 6.602122 20.638975 0.654800 1.245187 0.054946 -0.036289 183542.000000 1 0 0
-4.629351 -11.767219 12.800122 17.992816 1.195983 0.779306 0.033644 -0.031560 127066.000000 1 0 0
3.602149 -12.320419 13.932622 18.944291 -1.286352 0.744462 0.011091 -0.003941 598840.000000 1 0 0
7.117549 -13.302119 15.069122 21.323328 -1.079489 0.785978 0.051870 0.009199 388243.000000 1 0 0
7.110949 -8.838419 16.752122 20.231580 -0.893287 0.595232 0.039665 -0.007322 537324.000000 1 0 0
-5.317951 13.634581 13.249822 19.741839 -1.198911 0.835031 0.027542 -0.007203 346918.000000 1 0 0
-13.679351 -1.919219 17.432822 22.242107 0.139391 0.670074 0.069657 -0.011620 362376.000000 1 0 0
-9.873951 9.271381 13.447122 19.086081 -0.753935 0.789006 0.020758 -0.008914 336865.000000 1 0 0
-7.268051 -8.381619 16.981622 20.284269 0.856434 0.578686 0.040232 -0.019292 161119.000000 1 0 0
-4.935651 2.281481 18.125922 18.923923 -0.432990 0.291440 0.028559 -0.015281 603967.000000 1 0 0
-15.504751 -3.601819 14.862522 21.777625 0.228256 0.819663 0.081162 -0.010331 82526.900000 1 0 0
-14.611751 3.417881 13.233522 20.007780 -0.229782 0.848087 0.049975 0.010732 249387.000000 1 0 0
-14.302351 10.730981 9.486422 20.241131 -0.643690 1.083011 -0.005264 0.008821 -244309.000000 1 0 0
-4.105851 11.169381 15.762322 19.750035 -1.218530 0.646676 -0.005931 -0.009607 220409.000000 1 0 0
-13.213551 12.895481 8.726322 20.421559 -0.773216 1.129282 0.035743 -0.010598 109833.000000 1 0 0
-3.732051 -6.155719 18.388322 19.747189 1.025777 0.373141 0.026311 -0.015267 287622.000000 1 0 0
0.576449 -2.862919 17.845622 18.082998 -1.372103 0.162209 0.002408 -0.017226 -83946.300000 1 0 0
-4.517551 6.466981 21.032022 22.462770 -0.961040 0.358837 0.054085 -0.022379 168366.000000 1 0 0
2.408849 -10.445619 16.205622 19.430277 -1.344150 0.584407 0.015835 -0.015029 211164.000000 1 0 0
-14.745751 -0.160119 14.106322 20.407134 0.010858 0.807586 0.034251 -0.003071 -103815.000000 1 0 0
-13.855451 -6.158119 8.293022 17.282076 0.418233 1.070298 0.031155 -0.010241 -19400.800000 1 0 0
10.205849 0.987081 16.314122 19.268738 0.096417 0.561114 0.068252 -0.003351 407333.000000 1 0 0
-7.853951 12.346381 11.315122 18.497288 -1.004231 0.912566 0.029079 -0.019074 46690.600000 1 0 0
-1.659251 7.472281 19.206322 20.675369 -1.352288 0.379238 0.040776 -0.044359 505594.000000 1 0 0
1.022549 -13.293319 15.729422 20.619715 -1.494025 0.703111 0.001551 -0.009587 454400.000000 1 0 0
-3.415351 -11.606319 17.651322 21.399542 1.284608 0.600867 0.044629 -0.023795 316964.000000 1 0 0
-2.133251 8.800581 16.654022 18.956725 -1.332984 0.498024 0.014197 -0.011957 353944.000000 1 0 0
-5.103151 -9.249519 20.420722 22.991338 1.066633 0.477401 0.077126 -0.025290 181546.000000 1 0 0
-6.451651 -2.811019 19.050222 20.308535 0.410903 0.353866 0.025593 -0.018988 98607.600000 1 0 0
-10.851351 -8.270019 15.867822 20.926844 0.651212 0.710169 0.083097 -0.025819 389233.000000 1 0 0
-0.659251 5.833181 17.817422 18.759561 -1.458256 0.318270 0.010623 -0.022295 -296097.000000 1 0 0
-6.341551 -11.093219 18.792022 22.724763 1.051476 0.597152 0.072835 -0.024620 509740.000000 1 0 0
0.536649 3.454181 18.910922 19.231285 1.416666 0.182783 0.022164 -0.012600 -8913.920000 1 0 0
-18.537551 -0.538519 7.769222 20.107004 0.029042 1.174078 0.070322 -0.019479 305046.000000 1 0 0
-1.853151 -8.762319 17.620522 19.766011 1.362377 0.470249 0.009683 -0.005806 137135.000000 1 0 0
5.825949 3.671881 14.959622 16.468597 0.562375 0.431421 0.017076 -0.008595 216479.000000 1 0 0
-15.022351 -7.671019 10.947822 20.108962 0.472124 0.995093 0.103122 0.013257 200347.000000 1 0 0
4.056149 8.152481 16.380222 18.741050 1.109122 0.507363 0.015091 -0.030345 106217.000000 1 0 0
6.375349 4.474581 17.197422 18.879043 0.611971 0.425272 0.049614 -0.038688 289048.000000 1 0 0
5.395149 -9.323219 18.365622 21.291456 -1.046202 0.530446 0.030199 0.006507 281523.000000 1 0 0
-4.341051 -0.283219 19.932322 20.401529 0.065150 0.214883 0.033458 -0.014905 741252.000000 1 0 0
-11.254351 2.143881 16.699522 20.251683 -0.188238 0.601303 0.049899 -0.024050 115086.000000 1 0 0
-16.668851 -4.213119 8.666522 19.253819 0.247569 1.103897 0.053209 -0.023819 234242.000000 1 0 0
-12.997351 -9.473619 12.454122 20.341724 0.629852 0.911899 0.037588 -0.027464 37159.400000 1 0 0
-14.247051 5.709781 13.390422 20.368688 -0.381169 0.853430 0.042436 -0.007078 344946.000000 1 0 0
1.241049 9.108581 17.049622 19.369978 1.435380 0.494495 0.002082 -0.023403 149085.000000 1 0 0
-3.854551 -10.589619 15.132722 18.867879 1.221710 0.640100 0.026277 -0.008564 740301.000000 1 0 0
-18.346651 -3.032819 6.965222 19.857288 0.163825 1.212410 0.098553 -0.017043 -112367.000000 1 0 0
-0.678051 -0.575519 20.970222 20.989073 0.703788 0.042386 0.039307 -0.022571 278139.000000 1 0 0
-1.891451 2.477781 20.352622 20.589954 -0.918797 0.151979 0.031185 -0.017132 70389.400000 1 0 0
-8.101251 1.975781 16.088722 18.121284 -0.239216 0.478176 0.009404 -0.001042 531855.000000 1 0 0
2.563149 -2.317419 18.729522 19.045607 -0.735092 0.182441 0.009085 -0.013540 -358124.000000 1 0 0
-11.782851 3.921381 14.921122 19.412694 -0.321274 0.694104 -0.001230 -0.001444 172554.000000 1 0 0
-13.827351 -5.487919 13.013022 19.764909 0.377821 0.852118 0.077096 -0.014888 21926.900000 1 0 0
-17.522751 -0.902219 9.912322 20.152293 0.051443 1.056559 0.083222 -0.017287 299055.000000 1 0 0
-7.195451 7.782581 14.615722 18.054429 -0.824578 0.627434 0.016153 -0.014714 -73426.200000 1 0 0
-9.730351 0.742481 13.766522 16.874482 -0.076158 0.616652 0.019756 -0.008590 239304.000000 1 0 0
8.120949 -0.599619 14.715322 16.818147 -0.073702 0.505429 0.044138 -0.012171 -1372.460000 1 0 0
3.941449 6.278081 18.293222 19.738067 1.010178 0.384998 0.013598 -0.011636 131256.000000 1 0 0
2.078949 0.422181 19.786222 19.899619 0.200350 0.106807 0.026536 -0.021679 273461.000000 1 0 0
-6.899251 5.964681 17.012622 19.303015 -0.712875 0.492094 0.016323 -0.029961 315966.000000 1 0 0
7.525849 -2.886419 16.929322 18.750247 -0.366231 0.444362 0.035220 -0.001204 280657.000000 1 0 0
-16.297551 2.326581 9.325522 18.920584 -0.141798 1.055403 0.048288 -0.012927 174833.000000 1 0 0
4.602049 -5.189919 18.865722 20.100487 -0.845362 0.352332 0.053725 -0.031691 178091.000000 1 0 0
-3.828751 -3.658619 20.738722 21.404191 0.762679 0.250012 0.025621 -0.014554 442136.000000 1 0 0
-9.631651 5.941081 14.533822 18.420020 -0.552702 0.661579 0.021251 -0.007580 -25417.000000 1 0 0
6.570549 2.692481 19.872722 21.103238 0.388909 0.343176 0.075723 -0.022741 138119.000000 1 0 0
-7.720551 11.403681 14.514822 20.008271 -0.975658 0.759121 0.051175 -0.018604 387263.000000 1 0 0
-14.377751 5.026781 8.582722 17.482888 -0.336338 1.057649 0.024261 -0.016070 134188.000000 1 0 0
1.553749 -5.467219 20.114022 20.901638 -1.293903 0.275395 0.041839 -0.030035 374200.000000 1 0 0
-6.276451 -8.268019 13.664722 17.160379 0.921481 0.649651 0.023615 -0.004482 288271.000000 1 0 0
-12.888351 10.161381 6.543522 17.668643 -0.667637 1.191414 0.003976 -0.011381 128145.000000 1 0 0
-19.310351 2.158581 8.060522 21.036186 -0.111322 1.177566 0.048863 -0.021818 126739.000000 1 0 0
-15.984051 9.043781 6.343722 19.429943 -0.514893 1.238206 0.039288 -0.009436 69836.000000 1 0 0
-12.519951 7.907381 14.317922 20.598028 -0.563319 0.802222 0.018543 -0.002135 65106.600000 1 0 0
-16.728851 9.180581 10.504222 21.782475 -0.501912 1.067595 0.055965 -0.011229 466711.000000 1 0 0
2.197949 11.116081 14.354922 18.288303 1.375587 0.668223 -0.001621 -0.041430 394559.000000 1 0 0
1.789149 14.053581 11.784222 18.427482 1.444168 0.876959 0.017325 -0.057354 349861.000000 1 0 0
8.851749 5.064181 16.399522 19.311751 0.519660 0.556329 0.045621 -0.017432 81485.000000 1 0 0
-0.437651 13.454481 13.207822 18.858981 -1.538280 0.794913 0.014154 -0.000717 193873.000000 1 0 0
4.380549 13.927381 15.065422 20.979230 1.266065 0.769712 0.036443 0.015016 94582.600000 1 0 0
-3.545051 -4.521419 -13.309478 14.496649 0.905852 2.734074 0.005349 -0.013642 132355.000000 1 0 0
5.289449 -11.874219 16.976522 21.381713 -1.151727 0.653478 -0.017347 0.016228 220996.000000 1 0 0
8.638949 -13.823219 7.216422 17.826653 -1.012226 1.154024 0.009030 -0.001114 313160.000000 1 0 0
-0.370851 15.520981 0.330422 15.528927 -1.546907 1.549517 0.002861 -0.004479 -640504.000000 1 0 0
-14.698651 7.473881 9.031022 18.800761 -0.470404 1.069738 0.043003 0.007313 -79019.700000 1 0 0
-16.360751 -9.597719 4.575722 19.512242 0.530531 1.334087 0.048102 -0.013741 362258.000000 1 0 0
9.261349 -10.474419 11.442622 18.067087 -0.846786 0.884934 0.023474 0.006839 143825.000000 1 0 0
-26.806981 5.758481 30.954545 41.351641 -0.211597 0.724895 0.056406 -0.026562 -885812.000000 0 0 1
-25.591111 5.174981 30.674915 40.281954 -0.199527 0.705164 0.051774 -0.025657 29109.000000 0 0 1
-24.533451 5.513981 31.583025 40.370555 -0.221080 0.672401 0.045177 -0.022194 568041.000000 0 0 1
-23.215551 4.737081 31.398285 39.335151 -0.201285 0.646454 0.045438 -0.022652 -15461.000000 0 0 1
-23.315351 3.346781 31.592755 39.406963 -0.142570 0.640654 0.052964 -0.022318 512627.000000 0 0 1
-22.005751 2.877781 31.275465 38.349569 -0.130036 0.617141 0.044153 -0.017496 525827.000000 0 0 1
-21.613551 1.567281 32.009936 38.655375 -0.072387 0.595113 0.030756 -0.017443 -264633.000000 0 0 1
-22.109851 0.342881 31.504805 38.490464 -0.015507 0.611985 0.034490 -0.014479 116289.000000 0 0 1
-22.157351 -0.585619 32.564939 39.392467 0.026424 0.597616 0.030733 -0.012254 -315695.000000 0 0 1
-22.569251 -1.952419 32.081541 39.273507 0.086293 0.614824 0.040566 -0.034056 -466035.000000 0 0 1
-21.575351 -2.816819 31.582515 38.352125 0.129823 0.603264 0.065123 -0.043309 -209269.000000 0 0 1
-21.584851 -4.165219 32.029337 38.847565 0.190626 0.601500 0.076643 -0.046277 -730367.000000 0 0 1
-22.824551 -5.024919 31.750405 39.424588 0.216697 0.634539 0.068249 -0.038031 338776.000000 0 0 1
-24.053351 -4.771719 32.428428 40.656315 0.195838 0.647452 0.055706 -0.031510 594630.000000 0 0 1
-24.047051 -5.023419 33.803334 41.787089 0.205938 0.628446 0.059657 -0.029361 127498.000000 0 0 1
-25.469051 -4.579519 -33.576928 42.391681 0.177906 2.484979 0.055515 -0.028814 633390.000000 0 0 1
-25.532701 -4.611719 -32.160618 41.321812 0.178693 2.462744 0.058903 -0.029235 107876.000000 0 0 1
-26.761641 -4.231519 -31.578558 41.608851 0.156820 2.432478 0.065908 -0.026473 -239630.000000 0 0 1
-26.910661 -4.650419 -30.077748 40.626112 0.171119 2.404395 0.051830 -0.016534 -465746.000000 0 0 1
-26.781121 -6.050119 -29.976588 40.650070 0.222180 2.400054 0.051994 -0.019318 489533.000000 0 0 1
-26.716081 -6.399419 -28.630118 39.678523 0.235105 2.376838 0.033729 -0.016411 -414377.000000 0 0 1
-27.071571 -7.842219 -28.344208 39.972046 0.281967 2.359018 0.036184 -0.019469 -126804.000000 0 0 1
-28.420921 -8.171419 -28.592868 41.134814 0.279963 2.339357 0.050866 -0.014858 -128622.000000 0 0 1
-28.568641 -9.540719 -28.309558 41.335501 0.322312 2.325225 0.051529 -0.022409 -560779.000000 0 0 1
-29.979781 -10.064819 -28.123988 42.320758 0.323897 2.297679 0.093836 -0.012865 -543742.000000 0 0 1
-30.170171 -11.155219 -27.240278 42.151048 0.354154 2.273462 0.107076 -0.024186 -305195.000000 0 0 1
-31.396571 -11.176619 -26.533638 42.599242 0.341994 2.243198 0.115029 -0.019749 55204.900000 0 0 1
-31.471031 -12.092719 -25.301278 42.152275 0.366855 2.214591 0.122080 -0.023073 84381.500000 0 0 1
-30.596021 -11.715419 -24.235478 40.752005 0.365684 2.207697 0.129768 -0.019239 260464.000000 0 0 1
-30.647691 -12.371619 -22.977078 40.252752 0.383668 2.178301 0.148062 -0.023786 -339765.000000 0 0 1
-29.702841 -11.584119 -22.028078 38.751604 0.371856 2.175408 0.166577 -0.026195 -173150.000000 0 0 1
-29.668971 -12.012119 -20.696578 38.116757 0.384699 2.144776 0.175431 -0.029498 -169687.000000 0 0 1
-29.004701 -13.222319 -20.501278 37.899931 0.427723 2.142341 0.170720 -0.027315 -470408.000000 0 0 1
-28.899111 -13.501819 -19.002478 37.128855 0.437069 2.108073 0.162607 -0.032228 -75567.100000 0 0 1
-28.210461 -12.493319 -18.347478 35.896282 0.416901 2.107289 0.155998 -0.035398 -236893.000000 0 0 1
-28.075451 -12.810419 -16.989678 35.227644 0.428069 2.074055 0.155167 -0.028537 10103.900000 0 0 1
-27.728161 -11.580919 -16.153978 34.116266 0.395636 2.064054 0.152315 -0.031093 1059590.000000 0 0 1
-26.388721 -11.035319 -16.178178 32.861471 0.396083 2.085543 0.124770 -0.030598 1170170.000000 0 0 1
-26.299791 -9.909119 -15.328478 32.012995 0.360326 2.070107 0.120450 -0.037515 86873.700000 0 0 1
-25.076031 -8.961819 -15.567678 30.845974 0.343239 2.099820 0.100944 -0.031608 441519.000000 0 0 1
-23.870351 -9.543319 -15.135378 29.832000 0.380332 2.102908 0.079181 -0.036553 101400.000000 0 0 1
-22.718951 -8.748719 -15.321078 28.765018 0.367583 2.132500 0.104174 -0.057651 979351.000000 0 0 1
-21.605351 -9.016919 -14.205178 27.383993 0.395370 2.116173 0.095110 -0.027779 615152.000000 0 0 1
-20.815351 -10.157319 -14.418578 27.282693 0.453979 2.127615 0.091280 -0.017950 113936.000000 0 0 1
-19.758551 -10.321819 -13.501678 26.062149 0.481405 2.115374 0.102404 -0.019054 1001560.000000 0 0 1
-18.586951 -11.267819 -14.056078 25.884586 0.544982 2.144836 0.098879 -0.009978 720578.000000 0 0 1
-17.985451 -10.868919 -15.262578 25.972218 0.543588 2.198948 0.115483 -0.035277 -143658.000000 0 0 1
-18.683951 -11.110219 -16.414778 27.239162 0.536469 2.217573 0.098800 -0.040769 -399360.000000 0 0 1
-17.872851 -10.627919 -17.677278 27.292446 0.536469 2.275356 0.104503 -0.039607 233862.000000 0 0 1
-18.577451 -10.929019 -18.867178 28.644992 0.531768 2.289827 0.080139 -0.039171 512253.000000 0 0 1
-17.870251 -10.537819 -20.019578 28.830106 0.532800 2.338380 0.082096 -0.042679 225537.000000 0 0 1
-18.700951 -11.025119 -21.276278 30.396691 0.532699 2.346129 0.087257 -0.042650 433934.000000 0 0 1
-19.940051 -10.368919 -21.416278 31.044759 0.479523 2.332080 0.085852 -0.052850 -11749.300000 0 0 1
-20.825451 -10.822519 -22.402678 32.445436 0.479265 2.332938 0.090416 -0.047267 246063.000000 0 0 1
-22.013351 -9.843119 -22.539078 33.007342 0.420476 2.322454 0.075163 -0.039732 -140279.000000 0 0 1
-21.765451 -8.793819 -23.443978 33.176591 0.383973 2.355538 0.078388 -0.047949 293865.000000 0 0 1
-22.882651 -8.402919 -24.232078 34.371767 0.351931 2.353219 0.065000 -0.042824 -106032.000000 0 0 1
-22.483251 -7.575719 -25.444688 34.789657 0.325002 2.391149 0.053178 -0.041400 455212.000000 0 0 1
-21.495051 -8.305619 -26.209128 34.898982 0.368725 2.420371 0.074874 -0.039544 560931.000000 0 0 1
-20.939351 -7.550219 -27.227068 35.167818 0.346065 2.456253 0.070072 -0.048871 -273616.000000 0 0 1
-19.721751 -8.268119 -27.846058 35.110001 0.396981 2.486693 0.106696 -0.044642 -148570.000000 0 0 1
-20.010951 -9.300819 -28.719778 36.218352 0.435082 2.486452 0.120632 -0.039660 657090.000000 0 0 1
-18.811451 -9.810519 -29.323578 36.193773 0.480714 2.515261 0.086943 -0.029110 531482.000000 0 0 1
-19.084351 -11.065919 -30.223488 37.418261 0.525466 2.511071 0.087826 -0.023701 -62318.900000 0 0 1
-19.606351 -10.705919 -31.473948 38.595791 0.499800 2.524348 0.082437 -0.015471 113418.000000 0 0 1
-19.733351 -11.895519 -32.246518 39.632644 0.542485 2.521174 0.071920 -0.018006 11482.100000 0 0 1
-20.149951 -11.596319 -33.725598 40.962313 0.522211 2.538054 0.072026 -0.016556 728783.000000 0 0 1
-19.248051 -10.759619 33.316381 39.952949 0.509725 0.584677 0.057682 -0.013493 725649.000000 0 0 1
-19.567051 -10.851219 31.943796 39.000315 0.506342 0.611017 0.063150 -0.020131 -602657.000000 0 0 1
-18.989151 -12.029019 31.086985 38.362557 0.564665 0.626052 0.046713 -0.015902 -199886.000000 0 0 1
-17.582351 -11.952619 30.936355 37.537478 0.597045 0.602104 0.035851 -0.019829 83585.300000 0 0 1
-16.924451 -12.953519 30.248805 37.002985 0.653267 0.613793 0.045817 -0.020114 -216512.000000 0 0 1
-17.191251 -14.432719 30.546995 37.907274 0.698389 0.633713 0.051219 -0.013017 -323399.000000 0 0 1
-18.499351 -14.951519 30.170175 38.418920 0.679732 0.667624 0.054854 -0.017526 1064090.000000 0 0 1
-18.766951 -16.210619 30.788315 39.533568 0.712443 0.678063 0.065543 -0.017068 -137100.000000 0 0 1
-19.166651 -16.222119 32.337588 40.941877 0.702384 0.660246 0.042189 -0.017848 -874417.000000 0 0 1
-18.097151 -16.097819 33.194293 41.091456 0.726996 0.630361 0.057775 -0.013658 -838865.000000 0 0 1
-18.455951 -15.719819 -33.339958 41.222417 0.705508 2.512875 0.054858 -0.018538 396098.000000 0 0 1
-17.251151 -15.164619 -32.524868 39.817520 0.721119 2.526722 0.056042 -0.015164 228970.000000 0 0 1
-16.723051 -13.957019 -33.042748 39.576281 0.695484 2.558771 0.050185 -0.008137 771961.000000 0 0 1
-15.472151 -13.529119 -32.444478 38.406623 0.718500 2.576918 0.040127 -0.004661 967758.000000 0 0 1
-15.547551 -13.079719 -30.938388 37.013366 0.699405 2.560513 0.073827 -0.012102 -338844.000000 0 0 1
-15.783151 -14.259719 -30.083478 36.843766 0.734733 2.526144 0.067770 -0.016806 -255846.000000 0 0 1
-16.254951 -13.962319 -28.806258 35.902232 0.709672 2.502023 0.070982 -0.018284 -52433.800000 0 0 1
-16.236651 -15.319919 -27.964338 35.781740 0.756356 2.467903 0.088676 -0.028674 1836120.000000 0 0 1
-14.918151 -15.865919 -27.597448 35.155337 0.816176 2.473516 0.078318 -0.033853 1630810.000000 0 0 1
-14.160451 -16.509519 -28.625418 35.951316 0.861841 2.491830 0.063670 -0.031778 -854503.000000 0 0 1
-12.868851 -17.124419 -28.164398 35.384832 0.926341 2.491364 0.073077 -0.025036 -995265.000000 0 0 1
-11.879051 -16.148519 -27.958718 34.403146 0.936567 2.519531 0.066677 -0.022917 -985603.000000 0 0 1
-11.021451 -16.517919 -26.926618 33.456790 0.982395 2.506165 0.094005 -0.033375 -234739.000000 0 0 1
-9.635851 -15.906719 -27.218438 32.965386 1.026143 2.542180 0.067129 -0.029472 -157669.000000 0 0 1
-9.670651 -14.489619 -27.236928 32.331421 0.982273 2.572572 0.068077 -0.022716 -443571.000000 0 0 1
-8.392651 -13.960819 -27.493678 31.956899 1.029526 2.606725 0.091417 -0.024072 -1009.910000 0 0 1
-8.307751 -12.444919 -27.878898 31.640602 0.982174 2.649004 0.059006 -0.023411 -78305.900000 0 0 1
-8.493051 -12.199619 -29.278338 32.835708 0.962643 2.671799 0.066838 -0.020162 188902.000000 0 0 1
-8.461551 -10.767519 -29.555808 32.574270 0.904749 2.707700 0.054672 -0.019173 282046.000000 0 0 1
-7.205051 -10.371119 -30.389238 32.908641 0.963621 2.747753 0.054207 -0.006086 -407140.000000 0 0 1
-5.954651 -10.491319 -29.732888 32.086917 1.054557 2.756160 0.059950 -0.006973 484675.000000 0 0 1
-4.881751 -10.299219 -30.642848 32.693876 1.128170 2.785499 0.070760 -0.007736 -17322.400000 0 0 1
-4.655551 -8.821819 -31.001588 32.566810 1.085210 2.830299 0.058799 -0.004768 -995639.000000 0 0 1
-3.498751 -8.584419 -31.791648 33.115591 1.183781 2.857872 0.080448 -0.014838 111160.000000 0 0 1
-3.543251 -7.358019 -32.413228 33.426224 1.122018 2.894774 0.082001 -0.013999 -744462.000000 0 0 1
-2.258451 -6.600319 -32.661378 33.398060 1.241111 2.931168 0.087557 -0.016964 -366782.000000 0 0 1
-1.503751 -7.153519 -33.757938 34.540302 1.363602 2.928347 0.101966 -0.020450 202283.000000 0 0 1
-0.341651 -6.393619 33.824893 34.425550 1.517411 0.187077 0.121045 -0.023754 132607.000000 0 0 1
0.381249 -6.994219 32.608073 33.351925 -1.516341 0.211596 0.115406 -0.017096 -12894.700000 0 0 1
-0.247051 -6.777319 31.339535 32.064927 1.534360 0.213112 0.110672 -0.022266 297034.000000 0 0 1
0.438449 -7.468419 30.288895 31.199146 -1.512157 0.242151 0.098807 -0.025219 261073.000000 0 0 1
-0.085751 -7.038319 28.879915 29.725322 1.558613 0.239067 0.091066 -0.020901 161045.000000 0 0 1
0.299549 -5.710819 28.474865 29.043435 -1.518391 0.198196 0.101277 -0.031272 66433.100000 0 0 1
-0.011651 -5.403619 27.115505 27.648686 1.568640 0.196705 0.097736 -0.027051 -803464.000000 0 0 1
-1.176951 -4.445319 26.908115 27.298219 1.311973 0.169261 0.074634 -0.017066 545450.000000 0 0 1
-2.406151 -5.132919 27.253915 27.837247 1.132445 0.205079 0.040280 -0.002927 908832.000000 0 0 1
-3.493751 -4.267819 26.840315 27.401152 0.884800 0.202671 0.024906 -0.011009 1904840.000000 0 0 1
-4.975951 -4.740019 27.164125 28.019950 0.761120 0.247791 0.014509 -0.006474 1543070.000000 0 0 1
-5.477651 -5.775819 26.312255 27.489990 0.811888 0.293775 0.012136 -0.005813 -481451.000000 0 0 1
-6.763951 -6.220219 26.637985 28.178439 0.743546 0.332185 0.012578 -0.006520 105047.000000 0 0 1
-6.912451 -7.672819 26.282535 28.238729 0.837484 0.374402 0.018262 -0.007870 -229781.000000 0 0 1
-6.053851 -8.390019 27.094655 29.002791 0.945751 0.364762 0.026980 -0.011524 -411573.000000 0 0 1
-6.374551 -9.746119 27.250475 29.634610 0.991572 0.403865 0.041326 -0.013030 -143054.000000 0 0 1
-5.568351 -10.267619 28.413955 30.721058 1.073867 0.390020 0.031894 -0.014590 -136029.000000 0 0 1
-5.581951 -11.705219 28.376515 31.199310 1.125818 0.428659 0.052282 -0.022150 27428.400000 0 0 1
-4.931351 -12.235519 29.527635 32.340492 1.187676 0.420160 0.073354 -0.027940 82961.400000 0 0 1
-5.239551 -13.735419 29.694905 33.134605 1.206372 0.459690 0.090831 -0.034428 1048590.000000 0 0 1
-6.638051 -14.087719 29.635785 33.478460 1.130458 0.483831 0.077461 -0.034972 747707.000000 0 0 1
-6.724451 -15.495019 29.406175 33.912195 1.161348 0.521392 0.076671 -0.035092 213637.000000 0 0 1
-6.799151 -16.428719 30.650165 35.433937 1.178401 0.525657 0.086285 -0.030613 -1162630.000000 0 0 1
-8.088351 -16.499119 31.094515 36.118018 1.114996 0.533732 0.081524 -0.034881 -1337620.000000 0 0 1
-8.066651 -16.884519 32.412949 37.426690 1.125103 0.523573 0.070460 -0.023065 -11179.300000 0 0 1
-9.485051 -16.982519 33.017806 38.321634 1.061437 0.532389 0.072205 -0.014346 736881.000000 0 0 1
-10.413551 -18.027819 32.709402 38.773049 1.046982 0.566822 0.088854 -0.016680 551491.000000 0 0 1
-10.882051 -18.121119 31.378255 37.833700 1.029996 0.592812 0.083578 -0.024859 -626667.000000 0 0 1
-11.637251 -19.425719 31.147905 38.509430 1.031065 0.628622 0.082279 -0.020267 -53157.000000 0 0 1
-12.724451 -19.678919 32.021598 39.680653 0.996813 0.631771 0.083351 -0.016117 21157.300000 0 0 1
-13.176851 -20.990919 31.966569 40.448852 1.010229 0.659504 0.086755 -0.020698 -111059.000000 0 0 1
-12.389151 -22.036719 32.828569 41.434562 1.058631 0.656228 0.106391 -0.032808 -169602.000000 0 0 1
-11.074151 -22.355419 32.395698 40.888664 1.110861 0.656242 0.089349 -0.030142 -516184.000000 0 0 1
-10.384151 -22.659819 33.545992 41.792722 1.141092 0.639029 0.093958 -0.046665 -397493.000000 0 0 1
-10.460651 -24.085919 -33.772188 42.779871 1.161070 2.480694 0.113467 -0.037360 -351244.000000 0 0 1
-10.054751 -25.022209 33.131681 42.719050 1.188711 0.683176 0.117682 -0.037394 -117365.000000 0 0 1
-10.126451 -26.346819 33.614075 43.893119 1.203852 0.698486 0.140075 -0.044223 -538384.000000 0 0 1
-9.473651 -27.339309 32.622784 43.605435 1.237224 0.725548 0.122729 -0.040513 778629.000000 0 0 1
-8.069651 -27.177269 32.425599 43.071367 1.282162 0.718439 0.120850 -0.043736 349873.000000 0 0 1
-7.254451 -27.882029 33.344824 44.067129 1.316256 0.712573 0.115387 -0.041428 253398.000000 0 0 1
-5.771951 -27.403429 33.331323 43.534359 1.363202 0.698772 0.112272 -0.049249 518615.000000 0 0 1
-5.453451 -26.184819 -33.867768 43.155655 1.365464 2.473140 0.111422 -0.044089 412.893000 0 0 1
-5.233651 -25.075439 33.165972 41.906449 1.365034 0.657653 0.129942 -0.049568 -5749.300000 0 0 1
-4.654851 -23.880519 33.899525 41.726786 1.378288 0.622512 0.122554 -0.046165 974210.000000 0 0 1
-3.306151 -24.011619 -33.457938 41.314914 1.433967 2.514654 0.105074 -0.053828 1029840.000000 0 0 1
-2.975651 -22.830819 -32.786898 40.063468 1.441192 2.529372 0.103328 -0.051700 49418.800000 0 0 1
35.208335 -16.057319 1.761222 38.737143 -0.427887 1.525315 0.200341 -0.045804 -213060.000000 0 0 1
36.008665 -15.882419 2.898022 39.462307 -0.415405 1.497292 0.197996 -0.047864 -439860.000000 0 0 1
35.326575 -16.125119 4.068022 39.045296 -0.428212 1.466420 0.177118 -0.052286 -756006.000000 0 0 1
36.029875 -16.014319 5.436222 39.801542 -0.418248 1.433785 0.151105 -0.037278 -267703.000000 0 0 1
37.050375 -16.978219 5.421422 41.114255 -0.429691 1.438549 0.159742 -0.040351 -468733.000000 0 0 1
-36.798721 -17.078319 6.553022 41.094488 0.434518 1.410650 0.140656 -0.028186 -432306.000000 0 0 1
-35.591615 -18.028119 6.567022 40.433920 0.468856 1.407660 0.115556 -0.029244 -176653.000000 0 0 1
-35.755812 -19.451019 6.518722 41.222736 0.498222 1.411996 0.109063 -0.030672 813880.000000 0 0 1
-34.443768 -20.001519 6.757222 40.399182 0.526108 1.402745 0.093276 -0.026122 956523.000000 0 0 1
-34.456658 -21.507219 7.073022 41.229229 0.558011 1.398390 0.107941 -0.020518 -80441.200000 0 0 1
-34.493353 -22.324819 5.906522 41.509950 0.574419 1.428020 0.116619 -0.026188 222711.000000 0 0 1
-34.694458 -23.693419 6.259122 42.476583 0.599168 1.422903 0.123851 -0.023714 -27394.800000 0 0 1
-34.304121 -24.731119 5.150222 42.601945 0.624640 1.449608 0.110828 -0.018484 30029.500000 0 0 1
-34.807447 -24.499919 3.867422 42.740628 0.613319 1.480187 0.109249 -0.019606 34058.900000 0 0 1
-34.017051 -25.126229 2.866822 42.387566 0.636189 1.503111 0.102168 -0.017939 103717.000000 0 0 1
-34.528973 -24.885119 1.443122 42.586403 0.624486 1.536903 0.088096 -0.017965 745036.000000 0 0 1
-35.752625 -25.640679 1.127622 44.010977 0.622156 1.545172 0.084573 -0.021163 1556640.000000 0 0 1
-36.348841 -25.220539 -0.123078 44.241711 0.606585 1.573578 0.070348 -0.019843 -74844.000000 0 0 1
-37.197131 -23.954019 0.081722 44.242833 0.572128 1.568949 0.085952 -0.028783 -1316560.000000 0 0 1
36.014265 -24.161419 0.162522 43.368512 -0.590917 1.567049 0.060126 -0.014706 -577610.000000 0 0 1
35.391615 -23.047319 0.678922 42.239865 -0.577224 1.554723 0.082204 -0.026474 92607.900000 0 0 1
33.857105 -23.201719 0.471322 41.046869 -0.600781 1.559314 0.065657 -0.022330 185665.000000 0 0 1
33.455195 -23.031119 -0.863578 40.625463 -0.602910 1.592055 0.064205 -0.034470 -1787930.000000 0 0 1
32.093765 -23.003819 -0.833378 39.495315 -0.621892 1.591899 0.066364 -0.033206 -1498830.000000 0 0 1
31.593005 -22.871619 -2.276078 39.069290 -0.626617 1.629087 0.070984 -0.030985 -256892.000000 0 0 1
31.755665 -21.589019 -2.819478 38.502694 -0.597073 1.644090 0.105251 -0.038402 81915.000000 0 0 1
31.319455 -21.450819 -4.163678 38.188769 -0.600522 1.680042 0.102959 -0.054220 84865.700000 0 0 1
31.330425 -19.973019 -4.604078 37.439478 -0.567535 1.694082 0.103602 -0.053855 -110463.000000 0 0 1
30.322195 -19.272419 -3.945778 36.144582 -0.566177 1.680181 0.114203 -0.052168 -329469.000000 0 0 1
30.245485 -17.862119 -4.268578 35.384536 -0.533458 1.691725 0.115058 -0.052088 -222014.000000 0 0 1
29.329925 -17.171619 -3.265278 34.143389 -0.529663 1.666577 0.136602 -0.043200 -432529.000000 0 0 1
29.773165 -17.062519 -1.955678 34.371435 -0.520393 1.627725 0.133382 -0.037224 -147862.000000 0 0 1
30.312345 -18.103019 -1.165878 35.325866 -0.538370 1.603806 0.120294 -0.024900 -327431.000000 0 0 1
29.491025 -19.370519 -0.882678 35.294711 -0.581160 1.595808 0.109417 -0.025068 -89628.300000 0 0 1
28.397125 -19.087819 -0.009678 34.216102 -0.591806 1.571079 0.107815 -0.007208 426110.000000 0 0 1
27.836125 -20.334719 0.450822 34.475409 -0.630914 1.557719 0.088165 -0.010776 -347978.000000 0 0 1
26.513525 -20.105619 1.198522 33.296236 -0.648802 1.534793 0.068030 -0.004964 -1635280.000000 0 0 1
25.796925 -21.244219 1.528322 33.453459 -0.688917 1.525095 0.065069 0.000663 -9776.660000 0 0 1
24.662625 -21.003819 2.344522 32.479259 -0.705449 1.498548 0.054516 0.004671 767809.000000 0 0 1
23.452125 -20.265919 1.665522 31.040032 -0.712646 1.517113 0.033522 0.005047 -771292.000000 0 0 1
23.612225 -18.880419 1.454422 30.267519 -0.674499 1.522726 0.068943 -0.014357 121408.000000 0 0 1
23.532525 -18.095719 2.646122 29.803300 -0.655529 1.481893 0.090717 -0.015382 -214045.000000 0 0 1
23.392025 -16.590919 2.315322 28.771620 -0.616911 1.490237 0.080197 -0.008019 168267.000000 0 0 1
22.055425 -16.322319 1.922922 27.505590 -0.637109 1.500829 0.079172 -0.014714 74902.200000 0 0 1
21.864625 -14.988919 1.580622 26.556127 -0.600950 1.511241 0.100071 -0.029700 242745.000000 0 0 1
20.370125 -14.760519 1.244222 25.186563 -0.627056 1.521376 0.081609 -0.021502 91828.900000 0 0 1
19.554325 -14.626819 2.371622 24.534466 -0.642226 1.473980 0.070550 -0.013221 431150.000000 0 1 0
18.508425 -13.646619 2.375922 23.117893 -0.635336 1.467840 0.077478 -0.020487 553935.000000 0 1 0
19.023725 -12.156919 2.613522 22.727148 -0.568632 1.455546 0.101897 -0.021694 173190.000000 0 1 0
19.996925 -11.752219 1.626522 23.251607 -0.531327 1.500786 0.109083 -0.022236 730262.000000 0 1 0
20.573525 -10.541819 2.100822 23.212353 -0.473516 1.480168 0.129021 -0.023609 -18921.100000 0 1 0
21.454925 -9.827019 1.057022 23.622053 -0.429512 1.526034 0.147561 -0.024415 -263593.000000 0 1 0
20.715425 -9.328019 -0.013878 22.718736 -0.423098 1.571407 0.143308 -0.019159 203239.000000 0 1 0
21.512425 -8.715819 -0.987978 23.232004 -0.384941 1.613336 0.141029 -0.013627 -441857.000000 0 1 0
20.755225 -8.441619 -2.324478 22.526506 -0.386288 1.674169 0.142483 -0.006899 13955.600000 0 1 0
21.487525 -7.994519 -3.499278 23.192046 -0.356185 1.722257 0.153541 -0.013004 1373070.000000 0 1 0
22.577725 -8.884619 -3.904378 24.575074 -0.374901 1.730348 0.148266 -0.016402 103854.000000 0 1 0
22.161925 -10.232119 -4.572978 24.834639 -0.432539 1.755990 0.123354 -0.017272 -414624.000000 0 1 0
21.762825 -10.097219 -5.914178 24.709348 -0.434407 1.812492 0.117268 -0.010852 -363088.000000 0 1 0
20.433825 -9.684519 -5.972678 23.388116 -0.442588 1.829029 0.118588 -0.011493 -1536510.000000 0 1 0
19.940125 -9.388319 -7.404878 23.250405 -0.440037 1.894926 0.121399 -0.013198 -247589.000000 0 1 0
19.897125 -10.577719 -8.202878 23.980636 -0.488623 1.919907 0.118044 -0.011348 -157346.000000 0 1 0
21.025125 -10.700819 -9.003878 25.251400 -0.470785 1.935390 0.113839 -0.015679 -581321.000000 0 0 1
21.000225 -12.006919 -9.864278 26.124309 -0.519390 1.957989 0.107934 -0.019201 79780.000000 0 0 1
19.929425 -12.062019 -10.791178 25.673406 -0.544261 2.004600 0.121467 -0.021616 226000.000000 0 0 1
19.807525 -13.424219 -11.150678 26.398585 -0.595625 2.006884 0.126413 -0.030634 482097.000000 0 0 1
18.584225 -13.705219 -12.097278 26.068191 -0.635430 2.053373 0.130048 -0.035088 426250.000000 0 0 1
18.310325 -15.096919 -12.208978 26.687902 -0.689504 2.045947 0.123539 -0.041688 241057.000000 0 0 1
17.224025 -15.236119 -13.104978 26.467844 -0.724233 2.088779 0.123040 -0.041203 -206965.000000 0 0 1
17.054325 -16.726619 -13.560178 27.468312 -0.775698 2.087097 0.105700 -0.040406 -318857.000000 0 0 1
16.633425 -17.633519 -12.586178 27.313434 -0.814575 2.049699 0.096764 -0.034632 241211.000000 0 0 1
16.854125 -18.931119 -12.977178 28.475532 -0.843374 2.043989 0.089193 -0.033330 30783.900000 0 0 1
15.776025 -19.746619 -12.206478 28.067953 -0.896713 2.020713 0.079590 -0.030043 525289.000000 0 0 1
14.472525 -19.495019 -12.716478 27.408366 -0.932196 2.053260 0.075463 -0.035612 -228965.000000 0 0 1
13.561525 -20.221019 -11.923478 27.110402 -0.980031 2.026186 0.067324 -0.026423 75404.700000 0 0 1
12.062625 -20.052319 -12.259478 26.417744 -1.029232 2.053372 0.077037 -0.025877 -125466.000000 0 0 1
11.241625 -20.715519 -11.342478 26.156426 -1.073601 2.019325 0.081392 -0.030036 -210230.000000 0 0 1
9.904225 -20.467719 -11.762278 25.600241 -1.120116 2.048183 0.068778 -0.022784 -260120.000000 0 0 1
8.874625 -20.989819 -10.794478 25.216110 -1.170785 2.013162 0.056106 -0.021825 -592545.000000 0 0 1
8.775125 -22.393319 -10.790778 26.361040 -1.197324 1.992533 0.087283 -0.020852 -337335.000000 0 0 1
7.950325 -22.806319 -9.743378 26.043603 -1.235368 1.954242 0.071464 -0.024300 -220264.000000 0 0 1
7.984225 -24.354519 -9.565778 27.356800 -1.254004 1.928012 0.074481 -0.018392 445478.000000 0 0 1
9.256125 -24.872919 -9.217178 28.094382 -1.214538 1.905066 0.067579 -0.016787 -230050.000000 0 0 1
9.247925 -26.298779 -9.307278 29.390054 -1.232654 1.893025 0.058974 -0.015208 -223605.000000 0 0 1
10.637725 -26.944629 -9.336478 30.435900 -1.194781 1.882582 0.048563 -0.004327 18472.500000 0 0 1
11.082725 -26.938599 -7.940478 30.192153 -1.180495 1.836925 0.052646 -0.014791 717134.000000 0 0 1
12.492025 -27.197349 -7.780278 30.923764 -1.140227 1.825125 0.071336 -0.006554 892862.000000 0 0 1
12.865025 -27.478239 -6.246678 30.977144 -1.132919 1.773843 0.071074 -0.016375 159692.000000 0 0 1
12.413525 -28.743599 -5.755678 31.834225 -1.163120 1.752598 0.071049 -0.017635 622021.000000 0 0 1
10.989325 -28.809069 -5.614578 31.340887 -1.206380 1.750914 0.069662 -0.019399 332557.000000 0 0 1
10.513825 -29.895319 -4.645278 32.028881 -1.232619 1.716344 0.076614 -0.026358 -59132.200000 0 0 1
10.650725 -31.228219 -5.117478 33.389042 -1.242107 1.724671 0.084966 -0.021726 -548155.000000 0 0 1
9.771125 -31.635959 -6.116278 33.670723 -1.271230 1.753460 0.085863 -0.023213 -198943.000000 0 0 1
9.956925 -33.100889 -6.504778 35.172735 -1.278601 1.756805 0.081334 -0.020043 -199231.000000 0 0 1
9.572225 33.864225 -5.486278 35.616183 1.295318 1.725451 0.077575 -0.017538 -335221.000000 0 0 1
10.187525 32.644170 -5.435478 34.626174 1.268296 1.728424 0.075829 -0.016074 -199993.000000 0 0 1
9.612425 31.785045 -4.244078 33.476858 1.277121 1.697915 0.077218 -0.012298 666959.000000 0 0 1
8.292125 31.284295 -4.372478 32.658613 1.311697 1.705084 0.071128 -0.013550 -95054.400000 0 0 1
7.903025 30.209465 -3.478978 31.419307 1.314923 1.681751 0.040488 -0.010311 339514.000000 0 0 1
6.457325 29.719965 -3.731978 30.641492 1.356849 1.692894 0.041288 -0.017455 357874.000000 0 0 1
6.438825 29.162875 -5.045478 30.288423 1.353494 1.738158 0.039259 -0.021938 -67494.600000 0 0 1
5.803125 29.980675 -5.998778 31.120772 1.379599 1.764768 0.041518 -0.020389 -207666.000000 0 0 1
5.808525 29.393905 -7.465878 30.878471 1.375700 1.814999 0.053067 -0.034014 159605.000000 0 0 1
5.000525 28.220885 -7.703278 29.677670 1.395424 1.833368 0.056667 -0.034084 102541.000000 0 0 1
5.462925 27.021045 -7.200778 28.492659 1.371312 1.826291 0.051055 -0.023941 -470913.000000 0 0 1
4.622625 25.845035 -7.763378 27.378907 1.393809 1.858294 0.049033 -0.024970 -202127.000000 0 0 1
3.355925 25.641445 -7.194078 26.842144 1.440657 1.842128 0.052895 -0.024602 -606339.000000 0 0 1
2.289425 26.366325 -7.745878 27.575772 1.484182 1.855522 0.068991 -0.024816 71435.900000 0 0 1
1.639325 25.723605 -9.045578 27.316913 1.507154 1.908302 0.071966 -0.024437 212290.000000 0 0 1
2.608325 25.687865 -10.125878 27.734512 1.469604 1.944537 0.055573 -0.028363 467897.000000 0 0 1
2.273825 24.964185 -11.310078 27.500885 1.479963 1.994635 0.068293 -0.030375 -796221.000000 0 0 1
2.155225 23.428165 -11.227278 26.068672 1.479062 2.016043 0.070640 -0.017607 39394.900000 0 0 1
1.063925 22.923025 -10.470678 25.223642 1.524417 1.998864 0.086953 -0.019180 171230.000000 0 0 1
1.161225 21.532265 -10.387478 23.935049 1.516919 2.019709 0.046184 -0.010513 -75807.800000 0 1 0
0.115725 20.809665 -9.490678 22.872003 1.565235 1.998681 0.050538 -0.009671 -83518.900000 0 1 0
-1.156175 20.832965 -10.088978 23.176209 -1.515356 2.021186 0.066027 -0.016231 -969632.000000 0 1 0
-2.076775 20.187165 -9.272878 22.311900 -1.468281 1.999401 0.044873 -0.011715 184040.000000 0 1 0
-3.495175 20.244765 -9.941578 22.823272 -1.399836 2.021489 0.028143 -0.018066 567007.000000 0 1 0
-4.489075 19.492265 -9.262078 22.042828 -1.344443 2.004446 0.032765 -0.022745 431501.000000 0 1 0
-5.610875 19.419965 -10.168178 22.627612 -1.289533 2.036857 0.050099 -0.016248 234431.000000 0 1 0
-6.559275 18.227465 -9.857578 21.735603 -1.225368 2.041510 0.045259 -0.019385 -394543.000000 0 1 0
-7.587775 18.527065 -8.955978 21.932533 -1.182084 1.991433 0.064230 -0.020056 69722.000000 0 1 0
-8.852775 18.435165 -9.640678 22.609060 -1.123105 2.011314 0.075909 -0.032334 264305.000000 0 1 0
-9.996675 18.774665 -8.685278 22.975109 -1.081523 1.958464 0.090227 -0.041166 -255090.000000 0 1 0
-10.272875 17.806065 -7.712878 21.956238 -1.047512 1.929739 0.073982 -0.038697 -513468.000000 0 1 0
-11.287475 18.194065 -6.829378 22.473796 -1.015517 1.879561 0.095137 -0.029719 -315977.000000 0 1 0
-11.685075 16.988265 -5.960078 21.463100 -0.968283 1.852185 0.062161 -0.032024 -168513.000000 0 1 0
-12.667175 17.354765 -5.018178 22.064163 -0.940286 1.800240 0.073920 -0.022507 -116986.000000 0 1 0
-13.026275 16.301865 -4.166978 21.279059 -0.896625 1.767895 0.054966 -0.023018 -865498.000000 0 1 0
-14.161975 16.581865 -3.241978 22.046093 -0.863948 1.718386 0.045305 -0.026224 -842574.000000 0 1 0
-15.380075 16.878465 -3.891578 23.164060 -0.831814 1.739598 0.100936 -0.043979 -11737.000000 0 1 0
-16.243075 17.489665 -2.962778 24.052109 -0.822336 1.694292 0.092816 -0.029796 799231.000000 0 1 0
-17.793075 17.455065 -3.252078 25.136603 -0.775809 1.700536 0.110080 -0.048559 899771.000000 0 0 1
-18.048475 18.203765 -4.388478 26.007369 -0.789682 1.740347 0.113213 -0.054102 1488210.000000 0 0 1
-19.464675 18.305365 -4.743578 27.137824 -0.754714 1.746495 0.098050 -0.059013 1743520.000000 0 0 1
-19.704575 19.116865 -6.034778 28.109489 -0.770261 1.787169 0.091067 -0.045551 -4431.900000 0 0 1
-19.296875 20.451065 -5.900178 28.730255 -0.814428 1.777633 0.105283 -0.055052 67380.000000 0 0 1
-19.417675 21.132565 -7.153378 29.577056 -0.827663 1.815074 0.087997 -0.033362 -259720.000000 0 0 1
-19.406275 22.661965 -6.916178 30.626813 -0.862635 1.798582 0.101272 -0.038416 -53622.500000 0 0 1
-18.153775 23.295265 -6.830378 30.313083 -0.908811 1.798076 0.109949 -0.045913 -336564.000000 0 0 1
-17.538775 23.192985 -5.591478 29.610603 -0.923332 1.760771 0.112009 -0.046895 -251246.000000 0 0 1
-16.363575 24.210035 -5.609378 29.754958 -0.976428 1.760450 0.107748 -0.045351 -852972.000000 0 0 1
-15.819275 24.331205 -4.374478 29.349499 -0.994306 1.720402 0.103951 -0.051557 301828.000000 0 0 1
-14.630575 25.135225 -4.259478 29.393476 -1.043662 1.716221 0.125569 -0.056277 557022.000000 0 0 1
-14.469975 26.492455 -5.059378 30.607641 -1.070881 1.736856 0.127391 -0.036444 -685946.000000 0 0 1
-15.277775 27.547685 -4.577778 31.831453 -1.064433 1.715110 0.140885 -0.033212 61242.000000 0 0 1
-14.873075 28.733995 -5.145778 32.761713 -1.093158 1.728516 0.107465 -0.032946 -12537.600000 0 0 1
-15.662975 29.866705 -4.489278 34.022088 -1.087797 1.703134 0.100701 -0.021614 -462158.000000 0 0 1
-16.968975 29.995935 -4.943878 34.815861 -1.055972 1.713279 0.128173 -0.026495 -467653.000000 0 0 1
-17.647875 31.123835 -4.376078 36.045675 -1.054979 1.692500 0.129161 -0.023227 279365.000000 0 0 1
13.445849 -8.539519 18.686435 24.553963 -0.565832 0.705889 0.124772 -0.018841 88638.300000 0 1 0
13.793349 -9.784419 19.282235 25.647533 -0.616979 0.719984 0.112192 -0.018373 28061.600000 0 0 1
14.183549 -10.751919 18.376035 25.582328 -0.648637 0.769427 0.123004 -0.015578 -167047.000000 0 0 1
14.706449 -12.004619 19.032935 26.882023 -0.684591 0.784110 0.139157 -0.027181 680239.000000 0 0 1
16.043149 -11.983119 19.609635 28.027051 -0.641534 0.795863 0.125283 -0.026158 1402750.000000 0 0 1
16.381649 -13.155719 20.267835 29.192748 -0.676614 0.803382 0.113080 -0.024225 -158979.000000 0 0 1
16.918249 -14.292319 19.373135 29.424750 -0.701460 0.852111 0.108145 -0.023241 -231342.000000 0 0 1
15.956349 -14.813919 18.440835 28.532817 -0.748287 0.868067 0.120389 -0.031820 859059.000000 0 0 1
16.436749 -16.012119 17.766235 29.020575 -0.772313 0.911963 0.126287 -0.034317 -232712.000000 0 0 1
15.636249 -16.139319 16.487735 27.871407 -0.801229 0.937798 0.116352 -0.032665 -1172630.000000 0 0 1
14.278849 -16.243619 16.719435 27.336426 -0.849681 0.912693 0.147335 -0.030877 -510354.000000 0 0 1
13.493349 -16.220519 15.502535 26.182137 -0.876923 0.937130 0.153909 -0.028183 266639.000000 0 0 1
12.988349 -17.591319 14.999735 26.516858 -0.934800 0.969553 0.112652 -0.015114 -100391.000000 0 0 1
13.955449 -18.377719 14.318835 27.157396 -0.921327 1.015431 0.111542 -0.025687 484062.000000 0 0 1
13.340149 -19.490819 13.676635 27.292892 -0.970595 1.045920 0.095546 -0.019474 -57736.000000 0 0 1
14.388249 -20.362919 12.955835 28.098467 -0.955661 1.091577 0.091118 -0.014848 -462899.000000 0 0 1
15.329249 -20.859019 13.857735 29.361903 -0.937031 1.079280 0.074044 -0.015830 -396371.000000 0 0 1
15.764849 -22.082719 13.343535 30.236185 -0.950802 1.113738 0.051219 -0.015638 -243719.000000 0 0 1
16.647949 -22.895719 14.317835 31.723312 -0.942100 1.102536 0.058515 -0.021317 1497350.000000 0 0 1
18.009549 -22.391219 14.436635 32.157845 -0.893431 1.105228 0.046381 -0.023442 1739710.000000 0 0 1
18.854449 -23.113319 15.360435 33.550838 -0.886531 1.095248 0.053065 -0.029330 120327.000000 0 0 1
20.197149 -22.477519 15.689635 34.048911 -0.838784 1.091903 0.021814 -0.022965 -282075.000000 0 0 1
21.267249 -23.030619 14.970135 34.739174 -0.825184 1.125274 0.024761 -0.023402 -544983.000000 0 0 1
22.481849 -22.353419 15.127435 35.127598 -0.782534 1.125592 0.019437 -0.017980 -295557.000000 0 0 1
23.687949 -23.158719 14.658535 36.225928 -0.774102 1.154209 0.011239 -0.022976 -488300.000000 0 0 1
24.065449 -24.303519 15.379035 37.500954 -0.790320 1.148236 0.016207 -0.017450 779130.000000 0 0 1
25.137949 -25.013659 14.708935 38.392087 -0.782920 1.177620 0.023413 -0.020004 468030.000000 0 0 1
25.457549 -26.254759 15.550435 39.739341 -0.800813 1.168741 0.025580 -0.013517 -62853.600000 0 0 1
26.254349 -25.848269 16.658635 40.434317 -0.777604 1.146157 0.028837 -0.003485 442308.000000 0 0 1
26.738649 -26.994169 17.414235 41.795886 -0.790153 1.141040 0.063334 -0.007003 298952.000000 0 0 1
27.082349 -26.623199 18.869635 42.406503 -0.776849 1.109655 0.051564 -0.000528 146680.000000 0 0 1
25.891349 -26.397289 19.596835 41.847518 -0.795074 1.083440 0.065430 -0.002215 248577.000000 0 0 1
26.114649 -25.613649 20.699735 42.029905 -0.775713 1.055836 0.071226 -0.008790 -348482.000000 0 0 1
24.808449 -25.385279 21.463235 41.479416 -0.796890 1.026936 0.072483 -0.016152 -138207.000000 0 0 1
24.374349 -26.590379 22.120035 42.313746 -0.828852 1.020708 0.080340 -0.011430 -304195.000000 0 0 1
23.379149 -26.415259 23.078565 42.154130 -0.846296 0.991446 0.090427 -0.013371 -290365.000000 0 0 1
22.647849 -27.798149 23.269725 42.745085 -0.887141 0.995142 0.118267 -0.019936 514307.000000 0 0 1
23.509649 -28.877369 23.774205 44.179394 -0.887505 1.002581 0.113382 -0.015594 824753.000000 0 0 1
23.015949 -30.133479 23.420945 44.567938 -0.918522 1.017481 0.115625 -0.018562 -375241.000000 0 0 1
24.059649 -31.194579 23.749635 46.000148 -0.913817 1.028278 0.108328 -0.014547 -153864.000000 0 0 1
24.196649 -31.272829 25.162495 46.868100 -0.912282 1.004063 0.102770 -0.016972 43192.600000 0 0 1
25.225749 -32.151679 25.523265 48.182008 -0.905525 1.012519 0.103513 -0.022377 -1360320.000000 0 0 1
25.219349 -32.584609 26.979405 49.250996 -0.912133 0.991071 0.101742 -0.032953 -201539.000000 0 0 1
24.465449 -33.706519 27.314145 49.807129 -0.942940 0.990349 0.086707 -0.024647 -474817.000000 0 0 1
23.109649 -33.590369 27.011445 48.907943 -0.968180 0.985686 0.085894 -0.021028 -1810960.000000 0 0 1
22.179549 33.198292 27.519575 48.491092 0.981807 0.967308 0.092504 -0.037879 -479770.000000 0 0 1
21.845049 33.272039 28.883075 49.177910 0.989824 0.943055 0.064858 -0.028651 112995.000000 0 0 1
21.133449 32.088915 29.179875 48.247137 0.988406 0.921281 0.066356 -0.036219 79380.900000 0 0 1
20.683749 32.064444 30.630295 48.930165 0.997896 0.894383 0.068191 -0.038266 520237.000000 0 0 1
21.866449 31.952297 31.440375 49.875726 0.970653 0.888761 0.055878 -0.028853 767709.000000 0 0 1
21.701949 32.542715 32.734266 51.005246 0.982649 0.873976 0.056016 -0.025966 -560337.000000 0 0 1
23.049449 32.640594 33.440633 52.105292 0.955949 0.873967 0.043985 -0.015143 -272321.000000 0 0 1
23.491049 31.376625 33.842875 51.784768 0.928141 0.858558 0.037142 -0.014307 281135.000000 0 0 1
24.685749 31.396395 -33.236098 51.959196 0.904489 2.264849 0.031384 -0.006198 484600.000000 0 0 1
25.060449 29.965585 -32.891318 51.066635 0.874305 2.270625 0.045746 -0.005741 -167359.000000 0 0 1
25.554849 29.187585 33.919435 51.531481 0.851662 0.852335 0.052445 -0.011218 333740.000000 0 0 1
25.107449 27.821255 -33.815448 50.476636 0.836626 2.304901 0.065624 -0.026599 -104386.000000 0 0 1
25.486449 27.058425 32.780392 49.560786 0.815306 0.848089 0.099381 -0.029608 -257990.000000 0 0 1
26.863949 26.804555 32.767300 50.138327 0.784291 0.858547 0.085878 -0.031489 -189074.000000 0 0 1
27.249449 26.230915 31.581475 49.274567 0.766355 0.875089 0.120803 -0.045769 -563656.000000 0 0 1
28.450149 25.298075 31.717615 49.552101 0.726820 0.876186 0.101224 -0.032291 -728744.000000 0 0 1
28.282749 24.118545 32.402864 49.310889 0.706097 0.853813 0.122589 -0.032613 97462.300000 0 0 1
29.384749 23.835425 33.237070 50.361630 0.681503 0.850020 0.120146 -0.042850 -691445.000000 0 0 1
28.960249 22.996895 -33.455648 49.868162 0.671124 2.306194 0.117594 -0.045906 89731.400000 0 0 1
28.087349 23.552145 -32.462278 48.963274 0.697799 2.295605 0.123891 -0.046229 880440.000000 0 0 1
26.752249 23.915185 -32.768618 48.594251 0.729463 2.310855 0.105216 -0.035136 224161.000000 0 0 1
25.722849 22.756565 -32.969188 47.607705 0.724288 2.335770 0.091937 -0.035104 -393720.000000 0 0 1
25.478049 21.929465 -31.860088 46.315199 0.710685 2.329384 0.064707 -0.047356 269750.000000 0 0 1
25.410949 20.570965 -32.182288 45.875708 0.680526 2.348311 0.075025 -0.036523 -138291.000000 0 0 1
25.246849 19.620165 -30.984628 44.524167 0.660641 2.340477 0.073021 -0.039395 -361642.000000 0 0 1
24.016249 19.710165 -30.322078 43.413123 0.687237 2.344032 0.053942 -0.024871 -149811.000000 0 0 1
23.955249 18.843065 -29.181468 42.195653 0.666513 2.334464 0.055848 -0.018646 482190.000000 0 0 1
22.685549 19.187865 -28.324768 41.049979 0.702062 2.332295 0.046545 -0.009994 384703.000000 0 0 1
22.632549 18.513265 -27.050928 39.833729 0.685616 2.317327 0.046583 -0.005356 152231.000000 0 0 1
23.439549 19.042065 -26.009858 39.856310 0.682251 2.281795 0.041309 0.005531 -60018.200000 0 0 1
23.415249 18.133865 -24.724078 38.579671 0.658964 2.266411 0.066913 0.011439 -278069.000000 0 0 1
24.252649 17.014065 -24.754978 38.606714 0.611755 2.266869 0.068008 -0.010844 104583.000000 0 0 1
24.437149 16.469365 -23.448978 37.659910 0.593027 2.242922 0.076976 -0.009357 -459401.000000 0 0 1
25.426449 15.307565 -23.422778 37.808100 0.541913 2.238924 0.089035 -0.016339 -111673.000000 0 0 1
26.787549 15.733965 -23.346178 38.860963 0.531074 2.215250 0.111291 -0.023084 502746.000000 0 0 1
27.724349 14.682465 -23.252478 39.049866 0.487036 2.208629 0.107804 -0.031724 1099.360000 0 0 1
27.832349 13.759565 -21.997578 38.050739 0.459136 2.187209 0.096304 -0.023864 -792010.000000 0 0 1
26.764449 12.859065 -21.902478 36.897288 0.447888 2.206330 0.078484 -0.013772 -72964.100000 0 0 1
26.771649 12.320965 -20.603378 35.958679 0.431324 2.180926 0.067633 -0.023597 -1243100.000000 0 0 1
25.428049 11.703865 -20.406278 34.640761 0.431365 2.200720 0.078266 -0.019374 -978317.000000 0 0 1
24.411449 12.664665 -20.315778 34.191277 0.478574 2.207042 0.087281 -0.021964 81837.600000 0 0 1
23.142849 12.298565 -20.853778 33.492182 0.488466 2.242916 0.081200 -0.026159 308007.000000 0 0 1
22.082749 13.363765 -20.667178 33.066150 0.544211 2.245960 0.066530 -0.025682 -961066.000000 0 0 1
22.264649 14.598365 -21.306478 34.099749 0.580354 2.245708 0.073100 -0.016530 186626.000000 0 0 1
21.230449 15.561465 -21.167878 33.778251 0.632518 2.248071 0.058758 -0.005210 994890.000000 0 0 1
19.896849 15.409565 -22.033578 33.448735 0.658981 2.289922 0.059309 0.004827 415411.000000 0 0 1
19.071049 14.453765 -21.498578 32.168387 0.648532 2.302736 0.057972 0.000734 -866544.000000 0 0 1
17.906949 14.448765 -22.254078 32.010461 0.678922 2.339512 0.063660 -0.013651 -268263.000000 0 0 1
16.788149 13.440265 -21.869478 30.671758 0.675095 2.364588 0.080151 -0.019855 177338.000000 0 0 1
15.588149 13.656665 -22.549978 30.626727 0.719449 2.398359 0.085273 -0.021356 -809382.000000 0 0 1
14.497649 13.003865 -21.968878 29.358371 0.731135 2.416292 0.101634 -0.030846 -41639.400000 0 0 1
13.252449 13.142365 -22.905478 29.546744 0.781228 2.457873 0.086215 -0.039444 -58230.100000 0 0 1
12.794549 14.496865 -22.933278 29.996580 0.847693 2.441108 0.109900 -0.024450 -22747.200000 0 0 1
12.024749 14.766565 -24.094878 30.711711 0.887383 2.472767 0.104108 -0.019464 -320676.000000 0 0 1
11.678949 16.322365 -24.282578 31.503350 0.949731 2.450882 0.106214 -0.021397 516215.000000 0 0 1
12.786649 17.247365 -24.352478 32.465569 0.932842 2.419012 0.091460 -0.006206 200278.000000 0 0 1
13.848549 17.078565 -25.248478 33.480522 0.889461 2.425116 0.089216 -0.015649 -648268.000000 0 0 1
13.598049 16.993165 -26.782588 34.510602 0.895929 2.459204 0.117701 -0.018361 109455.000000 0 0 1
14.694849 16.630365 -27.660528 35.462832 0.847108 2.465440 0.096798 -0.014954 567399.000000 0 0 1
14.328249 16.792565 -29.008408 36.452390 0.864419 2.491106 0.124738 -0.028442 235380.000000 0 0 1
15.540549 17.230465 -29.904178 37.850462 0.836920 2.481705 0.108876 -0.031906 518396.000000 0 0 1
16.554849 16.250565 -29.867278 37.817961 0.776123 2.481221 0.070454 -0.028193 -259108.000000 0 0 1
17.670849 16.702365 -30.600868 39.085049 0.757230 2.470159 0.061856 -0.025350 292777.000000 0 0 1
18.873749 15.698065 -30.646998 39.266858 0.693798 2.466230 0.062804 -0.020647 979651.000000 0 0 1
20.100349 16.381265 -30.953558 40.379359 0.683805 2.444277 0.051709 -0.027614 -111148.000000 0 0 1
21.185149 15.531265 -30.829228 40.502741 0.632610 2.435902 0.059952 -0.027333 -635928.000000 0 0 1
22.474649 16.176865 -31.363688 41.838759 0.623880 2.418303 0.070555 -0.027393 -417983.000000 0 0 1
22.440249 16.318465 -32.755248 42.927420 0.628746 2.438797 0.076288 -0.025744 -242264.000000 0 0 1
23.610449 16.916865 -33.233938 44.137606 0.621714 2.423348 0.072180 -0.029904 -378067.000000 0 0 1
23.452349 17.657265 33.287766 44.383185 0.645354 0.722721 0.042097 -0.019187 -114162.000000 0 0 1
24.333449 18.739265 33.115383 45.165312 0.656243 0.747775 0.066916 -0.018373 -41478.200000 0 0 1
24.432749 19.168565 31.751995 44.413763 0.665245 0.774296 0.085605 -0.018650 -272035.000000 0 0 1
25.340049 20.406065 31.508645 45.291504 0.677958 0.801422 0.106094 -0.018563 117578.000000 0 0 1
26.686249 20.012365 31.439615 45.837758 0.643445 0.814972 0.094541 -0.018230 -108196.000000 0 0 1
27.636749 21.078265 31.458045 46.879545 0.651573 0.835186 0.089240 -0.023343 -214513.000000 0 0 1
29.070349 20.587565 31.425085 47.502305 0.616207 0.847914 0.106105 -0.021094 -681235.000000 0 0 1
29.523949 20.015365 32.621586 48.336801 0.595764 0.829993 0.092579 -0.026572 452051.000000 0 0 1
30.914249 19.672165 32.540646 49.005903 0.566717 0.844621 0.087050 -0.015356 652558.000000 0 0 1
31.468949 19.069465 33.807256 49.968689 0.544803 0.827703 0.077323 -0.019141 -260031.000000 0 0 1
31.572849 19.998865 -33.043598 49.886659 0.564631 2.294779 0.077687 -0.037002 175697.000000 0 0 1
30.653749 19.662865 -32.017858 48.491482 0.570342 2.291985 0.094568 -0.040847 -63904.000000 0 0 1
31.124849 20.044465 -30.610878 48.037097 0.572147 2.261700 0.093764 -0.039024 659780.000000 0 0 1
32.298049 19.276065 -30.259088 48.273627 0.538077 2.248267 0.085854 -0.044848 593576.000000 0 0 1
32.774449 19.712965 -28.976448 47.983331 0.541502 2.219163 0.100211 -0.049633 237668.000000 0 0 1
34.275249 19.466965 -28.714838 48.767790 0.516527 2.200379 0.075386 -0.037530 184855.000000 0 0 1
35.196249 20.203865 -29.480078 50.160214 0.521108 2.199032 0.078968 -0.041288 -1196090.000000 0 0 1
36.448949 20.165165 -28.935978 50.719332 0.505330 2.177925 0.042465 -0.023906 -1626120.000000 0 0 1
-37.126327 21.004465 -29.640568 51.943382 -0.514860 2.178072 0.029251 -0.023028 -398544.000000 0 0 1
-36.640727 20.394165 -30.827028 52.045850 -0.507895 2.204713 0.024967 -0.022607 484436.000000 0 0 1
-35.571227 21.145365 -31.412868 51.953892 -0.536330 2.220097 0.029344 -0.019044 402521.000000 0 0 1
-34.677127 20.543765 -32.531868 51.796446 -0.534835 2.249869 0.029965 -0.018148 -595251.000000 0 0 1
-33.833327 19.614865 -32.006078 50.535393 -0.525397 2.256658 0.027200 -0.012889 -376540.000000 0 0 1
-33.054027 19.033965 -33.046778 50.467317 -0.522468 2.284735 0.031458 -0.001526 365252.000000 0 0 1
-32.201027 17.777965 -32.658208 49.188624 -0.504449 2.296869 0.022914 0.003273 238328.000000 0 0 1
-33.049827 16.654165 -32.609018 49.325453 -0.466771 2.293079 0.027688 -0.001315 342272.000000 0 0 1
-32.374127 15.420465 -32.775528 48.580964 -0.444525 2.311297 0.028727 0.005679 17609.100000 0 0 1
-33.420427 14.264465 -32.913468 49.027505 -0.403410 2.306794 0.032748 0.002853 20403.700000 0 0 1
-32.931027 12.958465 -32.973658 48.369789 -0.374893 2.320879 0.042444 -0.005931 -179753.000000 0 0 1
-33.956827 12.045565 -33.262598 49.036335 -0.340884 2.316278 0.054341 -0.008531 -295665.000000 0 0 1
-33.533327 10.586865 -33.178858 48.346689 -0.305808 2.327144 0.054595 -0.008154 -143948.000000 0 0 1
-32.867927 10.095065 33.548739 48.038826 -0.297995 0.797683 0.048166 -0.011181 145442.000000 0 0 1
-33.076527 8.702165 33.430270 47.826429 -0.257262 0.796810 0.077119 -0.016223 -304847.000000 0 0 1
-32.236327 7.969665 32.351947 46.361027 -0.242366 0.798438 0.087431 -0.019788 580334.000000 0 0 1
-30.884327 7.940365 32.823184 45.763003 -0.251650 0.770959 0.059091 -0.009217 532420.000000 0 0 1
-30.060027 7.120065 31.973728 44.459193 -0.232575 0.768189 0.058436 -0.009590 63116.200000 0 0 1
21.388949 -4.025719 -31.764778 38.505775 -0.186038 2.540884 0.061702 -0.046170 -1116670.000000 0 0 1
22.579849 -4.000519 -32.471668 39.752521 -0.175352 2.526718 0.050332 -0.049320 -640821.000000 0 0 1
23.547549 -3.207219 -31.795348 39.695308 -0.135369 2.499735 0.047292 -0.039065 136791.000000 0 0 1
23.539649 -1.697319 -32.268408 39.978071 -0.071980 2.510109 0.050053 -0.035849 -181274.000000 0 0 1
24.376249 -0.882019 -31.441058 39.793462 -0.036168 2.481778 0.060813 -0.030105 313340.000000 0 0 1
24.107249 0.474881 -31.781788 39.893195 0.019696 2.492565 0.067619 -0.036354 -287045.000000 0 0 1
25.168749 1.515581 -31.434488 40.297518 0.060144 2.465558 0.070577 -0.030303 128188.000000 0 0 1
26.452849 1.417481 -32.052438 41.582704 0.053534 2.450911 0.075479 -0.031627 393096.000000 0 0 1
27.255849 2.421581 -31.410038 41.657363 0.088614 2.424941 0.080430 -0.030193 944644.000000 0 0 1
28.822549 2.283881 -31.522808 42.774325 0.079074 2.399353 0.076768 -0.031734 925140.000000 0 0 1
29.348849 2.631681 -32.760868 44.063082 0.089430 2.409084 0.094017 -0.039841 -20701.100000 0 0 1
29.337949 1.601681 -33.749848 44.747434 0.054540 2.425277 0.074090 -0.032878 -542023.000000 0 0 1
29.971649 2.008081 32.825953 44.495790 0.066899 0.741092 0.064966 -0.038103 -441307.000000 0 0 1
29.266649 2.986081 32.114492 43.552199 0.101678 0.741614 0.073723 -0.028872 140960.000000 0 0 1
29.741949 4.293581 32.335038 44.142645 0.143371 0.748791 0.096395 -0.026203 50627.000000 0 0 1
28.972549 5.352281 31.494195 43.127020 0.182677 0.752085 0.105422 -0.024934 7077.910000 0 0 1
29.411149 6.628481 31.829435 43.841367 0.221670 0.758289 0.122004 -0.031824 417924.000000 0 0 1
28.638249 7.655681 31.188265 43.028673 0.261216 0.760016 0.107357 -0.029572 73673.400000 0 0 1
28.999449 9.029681 31.626885 43.849322 0.301859 0.765173 0.088499 -0.020239 -1266900.000000 0 0 1
30.278849 9.292181 31.223995 44.475738 0.297763 0.792530 0.081846 -0.022605 -1196780.000000 0 0 1
30.558749 10.665381 31.229895 44.976593 0.335795 0.803268 0.080611 -0.013857 -46716.700000 0 0 1
32.022249 10.979381 30.851925 45.801884 0.330306 0.831734 0.080679 -0.011686 -801215.000000 0 0 1
32.941349 10.373681 31.723205 46.894643 0.305082 0.827826 0.078296 -0.020302 537077.000000 0 0 1
34.320749 10.534181 31.392595 47.690438 0.297805 0.852294 0.079542 -0.021034 684549.000000 0 0 1
34.942149 11.962981 31.296955 48.410393 0.329857 0.867818 0.077604 -0.014108 -1014530.000000 0 0 1
35.126149 12.479381 32.590675 49.514982 0.341365 0.852373 0.078730 -0.017769 42810.000000 0 0 1
35.707349 13.729181 32.642739 50.289697 0.367066 0.864404 0.074095 -0.011526 -541254.000000 0 0 1
34.803149 14.906681 32.356925 49.804005 0.404674 0.863626 0.080702 -0.015063 -718301.000000 0 0 1
34.329049 15.006081 31.033565 48.649237 0.412096 0.879022 0.082641 -0.023105 814392.000000 0 0 1
33.207249 15.893481 30.928535 48.082205 0.446394 0.872070 0.079781 -0.017474 639532.000000 0 0 1
31.780249 15.361581 31.151675 47.078544 0.450254 0.847718 0.079447 -0.016902 2081.220000 0 0 1
31.182649 14.712881 29.992975 45.699071 0.440858 0.854872 0.084826 -0.012465 365137.000000 0 0 1
29.799949 14.491481 30.183985 44.823130 0.452621 0.831995 0.085253 -0.017571 141169.000000 0 0 1
29.030249 13.939581 28.956625 43.307660 0.447662 0.838437 0.076477 -0.010456 -48652.000000 0 0 1
29.200649 12.575081 28.587785 42.755959 0.406641 0.838436 0.077449 -0.012087 562754.000000 0 0 1
28.262849 12.148481 27.565985 41.306873 0.405962 0.840157 0.071527 -0.024439 557439.000000 0 0 1
28.081149 10.585881 27.643325 40.801535 0.360501 0.826428 0.072788 -0.009948 -73547.500000 0 0 1
29.158349 9.790881 27.175835 41.043839 0.323954 0.847156 0.081979 -0.016388 188295.000000 0 0 1
28.715049 8.459081 27.159395 40.419585 0.286483 0.833976 0.089568 -0.017491 63458.400000 0 0 1
29.696149 7.399181 26.626435 40.565703 0.244191 0.854789 0.083102 -0.024491 -53960.600000 0 0 1
30.099749 7.638481 25.258615 40.029226 0.248526 0.887949 0.075413 -0.019695 73049.600000 0 0 1
31.170849 6.773681 24.974105 40.511857 0.213981 0.906552 0.066377 -0.010732 35547.100000 0 0 1
32.039849 7.151681 23.749665 40.518454 0.219612 0.944504 0.086291 -0.007907 142298.000000 0 0 1
32.645249 8.434781 23.752865 41.243866 0.252847 0.957076 0.085907 -0.017438 468680.000000 0 0 1
31.805549 9.513781 23.285755 40.550356 0.290652 0.959117 0.089702 -0.017899 105238.000000 0 0 1
31.462049 9.450281 21.741735 39.393799 0.291797 0.986146 0.100585 -0.015748 12659.600000 0 0 1
32.491549 9.687981 20.784535 39.768765 0.289776 1.020858 0.103907 -0.020763 170111.000000 0 0 1
32.026249 9.907781 19.476535 38.770868 0.300026 1.044482 0.125742 -0.024087 727477.000000 0 0 1
33.091449 10.804281 18.614235 39.474881 0.315586 1.079753 0.149403 -0.050834 2150360.000000 0 0 1
34.301149 10.141381 18.193135 40.129872 0.287468 1.100269 0.144445 -0.039887 719332.000000 0 0 1
35.332549 10.006081 19.127735 41.405084 0.275971 1.090586 0.147149 -0.032085 72755.700000 0 0 1
36.672749 9.538381 18.469535 42.154418 0.254457 1.117268 0.159480 -0.025305 71369.000000 0 0 1
36.612549 8.176681 18.189135 41.691504 0.219724 1.119337 0.132888 -0.019050 468093.000000 0 0 1
-36.845127 7.614181 17.548035 41.514728 -0.203785 1.134380 0.130834 -0.016092 -70984.400000 0 0 1
-37.037927 6.121881 17.204535 41.295054 -0.163806 1.141067 0.127359 -0.015077 -201956.000000 0 0 1
36.454449 5.992581 16.325135 40.389948 0.162928 1.154705 0.104976 -0.014709 360471.000000 0 0 1
36.491649 4.820581 15.513135 39.944159 0.131340 1.171934 0.115390 -0.018556 -483984.000000 0 0 1
35.244749 3.966281 15.712335 38.791767 0.112064 1.153770 0.091859 -0.021150 -387027.000000 0 0 1
35.276049 3.202681 16.894535 39.243880 0.090541 1.125748 0.096321 -0.005464 1052920.000000 0 0 1
33.953649 2.668981 17.095035 38.107925 0.078445 1.105603 0.085227 -0.007436 899965.000000 0 0 1
33.782749 1.865581 18.437035 38.531530 0.055167 1.071860 0.078830 -0.008579 575342.000000 0 0 1
34.559949 0.624881 18.400835 39.158285 0.018079 1.081609 0.093024 -0.013497 625149.000000 0 0 1
34.248549 -0.115819 19.575535 39.448423 -0.003382 1.051544 0.091010 -0.015926 193872.000000 0 0 1
35.158849 -1.365319 19.718335 40.333876 -0.038813 1.059993 0.096491 -0.020172 311894.000000 0 0 1
34.639949 -2.218719 20.756435 40.443521 -0.063963 1.031864 0.093908 -0.010010 313818.000000 0 0 1
35.167749 -3.584019 20.647335 40.938102 -0.101561 1.042162 0.086250 -0.014684 147872.000000 0 0 1
34.633549 -4.536019 21.756535 41.151003 -0.130231 1.013728 0.070272 -0.008694 100689.000000 0 0 1
35.137949 -4.187219 23.031495 42.221535 -0.118606 0.993821 0.071996 -0.015477 282272.000000 0 0 1
34.421249 -4.855919 24.063815 42.278476 -0.140148 0.965295 0.067592 -0.019050 215550.000000 0 0 1
34.849249 -4.366919 25.460535 43.379477 -0.124659 0.943540 0.047623 -0.011843 556833.000000 0 0 1
33.951149 -4.706319 26.538305 43.348721 -0.137743 0.911950 0.053619 -0.012495 216871.000000 0 0 1
34.338049 -4.062719 27.749235 44.335396 -0.117768 0.894520 0.060354 -0.003031 336879.000000 0 0 1
33.505449 -4.509119 29.007105 44.546149 -0.133775 0.861672 0.061885 -0.006652 422717.000000 0 0 1
33.702649 -5.897819 29.373645 45.093945 -0.173241 0.861384 0.057880 -0.016791 172347.000000 0 0 1
32.659149 -6.297019 30.255555 44.962997 -0.190473 0.832676 0.055078 -0.022041 368167.000000 0 0 1
32.737349 -7.812019 30.615725 45.498179 -0.234246 0.832674 0.061817 -0.018922 -43833.100000 0 0 1
33.798449 -8.021019 31.509665 46.899157 -0.233009 0.834079 0.070886 -0.022698 -416832.000000 0 0 1
34.270449 -9.352419 31.435365 47.435362 -0.266413 0.846379 0.063844 -0.000937 135524.000000 0 0 1
35.639749 -9.521019 32.124666 48.916620 -0.261050 0.854331 0.079402 0.002634 153744.000000 0 0 1
35.486949 -9.631419 33.534451 49.765924 -0.265023 0.831398 0.084244 -0.010922 301148.000000 0 0 1
36.743849 -9.645519 -33.672168 50.763780 -0.256715 2.296031 0.085601 -0.014184 483065.000000 0 0 1
36.546849 -9.797319 -32.123718 49.634594 -0.261917 2.274708 0.103051 -0.014180 -48853.200000 0 0 1
35.942449 -8.685919 -31.432668 48.531613 -0.237116 2.275324 0.094332 -0.020034 290301.000000 0 0 1
36.748949 -7.513319 -31.404208 48.919930 -0.201671 2.267837 0.089763 -0.018172 63436.600000 0 0 1
36.153149 -6.234219 -30.737568 47.861402 -0.170760 2.268188 0.095616 -0.020293 -208883.000000 0 0 1
36.424349 -6.231219 -29.355498 47.194349 -0.169433 2.242107 0.089608 -0.017192 204126.000000 0 0 1
35.801049 -5.133019 -28.712668 46.178786 -0.142406 2.241799 0.090107 -0.029929 -156736.000000 0 0 1
36.360049 -4.933519 -27.296078 45.732578 -0.134862 2.210382 0.093568 -0.026411 -447662.000000 0 0 1
-36.876027 -4.633819 -27.342738 46.140426 0.125004 2.205077 0.104257 -0.020457 -718386.000000 0 0 1
-36.354727 -4.553419 -26.040198 44.949880 0.124601 2.188686 0.102197 -0.016986 36628.700000 0 0 1
-34.824527 -4.508519 -25.865978 43.613338 0.128748 2.205669 0.111433 -0.009446 -475268.000000 0 0 1
-34.435827 -4.090119 -24.593078 42.513230 0.118221 2.187661 0.120616 -0.011497 1286790.000000 0 0 1
-33.006527 -4.065119 -24.345478 41.214782 0.122544 2.202720 0.139686 -0.010893 1762110.000000 0 0 1
-32.108427 -2.994819 -25.073938 40.848774 0.093003 2.231691 0.117062 -0.008532 -123104.000000 0 0 1
-31.825627 -3.405519 -26.403308 41.492201 0.106600 2.260546 0.116642 -0.006416 236063.000000 0 0 1
-30.851527 -2.560719 -27.017578 41.089214 0.082812 2.288338 0.097387 -0.002482 454392.000000 0 0 1
-30.288927 -3.130619 -28.326128 41.588332 0.102993 2.320071 0.092616 -0.011185 -242912.000000 0 0 1
-31.309927 -3.233319 -29.269148 42.981960 0.102903 2.319874 0.129789 -0.018727 -392250.000000 0 0 1
-30.920227 -4.048019 -30.381008 43.536795 0.130178 2.343151 0.115625 -0.009216 -727957.000000 0 0 1
-32.128827 -4.498419 -31.214788 45.020665 0.139108 2.336915 0.111525 -0.017499 -502347.000000 0 0 1
-33.057927 -5.399919 -30.670258 45.416411 0.161917 2.312184 0.114211 -0.018977 441473.000000 0 0 1
-33.958727 -4.920819 -29.657248 45.353742 0.143904 2.283537 0.124194 -0.022675 232023.000000 0 0 1
-35.140927 -4.013119 -30.098708 46.442675 0.113708 2.275861 0.138175 -0.026550 -296000.000000 0 0 1
-34.740927 -2.777919 -30.669888 46.425110 0.079791 2.292456 0.146802 -0.025304 -223055.000000 0 0 1
-34.446827 -1.724419 -29.749098 45.547407 0.050019 2.282528 0.148901 -0.019651 73332.100000 0 0 1
-34.114727 -0.386719 -30.451728 45.730426 0.011335 2.299491 0.127856 -0.025656 350080.000000 0 0 1
-35.285727 0.311881 -30.842448 46.866154 -0.008839 2.289084 0.161684 -0.023899 332145.000000 0 0 1
-34.957227 1.540481 -31.448868 47.046914 -0.044039 2.302929 0.157075 -0.012631 512394.000000 0 0 1
-36.281227 2.253681 -31.862478 48.338639 -0.062037 2.290486 0.135238 -0.013765 425821.000000 0 0 1
-36.860227 1.669681 -33.016468 49.513143 -0.045267 2.300733 0.128295 -0.010558 -230901.000000 0 0 1
36.548449 2.387281 -33.271478 49.482113 0.065226 2.308235 0.100754 -0.018023 -285084.000000 0 0 1
35.828849 1.849481 33.318270 48.961558 0.051574 0.822353 0.072913 -0.010235 -3021.430000 0 0 1
36.347049 2.134781 32.003353 48.475560 0.058666 0.849717 0.072889 -0.005114 -337712.000000 0 0 1
-36.995527 1.597481 31.735895 48.768719 -0.043154 0.862234 0.078813 -0.002124 -718481.000000 0 0 1
-36.635527 1.528381 30.240345 47.528689 -0.041694 0.881163 0.081256 -0.006337 -140261.000000 0 0 1
-36.334227 2.789581 29.682785 47.000272 -0.076625 0.887252 0.075360 -0.015048 119113.000000 0 0 1
-35.900327 2.749981 28.340435 45.821132 -0.076451 0.903962 0.057863 -0.012967 167650.000000 0 0 1
-35.516827 4.183981 27.857805 45.332196 -0.117262 0.909012 0.062241 -0.008649 -72716.800000 0 0 1
-34.891027 4.283081 26.588395 44.075745 -0.122145 0.923235 0.063362 -0.007985 248699.000000 0 0 1
-34.360727 5.590181 26.407525 43.695161 -0.161278 0.921836 0.064152 -0.004897 -435267.000000 0 0 1
-33.461827 5.737781 25.214675 42.289429 -0.169821 0.931986 0.071591 -0.005639 -349178.000000 0 0 1
-32.282427 4.968581 25.080295 41.180858 -0.152711 0.915962 0.068418 -0.009907 355294.000000 0 0 1
-31.631727 5.158781 23.806375 39.923961 -0.161666 0.931921 0.073335 -0.011158 215347.000000 0 0 1
-32.283827 4.585081 22.522435 39.629894 -0.141081 0.966335 0.072885 -0.012714 -219219.000000 0 0 1
-32.063827 3.205281 22.433835 39.263721 -0.099635 0.962631 0.082202 -0.014080 203729.000000 0 0 1
-32.690427 2.707281 21.207935 39.061105 -0.082627 0.996859 0.102837 -0.012249 -149929.000000 0 0 1
-32.292427 1.267081 20.773535 38.418044 -0.039218 0.999499 0.106160 -0.020489 504678.000000 0 0 1
-30.956627 1.060781 20.303235 37.035920 -0.034253 0.990581 0.109755 -0.015925 559153.000000 0 0 1
-30.690027 1.582081 19.012635 36.136699 -0.051505 1.016752 0.128860 -0.016499 102630.000000 0 0 1
-29.420727 1.004281 18.308435 34.666793 -0.034122 1.014404 0.137527 -0.015968 222771.000000 0 0 1
-29.530727 -0.360919 18.032535 34.602983 0.012221 1.022626 0.137475 -0.010725 420185.000000 0 0 1
-28.339227 -0.869519 17.432535 33.283045 0.030673 1.019530 0.137791 -0.010985 158796.000000 0 0 1
-28.131127 -0.595719 15.886235 32.312345 0.021173 1.056817 0.148198 -0.008846 -184773.000000 0 0 1
-27.852127 0.753381 15.727335 31.994650 -0.027043 1.056914 0.149145 -0.007898 28642.700000 0 0 1
-28.056527 1.086181 14.361935 31.537496 -0.038695 1.097983 0.159308 -0.011890 -104089.000000 0 0 1
-27.469927 2.433981 13.938135 30.899721 -0.088375 1.102825 0.157603 -0.011587 880052.000000 0 0 1
-26.034527 2.385881 13.849235 29.585306 -0.091388 1.083643 0.140616 -0.019032 754687.000000 0 0 1
-25.510427 3.566781 13.344035 29.009775 -0.138916 1.092819 0.138653 -0.024023 400333.000000 0 0 1
-23.962827 3.649981 13.184635 27.593007 -0.151157 1.072619 0.129072 -0.026788 254630.000000 0 0 1
-23.276327 3.898481 14.386735 27.639893 -0.165947 1.023353 0.108370 -0.010437 -422078.000000 0 0 1
-21.945327 4.208881 14.089935 26.416630 -0.189488 1.008212 0.100921 -0.013866 -488283.000000 0 0 1
-21.203727 4.906181 15.227935 26.562354 -0.227381 0.960281 0.095097 -0.014983 -327225.000000 0 0 1
-21.551627 6.251581 15.416435 27.225381 -0.282326 0.968844 0.079444 -0.010824 395228.000000 0 0 1
-20.923527 6.754081 16.587735 27.542050 -0.312239 0.924455 0.069624 -0.005881 -51986.900000 0 0 1
-21.209227 8.227681 16.908735 28.344865 -0.370058 0.931618 0.066375 -0.012328 -197080.000000 0 0 1
-20.492727 9.061881 15.970735 27.516067 -0.416348 0.951558 0.063176 -0.014273 784335.000000 0 0 1
-20.820027 10.418481 16.038235 28.270891 -0.463973 0.967566 0.062512 -0.014898 -162574.000000 0 0 1
-20.170327 11.226681 17.232835 28.807136 -0.507892 0.929526 0.059272 -0.012917 -152181.000000 0 0 1
-20.622127 10.804181 18.506835 29.740635 -0.482594 0.899152 0.066497 -0.014000 319213.000000 0 0 1
-19.925027 11.455881 19.541035 30.167797 -0.521796 0.866176 0.075495 -0.008538 -243544.000000 0 0 1
-13.000051 -33.262502 -20.097678 40.979410 1.198218 2.083384 0.160178 -0.055938 -108644.000000 0 0 1
-14.052451 -33.647702 -19.251378 41.234146 1.175181 2.056555 0.176601 -0.043312 141748.000000 0 0 1
-15.120651 -32.686502 -19.226678 40.825319 1.137517 2.061164 0.143750 -0.067118 -188268.000000 0 0 1
-16.267051 -33.351102 -18.471278 41.449983 1.116995 2.032672 0.111123 -0.045741 -1711430.000000 0 0 1
-16.898651 33.564381 -19.290078 42.240256 -1.104377 2.045051 0.096063 -0.046980 -171769.000000 0 0 1
-17.776851 32.665681 -18.704778 41.628499 -1.072413 2.036807 0.087664 -0.030880 -1217230.000000 0 0 1
-19.098351 33.097981 -18.164178 42.310291 -1.047442 2.014524 0.071494 -0.027126 -1896710.000000 0 0 1
-19.022151 -33.733902 -17.193878 42.372725 1.057353 1.988625 0.088745 -0.031228 -112313.000000 0 0 1
-20.312251 -33.478702 -16.691878 42.567944 1.025449 1.973735 0.062478 -0.027026 -147437.000000 0 0 1
-20.578351 -33.921202 -15.213178 42.491849 1.025500 1.936949 0.060519 -0.017983 -412566.000000 0 0 1
-20.389951 32.539081 -15.017478 41.231863 -1.011026 1.943592 0.057994 -0.025736 305138.000000 0 0 1
-20.808651 32.099881 -13.737078 40.646152 -0.995654 1.915553 0.078017 -0.018083 29882.400000 0 0 1
-21.161451 30.589281 -13.726378 39.647504 -0.965600 1.924325 0.071846 -0.025136 -248311.000000 0 0 1
-20.051051 29.775681 -13.503578 38.353389 -0.978144 1.930592 0.087699 -0.036123 -250732.000000 0 0 1
-20.386051 28.401981 -13.557278 37.497512 -0.948244 1.940728 0.102031 -0.041304 122888.000000 0 0 1
-19.277351 27.564081 -12.851778 36.007819 -0.960497 1.935761 0.081228 -0.040265 664415.000000 0 0 1
-18.023851 27.659981 -13.542778 35.683899 -0.993282 1.960075 0.128932 -0.042768 38400.200000 0 0 1
-17.195351 26.625281 -13.109778 34.299446 -0.997360 1.962989 0.142479 -0.053761 258937.000000 0 0 1
-15.691551 26.879981 -13.439878 33.902633 -1.042401 1.978417 0.114650 -0.056184 477312.000000 0 0 1
-15.448751 27.047281 -14.850178 34.507204 -1.051841 2.015677 0.088469 -0.039260 704481.000000 0 0 1
-14.061451 27.333281 -15.115578 34.253662 -1.095660 2.027825 0.132461 -0.043197 874192.000000 0 0 1
-13.923651 27.814081 -16.554378 35.235474 -1.106671 2.059885 0.138781 -0.052670 -23929.200000 0 0 1
-14.147651 26.790781 -17.529378 35.002587 -1.084939 2.095322 0.114814 -0.054755 136465.000000 0 0 1
-14.251551 27.313481 -18.859278 36.122089 -1.089879 2.120106 0.087385 -0.049482 -27656.600000 0 0 1
-14.015451 26.245781 -19.925978 35.809475 -1.080314 2.160897 0.058041 -0.019494 820986.000000 0 0 1
-12.701051 26.456881 -20.493478 35.794775 -1.123223 2.180381 0.052812 -0.015056 693859.000000 0 0 1
-12.428751 25.408981 -21.358078 35.443726 -1.115868 2.217540 0.032953 -0.013485 522131.000000 0 0 1
-10.979851 25.527281 -21.928878 35.398798 -1.164595 2.238878 0.073161 -0.020640 492898.000000 0 0 1
-10.850851 26.512381 -22.929078 36.693187 -1.182320 2.245783 0.059592 -0.013621 25313.200000 0 0 1
-9.685051 26.272281 -23.699778 36.683954 -1.217612 2.273198 0.075335 -0.027346 -6019.870000 0 0 1
-9.788151 26.999181 -25.059658 38.114960 -1.222998 2.288260 0.078850 -0.024749 -433554.000000 0 0 1
-10.751051 26.403781 -25.858798 38.489248 -1.184117 2.307493 0.047570 -0.012834 -761512.000000 0 0 1
-10.942651 27.146181 -27.071708 39.868962 -1.187620 2.317219 0.071208 -0.013121 116273.000000 0 0 1
-12.136251 26.591381 -27.910858 40.415420 -1.142635 2.333114 0.041663 -0.005538 211426.000000 0 0 1
-12.359351 27.252181 -29.139298 41.767615 -1.145021 2.342913 0.059688 -0.004918 -284948.000000 0 0 1
-13.541251 26.765181 -29.722518 42.227580 -1.102418 2.351620 0.056685 -0.001491 -213006.000000 0 0 1
-13.706051 27.151181 -31.235488 43.596998 -1.103312 2.369510 0.060584 -0.012145 664951.000000 0 0 1
-12.737951 26.562581 -32.160738 43.613521 -1.123646 2.400014 0.071604 -0.012581 775375.000000 0 0 1
-12.571951 25.099581 -32.181468 42.704682 -1.106443 2.424290 0.078774 -0.010745 -8825.510000 0 0 1
-11.934651 24.569781 -33.485268 43.213114 -1.118618 2.457332 0.059467 -0.007441 97244.500000 0 0 1
-12.706651 24.799581 33.237336 43.372788 -1.097299 0.697706 0.071590 -0.010795 8076.720000 0 0 1
-12.081551 24.180281 32.138921 41.994763 -1.107433 0.699277 0.072015 -0.017338 137927.000000 0 0 1
-12.933551 24.253281 30.805195 41.285088 -1.080888 0.728524 0.084814 -0.018076 -477306.000000 0 0 1
-14.098351 23.531181 30.817205 41.257486 -1.031013 0.727336 0.094516 -0.019377 -652418.000000 0 0 1
-14.775951 23.345281 29.581095 40.476809 -1.006514 0.751280 0.106276 -0.023965 447462.000000 0 0 1
-15.905051 22.280381 29.599715 40.317852 -0.950829 0.746369 0.076685 -0.019454 536806.000000 0 0 1
-15.379751 20.972781 29.844815 39.586706 -0.938056 0.716803 0.055228 -0.019311 318610.000000 0 0 1
-16.471851 20.111681 30.132335 39.796473 -0.884565 0.711840 0.046092 -0.020310 233459.000000 0 0 1
-16.105351 18.654781 30.263295 39.028839 -0.858611 0.683434 0.038969 -0.026345 -228698.000000 0 0 1
-15.622051 18.099981 29.058575 37.630554 -0.858747 0.688489 0.056782 -0.032289 161295.000000 0 0 1
-15.010851 16.842481 29.238845 36.931083 -0.842837 0.657187 0.044796 -0.042907 78880.900000 0 0 1
-14.443451 16.183581 27.935865 35.368548 -0.842154 0.660231 0.053189 -0.032993 243385.000000 0 0 1
-13.511651 16.962281 27.210695 34.795196 -0.898150 0.672889 0.020893 -0.031035 -164439.000000 0 0 1
-13.153651 16.367981 26.018725 33.435063 -0.893851 0.679023 0.012567 -0.020493 405817.000000 0 0 1
-12.072951 17.160481 25.188745 32.782788 -0.957704 0.694533 0.022433 -0.017967 528788.000000 0 0 1
-12.509651 18.327881 24.443965 33.013786 -0.971880 0.737106 0.008897 -0.007728 -187170.000000 0 0 1
-13.041051 19.470381 25.085465 34.328492 -0.980635 0.751380 0.007465 -0.014074 339425.000000 0 0 1
-12.050151 20.351681 25.956465 35.116024 -1.036209 0.738970 0.019293 -0.020455 180731.000000 0 0 1
-11.649051 19.866781 27.203825 35.643197 -1.040468 0.702505 0.042453 -0.024543 168214.000000 0 0 1
-12.638951 19.876881 28.243885 36.777038 -1.004424 0.695121 0.053179 -0.021310 36201.700000 0 0 1
-12.153351 19.461481 29.665365 37.503161 -1.012569 0.658339 0.053980 -0.026053 146648.000000 0 0 1
-11.060251 20.279481 30.071125 37.919113 -1.071498 0.655024 0.056242 -0.030014 200943.000000 0 0 1
-10.976451 20.370081 31.465355 39.057538 -1.076553 0.634083 0.048947 -0.027113 256199.000000 0 0 1
-9.668351 21.100081 31.941869 39.483838 -1.141133 0.628371 0.033983 -0.024706 -176473.000000 0 0 1
-8.538851 20.311981 31.747255 38.644234 -1.172841 0.606713 0.049069 -0.029445 -1099710.000000 0 0 1
-7.489951 21.121481 32.188293 39.221201 -1.230018 0.608186 0.056718 -0.023697 -769356.000000 0 0 1
-6.270751 20.410281 32.791433 39.130295 -1.272715 0.577177 0.061931 -0.017907 -628402.000000 0 0 1
-6.547451 19.684581 -33.936668 39.774983 -1.249689 2.592918 0.062147 -0.017757 509059.000000 0 0 1
-5.434851 19.160581 -33.175098 38.694349 -1.294409 2.600920 0.053692 -0.015319 529088.000000 0 0 1
-4.576851 18.054981 -33.809828 38.600964 -1.322531 2.638054 0.039432 -0.016418 -453616.000000 0 0 1
-5.176151 16.819681 -33.861888 38.161783 -1.272250 2.662307 0.040500 -0.017393 -260889.000000 0 0 1
-4.748051 16.064081 32.885653 36.906163 -1.283409 0.471118 0.037852 -0.016170 -173493.000000 0 0 1
-5.466851 14.753981 32.580268 36.180662 -1.215947 0.449905 0.054289 -0.017667 -215520.000000 0 0 1
-4.950651 13.640181 33.341800 36.362606 -1.222635 0.410490 0.064018 -0.015662 -27798.600000 0 0 1
-5.733951 12.485081 33.192727 35.923705 -1.140265 0.392441 0.064863 -0.013535 -217504.000000 0 0 1
-5.019451 11.182681 33.601598 35.767509 -1.148891 0.349790 0.090210 -0.025459 253859.000000 0 0 1
-5.020551 11.015081 -32.908678 35.064498 -1.143139 2.789110 0.086746 -0.033195 -322404.000000 0 0 1
-4.079751 10.015481 -32.644898 34.389586 -1.183975 2.821693 0.102577 -0.033689 -207108.000000 0 0 1
-3.920551 9.513681 -31.181768 32.835705 -1.179906 2.822849 0.097524 -0.035729 724699.000000 0 0 1
-5.038751 8.731481 -30.718138 32.330045 -1.047401 2.824488 0.112112 -0.033119 554219.000000 0 0 1
-5.475451 9.050681 -29.417238 31.261307 -1.026726 2.796403 0.128272 -0.037487 -298597.000000 0 0 1
-6.399851 7.965881 -28.862498 30.617922 -0.893981 2.801329 0.125136 -0.033687 -239571.000000 0 0 1
-5.821851 6.731781 -28.493588 29.851221 -0.857755 2.838842 0.133834 -0.026271 -97130.800000 0 0 1
-6.874151 5.913181 -28.049798 29.478990 -0.710389 2.828931 0.136490 -0.039498 -144420.000000 0 0 1
-6.541951 5.128781 -26.718548 27.981822 -0.664898 2.839964 0.123572 -0.037440 -73394.000000 0 0 1
-6.558751 5.864981 -25.503498 26.978577 -0.729614 2.809383 0.108040 -0.028773 620750.000000 0 0 1
-5.500751 6.830481 -25.330438 26.805687 -0.892817 2.808284 0.095722 -0.030589 252046.000000 0 0 1
-5.890351 7.933981 -24.317578 26.248598 -0.932164 2.755622 0.066236 -0.013299 46191.300000 0 0 1
-6.097351 7.379081 -23.034278 24.944067 -0.880222 2.747739 0.053691 -0.005834 -472558.000000 0 1 0
-7.366051 7.739581 -22.570478 24.971710 -0.810121 2.699462 0.060555 -0.006519 -256444.000000 0 1 0
-7.515751 7.778781 -21.045578 23.662466 -0.802594 2.666844 0.052047 -0.008736 4352.410000 0 1 0
-6.955451 8.999181 -20.576578 23.510830 -0.912801 2.636637 0.030376 -0.003213 -63937.200000 0 1 0
-6.771951 9.162881 -19.168578 22.299150 -0.934331 2.605303 0.029069 -0.002724 -580086.000000 0 1 0
-8.064751 9.449981 -18.406678 22.206939 -0.864323 2.547882 0.027781 -0.000263 -782252.000000 0 1 0
-8.040751 9.520381 -16.981978 21.063687 -0.869456 2.508532 0.019440 -0.003662 -583450.000000 0 1 0
-9.263851 9.790981 -16.363278 21.199979 -0.813055 2.452548 0.022357 -0.005661 -179639.000000 0 1 0
-9.813651 11.248081 -16.496378 22.247642 -0.853399 2.406083 0.034998 -0.019691 -179617.000000 0 1 0
-8.971251 12.178181 -15.771078 21.852193 -0.935884 2.377075 0.019422 -0.022981 376186.000000 0 1 0
-9.101251 13.508281 -16.288278 23.035070 -0.977904 2.356196 0.039951 -0.028929 103933.000000 0 1 0
-7.952251 14.443081 -15.828778 22.855877 -1.067498 2.335811 0.055183 -0.030035 -7199.340000 0 1 0
-7.718351 14.590981 -14.385278 21.895340 -1.084234 2.287631 0.058710 -0.030883 -197057.000000 0 1 0
-8.695651 15.224381 -13.597678 22.187676 -1.051848 2.230456 0.057238 -0.038295 -701272.000000 0 1 0
-8.073551 16.197081 -12.516678 22.004429 -1.108384 2.175873 0.072860 -0.032600 521658.000000 0 1 0
-7.419751 17.403581 -12.901978 22.899747 -1.167796 2.169305 0.073929 -0.029038 -169568.000000 0 1 0
-6.320851 17.257581 -13.750878 22.953517 -1.219705 2.213142 0.090409 -0.028342 -705756.000000 0 1 0
-5.848751 18.536881 -14.490078 24.244303 -1.265163 2.211387 0.098989 -0.022043 4242.710000 0 1 0
-5.253151 19.441381 -13.629378 24.317131 -1.306894 2.165767 0.096271 -0.027647 -417673.000000 0 1 0
-5.387551 20.792381 -13.980278 25.628051 -1.317260 2.147790 0.100106 -0.024584 -95576.100000 0 0 1
-4.700851 21.745881 -12.965078 25.750235 -1.357900 2.098434 0.095888 -0.024823 -480883.000000 0 0 1
-4.840951 23.134181 -13.083378 27.014810 -1.364517 2.076364 0.094217 -0.027116 528061.000000 0 0 1
-6.158351 23.711281 -13.135178 27.797177 -1.316688 2.062963 0.093497 -0.027835 902993.000000 0 0 1
-6.952351 23.651881 -11.783678 27.324014 -1.284904 2.016682 0.075703 -0.025449 -31854.000000 0 0 1
-7.292751 22.346081 -11.279478 26.072173 -1.255340 2.018199 0.077642 -0.023141 113944.000000 0 0 1
-8.091051 22.233081 -10.114978 25.731067 -1.221775 1.974801 0.085357 -0.025481 70633.500000 0 0 1
-7.344451 22.725481 -8.876678 25.479087 -1.258210 1.926650 0.075604 -0.021929 35560.900000 0 0 1
-7.298151 24.148981 -8.824278 26.726470 -1.277310 1.907280 0.076131 -0.018669 -257022.000000 0 0 1
-6.822451 24.615281 -7.593778 26.648140 -1.300420 1.859766 0.072916 -0.015178 38532.900000 0 0 1
-7.076351 26.142381 -7.410778 28.078791 -1.306446 1.837889 0.085711 -0.022907 -127526.000000 0 0 1
-6.361351 27.065981 -8.192878 28.985469 -1.339955 1.857357 0.073685 -0.027393 -299943.000000 0 0 1
-6.529151 27.031781 -9.573878 29.410987 -1.333799 1.902358 0.076267 -0.030581 -95510.100000 0 0 1
-5.843851 28.164581 -10.344178 30.567896 -1.366210 1.916012 0.072476 -0.034034 214613.000000 0 0 1
-6.622351 29.343181 -10.379978 31.821719 -1.348829 1.903068 0.079480 -0.026936 -399004.000000 0 0 1
-7.585651 29.406581 -11.381978 32.432061 -1.318342 1.929380 0.102869 -0.031863 -101183.000000 0 0 1
-8.770451 30.324881 -10.941678 33.410172 -1.289262 1.904448 0.108129 -0.025284 -295725.000000 0 0 1
-9.718551 29.701681 -10.140078 32.855156 -1.254571 1.884548 0.110377 -0.018944 -1396200.000000 0 0 1
-10.806651 30.543681 -10.131878 33.946357 -1.230732 1.873883 0.093102 -0.026428 -1008450.000000 0 0 1
-11.899851 30.064781 -9.202278 33.618142 -1.193910 1.848065 0.104087 -0.027180 -478046.000000 0 0 1
-12.678751 28.955981 -9.529878 33.015423 -1.158081 1.863612 0.115092 -0.033590 -292083.000000 0 0 1
-13.879051 29.001881 -8.768778 33.326096 -1.124450 1.837052 0.130425 -0.027725 185976.000000 0 0 1
-14.809151 27.896781 -9.280878 32.919235 -1.082770 1.856600 0.137129 -0.030081 -226567.000000 0 0 1
-14.406951 26.619881 -8.903078 31.550644 -1.074727 1.856866 0.135285 -0.041649 -260844.000000 0 0 1
-15.236451 25.716781 -9.567078 31.385208 -1.035931 1.880554 0.152041 -0.046131 -239449.000000 0 0 1
-15.210151 24.226881 -9.083178 30.013240 -1.010171 1.878257 0.139166 -0.046144 -308533.000000 0 0 1
-14.176051 23.441681 -9.600978 29.028462 -1.026901 1.907888 0.143818 -0.047688 -227999.000000 0 0 1
-14.247851 22.140981 -9.045478 27.839630 -0.999000 1.901717 0.124847 -0.044299 -456989.000000 0 0 1
-13.324151 21.090781 -9.602178 26.731178 -1.007356 1.938220 0.137405 -0.046695 -405750.000000 0 0 1
-13.705351 20.688881 -10.921178 27.113439 -0.985719 1.985366 0.132412 -0.034515 70888.400000 0 0 1
-13.019651 19.531681 -11.290278 26.047423 -0.982846 2.019115 0.123274 -0.027707 -244186.000000 0 0 1
-13.437351 18.964481 -12.661878 26.467662 -0.954353 2.069617 0.117362 -0.028248 841172.000000 0 0 1
-14.840951 18.665481 -12.634178 26.986598 -0.899049 2.058009 0.113729 -0.026477 555492.000000 0 0 1
-15.276351 18.191881 -13.878678 27.512345 -0.872292 2.099544 0.112609 -0.023786 912029.000000 0 0 1
-16.828751 18.361481 -14.070178 28.606306 -0.828926 2.085016 0.092889 -0.007191 974246.000000 0 0 1
-17.221651 19.722581 -14.333178 29.849715 -0.852990 2.071654 0.070019 -0.012260 240522.000000 0 0 1
-18.530851 19.743281 -14.878378 30.895885 -0.817065 2.073236 0.060005 -0.010738 8503.480000 0 0 1
-19.056051 20.992281 -15.577778 32.349283 -0.833708 2.073218 0.057709 -0.016722 -116192.000000 0 0 1
-19.509351 22.044481 -14.789078 32.943752 -0.846331 2.036352 0.058769 -0.037915 82174.800000 0 0 1
-19.990751 23.119081 -15.518478 34.277474 -0.857838 2.040622 0.055499 -0.028029 -428830.000000 0 0 1
-20.686351 24.131181 -14.628078 34.988851 -0.862111 2.002125 0.050609 -0.020379 -241789.000000 0 0 1
-21.904351 23.727781 -14.046578 35.215260 -0.825336 1.981089 0.080283 -0.023867 36839.400000 0 0 1
-22.394351 24.756681 -13.207378 35.900349 -0.835458 1.947535 0.086307 -0.034252 -240822.000000 0 0 1
-26.074101 -0.691619 3.591922 26.329432 0.026519 1.433947 0.193627 -0.059075 28717.100000 0 0 1
-26.719441 -0.225519 4.763022 27.141587 0.008440 1.394395 0.218320 -0.052183 970153.000000 0 0 1
-28.151611 -0.368719 4.675522 28.539616 0.013097 1.406229 0.205986 -0.049493 889904.000000 0 0 1
-28.778431 0.217281 5.932422 29.384331 -0.007550 1.367508 0.205849 -0.044428 -526065.000000 0 0 1
-29.164331 1.555581 5.822122 29.780449 -0.053288 1.374028 0.245422 -0.055284 104149.000000 0 0 1
-29.626191 2.084381 7.028322 30.519717 -0.070240 1.338423 0.253989 -0.040292 -704555.000000 0 0 1
-28.514031 2.584481 7.918722 29.705819 -0.090392 1.300962 0.264718 -0.041884 -890227.000000 0 0 1
-27.663921 1.556981 8.343622 28.936702 -0.056223 1.278303 0.227620 -0.050949 225335.000000 0 0 1
-26.688961 2.227981 9.161422 28.305409 -0.083286 1.241198 0.210735 -0.057938 17192.900000 0 0 1
-25.675011 1.367781 9.977922 27.579629 -0.053223 1.200613 0.177024 -0.041281 -95966.000000 0 0 1
-24.686451 0.782481 9.159322 26.342481 -0.031686 1.215678 0.184072 -0.044692 18660.400000 0 0 1
-25.083301 -0.301619 8.368022 26.444030 0.012024 1.248819 0.159919 -0.032647 -1027780.000000 0 0 1
-23.898351 -1.025019 7.744122 25.142658 0.042864 1.257699 0.143619 -0.046883 -344536.000000 0 0 1
-23.058251 -1.542119 8.748722 24.710346 0.066780 1.208897 0.145055 -0.056922 101225.000000 0 1 0
-21.884551 -2.102319 8.205522 23.466655 0.095770 1.213580 0.157773 -0.046675 248965.000000 0 1 0
-20.736751 -2.431219 9.202422 22.816841 0.116709 1.155657 0.124693 -0.026708 594230.000000 0 1 0
-19.933451 -1.324019 9.656622 22.188867 0.066325 1.120535 0.105135 -0.023701 1013680.000000 0 1 0
-20.605851 -0.651119 10.723122 23.238124 0.031588 1.091173 0.131029 -0.029811 -94791.200000 0 1 0
-20.030751 0.790881 10.965422 22.849441 -0.039463 1.070257 0.097142 -0.025734 -30032.300000 0 1 0
-20.499351 1.773181 10.054522 22.901113 -0.086285 1.116266 0.107427 -0.021142 700643.000000 0 1 0
-21.869451 2.103281 10.252022 24.244600 -0.095880 1.134200 0.137859 -0.027069 -53425.800000 0 1 0
-22.238551 3.525881 9.695222 24.514941 -0.157239 1.164204 0.125695 -0.032411 -211075.000000 0 1 0
-22.194051 4.522781 10.639122 25.024435 -0.201031 1.131669 0.107667 -0.034167 543775.000000 0 0 1
-22.499351 5.796881 10.014122 25.300341 -0.252162 1.163847 0.086684 -0.033158 -241430.000000 0 0 1
-22.752251 6.903581 11.068222 26.226511 -0.294595 1.135119 0.096798 -0.036149 811491.000000 0 0 1
-23.817351 6.529481 12.002622 27.458391 -0.267574 1.118402 0.099337 -0.031923 1144250.000000 0 0 1
-23.936751 7.621081 12.894722 28.236905 -0.308236 1.096557 0.101242 -0.024123 -143878.000000 0 0 1
-24.866351 7.380781 14.101522 29.523961 -0.288535 1.072841 0.116827 -0.020868 209866.000000 0 0 1
-26.196421 7.090281 13.740422 30.419135 -0.264325 1.102123 0.129722 -0.027537 58144.100000 0 0 1
-27.093551 6.729481 14.769622 31.583036 -0.243453 1.084173 0.127976 -0.025569 -300576.000000 0 0 1
-28.524961 6.595781 14.268522 32.569440 -0.227235 1.117317 0.143003 -0.017309 -694405.000000 0 0 1
-28.791431 5.428281 13.472022 32.247606 -0.186351 1.139809 0.163574 -0.018761 -130468.000000 0 0 1
-29.924271 5.648181 12.676722 32.985803 -0.186554 1.176338 0.191757 -0.028576 -386855.000000 0 0 1
-30.342821 4.456581 11.764522 32.847403 -0.145832 1.204503 0.209384 -0.031930 -156967.000000 0 0 1
-31.026991 3.442781 12.464222 33.613743 -0.110509 1.190918 0.181687 -0.032928 17003.900000 0 0 1
-31.603761 2.561081 11.537822 33.741342 -0.080861 1.221806 0.176413 -0.024373 -644429.000000 0 0 1
-32.804291 1.841281 12.115822 35.018637 -0.056070 1.217511 0.135234 -0.017329 -789418.000000 0 0 1
-32.480911 0.818381 12.991722 34.992344 -0.025190 1.190416 0.143512 -0.012722 -513997.000000 0 0 1
-33.600221 0.226481 13.567722 36.236849 -0.006740 1.187027 0.123009 -0.018442 -452128.000000 0 0 1
-33.237931 -0.963519 14.506122 36.278313 0.028980 1.159436 0.119695 -0.024848 -102141.000000 0 0 1
-32.795091 -2.106819 13.872622 35.670805 0.064154 1.171352 0.125024 -0.023527 46104.000000 0 0 1
-32.931031 -3.220319 14.776822 36.237794 0.097480 1.150782 0.128360 -0.015894 -234688.000000 0 0 1
-32.942851 -4.559619 14.016222 36.089833 0.137536 1.171934 0.120944 -0.019683 192364.000000 0 0 1
-34.156759 -4.878219 13.338922 36.992000 0.141859 1.201897 0.097853 -0.030760 511790.000000 0 0 1
-34.134380 -6.240919 12.965022 37.043174 0.180836 1.213228 0.107482 -0.030039 -547465.000000 0 0 1
-35.370014 -6.776519 12.161022 38.011177 0.189295 1.245138 0.112786 -0.023198 495793.000000 0 0 1
-36.555111 -6.940419 12.920022 39.387466 0.187629 1.236586 0.107854 -0.028021 378280.000000 0 0 1
-37.235431 -5.695819 13.128422 39.890790 0.151791 1.235436 0.102709 -0.030562 -1240200.000000 0 0 1
35.964555 -5.568319 12.542422 38.493736 -0.153608 1.238907 0.126667 -0.034068 46372.100000 0 0 1
34.927095 -6.197419 13.335922 37.896659 -0.175611 1.211194 0.125797 -0.032524 613799.000000 0 0 1
33.658665 -5.794719 12.828722 36.483703 -0.170490 1.211486 0.124315 -0.032549 628381.000000 0 0 1
32.568175 -6.898919 13.088822 35.771474 -0.208744 1.196195 0.104395 -0.025180 271625.000000 0 0 1
32.174685 -6.962319 14.483522 35.964658 -0.213106 1.156315 0.103538 -0.025167 221029.000000 0 0 1
31.232235 -7.997219 14.703122 35.434302 -0.250671 1.142919 0.094498 -0.023632 55479.700000 0 0 1
30.659005 -7.915219 16.143422 35.542022 -0.252653 1.099315 0.081479 -0.013254 107649.000000 0 0 1
31.568335 -8.325419 17.141122 36.873980 -0.257856 1.087323 0.072330 -0.006728 -128494.000000 0 0 1
30.839765 -8.638519 18.301522 36.887136 -0.273110 1.051638 0.071022 -0.007568 -437336.000000 0 0 1
31.642915 -9.068319 19.554322 38.286812 -0.279103 1.034760 0.074697 -0.011658 1330280.000000 0 0 1
32.752125 -8.227319 20.035222 39.265768 -0.246107 1.035325 0.072504 -0.011790 1512520.000000 0 0 1
33.924305 -8.376319 19.233722 39.886805 -0.242070 1.067623 0.058699 -0.004194 261625.000000 0 0 1
35.272415 -7.839619 19.788522 41.196947 -0.218704 1.069755 0.050624 -0.013604 628393.000000 0 0 1
35.598175 -8.304919 21.129122 42.221339 -0.229197 1.046693 0.055146 -0.020714 -80026.900000 0 0 1
36.932805 -8.145019 21.565322 43.536611 -0.217062 1.052573 0.054625 -0.019926 20304.000000 0 0 1
37.263315 -8.677019 22.988622 44.635434 -0.228780 1.029753 0.060153 -0.019482 -240783.000000 0 0 1
36.726705 -8.021219 24.108022 44.658566 -0.215026 1.000561 0.064796 -0.016151 30824.800000 0 0 1
36.752605 -8.908319 25.187322 45.436915 -0.237800 0.983231 0.066332 -0.023475 -94236.500000 0 0 1
36.473025 -8.232219 26.606922 45.890949 -0.221987 0.952331 0.074162 -0.015830 654158.000000 0 0 1
-37.002621 -7.432019 27.029622 46.422293 0.198214 0.949296 0.053346 -0.023750 397584.000000 0 0 1
37.204775 -6.625919 28.174922 47.137292 -0.176245 0.930142 0.057255 -0.023199 171748.000000 0 0 1
-36.178061 -6.151219 28.982122 46.761661 0.168416 0.902329 0.082858 -0.017265 153864.000000 0 0 1
-35.807426 -7.090319 29.967122 47.227881 0.195484 0.883407 0.084743 -0.018331 -383010.000000 0 0 1
-34.468975 -6.844319 30.342122 46.428432 0.196015 0.858565 0.093188 -0.028943 -16444.200000 0 0 1
-34.065245 -7.701419 31.582122 47.086975 0.222341 0.835619 0.083962 -0.014156 -21847.300000 0 0 1
-34.010081 -9.094619 31.373022 47.155744 0.261296 0.842892 0.090160 -0.014179 -64327.400000 0 0 1
-33.646541 -9.787319 32.533422 47.815320 0.283075 0.822491 0.080271 -0.010394 -205606.000000 0 0 1
-33.929091 -11.287919 32.662822 48.429952 0.321173 0.830598 0.093479 -0.010518 -427250.000000 0 0 1
-35.291456 -11.565019 32.781522 49.536499 0.316672 0.847626 0.079692 -0.008077 -473928.000000 0 0 1
-35.642679 -12.935219 33.108922 50.338069 0.348133 0.852993 0.073701 -0.017625 659543.000000 0 0 1
-37.171301 -13.213019 33.237622 51.585162 0.341533 0.870656 0.074297 -0.015205 550444.000000 0 0 1
37.166065 -14.498219 33.679722 52.209562 -0.371937 0.869659 0.071727 -0.023211 -542321.000000 0 0 1
35.792295 -14.732619 33.561022 51.229685 -0.390478 0.856470 0.057757 -0.020912 -361604.000000 0 0 1
35.350135 -16.184519 33.881822 51.570811 -0.429350 0.853969 0.042543 -0.009064 -133452.000000 0 0 1
35.463505 -16.526619 -32.613592 50.935603 -0.436094 2.265673 0.058429 -0.025123 60002.000000 0 0 1
35.731815 -17.912619 -32.550492 51.547638 -0.464693 2.254236 0.045554 -0.026878 -89724.800000 0 0 1
36.467155 -18.563419 -31.364892 51.557835 -0.470857 2.224769 0.048689 -0.033207 -110495.000000 0 0 1
35.655515 -18.553419 -30.234592 50.295881 -0.479796 2.215716 0.053375 -0.028935 -363009.000000 0 0 1
36.138365 -19.490619 -29.268192 50.423136 -0.494617 2.190080 0.052107 -0.026364 -194154.000000 0 0 1
34.969615 -19.907019 -28.328892 49.210664 -0.517514 2.184214 0.059159 -0.022439 1694110.000000 0 0 1
33.788735 -20.540119 -28.915992 48.986831 -0.546207 2.202203 0.058595 -0.017978 1131770.000000 0 0 1
32.965615 -19.657219 -29.631692 48.488918 -0.537690 2.228249 0.045364 -0.013086 -1107670.000000 0 0 1
31.579185 -20.236719 -29.979192 48.015848 -0.569898 2.245109 0.046992 -0.003723 197325.000000 0 0 1
30.648255 -19.343119 -30.595392 47.429419 -0.562997 2.271914 0.043094 -0.003152 613141.000000 0 0 1
29.400425 -20.042319 -30.615292 46.940128 -0.598339 2.281306 0.047490 -0.004505 274616.000000 0 0 1
28.307325 -19.449019 -31.512992 46.611561 -0.601993 2.313221 0.041921 0.004433 -84112.600000 0 0 1
28.539125 -19.585419 -32.904192 47.757262 -0.601449 2.330888 0.031995 0.005167 -327301.000000 0 0 1
27.544225 -19.001919 -33.689792 47.484306 -0.603895 2.359575 0.060922 0.001098 -356604.000000 0 0 1
27.751725 -19.301119 32.676722 47.015525 -0.607694 0.802349 0.053045 -0.000069 227215.000000 0 0 1
28.801725 -18.447319 32.208922 46.981460 -0.569663 0.815415 0.029362 -0.001044 384940.000000 0 0 1
28.860825 -18.367319 30.775322 46.015498 -0.566762 0.838198 0.031622 -0.004541 77243.600000 0 0 1
27.747225 -17.598819 29.992422 44.487889 -0.565227 0.830955 0.029939 -0.000222 -33295.400000 0 0 1
27.663225 -16.294819 30.442622 44.243964 -0.532324 0.811980 0.032117 -0.004250 69196.200000 0 0 1
26.636625 -15.551219 29.860422 42.930117 -0.528444 0.801599 0.026498 -0.003013 -283819.000000 0 0 1
26.601025 -14.075419 30.418022 42.790045 -0.486680 0.780066 0.037163 0.000256 492833.000000 0 0 1
27.779825 -13.318319 30.103822 43.073616 -0.447052 0.796949 0.046785 0.007414 607235.000000 0 0 1
27.858925 -12.160719 30.933722 43.369320 -0.411580 0.776654 0.067040 -0.007020 -355059.000000 0 0 1
29.229825 -11.504319 31.189522 44.266446 -0.374961 0.788957 0.075618 -0.009910 -304121.000000 0 0 1
29.552915 -10.691019 30.083822 43.505275 -0.347111 0.807235 0.075071 -0.023659 84341.900000 0 0 1
30.788715 -11.143519 29.559122 44.111956 -0.347268 0.836462 0.080932 -0.010017 -76797.900000 0 0 1
31.098645 -10.588519 28.208222 43.300649 -0.328170 0.861302 0.083870 -0.015800 -105211.000000 0 0 1
31.293325 -9.185919 28.130522 43.069473 -0.285522 0.859069 0.075809 -0.013853 -121447.000000 0 0 1
31.729825 -8.764219 26.841422 42.474171 -0.269494 0.886734 0.068822 -0.017977 142259.000000 0 0 1
31.798845 -7.248419 26.602422 42.087943 -0.224117 0.886578 0.069581 -0.012825 -180700.000000 0 0 1
30.550825 -6.612719 26.534722 41.002102 -0.213161 0.866949 0.083058 -0.015694 -531149.000000 0 0 1
30.673485 -5.220319 26.341622 40.767578 -0.168575 0.868278 0.078959 -0.019654 -27637.900000 0 0 1
29.300325 -4.539819 26.272322 39.615071 -0.153719 0.845723 0.075432 -0.019579 278153.000000 0 0 1
28.462325 -4.787519 25.149222 38.281949 -0.166646 0.854034 0.079091 -0.017560 215135.000000 0 0 1
27.196825 -4.162419 25.289722 37.370617 -0.151869 0.827488 0.087771 -0.022256 287689.000000 0 0 1
26.243925 -4.536319 24.114822 35.928351 -0.171161 0.834981 0.092913 -0.009704 -584.986000 0 0 1
26.678325 -3.950019 22.880922 35.367672 -0.146993 0.867226 0.093931 -0.000063 566375.000000 0 0 1
25.771525 -4.283819 21.824422 34.041562 -0.164717 0.874851 0.088283 -0.008348 432005.000000 0 0 1
26.103025 -3.433919 20.594922 33.426195 -0.130801 0.906975 0.087601 -0.002298 308168.000000 0 0 1
25.411825 -2.214119 20.592722 32.782973 -0.086910 0.891619 0.072466 0.004533 98105.600000 0 0 1
26.005325 -1.448119 19.514922 32.545447 -0.055628 0.927769 0.077216 0.006492 114055.000000 0 0 1
25.073325 -0.483619 18.765522 31.321723 -0.019286 0.928393 0.074050 -0.000500 -188319.000000 0 0 1
24.064925 -1.200419 18.081322 30.124671 -0.049841 0.927025 0.075870 -0.006460 -857829.000000 0 0 1
23.046625 -0.360219 17.668322 29.042146 -0.015629 0.916793 0.089577 -0.014274 -922952.000000 0 0 1
21.931225 -1.232519 17.142522 27.863305 -0.056140 0.908110 0.093291 -0.020708 -798255.000000 0 0 1
22.269625 -1.894619 15.891822 27.424000 -0.084872 0.952699 0.122602 -0.025688 361745.000000 0 0 1
21.167825 -2.642519 15.390022 26.304229 -0.124194 0.945820 0.132443 -0.037897 -88784.100000 0 0 1
21.350425 -3.138419 13.957222 25.700085 -0.145950 0.996695 0.151001 -0.046408 -367949.000000 0 0 1
20.472725 -4.175819 13.577422 24.918192 -0.201210 0.994550 0.168783 -0.046661 466731.000000 0 1 0
20.598925 -4.558019 12.204622 24.373018 -0.217766 1.046339 0.161758 -0.044624 -754571.000000 0 1 0
19.529525 -5.537019 11.791922 23.475739 -0.276270 1.044537 0.162182 -0.041166 -637424.000000 0 1 0
19.693125 -6.856119 12.221222 24.169894 -0.335024 1.040675 0.159906 -0.050754 1436560.000000 0 1 0
18.393625 -7.492019 12.292622 23.357318 -0.386797 1.016570 0.140258 -0.027362 860697.000000 0 1 0
18.423025 -8.957319 12.649722 24.076064 -0.452549 1.017603 0.137562 -0.039927 -335976.000000 0 1 0
19.069425 -9.733819 11.660122 24.379266 -0.471966 1.072101 0.123403 -0.045907 573707.000000 0 1 0
18.655325 -11.135119 11.652322 24.653369 -0.538127 1.078505 0.124755 -0.040436 121125.000000 0 1 0
19.159825 -11.884719 10.420522 24.838130 -0.555208 1.137861 0.111774 -0.039272 -1080.550000 0 1 0
18.584425 -11.241119 9.292222 23.623907 -0.543991 1.166535 0.109554 -0.038781 268677.000000 0 1 0
19.106625 -11.660119 8.086922 23.799575 -0.547934 1.224100 0.100548 -0.049715 -421500.000000 0 1 0
18.460125 -11.025619 6.851422 22.567287 -0.538407 1.262328 0.080757 -0.032505 -407043.000000 0 1 0
18.774725 -9.679619 6.669822 22.151113 -0.476023 1.264945 0.075649 -0.029904 591871.000000 0 1 0
19.585525 -9.551819 5.497722 22.473428 -0.453758 1.323656 0.084759 -0.024699 -64794.900000 0 1 0
20.087325 -8.098119 5.291722 22.295346 -0.383215 1.331163 0.110321 -0.020955 -173543.000000 0 1 0
20.942025 -7.963219 4.164322 22.788656 -0.363366 1.387027 0.134908 -0.022164 697328.000000 0 1 0
21.367425 -6.598319 4.133122 22.741753 -0.299513 1.388039 0.148196 -0.020620 -296310.000000 0 1 0
21.886425 -6.090819 2.790522 22.888877 -0.271424 1.448576 0.154907 -0.022675 -222149.000000 0 1 0
20.959825 -5.908319 1.745922 21.846527 -0.274758 1.490793 0.113942 -0.031467 644983.000000 0 1 0
21.565625 -5.133019 0.684222 22.178643 -0.233671 1.539941 0.133284 -0.021434 366119.000000 0 1 0
-26.264241 -14.889719 0.100422 30.191458 0.515741 1.567470 0.121336 -0.018795 -1290910.000000 0 0 1
-25.323961 -14.391319 -0.854978 29.140076 0.516776 1.600141 0.111440 -0.010661 451523.000000 0 0 1
-24.042651 -14.972619 -0.635278 28.330760 0.556981 1.593222 0.106277 -0.009515 157683.000000 0 0 1
-23.250951 -14.694719 0.631622 27.512550 0.563621 1.547837 0.125688 -0.026080 -1602660.000000 0 0 1
-23.783051 -15.103019 1.868322 28.235179 0.565781 1.504578 0.110413 -0.013093 -48208.200000 0 0 1
-23.077751 -14.487819 2.975322 27.410436 0.560598 1.462035 0.126794 -0.004985 441071.000000 0 0 1
-23.574951 -14.999919 4.350722 28.279050 0.566659 1.416333 0.135628 -0.005617 1475.730000 0 0 1
-23.111951 -16.339319 4.518822 28.662787 0.615385 1.412481 0.159354 -0.023624 319946.000000 0 0 1
-23.647751 -17.029819 5.611622 29.676946 0.624119 1.380561 0.149275 -0.028049 -275713.000000 0 0 1
-24.093251 -18.476319 5.232322 30.809678 0.654209 1.400142 0.122957 -0.023240 18148.900000 0 0 1
-24.765451 -19.071319 6.330922 31.892371 0.656227 1.370960 0.119088 -0.029936 280516.000000 0 0 1
-25.213591 -20.368919 5.969522 32.958356 0.679512 1.388668 0.104931 -0.028725 -75285.200000 0 0 1
-25.752761 -21.274319 7.079822 34.145647 0.690453 1.361939 0.092036 -0.024694 14508.600000 0 0 1
-24.789851 -21.730619 8.016622 33.926726 0.719732 1.332248 0.078728 -0.015706 218834.000000 0 0 1
-25.399281 -22.578519 9.014722 35.159326 0.726673 1.311504 0.074804 -0.004557 1007330.000000 0 0 1
-24.372151 -23.080019 10.147322 35.066467 0.758175 1.277224 0.051661 -0.013316 811709.000000 0 0 1
-24.161251 -22.009319 11.068222 34.506256 0.738824 1.244265 0.067514 -0.014718 455761.000000 0 0 1
-23.060951 -22.444819 11.867622 34.298947 0.771859 1.217486 0.061289 -0.017848 229964.000000 0 0 1
-23.140951 -21.751819 13.249622 34.412174 0.754465 1.175559 0.042943 -0.007512 99979.800000 0 0 1
-24.135851 -22.334219 14.083922 35.773083 0.746648 1.166141 0.047655 -0.015759 78518.400000 0 0 1
-24.310251 -21.621919 15.266722 35.938398 0.726937 1.132053 0.041679 -0.002151 -652293.000000 0 0 1
-25.495161 -22.265819 16.022022 37.449634 0.717886 1.128707 0.056271 -0.003211 632461.000000 0 0 1
-26.787751 -21.969819 15.480422 37.946014 0.686904 1.150579 0.064164 -0.017769 588788.000000 0 0 1
-27.168111 -22.780719 14.385422 38.262354 0.697785 1.185355 0.060029 -0.027122 -767757.000000 0 0 1
-28.513801 -23.475719 14.677022 39.743694 0.688794 1.192549 0.050699 -0.020540 -178656.000000 0 0 1
-28.403341 -24.422019 15.673022 40.605768 0.710173 1.174526 0.043154 -0.007588 -542447.000000 0 0 1
-29.518321 -25.216879 15.863222 41.938813 0.706973 1.182895 0.047157 -0.019548 -842346.000000 0 0 1
-29.372591 -26.579669 15.098722 42.393387 0.735523 1.206644 0.051377 -0.021294 43395.000000 0 0 1
-29.769851 -26.554099 13.744022 42.193155 0.728366 1.239001 0.071163 -0.037556 21755.600000 0 0 1
-31.156531 -26.744109 13.548522 43.238168 0.709338 1.252082 0.120651 -0.056419 -180798.000000 0 0 1
-31.514101 -26.978389 12.066722 43.203909 0.708010 1.287734 0.161682 -0.057496 -408683.000000 0 0 1
-31.081801 -28.248169 11.578122 43.567078 0.737674 1.301810 0.136166 -0.057763 171536.000000 0 0 1
-31.598551 -28.527399 10.295122 43.798064 0.734364 1.333517 0.143617 -0.046755 -47508.700000 0 0 1
-31.084271 -29.928649 9.791722 44.247415 0.766460 1.347654 0.108122 -0.053930 65190.300000 0 0 1
-31.610371 -31.098279 10.450222 45.557937 0.777232 1.339352 0.110624 -0.042141 189309.000000 0 0 1
-30.999871 -32.290709 9.978722 45.861277 0.805791 1.351457 0.101608 -0.047089 -391847.000000 0 0 1
-30.886821 -33.488029 10.975422 46.860470 0.825783 1.334385 0.097843 -0.041936 -133503.000000 0 0 1
-32.144391 33.886575 11.407722 48.080120 -0.811776 1.331247 0.092134 -0.034610 106370.000000 0 0 1
-32.041951 32.560407 11.877222 47.201008 -0.793423 1.316432 0.105944 -0.036495 -411710.000000 0 0 1
-33.404511 32.049435 12.408122 47.926914 -0.764698 1.308917 0.097386 -0.034444 972487.000000 0 0 1
-34.451921 31.777645 11.446722 48.247083 -0.745041 1.331260 0.054479 -0.033453 791522.000000 0 0 1
-35.096562 32.942220 11.010022 49.377921 -0.753745 1.345932 0.087712 -0.036781 -823877.000000 0 0 1
-36.596921 32.840621 10.672022 50.316330 -0.731355 1.357074 0.078794 -0.019379 -16716.900000 0 0 1
-36.835391 32.329082 9.434222 49.910120 -0.720337 1.380628 0.051195 -0.019061 309229.000000 0 0 1
36.407815 32.014197 9.119722 49.331604 0.721273 1.384861 0.031955 -0.019932 151254.000000 0 0 1
36.162685 31.686945 7.633322 48.683363 0.719528 1.413351 0.028922 -0.024972 -281324.000000 0 0 1
36.415585 30.350435 7.272522 47.959705 0.694805 1.418571 0.048580 -0.026472 84191.700000 0 0 1
35.938215 30.037885 5.987822 47.219528 0.696204 1.443646 0.068746 -0.025908 -80490.200000 0 0 1
36.155465 28.543955 5.679122 46.413656 0.668292 1.448130 0.084880 -0.022588 176394.000000 0 0 1
35.193125 27.782355 6.408622 45.293330 0.668260 1.428828 0.074322 -0.014628 305976.000000 0 0 1
35.756705 27.182865 7.550122 45.546179 0.650008 1.404259 0.055911 -0.018903 -412888.000000 0 0 1
34.862385 26.109435 8.154322 44.312317 0.642815 1.385722 0.054331 -0.002864 -478832.000000 0 0 1
34.763085 24.879565 7.406422 43.385711 0.621178 1.399245 0.056307 -0.009278 377494.000000 0 0 1
33.714465 24.028085 7.884122 42.144672 0.619194 1.382615 0.054545 -0.007279 -366091.000000 0 0 1
33.738955 22.616965 7.228422 41.256445 0.590549 1.394680 0.070364 -0.008394 -15705.500000 0 0 1
34.736495 21.697165 7.578622 41.651249 0.558327 1.387823 0.074768 -0.007030 418195.000000 0 0 1
36.072535 22.111965 7.220822 42.922104 0.549913 1.401762 0.068232 -0.011116 103276.000000 0 0 1
37.030705 20.942265 7.105322 43.131626 0.514694 1.405306 0.061299 -0.011851 -630953.000000 0 0 1
36.728495 20.047465 6.050322 42.278713 0.499635 1.427198 0.084402 -0.023234 352234.000000 0 0 1
-37.227841 18.763065 6.277722 42.158920 -0.466847 1.421334 0.094534 -0.028858 157706.000000 0 0 1
36.854615 17.644265 5.304122 41.203354 0.446506 1.441708 0.102749 -0.028306 9057.270000 0 0 1
37.186975 17.696865 3.918722 41.369149 0.444173 1.475928 0.134323 -0.030336 18523.300000 0 0 1
36.538945 16.634465 3.246422 40.278272 0.427214 1.490109 0.120033 -0.032590 -1425890.000000 0 0 1
37.150365 16.100765 1.938422 40.535684 0.408959 1.522958 0.169416 -0.030098 243399.000000 0 0 1
-36.233311 15.361465 2.051222 39.408564 -0.400989 1.518723 0.177056 -0.046150 1134860.000000 0 0 1
-35.114168 16.160865 2.502522 38.735526 -0.431335 1.506146 0.173252 -0.049199 -859205.000000 0 0 1
-33.759831 15.467965 2.537122 37.221245 -0.429633 1.502580 0.193523 -0.047520 -389132.000000 0 0 1
-33.486511 14.503865 3.585222 36.668274 -0.408733 1.472865 0.183640 -0.044481 261473.000000 0 0 1
-32.101161 14.220265 3.648522 35.298898 -0.417003 1.467251 0.195768 -0.051059 75961.200000 0 0 1
-31.703861 13.513265 4.955922 34.818160 -0.402915 1.427974 0.202212 -0.039149 -10162.400000 0 0 1
-32.130791 12.137165 5.108522 34.724566 -0.361173 1.423145 0.225947 -0.043066 382319.000000 0 0 1
-31.697271 11.677765 6.372222 34.375753 -0.352985 1.384348 0.200736 -0.031245 -51168.800000 0 0 1
-31.883961 10.114265 6.588822 34.092490 -0.307180 1.376309 0.219615 -0.036680 -103206.000000 0 0 1
-33.202971 9.724165 6.888222 35.276682 -0.284903 1.374271 0.205321 -0.028557 -99926.600000 0 0 1
-33.234241 8.283165 6.969522 34.952823 -0.244259 1.370053 0.221306 -0.029476 -449041.000000 0 0 1
-34.603352 7.625065 6.818822 36.083652 -0.216890 1.380681 0.178477 -0.017436 -486253.000000 0 0 1
-35.369645 7.602665 8.006022 37.052782 -0.211727 1.353008 0.155006 -0.018587 -997554.000000 0 0 1
-36.562171 6.978165 7.765622 38.023572 -0.188589 1.365117 0.093814 -0.021354 -877762.000000 0 0 1
-37.188761 6.420265 9.071822 38.813937 -0.170955 1.334888 0.078641 -0.023029 -72353.000000 0 0 1
36.821995 7.198065 10.095422 38.853429 0.193048 1.307947 0.078429 -0.025281 478389.000000 0 0 1
-36.820181 7.863465 10.929522 39.204773 -0.210403 1.288272 0.116239 -0.028122 -22422.800000 0 0 1
37.151945 8.816765 11.947522 40.009319 0.233006 1.267552 0.103939 -0.029882 -268875.000000 0 0 1
36.407475 8.180165 12.960422 39.501796 0.221013 1.236508 0.089605 -0.029095 431770.000000 0 0 1
35.922085 9.109765 13.890922 39.577035 0.248362 1.212174 0.126311 -0.033991 -333384.000000 0 0 1
35.125775 8.525165 15.082522 39.166069 0.238100 1.175489 0.114437 -0.033642 547528.000000 0 0 1
33.797125 8.106065 14.699722 37.736398 0.235398 1.170668 0.118721 -0.035118 880708.000000 0 0 1
33.115035 7.681865 15.842522 37.504694 0.227943 1.134689 0.114200 -0.018761 -490338.000000 0 0 1
31.671065 7.190765 15.677422 36.063070 0.223260 1.121066 0.109621 -0.014863 -418334.000000 0 0 1
30.842615 8.336565 15.819822 35.651535 0.263986 1.111035 0.110786 -0.021828 812963.000000 0 0 1
29.418025 8.199065 15.878622 34.420568 0.271811 1.091323 0.118287 -0.017125 1016130.000000 0 0 1
28.811125 7.505665 17.137022 34.352488 0.254848 1.048515 0.112610 -0.012132 -569996.000000 0 0 1
28.601325 8.375365 18.211122 34.926029 0.284867 1.022282 0.134173 -0.021432 130787.000000 0 0 1
27.932125 7.821265 19.341622 34.863650 0.273018 0.982699 0.120609 -0.016414 -350226.000000 0 0 1
28.702825 7.029065 20.395822 35.906120 0.240164 0.966684 0.119197 -0.010102 -410875.000000 0 0 1
27.993325 6.984865 21.623422 36.055332 0.244526 0.927634 0.095637 -0.001324 -82729.500000 0 0 1
28.314025 5.894465 22.456422 36.615838 0.205250 0.910567 0.081884 -0.005337 -890441.000000 0 0 1
27.456225 5.608965 23.702222 36.702862 0.201515 0.868743 0.082215 -0.005645 1052700.000000 0 0 1
26.094825 5.186465 23.477122 35.482595 0.196198 0.847777 0.051041 -0.007680 856205.000000 0 0 1
25.168725 6.226865 23.191522 34.786279 0.242535 0.841043 0.076411 -0.003713 -1097120.000000 0 0 1
23.770525 5.647165 23.182022 33.679882 0.233246 0.811647 0.084793 -0.010209 -1363590.000000 0 0 1
23.631425 5.167965 21.863222 32.606020 0.215301 0.835877 0.079957 -0.002800 826143.000000 0 0 1
22.265625 5.231465 21.435322 31.346440 0.230771 0.817811 0.084939 0.002659 401738.000000 0 0 1
21.275325 4.144065 22.046422 30.916944 0.192374 0.776907 0.086227 -0.000079 -160534.000000 0 0 1
20.205525 3.756565 21.232222 29.549657 0.183819 0.769114 0.093008 -0.008974 -43902.000000 0 0 1
19.098925 4.638565 21.286522 28.972422 0.238257 0.745547 0.108945 -0.007739 -258820.000000 0 0 1
17.892925 4.097165 20.468822 27.493930 0.225102 0.731033 0.148830 -0.014704 212138.000000 0 0 1
17.277925 2.879765 20.952222 27.309620 0.165155 0.696316 0.139229 -0.015561 207597.000000 0 0 1
16.184425 2.500365 20.136822 25.955327 0.153280 0.682773 0.149433 -0.022686 45290.800000 0 0 1
15.298925 1.413465 20.826822 25.880717 0.092128 0.635587 0.170648 -0.022372 -248171.000000 0 0 1
15.781925 0.127165 20.756222 26.075008 0.008057 0.650106 0.128271 -0.028927 -234746.000000 0 0 1
15.062725 -0.704635 21.592922 26.336979 -0.046746 0.609611 0.156202 -0.029729 -271175.000000 0 0 1
15.327625 -2.173235 21.454122 26.456348 -0.140847 0.625065 0.123849 -0.024426 -209832.000000 0 0 1
14.734125 -2.550035 20.283422 25.199490 -0.171372 0.635266 0.135830 -0.022451 -165004.000000 0 0 1
14.947425 -3.930835 20.119322 25.370536 -0.257155 0.655047 0.111881 -0.019867 130201.000000 0 0 1
14.240625 -4.492135 18.846322 24.044927 -0.305566 0.670041 0.113302 -0.022621 -150474.000000 0 1 0
12.840025 -4.463535 18.875722 23.261175 -0.334559 0.624135 0.119571 -0.020803 -460583.000000 0 1 0
12.404825 -5.029235 17.638222 22.142262 -0.385175 0.649169 0.117485 -0.020481 404090.000000 0 1 0
10.853025 -5.020035 17.519922 21.211708 -0.433239 0.598902 0.101820 -0.015109 434342.000000 0 1 0
10.209425 -5.965335 18.366522 21.843688 -0.528793 0.572007 0.095594 -0.009631 -1291290.000000 0 1 0
8.862025 -5.920535 18.071822 20.980442 -0.588980 0.532845 0.077004 -0.022987 -1170770.000000 0 1 0
8.085625 -6.732435 19.111022 21.815915 -0.694330 0.503264 0.067091 -0.025907 -409692.000000 0 1 0
8.139125 -8.134035 18.805522 22.046667 -0.785085 0.549114 0.065688 -0.026302 293535.000000 0 1 0
9.159625 -8.804735 19.522622 23.292807 -0.765646 0.576933 0.086526 -0.021916 206755.000000 0 1 0
9.244925 -10.250635 19.022122 23.502878 -0.836939 0.627747 0.098807 -0.026607 74952.000000 0 1 0
9.435025 -10.317035 17.634122 22.503848 -0.830023 0.670349 0.084837 -0.015339 12478.100000 0 1 0
10.111425 -11.472335 17.252322 23.054240 -0.848367 0.725246 0.101094 -0.022216 50115.200000 0 1 0
9.870725 -11.788135 15.767822 22.023068 -0.873696 0.772786 0.087286 -0.018929 -180721.000000 0 1 0
10.536325 -12.898135 15.286722 22.606634 -0.885843 0.828197 0.079125 -0.014739 -161200.000000 0 1 0
10.131925 -13.146235 13.963922 21.690332 -0.914173 0.871361 0.056630 -0.001322 -231010.000000 0 1 0
10.918725 -14.392335 13.459422 22.528069 -0.921783 0.930477 0.073621 -0.007910 720736.000000 0 1 0
12.257525 -14.169335 13.036122 22.824492 -0.857616 0.962895 0.056648 -0.007364 216261.000000 0 1 0
12.406325 -13.382135 11.818722 21.741219 -0.823219 0.996065 0.031733 -0.006009 -546476.000000 0 1 0
13.860825 -13.193035 11.348522 22.247867 -0.760719 1.035501 0.051204 -0.014193 -57766.700000 0 1 0
14.427625 -14.285335 10.640822 22.922789 -0.780443 1.088062 0.053546 -0.015401 480119.000000 0 1 0
15.684225 -13.799335 10.128522 23.216449 -0.721555 1.119353 0.050111 -0.026565 687320.000000 0 1 0
16.545225 -14.923035 9.480322 24.214003 -0.733894 1.168511 0.041598 -0.027874 -147928.000000 0 1 0
17.027525 -15.832635 10.378522 25.462181 -0.749051 1.150966 0.032338 -0.017209 242182.000000 0 0 1
16.106725 -16.877335 10.783422 25.701230 -0.808757 1.137827 0.077100 -0.019374 348374.000000 0 0 1
16.523025 -17.630035 12.060222 27.005137 -0.817800 1.107846 0.066939 -0.018075 149340.000000 0 0 1
17.674325 -18.454235 11.920422 28.196400 -0.806982 1.134303 0.086020 -0.024720 280475.000000 0 0 1
18.047825 -19.067035 13.140022 29.358746 -0.812852 1.106753 0.066453 -0.020850 456676.000000 0 0 1
19.450325 -19.785835 13.036722 30.655351 -0.793949 1.131539 0.031416 -0.024617 1284720.000000 0 0 1
20.495125 -18.780135 13.034222 30.702354 -0.741760 1.132348 0.027097 -0.024511 -63880.400000 0 0 1
21.771925 -19.369435 12.932222 31.881563 -0.727068 1.153125 0.013849 -0.024438 -95169.400000 0 0 1
22.470725 -18.678435 11.749222 31.493835 -0.693498 1.188487 0.036377 -0.023798 -1002800.000000 0 0 1
22.141825 -18.985135 10.393622 30.963254 -0.708794 1.228474 0.034292 -0.014936 153450.000000 0 0 1
20.985625 -18.352535 9.835422 29.562603 -0.718563 1.231633 0.040000 -0.015886 382533.000000 0 0 1
20.839225 -16.836335 9.916422 28.566954 -0.679549 1.216288 0.080745 -0.038057 -791020.000000 0 0 1
21.583725 -16.054235 9.060022 28.384496 -0.639529 1.245923 0.083574 -0.024276 -485573.000000 0 0 1
21.295325 -14.652935 9.105122 27.406251 -0.602683 1.232132 0.090561 -0.037561 -59750.100000 0 0 1
-35.938368 25.018981 7.938922 44.503283 -0.608147 1.391447 0.073631 -0.021081 -527467.000000 0 0 1
-35.178945 24.241381 8.783922 43.616052 -0.603365 1.368018 0.073832 -0.020903 -157077.000000 0 0 1
-34.035851 24.968981 9.196222 43.202542 -0.632928 1.356292 0.096738 -0.028018 12766.800000 0 0 1
-33.001241 24.191881 10.054422 42.135738 -0.632571 1.329852 0.108062 -0.032186 72910.200000 0 0 1
-32.077181 23.399381 9.349322 40.790764 -0.630233 1.339539 0.118807 -0.036984 -85877.100000 0 0 1
-31.482701 22.429181 10.183122 39.974049 -0.619019 1.313214 0.111365 -0.036649 -103318.000000 0 0 1
-30.710361 21.325781 9.430622 38.559718 -0.606969 1.323718 0.100063 -0.045488 -284690.000000 0 0 1
-31.508311 20.619881 8.547922 38.613730 -0.579481 1.347577 0.104548 -0.051433 -420640.000000 0 0 1
-30.712141 19.828081 7.702422 37.359279 -0.573283 1.363135 0.116853 -0.057021 4042.280000 0 0 1
-31.582821 19.146481 6.590822 37.516680 -0.544988 1.394203 0.122724 -0.052556 -229487.000000 0 0 1
-32.278501 18.027781 7.048022 37.637443 -0.509351 1.382423 0.139152 -0.052889 -179263.000000 0 0 1
-33.097951 17.625981 5.979722 37.972446 -0.489339 1.412663 0.117876 -0.045788 -227466.000000 0 0 1
-33.885731 16.317181 6.268422 38.128549 -0.448767 1.405644 0.125310 -0.037132 9707.200000 0 0 1
-34.621409 16.450181 7.499822 39.057621 -0.443566 1.377577 0.087147 -0.033309 87251.500000 0 0 1
-35.378038 15.295581 7.685422 39.301731 -0.408077 1.373979 0.090958 -0.027619 -783955.000000 0 0 1
-36.354041 15.399581 8.828322 40.456182 -0.400684 1.350807 0.076823 -0.025367 -290885.000000 0 0 1
37.248795 16.388881 8.562022 41.585771 0.414494 1.363425 0.092964 -0.026806 -89487.900000 0 0 1
36.756655 16.820681 9.753022 41.582550 0.429175 1.334045 0.103970 -0.021426 -154317.000000 0 0 1
35.759455 17.994381 9.638422 41.175667 0.466209 1.334524 0.086073 -0.012866 873369.000000 0 0 1
34.439725 17.673581 9.141422 39.774561 0.474131 1.338892 0.086137 -0.014467 823795.000000 0 0 1
33.776605 18.895981 8.897122 39.712415 0.510062 1.344840 0.073920 -0.006574 377567.000000 0 0 1
32.228685 18.762781 8.757022 38.306860 0.527211 1.340155 0.056953 -0.002373 322316.000000 0 0 1
31.599955 19.990281 8.529522 38.352591 0.564049 1.346523 0.062841 -0.006593 839634.000000 0 0 1
30.166795 19.911381 8.352422 37.097999 0.583403 1.343705 0.031433 0.000686 1277360.000000 0 0 1
29.721935 19.932681 6.867822 36.439980 0.590747 1.381193 0.028719 0.004251 -714582.000000 0 0 1
30.019405 18.722681 6.261722 35.929272 0.557654 1.395623 0.043847 0.000097 87438.600000 0 0 1
29.621685 18.605481 4.905622 35.322419 0.560828 1.431465 0.047613 -0.008071 951574.000000 0 0 1
28.103725 18.906681 4.539022 34.174328 0.592200 1.437583 0.071989 -0.008428 362249.000000 0 0 1
27.153925 18.121581 5.260222 33.066558 0.588486 1.411038 0.062319 -0.010504 360492.000000 0 0 1
25.780425 18.283081 5.005222 31.999275 0.616864 1.413735 0.093132 -0.010240 198384.000000 0 0 1
25.162125 19.696681 5.251522 32.383179 0.664159 1.407909 0.108733 -0.007316 -962276.000000 0 0 1
25.569625 20.695081 4.354922 33.182186 0.680423 1.439174 0.078956 -0.009489 117376.000000 0 0 1
25.022525 21.942881 4.801622 33.625472 0.719919 1.427509 0.082091 -0.003774 270868.000000 0 0 1
25.994925 23.171881 4.681022 35.136650 0.728043 1.437176 0.053929 0.005237 946083.000000 0 0 1
27.282325 23.057181 5.307022 36.112648 0.701661 1.423305 0.066516 -0.000249 457675.000000 0 0 1
28.022025 24.218381 5.101522 37.387022 0.712716 1.433918 0.075137 0.002668 -292067.000000 0 0 1
29.445125 24.092281 5.710822 38.471637 0.685746 1.421803 0.072343 -0.001345 255502.000000 0 0 1
30.313825 23.065181 5.186222 38.442522 0.650428 1.435475 0.058303 -0.000503 650112.000000 0 0 1
30.750105 22.990181 3.813122 38.583122 0.641993 1.471806 0.070966 -0.013080 -88070.600000 0 0 1
31.639735 24.190181 3.404922 39.972881 0.652749 1.485512 0.100674 -0.025309 -427130.000000 0 0 1
30.866135 25.374281 3.201122 40.085154 0.688057 1.490853 0.067153 -0.024505 -109905.000000 0 0 1
31.587495 26.389281 2.583222 41.241206 0.695977 1.508118 0.123337 -0.024124 -1290410.000000 0 0 1
30.997445 27.739181 2.767622 41.688889 0.729983 1.504360 0.106029 -0.018960 10783.600000 0 0 1
29.861715 28.066381 1.986622 41.029141 0.754416 1.522358 0.134143 -0.019851 707581.000000 0 0 1
28.644825 27.472081 2.489522 39.767310 0.764503 1.508153 0.107551 -0.009912 37925.000000 0 0 1
27.399325 28.305981 2.101822 39.450846 0.801673 1.517494 0.060959 -0.003543 22697.300000 0 0 1
27.375425 29.582181 2.680222 40.394343 0.824123 1.504396 0.055063 -0.006103 563388.000000 0 0 1
26.108925 30.196381 2.399422 39.990682 0.857866 1.510761 0.040956 0.002474 701873.000000 0 0 1
25.911425 31.579881 3.053022 40.963542 0.883677 1.496197 0.059740 -0.012164 -164851.000000 0 0 1
25.636325 31.591181 4.431222 40.925049 0.889081 1.462307 0.059152 -0.033618 -549080.000000 0 0 1
26.786425 31.413081 5.192822 41.608408 0.864728 1.445668 0.071128 -0.035899 -446665.000000 0 0 1
26.590825 31.297381 6.710722 41.612881 0.866524 1.408824 0.080414 -0.047002 -163736.000000 0 0 1
26.209425 30.049081 7.215022 40.520831 0.853543 1.391785 0.083928 -0.044119 317033.000000 0 0 1
27.143925 28.976381 7.028122 40.321431 0.818039 1.395599 0.095261 -0.045127 362134.000000 0 0 1
26.565125 27.620181 7.494322 39.047985 0.804867 1.377672 0.104410 -0.037609 285037.000000 0 0 1
25.456625 27.199881 6.701522 37.852129 0.818492 1.392813 0.070885 -0.038876 16835.800000 0 0 1
24.977225 25.902881 7.059522 36.669577 0.803589 1.377070 0.087695 -0.032879 -373448.000000 0 0 1
23.553325 25.703781 6.506922 35.465244 0.829028 1.386278 0.099260 -0.011047 -205220.000000 0 0 1
23.504425 25.640181 5.063222 35.149866 0.828829 1.426247 0.054371 -0.010932 40141.500000 0 0 1
23.783025 26.872781 4.395822 36.153864 0.846318 1.448908 0.046015 0.004310 -401206.000000 0 0 1
23.521925 26.785181 2.905322 35.765455 0.850174 1.489474 0.036377 0.010614 -51644.100000 0 0 1
24.590925 26.103681 2.293122 35.935695 0.815230 1.506941 0.017479 0.022101 301856.000000 0 0 1
24.333325 26.018281 0.877022 35.634686 0.818849 1.546182 0.042885 0.012628 741314.000000 0 0 1
25.406425 25.117381 0.098922 35.726448 0.779677 1.568027 0.065658 0.005335 286352.000000 0 0 1
26.687925 25.738681 0.045522 37.077313 0.767294 1.569569 0.054775 0.005581 710239.000000 0 0 1
27.682525 24.989581 -0.665178 37.299381 0.734316 1.588631 0.071431 0.000425 502789.000000 0 0 1
28.307125 23.783081 0.086922 36.972095 0.698765 1.568445 0.068098 -0.003388 -157838.000000 0 0 1
27.387025 22.699581 0.294122 35.572554 0.692083 1.562528 0.066123 -0.002498 872266.000000 0 0 1
28.060925 21.780781 1.113522 35.539525 0.660057 1.539459 0.080448 -0.009407 497551.000000 0 0 1
26.984625 20.807081 1.677222 34.116238 0.656851 1.521615 0.076967 -0.012871 95528.300000 0 0 1
26.391525 20.046681 0.653122 33.148282 0.649609 1.551092 0.108950 -0.024798 501966.000000 0 0 1
25.269825 19.329781 1.141622 31.835637 0.652991 1.534929 0.069166 -0.019431 -69735.200000 0 0 1
24.716325 18.367181 0.077822 30.793768 0.639083 1.568269 0.098628 -0.024903 -385589.000000 0 0 1
23.444325 17.849781 0.385322 29.468619 0.650738 1.557720 0.085594 -0.016026 28408.600000 0 0 1
23.054925 16.893681 -0.643878 28.589169 0.632375 1.593320 0.112924 -0.041859 186053.000000 0 0 1
21.546925 16.600581 -0.462378 27.204100 0.656454 1.587794 0.090166 -0.019277 -1295770.000000 0 0 1
21.076325 15.641681 -1.389778 26.283172 0.638455 1.623698 0.094176 -0.025198 -741416.000000 0 0 1
19.778725 15.230181 -1.206178 24.992224 0.656197 1.619077 0.093961 -0.026451 -784979.000000 0 1 0
18.680225 16.278481 -1.563678 24.827099 0.716804 1.633821 0.095092 -0.030584 -873059.000000 0 1 0
18.646825 17.413681 -0.663578 25.522161 0.751215 1.596799 0.088766 -0.025337 -15223.400000 0 0 1
17.639225 18.306381 -1.119078 25.446379 0.803956 1.614788 0.068165 -0.029518 131278.000000 0 0 1
17.711225 19.756381 -0.662778 26.541314 0.839929 1.595770 0.070164 -0.018891 -295795.000000 0 0 1
17.460125 20.030081 0.711622 26.581319 0.853841 1.544022 0.075095 -0.014048 109664.000000 0 0 1
17.587225 21.395081 1.046022 27.715594 0.882771 1.533046 0.089431 -0.012278 38968.700000 0 0 1
16.535825 22.436681 0.517422 27.876619 0.935668 1.552234 0.079394 -0.023202 307361.000000 0 0 1
15.312125 22.272181 1.204822 27.054811 0.968509 1.526249 0.065392 -0.013599 -602955.000000 0 0 1
14.284925 23.098781 0.769722 27.169933 1.016937 1.542463 0.056424 -0.011574 -255256.000000 0 0 1
12.992125 22.754681 1.547522 26.248155 1.052000 1.511805 0.049812 -0.017392 -16678.200000 0 0 1
13.084425 23.010381 2.901922 26.628950 1.053761 1.461603 0.055156 -0.005698 559677.000000 0 0 1
11.777425 23.014481 3.503922 26.089300 1.097801 1.436084 0.034818 -0.007765 898181.000000 0 0 1
11.594425 23.283781 4.997022 26.486513 1.108781 1.380996 0.054870 -0.016319 -27021.000000 0 0 1
12.071125 22.230681 5.817522 25.956864 1.073348 1.344754 0.054977 -0.037997 113942.000000 0 0 1
11.283125 22.032481 6.994422 25.722774 1.097505 1.295413 0.046076 -0.033611 -466614.000000 0 0 1
11.956625 21.079581 7.977122 25.513606 1.054833 1.252803 0.059317 -0.030024 195228.000000 0 0 1
13.203225 21.414581 8.556022 26.572824 1.018294 1.242972 0.076905 -0.029353 1122040.000000 0 0 1
14.380825 21.448781 7.709922 26.949977 0.980163 1.280660 0.087306 -0.024394 973953.000000 0 0 1
15.707325 21.673081 8.511622 28.087190 0.943659 1.262912 0.101802 -0.030861 490509.000000 0 0 1
16.085825 20.495681 9.298222 27.663760 0.905368 1.228007 0.105621 -0.041312 586001.000000 0 0 1
17.331125 20.555981 10.000422 28.686664 0.870311 1.214710 0.107029 -0.043953 509612.000000 0 0 1
17.586925 21.484081 11.289122 29.971819 0.884815 1.184611 0.084322 -0.034471 -552258.000000 0 0 1
16.902425 20.998581 12.382222 29.663982 0.893055 1.140196 0.080193 -0.029131 -156160.000000 0 0 1
17.009825 21.703881 13.605322 30.748941 0.906060 1.112451 0.070045 -0.023298 221714.000000 0 0 1
18.128625 21.114381 14.549722 31.403161 0.861336 1.089058 0.079049 -0.025381 819337.000000 0 0 1
19.428925 21.257681 14.016422 32.028616 0.830315 1.117844 0.089426 -0.025477 532694.000000 0 0 1
20.477825 20.848681 14.930322 32.816510 0.794372 1.098465 0.076174 -0.026630 1225000.000000 0 0 1
21.884625 21.366781 14.535822 33.863938 0.773426 1.127143 0.085406 -0.030656 198111.000000 0 0 1
22.526525 21.052281 13.326622 33.589310 0.751582 1.162821 0.092244 -0.033080 -166450.000000 0 0 1
23.827325 21.569481 13.286522 34.778091 0.735703 1.178797 0.098892 -0.038734 -473986.000000 0 0 1
24.764425 21.072181 12.188122 34.725551 0.705019 1.212174 0.108067 -0.036957 -358416.000000 0 0 1
24.534225 21.518081 10.877222 34.398691 0.719998 1.249064 0.124467 -0.044216 -543261.000000 0 0 1
25.339225 20.979481 9.948222 34.368329 0.691550 1.277135 0.138637 -0.046441 -1262540.000000 0 0 1
25.456925 21.914081 8.744222 34.709414 0.710748 1.316126 0.118914 -0.032854 -45072.900000 0 0 1
26.023525 23.176781 8.980522 35.986620 0.727602 1.318579 0.110962 -0.035250 -33555.400000 0 0 1
27.425325 23.200581 8.978122 37.027315 0.702141 1.325882 0.091557 -0.028634 -542302.000000 0 0 1
27.948225 24.581181 9.519722 38.418262 0.721387 1.320396 0.105067 -0.033630 -728906.000000 0 0 1
29.268225 24.881881 9.241722 39.511346 0.704571 1.334709 0.095501 -0.021882 -649444.000000 0 0 1
29.731925 26.032481 9.895722 40.738222 0.719155 1.325432 0.100744 -0.026902 665637.000000 0 0 1
30.997155 26.732181 9.292922 41.973700 0.711653 1.347548 0.097111 -0.026652 614455.000000 0 0 1
30.701265 27.357381 8.046722 41.901596 0.727867 1.377557 0.113047 -0.033581 525347.000000 0 0 1
31.899435 27.880081 7.467122 43.018958 0.718263 1.396335 0.087267 -0.024321 53199.300000 0 0 1
31.743805 28.837681 6.261322 43.341495 0.737464 1.425824 0.102579 -0.025126 55820.200000 0 0 1
31.275965 30.138681 6.582422 43.930108 0.766882 1.420391 0.113396 -0.033871 -16958.500000 0 0 1
31.194095 30.992181 5.486622 44.313541 0.782151 1.446664 0.115392 -0.031936 128954.000000 0 0 1
31.271515 32.482681 5.842722 45.466137 0.804393 1.441933 0.094753 -0.033902 96084.800000 0 0 1
30.110065 32.965281 6.483322 45.114956 0.830634 1.426590 0.102665 -0.044172 124034.000000 0 0 1
30.189275 -33.451402 6.621022 45.543677 -0.836612 1.424902 0.091007 -0.039963 -458955.000000 0 0 1
28.872225 -32.934102 7.168222 44.380670 -0.851023 1.408569 0.115021 -0.046226 -191883.000000 0 0 1
27.772025 -33.224002 6.329822 43.762842 -0.874544 1.425648 0.100946 -0.045506 -1280990.000000 0 0 1
26.645625 -32.547902 6.706322 42.594953 -0.884781 1.412694 0.076963 -0.048078 -705864.000000 0 0 1
25.465625 -32.706602 5.738822 41.846791 -0.909236 1.433224 0.085750 -0.035922 117859.000000 0 0 1
25.797225 -31.930902 4.595522 41.306151 -0.891252 1.459310 0.078356 -0.016855 380080.000000 0 0 1
24.744025 -32.017002 3.628522 40.626609 -0.912837 1.481363 0.079671 -0.025676 421946.000000 0 0 1
25.180425 -31.332802 2.303422 40.262936 -0.893837 1.513556 0.086889 -0.008354 -124086.000000 0 0 1
25.324525 -29.911102 2.456122 39.268793 -0.868245 1.508209 0.094900 -0.006133 269626.000000 0 0 1
26.198125 -29.473702 1.417322 39.459469 -0.844168 1.534870 0.097122 -0.003692 -189870.000000 0 0 1
26.400625 -27.913902 1.369722 38.445482 -0.813252 1.535161 0.080320 -0.011924 -62603.000000 0 0 1
25.245625 -27.135102 1.096222 37.079065 -0.821455 1.541228 0.089490 -0.013983 -43788.300000 0 0 1
24.803125 -27.200802 -0.227178 36.812094 -0.831471 1.576968 0.089719 -0.013971 247404.000000 0 0 1
23.432925 -26.436302 -0.392578 35.328942 -0.845551 1.581909 0.073147 -0.015871 485322.000000 0 0 1
23.444825 -25.008302 -0.353978 34.281194 -0.817655 1.581122 0.081871 -0.024487 -189858.000000 0 0 1
23.602925 -24.436002 0.918122 33.986162 -0.802738 1.543778 0.058032 -0.011104 -205426.000000 0 0 1
22.313125 -24.243102 1.741522 32.994491 -0.826829 1.517990 0.042527 -0.006462 4844.040000 0 0 1
22.434325 -23.512202 2.952522 32.631886 -0.808853 1.480193 0.028024 -0.005517 166252.000000 0 0 1
21.172225 -23.374102 3.613522 31.743807 -0.834787 1.456715 0.035966 -0.005493 449095.000000 0 0 1
21.276025 -22.646502 4.963522 31.466964 -0.816590 1.412397 0.022193 0.004439 55072.700000 0 0 1
21.235425 -21.249402 4.967122 30.449181 -0.785727 1.406936 0.043282 0.012589 873976.000000 0 0 1
19.889825 -20.774202 4.731422 29.147195 -0.807143 1.407746 0.025281 0.008458 95071.000000 0 0 1
19.656225 -19.203302 4.837422 27.902233 -0.773743 1.396545 0.028419 0.005485 76146.000000 0 0 1
19.528825 -18.723302 6.186322 27.752615 -0.764343 1.345998 0.040469 -0.003946 1119950.000000 0 0 1
18.153925 -18.643702 6.658222 26.860464 -0.798707 1.320303 0.036868 0.001619 1367440.000000 0 0 1
19.372849 -25.955959 -12.364478 34.668421 -0.929620 1.935476 0.103838 -0.033071 129153.000000 0 0 1
19.614549 -24.545919 -12.508778 33.818666 -0.896607 1.949674 0.113257 -0.032613 -286428.000000 0 0 1
18.528349 -23.822219 -13.045778 32.878415 -0.909754 1.978812 0.090676 -0.027258 16323.900000 0 0 1
18.938849 -22.320519 -13.454178 32.216463 -0.867177 2.001619 0.089113 -0.028874 322115.000000 0 0 1
19.230749 -21.400119 -12.366278 31.316316 -0.838740 1.976737 0.100399 -0.033589 107980.000000 0 0 1
20.244549 -21.691519 -11.395078 31.783825 -0.819889 1.937476 0.099593 -0.045495 -445785.000000 0 0 1
19.793949 -22.526519 -10.158678 31.661383 -0.849877 1.897427 0.091333 -0.036587 52628.400000 0 0 1
18.856349 -21.957319 -9.268678 30.390692 -0.861231 1.880718 0.084094 -0.033951 47560.600000 0 0 1
17.525949 -21.979619 -9.750978 29.754732 -0.897659 1.904677 0.094469 -0.018484 -810760.000000 0 0 1
16.529349 -21.463419 -8.748978 28.468269 -0.914544 1.883176 0.096142 -0.024536 -924698.000000 0 0 1
16.514649 -20.044819 -8.640378 27.371235 -0.881659 1.891963 0.088901 -0.030032 81974.300000 0 0 1
15.619449 -19.484919 -7.713078 26.136580 -0.895070 1.870363 0.095765 -0.036136 1709150.000000 0 0 1
14.054349 -19.478619 -8.056078 25.334595 -0.945768 1.894402 0.087752 -0.023467 1777480.000000 0 0 1
13.390849 -20.709819 -7.764678 25.855399 -0.996819 1.875816 0.083657 -0.024489 -485184.000000 0 0 1
12.076249 -20.763719 -8.239378 25.393998 -1.044014 1.901239 0.075815 -0.022113 -482211.000000 0 0 1
11.522349 -22.153619 -7.909978 26.193799 -1.091189 1.877564 0.075741 -0.020369 -317992.000000 0 0 1
11.320149 -22.390819 -6.520478 25.923178 -1.102702 1.825058 0.071603 -0.023991 258899.000000 0 0 1
10.713049 -23.647119 -6.264778 26.705862 -1.145419 1.807587 0.053302 -0.019992 127521.000000 0 0 1
10.660449 -23.942719 -4.743878 26.634626 -1.151901 1.749861 0.076265 -0.030517 -74824.600000 0 0 1
9.948949 -25.084849 -4.312778 27.328214 -1.193214 1.729273 0.054782 -0.023490 -561112.000000 0 0 1
10.525849 -25.645019 -3.198178 27.904996 -1.181319 1.685658 0.066197 -0.024970 -802443.000000 0 0 1
9.588849 -26.540189 -2.444278 28.324938 -1.224094 1.657198 0.059706 -0.023968 -350273.000000 0 0 1
8.662849 -25.749239 -1.711878 27.221293 -1.246260 1.633725 0.051964 -0.021772 -108746.000000 0 0 1
8.026449 -26.595479 -0.726378 27.789764 -1.277691 1.596938 0.055533 -0.025732 394505.000000 0 0 1
7.205149 -25.956189 0.421822 26.940969 -1.300025 1.555138 0.056723 -0.025448 960117.000000 0 0 1
5.859349 -25.498769 0.281922 26.164836 -1.344928 1.560021 0.061941 -0.027348 371268.000000 0 0 1
5.221749 -25.300179 1.536122 25.879053 -1.367262 1.511404 0.069443 -0.024425 -292116.000000 0 0 1
3.751549 -24.910219 1.398322 25.229911 -1.421317 1.515345 0.039938 -0.022989 -378516.000000 0 0 1
2.939749 -25.988959 0.986122 26.173279 -1.458160 1.533111 0.038734 -0.024345 -172074.000000 0 0 1
1.736849 -25.496919 0.422222 25.559495 -1.502781 1.554276 0.040328 -0.019669 603077.000000 0 0 1
0.772249 -26.587209 -0.160678 26.598907 -1.541759 1.576837 0.064720 -0.025132 441325.000000 0 0 1
0.331249 -27.653759 0.634822 27.663027 -1.558818 1.547846 0.059945 -0.018008 -95526.600000 0 0 1
1.323849 -28.649639 0.828022 28.692159 -1.524621 1.541933 0.045933 -0.021863 -104984.000000 0 0 1
0.809749 -29.823789 1.691722 29.882704 -1.543652 1.514154 0.081673 -0.023024 127690.000000 0 0 1
0.836149 -29.485899 3.065822 29.656646 -1.542446 1.467234 0.061400 -0.021292 134964.000000 0 0 1
0.337949 -30.589449 3.829322 30.830055 -1.559749 1.446267 0.087898 -0.023461 26517.200000 0 0 1
0.591249 -30.299999 5.302722 30.766188 -1.551286 1.397576 0.077804 -0.017442 -175687.000000 0 0 1
1.933749 -30.311259 5.732422 30.909100 -1.507086 1.384256 0.034703 -0.001956 -59590.500000 0 0 1
1.968549 -30.184619 7.126922 31.076991 -1.505672 1.339406 0.047593 -0.003865 55454.600000 0 0 1
3.352649 -30.657089 7.612722 31.765561 -1.461870 1.328788 0.056309 -0.007955 194499.000000 0 0 1
3.468149 -32.062629 7.365422 33.080049 -1.463047 1.346260 0.046493 -0.007900 627763.000000 0 0 1
4.816549 -32.521999 7.538322 33.729895 -1.423764 1.345402 0.045907 -0.011635 730732.000000 0 0 1
5.092949 33.836731 7.408722 35.010736 1.421402 1.357571 0.030717 0.001347 -141660.000000 0 0 1
5.115749 33.379387 6.093622 34.314525 1.418719 1.392268 0.029328 -0.005088 34987.200000 0 0 1
5.000249 31.924477 6.124522 32.888972 1.415431 1.383485 0.023739 -0.006173 -396330.000000 0 0 1
5.313949 31.270065 4.731922 32.069395 1.402467 1.422703 0.033936 -0.011017 781167.000000 0 0 1
6.662749 31.364135 4.260622 32.345851 1.361476 1.438692 0.046990 -0.007941 822153.000000 0 0 1
7.576849 30.374935 4.810222 31.673073 1.326341 1.418335 0.042523 -0.011481 -459698.000000 0 0 1
8.869949 30.410115 4.033022 31.932998 1.286992 1.444162 0.036719 -0.010398 -1596330.000000 0 0 1
9.844049 31.115665 4.711222 32.974013 1.264390 1.427429 0.049931 -0.018140 -1420510.000000 0 0 1
10.957649 31.256265 3.895222 33.349617 1.233610 1.453730 0.057089 -0.019283 -1068790.000000 0 0 1
12.174849 31.690535 4.684922 34.270475 1.204002 1.433663 0.063857 -0.028931 -718371.000000 0 0 1
12.571149 30.770205 5.679122 33.720791 1.182942 1.401574 0.070433 -0.030289 -105967.000000 0 0 1
13.694949 31.337975 6.332122 34.780973 1.158799 1.387718 0.101612 -0.036653 -87862.100000 0 0 1
14.398749 30.273235 7.198922 34.287275 1.126837 1.359263 0.084160 -0.038865 3923.550000 0 0 1
13.903649 29.975865 8.552722 34.132287 1.136503 1.317521 0.073378 -0.037015 328715.000000 0 0 1
14.644049 28.892465 9.100222 33.645754 1.101686 1.296913 0.065979 -0.039262 195467.000000 0 0 1
14.531149 28.929905 10.668222 34.086723 1.105320 1.252475 0.059009 -0.033020 629937.000000 0 0 1
15.401449 29.916165 11.277722 35.487583 1.095363 1.247395 0.069440 -0.035687 692378.000000 0 0 1
14.817849 30.295815 12.521822 35.975006 1.115902 1.215285 0.052561 -0.027520 149889.000000 0 0 1
15.761649 31.218275 13.311722 37.419410 1.103248 1.207087 0.051483 -0.025268 -760806.000000 0 0 1
16.859449 30.582045 13.815222 37.554798 1.066966 1.194081 0.043895 -0.023173 -970081.000000 0 0 1
17.591849 31.463315 14.605822 38.894002 1.060976 1.185829 0.048315 -0.018430 -51239.900000 0 0 1
18.770249 30.881305 15.442122 39.299318 1.024647 1.166974 0.037244 -0.013320 664377.000000 0 0 1
19.907249 30.382085 14.755422 39.205767 0.990753 1.184934 0.033578 -0.017654 308795.000000 0 0 1
20.206049 28.995315 15.031422 38.405161 0.962172 1.168654 0.029137 -0.014094 -391522.000000 0 0 1
21.559049 28.594195 14.414022 38.602909 0.924762 1.188133 0.067066 -0.016824 -671968.000000 0 0 1
22.531049 29.100725 15.243722 39.835555 0.911959 1.178116 0.085677 -0.014441 -93519.300000 0 0 1
23.856649 28.708625 14.850022 40.172727 0.877441 1.192159 0.106409 -0.021731 1300240.000000 0 0 1
25.020449 28.968325 15.863222 41.434630 0.858392 1.177918 0.127147 -0.039787 388691.000000 0 0 1
24.942649 28.045065 16.916122 41.168150 0.843881 1.147352 0.104091 -0.032096 -219938.000000 0 0 1
25.998549 28.139625 17.820322 42.253129 0.824926 1.135420 0.100730 -0.031951 363278.000000 0 0 1
27.060349 26.958935 17.819822 42.149647 0.783521 1.134291 0.074328 -0.023333 641829.000000 0 0 1
26.573949 25.723615 18.337022 41.281055 0.769140 1.110516 0.077081 -0.014148 -17691.200000 0 0 1
26.390149 25.704715 19.755922 41.802737 0.772242 1.078559 0.104194 -0.017065 185228.000000 0 0 1
25.773749 24.387765 20.282022 40.870645 0.757775 1.051523 0.096423 -0.012837 159078.000000 0 0 1
26.753749 23.378045 20.199122 40.869311 0.718163 1.053840 0.065564 -0.013859 6262.460000 0 0 1
26.194849 22.077665 20.309622 39.825546 0.700314 1.035653 0.051517 -0.006442 -58727.400000 0 0 1
27.209349 20.949765 20.543822 40.016121 0.656146 1.031667 0.023003 -0.001339 256255.000000 0 0 1
26.497349 19.709365 20.635722 38.941001 0.639537 1.012287 0.008725 0.017917 452579.000000 0 0 1
27.384249 18.600265 20.600622 38.990416 0.596651 1.014139 0.020769 0.001382 377092.000000 0 0 1
28.009849 18.155165 21.972922 39.962119 0.575088 0.988619 0.045180 0.003554 96612.000000 0 0 1
27.017949 17.702965 22.849322 39.565845 0.580043 0.955132 0.027650 0.015100 320659.000000 0 0 1
27.656449 17.323265 24.070422 40.550708 0.559586 0.935286 0.060567 0.008874 -88363.900000 0 0 1
26.638649 16.665265 25.033422 40.174879 0.559034 0.898082 0.037220 0.006125 230288.000000 0 0 1
26.031749 15.568265 24.386722 38.919597 0.538984 0.893623 0.041162 0.002080 300301.000000 0 0 1
25.031949 14.874265 25.098922 38.442140 0.536152 0.859388 0.050436 0.001068 -109416.000000 0 0 1
24.388049 13.693765 24.369422 37.096696 0.511626 0.854075 0.050238 0.004844 -888559.000000 0 0 1
23.321949 13.110265 25.010422 36.623948 0.512118 0.819074 0.034934 0.002088 -521892.000000 0 0 1
22.716049 12.227265 24.077622 35.288196 0.493789 0.819873 0.054566 0.001855 625521.000000 0 0 1
21.329149 11.631865 24.509722 34.510279 0.499267 0.780993 0.055072 -0.009959 1050750.000000 0 0 1
20.190849 12.466765 24.362122 34.008875 0.553149 0.772245 0.060689 -0.010511 249300.000000 0 0 1
18.978349 11.801365 24.656022 33.277160 0.556319 0.736343 0.080493 -0.011074 -30222.800000 0 0 1
17.801349 12.784165 24.621422 32.962666 0.622808 0.727335 0.079456 -0.017188 -403452.000000 0 0 1
17.755649 13.453265 25.853122 34.126783 0.648404 0.711228 0.096878 -0.012471 -57189.800000 0 0 1
16.577049 14.185165 26.029422 33.963926 0.707800 0.697603 0.115920 -0.016691 -322818.000000 0 0 1
16.281949 14.445665 27.542222 35.104887 0.725709 0.668795 0.102778 -0.016074 -90276.200000 0 0 1
15.740649 13.344965 28.241822 34.977945 0.703217 0.631034 0.117121 -0.012957 -40785.300000 0 0 1
15.817849 13.356965 29.661722 36.172235 0.701248 0.609362 0.102188 -0.018010 409158.000000 0 0 1
17.228349 13.057365 30.269622 37.196247 0.648538 0.620167 0.100350 -0.020302 660956.000000 0 0 1
18.225849 14.025365 29.933522 37.747956 0.655885 0.655105 0.118938 -0.031315 13202.600000 0 0 1
19.503149 13.417565 30.022822 38.233149 0.602606 0.667686 0.096066 -0.020962 -64561.800000 0 0 1
20.521849 14.578865 29.705122 38.936922 0.617676 0.703004 0.093868 -0.020574 -191783.000000 0 0 1
20.354449 15.223165 28.417222 38.125934 0.642158 0.729734 0.102657 -0.023936 108537.000000 0 0 1
20.847649 14.441365 27.431022 37.358245 0.605816 0.746206 0.083464 -0.012382 -800250.000000 0 0 1
20.699649 15.099365 26.062622 36.547593 0.630219 0.776865 0.056747 -0.005208 144185.000000 0 0 1
21.615649 16.178765 25.835722 37.369416 0.642524 0.807427 0.053964 0.001661 436128.000000 0 0 1
21.464949 16.527265 24.510322 36.532867 0.656157 0.835359 0.041983 0.004735 -131595.000000 0 0 1
22.640449 17.375265 23.991922 37.284073 0.654572 0.871748 0.037129 0.004714 -327650.000000 0 0 1
22.463649 17.983965 22.688722 36.644462 0.675095 0.903126 0.052286 -0.000474 423211.000000 0 0 1
23.614849 18.706265 22.174922 37.407387 0.669930 0.936271 0.041720 0.002261 636975.000000 0 0 1
23.999149 20.069265 22.888222 38.763453 0.696457 0.939169 0.061396 -0.000694 377375.000000 0 0 1
23.062249 21.162965 22.691022 38.660327 0.742479 0.943531 0.062762 -0.001046 487728.000000 0 0 1
23.435249 22.406665 23.316222 39.936396 0.762964 0.947353 0.089043 -0.008309 -328371.000000 0 0 1
22.510349 23.531555 22.936822 39.831491 0.807574 0.957157 0.084809 -0.025193 -375964.000000 0 0 1
22.614849 24.105935 21.652522 39.514038 0.817302 0.990860 0.099287 -0.022424 -218411.000000 0 0 1
21.729849 25.174075 21.445122 39.570363 0.858698 0.998042 0.098354 -0.026215 -270583.000000 0 0 1
22.001949 26.045085 20.217522 39.638118 0.869350 1.035550 0.102429 -0.028982 -79955.500000 0 0 1
21.936249 25.385255 19.018222 38.565567 0.858154 1.055101 0.089868 -0.029288 46102.800000 0 0 1
22.259949 26.286155 18.035022 38.880963 0.868145 1.088458 0.096652 -0.030618 -175292.000000 0 0 1
22.278449 25.644885 16.639622 37.826795 0.855529 1.115320 0.079589 -0.017105 -226028.000000 0 0 1
21.045249 25.382625 16.005722 36.651921 0.878550 1.118874 0.060073 -0.019483 -304857.000000 0 0 1
21.154649 25.039755 14.574622 35.873780 0.869304 1.152423 0.071788 -0.018805 -453941.000000 0 0 1
19.800449 24.626185 13.916222 34.527786 0.893597 1.155956 0.069224 -0.018516 340190.000000 0 0 1
18.915549 25.665735 13.637622 34.677265 0.935670 1.166608 0.055582 -0.012766 -208118.000000 0 0 1
18.101649 26.053395 14.747922 34.985001 0.963575 1.135643 0.051575 -0.016553 -12403.400000 0 0 1
16.620449 26.350835 14.318622 34.287443 1.008082 1.139988 0.044879 -0.014759 181297.000000 0 0 1
15.872449 25.230295 13.916522 32.896383 1.009252 1.133997 0.055747 -0.011456 238950.000000 0 0 1
15.239949 24.373065 14.880022 32.368463 1.011997 1.093131 0.079096 -0.025364 540130.000000 0 0 1
14.216449 25.022285 15.923822 32.890580 1.054124 1.065410 0.084274 -0.033323 26327.500000 0 0 1
14.812049 25.992195 16.746922 34.284842 1.052829 1.060467 0.075120 -0.028034 -569027.000000 0 0 1
13.931249 26.537455 17.643222 34.779297 1.087376 1.038758 0.069762 -0.035584 -798496.000000 0 0 1
14.390349 27.785115 18.379022 36.288885 1.092919 1.039717 0.067062 -0.031709 -415797.000000 0 0 1
14.675549 28.874915 17.492622 36.812013 1.100574 1.075619 0.062540 -0.021785 343457.000000 0 0 1
15.057549 30.018805 18.268122 38.230651 1.105866 1.072603 0.045283 -0.020553 -86165.200000 0 0 1
15.211649 31.269605 17.317322 38.846777 1.118033 1.108745 0.045085 -0.023133 -849806.000000 0 0 1
13.946049 31.644875 16.893022 38.487200 1.155699 1.116394 0.062012 -0.024986 -459060.000000 0 0 1
13.926649 32.945687 16.447422 39.368611 1.170862 1.139796 0.050381 -0.025831 211738.000000 0 0 1
12.518849 33.598908 16.624522 39.521930 1.214134 1.136645 0.062351 -0.027399 127321.000000 0 0 1
12.314449 -32.917689 16.233322 38.713571 -1.212816 1.138102 0.072783 -0.025388 -276799.000000 0 0 1
13.139049 -31.868969 16.687022 38.297813 -1.179746 1.119961 0.069312 -0.021961 -309001.000000 0 0 1
13.086149 -31.542779 18.254422 38.722320 -1.177537 1.079898 0.071777 -0.018596 26157.300000 0 0 1
13.893349 -32.472879 18.979122 40.096385 -1.166519 1.077721 0.064893 -0.019808 248171.000000 0 0 1
13.565449 -32.509479 20.333222 40.673425 -1.175485 1.047297 0.059344 -0.018440 -947538.000000 0 0 1
14.647849 -33.043209 21.240122 41.923214 -1.153533 1.039509 0.044107 -0.015940 -1082260.000000 0 0 1
15.726549 -32.168769 21.187022 41.605816 -1.116087 1.036504 0.050152 -0.011728 -311926.000000 0 0 1
16.711649 -32.474489 22.170222 42.724587 -1.095530 1.025221 0.052349 -0.012955 281287.000000 0 0 1
18.084349 -31.785799 22.098122 42.728300 -1.053525 1.027246 0.072153 -0.013269 -5522.260000 0 0 1
18.030049 -30.434919 22.484222 41.915477 -1.035974 1.004609 0.084337 -0.027870 526073.000000 0 0 1
19.209949 -29.822189 21.976322 41.729412 -0.998545 1.016155 0.092055 -0.027253 -119563.000000 0 0 1
-5.019751 13.101781 18.392435 23.133012 -1.204913 0.651668 0.019344 -0.001081 199865.000000 0 1 0
-4.877451 14.237081 17.609135 23.163887 -1.240740 0.707179 0.028511 -0.007981 669562.000000 0 1 0
-6.155651 14.888481 17.514035 23.797066 -1.178749 0.743691 0.032168 -0.013657 831475.000000 0 1 0
-5.946451 16.353081 17.269435 24.515647 -1.222032 0.789184 0.053234 -0.022833 -70152.900000 0 1 0
-5.432851 16.993681 18.410935 25.637153 -1.261367 0.769678 0.049726 -0.017197 174609.000000 0 0 1
-5.022951 18.341481 18.199035 26.321947 -1.303493 0.807369 0.064155 -0.020262 -289548.000000 0 0 1
-4.270951 18.886181 19.464035 27.455009 -1.348396 0.782798 0.054736 -0.024701 143818.000000 0 0 1
-5.098151 19.126781 20.636535 28.595306 -1.310307 0.764576 0.028189 -0.023263 400434.000000 0 0 1
-4.542151 20.058081 21.608635 29.831039 -1.348102 0.760680 0.045732 -0.017330 62510.900000 0 0 1
-5.535251 20.354881 22.752135 31.026116 -1.305280 0.747601 0.038673 -0.013749 191378.000000 0 0 1
-5.890351 19.211481 23.550815 30.958329 -1.273290 0.706365 0.029733 -0.016027 426094.000000 0 0 1
-6.746651 19.404781 24.722415 32.144372 -1.236190 0.693356 0.029772 -0.020213 1001850.000000 0 0 1
-5.946951 20.023581 25.926065 33.293707 -1.282097 0.678193 0.031208 -0.018675 -418413.000000 0 0 1
-5.657651 21.390281 25.705385 33.916368 -1.312221 0.710701 0.037626 -0.022151 -687779.000000 0 0 1
-4.570151 21.865081 26.388295 34.573258 -1.364747 0.702456 0.059872 -0.021015 68091.100000 0 0 1
-3.114651 21.461881 25.989095 33.848877 -1.426678 0.695399 0.078434 -0.023107 23700.300000 0 0 1
-2.703151 20.192081 26.438505 33.376964 -1.437716 0.656525 0.076829 -0.017482 26413.000000 0 0 1
-1.333751 20.105381 26.067475 32.947208 -1.504555 0.658045 0.075802 -0.018877 443031.000000 0 0 1
-0.566551 18.948181 26.775195 32.806488 -1.540905 0.616070 0.075940 -0.012353 -88752.300000 0 0 1
-0.859651 17.694481 26.201085 31.628003 -1.522252 0.594526 0.065217 -0.011996 -190357.000000 0 0 1
-0.180751 16.594081 26.782325 31.506970 -1.559904 0.554727 0.061117 -0.009068 -142961.000000 0 0 1
1.271749 16.346481 26.323955 31.012504 1.493153 0.557052 0.053987 -0.004898 -538010.000000 0 0 1
1.471249 16.021681 24.970275 29.704772 1.479225 0.572379 0.041595 -0.006086 -157311.000000 0 0 1
0.906149 14.778981 24.546165 28.666246 1.509560 0.542784 0.041452 -0.006559 -219271.000000 0 0 1
0.939749 14.574781 23.018765 27.261162 1.506408 0.565390 0.046762 -0.021841 -698130.000000 0 0 1
2.204849 14.425581 22.476635 26.798468 1.419127 0.575853 0.046814 -0.020279 -883313.000000 0 0 1
2.127949 13.627481 21.299135 25.374980 1.415896 0.574663 0.035572 -0.020525 -478526.000000 0 0 1
3.470549 13.295581 20.663735 24.815462 1.315463 0.586838 0.032960 -0.023629 -316602.000000 0 1 0
4.099349 14.344081 19.957835 24.917314 1.292430 0.641895 0.058282 -0.023448 423251.000000 0 1 0
5.451049 14.027781 19.615935 24.724027 1.200165 0.654429 0.066285 -0.024303 623355.000000 0 1 0
6.217349 15.186381 18.986335 25.095070 1.182210 0.712735 0.086420 -0.036432 99055.100000 0 0 1
5.833849 15.413081 17.598035 24.109909 1.208961 0.752608 0.073125 -0.041805 291831.000000 0 1 0
6.663949 16.444481 17.073035 24.623520 1.185782 0.804651 0.078699 -0.034302 138819.000000 0 1 0
6.947049 16.254281 15.530635 23.530061 1.166896 0.849933 0.076165 -0.024739 323161.000000 0 1 0
7.961349 15.327881 15.131635 22.962870 1.091747 0.851360 0.065565 -0.020323 320335.000000 0 1 0
7.897149 14.006681 15.661135 22.446007 1.057410 0.798580 0.065534 -0.028173 -419211.000000 0 1 0
8.857049 13.117081 14.842635 21.698133 0.976889 0.817494 0.053543 -0.036217 -527203.000000 0 1 0
10.171849 13.556181 14.943835 22.595459 0.927073 0.848160 0.059559 -0.041572 -599549.000000 0 1 0
11.069949 12.703181 14.260835 22.074556 0.853991 0.868424 0.059578 -0.030600 286294.000000 0 1 0
12.532849 13.209981 14.195835 23.088908 0.811696 0.908621 0.060758 -0.031355 132395.000000 0 1 0
13.226049 13.016781 15.473335 24.161728 0.777424 0.875768 0.059488 -0.031963 955416.000000 0 1 0
14.572149 13.477481 15.466835 25.163725 0.746392 0.908857 0.053585 -0.026665 314392.000000 0 0 1
15.672049 12.652481 14.780435 24.983188 0.679193 0.937735 0.046305 -0.032550 -728305.000000 0 1 0
16.883349 13.390081 14.766335 26.122527 0.670516 0.970033 0.048663 -0.035504 6417.460000 0 0 1
17.765049 12.748781 13.881535 25.900298 0.622462 1.005151 0.053239 -0.036995 -699028.000000 0 0 1
19.134749 13.420481 13.762335 27.122865 0.611643 1.038623 0.050775 -0.040746 -347530.000000 0 0 1
19.961649 13.237781 14.920835 28.219455 0.585571 1.013678 0.029541 -0.032738 278144.000000 0 0 1
21.253149 13.659981 14.482335 29.120946 0.571246 1.050293 0.058573 -0.045333 139481.000000 0 0 1
22.268649 13.458681 15.638235 30.357590 0.543632 1.029632 0.071839 -0.031303 -239098.000000 0 0 1
22.438549 12.063181 15.927035 30.044622 0.493281 1.012063 0.088404 -0.032288 222086.000000 0 0 1
23.457749 11.691981 16.818435 31.142065 0.462389 1.000294 0.072889 -0.022560 -494471.000000 0 0 1
23.641549 10.135481 16.841035 30.745265 0.405013 0.991111 0.096912 -0.018166 -757745.000000 0 0 1
22.664049 9.360881 17.429735 30.084562 0.391687 0.952855 0.071404 -0.009155 -214036.000000 0 0 1
22.756149 8.037281 16.954335 29.493893 0.339515 0.958385 0.074306 -0.003456 -225600.000000 0 0 1
21.674649 7.221581 17.663235 28.877873 0.321613 0.912648 0.087915 -0.006503 -272530.000000 0 0 1
21.406149 5.953181 17.125435 28.052524 0.271252 0.914133 0.104939 -0.020769 567767.000000 0 0 1
20.552049 5.210881 17.988735 27.805298 0.248313 0.867214 0.098179 -0.017645 -297053.000000 0 0 1
20.213649 3.777181 17.514135 27.011176 0.184732 0.865311 0.125972 -0.009954 -1072950.000000 0 0 1
19.138849 3.829181 16.638835 25.647788 0.197466 0.864864 0.113017 -0.023535 -158737.000000 0 0 1
18.817349 2.557381 16.154635 24.932009 0.135078 0.865910 0.099777 -0.021025 -144292.000000 0 1 0
18.294749 1.364281 17.047335 25.043377 0.074435 0.822062 0.111452 -0.022642 -409730.000000 0 0 1
19.250449 0.790781 17.895135 26.295266 0.041056 0.822289 0.125159 -0.028075 139137.000000 0 0 1
18.553349 0.137281 18.970835 26.535603 0.007399 0.774287 0.136548 -0.015435 -198989.000000 0 0 1
19.431549 -0.603319 19.968535 27.869186 -0.031038 0.772011 0.111594 -0.016373 -368745.000000 0 0 1
19.882149 -1.863819 19.444135 27.871994 -0.093470 0.798722 0.116585 -0.017010 -155583.000000 0 0 1
19.044049 -2.941719 19.805835 27.633325 -0.153258 0.771684 0.084376 -0.021639 64387.800000 0 0 1
19.073049 -4.156219 18.839235 27.128807 -0.214556 0.803160 0.092716 -0.016216 151633.000000 0 0 1
18.497349 -3.875919 17.565035 25.801262 -0.206551 0.821967 0.114305 -0.026715 223517.000000 0 0 1
18.331949 -5.070619 16.860835 25.417697 -0.269853 0.845509 0.128685 -0.027842 -318100.000000 0 0 1
17.795649 -4.823419 15.442735 24.050542 -0.264685 0.873568 0.105110 -0.033639 55780.900000 0 1 0
16.387549 -4.583619 15.535835 23.041777 -0.272732 0.830853 0.117278 -0.030328 521296.000000 0 1 0
15.752249 -4.606519 14.264735 21.744793 -0.284503 0.855280 0.103553 -0.025518 195943.000000 0 1 0
16.037049 -3.435219 13.333335 21.136828 -0.211016 0.888199 0.087327 -0.027432 -284897.000000 0 1 0
15.265749 -2.299019 13.668135 20.619081 -0.149476 0.846127 0.082382 -0.019602 531695.000000 0 1 0
15.758049 -1.237419 12.919135 20.414489 -0.078365 0.885579 0.079726 -0.018835 65564.700000 0 1 0
14.801549 -0.037819 13.140635 19.793019 -0.002555 0.844771 0.079383 -0.010607 -205949.000000 0 1 0
15.192749 1.274181 12.765935 19.884976 0.083672 0.873707 0.077583 -0.008791 50162.300000 0 1 0
16.135349 1.957181 13.555535 21.164418 0.120708 0.875664 0.094279 -0.019986 -150620.000000 0 1 0
16.447049 3.361381 13.087235 21.285677 0.201600 0.908616 0.090417 -0.016845 216666.000000 0 1 0
15.281849 4.164981 13.238535 20.643178 0.266082 0.874601 0.073139 -0.010925 697596.000000 0 1 0
15.349249 5.310181 12.483935 20.485266 0.333069 0.915480 0.074993 -0.019363 -696593.000000 0 1 0
14.434149 6.415781 12.840035 20.356164 0.418259 0.888253 0.077943 -0.022423 -743292.000000 0 1 0
14.471249 7.495781 11.884835 20.170600 0.477926 0.940708 0.052978 -0.034929 367796.000000 0 1 0
13.476649 8.490081 12.063035 19.980450 0.562176 0.922610 0.047822 -0.033107 -165304.000000 0 1 0
13.673849 9.465681 13.235235 21.254287 0.605504 0.898596 0.057008 -0.037389 -200992.000000 0 1 0
13.512349 8.878581 14.472835 21.699672 0.581330 0.840674 0.077477 -0.033841 320996.000000 0 1 0
13.943849 9.652081 15.538535 23.000863 0.605479 0.829068 0.086910 -0.039304 -375523.000000 0 1 0
13.702249 9.062781 16.967535 23.617428 0.584353 0.769250 0.092358 -0.035288 -314958.000000 0 1 0
12.427049 9.499481 17.349135 23.359456 0.652666 0.733699 0.093435 -0.040502 -153942.000000 0 1 0
11.707849 8.799081 18.357835 23.484201 0.644495 0.673393 0.097088 -0.026855 61210.300000 0 1 0
12.123949 9.022881 19.829535 24.932168 0.639791 0.651229 0.107695 -0.027230 -325152.000000 0 1 0
13.208249 8.151981 20.089935 25.387362 0.552962 0.657805 0.128889 -0.032736 62850.000000 0 0 1
13.707049 8.336981 21.428035 26.768436 0.546446 0.642673 0.122446 -0.024054 1202620.000000 0 0 1
15.290249 8.240081 21.388135 27.552550 0.494290 0.682074 0.105814 -0.018106 1430780.000000 0 0 1
15.877049 9.078981 20.367035 27.373796 0.519449 0.731708 0.091260 -0.019059 312506.000000 0 0 1
16.959749 8.470681 19.673735 27.321080 0.463214 0.766859 0.078179 -0.016275 51596.600000 0 0 1
17.713949 9.378681 18.716335 27.423437 0.486930 0.819627 0.077437 -0.024810 -311893.000000 0 0 1
18.675949 10.155781 19.368935 28.759114 0.498062 0.831878 0.074022 -0.024850 479110.000000 0 0 1
19.570149 10.844081 18.462835 29.007949 0.505996 0.880877 0.078107 -0.025860 389713.000000 0 0 1
20.675149 11.714881 19.067335 30.467417 0.515511 0.894605 0.060285 -0.011624 -1072680.000000 0 0 1
20.219549 12.738681 19.913735 31.107250 0.562200 0.876085 0.059294 -0.008491 144863.000000 0 0 1
21.134049 13.155381 20.909135 32.510061 0.556780 0.872180 0.052466 0.001417 -451.933000 0 0 1
22.427849 13.896481 20.542435 33.438186 0.554713 0.909246 0.027379 0.002142 330600.000000 0 0 1
23.611549 13.134681 20.401035 33.855980 0.507654 0.924063 0.003826 0.017432 -21900.600000 0 0 1
24.791749 13.796881 20.738235 35.143409 0.507828 0.939610 0.005953 0.012114 -185723.000000 0 0 1
26.057449 12.931681 20.654235 35.676554 0.460664 0.953380 0.033537 -0.000641 -136828.000000 0 0 1
26.383649 12.670981 19.278935 35.047511 0.447730 0.988336 0.057798 -0.015444 445249.000000 0 0 1
27.628249 11.986781 19.155735 35.692370 0.409351 1.004287 0.089518 -0.028709 430972.000000 0 0 1
27.953649 11.550281 17.690735 35.039658 0.391829 1.041556 0.125893 -0.039523 -106393.000000 0 0 1
28.111549 12.652881 16.810835 35.113513 0.422933 1.071558 0.127768 -0.052829 106095.000000 0 0 1
28.184749 12.154281 15.458835 34.366877 0.407141 1.104235 0.158526 -0.049789 -656460.000000 0 0 1
26.943249 11.832181 14.624435 32.860513 0.413796 1.109571 0.131593 -0.052478 -378532.000000 0 0 1
26.381849 12.961881 13.985835 32.551742 0.456678 1.126692 0.156069 -0.058638 302745.000000 0 0 1
25.212249 12.627381 13.250935 31.155987 0.464322 1.131493 0.148522 -0.047242 159223.000000 0 0 1
24.826549 13.830781 12.336235 30.981136 0.508275 1.161259 0.123775 -0.048096 -358049.000000 0 0 1
24.178449 14.837481 13.036635 31.220220 0.550407 1.140027 0.088992 -0.046814 293420.000000 0 0 1
24.692549 16.162281 12.777535 32.159085 0.579561 1.162199 0.074736 -0.033295 -698016.000000 0 0 1
23.655849 17.213781 13.106635 32.057719 0.629060 1.149608 0.069814 -0.037668 -274629.000000 0 0 1
22.684749 17.327781 12.078635 30.995859 0.652307 1.170506 0.085991 -0.064183 187941.000000 0 0 1
21.599449 18.063681 12.598235 30.847177 0.696488 1.150087 0.074941 -0.051151 -1223980.000000 0 0 1
20.523249 18.575981 11.658435 30.036477 0.735636 1.172181 0.097780 -0.033185 433567.000000 0 0 1
19.412249 17.775281 11.214035 28.610324 0.741407 1.168038 0.092687 -0.038005 351732.000000 0 0 1
18.552249 17.539081 12.297135 28.337693 0.757333 1.121924 0.079603 -0.031203 -1756670.000000 0 0 1
17.287349 16.865881 11.779535 26.871320 0.773058 1.117014 0.080208 -0.021557 -744508.000000 0 0 1
17.339649 15.477881 11.494335 25.929674 0.728728 1.111532 0.083567 -0.024257 238497.000000 0 0 1
16.021549 15.184081 11.074035 24.695761 0.758568 1.105801 0.083675 -0.023965 34243.200000 0 1 0
15.985849 13.863181 10.201535 23.490562 0.714404 1.121555 0.082233 -0.030579 -224525.000000 0 1 0
16.150149 12.666781 10.991535 23.282794 0.665103 1.079138 0.081312 -0.026796 332245.000000 0 1 0
16.551249 11.707081 10.096135 22.647992 0.615624 1.108745 0.069965 -0.024309 -364965.000000 0 1 0
17.041549 10.482281 10.829935 22.750387 0.551450 1.074658 0.074170 -0.031529 -714626.000000 0 1 0
17.674749 9.520081 10.004035 22.430101 0.494069 1.108495 0.078272 -0.031215 744639.000000 0 1 0
18.285549 8.360981 10.633835 22.745236 0.428863 1.084314 0.093596 -0.030502 662783.000000 0 1 0
19.565949 8.614481 11.485035 24.268121 0.414741 1.077813 0.079984 -0.030856 -428826.000000 0 1 0
19.369549 9.483181 12.559235 24.956854 0.455287 1.043455 0.071161 -0.032489 -377818.000000 0 1 0
20.457749 9.572581 13.414235 26.269669 0.437656 1.034872 0.089364 -0.026619 -1108580.000000 0 0 1
19.904349 9.773481 14.869535 26.698448 0.456440 0.980095 0.057035 -0.022365 412812.000000 0 0 1
19.243549 8.669381 15.562135 26.223127 0.423277 0.935457 0.072478 -0.021571 980938.000000 0 0 1
17.988749 8.351981 14.965135 24.845643 0.434673 0.924387 0.090926 -0.031908 -370356.000000 0 1 0
17.453949 7.055281 15.599135 24.448934 0.384141 0.878860 0.105802 -0.028487 -406278.000000 0 1 0
16.483949 7.210681 16.590935 24.473938 0.412357 0.825891 0.119479 -0.029026 -239560.000000 0 1 0
16.082549 5.888281 16.971635 24.111339 0.350970 0.789943 0.120499 -0.009061 -90244.700000 0 1 0
14.677749 5.652381 17.579335 23.588530 0.367595 0.729888 0.109925 -0.016601 235941.000000 0 1 0
14.154449 4.340781 17.816735 23.165208 0.297567 0.693339 0.116196 -0.013916 503711.000000 0 1 0
13.814249 3.640681 16.584435 21.889073 0.257686 0.711079 0.114906 -0.015433 -263093.000000 0 1 0
13.605049 2.080081 16.718835 21.655105 0.151716 0.688735 0.105911 -0.013838 524179.000000 0 1 0
14.806649 1.307881 16.931035 22.530144 0.088102 0.720488 0.106854 -0.012446 649979.000000 0 1 0
14.689449 -0.126919 16.920435 22.407525 -0.008640 0.714955 0.108804 -0.004431 -437399.000000 0 1 0
13.616149 -0.906819 17.701335 22.350819 -0.066501 0.656756 0.107673 -0.013146 -902950.000000 0 1 0
12.332549 -0.741819 17.218735 21.192615 -0.060079 0.622390 0.113942 -0.019879 -459811.000000 0 1 0
11.423749 -1.300519 18.214735 21.539962 -0.113355 0.563061 0.109496 -0.023233 558431.000000 0 1 0
-26.255131 14.161481 28.480865 41.243656 -0.494653 0.808545 0.095424 -0.017041 -63065.600000 0 0 1
-25.147521 14.113281 29.366075 41.157611 -0.511416 0.776311 0.086691 -0.009235 565446.000000 0 0 1
-24.631251 12.784981 29.529475 40.523378 -0.478775 0.754371 0.073465 -0.007581 237294.000000 0 0 1
-23.589351 12.726181 30.695745 40.750975 -0.494737 0.717804 0.088886 -0.022568 85549.700000 0 0 1
-24.145951 12.917781 31.993283 42.112542 -0.491244 0.707931 0.087049 -0.023295 278873.000000 0 0 1
-23.162451 12.848681 33.023107 42.333360 -0.506460 0.676014 0.066819 -0.017424 -72217.800000 0 0 1
-23.735851 13.025681 -33.436238 43.023726 -0.501904 2.460934 0.051831 -0.007920 -355991.000000 0 0 1
-24.359451 11.898081 -32.946068 42.666036 -0.454355 2.453069 0.055511 -0.010676 -33818.100000 0 0 1
-25.153211 12.255381 -31.809088 42.363858 -0.453379 2.420151 0.043580 -0.010354 -183159.000000 0 0 1
-25.878221 11.029781 -31.262388 42.055622 -0.402902 2.408873 0.027766 -0.011209 -132129.000000 0 0 1
-25.070821 10.103181 -30.536828 40.781346 -0.383078 2.417037 0.036597 -0.016285 391845.000000 0 0 1
-24.357051 9.139681 -31.295398 40.696457 -0.358979 2.448065 0.037675 -0.013018 231115.000000 0 0 1
-23.400451 8.247081 -30.457198 39.284047 -0.338840 2.457997 0.046914 -0.002857 -296274.000000 0 0 1
-24.062251 7.267981 -29.750848 38.947766 -0.293336 2.440078 0.047626 -0.005671 66148.600000 0 0 1
-23.195451 6.567381 -28.858408 37.602755 -0.275911 2.445658 0.047307 0.000236 -112751.000000 0 0 1
-23.862851 5.918681 -27.611848 36.971348 -0.243123 2.414101 0.052432 0.003583 -182519.000000 0 0 1
-24.760151 4.910781 -28.017688 37.711692 -0.195793 2.408255 0.064843 -0.001439 42599.900000 0 0 1
-25.024751 4.067381 -26.907348 36.970084 -0.161125 2.385925 0.087715 -0.001094 10530.200000 0 0 1
-25.983771 2.927981 -27.356448 37.843159 -0.112212 2.378772 0.080683 -0.004072 2308260.000000 0 0 1
-27.417581 3.087281 -27.638508 39.053069 -0.112130 2.357057 0.096528 -0.008186 2096910.000000 0 0 1
-27.775101 3.929181 -28.717388 40.144527 -0.140532 2.367921 0.096551 -0.013400 -1031400.000000 0 0 1
-29.045211 3.497881 -29.423418 41.492132 -0.119852 2.359063 0.101147 -0.019133 -500579.000000 0 0 1
-30.194291 3.972881 -28.716288 41.858144 -0.130826 2.326826 0.095586 -0.017210 416867.000000 0 0 1
-31.358591 3.872781 -29.544228 43.257613 -0.122878 2.322636 0.102505 -0.022098 515358.000000 0 0 1
-31.784441 5.172081 -30.282688 44.204551 -0.161310 2.325480 0.104679 -0.034637 -828833.000000 0 0 1
-30.839291 5.618281 -31.210298 44.234711 -0.180203 2.354011 0.094278 -0.028157 -344741.000000 0 0 1
-31.143001 6.715981 -31.983118 45.143225 -0.212397 2.358140 0.099898 -0.027387 -1004110.000000 0 0 1
-30.947451 8.119681 -31.318868 44.772150 -0.256587 2.345517 0.063542 -0.025017 -278670.000000 0 0 1
-29.595571 8.429481 -31.053618 43.718202 -0.277475 2.360739 0.047106 -0.031921 323194.000000 0 0 1
-28.968161 7.756181 -29.958958 42.389290 -0.261612 2.355701 0.033913 -0.033823 -691506.000000 0 0 1
-29.016991 8.583881 -28.612148 41.645213 -0.287620 2.328211 0.028141 -0.029255 14432.500000 0 0 1
-30.260531 8.819081 -27.967718 42.138690 -0.283584 2.296559 0.038188 -0.027500 337521.000000 0 0 1
-30.922151 7.723581 -27.348728 41.997453 -0.244767 2.279961 0.049216 -0.016460 -203596.000000 0 0 1
-32.159511 8.241181 -26.595168 42.537680 -0.250861 2.246202 0.035463 -0.016165 -454975.000000 0 0 1
-31.929431 8.927981 -25.358598 41.740339 -0.272653 2.223746 0.016898 -0.009681 -161382.000000 0 0 1
-31.357541 8.178481 -24.298878 40.504548 -0.255130 2.214179 0.037875 -0.007927 -92325.600000 0 0 1
-30.830641 9.170581 -23.253778 39.690883 -0.289116 2.196752 0.036996 -0.002578 -1074820.000000 0 0 1
-31.783131 9.909381 -22.607578 40.242587 -0.302230 2.167335 0.044146 0.000403 -735226.000000 0 0 1
-31.198371 10.898881 -21.798178 39.588945 -0.336088 2.153894 0.042424 0.003316 8884.200000 0 0 1
-32.100691 11.961081 -21.038478 40.201236 -0.356675 2.121549 0.045302 0.004952 158244.000000 0 0 1
-32.793941 11.316781 -19.968578 40.028193 -0.332292 2.093083 0.057914 0.001502 292761.000000 0 0 1
-33.643101 12.085381 -19.166778 40.562052 -0.344868 2.062955 0.047717 0.000625 49569.300000 0 0 1
-32.892651 12.927381 -18.086378 39.700891 -0.374472 2.043804 0.047752 0.003217 117626.000000 0 0 1
-32.152451 12.304981 -17.041778 38.413733 -0.365511 2.030450 0.090724 -0.000573 698618.000000 0 0 1
-32.942891 11.827681 -15.915778 38.450489 -0.344702 1.997562 0.080335 0.000499 336916.000000 0 0 1
-33.574591 12.866381 -14.944478 38.937570 -0.365956 1.964711 0.064795 0.006236 -95120.300000 0 0 1
-34.513163 13.658781 -15.599778 40.262561 -0.376842 1.968662 0.041048 0.004717 46945.800000 0 0 1
-35.415512 14.354581 -14.752578 40.962801 -0.385083 1.939220 0.027281 0.006471 65479.000000 0 0 1
-36.053191 15.604581 -15.369078 42.184643 -0.408476 1.943708 0.031418 0.000199 -387942.000000 0 0 1
-36.905291 15.263081 -16.400678 43.173422 -0.392153 1.960462 0.036960 -0.012702 -231509.000000 0 0 1
37.062835 16.392681 -16.952778 43.929152 0.416427 1.966992 0.033621 -0.017666 -475593.000000 0 0 1
36.574995 16.228581 -18.473578 44.072329 0.417608 2.003322 0.040294 -0.011616 309624.000000 0 0 1
35.509765 15.299181 -18.603678 42.908102 0.406810 2.019247 0.063969 -0.019006 -503998.000000 0 0 1
34.283125 15.918481 -18.443378 42.058161 0.434702 2.024748 0.096569 -0.025686 -1260560.000000 0 0 1
33.088445 14.963681 -18.676078 40.835681 0.424709 2.045806 0.094830 -0.032456 -170851.000000 0 0 1
32.784875 14.704881 -20.021678 41.133309 0.421628 2.079163 0.091865 -0.028512 35846.700000 0 0 1
31.832675 13.668581 -20.184878 40.094621 0.405582 2.098362 0.069766 -0.022307 -172773.000000 0 0 1
32.206185 12.194181 -19.973378 39.810454 0.361948 2.096373 0.059994 -0.008926 -312453.000000 0 0 1
32.724495 12.047481 -18.672978 39.556472 0.352751 2.062421 0.067596 -0.010354 85046.200000 0 0 1
33.240805 10.746881 -18.516078 39.538484 0.312697 2.058168 0.065607 -0.013845 70063.300000 0 0 1
33.650055 10.513881 -17.043478 39.157988 0.302837 2.021111 0.058711 -0.009323 738966.000000 0 0 1
32.435975 10.539781 -16.261378 37.783751 0.314179 2.015710 0.061486 -0.012960 1068640.000000 0 0 1
32.659735 10.276981 -14.913978 37.345701 0.304859 1.981603 0.034533 -0.011610 -425589.000000 0 0 1
31.925975 11.241881 -14.020778 36.636457 0.338565 1.963514 0.067775 -0.019405 -599435.000000 0 0 1
30.535755 11.029881 -14.037878 35.371636 0.346628 1.978899 0.057777 -0.015845 -368679.000000 0 0 1
29.978185 12.024581 -13.227778 34.903527 0.381464 1.959491 0.071694 -0.016433 569462.000000 0 0 1
28.425325 12.059381 -13.040778 33.518497 0.401233 1.970410 0.081430 -0.015644 182088.000000 0 0 1
27.840325 11.025181 -12.274578 32.362070 0.377066 1.959824 0.066007 -0.020496 -182557.000000 0 0 1
26.461225 10.800181 -12.419878 31.162376 0.387513 1.980736 0.070399 -0.014653 -100739.000000 0 0 1
26.107225 10.184981 -13.805878 31.239771 0.371961 2.028548 0.056354 -0.022526 -1051060.000000 0 0 1
26.538925 8.863981 -13.938578 31.259697 0.322350 2.032972 0.043403 -0.013969 32286.500000 0 0 1
27.793425 8.669781 -14.543278 32.544531 0.302371 2.034063 0.052585 -0.017767 11266.300000 0 0 1
28.668525 7.568981 -13.840578 32.722093 0.258127 2.007521 0.058722 -0.010071 69481.600000 0 0 1
28.091925 6.245481 -13.918378 31.966913 0.218765 2.021278 0.046051 -0.014462 480614.000000 0 0 1
27.200225 5.946381 -12.864678 30.671022 0.215229 2.003626 0.066567 -0.016595 -206743.000000 0 0 1
26.501925 4.590881 -13.089878 29.912758 0.171526 2.023726 0.086753 -0.008874 -384586.000000 0 0 1
25.830525 4.135681 -11.965778 28.766295 0.158761 1.999800 0.099670 -0.010906 -46782.600000 0 0 1
25.206525 2.919381 -12.241178 28.173358 0.115305 2.020274 0.107285 -0.018078 -55002.600000 0 0 1
24.552125 2.239881 -10.969578 26.984357 0.090978 1.989434 0.123300 -0.015096 134839.000000 0 0 1
25.527125 1.885481 -9.995578 27.479096 0.073728 1.943089 0.137190 -0.010434 707678.000000 0 0 1
25.005725 1.027181 -8.992378 26.593312 0.041055 1.915741 0.150306 -0.002408 359513.000000 0 0 1
26.201925 0.493981 -8.106278 27.431672 0.018851 1.870784 0.196216 0.006264 472735.000000 0 0 1
25.944925 -0.628419 -7.225878 26.939698 -0.024217 1.842346 0.166050 -0.014472 317496.000000 0 0 1
26.106425 -1.940819 -7.718278 27.292563 -0.074206 1.857506 0.139973 -0.023766 -351899.000000 0 0 1
26.625625 -2.999619 -6.749778 27.631162 -0.112186 1.817575 0.143929 -0.030695 322755.000000 0 0 1
28.005025 -2.877519 -6.398378 28.870413 -0.102391 1.794276 0.141418 -0.037884 694722.000000 0 0 1
28.338725 -3.895519 -5.516278 29.132245 -0.136607 1.761300 0.142812 -0.049480 35930.800000 0 0 1
29.867175 -4.064519 -5.316778 30.607786 -0.135256 1.745389 0.172303 -0.051217 8063.960000 0 0 1
30.545635 -4.524419 -6.454078 31.546177 -0.147051 1.776843 0.120699 -0.042600 507598.000000 0 0 1
31.907355 -4.803919 -6.133178 32.844677 -0.149436 1.758632 0.103069 -0.029418 262735.000000 0 0 1
32.806735 -5.264819 -7.260678 34.010551 -0.159123 1.785935 0.105548 -0.042240 -273935.000000 0 0 1
32.281905 -6.404319 -7.908378 33.847882 -0.195844 1.806621 0.119328 -0.062220 -45996.800000 0 0 1
32.717435 -6.528119 -9.245978 34.619864 -0.196944 1.841149 0.113117 -0.038225 -684327.000000 0 0 1
31.647735 -7.225719 -10.128878 34.005651 -0.224469 1.873245 0.107759 -0.035477 595802.000000 0 0 1
30.443085 -6.496719 -10.332678 32.798674 -0.210252 1.891288 0.102127 -0.057532 579607.000000 0 0 1
29.535725 -6.536519 -9.251878 31.633564 -0.217798 1.867605 0.129697 -0.058947 -1566140.000000 0 0 1
28.386725 -5.573519 -9.339978 30.399103 -0.193876 1.883093 0.123894 -0.046905 -1176290.000000 0 0 1
27.271425 -5.979919 -10.034178 29.667739 -0.215858 1.915820 0.105964 -0.045076 -212660.000000 0 0 1
26.185625 -5.064519 -10.035678 28.496511 -0.191049 1.930687 0.101225 -0.035540 141803.000000 0 0 1
24.861225 -5.683219 -9.588378 27.245485 -0.224736 1.930424 0.130507 -0.034694 -1046670.000000 0 0 1
24.893225 -6.183919 -8.270878 26.950342 -0.243489 1.882723 0.133156 -0.039161 812709.000000 0 0 1
23.663625 -6.681119 -7.725978 25.773925 -0.275175 1.875237 0.127618 -0.042368 671377.000000 0 0 1
22.631925 -5.603019 -7.230678 24.410664 -0.242692 1.871518 0.136841 -0.025628 -192070.000000 0 1 0
21.931325 -4.976619 -8.247678 23.953579 -0.223140 1.922310 0.139687 -0.031922 81566.600000 0 1 0
21.741125 -3.613019 -8.035978 23.458631 -0.164679 1.920436 0.126704 -0.026366 -128190.000000 0 1 0
21.706725 -2.798019 -9.373278 23.809014 -0.128194 1.975434 0.129270 -0.014767 187443.000000 0 1 0
22.995525 -2.823619 -9.973378 25.223704 -0.122178 1.977296 0.128388 -0.020966 802934.000000 0 0 1
23.063625 -1.989819 -11.107378 25.676137 -0.086062 2.018166 0.135858 -0.019661 592387.000000 0 0 1
24.479625 -1.946919 -11.791578 27.241216 -0.079365 2.018457 0.118663 -0.020508 212021.000000 0 0 1
25.447725 -1.168919 -11.165978 27.814243 -0.045902 1.983894 0.099971 -0.025133 1049590.000000 0 0 1
26.696425 -1.347619 -11.889578 29.255380 -0.050437 1.989314 0.087791 -0.027525 921235.000000 0 0 1
27.810725 -0.359619 -11.465478 30.083599 -0.012930 1.961804 0.082089 -0.020656 -981650.000000 0 0 1
29.084725 -0.612319 -11.924578 31.440288 -0.021050 1.959811 0.073408 -0.023802 -286100.000000 0 0 1
30.066415 0.362981 -11.606978 32.231087 0.012072 1.939190 0.073874 -0.018962 218064.000000 0 0 1
30.168325 1.563081 -12.537978 32.707368 0.051766 1.964204 0.074356 -0.014600 -484953.000000 0 0 1
30.632335 1.324481 -13.851978 33.644784 0.043211 1.995129 0.076204 -0.013087 497446.000000 0 0 1
30.456045 2.496881 -14.663678 33.894373 0.081800 2.018203 0.063164 -0.011303 -16375.400000 0 0 1
30.767065 2.185581 -16.161378 34.822108 0.070917 2.053429 0.058132 -0.010597 291767.000000 0 0 1
29.742375 1.405981 -16.782478 34.179485 0.047237 2.084045 0.058937 -0.009373 439578.000000 0 0 1
30.102935 1.172281 -18.153978 35.172828 0.038923 2.113130 0.045913 -0.009968 124760.000000 0 0 1
28.985425 0.498281 -19.021578 34.673096 0.017189 2.151482 0.043082 -0.005930 313118.000000 0 0 1
28.860925 -0.897719 -18.830278 34.472282 -0.031095 2.148670 0.054633 0.001296 44705.300000 0 0 1
28.426225 -1.487819 -20.023878 34.802580 -0.052292 2.183836 0.050816 -0.001449 -204668.000000 0 0 1
28.232025 -2.965919 -19.801478 34.611305 -0.104671 2.179873 0.058859 -0.014090 964459.000000 0 0 1
26.913525 -3.255119 -19.262778 33.256401 -0.120363 2.188568 0.065385 -0.009427 1291940.000000 0 0 1
26.651725 -4.657019 -19.142178 33.142499 -0.172990 2.186548 0.074292 -0.013601 -48761.100000 0 0 1
27.429125 -5.396519 -18.019978 33.259569 -0.194263 2.143372 0.067074 -0.019223 -140357.000000 0 0 1
28.808025 -5.505719 -18.278078 34.558694 -0.188840 2.128100 0.064460 -0.013789 -567741.000000 0 0 1
29.506125 -5.751819 -17.139478 34.604285 -0.192522 2.088976 0.055693 -0.018444 -238179.000000 0 0 1
31.027545 -5.489919 -17.333678 35.962538 -0.175124 2.073724 0.064779 -0.006809 22428.200000 0 0 1
31.632885 -6.455719 -18.169878 37.046730 -0.201318 2.083412 0.048424 -0.004988 -53301.900000 0 0 1
32.915645 -5.914619 -18.443578 38.191464 -0.177793 2.074787 0.073755 -0.002887 -13976.600000 0 0 1
33.853865 -6.941519 -19.135578 39.502395 -0.202240 2.076491 0.068545 0.006348 -206878.000000 0 0 1
34.248755 -7.968719 -18.297078 39.639131 -0.228604 2.050585 0.064712 -0.000303 145980.000000 0 0 1
35.008915 -8.943419 -19.042678 40.844001 -0.250112 2.055820 0.053772 0.005296 152636.000000 0 0 1
35.768185 -9.828519 -18.007478 41.233871 -0.268165 2.022741 0.075511 -0.002817 -591966.000000 0 0 1
34.946615 -10.719919 -17.291778 40.437459 -0.297639 2.012652 0.048944 -0.009268 41641.300000 0 0 1
35.606745 -11.459219 -16.290178 40.798577 -0.311360 1.981531 0.061913 -0.024014 -243613.000000 0 0 1
36.421655 -10.715619 -15.176378 40.886231 -0.286137 1.951082 0.094489 -0.022757 -228136.000000 0 0 1
36.917485 -11.360719 -13.995578 41.083364 -0.298536 1.918418 0.075053 -0.023185 411016.000000 0 0 1
-36.845951 -12.502619 -14.177478 41.411840 0.327130 1.920217 0.072210 -0.015396 -54239.800000 0 0 1
-35.425471 -12.444319 -14.798478 40.358642 0.337816 1.946228 0.111940 -0.023356 -240765.000000 0 0 1
-35.375020 -12.138019 -16.172178 40.746323 0.330536 1.978932 0.121416 -0.015306 176117.000000 0 0 1
-34.024481 -12.260719 -16.591678 39.790380 0.345865 2.000913 0.165466 -0.020863 29931.300000 0 0 1
-33.803971 -11.381319 -17.812178 39.868742 0.324765 2.033949 0.192280 -0.018194 93840.200000 0 0 1
-33.791601 -9.969719 -17.656578 39.408404 0.286896 2.035369 0.174284 -0.015398 345850.000000 0 0 1
-34.879465 -9.383419 -18.359778 40.517985 0.262802 2.041066 0.153459 -0.010462 218024.000000 0 0 1
-35.342289 -8.012719 -17.778678 40.365362 0.222949 2.026889 0.176266 -0.010283 -730880.000000 0 0 1
-36.545871 -7.559119 -18.275178 41.553858 0.203963 2.026167 0.149835 -0.010095 -641999.000000 0 0 1
-36.977031 -6.340419 -17.745078 41.501681 0.169818 2.012605 0.133080 -0.012636 -180748.000000 0 0 1
24.800949 27.437781 -26.829288 45.691680 0.835832 2.198368 0.042165 0.014483 23095.600000 0 0 1
25.504549 26.792581 -25.808678 45.104460 0.810022 2.179980 0.032123 0.006366 -503165.000000 0 0 1
26.773849 26.401281 -26.252398 45.859078 0.778392 2.180297 0.034604 0.004355 -374606.000000 0 0 1
27.420749 25.336981 -25.361378 45.133797 0.745922 2.167496 0.036494 0.001990 -344448.000000 0 0 1
27.867149 25.870981 -24.133778 45.036928 0.748269 2.136330 0.032597 0.005517 384434.000000 0 0 1
28.297449 24.838881 -23.227778 44.240766 0.720401 2.123548 0.035143 -0.000371 20057.800000 0 0 1
28.915049 25.452081 -21.947278 44.334767 0.721788 2.088672 0.032547 0.008940 -307884.000000 0 0 1
27.947449 26.072481 -21.135278 43.675327 0.750703 2.075923 0.034294 0.000677 23663.700000 0 0 1
28.583149 26.741981 -20.090478 43.997242 0.752131 2.045000 0.015191 0.007002 -161656.000000 0 0 1
27.707849 27.798281 -19.372778 43.769554 0.787027 2.029302 0.024935 0.001257 -157009.000000 0 0 1
26.842849 27.152881 -18.454378 42.407329 0.791140 2.021023 0.040289 -0.001742 -198855.000000 0 0 1
26.000049 28.135981 -17.904778 42.287316 0.824833 2.008000 0.043351 -0.010187 -328512.000000 0 0 1
24.890049 27.563981 -17.009078 40.848456 0.836331 2.000273 0.052650 -0.019603 -163232.000000 0 0 1
23.805649 27.027381 -17.739978 40.148413 0.848692 2.028467 0.063976 -0.009228 433136.000000 0 0 1
22.650749 26.959981 -16.889178 39.053058 0.872042 2.018024 0.043298 -0.001135 309694.000000 0 0 1
21.592249 25.929781 -17.289078 37.914259 0.876420 2.044297 0.034208 -0.002865 -228055.000000 0 0 1
21.058349 26.318481 -18.564778 38.480742 0.895973 2.074238 0.035042 -0.006361 -49071.200000 0 0 1
20.250549 25.334181 -19.168878 37.674280 0.896460 2.104593 0.037227 -0.002698 -8815.370000 0 0 1
19.501549 25.673581 -20.468578 38.189081 0.921182 2.136464 0.040402 -0.000168 468675.000000 0 0 1
18.356549 26.477981 -20.191678 38.023023 0.964597 2.130622 0.024339 0.002464 53601.100000 0 0 1
17.498449 26.560781 -21.318778 38.290484 0.988254 2.161282 0.034767 -0.005528 -63194.100000 0 0 1
16.384249 27.603281 -21.172978 38.453605 1.035124 2.153892 0.035630 0.000460 -89809.000000 0 0 1
15.478949 27.199581 -20.160678 37.227249 1.053417 2.143084 0.050676 -0.001073 -186206.000000 0 0 1
14.780749 28.297181 -19.647578 37.486375 1.089437 2.122485 0.030319 -0.003481 -107979.000000 0 0 1
14.347549 28.205881 -18.178078 36.494745 1.100235 2.092204 0.024403 -0.002865 246618.000000 0 0 1
13.360049 27.192181 -17.995878 35.238576 1.114117 2.106780 0.026690 -0.007201 7266.260000 0 0 1
13.058449 27.179881 -16.593478 34.418201 1.122914 2.073862 0.049607 -0.009699 -2228.550000 0 0 1
12.052049 26.094681 -16.203878 32.996211 1.138125 2.084129 0.065913 -0.010482 79672.200000 0 0 1
12.670149 24.818481 -16.169878 32.217304 1.098774 2.096591 0.060541 -0.011384 495221.000000 0 0 1
11.664549 23.820781 -16.013478 30.982621 1.115439 2.113968 0.082104 -0.013542 369905.000000 0 0 1
12.400249 22.476981 -16.020278 30.259382 1.066659 2.128727 0.079002 -0.012046 218685.000000 0 0 1
12.913249 22.313381 -17.324078 31.060629 1.046169 2.162469 0.068480 -0.005698 -158401.000000 0 0 1
14.019549 21.438681 -17.434678 30.986010 0.991658 2.168400 0.067642 -0.001689 19292.900000 0 0 1
13.641849 19.945481 -17.564278 29.873502 0.970919 2.199325 0.087471 -0.010074 45177.500000 0 0 1
12.989149 19.405881 -16.411378 28.541891 0.980945 2.183392 0.104046 -0.024832 57135.800000 0 0 1
12.554249 18.076681 -16.713678 27.635532 0.963771 2.220298 0.092544 -0.021836 -416564.000000 0 0 1
13.650949 17.030681 -16.652378 27.453492 0.895111 2.222532 0.106985 -0.019114 -470368.000000 0 0 1
14.092649 16.778681 -15.302278 26.726141 0.872187 2.180419 0.100574 -0.022762 385297.000000 0 0 1
15.063649 15.722581 -15.332778 26.630944 0.806798 2.184318 0.115054 -0.025705 -382539.000000 0 0 1
15.580149 15.284181 -13.952478 25.904032 0.775809 2.139597 0.151019 -0.033479 38219.500000 0 0 1
16.502749 16.134381 -13.225678 26.600330 0.774112 2.091165 0.135657 -0.029501 1413710.000000 0 0 1
17.784049 16.475881 -13.747978 27.869947 0.747233 2.086665 0.112690 -0.021886 8326.420000 0 0 1
18.722449 15.455381 -14.411878 28.232980 0.690097 2.106519 0.108329 -0.026925 -569054.000000 0 0 1
19.495249 14.510581 -13.681578 27.889197 0.639852 2.083539 0.133882 -0.032573 710143.000000 0 0 1
20.485349 15.057981 -12.834078 28.479921 0.633871 2.038274 0.122313 -0.026233 -1098650.000000 0 0 1
21.417849 14.123081 -12.139978 28.382473 0.582960 2.012774 0.131378 -0.032980 -738384.000000 0 0 1
20.816749 13.162281 -11.243278 27.073862 0.563826 1.999049 0.208087 -0.037319 72865.900000 0 0 1
21.759649 12.255381 -10.783678 27.202287 0.512933 1.978416 0.226470 -0.017085 -583396.000000 0 0 1
21.820149 10.907781 -11.456978 26.951084 0.463564 2.009872 0.187828 -0.022554 -109870.000000 0 0 1
22.506249 10.746981 -12.736078 28.004224 0.445495 2.042934 0.138713 -0.009479 665722.000000 0 0 1
22.377949 9.463381 -13.310078 27.703544 0.400081 2.071960 0.113892 -0.009909 -102841.000000 0 0 1
22.975849 8.263081 -12.505678 27.432830 0.345239 2.044141 0.115474 0.001429 -704798.000000 0 0 1
22.164049 7.959481 -11.426678 26.175702 0.344773 2.022543 0.129346 -0.013961 106357.000000 0 0 1
22.537449 6.898081 -10.569478 25.830873 0.297018 1.992352 0.120847 0.005307 -710242.000000 0 0 1
22.744549 5.449881 -11.155978 25.912768 0.235179 2.015866 0.137374 -0.009331 6922.060000 0 0 1
21.571649 4.751181 -11.524578 24.914367 0.216790 2.051685 0.141983 -0.025074 616419.000000 0 1 0
20.779149 5.240381 -12.583478 24.851128 0.247043 2.101748 0.090498 -0.030607 -626657.000000 0 1 0
19.861649 4.183581 -13.167278 24.194311 0.207601 2.146268 0.098447 -0.042970 -538924.000000 0 1 0
20.532849 3.192881 -13.919378 25.010827 0.154266 2.161005 0.105545 -0.039376 378127.000000 0 0 1
19.871749 1.935081 -13.957378 24.360611 0.097072 2.180895 0.118418 -0.033099 -939722.000000 0 1 0
20.673849 0.862881 -14.612778 25.331520 0.041714 2.185678 0.132458 -0.028485 -477295.000000 0 0 1
21.755949 0.435281 -13.769978 25.751176 0.020005 2.134987 0.143787 -0.024024 1683880.000000 0 0 1
22.955849 0.200081 -14.581078 27.195935 0.008716 2.136665 0.099685 -0.029655 732560.000000 0 0 1
23.083849 -1.221619 -15.251878 27.694336 -0.052872 2.154025 0.088435 -0.021176 -813931.000000 0 0 1
21.976349 -1.691419 -15.982278 27.225981 -0.076814 2.198173 0.087004 -0.019430 212463.000000 0 0 1
22.416649 -2.763819 -16.796378 28.147170 -0.122674 2.210221 0.071413 -0.023326 221038.000000 0 0 1
21.252149 -3.281919 -17.681978 27.840208 -0.153217 2.258965 0.076214 -0.023558 -48705.200000 0 0 1
20.316049 -4.031719 -16.934778 26.754127 -0.195905 2.256190 0.092882 -0.022331 -60693.300000 0 0 1
19.576749 -4.804019 -17.830378 26.911895 -0.240639 2.295010 0.073599 -0.020562 -758160.000000 0 0 1
18.927049 -5.942519 -17.095378 26.187758 -0.304223 2.282072 0.075746 -0.022468 -901830.000000 0 0 1
19.768649 -6.946019 -16.641478 26.757905 -0.337891 2.241998 0.081193 -0.018454 -5983.180000 0 0 1
19.105949 -7.961419 -15.917178 26.110880 -0.394818 2.226352 0.091159 -0.014024 11798.500000 0 0 1
20.120049 -8.968419 -15.292878 26.816432 -0.419310 2.177643 0.112725 -0.015642 247748.000000 0 0 1
20.762649 -9.719719 -16.319178 28.140293 -0.437832 2.189429 0.100523 -0.027081 683728.000000 0 0 1
21.756049 -10.575019 -15.740178 28.860178 -0.452444 2.147656 0.095015 -0.036119 -114998.000000 0 0 1
22.304049 -11.562919 -16.766278 30.203970 -0.478277 2.159282 0.081411 -0.030452 -417037.000000 0 0 1
23.234449 -10.903619 -17.600478 31.120819 -0.438777 2.171900 0.063275 -0.023997 25213.500000 0 0 1
23.650049 -11.679619 -18.684378 32.324051 -0.458717 2.187113 0.062358 -0.023312 -895512.000000 0 0 1
22.840149 -11.519919 -19.983878 32.461305 -0.467139 2.233971 0.076667 -0.020952 704178.000000 0 0 1
21.469549 -11.932219 -19.972278 31.657721 -0.507265 2.253485 0.077099 -0.034421 662979.000000 0 0 1
21.314049 -13.344819 -19.812678 32.014295 -0.559393 2.238099 0.070621 -0.023115 -1137440.000000 0 0 1
19.876349 -13.837319 -19.622978 31.170530 -0.608151 2.251753 0.069324 -0.021549 -211331.000000 0 0 1
19.149649 -13.515919 -20.823478 31.352932 -0.614611 2.297171 0.070190 -0.010712 -203889.000000 0 0 1
17.806149 -13.943019 -20.719178 30.671665 -0.664317 2.312460 0.077478 -0.012044 -240400.000000 0 0 1
17.056149 -13.198819 -21.816478 30.677023 -0.658588 2.361953 0.066739 -0.011973 -533169.000000 0 0 1
17.379949 -13.679219 -23.074078 31.962427 -0.666806 2.377359 0.060057 -0.002574 156118.000000 0 0 1
16.552549 -13.094619 -24.037178 31.988152 -0.669287 2.421038 0.072542 -0.013857 -177927.000000 0 0 1
16.574049 -13.750119 -25.433438 33.326035 -0.692541 2.439001 0.064838 -0.025406 -742832.000000 0 0 1
15.765349 -14.857819 -25.615598 33.547874 -0.755771 2.439595 0.074668 -0.020476 -52460.200000 0 0 1
15.813849 -15.375519 -26.935948 34.814217 -0.771345 2.455465 0.076661 -0.023801 -260880.000000 0 0 1
16.569949 -16.728219 -26.996758 35.822081 -0.790151 2.424371 0.081719 -0.017953 -782057.000000 0 0 1
17.941949 -16.599219 -26.935438 36.372592 -0.746544 2.404673 0.080476 -0.016325 -1215340.000000 0 0 1
18.631149 -17.792519 -27.122888 37.407813 -0.762378 2.381917 0.098888 -0.018099 -677038.000000 0 0 1
20.129649 -17.605219 -27.001968 38.003326 -0.718599 2.361027 0.091211 -0.011612 -760910.000000 0 0 1
20.543749 -17.317819 -25.678968 37.166677 -0.700400 2.333549 0.089131 -0.013473 -486895.000000 0 0 1
21.938249 -17.330419 -25.554718 37.877088 -0.668591 2.311320 0.079603 -0.004600 -357588.000000 0 0 1
22.492349 -16.549419 -24.340878 37.044127 -0.634338 2.287732 0.089956 -0.000416 -21243.900000 0 0 1
22.388449 -15.098819 -24.325678 36.344953 -0.593339 2.304063 0.091817 -0.011422 679312.000000 0 0 1
21.038449 -14.593319 -24.299278 35.299238 -0.606451 2.330049 0.103026 -0.011201 815628.000000 0 0 1
20.857749 -13.234019 -23.547878 34.127518 -0.565394 2.332281 0.097622 -0.002971 -36731.500000 0 0 1
21.314649 -12.186219 -24.353078 34.581651 -0.519373 2.352120 0.109697 -0.022979 130788.000000 0 0 1
21.208149 -10.969419 -23.588778 33.564031 -0.477334 2.350121 0.098655 -0.024133 129788.000000 0 0 1
21.333149 -9.674919 -24.477178 33.879781 -0.425774 2.378167 0.107433 -0.030402 -173745.000000 0 0 1
20.725449 -8.595719 -23.862178 32.754147 -0.393150 2.386961 0.105526 -0.029271 -1535.440000 0 0 1
20.635149 -7.508619 -24.725678 33.068836 -0.348982 2.415393 0.085430 -0.026957 -214479.000000 0 0 1
20.211549 -6.228219 -23.980978 31.974752 -0.298918 2.418854 0.083137 -0.029864 797426.000000 0 0 1
18.829749 -6.381119 -23.622078 30.875244 -0.326739 2.441964 0.073696 -0.031338 402455.000000 0 0 1
18.244049 -5.572619 -22.653378 29.615451 -0.296448 2.441710 0.063881 -0.028734 -236012.000000 0 0 1
18.807949 -5.607919 -21.179478 28.874868 -0.289775 2.394241 0.070920 -0.029452 -508028.000000 0 0 1
18.589849 -6.727019 -20.369178 28.385537 -0.347206 2.371132 0.074452 -0.031758 460847.000000 0 0 1
19.180549 -7.942119 -20.856478 29.427256 -0.392578 2.358517 0.076351 -0.028995 -170880.000000 0 0 1
18.827249 -9.078519 -19.855278 28.829098 -0.449307 2.330523 0.080755 -0.027588 410287.000000 0 0 1
17.418649 -9.278519 -19.815278 27.966864 -0.489446 2.358205 0.076497 -0.024737 256382.000000 0 0 1
17.104649 -10.389219 -18.934378 27.550237 -0.545837 2.328517 0.088887 -0.024119 211977.000000 0 0 1
15.627649 -10.398619 -18.449778 26.320125 -0.587124 2.347562 0.097810 -0.022459 46985.800000 0 0 1
15.238549 -9.531519 -17.432278 25.038921 -0.558950 2.340897 0.111011 -0.022806 101206.000000 0 0 1
15.237349 -8.138019 -17.752078 24.769748 -0.490541 2.369832 0.127430 -0.040530 -528579.000000 0 1 0
14.030849 -7.365319 -17.225078 23.405469 -0.483398 2.397854 0.141899 -0.025549 439796.000000 0 1 0
12.734349 -7.565619 -17.790978 23.149971 -0.536078 2.447305 0.120147 -0.037339 239069.000000 0 1 0
11.849849 -6.638419 -17.331478 22.019711 -0.510649 2.476872 0.112166 -0.033484 416987.000000 0 1 0
10.301449 -6.770819 -17.552978 21.449263 -0.581468 2.529328 0.110095 -0.029880 1090870.000000 0 1 0
9.870549 -6.483219 -18.886078 22.274286 -0.581158 2.582783 0.102039 -0.037447 62413.500000 0 1 0
8.467149 -6.482819 -19.037178 21.820488 -0.653438 2.630980 0.095587 -0.044043 112611.000000 0 1 0
7.974049 -5.964119 -20.386378 22.688336 -0.642182 2.687228 0.106518 -0.049659 24186.800000 0 1 0
8.084449 -6.916419 -21.444278 23.938509 -0.707691 2.681039 0.110472 -0.042721 132499.000000 0 1 0
7.221449 -6.415119 -22.441178 24.431732 -0.726337 2.735132 0.108479 -0.044795 218154.000000 0 1 0
7.040149 -7.358019 -23.670578 25.768205 -0.807472 2.735310 0.098579 -0.033217 -53046.600000 0 0 1
6.474549 -8.612019 -23.366778 25.731167 -0.926142 2.709549 0.092274 -0.032504 113623.000000 0 0 1
6.265849 -9.493619 -24.465578 26.980626 -0.987419 2.706387 0.076866 -0.016458 505447.000000 0 0 1
5.296549 -10.715719 -24.148378 26.944837 -1.111736 2.681960 0.070851 -0.019933 258854.000000 0 0 1
5.912249 -11.813419 -23.579178 27.027564 -1.106774 2.630913 0.062883 -0.029246 -118979.000000 0 0 1
4.982949 -12.859819 -23.270078 27.049977 -1.201128 2.606580 0.065774 -0.034889 -328900.000000 0 0 1
5.525149 -14.127719 -22.476478 27.116633 -1.197998 2.547902 0.073988 -0.033143 448973.000000 0 0 1
6.592449 -14.865819 -23.129578 28.274199 -1.153391 2.528801 0.075373 -0.030515 1256990.000000 0 0 1
7.866149 -14.237319 -23.323778 28.435474 -1.066034 2.532618 0.072577 -0.028816 653815.000000 0 0 1
8.681149 -13.856619 -22.060778 27.459901 -1.011120 2.503749 0.075134 -0.018754 -543560.000000 0 0 1
9.164949 -14.880119 -21.158578 27.442661 -1.018754 2.451223 0.079538 -0.021161 69330.000000 0 0 1
8.281649 -15.341719 -20.190478 26.676009 -1.075808 2.429319 0.090292 -0.028292 -587530.000000 0 0 1
9.065549 -15.629719 -18.924078 26.164728 -1.045198 2.379318 0.089446 -0.027998 -55473.900000 0 0 1
9.837749 -16.813919 -18.983278 27.200258 -1.041408 2.343269 0.088854 -0.022692 -369201.000000 0 0 1
10.503449 -17.061719 -17.761378 26.774825 -1.018974 2.296098 0.094728 -0.022600 -726036.000000 0 0 1
9.779649 -17.873319 -16.638078 26.304424 -1.070133 2.255599 0.088158 -0.027088 -729900.000000 0 0 1
9.484649 -19.185819 -16.980578 27.320217 -1.111673 2.241502 0.088888 -0.029459 644848.000000 0 0 1
8.600649 -19.427319 -18.107778 27.915650 -1.154022 2.276619 0.103002 -0.022977 473695.000000 0 0 1
7.071949 -19.150219 -17.958578 27.189223 -1.217043 2.292286 0.099040 -0.026079 298595.000000 0 0 1
6.929549 -17.758619 -17.825778 26.098765 -1.198760 2.322675 0.102654 -0.030436 29863.800000 0 0 1
5.538049 -17.492219 -17.995478 25.699901 -1.264180 2.346496 0.087885 -0.023077 572247.000000 0 0 1
5.137749 -16.025719 -17.652078 24.388850 -1.260555 2.380056 0.067207 -0.015069 -177271.000000 0 1 0
5.230849 -15.694219 -16.224278 23.171048 -1.249078 2.346468 0.047888 -0.019281 200852.000000 0 1 0
4.969549 -14.328419 -16.150578 22.154936 -1.236947 2.387632 0.030957 -0.009405 -85159.500000 0 1 0
10.830549 29.636281 -17.961978 36.307611 1.220425 2.088305 0.059227 -0.030086 -755455.000000 0 0 1
9.709849 29.622881 -18.795178 36.401305 1.254050 2.113359 0.081335 -0.022307 -501596.000000 0 0 1
8.878949 28.639381 -18.194278 35.072520 1.270167 2.116198 0.080258 -0.031273 90303.300000 0 0 1
7.777949 28.087081 -19.142878 34.868760 1.300644 2.151961 0.085556 -0.029026 474336.000000 0 0 1
6.754949 29.040781 -19.418778 35.582092 1.342258 2.148075 0.089675 -0.039130 -139365.000000 0 0 1
6.003949 28.570081 -20.515878 35.681903 1.363662 2.183359 0.094705 -0.042376 -262799.000000 0 0 1
4.989049 29.551281 -21.041478 36.618474 1.403547 2.182928 0.087759 -0.038381 -1670450.000000 0 0 1
3.779249 29.625281 -20.433278 36.186446 1.443913 2.170826 0.092025 -0.035983 -1410810.000000 0 0 1
2.908849 30.433581 -21.205078 37.206446 1.475506 2.177217 0.094842 -0.041116 83777.200000 0 0 1
1.440349 30.212881 -20.731078 36.669748 1.523159 2.171648 0.115411 -0.034880 301423.000000 0 0 1
0.777649 28.976281 -20.891378 35.730649 1.543965 2.195295 0.123707 -0.047209 45781.500000 0 0 1
0.287949 28.741981 -22.190378 36.312495 1.560778 2.228239 0.160549 -0.060844 -209143.000000 0 0 1
-0.609851 27.496081 -22.387378 35.462672 -1.548620 2.254017 0.156720 -0.055770 190954.000000 0 0 1
-1.799351 27.519781 -21.633978 35.051463 -1.505505 2.235983 0.172897 -0.058276 -251584.000000 0 0 1
-2.338351 26.245081 -21.520778 34.020818 -1.481934 2.255672 0.181234 -0.066814 186044.000000 0 0 1
-3.575151 26.209681 -20.575778 33.512561 -1.435227 2.231879 0.145670 -0.064413 208370.000000 0 0 1
-4.821551 26.544581 -21.151678 34.282002 -1.391116 2.235709 0.148069 -0.056235 -450125.000000 0 0 1
-5.811851 26.215881 -20.218378 33.612987 -1.352633 2.216180 0.126721 -0.053379 -141270.000000 0 0 1
-7.206351 26.677281 -20.785478 34.578099 -1.306963 2.215694 0.124129 -0.057374 282526.000000 0 0 1
-8.255351 26.108081 -20.056378 33.941730 -1.264545 2.202978 0.117963 -0.046037 -615741.000000 0 0 1
-8.816351 27.004581 -19.098278 34.230391 -1.255230 2.162690 0.120666 -0.052390 -315530.000000 0 0 1
-9.954651 26.251281 -18.391378 33.562891 -1.208343 2.150729 0.130805 -0.044971 -287447.000000 0 0 1
-9.632651 25.350881 -17.369978 32.205144 -1.207673 2.140466 0.142765 -0.058542 74672.100000 0 0 1
-10.801851 24.727281 -16.825378 31.799556 -1.158940 2.128345 0.112351 -0.045487 343241.000000 0 0 1
-10.530251 24.073781 -15.432478 30.472849 -1.158457 2.101840 0.102933 -0.032696 -339662.000000 0 0 1
-9.842951 22.898381 -15.506878 29.354434 -1.164822 2.127351 0.117284 -0.041113 -483493.000000 0 0 1
-9.600251 22.246581 -14.270378 28.119724 -1.163401 2.103061 0.120562 -0.035741 -91806.000000 0 0 1
-9.165951 20.772481 -14.383678 26.877515 -1.155239 2.135489 0.116289 -0.019701 310858.000000 0 0 1
-10.205351 19.814081 -14.624178 26.657337 -1.095177 2.151484 0.097870 -0.022930 316615.000000 0 0 1
-10.887851 19.739381 -15.893278 27.582327 -1.066741 2.184883 0.115784 -0.013906 660595.000000 0 0 1
-9.966851 19.548781 -17.144578 27.846535 -1.099304 2.234046 0.124199 -0.022738 433550.000000 0 0 1
-9.166151 18.352881 -17.145578 26.736070 -1.107597 2.266975 0.100273 -0.023202 253108.000000 0 0 1
-8.163451 18.436981 -18.138778 27.121569 -1.153966 2.303384 0.111516 -0.024660 418984.000000 0 0 1
-7.282151 17.157081 -18.270878 26.100194 -1.169400 2.346234 0.089885 -0.024167 258629.000000 0 0 1
-8.051951 16.020581 -18.708778 25.913535 -1.105071 2.377441 0.078172 -0.033589 -194346.000000 0 0 1
-7.672251 15.242381 -19.801578 26.139933 -1.104472 2.430305 0.082534 -0.034970 -971982.000000 0 0 1
-6.338951 14.570381 -19.599278 25.231132 -1.160438 2.460348 0.069663 -0.027687 -906832.000000 0 0 1
-6.390651 13.338481 -18.929678 24.022661 -1.123997 2.478338 0.046633 -0.028140 347352.000000 0 1 0
-5.104351 12.780581 -18.649278 23.177429 -1.190822 2.505850 0.055609 -0.016785 903608.000000 0 1 0
-4.353651 13.188781 -17.323878 22.203941 -1.251956 2.465808 0.044776 -0.010724 73340.700000 0 1 0
-3.706351 14.389081 -17.476378 22.939191 -1.318696 2.436971 0.065759 -0.020596 -752093.000000 0 1 0
-3.218651 14.921481 -16.287278 22.322315 -1.358346 2.388593 0.050597 -0.008568 223563.000000 0 1 0
-2.445351 16.262281 -16.525378 23.313723 -1.421545 2.358629 0.074968 -0.010627 7770.150000 0 1 0
-3.254251 17.330081 -16.896378 24.421496 -1.385177 2.334865 0.077924 -0.019145 -114880.000000 0 1 0
-2.505451 18.588881 -16.935178 25.271012 -1.436821 2.305197 0.086770 -0.024282 398135.000000 0 0 1
-3.235451 19.802781 -17.532678 26.646071 -1.408844 2.288934 0.093503 -0.022466 77020.300000 0 0 1
-3.333151 19.719281 -18.914078 27.526393 -1.403349 2.328321 0.115153 -0.024950 -123674.000000 0 0 1
-3.916851 20.837281 -19.626378 28.891672 -1.384991 2.317617 0.143029 -0.030251 263399.000000 0 0 1
-3.058851 22.133381 -19.737778 29.813135 -1.433465 2.294347 0.114046 -0.035723 -272300.000000 0 0 1
-2.011651 22.016581 -20.675878 30.269928 -1.479680 2.322727 0.139192 -0.032667 525113.000000 0 0 1
-0.892451 22.913081 -20.494678 30.754473 -1.531867 2.300162 0.130124 -0.042955 1004720.000000 0 0 1
0.136149 22.433881 -19.452078 29.693112 1.564727 2.285117 0.123620 -0.045978 -383382.000000 0 0 1
-0.351751 22.548881 -18.149878 28.948124 -1.555198 2.248466 0.109565 -0.038221 -638574.000000 0 0 1
0.653149 22.040781 -17.316378 28.037111 1.541171 2.236514 0.099112 -0.034146 -51473.700000 0 0 1
0.421549 21.990381 -15.777778 27.068300 1.551629 2.193074 0.087999 -0.030840 -393138.000000 0 0 1
-0.462451 20.986181 -15.315378 25.984505 -1.548764 2.201118 0.079198 -0.017991 -78537.700000 0 0 1
-0.227051 20.780781 -13.940978 25.024854 -1.559871 2.161668 0.076937 -0.019739 -79225.600000 0 0 1
-1.244951 19.884981 -13.224278 23.913258 -1.508270 2.156769 0.062825 -0.015263 -56566.000000 0 1 0
-1.117051 18.542881 -13.654678 23.055075 -1.510628 2.204661 0.058275 -0.011907 -411274.000000 0 1 0
-1.851351 17.757981 -12.803878 21.970724 -1.466917 2.192929 0.045014 -0.009324 -239210.000000 0 1 0
-1.381251 16.272381 -12.839378 20.773731 -1.486116 2.237067 0.028873 -0.007372 -426498.000000 0 1 0
-0.136951 16.100481 -12.201978 20.202290 -1.562291 2.219294 0.025664 -0.001201 -134179.000000 0 1 0
0.123749 14.760181 -11.984178 19.013122 1.562413 2.252750 0.022670 -0.003396 63426.100000 0 1 0
0.736849 13.949881 -13.160078 19.191920 1.518024 2.326374 0.013878 -0.006393 -405630.000000 0 1 0
-0.079951 13.697681 -14.286978 19.792691 -1.564960 2.377241 0.019910 -0.016498 271306.000000 0 1 0
0.655449 12.909181 -15.238978 19.982568 1.520066 2.438140 0.018555 -0.013180 112908.000000 0 1 0
-0.101951 12.694681 -16.646178 20.934674 -1.562766 2.490049 0.031869 -0.009804 407380.000000 0 1 0
-0.056451 13.919781 -17.366278 22.256485 -1.566741 2.465909 0.041595 -0.013133 66587.200000 0 1 0
-0.091951 13.673881 -18.767978 23.221122 -1.564072 2.511934 0.055398 -0.017172 -168001.000000 0 1 0
-0.748251 14.858281 -19.585478 24.595108 -1.520480 2.491976 0.065151 -0.012356 59402.300000 0 1 0
-0.018551 16.053881 -19.622778 25.353124 -1.569641 2.455897 0.061710 -0.021269 -64833.400000 0 0 1
-0.819151 17.140381 -20.078978 26.412668 -1.523042 2.434421 0.099071 -0.031642 258546.000000 0 0 1
-0.011351 18.467481 -20.308778 27.449854 -1.570182 2.403644 0.101666 -0.035735 47493.900000 0 0 1
0.719549 18.314381 -21.511078 28.260587 1.531528 2.435910 0.113006 -0.044041 -40626.700000 0 0 1
1.619849 19.407181 -21.637978 29.111247 1.487523 2.408765 0.119280 -0.042297 188247.000000 0 0 1
2.357349 19.443681 -22.983878 30.197227 1.450145 2.435843 0.133900 -0.053564 560343.000000 0 0 1
3.327349 18.392381 -23.166578 29.766446 1.391823 2.462716 0.126727 -0.046507 183149.000000 0 0 1
3.836849 18.374381 -24.455378 30.828636 1.364939 2.486954 0.128481 -0.056098 102377.000000 0 0 1
4.679549 17.141181 -24.801378 30.509452 1.304290 2.519924 0.100128 -0.043151 -17871.400000 0 0 1
5.954749 17.063081 -24.183678 30.190364 1.235027 2.499826 0.095997 -0.033569 -184430.000000 0 0 1
6.757849 15.975581 -24.449978 29.978145 1.170611 2.524550 0.106259 -0.037211 33812.500000 0 0 1
7.358749 15.868081 -25.893278 31.247545 1.136571 2.547488 0.098311 -0.030756 -565309.000000 0 0 1
8.437849 16.796381 -26.138428 32.195235 1.105262 2.518149 0.095920 -0.021553 858873.000000 0 0 1
9.039349 16.639081 -27.441708 33.340909 1.073142 2.537582 0.095965 -0.022311 569412.000000 0 0 1
9.613249 15.219481 -27.861708 33.171101 1.007436 2.567968 0.100000 -0.034793 -753791.000000 0 0 1
10.769849 14.772181 -27.221698 32.790667 0.940830 2.550202 0.098408 -0.031048 -292421.000000 0 0 1
10.986049 13.368381 -27.434658 32.435588 0.882907 2.578896 0.084407 -0.030254 12647.600000 0 0 1
10.129749 12.402381 -26.556798 31.011198 0.885920 2.598978 0.089322 -0.028558 1179710.000000 0 0 1
8.787249 12.294281 -27.084118 31.014747 0.950244 2.632662 0.109978 -0.042525 380102.000000 0 0 1
7.996349 11.393581 -26.393028 29.838687 0.958844 2.656269 0.122187 -0.044155 29221.300000 0 0 1
6.465449 11.580481 -26.467918 29.605072 1.061599 2.677065 0.082934 -0.046511 -482237.000000 0 0 1
6.005049 12.417981 -25.399258 28.903100 1.120373 2.644081 0.087417 -0.037146 487.739000 0 0 1
4.599749 12.536781 -25.270608 28.582026 1.219146 2.655454 0.104739 -0.053031 -16750.000000 0 0 1
4.008249 13.490981 -26.276338 29.808029 1.281997 2.649866 0.107450 -0.042234 -1025220.000000 0 0 1
4.144649 13.171081 -27.581418 30.844613 1.265928 2.677449 0.109801 -0.048330 -4264.630000 0 0 1
4.194049 14.242481 -28.500158 32.135609 1.284416 2.661326 0.108542 -0.051218 -23610.700000 0 0 1
4.129549 13.752781 -29.970408 33.232778 1.279092 2.694789 0.125109 -0.045238 341153.000000 0 0 1
5.354549 13.153081 -30.372818 33.528836 1.184189 2.704229 0.122999 -0.044255 252469.000000 0 0 1
5.357849 13.089081 -31.759548 34.766356 1.182267 2.722636 0.117034 -0.042188 -70664.800000 0 0 1
6.551649 12.242281 -32.330078 35.185672 1.079414 2.735933 0.110969 -0.037495 764509.000000 0 0 1
7.886249 12.644681 -32.065958 35.359674 1.013146 2.706548 0.118940 -0.030579 365346.000000 0 0 1
8.384749 12.641481 -30.718908 34.260216 0.985147 2.682906 0.113095 -0.038909 -538119.000000 0 0 1
8.498249 11.238481 -30.030798 33.171864 0.923355 2.702904 0.115067 -0.038400 -29735.100000 0 0 1
9.593249 10.461281 -30.486708 33.628979 0.828655 2.705859 0.086608 -0.038262 17463.400000 0 0 1
9.495049 9.256581 -29.769928 32.589705 0.772682 2.722544 0.092829 -0.044966 383118.000000 0 0 1
10.638449 8.241981 -30.060418 32.935324 0.659145 2.720666 0.077048 -0.042247 913257.000000 0 0 1
11.934249 8.444681 -29.487518 32.912804 0.615809 2.681313 0.067205 -0.042922 523921.000000 0 0 1
12.552849 7.234181 -29.299968 32.686320 0.522809 2.682373 0.040630 -0.029225 -75966.700000 0 0 1
13.879149 7.208381 -28.466808 32.480005 0.479021 2.639217 0.036387 -0.015007 702379.000000 0 0 1
14.553449 5.961181 -28.365498 32.433625 0.388760 2.635346 0.025712 -0.020281 94211.600000 0 0 1
15.416849 5.679081 -29.451758 33.724431 0.352944 2.632745 0.031129 -0.014015 -1184400.000000 0 0 1
16.164449 4.407981 -29.166278 33.636164 0.266223 2.620169 0.055729 -0.026192 -449138.000000 0 0 1
16.907549 4.553481 -27.986088 33.012430 0.263075 2.582514 0.019130 -0.013614 108996.000000 0 0 1
17.584649 3.375181 -27.545708 32.853885 0.189633 2.565194 0.032863 -0.022699 80779.700000 0 0 1
18.238149 3.602281 -26.167308 32.098824 0.195004 2.523889 0.036975 -0.012787 -189048.000000 0 0 1
19.198349 4.644681 -26.238288 32.842007 0.237370 2.496301 0.060699 -0.013417 340287.000000 0 0 1
19.784249 4.916781 -24.933278 32.206515 0.243585 2.456197 0.074268 -0.017971 1116210.000000 0 0 1
21.007349 5.925881 -24.974178 33.168273 0.274942 2.423336 0.076639 -0.018371 599422.000000 0 0 1
20.485949 7.219981 -25.266548 33.319674 0.338843 2.431509 0.080726 -0.015757 466259.000000 0 0 1
21.384649 8.153181 -25.865338 34.536840 0.364250 2.417227 0.081496 -0.028575 -522559.000000 0 0 1
21.337749 8.123081 -27.408728 35.672431 0.363750 2.447047 0.108334 -0.027880 114655.000000 0 0 1
20.189349 8.433481 -28.179468 35.676545 0.395688 2.481377 0.081923 -0.021036 660967.000000 0 0 1
19.103949 7.474681 -28.131038 34.816477 0.372952 2.511513 0.077409 -0.013282 359765.000000 0 0 1
17.869249 8.062981 -28.849208 34.879773 0.423869 2.544732 0.052459 -0.011065 -615983.000000 0 0 1
17.990249 8.190381 -30.244958 36.131550 0.427226 2.562718 0.036741 -0.011973 -152358.000000 0 0 1
16.945249 8.904281 -30.836848 36.295164 0.483818 2.586048 0.020391 -0.008361 -579663.000000 0 0 1
16.609349 8.514881 -32.295938 37.301492 0.473721 2.617560 0.004710 0.000251 136425.000000 0 0 1
15.825149 7.302081 -32.412118 36.800831 0.432312 2.648228 0.021393 -0.007193 -113684.000000 0 0 1
14.510249 7.643081 -32.748088 36.625146 0.484808 2.677308 0.024812 -0.009841 -504117.000000 0 0 1
13.632649 6.399781 -33.058088 36.326898 0.438906 2.714121 0.036283 -0.019411 -16790.200000 0 0 1
13.297949 5.622881 -31.953168 35.063616 0.400038 2.717206 0.043784 -0.021554 -35997.500000 0 0 1
12.652549 4.455881 -32.355228 35.025743 0.338609 2.748570 0.042638 -0.026409 -190178.000000 0 0 1
12.442249 3.360781 -31.368948 33.913350 0.263815 2.751762 0.061970 -0.026319 421141.000000 0 0 1
13.606449 2.590681 -31.051058 34.000225 0.188149 2.722013 0.063444 -0.034137 473073.000000 0 0 1
13.344349 1.626781 -30.052948 32.922603 0.121309 2.720974 0.077687 -0.031681 26622.800000 0 0 1
12.620149 0.316481 -30.573388 33.077188 0.025072 2.750005 0.089458 -0.029755 293239.000000 0 0 1
13.343149 -0.597819 -31.421398 34.142368 -0.044773 2.739656 0.091950 -0.028384 735694.000000 0 0 1
14.315049 -1.359419 -30.643168 33.849260 -0.094680 2.702842 0.100435 -0.031540 779043.000000 0 0 1
14.730149 -2.674019 -31.335838 34.728409 -0.179578 2.695898 0.105335 -0.030877 382642.000000 0 0 1
13.726349 -3.695519 -31.223078 34.306707 -0.262992 2.714360 0.109702 -0.027136 388329.000000 0 0 1
13.991949 -4.829519 -32.000688 35.258232 -0.332360 2.708349 0.121481 -0.034844 73111.000000 0 0 1
13.155849 -6.103619 -31.656098 34.820096 -0.434392 2.711994 0.125135 -0.037963 374845.000000 0 0 1
13.612049 -6.701719 -30.417448 33.991500 -0.457499 2.678902 0.135691 -0.031516 404033.000000 0 0 1
13.075449 -8.017719 -30.285338 33.947796 -0.550061 2.672801 0.152020 -0.044443 77510.900000 0 0 1
13.316749 -8.682519 -28.924968 33.005692 -0.577780 2.639055 0.115579 -0.036865 557404.000000 0 0 1
14.713449 -8.942219 -28.721618 33.487015 -0.546105 2.601564 0.114506 -0.037957 751103.000000 0 0 1
14.963949 -9.701819 -27.588858 32.851030 -0.575212 2.567743 0.113316 -0.040299 -108545.000000 0 0 1
15.029149 -11.250519 -27.973198 33.689009 -0.642592 2.550507 0.091813 -0.029216 -962076.000000 0 0 1
13.770749 -11.818619 -28.018498 33.381874 -0.709259 2.566851 0.081782 -0.033591 -869686.000000 0 0 1
13.646349 -13.003219 -28.754008 34.381674 -0.761270 2.561329 0.076089 -0.030560 -48373.300000 0 0 1
-9.817751 -3.331819 -17.796178 20.595951 0.327171 2.614080 0.009842 -0.003445 1194250.000000 0 1 0
-10.980751 -2.713919 -18.419178 21.615003 0.242297 2.590872 0.037490 -0.019095 1006310.000000 0 1 0
-11.877251 -3.672019 -18.951478 22.665201 0.299843 2.561020 0.037201 -0.013955 270546.000000 0 1 0
-12.791151 -3.051519 -20.085078 24.006992 0.234188 2.561906 0.045736 -0.030208 273290.000000 0 1 0
-13.698951 -2.062719 -19.620578 24.018392 0.149452 2.526809 0.043356 -0.025013 62422.800000 0 1 0
-14.510451 -1.602119 -20.686878 25.319299 0.109966 2.527055 0.042380 -0.012786 68044.700000 0 0 1
-15.307351 -0.352619 -20.361778 25.476290 0.023032 2.496833 0.045421 -0.006972 -152383.000000 0 0 1
-14.689451 0.817081 -20.800878 25.477914 -0.055566 2.525994 0.044729 -0.010840 189972.000000 0 0 1
-15.591051 1.910581 -20.620478 25.921715 -0.121936 2.490613 0.045586 -0.005996 278262.000000 0 0 1
-15.259051 3.234381 -21.380478 26.465538 -0.208873 2.511310 0.068792 -0.019434 194199.000000 0 0 1
-14.151251 3.942381 -20.831078 25.489882 -0.271700 2.527383 0.093193 -0.022905 292646.000000 0 0 1
-13.840151 5.095281 -21.590078 26.146570 -0.352754 2.542296 0.104005 -0.031301 339101.000000 0 0 1
-12.508551 5.643181 -20.976778 25.066603 -0.423806 2.562285 0.097503 -0.031496 315670.000000 0 0 1
-12.685451 6.214781 -19.740078 24.273748 -0.455546 2.520473 0.107052 -0.039985 381657.000000 0 1 0
-11.435451 6.247781 -19.072078 23.098668 -0.500038 2.542201 0.078887 -0.028747 215388.000000 0 1 0
-11.560451 6.842181 -17.635178 22.168874 -0.534414 2.490617 0.086572 -0.033200 -95489.800000 0 1 0
-11.861351 8.195481 -17.580178 22.735880 -0.604619 2.454723 0.076015 -0.039699 306441.000000 0 1 0
-13.115751 8.207081 -16.886078 22.902374 -0.559133 2.399871 0.099561 -0.034251 -52265.800000 0 1 0
-13.686751 9.654281 -16.841978 23.752569 -0.614324 2.358959 0.100221 -0.042673 -393710.000000 0 1 0
-12.988851 10.609481 -16.027678 23.198229 -0.684910 2.333531 0.062308 -0.032617 342132.000000 0 1 0
-13.646151 11.854581 -16.123078 24.221936 -0.715258 2.299147 0.067016 -0.042666 -50307.100000 0 1 0
-12.891551 13.077981 -15.428778 23.984847 -0.792577 2.269560 0.068916 -0.032879 -121772.000000 0 1 0
-12.924651 13.076981 -13.976278 23.095246 -0.791257 2.220761 0.087682 -0.037425 94582.500000 0 1 0
-12.603751 14.407481 -13.545078 23.449930 -0.852076 2.186603 0.065395 -0.030736 -1021570.000000 0 1 0
-12.932051 14.543681 -12.051778 22.891089 -0.843988 2.125255 0.065228 -0.035216 809102.000000 0 1 0
-14.287151 14.760781 -11.658378 23.620354 -0.801702 2.086990 0.061124 -0.033654 686483.000000 0 1 0
-15.256551 13.811581 -12.102578 23.874558 -0.735729 2.102408 0.059606 -0.025863 -529346.000000 0 1 0
-16.647851 14.224581 -11.550178 24.756742 -0.707066 2.056179 0.030704 -0.013697 -612102.000000 0 1 0
-17.706851 13.471481 -11.978878 25.268694 -0.650381 2.064693 0.025397 -0.014523 -1106660.000000 0 0 1
-18.857951 13.812381 -11.271478 25.950923 -0.632170 2.020100 0.083617 -0.020117 -524203.000000 0 0 1
-20.148651 13.264581 -11.904278 26.900355 -0.582213 2.029217 0.082623 -0.028599 -311543.000000 0 0 1
-20.367651 11.859981 -11.732978 26.327992 -0.527299 2.032693 0.095909 -0.027963 -672677.000000 0 0 1
-21.610751 11.458281 -12.157678 27.315305 -0.487524 2.032067 0.141447 -0.024485 -1075030.000000 0 0 1
-22.094451 10.122481 -11.470678 26.873888 -0.429607 2.011785 0.134400 -0.024177 -233303.000000 0 0 1
-21.375951 8.969481 -11.865678 26.041835 -0.397293 2.043886 0.116527 -0.024932 398184.000000 0 0 1
-21.925051 7.832881 -11.250678 25.858067 -0.343125 2.020938 0.110125 -0.018424 95753.800000 0 0 1
-20.985651 6.596981 -11.448278 24.798806 -0.304576 2.050647 0.132229 -0.018419 118830.000000 0 1 0
-21.057551 5.915681 -12.677778 25.281254 -0.273870 2.096093 0.145439 -0.019487 189586.000000 0 0 1
-20.146951 4.843781 -12.651778 24.278166 -0.235944 2.118956 0.164622 -0.027957 -148881.000000 0 1 0
-20.370751 3.774981 -13.762978 24.872425 -0.183235 2.157168 0.183192 -0.041585 -483692.000000 0 1 0
-21.424951 2.894181 -13.489578 25.482808 -0.134272 2.128642 0.166585 -0.043289 94027.700000 0 0 1
-21.163751 1.724381 -14.233578 25.563110 -0.081298 2.161327 0.148428 -0.049251 -450003.000000 0 0 1
-22.067751 0.547281 -13.949778 26.112860 -0.024795 2.134371 0.171835 -0.042999 -509107.000000 0 0 1
-23.289351 0.673381 -14.644278 27.519124 -0.028906 2.131933 0.131892 -0.041844 -269323.000000 0 0 1
-23.988051 -0.505319 -14.486978 28.027745 0.021062 2.113999 0.126011 -0.054312 -799597.000000 0 0 1
-25.277181 -0.642819 -15.277078 29.542143 0.025425 2.114289 0.124170 -0.048016 689479.000000 0 0 1
-26.456331 -0.036519 -14.669878 30.251349 0.001380 2.077083 0.154355 -0.060006 1684960.000000 0 0 1
-27.669431 -0.571219 -15.259378 31.603359 0.020641 2.074692 0.136693 -0.045866 1313150.000000 0 0 1
-28.918581 -0.182319 -14.401978 32.306881 0.006304 2.032849 0.156638 -0.044875 60971.000000 0 0 1
-28.802031 -0.691819 -13.099478 31.648569 0.024015 1.997535 0.172698 -0.044247 421677.000000 0 0 1
-29.919971 -0.253419 -12.327678 32.361096 0.008470 1.961610 0.204780 -0.043372 417300.000000 0 0 1
-30.005251 -0.782219 -10.854778 31.917913 0.026063 1.917803 0.194158 -0.048263 -221001.000000 0 0 1
-30.362241 -2.139719 -10.633878 32.241641 0.070357 1.906907 0.203008 -0.045053 999934.000000 0 0 1
-29.388911 -3.140919 -11.066578 31.560143 0.106470 1.929062 0.208893 -0.047777 369327.000000 0 0 1
-29.714261 -4.593219 -10.658478 31.900441 0.153366 1.911465 0.208585 -0.049397 -1046620.000000 0 0 1
-30.817391 -5.129619 -11.268178 33.211390 0.164940 1.916955 0.198966 -0.037269 -539140.000000 0 0 1
-31.188351 -6.462119 -11.026778 33.705520 0.204306 1.904083 0.201773 -0.035683 345793.000000 0 0 1
-30.188241 -7.466319 -11.674678 33.217073 0.242460 1.929933 0.205496 -0.038043 387984.000000 0 0 1
-28.871121 -7.557719 -11.175878 31.867868 0.256029 1.929109 0.155356 -0.025691 309987.000000 0 0 1
-28.148861 -8.629019 -11.820378 31.726009 0.297455 1.952581 0.155390 -0.026662 -160328.000000 0 0 1
-26.663161 -8.667719 -11.465078 30.290287 0.314306 1.958979 0.148107 -0.034131 -732103.000000 0 0 1
-25.906471 -7.560019 -11.902178 29.495101 0.283935 1.986169 0.124809 -0.030295 1035340.000000 0 0 1
-24.530651 -7.424919 -11.534778 28.105753 0.293913 1.993696 0.113384 -0.043340 484548.000000 0 0 1
-24.311151 -7.165819 -10.028278 27.257061 0.286637 1.947562 0.116863 -0.046826 -751198.000000 0 0 1
-24.683351 -5.875819 -9.531878 27.104423 0.233698 1.930153 0.124864 -0.033143 767814.000000 0 0 1
-26.083631 -5.812019 -9.300278 28.295415 0.219241 1.905707 0.135902 -0.038329 -171795.000000 0 0 1
-26.488131 -4.515119 -8.556478 28.199658 0.168835 1.879081 0.152940 -0.042095 -439535.000000 0 0 1
-26.219481 -4.504019 -7.222078 27.566389 0.170121 1.835878 0.155111 -0.037437 273891.000000 0 0 1
-26.511761 -3.275919 -6.604378 27.517684 0.122942 1.813167 0.191368 -0.047887 -157209.000000 0 0 1
-26.150281 -3.246419 -5.127278 26.845212 0.123513 1.762971 0.193319 -0.040920 -230363.000000 0 0 1
-24.773751 -3.453019 -4.930978 25.494639 0.138490 1.765435 0.142500 -0.031300 -40736.200000 0 0 1
-24.472051 -3.317119 -3.544878 24.948962 0.134726 1.713364 0.105579 -0.026601 609498.000000 0 1 0
-22.973251 -3.592119 -3.185278 23.469546 0.155105 1.706936 0.090151 -0.022150 441295.000000 0 1 0
-22.675351 -4.919419 -2.807278 23.372057 0.213639 1.691200 0.102304 -0.019754 342095.000000 0 1 0
-21.331451 -5.133219 -2.435678 22.075173 0.236151 1.681357 0.077023 -0.018626 -377505.000000 0 1 0
-21.145551 -6.653819 -2.343878 22.291285 0.304858 1.676139 0.083029 -0.023106 -273860.000000 0 1 0
-21.735151 -7.311219 -1.246978 22.965750 0.324488 1.625120 0.083205 -0.012970 442903.000000 0 1 0
-22.585651 -8.389919 -1.602978 24.146882 0.355673 1.637230 0.105375 -0.029187 114976.000000 0 1 0
-23.012751 -9.191519 -0.299478 24.782260 0.379997 1.582881 0.120352 -0.033058 119112.000000 0 1 0
-21.923551 -9.892619 0.289222 24.053890 0.423878 1.558772 0.093920 -0.022611 425097.000000 0 1 0
-22.333751 -10.670219 1.377522 24.790070 0.445700 1.515200 0.074158 -0.020552 -200543.000000 0 1 0
-21.154951 -11.292619 2.127622 24.074508 0.490324 1.482304 0.074804 -0.020307 -291088.000000 0 1 0
-20.555751 -12.346319 1.424122 24.020795 0.540880 1.511474 0.078783 -0.016912 -37397.900000 0 1 0
-19.367651 -12.769019 2.026022 23.286445 0.582883 1.483682 0.055458 -0.014770 -462874.000000 0 1 0
-18.623051 -13.808919 1.208422 23.215610 0.638036 1.518721 0.049780 -0.010293 -245705.000000 0 1 0
-19.439151 -14.949319 0.969322 24.541848 0.655570 1.531289 0.070389 -0.007770 765829.000000 0 1 0
-18.796051 -15.993319 0.186322 24.680204 0.705009 1.563247 0.062761 -0.017315 436560.000000 0 1 0
-17.724551 -16.892019 0.907922 24.501517 0.761353 1.533732 0.070668 -0.007856 1327050.000000 0 1 0
-16.447451 -16.183019 0.935622 23.092945 0.777294 1.530270 0.057004 -0.007722 1833010.000000 0 1 0
-15.354051 -16.843119 1.614622 22.848294 0.831614 1.500070 0.062742 -0.011785 1061100.000000 0 1 0
-15.392651 -16.525719 3.121822 22.798659 0.820882 1.433435 0.076924 -0.019461 -220968.000000 0 1 0
-14.942051 -15.235119 3.459922 21.618159 0.795109 1.410058 0.049913 -0.020973 23870.000000 0 1 0
-14.260651 -15.200419 4.727422 21.372118 0.817286 1.347756 0.043161 -0.019046 -59500.100000 0 1 0
-15.008151 -15.579319 6.037822 22.459186 0.804069 1.298613 0.070295 -0.022900 -1214980.000000 0 1 0
-15.788951 -14.555419 6.546622 22.450155 0.744769 1.274890 0.066798 -0.026743 -159539.000000 0 1 0
-16.158051 -14.779319 7.903622 23.280423 0.740862 1.224415 0.082294 -0.028363 270666.000000 0 1 0
-17.128151 -15.970619 8.300822 24.846285 0.750440 1.230160 0.071516 -0.015892 -224512.000000 0 1 0
-16.500951 -17.237119 8.178422 25.224715 0.807215 1.240607 0.063906 -0.011358 301386.000000 0 0 1
-17.268551 -18.365019 8.654822 26.653005 0.816159 1.240078 0.082406 -0.020235 226423.000000 0 0 1
-16.974451 -18.743019 10.153422 27.249306 0.834873 1.188974 0.079832 -0.014744 323875.000000 0 0 1
-15.611251 -19.130219 10.253322 26.735875 0.886344 1.177209 0.059281 -0.010003 303763.000000 0 0 1
-15.324651 -19.420319 11.644422 27.342024 0.902735 1.130862 0.063177 -0.012316 954066.000000 0 0 1
-13.950251 -20.180819 11.807022 27.226471 0.965958 1.122246 0.062923 -0.009927 428294.000000 0 0 1
-12.795251 -19.421919 11.692322 26.031515 0.988256 1.104971 0.064140 -0.013489 -1298600.000000 0 0 1
-11.678251 -20.265819 11.714922 26.159594 1.048020 1.106465 0.069283 -0.014811 -669356.000000 0 0 1
-10.470751 -19.460319 12.167222 25.226611 1.077169 1.067499 0.072144 -0.013772 -219618.000000 0 0 1
-9.712951 -18.789119 11.129122 23.900413 1.093684 1.086432 0.068556 -0.013989 360270.000000 0 1 0
-8.676751 -18.010319 11.723022 23.175134 1.121842 1.040435 0.065258 -0.011767 458129.000000 0 1 0
-7.681851 -17.417019 10.699922 21.836934 1.155407 1.058716 0.047707 -0.012806 -183843.000000 0 1 0
-6.709451 -18.240219 10.160322 21.930674 1.218319 1.089089 0.046569 -0.013651 -727825.000000 0 1 0
-5.876851 -17.463319 9.360222 20.666848 1.246176 1.100770 0.038730 -0.008440 140350.000000 0 1 0
-4.758551 -18.208819 8.555922 20.673865 1.315181 1.144115 0.038636 -0.012678 514926.000000 0 1 0
-3.588151 -18.399019 9.310822 20.930602 1.378195 1.109798 0.045669 -0.005586 -794878.000000 0 1 0
-2.534751 -18.847819 8.535222 20.845029 1.437113 1.148933 0.047925 -0.009947 -226525.000000 0 1 0
-1.179551 -18.935219 9.258322 21.110433 1.508583 1.116794 0.054069 -0.016290 108311.000000 0 1 0
-0.162251 -19.554719 8.500322 21.322965 1.562499 1.160756 0.051895 -0.005702 -235270.000000 0 1 0
0.997249 -19.799819 9.283222 21.890764 -1.520472 1.132861 0.052134 -0.005909 189936.000000 0 1 0
2.147449 -20.333719 8.405022 22.106923 -1.465576 1.180785 0.061406 -0.024686 -66416.800000 0 1 0
1.999149 -21.688319 7.966322 23.191422 -1.478880 1.220152 0.062788 -0.019564 -227054.000000 0 1 0
2.200649 -22.657619 8.951522 24.460995 -1.473974 1.196142 0.077216 -0.023347 -296349.000000 0 1 0
1.804649 -23.998119 8.411522 25.493532 -1.495738 1.234549 0.065117 -0.029010 7759.450000 0 0 1
1.675549 -24.930119 9.448122 26.713017 -1.503687 1.209283 0.083557 -0.034194 -200485.000000 0 0 1
1.080949 -26.114439 9.055922 27.661202 -1.529427 1.237259 0.089464 -0.030490 -1029610.000000 0 0 1
1.127549 -27.187709 10.162922 29.046994 -1.529347 1.213355 0.114812 -0.037931 186170.000000 0 0 1
0.401549 -26.839219 11.330622 29.135681 -1.555836 1.171368 0.098683 -0.048606 659385.000000 0 0 1
-1.023051 -26.957219 11.150322 29.190203 1.532864 1.178849 0.093690 -0.039052 774365.000000 0 0 1
-1.739951 -27.256309 12.507322 30.039422 1.507046 1.141354 0.091793 -0.044455 113938.000000 0 0 1
-1.346051 -28.570039 12.907422 31.379300 1.523717 1.146877 0.080529 -0.051204 -23873.100000 0 0 1
-1.870451 -28.823439 14.188522 32.180792 1.505994 1.114195 0.077933 -0.059708 -465435.000000 0 0 1
-1.090651 -29.868489 14.994022 33.438553 1.534297 1.105816 0.060818 -0.039050 20179.000000 0 0 1
-1.228951 -29.512089 16.345922 33.758893 1.529178 1.065352 0.078113 -0.042176 755535.000000 0 0 1
-0.348651 -30.280099 17.224022 34.837808 1.559283 1.053645 0.085705 -0.032550 304245.000000 0 0 1
-0.692851 -29.916079 18.683422 35.277784 1.547641 1.012657 0.094834 -0.032901 305917.000000 0 0 1
-2.021751 -30.239399 19.064522 35.804535 1.504038 1.009291 0.062292 -0.028651 356466.000000 0 0 1
-2.463951 -29.783189 20.342122 36.151228 1.488255 0.973154 0.086776 -0.037160 776446.000000 0 0 1
-3.989951 -29.962219 20.680322 36.624172 1.438409 0.970771 0.099714 -0.043688 727046.000000 0 0 1
-4.826851 -29.118559 19.909422 35.603006 1.406525 0.977368 0.076199 -0.041252 -56668.400000 0 0 1
-6.137451 -28.910749 20.388522 35.905313 1.361612 0.966915 0.091065 -0.045870 267869.000000 0 0 1
-6.330751 -27.778759 21.426622 35.648814 1.346724 0.925986 0.135312 -0.048488 -796896.000000 0 0 1
-5.758251 -28.144169 22.653422 36.584549 1.368983 0.903063 0.129643 -0.047752 -11931.600000 0 0 1
-5.903351 -27.144829 23.634322 36.472900 1.356655 0.865845 0.152824 -0.047661 -320677.000000 0 0 1
-4.891851 -27.338199 24.801122 37.234432 1.393732 0.841855 0.160066 -0.045665 108248.000000 0 0 1
-5.035551 -28.553219 25.556422 38.649369 1.396235 0.848329 0.153623 -0.043642 309577.000000 0 0 1
-4.151251 -29.598109 25.126522 39.046421 1.431451 0.871729 0.143707 -0.046643 246051.000000 0 0 1
-4.165451 -30.805539 26.098622 40.589041 1.436394 0.872392 0.139200 -0.039433 68564.700000 0 0 1
-3.635751 -30.575039 27.369722 41.196521 1.452440 0.844146 0.140227 -0.043655 -29792.200000 0 0 1
-3.863751 -31.747059 28.128822 42.591489 1.449688 0.849401 0.128901 -0.040458 80448.200000 0 0 1
-3.217251 -31.705249 29.578822 43.479653 1.469669 0.822637 0.149580 -0.038344 163249.000000 0 0 1
-1.823951 -31.910509 29.535522 43.519586 1.513700 0.824843 0.143139 -0.038396 -38937.500000 0 0 1
-1.260351 -32.013239 30.815622 44.452654 1.531447 0.804844 0.144497 -0.035484 -438057.000000 0 0 1
-29.174761 2.449881 -9.045778 30.643020 -0.083776 1.870460 0.167645 -0.035452 -283620.000000 0 0 1
-29.909811 2.244781 -10.223278 31.688346 -0.074911 1.899292 0.162521 -0.038301 97989.700000 0 0 1
-30.533881 3.432381 -10.681978 32.530044 -0.111942 1.905377 0.153536 -0.040097 161300.000000 0 0 1
-31.353781 3.399881 -12.015878 33.749076 -0.108014 1.934819 0.157068 -0.045570 -207170.000000 0 0 1
-32.413451 2.496581 -11.873978 34.610057 -0.076871 1.920989 0.180981 -0.050334 -154962.000000 0 0 1
-33.243121 2.652781 -13.035578 35.805986 -0.079631 1.943421 0.171739 -0.042080 -95820.800000 0 0 1
-34.580479 1.908081 -12.934678 36.969666 -0.055122 1.928232 0.152810 -0.034741 -323058.000000 0 0 1
-34.452307 0.504581 -12.738878 36.735474 -0.014645 1.924925 0.171261 -0.033755 473823.000000 0 0 1
-35.670697 -0.149219 -12.358778 37.751295 0.004183 1.904319 0.148969 -0.026781 718489.000000 0 0 1
-35.397777 -1.662619 -12.057878 37.432063 0.046935 1.898772 0.167049 -0.030138 82770.700000 0 0 1
-35.284816 -2.542119 -13.143978 37.739167 0.071921 1.926537 0.165514 -0.022732 143302.000000 0 0 1
-34.918183 -3.810819 -12.657478 37.336491 0.108705 1.916662 0.184640 -0.029947 1382.070000 0 0 1
-34.833713 -4.942219 -13.746878 37.772870 0.140940 1.943286 0.178028 -0.024170 46107.100000 0 0 1
-34.750247 -6.240519 -13.169678 37.682412 0.177688 1.927825 0.179510 -0.033402 201187.000000 0 0 1
-35.220246 -7.255519 -14.028678 38.599379 0.203162 1.942757 0.170045 -0.024830 -840916.000000 0 0 1
-35.133246 -8.637819 -13.351178 38.564373 0.241077 1.924319 0.165466 -0.027128 -98610.000000 0 0 1
-33.877281 -9.238419 -13.117478 37.484487 0.266229 1.928308 0.161920 -0.023040 284532.000000 0 0 1
-33.045911 -9.378419 -14.250378 37.189518 0.276529 1.964036 0.153341 -0.027206 -999250.000000 0 0 1
-31.911321 -10.352419 -14.006978 36.355198 0.313700 1.966309 0.157411 -0.032847 -380094.000000 0 0 1
-32.355831 -11.713319 -14.097278 37.186488 0.347339 1.959616 0.143226 -0.027345 565105.000000 0 0 1
-31.279861 -12.606219 -13.775278 36.429449 0.383102 1.958578 0.169671 -0.025524 324328.000000 0 0 1
-31.406281 -14.006019 -14.381778 37.274101 0.419491 1.966913 0.177962 -0.029931 -394418.000000 0 0 1
-31.151221 -13.891819 -15.762578 37.574460 0.419479 2.003693 0.171257 -0.035448 -44395.700000 0 0 1
-31.140731 -15.145719 -16.404878 38.317854 0.452679 2.013215 0.168680 -0.041156 -307491.000000 0 0 1
-30.106371 -16.245819 -16.090278 37.804990 0.494834 2.010435 0.149872 -0.036313 -115558.000000 0 0 1
-28.800751 -15.805519 -16.391778 36.714957 0.501913 2.033602 0.152264 -0.039873 -929846.000000 0 0 1
-27.845301 -16.768319 -16.199978 36.317717 0.542032 2.033158 0.149970 -0.047200 1795.880000 0 0 1
-26.373061 -16.346819 -16.463778 35.125672 0.554873 2.058627 0.137784 -0.056620 412356.000000 0 0 1
-26.119181 -16.091519 -17.784778 35.460498 0.552160 2.096172 0.128636 -0.056132 -980373.000000 0 0 1
-24.803051 -15.899219 -18.162678 34.610105 0.570036 2.123253 0.088695 -0.043639 -1408860.000000 0 0 1
-24.658051 -15.480219 -19.589678 35.091482 0.560607 2.163066 0.090047 -0.039919 -92221.100000 0 0 1
-25.085001 -16.312619 -20.645978 36.354026 0.576582 2.174766 0.082247 -0.050915 1738610.000000 0 0 1
-26.537031 -16.284019 -20.802278 37.444867 0.550384 2.159814 0.086325 -0.058485 916400.000000 0 0 1
-27.165601 -17.416319 -21.521478 38.787524 0.570105 2.158986 0.096965 -0.053900 -384036.000000 0 0 1
-26.687251 -17.565519 -22.818778 39.261348 0.582117 2.191001 0.094238 -0.034232 374005.000000 0 0 1
-27.432231 -18.640719 -23.424678 40.604424 0.596848 2.185724 0.093904 -0.025571 -56395.900000 0 0 1
-27.177241 -19.013119 -24.929278 41.491807 0.610456 2.215328 0.093261 -0.021356 -272805.000000 0 0 1
-25.857591 -19.332319 -25.270408 40.999355 0.641993 2.234910 0.089429 -0.023558 -194322.000000 0 0 1
-25.375121 -20.632019 -24.823278 41.058155 0.682666 2.220045 0.068304 -0.010551 -1536120.000000 0 0 1
-23.903351 -20.852819 -24.788878 40.257902 0.717344 2.234136 0.059399 -0.003891 -1356960.000000 0 0 1
-23.151551 -20.754919 -25.961548 40.506332 0.730867 2.266500 0.065255 -0.013690 -824285.000000 0 0 1
-21.809251 -20.944019 -25.634768 39.641351 0.765163 2.274004 0.060309 -0.015640 -504003.000000 0 0 1
-20.911451 -20.848719 -26.904248 39.947421 0.783896 2.309718 0.070640 -0.021431 -237688.000000 0 0 1
-20.924651 -21.928719 -27.842228 41.157009 0.808824 2.313780 0.083401 -0.012487 -781922.000000 0 0 1
-21.836251 -21.790719 -28.865478 42.247758 0.784354 2.322991 0.099105 -0.015321 -439834.000000 0 0 1
-21.216051 -21.874119 -30.276308 42.956405 0.800669 2.352958 0.099852 -0.029122 76983.700000 0 0 1
-21.111651 -23.211619 -30.772518 43.948025 0.832741 2.346477 0.088735 -0.029566 136664.000000 0 0 1
-20.402451 -23.199919 -32.002238 44.481900 0.849469 2.373798 0.089352 -0.026996 306535.000000 0 0 1
-20.040551 -24.669719 -32.577578 45.513924 0.888568 2.368525 0.087464 -0.028473 557651.000000 0 0 1
-19.149151 -24.685019 -33.718028 45.966787 0.911024 2.394298 0.082451 -0.034308 77680.500000 0 0 1
-19.774651 -24.511119 32.898452 45.542726 0.891945 0.763581 0.092951 -0.038663 -796616.000000 0 0 1
-18.916551 -24.165719 31.665785 44.096937 0.906641 0.769735 0.093665 -0.035309 -498355.000000 0 0 1
-18.327851 -22.898019 31.639185 43.142409 0.895804 0.747536 0.072678 -0.033334 -530211.000000 0 0 1
-17.617351 -22.810619 30.410615 41.898698 0.913156 0.758581 0.066964 -0.029166 159594.000000 0 0 1
-16.755851 -21.507119 30.344535 40.793449 0.908940 0.731972 0.049211 -0.016750 -77482.900000 0 0 1
-17.501451 -20.303319 30.225415 40.399273 0.859377 0.725501 0.062806 -0.021894 -319282.000000 0 0 1
-16.784251 -19.131419 29.877865 39.248046 0.850658 0.705546 0.060993 -0.017198 -183926.000000 0 0 1
-15.990751 -18.525819 31.057765 39.541053 0.858711 0.667363 0.060905 -0.014165 -158725.000000 0 0 1
-15.495951 -17.250419 30.803425 38.555836 0.838924 0.645282 0.062824 -0.013824 -322318.000000 0 0 1
-14.686951 -16.873619 31.914070 38.973496 0.854572 0.611364 0.057892 -0.013710 35858.900000 0 0 1
-14.123251 -15.484819 31.644305 37.955341 0.831352 0.584977 0.049396 -0.015892 -328263.000000 0 0 1
-13.244251 -15.333019 30.533745 36.644526 0.858360 0.585851 0.055899 -0.024321 130631.000000 0 0 1
-12.615851 -14.094619 30.517425 35.904474 0.840705 0.554884 0.044904 -0.027428 -159184.000000 0 0 1
-11.597351 -13.905919 29.337235 34.475303 0.875673 0.552979 0.043161 -0.020481 575496.000000 0 0 1
-10.957051 -12.635419 29.359015 33.788497 0.856418 0.517809 0.057467 -0.025291 -270515.000000 0 0 1
-9.744651 -12.615919 30.061995 34.027095 0.913107 0.487573 0.060247 -0.025887 -327461.000000 0 0 1
-9.132651 -11.202019 30.271645 33.544941 0.886815 0.445441 0.056766 -0.015119 19058.100000 0 0 1
-9.893751 -10.433819 31.192155 34.346782 0.811960 0.431944 0.050458 -0.010294 109806.000000 0 0 1
-9.684551 -9.037219 31.117775 33.819784 0.750835 0.402446 0.041000 -0.012049 -422692.000000 0 0 1
-10.575651 -8.252019 32.044071 34.738490 0.662603 0.396451 0.029451 -0.014406 -989118.000000 0 0 1
-11.874951 -8.017019 31.610695 34.706240 0.593832 0.425561 0.036846 -0.018859 -370535.000000 0 0 1
-12.726251 -7.268219 32.494948 35.646965 0.518914 0.423693 0.036226 -0.021823 131889.000000 0 0 1
-12.329451 -5.827719 32.909187 35.622917 0.441543 0.392853 0.031660 -0.018398 -572215.000000 0 0 1
-12.543651 -4.900519 31.847145 34.577434 0.372444 0.400058 0.033451 -0.022663 175593.000000 0 0 1
-12.758951 -3.633119 32.368674 34.981730 0.277408 0.388964 0.036145 -0.025341 -275296.000000 0 0 1
-12.127151 -2.437619 31.631065 33.963717 0.198362 0.372778 0.043618 -0.022060 626482.000000 0 0 1
-10.701051 -2.336319 31.640695 33.482898 0.214953 0.333260 0.048342 -0.024055 600954.000000 0 0 1
-10.243251 -1.361419 30.733605 32.424253 0.132134 0.324348 0.049441 -0.017484 -546108.000000 0 0 1
-8.755551 -1.047919 30.827455 32.063840 0.119120 0.278605 0.045471 -0.014922 -439465.000000 0 0 1
-8.448951 -0.499419 32.073572 33.171497 0.059041 0.258003 0.063442 -0.030296 -743193.000000 0 0 1
-7.139551 -0.034219 32.163260 32.946163 0.004793 0.218439 0.085804 -0.031889 -574424.000000 0 0 1
-6.757651 0.618681 33.541636 34.221192 -0.091298 0.199619 0.121912 -0.044746 -319786.000000 0 0 1
-7.295551 1.876981 33.908975 34.735670 -0.251816 0.218607 0.121401 -0.034213 -17707.500000 0 0 1
-6.732551 2.966781 33.187004 33.992739 -0.415062 0.218162 0.123287 -0.032096 -52620.500000 0 0 1
-7.505751 4.282381 33.349912 34.451295 -0.518481 0.253539 0.108330 -0.026385 -340389.000000 0 0 1
-8.726951 4.229081 32.668558 34.077551 -0.451252 0.288565 0.084031 -0.013604 -425115.000000 0 0 1
-9.509251 5.341381 33.066678 34.818981 -0.511784 0.318603 0.067026 -0.002075 -48647.400000 0 0 1
-10.876351 5.362781 32.338146 34.537084 -0.458087 0.358765 0.051288 -0.000740 -110284.000000 0 0 1
-11.498551 6.625081 32.479862 35.086320 -0.522711 0.387880 0.063584 -0.001760 -209543.000000 0 0 1
-12.476551 6.686181 31.464355 34.501812 -0.491953 0.422754 0.034921 0.000625 -494150.000000 0 0 1
-13.374051 7.910181 31.500405 35.124233 -0.534115 0.458249 0.056448 -0.004242 -220449.000000 0 0 1
-14.260551 7.911881 32.618210 36.467915 -0.506528 0.463628 0.054155 -0.001777 249282.000000 0 0 1
-14.864451 9.205781 32.691651 37.073473 -0.554501 0.491116 0.056523 0.003439 505175.000000 0 0 1
-15.874451 9.389381 33.905535 38.597202 -0.534129 0.498197 0.054296 0.003849 692822.000000 0 0 1
-15.270851 9.288781 -32.685788 37.253739 -0.546477 2.641176 0.061793 0.000761 98033.700000 0 0 1
-16.220651 9.594581 -31.669958 36.853111 -0.534149 2.604806 0.071677 0.002002 -575793.000000 0 0 1
-15.484951 9.756081 -30.363628 35.452993 -0.562213 2.599145 0.090253 -0.008514 -332343.000000 0 0 1
-14.817451 10.942381 -30.181528 35.358411 -0.636087 2.593631 0.085205 -0.010910 675455.000000 0 0 1
-13.477051 10.936881 -30.722588 35.286310 -0.681725 2.627351 0.091442 -0.018379 842208.000000 0 0 1
-12.593351 12.211481 -30.625758 35.293765 -0.770004 2.621430 0.089314 -0.020291 219860.000000 0 0 1
-12.916151 13.182581 -31.667988 36.653361 -0.795606 2.613929 0.078843 -0.018278 -9773.530000 0 0 1
-12.100351 14.330981 -31.810918 36.928716 -0.869592 2.608844 0.077270 -0.028687 -204190.000000 0 0 1
-12.230551 15.459481 -30.740938 36.518313 -0.901484 2.571397 0.085131 -0.029263 1258450.000000 0 0 1
-13.415051 16.255381 -31.101078 37.569643 -0.880837 2.546015 0.074548 -0.029029 1453270.000000 0 0 1
-13.745551 17.144581 -30.040028 37.219352 -0.894993 2.510033 0.059708 -0.018359 632741.000000 0 0 1
-15.194451 17.733581 -30.238788 38.206486 -0.862357 2.483985 0.052826 -0.020895 214822.000000 0 0 1
-15.283351 18.656981 -31.320398 39.530129 -0.884472 2.485394 0.055247 -0.022868 -35597.600000 0 0 1
-16.622151 19.006681 -31.570338 40.425686 -0.852225 2.466978 0.052240 -0.021378 24372.500000 0 0 1
-17.275851 19.989581 -30.588608 40.419071 -0.858092 2.429179 0.042269 -0.021494 -740021.000000 0 0 1
-16.671151 21.260281 -30.671918 40.874117 -0.905798 2.419463 0.044488 -0.017249 274458.000000 0 0 1
-17.319951 22.312381 -29.957418 41.173656 -0.910707 2.385594 0.028547 -0.012946 277962.000000 0 0 1
-18.594951 22.895581 -30.648138 42.535729 -0.888683 2.375358 0.046907 -0.011850 -13868.100000 0 0 1
-19.752651 22.138981 -30.427048 42.498317 -0.842301 2.368793 0.059024 -0.012753 82143.000000 0 0 1
-20.743951 22.534381 -31.388178 43.855759 -0.826745 2.368442 0.083633 -0.022150 -966764.000000 0 0 1
-21.978651 21.647681 -31.501908 44.091421 -0.777812 2.366660 0.078452 -0.024007 -163961.000000 0 0 1
-22.988851 22.045781 -30.543548 44.129492 -0.764460 2.335239 0.100872 -0.027836 494117.000000 0 0 1
-23.860551 23.022181 -31.018198 45.403473 -0.767518 2.322888 0.094282 -0.026997 -841985.000000 0 0 1
-25.210321 22.486381 -31.553698 46.225896 -0.728351 2.322108 0.091153 -0.027847 -360227.000000 0 0 1
-25.042451 21.909581 -32.801428 46.723525 -0.718772 2.349044 0.108054 -0.030064 705760.000000 0 0 1
-26.303991 21.540581 -33.355738 47.628792 -0.686165 2.346652 0.111491 -0.030557 326682.000000 0 0 1
-26.178041 20.555381 33.304871 47.085327 -0.665660 0.785082 0.116358 -0.021644 -113701.000000 0 0 1
-25.947641 19.225181 33.726801 46.694591 -0.637666 0.763696 0.108642 -0.026128 340107.000000 0 0 1
-25.473531 18.377381 32.689906 45.334963 -0.624965 0.765444 0.102505 -0.032574 -369409.000000 0 0 1
-24.795151 17.055581 33.122227 44.752367 -0.602531 0.737544 0.088530 -0.022466 -458192.000000 0 0 1
-25.586211 15.968881 33.552063 45.115411 -0.557967 0.732217 0.083397 -0.013517 472111.000000 0 0 1
-26.188001 15.200281 32.497988 44.418230 -0.525905 0.750077 0.084463 -0.013178 -11140.400000 0 0 1
-27.191171 14.042481 32.787880 44.850821 -0.476709 0.750947 0.058466 -0.007585 297865.000000 0 0 1
-28.531661 14.448581 33.079758 46.011820 -0.468759 0.768520 0.060022 -0.003875 449777.000000 0 0 1
-29.473811 13.403781 33.051492 46.268435 -0.426813 0.775113 0.038772 0.003495 -235265.000000 0 0 1
-29.357751 12.269081 -33.740568 46.377083 -0.395855 2.385506 0.033336 -0.002691 -468533.000000 0 0 1
-28.288541 11.341481 -33.805908 45.516043 -0.381300 2.407927 0.031701 -0.014098 132975.000000 0 0 1
-28.774261 10.002581 33.823610 45.519736 -0.334555 0.733174 0.044508 -0.007193 -328812.000000 0 0 1
-27.640581 8.948181 -33.874708 44.626982 -0.313086 2.432670 0.037057 -0.013756 775601.000000 0 0 1
-26.694931 8.760781 32.914362 43.275003 -0.317107 0.706581 0.035241 -0.015673 426949.000000 0 0 1
-25.739791 9.780781 32.889578 42.894345 -0.363135 0.697021 0.029387 -0.016049 -1622620.000000 0 0 1
-24.462151 9.379681 32.167149 41.486151 -0.366146 0.683494 0.036347 -0.011859 -715681.000000 0 0 1
-24.612251 9.169781 30.777035 40.460767 -0.356638 0.706461 0.042154 -0.012042 303815.000000 0 0 1
-23.363651 9.045181 30.110615 39.170456 -0.369378 0.693979 0.064101 -0.013650 339219.000000 0 0 1
-23.499351 8.804281 28.575385 38.030087 -0.358473 0.720632 0.099107 -0.027435 202292.000000 0 0 1
-24.051951 9.961581 27.879595 38.144479 -0.392661 0.751164 0.089290 -0.025248 405739.000000 0 0 1
-23.871751 9.885981 26.469445 36.989521 -0.392627 0.773324 0.092237 -0.028632 -829232.000000 0 0 1
-24.223051 11.213381 25.739255 37.081065 -0.433548 0.803579 0.087174 -0.023189 248419.000000 0 0 1
-25.470051 11.808581 26.046535 38.296059 -0.434127 0.822848 0.092658 -0.021855 398896.000000 0 0 1
-26.573551 11.097981 25.449715 38.431846 -0.395614 0.847040 0.107435 -0.017753 138231.000000 0 0 1
-27.913521 11.830681 25.738055 39.769048 -0.400882 0.866906 0.091142 -0.018488 84440.600000 0 0 1
-27.880161 12.996381 24.945615 39.604205 -0.436204 0.889407 0.102372 -0.023823 -37033.800000 0 0 1
-28.911121 13.903581 25.272305 40.839343 -0.448257 0.903553 0.087217 -0.022916 65831.800000 0 0 1
-28.898491 15.193781 24.376765 40.745558 -0.484046 0.929458 0.094709 -0.022406 -851207.000000 0 0 1
-27.862991 16.012381 24.750165 40.562462 -0.521596 0.914516 0.112035 -0.026360 -773367.000000 0 0 1
-27.938121 17.305081 24.138165 40.775673 -0.554568 0.937290 0.089784 -0.027106 -399176.000000 0 0 1
-22.594251 -9.150319 31.769535 40.044124 0.384796 0.654482 0.095150 -0.029190 -462398.000000 0 0 1
-21.702051 -8.982219 30.705985 38.658981 0.392421 0.652978 0.091791 -0.032050 -702601.000000 0 0 1
-22.281251 -9.199019 29.492335 38.090339 0.391542 0.685230 0.088710 -0.027661 -242518.000000 0 0 1
-21.414351 -8.733519 28.292195 36.541717 0.387242 0.685277 0.095651 -0.037865 -711041.000000 0 0 1
-21.164351 -7.324719 28.247995 36.049001 0.333185 0.670357 0.090944 -0.040144 -401770.000000 0 0 1
-20.052151 -6.796919 28.926025 35.846922 0.326808 0.631857 0.085471 -0.038355 278443.000000 0 0 1
-18.691851 -7.104519 28.184455 34.557532 0.363223 0.617064 0.092791 -0.037720 -425758.000000 0 0 1
-18.291951 -8.441119 28.018815 34.509448 0.432348 0.623367 0.089069 -0.038448 -125797.000000 0 0 1
-17.727351 -9.121419 29.118705 35.289634 0.475211 0.600356 0.074810 -0.033827 -155733.000000 0 0 1
-16.295251 -8.686219 29.519035 34.818947 0.489738 0.558999 0.052475 -0.031701 -645658.000000 0 0 1
-15.252751 -9.102519 28.699925 33.751859 0.538048 0.554201 0.043904 -0.023349 -28765.200000 0 0 1
-14.015351 -8.760119 29.363645 33.695599 0.558626 0.512669 0.039354 -0.029033 1105730.000000 0 0 1
-12.830451 -9.659019 28.884045 33.048528 0.645303 0.507445 0.041960 -0.025938 165821.000000 0 0 1
-12.343351 -9.391119 27.608305 31.666543 0.650393 0.511840 0.067767 -0.028852 -1252170.000000 0 0 1
-11.198151 -10.056219 27.311065 31.183656 0.731723 0.503678 0.065746 -0.028895 -1003530.000000 0 0 1
-10.766451 -9.736119 25.841715 29.639547 0.735187 0.511797 0.054336 -0.028281 206776.000000 0 0 1
-11.564251 -10.456219 24.899915 29.378056 0.735122 0.559410 0.066464 -0.034190 106473.000000 0 0 1
-11.367251 -10.041519 23.582115 28.038592 0.723552 0.571558 0.065681 -0.038208 188632.000000 0 0 1
-12.434251 -10.672319 22.656535 27.961180 0.709293 0.626157 0.089147 -0.047676 -829197.000000 0 0 1
-12.397351 -12.088719 22.639835 28.502519 0.772794 0.652925 0.075216 -0.043945 257312.000000 0 0 1
-13.496351 -12.770219 22.036835 28.824505 0.757760 0.700504 0.083698 -0.040450 206381.000000 0 0 1
-14.845151 -12.526819 22.732135 29.900663 0.700903 0.707090 0.102486 -0.041186 -1108780.000000 0 0 1
-15.919651 -13.406719 22.459335 30.620208 0.699918 0.747367 0.094637 -0.036386 628294.000000 0 0 1
-16.978351 -13.015019 23.363865 31.678468 0.654019 0.741389 0.096940 -0.034751 192900.000000 0 0 1
-18.357651 -13.611119 23.059365 32.465370 0.638001 0.780906 0.101527 -0.024053 -338096.000000 0 0 1
-18.389551 -15.017619 23.334185 33.289468 0.684804 0.794071 0.093805 -0.030814 918731.000000 0 0 1
-19.701251 -15.555419 23.035245 34.069530 0.668346 0.828306 0.087630 -0.013416 762960.000000 0 0 1
-20.577751 -15.721719 24.281045 35.499091 0.652411 0.817577 0.098961 -0.017873 -748591.000000 0 0 1
-20.054751 -16.526519 25.275535 36.251504 0.689246 0.799274 0.099086 -0.021043 -182455.000000 0 0 1
-20.817951 -16.556019 26.475485 37.529191 0.671854 0.787719 0.098144 -0.018956 14032.800000 0 0 1
-20.290851 -17.542319 27.540625 38.443954 0.712877 0.772191 0.081181 -0.023024 49764.100000 0 0 1
-20.602451 -18.890019 27.252775 39.038539 0.742064 0.798057 0.082676 -0.018694 46597.400000 0 0 1
-20.191051 -19.783819 28.248665 39.963297 0.775211 0.785740 0.076002 -0.017646 -195805.000000 0 0 1
-20.333251 -21.274519 27.847895 40.516065 0.808017 0.812990 0.071173 -0.014657 273338.000000 0 0 1
-21.678851 -21.725019 27.826485 41.427796 0.786462 0.834314 0.081571 -0.017667 196897.000000 0 0 1
-21.714351 -23.097519 27.556355 42.004299 0.816254 0.855241 0.090569 -0.003737 805133.000000 0 0 1
-23.181451 -23.524219 27.189845 42.779156 0.792737 0.882029 0.095717 0.000057 819664.000000 0 0 1
-24.004951 -23.672019 28.335895 44.040040 0.778415 0.871849 0.094272 -0.004302 -334462.000000 0 0 1
-25.263521 -24.138919 27.920265 44.726660 0.762638 0.896635 0.075450 -0.006968 -251709.000000 0 0 1
-26.025351 -25.075789 28.860755 46.249943 0.766818 0.896923 0.056481 -0.013281 91093.800000 0 0 1
-26.700161 -24.395719 29.959735 46.964193 0.740328 0.878993 0.045003 0.006148 561975.000000 0 0 1
-27.393351 -25.353249 30.764195 48.369604 0.746740 0.881462 0.043270 0.013479 26691.000000 0 0 1
-28.705531 -24.822619 31.358185 49.229114 0.712985 0.880216 0.029966 0.016981 -19124.900000 0 0 1
-29.762691 -24.597819 30.449145 49.173376 0.690671 0.903047 0.034017 0.018201 546820.000000 0 0 1
-30.877701 -23.922919 31.025985 49.883366 0.659162 0.899540 0.039173 0.002482 519678.000000 0 0 1
-32.065511 -23.779519 30.030205 49.954737 0.638098 0.925859 0.037281 0.001991 251488.000000 0 0 1
-32.894481 -24.920219 29.886195 50.953399 0.648335 0.944016 0.035341 0.000054 251836.000000 0 0 1
-34.104203 -24.596119 29.210445 51.198787 0.624816 0.963645 0.035922 0.000053 1222400.000000 0 0 1
-35.380847 -25.203019 29.926465 52.750259 0.618957 0.967544 0.044716 -0.011781 677942.000000 0 0 1
-35.390443 -26.640309 29.790515 53.382247 0.645262 0.978750 0.048375 -0.010013 -14213.100000 0 0 1
-36.354181 -27.273519 30.598605 54.788192 0.643640 0.978233 0.049867 -0.017489 -110537.000000 0 0 1
-35.870732 -28.723629 30.934015 55.395573 0.675200 0.978316 0.045443 -0.019065 -232234.000000 0 0 1
-34.798342 -28.724909 31.837725 55.223960 0.690078 0.956333 0.050172 -0.011459 -230956.000000 0 0 1
-34.299765 -30.042739 31.944418 55.673027 0.719332 0.959675 0.046423 -0.017076 -369296.000000 0 0 1
-33.207291 -30.249259 32.960362 55.714696 0.738817 0.937764 0.059659 -0.019646 -549558.000000 0 0 1
-33.749391 -30.222409 -33.630588 56.421909 0.730321 2.209376 0.058936 -0.010325 -583842.000000 0 0 1
-32.763621 -30.217569 -32.683728 55.270086 0.744995 2.203523 0.058944 -0.014191 -537885.000000 0 0 1
-33.296481 -29.827529 -31.300478 54.571577 0.730499 2.181651 0.063403 -0.018487 189581.000000 0 0 1
-33.502981 -28.469729 -30.934548 53.757990 0.704359 2.183940 0.061595 -0.012236 -238683.000000 0 0 1
-32.269611 -27.820889 -30.749898 52.544133 0.711499 2.195948 0.061964 -0.011158 -132383.000000 0 0 1
-32.379951 -26.242379 -30.567068 51.686258 0.681081 2.203586 0.054818 -0.002026 14123.100000 0 0 1
-33.122501 -25.734779 -29.465338 51.259975 0.660532 2.183182 0.050743 -0.009527 -94557.400000 0 0 1
-33.067261 -24.321519 -29.439158 50.513801 0.634167 2.192960 0.050747 -0.012567 217526.000000 0 0 1
-31.882481 -23.612119 -28.723768 48.980400 0.637457 2.197446 0.055751 -0.013469 -98716.800000 0 0 1
-31.827611 -22.212419 -28.905268 48.393211 0.609314 2.210927 0.054515 -0.013491 618907.000000 0 0 1
-30.781221 -21.616619 -28.104288 46.953304 0.612245 2.212496 0.083519 -0.011017 513725.000000 0 0 1
-30.564081 -20.117619 -28.328738 46.275253 0.582126 2.229610 0.093512 -0.019793 219105.000000 0 0 1
-29.935081 -19.802319 -29.588488 46.515799 0.584423 2.260224 0.099670 -0.014806 426794.000000 0 0 1
-29.500271 -18.469519 -29.699998 45.754552 0.559375 2.277218 0.095067 -0.021237 -129347.000000 0 0 1
-29.119711 -17.988419 -31.150818 46.280819 0.553362 2.309165 0.118050 -0.021220 835833.000000 0 0 1
-30.192081 -17.851219 -32.107358 47.551132 0.533965 2.312056 0.111408 -0.031321 509339.000000 0 0 1
-31.123631 -16.826619 -31.884208 47.627914 0.495627 2.304256 0.098884 -0.033034 -815471.000000 0 0 1
-31.857071 -16.365819 -33.117898 48.780203 0.474568 2.317088 0.106819 -0.040068 441906.000000 0 0 1
-32.854191 -17.304819 -33.620228 50.091659 0.484791 2.306588 0.109352 -0.041549 392019.000000 0 0 1
-34.150796 -16.915319 -33.268658 50.588620 0.459891 2.288466 0.099066 -0.038048 -153763.000000 0 0 1
-35.275383 -17.499719 33.699914 51.829307 0.460514 0.862936 0.099362 -0.036855 76688.100000 0 0 1
-35.426611 -18.877819 33.893755 52.537638 0.489597 0.869599 0.056414 -0.030455 -224521.000000 0 0 1
-36.367891 -19.426119 33.020105 52.823526 0.490597 0.895534 0.062162 -0.022046 -131507.000000 0 0 1
-36.554031 -20.973019 33.187658 53.642198 0.520897 0.903728 0.033243 -0.016474 911883.000000 0 0 1
-35.359290 -21.669519 32.769991 52.855650 0.549806 0.902066 0.048337 -0.017163 703628.000000 0 0 1
-35.468622 -23.035419 33.194463 53.763613 0.575995 0.905344 0.034144 -0.015835 -849718.000000 0 0 1
-34.167471 -23.829119 33.254450 53.301983 0.608993 0.897089 0.044278 -0.012388 6900.060000 0 0 1
-33.338621 -23.572719 -33.472198 52.797015 0.615455 2.257484 0.028845 -0.018947 268753.000000 0 0 1
-32.479261 -22.449819 -33.569188 51.824580 0.604799 2.275419 0.042188 -0.021505 -741037.000000 0 0 1
-31.344361 -22.432719 -32.534218 50.439778 0.621176 2.271834 0.059440 -0.019121 136366.000000 0 0 1
-30.241241 -23.202919 -33.055648 50.453780 0.654457 2.285200 0.067153 -0.009873 808231.000000 0 0 1
-29.028721 -23.257319 -32.309278 49.269250 0.675462 2.285998 0.085320 -0.016601 573050.000000 0 0 1
-29.089231 -23.925819 -30.896588 48.715781 0.688309 2.257797 0.071360 0.000263 -787435.000000 0 0 1
-28.858621 -25.305389 -30.836508 49.234875 0.719891 2.247613 0.070996 -0.009638 11786.000000 0 0 1
-28.602711 -25.657449 -29.504468 48.445158 0.731171 2.225631 0.059932 -0.016622 -81695.200000 0 0 1
-28.143301 -27.148679 -29.423568 48.937128 0.767412 2.215864 0.062267 -0.016198 273810.000000 0 0 1
-29.190921 -28.063129 -29.734938 50.237591 0.765703 2.204193 0.057521 0.000170 343455.000000 0 0 1
-28.873571 -29.356719 -29.192888 50.474991 0.793695 2.187517 0.057998 -0.006544 -217535.000000 0 0 1
-29.618731 -30.553289 -29.762568 51.928635 0.800928 2.181133 0.059190 0.006673 -408161.000000 0 0 1
-29.258891 -30.919969 -31.085228 52.710706 0.812994 2.201524 0.070491 -0.014460 239407.000000 0 0 1
-29.491831 -32.250209 -31.497088 53.869385 0.830044 2.195299 0.083371 -0.002750 -287135.000000 0 0 1
-29.121951 -32.441249 -32.965528 54.655729 0.839263 2.218239 0.084058 -0.018555 -401031.000000 0 0 1
-27.725871 -32.437939 -33.095238 54.002209 0.863559 2.230458 0.073588 -0.019167 -418952.000000 0 0 1
-27.279741 -32.587999 33.452092 54.085159 0.873833 0.903954 0.075222 -0.029449 -372599.000000 0 0 1
-25.776721 -32.903549 33.393703 53.499741 0.906258 0.896709 0.073558 -0.028018 -205106.000000 0 0 1
-25.475461 -33.709369 32.288084 53.177449 0.923633 0.918294 0.073999 -0.019618 505844.000000 0 0 1
-24.387351 33.249424 32.572107 52.547210 -0.937961 0.902227 0.065954 -0.010845 198946.000000 0 0 1
-24.225051 32.338731 31.329345 51.128999 -0.927869 0.911259 0.062023 -0.021496 -710918.000000 0 0 1
-25.354001 31.544945 31.058375 51.015013 -0.893778 0.916238 0.082852 -0.035640 -82439.800000 0 0 1
-25.271301 30.819015 29.850665 49.794704 -0.883984 0.927952 0.068957 -0.026998 541028.000000 0 0 1
-26.606831 30.054125 29.492535 49.809472 -0.846164 0.937125 0.070329 -0.022979 783163.000000 0 0 1
-27.231821 29.170175 30.391025 50.160598 -0.819751 0.919932 0.071314 -0.023062 434340.000000 0 0 1
-28.442381 28.606075 29.914815 50.221238 -0.788268 0.932708 0.073082 -0.026841 440739.000000 0 0 1
-28.984071 27.433765 30.777135 50.397618 -0.757926 0.913869 0.060772 -0.035610 400240.000000 0 0 1
-28.130361 26.261285 30.679935 49.216163 -0.751048 0.897750 0.042759 -0.022836 445065.000000 0 0 1
-28.728771 25.020735 30.987235 49.107924 -0.716520 0.887951 0.043480 -0.016420 276964.000000 0 0 1
-29.766551 24.496075 29.962765 48.824917 -0.688573 0.910086 0.057253 -0.016178 61168.100000 0 0 1
-29.163331 24.142535 28.797105 47.567165 -0.691487 0.920529 0.054069 -0.018072 -26035.500000 0 0 1
-30.099591 23.425935 27.998055 47.314384 -0.661357 0.937574 0.062919 -0.010221 564884.000000 0 0 1
-29.438661 23.017145 26.628065 45.885483 -0.663587 0.951680 0.061154 -0.014416 47983.300000 0 0 1
-28.185371 22.410265 26.760005 44.863493 -0.671748 0.931693 0.064389 -0.017937 -85231.900000 0 0 1
-27.525791 22.090365 25.517865 43.552438 -0.676284 0.944792 0.056533 -0.013744 -28669.100000 0 0 1
-26.134581 21.475965 25.594375 42.418221 -0.687860 0.923061 0.059716 -0.022548 -533528.000000 0 0 1
-26.183961 20.265465 26.367565 42.326557 -0.658663 0.898281 0.086974 -0.030647 1798680.000000 0 0 1
-24.838851 19.737465 26.610155 41.408168 -0.671452 0.872870 0.074460 -0.021341 1128820.000000 0 0 1
-24.801051 18.613965 27.652415 41.547899 -0.643841 0.842559 0.106252 -0.026192 -697758.000000 0 0 1
-23.649451 18.191765 28.316705 41.134811 -0.655692 0.811532 0.104414 -0.017925 -318185.000000 0 0 1
-23.876951 17.124865 29.238325 41.451773 -0.622185 0.787869 0.104110 -0.018542 350511.000000 0 0 1
-22.684351 16.092165 29.273025 40.378801 -0.617004 0.759820 0.104480 -0.022514 993965.000000 0 0 1
-21.510151 16.632065 29.862265 40.386471 -0.658197 0.738599 0.134735 -0.020365 -88705.000000 0 0 1
-20.332151 15.939965 29.687235 39.354934 -0.664895 0.716139 0.115497 -0.018995 -575270.000000 0 0 1
-19.051451 16.291865 30.419735 39.417546 -0.707477 0.689238 0.090997 -0.016781 -531422.000000 0 0 1
-19.143051 16.114165 31.801625 40.465616 -0.699700 0.666658 0.081549 -0.023730 60467.700000 0 0 1
-18.067351 16.639465 32.522160 40.755268 -0.744280 0.646849 0.069190 -0.030190 -755288.000000 0 0 1
-18.305551 16.297165 -33.826928 41.772621 -0.727422 2.514585 0.063774 -0.025546 280952.000000 0 0 1
-19.371051 16.919965 -33.121308 41.934996 -0.717961 2.481320 0.094976 -0.026089 712520.000000 0 0 1
-20.592251 16.186565 -33.197578 42.286226 -0.666178 2.473603 0.090064 -0.012975 562742.000000 0 0 1
-21.861651 16.952765 -32.697428 42.830478 -0.659595 2.439380 0.086805 -0.030033 215000.000000 0 0 1
-21.841651 16.915365 -31.281928 41.734234 -0.658969 2.418180 0.093352 -0.025141 -98811.000000 0 0 1
-22.818051 17.768265 -30.783068 42.237092 -0.661613 2.387387 0.099721 -0.018054 -1125830.000000 0 0 1
-23.034851 17.810665 -29.242978 41.267129 -0.658188 2.358346 0.088388 -0.011199 259265.000000 0 0 1
-23.730051 16.666865 -28.687888 40.790865 -0.612303 2.350814 0.086221 -0.016354 856008.000000 0 0 1
-25.066321 16.463665 -29.149918 41.822129 -0.581144 2.341998 0.079733 -0.019766 -29096.600000 0 0 1
-26.000481 15.623365 -28.270998 41.465213 -0.541072 2.321017 0.066537 -0.017325 -78123.500000 0 0 1
-25.744981 14.227965 -28.233638 40.772262 -0.504876 2.335706 0.058861 -0.012855 -52157.400000 0 0 1
-26.776251 13.561065 -27.535978 40.732054 -0.468801 2.313154 0.032299 -0.005432 36352.700000 0 0 1
-26.647991 12.038765 -27.513108 40.149949 -0.424325 2.325755 0.054649 -0.010211 170812.000000 0 0 1
-25.505651 11.594265 -26.798698 38.770291 -0.426653 2.333969 0.051083 -0.007425 79762.900000 0 0 1
-24.951251 10.440165 -27.409308 38.507560 -0.396286 2.362840 0.045342 -0.001821 -62824.200000 0 0 1
-23.650851 9.979465 -26.740268 37.067431 -0.399284 2.376611 0.071641 -0.003261 86074.700000 0 0 1
-23.960851 9.024265 -25.714098 36.287389 -0.360195 2.358342 0.059280 -0.004628 391491.000000 0 0 1
-22.764351 8.768965 -25.014778 34.940657 -0.367688 2.368740 0.084316 0.012538 207803.000000 0 0 1
-23.067151 7.708565 -23.958778 34.139984 -0.322512 2.348690 0.087841 0.015417 210482.000000 0 0 1
-23.359251 6.440565 -24.524778 34.476082 -0.269034 2.362222 0.091720 -0.007111 65062.200000 0 0 1
-23.806051 5.494165 -23.615378 33.979405 -0.226817 2.339204 0.093354 0.006435 -41572.500000 0 0 1
35.661565 24.798281 -10.013878 44.575551 0.607617 1.797380 0.070144 -0.008038 203591.000000 0 0 1
36.571775 24.255281 -9.056978 44.808953 0.585615 1.774323 0.082248 -0.006938 335667.000000 0 0 1
-37.250661 23.240081 -9.725878 44.970055 -0.557796 1.788793 0.104015 -0.013669 146060.000000 0 0 1
-36.201121 22.572281 -8.821278 43.564251 -0.557537 1.774695 0.115186 -0.016071 -223815.000000 0 0 1
-36.701041 21.700481 -7.817678 43.347357 -0.533981 1.752138 0.091799 -0.011377 -56179.700000 0 0 1
-35.697451 21.065681 -7.028178 42.041244 -0.533121 1.738758 0.133426 -0.009529 -181493.000000 0 0 1
-36.194421 20.216181 -5.830878 41.865609 -0.509379 1.710527 0.109441 0.002468 583182.000000 0 0 1
-37.089881 19.148781 -6.279578 42.210996 -0.476587 1.720117 0.089830 0.004197 892438.000000 0 0 1
36.917785 18.516881 -5.134878 41.619283 0.464903 1.694489 0.093498 -0.006649 56225.300000 0 0 1
36.007005 17.359981 -5.604178 40.364343 0.449248 1.710086 0.086950 -0.001984 80523.600000 0 0 1
34.794095 17.715881 -6.234378 39.539208 0.470951 1.729133 0.086615 -0.003948 -169877.000000 0 0 1
34.306935 16.657481 -6.974578 38.769604 0.452015 1.751679 0.108616 -0.005392 23386.800000 0 0 1
33.346385 16.960781 -8.149878 38.289293 0.470523 1.785287 0.073338 -0.007882 76870.300000 0 0 1
33.108375 15.791281 -8.876678 37.740223 0.445044 1.808226 0.080090 -0.005692 -106524.000000 0 0 1
32.609195 16.001281 -10.147078 37.714238 0.456179 1.843205 0.065291 -0.009944 -776278.000000 0 0 1
32.179095 14.729281 -10.937778 37.041610 0.429262 1.870549 0.066933 -0.013999 -78083.100000 0 0 1
30.961485 14.087981 -10.634178 35.639451 0.427018 1.873794 0.060189 -0.009176 185507.000000 0 0 1
30.755985 13.601681 -9.313578 34.895259 0.416386 1.840972 0.066448 -0.011848 -594807.000000 0 0 1
29.617145 12.581481 -9.134178 33.449995 0.401705 1.847379 0.061282 -0.007998 -185832.000000 0 0 1
29.900565 11.325081 -9.768978 33.432532 0.362061 1.867323 0.073979 -0.009126 -143511.000000 0 0 1
29.011525 10.329881 -9.394378 32.196729 0.342064 1.866884 0.094759 -0.007875 -802793.000000 0 0 1
29.531625 8.940381 -9.714578 32.348420 0.293968 1.875815 0.096215 -0.000488 -161533.000000 0 0 1
30.622245 8.562481 -8.878778 33.013189 0.272653 1.843095 0.090594 -0.005842 500703.000000 0 0 1
30.873285 7.105981 -8.859578 32.896000 0.226226 1.843484 0.093487 -0.007195 -412743.000000 0 0 1
32.021385 6.703781 -7.930178 33.662999 0.206373 1.808607 0.124262 -0.013279 227912.000000 0 0 1
33.290265 6.919281 -8.521078 35.053202 0.204929 1.816346 0.118173 -0.013307 207904.000000 0 0 1
34.409235 6.752481 -7.680178 35.896749 0.193778 1.786415 0.128695 -0.020210 -594121.000000 0 0 1
35.713525 7.003181 -8.388978 37.348030 0.193636 1.797346 0.146141 -0.022711 -819517.000000 0 0 1
35.945825 6.049781 -9.422378 37.649480 0.166740 1.823751 0.163494 -0.028977 1077430.000000 0 0 1
-37.248411 6.146481 -9.746178 38.989888 -0.163540 1.823442 0.172122 -0.034429 -119353.000000 0 0 1
-36.906751 5.212181 -10.979478 38.856454 -0.140298 1.857263 0.166615 -0.034295 152801.000000 0 0 1
-35.559092 4.894081 -11.290078 37.628007 -0.136773 1.875536 0.163166 -0.038097 661076.000000 0 0 1
-34.673042 5.904681 -11.741578 37.080315 -0.168678 1.892995 0.135049 -0.028094 154958.000000 0 0 1
-33.848101 6.633081 -10.585478 36.079690 -0.193514 1.868569 0.139589 -0.023302 -416398.000000 0 0 1
-34.548877 7.609981 -9.768678 36.701005 -0.216805 1.840213 0.160605 -0.027179 402025.000000 0 0 1
-34.601605 8.840881 -10.445678 37.209467 -0.250153 1.855347 0.150551 -0.029191 -269505.000000 0 0 1
-35.614299 9.804081 -9.779778 38.211809 -0.268631 1.829612 0.137939 -0.013442 -56277.600000 0 0 1
-35.127484 10.435081 -8.588778 37.637723 -0.288760 1.801021 0.128049 -0.002715 232322.000000 0 0 1
-36.069361 11.197681 -7.864678 38.577714 -0.301015 1.776101 0.113241 -0.002922 98544.300000 0 0 1
-35.290209 12.165281 -6.939678 37.967776 -0.331964 1.754608 0.138959 -0.011052 201516.000000 0 0 1
-34.559538 13.088681 -7.717278 37.752240 -0.362035 1.776667 0.138006 -0.012144 -123851.000000 0 0 1
-34.008581 14.073681 -6.870978 37.441453 -0.392369 1.755355 0.153017 -0.015070 154799.000000 0 0 1
-33.083441 15.120581 -7.565878 37.153581 -0.428696 1.775869 0.136231 -0.016059 18071.000000 0 0 1
-33.771641 16.119281 -8.314778 38.333934 -0.445325 1.789438 0.113995 -0.011608 133445.000000 0 0 1
-33.151761 17.415981 -8.355878 38.368950 -0.483714 1.790333 0.114205 -0.007795 412449.000000 0 0 1
-33.951461 18.243381 -9.382378 39.668018 -0.493069 1.809582 0.075284 -0.005362 517138.000000 0 0 1
-33.458021 17.907781 -10.687478 39.425246 -0.491434 1.845313 0.056553 -0.003722 -113395.000000 0 0 1
-34.309124 18.362581 -11.697478 40.634116 -0.491417 1.862802 0.055807 -0.007809 -446614.000000 0 0 1
-33.764491 18.281081 -13.125578 40.577328 -0.496239 1.900191 0.031291 0.000686 -221027.000000 0 0 1
-32.797281 19.298981 -13.237378 40.290700 -0.531870 1.905561 0.032256 -0.008368 -41044.700000 0 0 1
-32.700411 19.671681 -14.569978 40.848209 -0.541575 1.935514 0.021169 -0.007092 -267772.000000 0 0 1
-32.062451 21.061281 -14.816078 41.122919 -0.581199 1.939373 0.044396 -0.005179 -708314.000000 0 0 1
-30.703401 20.977581 -14.513178 39.917291 -0.599384 1.942906 0.049121 -0.003482 -158012.000000 0 0 1
-30.021671 22.247881 -14.442278 40.060559 -0.637755 1.939612 0.058857 -0.000840 296771.000000 0 0 1
-29.392321 22.871481 -15.715778 40.422752 -0.661272 1.970109 0.059176 -0.001720 -102661.000000 0 0 1
-30.375431 23.322181 -16.667878 41.766124 -0.654795 1.981306 0.065623 0.004415 335915.000000 0 0 1
-29.946261 24.073081 -17.820578 42.354041 -0.677100 2.005071 0.086300 -0.001348 -232844.000000 0 0 1
-29.283921 25.440081 -17.624778 42.607260 -0.715273 1.997263 0.111812 -0.004464 398215.000000 0 0 1
-30.199651 26.436381 -17.163578 43.651914 -0.719049 1.974897 0.134398 -0.007986 405010.000000 0 0 1
-29.657771 27.746481 -17.379778 44.175868 -0.752115 1.975148 0.142074 -0.011609 194098.000000 0 0 1
-30.549731 28.900081 -16.855878 45.305865 -0.757657 1.952009 0.140103 -0.020438 -77804.300000 0 0 1
-30.456751 29.128081 -15.446678 44.884949 -0.763103 1.922118 0.124477 -0.023204 -231959.000000 0 0 1
-29.388361 29.934681 -15.065178 44.572643 -0.794607 1.915578 0.112764 -0.018793 -351423.000000 0 0 1
-29.466861 30.227981 -13.513878 44.324391 -0.798148 1.880615 0.108841 -0.013032 1122.670000 0 0 1
-30.412161 31.270581 -13.406078 45.634107 -0.799314 1.868968 0.086341 -0.013086 127660.000000 0 0 1
-30.281481 32.049281 -12.235978 45.758537 -0.813752 1.841493 0.073132 -0.014633 -173513.000000 0 0 1
-29.119571 33.055681 -12.258278 45.726282 -0.848621 1.842195 0.070073 -0.020305 -32760.300000 0 0 1
-29.225411 -33.837302 -13.229678 46.627374 0.858400 1.858480 0.063462 -0.024484 300496.000000 0 0 1
-28.043151 -33.024802 -13.320878 45.326611 0.866793 1.869087 0.084404 -0.027557 437532.000000 0 0 1
-28.009371 -32.024802 -14.455278 44.934039 0.852184 1.898321 0.078196 -0.023596 -109368.000000 0 0 1
-27.642301 -32.618902 -15.645878 45.528926 0.867795 1.921594 0.069320 -0.029409 63596.500000 0 0 1
-28.181881 -31.843102 -16.728478 45.695115 0.846318 1.945599 0.071492 -0.014576 272824.000000 0 0 1
-27.433541 -32.166102 -18.073578 45.977294 0.864638 1.974795 0.067067 -0.016498 85684.400000 0 0 1
-27.669731 -33.474102 -18.653578 47.266114 0.880044 1.976483 0.075401 -0.010526 -194114.000000 0 0 1
-27.019571 33.287981 -18.097478 46.536713 -0.888967 1.970218 0.075168 -0.018861 -1011080.000000 0 0 1
-27.232251 32.059381 -19.009678 46.160235 -0.866632 1.995246 0.102084 -0.022738 204662.000000 0 0 1
-28.496671 31.430081 -19.050378 46.506206 -0.834309 1.992846 0.126479 -0.027588 153366.000000 0 0 1
-29.469371 32.203281 -19.750978 47.912381 -0.829699 1.995698 0.113716 -0.030432 458364.000000 0 0 1
-30.956491 31.740481 -19.548378 48.455150 -0.797902 1.986061 0.119017 -0.039934 740704.000000 0 0 1
-31.267711 30.518181 -20.125478 48.104719 -0.773268 2.002444 0.126573 -0.037653 1232450.000000 0 0 1
-32.694271 30.321981 -20.292578 48.991087 -0.747770 1.997871 0.127680 -0.036143 1216670.000000 0 0 1
-33.050401 28.969081 -20.961178 48.691967 -0.719686 2.015827 0.130900 -0.032932 1138530.000000 0 0 1
-34.472575 28.796981 -21.188078 49.664466 -0.695933 2.011554 0.134010 -0.031105 1309390.000000 0 0 1
-34.631777 27.565481 -21.760278 49.322667 -0.672272 2.027712 0.127251 -0.022580 526819.000000 0 0 1
-36.121151 27.108181 -21.948278 50.212727 -0.643808 2.023175 0.127885 -0.018293 652741.000000 0 0 1
-36.850231 27.790181 -22.963278 51.551390 -0.646145 2.032467 0.123870 -0.016813 346354.000000 0 0 1
36.578815 27.007181 -23.261478 51.073417 0.635989 2.043676 0.120565 -0.010442 878764.000000 0 0 1
35.758775 27.567481 -24.448478 51.345731 0.656762 2.067072 0.111783 -0.006154 121831.000000 0 0 1
36.582165 27.607681 -25.565608 52.478940 0.646487 2.079630 0.128403 -0.019872 -300347.000000 0 0 1
35.828385 27.861481 -26.727708 52.671678 0.660956 2.103007 0.133257 -0.020185 244819.000000 0 0 1
36.663055 27.795881 -28.031658 53.875453 0.648693 2.118004 0.127933 -0.030333 186454.000000 0 0 1
37.144075 26.535581 -28.440238 53.783515 0.620323 2.127972 0.092822 -0.029605 79890.600000 0 0 1
-36.809831 26.463181 -29.711328 54.203567 -0.623309 2.150939 0.078993 -0.032881 -1311310.000000 0 0 1
-36.181431 25.117381 -30.008078 53.295999 -0.606827 2.168863 0.064729 -0.028807 959405.000000 0 0 1
-35.044608 24.779681 -29.178298 51.899231 -0.615468 2.167853 0.057571 -0.024224 1312530.000000 0 0 1
-33.899021 25.658881 -29.204328 51.579207 -0.647916 2.172689 0.043501 -0.019823 238901.000000 0 0 1
-32.624821 25.064881 -28.532908 50.067495 -0.655096 2.177167 0.056580 -0.031841 312027.000000 0 0 1
-32.297881 23.733481 -28.977278 49.458204 -0.633722 2.196779 0.059313 -0.027728 26686.200000 0 0 1
-32.899961 22.740281 -28.193038 48.932354 -0.604792 2.184823 0.043820 -0.024805 -348865.000000 0 0 1
-32.721171 21.333481 -28.782808 48.520537 -0.577764 2.205835 0.026575 -0.026062 -183287.000000 0 0 1
-31.395591 20.874281 -28.699588 47.382329 -0.586764 2.221445 0.059967 -0.023568 -234150.000000 0 0 1
-31.293681 19.601481 -29.234258 47.097286 -0.559585 2.240458 0.043716 -0.017522 138775.000000 0 0 1
-29.835411 19.060681 -29.333788 45.977521 -0.568505 2.262698 0.058036 -0.019208 -150827.000000 0 0 1
-29.111101 19.786781 -30.292718 46.439441 -0.596971 2.281419 0.076975 -0.014336 180833.000000 0 0 1
-27.913091 19.164781 -30.746838 45.736173 -0.601668 2.308061 0.079285 -0.015828 211485.000000 0 0 1
-28.006411 17.901881 -31.604508 45.865906 -0.568750 2.330992 0.087057 -0.013731 -569108.000000 0 0 1
-28.545241 16.822981 -30.874138 45.288585 -0.532548 2.320907 0.051486 -0.012031 184961.000000 0 0 1
-28.466121 15.592181 -31.579508 45.284672 -0.501110 2.342497 0.032582 -0.003453 -196207.000000 0 0 1
-28.971831 14.381581 -30.807948 44.669078 -0.460762 2.331861 0.039666 -0.003039 -451943.000000 0 0 1
-30.319601 14.349281 -30.421558 45.284117 -0.442034 2.307423 0.022644 -0.005996 -273058.000000 0 0 1
-30.881011 13.053981 -30.404158 45.259873 -0.399937 2.307390 0.017681 -0.004344 -298167.000000 0 0 1
-30.543361 12.135081 -29.251288 43.997670 -0.378182 2.298072 0.016947 -0.018030 -403458.000000 0 0 1
-31.056961 12.681681 -28.077298 43.745794 -0.387672 2.267677 0.011713 -0.016019 270678.000000 0 0 1
-30.848471 11.734381 -27.079028 42.691892 -0.363486 2.257886 0.010053 -0.015007 -64184.800000 0 0 1
-30.620041 12.394381 -25.711178 41.860151 -0.384620 2.232189 0.012203 -0.005135 1096810.000000 0 0 1
-29.311121 12.969881 -25.458228 40.932640 -0.416591 2.242032 0.014082 -0.004666 558864.000000 0 0 1
-29.162291 13.439281 -24.111578 40.154971 -0.431836 2.214876 0.018334 -0.000663 130990.000000 0 0 1
-27.677461 13.670381 -23.727578 38.934806 -0.458770 2.226123 0.038815 0.003574 -289006.000000 0 0 1
-27.136921 14.759081 -24.422478 39.378933 -0.498128 2.239783 0.044337 0.002760 -64278.000000 0 0 1
-25.789051 15.050681 -24.111178 38.378993 -0.528279 2.250084 0.054521 -0.002074 209624.000000 0 0 1
-25.412361 15.560081 -22.682878 37.448861 -0.549417 2.221445 0.062610 0.003651 -849224.000000 0 0 1
-25.834431 16.890081 -22.536978 38.217902 -0.579029 2.201480 0.070668 -0.003022 105969.000000 0 0 1
-25.894031 17.230381 -21.178078 37.628418 -0.587138 2.168591 0.073585 -0.003366 -552509.000000 0 0 1
-27.340701 17.442281 -20.747678 38.499523 -0.567865 2.139936 0.056967 -0.000473 -175801.000000 0 0 1
-28.083851 16.197881 -20.772578 38.504208 -0.523162 2.140626 0.054547 0.009540 -250206.000000 0 0 1
-29.334611 16.363181 -20.186578 39.188915 -0.508821 2.111932 0.051059 0.012041 -707832.000000 0 0 1
-30.269281 15.111981 -20.326278 39.468455 -0.463049 2.111805 0.032528 0.009947 610873.000000 0 0 1
-31.012031 14.788781 -21.514578 40.538022 -0.444975 2.130253 0.029902 0.008335 1052980.000000 0 0 1
-31.940381 15.827681 -21.956578 41.866392 -0.460072 2.122858 0.016229 0.005151 228723.000000 0 0 1
-32.290121 15.728181 -23.462778 42.901393 -0.453266 2.149453 0.010726 -0.003201 -830468.000000 0 0 1
-33.376511 14.899681 -23.663378 43.542479 -0.419866 2.145344 0.017592 -0.001710 -412778.000000 0 0 1
-33.731731 15.043981 -25.054848 44.630667 -0.419513 2.166851 0.024305 -0.010944 -24593.400000 0 0 1
-35.028583 14.307081 -25.462038 45.607122 -0.387761 2.163121 0.025697 -0.007606 13830.400000 0 0 1
-34.849594 12.881181 -25.666308 45.157263 -0.354048 2.175327 0.033597 -0.013172 179929.000000 0 0 1
-34.849383 12.154181 -24.468178 44.281998 -0.335573 2.156221 0.035004 -0.010935 -216379.000000 0 0 1
-34.890467 10.629081 -24.730378 44.067149 -0.295710 2.166628 0.047704 -0.019844 -247804.000000 0 0 1
-36.103071 10.259481 -25.311208 45.269702 -0.276873 2.164121 0.061766 -0.021272 -399102.000000 0 0 1
-35.952229 8.987481 -25.921958 45.224833 -0.244964 2.181177 0.057674 -0.010641 -100487.000000 0 0 1
-37.271791 8.354381 -26.391778 46.427449 -0.220503 2.175419 0.092571 -0.013605 257646.000000 0 0 1
36.527875 7.727681 -25.360018 45.134612 0.208482 2.167447 0.089348 -0.007162 -269746.000000 0 0 1
35.446825 7.091981 -25.947148 44.497506 0.197467 2.193354 0.103052 -0.017384 -439700.000000 0 0 1
34.506145 6.295281 -24.979578 43.061397 0.180455 2.189638 0.114400 -0.026716 189158.000000 0 0 1
35.108955 5.160681 -24.378578 43.053297 0.145945 2.172735 0.113112 -0.033226 -358584.000000 0 0 1
34.246495 4.379981 -23.622178 41.833168 0.127205 2.170837 0.110696 -0.030632 -60091.000000 0 0 1
34.983615 3.387181 -22.635478 41.805396 0.096521 2.142956 0.095386 -0.028179 -9855.020000 0 0 1
35.830855 2.497581 -23.309078 42.818234 0.069592 2.146437 0.100379 -0.029634 -69346.200000 0 0 1
36.597055 1.744381 -22.377478 42.931793 0.047628 2.119092 0.107657 -0.032048 240163.000000 0 0 1
-36.804031 0.903581 -22.906278 43.359552 -0.024546 2.127378 0.115538 -0.027060 204607.000000 0 0 1
-37.066641 -0.125819 -23.846678 44.075115 0.003394 2.142477 0.125581 -0.027402 394512.000000 0 0 1
-35.855895 -0.840119 -24.140378 43.233192 0.023426 2.163223 0.131818 -0.028565 510992.000000 0 0 1
-24.016451 29.144981 26.870465 46.349129 -0.881571 0.952386 0.033417 -0.021525 -484926.000000 0 0 1
-25.310281 29.322581 26.330245 46.837014 -0.858708 0.973792 0.027296 -0.023528 452429.000000 0 0 1
-25.475941 28.813981 25.014545 45.880242 -0.846806 0.994152 0.019794 -0.009016 -399393.000000 0 0 1
-25.596471 27.281381 24.888925 44.932301 -0.817252 0.983730 0.033662 -0.018179 -359817.000000 0 0 1
-26.832891 26.709481 25.293015 45.531715 -0.783093 0.981828 0.033382 -0.018804 183223.000000 0 0 1
-27.039211 26.534281 26.695795 46.344930 -0.775973 0.956940 0.030811 -0.023303 -347147.000000 0 0 1
-26.178581 25.463281 27.476955 45.702077 -0.771548 0.925771 0.028746 -0.018074 474938.000000 0 0 1
-24.818851 25.747981 27.726385 45.251369 -0.803770 0.911300 0.027675 -0.019367 -98019.500000 0 0 1
-24.661951 26.260581 29.048735 46.278062 -0.816781 0.892201 0.032753 -0.020783 -511948.000000 0 0 1
-23.329951 25.931781 29.702525 45.814669 -0.838166 0.865422 0.051514 -0.013851 -1311700.000000 0 0 1
-22.240351 26.700681 29.202105 45.390776 -0.876284 0.871932 0.061643 -0.023206 627218.000000 0 0 1
-21.088451 26.324381 29.992365 45.135771 -0.895385 0.843982 0.100869 -0.027600 471086.000000 0 0 1
-20.348951 25.017181 29.639535 43.800014 -0.887938 0.827523 0.096093 -0.016686 -939125.000000 0 0 1
-19.789251 25.089481 28.341345 42.712157 -0.902955 0.845252 0.093250 -0.019115 -105885.000000 0 0 1
-20.207651 24.039381 27.481135 41.730730 -0.871781 0.851926 0.084182 -0.022576 -84485.200000 0 0 1
-19.989251 22.532481 27.799285 40.988817 -0.845137 0.825464 0.058110 -0.003818 -201591.000000 0 0 1
-20.895251 22.017081 28.711825 41.781961 -0.811535 0.813193 0.060834 -0.008356 -385046.000000 0 0 1
-20.814151 20.603881 28.737545 41.031638 -0.780321 0.794873 0.092761 -0.010166 229458.000000 0 0 1
-21.110351 19.970881 30.148325 41.873674 -0.757668 0.767019 0.103146 -0.017102 220727.000000 0 0 1
-20.121551 20.327181 31.091405 42.246261 -0.790482 0.743718 0.087108 -0.027183 422317.000000 0 0 1
-20.591251 19.960281 32.401643 43.269839 -0.769840 0.724505 0.080625 -0.021146 -78037.900000 0 0 1
-19.711051 20.566681 33.472775 43.953846 -0.806638 0.705105 0.088828 -0.028146 -704254.000000 0 0 1
-19.816651 22.001981 33.571475 44.764169 -0.837608 0.722790 0.067496 -0.021188 604822.000000 0 0 1
-18.808151 22.760081 32.864312 44.179530 -0.880184 0.731937 0.090515 -0.013923 1236800.000000 0 0 1
-17.363151 22.753181 33.473380 44.041497 -0.918958 0.707419 0.085010 -0.007789 621671.000000 0 0 1
-16.620551 21.540481 33.382557 43.065418 -0.913616 0.683829 0.096603 -0.028015 295644.000000 0 0 1
-15.262951 21.767181 33.757279 42.968847 -0.959272 0.667095 0.069394 -0.021755 -487183.000000 0 0 1
-14.443551 20.523481 33.389272 41.769283 -0.957553 0.644544 0.062615 -0.026789 -269392.000000 0 0 1
-13.086851 20.556981 33.791221 41.661755 -1.003889 0.624792 0.045514 -0.019650 167925.000000 0 0 1
-12.848151 20.446281 -32.734038 40.677299 -1.009766 2.506008 0.055881 -0.021587 -1902040.000000 0 0 1
-11.395051 20.213981 -32.446588 39.890266 -1.057480 2.520763 0.055191 -0.018916 -1141590.000000 0 0 1
-10.649551 21.396681 -32.573538 40.401316 -1.108975 2.508581 0.060554 -0.018704 576419.000000 0 0 1
-9.300751 21.179081 -32.106448 39.571220 -1.157003 2.517269 0.059981 -0.017755 927876.000000 0 0 1
-8.380551 22.430281 -32.161148 40.096017 -1.213230 2.501605 0.072119 -0.019212 -14198.000000 0 0 1
-8.491651 23.520481 -31.218648 39.999065 -1.224327 2.466237 0.070815 -0.018323 -55903.900000 0 0 1
-8.076551 23.303481 -29.863708 38.731434 -1.237170 2.451278 0.063066 -0.022905 51561.600000 0 0 1
-7.704351 24.560981 -29.093728 38.846414 -1.266834 2.417261 0.073726 -0.020391 -39242.900000 0 0 1
-6.534451 25.210181 -29.523408 39.368565 -1.317179 2.418743 0.085427 -0.019239 -126646.000000 0 0 1
-6.154751 26.288181 -28.668058 39.380287 -1.340813 2.386167 0.114993 -0.025304 -391017.000000 0 0 1
-4.773451 26.860181 -28.952178 39.780445 -1.394918 2.385904 0.126383 -0.036267 -160616.000000 0 0 1
-3.696751 25.979281 -28.550908 38.778130 -1.429449 2.398328 0.122070 -0.024960 1055580.000000 0 0 1
-2.399151 26.223681 -29.076078 39.228251 -1.479562 2.405656 0.128272 -0.029582 653638.000000 0 0 1
-1.647651 27.519881 -28.760698 39.840135 -1.510996 2.377344 0.130687 -0.039218 -491474.000000 0 0 1
-0.850451 27.517981 -27.574338 38.965455 -1.539901 2.356979 0.146608 -0.051271 53265.000000 0 0 1
0.086249 28.540881 -27.572348 39.684049 1.567774 2.338934 0.147306 -0.048037 -807902.000000 0 0 1
0.964149 28.595681 -26.295818 38.860168 1.537092 2.314038 0.149191 -0.057661 -272613.000000 0 0 1
1.791849 27.453681 -26.155778 37.961034 1.505621 2.330927 0.169614 -0.059327 -54255.500000 0 0 1
3.049149 27.585481 -26.793328 38.576399 1.460709 2.338594 0.136466 -0.053619 100564.000000 0 0 1
4.168749 28.090581 -25.792808 38.363110 1.423468 2.308153 0.131476 -0.056896 -57858.300000 0 0 1
4.563849 27.007381 -24.964278 37.059986 1.403393 2.309890 0.126410 -0.047898 10125.000000 0 0 1
5.888149 27.233581 -24.530378 37.122469 1.357865 2.292675 0.082905 -0.038766 -257418.000000 0 0 1
6.344249 26.050981 -23.607278 35.724035 1.331914 2.292712 0.086898 -0.038055 -1026140.000000 0 0 1
7.628949 26.280181 -23.189578 35.869281 1.288269 2.273787 0.083704 -0.043670 -1574570.000000 0 0 1
8.114349 25.190781 -22.448078 34.703521 1.259175 2.274247 0.078370 -0.034032 931556.000000 0 0 1
9.617149 25.310081 -22.004278 34.889512 1.207673 2.253231 0.066126 -0.012585 207544.000000 0 0 1
9.873849 26.108881 -20.850978 34.841496 1.209241 2.212364 0.072305 -0.013035 537184.000000 0 0 1
11.252849 26.203381 -20.482078 35.110673 1.165169 2.193653 0.094192 -0.019305 885123.000000 0 0 1
11.950649 24.898981 -19.940578 34.064702 1.123304 2.196137 0.060143 -0.003299 -329407.000000 0 0 1
12.257949 23.953481 -21.005278 34.135733 1.097801 2.233621 0.055448 -0.006527 -93624.700000 0 0 1
12.632249 22.812581 -20.350378 33.077568 1.065086 2.233477 0.042647 0.007717 -345526.000000 0 0 1
12.763349 21.660081 -21.362878 32.991435 1.038314 2.275132 0.047789 0.001909 1497520.000000 0 0 1
11.516849 21.310681 -22.074278 32.772804 1.075333 2.309804 0.069320 -0.007395 1534410.000000 0 0 1
11.721149 20.306481 -23.050678 32.879664 1.047301 2.347682 0.074982 0.001250 80527.100000 0 0 1
10.985549 20.578181 -24.409678 33.763534 1.080441 2.378873 0.082025 -0.003643 1373000.000000 0 0 1
9.558949 20.371881 -24.283078 33.106721 1.132072 2.394222 0.076415 -0.008700 948510.000000 0 0 1
8.905649 20.344981 -25.520088 33.830515 1.158191 2.425462 0.070731 -0.009080 53058.300000 0 0 1
7.359849 20.199481 -25.471358 33.331314 1.221388 2.440576 0.088005 -0.021888 347906.000000 0 0 1
6.596549 21.400581 -25.340708 33.817907 1.271796 2.417843 0.096716 -0.035331 85285.400000 0 0 1
6.642149 22.061081 -24.091878 33.335087 1.278349 2.378524 0.112537 -0.040306 -1001560.000000 0 0 1
5.270849 22.148781 -23.451878 32.685485 1.337167 2.371005 0.133634 -0.046079 96065.600000 0 0 1
4.351449 23.038581 -24.090478 33.616402 1.384119 2.369753 0.132825 -0.048230 748273.000000 0 0 1
3.005949 23.137981 -23.628178 33.206817 1.441606 2.362492 0.169151 -0.053789 649538.000000 0 0 1
2.276149 24.253781 -24.416078 34.490167 1.477223 2.357337 0.159750 -0.047618 -45857.100000 0 0 1
0.897649 23.943081 -24.505178 34.272156 1.533323 2.367445 0.189610 -0.066173 -158075.000000 0 0 1
0.309749 24.929081 -25.363488 35.564892 1.558372 2.364793 0.177272 -0.051486 520758.000000 0 0 1
-1.243951 24.803881 -25.461148 35.567542 -1.520687 2.368642 0.187788 -0.048044 646197.000000 0 0 1
-1.607451 23.541881 -26.044508 35.144281 -1.502622 2.405465 0.202732 -0.052791 -989249.000000 0 0 1
-2.844251 23.648881 -26.647008 35.741046 -1.451101 2.412167 0.188812 -0.040093 -554995.000000 0 0 1
-3.401551 22.282081 -27.245268 35.360519 -1.419307 2.450421 0.170474 -0.035860 98447.500000 0 0 1
-2.588551 21.699281 -28.251338 35.716908 -1.452065 2.483204 0.184356 -0.047519 158810.000000 0 0 1
-3.238151 20.537681 -28.791228 35.513614 -1.414415 2.516159 0.147461 -0.036858 243859.000000 0 0 1
-4.384651 20.750981 -29.812958 36.587441 -1.362561 2.523252 0.117974 -0.034782 -66135.300000 0 0 1
-4.157651 21.088781 -31.167168 37.860469 -1.376143 2.537841 0.115660 -0.031668 -383592.000000 0 0 1
-3.510651 22.340081 -31.323038 38.633362 -1.414925 2.516274 0.140900 -0.034502 -40335.300000 0 0 1
-2.932651 22.485481 -32.713118 39.803837 -1.441104 2.535462 0.104368 -0.024717 -263049.000000 0 0 1
-1.895251 21.622481 -33.091548 39.574919 -1.483368 2.561068 0.097033 -0.023136 -120097.000000 0 0 1
-1.356751 21.892081 33.558006 40.090445 -1.508901 0.578914 0.089865 -0.016521 513598.000000 0 0 1
-0.165051 20.980581 33.094333 39.184780 -1.562930 0.565033 0.094300 -0.011756 458591.000000 0 0 1
-0.642551 19.769281 32.609931 38.139808 -1.538305 0.545226 0.079294 -0.010463 265317.000000 0 0 1
0.399049 19.012981 32.003858 37.227673 1.549811 0.536155 0.080719 -0.012296 330686.000000 0 0 1
-0.092851 17.567381 31.569295 36.128132 -1.565511 0.507803 0.068734 -0.011250 384204.000000 0 0 1
-1.050451 17.651681 30.513245 35.266747 -1.511356 0.525221 0.058467 -0.008745 176384.000000 0 0 1
-1.536051 16.355881 30.262255 34.433681 -1.477157 0.497337 0.056598 -0.006007 -164917.000000 0 0 1
-2.768451 16.287481 29.328425 33.661594 -1.402431 0.513007 0.054499 -0.003259 1271990.000000 0 0 1
-4.058251 16.782681 29.791435 34.433377 -1.333539 0.525266 0.031834 -0.009179 1346100.000000 0 0 1
-4.197651 18.187881 29.720845 35.096267 -1.343974 0.560785 0.039591 -0.015490 13468.700000 0 0 1
-5.711451 18.519081 29.687455 35.453097 -1.271643 0.578337 0.042421 -0.022925 312010.000000 0 0 1
-6.437551 18.141781 28.541865 34.426797 -1.229810 0.593373 0.026490 -0.010805 -742818.000000 0 0 1
-7.753651 18.602981 28.700265 35.069863 -1.175895 0.612220 0.030560 -0.020045 -615157.000000 0 0 1
-8.652451 17.948081 27.610075 34.048712 -1.121585 0.625109 0.032075 -0.020128 75000.300000 0 0 1
-9.142251 16.598081 27.644855 33.515893 -1.067338 0.600898 0.040912 -0.026164 58831.200000 0 0 1
-9.739251 16.253081 28.844355 34.511049 -1.030947 0.581207 0.045062 -0.019121 -810499.000000 0 0 1
-10.344651 14.824281 28.860275 34.054172 -0.961536 0.559574 0.028280 -0.014389 -130329.000000 0 0 1
-9.447351 13.736681 28.914005 33.376168 -0.968342 0.523035 0.038322 -0.006585 142399.000000 0 0 1
-8.568851 13.647381 30.056715 34.103993 -1.010132 0.492136 0.028299 -0.005483 -326042.000000 0 0 1
-8.974651 13.508381 31.538855 35.464350 -0.984381 0.474959 0.040171 -0.022464 -634629.000000 0 0 1
-9.601251 12.274481 31.881830 35.486589 -0.906996 0.454640 0.057601 -0.012599 370293.000000 0 0 1
-10.060351 12.357881 33.197782 36.824186 -0.887527 0.447524 0.053382 0.001673 22210.100000 0 0 1
-10.692451 11.037681 33.772667 37.104609 -0.801284 0.427026 0.052176 -0.016090 -344466.000000 0 0 1
-9.669751 10.104581 33.914805 36.685429 -0.807384 0.391137 0.068234 -0.028905 -85738.300000 0 0 1
-10.016751 8.964581 -33.202908 35.820834 -0.730023 2.756906 0.101751 -0.032734 -258881.000000 0 0 1
-9.373451 9.053081 -31.845528 34.408684 -0.768014 2.753172 0.081640 -0.031489 -100110.000000 0 0 1
-9.838751 10.239781 -31.178058 34.259677 -0.805369 2.714204 0.088572 -0.027433 887648.000000 0 0 1
-8.774151 10.850181 -30.405658 33.454689 -0.890795 2.711341 0.097139 -0.030783 550797.000000 0 0 1
-7.951251 11.810981 -31.275298 34.363730 -0.978279 2.714383 0.070968 -0.029650 -285288.000000 0 0 1
-8.559451 13.059281 -31.505268 35.162351 -0.990613 2.681462 0.070629 -0.025095 105623.000000 0 0 1
-7.601351 13.957481 -32.035078 35.760845 -1.072103 2.681056 0.041856 -0.020901 -80318.500000 0 0 1
-8.054851 15.402681 -32.273788 36.656795 -1.088957 2.647567 0.048284 -0.020532 -1894.860000 0 0 1
-8.740851 15.561181 -33.519888 37.975462 -1.059008 2.652314 0.056500 -0.024914 244971.000000 0 0 1
-8.962351 16.932581 -33.763168 38.819938 -1.083987 2.625467 0.066095 -0.027182 -1503860.000000 0 0 1
-9.568151 17.122981 32.723662 38.152118 -1.061230 0.539987 0.051569 -0.037032 -12147.700000 0 0 1
-10.832851 16.573181 32.480826 38.039783 -0.991868 0.547431 0.042898 -0.034612 -201943.000000 0 0 1
-11.898351 16.916481 33.331786 39.226854 -0.957820 0.555345 0.055548 -0.045321 -1980470.000000 0 0 1
-13.195051 16.526481 32.651331 38.901715 -0.897020 0.574749 0.068467 -0.043002 -928202.000000 0 0 1
-13.376151 15.128681 32.292186 38.086529 -0.846803 0.558853 0.058619 -0.037199 470119.000000 0 0 1
-14.303651 14.435381 33.132194 38.867943 -0.789982 0.550181 0.056777 -0.031427 7559.590000 0 0 1
-14.252951 12.895081 33.125258 38.297682 -0.735423 0.525762 0.047604 -0.025191 -231479.000000 0 0 1
-14.372951 12.287481 31.831725 37.024622 -0.707334 0.536027 0.032940 -0.024384 640279.000000 0 0 1
-13.146351 12.133281 31.107995 35.885240 -0.745345 0.521898 0.041555 -0.014020 38384.200000 0 0 1
-13.394151 11.715681 29.648825 34.579088 -0.718652 0.540560 0.050062 -0.007635 -247900.000000 0 0 1
-13.932251 10.379581 29.536885 34.267637 -0.640296 0.531699 0.040488 -0.003996 382284.000000 0 0 1
-14.343251 10.039781 28.179795 33.175698 -0.610703 0.555929 0.041226 0.002010 118436.000000 0 0 1
-15.181951 8.728081 28.253075 33.240146 -0.521758 0.554871 0.045130 0.003627 244762.000000 0 0 1
-14.488951 7.516581 28.606915 32.936064 -0.478559 0.518509 0.020604 0.000579 83090.900000 0 0 1
-15.306851 6.413581 28.325105 32.829032 -0.396778 0.530001 0.046129 0.004245 -136532.000000 0 0 1
-14.592451 5.066381 28.415005 32.342238 -0.334171 0.497931 0.047473 -0.001700 414272.000000 0 0 1
-13.574651 4.685281 27.477585 31.003882 -0.332347 0.481583 0.037237 -0.007622 340717.000000 0 0 1
-14.145651 4.399181 26.225335 30.120101 -0.301510 0.514188 0.044696 -0.004924 -273834.000000 0 0 1
-13.205051 4.172581 25.023085 28.599626 -0.306056 0.505475 0.028986 -0.002642 -827757.000000 0 0 1
-12.448751 3.034481 25.110615 28.190823 -0.239095 0.471832 0.024160 -0.004625 -226413.000000 0 0 1
-11.856751 2.693881 23.853105 26.773311 -0.223410 0.471411 0.024920 -0.008418 -214270.000000 0 0 1
-10.853651 1.508481 23.847225 26.244379 -0.138099 0.430732 0.021035 -0.008992 -442644.000000 0 0 1
-9.563051 2.027481 23.977985 25.894139 -0.208918 0.387119 0.014724 -0.019820 -872360.000000 0 0 1
-8.644851 1.064481 24.367125 25.877082 -0.122518 0.343300 0.007768 -0.009722 -35028.600000 0 0 1
-7.166651 1.515781 24.204805 25.288952 -0.208433 0.293871 0.047493 -0.025587 -721448.000000 0 0 1
-6.805751 1.530781 22.834035 23.875819 -0.221243 0.296494 0.062654 -0.025833 1336640.000000 0 1 0
-5.390251 1.660081 22.530835 23.226046 -0.298760 0.245287 0.063562 -0.029387 1341590.000000 0 1 0
-4.667451 2.920581 23.019115 23.668430 -0.559127 0.234777 0.082459 -0.032012 -871373.000000 0 1 0
-4.501851 2.969081 24.408235 24.996881 -0.583042 0.217448 0.082952 -0.032790 -25364.200000 0 1 0
-4.265251 4.280781 24.883695 25.606947 -0.787215 0.238237 0.086630 -0.031520 77705.600000 0 0 1
5.018549 -24.607619 13.492422 28.509054 -1.369612 1.077800 0.121171 -0.008396 -236598.000000 0 0 1
4.024749 -25.546799 13.774722 29.301544 -1.414537 1.081390 0.136027 -0.043822 136198.000000 0 0 1
2.752649 -24.967619 13.397322 28.468356 -1.460991 1.080821 0.109965 -0.047532 969949.000000 0 0 1
1.542149 -25.763039 13.938822 29.332629 -1.511009 1.075607 0.077780 -0.053990 -134680.000000 0 0 1
1.571749 -25.909409 15.345622 30.153871 -1.510207 1.036878 0.124998 -0.050821 23065.300000 0 0 1
1.908449 -27.218969 15.680422 31.470463 -1.500796 1.049207 0.116891 -0.049432 -164440.000000 0 0 1
1.801949 -27.490059 17.116722 32.433509 -1.505341 1.014849 0.105237 -0.047501 128369.000000 0 0 1
2.772649 -26.753159 17.880222 32.297390 -1.467527 0.984101 0.129657 -0.048706 555054.000000 0 0 1
2.971549 -27.226429 19.188022 33.440824 -1.462085 0.959670 0.106169 -0.043117 440278.000000 0 0 1
3.864649 -26.292599 20.080922 33.308853 -1.424855 0.923702 0.096250 -0.043045 297219.000000 0 0 1
3.132749 -25.161809 20.420422 32.556479 -1.446930 0.892804 0.092172 -0.042800 614311.000000 0 0 1
3.957449 -24.305219 21.255722 32.530152 -1.409390 0.858708 0.094477 -0.032266 818255.000000 0 0 1
3.083049 -23.236619 21.976622 32.131255 -1.438886 0.817614 0.116623 -0.041580 305882.000000 0 0 1
2.493849 -22.146919 21.236922 30.784934 -1.458664 0.809517 0.113639 -0.041625 195812.000000 0 0 1
3.402249 -21.270619 20.583122 29.793949 -1.412189 0.808134 0.091394 -0.029288 -22058.200000 0 0 1
2.684849 -20.080019 19.906122 28.401923 -1.437877 0.794177 0.065724 -0.030084 43377.200000 0 0 1
2.473849 -19.047219 20.887622 28.376209 -1.441640 0.743511 0.054620 -0.028097 204061.000000 0 0 1
1.529549 -18.122819 20.378722 27.314252 -1.486597 0.728635 0.058621 -0.027530 58257.800000 0 0 1
1.497349 -16.836119 21.223622 27.131883 -1.482093 0.672544 0.069437 -0.020975 -510747.000000 0 0 1
2.622249 -16.053119 21.035322 26.590667 -1.408878 0.658225 0.027194 -0.001871 -470636.000000 0 0 1
2.318449 -14.624619 21.295422 25.937418 -1.413574 0.607582 0.045231 -0.004312 390393.000000 0 0 1
3.369749 -13.571019 20.817722 25.077984 -1.327414 0.591474 0.006333 -0.005122 -415088.000000 0 0 1
3.507049 -13.329219 19.406922 23.803279 -1.313518 0.617541 -0.010046 -0.008606 860770.000000 0 1 0
2.286749 -13.109219 18.639322 22.902077 -1.398096 0.620014 0.001506 0.002862 1146000.000000 0 1 0
1.362549 -11.905219 19.043622 22.500007 -1.456842 0.561640 0.005025 -0.002351 -76728.500000 0 1 0
1.890949 -10.563819 18.880222 21.717107 -1.393670 0.516868 0.008785 -0.006328 -179647.000000 0 1 0
1.567149 -9.658919 19.905122 22.180274 -1.409949 0.456900 0.019203 -0.014225 661089.000000 0 1 0
0.148549 -9.002719 19.818422 21.767886 -1.554297 0.426442 0.018342 -0.019970 516555.000000 0 1 0
-0.234351 -8.367519 20.993722 22.601032 1.542796 0.379410 0.026522 -0.020842 -899917.000000 0 1 0
-1.526251 -7.870719 20.990222 22.469247 1.379258 0.364855 0.029115 -0.020533 -680120.000000 0 1 0
-1.883551 -7.247819 22.301622 23.525326 1.316542 0.323956 0.024446 -0.014397 -243913.000000 0 1 0
-2.220951 -8.126619 23.348522 24.821926 1.304017 0.346282 0.027419 -0.008719 69356.500000 0 1 0
-2.209651 -7.503419 24.648222 25.859596 1.284406 0.307293 0.025653 -0.004295 11871.900000 0 0 1
-2.474251 -8.386519 25.892722 27.329264 1.283908 0.325673 0.031852 -0.006062 153229.000000 0 0 1
-1.475551 -9.368919 25.968722 27.646490 1.414585 0.350173 0.039849 -0.005777 -29728.000000 0 0 1
-1.675551 -10.085919 27.157722 29.018530 1.406172 0.360061 0.057712 -0.013160 -427752.000000 0 0 1
-0.579551 -11.107719 27.381122 29.554071 1.518668 0.385859 0.077015 -0.016302 -664420.000000 0 0 1
0.610249 -10.518219 27.807522 29.736570 -1.512843 0.362174 0.071484 -0.017454 -930423.000000 0 0 1
1.635949 -11.456919 27.909122 30.213513 -1.428964 0.393090 0.082885 -0.019247 -406685.000000 0 0 1
2.781049 -11.012219 28.820822 30.978105 -1.323427 0.375400 0.103314 -0.027512 -311286.000000 0 0 1
2.410849 -10.805219 30.167722 32.134971 -1.351273 0.351720 0.108716 -0.036039 -548262.000000 0 0 1
3.414249 -10.350319 31.017322 32.876442 -1.252167 0.337905 0.140529 -0.028355 -254638.000000 0 0 1
2.762549 -9.995719 32.402522 34.021603 -1.301154 0.309749 0.136826 -0.029979 142307.000000 0 0 1
2.217649 -10.981319 33.216622 35.054975 -1.371529 0.325290 0.136208 -0.035312 -79312.500000 0 0 1
1.819149 -10.461919 -33.397492 35.045021 -1.398635 2.833746 0.113896 -0.037181 -332761.000000 0 0 1
2.884949 -10.388519 -32.279092 34.032103 -1.299917 2.819230 0.095468 -0.020629 -19421.800000 0 0 1
3.950849 -9.555619 -32.721892 34.316778 -1.178742 2.835521 0.084117 -0.026215 244563.000000 0 0 1
4.475349 -8.664019 -31.707892 33.173549 -1.094001 2.843228 0.095712 -0.032888 -126615.000000 0 0 1
3.648849 -7.390419 -31.464392 32.525995 -1.112180 2.885399 0.090003 -0.025846 -234978.000000 0 0 1
3.667649 -6.478619 -32.539192 33.379981 -1.055664 2.916671 0.121279 -0.033950 206708.000000 0 0 1
2.865249 -5.339019 -32.220792 32.785579 -1.078251 2.955709 0.091042 -0.018803 99459.200000 0 0 1
3.066349 -4.150019 -33.150192 33.549372 -0.934453 2.987178 0.096965 -0.017625 -325437.000000 0 0 1
2.410049 -4.248019 33.518222 33.872189 -1.054742 0.144695 0.104900 -0.032843 -522152.000000 0 0 1
2.532949 -3.116919 32.730222 32.975725 -0.888392 0.122100 0.121831 -0.031428 200461.000000 0 0 1
1.683049 -3.116819 31.428422 31.627408 -1.075671 0.112233 0.145283 -0.035919 1514620.000000 0 0 1
0.272349 -2.833319 31.599622 31.727559 -1.474967 0.089834 0.136069 -0.038929 1116060.000000 0 0 1
-0.535051 -3.587919 30.709222 30.922738 1.422762 0.117582 0.133051 -0.029976 491516.000000 0 0 1
-2.070851 -3.510319 30.856422 31.124420 1.037812 0.131324 0.102577 -0.026343 218219.000000 0 0 1
-2.686851 -2.455219 30.190322 30.408926 0.740382 0.119979 0.093879 -0.028509 114046.000000 0 0 1
-4.101951 -2.498719 30.353522 30.731187 0.547123 0.156937 0.068435 -0.026493 435535.000000 0 0 1
-4.854551 -1.385619 29.612922 30.040169 0.278034 0.168857 0.044173 -0.019032 -387099.000000 0 0 1
-4.917451 -1.686319 28.244222 28.718654 0.330358 0.182020 0.029181 -0.022575 -519242.000000 0 0 1
-5.872951 -1.009019 27.496122 28.134434 0.170147 0.213421 0.009299 -0.021480 -194177.000000 0 0 1
-5.992251 0.572381 27.559722 28.209448 -0.095231 0.215040 0.051044 -0.023494 -432885.000000 0 0 1
-6.792651 0.962281 28.613022 29.423989 -0.140729 0.235325 0.042135 -0.018993 -603113.000000 0 0 1
-7.019551 2.361881 28.701022 29.641208 -0.324573 0.252539 0.049655 -0.018190 305626.000000 0 0 1
-8.432351 2.577081 29.346622 30.642619 -0.296603 0.291875 0.042619 -0.018848 666098.000000 0 0 1
-9.463251 2.234081 28.446422 30.062321 -0.231835 0.329364 0.024825 -0.012377 335934.000000 0 0 1
-10.756251 2.735281 28.800922 30.865382 -0.249019 0.367818 0.026073 -0.006898 592118.000000 0 0 1
-11.847451 1.966381 28.019922 30.485157 -0.164476 0.404922 0.032788 -0.001505 -286247.000000 0 0 1
-11.998951 0.601681 28.378822 30.817112 -0.050103 0.400468 0.040907 -0.007602 -68927.200000 0 0 1
-12.444451 -0.115419 27.283222 29.987529 0.009274 0.427949 0.045613 -0.005055 -770041.000000 0 0 1
-12.296251 -1.655919 27.495322 30.165089 0.133863 0.423893 0.049250 -0.012378 548514.000000 0 0 1
-11.012051 -2.192919 27.849522 30.027821 0.196567 0.383242 0.042801 -0.017107 1485690.000000 0 0 1
-9.878751 -2.001419 26.972722 28.794498 0.199893 0.357622 0.035687 -0.017993 415860.000000 0 0 1
-9.973951 -2.732419 25.567822 27.580053 0.267395 0.384355 0.021344 -0.016349 -570160.000000 0 0 1
-10.891851 -2.097319 24.677822 27.055980 0.190230 0.422413 0.021465 -0.016053 458779.000000 0 0 1
-10.749951 -2.489819 23.289822 25.771621 0.227599 0.442462 0.027948 -0.020679 -228528.000000 0 0 1
-9.540451 -1.913819 22.517922 24.530383 0.197973 0.407888 0.018102 -0.025644 -158080.000000 0 1 0
-8.311951 -2.285419 23.060722 24.619272 0.268325 0.357731 0.020462 -0.022010 -990953.000000 0 1 0
-7.278451 -2.028019 22.180622 23.432215 0.271741 0.328316 0.012560 -0.016849 468042.000000 0 1 0
-5.802051 -2.229119 22.691622 23.527483 0.366808 0.267355 0.020209 -0.012851 1221100.000000 0 1 0
-5.127751 -3.523019 22.779922 23.614198 0.601981 0.266606 0.015148 -0.009054 111258.000000 0 1 0
-5.763251 -4.455219 23.583222 24.682633 0.658084 0.299588 0.019436 -0.013736 -477135.000000 0 1 0
-5.473851 -5.876319 23.197722 24.548492 0.820842 0.333277 0.023905 -0.013426 19234.500000 0 1 0
-6.246451 -6.438219 22.113822 23.863988 0.800515 0.385366 0.019120 -0.020566 382569.000000 0 1 0
-5.663251 -6.118819 20.848722 22.453988 0.824045 0.380420 0.015045 -0.020039 356039.000000 0 1 0
-6.769051 -6.047219 19.734422 21.721793 0.729136 0.431097 0.027687 -0.022302 318974.000000 0 1 0
-7.679851 -4.980419 19.946222 21.946217 0.575323 0.430234 0.017283 -0.023562 -607509.000000 0 1 0
-8.688251 -4.982319 18.996722 21.475210 0.520672 0.485186 0.034672 -0.017897 -577262.000000 0 1 0
-9.523551 -3.715119 19.199322 21.751186 0.371941 0.489263 0.043439 -0.017145 -170334.000000 0 1 0
-8.721451 -2.604719 18.761722 20.853069 0.290224 0.451691 0.036393 -0.015361 184055.000000 0 1 0
-9.409051 -1.385819 18.603322 20.893404 0.146234 0.472590 0.033151 -0.019416 38028.600000 0 1 0
-8.492351 -0.153219 18.210022 20.093491 0.018040 0.436434 0.018244 -0.016323 189340.000000 0 1 0
-7.788051 0.473281 19.260522 20.780891 -0.060696 0.384894 0.028764 -0.004392 149770.000000 0 1 0
-8.565651 1.065881 20.288022 22.047909 -0.123800 0.402259 0.064892 -0.003865 -291994.000000 0 1 0
-8.707951 2.593081 20.214722 22.162749 -0.289422 0.422410 0.063259 -0.009623 -172773.000000 0 1 0
-9.403251 2.960581 19.081022 21.477234 -0.305021 0.476883 0.036143 -0.021540 -207149.000000 0 1 0
-8.927251 4.179181 18.571322 21.025113 -0.437834 0.487957 0.035294 -0.027103 -393543.000000 0 1 0
-9.707151 4.791281 17.392422 20.486129 -0.458501 0.556734 0.030759 -0.017599 -191966.000000 0 1 0
-10.923051 5.340181 17.860222 21.605974 -0.454721 0.597698 0.031860 -0.006853 130073.000000 0 1 0
-11.511351 6.361481 16.981522 21.479100 -0.504858 0.658997 0.026721 0.015762 135203.000000 0 1 0
-10.891851 7.769681 16.989622 21.625162 -0.619628 0.667064 0.014044 0.016790 -258671.000000 0 1 0
-9.624951 7.802381 16.351622 20.515662 -0.681196 0.648433 0.009958 -0.006998 463965.000000 0 1 0
-8.982151 9.083681 16.266722 20.683291 -0.791018 0.665729 -0.022653 -0.010450 237711.000000 0 1 0
-8.272451 9.670281 17.516522 21.651243 -0.863146 0.628295 0.011034 0.011527 -191493.000000 0 1 0
-9.197251 10.054381 18.525122 22.996960 -0.829891 0.634199 0.070207 0.018192 62180.300000 0 1 0
-9.103651 11.431881 18.876022 23.871920 -0.898292 0.658811 0.100838 0.015947 -34896.100000 0 1 0
-9.853651 12.457481 18.003422 24.008467 -0.901578 0.722919 0.114137 -0.002641 -85187.100000 0 1 0
-9.190551 12.764681 16.800622 23.014435 -0.946774 0.752469 0.080499 -0.005417 -54289.100000 0 1 0
-9.899351 13.802581 16.129722 23.423841 -0.948613 0.811236 0.082649 -0.019681 46497.100000 0 1 0
-9.386451 14.095781 14.746622 22.455720 -0.983321 0.854365 0.062911 -0.019840 1521870.000000 0 1 0
-8.097951 14.791181 14.639822 22.331150 -1.069886 0.855848 0.066341 -0.015340 1243190.000000 0 1 0
-7.832951 15.048681 13.308422 21.562282 -1.090878 0.905607 0.050068 -0.028533 192712.000000 0 1 0
-6.800751 16.202081 13.066922 21.897536 -1.173385 0.931376 0.030038 -0.022478 1343240.000000 0 1 0
-5.439951 15.919781 13.468422 21.550659 -1.241526 0.895709 0.031934 -0.024940 441564.000000 0 1 0
-4.807551 17.186881 13.574222 22.422331 -1.298045 0.920542 0.031083 -0.025372 1289530.000000 0 1 0
-3.224551 17.015281 13.544822 21.985898 -1.383508 0.907054 0.028486 -0.027255 1603430.000000 0 1 0
-2.492151 16.559581 14.672722 22.264755 -1.421421 0.851293 0.041743 -0.028391 -60935.100000 0 1 0
-2.861651 15.249481 15.116622 21.662133 -1.385298 0.798424 0.036074 -0.015665 -1319900.000000 0 1 0
-1.933051 14.594481 16.061722 21.787944 -1.439112 0.741903 0.032746 -0.011280 -4379.810000 0 1 0
-0.685751 14.291081 15.405322 21.024491 -1.522849 0.748468 0.029146 -0.022089 777805.000000 0 1 0
0.423249 13.936781 16.238922 21.403635 1.540436 0.709482 0.022206 -0.009678 787679.000000 0 1 0
1.243649 15.064181 16.923022 22.690634 1.488426 0.729038 0.023353 -0.015120 -393591.000000 0 1 0
0.586149 15.804481 17.914422 23.896688 1.533726 0.723246 0.020200 -0.015704 -562171.000000 0 1 0
1.346449 16.886681 18.410422 25.018325 1.491230 0.743835 0.058015 -0.018422 15533.900000 0 0 1
0.464449 18.051481 19.007122 26.217215 1.545073 0.759782 0.071663 -0.023458 511637.000000 0 0 1
-0.102951 19.022181 18.176522 26.310453 -1.565384 0.808135 0.057601 -0.026046 317030.000000 0 0 1
-1.171651 18.626381 17.308422 25.453808 -1.507976 0.823043 0.044023 -0.023515 6824.800000 0 0 1
-1.817351 19.784681 16.488422 25.818684 -1.479197 0.878088 0.052236 -0.021180 -175001.000000 0 0 1
-2.482351 20.665281 17.329022 27.083407 -1.451247 0.876507 0.045210 -0.021290 -436039.000000 0 0 1
-3.126651 21.629881 16.609922 27.450268 -1.427238 0.920916 0.057063 -0.026259 -839971.000000 0 0 1
-4.052451 22.588381 17.401622 28.800586 -1.393281 0.922021 0.044237 -0.014318 72677.800000 0 0 1
-5.129551 21.876381 18.005822 28.794061 -1.340478 0.895241 0.063991 -0.023534 -145177.000000 0 0 1
-5.637951 22.725681 18.988522 30.146427 -1.327619 0.889402 0.064354 -0.019950 166688.000000 0 0 1
-6.935451 22.185981 19.660622 30.444348 -1.267816 0.868740 0.049702 -0.027180 -150272.000000 0 0 1
-8.142351 22.611481 19.105822 30.701945 -1.225154 0.899119 0.035427 -0.026003 -517507.000000 0 0 1
-9.199451 21.888181 19.755622 30.887003 -1.172919 0.876806 -0.005103 -0.022106 -523192.000000 0 0 1
-10.531051 22.477781 19.361022 31.480198 -1.132657 0.908382 0.014183 -0.028633 -931914.000000 0 0 1
-10.682451 23.842181 19.712722 32.728516 -1.149567 0.924404 0.023978 -0.021869 316103.000000 0 0 1
-11.740151 24.466081 18.975722 33.113416 -1.123395 0.960571 0.008116 -0.023150 282743.000000 0 0 1
-12.131151 25.872481 19.498822 34.594135 -1.132351 0.972004 0.022262 -0.021224 -137970.000000 0 0 1
-12.920551 25.816581 20.672522 35.507600 -1.106769 0.949364 0.022290 -0.018173 352243.000000 0 0 1
-13.530851 27.049081 21.022422 36.833123 -1.106962 0.963380 0.036072 -0.022360 -563967.000000 0 0 1
-14.377851 27.025281 22.294122 37.869728 -1.081866 0.941340 0.071625 -0.038094 -189111.000000 0 0 1
-15.617651 26.381281 22.004322 37.736895 -1.036282 0.948259 0.059335 -0.032197 276648.000000 0 0 1
-16.436951 26.556881 23.157522 38.880742 -1.016571 0.932779 0.043830 -0.018219 416526.000000 0 0 1
-17.888751 26.009781 23.047022 39.085565 -0.968326 0.940164 0.057116 -0.019821 466329.000000 0 0 1
-17.978551 24.626881 23.120122 38.265541 -0.940194 0.922032 0.061909 -0.018614 -566465.000000 0 0 1
-19.362151 24.435181 23.036622 38.764119 -0.900714 0.934430 0.071016 -0.011729 -246647.000000 0 0 1
28.380149 23.709581 23.498185 43.814859 0.695973 1.004742 0.085650 -0.018400 -9300.110000 0 0 1
28.254149 22.856781 24.600945 43.885486 0.680187 0.975721 0.078616 -0.022403 112371.000000 0 0 1
27.699449 21.585181 24.290095 42.698809 0.661968 0.965664 0.078835 -0.008368 -244246.000000 0 0 1
27.293749 20.842981 25.583475 42.823975 0.652183 0.930529 0.098510 -0.010229 1197.240000 0 0 1
26.095449 21.442481 26.025085 42.638686 0.687830 0.914277 0.094474 -0.013541 -217130.000000 0 0 1
25.643749 20.730681 27.187245 42.737680 0.679848 0.881308 0.098382 -0.021434 -78746.000000 0 0 1
24.353349 21.229381 27.850855 42.654922 0.716971 0.859344 0.104277 -0.023603 -177483.000000 0 0 1
24.423649 22.482081 28.424235 43.702354 0.744029 0.862679 0.118041 -0.031577 981294.000000 0 0 1
23.222849 22.677681 29.228895 43.679587 0.773522 0.837710 0.140771 -0.031570 966001.000000 0 0 1
23.040349 24.128081 29.666475 44.644392 0.808455 0.843963 0.135196 -0.033376 -306191.000000 0 0 1
22.436949 24.942881 28.686635 44.141670 0.838239 0.863374 0.134608 -0.038275 -144295.000000 0 0 1
22.103149 26.231881 29.147735 45.013901 0.870610 0.866461 0.114074 -0.041091 528193.000000 0 0 1
20.764649 26.374781 29.982935 45.008623 0.903852 0.841748 0.104290 -0.038201 339365.000000 0 0 1
19.647849 26.361081 29.077215 43.891104 0.930287 0.846664 0.096461 -0.037457 551231.000000 0 0 1
18.442349 26.728581 29.732255 44.028903 0.966823 0.829439 0.083453 -0.032498 545746.000000 0 0 1
17.606949 25.594581 30.387095 43.456447 0.968226 0.796443 0.066887 -0.021428 -305792.000000 0 0 1
18.202849 25.171381 31.607435 44.316725 0.944698 0.776719 0.078347 -0.025701 327709.000000 0 0 1
17.318049 24.334081 32.341826 44.023358 0.952275 0.745643 0.074483 -0.023162 105640.000000 0 0 1
17.767649 24.019981 33.748273 45.073216 0.933918 0.724632 0.093386 -0.028899 -239987.000000 0 0 1
17.724249 25.137281 -33.301678 45.332479 0.956657 2.395888 0.080734 -0.031725 214193.000000 0 0 1
18.145649 24.907081 -31.948098 44.388155 0.941176 2.374230 0.079935 -0.024621 111856.000000 0 0 1
18.235349 26.235881 -31.102258 44.589235 0.963398 2.342739 0.057681 -0.010845 499320.000000 0 0 1
16.945049 26.609681 -30.613158 43.958791 1.003756 2.341173 0.084987 -0.029804 763791.000000 0 0 1
17.076249 27.832081 -29.990408 44.335625 1.020476 2.313715 0.068229 -0.022516 -409315.000000 0 0 1
16.780849 27.949081 -28.495848 43.298515 1.030077 2.289122 0.082149 -0.019060 3099.060000 0 0 1
17.575549 27.075181 -27.717848 42.546968 0.995027 2.280310 0.051553 -0.000475 245882.000000 0 0 1
17.136249 27.319381 -26.390138 41.670601 1.010576 2.256611 0.066905 -0.005536 297556.000000 0 0 1
18.040749 26.779681 -25.235188 40.980906 0.977959 2.234171 0.057037 -0.008008 257669.000000 0 0 1
19.367649 27.259881 -25.247048 41.900124 0.953070 2.217493 0.059360 0.000186 -14734.700000 0 0 1
20.159749 26.614481 -24.250978 41.265676 0.922530 2.198984 0.048417 0.002237 -906667.000000 0 0 1
21.632949 26.882681 -24.331778 42.222014 0.893186 2.184968 0.054541 0.004220 -1080810.000000 0 0 1
22.269549 26.699581 -23.074278 41.727962 0.875618 2.156720 0.036296 0.003359 467780.000000 0 0 1
23.615549 26.309581 -23.387678 42.389524 0.839307 2.155236 0.047375 0.006834 633119.000000 0 0 1
24.535749 25.906581 -22.207378 42.027629 0.812568 2.127511 0.067901 0.002906 23754.300000 0 0 1
24.144749 24.751681 -21.567578 40.752608 0.797810 2.128491 0.069302 -0.001800 -59501.900000 0 0 1
24.420349 24.841981 -20.220278 40.278246 0.793957 2.096723 0.063847 -0.000908 -231778.000000 0 0 1
23.776449 23.713281 -19.366678 38.764771 0.784068 2.093927 0.060903 -0.005922 -636237.000000 0 0 1
24.295849 22.422881 -19.521378 38.394767 0.745329 2.104167 0.059265 0.003406 128389.000000 0 0 1
23.852849 21.523081 -18.513578 37.080372 0.734100 2.093567 0.059087 0.003872 -447746.000000 0 0 1
24.123749 20.035081 -19.001478 36.666278 0.693071 2.115574 0.070376 -0.001028 642201.000000 0 0 1
23.242249 19.552981 -20.045978 36.391791 0.699403 2.154164 0.063014 -0.002652 819542.000000 0 0 1
21.858849 19.495581 -19.717378 35.308101 0.728314 2.163298 0.067941 0.000358 60990.000000 0 0 1
20.965949 19.380781 -20.987778 35.435470 0.746130 2.204684 0.048183 0.009438 56837.000000 0 0 1
21.060949 20.386981 -21.994678 36.646398 0.769139 2.214531 0.042197 0.008164 -151432.000000 0 0 1
20.957649 21.731081 -21.510778 37.069887 0.803514 2.189864 0.050546 0.005694 -218585.000000 0 0 1
20.617949 22.680281 -22.644878 38.108864 0.832993 2.207086 0.048080 0.000298 1763820.000000 0 0 1
19.205949 22.527381 -23.001778 37.489108 0.864818 2.231356 0.059761 0.002291 1199750.000000 0 0 1
19.046249 22.875781 -24.348678 38.456717 0.876494 2.256406 0.059629 -0.001635 727988.000000 0 0 1
17.512849 22.923781 -24.674778 37.961089 0.918421 2.278383 0.066466 -0.005838 813326.000000 0 0 1
16.773449 23.875681 -23.881078 37.705472 0.958373 2.256682 0.059934 -0.007563 -1057490.000000 0 0 1
15.453549 23.682181 -24.193478 37.215350 0.992638 2.278505 0.062799 -0.002397 -748936.000000 0 0 1
14.473149 24.779281 -23.603278 37.156420 1.042163 2.259117 0.055799 -0.000431 451433.000000 0 0 1
14.510349 25.996981 -24.265978 38.408736 1.061714 2.254647 0.043326 0.000047 5940.290000 0 0 1
13.479849 26.808381 -23.769378 38.280269 1.104894 2.240725 0.049922 0.003011 7489.100000 0 0 1
13.424349 28.199381 -24.454378 39.666546 1.126491 2.235084 0.054211 -0.002365 -103161.000000 0 0 1
13.302449 28.229481 -25.824608 40.506409 1.130432 2.262102 0.057517 -0.013860 -137911.000000 0 0 1
12.940149 29.513281 -26.367428 41.637994 1.157587 2.256547 0.087979 -0.022217 -227437.000000 0 0 1
13.846149 30.770581 -26.297738 42.779850 1.147959 2.232830 0.094940 -0.020741 83714.900000 0 0 1
15.113349 30.649681 -26.923578 43.505119 1.112684 2.238087 0.077113 -0.014885 -15638.000000 0 0 1
15.728349 31.922881 -26.933498 44.630311 1.113007 2.218655 0.083715 -0.022816 537926.000000 0 0 1
17.207749 31.911681 -27.429888 45.462741 1.076259 2.218490 0.081522 -0.009408 898710.000000 0 0 1
18.160649 31.223381 -26.617578 44.868744 1.043989 2.205864 0.050154 -0.008093 499261.000000 0 0 1
19.466449 31.247181 -27.152068 45.744549 1.013649 2.206270 0.056438 -0.005555 -108242.000000 0 0 1
20.587249 30.563481 -26.342048 45.297513 0.978016 2.191409 0.042153 -0.002401 -348774.000000 0 0 1
20.740449 31.147981 -25.081798 45.049524 0.983347 2.161277 0.044838 -0.009245 24144.600000 0 0 1
21.343049 32.438381 -24.990778 46.176978 0.988848 2.142655 0.044474 -0.020464 87912.100000 0 0 1
22.885449 32.529781 -25.221428 47.096188 0.957710 2.135932 0.017428 -0.007478 221782.000000 0 0 1
23.210349 32.221381 -26.577428 47.783861 0.946549 2.160604 0.028871 0.003467 -95260.800000 0 0 1
24.511249 32.565881 -26.998828 48.890436 0.925591 2.155835 0.023301 0.008508 -248648.000000 0 0 1
24.792649 31.915181 -28.386088 49.386478 0.910344 2.183125 0.028565 0.007289 -84867.100000 0 0 1
23.936449 32.322481 -29.439198 49.843383 0.933370 2.202641 0.049824 -0.010084 -221456.000000 0 0 1
22.958849 31.355681 -29.687398 48.904285 0.938780 2.223141 0.031080 -0.007207 186161.000000 0 0 1
21.743449 31.864081 -30.546788 49.205727 0.971993 2.240556 0.050209 -0.008885 -97969.500000 0 0 1
21.120049 33.052381 -30.022738 49.395154 1.002202 2.224093 0.067294 -0.010682 -123812.000000 0 0 1
20.222049 33.671681 -30.873988 49.959149 1.029961 2.236973 0.072809 -0.023176 -720907.000000 0 0 1
18.766549 33.254081 -30.593078 48.928046 1.057012 2.246270 0.079662 -0.030885 -776689.000000 0 0 1
18.325049 31.965081 -30.879388 48.074010 1.050253 2.268331 0.074264 -0.024702 33116.600000 0 0 1
18.662849 31.329281 -32.083828 48.571574 1.033545 2.292344 0.086179 -0.030118 -817471.000000 0 0 1
18.007749 31.884781 -33.399648 49.562635 1.056680 2.310254 0.095690 -0.038531 67522.600000 0 0 1
18.533649 33.200181 -33.823288 50.889714 1.061649 2.297807 0.094504 -0.034942 441293.000000 0 0 1
18.066049 33.593581 32.733810 50.263438 1.077381 0.861572 0.085224 -0.034849 732876.000000 0 0 1
16.564249 -33.853302 32.508141 49.771475 -1.115749 0.859062 0.093228 -0.038842 20131.900000 0 0 1
15.656749 32.963581 32.443027 48.829105 1.127372 0.844079 0.093000 -0.035460 35364.800000 0 0 1
14.285149 33.281881 32.219991 48.475530 1.165359 0.843751 0.082563 -0.040433 719918.000000 0 0 1
13.897149 33.911881 30.868695 47.916832 1.181869 0.870801 0.071279 -0.039290 -1232120.000000 0 0 1
14.226649 -32.559902 30.792705 47.018459 -1.158858 0.856737 0.091155 -0.028607 198237.000000 0 0 1
13.696949 -31.960602 29.650695 45.697377 -1.165916 0.864726 0.082453 -0.022959 -368438.000000 0 0 1
14.240749 -30.572702 29.320825 44.690042 -1.134882 0.855166 0.080995 -0.018059 -224195.000000 0 0 1
13.719849 -29.576302 30.167495 44.419249 -1.136460 0.824187 0.088336 -0.020253 320372.000000 0 0 1
14.256049 -28.265902 29.995825 43.611302 -1.103671 0.812343 0.092404 -0.023765 -385748.000000 0 0 1
13.783049 -27.252802 31.065855 43.563460 -1.102561 0.776862 0.090980 -0.025251 282094.000000 0 0 1
12.396549 -26.941902 31.119525 42.987968 -1.139557 0.761340 0.085569 -0.024022 443215.000000 0 0 1
11.993949 -25.950402 30.160045 41.556065 -1.137854 0.758647 0.068080 -0.020066 -263223.000000 0 0 1
12.412249 -24.473002 30.414305 40.963664 -1.101420 0.734046 0.089876 -0.024633 -344464.000000 0 0 1
11.480149 -23.931602 31.269955 41.016162 -1.123515 0.703811 0.087659 -0.031984 -112773.000000 0 0 1
11.965849 -22.686102 31.659435 40.745069 -1.085428 0.680890 0.088142 -0.032908 -62911.000000 0 0 1
11.088049 -21.991702 32.703184 40.939932 -1.103800 0.645484 0.075849 -0.031939 -515694.000000 0 0 1
10.875349 -22.643502 -33.922018 42.210244 -1.123044 2.504190 0.081017 -0.034150 -111246.000000 0 0 1
11.964449 -22.830202 -33.053078 41.915059 -1.088085 2.479281 0.094829 -0.027320 -71058.200000 0 0 1
12.517849 -21.598702 -32.251188 40.784061 -1.045538 2.482877 0.090024 -0.035511 380252.000000 0 0 1
13.202849 -20.718702 -33.159568 41.269078 -1.003441 2.503942 0.072130 -0.035196 234863.000000 0 0 1
13.940549 -19.659902 -32.633168 40.568144 -0.953999 2.505467 0.076385 -0.036021 -100306.000000 0 0 1
14.339049 -18.533602 -33.619088 40.979822 -0.912312 2.532874 0.058874 -0.029346 -308327.000000 0 0 1
15.288549 -18.908802 33.271303 41.209977 -0.890869 0.631131 0.076721 -0.020854 333368.000000 0 0 1
15.250749 -18.091602 32.077064 39.860124 -0.870395 0.635558 0.056055 -0.018176 75177.700000 0 0 1
16.105449 -16.771202 32.181071 39.702394 -0.805645 0.625693 0.071773 -0.017956 -396940.000000 0 0 1
15.695449 -15.955302 33.249876 40.080832 -0.793608 0.592458 0.060984 -0.015697 426331.000000 0 0 1
16.375849 -14.711602 33.108190 39.758671 -0.731915 0.586778 0.075276 -0.024471 -245094.000000 0 0 1
17.814649 -14.546102 33.628565 40.741026 -0.684736 0.599846 0.065504 -0.007914 -124069.000000 0 0 1
18.685349 -15.321302 32.809245 40.747161 -0.686796 0.634799 0.076818 -0.007145 -157689.000000 0 0 1
20.020149 -15.268202 33.282804 41.733313 -0.651543 0.647637 0.075959 -0.002736 311644.000000 0 0 1
21.009149 -16.093902 32.406574 41.839982 -0.653690 0.684815 0.094107 -0.008872 -180782.000000 0 0 1
21.377849 -15.359602 31.289575 40.889697 -0.623023 0.699415 0.067915 -0.001630 175533.000000 0 0 1
22.083649 -16.173702 30.385775 40.897085 -0.632131 0.733282 0.071401 -0.009494 -237007.000000 0 0 1
22.290949 -15.500702 28.987715 39.717072 -0.607619 0.752686 0.063128 0.002421 115636.000000 0 0 1
23.198449 -14.402502 29.122065 39.921107 -0.555602 0.753220 0.038067 0.009936 511893.000000 0 0 1
23.420249 -13.917002 27.827735 38.943213 -0.536166 0.774784 0.038027 -0.000504 44372.000000 0 0 1
24.114749 -12.522602 27.807125 38.878952 -0.478962 0.773853 0.026021 0.001574 178833.000000 0 0 1
23.268949 -11.443202 28.171755 38.288884 -0.457050 0.743996 0.034451 -0.001455 568468.000000 0 0 1
24.015149 -10.206102 28.400015 38.567509 -0.401859 0.743105 0.040529 -0.005313 603294.000000 0 0 1
23.147149 -8.908502 28.261945 37.601722 -0.367390 0.720292 0.055472 -0.012925 529470.000000 0 0 1
22.298749 -8.759402 29.421445 37.941834 -0.374302 0.683392 0.054049 -0.014550 112588.000000 0 0 1
21.293049 -7.780402 29.172795 36.945644 -0.350325 0.660617 0.062155 -0.025476 359683.000000 0 0 1
20.188949 -7.779702 30.270415 37.207734 -0.367809 0.620562 0.050538 -0.014153 26548.800000 0 0 1
20.537749 -7.229502 31.539255 38.324789 -0.338465 0.604218 0.056104 -0.015797 -74203.100000 0 0 1
21.077249 -8.245402 32.358110 39.487775 -0.372896 0.610352 0.067299 -0.024713 -296065.000000 0 0 1
21.347949 -7.920902 33.855685 40.800528 -0.355293 0.592073 0.081623 -0.032905 37055.600000 0 0 1
20.082349 -7.767602 -33.412138 39.749306 -0.369065 2.569134 0.064310 -0.046128 192967.000000 0 0 1
20.149349 -7.142002 -32.157108 38.614558 -0.340637 2.554892 0.069636 -0.053382 -156236.000000 0 0 1
18.754649 -6.914502 -31.534178 37.335661 -0.353220 2.576638 0.076282 -0.047294 36086.000000 0 0 1
18.777749 -6.142502 -30.339628 36.205348 -0.316145 2.564381 0.069441 -0.047135 792231.000000 0 0 1
17.437549 -6.021902 -29.844098 35.085633 -0.332518 2.587936 0.091173 -0.037746 774183.000000 0 0 1
17.305049 -4.945602 -28.739118 33.909595 -0.278369 2.582095 0.078727 -0.036993 -300719.000000 0 0 1
17.906849 -5.202802 -27.500068 33.226167 -0.282763 2.545727 0.071262 -0.028853 152006.000000 0 0 1
17.269949 -6.187302 -26.674888 32.374118 -0.344023 2.539156 0.078466 -0.034382 451754.000000 0 0 1
15.879949 -5.876902 -26.045048 31.065339 -0.354453 2.565130 0.100382 -0.036779 480594.000000 0 0 1
15.989249 -4.936602 -25.011178 30.092942 -0.299460 2.551935 0.079302 -0.033121 -682474.000000 0 0 1
14.699949 -4.862102 -24.497678 28.980421 -0.319430 2.577957 0.090012 -0.038432 -534258.000000 0 0 1
14.441749 -3.583802 -23.640478 27.933492 -0.243242 2.579822 0.086815 -0.031477 45496.700000 0 0 1
14.578249 -2.349402 -24.321278 28.452937 -0.159784 2.595942 0.087054 -0.038797 57954.800000 0 0 1
14.160749 -1.338402 -23.429578 27.409182 -0.094235 2.595976 0.092132 -0.035256 -94249.300000 0 0 1
14.478549 0.130598 -23.791978 27.851457 0.009020 2.594894 0.076460 -0.037392 41308.000000 0 0 1
13.546749 0.706598 -24.718378 28.195956 0.052113 2.639680 0.094157 -0.036214 222284.000000 0 0 1
13.993349 1.969598 -25.203748 28.895018 0.139834 2.630585 0.081717 -0.016494 -203813.000000 0 0 1
13.403349 2.591598 -26.498708 29.808517 0.190998 2.665875 0.072980 -0.015735 -745191.000000 0 0 1
12.188549 3.210598 -26.274758 29.141578 0.257560 2.694307 0.093229 -0.034011 -683720.000000 0 0 1
11.651849 3.684598 -27.520248 30.111558 0.306274 2.723692 0.092566 -0.032832 757883.000000 0 0 1
10.234849 4.349598 -27.375198 29.547802 0.401853 2.755723 0.101821 -0.037804 471642.000000 0 0 1
10.229449 5.526598 -26.671118 29.095248 0.495337 2.730496 0.089512 -0.046920 72674.200000 0 0 1
9.011049 6.185598 -26.912058 29.046850 0.601571 2.755813 0.111959 -0.053324 -108345.000000 0 0 1
8.643349 5.296481 -31.297328 32.898069 0.549764 2.828360 0.096969 -0.040075 -37371.500000 0 0 1
8.547549 4.378781 -30.215528 31.705086 0.473427 2.833845 0.081874 -0.020383 418140.000000 0 0 1
7.887249 3.159181 -30.551868 31.711288 0.380974 2.870348 0.063687 -0.013494 -147022.000000 0 0 1
7.554749 2.315881 -29.306598 30.353159 0.297452 2.878232 0.076431 -0.016068 -261882.000000 0 0 1
8.671049 1.840381 -28.586238 29.929035 0.209141 2.840908 0.117547 -0.029215 -23708.700000 0 0 1
8.292449 0.925681 -27.629178 28.861620 0.111169 2.848304 0.107374 -0.028800 255168.000000 0 0 1
9.456549 0.400981 -26.723708 28.350374 0.042377 2.801197 0.118589 -0.042956 99261.700000 0 0 1
10.462749 -0.275319 -27.409808 29.340118 -0.026308 2.776832 0.118814 -0.027579 267125.000000 0 0 1
11.353449 -0.948519 -26.484128 28.830705 -0.083351 2.735341 0.120428 -0.030746 262251.000000 0 0 1
12.447949 -1.834419 -27.047988 29.831363 -0.146314 2.706181 0.105507 -0.032232 -368616.000000 0 0 1
11.901249 -2.920719 -27.727428 30.314693 -0.240657 2.725445 0.117445 -0.039122 -452969.000000 0 0 1
12.807849 -3.938519 -27.966338 31.010788 -0.298331 2.694773 0.132298 -0.035488 -350829.000000 0 0 1
12.301149 -5.359319 -27.545758 30.639996 -0.410879 2.688307 0.121906 -0.028052 30794.400000 0 0 1
11.951749 -5.396519 -26.180568 29.281203 -0.424122 2.677233 0.116963 -0.030925 -99040.700000 0 0 1
11.321149 -6.555919 -25.749638 28.882388 -0.524900 2.671517 0.113923 -0.040259 -75389.000000 0 0 1
10.946249 -6.452619 -24.275378 27.399829 -0.532650 2.659374 0.120140 -0.037112 82125.100000 0 0 1
12.101149 -6.418419 -23.439078 27.148191 -0.487669 2.612718 0.100394 -0.034507 32565.400000 0 0 1
11.786249 -6.496919 -22.100278 25.875624 -0.503786 2.594607 0.100685 -0.036463 75496.400000 0 0 1
12.983549 -6.594919 -21.099778 25.637202 -0.469983 2.537493 0.087857 -0.034694 112326.000000 0 0 1
13.662449 -5.387119 -21.071378 25.684364 -0.375584 2.532902 0.068531 -0.033480 -1166410.000000 0 0 1
14.894949 -5.583019 -20.480278 25.932053 -0.358618 2.481225 0.063890 -0.026049 -605576.000000 0 0 1
15.526049 -4.322519 -19.758978 25.498227 -0.271528 2.457378 0.075685 -0.026489 -144789.000000 0 0 1
16.282149 -3.587019 -20.671978 26.557593 -0.216840 2.462882 0.067580 -0.025077 -17956.800000 0 0 1
16.601849 -2.265319 -20.164878 26.217845 -0.135612 2.448272 0.069709 -0.014463 121769.000000 0 0 1
17.710349 -1.470219 -20.896678 27.431536 -0.082825 2.436846 0.056570 -0.016792 1324020.000000 0 0 1
19.042549 -2.027319 -20.745878 28.233316 -0.106063 2.396170 0.068746 -0.024437 646916.000000 0 0 1
19.920449 -1.436519 -21.625378 29.437134 -0.071988 2.395916 0.065019 -0.017363 435569.000000 0 0 1
21.323449 -2.152019 -21.716078 30.510797 -0.100582 2.362784 0.057696 -0.016672 -202542.000000 0 0 1
22.102849 -2.058119 -20.545878 30.247395 -0.092848 2.317552 0.062357 -0.018792 -491246.000000 0 0 1
23.324349 -2.705819 -20.653778 31.271797 -0.115492 2.292228 0.066942 -0.018250 -359820.000000 0 0 1
24.463349 -2.049219 -21.457778 32.605076 -0.083572 2.289104 0.071748 -0.017044 -1126710.000000 0 0 1
24.164749 -1.783019 -22.817778 33.283108 -0.073652 2.326178 0.071111 -0.020534 -153508.000000 0 0 1
25.101249 -0.960819 -23.460178 34.371148 -0.038259 2.322048 0.074374 -0.019610 222638.000000 0 0 1
26.396649 -1.583919 -24.069078 35.757690 -0.059933 2.309211 0.082795 -0.020209 -693214.000000 0 0 1
27.362449 -1.982519 -23.153578 35.898777 -0.072328 2.271778 0.072860 -0.010689 5085.880000 0 0 1
28.448549 -2.692519 -23.735978 37.147897 -0.094364 2.263940 0.067221 -0.007266 1104730.000000 0 0 1
29.527649 -1.830119 -24.511778 38.419509 -0.061901 2.262699 0.079651 -0.014711 -315345.000000 0 0 1
29.111649 -1.618319 -25.865278 38.975886 -0.055533 2.296447 0.090300 -0.021683 459105.000000 0 0 1
29.734449 -0.502419 -26.513858 39.841869 -0.016895 2.298929 0.090642 -0.031392 -553434.000000 0 0 1
29.268749 -0.390019 -27.976378 40.490610 -0.013325 2.333578 0.075538 -0.036079 993228.000000 0 0 1
27.863449 -0.097219 -28.103298 39.574949 -0.003489 2.360477 0.073817 -0.029976 936706.000000 0 0 1
27.467749 1.247081 -27.820228 39.115183 0.045371 2.362055 0.069646 -0.037243 -78385.400000 0 0 1
25.938349 1.563881 -27.896428 38.124197 0.060219 2.391646 0.068132 -0.029181 885210.000000 0 0 1
25.193549 1.015181 -26.789798 36.789112 0.040274 2.386487 0.057574 -0.024064 738231.000000 0 0 1
23.788449 1.144081 -26.983988 35.990761 0.048057 2.418477 0.063632 -0.027818 407301.000000 0 0 1
22.900249 0.840281 -25.778958 34.491770 0.036677 2.414928 0.065234 -0.022685 -271616.000000 0 0 1
22.748849 1.877381 -24.819978 33.720409 0.082340 2.398016 0.077300 -0.028271 272602.000000 0 0 1
22.008849 1.340681 -23.741778 32.401526 0.060840 2.393131 0.066832 -0.023215 -313019.000000 0 0 1
22.123949 2.189681 -22.397878 31.558339 0.098652 2.359910 0.063984 -0.019740 -304509.000000 0 0 1
21.673049 3.498981 -22.461478 31.408310 0.160063 2.367627 0.066309 -0.026436 574390.000000 0 0 1
22.066149 3.984981 -21.139678 30.816895 0.178667 2.326742 0.059282 -0.023456 -22054.900000 0 0 1
21.811649 5.453081 -20.779778 30.615083 0.244986 2.316846 0.075937 -0.018581 -10939.100000 0 0 1
22.727649 6.335881 -21.413878 31.862888 0.271872 2.307788 0.069577 -0.020756 362946.000000 0 0 1
22.491249 7.676381 -20.962978 31.689581 0.328908 2.293627 0.066151 -0.019595 -414822.000000 0 0 1
22.955249 8.042881 -19.569278 31.218393 0.337006 2.248301 0.066323 -0.023618 -1438170.000000 0 0 1
24.316549 7.938081 -19.334278 32.064342 0.315541 2.218032 0.046549 -0.021757 -492790.000000 0 0 1
24.664849 8.114981 -17.972578 31.578810 0.317854 2.176249 0.060212 -0.031161 -123759.000000 0 0 1
24.710349 9.568481 -17.453778 31.729979 0.369446 2.153247 0.060460 -0.043135 -273769.000000 0 0 1
23.429149 10.073981 -17.135278 30.725037 0.406078 2.162406 0.068553 -0.043842 48928.600000 0 0 1
23.363949 11.454281 -17.027578 31.096834 0.455821 2.150249 0.077583 -0.038093 -1124650.000000 0 0 1
21.993149 11.943781 -16.579778 30.020686 0.497506 2.155891 0.071518 -0.044289 -28715.800000 0 0 1
20.962149 11.796081 -17.559278 29.780656 0.512566 2.201385 0.086722 -0.044870 629742.000000 0 0 1
20.344849 10.484381 -17.577578 28.858385 0.475839 2.225719 0.090550 -0.046888 -644842.000000 0 0 1
19.320949 10.441281 -18.701378 28.845467 0.495453 2.276185 0.106023 -0.025772 -35699.100000 0 0 1
20.000349 10.437081 -19.966378 30.126448 0.480970 2.295285 0.097434 -0.020073 509460.000000 0 0 1
19.091549 10.205481 -20.994378 30.156310 0.490908 2.340866 0.085147 -0.021953 -276014.000000 0 0 1
19.844249 10.048981 -22.319078 31.510593 0.468749 2.357889 0.096075 -0.021840 -217032.000000 0 0 1
20.295649 11.298381 -22.734678 32.502806 0.507965 2.345449 0.082014 -0.029691 187766.000000 0 0 1
20.740949 11.244481 -24.100078 33.725941 0.496788 2.366828 0.098679 -0.030314 46078.300000 0 0 1
21.153049 12.691681 -24.502478 34.769264 0.540414 2.352820 0.089966 -0.017405 111030.000000 0 0 1
21.616949 12.915481 -25.836188 36.077843 0.538557 2.369029 0.095397 -0.011887 118883.000000 0 0 1
21.771849 14.346681 -26.077928 36.876809 0.582645 2.356275 0.092790 -0.013817 387743.000000 0 0 1
20.558349 15.111981 -26.719688 36.945357 0.633882 2.379252 0.081930 -0.016857 1282350.000000 0 0 1
19.413949 15.147181 -25.841488 35.694832 0.662564 2.380316 0.059713 -0.010774 799996.000000 0 0 1
18.213749 15.598181 -26.466388 35.714334 0.708196 2.405441 0.071432 -0.019015 522287.000000 0 0 1
16.940849 15.010781 -25.839378 34.350974 0.725066 2.422216 0.081389 -0.023984 -265259.000000 0 0 1
16.706849 13.594881 -26.023568 33.781144 0.683058 2.450198 0.086776 -0.024812 -95314.100000 0 0 1
15.403249 13.218981 -25.661118 32.718413 0.709232 2.472367 0.075316 -0.031228 -460947.000000 0 0 1
15.207549 11.702281 -25.743928 32.108609 0.655868 2.501058 0.056665 -0.033714 189418.000000 0 0 1
13.839649 11.361281 -25.561028 31.208665 0.687369 2.530526 0.061651 -0.039296 326222.000000 0 0 1
13.693649 9.925381 -25.522278 30.617248 0.627188 2.556374 0.062335 -0.041375 -606372.000000 0 0 1
12.250549 9.444581 -25.608688 29.917904 0.656776 2.598211 0.095266 -0.052408 -83866.700000 0 0 1
11.436349 9.840881 -24.478078 28.754292 0.710553 2.589224 0.120053 -0.059623 25670.400000 0 0 1
10.235149 9.101681 -24.447778 28.023075 0.726848 2.630920 0.115933 -0.060280 85776.700000 0 0 1
9.408449 9.668481 -23.211978 26.847614 0.799028 2.615115 0.107179 -0.057280 96701.700000 0 0 1
9.012549 11.002881 -23.489578 27.459966 0.884512 2.597142 0.110403 -0.056637 -125209.000000 0 0 1
8.296549 11.761081 -22.529678 26.734662 0.956439 2.573101 0.104375 -0.041937 64020.800000 0 0 1
9.169949 12.604681 -21.614578 26.648751 0.941849 2.516812 0.106200 -0.040574 232769.000000 0 0 1
9.960649 11.828181 -20.674578 25.817796 0.870900 2.499406 0.124135 -0.042463 619640.000000 0 0 1
10.883249 12.708281 -19.985578 26.064705 0.862604 2.444587 0.147844 -0.040100 142099.000000 0 0 1
11.852949 11.859781 -19.118778 25.429795 0.785686 2.421623 0.164650 -0.043043 331834.000000 0 0 1
12.960049 11.237681 -19.765778 26.171250 0.714339 2.426828 0.156972 -0.041827 481232.000000 0 0 1
12.565949 10.193481 -20.715378 26.285681 0.681532 2.478490 0.153210 -0.050138 -162540.000000 0 0 1
13.768249 9.550581 -21.482978 27.245121 0.606463 2.479175 0.155741 -0.042980 508389.000000 0 0 1
14.491549 8.615981 -20.688378 26.687996 0.536404 2.457819 0.157931 -0.050309 -77.995500 0 0 1
15.419649 7.918281 -21.467478 27.591980 0.474404 2.462325 0.119417 -0.039306 -347510.000000 0 0 1
16.067649 6.779181 -20.702778 27.069017 0.399255 2.441550 0.154232 -0.040613 204991.000000 0 0 1
16.989649 7.108081 -19.663778 26.941365 0.396248 2.388933 0.123962 -0.034325 346767.000000 0 0 1
17.208849 5.935881 -18.858778 26.211308 0.332153 2.373864 0.117199 -0.041835 -52012.000000 0 0 1
18.144149 6.207881 -17.636178 26.053459 0.329658 2.314370 0.129597 -0.034692 -314987.000000 0 0 1
19.445149 6.518381 -18.082978 27.342224 0.323447 2.293423 0.113729 -0.042892 345094.000000 0 0 1
20.340649 7.026581 -17.089978 27.480579 0.332611 2.241954 0.115323 -0.046398 179612.000000 0 0 1
21.071549 5.936481 -16.287578 27.286209 0.274612 2.210448 0.099593 -0.040093 -784652.000000 0 0 1
22.276649 5.488181 -16.865678 28.474907 0.241554 2.204706 0.074943 -0.035079 512285.000000 0 0 1
22.821049 4.396181 -16.091378 28.267634 0.190306 2.176391 0.108355 -0.042759 904430.000000 0 0 1
24.188449 3.782881 -16.599478 29.579282 0.155135 2.166614 0.044644 -0.005410 837064.000000 0 0 1
24.687849 2.764881 -15.767878 29.423807 0.111529 2.136356 0.043569 -0.010092 760203.000000 0 0 1
26.039649 2.445081 -16.125278 30.725663 0.093624 2.123294 0.041902 -0.008442 716366.000000 0 0 1
26.535749 1.191281 -15.364078 30.685828 0.044863 2.095192 0.064349 -0.021160 -221342.000000 0 0 1
26.130149 -0.028119 -15.902578 30.588846 -0.001076 2.117509 0.072327 -0.020452 95892.200000 0 0 1
27.099549 -1.020619 -15.612278 31.291699 -0.037644 2.093157 0.066399 -0.018166 -123980.000000 0 0 1
26.679149 -2.495719 -15.856978 31.135982 -0.093274 2.105146 0.065167 -0.022833 -155205.000000 0 0 1
25.860349 -2.954619 -14.789878 29.937066 -0.113760 2.087518 0.065208 -0.026657 430509.000000 0 0 1
25.693049 -4.361119 -14.922878 30.030725 -0.168137 2.090843 0.067362 -0.022721 -1121480.000000 0 0 1
25.156049 -5.095419 -13.653678 29.072548 -0.199849 2.059681 0.077650 -0.021099 -267670.000000 0 0 1
23.813049 -4.931019 -13.327878 27.731004 -0.204186 2.072150 0.095683 -0.016378 2497.370000 0 0 1
22.865649 -5.430619 -14.273278 27.496472 -0.233181 2.116588 0.102856 -0.015856 -362382.000000 0 0 1
21.388249 -5.312119 -13.829078 26.017671 -0.243440 2.131198 0.115097 -0.018307 35799.300000 0 0 1
20.858649 -6.333419 -13.021578 25.392064 -0.294788 2.109264 0.123010 -0.015872 434922.000000 0 0 1
20.969649 -6.044519 -11.640878 24.734034 -0.280643 2.060815 0.142568 -0.017923 -508684.000000 0 1 0
20.634849 -7.113219 -10.584378 24.257451 -0.331962 2.022318 0.133640 -0.019009 1164570.000000 0 1 0
19.286249 -7.661319 -10.561078 23.285008 -0.378127 2.041549 0.124374 -0.018787 1744500.000000 0 1 0
19.130649 -8.640419 -11.581778 23.974490 -0.424228 2.074974 0.116464 -0.023142 -132240.000000 0 1 0
17.733849 -9.352919 -11.610378 23.168241 -0.485330 2.095704 0.127652 -0.026226 374892.000000 0 1 0
16.734749 -8.360119 -11.766278 22.099518 -0.463301 2.132256 0.110464 -0.022655 358745.000000 0 1 0
15.500049 -9.048619 -12.071378 21.629776 -0.528408 2.162879 0.109901 -0.022235 1492260.000000 0 1 0
14.252649 -8.081419 -12.322578 20.501055 -0.515810 2.215636 0.077095 -0.013329 547594.000000 0 1 0
14.270349 -7.175619 -13.402578 20.850934 -0.465912 2.268919 0.067758 -0.019317 901439.000000 0 1 0
15.379149 -6.227019 -13.375178 21.311719 -0.384723 2.249260 0.070290 -0.016593 684565.000000 0 1 0
15.342249 -5.099319 -14.449278 21.683388 -0.320884 2.300133 0.062762 -0.016224 212707.000000 0 1 0
14.216649 -4.269119 -14.168978 20.520683 -0.291723 2.332939 0.068482 -0.020067 205873.000000 0 1 0
13.965049 -3.225419 -15.080978 20.805332 -0.226983 2.381629 0.063313 -0.028344 -66309.200000 0 1 0
15.077149 -2.179219 -15.401378 21.662684 -0.143544 2.361664 0.080499 -0.029054 -275801.000000 0 1 0
16.074649 -2.714019 -16.248278 23.016663 -0.167261 2.354539 0.070932 -0.025212 186454.000000 0 1 0
17.293749 -2.017419 -16.372578 23.899896 -0.116131 2.325466 0.095977 -0.013966 260504.000000 0 1 0
18.343749 -2.244319 -15.276078 23.976836 -0.121743 2.261550 0.106354 -0.018396 -640196.000000 0 1 0
17.926849 -1.875119 -13.938478 22.785284 -0.104219 2.229044 0.098940 -0.009218 389487.000000 0 1 0
19.011149 -2.092619 -13.054578 23.156529 -0.109632 2.169720 0.104654 -0.013545 168506.000000 0 1 0
18.551049 -2.399319 -11.617278 22.019521 -0.128622 2.126557 0.105897 -0.008303 -66617.900000 0 1 0
18.217849 -1.233219 -10.875778 21.253080 -0.067590 2.107990 0.107465 -0.012158 674276.000000 0 1 0
17.589449 -1.603019 -9.656378 20.129680 -0.090884 2.071119 0.093243 -0.016958 -962670.000000 0 1 0
17.612049 -0.438519 -8.636178 19.620401 -0.024894 2.026577 0.090965 -0.011165 12028.600000 0 1 0
18.859049 -0.075819 -8.010878 20.490087 -0.004020 1.972475 0.102403 -0.010073 965721.000000 0 1 0
19.837149 0.505981 -8.811678 21.712074 0.025501 1.988697 0.097266 -0.002216 -732732.000000 0 1 0
19.475849 1.813681 -9.479778 21.736245 0.092857 2.022087 0.097231 -0.006646 -845547.000000 0 1 0
19.211249 2.970381 -8.704478 21.299371 0.153402 1.991796 0.075973 -0.000309 637958.000000 0 1 0
18.761449 4.001381 -9.609478 21.455654 0.210128 2.035185 0.076794 -0.007478 -256752.000000 0 1 0
18.830249 5.385381 -9.026378 21.565160 0.278560 2.002659 0.086605 0.005302 -101153.000000 0 1 0
18.359349 6.336781 -9.944978 21.820245 0.332350 2.044032 0.090267 0.002773 501453.000000 0 1 0
18.645349 7.623181 -9.484778 22.264837 0.388114 2.010861 0.100080 0.002423 -248209.000000 0 1 0
-26.609151 -28.950399 5.756822 39.740577 0.827513 1.425425 0.053125 -0.012422 37361.600000 0 0 1
-26.848241 -27.864799 6.679622 39.266938 0.803976 1.399857 0.068955 -0.012995 -552761.000000 0 0 1
-25.806551 -26.989529 6.474622 37.898990 0.807801 1.399115 0.050844 -0.011339 -855401.000000 0 0 1
-25.971861 -25.755399 7.435022 37.325027 0.781214 1.370258 0.048433 -0.007879 -281847.000000 0 0 1
-27.093961 -24.953619 7.152022 37.522223 0.744299 1.379015 0.059991 -0.009000 1509730.000000 0 0 1
-28.407311 -25.395279 7.639322 38.861996 0.729474 1.372932 0.051905 -0.011237 1344730.000000 0 0 1
-28.739591 -25.577489 9.131622 39.541858 0.727248 1.337757 0.070719 -0.017389 161408.000000 0 0 1
-27.805641 -26.519329 9.741722 39.640000 0.761724 1.322498 0.059868 -0.020079 493962.000000 0 0 1
-28.038531 -26.843419 11.092322 40.370384 0.763626 1.292452 0.052140 -0.023849 -383632.000000 0 0 1
-26.839661 -27.659299 11.694722 40.276180 0.800437 1.276190 0.023691 -0.024874 357960.000000 0 0 1
-25.677081 -26.943639 11.992522 39.103615 0.809463 1.259087 0.035538 -0.015539 -468086.000000 0 0 1
-25.815241 -26.217209 13.207422 39.092259 0.793123 1.226162 0.051367 -0.018068 -355511.000000 0 0 1
-24.446751 -25.723079 13.753822 38.059007 0.810833 1.201047 0.051625 -0.013636 148677.000000 0 0 1
-23.722051 -26.806929 14.316222 38.552579 0.846374 1.190342 0.037906 -0.013385 70060.300000 0 0 1
-22.629951 -26.263229 15.068922 37.801379 0.859572 1.160769 0.040950 -0.011054 3245.540000 0 0 1
-22.031851 -27.361469 15.954622 38.582410 0.892884 1.144479 0.044140 -0.016013 -242875.000000 0 0 1
-22.940351 -27.939279 16.894822 39.903609 0.883334 1.133611 0.047811 -0.013214 175829.000000 0 0 1
-22.494651 -29.191239 17.312122 40.716671 0.914244 1.131630 0.053020 -0.007844 -178543.000000 0 0 1
-23.482351 -30.090699 18.105722 42.245569 0.908130 1.127873 0.081895 -0.025346 -150217.000000 0 0 1
-24.536251 -30.658849 17.364922 42.936385 0.895873 1.154437 0.045460 -0.019281 177821.000000 0 0 1
-25.269641 -31.623869 18.054522 44.323691 0.896624 1.151264 0.065346 -0.021712 -406351.000000 0 0 1
-26.088971 -32.542489 17.125822 45.088155 0.895026 1.181184 0.056132 -0.028746 290738.000000 0 0 1
-25.242191 -33.427719 16.397922 44.983024 0.924022 1.197662 0.059985 -0.032022 880994.000000 0 0 1
-26.017271 33.300124 15.975822 45.177688 -0.907564 1.209356 0.057248 -0.035694 -416850.000000 0 0 1
-25.262121 32.516581 14.904522 43.790953 -0.910301 1.223501 0.065944 -0.035517 149090.000000 0 0 1
-24.027251 31.943151 15.313222 42.803837 -0.925896 1.204935 0.057704 -0.037041 961485.000000 0 0 1
-22.958551 32.875035 14.993522 42.809680 -0.961173 1.212973 0.059015 -0.035533 124835.000000 0 0 1
-21.567051 32.204486 14.867722 41.512838 -0.980703 1.204513 0.062281 -0.035001 167786.000000 0 0 1
-21.454451 31.425505 13.692622 40.439383 -0.971770 1.225372 0.038130 -0.021304 -532059.000000 0 0 1
-20.306551 30.650135 13.704322 39.237676 -0.985665 1.214010 0.046571 -0.020841 -418497.000000 0 0 1
-20.375551 29.725715 12.465222 38.133489 -0.969901 1.237792 0.040182 -0.019032 302956.000000 0 0 1
-19.744451 30.427465 11.409722 38.024410 -0.995193 1.266038 0.017424 -0.010239 16764.000000 0 0 1
-20.114451 29.834545 10.210122 37.402377 -0.977596 1.294306 0.035546 -0.013999 42936.300000 0 0 1
-19.651151 30.612015 8.972322 37.466862 -1.000106 1.328973 0.037118 -0.011357 -16104.000000 0 0 1
-18.283251 30.519135 8.643322 36.611499 -1.031057 1.332464 0.049698 -0.020134 -462685.000000 0 0 1
-18.087851 30.869345 7.299522 36.515337 -1.040773 1.369538 0.065621 -0.025644 -83335.800000 0 0 1
-17.856351 29.722855 6.276522 35.237652 -1.029817 1.391721 0.079942 -0.033573 824048.000000 0 0 1
-19.006651 28.863955 6.027522 35.081501 -0.988475 1.398125 0.057041 -0.024866 780810.000000 0 0 1
-19.118751 27.735495 6.866522 34.379259 -0.967271 1.369715 0.036839 -0.020595 153835.000000 0 0 1
-20.124051 26.709305 6.297622 34.029758 -0.925093 1.384661 0.039133 -0.013019 79265.000000 0 0 1
-19.679351 26.074565 5.120522 33.066290 -0.924273 1.415314 0.061149 -0.021614 318862.000000 0 0 1
-20.749951 25.377975 4.512822 33.090295 -0.885394 1.433991 0.066284 -0.021759 -513093.000000 0 0 1
-20.265751 24.576165 3.286722 32.023290 -0.881228 1.467980 0.086941 -0.031268 -820589.000000 0 0 1
-19.894451 25.342165 2.144022 32.289493 -0.905248 1.504347 0.103796 -0.037647 989719.000000 0 0 1
-18.648551 26.071765 2.153722 32.126996 -0.949890 1.503708 0.114621 -0.029162 911652.000000 0 0 1
-17.305751 25.261315 2.235622 30.702134 -0.970161 1.497915 0.113855 -0.030754 -30567.800000 0 0 1
-17.112051 24.278025 1.213222 29.727373 -0.956831 1.529973 0.152869 -0.039844 98287.000000 0 0 1
-16.893151 24.811765 -0.078978 30.016803 -0.973037 1.573427 0.145654 -0.044677 -423697.000000 0 0 1
-16.337151 23.746425 -1.037978 28.842202 -0.968181 1.606792 0.138369 -0.046551 189625.000000 0 0 1
-17.178351 22.566365 -1.131978 28.383410 -0.920142 1.610689 0.153816 -0.063674 359010.000000 0 0 1
-16.837651 21.596165 -2.058278 27.461561 -0.908582 1.645818 0.145997 -0.055436 33993.400000 0 0 1
-15.694551 20.708665 -1.467578 26.025401 -0.922275 1.627216 0.126904 -0.056645 180806.000000 0 0 1
-16.138251 19.851265 -0.462878 25.587695 -0.888204 1.588887 0.129697 -0.056544 313285.000000 0 0 1
-15.117851 18.956865 -0.029778 24.246918 -0.897590 1.572024 0.116029 -0.047565 467965.000000 0 1 0
-15.718651 17.841665 0.944522 23.796914 -0.848574 1.531095 0.097344 -0.041282 517235.000000 0 1 0
-16.272251 16.635665 0.380822 23.273945 -0.796441 1.554433 0.080172 -0.044728 110367.000000 0 1 0
-16.928351 15.938465 1.373022 23.291392 -0.755289 1.511812 0.094558 -0.056302 -530834.000000 0 1 0
-17.503451 14.659565 0.871422 22.848042 -0.697207 1.532647 0.084875 -0.050499 -341240.000000 0 1 0
-18.571851 14.771365 -0.045178 23.729916 -0.671907 1.572700 0.119512 -0.062024 268060.000000 0 1 0
-19.324551 13.604665 -0.248778 23.634447 -0.613412 1.581323 0.114370 -0.047584 -1002150.000000 0 1 0
-20.368551 13.800365 -1.332478 24.639469 -0.595488 1.624902 0.092989 -0.042038 -624041.000000 0 1 0
-21.223651 12.734065 -1.623278 24.803927 -0.540415 1.636288 0.094195 -0.041661 640292.000000 0 1 0
-22.096551 12.247165 -0.610978 25.271009 -0.506106 1.594976 0.119399 -0.043218 -454514.000000 0 0 1
-23.469151 12.899465 -0.335678 26.782642 -0.502563 1.583330 0.144142 -0.048011 -82061.400000 0 0 1
-23.281851 14.241765 0.129622 27.292659 -0.548986 1.566047 0.153983 -0.054637 631764.000000 0 0 1
-24.562251 14.826265 0.354622 28.692300 -0.543077 1.558437 0.137317 -0.046641 344352.000000 0 0 1
-24.476651 16.249165 0.902322 29.393128 -0.586060 1.540093 0.139203 -0.051348 -119994.000000 0 0 1
-24.344251 16.275565 2.288622 29.373021 -0.589311 1.492801 0.138050 -0.057091 44440.800000 0 0 1
-24.325051 17.594965 2.842522 30.155776 -0.626211 1.476395 0.123515 -0.047538 455807.000000 0 0 1
-25.723341 18.263765 3.031422 31.692979 -0.617411 1.475000 0.136383 -0.051154 -1058040.000000 0 0 1
-26.468111 17.708265 4.088122 32.106951 -0.589645 1.443121 0.145800 -0.052810 214792.000000 0 0 1
-27.767111 18.257865 4.192222 33.495325 -0.581654 1.445309 0.136633 -0.055622 304665.000000 0 0 1
-28.762031 18.021365 3.030022 34.076459 -0.559726 1.481760 0.146944 -0.052483 -1177180.000000 0 0 1
-30.039211 18.593065 3.245022 35.476562 -0.554244 1.479199 0.132155 -0.049420 -89374.300000 0 0 1
-30.804111 18.508165 2.105822 35.998332 -0.541033 1.512265 0.125861 -0.037210 -396828.000000 0 0 1
-32.078201 19.370565 2.214222 37.538414 -0.543249 1.511777 0.117556 -0.036328 -202520.000000 0 0 1
-33.118801 18.867265 3.014922 38.235042 -0.517830 1.491862 0.142644 -0.034551 262540.000000 0 0 1
-34.313971 19.629065 2.853122 39.634443 -0.519609 1.498748 0.129074 -0.027444 438029.000000 0 0 1
-34.758239 20.368065 4.140822 40.498638 -0.530056 1.468371 0.102956 -0.032598 -558812.000000 0 0 1
-33.731661 21.190165 4.599922 40.099967 -0.560896 1.455832 0.104689 -0.036086 111528.000000 0 0 1
-34.116609 21.779865 5.830322 40.893743 -0.568174 1.427736 0.091689 -0.038362 243399.000000 0 0 1
-32.967381 22.678065 6.404322 40.523551 -0.602555 1.412091 0.099109 -0.043856 179511.000000 0 0 1
-32.877871 23.897945 5.667222 41.038806 -0.628533 1.432259 0.087684 -0.037979 -95372.200000 0 0 1
-31.955631 24.825105 6.143322 40.929068 -0.660472 1.420130 0.083456 -0.043367 -584840.000000 0 0 1
-32.231951 26.321705 5.791022 42.015078 -0.684802 1.432524 0.073817 -0.036153 -1007570.000000 0 0 1
-33.328571 26.741295 6.510122 43.223514 -0.676174 1.419606 0.079418 -0.028140 -484532.000000 0 0 1
-33.603711 28.140185 6.293422 44.279640 -0.697141 1.428184 0.073411 -0.027938 -151572.000000 0 0 1
-34.600858 28.619275 7.384122 45.506126 -0.691064 1.407809 0.061928 -0.023024 -465402.000000 0 0 1
-34.095187 28.879665 8.695222 45.520585 -0.702768 1.378598 0.081615 -0.024812 402534.000000 0 0 1
-35.080920 29.362785 9.601322 46.744299 -0.696899 1.363923 0.082742 -0.023588 -57557.900000 0 0 1
-36.263071 28.471395 9.999822 47.176552 -0.665611 1.357210 0.069331 -0.018535 -193128.000000 0 0 1
-35.862713 27.253365 10.686322 46.293386 -0.649830 1.337856 0.084354 -0.024545 -254104.000000 0 0 1
-36.968541 26.783325 11.380122 47.048132 -0.626974 1.326491 0.079353 -0.015830 -582166.000000 0 0 1
-36.722891 25.588875 12.241422 46.402733 -0.608582 1.303828 0.091854 -0.008895 -431830.000000 0 0 1
-35.800104 25.956375 13.232022 46.156985 -0.627332 1.280043 0.128285 -0.020095 -235724.000000 0 0 1
-35.413936 24.823215 14.033622 45.467366 -0.611360 1.257020 0.132275 -0.020021 808566.000000 0 0 1
-34.108752 25.134845 14.878722 44.905943 -0.635066 1.233083 0.144002 -0.019935 774382.000000 0 0 1
-34.286323 26.081385 15.936322 45.932090 -0.650310 1.216475 0.147328 -0.028999 -312490.000000 0 0 1
-33.108221 26.251905 16.682222 45.427011 -0.670404 1.194766 0.165088 -0.021415 -222158.000000 0 0 1
-33.151311 27.523065 17.525022 46.515104 -0.692901 1.184500 0.160695 -0.030864 -123858.000000 0 0 1
-33.316151 28.716725 16.712122 47.052218 -0.711389 1.207687 0.168627 -0.028799 179867.000000 0 0 1
-33.258521 29.900535 17.453622 48.008334 -0.732281 1.198716 0.141243 -0.024355 -31455.900000 0 0 1
-33.004301 31.148635 16.582622 48.316712 -0.756481 1.220467 0.122024 -0.028716 -661751.000000 0 0 1
-31.694301 31.219645 16.141822 47.326033 -0.777854 1.222734 0.111575 -0.026106 -916391.000000 0 0 1
-31.373461 32.505413 15.707522 47.829093 -0.803117 1.236177 0.100699 -0.023480 176847.000000 0 0 1
-29.863911 32.604239 15.318722 46.792658 -0.829238 1.237273 0.113010 -0.030866 512630.000000 0 0 1
-29.460391 31.891877 14.121522 45.655491 -0.825009 1.256333 0.104490 -0.029251 161258.000000 0 0 1
-29.009931 30.558795 14.349222 44.511978 -0.811394 1.242567 0.120634 -0.034566 -208704.000000 0 0 1
-30.063411 29.459465 14.095722 44.388716 -0.775252 1.247650 0.144065 -0.031689 164104.000000 0 0 1
-30.061121 29.137495 12.732122 43.758102 -0.769797 1.275560 0.150309 -0.035251 108902.000000 0 0 1
-31.236691 28.395095 12.436422 44.007691 -0.737782 1.284296 0.129255 -0.031248 382440.000000 0 0 1
-31.361591 28.191325 10.893022 43.554083 -0.732214 1.318009 0.109418 -0.024302 -42264.200000 0 0 1
-30.262201 27.601835 10.257422 42.224126 -0.739454 1.325413 0.080149 -0.011069 -235186.000000 0 0 1
-30.598671 27.374575 8.917522 42.013905 -0.729842 1.356918 0.078033 -0.013521 574620.000000 0 0 1
-29.413501 26.600185 8.262722 40.509214 -0.735215 1.365383 0.088183 -0.020716 368785.000000 0 0 1
-29.109131 26.865895 6.922522 40.212425 -0.745344 1.397786 0.083795 -0.031370 -192311.000000 0 0 1
-28.097651 25.994115 6.444622 38.816300 -0.746529 1.403995 0.074995 -0.027687 98052.000000 0 0 1
-27.712871 26.184805 4.925222 38.443530 -0.757055 1.442327 0.070615 -0.023008 -265997.000000 0 0 1
-27.081021 27.400005 4.655122 38.804795 -0.791253 1.450544 0.039544 -0.011732 107131.000000 0 0 1
-26.731191 27.657445 3.330522 38.608072 -0.802427 1.484424 0.035737 -0.012799 -353455.000000 0 0 1
-25.907581 28.925785 3.064322 38.952456 -0.840386 1.492047 0.037679 -0.013688 847352.000000 0 0 1
-24.525651 28.689545 3.380322 37.894909 -0.863485 1.481475 0.037882 -0.008842 461439.000000 0 0 1
-23.658651 29.771715 3.102822 38.153824 -0.899315 1.489382 0.040098 -0.011429 367174.000000 0 0 1
-22.202551 29.238895 3.145522 36.847803 -0.921338 1.485327 0.041349 -0.016555 145435.000000 0 0 1
-21.256951 30.155935 2.657522 36.990550 -0.956789 1.498891 0.051514 -0.019990 486228.000000 0 0 1
-19.921751 29.674115 2.918222 35.860079 -0.979558 1.489328 0.065601 -0.026536 889135.000000 0 0 1
-18.741651 30.498475 2.415422 35.878137 -1.019775 1.503422 0.074017 -0.028466 -42081.000000 0 0 1
-18.676351 31.689725 3.190722 36.921883 -1.038244 1.484270 0.074881 -0.028753 87804.300000 0 0 1
-17.531351 32.442821 2.838222 36.985678 -1.075371 1.493982 0.089065 -0.024103 37492.100000 0 0 1
-17.334551 33.715754 3.764922 38.097419 -1.095902 1.471811 0.081847 -0.028187 303539.000000 0 0 1
-18.322951 -33.104549 3.687022 38.016257 1.065280 1.473658 0.080262 -0.031096 447121.000000 0 0 1
-17.967951 -32.011179 4.583722 36.994234 1.059317 1.446573 0.065611 -0.028360 877570.000000 0 0 1
-19.173751 -30.995159 4.678622 36.745368 1.016809 1.443124 0.069125 -0.025566 694659.000000 0 0 1
-19.338351 -30.158739 3.542222 36.000954 1.000619 1.472244 0.088020 -0.029389 328134.000000 0 0 1
-20.278051 -29.122349 3.831722 35.693033 0.962554 1.463237 0.097220 -0.034927 -38639.000000 0 0 1
-20.576551 -28.029459 2.776422 34.881994 0.937546 1.491117 0.097733 -0.041707 724216.000000 0 0 1
-19.556651 -27.017579 2.559922 33.450939 0.944243 1.494194 0.100965 -0.036401 546725.000000 0 0 1
-19.991751 -26.129089 1.586222 32.938055 0.917692 1.522620 0.095441 -0.040133 -190667.000000 0 0 1
-19.056451 -24.937919 1.400722 31.416717 0.918297 1.526196 0.096252 -0.032428 -506655.000000 0 0 1
-17.852551 -25.331209 0.830022 31.001172 0.956879 1.544019 0.129829 -0.041164 -1576950.000000 0 0 1
-16.902851 -24.354319 1.001222 29.662125 0.964082 1.537036 0.107331 -0.034340 422615.000000 0 0 1
-15.464151 -24.745319 0.476722 29.183866 1.012246 1.554460 0.094436 -0.031555 684357.000000 0 0 1
-15.340151 -24.697319 -0.939478 29.088836 1.014988 1.603099 0.080947 -0.025367 -70331.500000 0 0 1
-15.361951 -23.447419 -1.614678 28.078073 0.990798 1.628335 0.074295 -0.029396 -300537.000000 0 0 1
-15.593151 -23.552019 -3.122178 28.418162 0.985981 1.680884 0.028208 -0.017520 -136205.000000 0 0 1
-14.524351 -24.180619 -3.785878 28.460358 1.029891 1.704215 0.063662 -0.014410 -92675.200000 0 0 1
-14.803351 -24.200719 -5.191078 28.840272 1.021825 1.751777 0.026755 -0.012711 115387.000000 0 0 1
-13.589751 -24.639619 -6.040678 28.779888 1.066771 1.782261 0.064825 -0.017066 217407.000000 0 0 1
-13.304651 -26.032349 -6.022578 29.849093 1.098323 1.773959 0.046236 -0.019946 -83462.800000 0 0 1
-12.307551 -26.388439 -6.975878 29.941416 1.134389 1.805942 0.056143 -0.019971 278954.000000 0 0 1
24.086849 13.024981 28.086395 39.225910 0.495714 0.772717 0.049109 -0.006890 -324994.000000 0 0 1
24.891849 11.870281 28.297705 39.512882 0.444976 0.772506 0.058294 -0.015911 474570.000000 0 0 1
24.362549 10.863581 29.209125 39.556595 0.419450 0.740082 0.069095 -0.019923 -112660.000000 0 0 1
24.368849 11.202781 30.742385 40.797517 0.430905 0.717372 0.089015 -0.029099 194300.000000 0 0 1
23.385249 12.183781 31.011255 40.706417 0.480308 0.704667 0.081365 -0.022482 228566.000000 0 0 1
23.526049 12.571181 32.359910 41.936540 0.490750 0.689381 0.078206 -0.021911 -102330.000000 0 0 1
22.405249 13.515881 32.852532 41.999561 0.542803 0.672589 0.057612 -0.017636 -55906.200000 0 0 1
21.146949 12.952581 33.127399 41.381003 0.549563 0.642590 0.063187 -0.017441 105409.000000 0 0 1
20.436049 13.769881 -33.802548 41.831256 0.592927 2.511663 0.064468 -0.012110 222320.000000 0 0 1
19.427849 12.918181 -32.960678 40.382261 0.586800 2.525628 0.059672 -0.004106 678202.000000 0 0 1
18.357849 12.440081 -33.803028 40.427849 0.595564 2.560990 0.064565 -0.006946 2087630.000000 0 0 1
17.128549 12.170481 -32.997158 39.119308 0.617763 2.574564 0.054324 -0.006889 2634420.000000 0 0 1
15.830949 12.248581 -33.891788 39.361148 0.658504 2.608121 0.049544 -0.009643 713692.000000 0 0 1
15.798849 11.185781 33.074726 38.323137 0.616083 0.529522 0.049140 -0.010184 -367778.000000 0 0 1
14.535849 10.854881 32.564100 37.276534 0.641428 0.508282 0.052650 -0.001037 -85284.900000 0 0 1
14.684749 9.772781 31.499745 36.102397 0.587198 0.510478 0.061448 -0.000958 207916.000000 0 0 1
15.025149 8.454881 32.030810 36.375994 0.512553 0.493779 0.050163 -0.004442 -44949.900000 0 0 1
15.615449 7.698481 31.052325 35.599941 0.458035 0.510996 0.065053 -0.014234 -33690.500000 0 0 1
15.932749 6.255081 31.495805 35.846399 0.374105 0.497806 0.078885 -0.026926 -3212.390000 0 0 1
14.758849 5.465081 31.439865 35.159009 0.354637 0.464112 0.074122 -0.023712 154397.000000 0 0 1
14.998649 4.162481 32.001538 35.586292 0.270711 0.452708 0.085230 -0.034161 38624.000000 0 0 1
13.780249 3.215581 32.070472 35.053537 0.229245 0.415537 0.055723 -0.026680 -38992.900000 0 0 1
14.222849 1.954881 32.579645 35.602588 0.136591 0.415060 0.060581 -0.032788 -81763.400000 0 0 1
13.221449 1.021181 32.862283 35.436975 0.077084 0.383543 0.065863 -0.032388 -906493.000000 0 0 1
13.866449 -0.302319 33.290821 36.064506 -0.021799 0.394754 0.049555 -0.032891 -276234.000000 0 0 1
14.463649 -1.075519 32.250982 35.362123 -0.074224 0.422613 0.041842 -0.030394 120289.000000 0 0 1
14.874949 -2.243719 32.897937 36.174198 -0.149710 0.428883 0.085699 -0.043520 -204579.000000 0 0 1
15.284749 -3.452419 31.985767 35.617862 -0.222146 0.455534 0.095431 -0.042287 -844104.000000 0 0 1
15.668249 -4.722919 32.505268 36.392203 -0.292770 0.466399 0.104838 -0.044351 542041.000000 0 0 1
16.984049 -4.825819 33.047335 37.468291 -0.276842 0.490690 0.076828 -0.039078 864350.000000 0 0 1
18.215449 -4.644619 32.104497 37.203143 -0.249662 0.529715 0.080863 -0.046378 -164235.000000 0 0 1
18.315549 -3.298219 31.725145 36.780735 -0.178168 0.530512 0.084786 -0.054465 -1032360.000000 0 0 1
19.571949 -3.112919 31.194485 36.957372 -0.157729 0.565974 0.093919 -0.060978 -983463.000000 0 0 1
19.743249 -1.622819 31.084605 36.860305 -0.082012 0.567387 0.111806 -0.060141 -425968.000000 0 0 1
19.806549 -0.834519 32.303779 37.901583 -0.042109 0.550416 0.106967 -0.057341 123920.000000 0 0 1
19.442449 0.553981 32.226907 37.641590 0.028486 0.543021 0.113683 -0.050245 7589.710000 0 0 1
20.490849 1.534881 31.604145 37.696854 0.074766 0.576499 0.128967 -0.046155 158303.000000 0 0 1
20.662649 1.349681 30.197125 36.614657 0.065227 0.601076 0.132329 -0.049944 194101.000000 0 0 1
21.565149 2.333881 29.642435 36.731140 0.107805 0.631723 0.117809 -0.040545 403678.000000 0 0 1
21.061949 3.808881 29.494905 36.442595 0.178908 0.627748 0.107023 -0.025047 -157240.000000 0 0 1
21.153549 4.549581 30.693875 37.553766 0.211847 0.614032 0.113951 -0.032048 515467.000000 0 0 1
20.240449 5.651381 30.719175 37.219372 0.272278 0.599967 0.102232 -0.033053 188909.000000 0 0 1
19.892649 6.120581 32.148563 38.297639 0.298488 0.574545 0.102622 -0.031244 -145514.000000 0 0 1
18.961749 5.204581 32.705951 38.161694 0.267881 0.541307 0.068673 -0.020931 178267.000000 0 0 1
18.560149 5.698081 -33.912838 39.077204 0.297872 2.621639 0.056438 -0.018236 -523701.000000 0 0 1
17.497549 4.811481 -33.233558 37.865340 0.268348 2.641791 0.060637 -0.022068 -392316.000000 0 0 1
17.810949 3.460381 -33.105938 37.751918 0.191893 2.640241 0.059203 -0.022040 414463.000000 0 0 1
16.638649 2.738381 -32.726478 36.815292 0.163117 2.665816 0.061609 -0.023904 410158.000000 0 0 1
16.678349 1.216981 -33.068068 37.055978 0.072839 2.673391 0.058123 -0.039620 -225567.000000 0 0 1
17.659449 0.592881 -32.248458 36.771874 0.033560 2.640352 0.062242 -0.034919 158297.000000 0 0 1
17.867249 -0.743719 -32.587608 37.171816 -0.041601 2.639703 0.064633 -0.036554 -485456.000000 0 0 1
19.079749 -1.353819 -31.865568 37.165630 -0.070837 2.600980 0.072386 -0.036217 -487031.000000 0 0 1
18.999849 -1.531919 -30.467878 35.939291 -0.080454 2.582543 0.072559 -0.035952 267893.000000 0 0 1
18.911449 -0.333319 -29.723948 35.231621 -0.017623 2.574884 0.060717 -0.028060 -332765.000000 0 0 1
18.732849 -0.418919 -28.203418 33.860418 -0.022359 2.555181 0.056495 -0.023460 441154.000000 0 0 1
17.404749 -0.878319 -27.928168 32.919285 -0.050422 2.583720 0.063602 -0.032147 574521.000000 0 0 1
16.907949 -1.114419 -26.635248 31.568293 -0.065816 2.574999 0.066540 -0.031476 -96368.700000 0 0 1
17.671049 -2.123819 -25.770258 31.319048 -0.119613 2.537170 0.072004 -0.027053 -660786.000000 0 0 1
18.959349 -1.697719 -25.378778 31.724148 -0.089307 2.498063 0.070161 -0.022140 266529.000000 0 0 1
19.916249 -2.773619 -25.357098 32.362515 -0.138374 2.471128 0.060859 -0.018070 627261.000000 0 0 1
20.581649 -3.167119 -26.694388 33.855949 -0.152683 2.479113 0.068534 -0.029526 -755722.000000 0 0 1
21.449949 -2.136419 -27.053968 34.591643 -0.099273 2.468818 0.076897 -0.019903 -537902.000000 0 0 1
22.065949 -2.439419 -28.299348 35.968180 -0.110104 2.476385 0.074786 -0.023169 -161441.000000 0 0 1
23.539949 -2.043119 -28.431188 36.968040 -0.086577 2.448189 0.068626 -0.025465 -78773.400000 0 0 1
24.423949 -2.969219 -27.808478 37.130271 -0.120976 2.417263 0.064633 -0.027143 -461925.000000 0 0 1
25.710849 -2.414719 -27.863768 37.990370 -0.093644 2.394170 0.052423 -0.030321 252173.000000 0 0 1
26.906649 -3.359319 -27.488068 38.611484 -0.124208 2.363017 0.071470 -0.027594 318565.000000 0 0 1
27.196049 -4.452219 -28.449748 39.608528 -0.162269 2.372114 0.084711 -0.038404 -420528.000000 0 0 1
28.329449 -5.196719 -28.182298 40.296470 -0.181422 2.345317 0.079220 -0.034590 -626936.000000 0 0 1
28.251049 -6.340419 -27.201918 39.727409 -0.220773 2.325008 0.076083 -0.026250 -224128.000000 0 0 1
28.151449 -5.914519 -25.831078 38.661741 -0.207085 2.302489 0.066583 -0.015184 252424.000000 0 0 1
28.050749 -7.010419 -24.955678 38.193931 -0.244903 2.282855 0.048504 -0.010947 -201184.000000 0 0 1
28.290049 -6.662319 -23.483078 37.365336 -0.231286 2.250384 0.036901 -0.005841 181637.000000 0 0 1
29.660449 -6.507519 -23.152578 38.185493 -0.215978 2.222219 0.031981 -0.007696 413647.000000 0 0 1
29.878449 -6.148719 -21.778778 37.481244 -0.202958 2.190824 0.037059 -0.003132 -1282790.000000 0 0 1
31.235449 -5.591119 -21.523078 38.342624 -0.177123 2.166795 0.057510 -0.003064 -1530330.000000 0 0 1
31.572349 -4.364719 -22.142178 38.809020 -0.137374 2.177962 0.067170 -0.009453 -78401.500000 0 0 1
32.782749 -3.909219 -21.587478 39.446291 -0.118686 2.149886 0.072184 -0.008050 35988.600000 0 0 1
33.355649 -2.642619 -22.281678 40.200198 -0.079060 2.158279 0.087210 -0.016825 -509178.000000 0 0 1
32.640849 -1.540019 -21.873978 39.322609 -0.047146 2.160686 0.075379 -0.014154 -22024.700000 0 0 1
33.099649 -0.323019 -22.480078 40.013061 -0.009759 2.167379 0.093670 -0.020423 339380.000000 0 0 1
32.107849 0.867581 -22.238878 39.067050 0.027014 2.176388 0.083352 -0.015753 155972.000000 0 0 1
31.023549 0.916781 -23.127478 38.706347 0.029543 2.211190 0.085716 -0.015897 434286.000000 0 0 1
29.979549 1.813681 -22.742578 37.673434 0.060424 2.218901 0.074359 -0.009526 152845.000000 0 0 1
28.885549 1.879681 -23.825478 37.490820 0.064982 2.259454 0.053548 -0.006621 -1031420.000000 0 0 1
27.926849 2.764681 -23.400978 36.539816 0.098676 2.265847 0.041033 -0.005292 -208771.000000 0 0 1
26.912549 2.900181 -24.423778 36.458432 0.107349 2.304881 0.070599 -0.013280 362954.000000 0 0 1
25.715949 3.752681 -23.992478 35.369926 0.144905 2.316284 0.066547 -0.012900 -420765.000000 0 0 1
26.096549 5.126481 -23.855578 35.726731 0.193973 2.301943 0.052876 -0.005582 621943.000000 0 0 1
25.070149 5.985181 -23.355278 34.782234 0.234351 2.306989 0.063766 -0.017998 118969.000000 0 0 1
25.734749 7.284481 -22.829778 35.164467 0.275844 2.277366 0.074493 -0.012121 -13975.600000 0 0 1
26.293649 8.147281 -23.790378 36.382912 0.300476 2.283509 0.067931 -0.010425 164318.000000 0 0 1
26.612949 9.410881 -23.173978 36.521870 0.339896 2.258188 0.075645 -0.014241 -398182.000000 0 0 1
27.641649 10.242081 -23.944278 37.977486 0.354847 2.252976 0.097461 -0.009646 -745061.000000 0 0 1
27.364249 10.740881 -25.240178 38.745777 0.374037 2.280265 0.124756 -0.015554 53368.800000 0 0 1
26.298149 11.671681 -25.273978 38.296146 0.417704 2.291564 0.126210 -0.014553 116198.000000 0 0 1
25.921349 12.137481 -26.689338 39.135094 0.437921 2.321262 0.123506 -0.015951 -17829.200000 0 0 1
25.296249 11.181481 -27.573828 39.054343 0.416199 2.354683 0.109778 -0.020638 130469.000000 0 0 1
26.063049 10.098081 -27.994428 39.559345 0.369639 2.356972 0.108510 -0.027410 -468421.000000 0 0 1
27.097549 10.251881 -29.094438 41.059281 0.361689 2.358303 0.110850 -0.030224 -410265.000000 0 0 1
28.196449 11.128381 -28.815678 41.823724 0.375906 2.330876 0.112200 -0.025393 1098710.000000 0 0 1
29.097249 11.332481 -29.914398 43.242875 0.371395 2.334742 0.126573 -0.029034 1318200.000000 0 0 1
29.988449 10.085881 -30.412998 43.886018 0.324441 2.336438 0.108219 -0.024969 -132707.000000 0 0 1
29.196749 9.242581 -31.182068 43.705799 0.306581 2.365211 0.100126 -0.027564 30757.600000 0 0 1
29.938949 8.175281 -31.735048 44.387940 0.266566 2.367345 0.098492 -0.024074 508687.000000 0 0 1
29.018949 7.181081 -32.567248 44.207386 0.242588 2.398962 0.099520 -0.032022 509596.000000 0 0 1
28.120249 6.437381 -31.791938 42.929193 0.225046 2.404710 0.109357 -0.033488 137848.000000 0 0 1
26.915449 6.226881 -32.521368 42.671476 0.227350 2.437399 0.082419 -0.026282 -54667.200000 0 0 1
25.659849 5.985681 -31.696068 41.217678 0.229172 2.448059 0.109612 -0.024343 -1110960.000000 0 0 1
25.273549 7.194281 -31.101808 40.716489 0.277321 2.440074 0.115990 -0.013026 -144322.000000 0 0 1
24.106649 7.120181 -30.332198 39.393778 0.287196 2.449597 0.107524 -0.017988 268238.000000 0 0 1
22.737249 7.055381 -31.071138 39.143027 0.300880 2.487803 0.101835 -0.019687 -337816.000000 0 0 1
22.416849 8.134781 -31.862228 39.798133 0.348109 2.499086 0.099575 -0.018506 344499.000000 0 0 1
21.121449 7.872081 -32.405818 39.474325 0.356758 2.533841 0.078738 -0.018654 392090.000000 0 0 1
20.600349 9.014881 -33.328238 40.204651 0.412501 2.548050 0.074396 -0.014778 -276032.000000 0 0 1
21.091049 8.953981 33.248873 40.379372 0.401480 0.603398 0.069945 -0.015332 -157022.000000 0 0 1
20.663949 10.015481 32.455364 39.757507 0.451320 0.615763 0.065195 -0.017140 -402815.000000 0 0 1
19.444849 9.909381 31.544175 38.357959 0.471310 0.605244 0.068058 -0.012952 -282658.000000 0 0 1
19.524549 8.874481 30.527245 37.307870 0.426614 0.612432 0.068515 -0.020536 325961.000000 0 0 1
20.556349 9.009781 29.530495 37.091641 0.413079 0.649891 0.084570 -0.021666 -161084.000000 0 0 1
20.316949 10.035681 28.418455 36.346966 0.458801 0.673143 0.085867 -0.020142 186813.000000 0 0 1
19.231649 9.720881 27.552785 34.978677 0.468008 0.663726 0.079221 -0.008699 1161240.000000 0 0 1
17.962549 10.216681 28.037415 34.830022 0.517145 0.635157 0.085125 -0.021132 262970.000000 0 0 1
16.728549 9.594281 27.383975 33.492935 0.520727 0.613558 0.107128 -0.019142 -425813.000000 0 0 1
16.593749 9.979981 25.999255 32.417801 0.541470 0.640151 0.107535 -0.013191 -323506.000000 0 0 1
15.420849 9.474581 25.432465 31.215070 0.550941 0.618499 0.123668 -0.019675 -272433.000000 0 0 1
15.353749 8.009681 24.998645 30.410934 0.480838 0.605833 0.123438 -0.015032 -137185.000000 0 0 1
15.225249 7.155981 26.094905 31.047711 0.439367 0.572632 0.112374 -0.016920 236829.000000 0 0 1
14.725449 5.852081 25.689505 30.183379 0.378274 0.552692 0.119772 -0.018414 260414.000000 0 0 1
14.628749 4.957981 26.991965 31.099004 0.326770 0.519764 0.122149 -0.017544 153641.000000 0 0 1
15.904549 4.497581 27.398705 31.998000 0.275590 0.542805 0.108510 -0.020601 346808.000000 0 0 1
15.950449 4.035081 28.734495 33.111477 0.247778 0.520017 0.085524 -0.022528 3512.360000 0 0 1
17.181549 3.133181 28.984805 33.839938 0.180375 0.542295 0.112009 -0.029741 -82779.300000 0 0 1
17.041449 1.712981 28.763475 33.476601 0.100182 0.537070 0.094263 -0.030446 223657.000000 0 0 1
16.462049 1.116881 29.960275 34.203283 0.067742 0.503400 0.086884 -0.034887 172684.000000 0 0 1
16.389949 -0.447819 29.734405 33.955351 -0.027316 0.503931 0.082360 -0.037315 -284464.000000 0 0 1
15.507149 -0.994619 28.751195 32.681680 -0.064052 0.495493 0.075556 -0.030725 175340.000000 0 0 1
15.946749 -0.997919 27.402605 31.720615 -0.062497 0.527886 0.090852 -0.027707 -1234130.000000 0 0 1
17.112449 -1.978919 27.133795 32.140238 -0.115131 0.565667 0.098673 -0.031368 1183290.000000 0 0 1
18.400749 -1.616119 27.726285 33.315857 -0.087604 0.587688 0.099005 -0.040289 930594.000000 0 0 1
18.987849 -0.520819 27.138305 33.125478 -0.027422 0.610681 0.102785 -0.031158 -1292480.000000 0 0 1
20.463549 -0.292119 27.539175 34.311053 -0.014274 0.639100 0.121548 -0.038068 151063.000000 0 0 1
21.418149 -1.059619 26.868355 34.376859 -0.049433 0.673597 0.095113 -0.035072 454414.000000 0 0 1
22.761549 -0.762119 27.311955 35.561381 -0.033470 0.695048 0.094837 -0.042516 1192920.000000 0 0 1
23.845949 -1.502419 26.479895 35.666110 -0.062922 0.734093 0.082902 -0.030736 -191472.000000 0 0 1
24.153749 -1.062519 25.160825 34.894121 -0.043961 0.765462 0.082533 -0.009954 -26952.600000 0 0 1
23.383049 -1.729419 24.220185 33.710165 -0.073826 0.769177 0.085971 0.003404 -252448.000000 0 0 1
23.404549 -1.225119 22.798935 32.696564 -0.052298 0.799189 0.084926 -0.019428 122336.000000 0 0 1
22.619249 0.010681 22.808735 32.122717 0.000472 0.781227 0.075746 -0.011663 620184.000000 0 0 1
22.518449 0.565081 21.505735 31.143162 0.025089 0.808555 0.049964 -0.000176 -95806.200000 0 0 1
-31.694471 -26.916102 -10.076078 42.784850 0.704051 1.808535 0.030855 0.017095 -70748.700000 0 0 1
-31.338081 -25.819102 -9.230278 41.640117 0.689139 1.794321 0.042898 0.014916 -257952.000000 0 0 1
-31.814871 -26.062902 -7.936078 41.886062 0.686342 1.761417 0.050532 0.009048 -716217.000000 0 0 1
-31.921951 -24.817002 -7.038378 41.041848 0.660825 1.743141 0.092044 -0.000808 255154.000000 0 0 1
-30.762441 -24.103402 -6.603178 39.634628 0.664619 1.738178 0.109638 -0.009148 -302224.000000 0 0 1
-29.807001 -24.839502 -5.902078 39.246563 0.694745 1.721754 0.098253 -0.009198 204085.000000 0 0 1
-28.603701 -23.943902 -5.374878 37.687816 0.696952 1.713900 0.094552 -0.017326 237976.000000 0 0 1
-28.656331 -22.908302 -4.412478 36.951936 0.674384 1.690493 0.115143 -0.010467 149880.000000 0 0 1
-29.387781 -21.734402 -4.864278 36.873935 0.636794 1.703098 0.134165 -0.010569 214957.000000 0 0 1
-29.304991 -20.501302 -3.992478 35.986466 0.610447 1.681969 0.123340 -0.011950 -51337.500000 0 0 1
-28.093571 -19.788802 -4.089778 34.605949 0.613666 1.689255 0.133713 -0.029836 106516.000000 0 0 1
-28.094091 -18.753802 -3.141578 33.924218 0.588604 1.663535 0.151320 -0.022131 250287.000000 0 0 1
-26.973161 -17.685602 -3.326778 32.425289 0.580354 1.673575 0.153938 -0.016735 242071.000000 0 0 1
-27.181261 -16.891102 -4.457778 32.311021 0.556024 1.709202 0.140924 -0.034111 268499.000000 0 0 1
-26.330071 -15.743602 -4.452478 30.999326 0.538898 1.714926 0.132903 -0.034460 151914.000000 0 0 1
-26.836011 -14.703702 -5.488378 31.088465 0.501237 1.748267 0.126752 -0.048897 10843.000000 0 0 1
-28.164811 -14.331302 -5.211778 32.028197 0.470692 1.734248 0.115377 -0.037343 -234827.000000 0 0 1
-28.529221 -13.273002 -6.029278 32.038121 0.435457 1.760116 0.154267 -0.056841 803015.000000 0 0 1
-29.976391 -12.660302 -5.825478 33.057578 0.399618 1.747944 0.132307 -0.041585 494197.000000 0 0 1
-30.952121 -13.452602 -6.378478 34.346634 0.409996 1.757590 0.130598 -0.037942 -1111770.000000 0 0 1
-32.227421 -12.918702 -6.231178 35.275021 0.381248 1.748374 0.121987 -0.036248 -356866.000000 0 0 1
-33.383341 -13.691802 -6.899878 36.735830 0.389216 1.759743 0.080015 -0.032420 14301.800000 0 0 1
-33.906991 -14.878802 -6.294678 37.559097 0.413511 1.739185 0.082397 -0.037874 484116.000000 0 0 1
-34.428503 -15.764702 -7.311978 38.565693 0.429401 1.761549 0.082307 -0.028114 -146999.000000 0 0 1
-35.299419 -16.927602 -6.748078 39.725675 0.447149 1.741491 0.073346 -0.029704 652449.000000 0 0 1
-36.675961 -16.735702 -6.444878 40.825804 0.428091 1.729322 0.041738 -0.032271 152837.000000 0 0 1
-36.999561 -15.889502 -5.350978 40.621137 0.405635 1.702909 0.069214 -0.031910 359618.000000 0 0 1
36.039515 -15.731402 -5.376178 39.689129 -0.411574 1.706671 0.101686 -0.037487 356567.000000 0 0 1
35.546335 -14.791602 -6.324578 39.017095 -0.394327 1.733612 0.105340 -0.039155 2155790.000000 0 0 1
34.092025 -14.592102 -6.446578 37.639792 -0.404427 1.742915 0.128094 -0.035835 2407980.000000 0 0 1
33.317185 -13.936902 -5.253078 36.494751 -0.396190 1.715239 0.150374 -0.042763 -224209.000000 0 0 1
33.153365 -14.818602 -4.140778 36.549728 -0.420332 1.684332 0.162166 -0.045898 490767.000000 0 0 1
32.496705 -14.219702 -3.024678 35.600343 -0.412472 1.655861 0.180281 -0.047142 -479108.000000 0 0 1
32.610575 -15.142102 -1.767078 35.997992 -0.434708 1.619904 0.191665 -0.043513 650758.000000 0 0 1
33.883875 -15.365302 -1.118178 37.221765 -0.425735 1.600842 0.212712 -0.034689 869922.000000 0 0 1
34.840235 -16.161202 -1.776478 38.447136 -0.434325 1.617019 0.169711 -0.032646 -295071.000000 0 0 1
34.502395 -17.667602 -1.937078 38.811231 -0.473256 1.620727 0.151620 -0.038893 -730364.000000 0 0 1
34.948235 -18.499902 -0.865878 39.552184 -0.486852 1.592690 0.147986 -0.043604 311065.000000 0 0 1
34.801985 -19.907202 -1.072378 40.107666 -0.519587 1.597537 0.122924 -0.041460 251493.000000 0 0 1
35.903025 -20.543902 -1.986378 41.412858 -0.519731 1.618780 0.098279 -0.046348 159109.000000 0 0 1
36.017355 -19.968002 -3.280578 41.312627 -0.506215 1.650289 0.061454 -0.048206 -289101.000000 0 0 1
36.925815 -20.585502 -4.137978 42.478248 -0.508570 1.668365 0.081680 -0.046435 -382338.000000 0 0 1
36.942835 -19.823102 -5.482178 42.282179 -0.492488 1.700819 0.100106 -0.049706 1658660.000000 0 0 1
35.613235 -19.867602 -6.111278 41.235565 -0.508866 1.719548 0.080392 -0.055191 1710770.000000 0 0 1
35.624975 -19.020102 -7.183278 41.018320 -0.490397 1.746828 0.087473 -0.052757 725506.000000 0 0 1
34.438925 -19.224202 -8.223678 40.289432 -0.509126 1.776356 0.094886 -0.055014 661993.000000 0 0 1
34.562065 -20.510702 -8.825078 41.147384 -0.535586 1.786950 0.100292 -0.057969 279345.000000 0 0 1
33.612965 -20.595902 -9.867578 40.637319 -0.549732 1.816069 0.092485 -0.060598 -348297.000000 0 0 1
33.433055 -22.012602 -10.456778 41.372310 -0.582263 1.826316 0.090264 -0.050961 -303568.000000 0 0 1
32.923675 -22.924102 -9.491278 41.225807 -0.608225 1.803107 0.087223 -0.047554 -122273.000000 0 0 1
32.881325 -24.307702 -9.893678 42.070545 -0.636589 1.808189 0.070266 -0.031205 -436466.000000 0 0 1
31.882265 -25.161302 -9.121778 41.626635 -0.668117 1.791722 0.071623 -0.034754 427452.000000 0 0 1
30.526815 -24.764502 -9.300578 40.393907 -0.681556 1.803128 0.075475 -0.041420 309055.000000 0 0 1
29.551005 -25.629202 -8.754478 40.084396 -0.714445 1.790972 0.050535 -0.032411 74393.600000 0 0 1
28.188225 -24.939502 -8.634778 38.614948 -0.724325 1.796315 0.067172 -0.038476 -422828.000000 0 0 1
27.598025 -24.509602 -9.847278 38.201315 -0.726197 1.831513 0.077033 -0.032623 -190833.000000 0 0 1
26.404025 -23.872702 -9.455078 36.830381 -0.735093 1.830423 0.083949 -0.044460 -96469.200000 0 0 1
25.607325 -23.274102 -10.668478 36.210984 -0.737702 1.869854 0.103754 -0.053828 239601.000000 0 0 1
25.003625 -24.414602 -11.333478 36.738288 -0.773480 1.884404 0.088901 -0.039332 749177.000000 0 0 1
24.027625 -24.145302 -12.359278 36.236365 -0.787841 1.918855 0.093925 -0.024414 521329.000000 0 0 1
23.395925 -25.451202 -12.859878 36.885084 -0.827449 1.926924 0.096611 -0.029240 -183868.000000 0 0 1
24.256525 -26.296102 -13.560678 38.259064 -0.825722 1.933115 0.085702 -0.020712 204449.000000 0 0 1
23.697425 -27.655402 -13.479478 38.834077 -0.862320 1.925278 0.100217 -0.022465 -145567.000000 0 0 1
24.449325 -28.773702 -14.201678 40.340836 -0.866470 1.930548 0.084477 -0.021845 -398828.000000 0 0 1
24.446625 -28.646502 -15.592178 40.759975 -0.864338 1.963336 0.076893 -0.014788 327287.000000 0 0 1
24.732925 -29.870002 -16.205878 42.030526 -0.879203 1.966626 0.070732 -0.013086 -651146.000000 0 0 1
24.615025 -29.892902 -17.749778 42.597414 -0.881925 2.000594 0.064934 -0.014431 724126.000000 0 0 1
23.255425 -29.833402 -18.226878 41.988876 -0.908675 2.019822 0.067940 -0.009735 711961.000000 0 0 1
23.234425 -29.998002 -19.645078 42.727599 -0.911778 2.048538 0.056020 -0.008208 808295.000000 0 0 1
21.776825 -29.870302 -20.229678 42.139114 -0.940841 2.071530 0.046684 -0.006914 808153.000000 0 0 1
21.714625 -29.616702 -21.579678 42.595264 -0.938142 2.102058 0.040102 -0.012439 320067.000000 0 0 1
20.365425 -29.588402 -22.054278 42.149914 -0.967972 2.121438 0.048235 -0.020728 114774.000000 0 0 1
20.247325 -29.723802 -23.600678 43.016864 -0.972812 2.151530 0.054087 -0.025476 -606160.000000 0 0 1
20.704525 -28.617102 -24.315578 42.881968 -0.944471 2.173698 0.062027 -0.030345 303432.000000 0 0 1
20.830725 -29.006402 -25.701798 43.998555 -0.947998 2.194630 0.070734 -0.037133 -475415.000000 0 0 1
21.289025 -27.808802 -26.549768 43.948177 -0.917417 2.219452 0.081426 -0.043227 -77585.100000 0 0 1
20.339125 -26.775702 -26.690098 42.929938 -0.921172 2.241724 0.093351 -0.048588 295911.000000 0 0 1
19.354325 -27.111802 -27.666668 43.302243 -0.950822 2.263890 0.104286 -0.050041 -273691.000000 0 0 1
18.398125 -26.015102 -28.151318 42.517917 -0.955248 2.294420 0.100388 -0.050890 -201226.000000 0 0 1
17.428825 -25.669502 -27.182068 41.249874 -0.974324 2.290233 0.078339 -0.029343 44976.700000 0 0 1
16.750125 -24.476202 -27.496628 40.443982 -0.970656 2.318381 0.073193 -0.008986 -568050.000000 0 0 1
15.652325 -24.087702 -26.559278 39.122985 -0.994558 2.317014 0.076089 -0.011278 319307.000000 0 0 1
14.492825 -24.973202 -26.506558 39.195668 -1.044962 2.313473 0.110201 -0.023866 1643750.000000 0 0 1
13.459225 -24.503002 -25.577888 37.891638 -1.068499 2.311798 0.084639 -0.012036 890562.000000 0 0 1
13.763025 -24.561302 -24.041378 37.022510 -1.060039 2.277555 0.077454 -0.008361 -312896.000000 0 0 1
14.618125 -23.563402 -23.512378 36.355954 -1.015530 2.274082 0.054747 -0.008382 -148737.000000 0 0 1
14.914325 -23.930402 -22.195878 35.885348 -1.013465 2.237657 0.054381 -0.017590 419926.000000 0 0 1
16.213625 -23.271702 -21.631378 35.670300 -0.962282 2.222354 0.053743 -0.019036 314562.000000 0 0 1
16.083725 -21.885102 -21.318778 34.527296 -0.937019 2.236289 0.046616 -0.013499 821000.000000 0 0 1
17.315425 -21.413402 -20.743278 34.476678 -0.890818 2.216376 0.056763 -0.011544 243507.000000 0 0 1
17.183025 -19.939602 -20.217378 33.190156 -0.859518 2.225769 0.062731 -0.012057 301979.000000 0 0 1
16.367725 -19.863102 -19.029078 32.008609 -0.881576 2.207438 0.059366 -0.017607 337997.000000 0 0 1
15.007025 -19.680602 -19.366378 31.426000 -0.919325 2.234773 0.063777 -0.022348 -120808.000000 0 0 1
14.063225 -19.601202 -18.107678 30.164042 -0.948443 2.214681 0.073405 -0.026830 167891.000000 0 0 1
14.287325 -18.527802 -17.251778 29.069416 -0.913909 2.206158 0.087940 -0.028726 35860.300000 0 0 1
13.656125 -18.777202 -16.025878 28.211732 -0.942001 2.174940 0.087577 -0.027644 -208869.000000 0 0 1
13.640525 -17.559702 -15.126978 26.892983 -0.910357 2.168188 0.093489 -0.030693 -171460.000000 0 0 1
12.481025 -16.752902 -15.238478 25.858208 -0.930499 2.201000 0.090089 -0.040450 154523.000000 0 0 1
12.662925 -15.597602 -14.461578 24.754234 -0.888871 2.194698 0.088560 -0.033666 -30017.000000 0 1 0
11.388325 -14.769902 -14.165378 23.420117 -0.913959 2.220359 0.092783 -0.031259 -141847.000000 0 1 0
10.812125 -14.239302 -15.333078 23.553408 -0.921360 2.279687 0.109000 -0.025704 549694.000000 0 1 0
9.506425 -13.725102 -15.073978 22.493896 -0.965033 2.305189 0.111540 -0.029173 743530.000000 0 1 0
8.611825 -13.214202 -16.248378 22.644833 -0.993220 2.371048 0.096118 -0.022811 12875.500000 0 1 0
8.987125 -12.076802 -16.950778 22.670387 -0.931041 2.415397 0.084762 -0.015560 -336926.000000 0 1 0
10.163425 -12.250002 -17.700278 23.804571 -0.878226 2.409185 0.105756 -0.018559 -234399.000000 0 1 0
10.445525 -11.039002 -18.579578 24.003526 -0.813015 2.455986 0.105022 -0.016985 -400460.000000 0 1 0
9.532525 -10.896102 -19.638478 24.398031 -0.852048 2.506338 0.103456 -0.016739 197921.000000 0 1 0
9.829925 -9.777702 -20.510178 24.756783 -0.782735 2.547161 0.108953 -0.022732 103754.000000 0 1 0
9.444025 -9.982002 -21.976078 25.918680 -0.813085 2.582781 0.109729 -0.019050 312427.000000 0 0 1
10.546725 -10.639802 -22.574378 27.093197 -0.789791 2.555688 0.095499 -0.020975 -8526.300000 0 0 1
10.458625 -10.615102 -23.980578 28.233515 -0.792823 2.585579 0.088917 -0.017014 -765115.000000 0 0 1
11.607825 -11.292802 -24.609578 29.460148 -0.771643 2.559568 0.121907 -0.020116 -780946.000000 0 0 1
11.349025 -12.666302 -24.482978 29.810263 -0.840195 2.534471 0.099781 -0.019664 348772.000000 0 0 1
12.400125 -13.434902 -25.055308 31.016579 -0.825430 2.511213 0.070164 -0.022545 161468.000000 0 0 1
12.212725 -14.908002 -24.617678 31.263865 -0.884454 2.477403 0.064424 -0.021828 346045.000000 0 0 1
11.138525 -15.543002 -25.303478 31.716205 -0.948999 2.494449 0.072910 -0.024173 56357.900000 0 0 1
10.868625 -16.799602 -24.766678 31.839315 -0.996563 2.462057 0.077616 -0.031612 754547.000000 0 0 1
9.597325 -17.519402 -25.357618 32.280751 -1.069635 2.474354 0.075340 -0.024352 789286.000000 0 0 1
9.843325 -18.237902 -26.567558 33.694914 -1.075881 2.479120 0.068976 -0.034979 -345108.000000 0 0 1
8.645725 -18.746602 -27.063008 34.038068 -1.138677 2.489937 0.076277 -0.031730 -466865.000000 0 0 1
8.881125 -19.531302 -28.338738 35.544764 -1.144031 2.493554 0.079458 -0.026093 303415.000000 0 0 1
9.834725 -20.588502 -28.137018 36.225682 -1.125163 2.460229 0.063691 -0.023812 353438.000000 0 0 1
9.781025 -21.555102 -29.132008 37.536179 -1.144813 2.459261 0.064566 -0.018672 -264294.000000 0 0 1
10.835325 -22.608202 -28.806848 38.188605 -1.123874 2.425431 0.062321 -0.010361 -194938.000000 0 0 1
11.001125 -23.499502 -29.890268 39.581302 -1.132958 2.426696 0.067821 -0.012978 -118825.000000 0 0 1
11.732925 -24.625102 -29.478118 40.162378 -1.126156 2.394950 0.092431 -0.026755 62801.400000 0 0 1
10.987125 -25.682102 -28.550258 39.942515 -1.166546 2.367111 0.081756 -0.026304 189342.000000 0 0 1
10.466425 -25.037302 -27.453458 38.601877 -1.174841 2.361993 0.083752 -0.025062 -668986.000000 0 0 1
10.024925 -25.872102 -26.463658 38.343057 -1.201129 2.332536 0.073773 -0.017028 -35196.900000 0 0 1
9.227325 -25.138502 -25.348118 36.872956 -1.219005 2.328761 0.065406 -0.011804 -104163.000000 0 0 1
9.946025 -24.130402 -24.692278 35.929213 -1.179836 2.328490 0.069888 -0.005251 -157072.000000 0 0 1
9.400825 -22.857502 -25.008878 35.160843 -1.180604 2.362101 0.063657 -0.001489 369314.000000 0 0 1
10.417425 -21.690202 -24.768478 34.532088 -1.123047 2.370658 0.081187 -0.012419 220750.000000 0 0 1
10.754725 -21.464302 -23.440978 33.553835 -1.106308 2.344247 0.070874 -0.020256 126741.000000 0 0 1
11.931925 -20.664202 -23.517578 33.503083 -1.047145 2.348932 0.071655 -0.019580 104758.000000 0 0 1
12.501825 -20.462102 -22.074178 32.592370 -1.022346 2.314856 0.070485 -0.016553 231113.000000 0 0 1
11.549725 -19.793702 -21.236078 31.243524 -1.042594 2.318144 0.076124 -0.016886 253550.000000 0 0 1
11.278725 -18.421902 -21.417978 30.418841 -1.021421 2.351955 0.077353 -0.023338 118663.000000 0 0 1
12.478125 -17.438402 -21.247778 30.187241 -0.949707 2.351622 0.071802 -0.024447 700173.000000 0 0 1
13.459525 -17.570402 -22.284678 31.408354 -0.917112 2.359605 0.064635 -0.015640 -59340.400000 0 0 1
14.454725 -16.579502 -22.146978 31.213901 -0.853757 2.359617 0.075678 -0.017708 440744.000000 0 0 1
15.730125 -16.899502 -22.999078 32.588151 -0.821221 2.354277 0.056837 -0.011282 250985.000000 0 0 1
16.810325 -17.566502 -22.370278 33.039346 -0.807391 2.314584 0.058677 -0.004531 208069.000000 0 0 1
17.961125 -17.123202 -23.072578 33.884361 -0.761520 2.319816 0.064748 -0.000415 -575167.000000 0 0 1
19.246425 -17.210602 -22.268178 34.095475 -0.729614 2.282484 0.061335 0.003197 -632353.000000 0 0 1
19.681225 -18.563902 -22.130278 34.953087 -0.756192 2.256402 0.063145 -0.000465 246521.000000 0 0 1
20.936925 -18.670502 -21.476578 35.329674 -0.728238 2.224198 0.048528 -0.006666 275158.000000 0 0 1
21.307025 -20.121702 -21.335278 36.250052 -0.756795 2.200071 0.070076 -0.010641 -116606.000000 0 0 1
20.828825 -20.744502 -20.164978 35.648291 -0.783370 2.172035 0.065217 -0.009715 74739.200000 0 0 1
21.184225 -22.103302 -20.125678 36.638371 -0.806627 2.152330 0.079400 -0.013833 -42216.500000 0 0 1
-16.511351 13.343881 29.624185 36.445524 -0.679699 0.621794 0.077516 -0.019851 -872144.000000 0 0 1
-17.640051 13.628781 28.840195 36.450953 -0.657812 0.658019 0.097368 -0.024917 -51124.500000 0 0 1
-17.421551 13.333681 27.463995 35.150655 -0.653256 0.674014 0.088261 -0.031639 850168.000000 0 0 1
-18.660651 13.791881 26.590105 35.291211 -0.636481 0.717505 0.110575 -0.028696 805167.000000 0 0 1
-18.782151 15.218081 26.679735 36.002326 -0.680955 0.736155 0.098486 -0.023579 286257.000000 0 0 1
-19.888351 15.797781 25.988985 36.339287 -0.671270 0.773920 0.109117 -0.025217 29254.100000 0 0 1
-20.014951 17.328881 26.296875 37.315065 -0.713594 0.788760 0.102493 -0.014248 55772.800000 0 0 1
-19.070751 18.223181 25.734815 36.851847 -0.762675 0.797732 0.060280 -0.011018 115172.000000 0 0 1
-17.948451 18.431181 26.560615 36.977312 -0.798667 0.769448 0.044630 0.002271 -187800.000000 0 0 1
-16.906251 19.465881 26.115785 36.698448 -0.855656 0.778978 0.049738 -0.004968 -106650.000000 0 0 1
-17.171251 20.876481 26.311145 37.722085 -0.882476 0.798894 0.063186 -0.004417 330196.000000 0 0 1
-16.088351 21.633181 25.753085 37.283387 -0.931347 0.808286 0.078625 -0.021619 397184.000000 0 0 1
-16.331251 23.126281 25.561105 38.143214 -0.955937 0.836406 0.075836 -0.023106 8263.080000 0 0 1
-16.033951 23.932881 26.722915 39.293570 -0.980521 0.822920 0.079360 -0.020334 172573.000000 0 0 1
-16.424351 25.270681 26.472005 40.114009 -0.994465 0.850085 0.083852 -0.018908 -88269.400000 0 0 1
-15.774351 26.196781 27.502745 41.127880 -1.028799 0.838320 0.084742 -0.014500 995912.000000 0 0 1
-14.378251 26.475081 27.249315 40.622521 -1.073277 0.835518 0.097090 -0.019426 848533.000000 0 0 1
-13.839851 27.252881 28.269135 41.634181 -1.100904 0.824412 0.111342 -0.014402 -903574.000000 0 0 1
-12.329951 27.236981 28.260535 41.140475 -1.145706 0.813543 0.121250 -0.023503 -1047440.000000 0 0 1
-11.703451 27.937381 27.261395 40.751095 -1.174089 0.837970 0.119137 -0.032366 -821714.000000 0 0 1
-10.330451 27.748881 27.431535 40.363446 -1.214409 0.823561 0.095643 -0.020314 -644422.000000 0 0 1
-9.439251 28.207581 26.293255 39.700156 -1.247875 0.846917 0.098245 -0.027657 1019560.000000 0 0 1
-8.015151 27.994981 26.460505 39.346156 -1.291949 0.833207 0.076660 -0.022719 1816910.000000 0 0 1
-7.251351 28.395681 25.283985 38.706288 -1.320772 0.858958 0.095414 -0.029247 -39372.700000 0 0 1
-5.768451 28.114181 25.462895 38.367190 -1.368426 0.845091 0.088991 -0.028413 -806146.000000 0 0 1
-4.982451 29.029981 26.216615 39.431910 -1.400821 0.843493 0.099369 -0.026135 -471120.000000 0 0 1
-3.616251 28.774181 26.118545 39.028313 -1.445775 0.837637 0.089326 -0.019991 -190949.000000 0 0 1
-2.901351 29.543781 24.951745 38.779408 -1.472905 0.871829 0.086128 -0.019076 -410226.000000 0 0 1
-3.023451 28.882181 23.742685 37.510489 -1.466494 0.885424 0.082833 -0.016614 47525.500000 0 0 1
-2.681851 29.681281 22.613935 37.410705 -1.480686 0.921686 0.078978 -0.029294 -350124.000000 0 0 1
-3.025251 28.965681 21.307335 36.085529 -1.466731 0.939158 0.073042 -0.017931 605151.000000 0 0 1
-4.374251 29.041281 20.891335 36.041337 -1.421298 0.952498 0.066499 -0.001499 -338779.000000 0 0 1
-5.349651 28.236681 21.449435 35.860943 -1.383558 0.929633 0.083412 -0.005916 -1080570.000000 0 0 1
-6.750251 28.701281 21.058635 36.232521 -1.339804 0.950584 0.076569 -0.018996 -799475.000000 0 0 1
-7.047751 28.506181 19.667635 35.342454 -1.328421 0.980644 0.056035 -0.013407 35950.100000 0 0 1
-7.698651 27.262181 19.355435 34.309308 -1.295570 0.971399 0.036114 -0.010410 -936476.000000 0 0 1
-6.865651 25.979381 19.172935 33.010103 -1.312430 0.951060 0.019346 -0.014576 88812.600000 0 0 1
-5.981451 26.027281 18.052035 32.234657 -1.344904 0.976387 0.024895 -0.016542 -132511.000000 0 0 1
-4.691351 26.481381 18.382835 32.576080 -1.395459 0.971206 0.050442 -0.017026 -640034.000000 0 0 1
-3.803751 26.791981 17.166935 32.046567 -1.429765 1.005475 0.051914 -0.016407 -137145.000000 0 0 1
-3.096351 25.684081 16.706935 30.795797 -1.450820 0.997378 0.060709 -0.023787 -341758.000000 0 0 1
-2.770351 25.830781 15.360535 30.180294 -1.463955 1.036821 0.065446 -0.029298 -46824.300000 0 0 1
-1.996851 24.609481 14.784535 28.778403 -1.489832 1.031261 0.062011 -0.024977 1404480.000000 0 0 1
-0.780751 24.241781 15.521335 28.795579 -1.538601 1.001526 0.065265 -0.024015 1367960.000000 0 0 1
-0.074051 23.193881 14.861835 27.546974 -1.567604 1.000943 0.058292 -0.034198 -481137.000000 0 0 1
1.170849 22.772581 15.623735 27.641680 1.519427 0.970092 0.056361 -0.033976 -803558.000000 0 0 1
2.204249 23.703081 15.499235 28.406356 1.478069 0.993661 0.068517 -0.034856 -387071.000000 0 0 1
3.419449 23.010781 15.744535 28.090552 1.423274 0.975816 0.083391 -0.039480 78248.600000 0 0 1
4.653149 23.936981 15.682935 28.992850 1.378799 0.999261 0.091968 -0.030804 -93337.500000 0 0 1
5.901249 23.317381 15.535235 28.633347 1.322917 0.997318 0.089671 -0.029624 -247013.000000 0 0 1
6.920849 24.265381 15.726235 29.732497 1.292958 1.013464 0.091862 -0.029101 -8064.530000 0 0 1
8.393749 23.802781 15.833535 29.794769 1.231774 1.010520 0.102828 -0.028925 588985.000000 0 0 1
9.004849 23.335281 14.584135 28.953751 1.202513 1.042915 0.085153 -0.019874 156176.000000 0 0 1
9.683349 24.306481 13.880835 29.618404 1.191683 1.083028 0.082785 -0.021855 -508946.000000 0 0 1
10.271749 23.787181 12.542335 28.786264 1.163164 1.119974 0.073877 -0.014905 -604160.000000 0 0 1
11.223849 22.806981 12.651035 28.393342 1.113470 1.108993 0.078724 -0.021320 -508453.000000 0 0 1
11.475649 21.986881 11.507335 27.341036 1.089758 1.136379 0.079234 -0.022747 234084.000000 0 0 1
12.687349 21.019581 11.637635 27.170318 1.027736 1.128162 0.086292 -0.029544 287136.000000 0 0 1
12.507449 19.940981 12.568735 26.684305 1.010600 1.080354 0.074717 -0.020254 424174.000000 0 0 1
13.739649 19.218081 12.595435 26.772329 0.950118 1.080979 0.065283 -0.019866 612385.000000 0 0 1
14.254649 18.884681 14.036935 27.511121 0.924214 1.035347 0.071833 -0.019160 -35714.700000 0 0 1
15.267549 17.906381 14.113635 27.439593 0.864776 1.030543 0.071212 -0.020862 -68980.000000 0 0 1
15.631649 17.642881 15.448035 28.182646 0.845768 0.990658 0.067467 -0.021485 -407819.000000 0 0 1
16.748449 16.614381 15.498635 28.226865 0.781380 0.989541 0.045522 -0.021406 -583656.000000 0 0 1
17.195449 16.474481 16.826735 29.158721 0.763989 0.955655 0.055179 -0.021400 -319088.000000 0 0 1
18.194549 15.500381 16.725435 29.172652 0.705610 0.960237 0.043231 -0.021965 -418950.000000 0 0 1
18.881449 15.154181 18.046835 30.196798 0.676322 0.930241 0.056193 -0.013811 -81818.300000 0 0 1
19.737149 16.084581 18.674735 31.575537 0.683784 0.937965 0.071713 -0.006265 416925.000000 0 0 1
19.060749 17.223581 19.169935 32.053866 0.734809 0.929726 0.053789 -0.004365 -264587.000000 0 0 1
19.905949 18.076881 20.137835 33.593941 0.737280 0.927984 0.041767 0.002142 436417.000000 0 0 1
19.102149 19.097681 20.813235 34.099916 0.785281 0.914281 0.065797 -0.006913 1321400.000000 0 0 1
19.971349 19.913981 21.634335 35.545266 0.783960 0.916449 0.056215 -0.007058 804192.000000 0 0 1
19.155349 21.100281 22.293435 36.182130 0.833675 0.906958 0.067842 -0.013014 729344.000000 0 0 1
18.180549 20.703681 23.240655 36.045844 0.850196 0.870097 0.067349 -0.019426 -5400.000000 0 0 1
17.381949 21.802581 23.647855 36.560987 0.897739 0.867408 0.064981 -0.033617 156907.000000 0 0 1
16.669849 21.531681 24.996585 36.963853 0.911986 0.828144 0.093140 -0.030349 -258786.000000 0 0 1
15.503249 20.790981 24.799545 35.883605 0.930071 0.807772 0.098404 -0.033392 -555533.000000 0 0 1
14.829649 20.583581 26.037685 36.353313 0.946470 0.772397 0.112275 -0.025999 -152871.000000 0 0 1
13.739649 19.514981 26.083535 35.354820 0.957353 0.741043 0.149123 -0.026834 -286823.000000 0 0 1
14.075049 18.138481 26.127095 34.781268 0.910876 0.720944 0.118826 -0.030450 -274187.000000 0 0 1
14.568349 17.559681 24.936865 33.799800 0.878237 0.741018 0.119642 -0.033818 -200831.000000 0 0 1
13.581349 17.376381 23.753115 32.412994 0.907377 0.748329 0.135282 -0.033760 -238304.000000 0 0 1
13.174949 18.484481 22.947665 32.277712 0.951560 0.779956 0.123333 -0.029385 -296341.000000 0 0 1
14.105849 19.066981 22.078635 32.403563 0.933852 0.821171 0.102489 -0.027953 -416189.000000 0 0 1
14.718649 18.275181 20.926735 31.441201 0.892777 0.842521 0.104392 -0.023285 94444.600000 0 0 1
13.735749 17.767581 20.018435 30.084805 0.912687 0.842767 0.100960 -0.023294 281526.000000 0 0 1
14.369149 16.968581 19.070835 29.293378 0.868158 0.861857 0.076448 -0.022979 -175317.000000 0 0 1
13.324349 16.242881 18.235735 27.819265 0.883788 0.855942 0.080880 -0.021903 -155864.000000 0 0 1
12.693549 16.981081 17.254435 27.334938 0.928890 0.887668 0.094911 -0.024345 112208.000000 0 0 1
11.575849 16.279181 16.710535 26.043311 0.952671 0.874156 0.077570 -0.025982 437221.000000 0 0 1
11.068549 16.832481 15.382235 25.346763 0.989117 0.918678 0.067837 -0.023699 -107813.000000 0 0 1
10.478149 18.113781 15.471035 26.024097 1.046364 0.934167 0.072343 -0.024884 153057.000000 0 0 1
9.977349 18.484381 14.194235 25.351453 1.075840 0.976533 0.070250 -0.023316 -404641.000000 0 0 1
9.002849 19.654881 14.250135 25.892702 1.141271 0.988009 0.074755 -0.025412 514923.000000 0 0 1
7.762249 19.311681 14.878135 25.584223 1.188614 0.950181 0.068761 -0.028271 98094.400000 0 0 1
6.765749 20.273281 14.761035 25.974400 1.248691 0.966368 0.070910 -0.031473 -10943.500000 0 0 1
5.457849 19.968481 15.503235 25.862689 1.303990 0.927990 0.071516 -0.039216 -249951.000000 0 0 1
4.517549 19.074681 14.974535 24.667558 1.338246 0.918448 0.067278 -0.038664 828075.000000 0 1 0
3.331949 18.990381 15.821735 24.941207 1.397110 0.883614 0.058893 -0.032735 1514290.000000 0 1 0
2.066149 18.541581 15.026435 23.955229 1.459821 0.892751 0.046134 -0.031980 303952.000000 0 1 0
1.575749 19.573381 14.172335 24.216840 1.490465 0.945637 0.047980 -0.034075 -620348.000000 0 1 0
0.451549 19.077481 13.531135 23.393286 1.547132 0.954006 0.037645 -0.031513 -253774.000000 0 1 0
-0.385551 20.119281 12.686235 23.788121 -1.551635 1.008298 0.035582 -0.030205 27618.400000 0 1 0
-1.460451 20.797881 13.285835 24.722423 -1.500690 1.003445 0.043226 -0.025196 70393.800000 0 1 0
-2.511451 20.679681 12.291735 24.187670 -1.449943 1.037724 0.040810 -0.033596 669886.000000 0 1 0
-3.821751 21.420481 12.682135 25.184903 -1.394238 1.043081 0.042344 -0.030368 50152.900000 0 0 1
-4.474651 20.783381 13.739935 25.313184 -1.358734 0.997032 0.047205 -0.033741 -143718.000000 0 0 1
-5.619451 21.546481 14.101435 26.356775 -1.315673 1.006263 0.049915 -0.025086 181640.000000 0 0 1
-6.442151 20.917281 15.282935 26.694608 -1.272033 0.961232 0.038940 -0.024882 -457079.000000 0 0 1
-7.241151 19.762981 14.949035 25.816339 -1.219587 0.953229 0.045369 -0.024702 368052.000000 0 0 1
-7.926851 19.173681 16.026735 26.216813 -1.178772 0.913075 0.036578 -0.009909 396069.000000 0 0 1
-9.080351 19.990181 16.760235 27.621832 -1.144422 0.918799 0.019709 0.000028 736975.000000 0 0 1
-10.240651 20.003881 15.900535 27.529134 -1.097648 0.955024 0.011635 -0.008139 50172.800000 0 0 1
-11.358651 19.654181 16.672435 28.165154 -1.046766 0.937317 0.002364 0.004875 -133724.000000 0 0 1
-12.648751 19.396881 15.847835 28.060360 -0.992945 0.970634 0.019700 -0.008105 68959.800000 0 0 1
-13.293851 20.606981 15.429235 28.973013 -0.997864 1.009200 0.012937 -0.006060 359347.000000 0 0 1
-14.208451 20.323881 14.359835 28.655630 -0.960674 1.045907 0.025822 -0.016961 515412.000000 0 0 1
-15.285351 21.448981 14.152935 29.899939 -0.951639 1.077714 0.023805 -0.023624 233573.000000 0 0 1
-16.425851 21.326181 14.965035 30.798813 -0.914480 1.063408 0.016328 -0.023327 -84221.400000 0 0 1
-17.383151 22.346081 14.760535 31.927961 -0.909673 1.090201 0.029852 -0.030411 491620.000000 0 0 1
-18.639351 22.181181 15.670735 32.939371 -0.871947 1.074986 0.081349 -0.034265 -576450.000000 0 0 1
-19.391951 21.031381 15.355835 32.467960 -0.825932 1.078156 0.082008 -0.033323 194449.000000 0 0 1
-20.487551 20.757181 16.226235 33.375006 -0.791935 1.063084 0.096261 -0.027306 311839.000000 0 0 1
-21.687051 21.686881 16.008035 34.596332 -0.785394 1.089748 0.095575 -0.029648 -1444870.000000 0 0 1
-22.474451 21.472981 14.859735 34.452890 -0.762614 1.124857 0.103855 -0.032167 528428.000000 0 0 1
-23.438651 22.530781 14.630135 35.651751 -0.765651 1.147945 0.126874 -0.045243 329259.000000 0 0 1
-22.989251 23.849181 13.924335 35.932941 -0.803756 1.172868 0.103172 -0.035340 -385352.000000 0 0 1
-21.922851 24.505281 14.582535 35.969022 -0.840963 1.153359 0.068162 -0.035846 95514.000000 0 0 1
-21.673651 25.718781 13.923935 36.401632 -0.870546 1.178287 0.056694 -0.023206 900534.000000 0 0 1
-20.222551 26.305781 14.183335 36.084799 -0.915403 1.166844 0.033575 -0.015168 1849370.000000 0 0 1
-19.213051 25.700181 13.344835 34.752342 -0.928843 1.176674 0.033578 -0.011200 248121.000000 0 0 1
-17.910951 26.206881 13.457235 34.477529 -0.971268 1.169818 0.006792 -0.005044 3466.150000 0 0 1
-16.879951 25.441781 12.566835 33.017304 -0.985008 1.180337 0.017702 -0.011114 620991.000000 0 0 1
-15.572351 25.984581 12.734435 32.861260 -1.030898 1.172855 0.023879 -0.009876 144929.000000 0 0 1
-14.670151 25.546481 11.750335 31.716028 -1.049523 1.191264 0.039567 -0.019916 1183510.000000 0 0 1
-13.240351 26.219081 11.979535 31.721545 -1.103165 1.183543 0.048281 -0.016365 850447.000000 0 0 1
-12.111251 25.425081 11.606935 30.460435 -1.126247 1.179865 0.046628 -0.021860 1228260.000000 0 0 1
-10.837851 26.008781 11.933435 30.599389 -1.175977 1.170176 0.061738 -0.024195 788960.000000 0 0 1
-10.424751 27.337181 11.195735 31.326369 -1.206479 1.205324 0.067815 -0.032296 -202570.000000 0 0 1
-9.188651 27.792481 11.768835 31.549308 -1.251493 1.188524 0.078085 -0.033720 635817.000000 0 0 1
-8.655251 28.819081 11.010935 32.042059 -1.279036 1.220006 0.079214 -0.033021 -245694.000000 0 0 1
-7.435651 29.602081 11.532735 32.627843 -1.324701 1.209526 0.063547 -0.023317 662234.000000 0 0 1
-6.178951 28.942681 11.432435 31.726311 -1.360465 1.202158 0.072921 -0.026514 -399705.000000 0 0 1
-5.148251 29.636981 12.014135 32.391274 -1.398802 1.190811 0.087020 -0.024822 105137.000000 0 0 1
-3.716151 29.213181 11.549335 31.632371 -1.444268 1.197044 0.091693 -0.029791 536925.000000 0 0 1
-3.378651 29.876981 10.322435 31.789967 -1.458189 1.240094 0.103862 -0.031276 922950.000000 0 0 1
-2.068051 29.598181 9.785935 31.242498 -1.501039 1.252209 0.093246 -0.024577 925766.000000 0 0 1
-1.674651 30.326781 8.488435 31.536830 -1.515632 1.298276 0.092736 -0.027905 -195102.000000 0 0 1
-2.535751 30.125781 7.395635 31.123756 -1.486822 1.330881 0.095651 -0.023589 -158428.000000 0 0 1
-2.191351 30.891181 6.252935 31.593770 -1.499977 1.371564 0.104813 -0.019133 62121.500000 0 0 1
11.303549 -33.491602 -26.495898 44.175675 -1.245297 2.214028 0.109428 -0.037389 2795.030000 0 0 1
11.831149 -33.176302 -25.219388 43.320441 -1.228241 2.192178 0.088964 -0.031750 -120736.000000 0 0 1
13.076049 -32.539902 -25.225408 43.198953 -1.188699 2.194365 0.093118 -0.027688 -180735.000000 0 0 1
13.822049 -32.835702 -23.876278 42.887166 -1.172365 2.161232 0.077193 -0.022553 -326256.000000 0 0 1
13.325049 -31.989402 -22.822478 41.493907 -1.176108 2.153185 0.084209 -0.028164 283775.000000 0 0 1
13.840949 -32.114102 -21.538078 41.070382 -1.163861 2.122829 0.069367 -0.020017 -1038010.000000 0 0 1
15.243649 -31.614402 -21.236978 41.022537 -1.121511 2.114946 0.042090 -0.020882 -965011.000000 0 0 1
16.175349 -32.484602 -21.799878 42.333509 -1.108799 2.111752 0.056839 -0.014425 -107122.000000 0 0 1
17.509249 -32.005302 -21.621478 42.407564 -1.070203 2.105806 0.042630 -0.016111 687026.000000 0 0 1
18.512549 -33.204202 -21.776578 43.811561 -1.062185 2.090993 0.023157 -0.014121 -416223.000000 0 0 1
19.884449 -32.948102 -21.814178 44.236039 -1.027801 2.086482 0.026691 -0.003143 -205032.000000 0 0 1
20.514449 33.644581 -21.683678 44.977576 1.023246 2.073846 0.017898 0.002953 -47059.700000 0 0 1
21.993649 33.774181 -21.268578 45.571574 0.993580 2.056360 0.034568 0.006242 192020.000000 0 0 1
22.941749 -33.763202 -22.282678 46.505864 -0.973969 2.070468 0.034439 -0.004566 342753.000000 0 0 1
24.261949 -33.785502 -21.753178 46.939355 -0.948014 2.052660 0.022391 -0.004162 536005.000000 0 0 1
25.290149 -33.219502 -22.781378 47.561730 -0.920100 2.070295 0.051457 -0.015614 -6134.560000 0 0 1
25.269849 -31.777002 -23.045978 46.684690 -0.898974 2.087080 0.057227 -0.027916 63247.700000 0 0 1
24.099749 -31.234702 -23.652078 45.998101 -0.913633 2.110867 0.043789 -0.029244 245040.000000 0 0 1
23.968749 -29.715802 -23.530178 44.846395 -0.892044 2.123140 0.057685 -0.038148 -574024.000000 0 0 1
24.820549 -29.095702 -24.470178 45.402744 -0.864525 2.139996 0.059492 -0.046113 -16149.500000 0 0 1
24.839049 -27.676202 -24.281178 44.413130 -0.839371 2.149228 0.069983 -0.039739 78849.400000 0 0 1
25.490649 -26.754402 -25.378598 44.829058 -0.809582 2.172587 0.057824 -0.033667 647097.000000 0 0 1
24.701849 -26.646302 -26.543128 44.997160 -0.823248 2.201712 0.062165 -0.035083 -171956.000000 0 0 1
25.507149 -25.944902 -27.453808 45.579208 -0.793906 2.217215 0.052975 -0.028536 -354357.000000 0 0 1
24.735149 -25.433802 -28.713448 45.641735 -0.799323 2.251198 0.056670 -0.026738 396738.000000 0 0 1
23.882049 -24.315702 -28.549678 44.459979 -0.794395 2.268087 0.071179 -0.031220 209341.000000 0 0 1
22.678749 -24.634002 -27.851138 43.552791 -0.826701 2.264618 0.071217 -0.030074 -765369.000000 0 0 1
21.797349 -23.396902 -27.667488 42.285096 -0.820776 2.284064 0.072182 -0.023674 -357966.000000 0 0 1
21.419549 -22.804902 -28.906858 42.596562 -0.816713 2.316678 0.086493 -0.033020 123768.000000 0 0 1
20.647649 -21.672302 -28.541398 41.359709 -0.809605 2.332392 0.080047 -0.014525 -371988.000000 0 0 1
19.714249 -21.226102 -29.641988 41.446912 -0.822310 2.367677 0.114256 -0.030209 539633.000000 0 0 1
18.511249 -22.019002 -29.768508 41.396460 -0.871730 2.373314 0.100259 -0.035727 612131.000000 0 0 1
17.596449 -21.524002 -30.691878 41.411461 -0.885459 2.405570 0.085123 -0.039297 -633278.000000 0 0 1
16.322549 -22.357302 -30.746728 41.371921 -0.940168 2.408605 0.089139 -0.044430 -405726.000000 0 0 1
16.522149 -23.683802 -31.316398 42.598365 -0.961674 2.396692 0.084058 -0.026415 825159.000000 0 0 1
15.357949 -24.494402 -31.008668 42.395517 -1.010761 2.391189 0.101219 -0.040496 702449.000000 0 0 1
15.453449 -25.998702 -31.341738 43.555093 -1.034510 2.374006 0.121951 -0.038821 -492159.000000 0 0 1
14.562249 -26.756602 -30.609008 43.184329 -1.072379 2.358590 0.119642 -0.028822 -477885.000000 0 0 1
14.720349 -28.139702 -30.844228 44.270734 -1.088827 2.341609 0.177220 -0.042148 273842.000000 0 0 1
14.003649 -29.065902 -29.769058 43.899040 -1.121823 2.316005 0.155332 -0.049952 121212.000000 0 0 1
14.589549 -29.262102 -28.475698 43.358862 -1.108284 2.287290 0.154865 -0.054206 -67300.000000 0 0 1
14.734949 -28.149902 -27.637048 42.111069 -1.088568 2.286687 0.119487 -0.039478 -415614.000000 0 0 1
15.866849 -28.329602 -26.629918 41.993759 -1.060247 2.257692 0.079600 -0.029909 -682050.000000 0 0 1
15.686649 -29.352902 -25.630018 42.006686 -1.079997 2.227035 0.081802 -0.030307 -102031.000000 0 0 1
16.322749 -29.093702 -24.398778 41.330086 -1.059516 2.202276 0.094572 -0.036103 -1047830.000000 0 0 1
15.641949 -28.030302 -23.478278 39.769309 -1.061804 2.202303 0.071976 -0.029993 -107589.000000 0 0 1
14.488249 -28.383802 -22.782578 39.173913 -1.098831 2.191460 0.079546 -0.028194 -98203.500000 0 0 1
13.343449 -28.588802 -23.622178 39.412873 -1.134111 2.213487 0.078911 -0.019494 -486142.000000 0 0 1
12.051949 -28.410102 -22.791678 38.364619 -1.169592 2.206919 0.051094 -0.009999 -69567.100000 0 0 1
12.043549 -27.096102 -22.267778 37.082338 -1.152546 2.214917 0.049456 -0.015720 399160.000000 0 0 1
10.757149 -26.740402 -21.770178 36.120715 -1.188325 2.217684 0.065158 -0.019782 233402.000000 0 0 1
10.554549 -25.216402 -21.527778 34.795268 -1.174394 2.237881 0.070970 -0.019056 -50625.800000 0 0 1
11.304849 -24.699602 -20.443378 33.997083 -1.141563 2.215958 0.067069 -0.016903 22968.500000 0 0 1
11.112549 -23.314002 -20.337578 32.873219 -1.126005 2.237841 0.067062 -0.022212 -152486.000000 0 0 1
11.644649 -22.545402 -19.102578 31.761636 -1.094038 2.216093 0.083272 -0.023832 33173.700000 0 0 1
10.960949 -22.820602 -17.875678 30.991324 -1.123025 2.185598 0.088449 -0.027599 195644.000000 0 0 1
11.176949 -21.838802 -16.909578 29.795827 -1.097759 2.174281 0.084260 -0.031406 -302235.000000 0 0 1
10.289049 -22.042002 -15.662978 28.931700 -1.134066 2.142871 0.072571 -0.026157 -92189.400000 0 0 1
10.596149 -23.256302 -15.000278 29.633466 -1.143275 2.101562 0.076756 -0.018575 -272853.000000 0 0 1
9.771149 -23.581902 -13.937178 29.083095 -1.177981 2.070561 0.078791 -0.017620 -329853.000000 0 0 1
9.819349 -25.106402 -13.621178 30.204098 -1.197978 2.038649 0.088508 -0.015103 -79920.700000 0 0 1
11.065449 -25.497202 -13.109878 30.731423 -1.161338 2.011521 0.061330 -0.010688 -537004.000000 0 0 1
11.313649 -26.845002 -13.428378 32.077627 -1.171942 2.002723 0.062041 -0.022825 249290.000000 0 0 1
12.634249 -27.442702 -12.813578 32.816367 -1.139339 1.971931 0.058061 -0.025803 452415.000000 0 0 1
13.854949 -27.042302 -13.355178 33.190458 -1.097323 1.984911 0.070657 -0.017241 -330975.000000 0 0 1
14.165049 -27.595902 -14.638978 34.299885 -1.096563 2.011741 0.074821 -0.018556 -670520.000000 0 0 1
15.505049 -27.185002 -15.286378 34.829646 -1.052461 2.025159 0.059737 -0.020135 -420895.000000 0 0 1
16.588749 -27.916702 -14.837878 35.702822 -1.034635 1.999392 0.087136 -0.018321 -303555.000000 0 0 1
17.780049 -27.500002 -15.518078 36.237977 -0.996852 2.013326 0.096197 -0.023049 1097340.000000 0 0 1
19.062449 -28.265202 -15.044078 37.264231 -0.977449 1.986369 0.092114 -0.023927 523684.000000 0 0 1
19.232249 -29.590102 -15.402478 38.505712 -0.994452 1.982319 0.077586 -0.018140 -222913.000000 0 0 1
20.604449 -29.912202 -15.347378 39.431272 -0.967606 1.970579 0.079935 -0.010361 137464.000000 0 0 1
20.974149 -30.878302 -16.495278 40.810277 -0.974131 1.986894 0.048078 -0.010791 -522751.000000 0 0 1
20.311549 -32.081502 -16.416878 41.367810 -1.006377 1.978880 0.049068 0.000194 -180586.000000 0 0 1
20.786749 -32.948602 -17.435478 42.681322 -1.007977 1.991610 0.031707 0.000497 190004.000000 0 0 1
20.542449 33.431781 -17.143578 42.820305 1.019813 1.982707 0.019886 0.013391 193072.000000 0 0 1
21.235749 32.965181 -15.989678 42.347728 0.998518 1.957978 0.035944 -0.001593 154580.000000 0 0 1
20.918649 31.593681 -15.875378 41.082578 0.985952 1.967550 0.026027 -0.006590 -39037.900000 0 0 1
21.844949 30.849981 -14.900578 40.631889 0.954653 1.946279 0.045485 -0.013730 -504100.000000 0 0 1
23.083649 30.346281 -15.328378 41.093927 0.920498 1.953046 0.042337 -0.007375 168918.000000 0 0 1
24.007949 30.048681 -14.295378 41.032459 0.896685 1.926651 0.048695 -0.019348 352863.000000 0 0 1
23.512349 28.930681 -13.316678 39.587230 0.888351 1.913875 0.058920 -0.007132 -995816.000000 0 0 1
23.518249 27.701481 -13.936478 38.919218 0.866890 1.937015 0.067439 0.001370 103961.000000 0 0 1
23.225749 26.666681 -12.983778 37.671286 0.854256 1.922673 0.019437 -0.000594 306535.000000 0 0 1
21.719849 26.472881 -12.658578 36.507601 0.883706 1.924888 0.023273 -0.004343 -747695.000000 0 0 1
20.962949 25.957881 -13.727578 36.079125 0.891453 1.961117 0.028059 -0.010313 -59328.100000 0 0 1
19.601649 26.335481 -13.664878 35.559965 0.930950 1.965221 0.041240 -0.012255 57710.900000 0 0 1
19.227349 27.839781 -13.826878 36.550334 0.966378 1.958752 0.038160 -0.013225 -1261000.000000 0 0 1
19.446849 28.481081 -15.069978 37.635836 0.971708 1.982767 0.026875 -0.012423 45363.900000 0 0 1
18.715749 27.947081 -16.191678 37.329466 0.980707 2.019447 0.025791 -0.004157 -129821.000000 0 0 1
18.884849 28.821681 -17.457378 38.627541 0.990753 2.039737 0.018185 -0.000328 31707.300000 0 0 1
17.894649 29.823181 -17.551478 38.957605 1.030359 2.038153 0.013393 0.002551 -67817.600000 0 0 1
18.128349 30.551481 -18.738278 40.164078 1.035266 2.056175 0.019455 0.010373 -164572.000000 0 0 1
17.083549 31.632881 -19.056078 40.689322 1.075619 2.058197 0.014018 0.011902 -88636.900000 0 0 1
17.192549 32.721981 -18.260778 41.228241 1.087026 2.029648 0.026046 0.000769 -18586.900000 0 0 1
16.255349 33.747581 -18.516878 41.785289 1.121916 2.029899 0.032453 -0.003342 -127660.000000 0 0 1
16.317649 -32.852502 -17.576578 40.675406 -1.109797 2.017636 0.036830 -0.004575 550684.000000 0 0 1
15.326949 -31.864402 -17.962178 39.659745 -1.122460 2.040820 0.036364 -0.008563 521692.000000 0 0 1
15.019549 -31.019302 -16.877178 38.374772 -1.119868 2.026171 0.049405 -0.007161 -428504.000000 0 0 1
13.811349 -30.169702 -17.174878 37.362290 -1.141484 2.048437 0.052013 -0.016250 -1319470.000000 0 0 1
12.599949 -30.789002 -17.418878 37.551813 -1.182354 2.053147 0.041954 -0.016298 -532659.000000 0 0 1
11.629449 -29.735702 -17.535778 36.427456 -1.197991 2.073035 0.014830 -0.009383 70739.400000 0 0 1
10.243049 -30.270602 -17.952078 36.653875 -1.244508 2.082626 0.038294 -0.017629 -710672.000000 0 0 1
9.632849 -31.079902 -16.965778 36.695909 -1.270247 2.051422 0.047805 -0.025576 718204.000000 0 0 1
8.577149 -31.928602 -17.463378 37.389473 -1.308357 2.056767 0.075931 -0.024483 2045320.000000 0 0 1
7.236249 -31.377602 -18.162778 36.970309 -1.344141 2.084355 0.081037 -0.014156 816338.000000 0 0 1
7.366949 -30.790302 -19.400978 37.131019 -1.335949 2.120577 0.065598 -0.012791 -61336.400000 0 0 1
7.175949 -31.737402 -20.451278 38.431910 -1.348431 2.131926 0.069458 -0.025625 -903699.000000 0 0 1
7.297349 -31.125702 -21.866378 38.732404 -1.340508 2.170684 0.061460 -0.012640 -167784.000000 0 0 1
8.627949 -30.864902 -22.247578 39.013311 -1.298215 2.177614 0.052778 -0.004586 -75579.300000 0 0 1
9.506449 -31.942102 -22.478978 40.199191 -1.281529 2.164205 0.057962 -0.004249 -708321.000000 0 0 1
9.166849 -33.098602 -23.408178 41.563101 -1.300613 2.169045 0.067645 -0.017206 -452187.000000 0 0 1
8.167049 33.927781 -22.802678 41.686415 1.334572 2.149579 0.059746 -0.028004 272262.000000 0 0 1
7.847049 32.861581 -23.671478 41.252862 1.336395 2.181952 0.054597 -0.033491 -168287.000000 0 0 1
6.620349 32.003081 -23.200778 40.078702 1.366808 2.188151 0.075794 -0.043727 -21016.300000 0 0 1
5.382649 32.581981 -23.452478 40.504039 1.407072 2.188317 0.082200 -0.043224 -370355.000000 0 0 1
4.926949 33.553481 -22.517178 40.707914 1.425000 2.156925 0.069632 -0.034214 -602733.000000 0 0 1
3.565749 -33.709602 -22.911978 40.914674 -1.465410 2.165175 0.077349 -0.034273 -256245.000000 0 0 1
2.410449 33.436181 -22.539578 40.395805 1.498830 2.162732 0.077881 -0.039202 -146227.000000 0 0 1
1.306749 -33.606702 -22.823678 40.645274 -1.531932 2.167034 0.085075 -0.035340 48935.100000 0 0 1
-0.072751 33.681681 -22.350478 40.422826 -1.568636 2.156658 0.086745 -0.037219 379192.000000 0 0 1
-0.181851 33.782981 -20.943578 39.748665 -1.565413 2.125746 0.073987 -0.041583 -335501.000000 0 0 1
-1.337851 33.202481 -20.420178 39.002286 -1.530524 2.121825 0.073241 -0.048994 -349663.000000 0 0 1
-1.450751 33.365481 -18.865278 38.356991 -1.527343 2.084991 0.079888 -0.037043 -171757.000000 0 0 1
-0.611051 32.565081 -18.082678 37.253740 -1.552035 2.077608 0.087056 -0.051624 -361914.000000 0 0 1
-0.980351 32.519481 -16.722978 36.580538 -1.540659 2.045590 0.065421 -0.041108 48547.700000 0 0 1
-0.178451 31.572081 -15.772578 35.293093 -1.565144 2.034096 0.043527 -0.040892 330223.000000 0 0 1
1.021649 32.112381 -15.276478 35.575548 1.538992 2.014635 0.050804 -0.036567 -663067.000000 0 0 1
1.863849 31.149781 -14.754078 34.517613 1.511033 2.012451 0.058021 -0.025037 -255157.000000 0 0 1
2.872349 31.773581 -13.753678 34.741539 1.480641 1.977828 0.067714 -0.038641 -40766.200000 0 0 1
3.886349 32.469081 -14.461378 35.755789 1.451669 1.987172 0.057755 -0.042100 -237278.000000 0 0 1
4.784549 33.121081 -13.617578 36.129439 1.427332 1.957255 0.065600 -0.051090 -220620.000000 0 0 1
6.099049 33.605681 -14.273478 37.017191 1.391262 1.966644 0.075114 -0.060929 165472.000000 0 0 1
6.971749 32.506481 -14.455078 36.252254 1.359524 1.980934 0.072511 -0.050884 -286999.000000 0 0 1
8.097849 32.856281 -15.233178 37.110108 1.329150 1.993783 0.067805 -0.032274 186487.000000 0 0 1
9.120149 31.698781 -15.463378 36.429465 1.290650 2.009178 0.049714 -0.035620 147970.000000 0 0 1
9.786449 31.433881 -14.252578 35.874775 1.268974 1.979355 0.050460 -0.037402 -418680.000000 0 0 1
10.669549 30.343081 -14.285978 35.194190 1.232670 1.988780 0.057840 -0.036025 -7114.410000 0 0 1
10.115449 28.894381 -13.960278 33.646648 1.234047 1.998638 0.063950 -0.028455 229394.000000 0 0 1
9.309049 28.215281 -14.930878 33.251942 1.252112 2.036468 0.074908 -0.038133 375971.000000 0 0 1
8.772249 26.988081 -14.477778 31.857730 1.256527 2.042552 0.068678 -0.026662 -479899.000000 0 0 1
8.043649 26.175081 -15.547078 31.488836 1.272654 2.087174 0.073831 -0.025144 -182569.000000 0 0 1
8.794549 25.641681 -16.612878 31.793516 1.240390 2.120605 0.086858 -0.024377 -743348.000000 0 0 1
8.034249 24.685981 -17.256878 31.172852 1.256150 2.157461 0.072941 -0.019885 -349354.000000 0 0 1
8.768149 23.825281 -18.304178 31.298042 1.218160 2.195472 0.086253 -0.015792 -277806.000000 0 0 1
7.956749 22.930981 -19.028778 30.842084 1.236808 2.235689 0.102397 -0.026114 298633.000000 0 0 1
8.814649 21.999181 -19.745078 30.846882 1.189703 2.265424 0.102752 -0.020085 746256.000000 0 0 1
8.050049 21.083081 -20.764378 30.666904 1.206055 2.314603 0.096180 -0.025441 515324.000000 0 0 1
7.166249 20.200781 -20.087878 29.376003 1.229895 2.323781 0.108770 -0.033640 -335957.000000 0 0 1
6.416349 19.338781 -20.845278 29.149333 1.250438 2.367592 0.111993 -0.040001 -183701.000000 0 0 1
25.817149 -12.490219 -9.614278 30.248390 -0.450600 1.894251 0.102881 -0.025088 -440629.000000 0 0 1
26.183949 -11.763519 -8.463378 29.926716 -0.422242 1.857512 0.118432 -0.036362 346806.000000 0 0 1
25.184449 -11.660419 -7.442578 28.733496 -0.433613 1.832805 0.110148 -0.024021 -592404.000000 0 0 1
25.597149 -11.016319 -6.112578 28.529580 -0.406413 1.786724 0.088707 -0.035346 -289025.000000 0 0 1
25.804149 -9.629519 -6.056278 28.200359 -0.357172 1.787241 0.106601 -0.037508 9928.090000 0 0 1
26.851849 -9.188619 -6.861478 29.198157 -0.329706 1.808012 0.097349 -0.041730 -1979690.000000 0 0 1
27.126949 -7.687119 -6.575778 28.951753 -0.276136 1.799925 0.147500 -0.037820 -280522.000000 0 0 1
27.895849 -7.492819 -5.410478 29.386970 -0.262406 1.755964 0.149116 -0.042312 725240.000000 0 0 1
29.252849 -7.951419 -5.495078 30.808280 -0.265405 1.750120 0.141833 -0.045347 -83419.200000 0 0 1
29.960149 -7.941119 -4.123578 31.267808 -0.259098 1.703061 0.156923 -0.054644 -267944.000000 0 0 1
30.180649 -6.705719 -3.570578 31.122135 -0.218634 1.685777 0.153651 -0.038596 586524.000000 0 0 1
30.996749 -6.707119 -2.381478 31.803386 -0.213096 1.645748 0.151497 -0.027896 437176.000000 0 0 1
31.364649 -5.263919 -1.898878 31.859940 -0.166280 1.630432 0.136977 -0.035109 578890.000000 0 0 1
30.201549 -4.644619 -1.316378 30.584946 -0.152592 1.613850 0.186163 -0.025748 767755.000000 0 0 1
30.462949 -3.308019 -0.793478 30.652306 -0.108168 1.596686 0.161183 -0.011024 -126383.000000 0 0 1
31.350749 -3.201819 0.429822 31.516755 -0.101776 1.557158 0.160903 -0.027014 -245252.000000 0 0 1
30.611249 -3.488719 1.593122 30.850572 -0.113479 1.519133 0.194486 -0.042266 253584.000000 0 0 1
31.401049 -3.394219 2.749622 31.703423 -0.107674 1.483958 0.161401 -0.032492 -356247.000000 0 0 1
30.756949 -4.038519 4.032222 31.281918 -0.130557 1.441537 0.176901 -0.034362 42383.000000 0 0 1
31.125649 -5.390119 4.135022 31.858403 -0.171472 1.440635 0.159555 -0.031314 337622.000000 0 0 1
30.740749 -5.924019 5.405122 31.769529 -0.190375 1.399829 0.156637 -0.034883 -87331.200000 0 0 1
31.482849 -7.263519 5.515622 32.777287 -0.226746 1.401716 0.127034 -0.019706 830546.000000 0 0 1
32.897849 -7.022119 5.554622 34.094464 -0.210296 1.407148 0.137584 -0.034568 657612.000000 0 0 1
33.628349 -8.220819 5.304822 35.022691 -0.239759 1.418743 0.138456 -0.038352 -607079.000000 0 0 1
35.097849 -8.136919 5.640122 36.467512 -0.227811 1.415511 0.162899 -0.041222 -672092.000000 0 0 1
35.907849 -7.351019 4.791122 36.964388 -0.201929 1.440816 0.165562 -0.028485 -520339.000000 0 0 1
37.242749 -7.371819 5.223622 38.323000 -0.195414 1.434066 0.164210 -0.039386 -391872.000000 0 0 1
-36.391427 -7.383119 4.042822 37.352253 0.200164 1.462349 0.150551 -0.037383 -427488.000000 0 0 1
-36.363927 -8.679219 3.472022 37.546224 0.234293 1.478191 0.174443 -0.036228 254280.000000 0 0 1
-35.513527 -8.563419 2.339422 36.606224 0.236614 1.506845 0.187763 -0.039926 -1904.050000 0 0 1
-35.252127 -9.930319 1.596722 36.658876 0.274579 1.527226 0.185534 -0.027486 10708.600000 0 0 1
-34.290727 -10.748419 2.263322 36.007014 0.303750 1.507897 0.177347 -0.028488 395177.000000 0 0 1
-33.995127 -11.851719 1.410122 36.029437 0.335454 1.531648 0.182999 -0.030753 -422551.000000 0 0 1
-33.420427 -13.022719 2.219322 35.936632 0.371564 1.509000 0.137178 -0.034663 -218905.000000 0 0 1
-32.132727 -12.879919 2.741422 34.726356 0.381226 1.491771 0.133555 -0.024861 -425662.000000 0 0 1
-31.141727 -13.371419 1.854722 33.941744 0.405569 1.516125 0.143212 -0.016357 -289274.000000 0 0 1
-29.829527 -13.610519 2.646722 32.894559 0.428061 1.490248 0.133549 -0.012244 -416353.000000 0 0 1
-29.169827 -12.418119 2.916122 31.836963 0.402479 1.479072 0.123601 -0.018671 71813.600000 0 0 1
-27.985227 -12.795619 3.602722 30.981936 0.428848 1.454248 0.129382 -0.012890 131383.000000 0 0 1
-27.073927 -11.655819 4.114022 29.762069 0.406535 1.432122 0.133073 -0.018180 -148546.000000 0 0 1
-25.861727 -12.133119 4.626022 28.938582 0.438667 1.410251 0.120983 -0.006965 -36957.100000 0 0 1
-25.083027 -11.157519 5.271922 27.954277 0.418541 1.381069 0.116725 -0.006831 -574779.000000 0 0 1
-23.652827 -11.572319 5.562722 26.913168 0.455017 1.362604 0.120684 -0.000803 -645659.000000 0 0 1
-23.507727 -12.482719 6.632722 27.430357 0.488143 1.326574 0.126635 -0.011765 274869.000000 0 0 1
-22.181627 -12.627819 7.117222 26.497947 0.517534 1.298862 0.119985 -0.011282 23463.900000 0 0 1
-21.912127 -12.038219 8.564022 26.427305 0.502372 1.240779 0.124857 -0.016305 -587138.000000 0 0 1
-21.797627 -10.583519 8.627022 25.721059 0.452009 1.228759 0.116419 -0.018188 871719.000000 0 0 1
-22.980127 -9.825219 8.943422 26.544414 0.404031 1.227149 0.117362 -0.020467 -141301.000000 0 0 1
-23.474427 -9.877519 10.420222 27.517178 0.398289 1.182426 0.122442 -0.020364 -367511.000000 0 0 1
-24.083927 -11.111519 10.727622 28.610894 0.432266 1.186455 0.117787 -0.033250 1304390.000000 0 0 1
-25.429427 -11.400219 10.261322 29.697061 0.421446 1.217989 0.120954 -0.032110 848450.000000 0 0 1
-26.504827 -11.075219 11.318822 30.875266 0.395805 1.195446 0.134182 -0.035832 -378811.000000 0 0 1
-26.708227 -12.044519 12.315222 31.781512 0.423657 1.172882 0.117622 -0.038149 77980.300000 0 0 1
-27.752027 -11.607119 13.158022 32.833424 0.396134 1.158460 0.106745 -0.039902 -51456.400000 0 0 1
-27.969227 -12.389819 14.487222 33.847671 0.417001 1.128504 0.104146 -0.037091 -170421.000000 0 0 1
-28.295527 -13.749119 14.401422 34.598787 0.452313 1.141489 0.105408 -0.033071 321655.000000 0 0 1
-27.912627 -14.384019 15.607822 35.065921 0.475831 1.109511 0.084946 -0.014419 -701176.000000 0 0 1
-27.455127 -15.864219 15.346322 35.227362 0.523954 1.120051 0.080310 -0.016000 -163131.000000 0 0 1
-28.489727 -16.815219 15.280122 36.440338 0.533198 1.138101 0.104464 -0.024607 90072.800000 0 0 1
-27.979727 -18.146019 15.400622 36.733122 0.575349 1.138169 0.076617 -0.017032 95598.200000 0 0 1
-29.022727 -19.141719 15.994622 38.269465 0.583054 1.139612 0.061103 -0.005839 215074.000000 0 0 1
-29.293827 -18.853819 17.365322 38.924917 0.571870 1.108367 0.060216 0.003746 -32172.600000 0 0 1
-29.775127 -19.964819 18.126222 40.171035 0.590666 1.102657 0.058708 0.002924 240630.000000 0 0 1
-28.737527 -21.133819 18.301022 40.092532 0.634097 1.096773 0.039596 0.009435 348328.000000 0 0 1
-27.680027 -20.715319 19.154522 39.524726 0.642467 1.064866 0.037462 0.013654 16455.200000 0 0 1
-26.969727 -21.887419 19.534922 39.850200 0.681747 1.058467 0.034896 0.018551 -314026.000000 0 0 1
-25.586827 -21.608819 20.125822 39.072694 0.701309 1.029688 0.035986 0.019665 -525898.000000 0 0 1
-24.584427 -21.269019 19.238022 37.773889 0.713219 1.036432 0.044547 0.014494 165650.000000 0 0 1
-23.280527 -21.262319 19.825722 37.244172 0.740120 1.009461 0.050055 0.013421 854954.000000 0 0 1
-22.120727 -20.923419 18.854022 35.813267 0.757590 1.016372 0.042473 0.005228 57853.300000 0 0 1
-21.890827 -21.891919 17.842322 35.732518 0.785423 1.047971 0.031535 0.002862 483221.000000 0 0 1
-20.623427 -21.779319 17.198222 34.575183 0.812651 1.050180 0.034891 0.004167 210598.000000 0 0 1
-20.408927 -22.811619 16.072722 34.572050 0.840932 1.087269 0.032223 0.005528 -660514.000000 0 0 1
-20.412227 -24.209319 16.519622 35.716215 0.870289 1.089956 0.038411 -0.003293 341958.000000 0 0 1
-19.213327 -24.629619 17.151622 35.636332 0.908314 1.068664 0.055711 -0.012317 103497.000000 0 0 1
-17.915727 -24.753919 16.335022 34.649137 0.944306 1.079872 0.056514 -0.015293 -236062.000000 0 0 1
-17.346827 -23.446519 16.110822 33.319817 0.933825 1.066124 0.061058 -0.016432 342393.000000 0 0 1
-16.130827 -23.657819 15.366322 32.496458 0.972363 1.078261 0.060333 -0.015984 916141.000000 0 0 1
-15.249627 -22.354419 15.196722 31.035649 0.972134 1.059104 0.061447 -0.010614 293470.000000 0 0 1
-15.870827 -21.352919 14.373822 30.239660 0.931621 1.075457 0.069684 -0.008045 635593.000000 0 0 1
-16.844727 -20.535419 15.112422 30.558690 0.883813 1.053494 0.047321 0.001394 624885.000000 0 0 1
-16.385027 -19.350219 16.035822 30.000794 0.868185 1.006865 0.054511 -0.005899 -237824.000000 0 0 1
-15.641327 -18.344519 15.344222 28.576522 0.864770 1.003976 0.064057 -0.008522 247371.000000 0 0 1
-15.554927 -17.224719 16.254622 28.334774 0.836294 0.959825 0.061786 -0.012448 -288924.000000 0 0 1
-14.930627 -15.992719 15.545322 26.839294 0.819731 0.953049 0.066926 -0.011445 -20596.600000 0 0 1
-15.621827 -15.368419 14.477422 26.264529 0.777221 0.986976 0.052050 -0.012218 38995.500000 0 0 1
-15.616227 -16.118319 13.259222 26.066716 0.801218 1.037163 0.062392 -0.011494 -119859.000000 0 0 1
-16.379127 -15.491419 12.083622 25.578775 0.757552 1.078775 0.058183 -0.014450 1050220.000000 0 0 1
-17.825027 -15.523019 12.096622 26.552287 0.716478 1.097776 0.053607 -0.013364 1283840.000000 0 0 1
-18.424927 -14.463519 11.393822 26.047850 0.665526 1.118070 0.070791 -0.025816 251033.000000 0 0 1
-19.978527 -14.329519 11.454822 27.123598 0.622207 1.134794 0.091471 -0.030345 760006.000000 0 0 1
-20.799527 -15.320719 10.834122 28.012906 0.634863 1.173687 0.112900 -0.036196 407429.000000 0 0 1
-20.661327 -15.543819 9.439522 27.524630 0.644981 1.220743 0.123988 -0.041229 -1025030.000000 0 0 1
-21.615127 -16.633919 8.974222 28.713021 0.655896 1.252921 0.122833 -0.026293 -175060.000000 0 0 1
-21.250927 -17.931319 9.353922 29.336495 0.700878 1.246281 0.123406 -0.012418 -132516.000000 0 0 1
-22.193727 -18.847319 8.857822 30.434256 0.704040 1.275475 0.111450 -0.016698 113199.000000 0 0 1
-21.718527 -20.339219 9.026522 31.094313 0.752614 1.276261 0.112266 -0.013130 564409.000000 0 0 1
-20.531627 -20.570119 8.274522 30.218292 0.786335 1.293429 0.121892 -0.016947 154648.000000 0 0 1
-20.143127 -21.948219 8.066122 30.863120 0.828257 1.306374 0.103157 -0.014657 -105519.000000 0 0 1
-18.933727 -22.131619 7.138522 29.987548 0.863115 1.330439 0.105080 -0.022135 169017.000000 0 0 1
-17.731227 -21.803819 7.792922 29.163891 0.888048 1.300298 0.089416 -0.017606 -318635.000000 0 0 1
-16.526127 -22.238819 7.233822 28.635748 0.931713 1.315414 0.108415 -0.016310 -668545.000000 0 0 1
-15.306227 -21.841419 7.999722 27.844635 0.959541 1.279391 0.074744 -0.010133 -76692.900000 0 0 1
-14.024827 -22.045319 7.382322 27.151252 1.004197 1.295433 0.086332 -0.011944 434069.000000 0 0 1
-13.000527 -21.792619 8.310622 26.702029 1.032913 1.254303 0.077996 -0.015816 209275.000000 0 0 1
-11.600527 -22.077219 7.704222 26.102315 1.086995 1.271179 0.079873 -0.014667 214815.000000 0 0 1
-11.425527 -23.447719 7.549122 27.153773 1.117379 1.289071 0.071920 -0.006244 10046.700000 0 0 1
-10.174927 -23.762919 6.942422 26.765699 1.166231 1.308419 0.091084 -0.018325 581758.000000 0 0 1
-10.046127 -25.308289 6.963322 28.105551 1.192922 1.320433 0.079729 -0.008341 -252343.000000 0 0 1
-10.919127 -25.967289 6.099122 28.822330 1.172747 1.357573 0.090232 -0.014162 -536171.000000 0 0 1
-10.964327 -27.380209 6.246522 30.148156 1.189905 1.362090 0.111305 -0.012117 -198136.000000 0 0 1
-9.935927 -28.233079 5.473022 30.426688 1.232408 1.389936 0.131305 -0.024987 520155.000000 0 0 1
-8.596527 -27.850169 5.866222 29.731208 1.271404 1.372185 0.123802 -0.030520 1020370.000000 0 0 1
-7.560527 -28.797909 5.562922 30.289061 1.314053 1.386087 0.138049 -0.026709 650098.000000 0 0 1
-7.634527 -30.113339 6.363722 31.711135 1.322501 1.368747 0.160011 -0.037409 -764243.000000 0 0 1
-7.555527 -29.956719 7.756822 31.853716 1.323734 1.324809 0.155100 -0.035176 191149.000000 0 0 1
-7.517527 -31.264449 8.281922 33.204957 1.334826 1.318717 0.176911 -0.034964 -245157.000000 0 0 1
-7.621527 -31.323479 9.800822 33.694274 1.332118 1.275655 0.143009 -0.041301 -933921.000000 0 0 1
-6.630527 -30.729739 10.531422 33.154058 1.358285 1.247545 0.127927 -0.037255 -543931.000000 0 0 1
-6.838527 -31.027069 11.919422 33.934010 1.353860 1.211887 0.106850 -0.032327 -271006.000000 0 0 1
-5.882527 -30.250459 12.853622 33.390267 1.378733 1.175641 0.106868 -0.034395 72685.500000 0 0 1
-6.161527 -28.879069 12.876222 32.214315 1.360592 1.159601 0.104393 -0.027139 330791.000000 0 0 1
-5.277527 -28.202449 13.776222 31.827892 1.385806 1.123161 0.073115 -0.031251 -212702.000000 0 0 1
-5.982527 -27.494349 14.985322 31.879299 1.356545 1.081433 0.087129 -0.028156 162266.000000 0 0 1
-6.465527 -28.399519 16.019622 33.240998 1.346948 1.067948 0.074414 -0.028455 849150.000000 0 0 1
-5.443527 -29.308099 16.534822 34.088076 1.387154 1.064363 0.053494 -0.033487 733255.000000 0 0 1
-5.952527 -30.703799 16.880222 35.540086 1.379302 1.075874 0.049396 -0.029827 -275098.000000 0 0 1
-6.536527 -31.466119 15.878822 35.846615 1.365977 1.111892 0.057349 -0.024409 136549.000000 0 0 1
-6.999527 -32.750519 16.367822 37.275936 1.360241 1.116201 0.050727 -0.020733 -153905.000000 0 0 1
-6.249527 33.902375 15.813022 37.927289 -1.388504 1.140731 0.037171 -0.022048 -215984.000000 0 0 1
-6.523527 33.859425 14.408722 37.371491 -1.380463 1.174988 0.058532 -0.025718 689344.000000 0 0 1
-5.701527 32.898011 13.694722 36.087836 -1.399192 1.181559 0.072299 -0.028991 1851960.000000 0 0 1
-4.442527 33.466027 12.870122 36.129642 -1.438821 1.206576 0.106121 -0.041120 993155.000000 0 0 1
-4.891527 -33.660269 11.770122 35.992728 1.426486 1.237654 0.111100 -0.040368 301198.000000 0 0 1
-3.820527 -33.325159 10.893822 35.268087 1.456651 1.256775 0.130062 -0.043070 -277320.000000 0 0 1
-4.287527 -33.006899 9.474122 34.606318 1.441622 1.293487 0.128374 -0.045808 -454063.000000 0 0 1
-4.583527 33.865855 8.486722 35.212630 -1.436270 1.327386 0.124444 -0.044309 392232.000000 0 0 1
-5.167527 32.564808 8.818422 34.131138 -1.413424 1.309463 0.139594 -0.049781 855112.000000 0 0 1
-6.609527 32.573758 9.447022 34.554041 -1.370605 1.293872 0.152508 -0.043776 426485.000000 0 0 1
-7.537527 33.134858 8.546022 35.039515 -1.347122 1.324414 0.154192 -0.035353 -810781.000000 0 0 1
-8.847527 33.045108 9.041622 35.383737 -1.309191 1.312400 0.127112 -0.037938 -250901.000000 0 0 1
-9.932327 33.283322 7.991222 35.641132 -1.280792 1.344660 0.118454 -0.048010 -271899.000000 0 0 1
-9.959227 -33.250679 7.507122 35.512684 1.279780 1.357797 0.130111 -0.036094 -263762.000000 0 0 1
-10.659927 -33.317509 6.313922 35.546533 1.261139 1.392225 0.110399 -0.026563 -159750.000000 0 0 1
-11.230627 -32.060709 5.607922 34.430579 1.233861 1.407191 0.101670 -0.032040 536287.000000 0 0 1
-12.294827 -31.412019 6.302922 34.316242 1.197721 1.386076 0.101763 -0.027757 161870.000000 0 0 1
-12.997827 -30.523639 5.451822 33.620803 1.168224 1.407921 0.097873 -0.024426 183098.000000 0 0 1
-14.147527 -29.828099 6.233022 33.596407 1.127918 1.384189 0.080966 -0.012358 -194469.000000 0 0 1
-15.170227 -30.663149 6.651122 34.851139 1.111367 1.378775 0.094178 -0.015191 -688788.000000 0 0 1
-16.235227 -30.035579 7.276922 34.909485 1.075250 1.360805 0.086100 -0.014315 -380295.000000 0 0 1
34.548145 -12.454719 -12.494478 38.791833 -0.346001 1.898733 0.057770 -0.033681 -676675.000000 0 0 1
33.613535 -12.637719 -11.456378 37.693902 -0.359622 1.879613 0.079691 -0.039347 22633.300000 0 0 1
33.423445 -13.987519 -11.182578 37.918694 -0.396347 1.870157 0.079729 -0.042382 40093.000000 0 0 1
34.442965 -14.750419 -10.276178 38.852188 -0.404626 1.838476 0.060918 -0.038726 400278.000000 0 0 1
35.727665 -14.936719 -10.842278 40.213512 -0.395988 1.843792 0.070226 -0.039795 -191673.000000 0 0 1
36.628875 -15.312819 -9.807778 40.894369 -0.395972 1.812989 0.062237 -0.038857 -148115.000000 0 0 1
-36.593571 -15.593019 -10.455878 41.128543 0.402814 1.827842 0.042347 -0.037851 -242744.000000 0 0 1
-35.995576 -14.359319 -10.854578 40.245414 0.379574 1.843888 0.041646 -0.038680 -940986.000000 0 0 1
-34.620050 -14.423419 -10.717678 39.005788 0.394752 1.849148 0.058310 -0.031049 -586632.000000 0 0 1
-33.986431 -13.001319 -11.060078 38.032054 0.365368 1.865869 0.084636 -0.040358 55164.000000 0 0 1
-34.279359 -12.069519 -9.987678 37.689540 0.338538 1.838999 0.099355 -0.036111 394172.000000 0 0 1
-33.881261 -10.805019 -10.420878 37.057833 0.308712 1.855847 0.109253 -0.026448 -195567.000000 0 0 1
-34.217006 -9.660019 -9.395478 36.774916 0.275155 1.829147 0.118139 -0.026587 -432288.000000 0 0 1
-33.505331 -9.669019 -8.195778 35.822729 0.280948 1.801628 0.132497 -0.021541 38821.200000 0 0 1
-34.130555 -8.993519 -7.134678 36.009468 0.257647 1.770250 0.154311 -0.030583 -261578.000000 0 0 1
-33.249711 -9.091119 -5.889578 34.969685 0.266896 1.740022 0.138427 -0.018480 -837167.000000 0 0 1
-32.142451 -8.230319 -5.973378 33.712854 0.250672 1.748921 0.169624 -0.038047 160701.000000 0 0 1
-31.351581 -8.078519 -4.798178 32.729293 0.252189 1.717929 0.168495 -0.036570 48931.300000 0 0 1
-30.591731 -9.330519 -4.238578 32.262643 0.296039 1.702554 0.164453 -0.031001 -963839.000000 0 0 1
-31.319171 -10.469019 -3.801078 33.240623 0.322592 1.685397 0.159794 -0.027995 213400.000000 0 0 1
-31.859781 -10.336319 -2.460578 33.584812 0.313718 1.644127 0.144971 -0.030731 37030.100000 0 0 1
-32.562651 -11.631019 -2.044678 34.637949 0.343065 1.629861 0.148148 -0.028135 -198636.000000 0 0 1
-33.654041 -12.024919 -2.851778 35.851440 0.343172 1.650425 0.147761 -0.031955 112343.000000 0 0 1
-33.981051 -13.305819 -2.466878 36.576524 0.373214 1.638292 0.149852 -0.033804 -825651.000000 0 0 1
-35.480540 -13.575919 -2.419878 38.066128 0.365443 1.634410 0.119313 -0.027044 -646822.000000 0 0 1
-36.033180 -13.009519 -1.244378 38.329964 0.346478 1.603267 0.145613 -0.024157 -65363.600000 0 0 1
37.163005 -12.914719 -1.281778 39.363966 -0.334460 1.603364 0.199919 -0.030149 116404.000000 0 0 1
36.618525 -11.973319 -0.083978 38.526403 -0.316017 1.572976 0.168542 -0.035830 -65239.200000 0 0 1
36.865515 -12.503019 1.243722 38.947895 -0.326978 1.538858 0.196924 -0.024783 391314.000000 0 0 1
36.151705 -11.808219 2.258722 38.098315 -0.315705 1.511475 0.195983 -0.026057 101655.000000 0 0 1
36.576025 -12.218819 3.665422 38.736810 -0.322410 1.476031 0.198292 -0.036697 317269.000000 0 0 1
35.473545 -12.099319 4.559122 37.756476 -0.328706 1.449750 0.192091 -0.042551 118931.000000 0 0 1
35.847475 -12.189519 5.931622 38.325056 -0.327773 1.415400 0.183283 -0.042283 -506333.000000 0 0 1
34.725525 -12.247519 6.949222 37.472062 -0.339074 1.384266 0.179058 -0.049018 -154649.000000 0 0 1
33.964415 -11.033919 7.090622 36.408869 -0.314112 1.374794 0.179478 -0.043452 278045.000000 0 0 1
33.260665 -11.135919 8.330122 36.050956 -0.323077 1.337624 0.153856 -0.027903 -128079.000000 0 0 1
32.517335 -9.838519 8.770722 35.087021 -0.293806 1.318146 0.146821 -0.044858 154982.000000 0 0 1
31.140895 -9.815019 8.412222 33.717286 -0.305325 1.318640 0.157671 -0.040981 274402.000000 0 0 1
30.443725 -9.013919 9.364122 33.102234 -0.287861 1.283996 0.155443 -0.028186 78608.000000 0 0 1
28.913525 -9.067319 9.141322 31.650781 -0.303888 1.277804 0.132753 -0.029999 24574.300000 0 0 1
28.554525 -8.483819 7.914622 30.821702 -0.288803 1.311100 0.157401 -0.027606 175512.000000 0 0 1
27.487225 -9.234919 7.333022 29.909939 -0.324123 1.323101 0.168232 -0.037060 -794.650000 0 0 1
26.811325 -8.510419 6.191822 28.803004 -0.307360 1.354134 0.173320 -0.037902 -400647.000000 0 0 1
25.800925 -7.639419 6.656122 27.719170 -0.287867 1.328300 0.176249 -0.035948 256541.000000 0 0 1
24.973525 -7.159919 5.605022 26.577390 -0.279211 1.358307 0.195175 -0.039741 -63556.500000 0 0 1
25.548025 -6.019119 4.669522 26.659628 -0.231381 1.394735 0.207828 -0.039164 114477.000000 0 0 1
26.423525 -6.504319 3.627622 27.453023 -0.241358 1.438269 0.196320 -0.029406 636227.000000 0 0 1
27.038325 -5.407119 2.986022 27.734892 -0.197376 1.462924 0.201724 -0.030993 569613.000000 0 0 1
27.746525 -5.780919 1.609322 28.388000 -0.205409 1.514076 0.193964 -0.038687 1000970.000000 0 0 1
26.708025 -5.886819 0.630622 27.356369 -0.216945 1.547742 0.217941 -0.044701 655521.000000 0 0 1
27.279625 -5.902919 -0.662778 27.918840 -0.213100 1.594538 0.197864 -0.046596 829091.000000 0 0 1
26.226725 -6.162219 -1.858978 27.004996 -0.230774 1.639689 0.221532 -0.049449 766300.000000 0 0 1
25.141525 -5.283319 -1.803078 25.753850 -0.207129 1.640866 0.229032 -0.039792 -455196.000000 0 0 1
24.307325 -5.400119 -2.933178 25.072113 -0.218610 1.688055 0.207088 -0.039294 500071.000000 0 0 1
23.069525 -4.429119 -2.876178 23.666273 -0.189682 1.692628 0.169843 -0.031652 328800.000000 0 1 0
23.354225 -3.069819 -2.633078 23.701829 -0.130697 1.682118 0.168855 -0.037953 518756.000000 0 1 0
24.129825 -2.278419 -3.564478 24.497860 -0.094144 1.716816 0.183931 -0.040683 118700.000000 0 1 0
23.236325 -1.734119 -4.687778 23.767819 -0.074492 1.769330 0.176017 -0.021990 275935.000000 0 1 0
22.269525 -0.785619 -4.220378 22.679518 -0.035263 1.757975 0.119000 -0.006168 427456.000000 0 1 0
21.647025 -0.171519 -5.306278 22.288555 -0.007923 1.811176 0.138190 0.001699 -118110.000000 0 1 0
20.969325 1.124381 -4.871078 21.556999 0.053569 1.798728 0.086875 0.014314 -486337.000000 0 1 0
21.920125 2.131481 -4.642578 22.507523 0.096934 1.778556 0.103421 0.007025 323253.000000 0 1 0
22.151425 2.405081 -3.275278 22.521045 0.108151 1.716746 0.092683 0.002797 289445.000000 0 1 0
23.443625 3.259281 -3.059378 23.866006 0.138141 1.699340 0.130561 -0.007552 421916.000000 0 1 0
23.216325 4.604281 -3.375778 23.908012 0.195780 1.712468 0.094319 0.002946 960.476000 0 1 0
24.271725 5.364281 -2.890878 25.024974 0.217513 1.686575 0.109629 -0.005876 -706747.000000 0 0 1
24.162525 6.901681 -2.921278 25.298116 0.278227 1.686529 0.109675 -0.004606 -847053.000000 0 0 1
23.110625 7.318681 -2.131278 24.335292 0.306689 1.658488 0.126817 -0.012707 -451624.000000 0 1 0
22.813525 8.666781 -2.344078 24.516621 0.363057 1.666554 0.128097 -0.012082 -623930.000000 0 1 0
21.641225 9.071181 -1.462578 23.511020 0.396916 1.633045 0.098552 -0.009773 -700733.000000 0 1 0
22.045925 9.346881 -0.135578 23.945884 0.401001 1.576458 0.082458 -0.015349 477738.000000 0 1 0
21.034325 9.943381 0.648522 23.275185 0.441588 1.542929 0.058221 -0.013172 32576.300000 0 1 0
21.630925 10.329281 2.062122 24.059163 0.445506 1.484981 0.089840 -0.014626 -22112.600000 0 1 0
22.601125 11.345381 2.191722 25.383699 0.465233 1.484345 0.119050 -0.027040 174729.000000 0 0 1
22.290325 12.675781 1.889322 25.711934 0.517062 1.497250 0.123134 -0.018053 -477809.000000 0 0 1
21.162625 13.381981 2.687622 25.182482 0.563860 1.463867 0.104236 -0.014134 1173020.000000 0 0 1
19.802525 12.900481 2.417122 23.757207 0.577398 1.468877 0.112325 -0.012548 2057630.000000 0 1 0
18.778225 13.729581 2.961822 23.449851 0.631323 1.444154 0.090299 -0.013838 236467.000000 0 1 0
18.665625 13.809581 4.540422 23.658519 0.636967 1.377683 0.075024 -0.011598 -772585.000000 0 1 0
18.138925 12.680681 5.094522 22.710668 0.610113 1.344548 0.045516 -0.005912 31227.500000 0 1 0
18.494125 12.586281 6.445722 23.280774 0.597557 1.290262 0.071269 -0.024559 8320.170000 0 1 0
18.385125 11.168381 7.027222 22.630232 0.545893 1.255052 0.026329 -0.022733 276299.000000 0 1 0
19.222725 10.217181 6.325622 22.669747 0.488541 1.288009 0.015456 -0.032405 837193.000000 0 1 0
19.303425 9.027581 7.124722 22.469559 0.437449 1.248144 0.029531 -0.024860 25926.500000 0 1 0
20.296125 8.029881 6.465322 22.764272 0.376739 1.282821 0.056465 -0.025122 1911.450000 0 1 0
19.757425 7.592981 5.278522 21.814490 0.366908 1.326397 0.026852 -0.023746 689617.000000 0 1 0
20.717125 6.915181 4.481922 22.295888 0.322162 1.368397 0.040348 -0.024853 69224.200000 0 1 0
20.267625 6.746581 2.987822 21.568960 0.321338 1.431825 0.031866 -0.012989 96371.100000 0 1 0
21.221625 5.885881 2.324522 22.145075 0.270552 1.465635 0.035616 -0.014155 966081.000000 0 1 0
21.275825 5.927581 0.909622 22.104849 0.271716 1.529634 0.052159 -0.000006 -386291.000000 0 1 0
22.397525 5.045281 0.358522 22.961544 0.221563 1.555182 0.102563 -0.004964 -200869.000000 0 1 0
22.056925 3.681381 0.494822 22.367506 0.165379 1.548672 0.076006 -0.012098 1192160.000000 0 1 0
23.232625 2.860281 0.619122 23.416220 0.122498 1.544353 0.101795 -0.014172 761150.000000 0 1 0
22.857725 1.341881 0.799222 22.911023 0.058639 1.535906 0.123218 -0.024176 101924.000000 0 1 0
22.060025 0.897581 -0.327478 22.080706 0.040666 1.585628 0.079004 -0.019455 685593.000000 0 1 0
22.377625 -0.366419 -0.920778 22.399558 -0.016373 1.611915 0.123226 -0.025962 -1253870.000000 0 1 0
22.111825 -1.656619 -0.092578 22.173988 -0.074780 1.574971 0.142093 -0.022312 332713.000000 0 1 0
23.107725 -2.092319 0.840622 23.217480 -0.090300 1.534582 0.151166 -0.022948 1240160.000000 0 1 0
24.413325 -2.417519 0.315622 24.534760 -0.098703 1.557932 0.176029 -0.033902 113307.000000 0 1 0
25.435925 -2.372319 1.424222 25.585984 -0.092997 1.515103 0.178434 -0.027990 -662958.000000 0 0 1
25.434825 -1.033019 1.924422 25.528432 -0.040592 1.495341 0.161458 -0.026415 926231.000000 0 0 1
26.410425 -0.780219 2.972322 26.588606 -0.029533 1.458773 0.168395 -0.024518 353293.000000 0 0 1
26.129425 0.534881 3.755722 26.403378 0.020468 1.428068 0.146214 -0.018941 -120976.000000 0 0 1
26.482425 1.748781 3.149722 26.726350 0.065940 1.452671 0.177168 -0.017331 631136.000000 0 0 1
27.857325 1.946081 2.808122 28.066053 0.069746 1.470575 0.194515 -0.027624 577978.000000 0 0 1
27.907825 3.180381 1.925222 28.154360 0.113471 1.502362 0.197235 -0.035045 163238.000000 0 0 1
27.357225 2.849581 0.621322 27.512250 0.103788 1.548211 0.184204 -0.025449 431917.000000 0 0 1
27.514625 3.866581 -0.347578 27.787152 0.139614 1.583305 0.168680 -0.023491 290300.000000 0 0 1
28.904625 3.879881 -1.049078 29.182724 0.133433 1.606753 0.180817 -0.027000 391402.000000 0 0 1
29.997175 4.298181 -0.252478 30.304597 0.142318 1.579128 0.197138 -0.033320 396929.000000 0 0 1
31.226325 4.080781 -0.919678 31.505268 0.129948 1.599992 0.161887 -0.028505 707053.000000 0 0 1
32.558825 4.417581 -0.173278 32.857604 0.134856 1.576070 0.117238 -0.026177 465912.000000 0 0 1
32.813175 3.551281 0.913022 33.017414 0.107808 1.543140 0.129404 -0.028858 -71316.100000 0 0 1
32.162595 3.908581 2.095822 32.466937 0.120933 1.506199 0.108392 -0.015613 -148530.000000 0 0 1
32.431855 2.995981 3.340422 32.740793 0.092116 1.468592 0.131504 -0.013522 215638.000000 0 0 1
31.705235 1.763281 3.199322 31.914992 0.055558 1.470383 0.159807 -0.016356 411285.000000 0 0 1
32.082295 0.722581 4.119922 32.353818 0.022519 1.443110 0.161004 -0.017080 775701.000000 0 0 1
33.354005 -0.127519 3.731422 33.562321 -0.003823 1.459387 0.160857 -0.022102 1068540.000000 0 0 1
34.600395 0.365781 4.174622 34.853243 0.010571 1.450731 0.145519 -0.019471 527946.000000 0 0 1
35.750845 -0.458619 3.998722 35.976701 -0.012827 1.459419 0.120700 -0.020700 607094.000000 0 0 1
37.078965 0.236381 4.431822 37.343628 0.006375 1.451839 0.139882 -0.032993 406280.000000 0 0 1
-37.005961 1.245981 3.588422 37.200408 -0.033657 1.474184 0.132949 -0.031127 41562.500000 0 0 1
-36.299011 0.813881 2.451322 36.390790 -0.022418 1.503384 0.188535 -0.036200 -377868.000000 0 0 1
-35.840129 2.027081 1.578622 35.932102 -0.056499 1.526849 0.199207 -0.035491 -487457.000000 0 0 1
-34.951313 2.877781 2.174522 35.136938 -0.082152 1.508870 0.214424 -0.058457 -332511.000000 0 0 1
-34.169488 3.536081 1.183222 34.372340 -0.103119 1.536366 0.248868 -0.037881 1004280.000000 0 0 1
-32.993561 4.425481 1.839322 33.339812 -0.133336 1.515599 0.247466 -0.044073 709579.000000 0 0 1
-32.026441 3.609181 2.465522 32.323334 -0.112220 1.494445 0.234280 -0.052156 132227.000000 0 0 1
-31.319101 4.307381 3.508722 31.808030 -0.136675 1.460262 0.242592 -0.045047 168431.000000 0 0 1
-31.951061 4.212881 4.926922 32.602043 -0.131098 1.419092 0.235677 -0.040524 1344550.000000 0 0 1
-33.275341 4.760681 5.238122 34.019852 -0.142105 1.416209 0.216591 -0.016815 1844340.000000 0 0 1
-34.365625 3.846381 5.250722 34.976577 -0.111461 1.420106 0.215753 -0.011444 187461.000000 0 0 1
-34.457615 2.966681 6.520522 35.194398 -0.085885 1.384448 0.162809 -0.017928 -648766.000000 0 0 1
-34.792907 3.744281 7.714522 35.834060 -0.107204 1.353813 0.146467 -0.022935 476465.000000 0 0 1
-34.669377 3.072181 8.978822 35.944725 -0.088383 1.318328 0.118765 -0.022908 230567.000000 0 0 1
-35.790770 1.999881 9.231722 37.016259 -0.055819 1.318739 0.107816 -0.022895 -80318.100000 0 0 1
-35.578404 0.828981 8.447022 36.576799 -0.023296 1.337753 0.115270 -0.031363 -99535.100000 0 0 1
-36.413121 -0.260919 8.754322 37.451590 0.007165 1.334863 0.118247 -0.032277 -433154.000000 0 0 1
-35.972248 -1.180319 9.924722 37.334915 0.032800 1.301732 0.118774 -0.037241 687356.000000 0 0 1
-34.653313 -1.726319 9.723722 36.033083 0.049776 1.297553 0.118554 -0.034391 917744.000000 0 0 1
-34.298589 -2.612419 10.762022 36.042184 0.076020 1.267576 0.116647 -0.029691 -235238.000000 0 0 1
-33.030591 -3.436819 10.469222 34.820055 0.103676 1.265405 0.135553 -0.020874 -301145.000000 0 0 1
-33.215561 -4.437619 9.441322 34.815291 0.132814 1.296174 0.122133 -0.036176 2832.560000 0 0 1
-32.152141 -5.366019 9.408122 33.927379 0.165370 1.289812 0.124263 -0.041623 118021.000000 0 0 1
-32.400661 -6.527019 8.369322 34.094726 0.198787 1.322789 0.126957 -0.035378 -343917.000000 0 0 1
-33.352771 -7.399719 8.834822 35.287636 0.218326 1.317738 0.137663 -0.039676 -662683.000000 0 0 1
-33.781591 -8.235719 7.796222 35.634310 0.239128 1.350228 0.138981 -0.046598 -104364.000000 0 0 1
-34.687964 -9.394719 8.207622 36.862998 0.264490 1.346262 0.152597 -0.040116 648370.000000 0 0 1
-35.963362 -8.899619 8.633222 38.040756 0.242590 1.341855 0.152953 -0.046470 496872.000000 0 0 1
-36.904001 -9.931819 8.842322 39.226687 0.262897 1.343426 0.155271 -0.045741 120050.000000 0 0 1
8.255249 -24.111319 10.483822 27.557492 -1.240925 1.180530 0.141965 -0.033627 -92317.400000 0 0 1
7.563749 -24.823719 9.501922 27.635373 -1.275035 1.219802 0.127431 -0.036646 -774770.000000 0 0 1
6.223749 -25.010519 9.867222 27.597521 -1.326905 1.205164 0.143973 -0.043947 -82776.200000 0 0 1
5.558849 -26.076049 8.956422 28.126120 -1.360762 1.246715 0.110200 -0.031856 -96073.400000 0 0 1
5.243449 -25.463819 7.709122 27.116976 -1.367717 1.282529 0.108913 -0.025976 -102821.000000 0 0 1
4.744149 -26.478909 6.816522 27.750757 -1.393510 1.322623 0.087897 -0.020518 -267108.000000 0 0 1
4.232849 -26.127969 5.403022 27.014448 -1.410187 1.369433 0.065201 -0.015357 172857.000000 0 0 1
2.865649 -25.769219 5.373322 26.478995 -1.460047 1.366449 0.051593 -0.024800 -429535.000000 0 0 1
2.052349 -26.883939 5.110922 27.442300 -1.494603 1.383460 0.048743 -0.021456 29307.900000 0 0 1
0.534049 -26.495039 5.078722 26.982692 -1.550642 1.381445 0.063129 -0.024746 365186.000000 0 0 1
-0.039451 -25.968869 6.260322 26.712831 1.569277 1.334240 0.071370 -0.027926 406578.000000 0 0 1
-1.424351 -26.260109 6.481522 27.085646 1.516609 1.329154 0.077983 -0.027565 844969.000000 0 0 1
-1.868451 -27.736989 6.705622 28.597150 1.503535 1.334107 0.096415 -0.027403 -495516.000000 0 0 1
-1.474351 -28.252699 7.936922 29.383387 1.518659 1.297283 0.077573 -0.031263 -199125.000000 0 0 1
-1.947751 -29.525509 8.093622 30.676638 1.504923 1.303799 0.121188 -0.028549 -173545.000000 0 0 1
-1.758251 -30.138979 9.525622 31.657336 1.512524 1.265162 0.108636 -0.027670 635889.000000 0 0 1
-0.407351 -30.590099 9.677622 32.087013 1.557481 1.264420 0.099625 -0.025481 564398.000000 0 0 1
-0.177951 -30.904989 11.044022 32.819513 1.565038 1.227590 0.096500 -0.026463 -18651.500000 0 0 1
1.293749 -31.237439 11.346322 33.259440 -1.529403 1.222661 0.089861 -0.029637 -399918.000000 0 0 1
1.689649 -32.498639 10.910522 34.322819 -1.518852 1.247304 0.100561 -0.020000 -349662.000000 0 0 1
3.059049 -32.746319 11.082822 34.706024 -1.477650 1.245769 0.080212 -0.017121 46113.200000 0 0 1
3.570849 -33.158839 12.518022 35.622471 -1.463521 1.211722 0.097283 -0.017532 -373575.000000 0 0 1
3.338049 -32.226139 13.486222 35.093372 -1.467582 1.176352 0.104906 -0.022775 132090.000000 0 0 1
3.801149 -32.737679 14.692922 36.084433 -1.455205 1.151430 0.101203 -0.023767 -555625.000000 0 0 1
3.327649 -31.768339 15.799822 35.636147 -1.466430 1.111447 0.102838 -0.033590 -16063.800000 0 0 1
3.878749 -30.488359 15.840222 34.575965 -1.444255 1.094908 0.108359 -0.046152 365248.000000 0 0 1
5.239749 -30.246929 16.172922 34.697191 -1.399266 1.085901 0.112849 -0.033648 274345.000000 0 0 1
5.754049 -28.873759 15.556622 33.298821 -1.374090 1.084695 0.120419 -0.034463 -117652.000000 0 0 1
5.834449 -28.789889 14.138522 32.600556 -1.370848 1.122213 0.116274 -0.029119 462097.000000 0 0 1
4.611849 -28.805639 13.368522 32.089739 -1.412041 1.141096 0.108795 -0.019452 -96746.700000 0 0 1
4.695549 -28.794059 11.807722 31.473295 -1.409146 1.186220 0.090721 -0.024682 -10047.100000 0 0 1
5.287849 -29.859669 11.096422 32.290738 -1.395523 1.220005 0.086407 -0.025383 -109151.000000 0 0 1
6.615249 -30.165599 11.422122 32.927036 -1.354916 1.216541 0.089353 -0.016869 -637257.000000 0 0 1
7.267649 -31.419479 10.829422 34.018800 -1.343484 1.246822 0.068949 -0.015135 62155.500000 0 0 1
6.907049 -32.618029 11.527622 35.277885 -1.362123 1.237916 0.061904 -0.018204 259888.000000 0 0 1
7.381149 -33.769659 10.821822 36.221306 -1.355607 1.267393 0.070013 -0.012512 -8852.570000 0 0 1
7.144649 32.914396 11.693222 35.652979 1.357045 1.236639 0.070283 -0.012868 -614919.000000 0 0 1
5.848049 32.490778 11.971322 35.116419 1.392712 1.222918 0.060756 -0.011879 -689610.000000 0 0 1
5.907649 31.422715 12.888222 34.473085 1.384960 1.187625 0.067868 -0.016912 -476291.000000 0 0 1
4.692149 31.159675 13.751922 34.381055 1.421335 1.159295 0.066827 -0.016832 -600396.000000 0 0 1
4.464549 32.030175 14.797522 35.564462 1.432303 1.141670 0.095104 -0.023049 6487.660000 0 0 1
3.650949 31.390145 15.772522 35.319160 1.455008 1.107867 0.104436 -0.021205 -1229.880000 0 0 1
4.180849 31.494415 17.217222 36.135999 1.438819 1.074177 0.120176 -0.020449 -75085.300000 0 0 1
4.041249 32.821024 17.751622 37.532271 1.448283 1.078138 0.119515 -0.023375 198616.000000 0 0 1
4.575249 32.880094 19.062522 38.280716 1.432535 1.049544 0.109936 -0.019875 49099.700000 0 0 1
4.651149 -33.523549 19.670722 39.145866 -1.432934 1.044311 0.102327 -0.033251 50533.000000 0 0 1
3.371349 -33.016909 19.956422 38.726490 -1.469039 1.029419 0.094189 -0.032347 -389176.000000 0 0 1
3.460449 -31.774349 20.691422 38.075174 -1.462317 0.996271 0.090543 -0.032064 -616000.000000 0 0 1
2.120449 -31.089459 20.920222 37.532738 -1.502697 0.979562 0.098172 -0.034962 -500936.000000 0 0 1
1.288049 -31.945349 21.700622 38.640411 -1.530498 0.974473 0.123649 -0.031440 -342038.000000 0 0 1
0.333749 -31.173029 22.379622 38.375990 -1.560090 0.948174 0.109289 -0.034669 -574635.000000 0 0 1
-0.774351 -31.994219 23.066822 39.450069 1.546598 0.946275 0.112045 -0.033953 106367.000000 0 0 1
-1.814651 -32.389459 22.124222 39.266413 1.514829 0.972254 0.103543 -0.033301 824766.000000 0 0 1
-2.559251 -33.533309 22.609722 40.524463 1.494624 0.978910 0.104739 -0.036631 -349982.000000 0 0 1
-3.839351 -33.173009 23.313322 40.727142 1.455572 0.961333 0.116373 -0.027881 -657095.000000 0 0 1
-4.807651 -32.689429 22.392922 39.914348 1.424773 0.975174 0.087817 -0.028191 -262385.000000 0 0 1
-6.037051 -32.302199 22.971422 40.094441 1.386035 0.960717 0.085230 -0.020807 -22211.700000 0 0 1
-7.129551 -32.079749 21.915122 39.499536 1.352106 0.982650 0.066944 -0.016775 -420143.000000 0 0 1
-7.908651 -33.204969 21.624122 40.406922 1.336976 1.006101 0.048205 -0.003585 -349834.000000 0 0 1
-8.955251 -32.703549 20.820522 39.789606 1.303517 1.020118 0.062712 -0.018945 -317113.000000 0 0 1
-10.168451 -33.644909 20.720622 40.800998 1.277296 1.038114 0.087700 -0.025149 132741.000000 0 0 1
-10.877351 -33.720549 21.944722 41.676888 1.258761 1.016266 0.110618 -0.033660 -621353.000000 0 0 1
-12.203951 33.706946 21.844122 41.979284 -1.223418 1.023530 0.097601 -0.023879 -56360.400000 0 0 1
-12.783451 33.433801 23.241622 42.677964 -1.205596 0.994906 0.108760 -0.028719 -61161.300000 0 0 1
-13.134051 -33.298649 24.095022 43.149431 1.195099 0.978330 0.109507 -0.029205 -8912.120000 0 0 1
-12.075451 -32.432519 24.467422 42.383246 1.214373 0.955390 0.106938 -0.025330 -81563.000000 0 0 1
-12.503051 -31.153519 25.156622 41.949060 1.189138 0.927677 0.096102 -0.023387 -71577.300000 0 0 1
-12.847851 -31.298589 26.537522 42.998942 1.181277 0.905659 0.108916 -0.016999 553399.000000 0 0 1
-13.764751 -30.271189 26.919822 42.784226 1.144029 0.890273 0.108450 -0.022148 -42545.900000 0 0 1
-14.217151 -30.107289 28.383422 43.751512 1.129622 0.864867 0.108625 -0.023995 -367954.000000 0 0 1
-13.357451 -29.625849 29.348922 43.788944 1.147218 0.836270 0.085981 -0.009600 -133411.000000 0 0 1
-14.102851 -29.544479 30.531022 44.765052 1.125438 0.820264 0.097059 -0.009405 91779.200000 0 0 1
-13.386551 -28.748309 31.608922 44.774869 1.135007 0.787030 0.080781 -0.018617 -405757.000000 0 0 1
-14.300551 -28.382589 32.631622 45.551068 1.104074 0.772204 0.080867 -0.025154 326043.000000 0 0 1
-13.871551 -28.095809 -33.882392 46.149874 1.112183 2.395257 0.083117 -0.025617 -687984.000000 0 0 1
-13.076351 -29.198169 -33.173092 46.086636 1.149733 2.374308 0.092351 -0.025253 -590388.000000 0 0 1
-11.794051 -29.402369 -33.683292 46.240275 1.189320 2.386839 0.093983 -0.028666 -525714.000000 0 0 1
-11.291351 -30.607469 -33.139392 46.503022 1.217377 2.364035 0.097431 -0.022953 349732.000000 0 0 1
-9.792751 -30.889729 -33.419092 46.550070 1.263796 2.371602 0.101910 -0.024796 402013.000000 0 0 1
-8.802551 -30.216769 -32.675592 45.367745 1.287328 2.374942 0.125008 -0.034227 119726.000000 0 0 1
-7.631051 -31.005609 -32.504592 45.564561 1.329474 2.365098 0.132671 -0.038874 500041.000000 0 0 1
-6.641351 -30.229399 -31.560792 44.204159 1.354534 2.365960 0.121371 -0.031655 196093.000000 0 0 1
-7.145251 -30.091619 -30.244292 43.258263 1.337664 2.345013 0.135691 -0.049275 428676.000000 0 0 1
-6.099151 -29.572739 -29.411392 42.151826 1.367406 2.343047 0.116485 -0.042417 640909.000000 0 0 1
-6.420551 -29.650529 -27.853792 41.185083 1.357548 2.313535 0.109057 -0.042820 -15001.000000 0 0 1
-6.161951 -30.914559 -27.327792 41.719154 1.374053 2.285034 0.104436 -0.040705 214201.000000 0 0 1
-7.014551 -31.098879 -26.191692 41.259531 1.348952 2.258550 0.118785 -0.043341 375535.000000 0 0 1
-6.932351 -32.492999 -25.572192 41.926000 1.360599 2.226777 0.117119 -0.049971 -935246.000000 0 0 1
-5.707251 -32.593919 -24.986792 41.464153 1.397452 2.217566 0.091052 -0.050814 -1223110.000000 0 0 1
-5.485251 -33.763419 -24.214792 41.909576 1.409742 2.186811 0.105208 -0.050612 279568.000000 0 0 1
-4.521951 -33.568939 -22.985892 40.934984 1.436896 2.167020 0.113814 -0.060111 109184.000000 0 0 1
-5.018751 -32.795989 -21.922192 39.766157 1.418945 2.154691 0.128401 -0.061154 87617.300000 0 0 1
-5.035451 -31.379149 -22.032692 38.671000 1.411682 2.176994 0.093311 -0.041014 -313843.000000 0 0 1
-5.504951 -30.685339 -20.770192 37.460584 1.393285 2.158504 0.127456 -0.051239 287693.000000 0 0 1
-6.933051 -30.728719 -20.656792 37.669940 1.348891 2.151201 0.130225 -0.057593 651004.000000 0 0 1
-7.445951 -29.566959 -20.077892 36.507108 1.324093 2.153127 0.137152 -0.055612 -164228.000000 0 0 1
-7.717451 -28.376809 -21.025592 36.150765 1.305255 2.191501 0.147593 -0.056645 -594492.000000 0 0 1
-6.572051 -27.742879 -21.545992 35.736381 1.338193 2.217946 0.158292 -0.039367 -298285.000000 0 0 1
-6.760451 -27.406679 -22.889992 36.342557 1.328953 2.252143 0.176737 -0.038734 -679453.000000 0 0 1
-5.629151 -27.962149 -23.779492 37.135338 1.372138 2.265746 0.159110 -0.028727 288122.000000 0 0 1
-4.341251 -27.398239 -23.664292 36.462428 1.413653 2.277072 0.142610 -0.019193 36317.400000 0 0 1
-3.636951 -27.654379 -22.471192 35.818243 1.440032 2.248964 0.097912 -0.021058 -962329.000000 0 0 1
-2.157351 -27.198069 -22.480492 35.351967 1.491642 2.259977 0.092407 -0.024447 -27957.700000 0 0 1
-1.803451 -25.830069 -22.690192 34.428036 1.501090 2.290366 0.089811 -0.027402 34433.300000 0 0 1
-2.084851 -24.885619 -21.717292 33.095036 1.487214 2.286581 0.099015 -0.034937 -417307.000000 0 0 1
-1.540251 -23.483519 -22.163592 32.327586 1.505302 2.326215 0.094256 -0.038315 -113918.000000 0 0 1
-2.253451 -22.803419 -23.129992 32.558723 1.472295 2.360875 0.132806 -0.041600 -68770.500000 0 0 1
-3.527651 -22.333919 -22.707692 32.045085 1.414140 2.358333 0.142498 -0.045311 149387.000000 0 0 1
-4.397451 -21.663919 -23.795592 32.479118 1.370532 2.392993 0.134453 -0.052986 381424.000000 0 0 1
-3.740251 -20.512319 -24.411392 32.103905 1.390436 2.434705 0.129223 -0.037113 445307.000000 0 0 1
-4.333751 -20.262219 -25.706992 33.018000 1.360088 2.463188 0.169781 -0.041742 34289.300000 0 0 1
-3.984851 -21.244019 -26.858492 34.475585 1.385376 2.463959 0.118548 -0.037117 289766.000000 0 0 1
-4.758251 -20.988319 -28.053892 35.357762 1.347855 2.487219 0.115252 -0.039232 372716.000000 0 0 1
-4.482251 -22.020619 -28.963092 36.658681 1.369992 2.481727 0.132745 -0.030282 -202073.000000 0 0 1
-5.624651 -22.207719 -29.966392 37.720075 1.322738 2.488884 0.131151 -0.038172 -408929.000000 0 0 1
-5.821451 -21.186919 -30.974092 37.975902 1.302647 2.524605 0.125310 -0.040578 -86078.900000 0 0 1
-6.791551 -21.606419 -31.912392 39.132636 1.266245 2.524377 0.120578 -0.044151 -202394.000000 0 0 1
-6.817551 -20.663019 -33.150192 39.653178 1.252103 2.560755 0.092265 -0.028635 842658.000000 0 0 1
-5.744051 -20.816819 33.747322 40.065144 1.301563 0.569239 0.098401 -0.040390 616044.000000 0 0 1
-6.046151 -20.258819 32.477622 38.752698 1.280766 0.577053 0.091324 -0.034587 86507.600000 0 0 1
-4.978251 -20.639719 31.438622 37.936367 1.334119 0.593980 0.105235 -0.048490 -1176290.000000 0 0 1
-4.963351 -22.034019 31.100522 38.436640 1.349236 0.628114 0.109903 -0.046599 940432.000000 0 0 1
-3.879751 -22.402919 30.181522 37.787134 1.399317 0.645623 0.112478 -0.045636 2835260.000000 0 0 1
-2.378651 -22.174219 30.707222 37.951119 1.463934 0.628134 0.105074 -0.055134 600700.000000 0 0 1
-1.895551 -20.883619 30.565822 37.067346 1.480277 0.601297 0.122742 -0.048250 337873.000000 0 0 1
-0.784251 -20.513419 31.396122 37.511756 1.532584 0.579078 0.130185 -0.056758 413819.000000 0 0 1
-1.201051 -20.177519 32.833722 38.556816 1.511342 0.551829 0.111911 -0.055306 -374555.000000 0 0 1
-2.158551 -19.171819 32.932422 38.167557 1.458679 0.529939 0.110457 -0.044887 -247042.000000 0 0 1
-2.498451 -18.915719 -33.537592 38.585188 1.439473 2.624344 0.107410 -0.043860 -215679.000000 0 0 1
-3.647051 -17.930819 -33.456292 38.133170 1.370138 2.641116 0.120994 -0.044451 -326293.000000 0 0 1
-3.287251 -16.635119 33.890522 37.895919 1.375701 0.463920 0.100307 -0.029320 -77220.200000 0 0 1
-4.237251 -15.681319 -33.572792 37.295984 1.306889 2.690960 0.100855 -0.031336 -119186.000000 0 0 1
-3.896651 -14.193319 -33.916692 36.972641 1.302857 2.732157 0.106071 -0.032198 -278625.000000 0 0 1
-3.048151 -13.577819 -32.960892 35.778049 1.349963 2.742104 0.093296 -0.027690 -84187.500000 0 0 1
-2.949751 -12.148319 -32.990192 35.279391 1.332595 2.779372 0.099411 -0.022644 194779.000000 0 0 1
-1.905551 -11.611419 33.859422 35.845734 1.408136 0.334461 0.098294 -0.027947 -384159.000000 0 0 1
-2.360151 -11.564319 32.547322 34.621264 1.369472 0.347884 0.102071 -0.021158 51266.700000 0 0 1
-1.470551 -11.061819 31.528222 33.444807 1.438632 0.340182 0.109896 -0.015927 564844.000000 0 0 1
-0.537951 -12.201419 30.984422 33.304630 1.526736 0.375474 0.095526 -0.018130 -251720.000000 0 0 1
-1.188251 -13.108919 30.187322 32.932204 1.480399 0.411178 0.102050 -0.025808 -99059.600000 0 0 1
-0.355151 -14.217419 29.861022 33.074790 1.545822 0.444483 0.098302 -0.031925 9535.380000 0 0 1
-0.892751 -15.543619 30.413222 34.166726 1.513424 0.473141 0.109212 -0.040775 -606471.000000 0 0 1
-1.898651 -16.032519 29.619122 33.733350 1.452920 0.499052 0.105028 -0.042978 -900933.000000 0 0 1
-2.730951 -16.798319 30.419622 34.856778 1.409633 0.510085 0.112430 -0.047761 -491358.000000 0 0 1
-3.236851 -18.125119 29.794322 35.024259 1.394076 0.553525 0.110773 -0.033509 13069.200000 0 0 1
-4.124751 -17.922719 28.680322 34.070490 1.344594 0.570199 0.101012 -0.032713 126684.000000 0 0 1
-4.282351 -19.144319 28.046222 34.226218 1.350731 0.610369 0.107998 -0.039410 68706.600000 0 0 1
-5.310851 -19.045719 26.917122 33.398742 1.298857 0.633548 0.090957 -0.043526 -456194.000000 0 0 1
-5.695251 -20.263719 26.273922 33.665608 1.296808 0.675430 0.090987 -0.035343 44941.000000 0 0 1
-4.658151 -21.068919 25.678422 33.540707 1.353206 0.698839 0.128477 -0.042589 115151.000000 0 0 1
-30.565391 -33.565802 -0.232578 45.397800 0.832150 1.575919 0.059401 -0.015030 814163.000000 0 0 1
-29.530101 -32.686102 0.305722 44.051125 0.836081 1.563856 0.068693 -0.013777 826167.000000 0 0 1
-30.013141 -31.957202 1.418022 43.864133 0.816759 1.538463 0.053378 -0.019593 10571.000000 0 0 1
-29.304791 -30.587502 1.593522 42.389921 0.806812 1.533195 0.070719 -0.020031 -487312.000000 0 0 1
-27.938591 -30.790502 1.840622 41.617397 0.833920 1.526555 0.075434 -0.022768 -845793.000000 0 0 1
-27.306961 -29.552402 1.998322 40.286572 0.824869 1.521173 0.082959 -0.024449 1050430.000000 0 0 1
-25.740751 -29.662402 2.157722 39.333194 0.856064 1.515911 0.067952 -0.023413 835771.000000 0 0 1
-25.327921 -30.458202 3.275622 39.748401 0.877104 1.488294 0.057467 -0.015650 -830293.000000 0 0 1
-23.938551 -30.416202 3.286622 38.845868 0.904012 1.486088 0.058917 -0.012622 -661494.000000 0 0 1
-23.380851 -31.093302 4.578322 39.171656 0.926043 1.453650 0.058667 -0.017556 -113584.000000 0 0 1
-23.699251 -30.313502 5.688022 38.896227 0.907249 1.424034 0.038894 -0.013307 -47872.500000 0 0 1
-23.304851 -30.972902 6.851922 39.362235 0.925744 1.395832 0.030020 -0.010246 -167846.000000 0 0 1
-23.799051 -30.333302 8.161222 39.409511 0.905526 1.362199 0.025231 -0.002099 -9311.910000 0 0 1
-23.243851 -29.021402 8.395122 38.118191 0.895494 1.348737 0.027519 -0.003763 255673.000000 0 0 1
-23.782451 -28.583002 9.601622 38.402918 0.876817 1.318092 0.014226 -0.002290 -217486.000000 0 0 1
-23.061951 -27.383102 10.217022 37.230034 0.870850 1.292800 0.012601 -0.001888 -92100.000000 0 0 1
-21.831851 -27.687202 10.833322 36.885929 0.903096 1.272703 0.019420 -0.005711 -148664.000000 0 0 1
-21.240751 -26.643402 11.591122 35.991589 0.897751 1.242901 0.035824 -0.011205 -1425.280000 0 0 1
-19.905451 -26.949902 12.288422 35.686545 0.934625 1.219257 0.040977 -0.007821 -117032.000000 0 0 1
-19.888051 -27.848002 13.362622 36.736977 0.950627 1.198519 0.048445 -0.013041 -654534.000000 0 0 1
-18.635751 -27.893502 13.987122 36.345265 0.981800 1.175762 0.065643 -0.019087 -223112.000000 0 0 1
-18.444851 -29.020502 15.063622 37.540841 1.004625 1.157905 0.088651 -0.033069 -37697.100000 0 0 1
-18.292851 -30.333602 14.483122 38.269004 1.028133 1.182669 0.082658 -0.029092 -13268.300000 0 0 1
-18.283851 -31.232702 15.499622 39.370283 1.041176 1.166156 0.095219 -0.035490 77183.200000 0 0 1
-18.195851 -32.719302 15.041022 40.346921 1.063267 1.188780 0.075235 -0.039787 -1272.990000 0 0 1
-18.047351 -33.687902 16.080322 41.462735 1.078981 1.172525 0.090279 -0.037490 353176.000000 0 0 1
-17.661151 32.894281 15.488822 40.420955 -1.078061 1.177551 0.068411 -0.033186 -422266.000000 0 0 1
-17.464751 31.712581 16.446822 39.764347 -1.067401 1.144384 0.073766 -0.027025 683802.000000 0 0 1
-18.747451 31.245181 16.922322 40.175779 -1.030369 1.136021 0.089042 -0.028387 966695.000000 0 0 1
-18.692151 30.305681 18.032222 39.912302 -1.018125 1.102019 0.051590 -0.016501 -431508.000000 0 0 1
-19.537351 30.766881 19.199722 41.193912 -1.005029 1.085940 0.064957 -0.030380 -99795.100000 0 0 1
-18.929051 31.809081 19.943722 42.046149 -1.034000 1.076594 0.073347 -0.026045 5754.930000 0 0 1
-19.797051 32.154981 20.998022 43.206284 -1.018930 1.063295 0.074434 -0.030290 -154216.000000 0 0 1
-19.379951 33.301181 21.982922 44.359892 -1.043747 1.052319 0.055449 -0.010646 -353049.000000 0 0 1
-18.330351 32.948981 22.840222 44.083023 -1.063110 1.026147 0.059207 -0.022609 -370350.000000 0 0 1
-18.533251 33.434781 24.160922 45.222960 -1.064650 1.007162 0.048474 -0.019351 -368521.000000 0 0 1
-19.352351 32.594881 25.135222 45.483174 -1.035005 0.985284 0.044893 -0.019969 -170459.000000 0 0 1
-20.718751 32.820881 24.853722 46.088875 -1.007703 1.001242 0.045071 -0.022438 116574.000000 0 0 1
-21.587051 32.023581 25.671822 46.374055 -0.977666 0.984138 0.028465 -0.020956 461561.000000 0 0 1
-23.094151 32.085481 25.343922 46.958836 -0.946925 1.000710 0.055599 -0.034120 19257.000000 0 0 1
-23.388451 31.569381 24.034422 46.057561 -0.933171 1.021796 0.054215 -0.021019 774371.000000 0 0 1
-24.678351 31.998981 23.561222 46.776992 -0.913850 1.042929 0.053178 -0.026533 724159.000000 0 0 1
-24.942351 31.581981 22.108822 45.916690 -0.902327 1.068433 0.041342 -0.029958 -134504.000000 0 0 1
-24.326951 32.511181 21.236622 45.823264 -0.928407 1.088916 0.041069 -0.032896 246559.000000 0 0 1
-23.840151 31.855081 20.069422 44.563221 -0.928324 1.103630 0.020737 -0.012609 64651.400000 0 0 1
-23.391251 32.825981 18.923622 44.528633 -0.951675 1.131860 0.031583 -0.007902 -238926.000000 0 0 1
-22.143951 33.409481 19.181722 44.435194 -0.985472 1.124443 0.052545 -0.017065 -451044.000000 0 0 1
-21.864851 -33.497202 18.160822 43.931193 0.992500 1.144620 0.069362 -0.010555 -766060.000000 0 0 1
-20.665751 -32.643802 18.425422 42.804056 1.006416 1.125794 0.073957 -0.025810 -869002.000000 0 0 1
-20.762851 -31.848602 19.562122 42.756357 0.993070 1.095586 0.085160 -0.032454 -517225.000000 0 0 1
-19.547051 -31.285302 19.909122 41.919333 1.012341 1.075902 0.093507 -0.039983 -609720.000000 0 0 1
-19.744051 -30.104302 20.948522 41.652576 0.990316 1.043806 0.095631 -0.028614 -139354.000000 0 0 1
-20.392351 -28.984102 20.392622 40.887470 0.957678 1.048640 0.099590 -0.033211 237101.000000 0 0 1
-21.023651 -28.256402 21.433522 41.228801 0.931126 1.024100 0.106574 -0.028326 -85881.300000 0 0 1
-21.986351 -27.171402 20.914522 40.732075 0.890487 1.031578 0.089623 -0.033310 -538661.000000 0 0 1
-21.314451 -26.048202 20.347622 39.329892 0.885014 1.027036 0.071277 -0.019210 25735.500000 0 0 1
-21.990051 -24.851502 20.062322 38.777007 0.846410 1.027014 0.062138 -0.001581 -747583.000000 0 0 1
-22.999651 -24.828902 18.901622 38.765057 0.823626 1.061464 0.041705 -0.008564 -1198700.000000 0 0 1
-24.225651 -25.324502 19.259422 39.989222 0.807571 1.068299 0.049455 -0.008089 -1196140.000000 0 0 1
-25.015351 -25.436902 18.074822 39.993786 0.793753 1.101857 0.030248 -0.002629 713922.000000 0 0 1
-26.549621 -25.572502 18.407522 41.202817 0.766654 1.107663 0.019664 -0.000271 777155.000000 0 0 1
-27.014981 -26.766502 19.045422 42.532140 0.780778 1.106505 0.020115 -0.011322 -5015.700000 0 0 1
-26.811991 -28.002402 18.315722 42.877535 0.807112 1.129443 0.019031 -0.008133 -690429.000000 0 0 1
-27.615141 -29.176202 18.909622 44.400682 0.812879 1.130856 0.034809 -0.014070 774903.000000 0 0 1
-29.044721 -29.030502 18.868222 45.192651 0.785153 1.140097 0.039592 -0.018824 1273080.000000 0 0 1
-29.716921 -29.341902 17.582322 45.312037 0.779048 1.172306 0.042176 -0.016891 1057050.000000 0 0 1
-31.265421 -29.085302 17.587722 46.182348 0.749290 1.180100 0.049356 -0.018544 853090.000000 0 0 1
-31.465391 -27.683902 17.528822 45.428283 0.721554 1.174660 0.062361 -0.020826 573516.000000 0 0 1
-32.872301 -27.420102 17.669722 46.310574 0.695214 1.179326 0.089618 -0.006254 653569.000000 0 0 1
-33.302501 -26.070502 17.123422 45.628272 0.664189 1.186096 0.091523 -0.020861 -325488.000000 0 0 1
-33.695631 -26.130002 15.757422 45.458430 0.659605 1.216816 0.114438 -0.040765 308172.000000 0 0 1
-34.197014 -24.905102 15.198822 44.952242 0.629457 1.225888 0.129853 -0.043079 93359.600000 0 0 1
-33.123301 -23.838502 14.814022 43.415233 0.623819 1.222585 0.125729 -0.038006 -17216.700000 0 0 1
-32.671441 -23.191202 15.958322 43.126824 0.617294 1.191752 0.096268 -0.028887 -128852.000000 0 0 1
-32.266701 -21.884202 15.682522 42.023800 0.595964 1.188360 0.092571 -0.024859 -8304.500000 0 0 1
-33.430171 -20.846902 15.746122 42.427703 0.557589 1.190573 0.103356 -0.026281 152493.000000 0 0 1
-33.749421 -20.567702 17.089222 43.059207 0.547320 1.162684 0.100961 -0.022962 -347340.000000 0 0 1
-34.779740 -19.643102 17.074722 43.439934 0.514124 1.166834 0.109330 -0.029228 -602111.000000 0 0 1
-35.197282 -19.193402 18.456222 44.134652 0.499235 1.139356 0.092068 -0.015523 -85414.500000 0 0 1
-35.810687 -20.162002 19.317422 45.410070 0.512782 1.131393 0.103664 -0.017760 466921.000000 0 0 1
-36.117521 -19.701002 20.648422 46.032186 0.499358 1.105637 0.087568 -0.011922 -711212.000000 0 0 1
37.045805 -19.749102 21.177522 47.020273 -0.489775 1.103593 0.109353 -0.019738 98584.300000 0 0 1
36.383845 -21.017402 21.472322 47.186608 -0.523829 1.098367 0.121859 -0.019843 252717.000000 0 0 1
37.005785 -21.741402 22.470222 48.446130 -0.531188 1.088496 0.097179 -0.009006 -521832.000000 0 0 1
36.312975 -23.094302 22.806222 48.704237 -0.566456 1.083476 0.094382 -0.005233 63025.400000 0 0 1
35.056675 -22.909702 23.425822 47.985352 -0.578835 1.060785 0.103002 -0.018049 38749.600000 0 0 1
34.672345 -24.132502 23.952222 48.561899 -0.608047 1.054997 0.081999 -0.023319 -418683.000000 0 0 1
33.755835 -23.986702 25.156022 48.452489 -0.617801 1.024894 0.083324 -0.027127 28001.700000 0 0 1
32.368755 -23.941802 24.907722 47.342801 -0.636849 1.016772 0.092160 -0.022320 -27610.200000 0 0 1
31.605005 -23.892002 26.074422 47.429733 -0.647302 0.988733 0.060066 -0.017281 -251203.000000 0 0 1
30.141555 -24.325602 25.923322 46.607584 -0.679022 0.980985 0.061972 -0.018531 -4050.990000 0 0 1
29.279825 -23.352802 25.319722 45.207851 -0.673259 0.976322 0.070800 -0.019166 -810887.000000 0 0 1
28.036725 -23.918902 25.139122 44.611067 -0.706307 0.972159 0.073589 -0.013152 -1075470.000000 0 0 1
27.032425 -22.913802 24.561622 43.116906 -0.703123 0.964714 0.071693 -0.020527 -555367.000000 0 0 1
27.145725 -22.428302 23.217822 42.178032 -0.690525 0.987867 0.053952 -0.008190 -624555.000000 0 0 1
28.292425 -21.768402 22.800622 42.357915 -0.655807 1.002396 0.069870 -0.004908 -772039.000000 0 0 1
28.180625 -21.317202 21.327622 41.272729 -0.647616 1.027748 0.066608 -0.014237 -207256.000000 0 0 1
27.385025 -20.180802 21.347122 40.160976 -0.635083 1.010380 0.060179 -0.014439 -318550.000000 0 0 1
27.304325 -19.658602 20.085922 39.184577 -0.624011 1.032589 0.037350 -0.013129 525122.000000 0 0 1
26.279725 -18.434902 20.055622 37.850991 -0.611724 1.012364 0.028613 -0.006859 391105.000000 0 0 1
26.586525 -17.275602 20.799122 37.919562 -0.576226 0.990219 0.036841 -0.018589 20959.500000 0 0 1
26.195925 -17.342402 22.205222 38.471512 -0.584783 0.955518 0.046339 -0.016171 -16275.800000 0 0 1
26.190525 -16.032602 23.051422 38.397343 -0.549307 0.926871 0.053719 -0.014712 -289584.000000 0 0 1
25.046625 -15.232902 22.935822 37.221320 -0.546414 0.906886 0.019294 -0.010527 -504287.000000 0 0 1
25.161125 -14.128902 23.804722 37.408192 -0.511658 0.881038 0.018235 -0.003774 -449586.000000 0 0 1
24.111625 -13.042802 23.696722 36.235615 -0.495856 0.857986 0.029276 -0.005280 -897405.000000 0 0 1
22.940825 -13.472202 24.293422 36.027101 -0.530998 0.830767 0.042837 -0.008460 -817959.000000 0 0 1
21.833625 -12.637302 24.003822 34.822292 -0.524685 0.810242 0.054975 -0.012885 793045.000000 0 0 1
20.474025 -13.275402 24.469722 34.557044 -0.575251 0.783998 0.057158 -0.008780 424245.000000 0 0 1
20.137425 -14.309202 23.600122 34.164820 -0.617790 0.808239 0.063309 -0.020405 -303486.000000 0 0 1
18.907825 -14.900202 23.910022 33.929501 -0.667408 0.788800 0.071745 -0.020085 -194696.000000 0 0 1
18.260325 -16.026302 23.094322 33.520584 -0.720333 0.810744 0.085699 -0.020781 36677.800000 0 0 1
18.733325 -17.291202 23.480122 34.658899 -0.745388 0.826488 0.078977 -0.018483 56753.800000 0 0 1
18.354425 -18.236302 22.524822 34.304741 -0.782170 0.854482 0.096022 -0.021485 -257761.000000 0 0 1
18.833925 -19.628002 22.873322 35.541019 -0.806041 0.871636 0.081461 -0.017559 -112831.000000 0 0 1
18.196925 -20.169902 24.032622 36.270097 -0.836777 0.846509 0.086987 -0.016876 355008.000000 0 0 1
18.552125 -21.491902 24.317922 37.382409 -0.858680 0.862530 0.095145 -0.016724 -49159.300000 0 0 1
18.032125 -22.577902 23.242022 37.082486 -0.896871 0.893401 0.084531 -0.016501 197133.000000 0 0 1
18.824425 -22.737202 22.069922 36.856760 -0.879265 0.928791 0.082825 -0.012297 197466.000000 0 0 1
19.952125 -23.568102 22.266122 38.069974 -0.868295 0.946072 0.091633 -0.018258 144578.000000 0 0 1
21.034725 -23.672002 21.170922 38.092404 -0.844320 0.981498 0.079443 -0.012273 -460865.000000 0 0 1
20.511225 -24.222902 20.013722 37.523438 -0.868180 1.008222 0.065489 -0.020886 60646.700000 0 0 1
21.428025 -24.729902 19.049022 37.862825 -0.856811 1.043607 0.071221 -0.017062 -314592.000000 0 0 1
20.730725 -25.431702 17.847222 37.350472 -0.886884 1.072612 0.059157 -0.018184 218558.000000 0 0 1
20.156725 -26.674802 18.234322 38.083187 -0.923691 1.071506 0.074160 -0.023775 -23315.600000 0 0 1
19.264525 -27.183402 17.261622 37.523631 -0.954264 1.092779 0.071081 -0.025430 400683.000000 0 0 1
18.380525 -28.403602 17.845122 38.249924 -0.996449 1.085421 0.070953 -0.023498 410682.000000 0 0 1
17.369725 -27.984502 18.747822 37.898820 -1.015302 1.053329 0.076849 -0.030440 -19088.300000 0 0 1
16.730325 -29.175802 19.147122 38.700691 -1.050142 1.053251 0.075033 -0.025681 -57714.800000 0 0 1
15.351225 -29.011902 19.829322 38.347784 -1.084113 1.027347 0.068526 -0.021017 232730.000000 0 0 1
14.360225 -28.422102 18.998322 37.080563 -1.102959 1.032874 0.073568 -0.027207 101387.000000 0 0 1
13.157125 -28.193802 19.722722 36.837293 -1.134169 1.005814 0.065572 -0.026996 318220.000000 0 0 1
12.106225 -27.616902 18.731822 35.498382 -1.157662 1.014928 0.073437 -0.034781 -346336.000000 0 0 1
11.770425 -28.530002 17.753722 35.604755 -1.179507 1.048775 0.078198 -0.032507 -7108.630000 0 0 1
10.993725 -27.901602 16.763522 34.356616 -1.195458 1.061083 0.102668 -0.034898 -203634.000000 0 0 1
10.757025 -28.836802 15.506822 34.463550 -1.213753 1.104089 0.093137 -0.030003 -242056.000000 0 0 1
9.736125 -29.797102 15.637022 35.031070 -1.254985 1.108085 0.105625 -0.029499 -77715.400000 0 0 1
9.580525 -30.672702 14.511522 35.258834 -1.268051 1.146619 0.078134 -0.024883 -558404.000000 0 0 1
8.303625 -31.480902 14.611622 35.686088 -1.312903 1.148947 0.070714 -0.020420 -805123.000000 0 0 1
8.239825 -32.520902 15.566422 36.984014 -1.322648 1.136364 0.078754 -0.020057 -2205.200000 0 0 1
7.291125 -33.507902 15.171322 37.498120 -1.356542 1.154267 0.090349 -0.018130 -62036.400000 0 0 1
7.350525 33.087581 16.024422 37.491337 1.352193 1.129163 0.081568 -0.020238 976782.000000 0 0 1
8.623925 32.420581 15.799222 37.082093 1.310815 1.130662 0.072891 -0.026696 899764.000000 0 0 1
8.693325 31.536781 16.890422 36.816149 1.301820 1.094177 0.076107 -0.027612 38235.800000 0 0 1
10.064525 30.841781 17.029022 36.640111 1.255364 1.087428 0.067205 -0.032448 -85915.200000 0 0 1
10.494225 30.054581 15.925922 35.595528 1.234859 1.106925 0.084301 -0.030349 -271338.000000 0 0 1
11.622125 29.280681 16.245122 35.444831 1.192947 1.094691 0.069700 -0.030187 -462945.000000 0 0 1
12.337225 28.777781 15.025522 34.729442 1.165790 1.123372 0.068595 -0.023592 -389926.000000 0 0 1
11.523525 27.891881 14.285122 33.388821 1.179006 1.128693 0.084473 -0.033009 135508.000000 0 0 1
12.242625 27.237681 13.255622 32.672384 1.148380 1.153037 0.078042 -0.023803 -2952.640000 0 0 1
-9.164051 -8.892219 19.425835 23.246816 0.770345 0.581510 0.061533 -0.028788 33682.100000 0 1 0
-9.487251 -9.290119 18.112635 22.458446 0.774900 0.632596 0.065615 -0.026235 49213.700000 0 1 0
-9.576551 -10.697419 17.977635 23.007400 0.840628 0.673914 0.075447 -0.024899 5416.220000 0 1 0
-9.861651 -11.056019 16.540535 22.205338 0.842435 0.730426 0.073201 -0.017340 933985.000000 0 1 0
-11.206051 -10.802419 16.077435 22.377483 0.767060 0.769204 0.086229 -0.034081 940843.000000 0 1 0
-11.422451 -11.015319 14.697335 21.629177 0.767255 0.823696 0.069454 -0.033141 2044.330000 0 1 0
-11.570351 -12.459319 14.147035 22.118912 0.822376 0.876831 0.055243 -0.033054 328657.000000 0 1 0
-10.321051 -13.138019 13.906235 21.737410 0.904906 0.876640 0.060045 -0.024830 844566.000000 0 1 0
-10.392251 -14.534719 14.076835 22.746741 0.950077 0.903518 0.079125 -0.025544 -40950.400000 0 1 0
-10.150051 -14.917419 15.572235 23.833746 0.973335 0.858770 0.099294 -0.026182 24726.500000 0 1 0
-11.272651 -14.635319 16.370135 24.682920 0.914469 0.845687 0.093775 -0.020844 -46481.800000 0 1 0
-10.962551 -14.932119 17.732735 25.643627 0.937511 0.807224 0.112358 -0.019996 275010.000000 0 0 1
-12.155051 -14.568219 18.664335 26.614576 0.875456 0.793601 0.078051 -0.029895 -105269.000000 0 0 1
-12.576251 -13.221319 18.499035 25.984220 0.810398 0.778549 0.090379 -0.031725 5513.060000 0 0 1
-13.730051 -13.011619 17.716935 25.917298 0.758539 0.818119 0.101354 -0.035058 255417.000000 0 0 1
-15.089651 -13.188919 18.466535 27.251754 0.718285 0.826265 0.077198 -0.029292 -84830.400000 0 0 1
-15.350451 -14.546519 18.733535 28.252131 0.758515 0.845865 0.081460 -0.022736 -462092.000000 0 0 1
-16.397351 -14.589319 19.653335 29.461414 0.727116 0.840504 0.094576 -0.034348 -440793.000000 0 0 1
-16.938251 -15.966419 20.016935 30.700302 0.755872 0.860563 0.077459 -0.022071 -262992.000000 0 0 1
-17.751851 -16.615019 19.080235 30.906997 0.752331 0.905435 0.076196 -0.003367 -160275.000000 0 0 1
-17.976351 -18.017119 19.466935 32.042586 0.786531 0.917845 0.045731 -0.014236 112115.000000 0 0 1
-19.302851 -18.584319 18.870135 32.772839 0.766435 0.957231 0.047818 0.001542 118220.000000 0 0 1
-19.315351 -18.739119 17.474535 32.087330 0.770257 0.994893 0.041571 -0.000265 10462.500000 0 0 1
-19.757151 -17.533319 16.875135 31.345374 0.725833 1.002305 0.036357 -0.003270 -613974.000000 0 0 1
-19.449851 -17.340919 15.325735 30.230487 0.728139 1.039139 0.043846 -0.010584 -419430.000000 0 0 1
-20.024051 -18.372819 14.598835 30.848810 0.742420 1.077833 0.050692 -0.017312 17747.400000 0 0 1
-19.742751 -18.172719 13.245935 29.924550 0.744013 1.112251 0.074126 -0.020494 -49501.000000 0 0 1
-20.047251 -19.383319 12.309435 30.481593 0.768562 1.155095 0.080834 -0.014794 -136567.000000 0 0 1
-19.121551 -20.420019 12.539935 30.657150 0.818224 1.149397 0.069317 -0.007955 974.870000 0 0 1
-19.314451 -21.633319 11.814735 31.315116 0.841968 1.183933 0.061808 -0.006536 -471501.000000 0 0 1
-18.480051 -22.825419 12.340235 31.855822 0.890213 1.173011 0.049053 -0.006123 3323.170000 0 0 1
-18.641851 -23.976719 11.565035 32.498487 0.909928 1.206958 0.062462 -0.014556 44194.300000 0 0 1
-17.834851 -23.976819 10.411835 31.644526 0.931251 1.235526 0.063407 -0.010520 -409746.000000 0 0 1
-18.042651 -25.213509 9.559335 32.444401 0.949681 1.271720 0.078770 -0.014493 1689620.000000 0 0 1
-19.389751 -25.232649 8.970135 33.062249 0.915598 1.296042 0.065057 -0.012139 1352270.000000 0 0 1
-19.588651 -26.366519 8.125035 33.836737 0.931831 1.328302 0.071965 -0.012580 -125002.000000 0 0 1
-20.816651 -26.303669 7.224235 34.313343 0.901323 1.358672 0.066895 -0.014834 -235560.000000 0 0 1
-20.749751 -25.249849 6.323635 33.288067 0.882917 1.379668 0.090917 -0.019044 545010.000000 0 0 1
-21.879951 -25.240299 5.438835 33.843550 0.856592 1.409391 0.092025 -0.020840 506360.000000 0 0 1
-21.755351 -23.960219 4.598835 32.688479 0.833591 1.429641 0.096662 -0.028851 -3408.100000 0 0 1
-22.696051 -23.847419 3.559235 33.113113 0.810131 1.463101 0.099978 -0.029165 4403.600000 0 0 1
-22.513351 -22.663419 2.835735 32.070593 0.788720 1.482259 0.100868 -0.021407 51289.100000 0 0 1
-23.010851 -22.720919 1.386535 32.367605 0.779058 1.527946 0.089543 -0.020623 -57360.900000 0 0 1
-22.318251 -23.666719 0.604135 32.535871 0.814714 1.552227 0.097857 -0.031590 38792.500000 0 0 1
-22.593551 -23.449219 -0.732965 32.571024 0.803980 1.593302 0.083697 -0.031302 -329410.000000 0 0 1
-21.642751 -24.129319 -1.733265 32.459773 0.839670 1.624219 0.090104 -0.035674 -343082.000000 0 0 1
-20.324351 -23.588619 -1.714965 31.184023 0.859597 1.625819 0.091483 -0.030982 458626.000000 0 0 1
-19.388451 -24.210719 -2.586665 31.124938 0.895555 1.653998 0.080503 -0.028434 338370.000000 0 0 1
-19.111251 -25.769019 -2.558765 32.184305 0.932669 1.650384 0.087094 -0.029395 -90803.900000 0 0 1
-20.240451 -26.435829 -3.145165 33.442801 0.917358 1.664982 0.118241 -0.030000 595633.000000 0 0 1
-19.860651 -27.777129 -3.509665 34.326842 0.950074 1.673218 0.105771 -0.023094 654046.000000 0 0 1
-21.108051 -28.577739 -4.048165 35.757861 0.934619 1.684250 0.113927 -0.025786 558232.000000 0 0 1
-21.709651 -27.979779 -5.165265 35.789061 0.910921 1.715627 0.100653 -0.022513 181655.000000 0 0 1
-22.525451 -28.968209 -5.842565 37.157618 0.909869 1.728689 0.115590 -0.035356 175399.000000 0 0 1
-23.200851 -28.395189 -7.118365 37.352876 0.885733 1.762540 0.108234 -0.005809 -363904.000000 0 0 1
-22.305751 -28.118069 -8.175565 36.810490 0.900161 1.794763 0.115331 -0.010404 -27931.900000 0 0 1
-22.826251 -28.227269 -9.488665 37.521343 0.890797 1.826460 0.109309 -0.006437 -482150.000000 0 0 1
-23.659551 -27.068059 -9.985365 37.311682 0.852490 1.841719 0.094170 -0.005095 -668093.000000 0 0 1
-22.991951 -25.804729 -10.174965 36.028374 0.842977 1.857107 0.086721 -0.010863 317259.000000 0 0 1
-22.768551 -25.058609 -8.977665 35.027692 0.833244 1.829991 0.065265 -0.014259 -71629.900000 0 0 1
-22.204951 -23.623819 -9.286365 33.725083 0.816348 1.849755 0.056580 -0.018628 903112.000000 0 0 1
-23.242151 -22.682719 -9.673465 33.886269 0.773217 1.860292 0.078299 -0.018865 861173.000000 0 0 1
-22.681851 -21.437419 -9.989765 32.769264 0.757200 1.880579 0.091212 -0.007121 -156562.000000 0 0 1
-23.764351 -20.426819 -10.331265 32.995974 0.710016 1.889259 0.107512 -0.007429 -589570.000000 0 0 1
-24.520251 -20.810419 -11.484065 34.149670 0.703741 1.913767 0.099336 -0.001368 800015.000000 0 0 1
-25.859791 -20.332519 -11.567265 34.870356 0.666307 1.908925 0.104079 -0.003337 347059.000000 0 0 1
-26.032541 -18.819119 -11.667065 34.175617 0.625935 1.919187 0.119382 -0.022022 -1338380.000000 0 0 1
-25.598801 -18.249919 -12.888665 33.977578 0.619345 1.959867 0.131625 -0.017972 378991.000000 0 0 1
-25.287041 -16.848219 -12.834065 32.984998 0.587734 1.970438 0.137212 -0.025411 363979.000000 0 0 1
-24.155451 -16.319119 -11.887065 31.481768 0.594153 1.957984 0.108187 -0.010627 -383748.000000 0 0 1
-24.533951 -16.420819 -10.525065 31.342224 0.589830 1.913262 0.138854 -0.015862 213582.000000 0 0 1
-23.521851 -16.348819 -9.546365 30.194278 0.607395 1.892480 0.114704 -0.018224 -82444.700000 0 0 1
-24.116751 -16.855919 -8.208665 30.547043 0.610007 1.842862 0.106330 -0.029501 285513.000000 0 0 1
-24.503151 -18.221519 -8.172065 31.610296 0.639418 1.832292 0.110266 -0.024664 114009.000000 0 0 1
-25.300621 -18.503219 -7.047365 32.127183 0.631448 1.791953 0.122254 -0.023213 46734.400000 0 0 1
-25.825261 -19.944119 -7.133565 33.400594 0.657603 1.786030 0.133911 -0.027098 9065.500000 0 0 1
-26.792131 -20.219919 -8.115865 34.533037 0.646500 1.808033 0.122002 -0.029655 166857.000000 0 0 1
-27.403401 -21.524219 -8.199565 35.797643 0.665811 1.801901 0.113919 -0.014975 658941.000000 0 0 1
-26.450611 -22.745719 -8.522365 35.911464 0.710232 1.810398 0.092619 -0.006595 395747.000000 0 0 1
-27.141021 -23.984219 -8.432265 37.188450 0.723730 1.799530 0.097786 -0.003552 -117269.000000 0 0 1
-26.439021 -25.027289 -9.062265 37.516818 0.757975 1.814761 0.074211 0.011183 -494436.000000 0 0 1
-26.923771 -26.393379 -8.592665 38.669546 0.775451 1.794874 0.084475 0.002546 -173369.000000 0 0 1
-26.535281 -26.864129 -7.300965 38.459155 0.791556 1.761792 0.108301 -0.010248 166344.000000 0 0 1
-27.039721 -28.177569 -7.099365 39.692856 0.806002 1.750621 0.097791 -0.006267 -60981.000000 0 0 1
-26.729671 -28.639709 -5.653065 39.581124 0.819881 1.714109 0.125124 -0.010798 59159.200000 0 0 1
-27.590761 -27.953919 -4.743765 39.562292 0.791936 1.690992 0.101263 -0.010157 351453.000000 0 0 1
-27.169351 -27.985139 -3.368165 39.149536 0.800188 1.656936 0.105718 -0.023035 -24245.600000 0 0 1
-27.654501 -29.224769 -2.520465 40.313909 0.812998 1.633358 0.095186 -0.011614 -418376.000000 0 0 1
-27.189221 -30.476549 -2.998965 40.952015 0.842343 1.644093 0.118001 -0.023337 -78857.400000 0 0 1
-27.201021 -31.519889 -2.068165 41.685444 0.858815 1.620430 0.106912 -0.028262 160258.000000 0 0 1
-26.060931 -31.437149 -1.018165 40.847314 0.878630 1.595725 0.115161 -0.036854 157766.000000 0 0 1
-24.778251 -31.869089 -1.477765 40.395350 0.909926 1.607387 0.117500 -0.040437 356437.000000 0 0 1
-23.866851 -31.779569 -0.387365 39.745661 0.926648 1.580543 0.113624 -0.033696 930526.000000 0 0 1
-22.747851 -30.656059 -0.375565 38.175905 0.932413 1.580634 0.123221 -0.029465 801593.000000 0 0 1
-23.308151 -29.367389 -0.056665 37.492888 0.899924 1.572308 0.109683 -0.036442 187588.000000 0 0 1
-23.611551 -28.590499 -1.213865 37.099803 0.880489 1.603521 0.131282 -0.046427 -204855.000000 0 0 1
-24.392851 -27.340559 -0.821765 36.649592 0.842315 1.593220 0.076634 -0.029470 938921.000000 0 0 1
-25.722541 -27.553229 -0.275665 37.694900 0.819747 1.578109 0.096386 -0.029153 1272590.000000 0 0 1
-26.504161 -26.383679 0.033635 37.397462 0.783120 1.569897 0.100651 -0.033668 386793.000000 0 0 1
-26.067131 -25.448999 1.163635 36.448606 0.773400 1.538866 0.093044 -0.029054 -442100.000000 0 0 1
-26.056201 -26.006089 2.448535 36.894953 0.784436 1.504382 0.073958 -0.024469 -280883.000000 0 0 1
-25.767581 -25.072619 3.498735 36.122646 0.771729 1.473787 0.073240 -0.023474 -41683.400000 0 0 1
-26.605551 -23.774019 3.794235 35.881130 0.729253 1.464854 0.098591 -0.017549 -79706.100000 0 0 1
-26.664181 -22.846819 2.736335 35.219926 0.708449 1.493025 0.100338 -0.021235 -74678.900000 0 0 1
-27.426751 -21.710419 3.061435 35.113264 0.669585 1.483498 0.088603 -0.019713 -56228.900000 0 0 1
-27.046861 -20.553419 2.149735 34.038171 0.649819 1.507598 0.105022 -0.011564 457945.000000 0 0 1
-25.770261 -19.991719 2.419035 32.705151 0.659789 1.496764 0.076307 -0.006573 148787.000000 0 0 1
-25.631181 -18.950619 1.532335 31.912873 0.636655 1.522762 0.071358 -0.006837 856363.000000 0 0 1
-24.254851 -18.170819 1.606135 30.348906 0.642965 1.517849 0.096190 -0.010415 1662580.000000 0 0 1
-23.120751 -19.047819 1.344335 29.986593 0.689110 1.525950 0.096368 -0.018323 100593.000000 0 0 1
-21.928651 -18.340119 1.515835 28.627320 0.696518 1.517821 0.107374 -0.015949 -938864.000000 0 0 1
-20.747251 -19.266819 1.309835 28.343860 0.748417 1.524568 0.101535 -0.024307 -958052.000000 0 0 1
-20.464351 -19.573319 0.008235 28.317919 0.763147 1.570506 0.061363 -0.018258 -396638.000000 0 0 1
-19.417751 -20.481219 0.046135 28.222890 0.812046 1.569162 0.076249 -0.011387 -589908.000000 0 0 1
-18.814151 -20.859419 -1.269965 28.119396 0.836905 1.615975 0.063143 -0.014196 -157928.000000 0 0 1
-18.124351 -19.841819 -1.939765 26.943507 0.830604 1.642852 0.057604 -0.015953 -136204.000000 0 0 1
-18.001051 -20.085919 -3.313565 27.174651 0.840083 1.693036 0.057329 -0.013408 175761.000000 0 0 1
-17.369051 -18.988119 -4.216865 26.077088 0.829901 1.733217 0.066866 -0.005767 8944.160000 0 0 1
-15.968951 -18.853519 -4.209365 25.063545 0.868046 1.739544 0.091474 -0.021260 -250201.000000 0 0 1
-15.599051 -18.039619 -5.285365 24.427307 0.857824 1.788892 0.100647 -0.016195 -92852.200000 0 1 0
-14.058951 -17.886119 -5.271465 23.352852 0.904635 1.798490 0.112784 -0.025115 162109.000000 0 1 0
-13.272651 -19.037519 -5.568465 23.866256 0.961963 1.806286 0.087724 -0.024114 -595004.000000 0 1 0
-12.007751 -18.729719 -6.035365 23.052420 1.000698 1.835694 0.094562 -0.035742 -1053830.000000 0 1 0
-11.075351 -19.911019 -5.885165 23.531834 1.063173 1.823573 0.108609 -0.043323 -360806.000000 0 1 0
-11.328751 -20.977819 -6.726565 24.772084 1.075636 1.845787 0.091481 -0.034107 -1354460.000000 0 1 0
-10.182251 -21.665819 -6.941665 24.925341 1.131461 1.853026 0.096881 -0.030539 -1068680.000000 0 1 0
-10.347151 -22.898119 -7.889265 26.336816 1.146382 1.875020 0.083809 -0.017466 34285.500000 0 0 1
-10.792151 -22.572619 -9.222665 26.665543 1.124815 1.923956 0.075045 -0.019840 111237.000000 0 0 1
-10.869051 -23.765819 -9.959565 27.966825 1.141856 1.934909 0.082321 -0.023018 -197523.000000 0 0 1
-11.676551 -23.403519 -11.233565 28.465057 1.108011 1.976477 0.106388 -0.029971 -393339.000000 0 0 1
-11.017451 -22.661819 -12.208665 27.999888 1.118275 2.021974 0.092111 -0.024808 -413227.000000 0 0 1
-11.823651 -22.275419 -13.308265 28.514959 1.082818 2.056365 0.097489 -0.031685 -731960.000000 0 0 1
-11.294851 -21.132919 -14.172365 27.839357 1.079957 2.104908 0.079331 -0.019368 -308659.000000 0 0 1
-11.222351 -19.954519 -13.409165 26.531673 1.058486 2.100644 0.085318 -0.024878 -139716.000000 0 0 1
-11.001851 -18.809419 -14.187265 26.002181 1.041545 2.147923 0.070301 -0.016283 -13772.800000 0 0 1
-10.626251 -17.556919 -13.329965 24.471423 1.026529 2.146846 0.092731 -0.018018 587027.000000 0 1 0
-11.692151 -17.041619 -12.503165 24.154757 0.969464 2.114872 0.099288 -0.024642 777591.000000 0 1 0
-11.113251 -16.122119 -11.570465 22.744289 0.967276 2.104493 0.082776 -0.027112 225392.000000 0 1 0
-10.922351 -14.666719 -12.117165 21.937093 0.930694 2.155989 0.085811 -0.015397 -249475.000000 0 1 0
-12.087851 -14.043719 -12.583865 22.398567 0.860106 2.167375 0.088026 -0.005078 -350295.000000 0 1 0
-12.086351 -14.188819 -13.970665 23.293388 0.865245 2.214009 0.102456 -0.017638 -376163.000000 0 1 0
-13.130451 -13.368319 -14.717365 23.826907 0.794374 2.236583 0.091814 -0.019641 -599884.000000 0 1 0
-12.943151 -11.983319 -14.719265 22.973503 0.746911 2.266214 0.060461 0.000346 -525112.000000 0 1 0
-13.915551 -11.285819 -15.412565 23.633861 0.681426 2.281199 0.055124 -0.009086 -540573.000000 0 1 0
-14.256751 -9.973919 -14.644765 22.742100 0.610453 2.270446 0.068152 -0.014432 459534.000000 0 1 0
-13.290351 -8.900219 -14.676165 21.707997 0.590083 2.313215 0.060432 -0.016179 617685.000000 0 1 0
-13.439951 -8.155319 -15.880665 22.345850 0.545402 2.361255 0.066519 -0.014976 454251.000000 0 1 0
-12.396651 -6.970219 -15.827565 21.278456 0.512212 2.409580 0.054460 -0.006004 96430.400000 0 1 0
-11.090951 -7.418019 -16.052565 20.873932 0.589502 2.448110 0.047626 -0.009943 -645336.000000 0 1 0
-10.211651 -6.371319 -15.743265 19.817212 0.557827 2.488855 0.035308 -0.003336 18271.200000 0 1 0
12.007649 22.084181 15.762935 29.670943 1.072786 1.010711 0.090219 -0.021127 18390.000000 0 0 1
12.817749 21.952881 16.932735 30.544087 1.042317 0.983190 0.113770 -0.026993 130362.000000 0 0 1
13.211949 20.595381 17.144735 29.877538 1.000419 0.959617 0.105681 -0.019585 -54301.800000 0 0 1
14.333749 20.503781 18.194635 30.933900 0.960689 0.941992 0.104436 -0.030103 510338.000000 0 0 1
15.565649 21.144081 17.788935 31.714474 0.936205 0.975313 0.085770 -0.022177 449361.000000 0 0 1
16.594849 20.696181 18.651835 32.428566 0.894940 0.957988 0.093505 -0.029120 95215.100000 0 0 1
18.005249 21.169681 18.234335 33.239064 0.866000 0.990130 0.075856 -0.010808 -579019.000000 0 0 1
18.231649 22.519881 18.506835 34.380824 0.890241 1.002390 0.080873 -0.016015 -80924.400000 0 0 1
19.405149 23.003681 17.897735 35.015113 0.870049 1.034282 0.074134 -0.014488 1283710.000000 0 0 1
20.814349 22.643181 18.535535 35.909844 0.827457 1.028425 0.068704 -0.016581 650209.000000 0 0 1
21.275449 21.315481 18.384035 35.284093 0.786338 1.022740 0.068094 -0.007378 1206750.000000 0 0 1
22.654849 21.043381 18.724735 36.148054 0.748538 1.026284 0.073566 -0.011278 1007710.000000 0 0 1
22.934549 19.587381 18.516235 35.390818 0.706844 1.020203 0.064662 -0.007690 -237838.000000 0 0 1
22.747649 19.146781 17.174135 34.336653 0.699658 1.047002 0.051655 -0.007280 203185.000000 0 0 1
22.432449 17.733581 17.067735 33.301686 0.668941 1.032681 0.046535 -0.002228 566800.000000 0 0 1
23.557549 16.695781 17.508735 33.767781 0.616556 1.025696 0.048497 -0.006381 705423.000000 0 0 1
24.532449 16.440181 16.521835 33.839203 0.590404 1.060718 0.064725 -0.020180 -309498.000000 0 0 1
25.472049 15.491881 16.926835 34.283253 0.546421 1.054417 0.042979 -0.010302 -313671.000000 0 0 1
26.817649 15.699481 16.160635 35.026078 0.529627 1.091237 0.143610 -0.043412 -445570.000000 0 0 1
27.543649 16.779181 16.746735 36.340703 0.547146 1.091871 0.119091 -0.043189 569246.000000 0 0 1
28.619949 16.524381 17.653335 37.467278 0.523616 1.080183 0.130790 -0.052255 810776.000000 0 0 1
29.787449 15.573781 17.195935 37.756258 0.481745 1.097923 0.139061 -0.065315 -1070920.000000 0 0 1
30.666149 16.157481 16.329035 38.315980 0.484922 1.130544 0.183889 -0.055792 -609006.000000 0 0 1
31.195149 15.054581 15.585935 37.982879 0.449626 1.147968 0.188156 -0.054092 369002.000000 0 0 1
30.380349 14.748181 14.245235 36.652438 0.451941 1.171623 0.149410 -0.046093 104288.000000 0 0 1
30.481049 15.833381 13.353135 36.852361 0.479086 1.200018 0.147845 -0.024493 86586.600000 0 0 1
29.728249 15.454781 12.219635 35.664248 0.479416 1.221082 0.132335 -0.024441 726664.000000 0 0 1
28.281149 16.048581 12.169835 34.720099 0.516154 1.212678 0.127375 -0.040437 -24554.400000 0 0 1
28.271349 17.450681 11.774935 35.248327 0.553012 1.230192 0.104218 -0.027315 -26338.400000 0 0 1
28.751649 18.430981 12.711935 36.441072 0.570051 1.214468 0.107273 -0.037029 -364173.000000 0 0 1
28.101749 18.568581 14.063835 36.500575 0.583904 1.175259 0.107829 -0.037137 236451.000000 0 0 1
26.788049 19.134181 14.078035 35.803737 0.620246 1.166687 0.103052 -0.027293 409881.000000 0 0 1
26.203649 19.177481 15.368835 35.925035 0.631792 1.128736 0.085987 -0.032029 -82600.400000 0 0 1
26.833149 20.010481 16.533135 37.333388 0.640767 1.112020 0.093781 -0.038512 -255583.000000 0 0 1
26.836149 21.349281 16.242535 37.944574 0.672017 1.128452 0.068515 -0.031964 264265.000000 0 0 1
25.625149 22.030081 16.545635 37.626198 0.710102 1.115490 0.064124 -0.031401 64532.300000 0 0 1
25.651649 23.510281 16.256535 38.405929 0.741868 1.133732 0.063734 -0.024133 -76824.900000 0 0 1
25.430449 23.799481 14.870735 37.871649 0.752281 1.167273 0.094990 -0.041007 123650.000000 0 0 1
25.645649 25.171381 14.685935 38.819769 0.776066 1.182826 0.112211 -0.039599 -290304.000000 0 0 1
25.248549 25.645681 13.301335 38.368160 0.793201 1.216771 0.114479 -0.037117 610614.000000 0 0 1
23.823549 25.578281 13.125635 37.337545 0.820903 1.211581 0.110134 -0.039665 466990.000000 0 0 1
23.439549 25.800681 11.814535 36.805854 0.833313 1.244015 0.099755 -0.047204 -292022.000000 0 0 1
22.993249 24.539981 11.080835 35.407416 0.817927 1.252496 0.116620 -0.045425 -165880.000000 0 0 1
21.650049 24.134381 11.303335 34.335963 0.839607 1.235342 0.120117 -0.044528 128839.000000 0 0 1
21.318449 22.816181 10.884035 33.068363 0.819321 1.235406 0.116566 -0.042761 -141885.000000 0 0 1
21.183849 22.461681 9.385635 32.270308 0.814667 1.275687 0.135339 -0.043417 -1206270.000000 0 0 1
19.931049 22.797381 8.952835 31.577216 0.852380 1.283331 0.138859 -0.041841 -1124600.000000 0 0 1
20.001949 23.279981 7.616735 31.623570 0.860991 1.327548 0.128295 -0.036636 283985.000000 0 0 1
18.673749 23.579481 6.847235 30.847779 0.900984 1.346963 0.110562 -0.025985 -279269.000000 0 0 1
18.185049 22.436281 6.183435 29.535023 0.889674 1.359877 0.126378 -0.021567 461615.000000 0 0 1
17.487149 22.664881 4.945035 29.050828 0.913644 1.399743 0.130256 -0.025661 1148470.000000 0 0 1
16.066749 23.364881 4.953335 28.785303 0.968410 1.397857 0.110345 -0.015669 537908.000000 0 0 1
16.075749 24.792281 5.178235 29.998351 0.995534 1.397310 0.120677 -0.025273 -775541.000000 0 0 1
14.991449 25.113081 5.942035 29.844902 1.032617 1.370360 0.105722 -0.030411 -1023650.000000 0 0 1
14.740949 26.589581 5.741435 30.939708 1.064590 1.384146 0.096685 -0.031793 -203601.000000 0 0 1
14.351349 26.820281 4.402035 30.735430 1.079470 1.427079 0.083504 -0.018217 270935.000000 0 0 1
14.274449 28.174681 4.023635 31.839633 1.101850 1.444086 0.077967 -0.023968 -245830.000000 0 0 1
13.784749 28.410481 2.579835 31.683281 1.119059 1.489280 0.086359 -0.020451 -48386.200000 0 0 1
14.768349 28.159381 1.593535 31.836995 1.087776 1.520722 0.103461 -0.027899 185360.000000 0 0 1
14.617449 26.866781 0.992335 30.601936 1.072516 1.538363 0.090084 -0.019243 145478.000000 0 0 1
15.765249 26.540881 0.002535 30.870074 1.034801 1.570714 0.094228 -0.027591 251418.000000 0 0 1
15.572649 27.134881 -1.306365 31.313189 1.049791 1.612528 0.096346 -0.017193 513940.000000 0 0 1
16.596149 26.668181 -2.220865 31.488987 1.014126 1.641383 0.089911 -0.021987 573082.000000 0 0 1
16.441849 27.197081 -3.640365 31.988559 1.027042 1.684845 0.092621 -0.029908 160007.000000 0 0 1
15.367549 26.650781 -4.426765 31.080894 1.047740 1.713710 0.111354 -0.033731 99612.100000 0 0 1
15.299149 27.165981 -5.716565 31.697533 1.057896 1.752136 0.104327 -0.017453 629740.000000 0 0 1
13.957749 26.907781 -6.483965 30.998214 1.092281 1.781525 0.115243 -0.034739 606135.000000 0 0 1
13.746049 25.631181 -7.042165 29.924963 1.078531 1.808352 0.107777 -0.030723 -636939.000000 0 0 1
12.426649 25.564281 -7.487265 29.394102 1.118335 1.828354 0.082349 -0.032975 -387006.000000 0 0 1
11.950849 24.217181 -8.004565 28.166784 1.112373 1.858952 0.096659 -0.024377 -124627.000000 0 0 1
12.649849 23.756681 -9.146065 28.426204 1.081507 1.898371 0.086742 -0.029451 23941.500000 0 0 1
12.286449 22.421281 -9.533865 27.286723 1.069504 1.927722 0.094264 -0.016731 -79696.500000 0 0 1
12.911149 21.800381 -10.790265 27.538776 1.036099 1.973406 0.096719 -0.020062 -400617.000000 0 0 1
12.206349 20.632481 -11.152165 26.439838 1.036570 2.006219 0.101597 -0.022125 -85915.300000 0 0 1
12.417449 20.164381 -12.479365 26.768075 1.018832 2.055791 0.094527 -0.022844 -437282.000000 0 0 1
13.726949 19.414881 -12.756665 26.983314 0.955366 2.063218 0.106018 -0.014054 -748274.000000 0 0 1
14.774049 20.300481 -12.588965 28.086725 0.941676 2.035567 0.096350 -0.014369 -1102990.000000 0 0 1
15.974949 19.789081 -13.162165 28.636503 0.891644 2.048374 0.084414 -0.008301 516994.000000 0 0 1
17.113149 20.834581 -12.969565 29.919045 0.883153 2.019157 0.084887 0.000507 -125866.000000 0 0 1
17.242949 21.940581 -13.889465 31.170910 0.904717 2.032630 0.069020 -0.007547 -76288.600000 0 0 1
16.141049 22.823281 -14.023965 31.274706 0.955242 2.035785 0.070685 -0.010298 253788.000000 0 0 1
16.535849 24.285881 -14.570565 32.795422 0.973016 2.031174 0.068459 -0.006773 391202.000000 0 0 1
17.037449 24.407481 -15.886365 33.739834 0.961386 2.061049 0.045433 -0.006336 -409453.000000 0 0 1
15.984649 24.292281 -16.774665 33.571019 0.988808 2.094022 0.039422 -0.002422 -271425.000000 0 0 1
16.480449 24.284581 -18.237865 34.553810 0.974551 2.126817 0.035311 0.002535 6767.310000 0 0 1
16.809949 23.001081 -18.742165 34.101215 0.939675 2.152686 0.031650 0.011798 -104222.000000 0 0 1
16.860749 23.147481 -20.120565 34.998970 0.941260 2.183266 0.039460 0.013320 -273302.000000 0 0 1
17.210349 21.829881 -20.817565 34.729106 0.903178 2.213581 0.054031 0.012951 -341388.000000 0 0 1
16.197149 20.836781 -20.779565 33.590317 0.910029 2.237778 0.062437 0.016909 -60010.700000 0 0 1
16.507949 19.691381 -21.619265 33.580582 0.873114 2.270254 0.050934 0.018262 -79473.100000 0 0 1
15.539549 18.488681 -21.726365 32.486056 0.871849 2.303377 0.061752 0.010244 -340820.000000 0 0 1
15.270949 17.905081 -20.454765 31.179981 0.864631 2.286333 0.069636 0.003581 309771.000000 0 0 1
14.538549 16.675981 -20.441565 30.121675 0.853767 2.316696 0.084685 -0.011864 791412.000000 0 0 1
12.994649 16.676081 -20.721165 29.602690 0.908843 2.346160 0.103337 -0.024480 249962.000000 0 0 1
12.216649 17.133481 -19.623865 28.773230 0.951380 2.321315 0.088922 -0.017221 -943072.000000 0 0 1
10.997649 17.476381 -20.168565 28.864220 1.009121 2.344430 0.093377 -0.017980 -232402.000000 0 0 1
9.709049 17.067381 -19.378465 27.587788 1.053584 2.349601 0.108092 -0.025476 213968.000000 0 0 1
9.421249 15.671081 -19.387665 26.650033 1.029505 2.385455 0.127140 -0.034560 1300170.000000 0 0 1
8.048249 15.338081 -19.034565 25.736078 1.087566 2.403281 0.117169 -0.025112 1432110.000000 0 0 1
7.632749 15.560381 -17.570465 24.680064 1.114758 2.363038 0.114877 -0.024529 -392697.000000 0 1 0
7.260549 16.846881 -17.196065 25.144336 1.163877 2.323883 0.113664 -0.026301 -429631.000000 0 0 1
6.676149 16.804281 -15.938465 24.103724 1.192630 2.293273 0.085026 -0.033534 -209830.000000 0 1 0
6.077849 18.166681 -15.412765 24.587027 1.247942 2.248320 0.074331 -0.028831 25740.400000 0 1 0
6.998149 19.230681 -15.148265 25.461012 1.221788 2.208011 0.072403 -0.027551 330297.000000 0 0 1
7.762949 19.669381 -16.299765 26.698881 1.194892 2.227493 0.092390 -0.027384 503375.000000 0 0 1
9.131849 20.335181 -15.975565 27.424969 1.148719 2.192621 0.089721 -0.013583 385238.000000 0 0 1
9.042949 21.623581 -15.403065 28.046543 1.174701 2.152199 0.082835 -0.027096 -206768.000000 0 0 1
8.821149 21.556081 -14.011665 27.180950 1.182368 2.112382 0.069141 -0.017255 -66443.700000 0 0 1
8.365149 22.950181 -13.431665 27.876445 1.221270 2.073537 0.058641 -0.019626 653094.000000 0 0 1
7.022449 23.399081 -13.688765 28.003823 1.279233 2.081530 0.050560 -0.015920 873600.000000 0 0 1
6.511149 24.376881 -12.757665 28.273405 1.309786 2.038934 0.034439 -0.015243 -1175.160000 0 0 1
6.036949 23.898081 -11.378365 27.148301 1.323361 2.003271 0.024933 -0.009857 -357109.000000 0 0 1
7.051349 23.604881 -10.441365 26.756944 1.280510 1.971678 0.023086 -0.010699 20696.600000 0 0 1
6.466249 23.045581 -9.290365 25.675320 1.297245 1.941037 0.036516 -0.015819 447597.000000 0 0 1
7.478249 22.952881 -8.097365 25.462252 1.255833 1.894431 0.032427 -0.014111 302037.000000 0 0 1
7.572249 24.140581 -7.333665 26.341778 1.266843 1.852929 0.027000 -0.016272 -5798.610000 0 0 1
8.373549 23.969781 -6.189565 26.133837 1.234712 1.809909 0.041930 -0.013343 -193136.000000 0 0 1
8.550149 25.249981 -5.440665 27.207856 1.244295 1.772120 0.029288 -0.007257 470259.000000 0 0 1
9.297049 26.290981 -6.159465 28.558533 1.230899 1.788183 0.055566 -0.015249 493396.000000 0 0 1
9.559149 27.410081 -5.370065 29.521644 1.235239 1.753717 0.049086 -0.012503 120954.000000 0 0 1
9.789849 28.678481 -6.189665 30.929086 1.241834 1.772281 0.050521 -0.014632 373938.000000 0 0 1
11.030449 28.649281 -6.889265 31.462900 1.203273 1.791550 0.065981 -0.019543 5822.110000 0 0 1
11.182049 29.580581 -7.964065 32.610970 1.209381 1.817506 0.062851 -0.014572 1135760.000000 0 0 1
12.653249 29.707681 -8.544565 33.401506 1.168142 1.829486 0.085708 -0.020874 1280030.000000 0 0 1
13.645649 30.021381 -7.591965 33.839696 1.144181 1.797073 0.088580 -0.016081 348708.000000 0 0 1
14.846349 30.412281 -8.277265 34.840121 1.116658 1.810669 0.079390 -0.017255 483078.000000 0 0 1
16.060749 30.863181 -7.474065 35.585745 1.090974 1.782402 0.080823 -0.014037 -72399.900000 0 0 1
16.754749 29.830681 -6.787165 34.880607 1.059044 1.766628 0.087476 -0.022133 -391280.000000 0 0 1
17.870449 30.398881 -6.149765 35.794756 1.039347 1.743459 0.084912 -0.013526 111596.000000 0 0 1
19.063849 29.446381 -5.908965 35.572961 0.996245 1.737678 0.082597 -0.017393 -154865.000000 0 0 1
18.965449 28.631781 -4.790065 34.675811 0.985759 1.709378 0.093718 -0.023644 431879.000000 0 0 1
20.047349 27.698781 -4.529665 34.491108 0.944300 1.702505 0.076640 -0.021075 380710.000000 0 0 1
20.116549 26.476981 -5.454265 33.696515 0.921069 1.733376 0.070564 -0.011069 -23965.800000 0 0 1
20.591349 26.731481 -6.796465 34.420454 0.914427 1.769557 0.059030 -0.009992 325264.000000 0 0 1
20.467049 25.691381 -7.668565 33.730610 0.898101 1.800149 0.060675 -0.014125 -760256.000000 0 0 1
20.985849 25.951681 -9.136565 34.603070 0.890803 1.838004 0.051379 -0.017082 -220724.000000 0 0 1
22.372149 26.120481 -9.226165 35.607790 0.862542 1.832892 0.043396 -0.011147 80973.100000 0 0 1
23.202349 24.952481 -9.098265 35.266893 0.821726 1.831730 0.053446 -0.010491 -778829.000000 0 0 1
24.683449 25.276281 -9.064665 36.473706 0.797264 1.821955 0.008726 -0.002924 -739264.000000 0 0 1
25.270649 25.606381 -10.307465 37.423740 0.791997 1.849829 0.023440 -0.004752 -1233420.000000 0 0 1
26.618249 25.794381 -10.076265 38.411097 0.769681 1.836229 0.022502 0.008261 -869490.000000 0 0 1
27.409849 25.513181 -11.366465 39.133346 0.749575 1.865498 0.039841 0.003751 -113194.000000 0 0 1
27.108849 26.463481 -12.342565 39.844001 0.773352 1.885750 0.027864 0.002369 -85646.800000 0 0 1
28.058249 26.490081 -13.389965 40.844595 0.756658 1.904799 0.051781 -0.001554 144410.000000 0 0 1
27.873449 27.658181 -14.396665 41.823057 0.781522 1.922213 0.054487 -0.009464 -16310.900000 0 0 1
28.131049 28.980081 -13.989465 42.742323 0.800263 1.904239 0.048244 -0.011877 14354.800000 0 0 1
28.221949 29.804581 -15.172365 43.760623 0.812666 1.924860 0.053684 -0.011867 -38365.600000 0 0 1
28.702049 31.273081 -14.976265 45.012240 0.828240 1.909978 0.058655 -0.013007 815478.000000 0 0 1
30.099049 31.403181 -14.670365 45.905688 0.806600 1.896079 0.054916 -0.009312 792911.000000 0 0 1
30.463249 32.784181 -14.811965 47.140284 0.822078 1.890421 0.052720 -0.015214 75294.500000 0 0 1
15.892349 -31.964202 -27.776948 45.230917 -1.109398 2.232059 0.098969 -0.044506 -376967.000000 0 0 1
17.117249 -32.536202 -27.402268 45.852906 -1.086489 2.211316 0.082468 -0.035160 -183648.000000 0 0 1
17.373249 -32.193802 -26.047958 44.908427 -1.075937 2.189554 0.090848 -0.045074 -56335.500000 0 0 1
18.746749 -32.774202 -25.576018 45.603965 -1.051222 2.166183 0.040213 -0.039319 1247720.000000 0 0 1
19.966949 -32.215002 -26.104898 46.021203 -1.015943 2.173943 0.076871 -0.056163 1053890.000000 0 0 1
20.202349 -32.561602 -27.462378 47.144194 -1.015487 2.192620 0.077781 -0.039954 -1698920.000000 0 0 1
21.628149 -32.295902 -27.867808 47.826947 -0.980706 2.192819 0.084983 -0.043412 -930133.000000 0 0 1
22.123349 -31.004102 -28.084418 47.322632 -0.951026 2.206156 0.085147 -0.053843 291215.000000 0 0 1
23.526049 -30.982302 -27.881978 47.862122 -0.921345 2.192656 0.058344 -0.038958 -115734.000000 0 0 1
24.190249 -29.709302 -28.441168 47.714891 -0.887438 2.209387 0.040359 -0.032164 -236676.000000 0 0 1
24.504049 -29.771502 -29.823788 48.746786 -0.882145 2.229144 0.048287 -0.026896 -73824.900000 0 0 1
25.400849 -28.769702 -30.238708 48.859783 -0.847508 2.238122 0.042697 -0.027507 72768.600000 0 0 1
25.635349 -28.781002 -31.790248 49.961356 -0.843141 2.260485 0.050243 -0.020077 734946.000000 0 0 1
26.765449 -29.601802 -32.154598 51.250114 -0.835675 2.249013 0.056088 -0.024877 460223.000000 0 0 1
26.682949 -30.032302 -33.489708 52.301812 -0.844385 2.265706 0.049051 -0.020826 -72156.600000 0 0 1
27.972849 -30.754402 33.936065 53.665353 -0.832727 0.886195 0.029900 -0.018862 647455.000000 0 0 1
29.088949 -29.866602 33.862505 53.710801 -0.798588 0.888651 0.027315 -0.025181 270403.000000 0 0 1
30.292749 -30.536702 33.526383 54.535853 -0.789409 0.908716 0.022971 -0.011967 1391720.000000 0 0 1
31.596149 -29.627602 33.473980 54.741381 -0.753256 0.912850 0.025252 -0.027810 855541.000000 0 0 1
31.762349 -28.763802 32.374371 53.705708 -0.735897 0.923777 0.035649 -0.025330 259403.000000 0 0 1
33.048849 -28.152802 32.381848 54.160787 -0.705570 0.929938 0.032962 -0.031318 351008.000000 0 0 1
33.255249 -27.297902 31.141795 53.112131 -0.687332 0.944262 0.044806 -0.030700 -815708.000000 0 0 1
34.526149 -26.717702 31.101325 53.602080 -0.658585 0.951790 0.029401 -0.034495 -209737.000000 0 0 1
34.635049 -25.782202 30.026735 52.591952 -0.639905 0.963149 0.041321 -0.026335 -118946.000000 0 0 1
35.313849 -26.330402 28.702225 52.575429 -0.640686 0.993304 0.042496 -0.019222 -76837.700000 0 0 1
34.624149 -27.282002 27.875395 52.155316 -0.667348 1.006917 0.031972 -0.026847 201835.000000 0 0 1
33.412749 -26.893502 27.278265 50.830857 -0.677714 1.004337 0.031914 -0.023801 -90756.000000 0 0 1
32.728849 -27.926702 26.361935 50.458199 -0.706392 1.021073 0.026150 -0.024771 336437.000000 0 0 1
31.351949 -27.717602 26.084785 49.311522 -0.723949 1.013399 0.045848 -0.013644 352794.000000 0 0 1
30.968749 -28.505702 24.978125 48.944307 -0.744008 1.035219 0.044705 -0.013144 -879564.000000 0 0 1
29.685349 -28.093902 24.331405 47.565792 -0.757862 1.033830 0.043166 -0.006668 -362137.000000 0 0 1
28.541349 -28.092402 25.196965 47.314678 -0.777471 1.009197 0.051597 -0.008310 427102.000000 0 0 1
27.349149 -27.948902 24.439395 46.112917 -0.796244 1.012207 0.066458 -0.001901 124555.000000 0 0 1
26.115049 -27.983302 25.349535 45.909258 -0.819919 0.985836 0.081978 -0.006419 -378831.000000 0 0 1
26.053349 -26.859602 26.214825 45.688426 -0.800634 0.959690 0.079141 -0.005838 62702.200000 0 0 1
24.799049 -26.783102 26.858055 45.317574 -0.823843 0.936435 0.090780 -0.008450 -51338.700000 0 0 1
24.651449 -25.547902 27.777045 45.077195 -0.803254 0.906874 0.087719 -0.009650 39180.900000 0 0 1
23.447049 -25.511702 28.557395 44.901402 -0.827544 0.881490 0.088180 -0.009112 531497.000000 0 0 1
23.466449 -24.623902 29.679065 45.142637 -0.809462 0.853366 0.085172 -0.010004 -264139.000000 0 0 1
23.016849 -23.190202 29.350975 43.920844 -0.789150 0.838916 0.085320 -0.009831 -517205.000000 0 0 1
23.828949 -22.532102 28.405075 43.386205 -0.757433 0.857007 0.105639 -0.011022 134392.000000 0 0 1
23.374049 -21.232402 28.013365 42.212672 -0.737423 0.845143 0.107467 -0.008865 -176878.000000 0 0 1
23.989449 -20.133102 28.850935 42.581826 -0.698219 0.826382 0.100507 -0.009306 -178220.000000 0 0 1
23.583549 -20.133602 30.206975 43.289804 -0.706646 0.798496 0.097242 -0.008082 68308.400000 0 0 1
24.312949 -19.219502 30.968765 43.812934 -0.668924 0.785774 0.092373 -0.002867 -457735.000000 0 0 1
23.635349 -18.995802 32.310228 44.310508 -0.676995 0.753677 0.087994 -0.000320 -60689.900000 0 0 1
24.076549 -19.860202 33.370274 45.691170 -0.689727 0.751971 0.082365 -0.008869 176527.000000 0 0 1
23.412049 -19.499102 -33.326838 45.155478 -0.694462 2.400967 0.089156 -0.018091 -24624.000000 0 0 1
23.439749 -20.647302 -32.317348 44.946011 -0.722143 2.373196 0.061661 -0.012550 -103351.000000 0 0 1
24.729149 -20.810302 -31.804368 45.344430 -0.699556 2.348149 0.051240 -0.006948 -368594.000000 0 0 1
24.619249 -21.898702 -30.888688 45.163831 -0.726981 2.323926 0.055870 -0.013051 461659.000000 0 0 1
25.896049 -22.131802 -30.050718 45.425408 -0.707182 2.293667 0.058216 -0.009943 1326410.000000 0 0 1
27.124849 -22.565402 -30.685648 46.760708 -0.693897 2.286604 0.049341 -0.004834 911333.000000 0 0 1
27.915449 -23.375702 -29.848118 47.080844 -0.697119 2.257480 0.059223 -0.009598 376325.000000 0 0 1
28.893549 -24.371902 -30.586478 48.624679 -0.700712 2.251104 0.047471 -0.020272 630928.000000 0 0 1
29.976449 -23.703202 -31.262168 49.373601 -0.669061 2.256446 0.048317 -0.015311 138373.000000 0 0 1
29.746249 -23.326602 -32.612488 49.925385 -0.665024 2.282632 0.050424 -0.009336 -83531.500000 0 0 1
29.836049 -24.518202 -33.579118 51.175084 -0.687872 2.286517 0.044799 -0.010403 -137154.000000 0 0 1
28.775149 -25.426702 -33.378288 50.878645 -0.723699 2.286353 0.057580 -0.014820 -177495.000000 0 0 1
28.987049 -26.742402 -33.792058 51.935617 -0.745142 2.279240 0.049347 -0.016952 -171388.000000 0 0 1
28.743149 -26.961902 32.543709 51.109743 -0.753433 0.880531 0.053815 -0.017599 -19753.900000 0 0 1
29.631049 -26.303802 31.643685 50.707119 -0.725984 0.896884 0.034754 -0.019922 45357.100000 0 0 1
29.326549 -26.451402 30.317445 49.788258 -0.733897 0.916088 0.047448 -0.011124 -291285.000000 0 0 1
30.473249 -25.794702 29.514105 49.649451 -0.702441 0.934215 0.049707 -0.014140 -222447.000000 0 0 1
30.677649 -24.373002 29.576085 49.090796 -0.671370 0.924195 0.051653 -0.012838 239803.000000 0 0 1
31.101149 -23.788502 30.809265 49.823540 -0.652954 0.904132 0.048351 -0.015825 -1342430.000000 0 0 1
31.490249 -22.271002 30.593585 49.230080 -0.615565 0.900216 0.042448 -0.004686 353620.000000 0 0 1
32.744549 -22.049602 29.967405 49.562444 -0.592638 0.921483 0.047225 -0.010638 155997.000000 0 0 1
33.827049 -22.401902 30.801385 50.939570 -0.584937 0.921451 0.032945 -0.008369 -1668460.000000 0 0 1
35.134649 -21.727802 30.459815 51.325835 -0.553850 0.935446 0.023061 -0.004472 -998531.000000 0 0 1
35.640749 -22.198802 29.267845 51.182581 -0.557051 0.962059 0.040264 -0.013315 -665931.000000 0 0 1
36.849649 -21.536102 29.036035 51.621620 -0.528894 0.973416 0.034628 -0.012216 -367411.000000 0 0 1
-37.259927 -21.827602 27.604735 51.252002 0.529928 1.002012 0.057233 -0.015865 -151050.000000 0 0 1
-36.830827 -23.156802 27.409665 51.420201 0.561280 1.008592 0.043535 -0.010888 142147.000000 0 0 1
-36.454127 -23.349502 26.040245 50.519273 0.569680 1.029262 0.041913 -0.002445 81413.400000 0 0 1
-36.189127 -24.859302 25.685405 50.866274 0.601898 1.041461 0.042791 -0.022963 538414.000000 0 0 1
37.205749 -25.654002 25.738015 52.008086 -0.603656 1.053094 0.044693 -0.022477 619177.000000 0 0 1
-37.266827 -27.033702 25.387145 52.575133 0.627576 1.066863 0.039452 -0.015459 -90254.100000 0 0 1
-36.311327 -27.994602 26.127325 52.771653 0.656781 1.052845 0.026717 -0.014878 -1293570.000000 0 0 1
-36.277127 -29.264802 25.472195 53.115829 0.678814 1.070644 0.038816 -0.016036 400005.000000 0 0 1
-35.315727 -30.049302 26.180555 53.250189 0.705002 1.056811 0.041357 -0.020701 -736296.000000 0 0 1
-33.874227 -29.666902 26.050995 52.021560 0.719280 1.046305 0.039498 -0.020323 -2693740.000000 0 0 1
-33.402527 -29.746302 24.733035 51.110609 0.727564 1.065677 0.043806 -0.021770 152522.000000 0 0 1
-32.157327 -29.056702 24.636335 49.853130 0.734789 1.053907 0.019305 -0.016389 314147.000000 0 0 1
-31.549227 -29.040702 23.204985 48.756409 0.744020 1.074767 0.023825 -0.014768 -261857.000000 0 0 1
-31.189327 -30.405702 22.849515 49.187205 0.772677 1.087679 0.030556 -0.016242 419088.000000 0 0 1
-30.582827 -30.376302 21.571435 48.201202 0.782010 1.106796 0.029060 -0.016137 -762334.000000 0 0 1
-30.629427 -31.681202 20.734535 48.700937 0.802276 1.131003 0.049155 -0.016937 388322.000000 0 0 1
-29.818727 -32.802302 21.174435 49.127428 0.833007 1.125184 0.057718 -0.027586 987690.000000 0 0 1
-28.412327 -32.589502 21.026235 48.077422 0.853768 1.118156 0.069137 -0.024790 696948.000000 0 0 1
-27.544827 -33.909502 20.869435 48.415960 0.888598 1.125146 0.060966 -0.013948 31990.400000 0 0 1
-27.819227 33.193681 19.686235 47.573918 -0.873259 1.144169 0.056335 -0.011196 888350.000000 0 0 1
-29.055827 32.443081 19.611835 47.764199 -0.840421 1.147688 0.068645 -0.010988 860730.000000 0 0 1
-29.337027 31.329881 20.668235 47.638205 -0.818235 1.122025 0.075950 -0.010065 -94475.500000 0 0 1
-28.378527 30.283981 20.637135 46.350315 -0.817868 1.109351 0.069459 -0.017367 152112.000000 0 0 1
-28.481627 29.401581 21.748135 46.353397 -0.801290 1.082433 0.065159 -0.020321 387381.000000 0 0 1
-27.488327 28.221181 21.509735 44.885542 -0.798552 1.071038 0.067779 -0.018762 1843160.000000 0 0 1
-26.068227 28.536081 21.418735 44.188490 -0.830563 1.064761 0.061714 -0.014687 1275920.000000 0 0 1
-25.302827 27.450781 20.978235 42.823648 -0.826092 1.058850 0.046371 -0.013093 57276.100000 0 0 1
-23.788927 27.745881 21.089435 42.196105 -0.862030 1.047433 0.028168 -0.005320 -4468.000000 0 0 1
-23.332527 27.863981 22.432235 42.708470 -0.873679 1.017798 0.034786 -0.008687 479999.000000 0 0 1
-22.138727 28.659981 22.467135 42.617953 -0.913074 1.015523 0.066663 -0.013082 330636.000000 0 0 1
-21.545427 28.558181 23.874945 43.009164 -0.924460 0.982298 0.045524 -0.010175 -487931.000000 0 0 1
-21.050527 27.303981 24.331535 42.197816 -0.914009 0.956227 0.064952 -0.024130 417817.000000 0 0 1
-20.688627 27.303981 25.726315 42.841218 -0.922376 0.926665 0.065206 -0.026618 117222.000000 0 0 1
-19.324127 27.879481 26.179995 42.849498 -0.964695 0.913504 0.088362 -0.027193 -411477.000000 0 0 1
-19.158427 29.263581 26.059255 43.617511 -0.991135 0.930480 0.061897 -0.022193 126478.000000 0 0 1
-17.922727 29.760181 26.549235 43.723614 -1.028733 0.918257 0.085974 -0.021531 41772.300000 0 0 1
-17.793727 29.850381 28.084455 44.681077 -1.033252 0.891104 0.073003 -0.016154 -509448.000000 0 0 1
-17.578627 28.616081 28.722625 44.191373 -1.019934 0.863265 0.090877 -0.023414 47161.000000 0 0 1
-17.902027 28.761781 30.071465 45.299179 -1.014051 0.844853 0.066451 -0.010505 -129949.000000 0 0 1
-17.533827 27.519381 30.966065 44.984982 -1.003511 0.811564 0.084190 -0.010586 141273.000000 0 0 1
-16.128027 27.460681 31.186745 44.573707 -1.039757 0.795865 0.087024 -0.006636 656056.000000 0 0 1
-15.653927 26.322881 31.982729 44.281311 -1.034291 0.763728 0.105367 -0.009863 7925.930000 0 0 1
-15.996527 26.370681 33.487173 45.526833 -1.025536 0.744321 0.099542 -0.009193 -242244.000000 0 0 1
-17.358327 26.082881 33.676048 45.996787 -0.983597 0.749339 0.097018 -0.014667 -386659.000000 0 0 1
-17.863227 26.616981 -32.989638 45.998639 -0.979716 2.370554 0.097876 -0.014340 195827.000000 0 0 1
-19.234927 26.018081 -32.626018 45.949755 -0.934184 2.360347 0.077036 -0.013437 958214.000000 0 0 1
-20.369227 26.450581 -33.432738 47.247081 -0.914564 2.356913 0.062616 -0.012387 1430100.000000 0 0 1
-21.558627 25.797981 -32.957178 47.079569 -0.874680 2.346238 0.064144 -0.013647 755552.000000 0 0 1
-22.840027 25.889381 -33.842608 48.345103 -0.847894 2.346224 0.053144 -0.025462 -11990.500000 0 0 1
-22.862427 25.182281 32.784375 47.240376 -0.833646 0.803779 0.062593 -0.025326 -55472.800000 0 0 1
-22.942727 23.775281 33.047039 46.730499 -0.803217 0.785290 0.064077 -0.021915 -220690.000000 0 0 1
-23.097327 22.897081 31.776845 45.470108 -0.781045 0.797006 0.069789 -0.023776 820236.000000 0 0 1
-24.467327 22.792781 31.360305 45.843535 -0.749980 0.817465 0.062425 -0.020606 601918.000000 0 0 1
-24.540627 22.377481 30.011875 44.762782 -0.739326 0.835961 0.084000 -0.024520 528632.000000 0 0 1
-26.043927 22.150481 29.696375 45.285811 -0.704787 0.855615 0.065968 -0.019135 499198.000000 0 0 1
-26.577427 20.907981 30.128505 45.290508 -0.666567 0.842997 0.076986 -0.020697 262103.000000 0 0 1
-27.910127 20.736681 29.668405 45.707761 -0.638994 0.864410 0.070344 -0.014495 125397.000000 0 0 1
-28.516127 19.350881 29.934685 45.647689 -0.596215 0.855586 0.090544 -0.016546 -284206.000000 0 0 1
-28.934327 19.235281 31.277485 46.749036 -0.586703 0.837865 0.089585 -0.015591 6511.930000 0 0 1
-29.087427 17.907281 31.808395 46.674652 -0.551838 0.820997 0.082191 -0.009846 -471781.000000 0 0 1
-30.086327 16.919181 31.169005 46.507555 -0.512279 0.836328 0.061759 -0.005892 -221854.000000 0 0 1
-31.403127 17.405581 31.370935 47.678572 -0.506110 0.852680 0.056198 -0.007593 324404.000000 0 0 1
-32.325127 16.392881 30.894995 47.625005 -0.469331 0.864903 0.067787 0.001614 443346.000000 0 0 1
-33.828527 16.639381 31.131955 48.892094 -0.457126 0.880523 0.058805 -0.002461 -131333.000000 0 0 1
-34.164727 16.566281 32.493248 49.974808 -0.451490 0.862958 0.042836 -0.002193 -257944.000000 0 0 1
-35.547527 16.734881 32.579934 51.040523 -0.439995 0.878489 0.061838 -0.007606 -470978.000000 0 0 1
-36.162627 17.230381 33.915205 52.486787 -0.444646 0.868246 0.051849 -0.003232 33082.200000 0 0 1
37.043949 17.486681 33.902725 53.173612 0.441041 0.879436 0.047736 -0.011619 40805.300000 0 0 1
36.621949 17.773281 -32.625818 52.168005 0.451833 2.246439 0.041599 -0.018070 961393.000000 0 0 1
35.062449 17.899581 -32.456818 51.021715 0.472017 2.260278 0.054934 -0.022109 875145.000000 0 0 1
34.374549 16.669881 -32.603458 50.224297 0.451534 2.277272 0.070842 -0.013580 323882.000000 0 0 1
33.273249 16.717781 -31.684348 48.892650 0.465597 2.275803 0.076861 -0.021747 -19156.900000 0 0 1
32.367649 15.492081 -31.824148 47.962962 0.446405 2.296304 0.086561 -0.020723 -443775.000000 0 0 1
31.874949 15.346181 -33.124578 48.463959 0.448697 2.323328 0.091964 -0.022978 145664.000000 0 0 1
30.968149 14.248781 -33.288588 47.646449 0.431230 2.344317 0.098041 -0.025423 528470.000000 0 0 1
31.640749 12.840281 -33.494898 47.832186 0.385509 2.346556 0.094345 -0.019942 106903.000000 0 0 1
32.192949 12.325181 -32.332278 47.261742 0.365638 2.324180 0.085471 -0.022976 727414.000000 0 0 1
33.156749 11.274781 -32.646368 47.877720 0.327779 2.321112 0.090967 -0.019077 576303.000000 0 0 1
18.225249 -21.155819 9.613322 29.532090 -0.859677 1.239233 0.017184 -0.009356 -10527.000000 0 0 1
17.848249 -22.438419 10.048322 30.381103 -0.898847 1.233706 0.016486 -0.012584 710346.000000 0 0 1
18.953949 -23.226619 10.548422 31.780453 -0.886349 1.232463 0.013716 -0.017936 517852.000000 0 0 1
18.460649 -24.515719 11.282222 32.697164 -0.925370 1.218502 0.018698 -0.016148 151239.000000 0 0 1
17.868249 -25.521179 10.463422 32.864693 -0.959980 1.246778 0.028131 -0.018970 651097.000000 0 0 1
16.479149 -25.680639 10.791122 32.365195 -1.000281 1.230870 0.028959 -0.023441 675898.000000 0 0 1
15.756149 -26.511339 9.695622 32.328198 -1.034566 1.266196 0.042986 -0.033449 -98770.000000 0 0 1
15.624949 -25.854579 8.453922 31.369843 -1.027192 1.297931 0.048664 -0.029626 157154.000000 0 0 1
14.721549 -26.659639 7.705322 31.413887 -1.066263 1.322984 0.073539 -0.028911 -4830.720000 0 0 1
14.428949 -25.958149 6.348322 30.369742 -1.063470 1.360209 0.082414 -0.024614 -715827.000000 0 0 1
13.677649 -24.818319 6.565222 29.088299 -1.067101 1.343135 0.089352 -0.030033 -189605.000000 0 0 1
13.310449 -24.148519 5.339122 28.086033 -1.067039 1.379534 0.098509 -0.020268 231632.000000 0 0 1
12.641849 -22.747119 5.579922 26.615471 -1.063545 1.359580 0.110015 -0.025295 120259.000000 0 0 1
12.067449 -22.195019 4.404222 25.644480 -1.072802 1.398199 0.109815 -0.022942 193679.000000 0 0 1
11.169149 -21.142019 4.782122 24.384494 -1.084773 1.373404 0.105892 -0.020304 706846.000000 0 1 0
10.248149 -20.551019 3.689722 23.259041 -1.108214 1.411487 0.091365 -0.022317 -189252.000000 0 1 0
11.015349 -19.750019 2.843722 22.792277 -1.062031 1.445703 0.076904 -0.019850 374581.000000 0 1 0
10.258849 -19.346319 1.681422 21.962495 -1.083224 1.494163 0.050959 -0.009680 -294016.000000 0 1 0
11.172849 -18.991219 0.576622 22.041584 -1.039012 1.544633 0.051028 -0.008862 -693776.000000 0 1 0
11.980649 -17.873619 0.796522 21.532223 -0.980284 1.533796 0.045398 -0.005706 -447077.000000 0 1 0
12.645649 -17.656819 -0.417678 21.722112 -0.949287 1.590026 0.053416 -0.005635 -571938.000000 0 1 0
13.799349 -16.662219 -0.267278 21.636150 -0.879106 1.583150 0.050697 0.000851 73109.900000 0 1 0
14.823349 -17.159919 0.583722 22.683369 -0.858325 1.545060 0.061036 -0.011135 152267.000000 0 1 0
16.086349 -16.564219 0.336822 23.092367 -0.800033 1.556210 0.069393 -0.013665 709232.000000 0 1 0
17.251949 -17.309319 1.060922 24.461558 -0.787058 1.527412 0.059226 -0.006062 237313.000000 0 1 0
17.592549 -18.578819 0.541422 25.592253 -0.812658 1.549639 0.069071 -0.013419 539760.000000 0 0 1
18.909449 -18.858919 1.035622 26.726365 -0.784060 1.532038 0.055256 -0.006697 750032.000000 0 0 1
19.461949 -20.150119 0.408222 28.017162 -0.802769 1.556225 0.043089 -0.006291 -329639.000000 0 0 1
18.812949 -21.265219 0.899522 28.406790 -0.846509 1.539125 0.059431 -0.004399 -262186.000000 0 0 1
18.812249 -22.387219 0.050822 29.241937 -0.871954 1.569058 0.064676 -0.015577 -59920.800000 0 0 1
17.682449 -23.407719 0.307522 29.337431 -0.923841 1.560314 0.065773 -0.017170 98339.600000 0 0 1
17.864149 -23.994619 1.557322 29.954879 -0.930820 1.518784 0.051505 -0.010901 -49758.400000 0 0 1
16.925149 -25.044199 1.577022 30.268128 -0.976490 1.518671 0.067811 -0.014833 -604256.000000 0 0 1
16.846849 -25.961089 2.794122 31.074130 -0.995176 1.480757 0.057515 -0.011760 202131.000000 0 0 1
17.808549 -27.000649 2.965922 32.480396 -0.987730 1.479355 0.046313 -0.013916 1184240.000000 0 0 1
19.110949 -26.491209 3.354022 32.836900 -0.945847 1.468476 0.044969 -0.008172 795067.000000 0 0 1
20.236449 -27.539659 3.517822 34.355811 -0.937087 1.468223 0.064474 -0.003139 310722.000000 0 0 1
20.859149 -28.061699 2.334922 35.043043 -0.931577 1.504117 0.072879 -0.005140 -199063.000000 0 0 1
21.761049 -29.116239 2.432222 36.430953 -0.928971 1.503984 0.096026 -0.010160 -125182.000000 0 0 1
21.246449 -30.525769 2.925022 37.306700 -0.962749 1.492311 0.095508 -0.012064 -71554.800000 0 0 1
20.898849 -30.558549 4.324122 37.273111 -0.970961 1.454523 0.105457 -0.010772 -5726.840000 0 0 1
20.197549 -31.739099 4.607622 37.901735 -1.004068 1.448927 0.099534 -0.025148 -309196.000000 0 0 1
20.017849 -32.065999 6.084322 38.287877 -1.012722 1.411210 0.104173 -0.032138 531401.000000 0 0 1
21.103049 -32.894069 6.532422 39.623616 -1.000387 1.405178 0.094486 -0.040609 791595.000000 0 0 1
20.751049 -33.456349 7.820522 40.138434 -1.015625 1.374703 0.084651 -0.037732 1072830.000000 0 0 1
21.955949 33.617601 8.521522 41.046597 0.992239 1.361669 0.091622 -0.041453 691844.000000 0 0 1
23.010449 -33.406619 8.900122 41.529449 -0.967627 1.354812 0.101080 -0.041897 -686732.000000 0 0 1
24.025549 33.649233 9.427322 42.407220 0.950736 1.346619 0.110746 -0.043861 -398786.000000 0 0 1
24.858549 -33.419149 10.471422 42.946916 -0.931248 1.324491 0.098725 -0.042762 -108824.000000 0 0 1
25.544549 -32.375069 9.765122 42.379555 -0.902787 1.338286 0.086238 -0.041629 103329.000000 0 0 1
26.377249 -31.612159 10.630122 42.521610 -0.875428 1.318123 0.081252 -0.038092 164915.000000 0 0 1
27.253749 -30.676369 9.799222 42.188045 -0.844411 1.336380 0.074622 -0.040303 -68579.900000 0 0 1
26.399849 -29.759999 9.117222 40.813396 -0.845159 1.345507 0.068413 -0.038841 752583.000000 0 0 1
27.108649 -29.041289 8.074622 40.539793 -0.819804 1.370278 0.073899 -0.035555 312933.000000 0 0 1
26.577149 -27.588449 7.976722 39.129215 -0.804067 1.365501 0.057838 -0.032284 11599.300000 0 0 1
26.987649 -26.853699 9.118922 39.148551 -0.782910 1.335706 0.061726 -0.037192 -51075.300000 0 0 1
26.555849 -25.505719 8.950022 37.892713 -0.765230 1.332349 0.045624 -0.024295 -270120.000000 0 0 1
27.180949 -24.529819 9.905422 37.929321 -0.734175 1.306578 0.057765 -0.039523 -213776.000000 0 0 1
28.473949 -24.152319 9.503922 38.528234 -0.703463 1.321549 0.078657 -0.034704 -421900.000000 0 0 1
29.066949 -23.246619 10.427022 38.652498 -0.674595 1.297649 0.063372 -0.037077 308167.000000 0 0 1
30.548849 -22.936419 10.057922 39.502826 -0.644020 1.313349 0.087557 -0.033676 619167.000000 0 0 1
30.487149 -22.273419 8.787922 38.765952 -0.630959 1.342117 0.111721 -0.030739 -522183.000000 0 0 1
31.769949 -22.113519 8.256322 39.579088 -0.608071 1.360650 0.110119 -0.030434 -359043.000000 0 0 1
31.889749 -21.277119 6.925422 38.956814 -0.588378 1.392075 0.106678 -0.018036 -227488.000000 0 0 1
31.403549 -19.957119 7.152022 37.889588 -0.566118 1.380897 0.110745 -0.015423 -7561.750000 0 0 1
31.563949 -19.185319 6.021222 37.424784 -0.546152 1.409205 0.100597 -0.019183 -36437.000000 0 0 1
31.341549 -17.695219 6.306822 36.540244 -0.513978 1.397328 0.124614 -0.013030 76144.600000 0 0 1
32.345049 -17.152019 7.128122 37.298848 -0.487579 1.378505 0.142150 -0.012969 -85339.200000 0 0 1
32.143549 -15.753619 7.374922 36.548238 -0.455698 1.367615 0.147561 -0.017333 28465.100000 0 0 1
32.838349 -15.291719 8.696722 37.253547 -0.435806 1.335175 0.146745 -0.038693 724181.000000 0 0 1
34.252249 -15.183819 8.521522 38.423707 -0.417263 1.347159 0.135130 -0.033520 352486.000000 0 0 1
34.867949 -14.739419 9.712222 39.081346 -0.399939 1.319652 0.125782 -0.042850 482771.000000 0 0 1
36.420149 -14.855019 9.793222 40.534011 -0.387280 1.326777 0.113347 -0.049199 606035.000000 0 0 1
37.064649 -13.843219 8.968722 40.569211 -0.357445 1.347883 0.124695 -0.034583 -189661.000000 0 0 1
-36.185127 -14.223019 8.884722 39.882276 0.374512 1.346138 0.118555 -0.035697 -89733.700000 0 0 1
-35.269427 -13.195519 8.146722 38.528214 0.358012 1.357740 0.126333 -0.039880 -560397.000000 0 0 1
-35.516627 -12.959319 6.793722 38.412620 0.349869 1.392999 0.160526 -0.048564 -70418.300000 0 0 1
-34.359327 -12.463319 6.173722 37.067674 0.347974 1.403464 0.131584 -0.032118 417778.000000 0 0 1
-33.282027 -13.539919 5.822422 36.399496 0.386375 1.410147 0.095836 -0.023746 -190816.000000 0 0 1
-32.708727 -14.261119 6.914022 36.346169 0.411154 1.379403 0.116304 -0.022948 202947.000000 0 0 1
-31.715127 -15.117619 6.326522 35.698971 0.444809 1.392637 0.115463 -0.006387 404245.000000 0 0 1
-31.240527 -16.091219 7.464022 35.925053 0.475635 1.361505 0.102532 -0.027664 -277191.000000 0 0 1
-32.250127 -16.980219 7.804622 37.273457 0.484635 1.359847 0.093603 -0.030978 -365925.000000 0 0 1
-32.261127 -17.035819 9.218522 37.629517 0.485843 1.323296 0.085788 -0.031556 36975.400000 0 0 1
-33.409827 -17.919719 9.761422 39.148668 0.492311 1.318795 0.049473 -0.027683 -1064430.000000 0 0 1
-34.662527 -17.356219 9.487722 39.909221 0.464223 1.330765 0.072881 -0.024821 -504077.000000 0 0 1
-35.692027 -17.916119 10.264022 41.234187 0.465218 1.319231 0.095560 -0.029895 -131249.000000 0 0 1
-36.148127 -19.408619 10.155322 42.267151 0.492745 1.328157 0.103982 -0.021164 -76869.100000 0 0 1
-35.093827 -20.388319 10.447922 41.909656 0.526306 1.318843 0.098994 -0.017588 660819.000000 0 0 1
-34.669927 -20.457019 11.767322 41.939996 0.533072 1.286403 0.105658 -0.038194 370838.000000 0 0 1
-35.765527 -21.068519 12.759722 43.426557 0.532346 1.272572 0.126619 -0.054619 637333.000000 0 0 1
-35.996527 -22.503519 12.535622 44.263982 0.558713 1.283666 0.138598 -0.060542 485131.000000 0 0 1
-37.240627 -22.774719 11.901622 45.246002 0.548873 1.304622 0.140137 -0.040876 89915.800000 0 0 1
37.060649 -24.308219 11.777822 45.859550 -0.580514 1.311062 0.141220 -0.041413 -222301.000000 0 0 1
37.003249 -24.809619 13.116422 46.441341 -0.590632 1.284470 0.166435 -0.042561 166872.000000 0 0 1
36.244949 -26.013189 13.173322 46.517940 -0.622510 1.283680 0.153327 -0.040995 295109.000000 0 0 1
34.895049 -25.760029 13.910622 45.549412 -0.635916 1.260442 0.166621 -0.041872 -112100.000000 0 0 1
34.196549 -24.708119 13.294522 44.233917 -0.625689 1.265527 0.141398 -0.042532 -187432.000000 0 0 1
33.154949 -24.266819 14.158422 43.457911 -0.631830 1.238943 0.125613 -0.023775 -509178.000000 0 0 1
33.233049 -22.764919 14.526522 42.821687 -0.600593 1.224695 0.136769 -0.025139 520846.000000 0 0 1
34.295049 -22.362019 15.406222 43.744279 -0.577814 1.210888 0.160728 -0.031140 328805.000000 0 0 1
35.554349 -22.212819 14.773222 44.449625 -0.558424 1.231993 0.152029 -0.035135 148334.000000 0 0 1
36.656649 -21.752819 15.802922 45.460174 -0.535568 1.215763 0.131704 -0.030740 309480.000000 0 0 1
36.508649 -20.362519 16.168822 44.821250 -0.508770 1.201735 0.135299 -0.027707 230958.000000 0 0 1
35.450449 -20.194719 17.093722 44.235239 -0.517812 1.174041 0.137014 -0.029097 73786.300000 0 0 1
35.522949 -18.837919 17.825022 43.982707 -0.487595 1.153518 0.127171 -0.025548 -203962.000000 0 0 1
35.314849 -17.733219 16.968522 43.006236 -0.465363 1.165208 0.116796 -0.030300 91175.000000 0 0 1
35.063449 -16.485219 17.568422 42.542418 -0.439487 1.145092 0.122905 -0.026736 701505.000000 0 0 1
36.329749 -15.684019 18.099522 43.513582 -0.407543 1.141808 0.109556 -0.027656 712998.000000 0 0 1
36.902749 -16.270919 19.296222 44.709058 -0.415272 1.124536 0.099612 -0.016764 258013.000000 0 0 1
-36.601027 -15.470619 19.669222 44.337946 0.399906 1.111162 0.080682 -0.021053 -383103.000000 0 0 1
-36.127727 -15.606019 21.084422 44.646537 0.407758 1.078952 0.073984 -0.011117 -328417.000000 0 0 1
-35.254227 -16.667019 21.390022 44.476770 0.441624 1.069086 0.077646 -0.005956 112155.000000 0 0 1
-34.860427 -16.621919 22.737622 44.816704 0.444927 1.038693 0.064741 0.001342 76528.200000 0 0 1
-33.854727 -17.768519 23.050922 44.645355 0.483326 1.028258 0.062129 0.003384 -649053.000000 0 0 1
-34.483127 -19.082819 23.098322 45.681205 0.505447 1.040671 0.064164 -0.002950 599392.000000 0 0 1
-33.650627 -20.155519 23.530222 45.741458 0.539657 1.030468 0.036672 0.006564 -421771.000000 0 0 1
-32.385627 -20.479519 22.741322 44.557908 0.563878 1.035173 0.038710 0.011083 579412.000000 0 0 1
-31.299727 -19.498819 22.878422 43.396993 0.557139 1.015507 0.038692 0.023135 658274.000000 0 0 1
-30.148727 -20.043519 22.306822 42.523907 0.586724 1.018585 0.036181 0.016442 -215650.000000 0 0 1
-28.819827 -19.262619 22.421522 41.283841 0.589188 0.996664 0.037310 0.033958 94261.200000 0 0 1
-28.414227 -19.198519 23.769022 41.724307 0.594207 0.964694 0.034515 0.026958 96318.100000 0 0 1
-27.354927 -18.258019 23.823222 40.610259 0.588544 0.943904 0.043664 0.022033 20011.500000 0 0 1
-27.031227 -17.675119 25.200922 40.965638 0.579096 0.908192 0.047958 0.004775 -405128.000000 0 0 1
-25.870827 -16.872719 25.235222 39.884893 0.577914 0.885760 0.061496 -0.000330 113985.000000 0 0 1
-25.408927 -16.461219 26.521722 40.249062 0.574864 0.851387 0.065194 -0.009206 -49946.100000 0 0 1
-24.619827 -17.503319 27.319322 40.728950 0.618033 0.835564 0.070202 -0.011373 -803988.000000 0 0 1
-25.245527 -18.672219 27.741022 41.899316 0.636828 0.847195 0.070249 -0.007730 6564.740000 0 0 1
-24.338927 -19.417919 28.568522 42.256353 0.673406 0.828372 0.076490 -0.013794 549395.000000 0 0 1
-25.044727 -20.658719 29.157722 43.637068 0.689724 0.839027 0.079988 -0.014113 -162454.000000 0 0 1
-26.103227 -20.343119 30.013022 44.676643 0.662012 0.834183 0.072652 -0.013841 -300030.000000 0 0 1
-26.472427 -21.343519 30.914322 45.956832 0.678543 0.832969 0.062057 -0.007527 43260.300000 0 0 1
-27.713827 -21.192319 31.847522 47.238069 0.652833 0.830926 0.075720 -0.012990 -114902.000000 0 0 1
-27.546927 -20.159819 32.836922 47.365756 0.631774 0.804790 0.084233 -0.018955 1255260.000000 0 0 1
-28.714527 -19.902519 33.693122 48.537210 0.606091 0.803529 0.090921 -0.031442 1387310.000000 0 0 1
-29.914727 -19.194619 33.017522 48.512689 0.570479 0.822221 0.087731 -0.032385 -118547.000000 0 0 1
-30.650927 -19.931919 32.054922 48.623849 0.576577 0.850985 0.092154 -0.029460 -986333.000000 0 0 1
-31.870127 -19.317819 31.947722 49.087066 0.544923 0.862109 0.094002 -0.030381 -852584.000000 0 0 1
-32.790327 -19.875619 30.830022 49.200975 0.544924 0.893595 0.070706 0.001632 124324.000000 0 0 1
-32.844427 -19.211119 29.622622 48.221605 0.529252 0.909295 0.064682 -0.008932 64139.700000 0 0 1
-33.983527 -19.659019 28.926922 48.766012 0.524451 0.935796 0.052966 -0.002651 -25641.200000 0 0 1
-34.260727 -18.835519 27.655322 47.889362 0.502667 0.955153 0.058741 -0.001427 -421642.000000 0 0 1
-35.495527 -19.186519 27.108722 48.610058 0.495546 0.979211 0.041832 0.000234 -289342.000000 0 0 1
-35.909827 -18.310119 26.096022 48.018522 0.471530 0.996246 0.069405 -0.005227 628009.000000 0 0 1
-37.121627 -18.822219 25.222022 48.666636 0.469265 1.025980 0.061497 -0.009639 967703.000000 0 0 1
36.211649 -18.911819 25.858322 48.348663 -0.481295 1.006490 0.066748 -0.014604 -295965.000000 0 0 1
35.225949 -19.340319 24.987822 47.321313 -0.502103 1.014499 0.102391 -0.018440 -191083.000000 0 0 1
33.915949 -19.704319 25.728722 46.909689 -0.526313 0.990259 0.086074 -0.016695 151182.000000 0 0 1
33.189249 -18.685019 26.426322 46.357380 -0.512757 0.964222 0.073349 -0.023002 -789987.000000 0 0 1
32.203349 -19.358319 27.054122 46.300386 -0.541248 0.946758 0.067639 -0.009491 -1145720.000000 0 0 1
-29.482601 -4.972419 33.585997 44.966298 0.167084 0.727386 0.087900 -0.023549 315351.000000 0 0 1
-30.655091 -5.197819 32.803939 45.197902 0.167961 0.758622 0.096432 -0.015705 508939.000000 0 0 1
-30.930541 -4.167019 31.880740 44.614392 0.133916 0.774767 0.096002 -0.022930 -197417.000000 0 0 1
-31.815811 -4.500219 30.671465 44.421128 0.140514 0.808657 0.078024 -0.027536 -130179.000000 0 0 1
-31.318131 -5.495719 29.793475 43.573839 0.173712 0.817911 0.074363 -0.028143 72482.900000 0 0 1
-30.123901 -5.125019 29.107695 42.201578 0.168518 0.809680 0.079096 -0.028650 265430.000000 0 0 1
-29.789881 -6.049819 27.927075 41.279036 0.200358 0.827737 0.078231 -0.036642 -208666.000000 0 0 1
-30.541891 -5.841919 26.752755 41.020057 0.188993 0.860330 0.080621 -0.035681 -73066.000000 0 0 1
-30.068961 -6.683319 25.690335 40.109880 0.218711 0.875649 0.103449 -0.029413 -39041.100000 0 0 1
-30.736951 -6.306919 24.398945 39.747276 0.202381 0.909865 0.093316 -0.022867 -218024.000000 0 0 1
-30.234911 -5.146219 23.786265 38.812625 0.168592 0.911136 0.109923 -0.021247 445294.000000 0 0 1
-31.040811 -4.720519 22.641435 38.709816 0.150918 0.946038 0.119767 -0.019172 653403.000000 0 0 1
-30.370811 -3.489419 22.014835 37.672472 0.114392 0.946687 0.121023 -0.021071 693537.000000 0 0 1
-29.121751 -3.808919 21.395635 36.336723 0.130055 0.941203 0.134365 -0.020941 267734.000000 0 0 1
-28.587211 -2.619519 20.793835 35.446778 0.091377 0.943916 0.140650 -0.014139 1551370.000000 0 0 1
-27.082461 -2.830519 20.298435 33.963186 0.104137 0.930217 0.129134 -0.004879 1354420.000000 0 0 1
-26.943041 -3.662319 19.158235 33.262261 0.135100 0.957000 0.132982 -0.009129 626016.000000 0 0 1
-25.712161 -3.392019 18.449135 31.827529 0.131165 0.952485 0.102442 -0.002129 719721.000000 0 0 1
-25.641701 -4.092419 17.084735 31.082678 0.158265 0.988846 0.101862 -0.003704 313775.000000 0 0 1
-26.661561 -3.634219 16.181235 31.398706 0.135474 1.029384 0.113564 -0.002980 556410.000000 0 0 1
-26.602491 -4.257619 14.989235 30.830132 0.158700 1.063074 0.116808 -0.004584 -112449.000000 0 0 1
-27.958531 -4.268819 14.257835 31.673145 0.151514 1.103857 0.137114 -0.015134 7950.800000 0 0 1
-28.326731 -3.091419 13.517635 31.538659 0.108704 1.127848 0.134045 -0.019697 605415.000000 0 0 1
-29.601701 -3.273119 12.886435 32.450489 0.110125 1.162430 0.141751 -0.023609 335880.000000 0 0 1
-29.958711 -1.935219 12.155635 32.388716 0.064507 1.186071 0.136417 -0.015873 -320942.000000 0 0 1
-29.206381 -1.772219 10.981335 31.252891 0.060605 1.211762 0.154867 -0.017113 152332.000000 0 0 1
-29.510261 -0.551119 10.317935 31.266900 0.018673 1.234498 0.158358 -0.021622 230971.000000 0 0 1
-30.824921 -0.617619 9.495835 32.260318 0.020034 1.272021 0.149045 -0.026709 193655.000000 0 0 1
-30.667731 -1.278819 8.255935 31.785304 0.041675 1.308043 0.159831 -0.029544 238238.000000 0 0 1
-31.915421 -1.705019 7.705735 32.876732 0.053372 1.334213 0.144268 -0.032891 330544.000000 0 0 1
-31.806591 -2.427019 6.322235 32.519537 0.076158 1.375137 0.172502 -0.036852 -604516.000000 0 0 1
-31.502971 -1.563019 5.219435 31.970654 0.049574 1.406805 0.186544 -0.049580 361889.000000 0 0 1
-32.560781 -0.708619 4.816735 32.922751 0.021760 1.423965 0.173878 -0.043351 -45255.800000 0 0 1
-32.267891 -0.044219 3.459035 32.452791 0.001370 1.464007 0.175401 -0.037901 -28315.900000 0 0 1
-32.468981 -0.905619 2.353435 32.566755 0.027885 1.498468 0.170618 -0.050398 229713.000000 0 0 1
-31.918891 -0.349819 1.204135 31.943511 0.010959 1.533092 0.190653 -0.054403 -453144.000000 0 0 1
-32.666761 -0.918919 0.054135 32.679728 0.028123 1.569140 0.187355 -0.054705 708385.000000 0 0 1
-34.078911 -0.649119 0.137435 34.085369 0.019045 1.566764 0.193333 -0.051307 1171720.000000 0 0 1
-34.850741 -1.280919 -0.910465 34.886155 0.036738 1.596897 0.186372 -0.048853 452096.000000 0 0 1
-36.367701 -1.176019 -0.660765 36.392709 0.032326 1.588954 0.172298 -0.041831 153282.000000 0 0 1
-36.994681 -2.053919 0.291935 37.052803 0.055462 1.562917 0.155392 -0.040220 736105.000000 0 0 1
36.182555 -1.959019 0.268635 36.236545 -0.054090 1.563383 0.135153 -0.030543 501502.000000 0 0 1
35.449895 -3.136119 0.921535 35.600274 -0.088237 1.544908 0.135701 -0.034314 -224730.000000 0 0 1
35.641935 -3.219019 2.344135 35.863694 -0.090071 1.505387 0.137712 -0.036510 116179.000000 0 0 1
34.872175 -4.261019 2.879535 35.249349 -0.121587 1.489015 0.129604 -0.018365 -303181.000000 0 0 1
34.901905 -4.288519 4.436135 35.443104 -0.122261 1.445305 0.125513 -0.003941 -51038.900000 0 0 1
34.182075 -3.207919 4.954435 34.687914 -0.093574 1.427477 0.142918 -0.020626 75353.800000 0 0 1
34.239675 -3.195719 6.385935 34.976394 -0.093064 1.387188 0.136962 -0.025916 99058.100000 0 0 1
33.559395 -1.886619 6.915035 34.316323 -0.056158 1.367898 0.155936 -0.034269 -470099.000000 0 0 1
32.175015 -1.941819 6.864335 32.956355 -0.060279 1.360974 0.163382 -0.039653 -641073.000000 0 0 1
31.477825 -0.878919 7.492535 32.369183 -0.027915 1.337207 0.174490 -0.038395 1319880.000000 0 0 1
29.926045 -1.061519 7.655835 30.908038 -0.035457 1.320494 0.167370 -0.038779 837977.000000 0 0 1
29.023125 -0.941219 6.580535 29.774672 -0.032419 1.347945 0.175699 -0.040133 753658.000000 0 0 1
27.656625 -1.130419 6.935335 28.535340 -0.040851 1.325294 0.184636 -0.031465 546656.000000 0 0 1
27.056325 -2.559619 6.963835 28.055149 -0.094323 1.319955 0.198520 -0.041508 -544488.000000 0 0 1
27.478625 -3.342119 8.086435 28.838083 -0.121032 1.286577 0.175234 -0.043967 623910.000000 0 0 1
27.317425 -4.756419 7.825535 28.811529 -0.172388 1.295730 0.194157 -0.047974 3392.820000 0 0 1
27.747825 -5.582219 9.049335 29.715205 -0.198527 1.261346 0.153572 -0.043316 245973.000000 0 0 1
26.654325 -5.564619 9.968035 28.996202 -0.205814 1.219867 0.144467 -0.036712 958378.000000 0 0 1
27.000225 -6.219019 11.184235 29.879348 -0.226384 1.187140 0.122092 -0.031532 292130.000000 0 0 1
25.768925 -6.364519 12.123035 29.180688 -0.242138 1.142362 0.095677 -0.034838 464700.000000 0 0 1
24.917125 -7.466119 11.861335 28.588412 -0.291125 1.142963 0.121660 -0.040746 140356.000000 0 0 1
23.659425 -7.226219 12.465335 27.701466 -0.296428 1.104044 0.120787 -0.041218 469303.000000 0 0 1
22.585425 -8.329819 12.453235 27.102959 -0.353336 1.093388 0.118407 -0.033579 188555.000000 0 0 1
23.017425 -9.300219 13.411835 28.216542 -0.383994 1.075471 0.092432 -0.036961 283144.000000 0 0 1
22.116725 -10.378619 13.568935 27.946042 -0.438759 1.063815 0.134213 -0.051341 -339861.000000 0 0 1
22.581625 -11.428019 14.575235 29.205597 -0.468497 1.048287 0.077354 -0.048162 -258011.000000 0 0 1
22.583825 -10.900219 15.931335 29.709449 -0.449676 1.004823 0.076679 -0.039901 176096.000000 0 0 1
22.674825 -12.045819 16.802835 30.685252 -0.488328 0.991319 0.059387 -0.040061 -202088.000000 0 0 1
22.457825 -11.726119 18.305735 31.256291 -0.481202 0.945095 0.072863 -0.031902 571761.000000 0 0 1
21.085025 -11.467919 18.614435 30.374144 -0.498140 0.911149 0.074239 -0.031673 355617.000000 0 0 1
20.816325 -11.581319 19.988035 31.096107 -0.507711 0.872671 0.083939 -0.025002 90281.800000 0 0 1
21.206025 -10.458719 20.981135 31.611522 -0.458189 0.845018 0.081562 -0.022646 -205699.000000 0 0 1
20.390325 -9.296719 21.074635 30.762552 -0.427781 0.816091 0.076122 -0.021396 -27110.100000 0 0 1
20.610925 -8.319419 20.090635 29.960917 -0.383641 0.835831 0.088533 -0.018223 -352022.000000 0 0 1
21.781825 -7.326819 20.320235 30.676410 -0.324484 0.846771 0.081849 -0.011583 1889390.000000 0 0 1
23.150325 -7.813319 20.428335 31.848114 -0.325499 0.874436 0.092712 -0.007599 1611480.000000 0 0 1
23.781525 -8.270519 19.249535 31.693959 -0.334687 0.918067 0.097580 -0.011995 -75540.400000 0 0 1
25.168925 -8.943119 19.474835 33.056366 -0.341410 0.940802 0.103815 -0.015044 367971.000000 0 0 1
25.136925 -10.181019 20.163435 33.794707 -0.384829 0.931483 0.074889 -0.026630 -300252.000000 0 0 1
26.387925 -10.792219 20.074335 34.867944 -0.388226 0.957306 0.069823 -0.027967 -221584.000000 0 0 1
26.264225 -12.274619 20.428535 35.465488 -0.437189 0.956955 0.047085 -0.028543 -12680.700000 0 0 1
25.504425 -12.937419 19.455335 34.588474 -0.469440 0.973414 0.070747 -0.032579 77314.400000 0 0 1
25.579625 -14.338419 19.672535 35.311699 -0.510900 0.979894 0.055511 -0.031670 -275183.000000 0 0 1
24.612125 -15.081819 18.753635 34.422620 -0.549764 0.994639 0.065472 -0.026562 -564839.000000 0 0 1
24.900525 -14.830519 17.349535 33.778496 -0.537171 1.031390 0.058741 -0.035518 342641.000000 0 0 1
23.945825 -15.300719 16.405235 32.812288 -0.568584 1.047230 0.036869 -0.032666 -304029.000000 0 0 1
23.666525 -16.838519 16.465235 33.387783 -0.618396 1.055088 0.028785 -0.030207 -112525.000000 0 0 1
24.851725 -17.608219 16.309935 34.549552 -0.616429 1.079155 0.036710 -0.034455 140512.000000 0 0 1
24.508925 -18.941419 16.471235 35.082279 -0.657958 1.082069 0.038059 -0.020375 -525174.000000 0 0 1
25.601225 -19.925119 16.108535 36.220408 -0.661361 1.109916 0.036727 -0.016097 -472671.000000 0 0 1
25.830325 -19.971419 14.700235 35.807264 -0.658170 1.147753 0.036460 -0.023689 93533.100000 0 0 1
26.752625 -20.986419 14.396635 36.924190 -0.665195 1.170276 0.048123 -0.027197 -348433.000000 0 0 1
27.153925 -21.028019 12.904535 36.688421 -0.658936 1.211374 0.050854 -0.037191 -523215.000000 0 0 1
26.007725 -21.277619 12.145035 35.730109 -0.685697 1.223975 0.040865 -0.030234 42271.900000 0 0 1
26.247725 -21.089719 10.755935 35.346986 -0.676864 1.261597 0.060797 -0.027313 -1018690.000000 0 0 1
24.993825 -21.028119 9.928535 34.138671 -0.699441 1.275703 0.025036 -0.021602 -489299.000000 0 0 1
24.423025 -22.293019 9.568235 34.424031 -0.739835 1.289135 0.018780 -0.021614 -196580.000000 0 0 1
23.029025 -22.302119 9.728135 33.501598 -0.769364 1.276174 0.000819 -0.005950 -239333.000000 0 0 1
22.301225 -23.238819 8.781135 33.384063 -0.805984 1.304631 0.013024 -0.010272 -297685.000000 0 0 1
22.752525 -24.532919 9.135035 34.684151 -0.823032 1.304274 0.019011 -0.009379 53854.700000 0 0 1
22.785725 -25.354509 7.964435 35.006751 -0.838708 1.341275 0.028871 -0.004542 -119349.000000 0 0 1
21.497725 -26.118249 7.553835 34.660864 -0.882133 1.351098 0.026883 -0.006910 94444.300000 0 0 1
20.472725 -25.258479 7.138035 33.287757 -0.889668 1.354684 0.024175 -0.002805 -1350320.000000 0 0 1
19.215225 -25.843649 7.146235 32.987690 -0.931456 1.352432 0.030077 -0.025927 -807194.000000 0 0 1
18.215325 -24.697419 7.162035 31.512780 -0.935318 1.341519 0.026172 -0.019330 -812322.000000 0 0 1
18.086025 -23.989619 5.947535 30.626447 -0.924797 1.375358 0.040639 -0.018746 -336083.000000 0 0 1
17.183525 -22.969719 6.195035 29.347231 -0.928516 1.358102 0.060885 -0.007217 -523361.000000 0 0 1
16.787125 -22.184419 4.938535 28.255002 -0.923016 1.395109 0.078181 -0.003898 -941504.000000 0 0 1
16.088725 -21.013419 5.180635 26.967570 -0.917360 1.377489 0.113937 -0.007746 -211065.000000 0 0 1
15.880425 -20.452219 3.904535 26.186381 -0.910572 1.421133 0.116771 -0.011558 435544.000000 0 0 1
14.855625 -19.247919 3.831635 24.614089 -0.913486 1.414492 0.113086 -0.002946 529193.000000 0 1 0
15.377525 -18.135519 4.477135 24.195248 -0.867509 1.384682 0.075984 -0.002354 -53.268800 0 1 0
14.564725 -16.980819 4.315335 22.783800 -0.861840 1.380242 0.048323 0.006483 73732.900000 0 1 0
15.370225 -15.682419 4.399835 22.395102 -0.795452 1.373046 0.031871 -0.001544 -562391.000000 0 1 0
15.817925 -15.454119 5.713835 22.840412 -0.773765 1.317947 0.041583 -0.012986 -199962.000000 0 1 0
16.775625 -14.450819 5.875435 22.907826 -0.711085 1.311416 0.041007 -0.018379 -466821.000000 0 1 0
18.208825 -14.941719 5.678835 24.229433 -0.687162 1.334218 0.044988 -0.027016 -624667.000000 0 1 0
19.213625 -13.944119 5.755935 24.428111 -0.627794 1.332932 0.078719 -0.027546 -52816.100000 0 1 0
20.462125 -14.486519 5.397935 25.645574 -0.616053 1.358728 0.099481 -0.024005 -222980.000000 0 0 1
21.495925 -13.364519 5.154135 25.831188 -0.556240 1.369917 0.098578 -0.028134 -222968.000000 0 0 1
21.691825 -12.519519 6.294335 25.824257 -0.523451 1.324579 0.111817 -0.038795 467290.000000 0 0 1
22.903925 -11.784719 6.189735 26.491172 -0.475203 1.334964 0.130058 -0.044377 -1452.540000 0 0 1
23.106425 -10.901219 7.465635 26.617271 -0.440820 1.286501 0.134187 -0.045392 32095.900000 0 0 1
23.689025 -11.678719 8.520235 27.751699 -0.458033 1.258740 0.129178 -0.034401 328031.000000 0 0 1
23.687325 -10.945719 9.763635 27.860845 -0.432864 1.212752 0.140173 -0.049846 132092.000000 0 0 1
24.204125 -11.890919 10.900735 29.087104 -0.456645 1.186656 0.109125 -0.046420 -173782.000000 0 0 1
23.264525 -12.900819 11.220035 28.871412 -0.506313 1.171662 0.112965 -0.049938 90998.800000 0 0 1
23.718225 -13.865819 12.116735 30.027161 -0.529024 1.155429 0.109473 -0.052403 -626089.000000 0 0 1
22.716725 -14.964119 12.480135 29.928719 -0.582486 1.140659 0.087248 -0.053480 -403726.000000 0 0 1
21.679925 -14.439119 13.304235 29.249102 -0.587550 1.098582 0.064530 -0.046768 59437.000000 0 0 1
20.757125 -15.538119 13.393035 29.183296 -0.642584 1.094008 0.038667 -0.040779 698197.000000 0 0 1
19.406225 -15.129519 14.100835 28.360844 -0.662191 1.050435 0.051335 -0.040962 258769.000000 0 0 1
19.531625 -14.661019 15.422435 28.883929 -0.643904 1.007537 0.052615 -0.042797 138573.000000 0 0 1
19.206425 -13.294419 15.740635 28.167285 -0.605462 0.977826 0.080483 -0.048122 66459.100000 0 0 1
17.695525 -12.945719 15.801035 27.025838 -0.631609 0.946330 0.102806 -0.041527 154172.000000 0 0 1
17.081825 -12.982319 14.426735 25.854594 -0.649875 0.978829 0.117808 -0.054485 -8663.850000 0 0 1
15.715325 -12.737019 14.623035 24.960694 -0.681101 0.944877 0.147387 -0.042558 -427832.000000 0 1 0
15.241425 -11.333719 14.276735 23.760879 -0.639401 0.926232 0.125065 -0.037892 -399864.000000 0 1 0
15.629725 -10.408019 15.249635 24.190216 -0.587480 0.888721 0.115250 -0.031074 238227.000000 0 1 0
15.298325 -9.085119 14.902735 23.209258 -0.535895 0.873558 0.118169 -0.031337 -484341.000000 0 1 0
15.964425 -8.122519 15.910535 23.957949 -0.470654 0.844503 0.136851 -0.031688 -1973.970000 0 1 0
17.352725 -7.980519 15.691635 24.719085 -0.431056 0.883049 0.135178 -0.040842 437401.000000 0 1 0
18.099425 -8.777419 16.669835 26.125001 -0.451540 0.878795 0.128090 -0.035755 1154330.000000 0 0 1
19.659925 -8.883519 16.452435 27.131387 -0.424399 0.919273 0.093653 -0.027929 1029640.000000 0 0 1
20.242625 -7.596219 16.546235 27.225802 -0.358997 0.917583 0.094074 -0.026472 -234390.000000 0 0 1
21.563025 -7.625619 16.078035 27.957420 -0.339917 0.958082 0.078647 -0.014605 -103442.000000 0 0 1
22.352125 -6.260219 16.076135 28.235615 -0.273076 0.965073 0.072508 -0.001535 209712.000000 0 0 1
22.857925 -5.927719 17.383335 29.322396 -0.253739 0.936222 0.089455 -0.004636 108172.000000 0 0 1
23.431625 -4.685919 17.335935 29.521747 -0.197379 0.943169 0.090770 -0.010609 -432110.000000 0 0 1
-5.682151 -32.961302 -6.762578 34.124284 1.400086 1.770292 0.061012 -0.017540 -449748.000000 0 0 1
-6.307951 -31.733802 -6.745578 33.050375 1.374577 1.776340 0.057803 -0.025141 -91328.000000 0 0 1
-6.020351 -30.944602 -5.601078 32.018512 1.378644 1.746634 0.066324 -0.030494 -642566.000000 0 0 1
-6.697151 -29.567802 -5.679578 30.844195 1.348053 1.755991 0.072339 -0.026983 1860210.000000 0 0 1
-8.122051 -29.425502 -5.393078 30.998600 1.301481 1.745664 0.054016 -0.026604 1691050.000000 0 0 1
-9.007251 -30.024402 -6.326378 31.978404 1.279342 1.769943 0.041689 -0.020705 -173469.000000 0 0 1
-10.498251 -29.870702 -5.932978 32.212922 1.232825 1.756034 0.065034 -0.011934 -12069.700000 0 0 1
-11.374551 -30.355102 -6.882778 33.138879 1.212274 1.780014 0.048852 -0.012460 -283138.000000 0 0 1
-12.720151 -30.082802 -6.521278 33.306220 1.170758 1.767867 0.049417 -0.011515 556237.000000 0 0 1
-13.843251 -30.627502 -7.433078 34.422814 1.146291 1.788445 0.064559 -0.021701 173297.000000 0 0 1
-14.001951 -29.948202 -8.618578 34.164738 1.133453 1.825817 0.094476 -0.036209 411597.000000 0 0 1
-15.077651 -30.411402 -9.451178 35.235120 1.110523 1.842353 0.092489 -0.030350 425872.000000 0 0 1
-15.200551 -29.450702 -10.643178 34.809163 1.094324 1.881531 0.106401 -0.030135 -549295.000000 0 0 1
-15.756751 -28.193602 -10.316578 33.905548 1.061163 1.879973 0.112471 -0.035075 -67671.000000 0 0 1
-14.850751 -27.273702 -9.790678 32.561588 1.072179 1.876204 0.100094 -0.033508 -339002.000000 0 0 1
-15.509651 -25.877102 -9.518878 31.635150 1.030849 1.876428 0.091641 -0.022695 19763.900000 0 0 1
-15.740751 -25.110202 -10.707278 31.510939 1.010856 1.917496 0.095192 -0.037410 167564.000000 0 0 1
-16.021751 -23.781702 -10.375478 30.494531 0.977940 1.917969 0.065134 -0.010373 -236034.000000 0 0 1
-16.651951 -23.015602 -11.561878 30.670547 0.944467 1.957319 0.083854 -0.014217 -804233.000000 0 0 1
-17.958851 -23.397602 -11.819778 31.775388 0.916157 1.951936 0.095921 -0.024952 -1155250.000000 0 0 1
-18.380051 -22.798102 -13.022778 32.049532 0.892280 1.989233 0.109365 -0.036118 785915.000000 0 0 1
-19.941751 -23.028102 -13.203678 33.200964 0.857101 1.979794 0.102037 -0.021055 1308490.000000 0 0 1
-20.391851 -24.356502 -13.523378 34.524608 0.873766 1.973278 0.135130 -0.027401 219417.000000 0 0 1
-20.350251 -25.084502 -12.346478 34.580348 0.889222 1.935891 0.143901 -0.032896 -1567310.000000 0 0 1
-20.479651 -26.610302 -12.647078 35.881372 0.914860 1.931005 0.140021 -0.034063 702916.000000 0 0 1
-19.486451 -27.284602 -13.464778 36.131310 0.950609 1.952673 0.141957 -0.036643 1818580.000000 0 0 1
-18.098051 -27.085702 -13.093078 35.108452 0.981749 1.952964 0.137610 -0.036527 961681.000000 0 0 1
-17.205751 -28.308902 -13.446178 35.752364 1.024672 1.956371 0.114648 -0.036208 -123417.000000 0 0 1
-17.091151 -28.573102 -14.826878 36.446755 1.031734 1.989755 0.120773 -0.046117 -122821.000000 0 0 1
-16.308051 -29.670402 -15.228478 37.124006 1.068229 1.993476 0.141232 -0.048208 -32081.400000 0 0 1
-16.974651 -31.056002 -15.011778 38.444343 1.070581 1.971950 0.130089 -0.049369 -108274.000000 0 0 1
-17.104751 -31.555402 -13.677078 38.410654 1.074074 1.934861 0.129153 -0.040091 36834.400000 0 0 1
-17.526551 -32.900502 -13.555078 39.665642 1.081321 1.919557 0.107623 -0.031751 -991108.000000 0 0 1
-18.123651 -33.207202 -12.192278 39.747159 1.071203 1.882569 0.133142 -0.035522 190529.000000 0 0 1
-19.418151 -32.726302 -11.837978 39.852392 1.035281 1.872393 0.136108 -0.033129 598102.000000 0 0 1
-19.638051 -31.317402 -11.817078 38.808196 1.010713 1.880209 0.144482 -0.039512 -481478.000000 0 0 1
-18.945651 -30.536102 -10.645478 37.479560 1.015487 1.858795 0.154794 -0.039747 -229903.000000 0 0 1
-19.436451 -30.736902 -9.357478 37.551234 1.006930 1.822642 0.160437 -0.044533 181197.000000 0 0 1
-18.832451 -29.782202 -8.492578 36.245892 1.006937 1.807299 0.144542 -0.034176 79371.300000 0 0 1
-19.122851 -30.044702 -7.006278 36.296770 1.003984 1.765043 0.148174 -0.036728 71265.100000 0 0 1
-18.414551 -31.197602 -6.533478 36.811308 1.037573 1.749227 0.148058 -0.034478 348089.000000 0 0 1
-18.776351 -31.482502 -5.229578 37.027662 1.033024 1.712504 0.149100 -0.043511 -366117.000000 0 0 1
-17.942151 -32.688502 -4.705378 37.584565 1.068811 1.696320 0.144124 -0.035544 757194.000000 0 0 1
-16.564951 -32.477102 -4.411878 36.723622 1.099141 1.691225 0.120432 -0.021927 481618.000000 0 0 1
-16.375351 -31.742602 -3.197178 35.860380 1.094526 1.660071 0.109097 -0.027313 -1231960.000000 0 0 1
-15.014951 -31.106402 -3.021878 34.672594 1.121087 1.658062 0.091280 -0.025243 -462321.000000 0 0 1
-13.957251 -32.057802 -2.978478 35.091008 1.160169 1.655777 0.065525 -0.016097 -403798.000000 0 0 1
-12.776951 -31.392702 -2.653878 33.996989 1.184267 1.648938 0.061453 -0.007676 462963.000000 0 0 1
-11.415451 -32.166302 -2.562478 34.227910 1.229773 1.645732 0.056264 -0.012652 384786.000000 0 0 1
-11.406451 -33.165302 -1.510678 35.104509 1.239542 1.613843 0.063172 -0.001075 -516553.000000 0 0 1
-10.171451 -33.698902 -1.131678 35.218676 1.277658 1.602935 0.076743 -0.006220 -171131.000000 0 0 1
-9.192151 -32.800402 -0.335478 34.065739 1.297560 1.580644 0.079635 -0.013104 169499.000000 0 0 1
-9.800051 -32.396602 0.945522 33.859634 1.277045 1.542868 0.094384 -0.010485 511516.000000 0 0 1
-8.877051 -31.776702 1.844022 33.044837 1.298384 1.514964 0.076645 -0.012263 931328.000000 0 0 1
-7.880351 -32.720402 2.627322 33.758369 1.334458 1.492890 0.094178 -0.027445 394887.000000 0 0 1
-8.500451 -33.500702 3.692722 34.759041 1.322301 1.464358 0.104945 -0.037991 582438.000000 0 0 1
-7.616351 33.359781 4.248122 34.480869 -1.346334 1.447280 0.122716 -0.029451 326514.000000 0 0 1
-6.526251 33.905081 5.214622 34.919032 -1.380636 1.420901 0.137333 -0.024894 -168879.000000 0 0 1
-5.583351 -33.122902 4.616122 33.905885 1.403802 1.434227 0.157230 -0.035543 -355428.000000 0 0 1
-4.781251 -32.444002 5.589722 33.267381 1.424480 1.401971 0.164255 -0.040878 -240781.000000 0 0 1
-3.521751 -31.841302 4.981722 32.420500 1.460641 1.416526 0.163795 -0.043179 -450335.000000 0 0 1
-3.794251 -30.701602 4.203922 31.219508 1.447835 1.435729 0.160500 -0.041410 284567.000000 0 0 1
-4.355951 -30.877602 2.921822 31.319924 1.430650 1.477371 0.138999 -0.036455 -112101.000000 0 0 1
-4.261251 -29.559602 2.240022 29.949057 1.427625 1.495932 0.135567 -0.034613 487650.000000 0 0 1
-2.912551 -29.222102 1.919022 29.429523 1.471455 1.505543 0.117315 -0.036861 213545.000000 0 0 1
-2.782051 -27.891702 1.442122 28.067180 1.471380 1.519393 0.104984 -0.029315 -116309.000000 0 0 1
-2.704051 -26.689802 2.444122 26.937542 1.469827 1.479938 0.090322 -0.033516 -213409.000000 0 0 1
-2.739251 -25.410502 1.836022 25.623585 1.463411 1.499081 0.085963 -0.032906 -144816.000000 0 0 1
-3.045251 -24.303702 2.698122 24.641902 1.446146 1.461083 0.076694 -0.028032 719024.000000 0 1 0
-4.411651 -24.193702 3.477222 24.837249 1.390431 1.430335 0.082698 -0.024926 535364.000000 0 1 0
-4.496051 -25.027702 4.598722 25.840832 1.393049 1.391880 0.107491 -0.024125 -516534.000000 0 0 1
-5.432951 -24.480702 5.452722 25.662305 1.352408 1.356684 0.087980 -0.020108 -542559.000000 0 0 1
-6.041051 -25.436402 6.507122 26.941557 1.337620 1.326857 0.106034 -0.027542 146978.000000 0 0 1
-5.106851 -25.961402 7.456822 27.489607 1.376567 1.296095 0.098337 -0.028893 -181428.000000 0 0 1
-5.737851 -26.694202 8.461322 28.584914 1.359070 1.270287 0.098052 -0.032052 244404.000000 0 0 1
-4.839051 -27.124602 9.684222 29.205215 1.394253 1.232806 0.091531 -0.025007 153218.000000 0 0 1
-4.559151 -26.009902 10.538722 28.431770 1.397274 1.191069 0.085373 -0.035342 -76106.600000 0 0 1
-5.595251 -25.529302 11.392322 28.510298 1.355038 1.159731 0.087511 -0.035292 165935.000000 0 0 1
-5.112651 -24.432802 12.448622 27.893892 1.364519 1.108187 0.064437 -0.032788 -225724.000000 0 0 1
-4.255251 -25.027302 13.342022 28.678957 1.402382 1.086913 0.054156 -0.034677 -597767.000000 0 0 1
-3.570051 -23.990602 14.075522 28.043084 1.423070 1.044973 0.060820 -0.035489 251594.000000 0 0 1
-2.525551 -24.634502 15.034122 28.970018 1.468632 1.025169 0.070926 -0.036880 35755.800000 0 0 1
-3.081251 -25.275202 16.186222 30.171572 1.449487 1.004545 0.074683 -0.040677 233289.000000 0 0 1
-2.122851 -26.050602 16.901222 31.125418 1.489486 0.996786 0.084891 -0.039954 477813.000000 0 0 1
-2.703351 -26.393702 18.295922 32.228503 1.468728 0.967095 0.096213 -0.045895 282788.000000 0 0 1
-2.848451 -25.383202 19.270422 31.996403 1.459046 0.924457 0.105179 -0.037744 -301256.000000 0 0 1
-3.684351 -25.765002 20.307022 33.011890 1.428761 0.908229 0.159643 -0.043674 -588264.000000 0 0 1
-3.505751 -24.852902 21.553622 33.083465 1.430661 0.861247 0.148259 -0.042942 -598830.000000 0 0 1
-2.277051 -25.129302 22.163522 33.584051 1.480430 0.850055 0.110133 -0.047158 -254631.000000 0 0 1
-2.035651 -24.261702 23.284422 33.688846 1.487089 0.807702 0.104419 -0.045930 183101.000000 0 0 1
-1.247151 -22.975302 22.902022 32.464173 1.516567 0.787731 0.113473 -0.048282 -211213.000000 0 0 1
-1.975451 -22.132602 22.100522 31.339872 1.481777 0.788107 0.135989 -0.042496 -68258.100000 0 0 1
-1.108251 -21.060102 21.752422 30.297260 1.518222 0.769920 0.139687 -0.042077 292598.000000 0 0 1
-1.890151 -19.839002 21.221522 29.112054 1.475809 0.753995 0.121608 -0.019780 -367410.000000 0 0 1
-2.733851 -19.118502 22.108422 29.355977 1.428764 0.718012 0.116416 -0.031802 188290.000000 0 0 1
-4.060751 -19.556302 22.271722 29.916020 1.366062 0.731049 0.122246 -0.038270 48244.100000 0 0 1
-5.058451 -19.411002 21.082422 29.100575 1.315869 0.760535 0.112462 -0.037290 -370796.000000 0 0 1
-4.845651 -20.372302 20.021922 28.972200 1.337281 0.807823 0.124468 -0.037955 -43193.100000 0 0 1
-5.470151 -21.635702 20.265922 30.145211 1.323156 0.833516 0.117694 -0.033630 221425.000000 0 0 1
-5.439851 -22.385202 18.878922 29.784273 1.332406 0.884269 0.109069 -0.033625 333309.000000 0 0 1
-6.266851 -23.539502 18.976122 30.878387 1.310604 0.908989 0.102687 -0.038833 -162055.000000 0 0 1
-6.167451 -24.285402 17.753322 30.708283 1.322097 0.954364 0.094891 -0.032444 140017.000000 0 0 1
-7.067551 -25.533502 17.694622 31.859216 1.300762 0.981952 0.073320 -0.041793 215117.000000 0 0 1
-8.452051 -25.265702 17.608522 31.935136 1.247972 0.986774 0.096143 -0.038936 -496029.000000 0 0 1
-9.111351 -26.505102 17.523322 33.054560 1.239693 1.012039 0.082670 -0.036176 1082460.000000 0 0 1
-10.674851 -26.419502 17.747322 33.569480 1.186802 1.013758 0.102327 -0.035532 362422.000000 0 0 1
-11.302551 -25.674902 16.729922 32.662494 1.156107 1.033045 0.113569 -0.037799 284702.000000 0 0 1
-12.724651 -25.718402 16.824422 33.262804 1.111343 1.040484 0.096368 -0.033877 853079.000000 0 0 1
-13.409651 -24.930402 17.993322 33.542560 1.077303 1.004592 0.095761 -0.034208 -781623.000000 0 0 1
-13.409951 -23.542202 17.732322 32.380508 1.053020 0.991275 0.082983 -0.025331 -60065.700000 0 0 1
-13.403551 -22.687402 18.890022 32.422312 1.037174 0.948843 0.069908 -0.024600 1161270.000000 0 0 1
-11.929751 -22.278102 19.306122 31.801873 1.079160 0.918422 0.071526 -0.022082 1105940.000000 0 0 1
-11.176351 -23.214102 20.066822 32.657047 1.122101 0.909081 0.085417 -0.026965 476167.000000 0 0 1
-9.796551 -22.892502 19.865522 31.854011 1.166441 0.897402 0.101898 -0.037135 251370.000000 0 0 1
-8.930851 -23.738002 20.776522 32.785922 1.210951 0.884466 0.101236 -0.043168 -569888.000000 0 0 1
-9.126551 -23.567602 22.167922 33.617593 1.201330 0.850757 0.098156 -0.033736 -72836.000000 0 0 1
-8.269051 -24.393502 22.898922 34.464196 1.243967 0.844070 0.114583 -0.034125 -157822.000000 0 0 1
-8.056451 -23.922802 24.329122 35.058708 1.245957 0.803831 0.119713 -0.035697 -265560.000000 0 0 1
-7.166751 -24.686202 25.066422 35.903989 1.288249 0.797984 0.147396 -0.038855 -526961.000000 0 0 1
-7.113351 -24.214502 26.390422 36.515699 1.285070 0.763075 0.137993 -0.036547 257195.000000 0 0 1
-5.843651 -24.616502 27.191722 37.141758 1.337723 0.749387 0.142356 -0.036231 651699.000000 0 0 1
-4.651051 -24.027702 26.693522 36.214733 1.379591 0.742042 0.139684 -0.038178 782828.000000 0 0 1
-3.472451 -24.430302 27.421622 36.889605 1.429605 0.732742 0.137180 -0.034260 829034.000000 0 0 1
-2.138651 -23.807402 27.000422 36.060907 1.481205 0.724630 0.137110 -0.042999 -467375.000000 0 0 1
-2.159551 -22.402902 27.094022 35.222716 1.474697 0.693177 0.132294 -0.045169 -106697.000000 0 0 1
-0.910651 -21.849202 26.707022 34.517850 1.529142 0.686110 0.135327 -0.053662 497702.000000 0 0 1
0.106549 -21.665902 27.859222 35.292477 -1.565879 0.660996 0.135692 -0.048976 -322276.000000 0 0 1
0.490449 -22.877302 28.405322 36.475660 -1.549361 0.678130 0.133782 -0.039489 -575617.000000 0 0 1
1.415749 -22.653902 29.425222 37.162445 -1.508383 0.657046 0.109478 -0.051786 -660490.000000 0 0 1
2.168549 -23.903502 29.813922 38.274665 -1.480323 0.677812 0.124845 -0.061169 -1137400.000000 0 0 1
3.143549 -24.215302 28.839422 37.788557 -1.441702 0.702578 0.101156 -0.060842 -221219.000000 0 0 1
3.951549 -25.292402 29.160222 38.802563 -1.415815 0.720460 0.097155 -0.047655 -420741.000000 0 0 1
5.143449 -24.925602 30.155222 39.459829 -1.367301 0.700995 0.069718 -0.046180 782486.000000 0 0 1
6.327849 -24.359602 29.547522 38.813502 -1.316645 0.705528 0.076989 -0.041584 499267.000000 0 0 1
7.059249 -25.324402 28.839422 39.023975 -1.298944 0.739185 0.070826 -0.028571 -1251300.000000 0 0 1
8.263349 -24.531402 28.286322 38.343039 -1.245886 0.741114 0.063410 -0.024436 -213668.000000 0 0 1
7.999849 -23.787802 27.152522 36.974539 -1.246378 0.746077 0.068341 -0.036577 183662.000000 0 0 1
9.227449 -23.378202 26.564722 36.570078 -1.194865 0.757718 0.058929 -0.020543 345388.000000 0 0 1
9.052249 -22.244102 25.580722 35.087272 -1.184313 0.753849 0.075059 -0.028376 269434.000000 0 0 1
8.194849 -22.621402 24.498822 34.337671 -1.223241 0.776361 0.063072 -0.021837 219568.000000 0 0 1
7.879249 -21.475302 23.713822 32.948695 -1.219147 0.767398 0.069786 -0.016087 148054.000000 0 0 1
7.135949 -21.814402 22.389722 32.063836 -1.254647 0.797796 0.052427 -0.014199 -238861.000000 0 0 1
7.963649 -22.466102 21.501122 32.100525 -1.230141 0.836849 0.047034 -0.010389 -483059.000000 0 0 1
7.494849 -22.437002 20.194322 31.103094 -1.248410 0.864171 0.061131 -0.009813 -398616.000000 0 0 1
8.229549 -23.451402 19.347122 31.496109 -1.233303 0.909336 0.095968 -0.032122 133824.000000 0 0 1
9.549849 -23.039402 19.059022 31.388851 -1.177852 0.918276 0.100503 -0.029272 -283315.000000 0 0 1
10.298449 -24.099602 18.515822 32.088698 -1.166955 0.955721 0.107562 -0.033534 542443.000000 0 0 1
11.693049 -23.675502 17.961222 31.935283 -1.112050 0.973480 0.090602 -0.029652 557982.000000 0 0 1
11.509249 -22.885702 16.808922 30.639158 -1.104830 0.990097 0.104385 -0.021094 -429478.000000 0 0 1
12.753349 -22.731002 16.185122 30.680687 -1.059505 1.015101 0.088809 -0.022318 -159804.000000 0 0 1
-12.737251 22.363581 11.322922 28.117181 -1.053065 1.156326 0.067072 -0.024506 144912.000000 0 0 1
-13.793651 21.617481 10.755322 27.807504 -1.002847 1.173662 0.047834 -0.027671 273454.000000 0 0 1
-13.195251 20.447881 10.192622 26.384087 -0.997724 1.174161 0.082694 -0.029727 218878.000000 0 0 1
-14.061051 19.682481 9.188922 25.875655 -0.950475 1.207756 0.090386 -0.030618 -664605.000000 0 0 1
-14.343351 20.405681 8.005122 26.195525 -0.958120 1.260237 0.094835 -0.027506 -206059.000000 0 0 1
-15.205851 19.781081 7.118722 25.945814 -0.915430 1.292863 0.095859 -0.028497 1206250.000000 0 0 1
-16.768251 19.712381 7.399822 26.916716 -0.865928 1.292295 0.092020 -0.032895 828707.000000 0 0 1
-17.052951 18.972181 8.517122 26.894017 -0.838623 1.248556 0.085043 -0.032519 -76558.000000 0 0 1
-18.462851 18.905081 8.498722 27.758012 -0.797232 1.259627 0.083502 -0.030940 -187895.000000 0 0 1
-19.115951 17.902081 9.452922 27.843524 -0.752619 1.224409 0.076788 -0.029983 -139658.000000 0 0 1
-19.232551 16.544881 8.901822 26.886178 -0.710417 1.233335 0.078363 -0.029949 336561.000000 0 0 1
-19.827451 15.640281 9.820522 27.095920 -0.667886 1.199917 0.087527 -0.033306 271637.000000 0 0 1
-18.756351 15.036381 10.828922 26.365868 -0.675758 1.147556 0.074578 -0.022847 680320.000000 0 0 1
-17.861651 14.181281 10.138922 24.958867 -0.671042 1.152477 0.055610 -0.004964 354638.000000 0 1 0
-16.993651 13.336881 10.900522 24.196652 -0.665413 1.103474 0.075133 -0.010990 435608.000000 0 1 0
-17.716051 12.247581 11.756822 24.537412 -0.604881 1.071123 0.061117 -0.009774 -271196.000000 0 1 0
-18.326851 11.262881 10.967722 24.145743 -0.551054 1.099289 0.048204 -0.013175 178036.000000 0 1 0
-19.101151 10.406381 11.826222 24.758963 -0.498845 1.072814 0.054270 -0.013553 7816.810000 0 1 0
-20.042151 9.508581 11.006022 24.763551 -0.442983 1.110242 0.052178 -0.019445 -446531.000000 0 1 0
-19.359051 8.675981 10.067322 23.481833 -0.421324 1.127712 0.033824 -0.011285 499533.000000 0 1 0
-19.118851 9.275481 8.791622 22.996905 -0.451696 1.178517 0.054816 -0.008633 -459724.000000 0 1 0
-20.353351 9.295781 7.883722 23.723902 -0.428428 1.232043 0.078890 -0.016687 -129570.000000 0 1 0
-20.762851 8.020781 7.364322 23.444875 -0.368644 1.251275 0.066366 -0.024056 100499.000000 0 1 0
-21.658551 8.127181 6.324122 23.982044 -0.358982 1.303938 0.086153 -0.025392 -605283.000000 0 1 0
-21.701151 6.756281 5.621922 23.413528 -0.301821 1.328313 0.090895 -0.024470 100255.000000 0 1 0
-22.466251 5.787281 6.367422 24.057621 -0.252118 1.302931 0.114492 -0.027232 655368.000000 0 1 0
-22.169251 4.523881 5.802322 23.358256 -0.201297 1.319762 0.123420 -0.044811 -503561.000000 0 1 0
-23.280551 3.490381 6.059622 24.308143 -0.148818 1.318856 0.155129 -0.040235 -411604.000000 0 1 0
-24.371051 3.835681 5.261222 25.225801 -0.156106 1.360689 0.181891 -0.049448 -657198.000000 0 0 1
-25.411911 2.927581 5.293322 26.121930 -0.114699 1.366744 0.208728 -0.050961 -198903.000000 0 0 1
-26.607701 3.178881 4.336822 27.145590 -0.118909 1.410347 0.219641 -0.052437 70670.300000 0 0 1
-26.251711 3.065381 2.958422 26.595134 -0.116242 1.459326 0.213679 -0.047706 -133690.000000 0 0 1
-27.359821 2.980781 2.128222 27.603880 -0.108519 1.493621 0.204201 -0.045536 -492073.000000 0 0 1
-26.984261 2.952981 0.607822 27.152162 -0.109000 1.548409 0.210691 -0.043186 -199954.000000 0 0 1
-26.373461 4.101281 0.068522 26.690535 -0.154272 1.568229 0.198414 -0.049371 269599.000000 0 0 1
-26.308491 4.150581 -1.335878 26.667369 -0.156476 1.620911 0.204772 -0.035239 778724.000000 0 0 1
-27.677501 4.630581 -1.993978 28.132940 -0.165770 1.641733 0.201620 -0.049711 1082450.000000 0 0 1
-28.604411 3.561581 -1.995078 28.894247 -0.123874 1.639899 0.197577 -0.048602 -132374.000000 0 0 1
-29.924981 3.959981 -1.696878 30.233513 -0.131566 1.626952 0.179747 -0.038448 -113996.000000 0 0 1
-30.943971 2.803881 -1.802478 31.122982 -0.090365 1.628743 0.187651 -0.042770 -266983.000000 0 0 1
-31.213061 2.497081 -3.131378 31.468971 -0.079831 1.670468 0.185924 -0.050029 649039.000000 0 0 1
-32.199721 1.459781 -3.248778 32.396104 -0.045304 1.671248 0.194720 -0.054335 341680.000000 0 0 1
-32.504751 0.992281 -4.686178 32.855802 -0.030518 1.713913 0.193627 -0.052783 -700153.000000 0 0 1
-31.340551 0.540681 -5.294178 31.789162 -0.017250 1.738116 0.215902 -0.050776 -330149.000000 0 0 1
-31.441681 -0.195819 -6.518678 32.110914 0.006228 1.775222 0.219831 -0.047633 -117218.000000 0 0 1
-32.103451 0.498281 -7.783278 33.037241 -0.015520 1.808623 0.213572 -0.042785 770290.000000 0 0 1
-33.506051 0.740981 -7.586578 34.362198 -0.022111 1.793413 0.218442 -0.041696 599140.000000 0 0 1
-34.016961 1.490381 -8.621378 35.124109 -0.043785 1.818785 0.203024 -0.036116 27408.600000 0 0 1
-35.516819 1.835081 -8.458678 36.556274 -0.051622 1.804300 0.205358 -0.039171 278203.000000 0 0 1
-35.872764 2.790181 -7.449078 36.744102 -0.077624 1.774940 0.182842 -0.035171 -43629.300000 0 0 1
-37.254661 2.923481 -7.259778 38.067846 -0.078312 1.762678 0.177461 -0.031575 -99708.900000 0 0 1
36.754585 3.895681 -6.175078 37.472756 0.105597 1.736340 0.187811 -0.037205 -208062.000000 0 0 1
35.366905 3.781081 -6.007678 36.072243 0.106506 1.738122 0.174536 -0.039227 -186875.000000 0 0 1
34.870405 4.499881 -4.893078 35.498398 0.128337 1.709076 0.182461 -0.034904 -1755250.000000 0 0 1
33.463835 4.158381 -4.655378 34.041048 0.123631 1.707984 0.178189 -0.041259 -1980200.000000 0 0 1
33.424425 2.855481 -4.163478 33.803557 0.085224 1.694277 0.169504 -0.037230 -223646.000000 0 0 1
32.139845 2.295981 -4.191778 32.493263 0.071316 1.700161 0.147361 -0.030360 -368999.000000 0 0 1
32.069215 0.800181 -3.641878 32.285261 0.024947 1.683840 0.182717 -0.025085 -729170.000000 0 0 1
32.938625 -0.050919 -4.278078 33.215321 -0.001546 1.699953 0.106667 -0.029679 -371585.000000 0 0 1
32.903865 -1.353719 -3.740778 33.143480 -0.041118 1.683904 0.114954 -0.020698 -41475.100000 0 0 1
34.257975 -2.087919 -3.663278 34.516487 -0.060872 1.677128 0.096919 -0.024081 26995.600000 0 0 1
34.065095 -3.387519 -3.145978 34.377364 -0.099117 1.662438 0.068590 -0.023571 -367307.000000 0 0 1
35.322725 -3.919319 -2.862878 35.654621 -0.110505 1.651178 0.100077 -0.016116 -363383.000000 0 0 1
35.396595 -5.433319 -2.510078 35.899030 -0.152310 1.640774 0.100402 -0.016526 -404784.000000 0 0 1
34.678555 -5.729219 -1.378278 35.175641 -0.163730 1.609989 0.099824 -0.009607 -72355.300000 0 0 1
34.957385 -7.104719 -1.052878 35.687593 -0.200508 1.600303 0.135752 -0.017027 7394.860000 0 0 1
34.364575 -7.406019 0.350922 35.155316 -0.212267 1.560814 0.138933 -0.016290 367319.000000 0 0 1
32.947875 -7.289219 0.315922 33.746036 -0.217728 1.561434 0.127050 -0.013888 812517.000000 0 0 1
32.184005 -7.370619 1.549822 33.053564 -0.225133 1.523891 0.172261 -0.024022 121891.000000 0 0 1
32.125265 -8.796719 2.171122 33.378566 -0.267274 1.505705 0.160315 -0.018841 -156095.000000 0 0 1
31.081155 -9.654719 1.715022 32.591304 -0.301180 1.518150 0.160543 -0.021856 460391.000000 0 0 1
29.852795 -9.439519 2.371322 31.399316 -0.306254 1.495203 0.156478 -0.021540 -803821.000000 0 0 1
28.727625 -10.454119 2.080922 30.641398 -0.349008 1.502832 0.163048 -0.025539 938574.000000 0 0 1
27.381025 -10.285219 2.588322 29.363338 -0.359326 1.482534 0.175744 -0.036733 1641370.000000 0 0 1
26.696725 -9.231219 1.915822 28.312557 -0.332911 1.503078 0.191410 -0.041926 33433.400000 0 0 1
25.833025 -9.553619 0.620122 27.549979 -0.354223 1.548285 0.162360 -0.035108 360137.000000 0 0 1
26.780925 -9.839419 -0.409478 28.534186 -0.352095 1.585147 0.152875 -0.040114 624169.000000 0 0 1
26.282225 -10.134819 -1.714078 28.220701 -0.368044 1.631572 0.149966 -0.035599 -277741.000000 0 0 1
25.501925 -11.455219 -1.906778 28.021527 -0.422180 1.638896 0.132045 -0.032503 -1142060.000000 0 0 1
24.173425 -11.415219 -1.573578 26.779429 -0.441179 1.629591 0.144234 -0.017563 -1164190.000000 0 0 1
23.638525 -12.692619 -1.771678 26.889055 -0.492766 1.636733 0.119522 -0.014805 508719.000000 0 0 1
22.118225 -12.871019 -1.431978 25.630637 -0.527019 1.626695 0.121393 -0.014002 847158.000000 0 0 1
21.184325 -12.287319 -2.315878 24.599128 -0.525598 1.665081 0.116515 -0.009121 -140215.000000 0 1 0
19.868825 -12.517619 -1.907078 23.560516 -0.562196 1.651829 0.118311 -0.012823 -513133.000000 0 1 0
18.808525 -11.899119 -2.815378 22.433813 -0.564078 1.696625 0.108965 -0.012271 -301505.000000 0 1 0
18.669825 -12.563319 -4.047778 22.864467 -0.592320 1.748768 0.109237 -0.023583 449858.000000 0 1 0
17.850925 -11.886419 -5.011578 22.024041 -0.587452 1.800358 0.104168 -0.022345 -110236.000000 0 1 0
18.055825 -12.415219 -6.461078 22.845043 -0.602357 1.857531 0.113366 -0.032054 18937.700000 0 1 0
17.171525 -13.493619 -6.782678 22.867963 -0.666031 1.871929 0.113586 -0.033371 642802.000000 0 1 0
17.737425 -14.283919 -7.804078 24.073849 -0.677963 1.900933 0.132332 -0.034200 51706.300000 0 1 0
16.759625 -15.392919 -8.284578 24.216961 -0.742917 1.919945 0.115806 -0.031671 360813.000000 0 1 0
15.639925 -14.865719 -8.977078 23.370596 -0.760024 1.965049 0.128690 -0.020698 532975.000000 0 1 0
14.816125 -15.889319 -9.557378 23.734605 -0.820335 1.985236 0.111072 -0.022712 315851.000000 0 1 0
14.277825 -15.451519 -10.951278 23.717846 -0.824857 2.050743 0.114827 -0.041217 307643.000000 0 1 0
13.109525 -14.618919 -10.892278 22.454713 -0.839779 2.077248 0.085953 -0.036435 606540.000000 0 1 0
13.407325 -13.222419 -10.854978 21.735208 -0.778455 2.093724 0.084545 -0.027551 -238343.000000 0 1 0
13.554525 -12.424619 -12.165978 22.047841 -0.741933 2.155316 0.099230 -0.019305 188865.000000 0 1 0
14.801325 -12.518219 -12.847678 23.256136 -0.702021 2.156088 0.109420 -0.025574 243949.000000 0 1 0
14.775425 -11.969619 -14.151978 23.703659 -0.680871 2.210600 0.125956 -0.026216 -351791.000000 0 1 0
16.141725 -11.705819 -14.784678 24.822735 -0.627433 2.208822 0.126816 -0.038948 -32176.100000 0 1 0
17.004425 -12.803419 -15.076778 26.084233 -0.645384 2.187076 0.123291 -0.037511 -297915.000000 0 0 1
17.978025 -12.437719 -15.968178 27.071921 -0.605221 2.201660 0.116897 -0.033844 -176998.000000 0 0 1
19.132025 -13.511219 -16.144978 28.447280 -0.614881 2.174312 0.106137 -0.028399 539078.000000 0 0 1
19.941725 -13.598119 -14.965478 28.399767 -0.598470 2.125813 0.096214 -0.041514 338778.000000 0 0 1
20.888525 -14.644819 -15.006378 29.597171 -0.611460 2.102521 0.071814 -0.035630 26561.600000 0 0 1
22.039725 -14.556419 -13.973078 29.881193 -0.583695 2.057394 0.066183 -0.042454 386876.000000 0 0 1
23.132125 -13.714819 -14.367678 30.489697 -0.535176 2.061482 0.084898 -0.036932 301923.000000 0 0 1
23.948725 -13.506119 -13.237378 30.515321 -0.513498 2.019496 0.069540 -0.040249 252436.000000 0 0 1
24.630325 -12.076719 -13.213778 30.448382 -0.455873 2.019694 0.078265 -0.030547 308428.000000 0 0 1
23.731525 -11.031419 -12.741578 29.107134 -0.435128 2.023888 0.079538 -0.019427 678092.000000 0 0 1
24.306025 -9.761119 -12.686178 29.103288 -0.381879 2.021836 0.096600 -0.028535 -430550.000000 0 0 1
25.395125 -9.434519 -11.645978 29.488155 -0.355707 1.976796 0.100223 -0.030488 214731.000000 0 0 1
26.646925 -10.000119 -12.037378 30.902418 -0.359018 1.970916 0.092592 -0.033332 142480.000000 0 0 1
27.524925 -9.853419 -10.959878 31.222272 -0.343768 1.929465 0.101324 -0.036931 127069.000000 0 0 1
28.956025 -10.488819 -11.073378 32.727456 -0.347531 1.915961 0.112925 -0.036949 555431.000000 0 0 1
29.716205 -9.928419 -12.094678 33.584335 -0.322447 1.939202 0.090449 -0.032753 -310579.000000 0 0 1
30.927025 -10.614219 -12.299078 34.934364 -0.330606 1.930570 0.081444 -0.029602 -185072.000000 0 0 1
31.615075 -10.047719 -13.563278 35.838975 -0.307719 1.958918 0.056634 -0.020172 -533647.000000 0 0 1
31.072385 -10.503419 -14.764278 35.969415 -0.325972 1.993763 0.055926 -0.021679 218217.000000 0 0 1
31.828235 -10.129519 -15.916078 36.999530 -0.308120 2.015477 0.033187 -0.019901 -173961.000000 0 0 1
31.358045 -10.761019 -17.209878 37.353800 -0.330574 2.049610 0.015551 -0.007530 575761.000000 0 0 1
30.091405 -10.470819 -17.816378 36.504164 -0.334863 2.080667 0.030816 -0.014977 798107.000000 0 0 1
29.999735 -9.200719 -18.427478 36.389686 -0.297586 2.101793 0.025789 -0.005417 -920655.000000 0 0 1
28.582425 -8.925719 -18.883878 35.400908 -0.302684 2.133446 0.005479 -0.013171 -700765.000000 0 0 1
28.314025 -9.454719 -20.163778 36.022960 -0.322282 2.164878 0.005502 -0.005667 243487.000000 0 0 1
26.926625 -9.410419 -20.419778 35.079430 -0.336215 2.192107 0.048827 -0.000850 174487.000000 0 0 1
26.348625 -9.871919 -21.804678 35.597033 -0.358477 2.230069 0.070108 -0.013369 27097.700000 0 0 1
26.286425 -11.262719 -21.938378 36.043271 -0.404799 2.225177 0.066873 -0.014474 289459.000000 0 0 1
25.523425 -11.564119 -23.112178 36.322814 -0.425411 2.260488 0.082331 -0.020974 -809502.000000 0 0 1
25.830825 -13.018019 -23.611178 37.338828 -0.466820 2.255378 0.080640 -0.006939 304306.000000 0 0 1
27.102325 -13.276519 -24.170778 38.665598 -0.455508 2.246086 0.077994 -0.006924 -465159.000000 0 0 1
28.187325 -13.055919 -23.344578 38.858096 -0.433764 2.215254 0.055183 -0.002325 -1817220.000000 0 0 1
29.501425 -13.588719 -23.920378 40.338218 -0.431644 2.205570 0.052685 -0.000249 -401246.000000 0 0 1
29.903845 -12.993519 -25.143338 41.173522 -0.409898 2.227700 0.052069 -0.012690 -1323080.000000 0 0 1
31.232155 -13.324219 -25.217658 42.295538 -0.403241 2.209587 0.026462 -0.016216 -1296850.000000 0 0 1
31.961255 -12.744619 -26.441038 43.394419 -0.379430 2.225998 0.048666 -0.015220 -34258.200000 0 0 1
31.512655 -13.308619 -27.671208 43.998437 -0.399604 2.250951 0.055003 -0.019055 510060.000000 0 0 1
32.352885 -12.770819 -28.693958 45.090422 -0.375959 2.260573 0.050038 -0.018405 389095.000000 0 0 1
32.197135 -13.645719 -30.003588 46.076853 -0.400869 2.279913 0.053431 -0.026204 116306.000000 0 0 1
32.670095 -14.959519 -29.806668 46.685755 -0.429401 2.263283 0.069330 -0.026376 -281764.000000 0 0 1
32.841575 -15.655519 -31.025328 47.814593 -0.444833 2.276891 0.044945 -0.024242 -49253.000000 0 0 1
31.637155 -16.361219 -31.706738 47.685598 -0.477275 2.298173 0.043054 -0.011972 455747.000000 0 0 1
30.809385 -15.486119 -32.488208 47.376384 -0.465760 2.326426 0.036130 -0.022521 565202.000000 0 0 1
29.790815 -16.191419 -33.214028 47.463948 -0.497842 2.345877 0.026539 -0.011956 491625.000000 0 0 1
28.989125 -15.220519 33.740486 47.015465 -0.483480 0.770379 0.037620 -0.011503 -349589.000000 0 0 1
28.142625 -14.204819 -33.679348 46.131147 -0.467436 2.389233 0.034957 -0.014733 -372035.000000 0 0 1
28.777625 -13.111619 -33.125528 45.797018 -0.427516 2.379383 0.039199 -0.020137 -575602.000000 0 0 1
27.891325 -11.919319 -32.703588 44.604045 -0.403858 2.393809 0.053702 -0.022457 -81414.800000 0 0 1
27.371125 -11.178019 -33.755398 44.872636 -0.387716 2.422265 0.048099 -0.011657 -256638.000000 0 0 1
26.991825 -9.930019 -33.276368 43.982730 -0.352523 2.428860 0.033831 -0.017712 -48788.400000 0 0 1
21.148949 -29.520702 9.277622 37.480984 -0.949141 1.320668 0.052412 -0.027425 -195555.000000 0 0 1
21.625849 -29.403402 8.022422 37.371067 -0.936648 1.354443 0.057571 -0.027123 785010.000000 0 0 1
23.043649 -29.669202 7.997022 38.408641 -0.910434 1.361053 0.075466 -0.024160 1078450.000000 0 0 1
23.671649 -29.481502 6.592522 38.379256 -0.894270 1.398167 0.071693 -0.021344 -171050.000000 0 0 1
23.656149 -28.141102 6.252622 37.291156 -0.871769 1.402330 0.061229 -0.020654 345434.000000 0 0 1
24.367449 -28.018402 4.985422 37.465422 -0.854979 1.437333 0.068093 -0.015619 306506.000000 0 0 1
24.502149 -26.558102 4.610322 36.427231 -0.825642 1.443893 0.072637 -0.022527 849022.000000 0 0 1
25.501649 -25.794902 5.356722 36.666136 -0.791115 1.424177 0.054510 -0.018307 758973.000000 0 0 1
25.246849 -24.418102 5.138822 35.497248 -0.768713 1.425519 0.049409 -0.011656 11170.800000 0 0 1
26.112949 -23.423202 5.918022 35.574647 -0.731153 1.403664 0.040438 -0.004575 842.129000 0 0 1
27.448049 -23.274602 5.469822 36.400844 -0.703303 1.419959 0.051212 -0.011145 236420.000000 0 0 1
28.326549 -22.600702 6.357322 36.791312 -0.673436 1.397131 0.064427 -0.012977 85538.700000 0 0 1
28.072549 -21.081602 6.579122 35.718158 -0.644121 1.385543 0.063142 -0.004644 -463845.000000 0 0 1
28.217449 -20.385902 5.334522 35.217418 -0.625640 1.418737 0.067596 -0.000637 300464.000000 0 0 1
27.498749 -19.145102 5.407422 33.940482 -0.608183 1.410794 0.084869 -0.003943 201153.000000 0 0 1
27.488249 -18.282802 4.137022 33.271304 -0.586926 1.446132 0.082708 0.000737 142870.000000 0 0 1
28.739249 -17.776502 3.692522 33.993870 -0.553944 1.461958 0.128792 -0.004717 289543.000000 0 0 1
28.654549 -16.944202 2.565722 33.388203 -0.534018 1.493875 0.126693 0.001255 495423.000000 0 0 1
29.780449 -15.855302 2.683422 33.844741 -0.489235 1.491427 0.153758 -0.017715 663183.000000 0 0 1
29.467449 -14.866502 3.625322 33.203711 -0.467246 1.461394 0.148115 -0.020856 -465221.000000 0 0 1
30.596549 -14.108102 3.852522 33.912082 -0.432047 1.456947 0.181354 -0.028483 -405889.000000 0 0 1
30.406049 -13.079802 4.965822 33.470411 -0.406242 1.421882 0.186671 -0.029595 147564.000000 0 0 1
30.162849 -13.623802 6.253122 33.682443 -0.424246 1.384064 0.172990 -0.038499 23362.500000 0 0 1
29.849149 -12.630302 7.240722 33.210304 -0.400292 1.351005 0.165115 -0.032781 -128938.000000 0 0 1
29.740349 -13.078602 8.689822 33.631105 -0.414305 1.309445 0.167770 -0.034728 326789.000000 0 0 1
28.364449 -13.433902 8.873022 32.615061 -0.442320 1.295271 0.144076 -0.023332 705587.000000 0 0 1
27.836049 -13.501602 10.208422 32.578379 -0.451608 1.252078 0.123830 -0.025094 -14670.500000 0 0 1
28.456249 -14.482902 11.203122 33.838181 -0.470785 1.233349 0.125210 -0.024948 99427.800000 0 0 1
29.812049 -14.211802 11.561522 34.991462 -0.444845 1.234059 0.132990 -0.027908 332919.000000 0 0 1
30.222249 -15.301802 12.259922 36.025479 -0.468682 1.223547 0.125570 -0.027892 -123895.000000 0 0 1
31.234449 -15.061402 13.422022 37.183159 -0.449310 1.201488 0.124079 -0.029405 -205405.000000 0 0 1
32.545849 -14.826302 12.992022 38.050547 -0.427461 1.222347 0.131530 -0.028418 -461559.000000 0 0 1
33.367449 -14.700102 14.119322 39.100319 -0.414969 1.201344 0.125773 -0.028611 -10048.900000 0 0 1
34.877149 -14.642802 13.777522 40.257264 -0.397491 1.221500 0.116193 -0.024015 177969.000000 0 0 1
35.419749 -13.326102 13.624022 40.221357 -0.359852 1.225234 0.118809 -0.028120 -135838.000000 0 0 1
36.743749 -13.348302 13.196822 41.260591 -0.348457 1.245235 0.111144 -0.026121 -527977.000000 0 0 1
-37.059527 -12.033602 13.375022 41.195962 0.313970 1.240135 0.111767 -0.029294 26496.100000 0 0 1
-35.810227 -11.946302 12.715022 39.834134 0.321991 1.245912 0.117047 -0.030659 202585.000000 0 0 1
-35.090327 -10.798202 13.153722 38.999392 0.298530 1.226770 0.104114 -0.031368 898372.000000 0 0 1
-33.713927 -10.653802 12.396022 37.467235 0.306076 1.233593 0.113699 -0.033513 657938.000000 0 0 1
-32.680427 -11.589302 12.492822 36.856381 0.340789 1.224986 0.104526 -0.030261 247953.000000 0 0 1
-32.996327 -12.792302 11.776522 37.297279 0.369848 1.249552 0.093280 -0.032136 -370972.000000 0 0 1
-32.014727 -13.965302 12.007822 36.934539 0.411331 1.239667 0.078153 -0.029313 66856.900000 0 0 1
-30.737527 -13.803002 11.451622 35.587330 0.422072 1.243178 0.100444 -0.029263 -632899.000000 0 0 1
-29.841327 -14.799602 11.845922 35.353343 0.460397 1.229114 0.105078 -0.025280 -691336.000000 0 0 1
-28.537927 -14.533202 11.099022 33.894181 0.471028 1.237181 0.115494 -0.026662 -675646.000000 0 0 1
-28.589527 -14.707002 9.704322 33.583192 0.475116 1.277652 0.105226 -0.024917 374279.000000 0 0 1
-27.260027 -14.721802 9.193322 32.316523 0.495173 1.282335 0.113315 -0.023617 476014.000000 0 0 1
-27.155827 -14.637102 7.629422 31.778794 0.494362 1.328349 0.133883 -0.019465 67514.200000 0 0 1
-27.686227 -15.790902 7.017722 32.636301 0.518334 1.354076 0.132711 -0.006233 192410.000000 0 0 1
-27.328727 -15.761302 5.671822 32.053822 0.523134 1.392913 0.130376 -0.006078 -37485.600000 0 0 1
-27.883127 -17.013702 4.860322 33.023591 0.547871 1.423082 0.115428 -0.000470 630038.000000 0 0 1
-29.292627 -16.904602 4.689522 34.144035 0.523407 1.433016 0.083194 -0.010379 329518.000000 0 0 1
-29.864727 -17.848002 3.802222 34.998714 0.538674 1.461943 0.084906 -0.004224 -513.806000 0 0 1
-31.384027 -17.962102 4.008722 36.382195 0.519827 1.460389 0.099522 -0.016831 64148.500000 0 0 1
-32.217227 -17.013002 3.378222 36.589675 0.485852 1.478337 0.131557 -0.022263 135041.000000 0 0 1
-33.579727 -17.143202 3.731022 37.886778 0.472030 1.472158 0.144254 -0.025274 256316.000000 0 0 1
-34.546727 -16.473002 2.726322 38.370157 0.444942 1.499683 0.117000 -0.026832 170839.000000 0 0 1
-34.672327 -17.155802 1.496222 38.713440 0.459477 1.532138 0.120383 -0.020501 94321.900000 0 0 1
-35.717027 -16.529702 0.779922 39.364264 0.433444 1.550982 0.165717 -0.023572 -72137.800000 0 0 1
-35.903427 -17.223402 -0.588178 39.825213 0.447288 1.585566 0.143289 -0.026935 -402844.000000 0 0 1
-34.926227 -17.028402 -1.558878 38.887503 0.453641 1.610894 0.137887 -0.026082 -64568.800000 0 0 1
-35.338527 -17.675502 -2.729578 39.606634 0.463789 1.639768 0.127107 -0.027952 -271075.000000 0 0 1
-34.145727 -18.370302 -3.369478 38.919815 0.493581 1.657480 0.108820 -0.014328 -325005.000000 0 0 1
-34.516927 -19.319402 -4.349678 39.794186 0.510266 1.680320 0.109153 -0.034731 -292220.000000 0 0 1
-33.469227 -20.198702 -4.658178 39.368456 0.542990 1.689397 0.093777 -0.027599 -514794.000000 0 0 1
-33.804927 -21.235302 -5.689678 40.324726 0.560877 1.712365 0.104035 -0.030753 -35146.200000 0 0 1
-34.728327 -22.142102 -5.104578 41.501639 0.567595 1.694106 0.112107 -0.038626 10435.800000 0 0 1
-34.962227 -23.152902 -6.021878 42.363630 0.584922 1.713427 0.087893 -0.034112 -255324.000000 0 0 1
-35.541527 -24.415902 -5.397078 43.456471 0.601926 1.695313 0.084226 -0.029015 70970.700000 0 0 1
-34.549427 -25.175102 -4.772678 43.014266 0.629709 1.681981 0.090522 -0.020467 -254085.000000 0 0 1
-35.158627 -26.363402 -4.280178 44.152893 0.643400 1.667889 0.073013 -0.019363 638775.000000 0 0 1
-34.175527 -27.398002 -3.606278 43.950226 0.675767 1.652942 0.079953 -0.011932 -590907.000000 0 0 1
-33.357627 -27.972702 -4.605178 43.776832 0.697821 1.676188 0.068502 -0.009991 222505.000000 0 0 1
-32.601927 -29.129702 -4.200178 43.921141 0.729210 1.666573 0.063762 -0.004187 997195.000000 0 0 1
-31.438727 -28.854502 -3.163678 42.790007 0.742563 1.644799 0.084284 -0.006346 -247088.000000 0 0 1
-31.981027 -28.603102 -1.903078 42.948169 0.729700 1.615122 0.081352 -0.010186 -185465.000000 0 0 1
-31.004627 -28.293702 -0.944278 41.984665 0.739713 1.593289 0.083109 -0.016004 -318858.000000 0 0 1
-31.601627 -28.107102 0.472022 42.295328 0.726939 1.559636 0.077489 -0.016035 21085.400000 0 0 1
-32.042027 -29.337202 1.041122 43.456263 0.741359 1.546836 0.072930 -0.013043 -250682.000000 0 0 1
-33.024127 -29.061302 2.021522 44.036789 0.721656 1.524875 0.068846 -0.013432 982.908000 0 0 1
-33.738627 -30.335302 2.534822 45.441730 0.732332 1.514986 0.051197 -0.010107 -926852.000000 0 0 1
-34.785527 -29.999002 3.404122 46.060406 0.711648 1.496823 0.044379 -0.007608 -20875.900000 0 0 1
-35.310827 -31.103702 4.176622 47.241284 0.722136 1.482270 0.039570 -0.002455 123677.000000 0 0 1
-36.276527 -31.963402 3.290222 48.461026 0.722277 1.502850 0.029428 -0.000556 -468692.000000 0 0 1
-36.934827 -33.045502 3.930922 49.715579 0.729878 1.491645 0.040654 -0.009860 -59273.900000 0 0 1
36.812949 -33.612002 2.946822 49.936396 -0.739978 1.511751 0.045956 -0.005351 -988986.000000 0 0 1
35.783949 33.249981 3.535722 48.975030 0.748709 1.498539 0.043339 -0.006479 -341938.000000 0 0 1
34.942049 33.748381 4.585422 48.794735 0.768022 1.476684 0.031581 -0.011077 700635.000000 0 0 1
34.144049 -32.945902 4.347522 47.646086 -0.767541 1.479423 0.036063 -0.009754 -480666.000000 0 0 1
33.049349 -33.051502 3.275022 46.854957 -0.785431 1.500842 0.049847 -0.007091 -519821.000000 0 0 1
33.650149 -33.081402 1.979422 47.229544 -0.776875 1.528873 0.044908 -0.003008 134469.000000 0 0 1
32.719649 -32.745602 0.944222 46.300556 -0.785795 1.550402 0.051323 0.001794 -212567.000000 0 0 1
33.079749 -33.501902 -0.387578 47.082879 -0.791738 1.579028 0.052154 -0.005625 375857.000000 0 0 1
34.149349 -33.152102 -1.220478 47.610183 -0.770582 1.596434 0.029406 0.005228 -415131.000000 0 0 1
35.440349 -33.156602 -0.642678 48.536498 -0.752118 1.584038 0.031780 0.008626 -361269.000000 0 0 1
36.505149 -32.983902 -1.744978 49.230160 -0.734768 1.606249 0.023547 0.002034 -455082.000000 0 0 1
36.839949 33.648181 -2.342678 49.948675 0.740148 1.617715 0.018525 -0.005157 502468.000000 0 0 1
-36.891327 -33.828702 -3.442278 50.171709 0.742119 1.639460 0.020818 -0.002408 -273638.000000 0 0 1
-36.164927 32.845981 -4.072678 49.023944 -0.737342 1.653967 0.025568 -0.007663 -366640.000000 0 0 1
-35.057127 32.371781 -3.350278 47.834702 -0.745594 1.640892 0.032954 -0.004170 -178982.000000 0 0 1
-34.563427 31.170281 -3.931378 46.708379 -0.733824 1.655065 0.046975 -0.014569 -466591.000000 0 0 1
-33.259427 30.682381 -3.352178 45.374388 -0.745117 1.644742 0.060114 -0.017309 -134922.000000 0 0 1
-32.070927 31.474281 -3.562378 45.076216 -0.776009 1.649909 0.063372 -0.017237 1691530.000000 0 0 1
-30.860827 30.848581 -3.035378 43.740589 -0.785200 1.640247 0.097385 -0.025506 1282540.000000 0 0 1
-30.548527 30.769181 -1.566678 43.386743 -0.788997 1.606914 0.083922 -0.015133 -561822.000000 0 0 1
-31.414327 29.973981 -0.789378 43.427210 -0.761940 1.588974 0.057776 -0.010570 -541313.000000 0 0 1
-31.061427 29.925981 0.553822 43.135638 -0.766783 1.557957 0.054276 -0.011930 -369188.000000 0 0 1
-32.167127 29.352581 1.488422 43.571934 -0.739680 1.536630 0.051283 -0.018043 114308.000000 0 0 1
-32.516027 28.013581 1.169122 42.935062 -0.711151 1.543563 0.054298 -0.023032 191078.000000 0 0 1
-33.407127 27.925481 0.052822 43.541605 -0.696259 1.569583 0.058730 -0.019040 -470444.000000 0 0 1
-33.625827 26.520381 -0.568578 42.829314 -0.667807 1.584072 0.068873 -0.010033 114730.000000 0 0 1
-34.125527 25.594181 0.396922 42.658777 -0.643502 1.561492 0.076897 -0.016090 90450.000000 0 0 1
-34.573427 24.420981 -0.263378 42.329370 -0.614976 1.577018 0.087858 0.001337 -109159.000000 0 0 1
-34.558927 23.138681 0.632522 41.594688 -0.589991 1.555589 0.094608 -0.013164 218329.000000 0 0 1
-33.268027 22.669081 0.982822 40.269278 -0.598138 1.546388 0.107325 -0.021394 174961.000000 0 0 1
-32.821127 23.141081 2.253422 40.222057 -0.614118 1.514742 0.092267 -0.026927 -268043.000000 0 0 1
-31.308027 22.915081 2.551622 38.881927 -0.631831 1.505124 0.090605 -0.038159 963120.000000 0 0 1
-30.379727 23.758581 1.830722 38.610226 -0.663702 1.523363 0.088646 -0.031461 406182.000000 0 0 1
-30.366127 25.096481 2.195422 39.455733 -0.690670 1.515125 0.060373 -0.029381 -442909.000000 0 0 1
-29.749127 26.108081 1.183122 39.598513 -0.720305 1.540914 0.047176 -0.020105 -703305.000000 0 0 1
-28.383027 26.050181 0.985722 38.538031 -0.742567 1.545216 0.044543 -0.017994 -1040210.000000 0 0 1
-27.993027 26.776881 -0.156378 38.738035 -0.763197 1.574833 0.047181 -0.014552 1063080.000000 0 0 1
-26.653727 26.293981 -0.843678 37.450052 -0.778604 1.593326 0.045180 -0.015576 603033.000000 0 0 1
-26.911327 25.302281 -1.779678 36.980971 -0.754591 1.618939 0.063194 -0.018525 -550234.000000 0 0 1
-25.753627 24.759681 -2.309278 35.799775 -0.765724 1.635347 0.072285 -0.011578 -448659.000000 0 0 1
-25.006927 23.666481 -1.521378 34.463942 -0.757866 1.614955 0.070713 -0.020049 122772.000000 0 0 1
-25.645927 22.404281 -1.309178 34.079016 -0.718037 1.609222 0.054221 -0.021764 142545.000000 0 0 1
-24.663927 21.541881 -0.748378 32.755488 -0.717932 1.593646 0.068871 -0.037142 -334603.000000 0 0 1
-25.152327 20.063881 -0.499978 32.178391 -0.673334 1.586335 0.101516 -0.036826 -3021.410000 0 0 1
-26.150027 19.830481 0.483122 32.822329 -0.648814 1.556076 0.061962 -0.031263 407917.000000 0 0 1
-27.422127 20.423781 0.370222 34.194165 -0.640160 1.559969 0.057921 -0.025127 -280250.000000 0 0 1
-28.341927 19.840381 -0.725678 34.603932 -0.610750 1.591769 0.078351 -0.030844 -705854.000000 0 0 1
-28.673827 18.501781 -0.586578 34.129874 -0.573029 1.587984 0.116676 -0.040462 124779.000000 0 0 1
-29.650127 18.043381 -1.488278 34.740590 -0.546678 1.613649 0.132460 -0.032856 -188911.000000 0 0 1
-29.829727 16.523381 -1.269678 34.123992 -0.505850 1.608013 0.157672 -0.041722 -175765.000000 0 0 1
-30.491127 16.195581 -0.074678 34.525516 -0.488262 1.572959 0.168047 -0.049091 96757.000000 0 0 1
-30.534327 14.820481 0.341522 33.942722 -0.451876 1.560734 0.178354 -0.045945 -364495.000000 0 0 1
-29.210027 14.175981 0.771022 32.477355 -0.451828 1.547054 0.190678 -0.044782 -955705.000000 0 0 1
-28.959627 14.441781 2.117922 32.430088 -0.462596 1.505443 0.208027 -0.046164 911708.000000 0 0 1
-27.658027 14.094881 2.629222 31.153570 -0.471308 1.486300 0.201919 -0.047762 798153.000000 0 0 1
-27.237327 12.604581 2.575822 30.122787 -0.433421 1.485181 0.208546 -0.041920 -515459.000000 0 0 1
-27.125327 12.127381 1.266222 29.739873 -0.420429 1.528207 0.187287 -0.044557 251541.000000 0 0 1
-26.534227 10.840781 1.203122 28.688590 -0.387862 1.528847 0.192794 -0.039902 -114744.000000 0 0 1
-26.708527 10.227181 -0.211178 28.600441 -0.365695 1.578180 0.181117 -0.034657 -655450.000000 0 0 1
-27.992827 9.919181 -0.644678 29.705288 -0.340542 1.592501 0.182177 -0.040180 -454944.000000 0 0 1
-27.969527 8.976681 -1.709078 29.424415 -0.310560 1.628913 0.184974 -0.040801 401673.000000 0 0 1
-29.353127 8.693781 -2.383978 30.706208 -0.287948 1.648513 0.186564 -0.045719 237247.000000 0 0 1
-29.322727 7.762381 -3.483478 30.532138 -0.258786 1.685137 0.190830 -0.040292 43802.200000 0 0 1
-30.427727 8.042681 -4.304478 31.765702 -0.258411 1.706722 0.179006 -0.044495 -184000.000000 0 0 1
-12.275851 17.777081 -19.625278 29.186858 -0.966445 2.308244 0.119154 -0.026710 166535.000000 0 0 1
-12.201251 16.856681 -20.682978 29.339458 -0.944260 2.353155 0.101773 -0.037481 996649.000000 0 0 1
-10.902851 17.026381 -21.329578 29.389126 -1.001235 2.382941 0.090978 -0.030885 1352300.000000 0 0 1
-10.611751 16.016381 -22.472278 29.565808 -0.985645 2.434227 0.085478 -0.027438 -47262.600000 0 0 1
-10.337851 14.751381 -21.970678 28.411003 -0.959530 2.454851 0.105497 -0.040541 -179860.000000 0 0 1
-10.340951 13.743681 -22.973678 28.698675 -0.925751 2.498948 0.109425 -0.041917 517.486000 0 0 1
-9.537651 12.458981 -22.539878 27.463414 -0.917434 2.533473 0.085955 -0.038165 -891156.000000 0 0 1
-8.193951 12.749681 -22.649478 27.252414 -0.999585 2.551879 0.079540 -0.036530 -1466760.000000 0 0 1
-7.501851 11.587981 -22.286078 26.215041 -0.996264 2.587020 0.074202 -0.025308 878971.000000 0 0 1
-5.932351 11.667181 -22.376478 25.923400 -1.100400 2.612325 0.052099 -0.020990 822136.000000 0 0 1
-5.396151 11.382681 -23.623278 26.772059 -1.128110 2.651705 0.041835 -0.026892 627913.000000 0 0 1
-3.955051 11.385681 -23.495878 26.407053 -1.236466 2.667610 0.045369 -0.026368 1004560.000000 0 0 1
-3.269951 10.997081 -24.796578 27.322128 -1.281775 2.708242 0.065701 -0.041096 -477661.000000 0 0 1
-3.277551 9.648281 -25.200808 27.182943 -1.243324 2.757348 0.069009 -0.037862 12741.200000 0 0 1
-2.612151 9.507181 -26.449698 28.227582 -1.302657 2.784783 0.070474 -0.039670 -389343.000000 0 0 1
-2.140951 8.102181 -26.900248 28.175386 -1.312457 2.839590 0.071501 -0.020317 -487044.000000 0 0 1
-1.115251 7.467381 -26.191848 27.258365 -1.422542 2.860936 0.053547 -0.025739 -274877.000000 0 0 1
-1.397751 7.199881 -24.848778 25.908566 -1.379046 2.854584 0.064504 -0.038017 -570607.000000 0 0 1
-0.415751 6.249481 -24.178778 24.976833 -1.504369 2.888123 -0.000790 -0.032156 -54694.900000 0 1 0
0.927549 6.691881 -24.016578 24.948700 1.433066 2.867379 0.035702 -0.018845 495382.000000 0 1 0
1.707049 5.743881 -23.260978 24.020393 1.281916 2.889468 0.033144 -0.007858 278826.000000 0 1 0
1.976949 6.144381 -21.829178 22.763452 1.259508 2.854098 0.044128 -0.019369 84073.600000 0 1 0
2.916549 7.182281 -21.560878 22.912069 1.185063 2.796450 0.054367 -0.033207 163328.000000 0 1 0
2.440949 8.120181 -20.620078 22.295363 1.278787 2.751462 0.050270 -0.025738 -553301.000000 0 1 0
3.135749 9.417881 -20.534278 22.807586 1.249385 2.691316 0.044697 -0.031821 -1273220.000000 0 1 0
2.533349 10.352981 -19.697478 22.396266 1.330814 2.645603 0.048851 -0.023390 -186140.000000 0 1 0
3.213349 11.581081 -19.552778 22.951213 1.300140 2.590452 0.049219 -0.027169 -753296.000000 0 1 0
4.457349 11.575581 -18.697778 22.438114 1.203231 2.555855 0.043978 -0.029592 -871039.000000 0 1 0
5.507249 10.876981 -19.279178 22.810638 1.102104 2.577705 0.050790 -0.025290 -830660.000000 0 1 0
6.594449 10.712981 -18.395678 22.285774 1.019016 2.541786 0.056705 -0.013995 -180967.000000 0 1 0
7.718349 9.814381 -18.904178 22.655307 0.904383 2.557887 0.098543 -0.022540 -253116.000000 0 1 0
7.420649 8.423881 -18.991778 22.061628 0.848631 2.607736 0.088083 -0.023010 139124.000000 0 1 0
6.813749 8.053181 -20.196378 22.785403 0.868574 2.660249 0.065943 -0.021007 -85639.000000 0 1 0
6.600449 6.524681 -20.276878 22.299982 0.779626 2.712342 0.078871 -0.030379 730371.000000 0 1 0
7.842849 5.818081 -20.437978 22.651077 0.638253 2.695862 0.086724 -0.020803 860811.000000 0 1 0
7.584049 4.420781 -20.599278 22.391770 0.527755 2.738746 0.078755 -0.021352 9867.220000 0 1 0
7.674949 4.077781 -22.064178 23.714154 0.488381 2.766360 0.098238 -0.031182 -965330.000000 0 1 0
6.665549 4.624481 -22.831178 24.229694 0.606545 2.800175 0.094438 -0.032182 -618251.000000 0 1 0
6.766849 4.316481 -24.213278 25.508922 0.567812 2.821506 0.088510 -0.033482 -559955.000000 0 0 1
5.668249 5.080181 -24.921178 26.057675 0.730741 2.845162 0.071060 -0.031393 -609081.000000 0 0 1
5.711949 6.498781 -25.101438 26.550757 0.849747 2.809657 0.077702 -0.044210 -6089.920000 0 0 1
5.638849 7.285581 -23.927178 25.639543 0.912128 2.774052 0.089258 -0.046706 -1140960.000000 0 0 1
5.641449 8.785781 -24.338878 26.483899 0.999987 2.736350 0.093070 -0.052331 650036.000000 0 0 1
4.462549 9.258281 -25.021478 27.050037 1.121647 2.751851 0.078885 -0.051709 69127.200000 0 0 1
3.318949 9.217181 -24.253878 26.157646 1.225167 2.757715 0.073510 -0.047959 -754343.000000 0 0 1
1.956349 9.536481 -24.960478 26.791738 1.368460 2.769719 0.082221 -0.040082 552345.000000 0 0 1
1.763849 10.875881 -25.323858 27.616911 1.410016 2.731213 0.096479 -0.050456 346090.000000 0 0 1
0.601749 10.993081 -26.159738 28.382069 1.516112 2.743235 0.114921 -0.054350 252082.000000 0 0 1
0.195949 12.444581 -26.555868 29.327805 1.555052 2.703316 0.104098 -0.051527 -45721.500000 0 0 1
-0.227851 13.173181 -25.425428 28.636289 -1.553501 2.663501 0.097143 -0.052823 147064.000000 0 0 1
-0.391851 14.551681 -25.689708 29.527379 -1.543875 2.626060 0.101539 -0.052697 -238174.000000 0 0 1
-0.966851 15.299881 -24.500078 28.901125 -1.507687 2.582470 0.101520 -0.050207 124481.000000 0 0 1
-2.295251 14.902181 -24.189378 28.503845 -1.417976 2.584197 0.092538 -0.041914 7839.140000 0 0 1
-2.641851 15.479681 -22.913978 27.778594 -1.401759 2.540784 0.086695 -0.046818 -427127.000000 0 0 1
-3.947351 14.882081 -22.344978 27.135880 -1.311525 2.538257 0.087823 -0.039768 693157.000000 0 0 1
-5.178651 15.329681 -22.923578 28.059009 -1.245015 2.526946 0.086799 -0.038021 296748.000000 0 0 1
-5.428051 14.794381 -24.240578 28.912680 -1.219146 2.565149 0.081474 -0.038794 -1489430.000000 0 0 1
-6.855451 15.070881 -24.653478 29.697183 -1.143891 2.550195 0.055307 -0.034371 -636825.000000 0 0 1
-7.316351 16.416981 -24.793078 30.622590 -1.151559 2.514324 0.055811 -0.034838 -384210.000000 0 0 1
-8.549651 16.417181 -25.455118 31.473535 -1.090668 2.512868 0.062980 -0.031262 -317316.000000 0 0 1
-9.236951 17.758581 -25.780478 32.639264 -1.091167 2.481378 0.073022 -0.029460 -24946.500000 0 0 1
-9.689251 18.459281 -24.616678 32.258448 -1.087429 2.438905 0.070557 -0.027230 32112.300000 0 0 1
-10.960951 19.031981 -24.862178 33.173584 -1.048269 2.418038 0.060147 -0.014029 390487.000000 0 0 1
-11.370251 20.065481 -23.796778 33.138992 -1.055254 2.371850 0.047903 -0.014365 559683.000000 0 0 1
-10.527351 21.223581 -23.789178 33.573658 -1.110337 2.358261 0.072134 -0.017770 817692.000000 0 0 1
-11.323151 22.359081 -24.242478 34.868898 -1.102024 2.339559 0.053545 -0.014187 662767.000000 0 0 1
-11.258551 22.882281 -25.691848 36.199791 -1.113553 2.359902 0.052345 -0.010218 -133495.000000 0 0 1
-11.981251 22.070281 -26.570698 36.560220 -1.073445 2.384397 0.048846 -0.012447 -263599.000000 0 0 1
-11.993451 22.653281 -27.857368 37.855607 -1.083879 2.397769 0.068914 -0.001091 -197330.000000 0 0 1
-12.543351 21.670281 -28.911718 38.246885 -1.046090 2.427860 0.071893 -0.005729 -24448.500000 0 0 1
-11.628051 20.690581 -29.349728 37.745440 -1.058789 2.461589 0.077639 -0.015046 -126674.000000 0 0 1
-11.287451 19.662581 -28.460058 36.386791 -1.049671 2.468911 0.072111 -0.016250 -233593.000000 0 0 1
-10.255251 18.740181 -29.124538 36.119293 -1.070080 2.508739 0.068761 -0.025236 -300581.000000 0 0 1
-8.949051 19.331881 -29.253998 36.188445 -1.137253 2.512190 0.059684 -0.026107 609684.000000 0 0 1
-8.018751 18.458881 -29.865588 36.013664 -1.160981 2.548623 0.063516 -0.027888 257170.000000 0 0 1
-7.603851 17.148381 -29.143138 34.658448 -1.153432 2.569679 0.077504 -0.037526 -243596.000000 0 0 1
-8.644851 16.124281 -29.146468 34.412825 -1.078657 2.581047 0.060811 -0.033850 668435.000000 0 0 1
-8.277051 14.868281 -28.621488 33.298122 -1.062830 2.605190 0.055301 -0.034944 -114071.000000 0 0 1
-9.524551 13.972781 -28.394508 33.048507 -0.972492 2.604455 0.055979 -0.023323 -62181.900000 0 0 1
-10.262251 14.465581 -27.326278 32.577482 -0.953773 2.565888 0.066670 -0.021254 -1016260.000000 0 0 1
-11.486251 13.834081 -27.208218 32.612925 -0.877859 2.557617 0.109990 -0.022652 -662486.000000 0 0 1
-12.383151 14.349681 -26.085268 32.244333 -0.858828 2.513224 0.105830 -0.020798 -9937.830000 0 0 1
-12.932851 15.625881 -26.399048 33.291689 -0.879418 2.486452 0.086283 -0.021267 -212794.000000 0 0 1
-14.054451 15.846781 -25.566178 33.200565 -0.845268 2.449720 0.099462 -0.022005 -39735.300000 0 0 1
-14.960951 16.993981 -25.973958 34.456813 -0.848934 2.424641 0.082610 -0.020659 -256817.000000 0 0 1
-14.360151 18.255781 -25.958308 34.832761 -0.904275 2.411671 0.069069 -0.018953 73743.400000 0 0 1
-15.317551 19.229481 -26.354478 36.041072 -0.898153 2.390926 0.064178 -0.012364 241288.000000 0 0 1
-14.828351 20.675181 -26.343138 36.623818 -0.948616 2.373576 0.049930 -0.009496 394663.000000 0 0 1
-15.921751 21.571381 -26.703988 37.840846 -0.934957 2.354196 0.034036 -0.003743 1039230.000000 0 0 1
-15.611451 22.969881 -26.808288 38.600740 -0.973860 2.338524 0.030232 -0.002500 -175818.000000 0 0 1
-15.272051 23.896381 -25.568578 38.184091 -1.002126 2.304484 0.005517 0.001814 174758.000000 0 0 1
-14.644251 25.104481 -25.951098 38.963426 -1.042723 2.299680 0.021790 -0.003566 240553.000000 0 0 1
-14.141751 25.818881 -24.795278 38.489084 -1.069698 2.270794 0.014769 -0.001646 98542.800000 0 0 1
-13.836451 27.328781 -25.099568 39.601742 -1.102125 2.257252 0.041326 -0.008848 -522727.000000 0 0 1
-14.991551 28.031481 -25.493378 40.748287 -1.079689 2.246736 0.050677 -0.011933 -253699.000000 0 0 1
-15.483251 28.839581 -24.440078 40.850581 -1.078086 2.212149 0.048042 -0.014559 418752.000000 0 0 1
-16.850151 29.471581 -24.840978 42.066327 -1.051414 2.202498 0.040000 -0.019625 844911.000000 0 0 1
-17.955751 28.586981 -24.971678 41.990585 -1.009964 2.207685 0.021712 -0.013846 274610.000000 0 0 1
-19.171951 29.281081 -25.301848 43.187139 -0.991085 2.196744 0.028235 -0.016780 2278.540000 0 0 1
-20.271451 28.241281 -25.272658 42.979169 -0.948227 2.199406 0.032836 -0.005001 -815106.000000 0 0 1
-20.640651 27.916981 -23.937778 42.171217 -0.934141 2.174424 0.037411 -0.008103 -463308.000000 0 0 1
-21.507551 26.823881 -23.987678 41.922596 -0.894955 2.179970 0.042911 -0.022959 -491472.000000 0 0 1
-22.051851 26.512181 -22.583978 41.221547 -0.876986 2.150610 0.051763 -0.022536 -306917.000000 0 0 1
-22.985651 27.494981 -22.238878 42.176793 -0.874490 2.126190 0.061030 -0.019384 -492045.000000 0 0 1
-23.489251 27.146981 -20.987778 41.583534 -0.857508 2.099847 0.053075 -0.011080 177813.000000 0 0 1
-24.653151 28.026881 -20.389078 42.532322 -0.849353 2.070743 0.049119 -0.005367 521885.000000 0 0 1
-25.906841 27.663481 -20.919178 43.290237 -0.818178 2.075138 0.090010 -0.020435 -1843.660000 0 0 1
-26.922551 28.623681 -20.578978 44.358012 -0.816014 2.053222 0.100686 -0.016287 941440.000000 0 0 1
-28.333621 28.019781 -20.873978 44.984722 -0.779829 2.053329 0.109301 -0.014610 327474.000000 0 0 1
-28.606461 27.862981 -22.233178 45.705465 -0.772233 2.078812 0.103607 -0.023788 12940.100000 0 0 1
-29.909071 27.347981 -22.454478 46.332151 -0.740698 2.076749 0.101152 -0.021261 328500.000000 0 0 1
-30.131761 26.967581 -23.925678 46.985227 -0.730039 2.105071 0.091085 -0.025072 168305.000000 0 0 1
-29.812731 25.616581 -24.098278 46.105696 -0.709840 2.120782 0.093567 -0.015214 -61625.200000 0 0 1
-30.236951 25.263481 -25.367288 46.861669 -0.696026 2.142806 0.087183 -0.018562 214694.000000 0 0 1
-30.574131 23.785781 -25.605818 46.434888 -0.661163 2.154880 0.068686 -0.023184 92802.900000 0 0 1
-29.348971 23.092781 -25.762868 45.369197 -0.666661 2.174687 0.084793 -0.020920 458458.000000 0 0 1
-29.688851 21.832081 -26.287498 45.266988 -0.634067 2.190411 0.076939 -0.020156 -945264.000000 0 0 1
-28.571161 20.824881 -26.339468 44.088031 -0.629845 2.211088 0.083731 -0.016050 -796388.000000 0 0 1
-28.174191 20.344481 -25.085628 42.859908 -0.625402 2.196038 0.078473 -0.011123 81303.300000 0 0 1
-27.458561 19.113281 -25.221858 41.897878 -0.608088 2.216780 0.075957 -0.012892 -25596.600000 0 0 1
-28.297051 17.802481 -25.206488 41.869064 -0.561563 2.216839 0.065050 -0.004447 -145520.000000 0 0 1
-29.075501 17.576381 -26.348138 42.994631 -0.543728 2.230426 0.063518 -0.012413 118745.000000 0 0 1
-29.720401 16.319681 -26.300748 42.911113 -0.502157 2.230537 0.043027 -0.007765 -9632.480000 0 0 1
-30.536281 15.959081 -27.567918 44.126487 -0.481585 2.245605 0.027014 -0.012860 1401310.000000 0 0 1
-31.844001 16.587481 -27.684318 45.338796 -0.480226 2.227627 0.021299 -0.016114 1691460.000000 0 0 1
-32.609421 16.184081 -28.867928 46.461340 -0.460684 2.241238 0.023810 -0.009154 623378.000000 0 0 1
-33.968281 16.903381 -29.009318 47.760956 -0.461744 2.223562 0.020104 -0.007197 -437517.000000 0 0 1
-34.932174 16.437381 -28.144188 47.775931 -0.439812 2.200725 0.002162 -0.008416 205484.000000 0 0 1
-36.247611 16.823681 -28.597668 49.140128 -0.434544 2.191935 0.021167 -0.013120 1529130.000000 0 0 1
37.191755 16.239781 -27.698048 49.133888 0.411697 2.169686 0.038596 -0.010074 358088.000000 0 0 1
36.900665 17.103181 -26.652518 48.626480 0.434017 2.150896 0.038820 -0.015567 883335.000000 0 0 1
35.667025 16.745681 -25.990858 47.202534 0.438952 2.153908 0.054951 -0.018707 764086.000000 0 0 1
35.101645 17.764281 -25.015978 46.620750 0.468501 2.137181 0.071648 -0.011546 -126655.000000 0 0 1
34.737365 18.966081 -25.638758 47.156576 0.499755 2.145629 0.071833 -0.031103 184254.000000 0 0 1
34.002255 19.755881 -24.730978 46.455026 0.526344 2.132187 0.083276 -0.019382 -382377.000000 0 0 1
33.414185 21.134081 -25.196438 46.883021 0.563966 2.138185 0.096042 -0.025741 -70456.600000 0 0 1
32.177865 21.185381 -25.863618 46.402178 0.582246 2.162022 0.099464 -0.031418 -353915.000000 0 0 1
31.101895 21.228681 -24.949578 45.171520 0.598920 2.155953 0.095176 -0.019466 -171890.000000 0 0 1
29.729685 21.438281 -25.648788 44.736053 0.624752 2.181368 0.058854 -0.024363 235739.000000 0 0 1
29.165225 20.194381 -25.982818 43.971925 0.605616 2.202965 0.079043 -0.036268 277291.000000 0 0 1
27.897825 20.378781 -26.635118 43.623536 0.630890 2.227573 0.091352 -0.043368 329393.000000 0 0 1
27.372425 19.012181 -27.146918 42.984507 0.607075 2.254349 0.096183 -0.028980 18738.600000 0 0 1
28.268925 18.206481 -27.913758 43.701098 0.572178 2.263659 0.102566 -0.041031 -17216.300000 0 0 1
29.298525 17.548381 -27.250088 43.691149 0.539648 2.244261 0.109101 -0.035544 -344704.000000 0 0 1
30.121135 16.611881 -28.171838 44.462229 0.503996 2.257010 0.088132 -0.031442 -94193.600000 0 0 1
29.494625 15.406381 -28.631558 43.898241 0.481364 2.281313 0.096108 -0.040579 90295.700000 0 0 1
29.136825 14.428981 -27.657818 42.686121 0.459812 2.275666 0.102587 -0.031617 -83771.900000 0 0 1
30.249135 13.807281 -26.751638 42.676707 0.428207 2.248292 0.084915 -0.015300 49694.200000 0 0 1
30.713895 14.691481 -25.762108 42.695072 0.446165 2.218551 0.082484 -0.025478 124385.000000 0 0 1
31.523365 14.088981 -24.758378 42.487636 0.420304 2.192868 0.063715 -0.011478 246326.000000 0 0 1
-15.026051 -31.445102 -24.189978 42.423245 1.125025 2.177553 0.153434 -0.032487 -183071.000000 0 0 1
-14.282851 -30.344402 -24.624578 41.607120 1.130869 2.204131 0.151460 -0.035280 -592.759000 0 0 1
-14.581051 -29.921602 -25.942708 42.201107 1.117353 2.232853 0.129570 -0.034171 -71935.900000 0 0 1
-13.861051 -28.662602 -26.421018 41.373224 1.120360 2.263476 0.129805 -0.037274 15938.800000 0 0 1
-14.365251 -27.453902 -25.860808 40.359120 1.088722 2.266294 0.129317 -0.022799 221835.000000 0 0 1
-13.820951 -26.335002 -26.544068 39.864001 1.087496 2.299450 0.108749 -0.019179 11332.200000 0 0 1
-14.307251 -24.941402 -25.956208 38.736233 1.049989 2.305107 0.067572 -0.013309 -62944.300000 0 0 1
-13.731651 -24.623202 -24.715478 37.492868 1.062083 2.290557 0.092525 -0.023634 51849.700000 0 0 1
-14.237151 -23.443202 -24.176178 36.561835 1.025024 2.293268 0.063347 -0.019752 -257975.000000 0 0 1
-13.580351 -23.007602 -22.854078 35.157994 1.037573 2.278432 0.080401 -0.018258 -270369.000000 0 0 1
-12.269951 -22.508802 -22.893578 34.370246 1.071709 2.299747 0.112680 -0.026090 -83739.600000 0 0 1
-11.838351 -21.957202 -21.630078 33.017050 1.076317 2.285136 0.086119 -0.021708 323805.000000 0 0 1
-10.345751 -21.558102 -21.613178 32.232217 1.123357 2.305741 0.096439 -0.026300 36140.300000 0 0 1
-9.991851 -20.385502 -22.298778 31.822025 1.115064 2.347222 0.113408 -0.039525 91266.500000 0 0 1
-8.583451 -20.315402 -22.445678 31.467438 1.171037 2.364990 0.147396 -0.045553 181138.000000 0 0 1
-8.164951 -19.205302 -23.393178 31.348857 1.168807 2.413164 0.154660 -0.044905 -259686.000000 0 0 1
-8.246951 -17.953402 -22.791878 30.163000 1.140192 2.427402 0.119256 -0.044311 -260548.000000 0 0 1
-8.118651 -16.746702 -23.602978 30.057696 1.119390 2.473905 0.100675 -0.038581 -287961.000000 0 0 1
-6.899151 -16.401502 -24.455178 30.243401 1.172623 2.512586 0.120783 -0.041308 -456816.000000 0 0 1
-6.779251 -17.249302 -25.600808 31.605348 1.196325 2.514974 0.119010 -0.042028 285557.000000 0 0 1
-5.680651 -16.863002 -26.433418 31.864655 1.245866 2.549103 0.097345 -0.037008 370529.000000 0 0 1
-5.660751 -17.644702 -27.753838 33.371472 1.260351 2.552893 0.096852 -0.030992 -360062.000000 0 0 1
-6.649151 -17.228202 -28.645688 34.082218 1.202464 2.568979 0.097792 -0.026396 -401599.000000 0 0 1
-6.816351 -18.078002 -29.765528 35.486102 1.210228 2.565861 0.098510 -0.025533 99153.900000 0 0 1
-7.869351 -17.604702 -30.801268 36.339652 1.150438 2.582231 0.100723 -0.023444 99707.200000 0 0 1
-7.567751 -16.573102 -31.776268 36.628811 1.142444 2.620993 0.072220 -0.015085 -388464.000000 0 0 1
-7.232251 -15.372902 -31.239388 35.560244 1.131063 2.643493 0.060327 -0.011248 125169.000000 0 0 1
-7.770951 -14.164502 -32.068098 35.907990 1.069012 2.674904 0.047659 -0.015022 213127.000000 0 0 1
-7.036751 -14.060402 -33.280258 36.807423 1.106776 2.700235 0.081223 -0.025696 -77740.100000 0 0 1
-7.584351 -13.096902 33.699107 36.941590 1.045890 0.422109 0.074582 -0.020277 -355695.000000 0 0 1
-7.529451 -11.592402 -33.727108 36.449887 0.994761 2.752624 0.058392 -0.015773 -553163.000000 0 0 1
-6.335251 -10.907602 -33.854048 36.127659 1.044606 2.784930 0.073805 -0.010711 -821414.000000 0 0 1
-6.176351 -10.283202 32.780112 34.905978 1.029917 0.350802 0.063057 -0.017721 274914.000000 0 0 1
-4.987051 -9.279702 32.771994 34.423642 1.077667 0.311026 0.070751 -0.020027 155059.000000 0 0 1
-4.957551 -8.535702 31.534105 33.042932 1.044613 0.303363 0.055690 -0.014884 -66832.000000 0 0 1
-3.866151 -7.645902 31.528535 32.671937 1.102639 0.265339 0.060163 -0.018160 -491329.000000 0 0 1
-4.146951 -6.524602 30.512405 31.476571 1.004620 0.248149 0.049963 -0.016402 453271.000000 0 0 1
-5.313251 -5.746802 30.733275 31.714202 0.824578 0.249363 0.027901 -0.014129 -697587.000000 0 0 1
-6.463651 -6.310902 30.249665 31.569741 0.773441 0.290204 0.035158 -0.013840 -1129160.000000 0 0 1
-7.754851 -5.472602 30.336035 31.786194 0.614542 0.303228 0.026055 -0.015019 84146.000000 0 0 1
-8.875951 -6.024902 29.697235 31.575429 0.596348 0.346647 0.021855 -0.008544 -238914.000000 0 0 1
-9.917451 -5.047802 29.604505 31.626933 0.470807 0.359555 0.027525 -0.013617 58170.100000 0 0 1
-10.933451 -5.535002 28.566605 31.084201 0.468631 0.405241 0.035786 -0.015244 -459536.000000 0 0 1
-10.430151 -5.597102 27.273985 29.731900 0.492518 0.409473 0.025494 -0.013780 -220934.000000 0 0 1
-11.355151 -6.199802 26.443855 29.438996 0.499760 0.455004 0.041882 -0.020867 -410431.000000 0 0 1
-11.058151 -5.928402 24.960485 27.936616 0.492118 0.465787 0.041154 -0.020810 1178640.000000 0 0 1
-9.820951 -6.642202 24.630955 27.335945 0.594663 0.448620 0.032704 -0.017059 1284830.000000 0 0 1
-9.171551 -6.385502 23.411195 25.941782 0.608191 0.445370 0.035707 -0.023073 -802259.000000 0 0 1
-9.948651 -6.741502 22.181435 25.227754 0.595554 0.496516 0.049758 -0.028813 -658303.000000 0 0 1
-10.993051 -5.835002 21.966935 25.247587 0.487975 0.515471 0.047427 -0.025719 -384910.000000 0 0 1
-11.654951 -5.970602 20.713635 24.505931 0.473424 0.563764 0.057887 -0.031243 -289712.000000 0 1 0
-12.904651 -5.062402 20.628135 24.853127 0.373845 0.591686 0.067550 -0.022123 -346911.000000 0 1 0
-12.650151 -3.696202 20.502535 24.372981 0.284273 0.571299 0.035465 -0.012277 -270142.000000 0 1 0
-13.754351 -2.830402 20.651835 24.973819 0.202949 0.597154 0.051718 -0.010144 -60268.400000 0 1 0
-13.510551 -1.408402 20.096635 24.256820 0.103869 0.594383 0.028916 -0.006283 54221.500000 0 1 0
-12.611151 -0.585402 20.828235 24.355681 0.046386 0.544919 0.037916 -0.008196 164073.000000 0 1 0
-12.775851 0.773598 20.566335 24.223851 -0.060478 0.556684 0.049828 -0.015957 -500631.000000 0 1 0
-12.546751 1.404598 19.081835 22.880347 -0.111485 0.584508 0.051125 -0.026031 766330.000000 0 1 0
-13.602751 1.076598 18.159335 22.714651 -0.078981 0.644409 0.072921 -0.018179 1940680.000000 0 1 0
-14.977451 1.432598 18.469335 23.822106 -0.095360 0.683603 0.073980 -0.014829 758619.000000 0 1 0
-16.007951 0.702598 17.638535 23.829941 -0.043862 0.737453 0.091288 -0.011810 -551596.000000 0 1 0
-15.940251 -0.696402 17.858035 23.947568 0.043661 0.729191 0.078593 -0.011698 446860.000000 0 1 0
-16.845151 -1.383402 17.001235 23.973212 0.081941 0.782467 0.083888 -0.002440 -188319.000000 0 1 0
-16.984051 -2.945402 17.331635 24.444201 0.171714 0.782677 0.087575 0.004573 78612.700000 0 1 0
-17.808651 -3.226602 18.448835 25.844120 0.179237 0.775815 0.101729 0.006739 191278.000000 0 0 1
-17.680151 -4.576502 18.897935 26.280488 0.253290 0.768310 0.099282 0.010275 260476.000000 0 0 1
-18.525451 -4.873402 20.207535 27.843974 0.257237 0.758684 0.083392 0.015740 -116354.000000 0 0 1
-18.054651 -4.360302 21.434735 28.362485 0.236968 0.714009 0.086553 0.005887 -371247.000000 0 0 1
-18.762951 -4.687002 22.602135 29.746812 0.244791 0.707765 0.083595 -0.000416 -1073140.000000 0 0 1
-18.667051 -6.141702 23.112865 30.337829 0.317857 0.704632 0.091763 -0.001602 -294315.000000 0 0 1
-17.417151 -6.487202 23.606775 30.045312 0.356542 0.666960 0.081985 -0.022222 -22146.800000 0 0 1
-16.326551 -6.574802 22.683935 28.711413 0.382837 0.659878 0.103160 -0.021214 -21330.500000 0 0 1
-15.040851 -7.153202 23.355075 28.685450 0.443925 0.619483 0.111831 -0.029089 172918.000000 0 0 1
-15.117551 -8.503302 23.830995 29.474783 0.512373 0.629161 0.107273 -0.035460 61811.600000 0 0 1
-15.076051 -8.540602 25.250835 30.624074 0.515424 0.601404 0.087177 -0.032829 215702.000000 0 0 1
-16.118051 -9.589302 25.732375 31.841819 0.536692 0.629824 0.067600 -0.021653 -145147.000000 0 0 1
-15.840251 -10.990002 25.508155 31.974360 0.606554 0.647210 0.074944 -0.032161 -9342.910000 0 0 1
-14.871651 -11.507602 26.414375 32.423913 0.658557 0.618658 0.068839 -0.022954 213512.000000 0 0 1
-14.813251 -13.029102 26.426935 32.978369 0.721405 0.641262 0.065657 -0.029149 -360632.000000 0 0 1
-15.997551 -13.533402 26.971385 34.154505 0.702148 0.660497 0.055815 -0.031152 -324411.000000 0 0 1
-16.218051 -14.899702 26.718205 34.624974 0.743057 0.689372 0.065536 -0.022398 62374.900000 0 0 1
-15.317451 -15.928002 27.447845 35.237903 0.804936 0.677839 0.060071 -0.017101 592683.000000 0 0 1
-14.004951 -16.045102 26.907445 34.316098 0.853186 0.669543 0.047626 -0.029045 795439.000000 0 0 1
-13.123651 -16.863802 27.698385 34.983119 0.909481 0.657104 0.059433 -0.027690 1014100.000000 0 0 1
-11.749151 -17.266302 27.070475 34.190326 0.973300 0.657114 0.059671 -0.035655 285814.000000 0 0 1
-10.952251 -17.999902 27.943825 34.997224 1.024178 0.646066 0.061450 -0.028189 -345655.000000 0 0 1
-9.902851 -18.600202 27.184615 34.395309 1.081562 0.659403 0.070287 -0.031744 176089.000000 0 0 1
-8.894751 -19.278502 28.153945 35.262188 1.138518 0.646134 0.083186 -0.035789 -74923.300000 0 0 1
-9.363251 -20.461402 28.741275 36.502060 1.141636 0.664236 0.093989 -0.029984 110334.000000 0 0 1
-8.308651 -21.064302 29.442385 37.142867 1.195090 0.655605 0.105081 -0.029237 100163.000000 0 0 1
-8.859751 -22.302002 30.136305 38.523647 1.192652 0.672478 0.119360 -0.037199 177765.000000 0 0 1
-9.053851 -23.409902 29.278855 38.564843 1.201762 0.708696 0.140044 -0.037972 81982.300000 0 0 1
-9.445351 -24.565702 30.046485 39.943456 1.203729 0.719363 0.121843 -0.034278 -16531.800000 0 0 1
-9.581251 -25.777202 29.162755 40.084047 1.214927 0.756067 0.120691 -0.030652 -595797.000000 0 0 1
-10.735351 -25.824102 28.396725 39.856066 1.176820 0.777767 0.106554 -0.024286 -361426.000000 0 0 1
-10.787051 -27.060102 27.683145 40.186641 1.191469 0.810875 0.110407 -0.021779 -79199.500000 0 0 1
-12.047551 -27.169702 26.788275 40.011847 1.153429 0.837249 0.089637 -0.010732 -4068.950000 0 0 1
-12.033451 -26.375602 25.609285 38.682190 1.142770 0.847254 0.090662 -0.013705 300766.000000 0 0 1
-12.777251 -25.167502 25.774495 38.222846 1.101017 0.830751 0.070825 -0.010440 -41474.300000 0 0 1
-13.032151 -24.382702 24.439735 36.900593 1.079944 0.846895 0.067972 -0.023805 609539.000000 0 0 1
-14.192951 -24.755502 23.673915 37.077338 1.050222 0.878247 0.056075 -0.012517 397047.000000 0 0 1
-14.054851 -24.449902 22.303135 35.955061 1.049080 0.901664 0.067212 -0.020236 300457.000000 0 0 1
-15.313051 -24.504102 21.360335 35.933334 1.012256 0.934223 0.064173 -0.024477 106780.000000 0 0 1
-15.625251 -25.838202 21.085235 36.828634 1.026903 0.961217 0.076299 -0.018542 128493.000000 0 0 1
-16.672651 -25.888602 20.127835 36.787590 0.998640 0.991857 0.077645 -0.020173 89060.900000 0 0 1
-16.939851 -27.330102 19.737135 37.728604 1.015928 1.020272 0.087797 -0.024934 -224036.000000 0 0 1
-15.900251 -27.882702 18.985235 37.292120 1.052535 1.036663 0.093761 -0.028049 -93768.300000 0 0 1
-16.208551 -29.156302 18.436435 38.114423 1.063420 1.065904 0.111423 -0.029629 15166.500000 0 0 1
-15.112251 -29.584902 17.458735 37.529375 1.098539 1.086934 0.104690 -0.044520 -66893.500000 0 0 1
-15.363351 -29.000502 16.213335 36.605108 1.083624 1.111937 0.095502 -0.043650 -442967.000000 0 0 1
-14.287651 -29.060402 15.336735 35.830984 1.113848 1.128484 0.092390 -0.038928 -471177.000000 0 0 1
-14.564451 -28.501202 13.940135 34.910874 1.098378 1.160036 0.082128 -0.032846 -140237.000000 0 0 1
-14.807551 -27.076802 13.942535 33.864599 1.070358 1.146462 0.080112 -0.031454 -80135.700000 0 0 1
-15.167051 -26.687802 12.609835 33.185632 1.054001 1.181023 0.075259 -0.024527 79714.700000 0 0 1
-14.008951 -26.683902 11.588035 32.288758 1.087352 1.203720 0.075985 -0.023108 112447.000000 0 0 1
-14.443051 -26.103502 10.383835 31.588267 1.065424 1.235844 0.061433 -0.016398 35799.100000 0 0 1
-13.530651 -26.256302 9.302535 30.967872 1.094960 1.265692 0.076081 -0.016338 15671.100000 0 0 1
-13.989251 -25.638102 7.992135 30.280120 1.071304 1.303692 0.089747 -0.019872 -383363.000000 0 0 1
-14.929651 -26.292302 7.212935 31.083855 1.054365 1.336614 0.077415 -0.016566 -288670.000000 0 0 1
-15.372151 -25.545902 6.100035 30.431999 1.029094 1.368981 0.082023 -0.016345 352816.000000 0 0 1
-16.243151 -26.353202 5.072335 31.369727 1.018432 1.408388 0.069858 -0.019508 529058.000000 0 0 1
-15.507151 -27.303102 4.316435 31.694838 1.054267 1.434184 0.074956 -0.014283 118477.000000 0 0 1
-16.275851 -27.761402 3.238035 32.343216 1.040529 1.470514 0.093775 -0.018909 205515.000000 0 0 1
-15.543751 -28.965502 2.568335 32.972790 1.078276 1.492825 0.094619 -0.019126 -404105.000000 0 0 1
-14.411751 -28.702002 1.832935 32.169289 1.105457 1.513788 0.067745 -0.004159 -931169.000000 0 0 1
-13.814251 -29.816102 1.194935 32.882539 1.136925 1.534449 0.054999 -0.010178 1452790.000000 0 0 1
-12.377451 -29.463102 0.579335 31.962655 1.173083 1.552670 0.061902 -0.006871 1222480.000000 0 0 1
-12.360851 -28.622002 -0.582465 31.182510 1.163125 1.589477 0.064555 -0.008134 -26782.500000 0 0 1
-12.726451 -27.249002 -0.341865 30.076362 1.133860 1.582163 0.056586 -0.013156 -256136.000000 0 0 1
-12.573951 -26.351802 -1.609265 29.242289 1.125589 1.625856 0.058518 -0.015341 -279085.000000 0 0 1
-11.248551 -26.376402 -2.062765 28.748904 1.167687 1.642609 0.063798 -0.019004 -720075.000000 0 0 1
-10.989851 -25.821202 -3.365865 28.263764 1.168406 1.690167 0.088794 -0.023731 -525803.000000 0 0 1
-9.641951 -26.295002 -3.835765 28.268489 1.219336 1.706907 0.072452 -0.020175 -574264.000000 0 0 1
-8.965451 -25.393602 -4.702265 27.337257 1.231399 1.743665 0.074515 -0.029113 -381789.000000 0 0 1
-7.767451 -26.002602 -5.120365 27.616784 1.280516 1.757283 0.094393 -0.015214 127961.000000 0 0 1
-6.827951 -25.141402 -6.003365 26.734835 1.305611 1.797280 0.073059 -0.015140 320259.000000 0 0 1
-7.203551 -24.987802 -7.389665 27.034950 1.290124 1.847657 0.082914 -0.017558 101718.000000 0 0 1
-6.542151 -23.785902 -7.851365 25.888469 1.302390 1.878926 0.076125 -0.014455 156518.000000 0 0 1
-6.722751 -23.506802 -9.334865 26.170686 1.292240 1.935520 0.076550 -0.030338 -325092.000000 0 0 1
-6.022951 -24.446902 -10.116565 27.134330 1.329238 1.952856 0.063073 -0.028204 113326.000000 0 0 1
-6.337851 -24.347602 -11.557265 27.686539 1.316141 2.001414 0.052567 -0.020009 166904.000000 0 0 1
-7.770951 -24.873002 -11.844465 28.624207 1.267980 1.997412 0.056706 -0.022114 -8571.490000 0 0 1
-7.999951 -24.925602 -13.237965 29.334767 1.260229 2.038987 0.069135 -0.015403 -10348.900000 0 0 1
-9.060851 -25.839402 -13.467065 30.514514 1.233533 2.027880 0.085919 -0.020143 -691185.000000 0 0 1
-9.252251 -26.007202 -14.972965 31.403318 1.229002 2.067802 0.096745 -0.026139 617603.000000 0 0 1
-8.185851 -26.727502 -15.651165 32.036331 1.273597 2.081217 0.087996 -0.028350 1998840.000000 0 0 1
-6.960351 -25.923502 -15.744365 31.118475 1.308487 2.101278 0.086443 -0.030603 613260.000000 0 0 1
-5.834551 -26.577702 -16.564465 31.855890 1.354696 2.117625 0.093065 -0.021881 -75700.200000 0 0 1
-6.079951 -26.646102 -17.932565 32.688797 1.346463 2.151467 0.123176 -0.027451 -461451.000000 0 0 1
-4.928151 -27.185102 -18.456465 33.225856 1.391463 2.159742 0.111821 -0.033615 -629950.000000 0 0 1
-25.487231 13.927881 -5.607478 29.580883 -0.500125 1.761515 0.134617 -0.044798 109204.000000 0 0 1
-25.387881 13.183881 -4.389478 28.941782 -0.478967 1.723050 0.135622 -0.038899 68270.200000 0 0 1
-24.076351 12.673781 -4.357178 27.555043 -0.484544 1.729589 0.135049 -0.031861 -279859.000000 0 0 1
-24.084451 11.185281 -3.962378 26.849055 -0.434780 1.718917 0.144332 -0.041903 51845.900000 0 0 1
-24.513151 10.249181 -5.005378 27.036903 -0.396020 1.757002 0.130852 -0.030712 413510.000000 0 0 1
-25.926151 10.136381 -5.079178 28.296812 -0.372699 1.751271 0.157269 -0.037408 19469.200000 0 0 1
-26.418951 9.411081 -6.343478 28.753593 -0.342209 1.793241 0.166754 -0.030851 -80164.300000 0 0 1
-26.337961 10.264181 -7.444478 29.231180 -0.371605 1.828309 0.186711 -0.029257 161394.000000 0 0 1
-26.310241 9.569781 -8.647378 29.301649 -0.348852 1.870373 0.169414 -0.023320 -357150.000000 0 0 1
-26.633511 10.474781 -9.835978 30.262376 -0.374711 1.901833 0.175642 -0.019399 -190564.000000 0 0 1
-25.712501 11.498481 -10.162378 29.943642 -0.420518 1.917058 0.156129 -0.022083 282246.000000 0 0 1
-26.168981 12.123981 -11.354478 30.995656 -0.433856 1.945853 0.163140 -0.027886 -422192.000000 0 0 1
-25.213581 13.141881 -11.918878 30.830072 -0.480481 1.967737 0.140906 -0.023253 -553002.000000 0 0 1
-25.164521 14.402281 -11.288278 31.114370 -0.519822 1.942067 0.131955 -0.022621 231536.000000 0 0 1
-24.220051 15.322081 -11.825278 31.003455 -0.564060 1.962126 0.110147 -0.024283 34492.800000 0 0 1
-24.205551 16.737081 -11.245878 31.504101 -0.604969 1.935814 0.102812 -0.034130 -281613.000000 0 0 1
-23.593451 16.812581 -9.965278 30.636915 -0.619129 1.902094 0.094453 -0.024349 209885.000000 0 0 1
-23.699151 18.215781 -9.522278 31.370977 -0.655316 1.879200 0.058133 -0.009949 105271.000000 0 0 1
-22.644351 18.549681 -8.427678 30.461173 -0.686324 1.851123 0.061875 -0.014341 -72579.600000 0 0 1
-22.689251 17.861481 -7.161978 29.751110 -0.666901 1.813914 0.088553 -0.027646 664862.000000 0 0 1
-23.841051 18.223681 -6.363778 30.675657 -0.652643 1.779768 0.097762 -0.033397 446346.000000 0 0 1
-24.008751 17.449481 -5.058678 30.108051 -0.628485 1.739615 0.105314 -0.022363 232545.000000 0 0 1
-22.914151 17.616781 -4.169078 29.202577 -0.655435 1.714050 0.103549 -0.036455 177225.000000 0 0 1
-23.220951 17.138081 -2.915278 29.007331 -0.635805 1.671468 0.099531 -0.033405 -303000.000000 0 0 1
-22.022251 17.075381 -1.970478 27.936195 -0.659541 1.641390 0.108369 -0.051528 -294337.000000 0 0 1
-21.497251 18.332781 -1.509878 28.293151 -0.706115 1.624187 0.102652 -0.051726 43643.900000 0 0 1
-20.383651 18.157681 -0.680078 27.306723 -0.727707 1.595704 0.151957 -0.062507 -281516.000000 0 0 1
-19.834751 19.502181 -0.314778 27.818187 -0.776944 1.582112 0.130252 -0.061529 -303989.000000 0 0 1
-20.575951 19.859581 0.812122 28.608255 -0.767684 1.542405 0.112067 -0.049431 210968.000000 0 0 1
-20.733951 21.230281 0.893222 29.688709 -0.797225 1.540706 0.135807 -0.048611 -30858.900000 0 0 1
-21.956951 21.499181 1.781722 30.781440 -0.774864 1.512881 0.093196 -0.042915 -223831.000000 0 0 1
-21.596851 21.346481 3.114822 30.525372 -0.779568 1.468578 0.113103 -0.042437 562180.000000 0 0 1
-22.726251 21.538881 3.956922 31.560468 -0.758581 1.445090 0.083456 -0.035007 265823.000000 0 0 1
-22.432551 21.129781 5.431922 31.292056 -0.755501 1.396325 0.088456 -0.034511 15068.600000 0 0 1
-21.738351 22.189381 6.094422 31.655434 -0.795665 1.377063 0.088271 -0.025990 204220.000000 0 0 1
-21.028051 21.745881 7.250722 31.106836 -0.802179 1.335541 0.079530 -0.022509 -157014.000000 0 0 1
-21.782551 21.560681 8.571522 31.824731 -0.780279 1.298094 0.068659 -0.033495 -225687.000000 0 0 1
-22.838151 20.568781 8.472322 31.881596 -0.733164 1.301821 0.085815 -0.034640 1078390.000000 0 0 1
-23.376451 20.086881 9.705622 32.313161 -0.709856 1.265725 0.106972 -0.035857 138753.000000 0 0 1
-24.037251 21.125981 10.656222 33.729091 -0.721026 1.249354 0.109069 -0.037941 126374.000000 0 0 1
-25.314651 21.608281 10.192222 34.808487 -0.706573 1.273634 0.131205 -0.036227 1043890.000000 0 0 1
-25.894181 22.472181 11.178622 36.062018 -0.714764 1.255621 0.141748 -0.039371 89192.400000 0 0 1
-27.298261 22.963281 10.741022 37.254220 -0.699363 1.278328 0.138177 -0.041016 -157645.000000 0 0 1
-27.939711 23.716581 11.707322 38.472913 -0.703825 1.261592 0.141455 -0.036098 -58408.000000 0 0 1
-27.646281 25.133581 11.672622 39.144142 -0.737827 1.267994 0.121402 -0.028639 -35937.000000 0 0 1
-27.982851 25.823981 13.001422 40.236239 -0.745297 1.241764 0.127878 -0.027927 344811.000000 0 0 1
-26.990881 25.445981 13.954422 39.632455 -0.755945 1.210987 0.110952 -0.027403 204516.000000 0 0 1
-27.290131 25.897381 15.280122 40.606745 -0.759218 1.185002 0.133000 -0.029221 52775.400000 0 0 1
-26.071381 25.866481 16.228622 40.151711 -0.781453 1.154711 0.104562 -0.030198 103841.000000 0 0 1
-25.825401 24.626581 16.887422 39.479170 -0.761641 1.128788 0.120313 -0.039385 -127713.000000 0 0 1
-24.776251 24.861081 17.790622 39.350250 -0.787107 1.101667 0.094457 -0.030887 -11351.100000 0 0 1
-24.094051 23.593181 18.403622 38.416856 -0.774895 1.071223 0.104472 -0.029746 -111984.000000 0 0 1
-22.988451 23.776281 19.255822 38.269663 -0.802243 1.043543 0.106905 -0.038645 219347.000000 0 0 1
-22.669751 22.463181 19.729722 37.520315 -0.780821 1.017093 0.101960 -0.038788 -1380310.000000 0 0 1
-21.248551 22.279981 20.147722 36.794418 -0.809089 0.991332 0.069625 -0.033070 -1884330.000000 0 0 1
-20.308351 22.382781 19.106322 35.755693 -0.833952 1.007049 0.067626 -0.035264 -291941.000000 0 0 1
-18.982651 22.193681 19.521922 35.128421 -0.863223 0.981555 0.062987 -0.031865 -172504.000000 0 0 1
-18.493151 20.739481 19.692622 34.057629 -0.842592 0.954258 0.049453 -0.021834 -914729.000000 0 0 1
-18.942551 20.086081 20.855522 34.600920 -0.814690 0.923860 0.070440 -0.020406 158640.000000 0 0 1
-18.367851 20.543681 22.075822 35.309527 -0.841257 0.895397 0.066559 -0.017315 82980.300000 0 0 1
-19.352851 20.106381 23.193422 36.286833 -0.804492 0.877379 0.064622 -0.017066 421614.000000 0 0 1
-20.600951 20.771781 23.132722 37.295964 -0.789527 0.901738 0.057855 -0.012844 -200224.000000 0 0 1
-21.287851 20.632581 24.325622 38.348558 -0.769768 0.883655 0.060930 -0.003876 326378.000000 0 0 1
-22.458451 21.656681 24.524922 39.684577 -0.767226 0.904605 0.060064 -0.013620 14920.600000 0 0 1
-22.007951 22.969481 24.861922 40.374028 -0.806773 0.907408 0.080455 -0.028532 378903.000000 0 0 1
-23.001051 23.998981 24.945522 41.560540 -0.806628 0.927019 0.080475 -0.037893 223569.000000 0 0 1
-23.745451 24.437981 23.633522 41.468117 -0.799770 0.964387 0.071288 -0.038120 584316.000000 0 0 1
-24.783551 23.514981 23.250622 41.325176 -0.759139 0.973237 0.055154 -0.033581 223162.000000 0 0 1
-25.353971 23.915281 22.048722 41.242098 -0.756206 1.006742 0.062789 -0.038083 -225451.000000 0 0 1
-26.404161 22.880881 21.617122 41.085452 -0.714032 1.016729 0.069553 -0.035433 86807.700000 0 0 1
-27.719941 23.037481 22.116022 42.287576 -0.693407 1.020440 0.075391 -0.035760 -110896.000000 0 0 1
-28.534341 22.024881 21.660222 42.053171 -0.657353 1.029710 0.094119 -0.036843 -145908.000000 0 0 1
-30.029561 22.133381 22.016122 43.317095 -0.635163 1.037639 0.103204 -0.032289 -69801.800000 0 0 1
-30.761831 23.221181 21.420222 44.094664 -0.646611 1.063543 0.124292 -0.032766 714320.000000 0 0 1
-32.163511 23.332481 21.607322 45.230216 -0.627592 1.072740 0.129358 -0.032036 757161.000000 0 0 1
-33.076831 22.338581 20.835522 45.024526 -0.593993 1.089691 0.140189 -0.048218 -956550.000000 0 0 1
-32.867981 20.957881 21.290222 44.416332 -0.567636 1.070902 0.127371 -0.044771 776796.000000 0 0 1
-33.710111 19.963681 20.641722 44.283189 -0.534677 1.085885 0.126257 -0.036603 1056780.000000 0 0 1
-35.255491 20.177081 20.670422 45.577742 -0.519811 1.100085 0.149783 -0.044650 -139454.000000 0 0 1
-35.962171 19.407881 19.766822 45.394613 -0.494882 1.120265 0.130374 -0.030118 819075.000000 0 0 1
37.245515 19.814881 19.677822 46.551848 0.488924 1.134365 0.168249 -0.049152 1299750.000000 0 0 1
36.368095 18.948781 18.775022 45.102063 0.480328 1.141448 0.156743 -0.053201 -96151.000000 0 0 1
36.258795 17.623681 19.173222 44.641984 0.452428 1.126870 0.180657 -0.057194 191120.000000 0 0 1
35.532045 16.869081 18.215022 43.346039 0.443250 1.137105 0.194005 -0.074362 107092.000000 0 0 1
35.957355 15.374981 18.231222 43.147409 0.404062 1.134558 0.195644 -0.084165 -91441.800000 0 0 1
35.044805 14.641781 17.468822 41.805261 0.395758 1.139706 0.208246 -0.072590 69820.200000 0 0 1
35.592195 13.366881 17.065922 41.674015 0.359259 1.148880 0.191581 -0.054670 20581.600000 0 0 1
34.766345 12.531381 16.085022 40.304617 0.345950 1.160276 0.176954 -0.062883 -347333.000000 0 0 1
34.684225 13.068481 14.759522 39.895164 0.360334 1.191833 0.168952 -0.051435 146025.000000 0 0 1
33.770665 12.421581 13.909122 38.577418 0.352463 1.201938 0.177213 -0.041503 -355603.000000 0 0 1
33.744015 12.886581 12.414722 38.194867 0.364800 1.239746 0.172919 -0.042090 -722280.000000 0 0 1
34.946305 12.662481 11.746122 38.981457 0.347627 1.264713 0.149220 -0.037668 -264328.000000 0 0 1
34.802185 12.279481 10.407722 38.344470 0.339200 1.295921 0.132800 -0.025400 132561.000000 0 0 1
36.161295 12.386381 9.637022 39.419968 0.330006 1.323823 0.087282 -0.011384 278334.000000 0 0 1
37.112155 11.484581 10.231722 40.173322 0.300109 1.313270 0.107200 -0.026392 666076.000000 0 0 1
-36.152051 11.563481 9.746622 39.187773 -0.309573 1.319442 0.136729 -0.020083 382151.000000 0 0 1
-35.827009 11.206281 8.269522 38.438786 -0.303148 1.353966 0.115953 -0.033734 -744376.000000 0 0 1
-36.365691 12.118381 7.320522 39.024463 -0.321664 1.382090 0.107883 -0.039023 213000.000000 0 0 1
-35.873864 11.810081 6.028222 38.245936 -0.318036 1.412519 0.147073 -0.051673 -114487.000000 0 0 1
-36.718401 12.570081 5.014422 39.133008 -0.329832 1.442305 0.150432 -0.051180 -1459700.000000 0 0 1
36.619565 12.027281 4.880822 38.851904 0.317339 1.444837 0.140592 -0.047418 -227380.000000 0 0 1
35.579985 12.967581 4.519422 38.138152 0.349501 1.452016 0.121108 -0.037365 663378.000000 0 0 1
35.096035 13.784381 5.711322 38.136072 0.374251 1.420469 0.113827 -0.022701 -1486490.000000 0 0 1
34.202605 14.827281 5.336222 37.658222 0.409059 1.428616 0.091639 -0.011459 240524.000000 0 0 1
33.665385 15.467981 6.451822 37.606417 0.430695 1.398382 0.077083 -0.004896 -218749.000000 0 0 1
32.477335 14.828581 7.181622 36.417575 0.428314 1.372293 0.121632 -0.014515 -677272.000000 0 0 1
32.807885 13.735781 8.034022 36.463331 0.396500 1.348642 0.143294 -0.017962 -327405.000000 0 0 1
31.835025 12.739881 8.122622 35.238478 0.380665 1.338200 0.171110 -0.024786 -488900.000000 0 0 1
32.024415 11.627381 7.000222 34.781637 0.348278 1.368150 0.162936 -0.022695 26307.500000 0 0 1
31.332805 11.902181 5.797322 34.014931 0.363028 1.399526 0.133816 -0.029147 266257.000000 0 0 1
31.774165 11.085681 4.732922 33.983679 0.335685 1.431072 0.137860 -0.037686 67978.700000 0 0 1
31.061825 11.427481 3.366122 33.267928 0.352527 1.469441 0.115632 -0.045537 162271.000000 0 0 1
29.690115 11.102781 3.337722 31.873422 0.357855 1.465886 0.119984 -0.039073 -87274.300000 0 0 1
29.185825 11.521881 2.086622 31.447100 0.375995 1.504394 0.137977 -0.043333 -756014.000000 0 0 1
27.707925 11.212581 1.930122 29.952904 0.384526 1.506313 0.152122 -0.028679 -740719.000000 0 0 1
27.536825 9.838081 1.693522 29.290486 0.343137 1.512946 0.131144 -0.025791 -28596.400000 0 0 1
26.216825 9.343281 1.672522 27.882183 0.342352 1.510775 0.138705 -0.027849 -269582.000000 0 0 1
26.117625 7.759581 1.551422 27.290078 0.288795 1.513916 0.142799 -0.025230 268412.000000 0 0 1
26.689325 6.976681 2.605522 27.708895 0.255682 1.476625 0.161159 -0.019017 183391.000000 0 0 1
28.092725 6.870381 2.635722 29.040495 0.239853 1.479911 0.185873 -0.034286 -396735.000000 0 0 1
28.540125 6.187981 3.968322 29.471637 0.213512 1.435737 0.198667 -0.036515 -293401.000000 0 0 1
29.926445 5.978281 4.077622 30.788942 0.197170 1.437968 0.229719 -0.041290 117263.000000 0 0 1
30.163695 5.613781 5.435922 31.159465 0.184005 1.395444 0.209816 -0.025637 -362423.000000 0 0 1
31.648655 5.720081 5.779822 32.676643 0.178807 1.392981 0.178617 -0.033519 -256294.000000 0 0 1
32.306935 6.983981 5.773122 33.553583 0.212900 1.397879 0.178574 -0.038074 -735844.000000 0 0 1
33.589085 6.828481 6.274522 34.845723 0.200561 1.389743 0.119379 -0.027902 -884351.000000 0 0 1
34.014975 7.841181 7.310322 35.664316 0.226564 1.364357 0.097765 -0.032216 -448203.000000 0 0 1
33.407955 7.696081 8.552222 35.333576 0.226417 1.326326 0.118862 -0.033195 -204405.000000 0 0 1
33.967615 8.511681 9.549822 36.296648 0.245527 1.304557 0.117126 -0.034883 -640614.000000 0 0 1
33.266905 8.347881 10.854022 35.974767 0.245860 1.264308 0.144736 -0.036342 -690004.000000 0 0 1
32.162995 9.183781 11.034722 35.221657 0.278137 1.252137 0.161391 -0.039959 -269201.000000 0 0 1
31.538605 8.895481 12.273422 34.992143 0.274909 1.212427 0.164158 -0.044027 289008.000000 0 0 1
30.064635 9.398881 12.374622 33.843057 0.302996 1.196468 0.162449 -0.047989 182047.000000 0 0 1
29.827855 10.789081 12.566022 34.117592 0.347070 1.193600 0.182523 -0.049615 215500.000000 0 0 1
29.935485 11.647081 11.426222 34.093200 0.371051 1.229035 0.175841 -0.053423 140741.000000 0 0 1
28.633725 11.721381 10.566322 32.694466 0.388546 1.241704 0.146518 -0.043280 242240.000000 0 0 1
28.774925 12.602781 9.446222 32.803315 0.412812 1.278695 0.124479 -0.022781 -506517.000000 0 0 1
27.679525 12.585881 8.604422 31.600579 0.426756 1.295027 0.116586 -0.021746 -561622.000000 0 0 1
27.670425 13.840281 7.734522 31.890886 0.463794 1.325823 0.114997 -0.024588 13040.000000 0 0 1
27.438725 14.970481 8.483622 32.387818 0.499456 1.305766 0.108363 -0.015968 105756.000000 0 0 1
27.745925 16.156481 7.818822 33.045457 0.527304 1.331923 0.109958 -0.014967 -816971.000000 0 0 1
27.200525 17.386581 8.576222 33.402295 0.568746 1.311133 0.117453 -0.024596 630365.000000 0 0 1
25.846625 17.812581 8.460722 32.510304 0.603417 1.307518 0.126802 -0.029662 611148.000000 0 0 1
24.820225 16.876581 8.779122 31.271961 0.597144 1.286237 0.133329 -0.025134 -600579.000000 0 0 1
23.487925 17.579681 9.030622 30.696579 0.642512 1.272189 0.132503 -0.035821 -522800.000000 0 0 1
22.875925 18.109281 7.863922 30.217466 0.669617 1.307521 0.137089 -0.035751 246192.000000 0 0 1
21.952925 19.143381 8.212622 30.262966 0.717140 1.295975 0.191333 -0.043064 232307.000000 0 0 1
21.079225 19.572181 7.009622 29.606398 0.748343 1.331766 0.158638 -0.035132 -150120.000000 0 0 1
21.862925 20.136881 5.987022 30.320388 0.744325 1.372032 0.109578 -0.015387 20043.000000 0 0 1
21.120725 20.712281 4.915322 29.987397 0.775635 1.406140 0.124538 -0.017502 35010.900000 0 0 1
19.116149 16.953481 33.357049 42.018335 0.725512 0.653651 0.088545 -0.025020 92728.800000 0 0 1
18.483249 17.729581 32.355806 41.265806 0.764589 0.669579 0.100940 -0.021986 484271.000000 0 0 1
17.863949 16.961381 31.300625 39.831373 0.759487 0.666762 0.113988 -0.033037 342469.000000 0 0 1
17.051049 17.690881 30.203035 38.934932 0.803813 0.682924 0.117646 -0.031595 1029060.000000 0 0 1
17.983649 18.298281 29.275745 38.926957 0.794070 0.719601 0.106564 -0.021966 841414.000000 0 0 1
17.345249 18.381481 28.001535 37.720320 0.814394 0.734231 0.106673 -0.026330 -219199.000000 0 0 1
18.346949 18.536481 26.873395 37.448512 0.790537 0.770433 0.086533 -0.019656 -774689.000000 0 0 1
19.095849 19.680181 27.001645 38.484410 0.800466 0.793120 0.077186 -0.027207 -377952.000000 0 0 1
19.947349 19.763781 25.884725 38.190611 0.780776 0.826061 0.063125 -0.017403 -120892.000000 0 0 1
20.864449 21.035681 25.972575 39.400505 0.789485 0.851050 0.079450 -0.017559 -14406.400000 0 0 1
20.129849 22.234281 25.870695 39.608925 0.835032 0.859055 0.071872 -0.023672 411291.000000 0 0 1
20.861649 23.385581 26.308085 40.917101 0.842378 0.872439 0.084417 -0.025503 -291972.000000 0 0 1
20.005449 24.622881 26.234585 41.167436 0.888495 0.879852 0.092419 -0.033367 -314094.000000 0 0 1
19.683649 25.008981 24.965615 40.449687 0.903994 0.905615 0.094023 -0.037987 106953.000000 0 0 1
18.781249 26.087981 24.965825 40.701481 0.946826 0.910452 0.091665 -0.043269 -165411.000000 0 0 1
18.627449 26.814881 23.663705 40.323575 0.963658 0.943639 0.072876 -0.039220 -663432.000000 0 0 1
19.653649 27.753081 23.490335 41.331529 0.954614 0.966310 0.103759 -0.041679 -306186.000000 0 0 1
19.470549 28.650381 22.430535 41.268336 0.973899 0.996161 0.101037 -0.035025 -387346.000000 0 0 1
20.656749 29.577081 22.171735 42.344904 0.961142 1.019727 0.109200 -0.035426 40600.600000 0 0 1
21.805449 28.904681 21.667035 42.195007 0.924491 1.031540 0.124399 -0.041348 423662.000000 0 0 1
22.972549 29.691481 21.482435 43.252943 0.912294 1.051039 0.137101 -0.044790 446451.000000 0 0 1
23.220849 29.959881 19.974135 42.845868 0.911446 1.085822 0.154929 -0.039823 97412.600000 0 0 1
22.299049 30.886781 19.382835 42.742662 0.945483 1.100133 0.111671 -0.032597 314773.000000 0 0 1
22.489349 30.964581 17.992035 42.288172 0.942641 1.131323 0.105380 -0.014614 -366320.000000 0 0 1
22.189849 32.277881 17.242935 42.796844 0.968534 1.156111 0.105342 -0.015448 -300276.000000 0 0 1
23.087549 33.343181 17.538835 44.186122 0.965174 1.162626 0.110599 -0.020684 293364.000000 0 0 1
23.273349 -33.633902 16.471735 44.093154 -0.965486 1.187945 0.097883 -0.016792 443354.000000 0 0 1
24.427149 33.810681 15.453935 44.482265 0.945150 1.215980 0.086660 -0.021461 250637.000000 0 0 1
24.261749 32.796281 14.440735 43.275436 0.933874 1.230577 0.101503 -0.027596 554787.000000 0 0 1
23.134449 32.953081 13.547035 42.480943 0.958701 1.246231 0.070077 -0.027801 627975.000000 0 0 1
22.688649 31.680481 12.741035 40.997094 0.949299 1.254784 0.076230 -0.038800 297490.000000 0 0 1
23.670649 31.253281 11.800935 40.943001 0.922588 1.278420 0.114166 -0.054107 -4502.150000 0 0 1
23.259349 30.050981 11.218135 39.622031 0.912114 1.283742 0.113780 -0.053808 -1219890.000000 0 0 1
24.113649 29.198681 10.213335 39.221720 0.880492 1.307360 0.124235 -0.052535 299048.000000 0 0 1
25.274949 28.594781 10.756635 39.650848 0.846947 1.296070 0.131760 -0.051153 15518.400000 0 0 1
26.298849 29.495281 11.096635 41.045541 0.842625 1.297040 0.129296 -0.049342 -298753.000000 0 0 1
27.685349 28.791181 11.387935 41.534272 0.804976 1.293058 0.130976 -0.050430 873511.000000 0 0 1
27.739149 28.132481 12.670135 41.490110 0.792438 1.260462 0.127295 -0.040470 -58921.100000 0 0 1
29.051349 28.000581 13.175535 42.445355 0.766983 1.255170 0.103877 -0.030319 69767.800000 0 0 1
29.445549 26.687281 13.892435 42.098113 0.736299 1.234491 0.094065 -0.036409 -307792.000000 0 0 1
30.656449 26.787681 14.580135 43.243243 0.718151 1.226892 0.070888 -0.035234 -250250.000000 0 0 1
30.871449 25.646281 15.378635 42.980002 0.693208 1.204876 0.066487 -0.031689 113321.000000 0 0 1
32.002049 25.846281 16.416935 44.290825 0.679385 1.191074 0.067983 -0.036525 539792.000000 0 0 1
33.300849 26.004881 15.860635 45.130479 0.662990 1.211688 0.077228 -0.024375 375462.000000 0 0 1
34.265749 26.402681 16.826335 46.415178 0.656509 1.199828 0.063942 -0.023358 551534.000000 0 0 1
35.742349 26.341081 16.369235 47.321453 0.635110 1.217582 0.095824 -0.033505 207728.000000 0 0 1
36.107449 27.472781 15.590235 47.974546 0.650417 1.239817 0.107390 -0.029442 -309095.000000 0 0 1
-37.168027 27.913481 15.813735 49.098868 -0.644146 1.242871 0.128330 -0.025720 239990.000000 0 0 1
-36.821227 29.192881 14.965735 49.315315 -0.670352 1.262464 0.103656 -0.032682 -204177.000000 0 0 1
36.837149 30.195181 15.160135 49.985540 0.686635 1.262652 0.114496 -0.042748 -335369.000000 0 0 1
36.989949 31.256681 14.250235 50.480746 0.701587 1.284615 0.096162 -0.029182 252814.000000 0 0 1
35.816749 32.269981 14.340135 50.297422 0.733353 1.281679 0.095895 -0.037387 -644763.000000 0 0 1
35.964249 33.301781 13.363835 50.803818 0.746979 1.304616 0.067383 -0.041951 354210.000000 0 0 1
35.107049 -33.436902 13.601235 50.353996 -0.761037 1.297287 0.065785 -0.038814 664522.000000 0 0 1
33.601549 -33.678502 13.199835 49.371462 -0.786542 1.300147 0.092430 -0.038630 410108.000000 0 0 1
32.954449 33.226081 13.997135 48.845553 0.789503 1.280163 0.090710 -0.037650 23776.200000 0 0 1
31.846249 32.643581 13.298035 47.503944 0.797761 1.287070 0.103758 -0.034212 93612.300000 0 0 1
31.357249 31.343481 14.031535 46.503493 0.785179 1.264289 0.109456 -0.041299 -96270.000000 0 0 1
30.558149 31.587981 15.172735 46.495300 0.801968 1.238380 0.116171 -0.030849 125962.000000 0 0 1
30.259449 30.405281 15.884035 45.742956 0.787802 1.216164 0.110105 -0.038614 136620.000000 0 0 1
29.258149 30.511381 17.070535 45.589328 0.806363 1.187002 0.107921 -0.031405 44136.600000 0 0 1
29.419349 29.444381 17.978135 45.339641 0.785823 1.163072 0.103323 -0.028374 552379.000000 0 0 1
30.119449 29.919381 19.164735 46.579370 0.782066 1.146760 0.091054 -0.025250 247082.000000 0 0 1
30.003849 28.856081 20.244335 46.289713 0.765901 1.118158 0.080571 -0.024804 594961.000000 0 0 1
28.704749 28.734781 20.847535 45.653806 0.785921 1.096577 0.107987 -0.032030 654771.000000 0 0 1
28.689549 27.867381 21.981935 45.638653 0.770862 1.068258 0.082922 -0.026836 -187215.000000 0 0 1
27.498749 27.942381 22.946295 45.425657 0.793400 1.041253 0.100657 -0.031474 270007.000000 0 0 1
26.297949 27.288481 22.530135 44.089118 0.803881 1.034433 0.144011 -0.037091 190156.000000 0 0 1
25.176449 27.361181 23.347735 43.904494 0.826958 1.010090 0.154631 -0.042596 -73702.900000 0 0 1
25.047449 26.195281 24.350185 43.663475 0.807794 0.979210 0.108838 -0.039554 -431028.000000 0 0 1
26.002949 26.239081 25.378815 44.818824 0.789918 0.968843 0.096728 -0.032177 -233228.000000 0 0 1
25.869049 25.197481 26.288255 44.667585 0.772248 0.941556 0.117762 -0.031012 -265922.000000 0 0 1
27.027749 25.102881 27.306405 45.894375 0.748491 0.933551 0.103234 -0.021670 -30475.000000 0 0 1
27.257049 26.300281 28.096275 47.159858 0.767536 0.932576 0.120724 -0.035518 321522.000000 0 0 1
27.722649 27.486681 27.437205 47.716487 0.781124 0.958186 0.093607 -0.022494 -722626.000000 0 0 1
28.161049 28.649881 28.425635 49.212571 0.794002 0.954999 0.057244 -0.016199 -931367.000000 0 0 1
29.345549 28.362581 29.066965 50.104748 0.768366 0.951915 0.044033 -0.018241 -1008190.000000 0 0 1
29.768949 29.324981 30.030935 51.458740 0.777885 0.947651 0.034976 -0.018148 238735.000000 0 0 1
31.317049 29.319281 30.098685 52.405235 0.752463 0.958993 0.021596 -0.014972 26103.600000 0 0 1
31.782749 29.531781 28.789685 52.068371 0.748703 0.984931 0.012528 -0.012216 -592395.000000 0 0 1
33.187549 29.558581 28.715435 52.912186 0.727627 0.997148 0.021680 -0.016503 -244787.000000 0 0 1
33.627449 30.104081 27.314205 52.755349 0.730170 1.026575 0.029057 -0.015591 -499275.000000 0 0 1
33.386849 31.480281 27.057985 53.271234 0.756015 1.038018 0.009002 -0.009137 221273.000000 0 0 1
33.775149 31.876681 25.767485 53.111645 0.756489 1.064254 0.022694 -0.010791 -342642.000000 0 0 1
33.385949 33.352881 25.550835 53.664527 0.784903 1.074557 0.023188 -0.009717 30534.400000 0 0 1
34.142549 -33.577202 26.351995 54.658667 -0.777050 1.067724 0.025249 -0.012857 595189.000000 0 0 1
33.794649 -32.297702 25.916165 53.449673 -0.762753 1.064581 0.028649 -0.009156 -454900.000000 0 0 1
34.810349 -31.310402 26.457225 53.778123 -0.732515 1.056445 0.018908 -0.011208 -259490.000000 0 0 1
34.653049 -31.091902 27.821915 54.236511 -0.731285 1.032151 0.019518 -0.015329 544810.000000 0 0 1
35.765449 -30.388802 28.368275 54.839819 -0.704302 1.027111 0.026551 -0.025016 95915.100000 0 0 1
35.559549 -29.942802 29.847735 55.244368 -0.699859 1.000020 0.029249 -0.023193 -510678.000000 0 0 1
35.558349 -30.884902 30.896275 56.328085 -0.715176 0.990220 0.037521 -0.023802 135180.000000 0 0 1
34.403349 -31.690202 30.944425 56.084016 -0.744371 0.986334 0.025863 -0.030608 -366523.000000 0 0 1
34.329449 -32.578802 32.188328 57.236159 -0.759239 0.973538 0.036711 -0.029390 -525391.000000 0 0 1
33.908049 -31.953102 33.376111 57.312489 -0.755724 0.949176 0.038088 -0.034423 197821.000000 0 0 1
34.152749 -32.643702 -33.236228 57.763902 -0.762810 2.183866 0.049637 -0.032897 -169661.000000 0 0 1
33.380749 33.867181 -33.023458 57.894811 0.792631 2.177795 0.032555 -0.022514 -224569.000000 0 0 1
33.586449 32.840981 33.860485 57.906063 0.774176 0.946226 0.040236 -0.031538 257659.000000 0 0 1
32.782949 31.693181 -33.730458 56.717928 0.768498 2.207695 0.059499 -0.027186 -180333.000000 0 0 1
33.084649 30.526181 33.152676 55.906544 0.745199 0.936015 0.034799 -0.020983 -500360.000000 0 0 1
34.401349 30.078681 33.242094 56.508555 0.718459 0.941883 0.037908 -0.024474 -628752.000000 0 0 1
34.677949 29.338581 32.104737 55.623976 0.702185 0.955532 0.032195 -0.024122 545698.000000 0 0 1
36.105649 28.678681 32.126153 56.197637 0.671255 0.962264 0.038142 -0.016690 675905.000000 0 0 1
36.141949 27.503281 32.949522 56.110088 0.650491 0.943164 0.035765 -0.009932 611676.000000 0 0 1
-37.147127 26.937281 32.974613 56.505321 -0.627407 0.947683 0.036419 -0.020008 512637.000000 0 0 1
-37.014327 25.770281 -33.868868 56.402730 -0.608188 2.214901 0.047140 -0.023367 156182.000000 0 0 1
37.133149 24.562381 33.422088 55.670615 0.584395 0.926852 0.028758 -0.015243 148245.000000 0 0 1
37.253149 23.464681 -33.574518 55.368192 0.562094 2.222305 0.025924 -0.021789 -194258.000000 0 0 1
36.890749 22.191381 33.539064 54.573378 0.541553 0.908958 0.023920 -0.016948 -399408.000000 0 0 1
-36.680027 21.626081 32.738134 53.711239 -0.532728 0.915340 0.036796 -0.014593 -6089.220000 0 0 1
-37.065727 20.507581 32.007167 53.093199 -0.505355 0.923730 0.041481 -0.007157 439970.000000 0 0 1
-35.994127 19.981481 30.957255 51.509110 -0.506775 0.926038 0.041056 -0.008237 702042.000000 0 0 1
-35.706827 20.560581 29.680385 50.780314 -0.522448 0.946550 0.042311 -0.006038 -558581.000000 0 0 1
-34.622827 19.968381 29.037045 49.402696 -0.523141 0.942506 0.057602 -0.010684 -231032.000000 0 0 1
-34.957527 18.769281 28.085165 48.611635 -0.492743 0.954832 0.077419 -0.013977 217453.000000 0 0 1
-35.625127 17.666881 28.740775 49.064249 -0.460371 0.944956 0.078321 -0.018759 363952.000000 0 0 1
-36.367127 16.915081 27.804985 48.803741 -0.435356 0.964618 0.094844 -0.030388 -142085.000000 0 0 1
-37.039127 15.724681 28.448265 49.279471 -0.401483 0.955397 0.080136 -0.023817 -412839.000000 0 0 1
-36.066627 14.762581 28.792765 48.453676 -0.388510 0.934485 0.087342 -0.027012 77470.400000 0 0 1
-36.429827 13.704581 29.637455 48.921637 -0.359815 0.920007 0.084778 -0.037387 -379748.000000 0 0 1
-35.346327 12.607781 29.647125 47.825422 -0.342625 0.902177 0.088239 -0.022378 944053.000000 0 0 1
-34.134327 13.036381 30.313835 47.476606 -0.364819 0.878248 0.097410 -0.019233 884570.000000 0 0 1
-33.271627 11.999681 30.732115 46.855698 -0.346138 0.855437 0.071184 -0.017261 -673688.000000 0 0 1
-31.822327 12.442981 30.648055 45.899799 -0.372736 0.839659 0.084319 -0.015178 -1749380.000000 0 0 1
-31.382227 12.376281 29.281895 44.670414 -0.375646 0.855939 0.075662 -0.012886 1050520.000000 0 0 1
-29.975227 12.607581 29.104315 43.640881 -0.398138 0.840749 0.063290 -0.012635 1045460.000000 0 0 1
-28.955127 11.605081 29.691755 43.065968 -0.381192 0.810069 0.059028 -0.014455 -670455.000000 0 0 1
-28.756027 10.479881 28.936315 42.119441 -0.349482 0.813435 0.072141 -0.021805 -33275.800000 0 0 1
-27.828227 9.609081 29.580475 41.734268 -0.332481 0.783027 0.049494 -0.013163 -201096.000000 0 0 1
-27.409627 8.421981 28.731175 40.591845 -0.298107 0.784408 0.061159 -0.019229 556403.000000 0 0 1
-28.397027 7.379181 28.522055 40.918835 -0.254235 0.799536 0.060818 -0.021629 275857.000000 0 0 1
-29.559927 7.714181 27.819425 41.318498 -0.255274 0.832144 0.072813 -0.027111 216322.000000 0 0 1
-30.598327 6.518381 27.669945 41.765689 -0.209893 0.846639 0.068210 -0.025323 549645.000000 0 0 1
-31.079427 6.065381 28.933155 42.893439 -0.192735 0.830461 0.067257 -0.021262 161484.000000 0 0 1
-31.735627 4.812881 28.948835 43.224402 -0.150509 0.836946 0.079838 -0.021088 -44669.900000 0 0 1
-32.470227 4.500181 30.283145 44.627751 -0.137717 0.824979 0.073991 -0.015108 -549505.000000 0 0 1
-33.639727 5.221481 30.520235 45.720672 -0.153989 0.839901 0.076672 -0.023156 -469293.000000 0 0 1
-34.361727 4.579081 31.555695 46.877054 -0.132481 0.832324 0.076272 -0.018306 -1299440.000000 0 0 1
-35.749327 5.072281 31.753385 48.083468 -0.140944 0.849471 0.091183 -0.013706 -1336340.000000 0 0 1
-35.877127 6.357081 32.394761 48.754500 -0.175370 0.844043 0.086083 -0.013952 1224100.000000 0 0 1
-37.218327 6.933981 32.346750 49.795544 -0.184194 0.863750 0.082682 -0.015287 1444930.000000 0 0 1
-37.270927 8.375181 32.859473 50.388596 -0.221039 0.860417 0.070017 -0.012657 -64929.300000 0 0 1
37.178349 8.565581 -33.616998 50.849792 0.226440 2.293085 0.077300 -0.012786 107067.000000 0 0 1
36.928949 9.863981 -33.240288 50.655327 0.261013 2.286575 0.077412 -0.010796 -110405.000000 0 0 1
36.749449 9.925781 -31.681468 49.525333 0.263799 2.264907 0.072198 -0.014653 135963.000000 0 0 1
35.527249 9.393681 -31.205798 48.210253 0.258492 2.274814 0.086326 -0.020490 -78907.300000 0 0 1
35.494849 9.486681 -29.789888 47.300305 0.261165 2.252096 0.079723 -0.016272 853489.000000 0 0 1
34.219649 8.882881 -29.082218 45.778438 0.253979 2.259170 0.095977 -0.015200 646664.000000 0 0 1
34.282749 7.447381 -29.091368 45.574972 0.213911 2.263109 0.103620 -0.018628 -774182.000000 0 0 1
33.132549 6.851281 -28.646238 44.331849 0.203910 2.273361 0.111938 -0.018615 -1156640.000000 0 0 1
35.794545 5.825981 -20.074178 41.450743 0.161347 2.076348 0.081883 -0.023123 -936674.000000 0 0 1
35.231685 6.481181 -18.975978 40.538439 0.181925 2.057934 0.069181 -0.029494 208662.000000 0 0 1
35.942285 7.651481 -18.555478 41.166719 0.209751 2.038390 0.060261 -0.015759 161067.000000 0 0 1
-37.197491 7.407181 -18.043878 42.001205 -0.196560 2.014850 0.077594 -0.030665 396135.000000 0 0 1
-36.202521 7.075181 -19.009578 41.497527 -0.193001 2.046641 0.083297 -0.042398 49931.000000 0 0 1
-35.656287 8.209181 -19.668678 41.540563 -0.226288 2.064035 0.077471 -0.021121 -377858.000000 0 0 1
-34.503795 7.892281 -20.671178 40.988993 -0.224868 2.099380 0.077471 -0.011638 5754.020000 0 0 1
-34.642239 6.873581 -21.670278 41.435876 -0.195872 2.121144 0.064581 -0.014574 -172640.000000 0 0 1
-35.595811 7.134281 -22.666678 42.798809 -0.197804 2.128937 0.069815 -0.015513 -82189.000000 0 0 1
-35.540565 5.920481 -23.655678 43.101914 -0.165068 2.151762 0.095859 -0.023390 -588182.000000 0 0 1
-34.314892 5.862681 -24.283678 42.445022 -0.169216 2.179886 0.082363 -0.027597 -747773.000000 0 0 1
-34.144681 4.603981 -24.926578 42.525171 -0.134029 2.197108 0.076088 -0.026814 -877558.000000 0 0 1
-32.887731 4.570881 -25.756608 42.022597 -0.138100 2.230551 0.077120 -0.020658 -716859.000000 0 0 1
-31.745431 4.578281 -24.936478 40.627097 -0.143231 2.231648 0.081371 -0.020936 -595185.000000 0 0 1
-30.575191 4.366781 -25.678288 40.165726 -0.141862 2.264395 0.084994 -0.017357 166775.000000 0 0 1
-29.259181 4.705881 -24.928278 38.725496 -0.159469 2.270142 0.064513 -0.013933 210608.000000 0 0 1
-28.892591 6.052081 -25.033358 38.705019 -0.206483 2.274142 0.050078 -0.010178 430803.000000 0 0 1
-27.627191 6.369081 -24.446978 37.436368 -0.226578 2.282372 0.075997 -0.003810 527481.000000 0 0 1
-27.191701 7.809381 -24.718178 37.568116 -0.279670 2.288898 0.066400 -0.004304 -257592.000000 0 0 1
-27.732621 8.700781 -23.804878 37.569590 -0.304012 2.257021 0.059124 -0.002288 -406661.000000 0 0 1
-27.337031 10.043881 -23.992478 37.733696 -0.352099 2.259889 0.050817 -0.002176 376392.000000 0 0 1
-25.925091 10.440681 -23.459578 36.489313 -0.382853 2.269096 0.057538 0.003942 275981.000000 0 0 1
-25.987101 10.560581 -22.053078 35.681838 -0.385992 2.237053 0.048592 0.004889 471975.000000 0 0 1
-24.688051 10.762681 -21.506178 34.465212 -0.411106 2.244643 0.063919 -0.005787 69213.800000 0 0 1
-24.725751 11.135381 -20.018178 33.705889 -0.423150 2.206703 0.086743 -0.012674 -723396.000000 0 0 1
-25.212501 12.454381 -19.621978 34.289996 -0.458817 2.180026 0.086225 -0.017587 1154520.000000 0 0 1
-26.627891 12.663781 -19.647978 35.432457 -0.443924 2.158581 0.078256 0.001242 537141.000000 0 0 1
-27.548431 11.736381 -18.832978 35.374281 -0.402740 2.132220 0.075020 0.000200 -820600.000000 0 0 1
-27.340051 11.785481 -17.403578 34.485656 -0.407001 2.099786 0.098312 -0.010250 566715.000000 0 0 1
-28.303011 10.956681 -16.740278 34.660442 -0.369354 2.074850 0.122302 -0.011508 -144405.000000 0 0 1
-27.757341 10.393581 -15.394478 33.398899 -0.358283 2.049837 0.149305 -0.017837 200989.000000 0 0 1
-26.809451 9.342081 -15.471978 32.332696 -0.335304 2.069770 0.159504 -0.015484 660384.000000 0 0 1
-25.477291 9.772881 -15.731378 31.497267 -0.366282 2.093763 0.129500 -0.011204 -628338.000000 0 0 1
-24.578651 8.536781 -15.716178 30.397121 -0.334290 2.114172 0.099467 -0.011364 -566737.000000 0 0 1
-23.220451 8.879981 -15.810378 29.462034 -0.365261 2.137241 0.093558 -0.008903 -74309.300000 0 0 1
-22.345851 7.865281 -15.383878 28.246476 -0.338437 2.146744 0.100083 -0.009702 55788.800000 0 0 1
-20.888251 8.350881 -15.246178 27.175397 -0.380324 2.166424 0.134242 -0.027108 -136966.000000 0 0 1
-20.235951 8.756681 -16.396978 27.477883 -0.408399 2.210221 0.135429 -0.041174 39253.800000 0 0 1
-18.845951 8.957881 -16.255978 26.451282 -0.443710 2.232628 0.138340 -0.049769 -165960.000000 0 0 1
-18.200951 9.530881 -17.545978 27.018025 -0.482386 2.277615 0.104261 -0.041114 -437141.000000 0 0 1
-18.085151 8.713181 -18.669078 27.413987 -0.448971 2.319931 0.143186 -0.056876 33343.900000 0 0 1
-17.085351 7.722881 -18.633378 26.433972 -0.424531 2.353082 0.144991 -0.047438 -325390.000000 0 0 1
-16.588751 7.071481 -19.968578 26.906070 -0.402956 2.407082 0.105539 -0.036809 -27865.700000 0 0 1
-17.380851 6.061481 -20.500778 27.552086 -0.335556 2.409943 0.094356 -0.028588 -679666.000000 0 0 1
-18.438751 6.473781 -21.296378 28.903860 -0.337651 2.399122 0.088056 -0.021472 -276297.000000 0 0 1
-19.328451 5.363481 -21.922878 29.714786 -0.270681 2.400567 0.077811 -0.009355 381206.000000 0 0 1
-20.086551 4.621381 -20.944878 29.385619 -0.226138 2.364221 0.096633 -0.012363 612894.000000 0 0 1
-20.686651 3.438081 -21.427878 29.981859 -0.164693 2.366984 0.074312 -0.000707 440947.000000 0 0 1
-21.572951 2.649881 -20.366878 29.786302 -0.122221 2.323708 0.094294 -0.002679 219593.000000 0 0 1
-22.210051 1.505381 -20.814978 30.476480 -0.067676 2.322638 0.105127 -0.000344 394968.000000 0 0 1
-23.212651 1.115481 -19.869178 30.575410 -0.048018 2.278173 0.107916 -0.011058 -66331.400000 0 0 1
-23.940151 -0.193219 -20.202578 31.325905 0.008071 2.271710 0.118104 -0.003406 -433429.000000 0 0 1
-23.136851 -1.345619 -20.054278 30.647979 0.058094 2.284109 0.095262 -0.016043 74740.800000 0 0 1
-23.687551 -2.577719 -20.525878 31.449267 0.108395 2.281895 0.108473 -0.022652 -296578.000000 0 0 1
-24.143651 -2.800919 -22.012378 32.791856 0.115494 2.306725 0.097603 -0.021097 11636.700000 0 0 1
-23.162851 -2.663619 -23.003978 32.753558 0.114492 2.349469 0.057550 -0.018363 117926.000000 0 0 1
-22.253251 -3.772119 -23.145378 32.328696 0.167913 2.368765 0.048846 -0.025912 479648.000000 0 0 1
-21.262651 -3.597919 -24.303778 32.491829 0.167625 2.415835 0.055523 -0.024151 -268854.000000 0 0 1
-21.949551 -3.751419 -25.488408 33.845456 0.169275 2.423531 0.052581 -0.027693 422682.000000 0 0 1
-21.070851 -3.908819 -26.638638 34.188838 0.183423 2.464124 0.055604 -0.032329 252340.000000 0 0 1
-21.826851 -3.861019 -27.964768 35.683990 0.175082 2.471362 0.058158 -0.039787 -334423.000000 0 0 1
-22.699351 -4.932919 -28.132268 36.483129 0.213988 2.451369 0.074122 -0.038547 -148341.000000 0 0 1
-23.335351 -4.970419 -29.389268 37.854626 0.209863 2.459685 0.045791 -0.034891 -506818.000000 0 0 1
-22.841751 -6.134919 -30.218388 38.373608 0.262391 2.477503 0.075230 -0.032675 680953.000000 0 0 1
-21.494451 -5.991419 -30.701038 37.953422 0.271842 2.513098 0.062130 -0.036455 579688.000000 0 0 1
-20.930951 -7.213719 -31.106958 38.180954 0.331895 2.523050 0.070964 -0.024288 -206480.000000 0 0 1
-19.477251 -6.930619 -31.567528 37.734674 0.341860 2.561780 0.067566 -0.029719 -135906.000000 0 0 1
-19.284651 -6.520619 -32.905398 38.693429 0.326057 2.587566 0.062423 -0.041508 321496.000000 0 0 1
-19.312551 -7.621719 -33.774488 39.645697 0.375887 2.590414 0.058193 -0.036466 -563998.000000 0 0 1
-19.093051 -7.172719 32.589453 38.445610 0.359359 0.559206 0.052558 -0.038602 222176.000000 0 0 1
-17.779851 -6.908019 32.114273 37.351980 0.370580 0.535969 0.070935 -0.038653 252498.000000 0 0 1
-17.420951 -5.573719 32.273490 37.096281 0.309652 0.515609 0.047546 -0.037806 641061.000000 0 0 1
-16.156051 -5.191619 31.398575 35.690915 0.310920 0.495490 0.039116 -0.032527 619544.000000 0 0 1
-16.414551 -5.300819 29.991815 34.598340 0.312362 0.521933 0.047470 -0.038643 -767775.000000 0 0 1
-15.313751 -4.964319 29.260365 33.396473 0.313485 0.502977 0.050377 -0.026973 -936995.000000 0 0 1
-15.572151 -4.964719 27.794525 32.244007 0.308633 0.531583 0.073842 -0.029658 237547.000000 0 0 1
-16.516451 -3.931619 27.500955 32.319550 0.233693 0.553085 0.068481 -0.030170 71810.500000 0 0 1
-16.932451 -3.837619 26.144455 31.384196 0.222878 0.586207 0.097203 -0.031384 -225728.000000 0 0 1
-15.899351 -3.515819 25.049525 29.876899 0.217628 0.576410 0.095303 -0.025288 -224825.000000 0 0 1
-15.621151 -2.141319 25.066235 29.612865 0.136229 0.561487 0.088035 -0.020009 -391430.000000 0 0 1
-14.675651 -1.892719 24.077745 28.261191 0.128262 0.551056 0.087678 -0.022374 -129012.000000 0 0 1
-14.310851 -0.415119 24.072175 28.007899 0.028999 0.536549 0.088517 -0.014699 -72410.800000 0 0 1
-15.427251 0.264481 23.546815 28.151777 -0.017142 0.580071 0.085153 -0.015394 256088.000000 0 0 1
-15.516551 1.556281 24.059625 28.671431 -0.099964 0.575078 0.055581 -0.006424 21102.700000 0 0 1
-16.344951 2.424281 23.083595 28.388148 -0.147246 0.621266 0.060378 -0.012001 511100.000000 0 0 1
-15.427151 3.050881 22.197235 27.203348 -0.195241 0.616384 0.040228 -0.004148 548135.000000 0 0 1
-16.110151 4.004681 21.450235 27.123551 -0.243643 0.658625 0.051332 -0.004310 -437474.000000 0 0 1
-15.247851 4.727381 20.436535 25.932549 -0.300638 0.663137 0.058437 -0.002317 -548876.000000 0 0 1
-14.308051 5.518681 21.078335 26.066691 -0.368122 0.628975 0.042570 -0.006038 -637739.000000 0 0 1
-13.187751 5.720981 20.270435 24.850291 -0.409309 0.616854 0.034839 -0.006699 -125742.000000 0 1 0
-12.279251 6.874481 20.751635 25.073270 -0.510371 0.595907 0.032893 -0.005497 -120685.000000 0 0 1
-12.821351 8.141381 20.489535 25.504709 -0.565748 0.637875 0.041450 -0.009599 -18638.400000 0 0 1
-11.872251 9.196381 20.619035 25.508203 -0.659067 0.629487 0.054219 -0.011203 -84366.900000 0 0 1
-12.391351 10.624581 20.642535 26.316185 -0.708786 0.669061 0.048140 -0.004505 -450672.000000 0 0 1
-12.690351 11.179681 19.363035 25.709092 -0.722195 0.717945 0.049852 -0.004853 211567.000000 0 0 1
-13.543151 12.289981 19.527235 26.753944 -0.736926 0.752646 0.039087 0.004043 -657045.000000 0 0 1
-14.041451 12.874881 18.191135 26.340887 -0.742085 0.808472 0.044848 0.002997 -506839.000000 0 0 1
-13.197751 13.736081 17.471735 25.848058 -0.805383 0.828557 0.036169 -0.001883 -7897.440000 0 0 1
-12.878851 15.004181 18.017035 26.750772 -0.861474 0.831843 0.048466 -0.006879 -99790.100000 0 0 1
-13.779751 16.147181 17.441835 27.474181 -0.864341 0.882989 0.040297 -0.003606 -100981.000000 0 0 1
-13.720651 16.477881 16.032935 26.773716 -0.876449 0.928755 0.034418 -0.013692 -48558.500000 0 0 1
-14.149051 15.570381 15.043835 25.864056 -0.833187 0.950040 0.073025 -0.012016 -289861.000000 0 0 1
-14.700851 16.208481 13.739335 25.837942 -0.834135 1.010130 0.063986 -0.016687 447737.000000 0 0 1
-16.050051 16.632381 13.924535 26.983938 -0.803214 1.028586 0.056639 -0.015908 352378.000000 0 0 1
-16.437051 17.365281 12.707035 27.077636 -0.812852 1.082319 0.065132 -0.018039 -38294.200000 0 0 1
-17.720851 18.152781 13.022535 28.515583 -0.797438 1.096535 0.061235 -0.025987 -311939.000000 0 0 1
-18.894351 17.394181 13.049035 28.806794 -0.744082 1.100686 0.067790 -0.027020 -836300.000000 0 0 1
-19.961051 18.154881 13.496235 30.169383 -0.738047 1.106998 0.077979 -0.029002 108312.000000 0 0 1
-21.322851 17.411381 13.654235 30.728786 -0.684757 1.110351 0.091673 -0.034333 493355.000000 0 0 1
-21.820851 17.010381 12.423435 30.328936 -0.662145 1.148755 0.095072 -0.036823 929964.000000 0 0 1
-23.180451 16.505881 12.475635 31.071191 -0.618774 1.157623 0.102994 -0.039682 1031990.000000 0 0 1
-23.548151 15.898981 11.090535 30.500705 -0.593866 1.198650 0.108905 -0.034077 112658.000000 0 0 1
-22.785451 14.705481 10.907835 29.230273 -0.573127 1.188374 0.077756 -0.024190 423018.000000 0 0 1
-23.247951 13.946681 9.790535 28.824152 -0.540353 1.224236 0.089528 -0.021490 103678.000000 0 0 1
-22.376151 12.674081 9.521335 27.422259 -0.515355 1.216200 0.099646 -0.027397 -322117.000000 0 0 1
-22.661651 11.564581 10.316335 27.453902 -0.471866 1.185569 0.101134 -0.025745 53304.000000 0 0 1
-23.899651 10.893881 10.241335 28.191398 -0.427681 1.199012 0.134734 -0.011835 -83294.000000 0 0 1
-24.364751 10.323281 8.875135 27.910200 -0.400767 1.247189 0.147007 -0.014344 -343534.000000 0 0 1
-24.716451 11.359981 7.918535 28.331172 -0.430819 1.287524 0.138306 -0.019364 127238.000000 0 0 1
-25.987021 11.082681 7.366235 29.196104 -0.403115 1.315738 0.200000 -0.027329 -411771.000000 0 0 1
-26.503731 12.342881 6.618635 29.976671 -0.435836 1.348169 0.196141 -0.024108 -117298.000000 0 0 1
-25.750031 12.774881 5.495435 29.265363 -0.460532 1.381895 0.191968 -0.033060 1393780.000000 0 0 1
-24.430051 13.338781 5.676635 28.407300 -0.499766 1.369612 0.182551 -0.035146 720049.000000 0 0 1
-24.499751 14.894181 5.960635 29.284870 -0.546231 1.365824 0.158003 -0.035359 451363.000000 0 0 1
-23.195751 15.362781 6.359235 28.539408 -0.584980 1.346087 0.118701 -0.039951 1044330.000000 0 0 1
-23.159351 16.745981 6.683935 29.350612 -0.626046 1.341053 0.114631 -0.044336 -502440.000000 0 0 1
-21.773351 17.360581 6.551935 28.607629 -0.673112 1.339718 0.093708 -0.035166 -582644.000000 0 0 1
-21.301351 17.569481 5.235135 28.104108 -0.689685 1.383425 0.115279 -0.054066 -976178.000000 0 0 1
-19.946951 17.761581 5.296135 27.228729 -0.727509 1.375043 0.119130 -0.047708 -1511020.000000 0 0 1
-19.493551 18.607581 4.048935 27.251321 -0.762149 1.421667 0.107466 -0.040571 -967380.000000 0 0 1
-18.177451 18.988981 4.255235 26.629085 -0.807230 1.410312 0.102704 -0.041160 -517289.000000 0 0 1
-17.676151 20.007581 3.389135 26.911631 -0.847188 1.444525 0.118601 -0.042552 126791.000000 0 0 1
-17.952251 21.482881 3.874635 28.263232 -0.874690 1.433272 0.123014 -0.048748 -76951.800000 0 0 1
-17.260451 21.862781 5.053035 28.309672 -0.902497 1.391343 0.122766 -0.046125 115565.000000 0 0 1
-17.411251 23.229481 5.340535 29.517483 -0.927594 1.388867 0.096228 -0.039138 52683.600000 0 0 1
-16.680251 23.571181 6.672735 29.637084 -0.954952 1.343701 0.079314 -0.022884 196701.000000 0 0 1
-17.302751 22.942381 7.742535 29.760459 -0.924624 1.307607 0.071900 -0.021242 421914.000000 0 0 1
-16.498951 23.133181 8.904735 29.776732 -0.951256 1.267099 0.069987 -0.024780 430113.000000 0 0 1
-17.135251 22.332181 10.039835 29.885472 -0.916321 1.228189 0.049074 -0.022198 203843.000000 0 0 1
-18.210851 22.983681 10.689335 31.211322 -0.900745 1.221238 0.047042 -0.016603 -255953.000000 0 0 1
-18.927851 22.006681 11.482635 31.215517 -0.860470 1.194100 0.049688 -0.020205 -248639.000000 0 0 1
-20.171651 22.718581 12.020435 32.672929 -0.844711 1.194045 0.055406 -0.020622 -795656.000000 0 0 1
-21.088251 23.190081 11.065235 33.240542 -0.832831 1.231436 0.067946 -0.017271 57663.700000 0 0 1
-20.779451 24.518781 10.594835 33.840904 -0.867761 1.252364 0.037641 -0.010198 -1020870.000000 0 0 1
-21.966151 25.204681 9.954535 34.883815 -0.853946 1.281412 0.054306 -0.008228 -160865.000000 0 0 1
-22.852551 25.799881 10.899335 36.147870 -0.845904 1.264509 0.069041 -0.017001 53537.200000 0 0 1
-23.759451 26.704281 10.315135 37.202583 -0.843687 1.289845 0.063583 -0.012981 15677.400000 0 0 1
-24.602951 27.357381 11.428735 38.527231 -0.838359 1.269623 0.083814 -0.026380 -119135.000000 0 0 1
-23.754951 28.194281 12.218735 38.839576 -0.870646 1.250766 0.075448 -0.020582 539094.000000 0 0 1
-24.458251 29.143581 12.962235 40.194203 -0.872586 1.242437 0.075218 -0.022755 -126723.000000 0 0 1
9.875449 -32.741802 27.920535 44.148685 -1.277858 0.886122 0.077382 -0.029557 -832880.000000 0 0 1
11.230149 -32.645402 27.646885 44.228823 -1.239473 0.895553 0.057295 -0.038330 -426180.000000 0 0 1
11.463849 -32.521102 26.241675 43.332060 -1.231892 0.920283 0.070196 -0.029122 287581.000000 0 0 1
12.955249 -32.620702 25.800065 43.561360 -1.192751 0.936924 0.030105 -0.010728 245310.000000 0 0 1
13.509249 -33.916002 25.841175 44.727635 -1.191743 0.954833 0.036852 -0.028767 -235247.000000 0 0 1
14.827949 -33.792902 25.377095 44.786441 -1.157305 0.968393 0.037318 -0.018038 -447095.000000 0 0 1
15.509449 32.744281 25.063785 44.055923 1.128447 0.965618 0.058655 -0.015643 -238660.000000 0 0 1
15.173249 32.269881 23.803905 42.874219 1.131273 0.982189 0.035139 -0.025617 -88803.000000 0 0 1
16.196249 31.409481 23.439425 42.406140 1.094709 0.985152 0.033792 -0.025942 -643009.000000 0 0 1
16.059749 30.833181 21.961635 41.120725 1.090601 1.007381 0.035519 -0.035777 -205674.000000 0 0 1
15.038649 29.868781 21.741435 39.887280 1.104360 0.994321 0.028308 -0.021417 7765.650000 0 0 1
15.337549 28.472781 21.927535 39.073732 1.076690 0.974981 0.038260 -0.018551 -140899.000000 0 0 1
15.082849 27.891781 23.335315 39.369795 1.075072 0.936363 0.053058 -0.032079 -586028.000000 0 0 1
15.926149 28.376481 24.315435 40.621513 1.059361 0.929063 0.058358 -0.032058 -553852.000000 0 0 1
15.563349 27.949981 25.579245 40.959945 1.062726 0.896313 0.050713 -0.038211 73602.200000 0 0 1
16.421849 28.564081 26.803515 42.473666 1.049028 0.887875 0.050660 -0.038970 543162.000000 0 0 1
16.450149 29.940381 26.959685 43.518484 1.068391 0.902691 0.059593 -0.039314 337058.000000 0 0 1
17.163649 30.213481 28.183505 44.740980 1.054179 0.889338 0.069977 -0.041607 183396.000000 0 0 1
16.889449 31.562581 28.796925 45.942496 1.079457 0.893352 0.075266 -0.042199 57751.800000 0 0 1
17.646649 32.542081 28.109785 46.481731 1.073906 0.921346 0.067206 -0.032962 18411.700000 0 0 1
17.253649 33.823081 28.504525 47.478387 1.099090 0.926835 0.064563 -0.019339 49012.100000 0 0 1
17.940349 -32.783902 27.847035 46.605769 -1.070082 0.930414 0.048088 -0.016328 -532218.000000 0 0 1
17.831149 -32.726202 26.412505 45.679039 -1.071909 0.954252 0.062443 -0.014401 33283.100000 0 0 1
18.364849 -31.557902 25.786125 44.700035 -1.043761 0.955904 0.066614 -0.019611 -957966.000000 0 0 1
19.873449 -31.367602 25.738205 45.181143 -1.006061 0.964696 0.094992 -0.022878 -755098.000000 0 0 1
20.393149 -30.901502 26.986315 45.815331 -0.987465 0.940946 0.090159 -0.022434 56590.000000 0 0 1
20.976749 -29.648402 26.811975 45.143480 -0.955043 0.934864 0.094255 -0.021270 -108487.000000 0 0 1
21.442449 -28.907702 28.055625 45.634986 -0.932593 0.908685 0.097441 -0.018731 -129303.000000 0 0 1
20.311149 -28.379002 28.697675 45.182597 -0.949604 0.882595 0.101030 -0.015919 47275.200000 0 0 1
20.609049 -27.339502 29.601935 45.259870 -0.924855 0.857879 0.105455 -0.016326 -829917.000000 0 0 1
19.346349 -26.760202 30.174665 44.731422 -0.944832 0.830409 0.101184 -0.018512 -618169.000000 0 0 1
18.678349 -25.946002 29.209895 43.304662 -0.946844 0.830481 0.104598 -0.016701 575130.000000 0 0 1
17.327649 -25.739502 29.610695 42.890123 -0.978289 0.808775 0.096171 -0.012853 11858.200000 0 0 1
16.382249 -25.118802 28.596715 41.437959 -0.992883 0.809156 0.093066 -0.007697 -649151.000000 0 0 1
16.027549 -25.968302 27.499255 41.078511 -1.017828 0.837353 0.087555 -0.009548 347076.000000 0 0 1
15.445549 -25.293002 26.388835 39.682132 -1.022572 0.843295 0.086256 -0.021367 903443.000000 0 0 1
13.997249 -24.585502 26.485525 38.753748 -1.053234 0.818344 0.062293 -0.009650 2353500.000000 0 0 1
12.897549 -25.500102 26.763465 39.152076 -1.102532 0.818144 0.050597 -0.004520 1050340.000000 0 0 1
12.559549 -26.317102 25.662345 38.844409 -1.125523 0.849119 0.047633 -0.011868 -633377.000000 0 0 1
11.675549 -27.540702 26.005865 39.637277 -1.169826 0.855162 0.053197 -0.013131 -338538.000000 0 0 1
10.343349 -27.293302 26.294265 39.284827 -1.208549 0.837498 0.054397 -0.022107 -457914.000000 0 0 1
9.488249 -28.406002 26.521365 40.003883 -1.248425 0.846018 0.056331 -0.024631 -620610.000000 0 0 1
8.054749 -28.068002 26.852755 39.670672 -1.291334 0.827264 0.047702 -0.032514 -730625.000000 0 0 1
7.070449 -27.860802 25.864215 38.667469 -1.322265 0.838084 0.063049 -0.033563 201637.000000 0 0 1
7.306649 -26.710002 25.113455 37.383111 -1.303774 0.834179 0.086524 -0.036244 -822035.000000 0 0 1
6.132949 -26.346302 24.165275 36.272596 -1.342087 0.841677 0.078528 -0.034331 -225875.000000 0 0 1
5.925449 -27.113902 22.968295 36.025230 -1.355640 0.879468 0.069266 -0.030346 -127797.000000 0 0 1
5.452749 -28.443402 23.082835 37.034806 -1.381389 0.897874 0.062989 -0.031990 101628.000000 0 0 1
3.944049 -28.525102 23.469955 37.149371 -1.433402 0.886958 0.110284 -0.043458 -799782.000000 0 0 1
3.057049 -28.271302 22.428935 36.216974 -1.463082 0.902954 0.108076 -0.040965 915386.000000 0 0 1
1.731349 -28.007502 22.980875 36.270351 -1.509058 0.884599 0.136171 -0.038933 1150300.000000 0 0 1
1.421149 -26.553902 23.453395 35.456891 -1.517328 0.848030 0.117206 -0.037985 -412599.000000 0 0 1
2.034149 -26.198302 24.693815 36.059303 -1.493307 0.816452 0.097031 -0.038887 278488.000000 0 0 1
1.725849 -24.832802 24.962665 35.253103 -1.501409 0.783995 0.108905 -0.042876 -421144.000000 0 0 1
2.786649 -24.213502 25.870845 35.543772 -1.456214 0.755602 0.114998 -0.043185 -163852.000000 0 0 1
3.975149 -23.900902 25.139525 34.914906 -1.405987 0.766961 0.106264 -0.039393 60555.700000 0 0 1
5.007449 -23.366102 25.914705 35.250833 -1.359686 0.744906 0.095761 -0.042060 -139527.000000 0 0 1
4.742549 -21.876602 26.344455 34.570332 -1.357313 0.704317 0.090116 -0.031522 -511881.000000 0 0 1
4.877549 -20.949402 25.235845 33.158948 -1.342046 0.705856 0.077201 -0.029034 436335.000000 0 0 1
3.844849 -19.956502 25.165125 32.347000 -1.380467 0.679362 0.108870 -0.037632 366895.000000 0 0 1
3.963549 -19.196102 23.804845 30.836192 -1.367181 0.688850 0.104312 -0.035867 221743.000000 0 0 1
5.048649 -18.285902 23.762225 30.405697 -1.301412 0.673721 0.087012 -0.025145 14538.000000 0 0 1
5.430249 -17.986102 22.431735 29.260387 -1.277585 0.697228 0.075387 -0.023333 -94005.300000 0 0 1
6.612849 -17.028102 22.203235 28.751864 -1.200374 0.688443 0.078710 -0.013742 751153.000000 0 0 1
7.852149 -17.699402 22.426235 29.628721 -1.153245 0.712227 0.069962 -0.021401 20186.600000 0 0 1
8.997449 -17.189802 21.784335 29.171916 -1.088590 0.727623 0.069651 -0.017173 -260103.000000 0 0 1
10.232649 -17.423402 22.626935 30.335792 -1.039772 0.728938 0.081179 -0.014900 -694472.000000 0 0 1
10.114549 -16.707502 23.835025 30.814821 -1.026423 0.686464 0.080033 -0.013397 -365395.000000 0 0 1
11.202449 -16.827002 24.703355 31.920192 -0.983434 0.685804 0.088289 -0.014126 -334543.000000 0 0 1
11.222949 -15.895702 25.914675 32.406764 -0.956030 0.644053 0.102409 -0.021504 -277313.000000 0 0 1
11.467949 -14.585602 25.519485 31.551510 -0.904495 0.628654 0.117241 -0.022328 71120.100000 0 0 1
11.339149 -13.767502 26.689335 32.100484 -0.881820 0.589118 0.112171 -0.032257 6773.450000 0 0 1
11.667849 -12.260102 26.458755 31.408829 -0.810145 0.569077 0.119753 -0.030048 -142789.000000 0 0 1
10.583049 -11.662402 25.792805 30.220545 -0.833880 0.548158 0.121781 -0.023462 -96070.900000 0 0 1
10.697649 -10.256402 25.584595 29.566958 -0.764343 0.525027 0.126991 -0.021631 -230720.000000 0 0 1
9.550349 -9.643702 24.751505 28.228482 -0.790262 0.501573 0.126150 -0.018191 253834.000000 0 0 1
8.332149 -9.546502 25.484375 28.460741 -0.853216 0.461418 0.119997 -0.022256 231864.000000 0 0 1
7.361849 -8.978702 24.614475 27.215553 -0.884024 0.440762 0.121185 -0.023731 309025.000000 0 0 1
5.853449 -9.084102 24.938675 27.179428 -0.998395 0.408904 0.098185 -0.028003 -862668.000000 0 0 1
5.517449 -8.276902 26.059445 27.893441 -0.982834 0.364646 0.108180 -0.024769 87034.900000 0 0 1
4.173949 -8.370002 26.478575 28.081911 -1.108206 0.339549 0.102361 -0.024488 199953.000000 0 0 1
2.981349 -8.295402 25.534615 27.013306 -1.225774 0.332404 0.086812 -0.019923 -1227230.000000 0 0 1
2.708149 -7.028002 25.022145 26.131105 -1.202994 0.292376 0.103600 -0.025214 -214132.000000 0 0 1
1.665749 -7.093302 24.085465 25.163452 -1.340142 0.293764 0.073020 -0.026040 -79623.000000 0 0 1
1.605149 -5.818402 23.208155 23.980175 -1.301617 0.254434 0.056492 -0.034643 -308022.000000 0 1 0
1.415449 -4.676102 23.981485 24.474090 -1.276866 0.200975 0.062759 -0.033823 32708.100000 0 1 0
1.867949 -3.441202 23.415825 23.740935 -1.073483 0.165683 0.062422 -0.035556 -449548.000000 0 1 0
0.928549 -2.724402 22.390835 22.575077 -1.242317 0.127847 0.034248 -0.033617 428187.000000 0 1 0
-0.155251 -1.941402 22.832235 22.915150 1.490998 0.085094 0.037177 -0.037971 332515.000000 0 1 0
-1.313751 -2.658402 23.276225 23.464350 1.111809 0.126714 0.039392 -0.030601 -199896.000000 0 1 0
-2.292251 -1.699402 23.888095 24.057919 0.637954 0.118889 0.043615 -0.033020 -659316.000000 0 1 0
-1.771351 -1.084402 25.057245 25.143173 0.549334 0.082698 0.067975 -0.036205 296557.000000 0 0 1
-2.477651 0.128598 25.322265 25.443514 -0.051857 0.097665 0.072227 -0.035116 187511.000000 0 0 1
-1.829751 1.022598 26.473715 26.556568 -0.509630 0.079012 0.103043 -0.040620 -31803.700000 0 0 1
-2.030651 0.555598 27.787685 27.867323 -0.267070 0.075619 0.122358 -0.040980 185525.000000 0 0 1
-1.238651 -0.563402 28.158545 28.191406 0.426881 0.048288 0.124277 -0.042623 -66825.200000 0 0 1
0.138649 -0.290402 28.842095 28.843891 -1.125360 0.011157 0.145055 -0.043372 422877.000000 0 0 1
1.132249 0.407598 28.093935 28.119697 0.345546 0.042808 0.128420 -0.039889 517875.000000 0 0 1
1.728449 -0.290402 26.962755 27.019660 -0.166458 0.064912 0.120116 -0.045395 68661.200000 0 0 1
2.767549 -1.424402 27.354215 27.530735 -0.475323 0.113301 0.128418 -0.050202 -287676.000000 0 0 1
2.258649 -2.611402 27.896825 28.109674 -0.857705 0.123139 0.132173 -0.048467 -205358.000000 0 0 1
3.143249 -3.707802 28.182525 28.598646 -0.867616 0.170797 0.139424 -0.038731 315755.000000 0 0 1
3.776349 -4.520902 26.971855 27.607614 -0.874893 0.215022 0.133125 -0.037050 674219.000000 0 0 1
4.839649 -3.834702 26.318595 27.033232 -0.670060 0.230446 0.135897 -0.032357 187888.000000 0 0 1
5.599249 -4.684702 25.480355 26.505594 -0.696702 0.279041 0.125653 -0.032259 357456.000000 0 0 1
6.801249 -4.104802 24.685865 25.932573 -0.543016 0.311336 0.121653 -0.036881 807823.000000 0 0 1
7.985449 -3.784102 25.466635 26.956193 -0.442530 0.333991 0.113646 -0.030889 1857320.000000 0 0 1
9.003549 -4.825102 25.665465 27.623570 -0.491962 0.378785 0.127450 -0.028744 516981.000000 0 0 1
9.864849 -5.107202 24.480305 26.882785 -0.477721 0.425987 0.107512 -0.029535 -1144130.000000 0 0 1
9.200549 -5.663002 23.350185 25.728406 -0.551744 0.433349 0.102581 -0.033750 -455505.000000 0 0 1
9.902549 -5.586402 22.165235 24.911163 -0.513633 0.473953 0.117912 -0.029897 -321591.000000 0 1 0
9.838849 -4.210402 21.479835 23.998203 -0.404355 0.462230 0.121784 -0.028953 229301.000000 0 1 0
8.565149 -3.840602 20.981135 22.985214 -0.421522 0.420683 0.105571 -0.037895 -147174.000000 0 1 0
8.466149 -2.635402 20.320235 22.170543 -0.301779 0.411450 0.091587 -0.033799 110222.000000 0 1 0
7.015249 -2.109402 20.361935 21.639587 -0.292088 0.345348 0.079579 -0.017449 214341.000000 0 1 0
6.503549 -1.645402 21.608835 22.626208 -0.247801 0.301016 0.086233 -0.015041 -460747.000000 0 1 0
5.207849 -1.164402 21.443035 22.097088 -0.219968 0.243911 0.043370 -0.012040 -472015.000000 0 1 0
4.640349 -0.470402 22.690935 23.165333 -0.101027 0.202727 0.053259 -0.025996 52272.300000 0 1 0
3.357049 0.104598 22.554035 22.802746 0.031148 0.147831 0.041831 -0.023579 -145022.000000 0 1 0
2.818349 0.406598 23.814435 23.984073 0.143280 0.119006 0.065187 -0.023486 168996.000000 0 1 0
1.342449 0.874598 23.710315 23.764388 0.577425 0.067472 0.059313 -0.028984 169951.000000 0 1 0
1.239949 2.209598 23.280065 23.417541 1.059422 0.108410 0.055791 -0.017916 80491.200000 0 1 0
-0.130351 2.533598 23.347175 23.484606 -1.519393 0.108237 0.051917 -0.013859 -22088.100000 0 1 0
-0.639351 3.824598 22.710335 23.039003 -1.405160 0.169114 0.052042 -0.016088 -136440.000000 0 1 0
-0.349151 5.021598 23.384235 23.919883 -1.501378 0.212026 0.057124 -0.019910 -90488.000000 0 1 0
-1.214451 6.086598 23.034035 23.855573 -1.373854 0.263201 0.049248 -0.021806 -17976.500000 0 1 0
-1.126351 7.399598 23.909825 25.053991 -1.419738 0.303381 0.056543 -0.017638 566584.000000 0 0 1
-0.003951 8.233598 23.576545 24.972898 -1.570316 0.335987 0.042284 -0.016288 410610.000000 0 1 0
-0.164551 9.604598 24.023225 25.872587 -1.553665 0.380389 0.042041 -0.011608 -366774.000000 0 0 1
0.630849 10.632598 23.151385 25.484049 1.511534 0.431198 0.033562 -0.014577 1433240.000000 0 0 1
2.062349 10.792598 23.249485 25.715210 1.381983 0.441494 0.029034 -0.012849 550986.000000 0 0 1
2.570749 11.125598 24.535005 27.062043 1.343716 0.435592 0.046526 -0.019900 -841730.000000 0 0 1
3.946549 11.825598 24.519085 27.506464 1.248689 0.470386 0.049072 -0.025170 1352810.000000 0 0 1
5.070549 11.093598 23.890565 26.824196 1.142079 0.472057 0.052991 -0.020471 1263680.000000 0 0 1
4.899049 10.677598 22.571235 25.445480 1.140636 0.479896 0.041809 -0.021744 -1834160.000000 0 0 1
6.176649 10.206598 21.876035 24.917595 1.026590 0.499264 0.068054 -0.023060 105018.000000 0 1 0
7.012049 11.289598 21.441335 25.226072 1.015001 0.554873 0.064613 -0.027962 1320710.000000 0 0 1
8.286449 10.791598 20.960035 24.988936 0.915962 0.575771 0.087141 -0.027783 728406.000000 0 1 0
9.319349 11.762598 20.478635 25.388649 0.900776 0.632409 0.084068 -0.040521 -906024.000000 0 0 1
9.022549 12.223598 19.184135 24.471489 0.934938 0.669812 0.082615 -0.041584 196829.000000 0 1 0
9.935849 13.163598 18.677135 24.916597 0.924232 0.723360 0.101323 -0.036775 571648.000000 0 1 0
11.407249 12.758598 18.332235 25.079434 0.841260 0.751059 0.081962 -0.039416 234838.000000 0 0 1
12.245049 12.707598 19.460535 26.270453 0.803933 0.736571 0.086927 -0.036347 1135960.000000 0 0 1
13.602549 12.433598 19.015135 26.480164 0.740531 0.769743 0.087388 -0.035124 1131940.000000 0 0 1
14.708549 12.428598 20.064435 27.809945 0.701579 0.764853 0.077629 -0.029203 -198641.000000 0 0 1
15.241949 13.659598 20.453735 28.935392 0.730703 0.785724 0.080621 -0.028403 -257984.000000 0 0 1
16.456349 13.476598 21.127735 29.980182 0.686178 0.788763 0.082163 -0.024599 -350838.000000 0 0 1
17.192149 14.720598 21.528735 31.237036 0.708105 0.810404 0.083464 -0.018831 -344287.000000 0 0 1
16.583849 15.465598 22.559035 31.986229 0.750521 0.787988 0.088744 -0.011125 451821.000000 0 0 1
17.298349 16.715598 22.762135 33.117350 0.768267 0.813007 0.085350 -0.003290 -170599.000000 0 0 1
-21.892051 12.887381 -24.140278 35.044251 -0.532053 2.330700 0.058938 0.004444 91953.500000 0 0 1
-21.779951 12.794681 -25.580798 35.950624 -0.531142 2.362503 0.058326 -0.009496 -437965.000000 0 0 1
-22.644651 13.693681 -26.193568 37.234395 -0.543883 2.351075 0.067090 -0.015542 -207263.000000 0 0 1
-22.508251 13.731681 -27.740538 38.271633 -0.547793 2.381588 0.066908 -0.007376 1964550.000000 0 0 1
-21.122351 14.125081 -28.076838 37.867935 -0.589427 2.406012 0.101898 -0.004640 1864210.000000 0 0 1
-21.094551 14.593581 -29.369258 38.993666 -0.605213 2.423680 0.091987 -0.005142 1379180.000000 0 0 1
-19.647551 15.192681 -29.721178 38.732315 -0.658223 2.445492 0.085291 -0.014540 1940780.000000 0 0 1
-18.633151 14.169281 -29.874878 37.953540 -0.650145 2.476960 0.079492 -0.011160 -805701.000000 0 0 1
-17.390051 14.732081 -29.982818 37.661884 -0.702841 2.491628 0.057640 -0.007205 -1083770.000000 0 0 1
-16.422351 14.075481 -28.960488 36.145853 -0.708598 2.500114 0.088497 -0.003185 -126096.000000 0 0 1
-16.786251 14.273581 -27.602428 35.318655 -0.704676 2.467904 0.095436 -0.008625 -148961.000000 0 0 1
-17.195951 13.093581 -26.961998 34.555636 -0.650779 2.465860 0.119099 -0.001893 -157339.000000 0 0 1
-17.731551 13.386281 -25.561608 33.867333 -0.646656 2.426080 0.109946 -0.010489 44057.700000 0 0 1
-16.731251 13.834181 -24.673878 32.865173 -0.690898 2.420009 0.149228 -0.027497 385652.000000 0 0 1
-17.363851 14.302481 -23.494478 32.527754 -0.689022 2.377904 0.125165 -0.033301 250990.000000 0 0 1
-16.313051 14.938881 -22.555778 31.591913 -0.741456 2.365953 0.123178 -0.034406 241377.000000 0 0 1
-16.080651 16.299481 -22.907478 32.388470 -0.792156 2.356429 0.119893 -0.033156 -251597.000000 0 0 1
-15.456351 17.036081 -21.865878 31.737099 -0.833978 2.330862 0.109035 -0.028194 -292811.000000 0 0 1
-15.401851 18.569181 -22.204478 32.788266 -0.878366 2.314758 0.086589 -0.024596 650282.000000 0 0 1
-16.605151 19.329981 -22.063778 33.707411 -0.861080 2.284407 0.063611 -0.017965 667106.000000 0 0 1
-17.609751 19.139381 -23.047078 34.750353 -0.826998 2.295907 0.060956 -0.016975 162718.000000 0 0 1
-18.866451 20.024681 -22.949578 35.827559 -0.815171 2.266019 0.048313 -0.006992 72557.300000 0 0 1
-18.593351 21.382681 -23.216878 36.632707 -0.855060 2.257220 0.031645 -0.006669 472946.000000 0 0 1
-19.803551 22.077481 -23.523578 37.854386 -0.839640 2.241354 0.054644 -0.014977 334828.000000 0 0 1
-19.515351 23.571781 -23.891378 38.823649 -0.879266 2.233667 0.036937 -0.016487 64185.900000 0 0 1
-18.934051 24.305681 -22.849178 38.358172 -0.908994 2.208908 0.025925 -0.012495 -111641.000000 0 0 1
-18.054051 25.330381 -23.292478 38.860218 -0.951569 2.213537 0.013456 -0.007006 -4038.120000 0 0 1
-16.943551 25.585381 -22.215578 37.884397 -0.985868 2.197409 0.002994 -0.004919 250845.000000 0 0 1
-15.937851 24.573081 -22.119578 36.703231 -0.995413 2.217627 0.021014 -0.015715 295122.000000 0 0 1
-16.361751 23.268781 -21.676578 35.763349 -0.957951 2.221959 0.035879 -0.008508 -724384.000000 0 0 1
-15.168751 22.270481 -21.581778 34.523014 -0.972858 2.246109 0.056952 -0.014091 793277.000000 0 0 1
-14.240151 22.727681 -20.578078 33.805128 -1.011079 2.225251 0.082180 -0.023177 -518610.000000 0 0 1
-13.348851 21.741481 -20.270778 32.585093 -1.020160 2.242202 0.082878 -0.023789 -288008.000000 0 0 1
-12.469951 21.987781 -18.979078 31.609613 -1.054896 2.214824 0.077300 -0.025100 677208.000000 0 0 1
-13.208951 21.891181 -17.750878 31.125454 -1.027887 2.177669 0.090599 -0.025571 153973.000000 0 0 1
-13.971451 23.033981 -17.448878 32.097182 -1.025569 2.145548 0.097994 -0.030628 -201135.000000 0 0 1
-14.653651 22.908181 -16.069178 31.586908 -1.001718 2.104504 0.106913 -0.039298 185661.000000 0 0 1
-13.679251 23.143581 -15.075578 30.822400 -1.036976 2.081867 0.133988 -0.051560 173735.000000 0 0 1
-14.281251 23.086781 -13.811178 30.458205 -1.016820 2.041425 0.149500 -0.046993 82301.700000 0 0 1
-13.245251 23.342681 -12.699478 29.691652 -1.054673 2.012756 0.203317 -0.050712 -58058.300000 0 0 1
-12.903951 24.702681 -12.697178 30.626014 -1.089413 1.998286 0.184666 -0.054134 925.610000 0 0 1
-12.182551 25.130681 -11.560978 30.226179 -1.119408 1.963278 0.132448 -0.045487 -249015.000000 0 0 1
-11.681051 26.582681 -11.837378 31.356170 -1.156773 1.957906 0.153230 -0.044128 104783.000000 0 0 1
-10.766151 26.593281 -12.916978 31.463645 -1.186120 1.993839 0.154761 -0.046164 82172.700000 0 0 1
-10.633151 27.933881 -13.370778 32.743600 -1.207078 1.991440 0.132210 -0.019922 -125830.000000 0 0 1
-9.855051 28.212581 -14.709478 33.308265 -1.234733 2.028196 0.166480 -0.048253 1555610.000000 0 0 1
-8.413651 28.230881 -14.731978 32.936353 -1.281148 2.034525 0.132297 -0.055916 933902.000000 0 0 1
-7.784751 26.946081 -14.748778 31.689432 -1.289553 2.054901 0.141813 -0.058056 137084.000000 0 0 1
-6.260851 27.017381 -14.966578 31.514054 -1.343082 2.065667 0.144211 -0.063204 550498.000000 0 0 1
-5.515051 27.903381 -14.126078 31.757843 -1.375663 2.031754 0.126878 -0.059033 422789.000000 0 0 1
-4.110351 27.771681 -14.377478 31.541610 -1.423858 2.044096 0.140007 -0.063281 684363.000000 0 0 1
-3.224751 28.709581 -13.538978 31.905219 -1.458942 2.009040 0.109406 -0.048255 -775316.000000 0 0 1
-3.243551 30.055881 -13.864878 33.258254 -1.463295 2.000812 0.105978 -0.044756 274279.000000 0 0 1
-4.408851 30.837881 -13.565578 33.977019 -1.428790 1.981503 0.096995 -0.048253 424057.000000 0 0 1
-4.259751 32.312281 -13.935978 35.446304 -1.439721 1.974859 0.097161 -0.047243 568029.000000 0 0 1
-3.295351 32.989781 -13.112178 35.652689 -1.471237 1.947412 0.064674 -0.050707 382766.000000 0 0 1
-3.335251 -33.470602 -13.421178 36.215095 1.471477 1.950447 0.065446 -0.041056 112475.000000 0 0 1
-2.632351 -32.609802 -12.382778 34.980876 1.490248 1.932627 0.074324 -0.046845 405775.000000 0 0 1
-3.348551 -32.496802 -11.120178 34.509612 1.468116 1.898885 0.076671 -0.050624 468536.000000 0 0 1
-2.559051 -31.682002 -10.267278 33.402320 1.490198 1.883237 0.065814 -0.049504 47151.000000 0 0 1
-2.822051 -31.782002 -8.704978 33.073196 1.482235 1.837138 0.058946 -0.028801 -804791.000000 0 0 1
-1.969051 -30.936602 -8.057978 32.029385 1.507234 1.825110 0.078593 -0.040096 -698790.000000 0 0 1
-2.020751 -31.198602 -6.670878 31.967747 1.506116 1.781017 0.062309 -0.042270 291115.000000 0 0 1
-0.763851 -30.640502 -5.954378 31.223044 1.545872 1.762676 0.074708 -0.042098 208931.000000 0 0 1
-0.802851 -30.899302 -4.588578 31.248464 1.544819 1.718171 0.081898 -0.047454 46962.300000 0 0 1
0.411849 -30.511102 -3.972678 30.771401 -1.557299 1.700261 0.082695 -0.034592 248390.000000 0 0 1
0.129449 -30.459102 -2.456178 30.558247 -1.566546 1.651260 0.080191 -0.027597 -243225.000000 0 0 1
0.097849 -31.784402 -1.813778 31.836262 -1.567718 1.627799 0.079603 -0.043195 687803.000000 0 0 1
1.217949 -32.687602 -1.974578 32.769829 -1.533553 1.631089 0.080261 -0.042238 1199680.000000 0 0 1
2.692549 -32.255902 -1.722278 32.413875 -1.487515 1.623955 0.076372 -0.033469 -193233.000000 0 0 1
3.000949 -32.397802 -0.326878 32.538133 -1.478432 1.580842 0.056114 -0.026416 -96949.400000 0 0 1
4.277849 -31.942502 0.052622 32.227724 -1.437665 1.569164 0.039814 -0.020189 -151028.000000 0 0 1
4.483449 -30.416402 0.132222 30.745346 -1.424448 1.566496 0.018352 -0.020215 -823303.000000 0 0 1
4.610449 -29.755902 -1.105078 30.131232 -1.417076 1.607480 0.042600 -0.030487 145128.000000 0 0 1
4.726249 -28.307102 -0.989278 28.715991 -1.405359 1.605254 0.053508 -0.023135 -499736.000000 0 0 1
4.198049 -27.550402 -2.183578 27.953824 -1.419582 1.648990 0.048009 -0.017082 -767652.000000 0 0 1
2.847549 -27.784402 -2.454978 28.037626 -1.468666 1.658469 0.060744 -0.023451 -227361.000000 0 0 1
2.256549 -26.946402 -3.503478 27.266737 -1.487249 1.699642 0.056575 -0.023050 474497.000000 0 0 1
2.852149 -27.087502 -4.941278 27.681831 -1.465889 1.750261 0.060114 -0.020173 -72976.500000 0 0 1
2.606049 -28.345002 -5.569778 29.004363 -1.479114 1.764029 0.058250 -0.031636 -151135.000000 0 0 1
3.057749 -28.354802 -6.907678 29.343835 -1.463373 1.808431 0.082636 -0.048432 -891489.000000 0 0 1
2.155049 -29.065502 -7.878278 30.191305 -1.496787 1.834798 0.086570 -0.042085 504122.000000 0 0 1
0.896849 -28.356702 -8.060078 29.493588 -1.539179 1.847600 0.083784 -0.040362 610047.000000 0 0 1
0.476749 -28.368302 -9.412978 29.893009 -1.553992 1.891136 0.091094 -0.036952 33323.700000 0 0 1
-0.944251 -27.781202 -9.524278 29.383646 1.536821 1.900894 0.084162 -0.037724 -1171860.000000 0 0 1
-1.067551 -26.440502 -9.066378 27.972112 1.530443 1.900880 0.085368 -0.038586 -128437.000000 0 0 1
-2.266551 -25.720702 -9.341578 27.458275 1.482902 1.917936 0.098849 -0.032028 1598260.000000 0 0 1
-3.629351 -26.365402 -8.854878 28.048449 1.434000 1.891990 0.093925 -0.031445 228138.000000 0 0 1
-3.713951 -26.359302 -7.456178 27.644183 1.430821 1.843898 0.102841 -0.033079 5193.610000 0 0 1
-3.078051 -27.550102 -6.912278 28.570301 1.459532 1.815160 0.114973 -0.025040 -117099.000000 0 0 1
-2.600751 -27.474702 -5.473678 28.135108 1.476418 1.766595 0.096724 -0.012329 194429.000000 0 0 1
-3.568851 -27.565702 -4.450378 28.149787 1.442045 1.729559 0.099785 -0.023694 -92143.500000 0 0 1
-2.864251 -27.555402 -3.221078 27.890491 1.467223 1.686545 0.088579 -0.001824 -23935.900000 0 0 1
-3.676051 -27.583802 -1.929178 27.894466 1.438309 1.640011 0.104177 -0.012859 -257485.000000 0 0 1
-4.382551 -26.359302 -1.828078 26.783604 1.406041 1.639103 0.087302 -0.007426 -635323.000000 0 0 1
-5.257751 -26.388202 -0.752078 26.917407 1.374126 1.598740 0.094954 -0.019220 -850217.000000 0 0 1
-6.229751 -25.232502 -0.782078 26.001935 1.328743 1.600879 0.082440 -0.009610 -547110.000000 0 0 1
-5.645051 -23.983502 -0.741878 24.650058 1.339632 1.600897 0.059865 -0.009671 -618257.000000 0 1 0
-6.509551 -23.122902 -0.060578 24.021793 1.296379 1.573318 0.094165 -0.018017 94458.900000 0 1 0
-5.869351 -21.734102 0.269222 22.514283 1.307035 1.558838 0.070067 -0.021455 437508.000000 0 1 0
-4.824651 -21.790002 1.223222 22.351235 1.352896 1.516042 0.063958 -0.022125 12914.900000 0 1 0
-4.260451 -20.546202 1.554822 21.040802 1.366334 1.496833 0.043078 -0.013813 -457379.000000 0 1 0
-3.356051 -20.499202 2.796122 20.959453 1.408520 1.436991 0.039224 -0.004779 -426533.000000 0 1 0
-3.915951 -20.613602 4.072322 21.373794 1.383064 1.379096 0.038966 0.005230 -698884.000000 0 1 0
-3.051951 -20.359602 5.138222 21.218603 1.422002 1.326208 0.045759 -0.003795 161884.000000 0 1 0
-2.040251 -21.468402 5.531722 22.263308 1.476046 1.319698 0.045248 -0.013195 567655.000000 0 1 0
-0.998051 -21.771102 4.634722 22.281329 1.524985 1.361257 0.049832 -0.016129 -26375.100000 0 1 0
-0.173751 -22.860502 4.975422 23.396315 1.563196 1.356502 0.050017 -0.016880 479963.000000 0 1 0
0.787749 -23.281002 3.743422 23.593194 -1.536973 1.411458 0.050500 -0.025545 1058120.000000 0 1 0
1.949349 -22.507702 3.531422 22.866297 -1.484404 1.415738 0.020535 -0.028667 605055.000000 0 1 0
3.050449 -22.845702 4.406222 23.465850 -1.438057 1.381903 0.048922 -0.029626 -21719.500000 0 1 0
4.062249 -21.712902 4.483922 22.540132 -1.385845 1.370530 0.059551 -0.029055 -729333.000000 0 1 0
4.814249 -21.649902 3.321522 22.426051 -1.351988 1.422139 0.035504 -0.021897 -1039200.000000 0 1 0
5.998449 -20.989202 3.672322 22.136259 -1.292429 1.404130 0.051151 -0.015696 15703.600000 0 1 0
6.906649 -20.687502 2.458622 21.948106 -1.248575 1.458541 0.058730 -0.010767 -358810.000000 0 1 0
7.481049 -21.779102 1.767322 23.095861 -1.239927 1.494200 0.063170 -0.009251 -214789.000000 0 1 0
7.109849 -21.852202 0.397822 22.983189 -1.256238 1.553486 0.050779 -0.017686 -118805.000000 0 1 0
8.158849 -22.518902 -0.500978 23.956601 -1.223196 1.591710 0.052606 -0.015765 -231741.000000 0 1 0
9.321049 -21.732002 -0.623978 23.654835 -1.165619 1.597178 0.061811 -0.017628 -1028830.000000 0 1 0
10.266949 -22.537002 -1.240178 24.796467 -1.143329 1.620832 0.066544 -0.019786 -184015.000000 0 1 0
11.556649 -21.852102 -1.742278 24.781163 -1.084330 1.641161 0.079840 -0.020305 79555.000000 0 1 0
11.338149 -20.933802 -2.764178 23.967027 -1.074410 1.686386 0.073004 -0.013980 48735.500000 0 1 0
12.465349 -20.778202 -3.626978 24.500481 -1.030432 1.719379 0.077306 -0.011229 218820.000000 0 1 0
12.518549 -19.452202 -4.400378 23.547093 -0.998966 1.758777 0.069030 -0.023028 -152294.000000 0 1 0
12.722049 -18.294502 -3.613978 22.574326 -0.963162 1.731581 0.076747 -0.021764 189404.000000 0 1 0
12.819949 -17.245502 -4.502378 21.955178 -0.931546 1.777333 0.080072 -0.026241 -671263.000000 0 1 0
13.358449 -15.867602 -3.957478 21.116122 -0.871041 1.759326 0.084963 -0.023648 192175.000000 0 1 0
14.704449 -15.774302 -3.579078 21.859992 -0.820485 1.735264 0.089479 -0.020708 479462.000000 0 1 0
15.721249 -15.886502 -4.585478 22.815899 -0.790626 1.773152 0.101210 -0.018529 443690.000000 0 1 0
17.178349 -15.713702 -4.079378 23.635935 -0.740899 1.744257 0.107867 -0.017190 260384.000000 0 1 0
17.765249 -16.755802 -3.338878 24.647699 -0.756165 1.706678 0.110228 -0.020992 566659.000000 0 1 0
19.125049 -16.373002 -3.162678 25.374106 -0.708026 1.695763 0.097545 -0.017577 613816.000000 0 0 1
20.111149 -17.271702 -2.347078 26.613508 -0.709588 1.659102 0.089238 -0.023672 116576.000000 0 0 1
21.444149 -16.862002 -2.484678 27.392559 -0.666345 1.661627 0.078517 -0.024128 60719.600000 0 0 1
22.279249 -17.557902 -1.584778 28.410498 -0.667432 1.626607 0.066210 -0.017521 -1395100.000000 0 0 1
23.757849 -17.622302 -1.724978 29.630330 -0.638198 1.629046 0.068147 -0.023412 -1298940.000000 0 0 1
24.416749 -16.360502 -1.588778 29.434128 -0.590343 1.624800 0.078203 -0.026446 511200.000000 0 0 1
25.665449 -16.575602 -0.941178 30.567167 -0.573441 1.601592 0.110791 -0.022778 256035.000000 0 0 1
26.276649 -15.255202 -0.381778 30.386333 -0.526004 1.583361 0.103065 -0.023555 291104.000000 0 0 1
25.523049 -14.695402 0.707222 29.459821 -0.522413 1.546788 0.088813 -0.022481 648286.000000 0 0 1
26.278249 -13.653202 1.325422 29.643094 -0.479175 1.526069 0.083312 -0.019328 428856.000000 0 0 1
25.434849 -12.882902 2.399622 28.612216 -0.468839 1.486831 0.098677 -0.026571 110323.000000 0 0 1
24.915749 -13.616902 3.450522 28.602809 -0.500166 1.449866 0.108819 -0.019001 -500200.000000 0 0 1
25.848649 -13.984402 4.395522 29.715935 -0.495916 1.422334 0.122738 -0.010269 -504214.000000 0 0 1
25.224649 -14.633802 5.629622 29.700568 -0.525688 1.380097 0.104843 -0.004683 77436.000000 0 0 1
24.607649 -15.907302 5.454422 29.804855 -0.573867 1.386755 0.110083 -0.011821 95190.900000 0 0 1
23.819649 -16.216902 6.590022 29.559973 -0.597737 1.345970 0.094552 -0.010049 -78019.500000 0 0 1
23.136949 -17.560002 6.440822 29.751576 -0.649210 1.352582 0.085081 -0.009103 199950.000000 0 0 1
24.101849 -18.587002 6.636122 31.151467 -0.656923 1.356124 0.090336 -0.007926 226470.000000 0 0 1
23.495449 -19.856502 6.585122 31.459190 -0.701655 1.359914 0.041667 0.006208 85993.500000 0 0 1
2.149049 23.536681 -3.431178 23.882353 1.479742 1.714965 0.040997 -0.007108 6739.070000 0 1 0
2.977749 24.547181 -2.905378 24.897235 1.450079 1.687758 0.053240 -0.011968 -575715.000000 0 1 0
3.857249 24.961881 -3.885478 25.555251 1.417483 1.723431 0.066972 -0.010585 -248522.000000 0 0 1
4.969349 25.900881 -3.354878 26.585810 1.381240 1.697324 0.054016 -0.008000 -134914.000000 0 0 1
5.884049 25.309281 -2.484578 26.102775 1.342368 1.666125 0.033654 -0.006139 -627288.000000 0 0 1
6.569449 26.264781 -1.732578 27.129287 1.325701 1.634704 0.025966 -0.008885 -729575.000000 0 0 1
7.679749 25.525281 -0.987278 26.673831 1.278543 1.607818 0.008069 -0.018517 3596.750000 0 0 1
8.796849 25.374681 -1.875878 26.921700 1.237084 1.640532 0.017482 -0.021582 -324599.000000 0 0 1
9.690949 24.398281 -1.429578 26.291336 1.192708 1.625198 0.007456 -0.015077 -146910.000000 0 0 1
10.771749 24.195781 -2.517778 26.604617 1.151949 1.665575 0.030279 -0.015099 -1297400.000000 0 0 1
11.777149 25.182081 -2.553378 27.916988 1.133338 1.662388 0.036927 -0.013509 190718.000000 0 0 1
12.699149 24.955081 -3.631678 28.234971 1.100070 1.699777 0.056081 -0.024617 399605.000000 0 0 1
13.680049 23.769481 -3.530078 27.651283 1.048564 1.698810 0.063834 -0.019108 -1023900.000000 0 0 1
13.168449 22.448681 -3.804578 26.302589 1.040286 1.715952 0.070283 -0.019256 6106.190000 0 0 1
12.932149 22.180281 -5.160478 26.188469 1.042935 1.769146 0.091002 -0.031676 -319013.000000 0 0 1
11.975949 20.978081 -5.349778 24.741127 1.052064 1.788748 0.090299 -0.028904 371170.000000 0 1 0
10.603849 21.334381 -5.376578 24.423453 1.109527 1.792754 0.068999 -0.019497 204561.000000 0 1 0
9.765449 20.209881 -5.126178 23.023488 1.120677 1.795328 0.046869 -0.014805 1351200.000000 0 1 0
8.282749 20.616581 -4.730878 22.716262 1.188781 1.780591 0.031804 -0.007413 1211670.000000 0 1 0
8.119149 21.209281 -3.413478 22.965322 1.205195 1.719985 0.040366 -0.003319 25787.100000 0 1 0
6.772949 21.656581 -3.371378 22.940064 1.267690 1.718295 0.038265 0.003628 475391.000000 0 1 0
6.245349 22.229281 -2.017078 23.177876 1.296906 1.657933 0.031831 -0.001493 279534.000000 0 1 0
5.631249 21.212081 -1.199378 21.979579 1.311308 1.625391 0.022831 -0.011887 82656.300000 0 1 0
4.975949 21.839281 -0.144578 22.399446 1.346777 1.577251 0.032764 -0.014087 60858.800000 0 1 0
4.438049 20.964181 1.028722 21.453472 1.362180 1.522827 0.016049 -0.013391 385334.000000 0 1 0
3.773249 21.696781 2.096922 22.122044 1.398610 1.475865 0.024006 -0.012773 404602.000000 0 1 0
3.243249 20.897681 3.080122 21.370983 1.416828 1.426166 0.026278 -0.008734 132859.000000 0 1 0
2.252149 21.531181 4.117622 22.036759 1.466576 1.382839 0.012355 -0.009778 632387.000000 0 1 0
0.930849 21.689881 3.616522 22.009013 1.527906 1.405728 0.016251 -0.007595 -442845.000000 0 1 0
0.072449 22.174681 4.572022 22.641226 1.567529 1.367465 0.020236 -0.011054 -511268.000000 0 1 0
-1.359751 22.233781 4.017822 22.634771 -1.509715 1.392344 0.028031 -0.011265 -408323.000000 0 1 0
-2.319351 22.560581 4.973322 23.218380 -1.468351 1.354926 0.042880 -0.018608 912710.000000 0 1 0
-3.647651 22.583181 4.361522 23.287944 -1.410659 1.382397 0.058093 -0.021749 1333470.000000 0 1 0
-4.813051 22.809981 5.323122 23.912263 -1.362840 1.346305 0.077337 -0.031813 -165022.000000 0 1 0
-5.064751 24.152681 5.702222 25.328226 -1.364094 1.343717 0.097689 -0.021815 -497577.000000 0 0 1
-6.177551 24.169281 6.536422 25.788391 -1.320559 1.314537 0.109145 -0.026167 -195382.000000 0 0 1
-6.639851 25.553381 7.051822 27.327479 -1.316576 1.309794 0.121787 -0.028487 -65639.600000 0 0 1
-5.756851 26.026981 8.034722 27.840651 -1.353113 1.278035 0.095309 -0.028219 -66921.800000 0 0 1
-6.143951 27.313181 8.586022 29.282722 -1.349535 1.273212 0.107504 -0.024177 -98483.400000 0 0 1
-6.339051 28.559081 7.675622 30.244336 -1.352375 1.314203 0.125650 -0.030206 75010.100000 0 0 1
-7.574051 28.628581 7.016322 30.433381 -1.312159 1.338157 0.130129 -0.038898 -614469.000000 0 0 1
-7.554251 29.845881 6.275222 31.420085 -1.322894 1.369724 0.144624 -0.036949 63056.400000 0 0 1
-8.864151 30.128081 5.467322 31.877360 -1.284655 1.398433 0.128475 -0.041509 889884.000000 0 0 1
-9.900751 30.587381 6.336222 32.768285 -1.257752 1.376206 0.114746 -0.035336 -34968.300000 0 0 1
-10.770951 29.578281 6.768622 32.197863 -1.221571 1.358997 0.113589 -0.040102 -1024040.000000 0 0 1
-11.790051 29.934481 7.829222 33.111557 -1.195593 1.332086 0.078736 -0.037303 -165269.000000 0 0 1
-11.180551 30.149081 9.139322 33.429015 -1.215676 1.293876 0.078582 -0.023202 808646.000000 0 0 1
-12.202351 30.485081 10.114622 34.359033 -1.190055 1.271989 0.085795 -0.021313 613065.000000 0 0 1
-11.673351 30.925381 11.494122 34.996588 -1.209863 1.236150 0.077089 -0.026732 -162974.000000 0 0 1
-11.060851 32.229781 11.482422 35.957576 -1.240204 1.245771 0.081711 -0.030323 373628.000000 0 0 1
-10.385651 32.427481 12.717022 36.347296 -1.260846 1.213358 0.071553 -0.031365 165564.000000 0 0 1
-9.780551 33.866381 12.875922 37.528394 -1.289648 1.220583 0.072472 -0.042181 367131.000000 0 0 1
-10.747851 -32.994402 13.175322 37.117866 1.255888 1.207926 0.069438 -0.023568 266449.000000 0 0 1
-10.231451 -31.683002 12.978622 35.734295 1.258436 1.199098 0.081182 -0.027170 -19641.000000 0 0 1
-11.051951 -30.598002 13.736422 35.313916 1.224180 1.171272 0.067574 -0.025518 111254.000000 0 0 1
-10.972751 -30.668702 15.142722 35.920364 1.227204 1.135627 0.064914 -0.028623 769563.000000 0 0 1
-9.775551 -30.037402 15.653622 35.253976 1.256161 1.110711 0.084480 -0.030571 934458.000000 0 0 1
-9.699351 -30.355202 17.208322 36.216599 1.261521 1.075662 0.067704 -0.039087 316079.000000 0 0 1
-10.641051 -29.555802 17.955422 36.182518 1.225212 1.051527 0.098016 -0.037068 534620.000000 0 0 1
-11.131451 -30.259202 19.053222 37.450685 1.218291 1.037058 0.066298 -0.033682 125583.000000 0 0 1
-11.609951 -29.429002 20.271922 37.574033 1.195034 1.000930 0.086702 -0.039603 580840.000000 0 0 1
-10.491251 -29.143702 21.110922 37.484567 1.225255 0.972555 0.085801 -0.034571 728499.000000 0 0 1
-10.867751 -28.334602 22.156122 37.574611 1.204550 0.940163 0.079726 -0.026848 -143156.000000 0 0 1
-9.696451 -28.266502 23.123922 37.785342 1.240338 0.912233 0.103001 -0.031816 -225026.000000 0 0 1
-9.731651 -29.411802 23.936122 39.149675 1.251259 0.912967 0.111607 -0.022294 -499824.000000 0 0 1
-8.699151 -29.450902 24.845222 39.500834 1.283585 0.890556 0.117514 -0.030941 -629615.000000 0 0 1
-8.744951 -30.758302 25.736022 41.047413 1.293794 0.893122 0.118549 -0.034126 -209542.000000 0 0 1
-8.337851 -31.929202 25.100222 41.461004 1.315365 0.920536 0.132832 -0.034116 154990.000000 0 0 1
-8.225251 -32.953702 26.113922 42.843181 1.326194 0.915337 0.136295 -0.032237 -367374.000000 0 0 1
-8.016051 33.475781 25.573622 42.882341 -1.335764 0.931829 0.128871 -0.028924 239775.000000 0 0 1
-6.714151 33.257381 25.032522 42.163496 -1.371589 0.935146 0.121800 -0.026089 340501.000000 0 0 1
-6.581151 32.042781 24.308422 40.754764 -1.368227 0.931718 0.117265 -0.018024 -8340.400000 0 0 1
-7.457251 31.826081 23.020122 39.980446 -1.340636 0.957233 0.114651 -0.018965 -124440.000000 0 0 1
-8.597551 31.092281 23.363422 39.830859 -1.301020 0.943984 0.106280 -0.026846 -379722.000000 0 0 1
-9.488951 30.957781 22.271922 39.299656 -1.273375 0.968276 0.092906 -0.026287 -81202.200000 0 0 1
-10.319151 29.668781 22.539522 38.662016 -1.236072 0.948394 0.092085 -0.033365 1076.450000 0 0 1
-9.556551 28.486081 22.324422 37.432129 -1.247114 0.931791 0.078110 -0.030344 46784.800000 0 0 1
-10.232251 27.280981 22.685722 36.926859 -1.211965 0.909244 0.066644 -0.030394 -432947.000000 0 0 1
-9.499651 25.969781 22.330922 35.543536 -1.220119 0.891469 0.052387 -0.025647 -6316.120000 0 0 1
-8.330951 25.811081 23.129822 35.645551 -1.258586 0.864680 0.045520 -0.031760 -5643.880000 0 0 1
-7.782051 24.572281 22.781522 34.399928 -1.264089 0.846972 0.054124 -0.031563 -429729.000000 0 0 1
-6.523251 24.314881 23.608222 34.512525 -1.308686 0.817499 0.055058 -0.028820 554716.000000 0 0 1
-5.350351 24.944081 23.060722 34.389393 -1.359504 0.835811 0.062580 -0.025419 378133.000000 0 0 1
-4.156051 24.779681 23.801622 34.609573 -1.404623 0.812456 0.093164 -0.025249 -152854.000000 0 0 1
-2.990651 25.156081 22.906522 34.153787 -1.452468 0.835661 0.092918 -0.019621 -854420.000000 0 0 1
-2.750251 24.370781 21.753422 32.782773 -1.458421 0.845226 0.090708 -0.023504 196989.000000 0 0 1
-1.884151 25.035881 20.831922 32.623831 -1.495680 0.878185 0.097424 -0.018512 96419.800000 0 0 1
-1.327951 24.135581 19.726322 31.199640 -1.515831 0.886328 0.079083 -0.021003 -580670.000000 0 0 1
-0.298951 23.347081 20.230922 30.894430 -1.557992 0.856825 0.093927 -0.029275 -579313.000000 0 0 1
-0.059451 22.322281 19.336822 29.533040 -1.568133 0.856942 0.076474 -0.026371 748104.000000 0 0 1
1.209149 21.407881 19.644422 29.080281 1.514375 0.829121 0.068800 -0.023787 722288.000000 0 0 1
2.396249 22.024081 19.221422 29.330278 1.462421 0.856158 0.071762 -0.025829 -576488.000000 0 0 1
3.502149 21.194181 19.488522 29.004497 1.407035 0.834007 0.084351 -0.026014 1080980.000000 0 0 1
4.907349 21.732381 18.996622 29.278834 1.348713 0.864767 0.076775 -0.028825 1916260.000000 0 0 1
5.940749 20.725081 18.917522 28.682645 1.291636 0.850582 0.086664 -0.028802 -24980.200000 0 0 1
7.122949 21.097081 18.324722 28.837799 1.245186 0.882217 0.103272 -0.036474 -414270.000000 0 0 1
8.249849 20.043981 18.108422 28.244223 1.180341 0.874817 0.097433 -0.025538 384252.000000 0 0 1
8.807849 19.523681 19.301422 28.832226 1.146998 0.837343 0.108329 -0.026178 759852.000000 0 0 1
10.050849 18.829481 19.091422 28.636538 1.080489 0.841050 0.093896 -0.024644 819079.000000 0 0 1
10.520349 17.981581 20.275422 29.070737 1.041433 0.798962 0.118141 -0.030990 -77323.700000 0 0 1
9.652649 16.886581 20.555722 28.299611 1.051509 0.757784 0.124618 -0.031344 10933.600000 0 0 1
10.068749 16.134481 21.641722 28.810854 1.012879 0.720970 0.120570 -0.035826 197676.000000 0 0 1
8.960249 15.153381 22.124422 28.273682 1.036796 0.672110 0.097833 -0.031442 -475947.000000 0 0 1
7.911149 15.784081 22.780822 28.821682 1.106181 0.659325 0.090823 -0.014712 -555495.000000 0 0 1
6.861649 14.895881 23.126222 28.351220 1.139129 0.616850 0.081744 -0.012147 46730.900000 0 0 1
7.145249 13.769581 24.132622 28.688663 1.092131 0.571316 0.084335 -0.013409 -888948.000000 0 0 1
7.399949 14.276281 25.413922 30.073890 1.092586 0.564139 0.091382 -0.020392 14449.100000 0 0 1
7.609249 13.275981 26.447722 30.555431 1.050347 0.524518 0.097773 -0.027383 -598831.000000 0 0 1
8.625249 13.772281 27.538522 31.975629 1.011280 0.533102 0.077785 -0.017729 748300.000000 0 0 1
9.985949 13.848681 27.124122 32.050322 0.946065 0.561799 0.115397 -0.017523 499171.000000 0 0 1
10.344749 14.847781 26.182622 31.827663 0.962275 0.604762 0.106162 -0.013912 -867160.000000 0 0 1
11.778749 14.644481 25.653822 31.801232 0.893431 0.632262 0.126761 -0.022402 43120.100000 0 0 1
11.841849 13.569781 24.724122 30.588406 0.853291 0.629564 0.121415 -0.026522 -427628.000000 0 0 1
13.133549 13.283081 24.283122 30.636585 0.791059 0.655705 0.129737 -0.029906 -861481.000000 0 0 1
13.189249 12.077481 23.284422 29.359601 0.741425 0.654952 0.108589 -0.032011 67944.200000 0 0 1
12.649049 10.846881 23.745322 29.008509 0.708847 0.611890 0.107867 -0.024551 960612.000000 0 0 1
11.243449 10.850081 24.024622 28.658714 0.767595 0.576637 0.121184 -0.029095 291731.000000 0 0 1
10.642949 9.551381 24.611422 28.464422 0.731398 0.526367 0.107050 -0.024410 5079.290000 0 0 1
10.655849 8.487681 23.655022 27.297398 0.672620 0.522515 0.109272 -0.019992 101017.000000 0 0 1
10.507749 7.299481 24.380022 27.533265 0.607144 0.483281 0.108119 -0.021764 -8530.590000 0 0 1
10.771649 5.999681 23.570422 26.600552 0.508193 0.481961 0.120981 -0.033117 -1020510.000000 0 0 1
12.103949 5.948181 23.220222 26.852656 0.456764 0.526189 0.128864 -0.022682 -808401.000000 0 0 1
12.454349 4.935881 22.264922 25.984620 0.377328 0.541668 0.138450 -0.028028 -11631.100000 0 0 1
12.600349 3.466881 22.770022 26.253799 0.268498 0.521036 0.126117 -0.028991 -346950.000000 0 0 1
13.679949 3.388781 23.659522 27.539024 0.242831 0.537235 0.131307 -0.023806 -243963.000000 0 0 1
13.552649 2.247281 24.531522 28.116190 0.164323 0.510490 0.132806 -0.015614 444616.000000 0 0 1
14.918549 1.740581 25.115622 29.264094 0.116147 0.538965 0.127065 -0.010798 188681.000000 0 0 1
15.709049 1.136881 24.153122 28.834702 0.072245 0.577847 0.127131 -0.017789 -887256.000000 0 0 1
17.032049 1.282181 24.573022 29.926044 0.075139 0.607417 0.111681 -0.019587 -657296.000000 0 0 1
18.067949 0.484981 23.753322 29.848053 0.026836 0.650455 0.096468 -0.022438 -84802.500000 0 0 1
18.069649 -0.886119 24.063522 30.105656 -0.049000 0.644663 0.096640 -0.021038 71228.800000 0 0 1
19.174849 -1.577119 23.527622 30.392616 -0.082065 0.685468 0.071007 -0.011536 62191.000000 0 0 1
19.050949 -3.046719 23.887022 30.705227 -0.158582 0.679405 0.071134 -0.009881 702579.000000 0 0 1
17.906349 -3.709319 23.315222 29.630996 -0.204262 0.665104 0.068224 -0.010437 680183.000000 0 0 1
17.897549 -5.044319 23.732422 30.149548 -0.274718 0.664611 0.082971 -0.014564 -304279.000000 0 0 1
16.906749 -5.928319 23.010122 29.162456 -0.337252 0.661564 0.083399 -0.018413 -657074.000000 0 0 1
17.233249 -6.124919 21.577322 28.285691 -0.341489 0.703110 0.082799 -0.017293 397741.000000 0 0 1
16.501549 -7.192019 20.942722 27.615645 -0.411015 0.709996 0.099261 -0.026455 162941.000000 0 0 1
17.032449 -8.638419 21.256622 28.575699 -0.469370 0.731953 0.101968 -0.029323 -79952.400000 0 0 1
16.815549 -9.041919 22.627222 29.605914 -0.493360 0.700871 0.082193 -0.017269 -24952.900000 0 0 1
17.411049 -10.301719 22.913322 30.566164 -0.534277 0.723293 0.070811 -0.015675 -189569.000000 0 0 1
16.871449 -11.113219 24.100822 31.448355 -0.582467 0.697638 0.087205 -0.033868 57647.500000 0 0 1
15.840449 -11.995419 23.674522 30.907813 -0.648135 0.698244 0.090904 -0.029791 128127.000000 0 0 1
15.491749 -12.996119 24.650522 31.883250 -0.698018 0.687004 0.109660 -0.022788 -423329.000000 0 0 1
14.482349 -13.984819 24.146922 31.438629 -0.767923 0.694982 0.123229 -0.030123 -705479.000000 0 0 1
14.935749 -14.724319 23.051222 31.164739 -0.778270 0.738236 0.125302 -0.035084 28154.500000 0 0 1
13.990349 -15.685919 22.615222 30.874361 -0.842472 0.748821 0.135312 -0.025498 -306886.000000 0 0 1
14.322649 -16.491419 21.383122 30.567026 -0.855665 0.796031 0.111326 -0.026818 98576.800000 0 0 1
15.338549 -17.482719 21.547022 31.704742 -0.850634 0.823559 0.127303 -0.034549 454057.000000 0 0 1
15.276749 -18.336919 20.419222 31.409652 -0.876187 0.863088 0.119171 -0.029491 -99023.300000 0 0 1
-25.061081 -31.901402 26.234585 48.311600 0.904911 0.996757 0.067337 -0.036325 -635574.000000 0 0 1
-25.263411 -33.256802 25.879795 49.132664 0.921150 1.016044 0.071345 -0.026864 662906.000000 0 0 1
-26.567691 -33.719202 26.233025 50.309029 0.903471 1.022261 0.053785 -0.031237 344173.000000 0 0 1
-26.813121 33.747881 27.684495 51.227866 -0.899410 0.999862 0.044277 -0.025107 -728569.000000 0 0 1
-27.731261 -33.317602 28.367005 51.805139 0.876650 0.991337 0.060306 -0.024995 -44343.800000 0 0 1
-27.674721 -33.545202 29.751515 52.690829 0.880998 0.970796 0.059764 -0.024709 437340.000000 0 0 1
-28.896931 -32.844702 30.458325 53.305878 0.849251 0.962600 0.052172 -0.029771 345761.000000 0 0 1
-28.916431 -31.447502 30.280015 52.363964 0.827304 0.954201 0.043652 -0.020517 -329147.000000 0 0 1
-29.810791 -30.906402 31.175705 53.064240 0.803441 0.942820 0.049856 -0.001978 -710932.000000 0 0 1
-30.028771 -29.441202 30.828435 52.143110 0.775518 0.938216 0.028060 -0.006843 -82598.000000 0 0 1
-30.798451 -29.226002 29.641305 51.781375 0.759207 0.961328 0.003349 0.005967 320066.000000 0 0 1
-31.114541 -27.843902 29.570745 51.164700 0.729981 0.954579 0.009017 0.017664 -99736.200000 0 0 1
-31.816921 -27.581102 28.229875 50.694768 0.714206 0.980196 -0.004735 0.005225 54499.300000 0 0 1
-30.966471 -27.551802 27.080335 49.511299 0.727112 0.992077 0.011280 0.000770 157502.000000 0 0 1
-30.236091 -26.354502 26.907185 48.298836 0.716915 0.979909 0.001341 0.010193 -314305.000000 0 0 1
-29.153941 -26.455902 25.852155 47.097781 0.736919 0.989744 0.017214 0.012382 -365870.000000 0 0 1
-29.711861 -26.453702 24.554525 46.749521 0.727453 1.017804 0.004371 0.001343 -346596.000000 0 0 1
-28.697621 -26.439402 23.616135 45.610495 0.744465 1.026544 0.011636 0.015618 -827874.000000 0 0 1
-29.081281 -26.492302 22.124835 45.133926 0.738845 1.058472 0.000441 0.020007 -356543.000000 0 0 1
-29.541381 -25.272202 21.561935 44.455533 0.707670 1.064407 0.004149 0.009755 289043.000000 0 0 1
-30.012841 -25.614402 20.242535 44.346685 0.706492 1.096783 0.014861 0.011135 -296626.000000 0 0 1
-30.756971 -24.597502 19.433235 43.916728 0.674581 1.112410 0.025865 0.006172 -539660.000000 0 0 1
-32.022551 -24.276402 19.942735 44.860898 0.648667 1.110129 0.049552 -0.008098 -453569.000000 0 0 1
-32.622611 -23.298102 19.160535 44.431548 0.620173 1.124933 0.079134 -0.011813 -665504.000000 0 0 1
-34.083937 -23.009002 19.492235 45.509078 0.593797 1.128169 0.090371 -0.006432 -807828.000000 0 0 1
-34.969958 -23.818202 18.762635 46.284351 0.597932 1.153405 0.089016 -0.018630 486836.000000 0 0 1
-36.301301 -23.332202 19.045435 47.168896 0.571253 1.155161 0.104389 -0.023741 456336.000000 0 0 1
37.272245 -24.141302 18.253835 48.012761 -0.574758 1.180798 0.121098 -0.028782 -357756.000000 0 0 1
36.861355 -25.346902 18.788535 48.520449 -0.602374 1.173172 0.117448 -0.029138 -69766.800000 0 0 1
36.073135 -26.176402 17.948635 48.048190 -0.627733 1.187958 0.121944 -0.023439 62659.000000 0 0 1
35.592725 -27.422102 18.695235 48.665445 -0.656456 1.176500 0.105334 -0.014722 789529.000000 0 0 1
34.409115 -27.351802 19.522935 48.096292 -0.671623 1.152818 0.092384 -0.014298 818346.000000 0 0 1
34.592925 -26.555002 20.695435 48.271520 -0.654697 1.127710 0.081524 -0.012486 -255465.000000 0 0 1
33.327635 -26.606202 21.567235 47.788774 -0.673717 1.102571 0.063354 -0.009206 163183.000000 0 0 1
32.183225 -26.005102 20.982335 46.392712 -0.679620 1.101480 0.073805 -0.009923 -433578.000000 0 0 1
31.211135 -25.738302 21.944735 46.023543 -0.689593 1.073768 0.073182 -0.007552 -496484.000000 0 0 1
30.366535 -24.543502 21.360835 44.506126 -0.679746 1.070196 0.078078 -0.004633 -253550.000000 0 0 1
31.031855 -23.407602 20.847235 44.107812 -0.646253 1.078509 0.089088 -0.008384 -498208.000000 0 0 1
31.805825 -22.669402 21.723635 44.692601 -0.619228 1.063212 0.110325 -0.017666 -294171.000000 0 0 1
32.580805 -21.510802 21.037035 44.348397 -0.583533 1.076561 0.115135 -0.022091 748593.000000 0 0 1
31.696515 -20.393502 20.780635 43.039503 -0.571721 1.066916 0.108533 -0.029864 385962.000000 0 0 1
32.432035 -19.265702 20.433035 42.901202 -0.536021 1.074376 0.114295 -0.024522 -154447.000000 0 0 1
31.610465 -17.909902 20.458435 41.695727 -0.515484 1.057949 0.095028 -0.019821 315274.000000 0 0 1
31.178115 -17.404702 21.719435 41.793927 -0.509143 1.024321 0.104862 -0.021898 409189.000000 0 0 1
30.266275 -18.194502 22.494435 41.869881 -0.541263 1.003628 0.095179 -0.021198 -160581.000000 0 0 1
30.139435 -17.733502 23.921015 42.368356 -0.531833 0.970852 0.074695 -0.011429 -96887.700000 0 0 1
29.346825 -16.622002 24.257975 41.544873 -0.515346 0.947274 0.075032 -0.017681 154851.000000 0 0 1
29.401525 -16.366102 25.647975 42.309781 -0.507928 0.919529 0.067523 -0.010011 -139889.000000 0 0 1
29.477225 -14.879802 26.013865 42.036133 -0.467472 0.903524 0.047132 -0.013501 -76754.300000 0 0 1
28.313725 -14.116502 25.766385 40.802564 -0.462507 0.887324 0.068949 -0.015908 21384.800000 0 0 1
28.339825 -12.752602 26.201415 40.648354 -0.422845 0.870313 0.053917 -0.013906 56725.100000 0 0 1
29.002725 -11.663802 25.272405 40.198219 -0.382369 0.890923 0.070417 -0.026847 -423231.000000 0 0 1
28.282825 -11.412902 24.118415 38.882779 -0.383544 0.901690 0.064018 -0.010410 145133.000000 0 0 1
29.077525 -10.761102 23.100115 38.664184 -0.354453 0.930473 0.069313 -0.006213 814057.000000 0 0 1
30.154855 -11.685802 22.422035 39.352521 -0.369707 0.964566 0.078904 -0.022918 273020.000000 0 0 1
29.603755 -12.667802 21.568435 38.756327 -0.404335 0.980612 0.077015 -0.026261 97285.400000 0 0 1
29.891665 -13.934802 22.060035 39.677897 -0.436225 0.981257 0.076865 -0.025538 -6678.250000 0 0 1
29.291525 -14.953002 21.055535 39.050240 -0.472004 1.001320 0.076364 -0.022520 -298304.000000 0 0 1
29.822325 -14.902702 19.764735 38.757017 -0.463421 1.035652 0.082868 -0.028491 -305463.000000 0 0 1
29.014325 -15.633202 18.898535 37.991877 -0.494211 1.050155 0.077383 -0.033638 -761138.000000 0 0 1
29.614965 -15.673402 17.492135 37.797837 -0.486764 1.089666 0.092180 -0.038030 47214.300000 0 0 1
29.031525 -16.510902 16.453435 37.231101 -0.517104 1.113050 0.093675 -0.038809 235059.000000 0 0 1
27.666825 -16.195902 16.216735 35.926911 -0.529608 1.102484 0.067477 -0.042226 -494678.000000 0 0 1
27.453525 -15.400302 14.823635 34.793757 -0.511218 1.130682 0.095952 -0.046422 -378085.000000 0 0 1
27.347125 -16.157002 13.603135 34.553715 -0.533636 1.166164 0.106507 -0.043165 119961.000000 0 0 1
26.144525 -16.884302 13.501935 33.925184 -0.573422 1.161470 0.080615 -0.049599 -442298.000000 0 0 1
25.965125 -17.501902 12.072735 33.559726 -0.593100 1.202808 0.092729 -0.032711 -369936.000000 0 0 1
25.689525 -16.591102 11.006035 32.501526 -0.573439 1.225334 0.110965 -0.035320 76374.300000 0 0 1
25.564025 -17.200802 9.711935 32.306480 -0.592272 1.265455 0.098710 -0.036846 -245174.000000 0 0 1
26.913025 -17.445602 9.044535 33.323619 -0.575124 1.295933 0.106596 -0.027530 44759.900000 0 0 1
27.718825 -18.438502 9.644035 34.660049 -0.586985 1.288828 0.104936 -0.025918 863437.000000 0 0 1
29.121525 -18.367002 9.312235 35.666899 -0.562689 1.306646 0.118602 -0.021878 1226600.000000 0 0 1
30.067255 -19.216802 10.181335 37.107747 -0.568694 1.292860 0.128520 -0.033680 -15120.100000 0 0 1
30.153305 -18.753702 11.528635 37.334067 -0.556400 1.256869 0.139545 -0.044742 42239.600000 0 0 1
30.718665 -19.706502 12.380335 38.539010 -0.570388 1.243756 0.112108 -0.032415 -190364.000000 0 0 1
30.429385 -19.220102 13.791935 38.543187 -0.563353 1.204853 0.119733 -0.028591 53263.200000 0 0 1
30.681335 -20.156402 14.838335 39.595467 -0.581252 1.186671 0.108718 -0.026141 17838.000000 0 0 1
30.199495 -19.679702 16.071235 39.466248 -0.577539 1.151394 0.114153 -0.033862 47758.700000 0 0 1
29.939145 -20.824102 17.088435 40.274188 -0.607732 1.132605 0.089360 -0.022810 358343.000000 0 0 1
28.782925 -21.625802 16.854935 39.751993 -0.644359 1.132936 0.046878 -0.009561 138753.000000 0 0 1
28.605025 -22.561602 17.868135 40.577624 -0.667830 1.114814 0.070682 -0.007932 44044.000000 0 0 1
27.193325 -23.143102 18.012535 39.994144 -0.705108 1.103606 0.035024 0.003225 306101.000000 0 0 1
26.137325 -22.347502 18.544335 39.069975 -0.707392 1.076237 0.041469 0.004297 892441.000000 0 0 1
24.873925 -23.017302 18.465635 38.593886 -0.746650 1.071896 0.054832 -0.007744 586926.000000 0 0 1
23.798825 -22.238002 19.272835 37.846466 -0.751507 1.036498 0.039014 -0.007600 -443411.000000 0 0 1
23.503725 -20.934502 18.841935 36.683743 -0.727647 1.031384 0.039714 -0.016433 601417.000000 0 0 1
22.393025 -20.339702 19.562335 36.025491 -0.737385 0.996774 0.052046 -0.013989 874955.000000 0 0 1
22.643325 -19.900202 21.049835 36.767292 -0.721009 0.961226 0.034064 -0.008286 -114158.000000 0 0 1
22.723525 -20.948602 21.980035 37.925248 -0.744779 0.952605 0.058072 -0.008283 -158582.000000 0 0 1
22.980925 -20.546202 23.337735 38.664185 -0.729521 0.922787 0.057314 -0.011217 32422.000000 0 0 1
23.333825 -21.712902 24.262925 40.057547 -0.749431 0.920149 0.069846 -0.012880 689358.000000 0 0 1
22.202625 -22.476902 24.750615 40.134283 -0.791537 0.906259 0.085311 -0.012901 912637.000000 0 0 1
22.623825 -23.615202 25.468725 41.450829 -0.806835 0.909130 0.089007 -0.003441 31587.900000 0 0 1
21.439025 -24.287702 26.211845 41.672354 -0.847616 0.890532 0.106880 -0.007512 -41563.700000 0 0 1
20.638325 -25.076702 25.390225 41.224325 -0.882183 0.907263 0.098947 -0.009825 -267291.000000 0 0 1
19.547925 -25.654302 26.061345 41.466351 -0.919675 0.891181 0.094714 -0.011875 147629.000000 0 0 1
18.791225 -26.635902 25.056165 41.114387 -0.956399 0.915460 0.100921 -0.018188 326607.000000 0 0 1
18.053225 -25.935502 24.041485 39.705947 -0.962705 0.920417 0.102711 -0.026560 257689.000000 0 0 1
17.504125 -26.793802 23.080305 39.458874 -0.992112 0.946014 0.083372 -0.025368 -277558.000000 0 0 1
16.526325 -25.990702 22.201235 37.967497 -1.004429 0.946233 0.082432 -0.019373 -504955.000000 0 0 1
15.287925 -25.746002 22.806135 37.639037 -1.034950 0.919878 0.080816 -0.022493 -412056.000000 0 0 1
14.584525 -24.776602 22.042035 36.227610 -1.038771 0.916713 0.064084 -0.026129 99314.400000 0 0 1
13.182625 -24.509202 22.636135 35.873071 -1.077318 0.887947 0.061672 -0.027253 -103776.000000 0 0 1
12.243325 -25.533302 22.483935 36.157653 -1.123679 0.899718 0.053775 -0.025490 -304667.000000 0 0 1
10.937225 -25.014902 22.641935 35.468655 -1.158614 0.878424 0.053908 -0.023746 372872.000000 0 0 1
9.832925 -26.098402 22.511635 35.841132 -1.210480 0.891694 0.055907 -0.026172 60460.000000 0 0 1
9.766325 -26.620002 21.187835 35.396751 -1.219164 0.929067 0.066151 -0.033108 539382.000000 0 0 1
8.485925 -27.246302 21.074035 35.475158 -1.268866 0.934712 0.076379 -0.027517 398738.000000 0 0 1
8.219725 -28.073202 19.805035 35.325741 -1.285962 0.975637 0.096994 -0.031367 -109795.000000 0 0 1
8.738525 -29.367302 19.883935 36.526307 -1.281580 0.995155 0.096586 -0.026980 202514.000000 0 0 1
8.453825 -30.036202 18.646735 36.350259 -1.296439 1.032151 0.086801 -0.026879 53367.500000 0 0 1
9.100625 -31.441102 18.576635 37.635829 -1.289046 1.054585 0.078785 -0.019867 -70809.000000 0 0 1
8.469225 -32.358802 19.423135 38.679168 -1.314810 1.044701 0.085176 -0.023557 55143.800000 0 0 1
9.204925 -33.555202 19.536035 39.904121 -1.303061 1.059195 0.077590 -0.025207 -87035.600000 0 0 1
8.763025 33.301281 20.636535 40.145143 1.313486 1.030899 0.099878 -0.035326 -337823.000000 0 0 1
8.041125 32.230581 20.142835 38.848473 1.326300 1.025703 0.081013 -0.035640 -304616.000000 0 0 1
7.901725 31.128781 21.059735 38.405087 1.322207 0.990397 0.097230 -0.047249 -592913.000000 0 0 1
6.916825 30.077581 20.608735 37.110960 1.344760 0.982040 0.086145 -0.042585 -1598010.000000 0 0 1
5.594525 30.365081 20.816335 37.237840 1.388598 0.977605 0.095085 -0.044810 -1241330.000000 0 0 1
4.829625 29.139181 20.769935 36.108273 1.406546 0.957932 0.111952 -0.041677 1090990.000000 0 0 1
3.312725 29.281781 21.140835 36.267503 1.458143 0.948486 0.117366 -0.031295 707980.000000 0 0 1
3.167225 29.345181 22.500735 37.114068 1.463283 0.919448 0.102879 -0.039853 -740326.000000 0 0 1
1.836625 28.991781 22.702435 36.868647 1.507531 0.907439 0.106655 -0.025749 -577594.000000 0 0 1
1.622125 28.214881 24.047485 37.107848 1.513368 0.865784 0.114501 -0.019774 -176193.000000 0 0 1
1.731725 29.041481 25.182375 38.478027 1.511237 0.857327 0.121105 -0.029609 124290.000000 0 0 1
1.562425 28.413481 26.455185 38.854137 1.515863 0.821826 0.108861 -0.028533 -552940.000000 0 0 1
2.778925 27.734281 27.067925 38.853383 1.470931 0.800053 0.087529 -0.025772 -793382.000000 0 0 1
3.031525 26.480681 26.510615 37.592943 1.456812 0.788088 0.096863 -0.025051 127240.000000 0 0 1
3.851325 25.811781 27.446315 37.873223 1.422681 0.760213 0.058158 -0.013610 374396.000000 0 0 1
4.560225 24.550181 26.770395 36.608211 1.387138 0.750618 0.063065 -0.010124 133018.000000 0 0 1
3.570325 23.568081 26.553005 35.682822 1.420450 0.731550 0.076667 -0.009105 -98346.500000 0 0 1
4.036525 22.244981 26.462415 34.805059 1.391292 0.707016 0.075212 -0.006074 332721.000000 0 0 1
2.898825 21.180981 26.274305 33.872943 1.434782 0.683017 0.070149 -0.009168 489276.000000 0 0 1
3.345325 19.847581 26.493995 33.272353 1.403815 0.649681 0.073163 -0.009685 42922.900000 0 0 1
3.812625 19.112281 25.366165 31.988400 1.373895 0.655111 0.071734 -0.004563 -486779.000000 0 0 1
4.451125 17.740481 25.730155 31.568625 1.324969 0.617973 0.072071 -0.008006 946791.000000 0 0 1
5.742125 17.748881 26.398745 32.324736 1.257903 0.615174 0.062705 -0.006483 336025.000000 0 0 1
6.772125 17.856581 25.487825 31.848837 1.208304 0.643043 0.089126 -0.010567 -1024640.000000 0 0 1
8.156025 17.803481 26.208875 32.716813 1.141215 0.641694 0.080361 -0.017729 359581.000000 0 0 1
8.564025 18.949881 27.030995 34.104475 1.146338 0.655745 0.077797 -0.017765 107004.000000 0 0 1
8.929625 20.089281 26.386455 34.344759 1.152528 0.694644 0.077068 -0.015935 -321421.000000 0 0 1
9.410925 21.230881 27.326555 35.861629 1.153557 0.704401 0.067236 -0.012597 524645.000000 0 0 1
10.645925 20.927981 27.981765 36.528007 1.100218 0.698145 0.085917 -0.027889 305023.000000 0 0 1
11.032625 21.879981 28.903125 37.892520 1.103767 0.703217 0.102739 -0.040191 -289204.000000 0 0 1
12.249125 21.466581 29.713985 38.649400 1.052265 0.693821 0.129420 -0.039886 -880175.000000 0 0 1
13.491725 21.735181 29.159945 38.791071 1.015272 0.720133 0.112805 -0.034806 -298771.000000 0 0 1
14.520425 21.377481 30.113605 39.682095 0.974140 0.709218 0.106784 -0.025805 570190.000000 0 0 1
15.923725 21.362881 29.484295 39.739922 0.930251 0.734850 0.078012 -0.028211 -96224.800000 0 0 1
16.417825 22.658081 29.176195 40.425042 0.943757 0.764490 0.067904 -0.035794 190934.000000 0 0 1
17.693225 22.576281 28.544805 40.466586 0.906068 0.787820 0.087440 -0.026559 425630.000000 0 0 1
-8.723551 16.656181 4.259422 19.278781 -1.088336 1.348020 0.033406 -0.025758 -399638.000000 0 1 0
-8.558551 17.979281 4.699322 20.459398 -1.126514 1.339037 0.046710 -0.030297 -92774.200000 0 1 0
-7.231251 18.290381 5.061522 20.308817 -1.194298 1.318914 0.041670 -0.023223 -215749.000000 0 1 0
-7.050451 19.711681 5.594822 21.669363 -1.227297 1.309648 0.049365 -0.025351 -125700.000000 0 1 0
-7.269951 20.732881 4.662122 22.459740 -1.233544 1.361699 0.061921 -0.033583 -54305.300000 0 1 0
-8.611351 21.031881 4.356222 23.140269 -1.182176 1.381413 0.065730 -0.034653 -59582.600000 0 1 0
-8.772551 22.229681 3.371822 24.134738 -1.194926 1.430630 0.103778 -0.036806 349379.000000 0 1 0
-8.007251 22.036181 2.187422 23.547700 -1.222262 1.477769 0.073327 -0.031444 -83325.100000 0 1 0
-8.564951 21.118081 1.325422 22.827363 -1.185494 1.512701 0.080114 -0.032313 -920079.000000 0 1 0
-7.966651 21.218881 -0.108278 22.665396 -1.211630 1.575574 0.053034 -0.013465 1679610.000000 0 1 0
-6.647551 20.645981 -0.346178 21.692541 -1.259300 1.586755 0.047627 -0.014003 1426050.000000 0 1 0
-5.574151 21.386381 0.242022 22.102195 -1.315829 1.559846 0.052176 -0.020886 -195187.000000 0 1 0
-4.171151 21.012281 -0.251678 21.423767 -1.374834 1.582544 0.040927 -0.018053 -240723.000000 0 1 0
-4.047051 21.411981 -1.598578 21.849646 -1.383991 1.644024 0.035392 -0.015751 -697185.000000 0 1 0
-2.721851 21.316681 -1.991678 21.581848 -1.443797 1.663213 0.033299 -0.011758 -755057.000000 0 1 0
-2.700751 21.556681 -3.545278 22.012577 -1.446160 1.732558 0.037597 -0.006420 292318.000000 0 1 0
-1.535551 22.158781 -4.089778 22.585300 -1.501609 1.752882 0.053416 -0.001900 96639.800000 0 1 0
-1.621851 22.222081 -5.464978 22.941606 -1.497942 1.811321 0.057527 -0.017730 194781.000000 0 1 0
-0.457951 22.954981 -6.219778 23.787109 -1.550849 1.835348 0.058740 -0.015284 1089360.000000 0 1 0
0.788249 22.269881 -6.051378 23.090867 1.535416 1.835961 0.050069 0.000681 -3528.250000 0 1 0
1.816349 22.750981 -6.866578 23.833929 1.491129 1.863039 0.054330 -0.001498 799978.000000 0 1 0
3.168249 21.950881 -6.853278 23.213066 1.427453 1.870496 0.041020 0.011328 851671.000000 0 1 0
2.949849 20.676181 -7.434578 22.169327 1.429084 1.912778 0.038027 -0.009538 37479.700000 0 1 0
4.170049 20.014381 -7.696278 21.844850 1.365382 1.930840 0.032949 -0.002964 226228.000000 0 1 0
4.047649 18.807281 -8.693378 21.110948 1.358813 1.995219 0.024220 -0.006211 -5390.280000 0 1 0
4.092149 19.236581 -10.011578 22.068608 1.361193 2.041661 0.020876 -0.008568 -188202.000000 0 1 0
3.250749 18.555481 -10.888478 21.758498 1.397366 2.094885 0.019207 -0.018117 -545722.000000 0 1 0
3.452149 18.942981 -12.416478 22.911194 1.390536 2.143539 0.021757 -0.023045 101602.000000 0 1 0
3.382949 20.329981 -12.674378 24.194883 1.405905 2.122155 0.049006 -0.029059 29583.500000 0 1 0
3.649349 20.481081 -14.030378 25.092707 1.394465 2.164146 0.063932 -0.028413 -195453.000000 0 0 1
4.118049 21.843981 -14.578778 26.583051 1.384462 2.151274 0.070148 -0.026855 -520637.000000 0 0 1
3.185949 22.859881 -14.659378 27.342674 1.432320 2.136649 0.089227 -0.033481 -913874.000000 0 0 1
3.733349 24.071981 -15.177578 28.701168 1.416931 2.127999 0.078212 -0.033438 162953.000000 0 0 1
2.710449 25.215481 -15.509978 29.727537 1.463716 2.119683 0.086131 -0.031369 653213.000000 0 0 1
1.824249 25.596681 -14.447878 29.449264 1.499648 2.083577 0.099360 -0.042005 120732.000000 0 0 1
1.649349 27.010981 -14.428278 30.667388 1.509810 2.060627 0.074797 -0.040153 -996119.000000 0 0 1
0.743249 27.515881 -13.296578 30.569186 1.543791 2.020798 0.081374 -0.038229 951965.000000 0 0 1
-0.650751 27.177881 -13.514078 30.359365 -1.546857 2.032124 0.083202 -0.051782 789921.000000 0 0 1
-1.091851 25.815381 -13.534078 29.168430 -1.528527 2.053299 0.074501 -0.045755 -1122090.000000 0 0 1
-1.127251 25.020181 -12.231978 27.872952 -1.525773 2.025112 0.084739 -0.041635 -834410.000000 0 0 1
-2.067351 25.464981 -11.292378 27.933081 -1.489790 1.986972 0.079679 -0.037811 -264916.000000 0 0 1
-2.511351 24.298981 -10.663178 26.654282 -1.467810 1.982373 0.099351 -0.024313 -156635.000000 0 0 1
-3.518451 24.519681 -9.525878 26.539341 -1.428274 1.937922 0.077100 -0.015145 -250797.000000 0 0 1
-3.044951 24.800881 -8.220978 26.304751 -1.448632 1.888650 0.092067 -0.016233 -224075.000000 0 0 1
-2.726251 26.161481 -8.052878 27.508261 -1.466963 1.867892 0.096211 -0.026623 81906.500000 0 0 1
-2.581651 26.715781 -6.577478 27.634419 -1.474462 1.811121 0.088626 -0.020030 616768.000000 0 0 1
-1.418051 26.151381 -5.961078 26.859636 -1.516625 1.794594 0.092855 -0.022511 397856.000000 0 0 1
-1.132751 26.514281 -4.614678 26.936694 -1.528100 1.742961 0.097884 -0.031822 -226516.000000 0 0 1
-1.901251 25.718581 -3.533878 26.029761 -1.497005 1.706980 0.089237 -0.019491 169236.000000 0 0 1
-3.269051 26.053381 -3.462878 26.485032 -1.445974 1.701920 0.080626 -0.016554 7208.210000 0 0 1
-3.994651 25.564981 -2.347878 25.981494 -1.415795 1.661287 0.069327 -0.012243 117805.000000 0 0 1
-5.189151 24.653181 -2.703478 25.338024 -1.363339 1.677696 0.067961 -0.015348 -678089.000000 0 0 1
-6.211851 25.358281 -3.304578 26.316340 -1.330564 1.696700 0.054060 -0.012466 -772924.000000 0 0 1
-7.229251 24.501881 -3.788178 25.825463 -1.283888 1.718011 0.026962 -0.010541 538154.000000 0 0 1
-8.564851 25.228281 -4.113878 26.958243 -1.243511 1.723997 0.035267 -0.011879 -3344.430000 0 0 1
-9.360051 25.455781 -2.995078 27.286954 -1.218442 1.680780 0.068084 -0.019746 -1603420.000000 0 0 1
-10.664451 25.664181 -3.383278 27.996916 -1.176967 1.691937 0.085422 -0.025246 -685680.000000 0 0 1
-11.645951 25.934481 -2.212978 28.515308 -1.148730 1.648481 0.106487 -0.030072 56156.500000 0 0 1
-12.072751 24.860381 -1.374378 27.670902 -1.118717 1.620485 0.110283 -0.027691 490894.000000 0 0 1
-11.029951 24.347381 -0.534278 26.734626 -1.145430 1.590782 0.114815 -0.036387 448293.000000 0 0 1
-11.452751 23.034081 0.141722 25.724589 -1.109384 1.565287 0.097260 -0.034123 -491739.000000 0 0 1
-12.396651 23.160381 1.146422 26.294382 -1.079346 1.527183 0.121961 -0.036881 -254970.000000 0 0 1
-13.077351 21.897081 1.249822 25.535492 -1.032424 1.521832 0.125743 -0.041604 335951.000000 0 0 1
-14.029951 21.764281 2.467122 26.011731 -0.998204 1.475807 0.138476 -0.051816 61226.300000 0 0 1
-13.365751 21.713181 3.689822 25.762770 -1.019015 1.427079 0.139669 -0.050520 -13610.400000 0 0 1
-13.096051 22.957781 4.301422 26.778135 -1.052395 1.409466 0.139981 -0.049527 7444.820000 0 0 1
-12.757251 22.794681 5.789422 26.755604 -1.060568 1.352690 0.135077 -0.045979 187056.000000 0 0 1
-11.453251 22.294181 6.045322 25.782812 -1.096223 1.334122 0.118402 -0.040326 157365.000000 0 0 1
-11.319451 21.956281 7.364122 25.776706 -1.094790 1.281071 0.090381 -0.041130 308522.000000 0 0 1
-9.839451 21.917781 7.850722 25.275240 -1.148836 1.254962 0.082718 -0.032925 403656.000000 0 0 1
-9.322151 23.179881 8.339922 26.339394 -1.188424 1.248619 0.093535 -0.036493 -132354.000000 0 0 1
-8.275951 22.985481 9.245922 26.121079 -1.225195 1.208990 0.094497 -0.034867 -353359.000000 0 0 1
-8.685951 22.604981 10.738422 26.490463 -1.203941 1.153413 0.078430 -0.032935 -223141.000000 0 0 1
-9.423351 21.422481 10.904222 25.819069 -1.156389 1.134780 0.088540 -0.033891 111462.000000 0 0 1
-9.142751 20.912881 12.227222 25.892923 -1.158652 1.078986 0.059333 -0.024286 -36691.100000 0 0 1
-10.166551 19.849181 12.650822 25.639658 -1.097444 1.054792 0.057927 -0.020507 -63633.400000 0 0 1
-10.048551 18.660581 11.872422 24.292902 -1.076832 1.060175 0.077835 -0.033808 -117250.000000 0 1 0
-10.977351 17.773281 12.408522 24.297390 -1.017513 1.034805 0.073684 -0.029187 -239790.000000 0 1 0
-11.087051 16.383981 11.626522 22.946319 -0.975879 1.039463 0.077870 -0.029184 -180175.000000 0 1 0
-11.545551 15.268981 12.360222 22.786325 -0.923375 0.997457 0.066897 -0.022894 167940.000000 0 1 0
-11.851351 14.147781 11.519922 21.755984 -0.873497 1.012778 0.065091 -0.010831 107317.000000 0 1 0
-12.150351 12.821281 12.275222 21.510401 -0.812259 0.963482 0.050999 -0.015470 1400500.000000 0 1 0
-13.467851 12.846881 12.896522 22.643888 -0.761805 0.964854 0.076987 -0.011079 1286330.000000 0 1 0
-13.889151 11.665381 13.560522 22.646796 -0.698596 0.928815 0.055782 0.009039 252953.000000 0 1 0
-14.799251 11.909781 14.772522 24.064250 -0.677634 0.909832 0.064291 0.001607 49823.600000 0 1 0
-16.119151 12.334481 14.559222 24.978739 -0.653163 0.948547 0.095552 -0.014184 -543328.000000 0 1 0
-16.793151 12.670181 15.699722 26.249280 -0.646365 0.929667 0.075459 -0.005298 -691571.000000 0 0 1
-17.719251 13.867981 15.367622 27.248056 -0.664072 0.971587 0.071129 -0.008236 -577926.000000 0 0 1
-18.894351 13.301581 14.879222 27.483082 -0.613404 0.998700 0.070013 -0.010532 -97695.500000 0 0 1
-19.797351 14.241181 14.245722 28.243352 -0.623593 1.042119 0.084873 -0.022599 929015.000000 0 0 1
-20.994451 13.623981 13.469522 28.421961 -0.575624 1.077068 0.082240 -0.024306 67524.800000 0 0 1
-21.865751 12.847081 14.247122 29.088469 -0.531210 1.058952 0.074240 -0.014751 712852.000000 0 0 1
-22.993151 12.423581 13.448622 29.392104 -0.495378 1.095548 0.068669 -0.014324 303729.000000 0 0 1
-23.997651 11.505981 14.092522 30.114349 -0.447083 1.083807 0.072919 -0.022137 -449664.000000 0 0 1
-24.594251 12.083281 15.231222 31.350805 -0.456668 1.063482 0.069621 -0.019454 114108.000000 0 0 1
-25.598851 11.210381 15.718822 32.063300 -0.412767 1.058427 0.067581 -0.022957 -128011.000000 0 0 1
-26.306891 11.841181 16.952522 33.461233 -0.422951 1.039523 0.061994 -0.018123 -394018.000000 0 0 1
-27.303081 12.739681 16.545522 34.373129 -0.436574 1.068602 0.069111 -0.011364 -257570.000000 0 0 1
-28.108641 13.144381 17.608722 35.678250 -0.437416 1.054638 0.061475 0.000638 313999.000000 0 0 1
-29.314081 14.046081 17.144022 36.749493 -0.446836 1.085455 0.072583 -0.006757 363925.000000 0 0 1
-28.930601 15.354681 16.782822 36.802296 -0.487938 1.097271 0.065515 -0.012587 -549952.000000 0 0 1
-29.972401 16.284281 16.798122 38.022356 -0.497692 1.113197 0.078259 -0.016008 -692213.000000 0 0 1
-29.512811 17.742981 16.479822 38.175960 -0.541298 1.124441 0.090139 -0.022958 -222065.000000 0 0 1
-28.604831 18.360481 17.347722 38.161330 -0.570636 1.098886 0.093324 -0.032109 -246633.000000 0 0 1
-29.216041 18.931981 18.512322 39.429723 -0.574968 1.082070 0.100322 -0.038969 -758890.000000 0 0 1
-28.484821 19.044681 19.863822 39.606266 -0.589333 1.045427 0.079007 -0.039942 -215616.000000 0 0 1
-28.137071 17.963381 20.648122 39.252042 -0.568194 1.016859 0.074380 -0.027995 12010.100000 0 0 1
-27.195981 17.113081 20.009722 37.853242 -0.561650 1.013830 0.082636 -0.021426 -335975.000000 0 0 1
-26.588571 16.024281 20.947022 37.450066 -0.542384 0.977217 0.072018 -0.009164 41467.500000 0 0 1
-27.590051 15.069781 21.265522 37.954336 -0.499924 0.976058 0.065597 -0.008137 370136.000000 0 0 1
-27.133141 13.725181 21.398822 37.181952 -0.468313 0.957561 0.058680 -0.008541 -24583.500000 0 0 1
-28.322981 12.752981 21.654922 37.865095 -0.423078 0.961980 0.071112 -0.019086 308713.000000 0 0 1
-29.211991 12.612981 20.550422 37.878062 -0.407594 0.997337 0.082571 -0.017480 -401886.000000 0 0 1
-30.138021 11.652081 20.918122 38.492066 -0.368922 0.996267 0.125005 -0.016727 -846077.000000 0 0 1
-30.942831 11.197081 19.674122 38.339333 -0.347204 1.031937 0.129071 -0.014850 -414343.000000 0 0 1
-30.297041 10.586481 18.569322 37.078349 -0.336161 1.046258 0.148564 -0.012771 -125237.000000 0 0 1
-29.795621 9.320081 18.739222 36.411556 -0.303158 1.030196 0.153867 -0.009683 -397318.000000 0 0 1
-29.033371 8.839681 17.493622 35.030036 -0.295549 1.047903 0.158486 -0.017700 -503508.000000 0 0 1
-29.797651 8.517081 16.371722 35.049593 -0.278407 1.084786 0.159545 -0.013174 -42271.900000 0 0 1
-30.459551 9.535781 15.675722 35.559016 -0.303398 1.114266 0.154094 -0.009016 -98822.000000 0 0 1
-29.565801 10.502881 14.837022 34.707122 -0.341333 1.129079 0.131337 -0.004467 66411.500000 0 0 1
-29.096551 10.170681 13.523322 33.659059 -0.336273 1.157343 0.151331 -0.019604 525345.000000 0 0 1
-28.308971 11.204181 12.954422 33.086985 -0.376865 1.168507 0.112251 -0.016476 59158.800000 0 0 1
-27.902461 10.980881 11.447822 32.096413 -0.374930 1.206095 0.151440 -0.011284 -110844.000000 0 0 1
-27.089961 9.854681 11.136522 30.903120 -0.348894 1.202133 0.154708 -0.014560 429443.000000 0 0 1
-27.704131 8.561081 11.110222 31.052343 -0.299710 1.204896 0.175671 -0.016778 -349572.000000 0 0 1
-26.871001 7.386281 10.525022 29.788990 -0.268254 1.209680 0.187727 -0.031412 -300841.000000 0 0 1
-26.474311 7.609981 9.174722 29.034057 -0.279902 1.249287 0.185255 -0.022465 378061.000000 0 0 1
-25.886301 6.506981 8.547622 28.026830 -0.246266 1.260879 0.227456 -0.050207 -538603.000000 0 0 1
-25.263951 6.870081 7.216422 27.157724 -0.265512 1.301843 0.198598 -0.033460 -194548.000000 0 0 1
-26.237661 7.341681 6.263222 27.956092 -0.272837 1.344841 0.209229 -0.038462 1022360.000000 0 0 1
-25.606001 7.842381 5.089922 27.259449 -0.297200 1.382973 0.191860 -0.033880 426916.000000 0 0 1
-26.770801 8.402981 4.172722 28.367190 -0.304147 1.423164 0.202673 -0.032315 877493.000000 0 0 1
-27.632201 7.406681 3.620222 28.835802 -0.261889 1.444918 0.226696 -0.035433 711694.000000 0 0 1
-26.957551 6.431481 2.823922 27.857639 -0.234200 1.469252 0.222108 -0.040620 -38541.600000 0 0 1
-26.018301 6.793081 1.639222 26.940397 -0.255387 1.509912 0.213073 -0.032932 582045.000000 0 0 1
-24.883551 7.617981 1.896022 26.092521 -0.297085 1.498067 0.185983 -0.033635 510833.000000 0 0 1
-23.853251 7.408381 0.950022 24.995284 -0.301136 1.532779 0.178662 -0.021294 93657.700000 0 1 0
-22.558251 8.085881 1.489222 24.009872 -0.344178 1.508731 0.142613 -0.022953 -182837.000000 0 1 0
-22.720651 9.473281 1.508222 24.662639 -0.395029 1.509604 0.129481 -0.026312 604254.000000 0 1 0
-21.714851 10.139581 2.284422 24.074145 -0.436853 1.475762 0.129503 -0.025553 33492.300000 0 1 0
-22.030051 11.421981 3.077922 25.005168 -0.478316 1.447392 0.132268 -0.038482 -526588.000000 0 0 1
-21.119051 12.432681 2.777322 24.663726 -0.532066 1.457949 0.125683 -0.037250 462898.000000 0 1 0
-21.502051 13.623381 3.430122 25.684635 -0.564749 1.436849 0.126757 -0.045025 -337354.000000 0 0 1
-20.293251 14.224081 4.154322 25.127652 -0.611348 1.404705 0.084820 -0.036171 -119966.000000 0 0 1
-19.949651 13.512981 5.329922 24.677871 -0.595365 1.353101 0.088734 -0.035985 291560.000000 0 1 0
-19.050051 14.259881 6.151622 24.578265 -0.642571 1.317820 0.087534 -0.032633 -29534.800000 0 1 0
-18.304551 13.331081 7.114322 23.735793 -0.629463 1.266387 0.061531 -0.032058 -442219.000000 0 1 0
-17.166151 12.689381 6.613822 22.348149 -0.636559 1.270352 0.052159 -0.018599 -261055.000000 0 1 0
-16.618051 11.874081 7.556022 21.777210 -0.620411 1.216459 0.045566 -0.016118 -373398.000000 0 1 0
10.677649 -32.449502 -14.373778 37.061946 -1.252902 1.969074 0.045078 -0.023462 -610122.000000 0 0 1
11.960749 -32.517502 -13.818778 37.301556 -1.218331 1.950302 0.037105 -0.024897 -205346.000000 0 0 1
12.535049 -31.258002 -13.621078 36.328005 -1.189412 1.955136 0.050172 -0.035282 -132405.000000 0 0 1
13.859849 -31.325302 -12.829978 36.578386 -1.154240 1.929171 0.061176 -0.025656 -1174360.000000 0 0 1
14.911449 -31.764902 -13.555478 37.617965 -1.131901 1.939435 0.061744 -0.025031 -2331220.000000 0 0 1
16.058649 -31.205602 -13.075078 37.451669 -1.095531 1.927427 0.060793 -0.016889 -1515410.000000 0 0 1
17.325549 -31.812002 -13.668578 38.717027 -1.072091 1.931612 0.074694 -0.020049 -193582.000000 0 0 1
17.745549 -33.007602 -13.000578 39.666375 -1.077508 1.904715 0.075816 -0.025760 -269178.000000 0 0 1
18.878049 -33.659002 -13.519178 40.891042 -1.059652 1.907751 0.054856 -0.008127 -145845.000000 0 0 1
18.986149 32.724181 -13.027778 40.013359 1.045073 1.902427 0.044963 -0.019013 -34871.900000 0 0 1
19.520349 32.360681 -11.755378 39.578361 1.028018 1.872362 0.052804 -0.019489 57533.200000 0 0 1
19.278949 30.979681 -11.473478 38.249957 1.014134 1.875448 0.041337 -0.017526 -156446.000000 0 0 1
20.219549 30.533681 -10.360578 38.058868 0.985889 1.846501 0.050142 -0.020064 -749940.000000 0 0 1
21.547249 30.395781 -10.750578 38.778375 0.954129 1.851708 0.048974 -0.025281 -458663.000000 0 0 1
22.340149 30.194581 -9.583278 38.763826 0.933808 1.820609 0.055977 -0.019738 1058340.000000 0 0 1
23.648349 29.316581 -9.819778 38.924727 0.892011 1.825828 0.037434 -0.001825 1243360.000000 0 0 1
24.701849 30.010781 -10.467078 40.254044 0.882128 1.833845 0.050197 -0.015779 518822.000000 0 0 1
25.899249 29.240781 -10.528078 40.455344 0.845925 1.834067 0.046489 0.004326 91601.100000 0 0 1
27.025249 29.800081 -11.392178 41.811370 0.834190 1.846751 0.044530 -0.004157 -126080.000000 0 0 1
27.610149 30.965881 -10.747578 42.856932 0.842624 1.824280 0.042268 -0.019015 301785.000000 0 0 1
28.826549 31.262381 -11.410878 44.028565 0.825913 1.832959 0.043401 -0.012622 248338.000000 0 0 1
29.325749 32.730381 -11.165978 45.342656 0.840207 1.819613 0.038506 -0.014158 161023.000000 0 0 1
28.705549 33.650081 -12.089078 45.852833 0.864528 1.837600 0.057316 -0.010856 265400.000000 0 0 1
29.014849 -32.901502 -11.610978 45.378245 -0.848089 1.829545 0.079138 -0.005594 -191023.000000 0 0 1
27.933649 -31.861502 -11.901278 44.012322 -0.850992 1.844613 0.056375 -0.010199 -415067.000000 0 0 1
26.719849 -32.116502 -11.235978 43.262770 -0.876865 1.833523 0.062106 -0.022071 -507190.000000 0 0 1
25.719549 -31.130602 -11.382178 41.954303 -0.880293 1.845539 0.067909 -0.029401 83714.100000 0 0 1
25.932849 -29.631602 -10.936378 40.867455 -0.851867 1.841704 0.064976 -0.028652 -639228.000000 0 0 1
26.717249 -28.877502 -11.850278 41.087110 -0.824236 1.863371 0.050150 -0.018251 -103405.000000 0 0 1
27.060549 -27.633602 -11.269278 40.285058 -0.795875 1.854318 0.061864 -0.012522 -291466.000000 0 0 1
27.959149 -26.779002 -12.185778 40.587217 -0.763842 1.875737 0.051490 -0.013044 504837.000000 0 0 1
29.237949 -27.324602 -12.508078 41.927838 -0.751584 1.873732 0.034766 -0.000977 299859.000000 0 0 1
29.242449 -28.264802 -13.540778 42.864584 -0.768399 1.892198 0.042286 -0.006569 -1086930.000000 0 0 1
30.592749 -28.811302 -13.960978 44.282235 -0.755419 1.891540 0.046433 0.003399 -453060.000000 0 0 1
31.258449 -29.593402 -12.971578 44.956890 -0.758043 1.863491 0.056603 -0.018931 296660.000000 0 0 1
32.168049 -30.520402 -13.540578 46.364055 -0.759121 1.867165 0.043868 -0.009272 -39982.300000 0 0 1
32.810749 -31.478102 -12.513678 47.159393 -0.764672 1.839362 0.039657 -0.006130 -204245.000000 0 0 1
33.663749 -32.370502 -13.140978 48.515799 -0.765816 1.845082 0.034480 -0.007174 -69917.900000 0 0 1
34.410149 -33.321002 -12.318778 49.458061 -0.769319 1.822522 0.038359 -0.008317 691989.000000 0 0 1
33.641349 33.468281 -11.430478 48.811085 0.782819 1.807169 0.026899 -0.007323 172054.000000 0 0 1
33.071849 33.890281 -10.216478 48.442490 0.797620 1.783291 0.022343 -0.014371 10354.600000 0 0 1
32.652649 32.708381 -9.458278 47.175128 0.786251 1.772657 0.030920 -0.011579 -203499.000000 0 0 1
31.922049 32.965681 -8.098978 46.597713 0.801480 1.745490 0.012633 -0.014151 -464356.000000 0 0 1
30.812549 33.751881 -8.371978 46.461734 0.830892 1.751977 0.017452 -0.011348 -705080.000000 0 0 1
30.026749 -33.872002 -7.196678 45.833507 -0.845503 1.728467 0.033838 -0.010481 365378.000000 0 0 1
29.087849 -32.674702 -7.331478 44.356394 -0.843408 1.736844 0.048999 -0.014730 -172439.000000 0 0 1
29.807949 -31.453602 -7.447378 43.969380 -0.812254 1.740993 0.028215 -0.017010 297423.000000 0 0 1
29.034549 -30.377302 -7.973278 42.771003 -0.807995 1.758311 0.036982 -0.014989 486621.000000 0 0 1
28.118849 -29.580102 -6.993778 41.407307 -0.810718 1.740512 0.065064 -0.014294 166441.000000 0 0 1
27.345849 -28.640002 -7.621478 40.325328 -0.808510 1.760940 0.065370 -0.023561 -809356.000000 0 0 1
26.284049 -28.184102 -6.852278 39.142669 -0.820268 1.746762 0.075814 -0.029248 -231825.000000 0 0 1
25.283549 -27.295902 -7.639678 37.982744 -0.823652 1.773313 0.119799 -0.039864 -914947.000000 0 0 1
24.344949 -28.014302 -8.316878 38.034828 -0.855364 1.791242 0.126766 -0.038787 -634598.000000 0 0 1
23.589849 -27.132302 -9.124278 37.093062 -0.855125 1.819330 0.126894 -0.039893 48667.000000 0 0 1
22.383649 -27.862802 -9.826278 37.066416 -0.894015 1.839103 0.120644 -0.039352 61047.400000 0 0 1
22.498749 -28.698702 -10.978778 38.083366 -0.905910 1.863229 0.124893 -0.040873 388710.000000 0 0 1
21.317849 -29.440002 -11.375178 38.086206 -0.944071 1.874094 0.107473 -0.041216 898606.000000 0 0 1
20.956149 -30.755702 -10.552478 38.683694 -0.972680 1.847087 0.111980 -0.046940 -61440.700000 0 0 1
21.840949 -31.787202 -10.860878 40.067592 -0.968781 1.845294 0.101255 -0.039008 -286869.000000 0 0 1
21.413149 -33.047402 -10.393378 40.726847 -0.995862 1.828848 0.090481 -0.037223 264299.000000 0 0 1
22.588649 33.804081 -10.454578 41.979295 0.981717 1.822487 0.087611 -0.029677 -343935.000000 0 0 1
23.632249 -33.764502 -9.612678 42.319362 -0.960128 1.799943 0.092725 -0.021436 -787020.000000 0 0 1
24.733549 33.248681 -9.896178 42.604667 0.931213 1.805217 0.070321 -0.018822 178441.000000 0 0 1
26.010749 33.625281 -9.097578 43.473953 0.912394 1.781620 0.061181 -0.015182 -151186.000000 0 0 1
26.079649 33.372581 -7.651578 43.039795 0.907457 1.749526 0.061853 -0.026443 17471.000000 0 0 1
26.364449 32.000481 -7.341078 42.107083 0.881665 1.746035 0.054651 -0.014159 -203955.000000 0 0 1
26.526349 31.646881 -5.817578 41.701517 0.873194 1.710758 0.056690 -0.013973 520845.000000 0 0 1
27.641849 32.262981 -5.144378 42.795285 0.862387 1.691297 0.047627 -0.013545 948478.000000 0 0 1
28.658649 31.373681 -4.625178 42.743635 0.830594 1.679216 0.054824 -0.012841 570084.000000 0 0 1
28.378549 30.305281 -3.527178 41.667651 0.818219 1.655548 0.070975 -0.000645 -661922.000000 0 0 1
27.881449 30.911281 -2.362478 41.694890 0.836887 1.627488 0.071317 -0.012439 -13280.000000 0 0 1
27.700249 29.962781 -1.317878 40.826571 0.824615 1.603082 0.060538 -0.006241 779525.000000 0 0 1
26.414249 29.025681 -1.377178 39.269573 0.832467 1.605873 0.050505 -0.002176 786708.000000 0 0 1
25.190949 29.688881 -1.150278 38.953007 0.867175 1.600331 0.041501 -0.001510 -910437.000000 0 0 1
24.115849 28.863081 -1.365278 37.636626 0.874766 1.607080 0.036078 0.003825 -299821.000000 0 0 1
22.752949 29.489581 -0.973978 37.259640 0.913640 1.596940 0.073874 -0.010645 256007.000000 0 0 1
22.538849 29.474781 0.410722 37.107023 0.917964 1.559728 0.076829 -0.016179 498690.000000 0 0 1
21.186949 29.807681 0.741422 36.577785 0.952867 1.550525 0.071941 -0.016792 523119.000000 0 0 1
20.596049 29.200381 2.039322 35.791317 0.956499 1.513787 0.082696 -0.030631 -267587.000000 0 0 1
20.129049 27.913481 1.795722 34.461075 0.946034 1.518664 0.094985 -0.019148 -117275.000000 0 0 1
19.574349 27.354181 2.960322 33.766402 0.949684 1.483013 0.109933 -0.017610 -258688.000000 0 0 1
18.809749 26.022581 2.639022 32.217167 0.944916 1.488791 0.103733 -0.006416 302806.000000 0 0 1
19.513849 24.962781 1.939122 31.744148 0.907303 1.509672 0.103510 -0.011052 413748.000000 0 0 1
20.590049 24.359081 2.649522 32.005233 0.869054 1.487917 0.102634 -0.004100 -53445.800000 0 0 1
21.521149 23.485581 1.819322 31.906776 0.829018 1.513745 0.075163 0.002539 -311980.000000 0 0 1
20.922849 22.382981 1.207322 30.663025 0.819102 1.531412 0.072272 0.000302 -130567.000000 0 0 1
21.949549 21.524081 0.814422 30.752757 0.775612 1.544310 0.043599 -0.001144 -165248.000000 0 0 1
21.565049 20.456681 -0.240378 29.725157 0.759028 1.578883 0.079246 -0.006523 -318431.000000 0 0 1
21.458049 21.200481 -1.471678 30.200565 0.779360 1.619546 0.037325 -0.000629 256544.000000 0 0 1
21.680549 20.328981 -2.563178 29.830916 0.753236 1.656826 0.083085 -0.010012 -44884.000000 0 0 1
21.803949 21.219981 -3.845678 30.667394 0.771826 1.696527 0.051550 -0.016022 -205862.000000 0 0 1
22.847249 22.157381 -3.955478 32.071672 0.770071 1.694444 0.061095 -0.010286 103936.000000 0 0 1
22.762349 22.881281 -5.166078 32.685868 0.788004 1.729514 0.038207 -0.008865 -369980.000000 0 0 1
23.724349 24.095181 -5.297178 34.226928 0.793153 1.726187 0.044718 -0.000717 -499448.000000 0 0 1
23.581249 25.218681 -4.460378 34.813103 0.818940 1.699273 0.029669 -0.000535 -198551.000000 0 0 1
23.813149 25.082881 -3.087578 34.723913 0.811360 1.659832 0.033569 0.002552 -286506.000000 0 0 1
22.657149 24.554481 -2.170978 33.481071 0.825564 1.635684 0.026253 -0.005199 -516773.000000 0 0 1
21.673449 25.605781 -2.035178 33.608576 0.868380 1.631389 0.047746 -0.008531 1570980.000000 0 0 1
20.520949 25.274181 -1.214878 32.578667 0.888821 1.608096 0.064538 0.000811 1218930.000000 0 0 1
19.605849 24.092681 -1.739978 31.110676 0.887717 1.626754 0.087472 -0.018713 -931011.000000 0 0 1
18.901249 24.446781 -2.920378 31.039184 0.912637 1.665023 0.075501 -0.022420 9569.910000 0 0 1
18.382849 23.271181 -3.488778 29.860486 0.902219 1.687900 0.090658 -0.031050 116575.000000 0 0 1
17.548649 23.695481 -4.742978 29.865143 0.933345 1.730285 0.088064 -0.034616 -97263.200000 0 0 1
16.842549 22.720081 -5.425678 28.797770 0.932882 1.760335 0.091762 -0.037082 -248143.000000 0 0 1
16.356049 23.269881 -6.579278 29.194085 0.958137 1.798112 0.091427 -0.037432 -236004.000000 0 0 1
15.600949 22.297381 -7.552478 28.241862 0.960288 1.841512 0.107619 -0.027492 -194549.000000 0 0 1
16.347449 21.137581 -7.922978 27.871312 0.912497 1.859041 0.104192 -0.032455 280142.000000 0 0 1
15.708549 20.362881 -8.931578 27.224594 0.913720 1.905056 0.128387 -0.036782 -207557.000000 0 0 1
16.365749 18.979781 -9.157878 26.682140 0.859220 1.921141 0.126307 -0.039971 576278.000000 0 0 1
17.717149 19.025981 -9.605478 27.715529 0.821004 1.924712 0.130226 -0.034996 471692.000000 0 0 1
18.258349 17.811381 -10.069778 27.422856 0.773007 1.946797 0.125264 -0.034212 -4560.870000 0 0 1
19.735449 17.971081 -10.474578 28.673411 0.738640 1.944758 0.104093 -0.031567 -226111.000000 0 0 1
20.009949 18.515181 -11.706778 29.669153 0.746618 1.976404 0.110232 -0.027402 28279.400000 0 0 1
21.397149 18.523681 -11.950778 30.721098 0.713543 1.970352 0.104288 -0.014071 -196165.000000 0 0 1
21.723949 18.873581 -13.372278 31.732631 0.715303 2.005790 0.101174 -0.018007 -199994.000000 0 0 1
21.487149 17.807981 -14.274578 31.346218 0.692041 2.043600 0.094681 -0.019307 142574.000000 0 0 1
21.786349 18.130881 -15.587978 32.347472 0.694077 2.073609 0.086950 -0.018002 15995.500000 0 0 1
21.894549 17.009681 -16.654278 32.342936 0.660490 2.111720 0.078875 -0.013632 -165713.000000 0 0 1
22.903949 16.052081 -16.374378 32.409574 0.611292 2.100448 0.098493 -0.015531 134432.000000 0 0 1
23.074949 15.135681 -17.426178 32.637613 0.580537 2.134037 0.091113 -0.017616 74240.900000 0 0 1
23.905449 15.666181 -18.677378 34.142996 0.580120 2.149613 0.082065 -0.016395 744935.000000 0 0 1
25.315149 15.912281 -18.463578 35.142015 0.561161 2.123980 0.094557 -0.015989 1160350.000000 0 0 1
25.802749 16.712881 -19.484478 36.397076 0.574769 2.135696 0.116479 -0.021502 -376282.000000 0 0 1
27.312149 16.984281 -19.458478 37.590580 0.556337 2.114889 0.089890 -0.013890 -296223.000000 0 0 1
27.679749 17.772481 -18.401378 37.691383 0.570784 2.080836 0.078217 -0.011924 182725.000000 0 0 1
29.082349 17.862981 -18.183278 38.671705 0.550810 2.060309 0.078256 -0.023714 299906.000000 0 0 1
29.464449 19.057481 -17.264578 39.107634 0.574119 2.028025 0.088547 -0.017307 235694.000000 0 0 1
28.853649 18.928381 -15.978978 38.028206 0.580591 2.004448 0.080055 -0.017630 714246.000000 0 0 1
27.499649 19.398881 -15.929078 37.232819 0.614356 2.012880 0.065952 -0.002654 437108.000000 0 0 1
26.696949 18.838181 -14.730878 35.841358 0.614495 1.994349 0.066467 0.000922 -217493.000000 0 0 1
27.141349 19.218081 -13.487478 35.887317 0.616124 1.956087 0.058198 -0.008091 481779.000000 0 0 1
26.150449 18.937881 -12.478578 34.615087 0.626777 1.939595 0.072227 -0.014859 415355.000000 0 0 1
26.500549 19.478581 -11.095778 34.710381 0.633848 1.896175 0.057678 -0.015483 -142904.000000 0 0 1
26.312149 20.887081 -11.127578 35.389580 0.670961 1.890653 0.058792 -0.005010 -24796.700000 0 0 1
26.677849 21.595281 -9.948178 35.735557 0.680497 1.852907 0.047984 -0.003118 117846.000000 0 0 1
25.772849 21.510181 -8.686678 34.675438 0.695489 1.824007 0.058591 -0.011728 -505958.000000 0 0 1
25.965549 20.360481 -7.846878 33.916551 0.664992 1.804270 0.073958 -0.019207 613554.000000 0 0 1
24.976749 20.253681 -6.805678 32.868935 0.681353 1.779360 0.082529 -0.024229 -100237.000000 0 0 1
23.561949 19.830981 -7.171478 31.620616 0.699628 1.799585 0.090596 -0.030906 -1020370.000000 0 0 1
22.816849 20.895181 -7.691378 31.880629 0.741464 1.814456 0.068967 -0.021483 -905231.000000 0 0 1
21.495549 20.467181 -7.825478 30.695313 0.760896 1.828582 0.057062 -0.023697 -848193.000000 0 0 1
20.586949 21.711781 -7.943778 30.956866 0.811984 1.830307 0.085065 -0.030813 -769457.000000 0 0 1
20.891049 22.583781 -9.026878 32.061623 0.824314 1.856203 0.090352 -0.023975 49579.900000 0 0 1
20.232849 22.337781 -10.257878 31.836594 0.834804 1.898853 0.098571 -0.013086 -330552.000000 0 0 1
18.740449 22.682781 -10.276078 31.165859 0.880284 1.906806 0.093180 -0.022546 -728990.000000 0 0 1
18.562149 24.080781 -10.014778 32.011454 0.914098 1.888988 0.085459 -0.031962 -3037.630000 0 0 1
17.235949 24.475281 -10.309078 31.660613 0.957245 1.902455 0.084690 -0.028431 147426.000000 0 0 1
16.966749 25.877281 -9.726278 32.436164 0.990451 1.875341 0.079130 -0.032423 -75436.100000 0 0 1
17.537149 26.875281 -10.527178 33.773567 0.992639 1.887777 0.100575 -0.013764 13833.900000 0 0 1
17.614949 28.027981 -9.744878 34.508214 1.009700 1.857084 0.106988 -0.033766 -66069.400000 0 0 1
21.195249 29.133881 33.277573 49.045066 0.941844 0.825064 0.053366 -0.000681 686342.000000 0 0 1
19.815149 29.156581 33.644404 48.730815 0.973885 0.808736 0.077972 -0.019221 183532.000000 0 0 1
19.129649 27.941181 33.399588 47.562439 0.970454 0.792277 0.061213 -0.020485 508783.000000 0 0 1
17.607749 28.289281 33.430768 47.200980 1.014056 0.783760 0.095084 -0.032099 406937.000000 0 0 1
17.103549 29.065281 32.330887 46.718393 1.038911 0.806488 0.083628 -0.033470 684540.000000 0 0 1
15.728549 29.391081 32.621742 46.641194 1.079428 0.796212 0.130375 -0.037447 1098730.000000 0 0 1
14.784949 29.450981 31.407625 45.523554 1.105535 0.809417 0.114136 -0.047003 185219.000000 0 0 1
14.486649 28.170381 30.789515 44.174966 1.095813 0.799605 0.117882 -0.048163 27730.800000 0 0 1
13.147649 28.138581 30.355035 43.428892 1.133693 0.796855 0.125901 -0.027481 -93958.000000 0 0 1
12.399049 26.809581 30.079485 42.157627 1.137608 0.776315 0.117411 -0.029394 -152582.000000 0 0 1
12.664549 25.957181 29.015475 40.939759 1.116874 0.783092 0.112443 -0.027096 719286.000000 0 0 1
14.008849 25.454181 28.941305 41.009296 1.067680 0.787350 0.090717 -0.027731 553024.000000 0 0 1
14.167449 24.598281 27.707585 39.667397 1.048246 0.797500 0.089439 -0.024262 -402380.000000 0 0 1
13.940849 25.368581 26.531465 39.266154 1.068312 0.828906 0.072965 -0.027814 236774.000000 0 0 1
14.026949 24.634981 25.357295 38.034590 1.053187 0.841037 0.080138 -0.032304 403124.000000 0 0 1
12.882849 23.565681 25.188525 36.820795 1.070507 0.817449 0.084434 -0.029643 -79938.300000 0 0 1
12.798549 22.921181 23.939345 35.528519 1.061548 0.831448 0.103601 -0.036660 537772.000000 0 0 1
11.586749 22.171481 23.702755 34.462269 1.089235 0.812358 0.124552 -0.035159 806908.000000 0 0 1
11.422349 21.589381 22.307135 33.078388 1.084162 0.830683 0.141141 -0.036086 -167728.000000 0 0 1
11.022249 22.611181 21.449335 33.057972 1.117224 0.864737 0.134709 -0.047826 -38837.800000 0 0 1
10.910849 22.114081 20.099735 31.813183 1.112451 0.886916 0.136833 -0.030215 -515619.000000 0 0 1
10.392349 23.196381 19.079235 31.781917 1.149594 0.926899 0.108757 -0.033919 75540.900000 0 0 1
9.027449 23.527281 18.979935 31.547833 1.204419 0.925264 0.108550 -0.037029 -290575.000000 0 0 1
8.571349 24.221081 20.113935 32.629729 1.230669 0.906596 0.106632 -0.033607 -1113580.000000 0 0 1
7.272149 24.949681 19.851835 32.702693 1.287181 0.918466 0.105175 -0.034951 -571598.000000 0 0 1
7.393049 25.931181 18.843635 32.896291 1.293062 0.960855 0.097563 -0.044782 889750.000000 0 0 1
6.097349 26.479281 18.517335 32.881936 1.344473 0.972608 0.089854 -0.045723 1044740.000000 0 0 1
6.315349 27.670681 17.565835 33.378269 1.346407 1.016593 0.102188 -0.039165 86156.700000 0 0 1
6.701649 27.327481 16.289635 32.512391 1.330308 1.046009 0.091092 -0.029780 -137462.000000 0 0 1
7.316049 28.430181 15.623935 33.255182 1.318927 1.081710 0.088332 -0.025760 106469.000000 0 0 1
7.876749 27.947981 14.282735 32.359378 1.296086 1.113662 0.083758 -0.026367 266785.000000 0 0 1
6.922949 27.957281 13.219235 31.690456 1.328053 1.140504 0.076235 -0.018525 47066.700000 0 0 1
7.057749 26.862581 12.428535 30.428253 1.313868 1.150037 0.068576 -0.024906 36186.900000 0 0 1
6.317349 26.926581 11.076535 29.793276 1.340350 1.189871 0.061491 -0.025988 154562.000000 0 0 1
6.998349 27.637781 9.993235 30.210737 1.322792 1.233662 0.055983 -0.023159 309552.000000 0 0 1
7.165549 29.077181 10.106235 31.606385 1.329179 1.245328 0.055462 -0.024292 -196275.000000 0 0 1
7.001849 29.762781 8.680035 31.783519 1.339743 1.294184 0.049251 -0.016084 585503.000000 0 0 1
5.703449 29.474481 8.143835 31.106212 1.379654 1.305902 0.031781 -0.015668 509764.000000 0 0 1
5.680949 28.262181 7.366635 29.753847 1.372431 1.320608 0.021413 -0.006955 64856.200000 0 0 1
4.216949 27.963681 6.952135 29.121853 1.421123 1.329743 0.032614 -0.010889 321060.000000 0 0 1
3.648249 28.964781 6.131235 29.830527 1.445501 1.363785 0.044918 -0.009326 -302608.000000 0 0 1
2.272049 28.727081 5.944435 29.423523 1.491870 1.367366 0.044259 -0.013678 239133.000000 0 0 1
1.574349 29.784981 5.017235 30.245600 1.517988 1.404143 0.064935 -0.016542 99957.900000 0 0 1
2.133549 29.693481 3.684235 29.997141 1.499067 1.447666 0.045983 -0.024168 258686.000000 0 0 1
1.534549 30.581381 2.759335 30.743937 1.520659 1.480923 0.048683 -0.029054 19295.600000 0 0 1
0.292449 30.006581 2.077635 30.079844 1.561050 1.501671 0.094410 -0.022549 -293126.000000 0 0 1
0.720449 29.024681 1.180035 29.057592 1.545979 1.530175 0.092922 -0.028984 -43004.300000 0 0 1
-0.209051 27.969081 0.946235 27.985864 -1.563322 1.536979 0.091392 -0.025572 46699.300000 0 0 1
-1.005851 27.983481 -0.354865 28.003801 -1.534867 1.583469 0.092181 -0.029391 142550.000000 0 0 1
-1.876251 29.117181 -0.413265 29.180496 -1.506447 1.584959 0.098317 -0.025842 -78090.900000 0 0 1
-1.676451 29.913781 -1.526765 29.999597 -1.514812 1.621711 0.103254 -0.029011 -388213.000000 0 0 1
-2.836051 30.876481 -1.928165 31.066350 -1.479202 1.632902 0.129586 -0.020961 683065.000000 0 0 1
-3.952251 30.229681 -2.614365 30.598837 -1.440793 1.656341 0.076559 -0.021426 698600.000000 0 0 1
-3.699051 29.482381 -3.796065 29.955031 -1.445982 1.697863 0.073741 -0.021760 -885211.000000 0 0 1
-4.939451 28.867081 -4.496665 29.629825 -1.401327 1.723146 0.071812 -0.015245 -150668.000000 0 0 1
-5.616051 29.878881 -5.175265 30.839438 -1.385004 1.739407 0.070976 -0.012372 -719874.000000 0 0 1
-6.657951 29.414481 -5.945165 30.738982 -1.348198 1.765431 0.065981 -0.021008 -517385.000000 0 0 1
-7.301251 30.503581 -6.837165 32.101769 -1.335859 1.785424 0.069405 -0.017770 65183.800000 0 0 1
-8.170551 31.435681 -6.227665 33.071797 -1.316510 1.760235 0.062232 -0.004022 23500.200000 0 0 1
-8.618651 32.371581 -7.184965 34.261117 -1.310591 1.782077 0.053512 -0.018393 558441.000000 0 0 1
-9.679651 33.403381 -6.627165 35.403402 -1.288741 1.759097 0.060520 -0.008576 713245.000000 0 0 1
-10.919751 32.835881 -6.243665 35.162756 -1.249746 1.749308 0.069563 -0.009851 -665796.000000 0 0 1
-11.709251 33.857081 -5.753165 36.283707 -1.237829 1.730029 0.068076 -0.011575 904605.000000 0 0 1
-13.253451 33.488581 -5.758365 36.473248 -1.193950 1.729339 0.098295 -0.017749 1118170.000000 0 0 1
-13.798051 33.568981 -7.028565 36.968411 -1.180813 1.762084 0.092495 -0.020142 -1059640.000000 0 0 1
-15.138351 33.205481 -6.966765 37.152516 -1.143048 1.759431 0.111040 -0.031359 -956613.000000 0 0 1
-15.720751 33.241881 -8.446865 37.729487 -1.129046 1.796590 0.146781 -0.031339 177137.000000 0 0 1
-17.080951 32.876381 -8.555965 38.023938 -1.091631 1.797755 0.166400 -0.033529 -63009.000000 0 0 1
-17.927251 -33.876402 -8.428465 39.243292 1.084066 1.787257 0.156747 -0.033838 -1082870.000000 0 0 1
-19.395351 33.755181 -8.885565 39.931756 -1.049271 1.795194 0.143221 -0.038945 189823.000000 0 0 1
-20.157951 32.857981 -8.132965 39.397145 -1.020519 1.778727 0.137037 -0.043927 -144492.000000 0 0 1
-20.661951 33.589081 -7.063065 40.062819 -1.019320 1.748022 0.142057 -0.031064 -863945.000000 0 0 1
-21.084851 32.694781 -5.808765 39.335244 -0.998015 1.719012 0.135816 -0.032378 -474410.000000 0 0 1
-21.031451 33.465681 -4.602165 39.792633 -1.009721 1.686709 0.136476 -0.038060 296089.000000 0 0 1
-22.051551 33.035181 -3.698165 39.890732 -0.982205 1.663637 0.121221 -0.033448 602665.000000 0 0 1
-23.384351 33.816381 -3.894265 41.298194 -0.965791 1.665233 0.137868 -0.037890 -185115.000000 0 0 1
-23.906851 33.547381 -5.161165 41.516285 -0.951644 1.695435 0.143215 -0.042391 -67789.300000 0 0 1
-25.106901 -33.611802 -5.484765 42.310665 0.929239 1.700793 0.135719 -0.045169 492001.000000 0 0 1
-25.364371 -33.448802 -7.046765 42.565603 0.922002 1.737113 0.162889 -0.041066 914809.000000 0 0 1
-24.427551 -32.486502 -7.676365 41.364292 0.926062 1.757458 0.178926 -0.037822 1070440.000000 0 0 1
-24.786951 -32.274402 -9.064465 41.691660 0.915870 1.789963 0.136321 -0.035041 529955.000000 0 0 1
-26.088201 -31.490002 -9.379965 41.954716 0.878941 1.796276 0.116651 -0.018662 -313449.000000 0 0 1
-27.293361 -32.066202 -8.975265 43.054898 0.865631 1.780797 0.126575 -0.017384 -276511.000000 0 0 1
-28.505801 -31.643002 -9.544565 43.645836 0.837508 1.791260 0.057433 -0.004267 490324.000000 0 0 1
-29.028421 -30.173302 -9.318465 42.894186 0.804734 1.789786 0.032217 0.010631 -928430.000000 0 0 1
-28.149591 -29.257202 -9.908865 41.791972 0.804690 1.810176 0.053612 0.011423 -373047.000000 0 0 1
-28.235971 -29.180102 -11.326565 42.154946 0.801840 1.842828 0.049605 0.007276 -799893.000000 0 0 1
-27.175311 -28.362602 -12.029465 41.080929 0.806773 1.867975 0.094224 0.005767 -1733310.000000 0 0 1
-25.929181 -28.911402 -11.979065 40.640984 0.839724 1.869994 0.083423 0.000082 -1458850.000000 0 0 1
-25.192531 -28.361702 -13.045665 40.115323 0.844506 1.902024 0.077484 -0.008968 -823.731000 0 0 1
-23.737951 -28.898502 -13.165065 39.647606 0.883127 1.909274 0.102716 -0.020526 65886.100000 0 0 1
-23.524751 -30.197302 -13.733265 40.668090 0.908970 1.915259 0.121864 -0.019542 -85397.200000 0 0 1
-24.020851 -31.297902 -13.059965 41.558665 0.916195 1.890467 0.106935 -0.017358 -257774.000000 0 0 1
-23.958451 -32.481902 -14.024265 42.728929 0.935283 1.905209 0.118586 -0.018586 73802.300000 0 0 1
-24.638451 -33.558702 -13.398665 43.735157 0.937491 1.882162 0.104818 -0.024689 192520.000000 0 0 1
-24.708351 33.199881 -14.248565 43.769354 -0.930998 1.902376 0.111463 -0.021933 -289031.000000 0 0 1
-25.057771 31.879781 -13.560665 42.756333 -0.904645 1.893531 0.093269 -0.025607 -85755.900000 0 0 1
-24.274951 31.425681 -12.461765 41.619013 -0.913078 1.874886 0.087947 -0.028006 168030.000000 0 0 1
-24.433651 32.305181 -11.350765 42.065044 -0.923251 1.844022 0.138770 -0.033622 -124032.000000 0 0 1
-23.635651 31.852681 -10.146565 40.941300 -0.932415 1.821238 0.138345 -0.030530 282703.000000 0 0 1
-24.338951 30.823481 -9.407865 40.385387 -0.902415 1.805909 0.131510 -0.033548 781788.000000 0 0 1
-23.541451 30.523281 -8.236965 39.417232 -0.913826 1.781317 0.121453 -0.031106 357669.000000 0 0 1
-24.087051 29.392881 -7.388765 38.713323 -0.884286 1.762833 0.115485 -0.025508 -159182.000000 0 0 1
-24.208951 28.155881 -8.103065 38.006402 -0.860630 1.785648 0.115904 -0.005406 39664.100000 0 0 1
-24.637151 26.993881 -7.387965 37.285934 -0.831012 1.770260 0.098665 -0.008048 249020.000000 0 0 1
-23.573551 26.408681 -6.395665 35.972702 -0.842060 1.749539 0.098949 -0.006820 189516.000000 0 0 1
-23.674451 27.075081 -5.153165 36.333108 -0.852306 1.713107 0.106002 -0.009979 237362.000000 0 0 1
-22.706051 26.639381 -4.230165 35.257846 -0.864940 1.691064 0.096548 -0.011899 239561.000000 0 0 1
-21.286251 27.259981 -4.152465 34.834667 -0.907835 1.690285 0.095327 -0.018252 233153.000000 0 0 1
-20.630551 27.063081 -5.380265 34.452536 -0.919461 1.727603 0.101282 -0.031357 -240880.000000 0 0 1
-19.305451 27.564181 -5.335265 34.072710 -0.959814 1.728028 0.113848 -0.028515 183219.000000 0 0 1
-18.500551 27.253281 -6.617565 33.597677 -0.974415 1.769058 0.123603 -0.028367 -209524.000000 0 0 1
-18.669951 27.979581 -7.836365 34.537409 -0.982376 1.799685 0.123983 -0.025558 101479.000000 0 0 1
-18.468551 29.398081 -7.739165 35.570061 -1.009883 1.790126 0.121353 -0.033151 -52079.000000 0 0 1
-18.547851 30.127381 -9.170365 36.548290 -1.018951 1.824417 0.112334 -0.029593 418998.000000 0 0 1
-17.327951 29.950881 -9.891865 35.988362 -1.046302 1.849243 0.123847 -0.029856 492550.000000 0 0 1
-17.475651 30.538781 -11.135165 36.905385 -1.051035 1.877295 0.120571 -0.026286 -181802.000000 0 0 1
-16.163651 30.951381 -11.836665 36.869476 -1.089526 1.897626 0.136736 -0.026286 -133533.000000 0 0 1
-16.178851 31.730381 -12.999765 37.915250 -1.099272 1.920760 0.133683 -0.029346 -255640.000000 0 0 1
-16.566051 31.021381 -14.202065 37.927019 -1.080304 1.954608 0.124074 -0.032188 235954.000000 0 0 1
-16.023251 31.629581 -15.572065 38.725498 -1.101890 1.984621 0.168371 -0.040908 1565050.000000 0 0 1
-14.572451 31.633781 -15.613665 38.168560 -1.139112 1.992232 0.162832 -0.042533 1040600.000000 0 0 1
-14.106851 32.026081 -16.887965 38.857129 -1.155887 2.020409 0.142818 -0.051854 9149.720000 0 0 1
-12.571151 32.137181 -17.056965 38.493796 -1.197924 2.029861 0.171663 -0.057101 2842.720000 0 0 1
-11.974451 30.832681 -16.984265 37.182078 -1.200357 2.045176 0.174515 -0.070445 -41924.200000 0 0 1
-10.714751 30.740681 -17.631965 37.022717 -1.235411 2.067178 0.174812 -0.062941 371865.000000 0 0 1
-10.602251 31.005581 -19.184165 37.970857 -1.241314 2.100449 0.188471 -0.067154 -560897.000000 0 0 1
-11.320051 30.032381 -19.910065 37.769011 -1.210336 2.126044 0.134559 -0.060874 135415.000000 0 0 1
-10.893551 29.990381 -21.257265 38.340106 -1.222380 2.158486 0.131965 -0.069051 -641025.000000 0 0 1
-12.056351 29.534081 -22.165765 38.845060 -1.183225 2.178057 0.111497 -0.050839 692145.000000 0 0 1
-13.101751 30.487081 -22.373065 40.020895 -1.164911 2.164017 0.109109 -0.051205 246631.000000 0 0 1
-14.056451 30.543181 -21.340565 39.823227 -1.139480 2.136349 0.098680 -0.046415 -201512.000000 0 0 1
-15.027651 31.783781 -21.446865 41.182606 -1.129137 2.118555 0.131778 -0.045992 500076.000000 0 0 1
-15.933351 31.821981 -22.520965 42.115366 -1.106587 2.135002 0.107358 -0.038773 42004.600000 0 0 1
-16.665551 33.040181 -22.615665 43.368911 -1.103633 2.119371 0.113306 -0.042895 644042.000000 0 0 1
-17.322751 33.274081 -24.040065 44.555212 -1.090799 2.140707 0.089521 -0.033332 439358.000000 0 0 1
-16.296851 33.484681 -25.018665 44.863625 -1.117849 2.162361 0.113456 -0.036163 356338.000000 0 0 1
-16.651851 33.246781 -26.390565 45.597089 -1.106464 2.188025 0.122979 -0.028667 -55161.200000 0 0 1
-17.289751 -33.403802 -27.136365 46.380295 1.093169 2.195780 0.104933 -0.026235 -328115.000000 0 0 1
-18.517651 -32.975602 -26.626965 46.252448 1.059124 2.184241 0.107926 -0.018616 -557373.000000 0 0 1
-18.966451 -31.920602 -27.430265 46.163519 1.034670 2.207064 0.084271 -0.007365 -105548.000000 0 0 1
-20.457351 -31.667702 -27.116365 46.439679 0.997238 2.194327 0.052189 -0.014489 160341.000000 0 0 1
-21.317351 -32.662202 -27.652865 47.811398 0.992553 2.187530 0.046757 -0.010805 -1616000.000000 0 0 1
-22.625951 -32.368602 -27.381165 48.056095 0.960736 2.177028 0.034183 -0.006627 -676627.000000 0 0 1
-23.545951 -33.637702 -27.470865 49.401976 0.960079 2.160444 0.013676 0.005899 89582.800000 0 0 1
-23.424551 33.416381 -26.307965 48.553817 -0.959406 2.143410 0.035689 -0.008956 -496431.000000 0 0 1
-24.274851 32.293481 -26.302165 48.207273 -0.926211 2.147908 0.016101 -0.003246 117440.000000 0 0 1
-23.772051 30.973381 -26.974865 47.456339 -0.916189 2.175374 0.012459 -0.005970 -413782.000000 0 0 1
-23.137151 29.983181 -26.176765 46.038483 -0.913569 2.175580 0.017285 -0.021063 -175317.000000 0 0 1
-23.907151 29.286581 -25.203865 45.436665 -0.886185 2.158803 0.023936 -0.016126 -352675.000000 0 0 1
32.362795 10.352181 -26.355698 43.001639 0.309593 2.230522 0.069127 -0.009538 -128516.000000 0 0 1
31.766425 9.100481 -26.594968 42.417176 0.279008 2.248474 0.056518 -0.008152 939680.000000 0 0 1
30.406025 9.020381 -26.122828 41.088876 0.288394 2.259794 0.068742 -0.014647 1059390.000000 0 0 1
29.892445 7.586681 -25.740038 40.170456 0.248551 2.266298 0.061732 -0.009988 10955.700000 0 0 1
30.189075 7.195681 -24.408178 39.483126 0.233988 2.237238 0.037611 -0.001820 254759.000000 0 0 1
29.677825 5.884281 -24.132578 38.701155 0.195733 2.244087 0.042242 0.000551 142485.000000 0 0 1
29.630085 5.546681 -22.622778 37.689490 0.185056 2.214599 0.040029 0.000105 522045.000000 0 0 1
30.889285 5.091481 -22.105778 38.324098 0.163361 2.185616 0.067991 -0.010460 678031.000000 0 0 1
30.822125 4.831881 -20.715978 37.449996 0.155501 2.156953 0.046128 -0.007532 66095.800000 0 0 1
32.186605 4.641481 -19.991078 38.172819 0.143218 2.121984 0.048504 -0.010288 207762.000000 0 0 1
32.859515 3.407481 -20.167378 38.705061 0.103329 2.118880 0.067092 -0.012007 493165.000000 0 0 1
33.669785 3.134781 -19.006578 38.790866 0.092836 2.082858 0.082871 -0.022020 61408.200000 0 0 1
34.180175 1.665681 -18.989978 39.136659 0.048694 2.077414 0.086604 -0.023218 209600.000000 0 0 1
33.196965 0.710381 -18.589378 38.054015 0.021396 2.081166 0.084015 -0.008452 153218.000000 0 0 1
33.787145 -0.559319 -18.414378 38.483416 -0.016553 2.069744 0.096285 -0.007533 127774.000000 0 0 1
32.833155 -1.677719 -17.892178 37.429411 -0.051054 2.069201 0.080776 -0.006858 92307.100000 0 0 1
32.617955 -1.720219 -16.531978 36.608693 -0.052690 2.039339 0.081223 -0.006842 -22860.100000 0 0 1
31.238745 -1.724919 -16.239678 35.249988 -0.055161 2.049580 0.073488 -0.008307 -215780.000000 0 0 1
30.807305 -2.003319 -14.840578 34.254139 -0.064936 2.018891 0.091613 -0.019883 -278985.000000 0 0 1
30.725135 -3.395219 -14.492078 34.140617 -0.110056 2.009186 0.081104 -0.023986 302493.000000 0 0 1
29.753685 -3.609119 -13.504378 32.873633 -0.120710 1.994124 0.087632 -0.032474 -323084.000000 0 0 1
29.541425 -5.093419 -13.048678 32.694138 -0.170737 1.981346 0.089611 -0.031257 -419450.000000 0 0 1
28.849325 -5.823719 -13.999278 32.591088 -0.199190 2.014783 0.072097 -0.029937 171141.000000 0 0 1
28.589825 -7.057919 -13.457178 32.377275 -0.242029 1.999439 0.077715 -0.032833 -177656.000000 0 0 1
28.002925 -8.034319 -14.516678 32.549163 -0.279405 2.033079 0.055587 -0.023358 180470.000000 0 0 1
26.794725 -7.623819 -15.143978 31.708358 -0.277201 2.068720 0.072922 -0.029570 237704.000000 0 0 1
26.273425 -8.606119 -15.985278 31.935673 -0.316545 2.095026 0.063652 -0.024402 252096.000000 0 0 1
24.807725 -8.291419 -16.406678 30.876365 -0.322555 2.131010 0.049819 -0.023493 202068.000000 0 0 1
24.619925 -7.318319 -17.445278 31.048932 -0.288934 2.167434 0.049454 -0.020332 88332.700000 0 0 1
23.255325 -7.220619 -17.808178 30.167510 -0.301056 2.202239 0.079304 -0.021542 340928.000000 0 0 1
23.248125 -7.651419 -19.265178 31.147497 -0.317954 2.237647 0.056726 -0.016036 -67657.000000 0 0 1
23.809425 -6.704219 -20.135178 31.894524 -0.274472 2.254031 0.060457 -0.017677 189615.000000 0 0 1
23.677225 -7.125419 -21.437378 32.725277 -0.292319 2.285073 0.075955 -0.025407 -91490.700000 0 0 1
24.031425 -6.049219 -22.398878 33.403775 -0.246598 2.305745 0.076934 -0.026484 -77829.300000 0 0 1
24.093825 -6.550119 -23.717478 34.437410 -0.265444 2.330508 0.087788 -0.034717 172244.000000 0 0 1
24.365025 -5.437919 -24.588978 35.040594 -0.219587 2.348617 0.075249 -0.029595 -90420.700000 0 0 1
24.162325 -5.776119 -26.084198 36.021756 -0.234651 2.380559 0.083235 -0.032630 62204.100000 0 0 1
22.859225 -6.002119 -26.580588 35.568206 -0.256773 2.414806 0.085594 -0.032720 -264321.000000 0 0 1
22.886625 -6.220019 -27.990458 36.687218 -0.265366 2.438658 0.084651 -0.034567 -409797.000000 0 0 1
21.693625 -6.978419 -28.505188 36.494622 -0.311227 2.467188 0.071060 -0.038719 -552759.000000 0 0 1
21.664425 -8.348419 -28.102688 36.452770 -0.367815 2.451103 0.064429 -0.035051 333535.000000 0 0 1
20.381925 -8.933119 -28.254448 35.965780 -0.413070 2.474450 0.067779 -0.045189 124493.000000 0 0 1
20.398325 -10.409119 -27.963848 36.144408 -0.471848 2.455410 0.083151 -0.034552 224706.000000 0 0 1
19.089225 -10.963619 -27.831548 35.485131 -0.521335 2.472389 0.094441 -0.030544 659896.000000 0 0 1
19.043725 -12.281619 -27.428258 35.578237 -0.572794 2.451093 0.096305 -0.032412 -380156.000000 0 0 1
18.944125 -13.386919 -28.473188 36.726174 -0.615177 2.457960 0.092095 -0.026898 152443.000000 0 0 1
17.682625 -13.565619 -29.099068 36.653199 -0.654401 2.487997 0.098670 -0.021721 348625.000000 0 0 1
17.850625 -14.534919 -30.144008 37.928484 -0.683371 2.489407 0.075437 -0.023977 478539.000000 0 0 1
16.536725 -15.003019 -30.848818 38.081536 -0.736809 2.515073 0.077832 -0.024393 493621.000000 0 0 1
15.593825 -15.770619 -30.096718 37.385722 -0.791035 2.506526 0.065294 -0.028534 182904.000000 0 0 1
14.491125 -16.029919 -30.923318 37.725357 -0.835773 2.531676 0.067068 -0.032157 135403.000000 0 0 1
13.261025 -16.566019 -30.104038 36.831248 -0.895753 2.527593 0.077710 -0.040139 312580.000000 0 0 1
13.471625 -17.853519 -29.557468 37.065843 -0.924381 2.493823 0.074920 -0.031663 646262.000000 0 0 1
12.576425 -18.195519 -28.441558 36.030065 -0.966013 2.480601 0.082810 -0.034990 692330.000000 0 0 1
13.029525 -19.533919 -27.781848 36.375453 -0.982549 2.439903 0.083130 -0.038221 32091.600000 0 0 1
14.162925 -19.384519 -26.970798 36.107782 -0.939807 2.414263 0.086995 -0.037005 -258606.000000 0 0 1
14.298925 -20.582819 -26.223058 36.273412 -0.963635 2.378827 0.081051 -0.026497 93668.600000 0 0 1
15.334825 -20.545519 -25.054968 35.847268 -0.929614 2.344706 0.067887 -0.014617 1274950.000000 0 0 1
16.705425 -20.723919 -25.489368 36.854578 -0.892351 2.334526 0.077984 -0.016638 1150740.000000 0 0 1
17.649825 -20.482719 -24.470678 36.467412 -0.859553 2.306392 0.076488 -0.010504 -34719.100000 0 0 1
19.090925 -20.869219 -24.870378 37.663290 -0.829871 2.292061 0.059928 -0.004861 -59938.900000 0 0 1
19.409725 -22.207019 -25.201478 38.794376 -0.852513 2.277877 0.070744 -0.022209 156706.000000 0 0 1
19.125425 -23.191819 -24.208178 38.596350 -0.881197 2.248768 0.060670 -0.021660 -435342.000000 0 0 1
19.931425 -24.477619 -24.487978 39.950927 -0.887414 2.230587 0.057057 -0.020861 638967.000000 0 0 1
21.287525 -24.434219 -24.006278 40.329780 -0.854113 2.208372 0.071345 -0.023149 656716.000000 0 0 1
21.746125 -25.700349 -23.621078 41.126113 -0.868547 2.182615 0.073248 -0.035547 -462347.000000 0 0 1
21.515425 -26.073859 -22.141778 40.410617 -0.880894 2.150672 0.075201 -0.028138 189093.000000 0 0 1
20.167125 -26.091369 -21.653978 39.450820 -0.912773 2.151827 0.069036 -0.022880 714582.000000 0 0 1
20.138525 -26.118719 -20.243878 38.698349 -0.913966 2.121304 0.067074 -0.018103 -418204.000000 0 0 1
18.821325 -26.611889 -19.659078 38.064606 -0.955219 2.113515 0.062396 -0.018691 -595099.000000 0 0 1
18.484225 -27.958159 -19.939378 38.998769 -0.986630 2.107472 0.059228 -0.017210 487078.000000 0 0 1
17.482225 -28.514799 -19.062778 38.498200 -1.020805 2.088816 0.056643 -0.009070 1200610.000000 0 0 1
15.991225 -28.313469 -19.495178 37.913503 -1.056667 2.110873 0.061539 -0.015972 323055.000000 0 0 1
15.427325 -27.144809 -18.895578 36.495011 -1.053986 2.115024 0.063681 -0.015658 -120281.000000 0 0 1
14.140225 -26.960469 -19.458778 36.131107 -1.087757 2.139524 0.055881 -0.004335 -112938.000000 0 0 1
13.250025 -26.125519 -18.562278 34.679447 -1.101431 2.135604 0.049100 -0.012369 -1030450.000000 0 0 1
12.742725 -26.734909 -17.396478 34.347778 -1.126017 2.101894 0.046738 -0.012927 197842.000000 0 0 1
11.675225 -25.981969 -16.855378 33.097996 -1.148476 2.105117 0.064568 -0.018638 851677.000000 0 0 1
10.227325 -26.109159 -17.451178 33.027715 -1.197453 2.127487 0.071927 -0.014485 95869.600000 0 0 1
9.489325 -27.171389 -16.831478 33.341120 -1.234799 2.099977 0.076061 -0.005760 -48123.200000 0 0 1
8.107425 -26.879559 -16.819078 32.728006 -1.277854 2.110527 0.078606 -0.000663 313255.000000 0 0 1
7.322725 -27.552079 -17.983378 33.706694 -1.311024 2.133560 0.079238 -0.000866 -376076.000000 0 0 1
7.425325 -26.880869 -19.189578 33.851979 -1.301286 2.173494 0.081795 -0.008346 -28642.200000 0 0 1
6.878625 -27.654379 -20.237878 34.952136 -1.327008 2.188319 0.083514 -0.005406 1487.960000 0 0 1
6.934325 -26.909159 -21.568278 35.176388 -1.318590 2.230834 0.073956 -0.006178 -380617.000000 0 0 1
6.068525 -25.821569 -21.474178 34.128005 -1.339968 2.251351 0.080677 -0.011059 -164391.000000 0 0 1
5.880725 -25.071639 -22.680078 34.315535 -1.340404 2.292850 0.062801 -0.011391 45660.000000 0 0 1
4.433725 -24.508819 -22.822178 33.781532 -1.391829 2.312549 0.041129 -0.002557 -364090.000000 0 0 1
3.584625 -25.572729 -23.058478 34.619466 -1.431530 2.299704 0.041413 -0.004193 -365707.000000 0 0 1
2.359925 -25.008619 -23.541878 34.427028 -1.476710 2.323781 0.032967 -0.006176 405465.000000 0 0 1
1.516325 -26.080509 -24.293478 35.674434 -1.512722 2.319893 0.020190 -0.006272 -187375.000000 0 0 1
2.028525 -26.625639 -25.483208 36.911156 -1.494756 2.332829 0.026381 -0.003721 54545.200000 0 0 1
1.046625 -27.364609 -26.191228 37.893240 -1.532568 2.333923 0.031393 -0.009139 230201.000000 0 0 1
1.657825 -28.309769 -27.281848 39.350866 -1.512303 2.336851 0.031439 -0.011180 -200118.000000 0 0 1
2.358025 -27.591249 -28.242128 39.553193 -1.485541 2.366033 0.031746 -0.013139 92059.700000 0 0 1
2.946225 -28.358289 -29.307328 40.887556 -1.467275 2.369968 0.032233 -0.011912 677705.000000 0 0 1
4.415125 -28.854819 -29.126978 41.236813 -1.418962 2.355103 0.031577 -0.007441 117452.000000 0 0 1
4.767125 -29.670919 -27.993238 41.069578 -1.411491 2.320750 0.030737 -0.020746 -196246.000000 0 0 1
5.788625 -30.518579 -28.469588 42.135606 -1.383348 2.312664 0.044270 -0.019131 21287.900000 0 0 1
6.118525 -31.579069 -27.403428 42.256618 -1.379415 2.276409 0.063152 -0.027725 -143870.000000 0 0 1
5.194125 -32.627149 -27.486808 42.977138 -1.412925 2.264733 0.056138 -0.037108 17246.700000 0 0 1
5.740625 -33.760879 -26.890508 43.541373 -1.402369 2.236465 0.074563 -0.043565 -493239.000000 0 0 1
4.661125 33.172212 -26.332468 42.608926 1.431197 2.236997 0.082622 -0.043849 -350815.000000 0 0 1
3.969525 32.554811 -27.422758 42.750211 1.449462 2.267203 0.076592 -0.043169 655540.000000 0 0 1
2.606125 32.352231 -27.059428 42.257205 1.490415 2.265751 0.051108 -0.043360 546688.000000 0 0 1
1.504825 32.305043 -28.149428 42.875058 1.524248 2.287026 0.067385 -0.030240 -53975.500000 0 0 1
1.442725 31.310445 -29.159228 42.809882 1.524751 2.320105 0.084453 -0.034110 39416.700000 0 0 1
0.343125 31.622825 -29.992498 43.585212 1.559946 2.329712 0.087798 -0.033145 202866.000000 0 0 1
0.024925 30.558745 -31.039248 43.557691 1.569981 2.363995 0.090324 -0.033133 -145325.000000 0 0 1
1.038825 30.433305 -31.994098 44.168852 1.536675 2.380900 0.092460 -0.035694 30112.700000 0 0 1
0.630225 29.421375 -32.895878 44.137889 1.549379 2.411778 0.115013 -0.033487 834996.000000 0 0 1
1.829425 29.068495 -33.864548 44.666898 1.507944 2.431279 0.098218 -0.027319 1030960.000000 0 0 1
2.364425 30.181575 33.255349 44.971505 1.492616 0.738505 0.095826 -0.032168 571300.000000 0 0 1
3.433425 29.914545 32.332884 44.182393 1.456522 0.749830 0.084887 -0.034408 584736.000000 0 0 1
2.993125 29.076265 31.056055 42.648172 1.468217 0.755116 0.092911 -0.024380 36942.400000 0 0 1
2.714025 27.694545 31.248445 41.842790 1.473110 0.727550 0.093812 -0.027873 636812.000000 0 0 1
3.927325 26.911715 31.226555 41.409685 1.425886 0.716532 0.083030 -0.022559 631646.000000 0 0 1
3.764925 25.390025 31.515005 40.645093 1.423585 0.683495 0.088480 -0.028202 -103334.000000 0 0 1
3.118325 24.639395 30.505685 39.337267 1.444907 0.683304 0.086894 -0.015321 121058.000000 0 0 1
3.206525 23.242595 30.684145 38.626633 1.433703 0.652814 0.077150 -0.016376 -360703.000000 0 0 1
2.206125 22.477965 29.840365 37.424234 1.472964 0.647898 0.073434 -0.007011 -1143440.000000 0 0 1
0.910525 22.438365 30.297485 37.712689 1.530240 0.637852 0.085544 -0.012763 -1260780.000000 0 0 1
0.066325 22.006165 29.254465 36.607369 1.567782 0.644931 0.090299 -0.010471 314171.000000 0 0 1
-1.319275 21.464265 29.700365 36.668336 -1.509410 0.626690 0.088405 -0.012962 60914.800000 0 0 1
-2.317375 22.445865 29.851025 37.420192 -1.467918 0.647283 0.093710 -0.014484 -600282.000000 0 0 1
-3.523375 21.812565 30.109785 37.347039 -1.410650 0.633068 0.067328 -0.018387 -925720.000000 0 0 1
-4.703375 22.709365 30.452775 38.278042 -1.366572 0.650852 0.047028 -0.024610 -577358.000000 0 0 1
-4.529575 23.540785 31.585755 39.652813 -1.380706 0.649216 0.058302 -0.021360 -475880.000000 0 0 1
-5.588675 24.419205 31.799425 40.481284 -1.345807 0.667238 0.044745 -0.023386 -469017.000000 0 0 1
-5.531375 25.153825 33.171468 41.995921 -1.354340 0.660193 0.068995 -0.020828 719117.000000 0 0 1
-6.811575 25.633175 33.602708 42.808869 -1.311066 0.668185 0.053664 -0.017614 531768.000000 0 0 1
-6.653475 26.284695 -33.013118 42.720252 -1.322873 2.453997 0.072555 -0.014979 813279.000000 0 0 1
-7.989775 26.851225 -32.394008 42.827521 -1.281582 2.428562 0.084282 -0.008427 298729.000000 0 0 1
-8.574575 27.962165 -33.059648 44.140076 -1.273251 2.417304 0.089508 -0.015234 724592.000000 0 0 1
-9.860175 28.378785 -32.564888 44.306325 -1.236396 2.396454 0.089518 -0.017392 686107.000000 0 0 1
-9.904675 28.746075 -31.045038 43.453812 -1.238978 2.366616 0.085228 -0.018492 -776778.000000 0 0 1
-9.294275 29.968645 -30.683228 43.885803 -1.270069 2.345019 0.099518 -0.022609 173365.000000 0 0 1
-9.405675 30.208065 -29.293298 43.117180 -1.268948 2.317725 0.114697 -0.029187 -694718.000000 0 0 1
-8.607075 31.429085 -28.943508 43.584353 -1.303493 2.297059 0.111824 -0.036804 -454178.000000 0 0 1
-7.212375 31.311025 -28.952788 43.251157 -1.344399 2.304212 0.097951 -0.037662 -497240.000000 0 0 1
-6.585075 32.429806 -28.367528 43.586376 -1.370464 2.279480 0.117122 -0.039647 1526170.000000 0 0 1
-4.989175 32.309745 -28.396378 43.303184 -1.417589 2.285982 0.117330 -0.041902 1520390.000000 0 0 1
-4.153775 33.299978 -27.860128 43.615698 -1.446699 2.263687 0.118060 -0.053113 -128327.000000 0 0 1
-4.110475 -33.371749 -28.616508 44.152850 1.448241 2.275914 0.123100 -0.048047 -652697.000000 0 0 1
-3.301475 -33.318579 -29.932238 44.910648 1.472031 2.300279 0.114398 -0.038470 -388736.000000 0 0 1
-3.502775 33.608489 -31.036648 45.881080 -1.466948 2.313740 0.107855 -0.031923 708928.000000 0 0 1
-4.651775 33.919975 -31.875938 46.779046 -1.434507 2.320490 0.116058 -0.026711 934130.000000 0 0 1
-4.324375 -33.067719 -33.105648 46.991044 1.440761 2.352528 0.077918 -0.030370 -173775.000000 0 0 1
-4.093975 -31.729779 -32.681028 45.733894 1.442479 2.366836 0.079332 -0.035513 509819.000000 0 0 1
-3.297575 -30.940059 -33.606358 45.799001 1.464618 2.394664 0.066183 -0.037110 410808.000000 0 0 1
33.509025 18.093081 12.648735 40.127358 0.495092 1.250113 0.119714 -0.027143 109031.000000 0 0 1
34.772485 17.810381 13.211635 41.241759 0.473358 1.244702 0.117628 -0.035873 60170.600000 0 0 1
34.796865 16.653681 14.045035 41.053988 0.446379 1.221633 0.128110 -0.016182 -1074720.000000 0 0 1
36.215525 16.390181 14.463535 42.301255 0.424992 1.221840 0.119023 -0.045509 -1055280.000000 0 0 1
37.239775 15.951881 13.631435 42.744349 0.404710 1.246221 0.110151 -0.009616 -344205.000000 0 0 1
37.002375 14.797281 12.849535 41.871778 0.380421 1.258885 0.140281 -0.035411 -557971.000000 0 0 1
-36.313091 14.011581 12.392935 40.847887 -0.368253 1.262546 0.146986 -0.021203 617690.000000 0 0 1
-35.590531 13.350581 13.415735 40.310121 -0.358872 1.231511 0.140968 -0.027209 -310216.000000 0 0 1
-36.233331 12.220181 13.909335 40.689762 -0.325284 1.221924 0.133049 -0.023753 -300903.000000 0 0 1
-35.489636 11.568381 15.115335 40.271765 -0.315105 1.186040 0.168090 -0.034813 51600.900000 0 0 1
-35.484811 12.302881 16.326135 40.952111 -0.333739 1.160737 0.172819 -0.028960 106042.000000 0 0 1
-34.801019 11.668081 17.369735 40.607422 -0.323501 1.128797 0.159903 -0.015663 -106913.000000 0 0 1
-34.681120 12.471281 18.698835 41.327465 -0.345200 1.101280 0.158859 -0.024540 -70533.700000 0 0 1
-35.978106 12.636581 19.218735 42.702074 -0.337770 1.103958 0.166548 -0.040129 88171.900000 0 0 1
-36.057611 13.353881 20.418235 43.535983 -0.354686 1.082642 0.181596 -0.040174 1249020.000000 0 0 1
37.039905 13.494681 20.955535 44.645217 0.349382 1.082209 0.186899 -0.055608 1356240.000000 0 0 1
36.544475 12.229181 21.342035 44.051492 0.322925 1.065028 0.151985 -0.034547 -67531.100000 0 0 1
35.415435 12.195481 22.172635 43.527101 0.331637 1.036311 0.172934 -0.037625 -108432.000000 0 0 1
35.396865 10.907381 22.945975 43.570940 0.298913 1.016159 0.132520 -0.030025 214121.000000 0 0 1
36.449915 10.757681 23.893125 44.891040 0.286988 1.009544 0.124606 -0.020558 285602.000000 0 0 1
36.117415 11.416181 25.141355 45.463003 0.306148 0.984827 0.117862 -0.018327 -1099630.000000 0 0 1
37.208175 11.261081 26.215085 46.888068 0.293887 0.977497 0.107792 -0.022275 612519.000000 0 0 1
-36.269371 12.122681 25.997745 46.241858 -0.322567 0.973738 0.144468 -0.033466 470976.000000 0 0 1
-35.331896 11.662181 25.033005 44.844183 -0.318815 0.978555 0.131968 -0.037762 160047.000000 0 0 1
-34.220187 12.738681 24.612335 44.034785 -0.356363 0.977702 0.142600 -0.044557 798490.000000 0 0 1
-33.236361 13.219881 25.468505 43.909745 -0.378568 0.952044 0.122893 -0.041313 -274713.000000 0 0 1
-33.715681 13.975681 26.551425 45.133635 -0.392957 0.941860 0.109737 -0.035317 -583009.000000 0 0 1
-32.634901 14.722181 27.344275 45.049848 -0.423783 0.918544 0.111700 -0.020346 -328219.000000 0 0 1
-31.853971 15.571781 26.550955 44.295700 -0.454687 0.928042 0.111529 -0.031346 -85708.600000 0 0 1
-31.168751 16.463981 27.403915 44.648945 -0.485969 0.909977 0.095545 -0.023562 -16494.000000 0 0 1
-30.483411 17.642081 26.679755 44.184734 -0.524643 0.922508 0.087190 -0.011462 -79254.000000 0 0 1
-31.451311 18.460181 26.053325 44.818958 -0.530765 0.950469 0.083909 -0.028650 638789.000000 0 0 1
-30.855831 19.516281 25.300175 44.419212 -0.563974 0.964805 0.081815 -0.030878 72911.300000 0 0 1
-31.942631 20.546981 24.935415 45.434404 -0.571613 0.989842 0.096213 -0.016523 -14138.000000 0 0 1
-32.233671 21.426181 25.973235 46.612227 -0.586650 0.979763 0.089909 -0.021995 150555.000000 0 0 1
-33.507551 21.972181 25.716195 47.611505 -0.580399 1.000210 0.095041 -0.018303 -148644.000000 0 0 1
-33.443281 23.496281 25.806805 48.337558 -0.612449 1.007605 0.099963 -0.018840 -77834.400000 0 0 1
-34.632497 24.028581 25.256435 49.139293 -0.606564 1.030982 0.114312 -0.016419 -94509.900000 0 0 1
-34.689092 25.424881 25.071015 49.782663 -0.632490 1.043025 0.105783 -0.023403 343545.000000 0 0 1
-35.839682 25.879381 24.138075 50.367369 -0.625396 1.071007 0.115097 -0.018691 310425.000000 0 0 1
-35.514151 25.712081 22.771835 49.405693 -0.626649 1.091770 0.122252 -0.025602 43523.900000 0 0 1
-36.458231 26.372281 21.941735 50.061358 -0.626230 1.117093 0.126283 -0.028999 103967.000000 0 0 1
-36.262101 26.186581 20.417235 49.168491 -0.625436 1.142578 0.150078 -0.037031 35283.200000 0 0 1
-36.500961 24.915681 19.869635 48.455276 -0.598955 1.148275 0.144871 -0.040580 60834.700000 0 0 1
-36.090111 24.865781 18.507935 47.574645 -0.603299 1.171219 0.147995 -0.044107 -172657.000000 0 0 1
-36.284161 23.457781 17.812335 46.734218 -0.573912 1.179766 0.154126 -0.035926 229630.000000 0 0 1
37.003025 23.174681 17.369935 46.989407 0.559528 1.192157 0.127461 -0.034939 -249933.000000 0 0 1
37.022535 22.123381 16.407635 46.144583 0.538627 1.207272 0.116816 -0.037050 122330.000000 0 0 1
35.734965 21.839581 15.604435 44.692879 0.548581 1.214134 0.102227 -0.022471 -227823.000000 0 0 1
34.743045 21.115581 16.241435 43.780488 0.546109 1.190738 0.126879 -0.040204 -721184.000000 0 0 1
33.632835 20.959281 15.400935 42.516442 0.557289 1.200132 0.124900 -0.030471 -551084.000000 0 0 1
32.442125 20.215881 16.049835 41.458058 0.557258 1.173275 0.109519 -0.033245 320822.000000 0 0 1
31.488245 20.776781 16.917935 41.344900 0.583252 1.149230 0.099377 -0.035579 -41545.200000 0 0 1
30.702485 21.775981 16.359835 41.042419 0.616912 1.160798 0.094457 -0.026587 -496570.000000 0 0 1
29.883755 22.553381 17.459735 41.310243 0.646505 1.134430 0.076650 -0.025642 694580.000000 0 0 1
30.725635 23.229781 18.386135 42.681815 0.647355 1.125448 0.035921 -0.016952 -41425.300000 0 0 1
29.862035 24.000381 19.144635 42.828454 0.676998 1.107379 0.022111 -0.006722 35893.800000 0 0 1
30.544985 24.679981 20.366535 44.236787 0.679593 1.092353 0.021313 -0.011545 203553.000000 0 0 1
31.394875 25.746281 19.998435 45.259768 0.686865 1.113126 0.046393 -0.012525 490923.000000 0 0 1
32.488075 25.911281 20.921035 46.524824 0.673253 1.104395 0.046982 -0.016049 -111120.000000 0 0 1
33.511125 26.917781 20.392635 47.575435 0.676719 1.127812 0.067865 -0.021211 -168274.000000 0 0 1
34.574945 27.230781 21.277835 48.884441 0.667126 1.120460 0.063757 -0.017591 477904.000000 0 0 1
34.233165 28.329181 22.100135 49.627292 0.691307 1.109262 0.032920 -0.004910 -250523.000000 0 0 1
35.165825 28.462281 23.310135 50.893016 0.680430 1.095027 0.024481 -0.014782 -463831.000000 0 0 1
36.370085 29.112681 23.065865 51.984281 0.675019 1.111064 0.065107 -0.017381 -796197.000000 0 0 1
36.862955 29.544581 24.323455 53.135583 0.675637 1.095320 0.073674 -0.015538 -674735.000000 0 0 1
-36.470181 30.338981 24.183465 53.248173 -0.693883 1.099361 0.075332 -0.016651 -1096360.000000 0 0 1
-35.270190 29.669581 23.987785 51.958485 -0.699368 1.090917 0.078797 -0.015291 -605471.000000 0 0 1
-34.185074 30.524281 24.310685 51.878324 -0.728886 1.083080 0.086295 -0.011457 542507.000000 0 0 1
-32.800511 29.846281 24.083625 50.464790 -0.738276 1.073289 0.103351 -0.022450 391049.000000 0 0 1
-32.314361 29.709381 22.710835 49.423146 -0.743423 1.093344 0.089999 -0.017073 367346.000000 0 0 1
-32.871071 28.645981 21.923535 48.803084 -0.716824 1.104899 0.106391 -0.015589 -113673.000000 0 0 1
-32.299251 27.241581 22.242535 47.750139 -0.700657 1.086246 0.104206 -0.014660 -1329610.000000 0 0 1
-30.926761 27.176581 22.158935 46.755209 -0.720944 1.077042 0.088399 -0.018908 -1119320.000000 0 0 1
-30.440361 26.172881 23.016755 46.275332 -0.710161 1.050212 0.082539 -0.022592 72641.600000 0 0 1
-29.999071 26.610481 24.459785 46.971726 -0.725611 1.023086 0.074301 -0.018840 -581549.000000 0 0 1
-31.127971 26.948881 25.196725 48.270775 -0.713564 1.021617 0.071354 -0.017132 -468875.000000 0 0 1
-30.742581 27.276781 26.501545 48.902566 -0.725734 0.998070 0.081156 -0.018978 75842.300000 0 0 1
-31.872891 27.565581 27.552645 50.347698 -0.713058 0.991724 0.075110 -0.018808 210456.000000 0 0 1
-32.583201 26.408981 27.957145 50.405369 -0.681116 0.982859 0.072858 -0.010005 -170217.000000 0 0 1
-33.424401 26.758581 29.020405 51.724232 -0.675089 0.975130 0.070499 -0.000066 -253225.000000 0 0 1
-34.046581 25.571981 29.678565 51.902920 -0.644197 0.962087 0.057056 0.001553 -133090.000000 0 0 1
-33.121461 24.823381 30.436175 51.376962 -0.643159 0.936751 0.059513 -0.003789 162005.000000 0 0 1
-33.787831 23.660881 30.881655 51.527968 -0.610913 0.928147 0.048736 -0.010257 194017.000000 0 0 1
-33.020851 22.963181 32.015238 51.406807 -0.607642 0.898503 0.054732 -0.016909 475364.000000 0 0 1
-31.831361 22.284981 31.506315 50.025032 -0.610790 0.889486 0.050649 -0.012550 873319.000000 0 0 1
-31.232681 21.454481 32.495303 49.917130 -0.601896 0.861915 0.052444 -0.017191 -103858.000000 0 0 1
-30.327381 22.156681 33.496049 50.325480 -0.630958 0.842515 0.058453 -0.013716 -964596.000000 0 0 1
-31.020001 23.027181 -33.505918 51.138421 -0.638576 2.285244 0.066635 -0.026567 10190.900000 0 0 1
-31.090601 22.678181 -32.154758 50.148319 -0.630201 2.266848 0.059175 -0.019048 -313174.000000 0 0 1
-29.818381 22.770781 -31.278198 48.846392 -0.652179 2.265734 0.065279 -0.028944 -143663.000000 0 0 1
-29.355021 24.059281 -31.040448 49.031375 -0.686577 2.256313 0.070554 -0.029479 237079.000000 0 0 1
-28.315411 24.149781 -30.076918 47.849717 -0.706166 2.250510 0.074681 -0.024688 58036.400000 0 0 1
-28.404931 25.418081 -29.200288 48.016412 -0.729961 2.224501 0.073418 -0.022763 -87437.900000 0 0 1
-28.367601 26.664281 -29.867968 49.069341 -0.754457 2.225204 0.056187 -0.021990 431088.000000 0 0 1
-29.388391 27.036281 -30.806738 50.435039 -0.743736 2.227892 0.076539 -0.019544 -62091.700000 0 0 1
-29.247021 28.521881 -31.260418 51.440254 -0.772846 2.223962 0.069802 -0.021956 -227229.000000 0 0 1
-29.566581 29.439581 -30.280778 51.553828 -0.783246 2.198592 0.070734 -0.022871 58277.800000 0 0 1
-29.800391 30.682481 -30.882768 52.756263 -0.799981 2.196152 0.068031 -0.030583 -17550.300000 0 0 1
-30.078411 31.829781 -29.861478 53.005223 -0.813680 2.169254 0.069896 -0.024781 -15221.700000 0 0 1
-28.977321 32.136381 -29.054978 52.121242 -0.837044 2.162107 0.042716 -0.011909 -94045.100000 0 0 1
-29.355861 33.184981 -28.156138 52.495501 -0.846548 2.136907 0.027230 -0.000957 -405529.000000 0 0 1
-28.426091 33.342381 -26.944188 51.436819 -0.864823 2.122138 0.028968 0.003125 1014070.000000 0 0 1
-27.167671 -33.880102 -27.326558 51.309692 0.894912 2.132443 0.017747 -0.010464 1021610.000000 0 0 1
-27.168411 -32.475702 -27.522898 50.500532 0.874147 2.147188 0.031497 0.003780 -667191.000000 0 0 1
-27.715781 -31.538902 -26.366208 49.578663 0.849829 2.131528 0.033998 0.003349 717587.000000 0 0 1
-29.135381 -31.464602 -26.231238 50.268971 0.823815 2.119777 0.029320 -0.003452 166790.000000 0 0 1
-29.503411 -30.685502 -25.143718 49.439436 0.805035 2.104327 0.029482 -0.006346 988591.000000 0 0 1
-31.067111 -30.504802 -25.091078 50.252070 0.776266 2.093592 0.034006 -0.008785 1027010.000000 0 0 1
-31.546121 -29.571502 -26.041388 50.475592 0.753101 2.112878 0.030370 0.000290 1175390.000000 0 0 1
-32.954941 -29.291302 -25.852388 51.111197 0.726609 2.101113 0.032262 -0.002831 841191.000000 0 0 1
-33.625481 -28.547002 -26.978658 51.705438 0.703895 2.119728 0.046834 -0.003406 -248839.000000 0 0 1
-35.021372 -28.388102 -26.856888 52.475454 0.681167 2.108074 0.049789 -0.013986 -123939.000000 0 0 1
-35.481160 -27.652902 -27.975868 52.974002 0.662034 2.127165 0.057870 -0.012976 717031.000000 0 0 1
-36.973861 -27.932402 -28.390308 54.344228 0.646989 2.120479 0.052683 -0.021007 630498.000000 0 0 1
36.794855 -27.357302 -27.444678 53.436819 -0.639334 2.110161 0.057870 -0.017602 -983873.000000 0 0 1
35.440155 -27.536002 -27.737208 52.759726 -0.660541 2.124366 0.058360 -0.029710 -205187.000000 0 0 1
34.416925 -26.958302 -26.748138 51.251709 -0.664466 2.119870 0.073154 -0.022687 -43689.500000 0 0 1
34.318835 -27.705502 -25.546148 50.970412 -0.679175 2.095776 0.063718 -0.019827 60284.500000 0 0 1
33.294905 -27.183802 -24.730278 49.589277 -0.684694 2.092897 0.075746 -0.015794 -108262.000000 0 0 1
33.061135 -27.789002 -23.376478 49.109337 -0.698973 2.066907 0.062733 -0.015587 311895.000000 0 0 1
32.240235 -28.983502 -23.463678 49.295236 -0.732254 2.066877 0.079030 -0.024114 338732.000000 0 0 1
31.864405 -29.548702 -22.181278 48.790114 -0.747709 2.042749 0.083370 -0.028481 -22677.100000 0 0 1
32.894385 -29.698102 -21.012578 49.046368 -0.734378 2.013543 0.076289 -0.020092 -609091.000000 0 0 1
33.940425 -30.627902 -21.192278 50.389815 -0.734141 2.004866 0.060560 -0.017547 444049.000000 0 0 1
35.095175 -30.430402 -20.389178 50.728683 -0.714328 1.984416 0.045276 -0.013118 629263.000000 0 0 1
35.985445 -29.215702 -20.691878 50.760844 -0.681940 1.990659 0.040149 -0.008891 -730501.000000 0 0 1
35.387225 -27.987302 -20.275678 49.463602 -0.669160 1.993153 0.042784 0.001646 375612.000000 0 0 1
36.050855 -26.841702 -20.861978 49.551622 -0.640005 2.005360 0.022590 0.003720 413217.000000 0 0 1
35.160975 -25.599202 -20.575178 48.113940 -0.629309 2.012671 0.032262 0.010851 596116.000000 0 0 1
33.968565 -25.620502 -21.350978 47.603968 -0.646210 2.035897 0.047785 0.001596 192728.000000 0 0 1
32.953745 -24.866302 -20.696578 46.180414 -0.646427 2.035511 0.055935 -0.005541 1076440.000000 0 0 1
31.546435 -24.902402 -21.426278 45.545500 -0.668237 2.060582 0.076270 -0.014815 845048.000000 0 0 1
30.925305 -26.171802 -21.335678 45.788086 -0.702337 2.055522 0.098620 -0.021074 175856.000000 0 0 1
29.676625 -26.034502 -22.020678 45.204066 -0.720116 2.079607 0.096775 -0.029106 630515.000000 0 0 1
29.043225 -27.439202 -22.424178 45.817709 -0.757007 2.082223 0.090167 -0.029062 -220385.000000 0 0 1
28.378725 -28.083802 -21.375578 45.287606 -0.780175 2.062350 0.085070 -0.030507 -235472.000000 0 0 1
27.756125 -29.225102 -21.894278 45.867946 -0.811172 2.068413 0.077788 -0.033217 -239735.000000 0 0 1
27.047425 -30.003402 -20.764978 45.419727 -0.837165 2.045618 0.071710 -0.023489 -112623.000000 0 0 1
27.910225 -30.436402 -19.730778 45.767443 -0.828667 2.016518 0.087672 -0.023238 374374.000000 0 0 1
28.711825 -31.601602 -20.007878 47.152363 -0.833274 2.009012 0.092575 -0.017358 297528.000000 0 0 1
29.552925 -32.052502 -18.799678 47.478060 -0.825950 1.977915 0.073473 -0.016126 -554151.000000 0 0 1
28.848525 -32.502102 -17.705778 46.926737 -0.844880 1.957683 0.074277 -0.017522 -101578.000000 0 0 1
28.128025 -31.470702 -17.003778 45.505157 -0.841426 1.953756 0.046426 -0.016586 13171.400000 0 0 1
27.591325 -32.091002 -15.687578 45.135504 -0.860650 1.925771 0.048382 -0.010745 -358406.000000 0 0 1
26.399025 -32.830902 -15.748478 44.975451 -0.893566 1.928535 0.050777 -0.008821 -79377.000000 0 0 1
26.205225 -33.600102 -14.579278 45.035941 -0.908423 1.900461 0.052402 -0.008946 -521637.000000 0 0 1
24.723525 -33.847902 -14.312878 44.292117 -0.939938 1.899850 0.056594 -0.012703 -438474.000000 0 0 1
24.007425 -32.694102 -13.960678 42.897101 -0.937416 1.902279 0.061289 -0.005155 -86855.700000 0 0 1
22.628725 -33.018902 -13.970678 42.396780 -0.969986 1.906594 0.069255 -0.017595 -79671.600000 0 0 1
-0.252951 -7.202919 -28.938508 29.822530 1.535693 2.897501 0.093391 -0.009415 232105.000000 0 0 1
-0.343051 -8.586619 -28.655518 29.916324 1.530866 2.850238 0.076671 -0.007740 -95854.600000 0 0 1
-0.535451 -9.293619 -29.871948 31.288837 1.513245 2.839499 0.078300 -0.014407 46346.800000 0 0 1
-0.410151 -10.833119 -29.767378 31.679986 1.532954 2.792336 0.080405 -0.006429 541101.000000 0 0 1
0.921949 -11.089519 -29.331638 31.371522 -1.487850 2.778989 0.068337 -0.014169 174476.000000 0 0 1
1.252349 -12.446119 -29.153878 31.724168 -1.470512 2.736282 0.085719 -0.014768 -154260.000000 0 0 1
2.662949 -12.727619 -28.610498 31.426807 -1.364546 2.715010 0.072178 -0.016014 -942714.000000 0 0 1
3.595749 -12.354319 -29.590428 32.266888 -1.287569 2.731421 0.092703 -0.022519 474917.000000 0 0 1
4.988849 -12.488819 -29.248748 32.192367 -1.190751 2.710624 0.085172 -0.030000 1447930.000000 0 0 1
5.603749 -13.838319 -28.753568 32.398592 -1.186035 2.662675 0.079536 -0.035825 -976731.000000 0 0 1
5.238949 -14.170419 -27.435818 31.320464 -1.216671 2.638241 0.071377 -0.024516 47937.100000 0 0 1
5.853549 -15.336919 -26.885578 31.501102 -1.206196 2.593424 0.072334 -0.027253 -77308.600000 0 0 1
5.391549 -16.683719 -27.498458 32.612581 -1.258227 2.573978 0.036883 -0.024272 -15327.800000 0 0 1
5.781149 -16.915819 -28.881378 33.966169 -1.241481 2.587348 0.058746 -0.036712 473819.000000 0 0 1
5.155649 -18.147319 -29.307338 34.854353 -1.293990 2.569651 0.029407 -0.028336 -196411.000000 0 0 1
5.544249 -18.679619 -30.708028 36.368253 -1.282271 2.576173 0.061118 -0.048166 562146.000000 0 0 1
6.946849 -18.950719 -30.844398 36.861434 -1.219433 2.562147 0.057910 -0.043542 618008.000000 0 0 1
7.153049 -19.750719 -31.997968 38.276977 -1.223324 2.560674 0.068599 -0.048282 703887.000000 0 0 1
8.637349 -19.703719 -32.506568 38.980986 -1.157663 2.556948 0.082821 -0.047699 827645.000000 0 0 1
9.064449 -18.387819 -32.898238 38.763000 -1.112797 2.584323 0.080653 -0.052311 -644937.000000 0 0 1
10.344049 -18.388919 -33.430978 39.532037 -1.058395 2.578612 0.073552 -0.046462 -879170.000000 0 0 1
10.730249 -17.002219 33.900595 39.414008 -1.007816 0.535300 0.071420 -0.038717 -628222.000000 0 0 1
9.996349 -16.688319 32.757628 38.098414 -1.031110 0.535887 0.083392 -0.043723 -97752.800000 0 0 1
10.142349 -15.314619 32.512798 37.342829 -0.985847 0.514260 0.080404 -0.040394 543438.000000 0 0 1
9.052549 -14.788819 31.494195 35.951942 -1.021512 0.503274 0.114312 -0.045897 598442.000000 0 0 1
9.207549 -15.492519 30.238035 35.201362 -1.034562 0.537479 0.125760 -0.046559 266253.000000 0 0 1
8.103249 -15.097319 29.433825 34.057918 -1.078195 0.527181 0.123276 -0.036919 -23670.300000 0 0 1
8.073449 -15.847019 28.036415 33.201644 -1.099608 0.565299 0.100912 -0.030463 -429625.000000 0 0 1
7.693449 -17.219719 28.202735 33.927896 -1.150622 0.589435 0.106177 -0.037257 270683.000000 0 0 1
7.881849 -18.030519 27.091805 33.484161 -1.158689 0.628189 0.088840 -0.032214 127111.000000 0 0 1
7.497849 -19.485319 27.498535 34.526292 -1.203466 0.649391 0.090135 -0.039682 -261811.000000 0 0 1
8.457749 -19.949519 28.407575 35.728240 -1.169809 0.651621 0.099343 -0.043860 159271.000000 0 0 1
8.041249 -21.101019 29.127945 36.855826 -1.206703 0.659463 0.083054 -0.039919 -495256.000000 0 0 1
8.542749 -21.105019 30.531235 38.086175 -1.186182 0.640770 0.089200 -0.043966 -799949.000000 0 0 1
7.868349 -20.375519 31.549685 38.372586 -1.202272 0.605543 0.123896 -0.057085 103978.000000 0 0 1
7.862849 -18.963619 31.413475 37.526653 -1.177743 0.578840 0.102103 -0.054810 -329524.000000 0 0 1
6.994049 -18.286219 32.472922 37.918244 -1.205487 0.542553 0.106974 -0.050916 -428429.000000 0 0 1
5.622149 -18.593619 32.526277 37.885221 -1.277167 0.538365 0.126629 -0.059776 -434426.000000 0 0 1
5.053249 -17.555419 33.287693 37.971023 -1.290527 0.501920 0.136446 -0.046054 800830.000000 0 0 1
3.561549 -17.856919 33.693774 38.299146 -1.373930 0.495455 0.143172 -0.056087 800694.000000 0 0 1
3.427149 -18.802719 -33.130458 38.248070 -1.390507 2.618342 0.127910 -0.057482 195552.000000 0 0 1
2.063449 -19.140119 -32.905548 38.123183 -1.463404 2.612247 0.116604 -0.059041 140913.000000 0 0 1
1.677049 -19.799419 -31.593568 37.322688 -1.486296 2.580168 0.047680 -0.033113 -901491.000000 0 0 1
0.666749 -20.713219 -31.909688 38.048787 -1.538618 2.565600 0.062481 -0.041145 -304836.000000 0 0 1
0.147149 -21.434119 -30.803938 37.527666 -1.563931 2.533664 0.056783 -0.037631 -241483.000000 0 0 1
-0.748251 -20.657919 -29.834988 36.296501 1.534591 2.535675 0.061934 -0.034531 -891508.000000 0 0 1
-1.901451 -20.299619 -30.578938 36.752707 1.477400 2.553533 0.081616 -0.046251 -571494.000000 0 0 1
-2.634851 -19.239119 -29.987878 35.726166 1.434690 2.566940 0.107970 -0.033740 -128670.000000 0 0 1
-2.010951 -17.809519 -29.865188 34.830336 1.458358 2.601085 0.085162 -0.021876 -175281.000000 0 0 1
-2.944751 -16.839419 -29.477328 34.075658 1.397674 2.616057 0.097070 -0.021552 -155572.000000 0 0 1
-2.404851 -15.586219 -29.822858 33.735981 1.417710 2.655163 0.097056 -0.015471 404954.000000 0 0 1
-3.278651 -14.426819 -29.287458 32.812160 1.347331 2.673830 0.093872 -0.003813 360832.000000 0 0 1
-3.078351 -14.126819 -27.938758 31.458186 1.356242 2.664043 0.082721 -0.013953 -392997.000000 0 0 1
-4.014951 -13.162319 -27.634918 30.871591 1.274728 2.679579 0.063952 -0.008770 -274855.000000 0 0 1
-4.084351 -12.825119 -26.117318 29.381625 1.262486 2.665734 0.070278 -0.007713 -283576.000000 0 0 1
-4.547651 -13.988319 -25.333268 29.293833 1.256471 2.615546 0.077943 -0.008809 356038.000000 0 0 1
-4.628551 -13.734119 -23.903278 27.953823 1.245739 2.596538 0.073950 -0.009514 -143066.000000 0 0 1
-5.738551 -12.749819 -23.484478 27.331476 1.147869 2.604591 0.068059 -0.010433 -634270.000000 0 0 1
-7.063251 -13.130119 -23.633178 27.943096 1.077257 2.578786 0.073379 -0.015957 -751319.000000 0 0 1
-7.997051 -12.138619 -23.293178 27.456712 0.988252 2.583676 0.054590 -0.015283 -34975.800000 0 0 1
-9.459551 -12.542319 -23.511978 28.277305 0.924606 2.552560 0.082564 -0.023507 -46738.500000 0 0 1
-9.999351 -13.402819 -22.519078 28.048733 0.929819 2.502866 0.072057 -0.029664 285134.000000 0 0 1
-11.278351 -13.922619 -22.858078 29.043627 0.889943 2.476769 0.062934 -0.027898 718288.000000 0 0 1
-11.954451 -15.003219 -21.992278 29.183313 0.898014 2.424304 0.063233 -0.034370 293303.000000 0 0 1
-11.137551 -16.139719 -22.073178 29.525595 0.966765 2.415229 0.073175 -0.037178 -323643.000000 0 0 1
-11.801951 -17.314119 -21.708378 30.171484 0.972501 2.373878 0.075255 -0.032627 165938.000000 0 0 1
-12.449451 -18.049619 -22.955878 31.745077 0.966993 2.379122 0.075581 -0.027004 1227330.000000 0 0 1
-13.759651 -17.511519 -23.262378 32.204340 0.904806 2.377972 0.060463 -0.023404 286231.000000 0 0 1
-14.275551 -18.254619 -24.351978 33.616087 0.907113 2.380981 0.044389 -0.024499 -146955.000000 0 0 1
-15.487651 -17.453019 -24.854278 34.091206 0.844991 2.387733 0.057090 -0.031068 -260324.000000 0 0 1
-16.669851 -17.600119 -24.087278 34.173748 0.812537 2.353004 0.067022 -0.029249 -541059.000000 0 0 1
-17.790651 -17.246619 -24.822078 35.072620 0.769872 2.357082 0.069092 -0.035769 -469989.000000 0 0 1
-18.400151 -15.887919 -24.527778 34.534091 0.712260 2.360647 0.074896 -0.032634 -303946.000000 0 0 1
-19.144851 -15.832019 -23.318678 34.072553 0.690965 2.324554 0.067258 -0.028465 -195821.000000 0 0 1
-19.946251 -14.694319 -23.221178 33.955840 0.634932 2.323842 0.072296 -0.036933 -19780.400000 0 0 1
-20.657251 -14.645919 -21.849078 33.445585 0.616738 2.282695 0.066933 -0.040005 82618.700000 0 0 1
-19.713251 -14.590319 -20.783878 32.147461 0.637153 2.273806 0.061612 -0.032031 278619.000000 0 0 1
-20.262251 -14.544719 -19.477878 31.646412 0.622588 2.233797 0.065534 -0.032662 -82473.900000 0 0 1
-20.774051 -13.172019 -18.939978 31.044904 0.565089 2.226962 0.084301 -0.042689 110368.000000 0 0 1
-22.147551 -12.860619 -19.111578 31.955625 0.526092 2.211882 0.073231 -0.044920 251999.000000 0 0 1
-22.354151 -11.554619 -18.668278 31.332441 0.477067 2.209074 0.075953 -0.041234 931494.000000 0 0 1
-23.877951 -11.173019 -18.793378 32.375669 0.437658 2.190112 0.082305 -0.040785 908213.000000 0 0 1
-24.333251 -10.987319 -20.109578 33.424892 0.424130 2.216343 0.068111 -0.044524 -1030680.000000 0 0 1
-25.711401 -10.968119 -20.134478 34.449571 0.403213 2.195014 0.092752 -0.036804 -1056110.000000 0 0 1
-26.327771 -10.112219 -21.247778 35.311139 0.366716 2.216462 0.094369 -0.031550 -363013.000000 0 0 1
-26.257351 -10.587019 -22.593178 36.221335 0.383264 2.244332 0.076248 -0.035100 363511.000000 0 0 1
-26.988801 -9.606919 -23.306478 36.930748 0.341974 2.253749 0.058495 -0.025282 -589157.000000 0 0 1
-27.279501 -9.805919 -24.811078 38.156478 0.345078 2.278704 0.064811 -0.023658 81413.000000 0 0 1
-26.211941 -9.647919 -25.734528 37.979127 0.352684 2.315286 0.048130 -0.031744 9622.850000 0 0 1
-25.331181 -10.740919 -25.765518 37.694800 0.401040 2.323384 0.049147 -0.021486 -170118.000000 0 0 1
-24.245551 -10.602819 -26.887438 37.725334 0.412251 2.364159 0.058705 -0.029495 298296.000000 0 0 1
-24.674851 -10.886419 -28.196778 39.018210 0.415508 2.378435 0.060934 -0.017113 -42408.500000 0 0 1
-23.632651 -10.702519 -29.102608 38.987279 0.425238 2.413529 0.066672 -0.013157 131450.000000 0 0 1
-24.295751 -11.005819 -30.445258 40.476231 0.425341 2.422155 0.069476 -0.013965 85421.600000 0 0 1
-25.266391 -10.090019 -30.810338 41.103235 0.379942 2.418230 0.072380 -0.015753 -186890.000000 0 0 1
-24.704951 -9.066519 -31.644968 41.157507 0.351732 2.447876 0.065685 -0.023040 -596087.000000 0 0 1
-25.733281 -8.082319 -32.194388 42.000051 0.304324 2.444220 0.067418 -0.022921 -1137130.000000 0 0 1
-26.530691 -8.572319 -33.257448 43.398388 0.312521 2.443904 0.085341 -0.026518 665603.000000 0 0 1
-27.734831 -9.255019 -32.973988 44.069946 0.322077 2.416170 0.088267 -0.027227 109531.000000 0 0 1
-28.805261 -8.535819 -32.093818 43.961533 0.288085 2.389181 0.069966 -0.013697 -2267510.000000 0 0 1
-30.030021 -9.110819 -32.177628 44.946734 0.294564 2.368717 0.085491 -0.015727 -1662680.000000 0 0 1
-30.897001 -8.436919 -31.313348 44.792098 0.266567 2.344909 0.080396 -0.007590 -378000.000000 0 0 1
-32.353101 -8.910919 -31.443938 45.987486 0.268763 2.323685 0.088064 -0.008679 -292288.000000 0 0 1
-32.557671 -10.269619 -31.300768 46.316359 0.305551 2.312851 0.083141 -0.008529 336882.000000 0 0 1
-33.890391 -10.622019 -30.950418 47.109598 0.303725 2.287612 0.076711 -0.009182 215318.000000 0 0 1
-34.098017 -12.106619 -30.859558 47.555833 0.341170 2.276950 0.082195 -0.017807 -238474.000000 0 0 1
-35.445721 -12.416919 -30.589978 48.438887 0.336949 2.254304 0.071218 -0.019776 -308373.000000 0 0 1
-35.677190 -13.798519 -30.772558 49.093903 0.369041 2.248249 0.066906 -0.022300 1047000.000000 0 0 1
-37.092651 -14.363419 -30.360288 50.039181 0.369450 2.222737 0.062574 -0.030938 978800.000000 0 0 1
-37.254841 -14.394219 -28.994188 49.353618 0.368703 2.198736 0.064098 -0.031991 -164882.000000 0 0 1
36.933795 -15.651919 -28.523108 49.220478 -0.400839 2.188907 0.057938 -0.034247 31583.100000 0 0 1
37.217285 -15.686319 -27.021808 48.593878 -0.398885 2.160451 0.085001 -0.042273 356820.000000 0 0 1
-36.011290 -15.813919 -26.656108 47.512536 0.413784 2.166430 0.078079 -0.045667 119847.000000 0 0 1
-35.866687 -15.628219 -25.261918 46.570645 0.410924 2.144139 0.112295 -0.049394 1086610.000000 0 0 1
-34.399823 -15.314919 -24.774278 45.073933 0.418858 2.152725 0.120586 -0.044394 1677850.000000 0 0 1
-33.356401 -16.289219 -24.951978 44.727948 0.454275 2.162603 0.113894 -0.040841 854597.000000 0 0 1
-32.124041 -15.919119 -24.336878 43.331928 0.460083 2.167161 0.119603 -0.025515 452763.000000 0 0 1
-30.955601 -16.861919 -24.621578 42.997624 0.498775 2.180502 0.098845 -0.027666 -137340.000000 0 0 1
-30.822321 -17.998319 -23.795178 42.897150 0.528525 2.158802 0.103755 -0.037961 72766.300000 0 0 1
-31.694961 -19.060719 -24.162678 44.178236 0.541434 2.149497 0.104382 -0.034114 42618.700000 0 0 1
-31.332441 -20.445119 -23.506178 44.184445 0.578146 2.131759 0.096763 -0.035574 -401434.000000 0 0 1
-30.062571 -20.880219 -23.885378 43.706441 0.607065 2.148970 0.097458 -0.022512 -588879.000000 0 0 1
-29.739091 -21.990619 -23.120578 43.618367 0.636716 2.129474 0.096473 -0.025509 -634338.000000 0 0 1
-28.254041 -22.355419 -23.148278 42.824039 0.669370 2.141880 0.078018 -0.024270 -79835.800000 0 0 1
-27.297061 -21.540919 -22.460778 41.395981 0.668077 2.144306 0.065750 -0.020357 288862.000000 0 0 1
-27.384851 -21.422919 -21.049478 40.644213 0.663849 2.115186 0.084098 -0.037427 -631961.000000 0 0 1
-27.233441 -22.727519 -20.216678 40.827864 0.695453 2.088825 0.073874 -0.028887 -126753.000000 0 0 1
-27.261331 -22.381519 -18.858878 39.997123 0.687415 2.061794 0.087952 -0.031355 121798.000000 0 0 1
-27.265911 -23.502519 -17.925878 40.213622 0.711405 2.032826 0.070648 -0.000945 -41028.700000 0 0 1
-27.448191 -22.897719 -16.490578 39.365567 0.695259 2.003039 0.079286 -0.003314 392323.000000 0 0 1
-28.720861 -22.269319 -16.340678 39.847562 0.659542 1.993338 0.096694 -0.016099 177359.000000 0 0 1
-28.860871 -21.426219 -15.174878 39.016787 0.638617 1.970268 0.092267 -0.020523 -363241.000000 0 0 1
-30.277611 -21.016819 -14.763978 39.704098 0.606780 1.951798 0.095426 -0.015139 -533629.000000 0 0 1
-30.923461 -20.309419 -15.752578 40.210405 0.581116 1.973333 0.099424 -0.017283 -739052.000000 0 0 1
-32.060351 -19.676019 -15.234478 40.584494 0.550445 1.955600 0.102370 -0.014629 208876.000000 0 0 1
-32.977861 -19.046019 -16.378578 41.455373 0.523741 1.976961 0.098326 -0.029684 815963.000000 0 0 1
-33.838611 -19.965819 -17.105978 42.852071 0.533057 1.981426 0.061792 -0.019009 124392.000000 0 0 1
-34.445802 -19.287719 -18.200378 43.471636 0.510446 2.002779 0.061113 -0.018700 -832665.000000 0 0 1
-35.689899 -19.943519 -18.804578 45.001389 0.509574 2.001892 0.046168 -0.012881 228756.000000 0 0 1
-36.802951 -20.046019 -17.918678 45.578274 0.498754 1.974841 0.036901 -0.002552 266965.000000 0 0 1
-36.634711 -21.012619 -16.911278 45.493115 0.520760 1.951671 0.052627 -0.004175 -1184890.000000 0 0 1
-37.272001 -22.396319 -17.217278 46.767850 0.541073 1.947808 0.033094 0.023940 64107.400000 0 0 1
35.916865 -22.393019 -17.175178 45.677732 -0.557497 1.956280 0.031458 0.010692 -246336.000000 0 0 1
35.379075 -23.647919 -17.149578 45.880399 -0.589212 1.953887 0.029882 0.007421 816742.000000 0 0 1
33.949645 -23.737219 -16.470978 44.579446 -0.610181 1.949240 0.025727 0.001822 1038970.000000 0 0 1
32.894275 -23.277319 -17.285878 43.848243 -0.615835 1.976016 0.024646 -0.006587 -718685.000000 0 0 1
31.682055 -23.680119 -16.738578 42.949745 -0.641854 1.971129 0.043869 -0.011464 -114525.000000 0 0 1
30.437355 -23.535219 -17.655178 42.332545 -0.658206 2.001004 0.064581 -0.013057 365567.000000 0 0 1
29.918885 -22.219319 -17.814778 41.306224 -0.638782 2.016714 0.061997 -0.007881 1596170.000000 0 0 1
28.621925 -22.209319 -18.497778 40.677220 -0.659906 2.042883 0.082040 -0.024586 1257420.000000 0 0 1
34.589235 29.763981 -18.555478 49.260689 0.710557 1.957005 0.079108 -0.008270 -391011.000000 0 0 1
33.842835 30.043981 -19.714178 49.362203 0.726006 1.981635 0.063312 -0.017926 -122710.000000 0 0 1
34.119495 29.099281 -20.706378 49.392937 0.706154 2.003379 0.069602 -0.006261 68927.100000 0 0 1
33.061145 29.162781 -21.841578 49.199204 0.722829 2.030789 0.078918 -0.011112 106310.000000 0 0 1
31.835945 28.492381 -21.486278 47.822624 0.730032 2.036768 0.064363 -0.000595 557138.000000 0 0 1
30.920815 28.470681 -22.575078 47.710697 0.744168 2.063677 0.092397 0.006165 -128083.000000 0 0 1
29.953385 29.661381 -22.514378 47.790167 0.780500 2.061344 0.065953 0.000996 -806918.000000 0 0 1
30.623405 30.909881 -22.584778 49.023320 0.790054 2.049574 0.097671 -0.012525 -315987.000000 0 0 1
29.701695 31.958081 -22.513978 49.095711 0.821976 2.047185 0.085946 -0.010831 -614791.000000 0 0 1
30.352785 33.350081 -22.522878 50.406344 0.832415 2.034011 0.089352 -0.017346 115425.000000 0 0 1
30.920975 33.740981 -21.301178 50.480696 0.828982 2.006410 0.082539 -0.022425 1190220.000000 0 0 1
32.311855 33.316481 -21.179378 51.015781 0.800705 1.998908 0.081700 -0.020655 1246950.000000 0 0 1
32.836095 33.397781 -19.666578 50.797591 0.793878 1.968341 0.074718 -0.022080 1802.610000 0 0 1
32.863705 -33.170602 -19.082878 50.442722 -0.790046 1.958764 0.066903 -0.015003 196541.000000 0 0 1
32.901925 -33.278502 -17.674478 50.023820 -0.791088 1.931915 0.048792 -0.018771 -449843.000000 0 0 1
33.124865 -31.891902 -16.900078 48.989414 -0.766437 1.923007 0.045240 0.001365 -85750.800000 0 0 1
34.382645 -31.286602 -17.054178 49.516287 -0.738287 1.922412 0.062170 -0.009843 55432.400000 0 0 1
35.343045 -31.790002 -16.090478 50.186039 -0.732522 1.897177 0.063497 -0.011792 84223.600000 0 0 1
36.685915 -31.063702 -16.134478 50.706324 -0.702603 1.894621 0.066219 -0.007675 -340209.000000 0 0 1
37.291615 -31.133102 -17.395478 51.599779 -0.695636 1.914656 0.066161 -0.014249 -361290.000000 0 0 1
-36.082761 -30.416702 -17.424078 50.306460 0.700399 1.924483 0.050181 -0.005671 508084.000000 0 0 1
-35.044546 -31.086502 -18.368678 50.317981 0.725618 1.944485 0.067491 -0.015993 -347140.000000 0 0 1
-34.684172 -32.431002 -18.000478 50.781679 0.751839 1.933141 0.064430 -0.023878 352553.000000 0 0 1
-33.701661 -33.107902 -18.766378 50.834163 0.776511 1.948911 0.084777 -0.023611 1375410.000000 0 0 1
-32.242101 -32.528902 -18.943178 49.563359 0.789826 1.962974 0.067412 -0.026400 -11043.700000 0 0 1
-32.119921 -31.466802 -19.883878 49.165207 0.775127 1.987152 0.065075 -0.015205 773654.000000 0 0 1
-30.797321 -30.953302 -20.173578 48.099430 0.787924 2.003596 0.078282 -0.016631 931934.000000 0 0 1
-29.888921 -31.908402 -20.945078 48.478758 0.818066 2.017557 0.073114 -0.015081 -720251.000000 0 0 1
-30.483921 -32.324602 -22.155078 49.648734 0.814696 2.033352 0.069299 -0.009877 -494879.000000 0 0 1
-29.831261 -33.389702 -22.765478 50.229905 0.841625 2.041177 0.067073 -0.013266 101802.000000 0 0 1
-30.594521 33.658481 -23.923278 51.393008 -0.833048 2.054992 0.056179 -0.018501 -308946.000000 0 0 1
-31.566731 32.751081 -23.451078 51.176605 -0.803810 2.046808 0.069426 -0.036495 -261564.000000 0 0 1
-32.197521 31.941281 -24.386278 51.493848 -0.781403 2.064143 0.072171 -0.029496 465805.000000 0 0 1
-33.119331 32.642981 -25.450118 53.010969 -0.778155 2.071555 0.070725 -0.034921 -574658.000000 0 0 1
-32.486871 33.379981 -26.471258 53.575624 -0.798957 2.087586 0.054299 -0.021938 -609523.000000 0 0 1
-33.392351 -33.719302 -27.234418 54.715208 0.790270 2.091797 0.054298 -0.024031 -70978.000000 0 0 1
-32.816501 -32.927302 -28.451088 54.503159 0.787084 2.120000 0.041592 -0.018069 -45819.500000 0 0 1
-32.799471 -33.748102 -29.634408 55.614187 0.799652 2.132770 0.047936 -0.014165 -535933.000000 0 0 1
-33.984581 -33.713802 -30.346568 56.678800 0.781398 2.135793 0.065908 -0.017289 -631794.000000 0 0 1
-33.831311 33.302281 -31.640038 57.049904 -0.777518 2.158682 0.079359 -0.019860 -17220.300000 0 0 1
-33.085651 33.898481 -32.660238 57.536584 -0.797532 2.174436 0.096733 -0.028940 -154607.000000 0 0 1
-33.216421 33.126381 -33.812478 57.827082 -0.784041 2.195327 0.083451 -0.038304 -501856.000000 0 0 1
-32.233701 33.541181 32.988547 57.028647 -0.805274 0.953962 0.102381 -0.037840 197168.000000 0 0 1
-30.880651 33.127081 32.967964 56.017005 -0.820480 0.941551 0.097060 -0.033351 231964.000000 0 0 1
-30.661601 31.744881 32.737102 54.950788 -0.802755 0.932593 0.096312 -0.039843 118006.000000 0 0 1
-29.127861 31.390381 32.703564 53.882385 -0.822767 0.918587 0.094677 -0.032842 360189.000000 0 0 1
-28.582901 31.411881 -33.842928 54.304993 -0.832517 2.243625 0.092420 -0.037737 59079.600000 0 0 1
-27.171741 31.406481 -33.826178 53.561935 -0.857565 2.254326 0.082515 -0.038110 28795.500000 0 0 1
-26.512861 30.017181 33.664141 52.318614 -0.847309 0.871806 0.079867 -0.032794 -852052.000000 0 0 1
-26.639911 28.971481 -33.312228 51.562934 -0.827300 2.273194 0.079390 -0.027884 227420.000000 0 0 1
-26.126721 27.750981 -33.795208 50.939558 -0.815536 2.296200 0.056880 -0.025623 -234327.000000 0 0 1
-26.244031 26.651881 -32.652278 49.651216 -0.793108 2.288469 0.068855 -0.033008 -345965.000000 0 0 1
-25.171961 26.716381 -31.726088 48.517392 -0.815154 2.283540 0.068705 -0.027124 43349.200000 0 0 1
-25.239951 27.783381 -30.828578 48.573374 -0.833330 2.258391 0.060111 -0.024420 276232.000000 0 0 1
-23.976351 27.864781 -29.912158 47.392496 -0.860265 2.253842 0.062053 -0.021494 59458.100000 0 0 1
-22.757151 28.006081 -30.571258 47.295141 -0.888432 2.273644 0.052734 -0.021936 224854.000000 0 0 1
-21.568551 27.924581 -29.762218 46.160310 -0.913122 2.271503 0.050559 -0.021012 960035.000000 0 0 1
-21.204951 29.126281 -28.837708 46.147629 -0.941502 2.245801 0.033619 -0.007280 -625410.000000 0 0 1
-20.840951 30.275581 -29.564128 47.169839 -0.967915 2.248183 0.033723 -0.007483 210505.000000 0 0 1
-20.702451 31.463381 -28.757978 47.387310 -0.988828 2.222914 0.041545 -0.013084 -347165.000000 0 0 1
-20.350551 32.752281 -29.556988 48.584693 -1.014828 2.224789 0.060390 -0.006768 862324.000000 0 0 1
-19.051851 32.612681 -30.175328 48.343670 -1.042086 2.244883 0.064386 -0.010337 748749.000000 0 0 1
-18.742151 33.816881 -30.889958 49.487768 -1.064715 2.244896 0.060713 -0.003590 784288.000000 0 0 1
-17.206851 -33.829202 -31.183078 49.121024 1.100261 2.258574 0.079465 -0.006185 598477.000000 0 0 1
-16.506451 -33.343202 -30.048908 47.824355 1.111119 2.250186 0.103774 -0.024372 981660.000000 0 0 1
-15.085351 -33.132802 -30.084408 47.227344 1.143544 2.261413 0.122392 -0.022312 1233800.000000 0 0 1
-14.139351 33.565381 -30.445988 47.471194 -1.172108 2.267062 0.131731 -0.028505 -630909.000000 0 0 1
-14.017051 32.619981 -29.355768 46.068449 -1.164945 2.261683 0.143642 -0.036514 73151.300000 0 0 1
-13.308251 31.454581 -29.757058 45.298816 -1.170541 2.287504 0.123083 -0.033739 -33733.700000 0 0 1
-13.009151 30.550481 -28.605988 43.827759 -1.168227 2.281927 0.095654 -0.040373 -110886.000000 0 0 1
-12.008751 31.065381 -27.748338 43.350182 -1.201926 2.265421 0.116885 -0.038561 -91001.900000 0 0 1
-12.183851 30.556481 -26.418598 42.191079 -1.191383 2.247422 0.084795 -0.040182 -290311.000000 0 0 1
-11.105151 31.070681 -25.477978 41.687396 -1.227530 2.228331 0.118245 -0.051351 431577.000000 0 0 1
-9.814451 30.589281 -25.845488 41.231260 -1.260326 2.248290 0.129562 -0.042166 449505.000000 0 0 1
-8.739051 31.218681 -25.124148 41.014630 -1.297852 2.230099 0.147404 -0.047652 669196.000000 0 0 1
-7.401551 30.528281 -25.469458 40.440725 -1.332937 2.252089 0.117783 -0.043140 -122543.000000 0 0 1
-7.197751 29.222581 -24.946778 39.091030 -1.329296 2.262917 0.118601 -0.059222 17927.200000 0 0 1
-6.158851 28.553781 -25.653728 38.876261 -1.358358 2.291457 0.108329 -0.061590 418680.000000 0 0 1
-5.570851 27.264781 -24.985078 37.398621 -1.369246 2.302415 0.139143 -0.043937 171347.000000 0 0 1
-6.419751 26.130481 -25.113818 36.806509 -1.329887 2.321728 0.138757 -0.035657 -163193.000000 0 0 1
-5.900451 25.035781 -24.511578 35.530594 -1.339339 2.332109 0.144197 -0.046408 -276126.000000 0 0 1
-6.844551 23.795681 -24.525378 34.850775 -1.290719 2.351424 0.115807 -0.039302 81509.900000 0 0 1
-6.916651 23.040481 -25.737418 35.229512 -1.279160 2.389944 0.117561 -0.031431 37871.400000 0 0 1
-7.407251 21.721181 -25.568708 34.357473 -1.242148 2.410127 0.099057 -0.035911 -423563.000000 0 0 1
-7.151751 20.759781 -26.725458 34.588527 -1.239029 2.453830 0.086209 -0.028465 1042530.000000 0 0 1
-5.796351 20.253281 -26.699318 34.009509 -1.292054 2.473580 0.106385 -0.041449 685535.000000 0 0 1
-5.790451 19.141881 -25.825338 32.663267 -1.277046 2.482673 0.092707 -0.040691 -631123.000000 0 0 1
-4.687651 18.123881 -26.119998 32.135704 -1.317698 2.519744 0.097512 -0.049555 -88459.700000 0 0 1
-4.762751 17.441481 -27.357948 32.792475 -1.304225 2.557613 0.095916 -0.043569 161925.000000 0 0 1
-3.665151 16.528581 -27.374418 32.186738 -1.352581 2.587708 0.096450 -0.044260 332832.000000 0 0 1
-3.183151 16.348681 -28.847158 33.310214 -1.378498 2.617974 0.101323 -0.037178 -297459.000000 0 0 1
-2.332251 17.357781 -29.289338 34.126197 -1.437233 2.602677 0.108473 -0.037917 -161128.000000 0 0 1
-2.104351 17.084981 -30.676268 35.176104 -1.448244 2.630227 0.107391 -0.043276 560075.000000 0 0 1
-1.212951 18.204981 -31.389448 36.306887 -1.504267 2.615069 0.107988 -0.027361 421218.000000 0 0 1
0.176349 18.182481 -31.128448 36.050160 1.561098 2.612917 0.112089 -0.033489 -122423.000000 0 0 1
0.901549 19.300881 -31.540798 36.988630 1.524120 2.591959 0.108872 -0.012874 91820.900000 0 0 1
0.660449 20.657181 -30.808828 37.099046 1.538835 2.550708 0.109989 -0.016692 -360322.000000 0 0 1
1.276849 20.732481 -29.553978 36.123452 1.509287 2.528962 0.127994 -0.046537 -378724.000000 0 0 1
1.152749 22.032981 -28.978408 36.421549 1.518525 2.490858 0.130639 -0.051652 -162464.000000 0 0 1
2.088149 22.344481 -27.799058 35.727074 1.477614 2.462424 0.141924 -0.050064 882307.000000 0 0 1
3.423749 22.359481 -28.340418 36.260830 1.418854 2.467977 0.109726 -0.046179 206831.000000 0 0 1
4.463549 22.655381 -27.453478 35.873152 1.376268 2.442293 0.102471 -0.043912 222345.000000 0 0 1
5.078449 24.093681 -27.533378 36.937556 1.363058 2.411936 0.107371 -0.045760 97608.200000 0 0 1
5.700549 24.622781 -28.702688 38.244240 1.343289 2.419630 0.082463 -0.041641 295631.000000 0 0 1
6.203349 25.922981 -28.391998 38.943396 1.335914 2.387741 0.080579 -0.045152 -155547.000000 0 0 1
7.039549 26.612181 -29.503098 40.350914 1.312196 2.390822 0.082394 -0.038827 498608.000000 0 0 1
8.380049 26.120781 -29.530768 40.306162 1.260350 2.393020 0.068695 -0.037416 479314.000000 0 0 1
9.230549 26.870881 -30.371798 41.589583 1.239910 2.389520 0.076479 -0.037861 -284033.000000 0 0 1
10.715449 26.688881 -30.075048 41.612808 1.189002 2.378548 0.091430 -0.038448 -530889.000000 0 0 1
11.546849 27.591581 -30.763018 42.906740 1.174451 2.370248 0.119637 -0.045125 519093.000000 0 0 1
12.877749 27.551681 -30.208308 42.865761 1.133564 2.352823 0.111834 -0.047009 559071.000000 0 0 1
13.741149 28.573081 -30.947478 44.305604 1.122535 2.344096 0.115376 -0.046351 -827438.000000 0 0 1
13.254649 29.896181 -30.847888 44.956196 1.153481 2.327016 0.107298 -0.043239 374433.000000 0 0 1
14.075549 30.801981 -31.567238 46.296584 1.142162 2.321082 0.127771 -0.043527 235356.000000 0 0 1
13.481049 32.245881 -31.464798 47.027323 1.174810 2.303760 0.128664 -0.047140 500954.000000 0 0 1
12.273649 32.414881 -32.199668 47.309467 1.208836 2.319402 0.107868 -0.047253 204735.000000 0 0 1
11.657849 33.613781 -31.767218 47.696414 1.236959 2.299669 0.102809 -0.039221 640921.000000 0 0 1
10.453449 33.902681 -32.769958 48.296341 1.271709 2.316540 0.085846 -0.036651 720866.000000 0 0 1
10.857049 -33.373002 33.886085 48.784214 -1.256271 0.802916 0.078042 -0.024688 327691.000000 0 0 1
9.728449 -33.201102 33.030651 47.832832 -1.285759 0.808556 0.082658 -0.031677 207089.000000 0 0 1
9.944749 -32.383102 31.747675 46.427128 -1.272841 0.817815 0.090701 -0.022128 -63266.700000 0 0 1
9.898449 -30.968702 31.953972 45.586140 -1.261431 0.794056 0.080862 -0.026212 53429.800000 0 0 1
10.087649 -30.303602 30.715355 44.311421 -1.249448 0.804918 0.105558 -0.019984 -407919.000000 0 0 1
9.584049 -28.862002 30.671315 43.192578 -1.250188 0.781147 0.096077 -0.032200 432289.000000 0 0 1
8.187149 -28.725002 30.437735 42.645174 -1.293140 0.775967 0.060810 -0.024983 893768.000000 0 0 1
7.365949 -28.613002 31.652065 43.299126 -1.318834 0.750996 0.054016 -0.016611 628979.000000 0 0 1
5.834449 -28.460402 31.450415 42.815464 -1.368595 0.745782 0.060301 -0.019036 452300.000000 0 0 1
5.108849 -29.584502 30.974635 43.136657 -1.399796 0.769788 0.076671 -0.027714 109604.000000 0 0 1
5.397949 -30.004902 29.647005 42.525015 -1.392798 0.799359 0.084727 -0.034798 -740178.000000 0 0 1
4.930349 -29.134202 28.496015 41.050371 -1.403156 0.803527 0.067285 -0.040484 689871.000000 0 0 1
3.500849 -29.151202 28.301555 40.780223 -1.451276 0.803764 0.098833 -0.043813 849550.000000 0 0 1
3.149649 -28.307002 27.213735 39.392817 -1.459985 0.808160 0.113509 -0.047832 403727.000000 0 0 1
1.635649 -28.543002 26.878525 39.240712 -1.513554 0.816240 0.112070 -0.048990 611077.000000 0 0 1
1.369449 -29.785002 26.296965 39.756158 -1.524851 0.848037 0.128907 -0.055132 27573.400000 0 0 1
1.197249 -30.824602 27.274235 41.176127 -1.531975 0.846805 0.152771 -0.058318 -983323.000000 0 0 1
1.294649 -32.322502 26.869785 42.052415 -1.530764 0.877652 0.155145 -0.056311 719571.000000 0 0 1
2.628749 -32.824602 26.693825 42.390154 -1.490882 0.889607 0.138790 -0.056427 749088.000000 0 0 1
3.293949 -32.357302 25.541565 41.354766 -1.469347 0.905082 0.131325 -0.062868 -667084.000000 0 0 1
4.808549 -32.298602 25.798095 41.615665 -1.423004 0.902164 0.134357 -0.046971 -311497.000000 0 0 1
5.508049 -31.834602 24.682025 40.656892 -1.399472 0.918414 0.124658 -0.056474 133816.000000 0 0 1
6.888349 -31.613602 24.939565 40.851574 -1.356258 0.914114 0.096018 -0.049598 277621.000000 0 0 1
7.720749 -31.310602 23.693815 40.017005 -1.329034 0.937142 0.087401 -0.038083 461839.000000 0 0 1
9.051649 -30.799502 23.880205 40.010072 -1.284955 0.931221 0.080633 -0.013546 800249.000000 0 0 1
9.747749 -30.947102 22.668135 39.580123 -1.265653 0.960982 0.067946 -0.010208 -568049.000000 0 0 1
10.951849 -30.021402 22.644735 39.166461 -1.220997 0.954317 0.044012 -0.012202 -115541.000000 0 0 1
12.088749 -30.481502 23.385225 40.275658 -1.193231 0.951295 0.050981 -0.010159 418838.000000 0 0 1
13.164049 -29.610002 23.137735 39.817072 -1.152458 0.950716 0.046272 -0.013056 495444.000000 0 0 1
14.492349 -29.806402 23.924955 40.876072 -1.118237 0.945541 0.058453 -0.007828 485399.000000 0 0 1
14.337449 -29.221802 25.193765 41.160685 -1.114663 0.912104 0.058977 -0.000997 292157.000000 0 0 1
15.507749 -29.358302 25.977125 42.156983 -1.084826 0.906888 0.072854 -0.009300 -109351.000000 0 0 1
-11.076651 -13.532919 25.356985 30.802740 0.884878 0.603762 0.065223 -0.038572 -412622.000000 0 0 1
-9.861451 -14.173319 25.085725 30.453650 0.962911 0.602830 0.057919 -0.036105 -403498.000000 0 0 1
-9.076751 -14.255919 26.273195 31.239389 1.003827 0.571616 0.059285 -0.035140 -264969.000000 0 0 1
-7.556551 -14.284519 26.059615 30.663537 1.084217 0.555083 0.083269 -0.035557 -137845.000000 0 0 1
-7.114751 -15.544419 25.539905 30.733295 1.141554 0.589862 0.088808 -0.032405 -110779.000000 0 0 1
-7.096651 -15.398319 24.153835 29.510650 1.138938 0.612038 0.097425 -0.032169 -688554.000000 0 0 1
-6.552551 -16.563919 23.302565 29.331022 1.194096 0.652665 0.099244 -0.023106 -441928.000000 0 0 1
-7.244051 -17.753719 23.086015 30.010580 1.183387 0.693110 0.108565 -0.035679 -681848.000000 0 0 1
-7.424151 -18.571019 24.217875 31.408697 1.190488 0.690298 0.111415 -0.039624 -570266.000000 0 0 1
-8.202451 -19.846119 23.945355 32.164090 1.178875 0.731048 0.108889 -0.035390 -140652.000000 0 0 1
-9.582851 -19.610519 23.769005 32.270251 1.116263 0.742825 0.092061 -0.033203 -356244.000000 0 0 1
-10.245751 -20.789719 23.365745 32.911182 1.112903 0.781350 0.080560 -0.031893 321016.000000 0 0 1
-11.793151 -20.590419 23.413655 33.335312 1.050655 0.792078 0.075440 -0.029815 371660.000000 0 0 1
-12.206051 -20.518719 24.767705 34.401231 1.034155 0.767043 0.075255 -0.028677 151422.000000 0 0 1
-13.599851 -20.252719 24.844935 34.819526 0.979450 0.776266 0.057663 -0.013811 185434.000000 0 0 1
-14.173651 -20.240519 26.279205 36.071701 0.959895 0.754627 0.056652 -0.012803 -441598.000000 0 0 1
-14.087751 -21.483419 26.961025 37.241091 0.990390 0.761272 0.048345 -0.014532 -101251.000000 0 0 1
-13.046251 -21.381719 27.899105 37.493235 1.022940 0.731594 0.061040 -0.012740 -41032.900000 0 0 1
-12.846351 -22.778619 28.585015 38.742706 1.057294 0.740966 0.067827 -0.011987 -95831.100000 0 0 1
-13.821151 -23.221019 29.485945 39.995761 1.033914 0.741840 0.047525 -0.009144 -205250.000000 0 0 1
-13.412751 -24.537219 29.878265 40.922949 1.070545 0.752313 0.075122 -0.014603 41066.800000 0 0 1
-14.399551 -25.065529 30.910745 42.321413 1.049356 0.751917 0.070321 -0.026853 80608.300000 0 0 1
-14.341051 -24.483319 32.212056 42.926859 1.040922 0.722138 0.107057 -0.035067 96749.000000 0 0 1
-15.455551 -24.990219 32.941537 44.142156 1.016911 0.728370 0.085939 -0.036392 126756.000000 0 0 1
-15.475051 -24.620019 -33.427048 44.305644 1.009644 2.425635 0.091498 -0.038106 74231.200000 0 0 1
-15.546351 -23.196919 -33.175578 43.363637 0.980358 2.441923 0.106854 -0.038013 44713.600000 0 0 1
-16.742551 -22.538419 -33.560468 43.756124 0.931890 2.444932 0.087170 -0.037843 -260992.000000 0 0 1
-16.700351 -21.000919 -33.272638 42.743523 0.898977 2.462950 0.084998 -0.031544 -218506.000000 0 0 1
-16.760351 -20.603919 -31.908528 41.516081 0.887905 2.447419 0.082556 -0.031165 133546.000000 0 0 1
-16.804451 -19.197519 -31.679618 40.675945 0.851771 2.463594 0.064761 -0.028664 -221957.000000 0 0 1
-16.781251 -18.861619 -30.181318 39.348227 0.843699 2.444997 0.077313 -0.031136 -124490.000000 0 0 1
-17.904051 -19.226019 -29.410638 39.435776 0.820987 2.412510 0.087639 -0.031044 -121419.000000 0 0 1
-17.681851 -19.132119 -28.009288 38.251876 0.824772 2.392391 0.079166 -0.028716 307959.000000 0 0 1
-16.712551 -20.158019 -27.302378 37.829551 0.878575 2.377082 0.078101 -0.023610 838111.000000 0 0 1
-15.330051 -19.936019 -27.589858 37.331697 0.915269 2.402450 0.075307 -0.026206 160262.000000 0 0 1
-14.610451 -21.059419 -27.145118 37.333923 0.964262 2.384870 0.068618 -0.025925 320838.000000 0 0 1
-13.083351 -20.942419 -27.438208 36.913605 1.012391 2.408799 0.111575 -0.031692 311548.000000 0 0 1
-12.422151 -20.032919 -26.533768 35.491809 1.015738 2.415241 0.111637 -0.038844 572949.000000 0 0 1
-11.003851 -20.036019 -26.618508 35.086632 1.068565 2.432036 0.099886 -0.047151 527208.000000 0 0 1
-10.250051 -21.098919 -25.793878 34.864768 1.118566 2.403609 0.125491 -0.044444 -476823.000000 0 0 1
-10.482551 -22.432319 -26.212758 36.058307 1.133652 2.384673 0.124064 -0.042114 120782.000000 0 0 1
-10.033851 -23.343119 -25.203008 35.787861 1.164832 2.352139 0.156138 -0.038147 141495.000000 0 0 1
-10.260351 -24.817319 -25.634418 37.125429 1.178762 2.332951 0.151790 -0.031531 166653.000000 0 0 1
-9.316851 -25.258189 -26.608548 37.852274 1.217415 2.350344 0.147059 -0.031798 199859.000000 0 0 1
-9.684951 -26.474539 -27.181518 39.160368 1.220097 2.337976 0.148604 -0.029847 -86724.300000 0 0 1
-9.325351 -27.816219 -26.488468 39.526486 1.247323 2.305200 0.161106 -0.026245 -299900.000000 0 0 1
-10.211351 -28.007519 -25.414798 39.174032 1.221180 2.276759 0.136694 -0.033389 -117603.000000 0 0 1
-9.865451 -29.100999 -24.596678 39.359774 1.243948 2.245824 0.171938 -0.044627 -466106.000000 0 0 1
-10.649651 -29.305429 -23.266278 38.904279 1.222232 2.211849 0.171000 -0.043601 -22093.200000 0 0 1
-10.785551 -28.231809 -22.352278 37.589725 1.205872 2.207612 0.128380 -0.048288 173699.000000 0 0 1
-11.562951 -27.141209 -22.851678 37.316836 1.168054 2.229850 0.126652 -0.036171 -240013.000000 0 0 1
-11.653051 -25.913259 -21.865278 35.852210 1.148196 2.226696 0.127848 -0.031442 -153113.000000 0 0 1
-12.348151 -26.284949 -20.691378 35.658218 1.131615 2.189856 0.092678 -0.030664 278382.000000 0 0 1
-12.396151 -25.256549 -19.667078 34.327129 1.114528 2.180874 0.085508 -0.025826 96470.700000 0 0 1
-13.078751 -25.738639 -18.326078 34.196146 1.100660 2.136382 0.104809 -0.035655 -72151.300000 0 0 1
-14.465651 -25.946799 -18.381578 34.933849 1.062204 2.124901 0.121581 -0.035464 -331388.000000 0 0 1
-14.822051 -26.436969 -17.119178 34.809090 1.059809 2.084954 0.114631 -0.033159 -934699.000000 0 0 1
-16.308751 -26.376079 -16.863278 35.299335 1.017018 2.068856 0.121316 -0.040849 -2178300.000000 0 0 1
-16.858251 -25.068889 -16.955478 34.643008 0.978782 2.082237 0.103426 -0.030488 -164443.000000 0 0 1
-18.214451 -25.083599 -16.584778 35.156906 0.942735 2.062055 0.120851 -0.028475 267921.000000 0 0 1
-19.304851 -25.769559 -17.458278 36.627024 0.927850 2.067637 0.112312 -0.024480 -916395.000000 0 0 1
-19.136051 -27.193399 -17.590978 37.617973 0.957590 2.057395 0.118421 -0.034404 -239392.000000 0 0 1
-19.673951 -28.107569 -16.663278 38.141376 0.960103 2.022926 0.116637 -0.037228 -48070.900000 0 0 1
-21.213951 -28.334749 -16.586378 39.089610 0.928134 2.009004 0.102639 -0.024029 488928.000000 0 0 1
-21.801351 -28.987479 -17.699778 40.359075 0.925955 2.024789 0.086504 -0.027843 -733578.000000 0 0 1
-23.012151 -29.529809 -17.316678 41.248467 0.908814 2.004037 0.079130 -0.015449 -645984.000000 0 0 1
-23.563751 -30.547479 -18.364178 42.727530 0.913751 2.015065 0.064704 -0.021834 -139995.000000 0 0 1
-22.979651 -31.792589 -18.269278 43.273544 0.944932 2.006646 0.056163 -0.018975 -213353.000000 0 0 1
-23.407251 -32.666049 -19.295178 44.578852 0.949041 2.018429 0.049830 0.000871 -43204.500000 0 0 1
-22.894351 33.730377 -19.332578 45.118048 -0.974478 2.013616 0.025983 -0.002332 -252389.000000 0 0 1
-23.453051 32.855881 -18.395878 44.361728 -0.950858 1.998386 0.050423 -0.008494 -27036.800000 0 0 1
-22.581351 31.786245 -18.054578 42.968018 -0.953116 2.004447 0.035501 -0.013684 273507.000000 0 0 1
-23.314251 30.394885 -17.681778 42.190622 -0.916475 2.003242 0.068141 -0.022973 386050.000000 0 0 1
-24.019351 30.325115 -16.473078 42.046452 -0.900915 1.973365 0.062330 -0.023537 -35406.500000 0 0 1
-24.621451 29.055695 -16.160278 41.371534 -0.867821 1.972094 0.067977 -0.020054 -339620.000000 0 0 1
-23.741351 27.853945 -15.786778 39.858705 -0.864939 1.978028 0.072289 -0.022303 -846056.000000 0 0 1
-23.048051 27.580325 -16.936578 39.733294 -0.874681 2.011147 0.047483 -0.016003 -761843.000000 0 0 1
-22.352251 26.388235 -16.805778 38.449919 -0.868015 2.023148 0.058841 -0.017035 -418425.000000 0 0 1
-21.616951 25.932435 -18.056878 38.286219 -0.875908 2.061933 0.037974 -0.015682 -1143490.000000 0 0 1
-21.471951 24.547205 -18.060078 37.279705 -0.852124 2.076528 0.060638 -0.028401 -93649.800000 0 0 1
-20.962851 24.039135 -19.284178 37.271982 -0.853651 2.114595 0.040790 -0.019611 486493.000000 0 0 1
-19.445151 24.362785 -19.455978 36.744990 -0.897185 2.128792 0.028209 -0.020137 -122979.000000 0 0 1
-18.642951 23.883815 -18.365378 35.429978 -0.908017 2.115725 0.035895 -0.026256 1819160.000000 0 0 1
-17.342851 24.519395 -18.117478 35.074467 -0.955180 2.113605 0.061842 -0.032796 1380950.000000 0 0 1
-17.396751 25.751775 -17.122678 35.482206 -0.976665 2.074384 0.071271 -0.036189 -186549.000000 0 0 1
-18.272951 26.790035 -17.543678 36.869871 -0.972199 2.066700 0.034875 -0.022516 171032.000000 0 0 1
-18.115451 27.968275 -16.742078 37.291972 -0.996030 2.036382 0.052527 -0.032354 -202348.000000 0 0 1
-19.264251 28.964255 -17.020878 38.726602 -0.983876 2.025854 0.028572 -0.021102 47049.000000 0 0 1
-19.256451 29.506835 -18.349878 39.726342 -0.992589 2.050941 0.010141 -0.020236 -183716.000000 0 0 1
-20.061751 28.801485 -19.219578 40.017391 -0.962388 2.071771 0.004473 -0.006837 -808462.000000 0 0 1
-19.984051 29.297745 -20.684078 41.055465 -0.972184 2.098798 0.011431 -0.016310 -273925.000000 0 0 1
-20.784051 30.409725 -20.863178 42.332025 -0.971253 2.086154 0.021666 -0.013434 -123289.000000 0 0 1
-21.139151 30.497915 -22.260378 43.272520 -0.964693 2.111131 0.021560 -0.010576 272558.000000 0 0 1
-21.804851 31.788935 -22.821678 44.797510 -0.969579 2.105331 0.021953 -0.015626 -195455.000000 0 0 1
-20.894651 32.829139 -22.958578 45.182243 -1.003994 2.103812 0.014911 -0.013582 -332769.000000 0 0 1
-21.428851 33.926625 -23.622578 46.564340 -1.007448 2.102857 0.032356 -0.011384 -592917.000000 0 0 1
-20.573051 -32.667739 -23.619678 45.258378 1.008777 2.119856 0.047831 -0.012659 -398311.000000 0 0 1
-20.628451 -31.872359 -22.429178 44.095898 0.996377 2.104407 0.049742 -0.017792 293904.000000 0 0 1
-19.780951 -32.372829 -21.404178 43.559441 1.022302 2.084468 0.051167 -0.026070 -285365.000000 0 0 1
-19.420351 -31.520269 -20.181978 42.166214 1.018606 2.069889 0.083944 -0.034776 -147120.000000 0 0 1
-18.489851 -30.527929 -20.553378 41.185803 1.026218 2.093287 0.113276 -0.044710 166780.000000 0 0 1
-18.106751 -29.687009 -19.463078 39.849521 1.023113 2.081068 0.106067 -0.039406 -195478.000000 0 0 1
-16.870951 -28.823369 -19.735278 38.792999 1.041239 2.104509 0.130697 -0.043440 -754194.000000 0 0 1
-15.686551 -29.501169 -19.894378 38.886670 1.082091 2.107841 0.134273 -0.050511 -1226640.000000 0 0 1
-14.638651 -28.722459 -20.366778 38.132340 1.099452 2.134248 0.115913 -0.051042 -645789.000000 0 0 1
-13.345751 -29.544579 -20.485278 38.348896 1.146517 2.134336 0.154903 -0.054830 -34438.100000 0 0 1
-12.742651 -30.148469 -19.310478 38.002630 1.170907 2.103815 0.147807 -0.050618 207721.000000 0 0 1
-11.845851 -29.321339 -18.624378 36.700580 1.186846 2.103040 0.117094 -0.042835 -494056.000000 0 0 1
-11.066451 -30.058019 -17.486278 36.492749 1.218027 2.070507 0.126079 -0.025545 -414855.000000 0 0 1
-11.731551 -30.597049 -16.390178 36.639413 1.204663 2.034582 0.150243 -0.045303 -439691.000000 0 0 1
-12.218551 -31.889389 -16.649278 37.992428 1.204896 2.024421 0.166570 -0.047237 -24370.500000 0 0 1
-13.250551 -32.412089 -15.603078 38.335057 1.182714 1.989984 0.149646 -0.047233 269722.000000 0 0 1
-12.718951 -32.849379 -14.364078 38.041821 1.201382 1.957985 0.139233 -0.035157 302524.000000 0 0 1
-13.831951 -32.978259 -13.516878 38.230804 1.173656 1.932170 0.129327 -0.022547 212287.000000 0 0 1
-13.296651 -33.445599 -12.119878 37.977631 1.192395 1.895610 0.111771 -0.026770 436454.000000 0 0 1
-12.717051 -32.484389 -11.247678 36.653365 1.197655 1.882695 0.087036 -0.014152 155126.000000 0 0 1
-12.274451 -33.122689 -10.027378 36.719517 1.215910 1.847390 0.089496 -0.017616 -160994.000000 0 0 1
-10.958851 -32.561459 -9.461178 35.635079 1.246146 1.839521 0.085362 -0.022430 -57545.600000 0 0 1
-9.822051 -33.196839 -9.987678 36.031327 1.283130 1.851669 0.076203 -0.020675 -392172.000000 0 0 1
-8.616951 -32.496719 -9.717578 34.995998 1.311598 1.852171 0.065418 -0.025912 906115.000000 0 0 1
-7.385251 -33.229429 -10.361978 35.582404 1.352101 1.866289 0.074999 -0.038497 523210.000000 0 0 1
-6.820051 33.499270 -9.664778 35.526358 -1.369953 1.846314 0.068090 -0.020308 -18649.300000 0 0 1
-5.690651 33.112744 -10.437378 35.182044 -1.400602 1.871998 0.075423 -0.018850 3597.110000 0 0 1
-4.785851 32.155778 -9.676778 33.919588 -1.423048 1.860101 0.075400 -0.023908 -178930.000000 0 0 1
-4.229451 32.664747 -8.478678 34.011203 -1.442032 1.822744 0.085819 -0.030563 -308123.000000 0 0 1
-3.423051 31.669845 -7.919878 32.824089 -1.463129 1.814484 0.082483 -0.033796 100830.000000 0 0 1
-2.925051 32.162140 -6.501978 32.942904 -1.480099 1.769472 0.085839 -0.029791 -206702.000000 0 0 1
-2.107351 33.318867 -6.489878 34.010386 -1.507632 1.762794 0.071427 -0.027522 47758.100000 0 0 1
-1.698251 33.607993 -5.116078 34.037560 -1.520308 1.721675 0.076515 -0.033920 -57027.500000 0 0 1
-0.586351 32.788510 -4.457478 33.095307 -1.552915 1.705893 0.081002 -0.048374 -1422810.000000 0 0 1
0.695049 33.157576 -4.841478 33.516382 1.549837 1.715755 0.085799 -0.036256 -1368550.000000 0 0 1
1.523449 32.295899 -4.145578 32.596500 1.523660 1.698320 0.079844 -0.038078 -112154.000000 0 0 1
3.031349 32.377941 -4.526478 32.833050 1.477445 1.709100 0.066357 -0.022128 243003.000000 0 0 1
3.691649 33.479641 -3.946578 33.912979 1.460974 1.687434 0.062399 -0.020279 -131858.000000 0 0 1
5.052249 33.391140 -4.348978 34.050067 1.420630 1.698869 0.063098 -0.017870 92586.300000 0 0 1
5.892449 -33.325429 -3.800878 34.055129 -1.395790 1.682639 0.058947 -0.014908 -298483.000000 0 0 1
5.702449 -32.077859 -4.388578 32.875014 -1.394865 1.704689 0.059869 -0.021063 -216814.000000 0 0 1
6.349449 -31.004199 -3.729978 31.866731 -1.368796 1.688115 0.050589 -0.025908 10389.200000 0 0 1
6.169249 -29.694659 -4.472978 30.656809 -1.365954 1.717224 0.059952 -0.024584 -200087.000000 0 0 1
6.780049 -29.675099 -5.732878 30.974932 -1.346176 1.756951 0.063656 -0.026575 -256326.000000 0 0 1
6.614249 -28.508099 -6.513778 29.981482 -1.342817 1.789803 0.069737 -0.020969 -159247.000000 0 0 1
7.182649 -27.166089 -5.960078 28.724717 -1.312314 1.779804 0.057198 -0.018415 503185.000000 0 0 1
6.394049 -26.676279 -4.885678 27.863552 -1.335544 1.747050 0.055417 -0.024648 134235.000000 0 0 1
6.910149 -25.372189 -4.613278 26.697948 -1.304894 1.744463 0.046897 -0.022265 -307934.000000 0 0 1
6.161049 -24.772719 -3.439378 25.758017 -1.327039 1.704723 0.049367 -0.021453 146343.000000 0 0 1
4.895549 -24.238619 -3.789978 25.016814 -1.371504 1.722879 0.058283 -0.024435 -300424.000000 0 0 1
4.222849 -23.571519 -2.750778 24.104268 -1.393526 1.685165 0.050073 -0.021104 260708.000000 0 1 0
2.945049 -22.954919 -3.379078 23.388454 -1.443196 1.715780 0.055237 -0.022086 176244.000000 0 1 0
1.995449 -23.871919 -3.864378 24.264866 -1.487400 1.730736 0.061216 -0.017863 -134398.000000 0 1 0
0.820749 -23.150819 -4.240078 23.550208 -1.535359 1.751828 0.064876 -0.016571 542550.000000 0 1 0
-15.282651 23.351381 18.225335 33.331806 -0.991289 0.992277 0.006532 -0.015615 -169421.000000 0 0 1
-15.548851 22.757681 19.493735 33.759214 -0.971411 0.955213 0.002817 -0.015197 206715.000000 0 0 1
-15.420451 23.709881 20.513135 34.939054 -0.994153 0.943310 0.011987 -0.021184 -1140550.000000 0 0 1
-15.532951 22.949681 21.858635 35.295331 -0.975793 0.902937 0.032986 -0.021764 -850146.000000 0 0 1
-14.542051 22.090081 22.315835 34.604038 -0.988604 0.869916 0.017118 -0.017620 79142.000000 0 0 1
-13.196651 22.563981 22.323835 34.374969 -1.041588 0.863973 0.008885 -0.022401 262837.000000 0 0 1
-12.772551 23.718281 23.377725 35.668095 -1.076817 0.856052 0.038285 -0.025997 -524281.000000 0 0 1
-12.414351 23.229481 24.628725 36.059659 -1.079992 0.818935 0.034387 -0.015895 49905.300000 0 0 1
-12.247051 24.277381 25.532365 37.299909 -1.103584 0.816857 0.083627 -0.026108 94891.800000 0 0 1
-11.687951 23.829481 26.934165 37.814040 -1.114791 0.778056 0.081027 -0.025142 -421977.000000 0 0 1
-10.366451 23.410081 26.875415 37.118502 -1.153929 0.761149 0.048945 -0.024250 -948303.000000 0 0 1
-10.001651 22.725981 28.008445 37.429618 -1.156208 0.725306 0.035781 -0.024596 -671882.000000 0 0 1
-8.509951 22.294681 27.996005 36.786525 -1.206162 0.705882 0.031471 -0.026560 793654.000000 0 0 1
-7.599651 23.335081 28.408575 37.541016 -1.255954 0.712493 0.040872 -0.025857 295249.000000 0 0 1
-7.376351 24.286681 27.359365 37.320079 -1.275930 0.747927 0.042338 -0.019351 -619638.000000 0 0 1
-6.233551 25.270081 27.761245 38.054184 -1.328948 0.753178 0.043000 -0.025559 -365594.000000 0 0 1
-4.962951 24.739281 27.700755 37.469918 -1.372814 0.738796 0.058365 -0.022378 -1030370.000000 0 0 1
-4.001251 25.621981 28.254805 38.351401 -1.415883 0.742568 0.076803 -0.020132 292745.000000 0 0 1
-2.553351 25.096481 28.222475 37.853152 -1.469404 0.729395 0.079498 -0.024748 187769.000000 0 0 1
-1.922251 25.131881 26.926425 36.882772 -1.494458 0.752395 0.080319 -0.028787 -1023560.000000 0 0 1
-0.599851 24.776981 26.944885 36.609910 -1.546591 0.743654 0.097527 -0.018298 -830313.000000 0 0 1
0.009649 24.522181 25.549535 35.413504 1.570403 0.764883 0.098059 -0.026099 204806.000000 0 0 1
-0.258651 23.196081 25.042925 34.136098 -1.559646 0.747163 0.098260 -0.021307 251853.000000 0 0 1
0.263949 23.191481 23.687685 33.151484 1.559416 0.774846 0.103748 -0.020411 279219.000000 0 0 1
-0.142251 21.857481 23.029785 31.751232 -1.564288 0.759298 0.078954 -0.020130 169769.000000 0 0 1
0.698449 20.762781 23.344895 31.250041 1.537170 0.727205 0.095746 -0.020567 -118860.000000 0 0 1
0.249449 19.547081 22.726335 29.977274 1.558036 0.710373 0.080264 -0.015187 -187369.000000 0 0 1
1.328749 18.467981 22.760835 29.340885 1.498971 0.682913 0.078987 -0.011093 193433.000000 0 0 1
2.409649 18.746381 21.836535 28.880227 1.442958 0.713453 0.073472 -0.015932 -271186.000000 0 0 1
3.132049 17.554981 21.823435 28.182431 1.394240 0.685088 0.063617 -0.015225 -1803070.000000 0 0 1
4.481549 17.878181 21.272535 28.146659 1.325186 0.713960 0.079922 -0.020473 -1300260.000000 0 0 1
5.307949 18.552581 22.213235 29.424487 1.292137 0.715259 0.077533 -0.015029 -779590.000000 0 0 1
6.513849 18.858481 21.575935 29.386962 1.238219 0.746307 0.091578 -0.026525 -421941.000000 0 0 1
7.616249 19.439481 22.504435 30.697725 1.197385 0.747931 0.108868 -0.028962 -246054.000000 0 0 1
7.512449 20.591081 23.268835 31.966674 1.220963 0.755529 0.088891 -0.024819 -180187.000000 0 0 1
7.241949 21.735281 22.476235 32.094383 1.249176 0.794955 0.097691 -0.033542 28208.400000 0 0 1
6.289849 22.707981 23.219775 33.081303 1.300582 0.792734 0.076252 -0.027951 -19443.600000 0 0 1
5.756349 23.711681 22.314335 33.065223 1.332639 0.830024 0.069317 -0.032855 181038.000000 0 0 1
4.555949 24.177581 22.892105 33.605961 1.384543 0.821407 0.061524 -0.024314 -341720.000000 0 0 1
4.106749 25.592181 22.420535 34.271060 1.411684 0.857656 0.066555 -0.024694 -28101.900000 0 0 1
3.848349 25.764681 21.055035 33.495419 1.422527 0.891052 0.063823 -0.029134 407971.000000 0 0 1
2.637149 25.127181 20.650235 32.630691 1.466227 0.885572 0.087242 -0.038590 57509.700000 0 0 1
2.147149 25.480381 19.198035 31.975376 1.486728 0.926794 0.082409 -0.033101 -316591.000000 0 0 1
1.704349 26.785981 19.105535 32.945638 1.507254 0.952177 0.098148 -0.038230 29901.800000 0 0 1
1.230749 27.090281 17.810635 32.444057 1.525396 0.989671 0.106424 -0.026477 -243280.000000 0 0 1
0.322449 28.303181 17.961735 33.523096 1.559404 1.005339 0.093688 -0.013430 -319309.000000 0 0 1
0.978649 29.453481 18.235435 34.655395 1.537582 1.016679 0.104339 -0.012601 173708.000000 0 0 1
-0.083251 30.330981 18.564835 35.561615 -1.568052 1.021547 0.088562 -0.009954 419768.000000 0 0 1
0.366649 31.657481 19.165135 37.008553 1.559215 1.026452 0.092630 -0.006014 44011.800000 0 0 1
0.905849 31.610081 20.475735 37.673247 1.542147 0.996185 0.108622 -0.014135 19393.800000 0 0 1
1.107149 32.950581 20.874835 39.022114 1.537209 1.006349 0.106848 -0.021600 -67033.300000 0 0 1
1.628149 32.869081 22.336235 39.773544 1.521302 0.974496 0.112733 -0.041166 437068.000000 0 0 1
0.542449 32.569781 23.203445 39.993559 1.554143 0.951847 0.117238 -0.031625 495614.000000 0 0 1
1.028349 32.495781 24.526975 40.725985 1.539161 0.924487 0.125085 -0.039601 -568943.000000 0 0 1
-0.025451 32.102181 25.529665 41.016028 -1.570004 0.898951 0.123595 -0.032246 -1066530.000000 0 0 1
-1.025051 33.065981 25.662205 41.868349 -1.539806 0.911038 0.128730 -0.033679 -528977.000000 0 0 1
-2.008451 32.785381 26.605915 42.270437 -1.509612 0.889988 0.130263 -0.034120 -289932.000000 0 0 1
-1.638751 32.969181 28.085425 43.341015 -1.521132 0.865827 0.137961 -0.035792 -630032.000000 0 0 1
-0.582851 32.151381 28.528215 42.987325 -1.552670 0.845119 0.143232 -0.036870 270936.000000 0 0 1
-0.005651 32.757081 29.728245 44.235676 -1.570624 0.833833 0.138909 -0.038007 -302016.000000 0 0 1
1.266449 32.030781 30.253825 44.077985 1.531278 0.814310 0.124984 -0.033913 300024.000000 0 0 1
2.457149 32.254281 29.510765 43.786545 1.494763 0.831228 0.112511 -0.043059 341684.000000 0 0 1
2.567549 31.690581 28.234145 42.521197 1.489954 0.844638 0.110178 -0.040887 -1310450.000000 0 0 1
4.034549 31.518281 27.863675 42.261851 1.443482 0.850895 0.088864 -0.037596 -277374.000000 0 0 1
4.726149 30.506281 28.587715 42.074068 1.417094 0.823768 0.087777 -0.036664 45926.800000 0 0 1
6.063549 30.345581 28.181385 41.854646 1.373577 0.832112 0.097438 -0.048415 -28332.300000 0 0 1
6.780449 29.106781 28.739075 41.462196 1.341927 0.804961 0.095053 -0.031010 -1117.080000 0 0 1
7.046249 29.178481 30.087745 42.500657 1.333845 0.784225 0.100302 -0.038573 -58079.300000 0 0 1
7.705149 28.095281 30.689625 42.315095 1.303127 0.759378 0.086075 -0.035659 -86979.500000 0 0 1
7.810149 28.294881 32.208762 43.577553 1.301476 0.739043 0.106711 -0.043958 -152394.000000 0 0 1
6.551149 28.527281 32.824753 43.979402 1.345065 0.728211 0.102398 -0.043082 118363.000000 0 0 1
6.460249 28.143681 -33.688378 44.370130 1.345160 2.432969 0.111916 -0.045168 84914.400000 0 0 1
6.315749 26.630181 -33.309188 43.110988 1.337934 2.453782 0.105228 -0.039314 -172514.000000 0 0 1
7.530549 26.016181 -33.671788 43.212732 1.289040 2.464201 0.097884 -0.040608 145904.000000 0 0 1
7.500049 24.699981 -33.302128 42.135158 1.275998 2.482200 0.091983 -0.034786 620716.000000 0 0 1
8.925949 24.044281 -33.397548 42.109337 1.215335 2.486703 0.102531 -0.038960 521437.000000 0 0 1
9.282649 23.724681 33.104159 41.772161 1.197842 0.655910 0.092164 -0.033282 1537170.000000 0 0 1
10.678349 23.319981 32.961344 41.764805 1.141388 0.661269 0.095718 -0.041492 1420290.000000 0 0 1
10.889449 21.806881 33.304804 41.271421 1.107662 0.631793 0.100997 -0.043104 -766159.000000 0 0 1
10.338649 20.929281 32.298282 39.850992 1.111976 0.625832 0.100044 -0.039945 231010.000000 0 0 1
9.958249 19.678481 32.807962 39.531907 1.102322 0.591848 0.094118 -0.037300 381725.000000 0 0 1
8.668049 19.617681 33.692739 39.939820 1.154742 0.566867 0.095362 -0.038582 35695.300000 0 0 1
8.727249 20.324081 -32.941878 39.678716 1.165201 2.550290 0.105758 -0.034200 -1118570.000000 0 0 1
7.417549 20.406881 -32.539008 39.118383 1.222161 2.553155 0.107285 -0.028371 -1171580.000000 0 0 1
7.299849 20.858081 -31.115428 38.164345 1.234142 2.524045 0.119154 -0.034303 -190806.000000 0 0 1
7.613049 22.231581 -31.138768 39.010570 1.240870 2.495120 0.115240 -0.035504 16626.900000 0 0 1
7.904149 22.733981 -29.834518 38.332857 1.236190 2.462752 0.086214 -0.033050 1700720.000000 0 0 1
9.475949 22.908981 -29.542838 38.566752 1.178591 2.443420 0.088437 -0.027072 1802260.000000 0 0 1
10.137349 21.666481 -29.369088 37.878036 1.133172 2.458080 0.102660 -0.034680 184496.000000 0 0 1
11.538549 21.905681 -29.201618 38.284873 1.085988 2.438344 0.117650 -0.030278 569798.000000 0 0 1
12.244849 20.611081 -28.800658 37.473069 1.034733 2.447398 0.123709 -0.031572 -259278.000000 0 0 1
12.399849 19.557981 -29.779308 37.723707 1.005748 2.480637 0.124963 -0.030082 379045.000000 0 0 1
11.197349 19.028681 -30.348038 37.529652 1.038916 2.512636 0.128918 -0.031739 232918.000000 0 0 1
11.372449 18.037381 -31.559508 38.087823 1.008256 2.547396 0.140501 -0.041881 -381666.000000 0 0 1
12.045149 16.854581 -31.208078 37.458066 0.950305 2.555570 0.129625 -0.029572 22953.300000 0 0 1
12.144649 15.869481 -32.220458 37.914257 0.917585 2.586448 0.117557 -0.028128 -404153.000000 0 0 1
13.134949 15.949381 -33.381818 39.258826 0.881866 2.587353 0.103043 -0.011711 -581868.000000 0 0 1
13.181349 17.259881 -33.913948 40.271669 0.918586 2.572016 0.113466 -0.023294 -23539.700000 0 0 1
13.697149 17.358881 32.615898 39.404816 0.902764 0.595776 0.115670 -0.024688 322570.000000 0 0 1
12.824049 16.766281 31.447485 37.874909 0.917845 0.591153 0.124068 -0.030520 -531659.000000 0 0 1
13.100349 17.491381 30.244215 37.313270 0.927961 0.625708 0.124714 -0.029691 358821.000000 0 0 1
12.184549 17.313881 29.168075 36.041786 0.957562 0.627862 0.107072 -0.030596 104835.000000 0 0 1
10.705649 17.706081 29.362545 35.920403 1.026978 0.613855 0.080740 -0.026690 -242050.000000 0 0 1
9.978449 16.797181 30.162425 35.937260 1.034760 0.574787 0.093378 -0.024031 -127381.000000 0 0 1
8.660049 17.245781 30.383915 35.994385 1.105426 0.565857 0.078234 -0.028903 310541.000000 0 0 1
7.737249 16.407181 31.302955 36.179216 1.130145 0.525209 0.074359 -0.027615 186214.000000 0 0 1
8.132849 16.572881 32.653971 37.511138 1.114590 0.514551 0.079865 -0.018129 290035.000000 0 0 1
7.623949 15.508981 33.433043 37.635376 1.113905 0.477077 0.099905 -0.024691 -186538.000000 0 0 1
7.622249 15.779181 -32.921848 37.295165 1.120794 2.652454 0.099887 -0.028931 -212389.000000 0 0 1
6.677449 16.702481 -32.435938 37.089773 1.190473 2.635252 0.093907 -0.025294 -77086.200000 0 0 1
6.720549 16.853781 -30.997588 35.917492 1.191363 2.612018 0.109354 -0.033668 269901.000000 0 0 1
5.591149 17.767281 -30.422858 35.671943 1.265919 2.592218 0.099720 -0.034370 -176947.000000 0 0 1
5.623849 17.710681 -28.997198 34.440288 1.263327 2.571694 0.108923 -0.037161 178521.000000 0 0 1
4.874849 18.657581 -28.217438 34.177380 1.315230 2.542092 0.111589 -0.034968 997263.000000 0 0 1
3.314749 18.518781 -28.275718 33.962466 1.393678 2.554506 0.131190 -0.040759 -197122.000000 0 0 1
2.780149 17.338481 -27.672288 32.773582 1.411804 2.576142 0.133423 -0.044909 1765750.000000 0 0 1
1.329849 17.222481 -27.778168 32.710992 1.493733 2.585264 0.133072 -0.044216 2323770.000000 0 0 1
0.278149 18.349781 -27.484048 33.047916 1.555639 2.552855 0.141345 -0.053065 -347229.000000 0 0 1
0.171549 18.707181 -26.121948 32.130114 1.561626 2.520091 0.150463 -0.060524 387603.000000 0 0 1
-0.643351 19.905681 -26.053818 32.794077 -1.538488 2.488926 0.161238 -0.051368 363293.000000 0 0 1
-1.199751 20.298981 -24.653578 31.957581 -1.511761 2.451908 0.146676 -0.052133 277149.000000 0 0 1
-2.379451 19.587281 -24.305678 31.306379 -1.449909 2.459700 0.129972 -0.047289 -77417.400000 0 0 1
-2.838251 20.029081 -23.067878 30.681375 -1.430027 2.421664 0.125521 -0.041815 55086.600000 0 0 1
-3.760851 18.957081 -22.446578 29.620328 -1.374952 2.430746 0.106922 -0.035252 -1054170.000000 0 0 1
-5.108851 19.152381 -22.550578 30.024034 -1.310118 2.420499 0.111072 -0.026401 -1749060.000000 0 0 1
-5.875351 18.172581 -21.899078 29.057393 -1.258095 2.424393 0.101406 -0.036855 216834.000000 0 0 1
-7.378351 18.555581 -21.880778 29.622932 -1.192330 2.401852 0.106379 -0.021665 184552.000000 0 0 1
-7.856451 19.702381 -21.147078 29.951737 -1.191362 2.354685 0.073583 -0.023745 -27233.200000 0 0 1
-7.508751 20.950981 -21.649378 31.048680 -1.226661 2.342381 0.089977 -0.031362 -91533.200000 0 0 1
-7.939351 22.134481 -20.730878 31.348650 -1.226404 2.293347 0.097989 -0.031620 122299.000000 0 0 1
-7.160051 22.076281 -19.586078 30.368454 -1.257168 2.271752 0.115126 -0.036309 -92472.100000 0 0 1
-7.671451 23.035381 -18.748378 30.675424 -1.249320 2.228354 0.126735 -0.033411 -148891.000000 0 0 1
-6.881851 23.121381 -17.448478 29.772597 -1.281506 2.196982 0.139674 -0.045372 1362650.000000 0 0 1
-5.501951 23.553481 -17.631878 29.931941 -1.341317 2.200698 0.129995 -0.047672 720597.000000 0 0 1
-4.942451 23.614881 -16.344578 29.141649 -1.364480 2.166229 0.108470 -0.042017 1219950.000000 0 0 1
-3.369451 23.834481 -16.376178 29.113827 -1.430358 2.168188 0.098116 -0.040348 1360280.000000 0 0 1
-3.049151 25.196381 -16.663478 30.361595 -1.450367 2.151765 0.084326 -0.045811 -159828.000000 0 0 1
-1.716751 25.362481 -17.091378 30.631975 -1.503211 2.162720 0.085221 -0.048418 94875.000000 0 0 1
-1.331751 26.877081 -17.117878 31.893147 -1.521287 2.137348 0.085644 -0.065120 -170023.000000 0 0 1
-2.166251 27.631481 -17.945978 33.018927 -1.492558 2.145404 0.101177 -0.065219 -84539.100000 0 0 1
-1.627051 28.933181 -18.172278 34.205379 -1.514621 2.130895 0.106991 -0.055445 -884942.000000 0 0 1
-2.559251 29.846781 -18.998578 35.472892 -1.485259 2.135991 0.149499 -0.053134 -54071.400000 0 0 1
-3.623251 30.345681 -18.243378 35.592263 -1.451960 2.108967 0.131479 -0.051873 157835.000000 0 0 1
-4.731651 29.431381 -18.083478 34.865555 -1.411391 2.116083 0.101542 -0.053125 661111.000000 0 0 1
-5.899551 30.059581 -17.194178 35.128662 -1.376998 2.082270 0.134692 -0.041052 1076150.000000 0 0 1
-6.621351 31.130381 -17.807678 36.469937 -1.361222 2.080918 0.174055 -0.045906 231700.000000 0 0 1
-6.110151 32.398781 -17.503878 37.328283 -1.384394 2.058861 0.171036 -0.068268 -189691.000000 0 0 1
-6.930951 33.483381 -18.203278 38.736730 -1.366682 2.060000 0.162682 -0.056735 1792360.000000 0 0 1
-8.333551 33.546381 -17.757978 38.860694 -1.327306 2.045376 0.178764 -0.067295 1734040.000000 0 0 1
-9.033351 -33.324002 -18.465578 39.154414 1.306081 2.061911 0.207776 -0.062814 -87158.200000 0 0 1
29.363849 -20.049319 -26.159638 44.142241 -0.599081 2.205106 0.078554 -0.002544 95384.300000 0 0 1
29.093049 -21.325119 -25.643998 44.258116 -0.632530 2.188812 0.079375 -0.006455 75215.000000 0 0 1
27.725149 -21.696519 -25.734458 43.608315 -0.664014 2.202013 0.071117 -0.013212 6171.550000 0 0 1
27.491049 -23.083419 -25.054958 43.776168 -0.698467 2.180156 0.081965 -0.010090 228023.000000 0 0 1
28.080749 -24.231019 -25.695598 45.121331 -0.711939 2.176667 0.075202 -0.001272 -955368.000000 0 0 1
29.447149 -24.356119 -25.796168 46.106370 -0.691056 2.164570 0.070341 -0.002496 -1129800.000000 0 0 1
29.737349 -25.750099 -26.471878 47.414532 -0.713663 2.163140 0.070066 -0.010702 -122701.000000 0 0 1
29.394549 -26.821119 -25.643028 47.338957 -0.739652 2.143242 0.080029 -0.020123 -60559.900000 0 0 1
29.645549 -28.104069 -26.258328 48.561271 -0.758712 2.142096 0.072860 -0.017000 646418.000000 0 0 1
28.536749 -28.554029 -27.301778 48.734646 -0.785701 2.165439 0.073393 -0.017584 141683.000000 0 0 1
28.354149 -27.909389 -28.564938 48.978030 -0.777493 2.193483 0.056872 -0.016490 185667.000000 0 0 1
29.370549 -28.052329 -29.563518 50.235086 -0.762446 2.200003 0.038716 -0.017024 -101717.000000 0 0 1
29.635349 -29.471279 -30.096748 51.503635 -0.782622 2.194890 0.037336 -0.014248 -826903.000000 0 0 1
30.220249 -30.421259 -29.211438 51.884724 -0.788713 2.168816 0.043252 -0.015827 919144.000000 0 0 1
31.578049 -30.281069 -28.743058 52.347681 -0.764435 2.152059 0.048426 -0.014170 1453280.000000 0 0 1
32.703749 -30.114969 -29.837508 53.541791 -0.744211 2.161897 0.043597 -0.015294 -175275.000000 0 0 1
32.620549 -28.811449 -30.400628 53.088586 -0.723472 2.180518 0.046917 -0.023152 478054.000000 0 0 1
33.796749 -28.574979 -31.204528 54.152306 -0.701873 2.184912 0.048259 -0.025209 743543.000000 0 0 1
33.728049 -27.245949 -32.069468 53.929341 -0.679487 2.207635 0.038481 -0.021780 -39887.000000 0 0 1
33.759549 -26.029189 -31.366638 52.925342 -0.656817 2.205151 0.043792 -0.006795 367753.000000 0 0 1
32.575949 -25.706749 -30.608258 51.564473 -0.668079 2.206311 0.059581 -0.014138 321107.000000 0 0 1
32.566549 -24.437019 -29.733298 50.416436 -0.643739 2.201551 0.056983 -0.015823 -713399.000000 0 0 1
33.369149 -24.652619 -28.630938 50.408157 -0.636285 2.174849 0.062601 -0.010253 -166300.000000 0 0 1
33.372449 -23.380519 -27.993718 49.437003 -0.611124 2.172746 0.059963 -0.011521 414165.000000 0 0 1
34.536349 -23.306119 -26.939378 49.615166 -0.593632 2.144762 0.070366 -0.023605 -177594.000000 0 0 1
34.299049 -23.912119 -25.719078 49.088544 -0.608821 2.122258 0.075516 -0.027394 -442631.000000 0 0 1
33.333949 -23.347119 -24.878578 47.698886 -0.610995 2.119493 0.087385 -0.009402 -475062.000000 0 0 1
33.691849 -22.142619 -24.009778 46.924468 -0.581427 2.107922 0.081978 -0.007126 -371556.000000 0 0 1
33.875849 -20.987319 -24.764878 46.918439 -0.554661 2.126838 0.081674 -0.019942 70754.100000 0 0 1
33.936649 -19.794919 -23.973678 46.024691 -0.528042 2.118686 0.062929 -0.031615 -199941.000000 0 0 1
33.948249 -18.592319 -24.858078 46.000891 -0.501050 2.141688 0.049659 -0.036964 -199797.000000 0 0 1
32.801549 -18.346719 -25.621988 45.486591 -0.509974 2.169154 0.066935 -0.025975 -137738.000000 0 0 1
32.922349 -17.171619 -26.380228 45.548458 -0.480762 2.188505 0.059755 -0.013931 59646.500000 0 0 1
31.751849 -16.948919 -27.387248 45.227283 -0.490315 2.221249 0.058152 -0.001865 -538923.000000 0 0 1
30.548049 -16.776019 -26.735188 43.924804 -0.502204 2.225165 0.069903 -0.000480 -616808.000000 0 0 1
29.553549 -16.335419 -27.653758 43.646174 -0.504944 2.256980 0.052828 -0.006540 218854.000000 0 0 1
28.215349 -15.867119 -27.051688 42.186078 -0.512281 2.266918 0.052381 -0.007023 494779.000000 0 0 1
27.348049 -16.855819 -26.492718 41.640107 -0.552351 2.260399 0.068328 0.005927 386797.000000 0 0 1
27.481649 -16.767819 -25.125468 40.837359 -0.547846 2.233508 0.084877 -0.001423 -74692.600000 0 0 1
26.876749 -17.965019 -24.393078 40.498442 -0.589217 2.217202 0.093084 -0.002660 -98881.000000 0 0 1
26.771849 -17.806019 -23.012378 39.539294 -0.586919 2.191998 0.091735 0.003419 288102.000000 0 0 1
26.079849 -18.865819 -22.329478 39.175033 -0.626250 2.177293 0.092072 0.006490 113091.000000 0 0 1
25.913249 -18.460919 -20.820778 38.023766 -0.619008 2.150257 0.090985 -0.003117 127376.000000 0 0 1
24.992349 -17.436919 -20.427278 36.687019 -0.609174 2.161323 0.090936 -0.008297 320466.000000 0 0 1
25.119249 -16.114919 -20.967978 36.473598 -0.570403 2.183255 0.093431 -0.011463 200791.000000 0 0 1
26.383649 -15.317019 -20.495478 36.752859 -0.525995 2.162356 0.070517 -0.007211 377009.000000 0 0 1
26.166349 -14.484919 -19.350578 35.622122 -0.505580 2.145062 0.061571 -0.019123 -368126.000000 0 0 1
27.290049 -13.759619 -18.975878 35.974405 -0.467001 2.126431 0.038638 -0.011408 -734620.000000 0 0 1
27.222349 -12.722019 -17.817778 34.933927 -0.437178 2.106030 0.042359 -0.019440 -278792.000000 0 0 1
27.566149 -13.253719 -16.544678 34.774704 -0.448167 2.066633 0.044562 -0.016577 193429.000000 0 0 1
27.662049 -12.183119 -15.573578 34.002260 -0.414865 2.046558 0.038164 -0.020025 -176615.000000 0 0 1
28.276949 -12.616119 -14.238278 34.080506 -0.419658 2.001801 0.053317 -0.025146 -680637.000000 0 0 1
27.621449 -13.592119 -13.541978 33.631463 -0.457296 1.985215 0.086971 -0.039836 -176767.000000 0 0 1
28.378649 -13.960319 -12.421178 33.978285 -0.457171 1.945033 0.104252 -0.043174 -446537.000000 0 0 1
27.955049 -15.281619 -11.773778 33.965195 -0.500267 1.924786 0.108238 -0.058862 -276076.000000 0 0 1
26.641749 -15.148019 -11.311978 32.668121 -0.516998 1.924388 0.102177 -0.059291 -121597.000000 0 0 1
25.943249 -16.344619 -11.007978 32.578740 -0.562197 1.915469 0.085141 -0.059504 940983.000000 0 0 1
24.424849 -16.069719 -10.686578 31.128959 -0.581926 1.921225 0.097135 -0.062117 717517.000000 0 0 1
24.175049 -15.538819 -9.406778 30.238640 -0.571271 1.887130 0.097781 -0.051184 1232420.000000 0 0 1
22.766749 -15.633919 -9.101478 29.078879 -0.601744 1.889139 0.111097 -0.048312 784067.000000 0 0 1
22.487049 -15.443619 -7.633278 28.327366 -0.601797 1.843635 0.098358 -0.043143 -480992.000000 0 0 1
22.720349 -14.115519 -7.280578 27.721272 -0.555914 1.836548 0.107720 -0.029045 335832.000000 0 0 1
22.529049 -13.813719 -5.909178 27.079425 -0.550034 1.790783 0.115898 -0.021573 -276789.000000 0 0 1
23.475449 -14.546519 -4.934078 28.054287 -0.554742 1.747592 0.102592 -0.020327 -299295.000000 0 0 1
24.777749 -14.019319 -4.919078 28.890751 -0.514895 1.741895 0.101575 -0.030216 289073.000000 0 0 1
25.733849 -14.783819 -4.195878 29.973283 -0.521450 1.711245 0.110454 -0.040543 211014.000000 0 0 1
27.185649 -14.338819 -4.460678 31.057348 -0.485358 1.714922 0.112963 -0.038390 -89883.000000 0 0 1
27.560249 -13.119319 -3.769978 30.755432 -0.444283 1.693685 0.128457 -0.033429 585893.000000 0 0 1
28.948749 -12.819519 -3.868978 31.895754 -0.416880 1.692397 0.139117 -0.038249 337323.000000 0 0 1
29.402349 -11.560819 -3.166678 31.751827 -0.374625 1.670695 0.157040 -0.045375 -566776.000000 0 0 1
29.972049 -11.792019 -1.860478 32.262003 -0.374833 1.628496 0.168699 -0.046486 1132570.000000 0 0 1
30.872249 -10.765319 -1.388978 32.724870 -0.335521 1.613253 0.181286 -0.034999 1823530.000000 0 0 1
32.325749 -10.532719 -1.987478 34.056457 -0.314983 1.629188 0.174440 -0.031365 873711.000000 0 0 1
32.254649 -10.040119 -3.310178 33.942947 -0.301770 1.668473 0.175009 -0.037323 361165.000000 0 0 1
33.347749 -10.517719 -4.077578 35.203997 -0.305520 1.686884 0.173992 -0.038126 116929.000000 0 0 1
33.128349 -10.184119 -5.554478 35.100655 -0.298245 1.729709 0.162949 -0.047338 -132679.000000 0 0 1
32.001349 -10.878619 -6.032478 34.333970 -0.327687 1.747413 0.153669 -0.055396 82463.000000 0 0 1
31.742349 -10.765719 -7.391978 34.323735 -0.326985 1.787857 0.141995 -0.046809 -402525.000000 0 0 1
30.506549 -11.622219 -7.660178 33.532131 -0.363998 1.801274 0.131652 -0.049556 -464041.000000 0 0 1
30.621449 -13.031419 -7.364178 34.084045 -0.402349 1.788573 0.116568 -0.043603 731869.000000 0 0 1
29.444049 -13.806619 -7.667678 33.412094 -0.438468 1.802348 0.112218 -0.041901 680318.000000 0 0 1
29.746449 -15.266519 -7.570578 34.281649 -0.474169 1.793467 0.111567 -0.045557 492001.000000 0 0 1
30.690449 -15.743019 -8.554778 35.537734 -0.473963 1.813908 0.117216 -0.053399 727096.000000 0 0 1
30.752249 -17.186219 -8.570378 36.256287 -0.509620 1.809438 0.109471 -0.044809 -49370.000000 0 0 1
30.956949 -17.880919 -9.886178 37.091730 -0.523791 1.840591 0.089104 -0.054149 -643162.000000 0 0 1
32.154649 -17.628519 -10.552478 38.158104 -0.501492 1.850995 0.094630 -0.046200 -268552.000000 0 0 1
32.274949 -18.066019 -11.929378 38.863394 -0.510301 1.882790 0.076278 -0.028498 121042.000000 0 0 1
31.338449 -17.343419 -12.979578 38.096745 -0.505467 1.918458 0.068132 -0.039217 313006.000000 0 0 1
31.766349 -15.999119 -13.261078 37.959570 -0.466563 1.927671 0.070515 -0.030549 463758.000000 0 0 1
31.125849 -15.408919 -14.404078 37.599611 -0.459682 1.963937 0.055064 -0.034261 -444894.000000 0 0 1
32.022249 -14.298119 -15.038078 38.157626 -0.419944 1.975889 0.041784 -0.021633 -270975.000000 0 0 1
32.976349 -14.738019 -15.916778 39.471415 -0.420295 1.985860 0.021536 -0.025741 -653376.000000 0 0 1
34.231049 -14.985119 -15.327978 40.388927 -0.412632 1.960062 0.038795 -0.023834 -526922.000000 0 0 1
35.212449 -15.426519 -16.461778 41.819663 -0.412913 1.975381 0.043338 -0.028142 -219876.000000 0 0 1
36.538349 -15.579619 -16.023278 42.831308 -0.403048 1.954225 0.052960 -0.033401 -376184.000000 0 0 1
-37.178627 -15.866219 -17.057478 43.874192 0.403357 1.970105 0.065131 -0.038204 593204.000000 0 0 1
-35.676727 -15.541019 -16.704378 42.348416 0.410820 1.976267 0.092073 -0.038882 867233.000000 0 0 1
-34.999227 -16.349319 -15.741278 41.713714 0.437011 1.957745 0.076936 -0.040161 310910.000000 0 0 1
-35.384427 -16.196419 -14.403078 41.494943 0.429261 1.925278 0.060390 -0.038743 -455045.000000 0 0 1
-34.557127 -17.150319 -13.539778 40.885866 0.460674 1.908329 0.060236 -0.031524 478678.000000 0 0 1
-33.162527 -16.892119 -13.360978 39.542541 0.471118 1.915469 0.099053 -0.036050 504561.000000 0 0 1
-32.751927 -17.458019 -12.136478 39.048242 0.489727 1.886839 0.104172 -0.019605 183178.000000 0 0 1
-31.290027 -17.022519 -11.822478 37.531359 0.498243 1.891256 0.141729 -0.024304 205382.000000 0 0 1
-31.101127 -15.642219 -11.520378 36.669854 0.466002 1.890373 0.144240 -0.039781 329838.000000 0 0 1
-29.798927 -15.493719 -10.960778 35.329449 0.479474 1.886247 0.161764 -0.038416 332357.000000 0 0 1
-29.809727 -15.477619 -9.408478 34.881169 0.478900 1.843908 0.155664 -0.032773 -184335.000000 0 0 1
-29.988427 -16.721319 -8.700878 35.420524 0.508654 1.818981 0.136384 -0.028602 -79088.100000 0 0 1
-30.332127 -16.573119 -7.328478 35.332885 0.500066 1.779725 0.151912 -0.033965 43940.400000 0 0 1
-30.870727 -17.887719 -6.678978 36.298498 0.525164 1.755852 0.133705 -0.030025 1221050.000000 0 0 1
-32.095627 -18.475819 -7.182578 37.723660 0.522322 1.762366 0.105978 -0.030002 736725.000000 0 0 1
-31.909527 -19.085119 -8.429378 38.124979 0.539022 1.793737 0.099338 -0.026582 -689415.000000 0 0 1
-33.094527 -19.849819 -8.970778 39.619917 0.540266 1.799198 0.080851 -0.024942 -240591.000000 0 0 1
-34.204827 -19.121619 -9.456578 40.311702 0.509752 1.807589 0.071838 -0.021117 839174.000000 0 0 1
-35.325227 -19.976119 -9.720378 41.730117 0.514659 1.805890 0.048836 -0.027118 1241370.000000 0 0 1
-36.730527 -19.366019 -10.035978 42.718791 0.485206 1.807944 0.046702 -0.036399 566548.000000 0 0 1
-36.955827 -18.988019 -11.418778 43.089053 0.474629 1.839005 0.041979 -0.037916 -151735.000000 0 0 1
36.355749 -18.496019 -11.691978 42.432836 -0.470624 1.849949 0.056315 -0.041923 -336049.000000 0 0 1
36.118349 -18.336419 -13.184378 42.597972 -0.469770 1.885471 0.049873 -0.033664 -164904.000000 0 0 1
35.969249 -19.511819 -13.937178 43.228959 -0.497035 1.899064 0.042742 -0.026433 45842.100000 0 0 1
35.372749 -19.248019 -15.190478 43.040309 -0.498339 1.931504 0.037927 -0.022391 -366473.000000 0 0 1
34.147049 -20.161519 -15.353678 42.523443 -0.533355 1.940205 0.047716 -0.023101 -438179.000000 0 0 1
33.082949 -19.732219 -14.510778 41.163147 -0.537803 1.931058 0.053147 -0.029770 89010.100000 0 0 1
31.878349 -20.449819 -14.662178 40.612851 -0.570373 1.940161 0.059739 -0.031016 206388.000000 0 0 1
30.954249 -20.060719 -15.827678 40.138677 -0.575022 1.976129 0.060347 -0.028123 -864680.000000 0 0 1
30.324049 -18.825319 -15.745678 39.011113 -0.555577 1.986267 0.061897 -0.030807 -373677.000000 0 0 1
29.671049 -18.668819 -16.964578 38.944741 -0.561609 2.021508 0.050560 -0.027926 -415922.000000 0 0 1
28.755949 -17.434519 -16.895578 37.634128 -0.545034 2.036378 0.053187 -0.021611 -756401.000000 0 0 1
27.774849 -17.552419 -15.947378 36.521891 -0.563584 2.022671 0.075306 -0.038833 -793796.000000 0 0 1
27.123749 -16.354019 -15.650178 35.328172 -0.542579 2.029732 0.058309 -0.028520 -718975.000000 0 0 1
25.752149 -16.589019 -14.890178 34.060037 -0.572273 2.023251 0.062288 -0.038776 666726.000000 0 0 1
24.708849 -16.976919 -15.747578 33.863390 -0.602001 2.054468 0.076297 -0.037021 96061.600000 0 0 1
24.309649 -16.010619 -16.708378 33.562909 -0.582405 2.091883 0.076425 -0.030375 -1395320.000000 0 0 1
23.193549 -16.545219 -17.626178 33.501748 -0.619632 2.124836 0.071576 -0.028794 -326284.000000 0 0 1
21.963449 -16.851019 -17.034778 32.504363 -0.654437 2.122427 0.069992 -0.023457 -537367.000000 0 0 1
21.072249 -17.136619 -18.089878 32.633527 -0.682757 2.158359 0.069720 -0.022289 695166.000000 0 0 1
19.602649 -17.493719 -17.663778 31.659171 -0.728609 2.162692 0.066337 -0.021281 918002.000000 0 0 1
18.741949 -16.386219 -17.465378 30.410660 -0.718437 2.182567 0.074697 -0.026954 1082100.000000 0 0 1
17.372449 -16.831019 -17.547778 29.883268 -0.769570 2.198405 0.085107 -0.026490 1372330.000000 0 0 1
16.247149 -15.838719 -17.089378 28.405663 -0.772670 2.216322 0.093894 -0.020477 204593.000000 0 0 1
15.654449 -15.148419 -18.165978 28.364399 -0.768972 2.265880 0.092266 -0.016399 -316059.000000 0 0 1
14.503949 -14.478319 -17.782678 27.133188 -0.784514 2.285488 0.105335 -0.015239 -580319.000000 0 0 1
13.602049 -14.091519 -18.955478 27.256133 -0.803071 2.339853 0.094689 -0.022279 -252470.000000 0 0 1
13.996249 -12.944319 -19.657378 27.383624 -0.746372 2.371508 0.100771 -0.029278 501560.000000 0 0 1
13.127249 -12.656819 -20.769078 27.638277 -0.767155 2.421070 0.101331 -0.022530 338181.000000 0 0 1
13.332049 -11.216619 -21.188578 27.431951 -0.699438 2.453416 0.092636 -0.020952 -240316.000000 0 0 1
14.591649 -11.012019 -21.803678 28.453140 -0.646489 2.443861 0.076925 -0.014085 -93894.300000 0 0 1
14.779149 -9.672019 -22.168878 28.344847 -0.579488 2.468846 0.063737 -0.017961 -837318.000000 0 0 1
16.146649 -9.498919 -22.759378 29.477670 -0.531765 2.452918 0.059996 -0.021793 -887072.000000 0 0 1
16.077649 -9.862319 -24.135178 30.631078 -0.550227 2.478238 0.087203 -0.024149 290041.000000 0 0 1
17.230549 -9.355919 -24.784078 31.601828 -0.497441 2.472300 0.078733 -0.031816 -50455.600000 0 0 1
22.124649 4.619881 -6.958578 23.648789 0.205854 1.869464 0.134935 0.014569 -35939.100000 0 1 0
21.964349 5.978181 -7.205378 23.876532 0.265739 1.877352 0.127945 0.016164 600972.000000 0 1 0
21.772549 6.631381 -5.963778 23.528403 0.295649 1.827064 0.128317 0.009833 -396093.000000 0 1 0
21.557849 8.153981 -6.116478 23.846165 0.361606 1.830193 0.108564 0.013404 -603683.000000 0 1 0
20.308349 8.400781 -6.707078 22.977969 0.392228 1.867000 0.066184 -0.004817 303305.000000 0 1 0
19.965149 9.758781 -7.001878 23.299513 0.454640 1.876030 0.064146 -0.002933 10659.100000 0 1 0
19.562549 10.649281 -5.747678 23.002963 0.498511 1.823339 0.096360 -0.007038 185979.000000 0 1 0
20.700949 11.079481 -5.006778 24.007333 0.491422 1.780891 0.109457 0.000469 735505.000000 0 1 0
20.257549 12.018981 -4.027978 23.896628 0.535485 1.740163 0.126491 -0.016490 157972.000000 0 1 0
21.408749 12.332281 -3.080378 24.897960 0.522615 1.694834 0.127685 -0.028984 -617480.000000 0 1 0
22.530049 13.008181 -3.599778 26.263555 0.523614 1.708293 0.116242 -0.026403 688805.000000 0 0 1
23.580549 13.364581 -2.718478 27.240493 0.515622 1.670758 0.127141 -0.030536 463392.000000 0 0 1
24.363349 12.248781 -1.969678 27.340173 0.465849 1.642902 0.123542 -0.029723 -645649.000000 0 0 1
25.564049 11.813581 -2.587178 28.280290 0.432885 1.662408 0.114354 -0.025893 259505.000000 0 0 1
26.270849 10.909181 -1.807278 28.503228 0.393590 1.634245 0.131892 -0.027496 -914279.000000 0 0 1
27.660249 10.571081 -2.300178 29.700639 0.365047 1.648319 0.120891 -0.026608 -726245.000000 0 0 1
28.534149 11.698081 -2.188078 30.916508 0.389070 1.641629 0.105701 -0.032994 646891.000000 0 0 1
29.883249 11.245681 -2.237978 32.007538 0.359928 1.640774 0.094718 -0.028814 574975.000000 0 0 1
31.002349 12.257381 -1.896178 33.391384 0.376508 1.627613 0.072605 -0.033836 -173662.000000 0 0 1
30.764049 12.790581 -0.599778 33.322446 0.394022 1.588797 0.108544 -0.036479 753813.000000 0 0 1
31.774849 13.677281 -0.108478 34.593653 0.406472 1.573932 0.093954 -0.043118 201765.000000 0 0 1
33.163849 13.082481 0.288622 35.652146 0.375739 1.562701 0.102607 -0.042917 910248.000000 0 0 1
34.195149 14.061781 0.567622 36.977887 0.390143 1.555445 0.104376 -0.051070 261324.000000 0 0 1
35.004549 14.426381 -0.482778 37.863862 0.390918 1.583547 0.126148 -0.035734 -1004950.000000 0 0 1
34.574049 15.461781 -1.562678 37.906115 0.420529 1.612033 0.080605 -0.017759 -414507.000000 0 0 1
33.583149 15.025981 -2.482078 36.875042 0.420712 1.638158 0.082986 -0.016854 -276084.000000 0 0 1
33.199449 16.138681 -3.202578 37.052894 0.452476 1.657337 0.063754 -0.001388 -487039.000000 0 0 1
31.866749 15.934181 -3.914378 35.842854 0.463668 1.680224 0.061127 -0.016770 -1270870.000000 0 0 1
31.908149 14.968881 -4.979878 35.594895 0.438643 1.711161 0.039397 -0.016353 -297730.000000 0 0 1
30.728949 14.853781 -5.724478 34.607409 0.450264 1.736972 0.034865 -0.026241 -347655.000000 0 0 1
29.526449 14.261081 -4.981078 33.166260 0.449950 1.721552 0.043648 -0.025943 74389.000000 0 0 1
28.291749 14.112181 -5.705578 32.126786 0.462694 1.749339 0.074682 -0.035622 1196040.000000 0 0 1
27.315249 13.347781 -5.016178 30.813116 0.454532 1.734318 0.078189 -0.016371 -69084.900000 0 0 1
26.075849 12.974381 -5.822078 29.701533 0.461696 1.768093 0.074742 -0.015844 -551971.000000 0 0 1
26.250649 11.883981 -6.749778 29.595356 0.425107 1.800890 0.072422 -0.008307 328242.000000 0 0 1
25.310749 11.725681 -7.822778 28.971046 0.433833 1.844211 0.093811 -0.011297 178785.000000 0 0 1
25.064849 12.858981 -8.849178 29.528089 0.474016 1.875161 0.105431 -0.013725 -267645.000000 0 0 1
24.477049 14.015481 -8.333978 29.411135 0.520026 1.858094 0.099295 -0.023316 -12634.300000 0 0 1
24.456649 15.073781 -9.334678 30.207330 0.552353 1.884959 0.105828 -0.029952 -1103260.000000 0 0 1
23.376349 16.134481 -9.088778 29.822493 0.604122 1.880485 0.096662 -0.020011 -3421.590000 0 0 1
22.036249 15.787781 -9.352178 28.676010 0.621678 1.903006 0.121515 -0.021708 446341.000000 0 0 1
21.441749 15.067781 -8.229778 27.468453 0.612556 1.875078 0.130375 -0.032903 33841.700000 0 0 1
19.939149 14.711481 -8.493178 26.194111 0.635660 1.901005 0.151748 -0.014384 519460.000000 0 0 1
19.187449 14.663981 -7.300278 25.228647 0.652558 1.864359 0.191886 -0.051795 265638.000000 0 0 1
17.806549 14.444481 -7.553078 24.140531 0.681527 1.889020 0.183378 -0.052511 358239.000000 0 1 0
16.905049 14.924681 -6.375578 23.434479 0.723261 1.846329 0.170835 -0.032389 -19121.000000 0 1 0
16.705749 13.970781 -5.360778 22.427722 0.696478 1.812158 0.133371 -0.031783 428693.000000 0 1 0
16.118549 14.536581 -4.174978 22.103173 0.733839 1.760824 0.110460 -0.021287 -102880.000000 0 1 0
15.862849 13.661281 -2.993278 21.147584 0.710967 1.712816 0.077963 -0.011812 -641507.000000 0 1 0
17.007349 13.156181 -2.353878 21.630436 0.658409 1.679835 0.072970 -0.012752 231933.000000 0 1 0
16.778249 12.447281 -1.144078 20.922557 0.638278 1.625505 0.061309 -0.011990 -133258.000000 0 1 0
16.632849 13.411981 0.090822 21.366824 0.678604 1.566546 0.052640 -0.012769 1019220.000000 0 1 0
15.407949 14.217681 0.087522 20.965567 0.745243 1.566622 0.047005 -0.016375 1487430.000000 0 1 0
15.527049 15.071481 1.177922 21.670863 0.770511 1.516414 0.043218 -0.013690 723455.000000 0 1 0
14.282349 16.043481 1.324222 21.520510 0.843407 1.509224 0.049484 -0.004488 548555.000000 0 1 0
14.331949 17.127981 0.343922 22.335863 0.874041 1.555398 0.057863 -0.006277 -102832.000000 0 1 0
13.617349 18.208181 0.790122 22.750700 0.928660 1.536060 0.054142 -0.007251 -523499.000000 0 1 0
13.601549 19.414381 -0.163978 23.705426 0.959674 1.577714 0.044619 -0.003410 -750001.000000 0 1 0
12.918949 19.288481 -1.338778 23.253754 0.980645 1.628401 0.037405 -0.016020 -29988.400000 0 1 0
12.147049 20.456581 -1.601378 23.845061 1.034951 1.638005 0.038959 -0.015499 674646.000000 0 1 0
10.654749 20.480781 -1.150278 23.115130 1.091095 1.620580 0.033256 -0.018607 211522.000000 0 1 0
10.400449 20.597881 0.240422 23.075959 1.103214 1.560377 0.022855 -0.014251 137191.000000 0 1 0
9.000049 20.460681 0.391422 22.356064 1.156398 1.553287 0.017838 -0.014074 239288.000000 0 1 0
8.486949 20.226381 1.826722 22.010718 1.173510 1.487708 0.007097 -0.013616 -36727.500000 0 1 0
8.412849 21.446881 2.498222 23.172955 1.196976 1.462779 0.004510 -0.004363 -461827.000000 0 1 0
7.379849 21.522081 3.406622 23.005809 1.240464 1.422173 0.001568 -0.010168 -512686.000000 0 1 0
7.099549 22.954581 3.847122 24.333449 1.270841 1.412030 0.003706 -0.004229 19657.900000 0 1 0
7.867349 23.390081 4.933122 25.165985 1.246330 1.373495 0.017543 -0.014123 35035.900000 0 0 1
7.385549 24.625981 5.408922 26.272452 1.279423 1.363435 0.016304 -0.012235 -35816.200000 0 0 1
7.886149 25.013481 6.823822 27.100372 1.265384 1.316259 0.023763 -0.020903 118633.000000 0 0 1
7.222049 24.236181 7.799822 26.464839 1.281188 1.271630 0.031809 -0.026214 48321.800000 0 0 1
7.815149 24.405981 9.053422 27.178906 1.260899 1.231202 0.040133 -0.027433 -292477.000000 0 0 1
7.426949 23.369481 10.109622 26.523512 1.263085 1.179749 0.048351 -0.026562 -118100.000000 0 0 1
6.113249 23.609681 10.553622 26.573818 1.317431 1.162394 0.046715 -0.024167 -192714.000000 0 0 1
5.628949 22.656981 11.448022 26.001559 1.327284 1.114883 0.043272 -0.021725 -474626.000000 0 0 1
4.226349 22.973281 11.954522 26.240127 1.388863 1.097771 0.048096 -0.028527 -338471.000000 0 0 1
3.274849 23.102481 10.909522 25.757852 1.429981 1.133445 0.039916 -0.025942 -273453.000000 0 0 1
2.012449 23.320981 11.473022 26.068148 1.484716 1.115068 0.044939 -0.025819 71300.700000 0 0 1
0.818949 23.576281 10.514922 25.827801 1.536074 1.151502 0.048280 -0.018144 -13905.900000 0 0 1
0.933349 24.832881 9.936222 26.763252 1.533229 1.190427 0.042350 -0.014795 -17622.000000 0 0 1
0.028849 25.107281 8.885722 26.633296 1.569647 1.230643 0.038638 -0.011382 433722.000000 0 0 1
-1.276051 25.806581 9.370622 27.484841 -1.521390 1.222882 0.053108 -0.022325 693806.000000 0 0 1
-2.113851 25.002681 10.230322 27.097268 -1.486452 1.183657 0.064565 -0.023206 -420174.000000 0 0 1
-3.419851 25.465981 10.225722 27.654601 -1.437304 1.192040 0.077338 -0.026464 -673825.000000 0 0 1
-4.472651 24.512881 10.868722 27.184832 -1.390320 1.159489 0.083432 -0.031809 258509.000000 0 0 1
-4.645251 24.573781 12.300622 27.870314 -1.383968 1.113691 0.065689 -0.026873 261662.000000 0 0 1
-5.587051 25.583881 12.674922 29.093019 -1.355790 1.120015 0.079606 -0.027925 151977.000000 0 0 1
-6.318351 25.443081 14.040022 29.738765 -1.327387 1.079112 0.055549 -0.030906 -330431.000000 0 0 1
-7.247751 24.400581 14.009422 29.054813 -1.282065 1.067664 0.058514 -0.034619 -451910.000000 0 0 1
-7.754451 24.332181 15.321922 29.781670 -1.262281 1.030401 0.031406 -0.013031 1265840.000000 0 0 1
-9.127051 23.503481 15.468022 29.580000 -1.200393 1.020521 0.028899 -0.020613 932328.000000 0 0 1
-10.263251 24.196081 15.028322 30.275983 -1.169629 1.051375 0.025225 -0.015664 574990.000000 0 0 1
-11.395451 23.314481 15.362022 30.156476 -1.116172 1.036297 0.033790 -0.018710 1415960.000000 0 0 1
-12.793751 23.970981 15.124922 31.097448 -1.080539 1.062864 0.037234 -0.023308 314155.000000 0 0 1
-13.171151 24.948681 16.105922 32.485637 -1.085055 1.052057 0.020943 -0.023514 84946.200000 0 0 1
-14.192551 25.768481 15.566922 33.283212 -1.067361 1.084097 0.018799 -0.013479 -167315.000000 0 0 1
-14.839751 26.746781 16.563622 34.784509 -1.064257 1.074493 0.024758 -0.010493 34557.500000 0 0 1
-15.847851 26.109981 17.323322 35.113858 -1.025271 1.054863 0.021380 -0.018606 -171863.000000 0 0 1
-16.357251 26.952681 18.322022 36.465095 -1.025328 1.044362 0.047824 -0.019436 -506718.000000 0 0 1
-17.564651 26.371581 19.038422 36.965373 -0.983224 1.029749 0.037096 -0.025264 119294.000000 0 0 1
-18.766051 26.552181 18.290622 37.305896 -0.955547 1.058377 0.034249 -0.014726 202076.000000 0 0 1
-19.934351 26.002081 18.867022 37.808082 -0.916728 1.048328 0.040062 -0.015628 220352.000000 0 0 1
-21.171751 26.405281 18.045622 38.355266 -0.894959 1.080955 0.052013 -0.020257 -383215.000000 0 0 1
-21.626051 27.744581 18.182922 39.598820 -0.908700 1.093726 0.041252 -0.022096 599472.000000 0 0 1
-22.255051 28.184081 16.924622 39.699780 -0.902409 1.130381 0.067130 -0.020140 56431.700000 0 0 1
-23.357651 29.243781 17.059422 41.131527 -0.896835 1.143125 0.057105 -0.025233 1822.660000 0 0 1
-24.559751 28.687081 17.586222 41.658195 -0.862757 1.134975 0.054768 -0.024029 895547.000000 0 0 1
-25.575441 29.724281 17.533122 42.954004 -0.860282 1.150333 0.058565 -0.029242 559309.000000 0 0 1
-26.993551 29.344581 17.988622 43.741819 -0.827105 1.146976 0.074891 -0.027488 -197836.000000 0 0 1
-27.792101 28.557281 17.116222 43.369162 -0.798977 1.165095 0.096141 -0.021540 1632310.000000 0 0 1
-29.163721 28.467981 17.622022 44.401399 -0.773327 1.162681 0.137195 -0.031018 1524080.000000 0 0 1
-29.502461 27.245081 18.543422 44.232885 -0.745640 1.138208 0.125195 -0.029932 -604048.000000 0 0 1
-29.576611 25.994181 17.897122 43.252518 -0.721021 1.144192 0.137381 -0.028951 184823.000000 0 0 1
-29.850411 25.039281 18.889522 43.299269 -0.697971 1.119364 0.132122 -0.020604 -60716.300000 0 0 1
-30.196231 23.651981 18.239722 42.472533 -0.664460 1.126915 0.134172 -0.029601 871874.000000 0 0 1
-31.490301 23.570781 17.592722 43.089728 -0.642546 1.150226 0.157236 -0.031918 904099.000000 0 0 1
-31.569411 22.684281 16.537222 42.245521 -0.623069 1.168584 0.150564 -0.040941 1991.770000 0 0 1
-31.762981 21.156681 16.808122 41.701380 -0.587596 1.155939 0.139140 -0.040591 1094180.000000 0 0 1
-33.139921 20.881481 17.168622 42.767420 -0.562259 1.157706 0.143349 -0.032020 1154700.000000 0 0 1
-33.526211 19.548781 16.815822 42.295786 -0.527892 1.161922 0.129955 -0.030761 -313670.000000 0 0 1
-34.928010 19.322981 16.266622 43.103903 -0.505314 1.183829 0.127454 -0.042015 -499272.000000 0 0 1
-35.023861 19.831481 14.933722 42.929879 -0.515217 1.215505 0.095800 -0.035265 132475.000000 0 0 1
-36.152161 19.318281 14.252222 43.397011 -0.490757 1.236172 0.109114 -0.031925 41158.700000 0 0 1
-36.234291 19.762181 12.767922 43.202864 -0.499305 1.270782 0.091910 -0.020047 -79230.000000 0 0 1
-36.428591 21.188781 12.577722 43.979606 -0.526819 1.280757 0.067389 -0.024082 21438.500000 0 0 1
-36.406811 21.645081 11.241322 43.821601 -0.536391 1.311371 0.034844 -0.018538 196484.000000 0 0 1
-35.234635 21.231481 10.304222 42.407927 -0.542310 1.325361 0.065941 -0.023544 -183212.000000 0 0 1
-35.446967 19.971081 9.689022 41.823542 -0.513078 1.337008 0.075881 -0.020821 366360.000000 0 0 1
-34.256107 19.464181 9.097522 40.436371 -0.516706 1.343870 0.099116 -0.025218 -22268.100000 0 0 1
-33.430271 18.450281 9.981522 39.466779 -0.504303 1.315110 0.080421 -0.035492 25887.400000 0 0 1
-33.016971 19.002581 11.230022 39.715637 -0.522240 1.284125 0.088074 -0.035464 198400.000000 0 0 1
-32.485331 17.930681 12.006622 38.999552 -0.504349 1.257847 0.101086 -0.049050 -295102.000000 0 0 1
-32.030101 18.366381 13.383022 39.272848 -0.520639 1.223060 0.087749 -0.027927 -108938.000000 0 0 1
-30.780311 19.006381 13.380922 38.570962 -0.553177 1.216514 0.108339 -0.033607 -284985.000000 0 0 1
-30.951041 20.376981 13.168922 39.326948 -0.582231 1.229342 0.120824 -0.030447 84687.000000 0 0 1
-29.606781 21.141181 13.245422 38.716304 -0.620104 1.221630 0.134655 -0.042352 49570.800000 0 0 1
-29.065471 21.131081 14.522622 38.758622 -0.628629 1.186730 0.121850 -0.035232 -322769.000000 0 0 1
-27.822521 21.790981 14.554222 38.219954 -0.664421 1.180133 0.145150 -0.038305 7478.030000 0 0 1
-27.007951 21.708081 15.885222 38.118375 -0.677033 1.140947 0.122975 -0.040185 -248709.000000 0 0 1
-26.197481 20.582081 15.934722 36.930278 -0.665930 1.124662 0.133646 -0.044883 -237585.000000 0 0 1
-25.684991 20.442381 17.255622 37.085930 -0.672229 1.086837 0.109658 -0.034800 188458.000000 0 0 1
-24.782451 19.224981 17.646222 35.988317 -0.659778 1.058326 0.117738 -0.036846 204612.000000 0 0 1
-24.295951 19.380481 18.976422 36.414295 -0.673327 1.022627 0.106027 -0.036796 222211.000000 0 0 1
-23.655551 18.155081 19.315322 35.528492 -0.654593 0.996008 0.090130 -0.031167 -152613.000000 0 0 1
-23.027451 18.167381 20.731422 35.918089 -0.667963 0.955518 0.087874 -0.027558 15088.700000 0 0 1
-23.966851 18.122381 21.758222 37.097855 -0.647421 0.944055 0.086263 -0.015072 256715.000000 0 0 1
-23.244151 17.650681 22.913322 37.106029 -0.649465 0.905224 0.099370 -0.011253 236280.000000 0 0 1
-24.119151 16.864681 23.883322 37.902031 -0.610205 0.889072 0.110006 -0.014014 -218196.000000 0 0 1
-24.221351 15.493981 23.538722 37.159235 -0.569088 0.884785 0.097975 -0.029920 15995.000000 0 0 1
-25.108521 14.804581 24.397022 38.010895 -0.532755 0.873897 0.103300 -0.032678 -486999.000000 0 0 1
21.395749 24.744881 33.238721 46.635821 0.857856 0.777415 0.081812 -0.016724 -450795.000000 0 0 1
22.408849 23.876581 32.839828 46.375661 0.817098 0.783955 0.087373 -0.026469 -349574.000000 0 0 1
22.305749 22.581281 33.358148 46.045920 0.791536 0.760554 0.091734 -0.031517 -268317.000000 0 0 1
21.199849 21.702381 32.747229 44.640878 0.797111 0.747236 0.092451 -0.035037 -45055.000000 0 0 1
21.439649 21.276581 31.430785 43.591808 0.781581 0.765516 0.104164 -0.028125 -293011.000000 0 0 1
20.528749 20.259881 31.197995 42.487731 0.778807 0.746187 0.095030 -0.022451 -399337.000000 0 0 1
20.824549 19.513881 29.886775 41.323997 0.752918 0.762328 0.088219 -0.015212 225968.000000 0 0 1
21.998549 18.698281 29.884655 41.553033 0.704481 0.768156 0.079765 -0.019537 111930.000000 0 0 1
22.135649 18.161381 28.589645 40.462212 0.687092 0.786148 0.065739 -0.021694 643569.000000 0 0 1
23.333949 17.125781 28.609895 40.697564 0.633145 0.791206 0.085573 -0.024950 944627.000000 0 0 1
24.619749 17.740181 28.623495 41.715112 0.624396 0.814591 0.091609 -0.021758 244231.000000 0 0 1
25.577449 16.730581 28.989145 42.124682 0.579262 0.811826 0.080280 -0.012824 100647.000000 0 0 1
26.971849 17.328781 29.263035 43.406135 0.571068 0.830958 0.087590 -0.021044 -584581.000000 0 0 1
27.662149 17.401281 28.076735 43.084825 0.561517 0.861023 0.068166 -0.013185 226181.000000 0 0 1
28.984849 17.913481 28.288285 44.285905 0.553571 0.877904 0.082914 -0.011110 576310.000000 0 0 1
30.024549 17.642481 27.204935 44.190940 0.531253 0.907621 0.062700 -0.000497 -280757.000000 0 0 1
30.021649 18.413581 26.023735 43.790344 0.550173 0.934426 0.080100 -0.007632 -292194.000000 0 0 1
30.994649 17.944381 25.134535 43.754017 0.524798 0.958863 0.075672 0.004324 -576503.000000 0 0 1
31.486549 19.087381 24.188185 44.054503 0.544971 0.989568 0.100674 -0.010928 162300.000000 0 0 1
30.433749 19.820081 23.575145 43.299379 0.577256 0.995041 0.074443 -0.009042 284786.000000 0 0 1
30.978749 20.848981 22.741935 43.721374 0.592381 1.023763 0.066870 -0.018630 130323.000000 0 0 1
31.577549 20.417581 21.363635 43.248401 0.573971 1.054141 0.084825 -0.028525 -223431.000000 0 0 1
30.709549 19.529881 20.722635 41.879832 0.566438 1.053178 0.094048 -0.028824 -90709.400000 0 0 1
31.195549 18.992781 19.492635 41.398682 0.546887 1.080541 0.106693 -0.036668 374561.000000 0 0 1
32.167649 17.752281 19.712135 41.694957 0.504276 1.078364 0.132129 -0.051219 446122.000000 0 0 1
31.480349 16.538181 20.029535 40.813063 0.483721 1.057831 0.134185 -0.050773 776760.000000 0 0 1
32.370749 15.396381 20.174335 41.132928 0.443959 1.058171 0.131589 -0.051154 -175062.000000 0 0 1
31.664549 14.039781 20.377935 40.187304 0.417344 1.039010 0.130708 -0.044631 103179.000000 0 0 1
31.105149 13.703081 21.635435 40.291399 0.414960 1.003950 0.099289 -0.048290 703115.000000 0 0 1
29.914749 14.429181 21.972035 39.822906 0.449423 0.986343 0.100681 -0.039592 -28126.000000 0 0 1
29.168849 13.843581 23.186435 39.750186 0.443123 0.948006 0.061563 -0.023044 -165508.000000 0 0 1
28.585049 12.631881 22.866245 38.723825 0.416102 0.939124 0.068176 -0.023747 -115786.000000 0 0 1
27.962749 12.049881 23.997785 38.768656 0.406879 0.903328 0.049869 -0.018062 -71406.500000 0 0 1
27.447149 10.598081 23.808145 37.848291 0.368490 0.890477 0.079796 -0.012385 173648.000000 0 0 1
26.411349 10.711881 22.818035 36.509814 0.385306 0.895686 0.058181 -0.003012 234368.000000 0 0 1
26.121249 9.490681 22.213335 35.578434 0.348502 0.896499 0.072316 -0.001543 -778520.000000 0 0 1
24.926749 9.424781 21.284035 34.105417 0.361485 0.896861 0.066969 -0.001385 -704181.000000 0 0 1
23.710649 9.615381 21.984035 33.733489 0.385265 0.860976 0.058706 -0.003999 -277139.000000 0 0 1
22.702549 9.203781 21.099735 32.331319 0.385159 0.859773 0.051685 0.005590 -825357.000000 0 0 1
21.296049 9.248181 21.688135 31.771462 0.409694 0.819441 0.051545 -0.003639 -437415.000000 0 0 1
21.018449 8.313381 22.697235 32.032047 0.376645 0.783314 0.071714 -0.003894 1296790.000000 0 0 1
19.608349 8.206781 23.021065 31.333817 0.396382 0.745567 0.071549 -0.001653 1167560.000000 0 0 1
19.422249 7.534881 24.383025 32.070705 0.370076 0.707037 0.080367 0.001797 -78281.900000 0 0 1
19.818549 6.214781 24.403695 32.045885 0.303872 0.705136 0.078171 -0.002527 181356.000000 0 0 1
19.499349 5.770881 25.730035 32.795768 0.287739 0.668821 0.102517 -0.016774 -119490.000000 0 0 1
19.978749 4.348381 25.998075 33.075047 0.214308 0.666431 0.099604 -0.021860 1201330.000000 0 0 1
21.417249 4.244881 25.847325 33.834920 0.195663 0.701423 0.110788 -0.012466 1057000.000000 0 0 1
21.758849 2.876081 25.741775 33.828366 0.131418 0.706017 0.083554 -0.007782 759977.000000 0 0 1
23.299749 2.650081 25.509415 34.650130 0.113252 0.743359 0.092556 -0.015736 984167.000000 0 0 1
24.073149 3.062281 26.648755 36.042340 0.126528 0.738657 0.107924 -0.026628 11723.400000 0 0 1
25.424049 3.104981 26.246025 36.672565 0.121526 0.773191 0.108688 -0.031863 -8419.240000 0 0 1
26.406049 3.174381 27.444555 38.217270 0.119640 0.769700 0.086982 -0.038569 -274429.000000 0 0 1
26.814049 1.932681 28.035885 38.842494 0.071953 0.764420 0.077077 -0.040571 283208.000000 0 0 1
27.681849 2.027281 29.158265 40.256665 0.073105 0.760765 0.086955 -0.025136 1946570.000000 0 0 1
29.213049 2.443081 28.943945 41.196151 0.083436 0.791768 0.093012 -0.027839 707636.000000 0 0 1
29.369349 3.763981 28.492255 41.091786 0.127465 0.804626 0.076811 -0.014954 99988.600000 0 0 1
30.705549 4.068281 28.147825 41.853097 0.131726 0.833163 0.065238 -0.012443 -117401.000000 0 0 1
31.295149 3.418181 26.881765 41.396855 0.108793 0.864044 0.065949 -0.010743 -939555.000000 0 0 1
30.618749 3.686581 25.701245 40.145394 0.119826 0.876032 0.053796 -0.011270 -105422.000000 0 0 1
30.633749 2.555481 24.928715 39.577745 0.083228 0.889414 0.062503 0.014267 -13746.700000 0 0 1
30.082149 2.833481 23.496975 38.276261 0.093914 0.909832 0.064325 0.003862 579353.000000 0 0 1
30.929349 3.645481 22.648935 38.508291 0.117324 0.942018 0.069943 -0.001134 575115.000000 0 0 1
32.122449 3.047881 22.144935 39.134888 0.094600 0.969318 0.062264 -0.000941 876385.000000 0 0 1
33.115549 4.123981 21.564935 39.732773 0.123895 0.997089 0.081197 -0.009933 -271076.000000 0 0 1
32.683849 4.556381 20.318935 38.753758 0.138515 1.018893 0.078486 -0.010461 11168.000000 0 0 1
33.381549 5.659081 19.851235 39.248243 0.167931 1.040503 0.083803 -0.006215 1264290.000000 0 0 1
34.969549 5.728581 19.697735 40.542407 0.162374 1.063455 0.068263 -0.008277 1569840.000000 0 0 1
35.807049 5.742481 20.907235 41.859686 0.159019 1.047821 0.073163 -0.009363 933013.000000 0 0 1
35.758049 6.955581 21.623035 42.362411 0.192119 1.035112 0.085018 -0.016149 -428714.000000 0 0 1
36.311249 6.773281 23.049105 43.539010 0.184415 1.012915 0.068543 -0.010350 161993.000000 0 0 1
35.524049 5.838081 23.778385 43.144558 0.162886 0.987075 0.064025 -0.002522 587725.000000 0 0 1
36.205549 5.548981 24.991965 44.342207 0.152080 0.972040 0.074281 -0.007442 444326.000000 0 0 1
35.468549 4.442581 25.808855 44.089132 0.124605 0.945449 0.068331 -0.004904 242006.000000 0 0 1
35.535249 3.126681 25.230455 43.693317 0.087762 0.955201 0.069921 -0.007512 -197429.000000 0 0 1
34.752549 2.230981 25.945435 43.426749 0.064108 0.930475 0.070563 -0.014926 -309841.000000 0 0 1
34.690349 0.801281 25.425885 43.017880 0.023094 0.938432 0.061043 -0.008233 -178863.000000 0 0 1
33.800549 0.673681 24.357985 41.668242 0.019928 0.946447 0.073376 -0.009277 -279884.000000 0 0 1
33.974749 -0.555719 23.711055 41.434364 -0.016355 0.961542 0.064585 -0.006718 267522.000000 0 0 1
32.723849 -1.025619 22.917995 39.964193 -0.031331 0.960069 0.074204 -0.006464 125177.000000 0 0 1
31.653449 -1.436219 23.728065 39.585662 -0.045342 0.928032 0.072681 0.003064 -158308.000000 0 0 1
30.625549 -2.094519 22.998425 38.356731 -0.068285 0.927804 0.076489 -0.003616 440026.000000 0 0 1
29.179749 -1.816919 23.437625 37.471072 -0.062186 0.895042 0.043647 0.005251 -205648.000000 0 0 1
28.694849 -0.519419 23.233365 36.924970 -0.018099 0.890267 0.046235 0.008322 309930.000000 0 0 1
27.273149 -0.597019 23.139245 35.771578 -0.021887 0.867335 0.060738 0.005046 520133.000000 0 0 1
26.497449 0.711881 22.970775 35.075320 0.026860 0.856748 0.059279 0.008629 -98904.600000 0 0 1
26.704949 1.277381 21.691535 34.428313 0.047797 0.889180 0.054997 0.001416 82990.000000 0 0 1
25.889049 2.426081 21.637835 33.827868 0.093438 0.876760 0.073603 0.000927 -26831.200000 0 0 1
26.014849 3.275081 20.331235 33.179175 0.125234 0.911234 0.073377 0.000112 21468.700000 0 0 1
25.472149 2.661681 19.142335 31.974113 0.104116 0.928941 0.064941 0.004039 219086.000000 0 0 1
25.272149 3.635781 18.135135 31.317464 0.142885 0.953204 0.082589 -0.006619 5547.640000 0 0 1
24.707149 3.017281 16.829335 30.046193 0.121520 0.976271 0.081818 -0.008897 -199898.000000 0 0 1
25.668949 2.490781 15.955535 30.326194 0.096732 1.016752 0.088339 -0.017424 59770.900000 0 0 1
25.310949 2.617981 14.562435 29.318296 0.103066 1.051002 0.100429 -0.029510 -246620.000000 0 0 1
24.373949 1.563381 13.980535 28.142298 0.064054 1.050912 0.105956 -0.007063 -128564.000000 0 0 1
23.032749 1.554781 14.423035 27.220375 0.067401 1.012359 0.102108 -0.000051 294790.000000 0 0 1
22.307549 0.551781 13.708435 26.188784 0.024730 1.019905 0.113856 -0.011127 -93371.000000 0 0 1
20.790349 0.551781 14.071435 25.110722 0.026534 0.975957 0.095968 -0.027334 105497.000000 0 0 1
19.874649 1.284881 13.276335 23.935615 0.064559 0.982832 0.116594 -0.024585 596259.000000 0 1 0
19.776949 1.079281 11.873635 23.092765 0.054519 1.030755 0.118834 -0.019116 -1305790.000000 0 1 0
19.534049 -0.370219 11.366035 22.603161 -0.018950 1.043902 0.114042 -0.012380 77032.400000 0 1 0
20.637349 -1.287219 11.350435 23.587910 -0.062293 1.068776 0.131866 -0.032876 1420820.000000 0 1 0
21.730549 -0.859919 10.500835 24.150026 -0.039551 1.120962 0.137973 -0.028558 -596493.000000 0 1 0
22.910149 -1.792019 10.512135 25.270363 -0.078060 1.141769 0.169592 -0.052315 -720846.000000 0 0 1
23.739649 -1.602919 11.641435 26.488928 -0.067418 1.115773 0.158224 -0.052244 25829.100000 0 0 1
24.788349 -2.524419 11.676435 27.516796 -0.101489 1.132565 0.107410 -0.050412 -205756.000000 0 0 1
25.463049 -2.734419 13.049435 28.742506 -0.106978 1.099534 0.115608 -0.032032 -81538.700000 0 0 1
26.181249 -1.624519 13.483535 29.494111 -0.061969 1.095997 0.107771 -0.029565 -67921.700000 0 0 1
26.305849 -1.558519 14.902335 30.273855 -0.059177 1.056122 0.087466 -0.019621 120832.000000 0 0 1
27.318549 -0.485119 15.417235 31.372434 -0.017756 1.057070 0.125240 -0.021244 -351874.000000 0 0 1
28.632749 -0.883619 15.180235 32.419973 -0.030851 1.083502 0.126478 -0.017542 -977452.000000 0 0 1
29.529749 0.034381 15.677735 33.433496 0.001164 1.082725 0.105841 -0.021744 -988073.000000 0 0 1
30.916049 -0.487719 15.984935 34.807443 -0.015774 1.093658 0.103730 -0.017444 -349490.000000 0 0 1
31.691949 -0.729519 14.790635 34.981062 -0.023015 1.134243 0.130094 -0.024493 829635.000000 0 0 1
33.053449 -0.998519 15.146335 36.372229 -0.030200 1.141286 0.126640 -0.031562 556447.000000 0 0 1
33.810949 -1.684219 14.004435 36.635244 -0.049772 1.178548 0.126977 -0.044166 -269364.000000 0 0 1
33.910849 -0.961219 12.785035 36.253645 -0.028338 1.210389 0.132311 -0.053301 306398.000000 0 0 1
34.756049 -1.825819 12.045735 36.829557 -0.052484 1.237598 0.128402 -0.053832 -67010.300000 0 0 1
34.643549 -1.648719 10.495135 36.235916 -0.047555 1.276952 0.161188 -0.039741 241705.000000 0 0 1
35.307149 -0.450319 10.097835 36.725520 -0.012754 1.292254 0.127549 -0.037793 1594220.000000 0 0 1
34.229549 0.512981 9.839335 35.619345 0.014985 1.290921 0.130166 -0.043679 964694.000000 0 0 1
34.754149 1.892181 9.329835 36.034387 0.054391 1.308898 0.125214 -0.045094 -107635.000000 0 0 1
35.416749 1.748581 8.097735 36.372750 0.049332 1.346283 0.116662 -0.037346 156916.000000 0 0 1
35.607749 3.084781 7.602635 36.540768 0.086417 1.361206 0.110372 -0.031636 -116441.000000 0 0 1
35.907249 3.167981 6.089935 36.557543 0.087999 1.403431 0.114545 -0.028240 52314.500000 0 0 1
36.207849 4.530581 5.700535 36.932785 0.124480 1.415828 0.094850 -0.005383 161356.000000 0 0 1
36.514849 4.716381 4.348435 37.074079 0.128452 1.453235 0.136797 -0.009488 39335.800000 0 0 1
36.978049 6.154581 3.904635 37.689537 0.164927 1.467010 0.147098 -0.020068 637986.000000 0 0 1
35.923249 7.135381 4.058035 36.849167 0.196076 1.460447 0.145230 -0.030047 377428.000000 0 0 1
36.274549 8.448781 3.675635 37.426396 0.228832 1.472428 0.139871 -0.034198 278255.000000 0 0 1
35.036749 9.432681 3.520435 36.454667 0.262987 1.474075 0.157984 -0.038241 1483980.000000 0 0 1
33.991649 9.159681 2.572435 35.298008 0.263216 1.497854 0.180469 -0.047392 1126420.000000 0 0 1
33.180649 7.957081 2.785135 34.234889 0.235366 1.489353 0.188371 -0.043433 747437.000000 0 0 1
31.825349 8.013981 1.994535 32.879400 0.246683 1.510097 0.204861 -0.051849 626490.000000 0 0 1
32.112349 7.976681 0.595735 33.093584 0.243471 1.552794 0.208310 -0.047534 791340.000000 0 0 1
30.901349 8.001081 -0.177565 31.920874 0.253359 1.576359 0.193823 -0.035435 525376.000000 0 0 1
31.154349 7.674681 -1.657865 32.128534 0.241535 1.622420 0.148034 -0.033631 41709.300000 0 0 1
30.072949 6.937081 -2.240465 30.943902 0.226710 1.643264 0.165835 -0.032593 1099220.000000 0 0 1
30.426549 6.691181 -3.620265 31.363245 0.216467 1.686484 0.150175 -0.029847 -543.108000 0 0 1
29.349649 5.966881 -4.478965 30.283109 0.200570 1.719244 0.167958 -0.019422 -218872.000000 0 0 1
29.249449 4.553081 -4.217665 29.900661 0.154424 1.712324 0.168260 -0.019802 1009530.000000 0 0 1
28.297249 3.880281 -5.070165 29.008576 0.136276 1.746480 0.149123 -0.007712 236116.000000 0 0 1
28.308049 2.318181 -4.965565 28.833599 0.081709 1.743874 0.181006 -0.007180 -270486.000000 0 0 1
27.774349 1.854481 -3.743065 28.086725 0.066671 1.704462 0.188429 -0.015503 412067.000000 0 0 1
27.898949 0.438681 -3.726465 28.150139 0.015723 1.703564 0.184697 -0.025700 -40590.800000 0 0 1
27.821849 -0.179919 -2.286965 27.916265 -0.006467 1.652811 0.180541 -0.023389 407610.000000 0 0 1
29.163349 -0.066219 -1.835265 29.221114 -0.002271 1.633644 0.168409 -0.025569 635867.000000 0 0 1
29.209749 -0.026219 -0.409665 29.212633 -0.000898 1.584820 0.182019 -0.020109 -279484.000000 0 0 1
30.543349 0.532181 0.102335 30.548156 0.017422 1.567446 0.203324 -0.025775 -474139.000000 0 0 1
31.645349 -0.245519 -0.258065 31.647354 -0.007758 1.578951 0.173442 -0.024073 -966396.000000 0 0 1
32.809949 0.441381 0.020635 32.812924 0.013452 1.570167 0.142350 -0.028263 -687770.000000 0 0 1
-3.542551 -21.477619 -8.581178 23.398171 1.407327 1.946305 0.054537 0.005904 41802.200000 0 1 0
-3.599651 -21.922419 -7.252478 23.369817 1.408049 1.886342 0.057687 -0.001252 -508425.000000 0 1 0
-2.625351 -22.880419 -6.935078 24.052055 1.456554 1.863285 0.068662 -0.006478 -32368.300000 0 1 0
-2.846251 -23.616319 -5.637478 24.446120 1.450854 1.803499 0.068682 -0.002788 -16226.100000 0 1 0
-2.817751 -22.759219 -4.466478 23.363886 1.447616 1.763150 0.055815 -0.008041 -100859.000000 0 1 0
-3.115951 -23.607619 -3.333078 24.044505 1.439566 1.709865 0.067146 -0.009210 114206.000000 0 1 0
-2.801651 -22.953719 -1.979078 23.208602 1.449341 1.656173 0.060440 -0.008725 -114355.000000 0 1 0
-1.439151 -22.888819 -1.645978 22.993008 1.508003 1.642444 0.061080 -0.007139 -660692.000000 0 1 0
-1.186651 -22.462719 -0.317678 22.496284 1.518018 1.584918 0.048809 -0.020690 -269066.000000 0 1 0
0.268349 -22.424619 0.138422 22.426651 -1.558830 1.564624 0.050736 -0.023278 -72363.200000 0 1 0
1.003249 -21.287319 -0.400478 21.314709 -1.523702 1.589586 0.028928 -0.019664 -351327.000000 0 1 0
2.306349 -21.317219 0.084622 21.441787 -1.463024 1.566850 0.024842 -0.018154 -615600.000000 0 1 0
3.201749 -20.192919 -0.426178 20.449616 -1.413547 1.591638 0.029335 -0.018472 265578.000000 0 1 0
3.713049 -20.376819 -1.762378 20.787194 -1.390555 1.655680 0.024360 -0.020462 -636484.000000 0 1 0
4.668549 -19.435719 -2.112978 20.099930 -1.335058 1.676115 0.031404 -0.020157 -523029.000000 0 1 0
5.605749 -19.959119 -3.205478 20.977748 -1.296989 1.724201 0.029780 -0.016957 -908237.000000 0 1 0
6.590349 -20.930719 -2.817278 22.123850 -1.265758 1.698484 0.038086 -0.021565 -40089.800000 0 1 0
7.251549 -21.537819 -3.901078 23.058209 -1.246029 1.740798 0.037095 -0.017206 -699766.000000 0 1 0
8.431649 -20.781419 -4.438278 22.861723 -1.185360 1.766173 0.059074 -0.017573 -1480250.000000 0 1 0
8.195149 -19.642519 -5.212178 21.912458 -1.175538 1.810962 0.035264 -0.015535 -325149.000000 0 1 0
9.170949 -19.482319 -6.218778 22.412948 -1.130836 1.851949 0.051619 -0.002176 -428984.000000 0 1 0
9.129049 -18.111019 -6.975478 21.447746 -1.103906 1.902053 0.046041 -0.003881 397716.000000 0 1 0
10.039349 -17.995219 -8.093578 22.138709 -1.061916 1.945057 0.056611 0.007287 619310.000000 0 1 0
9.859049 -16.682819 -8.665278 21.227443 -1.037043 1.991290 0.053139 0.003009 94698.800000 0 1 0
10.621849 -16.518719 -9.976478 22.027752 -0.999344 2.040817 0.062583 -0.004157 -134643.000000 0 1 0
10.041949 -17.244419 -11.050078 22.810413 -1.043471 2.076509 0.065176 -0.002055 621920.000000 0 1 0
9.098449 -16.378019 -11.739878 22.109862 -1.063719 2.130552 0.042497 -0.014051 892610.000000 0 1 0
8.281949 -17.020019 -12.926278 22.920741 -1.117926 2.169964 0.053824 -0.022396 -400428.000000 0 1 0
7.327549 -17.958919 -12.639078 23.150854 -1.183398 2.148312 0.049463 -0.013580 -491257.000000 0 1 0
6.918649 -18.569019 -13.847078 24.174733 -1.214139 2.180703 0.065538 -0.012576 -309445.000000 0 1 0
5.740749 -19.509419 -13.629678 24.481457 -1.284618 2.161246 0.068822 -0.004358 -245331.000000 0 1 0
6.126449 -20.664419 -12.880678 25.109031 -1.282578 2.109461 0.078885 -0.009669 -604065.000000 0 0 1
5.004249 -21.295919 -12.378678 25.135440 -1.339997 2.085732 0.115428 -0.010551 -400742.000000 0 0 1
5.111349 -22.840319 -12.145778 26.369034 -1.350637 2.049476 0.080159 -0.001416 -120847.000000 0 0 1
5.479149 -23.600719 -13.294778 27.636319 -1.342677 2.072662 0.099351 -0.012172 -143430.000000 0 0 1
5.086549 -24.964119 -13.395278 28.783913 -1.369793 2.054853 0.076076 -0.016350 940391.000000 0 0 1
3.616049 -25.204399 -13.926478 29.022135 -1.428300 2.071288 0.092813 -0.023715 685609.000000 0 0 1
2.667549 -24.866619 -12.950978 28.163671 -1.463931 2.048619 0.106916 -0.023369 -206202.000000 0 0 1
1.325249 -24.940819 -13.426178 28.356004 -1.517711 2.064041 0.095181 -0.034532 647606.000000 0 0 1
0.599849 -26.212659 -12.914078 29.227328 -1.547916 2.028456 0.091825 -0.028090 -733150.000000 0 0 1
0.969549 -27.331699 -13.614078 30.550039 -1.535338 2.032677 0.080719 -0.019411 -79375.500000 0 0 1
0.629949 -28.577429 -13.015078 31.407937 -1.548756 1.998067 0.081059 -0.024194 597976.000000 0 0 1
-0.814951 -29.117569 -13.291878 32.018291 1.542815 1.998886 0.083581 -0.031898 291603.000000 0 0 1
-1.836551 -28.339439 -12.770878 31.138273 1.506081 1.993398 0.081033 -0.029145 -774209.000000 0 0 1
-3.084451 -28.848269 -13.187278 31.869119 1.464281 1.997415 0.085190 -0.029255 365813.000000 0 0 1
-4.334351 -28.054759 -12.652278 31.079514 1.417512 1.990066 0.071269 -0.022681 678378.000000 0 0 1
-4.619351 -28.140139 -11.274278 30.664559 1.408092 1.947293 0.071093 -0.035084 219075.000000 0 0 1
-5.322651 -29.372429 -10.975078 31.804442 1.391529 1.923120 0.061640 -0.038379 -539865.000000 0 0 1
-5.969351 -29.500039 -9.609878 31.594860 1.371142 1.879852 0.063059 -0.038188 726544.000000 0 0 1
-7.352351 -29.110089 -9.525178 31.498942 1.323400 1.878002 0.058762 -0.035608 566161.000000 0 0 1
-7.504451 -27.683649 -9.264478 30.141860 1.306079 1.883216 0.060306 -0.031401 -263109.000000 0 0 1
-8.928451 -27.173019 -8.809078 29.928081 1.253332 1.869563 0.050859 -0.027001 1218310.000000 0 0 1
-10.006251 -27.339279 -9.725278 30.694336 1.219937 1.893195 0.070179 -0.028927 142125.000000 0 0 1
-10.345051 -28.693029 -9.891978 32.064953 1.224761 1.884410 0.087346 -0.038666 -1293020.000000 0 0 1
-11.586451 -28.853489 -10.782278 32.909378 1.188945 1.904596 0.093415 -0.038625 -444385.000000 0 0 1
-11.282851 -28.630909 -12.175778 33.095033 1.195404 1.947550 0.106660 -0.041327 285694.000000 0 0 1
-12.273651 -29.142709 -13.064578 34.214371 1.172185 1.962588 0.105538 -0.037136 19425.900000 0 0 1
-12.274451 -28.336929 -14.412178 34.078652 1.162034 2.007450 0.108873 -0.036658 130373.000000 0 0 1
-13.166651 -27.211879 -14.475678 33.517045 1.120147 2.017384 0.087323 -0.050070 374472.000000 0 0 1
-12.982851 -26.233659 -13.485078 32.227420 1.111243 2.002518 0.091961 -0.039554 326701.000000 0 0 1
-14.086051 -25.132009 -13.648578 31.879749 1.059941 2.013215 0.114392 -0.039530 581216.000000 0 0 1
-13.698151 -24.235119 -14.681078 31.472438 1.056344 2.056097 0.105043 -0.033920 -379316.000000 0 0 1
-14.802651 -23.463219 -14.998478 31.537207 1.007975 2.066420 0.123164 -0.035385 -832194.000000 0 0 1
-14.657451 -22.491619 -16.242378 31.377199 0.993237 2.114897 0.116529 -0.033857 -96981.200000 0 0 1
-13.917451 -21.291619 -16.133378 30.121659 0.991853 2.136023 0.092619 -0.026005 284277.000000 0 0 1
-14.017751 -20.667819 -17.376678 30.423757 0.974824 2.178708 0.080728 -0.016826 -191295.000000 0 0 1
-13.938551 -19.141919 -17.443278 29.410274 0.941414 2.205702 0.077859 -0.022920 -185743.000000 0 0 1
-12.659951 -18.544619 -17.429978 28.425013 0.971793 2.230891 0.073078 -0.017687 35541.400000 0 0 1
-12.716351 -17.112419 -17.515278 27.592126 0.931722 2.258536 0.080796 -0.018396 146976.000000 0 0 1
-11.335251 -16.492219 -17.865778 26.826614 0.968639 2.299593 0.084528 -0.026483 525729.000000 0 0 1
-10.626651 -16.271419 -16.604078 25.561302 0.992254 2.277827 0.085619 -0.018771 1419460.000000 0 0 1
-9.308851 -15.693419 -16.875778 24.854174 1.035415 2.317185 0.084191 -0.017006 448016.000000 0 1 0
-8.694751 -15.074319 -15.611878 23.378719 1.047616 2.302021 0.077004 -0.015450 -167518.000000 0 1 0
-8.268351 -15.953619 -14.623078 23.167175 1.092636 2.253893 0.077722 -0.011240 -199151.000000 0 1 0
-7.036951 -16.578519 -14.910578 23.381431 1.169381 2.262318 0.071214 -0.007686 -706357.000000 0 1 0
-6.526451 -17.425019 -13.752578 23.137831 1.212425 2.207286 0.060803 -0.008269 -648187.000000 0 1 0
-6.017651 -16.721719 -12.608078 21.789714 1.225356 2.187838 0.057566 -0.010422 330260.000000 0 1 0
-5.770051 -17.603019 -11.524178 21.816655 1.254045 2.127309 0.053762 -0.010181 -148252.000000 0 1 0
-4.605251 -18.617219 -11.642978 22.435866 1.328299 2.116412 0.056709 -0.013670 5925.910000 0 1 0
-3.336851 -17.969319 -11.745778 21.725430 1.387191 2.142002 0.048032 -0.008462 -219883.000000 0 1 0
-2.341451 -18.946419 -11.734078 22.408431 1.447837 2.121921 0.042790 -0.007089 571995.000000 0 1 0
-0.873751 -18.453419 -11.959778 22.007462 1.523483 2.145328 0.041550 -0.002590 -181369.000000 0 1 0
-0.594751 -18.083719 -13.282078 22.445227 1.537919 2.204031 0.053320 -0.007025 -206945.000000 0 1 0
0.736249 -17.621719 -13.358778 22.125189 -1.529040 2.219033 0.065288 -0.008419 -9102.520000 0 1 0
1.840949 -18.667119 -13.448478 23.080554 -1.472494 2.192813 0.071426 -0.017342 -1092510.000000 0 1 0
1.724049 -19.546619 -14.571678 24.441286 -1.482822 2.209545 0.083749 -0.015016 -110261.000000 0 1 0
0.842349 -20.632619 -14.417878 25.185109 -1.529993 2.180319 0.084276 -0.011599 -992065.000000 0 0 1
0.877949 -21.714319 -15.602078 26.752706 -1.530387 2.193454 0.097181 -0.015663 1021100.000000 0 0 1
2.074349 -22.495719 -15.859378 27.602177 -1.478846 2.182875 0.129523 -0.020004 1176450.000000 0 0 1
3.265049 -21.721219 -16.004678 27.177594 -1.421597 2.200484 0.122454 -0.036347 -116761.000000 0 0 1
4.563649 -22.452119 -16.386078 28.167855 -1.370267 2.191650 0.108085 -0.026120 117595.000000 0 0 1
4.724649 -22.724519 -17.731978 29.208716 -1.365807 2.223175 0.099774 -0.021779 827.131000 0 0 1
5.926049 -23.440319 -17.939978 30.106634 -1.323171 2.209159 0.107316 -0.021619 62613.200000 0 0 1
6.469249 -23.346219 -19.359078 31.010821 -1.300478 2.244991 0.085944 -0.013925 -42489.700000 0 0 1
7.027949 -22.101519 -19.737878 30.454113 -1.262922 2.275908 0.099977 -0.024684 89237.600000 0 0 1
7.393749 -22.046319 -21.111878 31.407309 -1.247211 2.307968 0.074531 -0.015201 -21908.600000 0 0 1
7.644249 -20.585219 -21.561978 30.775066 -1.215233 2.347078 0.069960 -0.019174 257748.000000 0 0 1
6.515049 -19.724019 -21.527478 29.915131 -1.251769 2.374049 0.089440 -0.025459 51023.200000 0 0 1
6.832149 -18.416919 -21.918778 29.432873 -1.215562 2.410888 0.093868 -0.025326 -98160.400000 0 0 1
5.506849 -17.707519 -22.202178 28.927812 -1.269288 2.445733 0.082123 -0.029261 -863320.000000 0 0 1
4.841149 -18.309019 -23.299678 30.025521 -1.312299 2.459089 0.062969 -0.025651 255426.000000 0 0 1
3.818949 -17.570719 -23.989178 29.979913 -1.356778 2.498383 0.074147 -0.021467 1211100.000000 0 0 1
2.533749 -17.242019 -23.156278 28.981379 -1.424889 2.496436 0.072209 -0.016001 -201926.000000 0 0 1
2.730749 -16.436419 -22.023878 27.616373 -1.406160 2.493926 0.076103 -0.028350 -430395.000000 0 0 1
1.479049 -16.227219 -21.416178 26.910275 -1.479901 2.491184 0.073850 -0.021338 450488.000000 0 0 1
1.798249 -15.429619 -20.138678 25.433702 -1.454774 2.484564 0.069420 -0.026839 341977.000000 0 0 1
2.554949 -14.235519 -20.373178 24.984878 -1.393210 2.524251 0.064217 -0.024478 99214.600000 0 1 0
2.619149 -13.486319 -19.165278 23.580683 -1.378976 2.519659 0.062390 -0.024657 -25771.900000 0 1 0
3.659449 -12.317219 -19.215178 23.115547 -1.282002 2.552178 0.063596 -0.028827 -651005.000000 0 1 0
4.945849 -12.900219 -19.160578 23.622126 -1.204688 2.516875 0.075546 -0.036278 -58508.700000 0 1 0
6.018749 -12.003919 -19.470778 23.652285 -1.106030 2.537837 0.079840 -0.029359 484772.000000 0 1 0
6.232449 -10.803419 -18.466978 22.284222 -1.047538 2.547581 0.083778 -0.024854 -1102200.000000 0 1 0
5.175549 -9.898419 -18.197778 21.352380 -1.089023 2.591087 0.054566 -0.015750 -203417.000000 0 1 0
5.202549 -8.788119 -19.041678 21.607477 -1.036281 2.649305 0.064544 -0.023180 -350472.000000 0 1 0
4.665449 -8.954819 -20.477178 22.831338 -1.090491 2.683481 0.072935 -0.025968 121232.000000 0 1 0
3.249949 -9.087119 -20.496878 22.655240 -1.227328 2.701542 0.064607 -0.026479 -39028.500000 0 1 0
2.802349 -9.356619 -21.804178 23.891874 -1.279794 2.720442 0.063930 -0.016192 -219931.000000 0 1 0
1.272149 -9.264419 -21.869078 23.784541 -1.434334 2.737517 0.053169 -0.014494 -220782.000000 0 1 0
0.871649 -7.905319 -21.815778 23.220293 -1.460979 2.792003 0.057726 -0.017023 -860910.000000 0 1 0
-0.503751 -7.758619 -21.990778 23.324756 1.505959 2.801754 0.054770 -0.016813 -442635.000000 0 1 0
-0.845151 -6.569919 -22.880278 23.819850 1.442859 2.859788 0.054556 -0.018091 -197575.000000 0 1 0
-0.618751 -6.824719 -24.258578 25.207901 1.480380 2.866280 0.045766 -0.012434 -642581.000000 0 0 1
-1.313351 -6.088019 -25.206338 25.964367 1.358325 2.899361 0.062942 -0.018722 -333524.000000 0 0 1
-0.716051 -4.728219 -25.650608 26.092575 1.420496 2.957275 0.071519 -0.017797 -401174.000000 0 0 1
-1.539451 -4.139519 -26.638758 27.002388 1.214754 2.977295 0.074899 -0.017938 -125294.000000 0 0 1
-1.149551 -2.927419 -27.226508 27.407554 1.196613 3.026589 0.056298 -0.014778 -953386.000000 0 0 1
-1.383551 -1.664419 -26.321488 26.410325 0.877288 3.059549 0.059585 -0.021545 -156757.000000 0 0 1
-2.734251 -1.399219 -26.077048 26.257311 0.472993 3.024348 0.059436 -0.028135 -56455.500000 0 0 1
-3.527051 -0.944019 -27.204118 27.448047 0.261521 3.008175 0.073998 -0.021422 1139400.000000 0 0 1
-5.073951 -1.077819 -26.882328 27.378207 0.209311 2.950977 0.090818 -0.032661 1055070.000000 0 0 1
-5.683051 -0.132519 -26.058578 26.671410 0.023314 2.926811 0.098907 -0.027142 -522230.000000 0 0 1
-7.051751 -0.427319 -25.998308 26.941080 0.060524 2.876263 0.098992 -0.035752 -362689.000000 0 0 1
-7.865351 0.715481 -25.326888 26.529737 -0.090717 2.839313 0.102715 -0.030124 -744035.000000 0 0 1
-8.092651 1.988381 -25.986918 27.290375 -0.240930 2.831278 0.116446 -0.031784 618122.000000 0 0 1
-8.980651 2.031581 -27.134648 28.654294 -0.222473 2.814456 0.116980 -0.033702 156457.000000 0 0 1
-10.409951 1.517381 -26.994698 28.972112 -0.144743 2.769993 0.115743 -0.030770 -914430.000000 0 0 1
-11.345551 2.133381 -27.858178 30.155446 -0.185866 2.748736 0.125877 -0.034260 -779931.000000 0 0 1
-12.615051 1.800781 -27.427958 30.243598 -0.141791 2.706667 0.070248 -0.017790 -802864.000000 0 0 1
-13.716951 2.415981 -28.361848 31.597249 -0.174343 2.685102 0.048191 -0.002751 -19994.000000 0 0 1
-14.919051 1.680781 -28.105278 31.863926 -0.112187 2.650972 0.021214 -0.000881 209297.000000 0 0 1
-16.031751 2.113181 -28.858418 33.080068 -0.131057 2.630848 0.013738 -0.004019 109796.000000 0 0 1
-16.860551 3.252981 -28.203298 33.019480 -0.190593 2.594693 0.018120 0.007075 -305587.000000 0 0 1
-16.247451 4.587281 -28.028068 32.719954 -0.275176 2.599449 0.042675 0.000459 450123.000000 0 0 1
-15.902151 5.316681 -29.229118 33.696986 -0.322654 2.620771 0.046027 0.003287 -280416.000000 0 0 1
-17.098651 6.041781 -29.852728 34.929248 -0.339655 2.595697 0.036871 0.010765 -45085.200000 0 0 1
-17.803351 7.017481 -29.105938 34.833317 -0.375467 2.559980 0.034578 0.011962 821816.000000 0 0 1
-18.837951 7.664681 -29.861918 36.129626 -0.386419 2.543696 0.044250 0.009450 315676.000000 0 0 1
-19.708551 8.707381 -29.148328 36.247352 -0.416020 2.505041 0.042431 0.009681 -300635.000000 0 0 1
-18.950951 9.797081 -28.706918 35.766024 -0.477132 2.502489 0.052203 0.011644 362859.000000 0 0 1
-19.779651 10.827181 -28.155068 36.071738 -0.500837 2.466309 0.070478 0.004908 103820.000000 0 0 1
-8.968851 25.636181 30.796285 41.061725 -1.234254 0.722735 0.060313 -0.018295 -906394.000000 0 0 1
-9.566151 26.880281 30.968855 42.108559 -1.228893 0.744462 0.070244 -0.009104 -24822.700000 0 0 1
-8.812051 27.715981 31.816285 43.105729 -1.262962 0.740548 0.072342 -0.022272 193004.000000 0 0 1
-7.505751 28.240681 31.145915 42.707616 -1.311024 0.753524 0.073268 -0.017037 68658.200000 0 0 1
-7.737851 29.035581 29.955805 42.429820 -1.310354 0.786950 0.097050 -0.021190 133661.000000 0 0 1
-6.470251 29.253181 29.388695 41.967942 -1.353120 0.795027 0.092640 -0.016728 74449.300000 0 0 1
-6.518851 30.489681 28.473725 42.224035 -1.360163 0.830714 0.114931 -0.014390 -105942.000000 0 0 1
-6.759751 31.583881 29.308715 43.614637 -1.359952 0.833900 0.118882 -0.023376 295273.000000 0 0 1
-6.287251 32.733981 28.700705 43.986061 -1.381036 0.859923 0.129564 -0.027582 -288957.000000 0 0 1
-6.646951 33.912281 29.581605 45.489517 -1.377246 0.862824 0.133059 -0.030281 -290564.000000 0 0 1
-5.961251 -33.805502 30.829885 46.139249 1.396251 0.839020 0.126201 -0.028698 788923.000000 0 0 1
-6.801751 -33.307302 31.929954 46.638634 1.369354 0.816708 0.125818 -0.029372 1052140.000000 0 0 1
-7.810851 33.550281 32.605365 47.431431 -1.342060 0.812864 0.094269 -0.033798 676469.000000 0 0 1
-7.231751 32.729081 33.658146 47.501177 -1.353332 0.783320 0.114831 -0.027710 370047.000000 0 0 1
-7.151851 31.356181 33.253897 46.262088 -1.346548 0.768700 0.109107 -0.019293 -71963.700000 0 0 1
-6.834851 30.529181 -33.398958 45.762829 -1.350549 2.388866 0.094913 -0.021905 -367181.000000 0 0 1
-5.559251 30.825681 -32.898448 45.425057 -1.392369 2.380722 0.087679 -0.019631 -546616.000000 0 0 1
-5.436751 30.162581 -31.653878 44.060272 -1.392463 2.372328 0.110887 -0.028039 479101.000000 0 0 1
-4.020751 29.837481 -31.036878 43.240369 -1.436848 2.371399 0.104460 -0.032817 1051790.000000 0 0 1
-3.359151 28.599581 -31.348578 42.567045 -1.453877 2.398607 0.104360 -0.025808 431213.000000 0 0 1
-3.197451 28.271381 -32.736138 43.372220 -1.458176 2.426103 0.096145 -0.020701 -715742.000000 0 0 1
-2.544451 26.895481 -32.903238 42.573046 -1.476472 2.454141 0.093059 -0.026358 -923165.000000 0 0 1
-1.314151 26.728881 -32.245628 41.903945 -1.521670 2.448874 0.114049 -0.029972 222890.000000 0 0 1
-0.566951 25.534381 -32.459908 41.303410 -1.548597 2.474929 0.122434 -0.028325 352487.000000 0 0 1
0.002549 25.396281 -33.906868 42.363272 1.570696 2.498731 0.098408 -0.013761 -374430.000000 0 0 1
-1.013251 25.178781 32.987911 41.511444 -1.530576 0.652332 0.101465 -0.013252 147752.000000 0 0 1
-0.513151 25.087381 31.691505 40.422661 -1.550345 0.669707 0.111170 -0.012450 30048.800000 0 0 1
-0.286551 26.459581 31.008605 40.764263 -1.559967 0.706435 0.098437 -0.017055 729441.000000 0 0 1
-1.508251 27.177081 30.754645 41.069658 -1.515356 0.724485 0.089056 -0.018137 839254.000000 0 0 1
-1.183351 28.423781 30.188735 41.480977 -1.529188 0.755727 0.085870 -0.014948 56959.900000 0 0 1
-2.381651 29.367081 30.356465 42.303815 -1.489874 0.770472 0.092952 -0.024803 -39115.400000 0 0 1
-2.540351 29.860281 31.684285 43.611738 -1.485926 0.757570 0.097591 -0.022357 199356.000000 0 0 1
-3.160551 31.159381 31.629835 44.512275 -1.469710 0.780464 0.105430 -0.023003 78086.300000 0 0 1
-2.677051 32.048081 32.799729 45.935480 -1.487457 0.775546 0.118452 -0.019183 -259008.000000 0 0 1
-1.393951 32.553381 32.578206 46.076081 -1.528002 0.785475 0.125556 -0.029133 -702592.000000 0 0 1
-0.789651 32.880881 33.796623 47.159174 -1.546785 0.771809 0.111416 -0.026155 217629.000000 0 0 1
0.649949 33.413081 33.541403 47.348518 1.551347 0.783576 0.119718 -0.033753 213040.000000 0 0 1
0.680049 -33.092002 33.144050 46.840913 -1.550249 0.784718 0.132111 -0.030399 487694.000000 0 0 1
1.950449 -32.832702 32.555665 46.278093 -1.511460 0.790516 0.116638 -0.039930 233778.000000 0 0 1
2.126149 -31.378902 32.022481 44.884244 -1.503142 0.776393 0.120455 -0.033787 -185106.000000 0 0 1
1.938149 -30.477302 33.098998 45.035165 -1.507289 0.745190 0.113122 -0.020890 85368.600000 0 0 1
1.905849 -29.192302 32.597658 43.799887 -1.505603 0.731399 0.085840 -0.026616 -29733.200000 0 0 1
1.717149 -28.159902 33.753068 43.990889 -1.509893 0.696217 0.075140 -0.021560 -241393.000000 0 0 1
0.332849 -28.031202 33.923675 44.007668 -1.558923 0.690609 0.066961 -0.022672 -343815.000000 0 0 1
-0.045351 -27.251002 -32.838118 42.672722 1.569132 2.448908 0.062712 -0.019477 -1135220.000000 0 0 1
-1.514651 -27.006102 -32.694958 42.433289 1.514770 2.450426 0.110405 -0.030947 -1151600.000000 0 0 1
-1.857951 -26.799902 -31.362718 41.295361 1.501580 2.433299 0.099764 -0.025624 897840.000000 0 0 1
-3.214951 -26.332102 -31.201498 40.954231 1.449305 2.436980 0.108433 -0.031624 906411.000000 0 0 1
-3.458551 -25.762002 -29.778748 39.527410 1.437344 2.423968 0.113825 -0.036073 -40780.200000 0 0 1
-3.895751 -26.644102 -28.771638 39.406753 1.425611 2.389293 0.111354 -0.034359 55050.100000 0 0 1
-4.217751 -26.055802 -27.466848 38.093595 1.410315 2.376092 0.118786 -0.026596 85784.700000 0 0 1
-3.070551 -25.541202 -26.566128 36.980271 1.451151 2.372276 0.116490 -0.024061 -125237.000000 0 0 1
-2.358151 -24.415502 -27.010488 36.486218 1.474511 2.404302 0.111646 -0.027840 -133348.000000 0 0 1
-1.274451 -24.188202 -26.146168 35.641485 1.518156 2.394383 0.080287 -0.023217 -802871.000000 0 0 1
-0.373451 -23.086802 -26.759738 35.344356 1.554622 2.429682 0.044006 -0.018795 166836.000000 0 0 1
0.310849 -23.265602 -27.997798 36.404142 -1.557436 2.448201 0.008684 -0.019796 875876.000000 0 0 1
1.345549 -24.288702 -27.936488 37.043203 -1.515455 2.425170 0.000944 -0.010433 409869.000000 0 0 1
2.059249 -24.503402 -29.310468 38.259127 -1.486954 2.443554 0.000105 -0.018601 382125.000000 0 0 1
2.876949 -23.395902 -29.710528 37.925724 -1.448442 2.470893 0.023243 -0.016953 229255.000000 0 0 1
3.716549 -23.728002 -30.793088 39.051826 -1.415427 2.479193 0.038512 -0.018129 -922472.000000 0 0 1
4.758749 -22.656202 -31.087408 38.760497 -1.363764 2.501497 0.056841 -0.032973 -23714.800000 0 0 1
5.975849 -22.675802 -30.318198 38.328787 -1.313121 2.483244 0.039838 -0.034157 1472350.000000 0 0 1
6.920749 -23.759802 -30.509498 39.284277 -1.287359 2.460101 0.049430 -0.019069 347069.000000 0 0 1
7.557949 -23.974802 -31.908778 40.621224 -1.265412 2.474332 0.061052 -0.016702 -686850.000000 0 0 1
6.647049 -24.619102 -32.747648 41.505324 -1.307089 2.479974 0.034325 -0.019182 -220931.000000 0 0 1
6.967749 -24.607302 33.726370 42.326551 -1.294862 0.648793 0.059816 -0.020308 -40121.800000 0 0 1
6.647349 -23.266102 32.943913 40.875423 -1.292501 0.633503 0.086463 -0.032438 -1260820.000000 0 0 1
5.356949 -22.886002 33.170924 40.654351 -1.340865 0.616468 0.087303 -0.035296 -1446510.000000 0 0 1
4.941449 -21.737502 32.472542 39.387853 -1.347271 0.601601 0.108085 -0.063531 -407161.000000 0 0 1
3.479949 -21.459802 32.839615 39.383670 -1.410034 0.584771 0.110124 -0.068648 -127163.000000 0 0 1
2.515549 -22.442102 32.509833 39.583648 -1.459172 0.607120 0.098728 -0.059830 37701.700000 0 0 1
2.088249 -23.202902 33.641838 40.920762 -1.481039 0.605669 0.088194 -0.049491 -146334.000000 0 0 1
0.700649 -23.825502 33.407534 41.039113 -1.541397 0.619720 0.094024 -0.047085 -86079.900000 0 0 1
0.636149 -24.798302 32.450852 40.846276 -1.545149 0.652674 0.097475 -0.043107 -1711590.000000 0 0 1
-0.597151 -25.055102 31.955001 40.610797 1.546967 0.665092 0.121266 -0.052130 -1650870.000000 0 0 1
-0.696451 -26.376902 31.128465 40.806952 1.544399 0.703129 0.121352 -0.043021 -322452.000000 0 0 1
-1.922351 -26.445202 30.456895 40.381513 1.498232 0.716318 0.129427 -0.050811 -263458.000000 0 0 1
-2.004951 -27.685602 29.773935 40.706260 1.498504 0.750374 0.138396 -0.047380 442947.000000 0 0 1
-3.346551 -27.863302 29.004035 40.358358 1.451263 0.768920 0.149923 -0.039398 669238.000000 0 0 1
-4.532351 -27.955102 29.802435 41.112226 1.410065 0.759901 0.153560 -0.036825 318178.000000 0 0 1
-5.587351 -28.248802 28.897585 40.795634 1.375526 0.783639 0.153791 -0.025771 79155.100000 0 0 1
-6.799451 -28.913502 29.600895 41.933711 1.339828 0.787107 0.139643 -0.023209 -291673.000000 0 0 1
-7.768451 -29.472602 28.731895 41.886811 1.313076 0.814900 0.153575 -0.021392 904636.000000 0 0 1
-9.055951 -29.571602 29.370595 42.651164 1.273626 0.811207 0.124020 -0.020865 467571.000000 0 0 1
-9.354251 -30.686302 30.434305 44.219884 1.274910 0.811723 0.099460 -0.017636 -476950.000000 0 0 1
-9.391951 -31.987902 29.849355 44.748393 1.285213 0.840556 0.116344 -0.019307 704193.000000 0 0 1
-10.627251 -32.256502 29.166145 44.767002 1.252535 0.861223 0.110346 -0.018316 314716.000000 0 0 1
-10.791451 -33.732302 28.772035 45.630622 1.261171 0.888545 0.138594 -0.019822 -208318.000000 0 0 1
-10.911851 33.249481 29.934085 46.050472 -1.253690 0.863175 0.133123 -0.015407 183523.000000 0 0 1
-10.355351 32.016081 29.667165 44.859820 -1.257974 0.848205 0.131697 -0.024496 -305934.000000 0 0 1
-10.761151 30.977381 30.666865 44.898298 -1.236451 0.818894 0.113822 -0.010198 562562.000000 0 0 1
-12.168351 30.707681 30.506765 44.963243 -1.193515 0.825102 0.112711 -0.008452 869340.000000 0 0 1
-12.585551 29.498981 31.141775 44.703425 -1.167534 0.800106 0.102980 -0.014341 172230.000000 0 0 1
-12.726351 29.613881 32.667642 45.892449 -1.164915 0.778695 0.106906 -0.025466 -1141070.000000 0 0 1
-13.843651 30.304481 33.079630 46.949656 -1.142287 0.788970 0.108734 -0.017724 -643139.000000 0 0 1
-14.178151 29.976681 -33.512388 47.145536 -1.129003 2.361472 0.116370 -0.028331 -502346.000000 0 0 1
-15.542951 30.425481 -33.003208 47.502684 -1.098504 2.338890 0.102486 -0.024043 -506075.000000 0 0 1
-15.700751 29.977681 -31.735268 46.392911 -1.088331 2.324103 0.076653 -0.016946 213282.000000 0 0 1
-16.994451 30.264381 -31.222688 46.686191 -1.059142 2.303360 0.088003 -0.022287 407359.000000 0 0 1
-16.976351 29.770781 -29.759078 45.388310 -1.052550 2.285846 0.086831 -0.025693 80798.500000 0 0 1
-17.011651 28.364581 -29.631538 44.406912 -1.030561 2.301338 0.072473 -0.027314 87943.600000 0 0 1
-17.085251 28.093781 -28.231568 43.338064 -1.024405 2.280260 0.053084 -0.019565 -94657.200000 0 0 1
-17.572351 26.683281 -27.846478 42.381734 -0.988432 2.287681 0.045826 -0.021254 512358.000000 0 0 1
-18.970351 26.488981 -28.026618 42.977106 -0.949307 2.281186 0.063265 -0.020442 292779.000000 0 0 1
-19.415851 25.202781 -27.605848 42.121708 -0.914376 2.285486 0.050985 -0.022158 702806.000000 0 0 1
-20.920151 24.914181 -27.889988 42.851145 -0.872319 2.279510 0.036723 -0.023010 520622.000000 0 0 1
-21.921051 25.641081 -27.198768 43.333250 -0.863453 2.249347 0.040559 -0.019150 -47744.900000 0 0 1
-23.190251 25.266581 -27.655098 44.056694 -0.828221 2.249412 0.057666 -0.024116 -613679.000000 0 0 1
-24.213351 25.044781 -26.552368 43.801321 -0.802276 2.222070 0.067649 -0.025919 -383121.000000 0 0 1
-24.563951 26.251881 -25.957868 44.343657 -0.818603 2.196144 0.041385 -0.019201 -364713.000000 0 0 1
-25.801511 26.208581 -25.291148 44.634626 -0.793225 2.173202 0.054277 -0.023572 -9568.900000 0 0 1
-25.831341 25.811381 -23.782578 43.578626 -0.785012 2.148068 0.067031 -0.016484 -335880.000000 0 0 1
-25.675701 24.419681 -23.479878 42.507260 -0.760331 2.156005 0.084269 -0.010073 -388261.000000 0 0 1
-26.845091 23.634681 -23.458978 42.773598 -0.721886 2.151300 0.090536 -0.012081 132628.000000 0 0 1
-27.732531 23.712781 -22.136078 42.677807 -0.707420 2.116101 0.094908 -0.010540 271488.000000 0 0 1
-27.190311 23.290781 -20.868678 41.440020 -0.708304 2.098543 0.094949 -0.008663 272309.000000 0 0 1
-26.148621 24.081181 -20.312178 40.941889 -0.744262 2.089923 0.090919 -0.008914 105037.000000 0 0 1
-25.370731 23.384781 -19.163478 39.468480 -0.744688 2.077776 0.077954 -0.013661 -318083.000000 0 0 1
-25.801341 23.493481 -17.840178 39.190877 -0.738615 2.043407 0.091521 -0.014293 -62709.900000 0 0 1
-24.831151 23.232781 -16.833678 37.943654 -0.752155 2.030463 0.088988 -0.024253 -91136.700000 0 0 1
-25.360461 23.456581 -15.432878 37.835670 -0.746418 1.990941 0.076993 -0.022760 -36707.600000 0 0 1
-25.783801 24.772781 -15.177078 38.843774 -0.765403 1.972211 0.081959 -0.025665 -192944.000000 0 0 1
-26.272671 24.824081 -13.897878 38.725176 -0.757056 1.937869 0.062480 -0.023910 31571.000000 0 0 1
-26.379271 26.197181 -13.274378 39.476162 -0.781935 1.913742 0.076588 -0.013311 1371910.000000 0 0 1
-25.068841 26.644681 -12.843178 38.772839 -0.815861 1.908416 0.082365 -0.020192 1022910.000000 0 0 1
-25.202631 27.367881 -11.645178 38.984403 -0.826562 1.874141 0.085444 -0.017621 -456233.000000 0 0 1
-23.837751 27.839181 -11.174278 38.316092 -0.862676 1.866731 0.084332 -0.019882 -612256.000000 0 0 1
-22.959051 26.801681 -10.835078 36.916759 -0.862467 1.868683 0.074850 -0.025268 -447107.000000 0 0 1
-21.867251 27.328781 -10.128678 36.436645 -0.895961 1.852487 0.060557 -0.027272 -408973.000000 0 0 1
-21.001351 26.199481 -9.560978 34.912489 -0.895084 1.848196 0.114801 -0.032950 -110150.000000 0 0 1
-20.322551 25.412081 -10.508778 34.193777 -0.896226 1.883182 0.094031 -0.031297 -87471.300000 0 0 1
-19.489251 24.421881 -9.967878 32.796612 -0.897261 1.879612 0.106397 -0.032354 -917353.000000 0 0 1
-18.758451 23.644981 -10.975978 32.115989 -0.900131 1.919586 0.098452 -0.035639 -1012700.000000 0 0 1
-18.192151 22.572781 -10.353178 30.784300 -0.892448 1.913796 0.079762 -0.031193 -37288.000000 0 0 1
-17.712951 21.557781 -11.252378 30.084923 -0.882993 1.954137 0.097006 -0.024619 282252.000000 0 0 1
-17.328351 20.257481 -10.444278 28.630757 -0.863173 1.944206 0.083878 -0.020838 864276.000000 0 0 1
-18.522151 19.563381 -10.034978 28.748857 -0.812731 1.927361 0.069894 -0.015755 943348.000000 0 0 1
-18.153851 18.173081 -9.840478 27.507421 -0.785928 1.936642 0.098036 -0.030876 -417140.000000 0 0 1
-19.314751 17.144081 -9.923678 27.666921 -0.725931 1.937654 0.076961 -0.007843 173508.000000 0 0 1
-19.759051 16.753681 -11.234878 28.237004 -0.703273 1.979999 0.061319 -0.008215 400143.000000 0 0 1
-20.419551 17.826581 -11.947078 29.622251 -0.717705 1.985932 0.070285 -0.009978 -639025.000000 0 0 1
-21.102051 17.360981 -13.277478 30.380778 -0.688439 2.023096 0.076297 -0.012879 -14870.100000 0 0 1
-20.245451 17.054481 -14.399178 30.134199 -0.700057 2.068985 0.069955 -0.018768 -132925.000000 0 0 1
-20.881351 16.595581 -15.535178 30.867230 -0.671535 2.098199 0.087727 -0.016382 -605604.000000 0 0 1
-20.010251 16.465881 -16.776078 30.870248 -0.688533 2.145324 0.096625 -0.024611 -545301.000000 0 0 1
-19.472051 17.646581 -17.259778 31.439824 -0.736258 2.151938 0.076694 -0.025922 -189651.000000 0 0 1
-18.874251 17.382681 -18.475978 31.618930 -0.744282 2.194854 0.071691 -0.018742 -655852.000000 0 0 1
-17.798051 18.443181 -18.828078 31.802800 -0.803197 2.204367 0.058283 -0.013936 140688.000000 0 0 1
-16.698951 18.324281 -17.921278 30.590954 -0.831772 2.196707 0.075672 -0.018542 413275.000000 0 0 1
-15.845451 19.457981 -17.943578 30.849041 -0.887371 2.191561 0.084143 -0.014404 195055.000000 0 0 1
34.158865 29.734181 2.386122 45.350228 0.716257 1.518157 0.082788 -0.023270 126519.000000 0 0 1
35.313275 29.905981 1.589022 46.302485 0.702678 1.536471 0.097192 -0.025700 146562.000000 0 0 1
35.140205 31.005781 0.717022 46.869037 0.722975 1.555497 0.079620 -0.016976 -339219.000000 0 0 1
36.313975 31.299381 -0.229278 47.941721 0.711368 1.575579 0.058158 -0.019989 -308511.000000 0 0 1
-37.152871 31.706581 0.484822 48.845452 -0.706470 1.560871 0.043535 -0.013818 -227388.000000 0 0 1
-35.981510 31.603081 -0.279778 47.890522 -0.720704 1.576638 0.028635 -0.007841 16660.300000 0 0 1
-34.734550 32.409981 0.115722 47.506939 -0.750792 1.568360 0.023188 -0.006219 36843.600000 0 0 1
-34.291596 32.250481 1.431722 47.096252 -0.754734 1.540392 0.011289 -0.015680 -122741.000000 0 0 1
-33.534401 33.381181 1.766322 47.349543 -0.783108 1.533484 0.017542 -0.010784 -643095.000000 0 0 1
-32.861081 33.268781 3.084822 46.863403 -0.791563 1.504923 0.032549 -0.012200 -290639.000000 0 0 1
-32.358831 -33.297102 3.545222 46.565648 0.799688 1.494589 0.046679 -0.011847 200152.000000 0 0 1
-31.736171 -33.452602 4.805922 46.361169 0.811722 1.466947 0.054797 -0.016111 -290226.000000 0 0 1
-31.697371 -32.111902 5.602722 45.467440 0.791894 1.447257 0.066826 -0.015973 356042.000000 0 0 1
-32.887821 -31.624602 6.228022 46.049023 0.765820 1.435133 0.067860 -0.014930 582460.000000 0 0 1
-33.357921 -32.382702 7.364822 47.070488 0.770565 1.413687 0.063665 -0.030308 -1670000.000000 0 0 1
-34.328210 -31.667002 8.268522 47.429880 0.745096 1.395569 0.092142 -0.028412 609573.000000 0 0 1
-35.693138 -31.458902 7.875822 48.225421 0.722427 1.406749 0.074463 -0.026328 690456.000000 0 0 1
-36.434131 -32.583702 7.542522 49.457387 0.729667 1.417693 0.059738 -0.025227 -1669440.000000 0 0 1
36.658105 -32.396002 7.474022 49.489177 -0.723755 1.419193 0.056389 -0.023298 -160783.000000 0 0 1
35.881425 -32.340402 8.670622 49.077061 -0.733540 1.393190 0.057598 -0.025779 524732.000000 0 0 1
34.540825 -31.962902 8.461222 47.815144 -0.746654 1.392903 0.044039 -0.014409 396698.000000 0 0 1
33.495035 -32.230802 9.585522 47.461818 -0.766166 1.367435 0.063156 -0.035479 366298.000000 0 0 1
32.149635 -32.109602 9.170622 46.354351 -0.784775 1.371645 0.069921 -0.042288 726791.000000 0 0 1
31.135435 -32.130002 10.190722 45.886852 -0.801117 1.346845 0.078100 -0.043264 627062.000000 0 0 1
31.042875 -30.855202 11.162622 45.169765 -0.782366 1.321083 0.082694 -0.039487 -549899.000000 0 0 1
30.505935 -29.647502 10.604622 43.841127 -0.771128 1.326486 0.060327 -0.037498 39505.800000 0 0 1
31.227055 -29.036402 9.572922 43.702202 -0.749063 1.349957 0.068220 -0.035274 -530912.000000 0 0 1
30.649205 -27.714802 9.149822 42.322609 -0.735163 1.352883 0.063493 -0.032720 -392281.000000 0 0 1
31.075705 -27.202002 7.915322 42.051167 -0.719026 1.381436 0.067045 -0.031051 -271390.000000 0 0 1
30.508505 -25.970502 7.492922 40.760026 -0.705222 1.385915 0.071546 -0.036441 -134903.000000 0 0 1
30.788625 -25.520902 6.049622 40.445689 -0.692120 1.420659 0.066071 -0.028526 201267.000000 0 0 1
32.066955 -25.056002 5.647722 41.085150 -0.663275 1.432896 0.071233 -0.025756 -140490.000000 0 0 1
32.112755 -24.568902 4.335122 40.665136 -0.653084 1.463988 0.062130 -0.025821 -104137.000000 0 0 1
33.606785 -24.304702 4.098222 41.676492 -0.626133 1.472303 0.073476 -0.022602 104793.000000 0 0 1
34.370675 -25.425102 3.735522 42.915419 -0.636897 1.483642 0.062790 -0.015686 -276005.000000 0 0 1
35.712885 -25.127602 3.409422 43.799894 -0.613138 1.492877 0.071829 -0.020302 195543.000000 0 0 1
36.584775 -26.387202 3.332022 45.230880 -0.624854 1.497063 0.067408 -0.015487 -266613.000000 0 0 1
36.678195 -26.946502 4.626522 45.747226 -0.633620 1.469491 0.055888 -0.015187 -107100.000000 0 0 1
-37.274351 -28.216402 4.656222 46.981092 0.647961 1.471525 0.051207 -0.013523 -914896.000000 0 0 1
36.790785 -29.132002 5.818622 47.287332 -0.669739 1.447435 0.053556 -0.014670 1090540.000000 0 0 1
35.443265 -29.610302 5.658922 46.529758 -0.695973 1.448875 0.034545 -0.011641 1517010.000000 0 0 1
34.381435 -28.613102 5.667422 45.087829 -0.694084 1.444766 0.045629 -0.015251 -385611.000000 0 0 1
33.049385 -29.184702 6.238022 44.530008 -0.723379 1.430248 0.062307 -0.017990 316772.000000 0 0 1
32.172825 -29.953402 5.447222 44.294121 -0.749689 1.447506 0.028651 -0.019347 6296.800000 0 0 1
31.582345 -29.146302 4.401922 43.201022 -0.745306 1.468725 0.049019 -0.020659 -434510.000000 0 0 1
30.135855 -29.644502 4.124022 42.473213 -0.777179 1.473546 0.055393 -0.022928 264035.000000 0 0 1
30.040325 -30.969202 3.524522 43.288969 -0.800622 1.489288 0.063913 -0.011829 486086.000000 0 0 1
28.700725 -31.498702 3.529322 42.759279 -0.831843 1.488163 0.081776 -0.013075 398737.000000 0 0 1
28.547025 -32.879902 2.963622 43.644056 -0.855819 1.502840 0.082521 -0.012414 -346674.000000 0 0 1
28.749325 -32.974102 1.554522 43.774783 -0.853738 1.535277 0.074768 -0.011874 271275.000000 0 0 1
28.498725 33.601881 0.946122 44.069932 0.867390 1.549326 0.072650 -0.005093 -169289.000000 0 0 1
28.365425 33.587881 -0.597778 43.967038 0.869496 1.584393 0.068586 -0.007571 55545.700000 0 0 1
29.459625 -33.696102 -1.312278 44.777437 -0.852378 1.600107 0.062124 -0.007217 295326.000000 0 0 1
29.156825 -33.589302 -2.665078 44.558549 -0.855922 1.630643 0.059762 -0.005907 -141192.000000 0 0 1
30.274625 -33.016802 -3.550478 44.936266 -0.828697 1.649890 0.052304 -0.005680 -77038.200000 0 0 1
30.335455 -31.616502 -3.570878 43.961281 -0.806073 1.652114 0.044228 -0.006091 93815.800000 0 0 1
31.386965 -31.080802 -4.340578 44.384664 -0.780497 1.668747 0.038620 -0.004690 -128038.000000 0 0 1
31.902705 -29.640002 -4.064678 43.735957 -0.748648 1.663867 0.021412 -0.008189 -703597.000000 0 0 1
31.030855 -28.601902 -4.481178 42.438941 -0.744689 1.676585 0.038331 -0.018481 80447.300000 0 0 1
31.579455 -27.294202 -4.456578 41.977333 -0.712739 1.677163 0.036162 -0.023673 -354168.000000 0 0 1
32.502115 -26.905302 -5.594378 42.562657 -0.691465 1.702616 0.051155 -0.027071 -1173110.000000 0 0 1
33.704955 -27.557402 -5.459678 43.877585 -0.685385 1.695549 0.042766 -0.019468 -203743.000000 0 0 1
34.751825 -27.057002 -6.368178 44.500836 -0.661542 1.714392 0.054370 -0.027323 1078070.000000 0 0 1
34.886485 -27.857102 -7.672478 45.298475 -0.673830 1.740993 0.050817 -0.021452 -446000.000000 0 0 1
33.712925 -27.671902 -8.470278 44.430182 -0.687302 1.762613 0.044756 -0.019218 337077.000000 0 0 1
33.524915 -28.686702 -9.420878 45.117621 -0.707784 1.781151 0.033758 -0.006637 37052.700000 0 0 1
33.130655 -30.025002 -8.835078 45.576306 -0.736263 1.765884 0.026143 -0.001404 -373768.000000 0 0 1
34.185065 -30.746802 -8.202878 46.704087 -0.732496 1.747347 0.033826 -0.002834 -297957.000000 0 0 1
33.799785 -31.936902 -7.630478 47.123406 -0.757067 1.733438 0.030138 -0.004045 10636.500000 0 0 1
35.063535 -32.705602 -7.186778 48.484613 -0.750619 1.719573 0.022891 -0.001731 235414.000000 0 0 1
34.891455 33.879881 -6.515278 49.068410 0.770690 1.703969 0.020024 -0.009370 -391004.000000 0 0 1
34.386445 -33.867002 -5.182178 48.541285 -0.777788 1.677758 0.024337 -0.009347 -133934.000000 0 0 1
34.310885 32.581081 -4.613178 47.539932 0.759544 1.667987 0.020928 -0.013173 115957.000000 0 0 1
33.220355 31.836481 -5.138778 46.298602 0.764130 1.682018 0.041870 -0.026107 84269.800000 0 0 1
33.373945 30.458681 -4.845778 45.442634 0.739759 1.677635 0.038891 -0.013480 952956.000000 0 0 1
32.105915 29.627881 -5.316678 44.009865 0.745279 1.691899 0.059864 -0.024216 904120.000000 0 0 1
31.946565 29.511181 -6.707778 44.005535 0.745792 1.723823 0.036121 -0.013603 310064.000000 0 0 1
30.671975 28.996381 -7.100178 42.801550 0.757324 1.737453 0.025388 -0.009537 206727.000000 0 0 1
30.427925 28.963981 -8.643878 42.889246 0.760754 1.773726 0.027515 -0.009757 -332942.000000 0 0 1
30.924475 27.796081 -9.302178 42.608401 0.732173 1.790887 0.041623 -0.013891 86531.100000 0 0 1
31.274535 28.000081 -10.630778 43.302593 0.730212 1.818832 0.029393 -0.012860 656954.000000 0 0 1
32.546465 28.863581 -10.979078 44.865564 0.725498 1.818018 0.049619 -0.017585 34735.600000 0 0 1
33.761505 28.256381 -10.558978 45.274212 0.696864 1.806187 0.048860 -0.024625 875851.000000 0 0 1
34.931675 28.965981 -11.014778 46.696631 0.692305 1.808920 0.058347 -0.018947 590725.000000 0 0 1
35.341005 30.218781 -10.307178 47.627716 0.707426 1.788934 0.046058 -0.025621 -943022.000000 0 0 1
36.042405 29.956981 -9.075878 47.737273 0.693454 1.762082 0.046536 -0.025943 314030.000000 0 0 1
35.864455 31.110481 -8.236078 48.186659 0.714536 1.742560 0.031953 -0.025485 -733276.000000 0 0 1
36.804675 31.068081 -7.008678 48.671669 0.701079 1.715298 0.047467 -0.017602 724804.000000 0 0 1
-36.421111 31.329681 -7.289278 48.591973 -0.710390 1.721375 0.054291 -0.017616 211315.000000 0 0 1
-35.682876 30.243281 -7.783478 47.418417 -0.703074 1.735687 0.063105 -0.016582 -156986.000000 0 0 1
-34.221635 30.590981 -8.229878 46.633243 -0.729439 1.748206 0.091437 -0.015413 -29238.100000 0 0 1
-33.402851 30.961081 -7.138178 46.100896 -0.747479 1.726260 0.072366 -0.014213 355658.000000 0 0 1
-32.017751 30.971581 -7.462178 45.167016 -0.768791 1.736770 0.098120 -0.018334 619611.000000 0 0 1
-31.494541 32.123981 -8.391978 45.763321 -0.795292 1.755218 0.076681 -0.017807 -798305.000000 0 0 1
-31.616881 33.419381 -7.964878 46.689629 -0.813106 1.742227 0.062458 -0.006119 582445.000000 0 0 1
-30.616181 33.916581 -7.049078 46.231748 -0.836497 1.723866 0.081259 -0.009745 490614.000000 0 0 1
-31.067121 -32.571102 -6.507978 45.479627 0.809027 1.714386 0.058209 0.000320 -518617.000000 0 0 1
-31.990671 -32.496902 -5.483578 45.929525 0.793248 1.690473 0.053432 -0.002178 -666708.000000 0 0 1
-31.698491 -33.103402 -4.222278 46.026701 0.807075 1.662661 0.060164 -0.007033 180200.000000 0 0 1
-32.916821 -33.148002 -3.238978 46.827322 0.788897 1.640020 0.053122 -0.010033 122795.000000 0 0 1
-33.092951 -31.955202 -2.499178 46.070861 0.767909 1.625069 0.058216 -0.005706 -521693.000000 0 0 1
-34.276338 -32.042502 -1.775078 46.954661 0.751728 1.608609 0.053603 -0.009931 -638432.000000 0 0 1
-34.755846 -30.679502 -1.268378 46.376820 0.723183 1.598149 0.066032 -0.011004 -185775.000000 0 0 1
-35.818091 -30.626102 -0.362678 47.127755 0.707416 1.578492 0.042568 -0.009025 -283149.000000 0 0 1
-36.415051 -29.321602 -0.393578 46.754328 0.677907 1.579214 0.052668 -0.009371 -63580.500000 0 0 1
37.057025 -29.193402 0.624722 47.179106 -0.667255 1.557554 0.055082 -0.006029 -757998.000000 0 0 1
35.858985 -29.854002 0.316822 46.660782 -0.694269 1.564006 0.026248 -0.004889 -79975.800000 0 0 1
34.888545 -29.949902 1.334022 45.999857 -0.709377 1.541792 0.034170 -0.008500 224894.000000 0 0 1
34.086165 -28.648502 1.660422 44.557382 -0.698937 1.533523 0.020349 0.002427 -618375.000000 0 0 1
33.274295 -28.245102 0.552122 43.649391 -0.703830 1.558147 0.019899 -0.004232 210273.000000 0 0 1
32.634615 -27.017302 0.763322 42.373758 -0.691507 1.552781 0.021078 -0.008264 -331124.000000 0 0 1
31.230845 -26.889802 0.152822 41.212261 -0.710846 1.567088 0.023983 -0.024215 276668.000000 0 0 1
30.160245 -27.555302 0.863122 40.861718 -0.740295 1.549672 0.030209 -0.012499 893365.000000 0 0 1
29.904365 -28.905102 0.407022 41.592567 -0.768408 1.561010 0.038753 -0.008579 -534797.000000 0 0 1
29.598275 -29.250402 -1.069078 41.626756 -0.779487 1.596482 0.041914 -0.004780 597327.000000 0 0 1
28.267325 -28.828502 -1.449378 40.400803 -0.795227 1.606679 0.057392 -0.002581 905110.000000 0 0 1
28.024525 -29.166402 -2.812478 40.545814 -0.805362 1.640218 0.061830 -0.002407 622410.000000 0 0 1
26.581825 -29.739402 -3.008378 40.000947 -0.841403 1.646075 0.086453 -0.013615 500815.000000 0 0 1
25.530725 -28.827602 -3.031278 38.626897 -0.845975 1.649353 0.097507 -0.015816 856139.000000 0 0 1
24.282425 -29.445202 -3.455578 38.322279 -0.881196 1.661090 0.088893 -0.016544 1490040.000000 0 0 1
23.038525 -28.513902 -3.550278 36.829617 -0.891211 1.667344 0.092600 -0.020036 232311.000000 0 0 1
22.937925 -27.703402 -4.690178 36.271541 -0.879224 1.700467 0.092416 -0.022830 75937.600000 0 0 1
22.322125 -26.456702 -4.400378 34.894092 -0.869958 1.697240 0.094740 -0.031528 -47159.100000 0 0 1
21.876525 -25.765302 -5.693378 34.276051 -0.866843 1.737673 0.091874 -0.043863 -144583.000000 0 0 1
20.644025 -26.207502 -6.207378 33.934355 -0.903592 1.754755 0.101863 -0.043141 -483238.000000 0 0 1
20.232925 -25.464802 -7.313378 33.336360 -0.899391 1.791977 0.104208 -0.041770 653475.000000 0 0 1
18.714125 -25.703702 -7.604678 32.691435 -0.941478 1.805567 0.102264 -0.037499 819233.000000 0 0 1
17.857625 -25.068002 -6.650078 31.488459 -0.951818 1.783590 0.106340 -0.039181 460395.000000 0 0 1
16.490825 -25.274602 -7.035378 30.987891 -0.992689 1.799830 0.099984 -0.037690 618329.000000 0 0 1
15.589625 -24.414602 -6.120178 29.606854 -1.002522 1.779012 0.084999 -0.026021 -146199.000000 0 0 1
15.698825 -24.851902 -4.759078 29.777827 -1.007397 1.731304 0.068655 -0.023967 394444.000000 0 0 1
14.948425 -23.974702 -3.904878 28.521743 -1.013270 1.708136 0.076333 -0.027338 308930.000000 0 0 1
14.770825 -24.558702 -2.430478 28.761334 -1.029312 1.655402 0.076203 -0.024196 315345.000000 0 0 1
13.863725 -25.653502 -2.231578 29.245256 -1.075336 1.647176 0.075311 -0.023137 774357.000000 0 0 1
14.542325 -26.928302 -2.347578 30.694035 -1.075633 1.647354 0.086115 -0.027115 167234.000000 0 0 1
13.563225 -28.111502 -2.331878 31.299445 -1.121263 1.645368 0.081594 -0.015379 -87492.400000 0 0 1
12.953925 -28.372302 -1.090478 31.208666 -1.142493 1.605745 0.098757 -0.027668 -20939.300000 0 0 1
12.266325 -29.587402 -0.939178 32.043083 -1.177785 1.600110 0.089302 -0.026287 -124393.000000 0 0 1
13.197725 -30.722202 -0.516878 33.441005 -1.165051 1.586253 0.094804 -0.025421 64352.700000 0 0 1
14.049225 -31.206802 -1.530878 34.257682 -1.147778 1.615498 0.089765 -0.022602 -170620.000000 0 0 1
14.859825 -32.279702 -1.131978 35.553832 -1.139372 1.602640 0.080646 -0.018800 177142.000000 0 0 1
16.266925 -32.370402 -1.806978 36.272868 -1.105131 1.620633 0.070219 -0.017399 494416.000000 0 0 1
17.124225 -31.407602 -1.229278 35.793682 -1.071626 1.605147 0.078496 -0.014382 -351529.000000 0 0 1
18.369225 -31.321802 -1.890378 36.360105 -1.040386 1.622810 0.090294 -0.015253 -46351.400000 0 0 1
19.251125 -30.227902 -1.247478 35.859282 -1.003710 1.605591 0.097494 -0.013833 -139288.000000 0 0 1
18.871825 -28.879702 -1.587578 34.535538 -0.991990 1.616782 0.084107 -0.020044 257808.000000 0 0 1
19.523925 -27.987002 -0.718878 34.131697 -0.961678 1.591860 0.073043 -0.013333 -39978.900000 0 0 1
19.150925 -26.489702 -1.016478 32.703142 -0.944828 1.601883 0.068557 -0.013813 -148544.000000 0 0 1
19.554225 -25.922302 -2.247478 32.548189 -0.924524 1.639902 0.085011 -0.022020 67363.100000 0 0 1
18.604325 -26.035202 -3.289778 32.167923 -0.950350 1.673244 0.099578 -0.025179 -173883.000000 0 0 1
32.652585 -28.715202 13.695722 45.588671 -0.721326 1.265664 0.076034 -0.045104 9875.660000 0 0 1
33.685605 -29.347902 14.448822 46.955168 -0.716691 1.258005 0.103122 -0.040429 296786.000000 0 0 1
33.153025 -30.171802 15.473022 47.422306 -0.738355 1.238429 0.082134 -0.029441 -110242.000000 0 0 1
34.181855 -30.727102 16.458722 48.820524 -0.732224 1.226933 0.087674 -0.021018 -642307.000000 0 0 1
33.603515 -31.191202 17.638522 49.124380 -0.748185 1.203537 0.064889 -0.017495 -235628.000000 0 0 1
34.385105 -31.298902 18.800322 50.153851 -0.738447 1.186558 0.058537 -0.016699 -153985.000000 0 0 1
35.321655 -32.553902 18.916322 51.625605 -0.744644 1.195645 0.060015 -0.014313 806172.000000 0 0 1
36.371835 -32.606002 17.923022 52.031687 -0.730857 1.219129 0.078562 -0.017028 604376.000000 0 0 1
37.109095 -33.801902 17.941722 53.306274 -0.738793 1.227516 0.059728 -0.009504 -589733.000000 0 0 1
-36.469491 -33.874102 16.827522 52.541831 0.748519 1.244783 0.077354 -0.018402 -322154.000000 0 0 1
-35.387101 -32.992702 17.098522 51.313982 0.750396 1.231086 0.083562 -0.018880 252508.000000 0 0 1
-34.397458 -33.012902 16.092622 50.319075 0.764862 1.245266 0.108148 -0.013829 -143371.000000 0 0 1
-33.191491 -32.115802 16.456222 49.029655 0.768928 1.228514 0.080356 -0.016328 158099.000000 0 0 1
-32.132771 -32.078302 15.516322 47.982170 0.784550 1.241500 0.098446 -0.025638 179700.000000 0 0 1
-32.224581 -30.925702 14.706022 47.022226 0.764833 1.252713 0.115957 -0.030639 574298.000000 0 0 1
-30.969631 -30.866302 13.748222 45.835142 0.783727 1.266157 0.099545 -0.037105 713144.000000 0 0 1
-29.740841 -30.744202 14.420922 45.140742 0.801985 1.245631 0.089894 -0.041942 -1281240.000000 0 0 1
-28.713601 -30.752102 13.510322 44.189269 0.819665 1.260083 0.071891 -0.029539 -412319.000000 0 0 1
-27.430031 -30.268602 14.228222 43.255487 0.834555 1.235621 0.061419 -0.033675 124155.000000 0 0 1
-26.225001 -30.240802 13.518522 42.249346 0.856398 1.245099 0.055394 -0.027827 147095.000000 0 0 1
-25.098551 -29.872202 14.334722 41.566452 0.872021 1.218704 0.030805 -0.021709 1269110.000000 0 0 1
-23.732351 -29.896602 13.559122 40.507790 0.899839 1.229479 0.034527 -0.013060 613815.000000 0 0 1
-23.376951 -31.218302 13.110122 41.145346 0.928050 1.246513 0.042862 -0.024392 499678.000000 0 0 1
-22.139351 -31.197102 12.388322 40.210453 0.953616 1.257615 0.028996 -0.026014 518919.000000 0 0 1
-21.694351 -32.622202 12.038122 40.984989 0.983936 1.272680 0.027222 -0.023150 498189.000000 0 0 1
-22.537551 -33.200202 10.990022 41.604990 0.974415 1.303472 0.033537 -0.020566 671400.000000 0 0 1
-22.274551 33.263081 11.041022 41.527008 -0.980733 1.301684 0.050732 -0.011925 66956.300000 0 0 1
-23.164151 32.354581 10.171922 41.071460 -0.949448 1.320528 0.042890 -0.003968 -27547.200000 0 0 1
-22.967251 32.622281 8.798622 40.854909 -0.957367 1.353733 0.031471 -0.005148 365721.000000 0 0 1
-24.162151 32.441381 8.042622 41.242412 -0.930635 1.374530 0.040400 -0.010673 -266155.000000 0 0 1
-24.105151 32.899981 6.540522 41.306725 -0.938473 1.411787 0.043400 -0.007499 -385479.000000 0 0 1
-23.412751 32.046981 5.636622 40.086624 -0.939843 1.429718 0.030155 -0.008179 1724780.000000 0 0 1
-21.973351 31.909081 5.838322 39.180399 -0.967746 1.421228 0.051145 -0.014158 1377230.000000 0 0 1
-21.024751 33.118681 5.559822 39.620687 -1.005159 1.430005 0.056618 -0.018871 -461889.000000 0 0 1
-20.979551 -33.569302 6.328922 40.088588 1.012224 1.412260 0.048055 -0.019504 424207.000000 0 0 1
-20.257651 -33.796502 7.571222 40.123551 1.030818 1.380960 0.042538 -0.015838 -6923.610000 0 0 1
-20.292851 -32.535402 8.428522 39.260568 1.013121 1.354430 0.030204 -0.010672 -317006.000000 0 0 1
-19.462851 -31.462802 8.046722 37.861065 1.016813 1.356630 0.037556 -0.021267 -242537.000000 0 0 1
-19.588651 -30.210502 8.785022 37.061655 0.995543 1.331480 0.039379 -0.019264 -97482.100000 0 0 1
-19.094051 -30.219702 10.274822 37.193886 1.007293 1.290906 0.026595 -0.010263 415573.000000 0 0 1
-17.731051 -30.611102 10.326622 36.851986 1.045784 1.286774 0.035869 -0.021199 152943.000000 0 0 1
-17.147451 -30.594002 11.627622 36.949014 1.059940 1.250662 0.061925 -0.026187 809635.000000 0 0 1
-15.682051 -31.153302 11.725122 36.795835 1.104446 1.246488 0.060199 -0.031064 616430.000000 0 0 1
-14.725651 -30.293602 11.141122 35.477764 1.118332 1.251360 0.068681 -0.024131 -471380.000000 0 0 1
-13.699051 -31.141402 10.689822 35.661228 1.156375 1.266355 0.069359 -0.021001 -102029.000000 0 0 1
-12.583251 -30.463402 9.864622 34.404474 1.179081 1.279990 0.088421 -0.019405 321085.000000 0 0 1
-11.611051 -29.722202 10.582922 33.618805 1.198374 1.250559 0.099217 -0.024799 72307.000000 0 0 1
-10.735251 -29.063002 9.654822 32.451800 1.216963 1.268710 0.113036 -0.024805 230041.000000 0 0 1
-9.674851 -28.223302 10.382622 31.590447 1.240553 1.235908 0.137512 -0.023582 -29661.400000 0 0 1
-10.212451 -27.267302 11.280622 31.225828 1.212437 1.201178 0.114154 -0.026865 -631370.000000 0 0 1
-9.328351 -27.072102 12.326622 31.174709 1.238963 1.164288 0.104938 -0.019561 -130974.000000 0 0 1
-9.592451 -25.826902 13.169422 30.536497 1.215174 1.124898 0.090737 -0.025601 199386.000000 0 0 1
-9.169851 -24.573602 12.544322 29.074183 1.213641 1.124687 0.087443 -0.027661 -19020.500000 0 0 1
-9.920351 -24.161002 11.432122 28.510714 1.181191 1.158214 0.084210 -0.025091 197974.000000 0 0 1
-9.342451 -22.793902 10.830522 26.909916 1.181814 1.156579 0.080436 -0.025278 -276569.000000 0 0 1
-8.130251 -22.950202 10.170022 26.386400 1.230335 1.175126 0.064723 -0.026262 -704485.000000 0 0 1
-7.650851 -21.708602 9.679422 24.969784 1.231955 1.172720 0.070148 -0.019510 -197489.000000 0 1 0
-6.414751 -21.926802 8.818322 24.488701 1.286186 1.202424 0.075432 -0.024985 621907.000000 0 1 0
-5.241151 -22.404602 9.506122 24.895827 1.340997 1.179014 0.067825 -0.031161 258123.000000 0 1 0
-4.177851 -22.674202 8.629222 24.617826 1.388584 1.212662 0.065902 -0.027573 856418.000000 0 1 0
-2.951251 -23.352402 9.360722 25.331160 1.445084 1.192289 0.073955 -0.028257 679002.000000 0 0 1
-2.082151 -22.572502 10.143922 24.834499 1.478814 1.150029 0.062688 -0.025499 -324345.000000 0 1 0
-1.114351 -23.480502 10.658922 25.810625 1.523373 1.145088 0.067974 -0.033008 188096.000000 0 0 1
-0.224551 -22.838202 11.755322 25.686991 1.560964 1.095460 0.068031 -0.027484 -112479.000000 0 0 1
-0.983051 -22.451402 12.853222 25.888939 1.527039 1.051263 0.065616 -0.027415 23507.700000 0 0 1
-0.166151 -22.124902 13.990722 26.177838 1.563287 1.006941 0.096859 -0.030412 338556.000000 0 0 1
0.709049 -20.836502 14.050522 25.141196 -1.536780 0.977780 0.079118 -0.029851 1815890.000000 0 0 1
2.059949 -20.956302 13.497922 25.012075 -1.472814 1.000768 0.082324 -0.025152 1331630.000000 0 0 1
2.803349 -19.751902 13.528122 24.104076 -1.429810 0.974916 0.072944 -0.009258 356603.000000 0 1 0
4.249749 -19.985002 13.037722 24.237221 -1.361270 1.002827 0.087874 -0.000326 162027.000000 0 1 0
4.398349 -20.256602 11.689822 23.797633 -1.356984 1.057309 0.078353 -0.002181 -234035.000000 0 1 0
5.735649 -20.615102 11.384222 24.237999 -1.299434 1.081863 0.107496 -0.001184 500083.000000 0 1 0
5.837249 -21.325002 10.021522 24.274680 -1.303613 1.145228 0.101856 -0.016630 -388151.000000 0 1 0
5.637649 -20.489702 8.865422 23.026217 -1.302295 1.175573 0.078137 -0.017113 -383865.000000 0 1 0
6.001849 -21.182702 7.687722 23.320166 -1.294696 1.234853 0.077524 -0.024049 -776198.000000 0 1 0
7.466149 -21.555702 7.512822 24.017372 -1.237363 1.252649 0.080821 -0.012746 -562174.000000 0 1 0
8.331149 -20.559302 6.897622 23.230801 -1.185794 1.269334 0.079557 -0.021922 383450.000000 0 1 0
8.736249 -19.483402 7.755122 22.717106 -1.149278 1.222414 0.076094 -0.012387 251066.000000 0 1 0
9.847649 -19.745502 8.815222 23.760665 -1.108166 1.190710 0.074658 -0.006109 358462.000000 0 1 0
9.316149 -20.289202 10.004822 24.465053 -1.140345 1.149500 0.092398 -0.006229 -198253.000000 0 1 0
10.205949 -20.019202 11.068222 25.048660 -1.099333 1.113115 0.083722 0.006382 400530.000000 0 0 1
9.501849 -20.238802 12.434122 25.583230 -1.131856 1.063259 0.095644 0.001770 169803.000000 0 0 1
9.479849 -21.561802 12.916822 26.863044 -1.156575 1.069184 0.090145 -0.011840 -251669.000000 0 0 1
8.889549 -21.577802 14.218122 27.327287 -1.180008 1.023605 0.120681 -0.020373 224496.000000 0 0 1
9.001549 -22.929502 14.974022 28.827266 -1.196707 1.024601 0.113153 -0.034194 -172704.000000 0 0 1
8.357249 -23.948602 14.269922 29.103433 -1.235043 1.058342 0.133539 -0.033856 -224969.000000 0 0 1
8.456049 -25.248402 14.912422 30.518304 -1.247624 1.060268 0.138690 -0.042602 65958.000000 0 0 1
8.385349 -26.473502 13.964122 31.083068 -1.264049 1.104869 0.155326 -0.055213 250095.000000 0 0 1
9.598349 -26.596802 13.243222 31.223407 -1.224459 1.132780 0.131741 -0.039292 191411.000000 0 0 1
9.399549 -27.550602 12.220822 31.571121 -1.242006 1.173324 0.121274 -0.043272 271939.000000 0 0 1
10.684949 -27.727802 11.369122 31.815972 -1.202981 1.205378 0.092353 -0.036545 417149.000000 0 0 1
11.733549 -28.382602 12.068122 32.998301 -1.178786 1.196391 0.068064 -0.039241 -268678.000000 0 0 1
12.846349 -28.658802 11.277922 33.369854 -1.149397 1.226040 0.095926 -0.035689 -966791.000000 0 0 1
13.714349 -29.597202 12.079922 34.785087 -1.136883 1.216135 0.074647 -0.029421 -913865.000000 0 0 1
14.385249 -28.862402 13.139222 34.822590 -1.108423 1.183897 0.060512 -0.024502 390504.000000 0 0 1
15.249349 -29.658202 13.936722 36.143932 -1.095877 1.174950 0.054413 -0.017932 890547.000000 0 0 1
16.676749 -29.880802 13.340422 36.727961 -1.061749 1.199072 0.055702 -0.014228 122349.000000 0 0 1
17.520449 -28.760902 13.274222 36.198903 -1.023657 1.195334 0.057162 -0.019671 -505054.000000 0 0 1
18.780049 -28.916202 12.732822 36.755431 -0.994798 1.217044 0.051739 -0.017014 -964418.000000 0 0 1
19.549549 -27.605502 12.732122 36.143541 -0.954604 1.210806 0.035829 -0.015451 105440.000000 0 0 1
20.822749 -27.805802 12.102422 36.786113 -0.928023 1.235558 0.028475 -0.019298 934757.000000 0 0 1
21.633649 -26.616802 12.272922 36.429295 -0.888310 1.227177 0.022493 -0.016342 956085.000000 0 0 1
23.093549 -26.630102 11.703122 37.140778 -0.856403 1.250233 0.025415 -0.016457 643205.000000 0 0 1
23.988849 -27.383902 12.502222 38.492188 -0.851389 1.239997 0.032474 -0.020673 111840.000000 0 0 1
25.085149 -27.786002 11.688522 39.216682 -0.836437 1.268147 0.032128 -0.029898 -505888.000000 0 0 1
26.141549 -28.594402 12.475722 40.702138 -0.830181 1.259269 0.051748 -0.027809 -99540.700000 0 0 1
27.152849 -27.861502 13.132122 41.060847 -0.798279 1.245256 0.037942 -0.023631 738626.000000 0 0 1
28.262249 -27.608002 12.251422 41.364887 -0.773689 1.270106 0.028755 -0.022691 548862.000000 0 0 1
29.603049 -27.060502 12.858922 42.118442 -0.740557 1.260539 0.061518 -0.034866 241024.000000 0 0 1
29.715949 -25.674102 13.078622 41.391394 -0.712557 1.249313 0.073930 -0.031558 -30916.600000 0 0 1
28.992949 -25.161002 14.173322 40.921268 -0.714756 1.217113 0.059900 -0.022550 -355196.000000 0 0 1
29.783649 -25.044102 15.500722 41.887291 -0.699168 1.191725 0.064071 -0.011041 -145146.000000 0 0 1
30.157849 -26.367202 15.996022 43.134649 -0.718437 1.190884 0.078113 -0.014428 126566.000000 0 0 1
30.717549 -26.204902 17.271722 43.915568 -0.706287 1.166585 0.080768 -0.003477 -312775.000000 0 0 1
31.072649 -27.600502 17.842222 45.228775 -0.726289 1.165285 0.071759 0.008837 531704.000000 0 0 1
30.017249 -28.402902 18.414522 45.242178 -0.757772 1.151606 0.055616 0.005315 823843.000000 0 0 1
30.593549 -29.383502 19.259922 46.586479 -0.765226 1.144586 0.079679 -0.003411 451756.000000 0 0 1
29.427449 -30.180002 19.887222 46.608035 -0.798023 1.129966 0.076536 -0.006311 -1321280.000000 0 0 1
28.794649 -29.559702 21.038922 46.320018 -0.798508 1.099313 0.076329 -0.003613 749394.000000 0 0 1
27.666449 -30.257302 21.549522 46.317584 -0.830097 1.086873 0.069231 -0.004635 597548.000000 0 0 1
26.491549 -30.533502 20.587422 45.364511 -0.856160 1.099746 0.097614 -0.014822 -1317810.000000 0 0 1
26.860749 -31.549002 19.684922 45.873037 -0.865491 1.127281 0.104981 -0.017102 138816.000000 0 0 1
25.921749 -31.787802 18.610822 45.041804 -0.886698 1.144842 0.104389 -0.010202 193003.000000 0 0 1
26.014449 -30.766202 17.426722 43.897624 -0.868890 1.162566 0.090247 -0.007763 69216.400000 0 0 1
27.236449 -31.017202 16.753922 44.548680 -0.850209 1.185233 0.094519 -0.023725 301336.000000 0 0 1
27.410349 -30.064102 15.724322 43.616875 -0.831538 1.201982 0.075842 -0.037763 41080.200000 0 0 1
28.632849 -30.349002 14.808322 44.274015 -0.814486 1.229754 0.079534 -0.039264 -113900.000000 0 0 1
28.546749 -31.429902 13.927822 44.684895 -0.833432 1.253826 0.096914 -0.032922 384994.000000 0 0 1
28.962349 -32.704002 14.507322 46.030770 -0.846000 1.250165 0.081800 -0.038801 -320292.000000 0 0 1
28.334949 -33.857402 13.807122 46.258293 -0.873962 1.267698 0.116176 -0.040922 -291471.000000 0 0 1
28.790749 33.822081 12.455622 46.130065 0.865582 1.297392 0.120501 -0.042037 362613.000000 0 0 1
28.187749 32.685881 11.880022 44.766628 0.859157 1.302202 0.118698 -0.039885 -225448.000000 0 0 1
28.809349 32.420181 10.506622 44.625507 0.844302 1.333125 0.128955 -0.045393 -175881.000000 0 0 1
30.090049 31.853681 10.623622 45.088019 0.813862 1.332940 0.112693 -0.047546 -106503.000000 0 0 1
30.636649 31.340681 9.419222 44.828164 0.796757 1.359100 0.114463 -0.051441 296196.000000 0 0 1
32.178349 31.203981 9.577022 45.835073 0.770027 1.360300 0.096743 -0.048448 298943.000000 0 0 1
32.516349 30.252081 10.601222 45.660566 0.749340 1.336484 0.076086 -0.034697 84820.100000 0 0 1
33.911349 30.034881 10.647222 46.534257 0.724852 1.339947 0.093266 -0.033856 -115960.000000 0 0 1
34.333049 29.065381 11.736522 46.489790 0.702500 1.315581 0.079084 -0.028532 -99885.700000 0 0 1
33.967449 27.720881 11.485222 45.322678 0.684482 1.314593 0.065083 -0.032639 208317.000000 0 0 1
34.099549 27.000181 12.725922 45.318188 0.669724 1.286156 0.062115 -0.025600 -29672.400000 0 0 1
33.741249 25.485381 12.608422 44.124243 0.646896 1.281009 0.049531 -0.020780 653089.000000 0 0 1
34.787949 24.772281 11.902122 44.334274 0.618797 1.298999 0.043402 -0.007685 553036.000000 0 0 1
34.792349 23.313181 12.049022 43.579708 0.590353 1.290664 0.057992 -0.011373 -200443.000000 0 0 1
33.591349 22.658881 11.319622 42.070625 0.593437 1.298377 0.058720 -0.014282 -746203.000000 0 0 1
32.548549 22.445581 12.179122 41.370801 0.603714 1.271980 0.091425 -0.030158 -673052.000000 0 0 1
31.357649 22.440381 11.393822 40.208109 0.621137 1.283489 0.099528 -0.023880 205657.000000 0 0 1
30.030949 22.193181 12.136822 39.264458 0.636431 1.256545 0.092600 -0.020866 64192.300000 0 0 1
29.711449 23.165581 13.085422 39.882861 0.662231 1.236509 0.098947 -0.017485 3873.510000 0 0 1
28.433749 22.833181 13.610422 38.923975 0.676586 1.213581 0.124798 -0.029199 122823.000000 0 0 1
25.071549 9.499281 26.045365 37.378871 0.362174 0.799879 0.057663 -0.012715 -650195.000000 0 0 1
24.832349 8.189981 26.434435 37.181995 0.318577 0.779952 0.064073 -0.023963 -173011.000000 0 0 1
23.447449 7.992581 26.388645 36.194265 0.328520 0.753814 0.072497 -0.020822 -86878.800000 0 0 1
22.808949 6.703281 27.044785 36.008368 0.285840 0.721116 0.096977 -0.023873 -194230.000000 0 0 1
23.018849 6.656181 28.451255 37.197394 0.281484 0.699953 0.104581 -0.024085 -568405.000000 0 0 1
24.269949 6.263981 28.885075 38.244156 0.252584 0.714714 0.093641 -0.024641 -877316.000000 0 0 1
24.377849 6.287581 30.443505 39.504686 0.252421 0.690967 0.090728 -0.038267 -132190.000000 0 0 1
24.395249 7.548181 31.061985 40.211319 0.300069 0.688077 0.117166 -0.034621 216360.000000 0 0 1
24.400349 7.397181 32.490629 41.300561 0.294352 0.665372 0.106141 -0.032533 43598.000000 0 0 1
24.344949 8.717581 33.242139 42.115468 0.343860 0.661113 0.121658 -0.026591 -602909.000000 0 0 1
25.578149 9.356681 33.227304 42.963275 0.350687 0.686627 0.106857 -0.029346 -571563.000000 0 0 1
25.958149 10.061481 -33.496088 43.555101 0.369775 2.448151 0.121746 -0.019671 237147.000000 0 0 1
27.218749 10.954281 -33.639068 44.636795 0.382620 2.424345 0.100423 -0.024514 63517.500000 0 0 1
27.090449 12.162681 33.504972 44.770598 0.421993 0.725195 0.096122 -0.027808 287115.000000 0 0 1
26.669949 13.283981 -33.574218 44.888512 0.462117 2.415760 0.088354 -0.028629 -212667.000000 0 0 1
26.568949 14.594181 33.527914 45.199781 0.502302 0.735088 0.082869 -0.029071 -356110.000000 0 0 1
27.785749 15.239081 33.211022 45.904787 0.501652 0.761972 0.078254 -0.026125 93258.400000 0 0 1
27.617949 16.620881 33.033013 46.153925 0.541753 0.773150 0.093596 -0.030830 -38598.700000 0 0 1
27.938149 17.479981 -33.596438 47.061774 0.559079 2.365819 0.087406 -0.036941 -199966.000000 0 0 1
27.064249 17.235681 -32.511258 45.678487 0.567070 2.362770 0.078883 -0.035140 -204126.000000 0 0 1
27.678849 16.565881 -31.486438 45.077077 0.539318 2.344099 0.086222 -0.037662 -665162.000000 0 0 1
26.730649 16.187281 -30.334628 43.551640 0.544505 2.341334 0.072826 -0.030720 120587.000000 0 0 1
25.927149 15.095881 -30.858668 43.039053 0.527260 2.370274 0.086643 -0.025464 426973.000000 0 0 1
25.210849 14.416381 -29.826628 41.629878 0.519451 2.369528 0.102286 -0.029418 31586.600000 0 0 1
24.488549 13.110381 -30.197178 41.029754 0.491540 2.397913 0.083029 -0.020469 -1331970.000000 0 0 1
23.554649 13.185781 -31.197418 41.254881 0.510332 2.428300 0.090439 -0.026923 -428328.000000 0 0 1
22.942249 11.955381 -31.469748 40.738471 0.480391 2.453537 0.080896 -0.022813 288014.000000 0 0 1
21.925549 11.429981 -30.402918 39.188156 0.480549 2.458808 0.078658 -0.022363 -858193.000000 0 0 1
20.763949 12.153381 -30.136358 38.562240 0.529549 2.467861 0.095706 -0.021830 -314236.000000 0 0 1
19.893449 11.368981 -29.361688 37.243950 0.519195 2.478937 0.084164 -0.016257 -195160.000000 0 0 1
18.712649 12.176181 -28.785448 36.428350 0.576862 2.481921 0.072411 -0.008478 60578.300000 0 0 1
17.756649 12.562581 -29.763538 36.864417 0.615733 2.510492 0.048482 -0.004370 -192593.000000 0 0 1
16.581349 12.904681 -29.066428 35.865432 0.661347 2.515682 0.047523 -0.012501 -352038.000000 0 0 1
15.402149 13.411281 -29.963218 36.261317 0.716413 2.543327 0.055678 -0.015294 310010.000000 0 0 1
14.893549 12.295181 -30.698318 36.268113 0.690120 2.580036 0.059008 -0.018891 -1009720.000000 0 0 1
13.735649 11.794081 -30.149258 35.167402 0.709493 2.600812 0.062030 -0.027208 -1315890.000000 0 0 1
12.776549 11.185781 -31.161638 35.488161 0.719109 2.642643 0.067674 -0.025088 -363444.000000 0 0 1
12.263049 12.212981 -31.995698 36.376696 0.783353 2.645745 0.075628 -0.020116 -457001.000000 0 0 1
11.373049 11.627281 -32.884448 36.686876 0.796451 2.682274 0.080683 -0.013908 -535454.000000 0 0 1
10.779249 12.597581 -33.930798 37.764935 0.863025 2.687077 0.092305 -0.012229 985727.000000 0 0 1
11.712649 12.988081 32.880025 37.242079 0.836988 0.488851 0.078516 -0.005352 827911.000000 0 0 1
10.905449 13.388281 31.834885 36.216499 0.887245 0.497002 0.090033 -0.014380 -393019.000000 0 0 1
11.516749 13.332281 30.440505 35.171147 0.858331 0.524656 0.109748 -0.017347 -230357.000000 0 0 1
12.014649 12.021081 30.113675 34.578774 0.785666 0.513823 0.097894 -0.019052 326341.000000 0 0 1
12.167449 11.949881 28.722205 33.403766 0.776377 0.535822 0.111109 -0.016444 -194198.000000 0 0 1
12.753549 10.547281 28.359425 32.835273 0.690993 0.528255 0.109030 -0.016337 -454387.000000 0 0 1
12.026849 9.484681 28.819855 32.637223 0.667767 0.488503 0.100186 -0.016623 -309603.000000 0 0 1
12.568949 8.243081 28.404105 32.135962 0.580462 0.486718 0.092180 -0.024369 415555.000000 0 0 1
11.543349 7.044881 28.410535 31.464866 0.547957 0.444260 0.073360 -0.022676 721061.000000 0 0 1
10.488149 6.998481 27.458755 30.215282 0.588424 0.430468 0.071961 -0.023834 4290.860000 0 0 1
9.544549 5.969081 27.580005 29.789009 0.558881 0.387531 0.067968 -0.028020 -150972.000000 0 0 1
9.894749 4.578781 27.090235 29.201920 0.433405 0.382628 0.074852 -0.024111 -201229.000000 0 0 1
10.867349 3.917781 27.878605 30.177225 0.346006 0.392830 0.078593 -0.019371 199503.000000 0 0 1
11.099149 2.640281 27.340935 29.625816 0.233541 0.395315 0.084427 -0.021039 90629.000000 0 0 1
11.744449 1.690981 28.374025 30.755111 0.142999 0.396083 0.050510 -0.020396 650190.000000 0 0 1
10.682549 1.305681 29.244985 31.162330 0.121622 0.352616 0.034916 -0.014595 483274.000000 0 0 1
11.118249 0.371081 30.194105 32.178210 0.033364 0.352999 0.033139 -0.010426 -367224.000000 0 0 1
10.102449 0.172181 31.288205 32.879187 0.017042 0.312359 0.059379 -0.005081 -540300.000000 0 0 1
10.120449 1.339881 32.110685 33.694434 0.131628 0.307819 0.026136 -0.010782 391188.000000 0 0 1
8.982349 1.432481 32.979293 34.210647 0.158146 0.269115 0.052762 -0.016920 210965.000000 0 0 1
9.095249 2.656181 -33.880278 35.180280 0.284139 2.868893 0.048003 -0.022617 -304630.000000 0 0 1
9.010849 3.970581 33.472919 34.891220 0.415047 0.286104 0.045011 -0.019431 52032.300000 0 0 1
10.054449 4.281881 32.568051 34.352648 0.402607 0.323745 0.032779 -0.014009 -300995.000000 0 0 1
9.930249 5.538281 31.734725 33.710165 0.508750 0.344041 0.033228 -0.021947 -166303.000000 0 0 1
10.252849 6.689781 32.498545 34.727936 0.578117 0.360263 0.039198 -0.024962 104486.000000 0 0 1
10.397049 7.776881 31.624785 34.186336 0.642213 0.389574 0.043370 -0.018163 -273667.000000 0 0 1
10.659449 9.106781 32.336710 35.245144 0.707008 0.409098 0.074747 -0.027649 9447.530000 0 0 1
9.550349 9.666281 33.020577 35.707208 0.791431 0.390393 0.088103 -0.029901 32938.800000 0 0 1
9.164649 8.934981 -33.684988 36.034749 0.772710 2.778469 0.083373 -0.031662 -626382.000000 0 0 1
7.760549 9.194381 -33.152368 35.268148 0.869765 2.793452 0.091179 -0.034171 -356180.000000 0 0 1
7.183949 8.335081 -32.185608 34.014645 0.859438 2.812166 0.100153 -0.035621 957032.000000 0 0 1
5.788849 8.639181 -31.979398 33.627788 0.980442 2.827190 0.092497 -0.037945 1185670.000000 0 0 1
5.167149 7.928981 -30.717928 32.142795 0.993242 2.842726 0.091661 -0.033468 -240635.000000 0 0 1
5.711249 8.303281 -29.492308 31.166634 0.968285 2.812321 0.098814 -0.043398 -4875.050000 0 0 1
5.310049 7.560681 -28.348518 29.816086 0.958512 2.826538 0.089472 -0.036904 388163.000000 0 0 1
3.875149 7.881581 -27.831578 29.184462 1.113834 2.835916 0.080594 -0.032160 1005300.000000 0 0 1
2.788649 7.244581 -28.514648 29.552423 1.203349 2.875796 0.067606 -0.019953 1123810.000000 0 0 1
1.463449 7.597681 -28.066218 29.113211 1.380509 2.872593 0.072383 -0.011429 845931.000000 0 0 1
0.464249 6.826081 -28.968388 29.765390 1.502890 2.909660 0.073968 -0.023334 -446746.000000 0 0 1
0.175149 7.520181 -30.189258 31.112298 1.547510 2.897396 0.084374 -0.025346 -403.789000 0 0 1
-0.360251 6.730081 -31.187668 31.907592 -1.517319 2.928763 0.103754 -0.026053 -797034.000000 0 0 1
-0.451751 7.456281 -32.542168 33.388515 -1.510284 2.915955 0.116421 -0.033756 954930.000000 0 0 1
0.783749 7.692781 -33.276298 34.162921 1.469266 2.913269 0.096129 -0.029923 1228190.000000 0 0 1
1.573549 6.530781 -33.626778 34.291214 1.334359 2.944417 0.097983 -0.032897 86155.400000 0 0 1
1.474049 6.161781 32.737075 33.344512 1.335985 0.191168 0.120035 -0.037188 -100542.000000 0 0 1
0.217449 5.704681 32.285356 32.786200 1.532697 0.175015 0.124974 -0.039460 -407869.000000 0 0 1
0.006549 5.608281 30.861385 31.366829 1.569629 0.179763 0.135534 -0.041581 -312230.000000 0 0 1
0.785649 4.496281 30.197345 30.540358 1.397810 0.150017 0.130246 -0.044070 -156209.000000 0 0 1
0.692749 4.588281 28.798525 29.169972 1.420946 0.159756 0.123272 -0.041132 110606.000000 0 0 1
1.525349 3.682581 28.089315 28.370720 1.178103 0.140963 0.120150 -0.038725 91945.500000 0 0 1
1.659049 4.031681 26.622505 26.977114 1.180413 0.162319 0.111411 -0.027693 404669.000000 0 0 1
2.454949 5.208781 26.339975 26.962056 1.130363 0.215229 0.099272 -0.025401 336433.000000 0 0 1
2.435249 5.500381 24.929975 25.645434 1.153995 0.236765 0.075135 -0.019914 -785266.000000 0 0 1
2.855849 6.902681 24.574425 25.684728 1.178510 0.295104 0.054692 -0.016369 121481.000000 0 0 1
4.251049 7.138781 24.571235 25.937988 1.033702 0.326075 0.045618 -0.012838 19982.900000 0 0 1
4.897149 6.673781 23.370945 24.793598 0.937751 0.340403 0.049216 -0.023531 594968.000000 0 1 0
6.477049 6.707081 23.441265 25.227565 0.802844 0.378574 0.061680 -0.022793 1374050.000000 0 0 1
7.166449 5.892681 24.420695 26.123783 0.688167 0.363081 0.070764 -0.021083 258588.000000 0 0 1
6.918249 4.478281 24.507495 25.856034 0.574485 0.324393 0.077145 -0.020474 -875774.000000 0 0 1
7.227049 3.586981 23.265645 24.624925 0.460705 0.333811 0.087804 -0.022172 677239.000000 0 1 0
6.252849 3.792381 22.216035 23.388726 0.545189 0.318006 0.063742 -0.018342 1401220.000000 0 1 0
4.956349 3.182781 22.479735 23.238632 0.570846 0.256265 0.060890 -0.016088 1055910.000000 0 1 0
3.933749 3.440781 21.342735 21.973295 0.718650 0.240146 0.034801 -0.011835 -30812.000000 0 1 0
3.640249 4.837181 21.181335 22.029496 0.925661 0.278391 0.026470 -0.022343 210050.000000 0 1 0
2.472749 4.987781 20.390035 21.136367 1.110545 0.266534 0.019251 -0.021118 174959.000000 0 1 0
1.674149 6.297781 20.574635 21.581947 1.310974 0.306729 0.011657 -0.024632 146173.000000 0 1 0
2.314749 7.351681 19.868735 21.311310 1.265763 0.370050 0.004243 -0.019625 301869.000000 0 1 0
1.592249 8.598481 20.037335 21.862387 1.387693 0.411502 0.007829 -0.021520 532626.000000 0 1 0
2.471949 9.814281 19.706935 22.153870 1.324056 0.474441 0.007048 -0.023872 -345761.000000 0 1 0
2.684149 10.142881 18.380635 21.164368 1.312093 0.518687 0.006994 -0.017740 167994.000000 0 1 0
3.724849 11.056181 18.027635 21.473455 1.245837 0.574377 0.023094 -0.024739 723289.000000 0 1 0
5.206549 10.602181 18.091235 21.605722 1.114308 0.578406 0.037266 -0.031241 -37552.300000 0 1 0
5.682349 9.792581 17.075835 20.488238 1.045010 0.585482 0.042128 -0.027703 -788170.000000 0 1 0
6.944449 9.279481 17.361735 20.874961 0.928342 0.588631 0.039460 -0.026700 -678021.000000 0 1 0
7.025749 7.818181 17.861835 20.725112 0.838732 0.531900 0.047978 -0.025964 -801255.000000 0 1 0
6.423649 7.570681 19.081535 21.510079 0.867179 0.479778 0.058976 -0.030182 -400015.000000 0 1 0
6.681849 6.310881 19.647335 21.690830 0.756854 0.437556 0.055399 -0.032013 405305.000000 0 1 0
8.163349 5.962281 20.014535 22.422549 0.630820 0.467700 0.086487 -0.026541 242770.000000 0 1 0
9.009749 5.878881 18.889935 21.738594 0.578132 0.517703 0.086105 -0.024352 -426293.000000 0 1 0
10.340249 5.533281 19.223235 22.518231 0.491348 0.547796 0.094672 -0.021016 223238.000000 0 1 0
10.586349 3.985081 19.210635 22.293501 0.360029 0.532157 0.110557 -0.019320 -525179.000000 0 1 0
9.981149 3.333381 20.275235 22.843378 0.322321 0.478740 0.120842 -0.023600 -91373.900000 0 1 0
10.050849 1.904381 20.082635 22.537934 0.187255 0.471123 0.124668 -0.038129 -112995.000000 0 1 0
9.229849 1.103281 21.086235 23.044233 0.118970 0.415206 0.124303 -0.037797 -223377.000000 0 1 0
9.698349 1.183281 22.390035 24.428914 0.121408 0.411459 0.127041 -0.029270 -192640.000000 0 1 0
9.131649 0.187581 23.206725 24.939413 0.020539 0.374955 0.132074 -0.036768 -758075.000000 0 1 0
9.631949 0.245781 24.681675 26.495659 0.025512 0.372181 0.119894 -0.029849 629265.000000 0 0 1
11.042049 -0.000019 24.721375 27.075326 -0.000002 0.420073 0.114838 -0.033089 630745.000000 0 0 1
11.312649 -1.412019 24.667355 27.174404 -0.124175 0.432926 0.108052 -0.035373 -565399.000000 0 0 1
12.690049 -1.925019 25.119695 28.208902 -0.150547 0.472379 0.091696 -0.027376 -59426.600000 0 0 1
12.883649 -3.306419 24.826945 28.165547 -0.251215 0.491841 0.101364 -0.024652 948950.000000 0 0 1
14.196249 -3.803719 25.163095 29.140747 -0.261789 0.528624 0.090784 -0.022255 826182.000000 0 0 1
14.196449 -5.325919 25.265875 29.466405 -0.358910 0.540509 0.082651 -0.022968 -318744.000000 0 0 1
13.888849 -5.955619 24.059395 28.411688 -0.405090 0.560831 0.104686 -0.028788 258946.000000 0 0 1
13.261649 -7.226819 24.249415 28.568031 -0.498951 0.557027 0.096352 -0.032135 22860.900000 0 0 1
13.258149 -8.129719 23.018355 27.779768 -0.550059 0.594191 0.112911 -0.034338 240375.000000 0 0 1
12.592249 -9.378519 23.288645 28.087050 -0.640155 0.593194 0.111512 -0.025872 -55061.300000 0 0 1
12.586249 -10.144519 22.134235 27.408927 -0.678389 0.630800 0.102191 -0.022478 235863.000000 0 0 1
11.945949 -11.566419 22.276335 27.797893 -0.769258 0.641218 0.116407 -0.019707 382161.000000 0 0 1
10.539249 -11.610819 22.156435 27.143959 -0.833738 0.615895 0.114780 -0.015515 -297705.000000 0 0 1
10.031949 -12.933919 22.106835 27.507061 -0.911092 0.637345 0.106138 -0.015435 -123226.000000 0 0 1
8.512249 -12.873419 22.326035 27.141023 -0.986569 0.604839 0.083318 -0.011241 -165803.000000 0 0 1
7.871549 -11.965219 21.445135 25.788012 -0.988909 0.588826 0.071360 -0.021098 -292403.000000 0 0 1
6.494349 -11.868619 21.740435 25.606390 -1.070116 0.556661 0.052060 -0.020564 59821.600000 0 0 1
5.852649 -10.628119 21.084135 24.325936 -1.067434 0.522178 0.042847 -0.026273 28714.000000 0 1 0
6.016549 -9.418719 21.758035 24.460647 -1.002345 0.474521 0.055463 -0.019818 -327830.000000 0 1 0
5.310949 -8.396719 21.109435 23.330652 -1.006820 0.439900 0.041681 -0.018411 73854.700000 0 1 0
5.447949 -7.060019 21.816635 23.568827 -0.913575 0.388030 0.054666 -0.021342 271767.000000 0 1 0
4.634649 -6.062119 21.222135 22.552345 -0.918063 0.345173 0.036566 -0.024650 -57691.200000 0 1 0
4.850849 -4.813019 21.843135 22.887080 -0.781484 0.303196 0.067140 -0.038848 -225442.000000 0 1 0
-8.255651 -15.823519 -20.106178 26.884901 1.089914 2.415631 0.076374 -0.024405 -343809.000000 0 0 1
-7.462751 -15.295919 -19.117778 25.595844 1.116882 2.414198 0.053943 -0.018317 -429662.000000 0 0 1
-6.845751 -14.049119 -19.475678 24.970865 1.117382 2.465360 0.063200 -0.018099 514345.000000 0 1 0
-5.997351 -13.384619 -18.345278 23.487560 1.149542 2.467164 0.043374 -0.015854 512314.000000 0 1 0
-4.920751 -14.188819 -17.899778 23.365325 1.236971 2.443521 0.043166 -0.013798 -32653.100000 0 1 0
-4.141151 -13.584719 -16.893878 22.070270 1.274906 2.442550 0.034014 -0.013637 430920.000000 0 1 0
-3.146251 -14.619019 -16.273378 22.100621 1.358813 2.398428 0.042715 -0.011284 313873.000000 0 1 0
-2.104951 -15.012719 -17.121678 22.868415 1.431493 2.416902 0.049160 -0.006527 97047.000000 0 1 0
-1.114551 -15.874919 -16.558278 22.965884 1.500703 2.376033 0.060876 0.000468 311264.000000 0 1 0
0.018349 -16.476019 -17.402278 23.964532 -1.569683 2.383528 0.055179 0.007322 -403281.000000 0 1 0
-0.210651 -17.198719 -18.597478 25.331926 1.558549 2.395213 0.076243 -0.021054 -630933.000000 0 0 1
-0.482351 -18.556619 -18.371278 26.116750 1.544809 2.351007 0.079219 -0.012931 122683.000000 0 0 1
-1.082951 -19.235819 -19.683178 27.543003 1.514557 2.366898 0.083389 -0.020545 239912.000000 0 0 1
-2.407451 -18.807619 -19.926478 27.506124 1.443485 2.381015 0.099218 -0.034228 -177978.000000 0 0 1
-2.794151 -19.114819 -21.264078 28.728811 1.425647 2.404113 0.072780 -0.039314 244424.000000 0 0 1
-3.831751 -18.089619 -21.818078 28.599740 1.362061 2.438547 0.094548 -0.045567 303325.000000 0 0 1
-3.309451 -16.779519 -21.967778 27.840402 1.376064 2.480075 0.078972 -0.042627 -282257.000000 0 0 1
-3.222051 -16.058719 -20.731678 26.420949 1.372784 2.472957 0.087657 -0.029594 -412049.000000 0 0 1
-2.253551 -14.902719 -20.564878 25.496740 1.420716 2.509121 0.072465 -0.015966 -358360.000000 0 0 1
-2.435351 -13.772819 -21.380778 25.549151 1.395782 2.562298 0.052911 -0.018398 -480936.000000 0 0 1
-1.429951 -12.854419 -21.125278 24.770107 1.460010 2.592223 0.033290 -0.001710 -256111.000000 0 1 0
-1.440251 -11.738919 -22.237578 25.187029 1.448716 2.652795 0.038267 -0.001544 218631.000000 0 0 1
-2.607951 -10.932619 -22.353578 25.020112 1.336625 2.675708 0.039808 -0.007219 237343.000000 0 0 1
-2.666651 -10.333619 -23.633778 25.931644 1.318250 2.717439 0.043426 -0.002956 -299373.000000 0 0 1
-3.607051 -9.156319 -23.829178 25.781364 1.195524 2.749939 0.034150 -0.000066 976884.000000 0 0 1
-5.029451 -9.456619 -23.861678 26.155357 1.081999 2.719676 0.063134 -0.003018 1334750.000000 0 0 1
-5.670351 -8.206119 -23.713578 25.725999 0.966143 2.743430 0.045316 -0.008809 -429185.000000 0 0 1
-7.214551 -8.300719 -23.587678 26.025569 0.855291 2.705306 0.049373 -0.013484 455587.000000 0 0 1
-7.990251 -8.591019 -24.742378 27.383115 0.821614 2.698811 0.059712 -0.013056 241046.000000 0 0 1
-8.058251 -7.502019 -25.661038 27.923191 0.749666 2.736299 0.058185 -0.017797 -707916.000000 0 0 1
-9.031851 -7.885619 -26.779938 29.341479 0.717747 2.720637 0.042642 -0.024407 -333166.000000 0 0 1
-9.791751 -6.829819 -27.249598 29.750049 0.609051 2.728669 0.055408 -0.032717 71288.800000 0 0 1
-10.581451 -7.376319 -28.352798 31.148970 0.608776 2.714641 0.055657 -0.029287 -52415.900000 0 0 1
-11.587951 -6.412719 -28.967188 31.851241 0.505446 2.712762 0.067854 -0.038195 -274768.000000 0 0 1
-10.972851 -5.397719 -29.709988 32.128215 0.457159 2.751127 0.041957 -0.027345 361969.000000 0 0 1
-11.875951 -4.844819 -30.691398 33.263680 0.387343 2.745745 0.063145 -0.027462 267460.000000 0 0 1
-11.265551 -3.676519 -31.464158 33.621759 0.315453 2.781395 0.047398 -0.027389 -538056.000000 0 0 1
-10.266651 -4.035419 -32.356408 34.185170 0.374510 2.813021 0.050164 -0.018201 -206223.000000 0 0 1
-9.703451 -2.930619 -33.083568 34.601560 0.293307 2.844287 0.046497 -0.015351 672902.000000 0 0 1
-8.535551 -3.353119 33.823798 35.044948 0.374320 0.264762 0.042404 -0.019050 1154920.000000 0 0 1
-7.240451 -3.539519 -33.477378 34.433809 0.454691 2.905349 0.053512 -0.018793 870304.000000 0 0 1
-6.247951 -3.810319 33.396947 34.189348 0.547631 0.215717 0.052770 -0.014695 1905300.000000 0 0 1
-4.752851 -3.409419 33.778557 34.281258 0.622270 0.171464 0.082083 -0.022523 1390310.000000 0 0 1
-4.530651 -2.037519 33.606460 33.971642 0.422620 0.146758 0.105854 -0.044240 -695788.000000 0 0 1
-3.222351 -1.675719 33.906035 34.100012 0.479543 0.106713 0.110836 -0.042186 -605245.000000 0 0 1
-3.041651 -0.269919 -33.389898 33.529238 0.088509 3.050393 0.107273 -0.045619 -126065.000000 0 0 1
-3.532751 -0.237919 -32.067678 32.262562 0.067245 3.031623 0.100213 -0.037425 67906.700000 0 0 1
-4.100351 1.010481 -31.765658 32.045140 -0.241623 3.009425 0.121140 -0.038194 -639541.000000 0 0 1
-4.568551 1.011581 -30.336568 30.695314 -0.217907 2.988556 0.123946 -0.046062 943986.000000 0 0 1
-5.707651 0.229681 -29.922828 30.463186 -0.040219 2.952962 0.115894 -0.043897 1131490.000000 0 0 1
-7.009651 0.656581 -30.318148 31.124852 -0.093396 2.913421 0.127269 -0.045988 207868.000000 0 0 1
-8.012251 -0.501619 -30.323718 31.368386 0.062525 2.882789 0.105179 -0.044024 -237721.000000 0 0 1
-8.393751 -1.019719 -29.056758 30.262024 0.120893 2.858415 0.090934 -0.038433 -310461.000000 0 0 1
-9.260651 -2.086019 -29.187588 30.692449 0.221558 2.827152 0.059208 -0.026821 -677979.000000 0 0 1
-9.689351 -2.709019 -27.884518 29.644032 0.272626 2.795323 0.057474 -0.025247 24352.700000 0 0 1
-10.576051 -1.866819 -27.138808 29.186517 0.174714 2.764776 0.057339 -0.022915 299886.000000 0 0 1
-10.764251 -2.447019 -25.818188 28.079100 0.223529 2.737554 0.052708 -0.025350 16633.600000 0 0 1
-11.719451 -1.657119 -24.872778 27.545356 0.140468 2.697441 0.058230 -0.025312 366714.000000 0 0 1
-11.184651 -0.442119 -24.329878 26.781241 0.039508 2.710398 0.064357 -0.024486 -295145.000000 0 0 1
-12.098351 0.138981 -23.487878 26.421011 -0.011487 2.665920 0.076705 -0.027489 -268413.000000 0 0 1
-11.503651 1.451581 -22.866978 25.638638 -0.125521 2.672315 0.101279 -0.028024 330928.000000 0 0 1
-11.204951 2.449381 -23.801278 26.420659 -0.215213 2.692540 0.075200 -0.025865 233285.000000 0 0 1
-10.365351 3.457381 -23.226078 25.667970 -0.321947 2.701862 0.087212 -0.025535 -128104.000000 0 0 1
-10.272251 4.674881 -24.193378 26.696314 -0.427085 2.705110 0.108125 -0.030255 9362.300000 0 0 1
-11.417651 5.472281 -24.359578 27.453555 -0.446937 2.662257 0.102937 -0.027003 -20766.900000 0 0 1
-12.416551 4.980781 -25.235008 28.561942 -0.381489 2.654118 0.087772 -0.028552 396755.000000 0 0 1
-13.812951 5.650481 -25.222778 29.307236 -0.388302 2.607308 0.076167 -0.017238 505068.000000 0 0 1
-13.654451 6.997981 -25.637378 29.877934 -0.473602 2.602297 0.086192 -0.016788 171651.000000 0 0 1
-14.940451 7.521081 -25.902218 30.833564 -0.466367 2.568201 0.080273 -0.013220 -156289.000000 0 0 1
-14.947351 9.091981 -25.980238 31.321881 -0.546476 2.548936 0.096593 -0.011615 -235365.000000 0 0 1
-14.683751 9.585881 -24.659478 30.258743 -0.578357 2.523446 0.133518 -0.030589 259307.000000 0 0 1
-14.791751 10.976381 -24.591878 30.725190 -0.638401 2.498728 0.135220 -0.018363 -308462.000000 0 0 1
-14.742751 11.511281 -23.150678 29.762597 -0.662929 2.462025 0.126634 -0.035164 -24502.100000 0 0 1
-15.895251 11.369281 -22.348778 29.688170 -0.620896 2.423077 0.141596 -0.038349 -78595.200000 0 0 1
-15.608551 11.779781 -21.010078 28.702151 -0.646503 2.392054 0.120786 -0.036419 104049.000000 0 0 1
-16.810551 11.945381 -20.051078 28.763388 -0.617797 2.342147 0.117699 -0.040752 -464583.000000 0 0 1
-17.742351 12.902481 -20.431678 29.978634 -0.628758 2.320663 0.119374 -0.038890 -149340.000000 0 0 1
-18.516451 13.182981 -19.266978 29.797087 -0.618708 2.273923 0.108997 -0.027974 134046.000000 0 0 1
-20.024151 13.500381 -19.424778 30.992724 -0.593203 2.248175 0.104537 -0.032626 119936.000000 0 0 1
-20.298351 14.720681 -20.053378 32.107001 -0.627450 2.245389 0.078504 -0.029531 134862.000000 0 0 1
-21.708151 14.825181 -20.171278 33.134729 -0.599179 2.225300 0.081955 -0.024362 260478.000000 0 0 1
-22.083951 16.114381 -20.895578 34.409292 -0.630374 2.223411 0.079079 -0.014636 -231158.000000 0 0 1
-21.732851 16.044681 -22.247178 34.995508 -0.635951 2.259731 0.075197 -0.011406 144699.000000 0 0 1
-21.958851 17.311781 -22.823678 36.094448 -0.667611 2.255356 0.065430 0.004239 -114596.000000 0 0 1
-21.549851 17.238381 -24.311378 36.777724 -0.674699 2.292994 0.065360 -0.000487 232326.000000 0 0 1
-20.125751 17.165781 -24.398878 35.986319 -0.706190 2.315840 0.069598 -0.002304 550188.000000 0 0 1
-19.714051 16.937181 -25.747788 36.584977 -0.709778 2.351501 0.063618 -0.007552 57565.100000 0 0 1
-19.382051 18.215981 -26.592898 37.612074 -0.754394 2.356087 0.045835 -0.002229 -642924.000000 0 0 1
-20.436351 19.120781 -26.561358 38.584381 -0.752153 2.330073 0.049011 -0.003861 -290142.000000 0 0 1
-20.093651 20.256881 -27.275278 39.471975 -0.789443 2.333673 0.033089 -0.000805 -358214.000000 0 0 1
-21.291551 21.193881 -27.604268 40.798362 -0.783099 2.313935 0.057759 -0.003748 175006.000000 0 0 1
-21.994351 21.736081 -26.508698 40.729839 -0.779492 2.279490 0.065728 -0.002972 185203.000000 0 0 1
-23.031251 20.874481 -26.061668 40.563445 -0.736315 2.268542 0.094272 -0.014135 -312562.000000 0 0 1
-23.767651 21.381581 -24.813378 40.469457 -0.732599 2.230824 0.095485 -0.005436 227974.000000 0 0 1
-22.870051 21.416381 -23.732078 39.305371 -0.752586 2.219040 0.076592 -0.003791 70574.300000 0 0 1
-23.614151 21.710881 -22.573678 39.224501 -0.743431 2.184011 0.067615 -0.015285 73009.200000 0 0 1
-23.175851 20.899381 -21.360378 37.817588 -0.733794 2.171019 0.060695 -0.011466 18653.200000 0 0 1
-22.106751 21.401981 -20.582578 37.018857 -0.769201 2.160365 0.067414 -0.015703 455635.000000 0 0 1
-21.339251 20.327481 -19.927678 35.576432 -0.761121 2.165348 0.060062 -0.016888 512472.000000 0 0 1
-21.991451 19.609081 -18.694878 34.894677 -0.728193 2.136194 0.072763 -0.021012 -20070.600000 0 0 1
-23.064651 18.685181 -19.010278 35.249182 -0.680882 2.140415 0.106861 -0.024814 902915.000000 0 0 1
-23.742051 18.153881 -17.844278 34.809002 -0.652799 2.109046 0.088051 -0.025524 329531.000000 0 0 1
-24.771451 19.141681 -17.241578 35.739345 -0.657891 2.074218 0.067923 -0.020166 -905293.000000 0 0 1
-25.906601 19.283281 -18.044078 36.994401 -0.639868 2.080309 0.069849 -0.011944 -346010.000000 0 0 1
-26.785111 20.270781 -17.559478 37.903588 -0.647834 2.052474 0.078235 -0.011202 -1783440.000000 0 0 1
-28.098961 20.320381 -18.321078 39.219018 -0.626109 2.056859 0.062895 0.008428 -228881.000000 0 0 1
-28.937951 19.171781 -18.126678 39.160422 -0.585122 2.052041 0.050758 0.004306 393151.000000 0 0 1
-29.390181 18.916781 -16.806178 38.782406 -0.571893 2.018998 0.060568 -0.006282 -1033750.000000 0 0 1
-30.299361 17.638481 -16.649178 38.811885 -0.527184 2.014150 0.041963 -0.005705 158046.000000 0 0 1
-29.684301 16.341281 -16.760878 37.803733 -0.503229 2.030146 0.062771 -0.009356 -395763.000000 0 0 1
-30.454081 15.316881 -16.206978 37.745517 -0.466005 2.014597 0.053971 -0.003319 -191855.000000 0 0 1
-29.709591 14.140981 -15.488078 36.366299 -0.444242 2.010743 0.098693 -0.012542 -266646.000000 0 0 1
-29.132701 14.443681 -14.210578 35.486261 -0.460273 1.982807 0.115689 -0.016204 349312.000000 0 0 1
-30.035121 14.560981 -13.072378 35.847144 -0.451413 1.944075 0.083699 -0.008919 176549.000000 0 0 1
-29.422991 15.123381 -11.811978 35.127651 -0.474784 1.913738 0.110999 -0.028089 -121204.000000 0 0 1
-29.061151 16.511081 -11.849678 35.462391 -0.516671 1.911497 0.103002 -0.020963 355394.000000 0 0 1
-30.178361 17.383281 -11.668978 36.729783 -0.522599 1.894097 0.066516 -0.014434 424813.000000 0 0 1
-29.782701 18.896181 -11.792378 37.190525 -0.565379 1.893446 0.120830 -0.015628 -187989.000000 0 0 1
-29.052971 19.494781 -10.771678 36.608068 -0.591002 1.869460 0.070397 -0.025629 -326352.000000 0 0 1
-28.405581 20.581081 -11.333978 36.863491 -0.627009 1.883317 0.045874 -0.028693 157593.000000 0 0 1
-27.282571 21.234681 -10.460078 36.120127 -0.661383 1.864596 0.068190 -0.022158 681249.000000 0 0 1
-27.730641 22.335581 -9.676878 36.898626 -0.678054 1.836155 0.082364 -0.019623 -161748.000000 0 0 1
-26.711181 23.292781 -9.629878 36.725678 -0.717142 1.836109 0.093993 -0.013290 -90739.200000 0 0 1
-27.121801 24.567581 -8.804478 37.638770 -0.736024 1.806904 0.120383 0.001855 129369.000000 0 0 1
-27.075801 24.417181 -7.415778 37.206068 -0.733813 1.771457 0.088291 -0.001105 -247597.000000 0 0 1
-28.379471 24.437481 -6.899978 38.081420 -0.710901 1.752993 0.112332 -0.004601 -198666.000000 0 0 1
-28.482971 23.810081 -5.494578 37.528522 -0.696275 1.717735 0.102870 -0.001116 -66755.100000 0 0 1
-28.350221 22.372281 -5.614078 36.548213 -0.668084 1.725014 0.110633 -0.007143 -17879.900000 0 0 1
-28.152751 21.717481 -4.384578 35.825283 -0.657067 1.693492 0.096705 -0.003339 92810.300000 0 0 1
-28.001681 20.143081 -4.512178 34.787895 -0.623597 1.700868 0.122939 -0.009791 902750.000000 0 0 1
-26.928951 19.563281 -5.313478 33.706430 -0.628276 1.729097 0.106992 -0.020721 724027.000000 0 0 1
-27.003171 19.815981 -6.725878 34.162579 -0.633078 1.768969 0.092775 -0.014489 -321004.000000 0 0 1
-27.927061 18.860981 -7.553978 34.535778 -0.594001 1.791308 0.109928 -0.021620 145142.000000 0 0 1
-27.557551 17.490881 -7.338578 33.454511 -0.565547 1.791955 0.102573 -0.023348 235234.000000 0 0 1
-27.539571 16.834581 -8.603078 33.404252 -0.548677 1.831276 0.078144 -0.027691 -249.151000 0 0 1
-27.344861 15.346981 -8.664378 32.532180 -0.511430 1.840382 0.125279 -0.035945 146254.000000 0 0 1
-28.412401 14.689481 -8.016178 32.974301 -0.477162 1.816361 0.113326 -0.028520 90872.700000 0 0 1
-28.483201 13.351181 -8.476478 32.579095 -0.438327 1.834007 0.118702 -0.038487 -121064.000000 0 0 1
-29.167481 12.383181 -7.533778 32.570584 -0.401493 1.804216 0.113265 -0.033530 -743232.000000 0 0 1
-30.523201 12.659781 -7.325078 33.846604 -0.393165 1.788942 0.145716 -0.020738 -287088.000000 0 0 1
-31.163401 11.622881 -6.559878 33.901046 -0.356986 1.765525 0.167426 -0.034182 73770.600000 0 0 1
-31.676191 10.349981 -7.310678 34.116700 -0.315808 1.786756 0.151558 -0.025284 -652636.000000 0 0 1
-30.705591 9.517681 -7.884178 33.099544 -0.300574 1.811304 0.145049 -0.020802 -284411.000000 0 0 1
-31.229801 8.277181 -8.238178 33.341862 -0.259084 1.820464 0.128270 -0.015341 147924.000000 0 0 1
-30.110551 7.237681 -8.569978 32.132131 -0.235895 1.840775 0.163350 -0.017262 332254.000000 0 0 1
-29.463781 7.344081 -9.810378 31.910710 -0.244280 1.883290 0.160019 -0.024817 319889.000000 0 0 1
-28.482271 6.352781 -10.016078 30.853191 -0.219451 1.901424 0.171062 -0.030957 -177886.000000 0 0 1
-27.614001 6.493581 -11.293178 30.532532 -0.230959 1.949669 0.132138 -0.022160 165441.000000 0 0 1
-26.800451 7.682981 -11.222278 30.053817 -0.279186 1.953474 0.158925 -0.028412 332321.000000 0 0 1
-25.981661 7.767681 -12.344378 29.795423 -0.290510 1.997975 0.143609 -0.005321 -257733.000000 0 0 1
-32.787541 25.655981 -32.740408 52.964012 -0.663974 2.237200 0.051497 -0.019055 -123947.000000 0 0 1
-33.401641 26.794981 -33.279798 54.232699 -0.676084 2.231469 0.058937 -0.022608 49344.600000 0 0 1
-32.823651 27.158981 33.395857 54.132113 -0.691239 0.905957 0.066449 -0.023135 -212355.000000 0 0 1
-33.426841 28.483981 33.009646 54.939309 -0.705729 0.926247 0.074999 -0.032005 -136123.000000 0 0 1
-33.084661 28.906881 31.706195 54.180120 -0.718107 0.945670 0.088699 -0.024425 43280.600000 0 0 1
-33.545291 30.195581 31.385085 54.973478 -0.732894 0.963179 0.094431 -0.029376 -271044.000000 0 0 1
-33.461941 30.536281 29.873035 54.263839 -0.739715 0.987816 0.096644 -0.031486 -144366.000000 0 0 1
-32.140601 30.689281 29.425235 53.298168 -0.762303 0.985931 0.091767 -0.030621 -110345.000000 0 0 1
-32.018291 31.441081 28.241035 53.021398 -0.776303 1.009086 0.089543 -0.022982 -595463.000000 0 0 1
-30.573401 31.470481 27.780545 51.931520 -0.799856 1.006353 0.087962 -0.021457 -624604.000000 0 0 1
-30.075631 30.320081 27.078245 50.567601 -0.789446 1.005713 0.101405 -0.023494 691362.000000 0 0 1
-28.788291 30.444481 26.475245 49.563805 -0.813352 1.007277 0.079933 -0.016961 316145.000000 0 0 1
-28.826591 30.947281 25.044515 49.152155 -0.820862 1.036157 0.078745 -0.021640 -175097.000000 0 0 1
-29.058021 32.360781 24.999375 50.165302 -0.839121 1.049113 0.062379 -0.026333 -474489.000000 0 0 1
-30.009081 32.770981 24.104565 50.552074 -0.829363 1.073756 0.068454 -0.024608 -785264.000000 0 0 1
-30.587271 -33.706802 24.407525 51.647429 0.833880 1.078581 0.069783 -0.024874 -527674.000000 0 0 1
-31.121921 -33.720702 25.685385 52.587059 0.825455 1.060500 0.066023 -0.031294 -39216.100000 0 0 1
-31.263271 -32.458102 26.296935 52.177096 0.804147 1.042580 0.049873 -0.028784 -249718.000000 0 0 1
-31.689351 -32.503602 27.791095 53.226348 0.798082 1.021449 0.077866 -0.030866 995752.000000 0 0 1
-33.037391 -32.951302 28.059135 54.447889 0.784094 1.029393 0.058231 -0.030798 840344.000000 0 0 1
-33.290161 -33.019502 29.445575 55.367538 0.781316 1.010048 0.067769 -0.030801 747061.000000 0 0 1
-34.808249 -33.294002 29.725095 56.601114 0.763167 1.017884 0.083312 -0.035106 640022.000000 0 0 1
-35.068503 -33.412402 31.051205 57.535779 0.761219 1.000733 0.077395 -0.038022 -346796.000000 0 0 1
-36.430791 -33.372302 31.388145 58.533142 0.741610 1.004813 0.053641 -0.035455 -260063.000000 0 0 1
-36.814861 -33.791502 32.839985 59.796858 0.742604 0.989399 0.046109 -0.029955 -130910.000000 0 0 1
-36.806201 32.625081 32.996605 59.227260 -0.725251 0.979884 0.050962 -0.028199 -321940.000000 0 0 1
37.216265 32.251281 -33.661958 59.651680 0.714048 2.170392 0.041944 -0.027404 11624.200000 0 0 1
-37.003931 30.832481 -33.027628 58.401687 -0.694672 2.171866 0.046893 -0.028206 -108083.000000 0 0 1
-35.719619 30.813181 -32.469338 57.267803 -0.711787 2.173624 0.055133 -0.030190 -589516.000000 0 0 1
-35.471458 29.485581 -32.019628 56.150516 -0.693506 2.177602 0.062533 -0.033041 490552.000000 0 0 1
-34.218724 29.196081 -31.124688 54.699894 -0.706360 2.176096 0.063674 -0.027151 442624.000000 0 0 1
-34.368916 29.335081 -29.747818 54.099002 -0.706543 2.153014 0.084980 -0.032021 -206084.000000 0 0 1
-34.403495 30.611081 -29.181578 54.517917 -0.727132 2.135619 0.065179 -0.028553 212710.000000 0 0 1
-35.615869 30.924381 -28.246608 54.978890 -0.715009 2.110372 0.064429 -0.023163 453449.000000 0 0 1
-35.394069 30.749381 -26.866028 54.037469 -0.715292 2.091135 0.067421 -0.035728 792699.000000 0 0 1
-36.651391 30.999481 -26.186608 54.681174 -0.702046 2.070193 0.118857 -0.032557 917530.000000 0 0 1
-36.731081 30.761281 -24.634678 53.872963 -0.697176 2.045723 0.100877 -0.029305 -264625.000000 0 0 1
-36.064341 31.660681 -23.750478 53.545501 -0.720467 2.030360 0.116472 -0.032843 22202.500000 0 0 1
-36.109901 31.380181 -22.367178 52.810334 -0.715432 2.008144 0.106074 -0.037132 718399.000000 0 0 1
37.017445 31.440981 -21.791578 53.232503 0.704120 1.992555 0.087481 -0.032066 709270.000000 0 0 1
36.455055 32.737281 -21.701178 53.587701 0.731719 1.987738 0.091913 -0.038007 -295841.000000 0 0 1
36.979405 33.762481 -20.861178 54.245463 0.739955 1.965538 0.096933 -0.038250 -269184.000000 0 0 1
36.818515 33.451181 -19.374278 53.384897 0.737515 1.942193 0.095540 -0.037107 106187.000000 0 0 1
-36.934671 32.375081 -19.015378 52.667831 -0.719707 1.940183 0.086461 -0.040861 -50849.900000 0 0 1
-36.718471 32.319681 -17.670178 52.010029 -0.721769 1.917443 0.073344 -0.030086 167052.000000 0 0 1
-35.367996 31.586881 -17.433278 50.522722 -0.728986 1.923097 0.090156 -0.027790 139590.000000 0 0 1
-35.218669 31.223981 -16.107278 49.746719 -0.725348 1.900524 0.059739 -0.012094 -688138.000000 0 0 1
-33.925961 30.722381 -16.047978 48.501270 -0.735885 1.908030 0.090510 -0.014874 -547155.000000 0 0 1
-33.501741 30.487781 -14.557978 47.579472 -0.738332 1.881755 0.094264 -0.015814 -337434.000000 0 0 1
-34.331315 29.521981 -13.998978 47.393649 -0.710222 1.870646 0.069703 -0.008350 -25647.900000 0 0 1
-33.938351 29.275981 -12.647878 46.571059 -0.711777 1.845833 0.090919 -0.005457 -273315.000000 0 0 1
-34.898262 28.365581 -11.881478 46.515206 -0.682502 1.829091 0.088814 -0.017269 -269499.000000 0 0 1
-34.485825 28.013481 -10.543578 45.663928 -0.682207 1.803794 0.099146 -0.013692 425612.000000 0 0 1
-35.378276 27.087581 -9.940478 45.652739 -0.653446 1.790296 0.121872 -0.024344 627976.000000 0 0 1
-34.555523 26.262781 -8.886078 44.303276 -0.649881 1.772740 0.130528 -0.011488 483295.000000 0 0 1
-34.154264 27.043981 -7.812078 44.259680 -0.669732 1.748231 0.127600 -0.011699 309556.000000 0 0 1
-33.154161 26.421481 -7.008678 42.969927 -0.672865 1.734635 0.118687 -0.015013 -3914.140000 0 0 1
-32.693791 27.289881 -5.850278 42.986595 -0.695551 1.707315 0.117831 -0.015333 50956.000000 0 0 1
-31.700361 26.550581 -5.147678 41.669471 -0.697221 1.694649 0.123901 -0.011268 157852.000000 0 0 1
-31.369031 27.027281 -3.861778 41.586096 -0.711185 1.663793 0.111828 -0.013288 64091.500000 0 0 1
-30.404231 26.115881 -3.092478 40.199751 -0.709670 1.647800 0.109142 -0.016698 -128663.000000 0 0 1
-31.075181 24.905781 -2.794078 39.922070 -0.675636 1.640842 0.094366 -0.006636 -97473.000000 0 0 1
-30.387371 24.015581 -1.960678 38.781242 -0.668807 1.621375 0.088265 -0.007643 -73925.300000 0 0 1
-31.270771 22.820781 -1.533078 38.742735 -0.630434 1.610377 0.088251 -0.010627 -48677.700000 0 0 1
-31.433081 21.839981 -2.523478 38.358719 -0.607233 1.636630 0.101321 -0.008872 -118872.000000 0 0 1
-32.216861 20.777481 -2.011678 38.388497 -0.572800 1.623223 0.109304 -0.011292 -46772.700000 0 0 1
-32.760301 19.929081 -3.140578 38.474262 -0.546522 1.652515 0.163566 -0.010855 -592687.000000 0 0 1
-31.714731 19.326881 -3.815878 37.335150 -0.547301 1.673181 0.142199 -0.015157 -368649.000000 0 0 1
-32.115281 18.589381 -4.926078 37.432908 -0.524710 1.702777 0.150238 -0.012552 287714.000000 0 0 1
-30.965301 17.608981 -5.304178 36.014725 -0.517063 1.718612 0.144316 -0.021225 261496.000000 0 0 1
-30.836371 16.576281 -4.432978 35.288896 -0.493239 1.696749 0.177839 -0.023993 209203.000000 0 0 1
-30.151531 15.501281 -5.123678 34.287849 -0.474874 1.720789 0.168656 -0.033648 383025.000000 0 0 1
-29.710081 14.390081 -4.140778 33.270248 -0.451050 1.695579 0.178059 -0.034532 1646820.000000 0 0 1
-30.974531 13.846081 -3.637478 34.122819 -0.420369 1.677599 0.195882 -0.033633 1579050.000000 0 0 1
-30.699941 12.630281 -2.972278 33.329339 -0.390304 1.660094 0.180914 -0.043495 -249882.000000 0 0 1
-31.826461 11.782481 -2.377678 34.020638 -0.354565 1.640743 0.191643 -0.042579 -276881.000000 0 0 1
-32.754511 11.196481 -3.284478 34.770778 -0.329378 1.665398 0.180262 -0.026498 36967.100000 0 0 1
-33.654011 10.406781 -2.575078 35.320314 -0.299902 1.643768 0.177740 -0.025744 -892991.000000 0 0 1
-34.604775 9.803981 -3.578778 36.144379 -0.276078 1.669972 0.146701 -0.023585 -667064.000000 0 0 1
-34.042121 8.803381 -4.380478 35.433799 -0.253059 1.694738 0.150342 -0.029333 738314.000000 0 0 1
-35.051315 8.243581 -5.256478 36.389310 -0.230988 1.715755 0.139363 -0.019155 373398.000000 0 0 1
-34.564025 7.347481 -6.357678 35.903724 -0.209458 1.748811 0.159457 -0.025006 -448811.000000 0 0 1
-34.049640 6.127481 -5.947978 35.104166 -0.178052 1.741056 0.156776 -0.033468 336143.000000 0 0 1
-33.377321 5.388681 -6.966878 34.519861 -0.160066 1.774014 0.170637 -0.039013 -332374.000000 0 0 1
-32.240771 4.512681 -6.418978 33.181846 -0.139065 1.765472 0.174163 -0.042705 162001.000000 0 0 1
-31.014841 5.254281 -6.286478 32.078772 -0.167818 1.768043 0.160294 -0.044119 631977.000000 0 0 1
-30.078781 4.342381 -5.691878 30.919036 -0.143376 1.755942 0.162419 -0.042016 -283130.000000 0 0 1
-28.654991 4.897581 -5.678578 29.619944 -0.169280 1.763705 0.159080 -0.045939 106492.000000 0 0 1
-27.902491 4.794481 -6.930878 29.147438 -0.170168 1.810883 0.166773 -0.032436 265912.000000 0 0 1
-26.544611 4.540981 -6.721878 27.756450 -0.169430 1.815402 0.174578 -0.039733 -483420.000000 0 0 1
-25.639791 4.642781 -7.953578 27.243599 -0.179136 1.867054 0.156946 -0.030563 -361956.000000 0 0 1
-25.890751 3.659681 -9.007378 27.656050 -0.140421 1.902541 0.156032 -0.045663 -30089.300000 0 0 1
-25.080221 3.743181 -10.132478 27.307435 -0.148155 1.950938 0.164578 -0.041043 -547393.000000 0 0 1
-25.529301 2.889281 -11.342378 28.084563 -0.112696 1.986534 0.136515 -0.043111 -234245.000000 0 0 1
-26.666451 3.418181 -11.970378 29.429127 -0.127488 1.989693 0.140998 -0.023207 113124.000000 0 0 1
-26.916221 2.857581 -13.245578 30.134599 -0.105770 2.025891 0.140337 -0.031916 -316337.000000 0 0 1
-27.829931 3.706781 -14.086078 31.411190 -0.132415 2.035817 0.131516 -0.028659 -423143.000000 0 0 1
-27.116291 4.665281 -14.838378 31.260767 -0.170379 2.065379 0.111326 -0.016735 644471.000000 0 0 1
-27.956211 5.583581 -15.545978 32.471581 -0.197132 2.070034 0.155282 -0.024683 385469.000000 0 0 1
-28.784961 5.127381 -16.790778 33.716379 -0.176278 2.092088 0.099321 -0.008570 321357.000000 0 0 1
-30.056181 4.581281 -16.502278 34.593169 -0.151260 2.068078 0.113847 -0.023077 -156787.000000 0 0 1
-30.642651 4.000081 -17.630478 35.578174 -0.129806 2.089255 0.120585 -0.021486 -574512.000000 0 0 1
-32.120011 3.666381 -17.447678 36.736343 -0.113654 2.065696 0.130817 -0.029079 -415954.000000 0 0 1
-32.541231 2.640181 -16.519278 36.589463 -0.080956 2.039216 0.136896 -0.036780 93162.200000 0 0 1
-32.165161 1.358681 -16.891678 36.356188 -0.042216 2.053998 0.150282 -0.041177 -217623.000000 0 0 1
-32.376931 0.273081 -15.771478 36.014993 -0.008434 2.024074 0.166953 -0.033803 -196109.000000 0 0 1
-31.848821 -0.984019 -16.164778 35.729760 0.030887 2.040271 0.175504 -0.018591 334179.000000 0 0 1
-32.184381 -2.030319 -15.249378 35.672119 0.063000 2.012508 0.182017 -0.031281 -61067.000000 0 0 1
-31.788121 -3.367319 -15.763078 35.641242 0.105537 2.028925 0.168568 -0.021361 -2497.390000 0 0 1
-32.646661 -3.728419 -16.825778 36.916289 0.113713 2.044047 0.185753 -0.027172 101515.000000 0 0 1
-32.302181 -4.901919 -17.509178 37.067924 0.150603 2.062756 0.184931 -0.016035 -141470.000000 0 0 1
-33.172991 -5.059219 -18.759978 38.444503 0.151344 2.080565 0.187436 -0.008797 45409.800000 0 0 1
-32.806151 -6.086719 -19.671178 38.733021 0.183450 2.103502 0.190924 -0.003991 263186.000000 0 0 1
-33.579401 -5.828219 -20.833278 39.944584 0.171853 2.119468 0.173576 -0.009356 155188.000000 0 0 1
-33.546031 -6.967619 -21.821278 40.620833 0.204791 2.137903 0.174146 -0.000850 269808.000000 0 0 1
-32.273131 -7.017219 -22.452378 39.936269 0.214100 2.167846 0.162752 -0.008479 83918.700000 0 0 1
-32.239161 -7.968519 -23.471278 40.666469 0.242312 2.186050 0.145891 -0.000208 -174330.000000 0 0 1
-30.896011 -7.996719 -24.223978 40.066346 0.253269 2.220056 0.127858 -0.002754 -306832.000000 0 0 1
-30.769381 -6.798019 -25.017078 40.234588 0.217442 2.241810 0.120142 -0.007235 86720.900000 0 0 1
-30.719091 -6.977419 -26.425228 41.117388 0.223347 2.268785 0.088202 -0.007275 20516.200000 0 0 1
-32.115961 -7.038219 -27.092698 42.602650 0.215740 2.260021 0.109251 -0.006903 -117474.000000 0 0 1
-32.815421 -8.181619 -26.769528 43.132336 0.244341 2.240351 0.110366 -0.013723 -388708.000000 0 0 1
-34.134765 -8.199019 -27.286138 44.462787 0.235730 2.231516 0.110736 -0.016031 632847.000000 0 0 1
-34.975366 -9.369819 -26.667438 44.969122 0.261751 2.205597 0.103188 -0.021672 -360448.000000 0 0 1
-34.693965 -10.610319 -27.259368 45.379767 0.296793 2.215166 0.105786 -0.006977 -242841.000000 0 0 1
-35.612431 -11.627419 -26.928148 46.136398 0.315587 2.194030 0.094618 -0.009391 -78346.500000 0 0 1
-36.865891 -11.570919 -27.838568 47.623166 0.304128 2.195133 0.079887 -0.010746 -40241.800000 0 0 1
36.819465 -10.545119 -27.365858 47.071889 -0.278934 2.191199 0.070813 -0.014841 521030.000000 0 0 1
35.960325 -10.197919 -28.480198 46.992172 -0.276333 2.221897 0.068855 -0.019376 -52533.400000 0 0 1
34.980485 -9.069619 -28.226488 45.854410 -0.253690 2.233902 0.065935 -0.015054 48322.100000 0 0 1
33.891065 -9.520419 -27.408538 44.614690 -0.273855 2.232344 0.047142 -0.012730 583584.000000 0 0 1
32.966005 -8.443219 -27.189538 43.558195 -0.250729 2.244919 0.020864 -0.006852 -382117.000000 0 0 1
31.708645 -8.790619 -26.443248 42.213250 -0.270439 2.247749 0.015903 -0.000150 -728207.000000 0 0 1
31.938135 -9.327019 -25.130698 41.696399 -0.284133 2.217685 0.004545 0.009948 -607955.000000 0 0 1
30.741155 -9.681319 -24.544478 40.511454 -0.305097 2.221649 -0.001369 0.007820 -798237.000000 0 0 1
30.953715 -9.818119 -23.031478 39.811768 -0.307149 2.187696 -0.008950 0.006300 317659.000000 0 0 1
31.830325 -10.903719 -22.702378 40.588898 -0.330029 2.164367 -0.018274 0.007006 460061.000000 0 0 1
32.090785 -10.896719 -21.312978 40.034984 -0.327343 2.132181 -0.014071 0.005706 -131614.000000 0 0 1
32.870435 -12.073219 -20.731278 40.694152 -0.352000 2.105332 0.006843 0.007908 297008.000000 0 0 1
34.246565 -12.115519 -21.089878 42.004713 -0.340032 2.096803 0.029956 0.006095 146681.000000 0 0 1
34.979255 -12.912019 -20.218478 42.415273 -0.353618 2.067670 0.081474 0.004274 -336478.000000 0 0 1
36.486075 -12.996719 -20.542778 43.842378 -0.342197 2.058456 0.111456 -0.012238 -199325.000000 0 0 1
37.232965 -11.800019 -20.504378 44.113078 -0.306910 2.054221 0.141369 -0.010586 131634.000000 0 0 1
37.091045 -10.905319 -21.585978 44.278957 -0.285957 2.080020 0.145521 0.002625 -857807.000000 0 0 1
-36.819301 -11.076519 -22.960078 44.782981 0.292222 2.109119 0.116631 -0.004499 6644.460000 0 0 1
-37.278201 -12.169819 -23.775278 45.858833 0.315551 2.115828 0.106233 -0.004108 1062930.000000 0 0 1
35.972975 -12.051319 -24.277178 45.040766 -0.323259 2.140051 0.109134 -0.001642 706489.000000 0 0 1
35.419755 -13.234019 -25.123898 45.397230 -0.357572 2.157265 0.081891 -0.027199 -303679.000000 0 0 1
35.337795 -14.529119 -24.558078 45.419756 -0.390081 2.142055 0.078440 -0.040739 609436.000000 0 0 1
34.413785 -14.681819 -23.469178 44.166353 -0.403247 2.131027 0.047558 -0.027219 62643.100000 0 0 1
-30.123561 7.869081 -19.326978 36.645374 -0.255517 2.126340 0.090304 -0.005187 -329031.000000 0 0 1
-28.929261 7.233481 -19.619478 35.695228 -0.245017 2.152728 0.091690 -0.002588 -492213.000000 0 0 1
-27.972391 8.063381 -20.254078 35.464073 -0.280654 2.178660 0.100588 -0.006262 -636212.000000 0 0 1
-26.685731 7.365981 -20.596378 34.505024 -0.269321 2.210440 0.089312 -0.004173 -499488.000000 0 0 1
-25.740641 7.480881 -19.521978 33.160998 -0.282834 2.200250 0.089608 0.000783 -159753.000000 0 0 1
-24.567051 6.793881 -19.790478 32.270108 -0.269802 2.230998 0.094354 -0.015040 568954.000000 0 0 1
-23.213951 7.318081 -19.157078 30.974755 -0.305384 2.237595 0.073796 -0.008725 1055900.000000 0 0 1
-22.616051 8.317681 -19.977078 31.301010 -0.352424 2.262986 0.067147 -0.001056 -356658.000000 0 0 1
-21.373851 8.663681 -19.431978 30.157962 -0.385102 2.270956 0.081922 -0.003296 -287679.000000 0 0 1
-20.599551 9.703281 -20.318578 30.517860 -0.440215 2.299352 0.089392 -0.011324 -163803.000000 0 0 1
-20.287851 9.245581 -21.629978 31.063381 -0.427601 2.341050 0.092724 -0.017294 19133.800000 0 0 1
-19.654651 10.236681 -22.393378 31.504894 -0.480170 2.361418 0.090619 -0.018839 -568475.000000 0 0 1
-18.722351 9.571681 -23.374278 31.440426 -0.472602 2.409005 0.102433 -0.015877 -298018.000000 0 0 1
-19.365451 8.635181 -24.242078 32.206605 -0.419445 2.422958 0.086031 -0.008842 137108.000000 0 0 1
-18.404251 8.053181 -25.064908 32.121952 -0.412471 2.465949 0.074946 -0.002489 -623612.000000 0 0 1
-19.019851 6.987681 -25.984098 32.950808 -0.352081 2.479280 0.053281 0.007053 -59568.200000 0 0 1
-19.323351 5.773581 -25.361938 32.402994 -0.290344 2.469794 0.069088 0.002277 258536.000000 0 0 1
-20.071251 4.902481 -26.204258 33.369935 -0.239563 2.473921 0.065499 0.006032 -533222.000000 0 0 1
-20.473351 3.569181 -25.484648 32.884106 -0.172598 2.457486 0.063587 0.006868 -32751.100000 0 0 1
-19.501351 2.567381 -25.225728 31.987990 -0.130899 2.479325 0.051524 0.009472 -463442.000000 0 0 1
-18.429651 3.001481 -24.449178 30.763993 -0.161444 2.489365 0.046968 0.004017 -639112.000000 0 0 1
-17.573051 1.798181 -23.874378 29.699015 -0.101971 2.504583 0.046194 -0.002237 202470.000000 0 0 1
-18.124351 1.033381 -22.800578 29.144920 -0.056955 2.469174 0.049199 0.000328 158808.000000 0 0 1
-19.349451 0.368381 -23.045778 30.093934 -0.019036 2.443073 0.051535 0.002167 51813.400000 0 0 1
-19.782151 -0.516719 -21.811978 29.451025 0.026115 2.404787 0.069595 -0.004428 129910.000000 0 0 1
-18.861051 -1.543219 -21.478978 28.626339 0.081639 2.419346 0.067026 -0.015891 108136.000000 0 0 1
-19.385051 -2.357219 -20.465578 28.287392 0.121006 2.379637 0.086168 -0.020076 14496.800000 0 0 1
-18.905551 -3.869519 -20.415278 28.092287 0.201888 2.384334 0.062561 -0.025839 -1513.200000 0 0 1
-19.209351 -4.677519 -21.570178 29.260057 0.238854 2.399696 0.061464 -0.030491 248453.000000 0 0 1
-19.390451 -5.990019 -21.178678 29.332683 0.299616 2.377509 0.074885 -0.026387 -153235.000000 0 0 1
-19.410451 -7.019119 -22.324978 30.404577 0.346985 2.395378 0.059880 -0.035453 792610.000000 0 0 1
-18.047251 -7.176619 -22.780678 29.936039 0.378485 2.435616 0.057864 -0.032084 995987.000000 0 0 1
-17.933451 -7.858319 -24.024778 30.992770 0.412992 2.457786 0.085600 -0.035198 126249.000000 0 0 1
-16.501151 -7.878119 -24.592978 30.645837 0.445428 2.502253 0.090558 -0.038680 -572019.000000 0 0 1
-16.404751 -8.536019 -25.829638 31.767116 0.479785 2.520243 0.101179 -0.059481 255447.000000 0 0 1
-15.089151 -8.591619 -26.337678 31.546342 0.517608 2.558727 0.112980 -0.054978 147043.000000 0 0 1
-13.997051 -9.468919 -25.690098 30.749943 0.594775 2.559751 0.104870 -0.048458 -614914.000000 0 0 1
-13.429451 -8.833719 -24.578978 29.368536 0.581830 2.562419 0.095903 -0.036047 -115001.000000 0 0 1
-12.564051 -9.699719 -23.891878 28.683824 0.657447 2.555194 0.067807 -0.029951 -288782.000000 0 0 1
-11.651051 -9.085119 -22.868578 27.226058 0.662282 2.567991 0.056868 -0.022212 -146098.000000 0 0 1
-12.340751 -8.792819 -21.633678 26.412569 0.619068 2.530580 0.059153 -0.029233 70342.800000 0 0 1
-11.525851 -8.268219 -20.637678 25.042413 0.622284 2.539424 0.059635 -0.028234 -814752.000000 0 0 1
-12.249851 -8.089819 -19.281178 24.233610 0.583653 2.490856 0.057189 -0.029247 243031.000000 0 1 0
-13.313551 -7.160819 -19.351778 24.556451 0.493474 2.478436 0.051145 -0.016437 910337.000000 0 1 0
-14.635751 -7.692219 -19.535978 25.593551 0.483899 2.439228 0.051369 -0.035376 783471.000000 0 0 1
-15.749351 -6.642019 -19.240478 25.736248 0.399100 2.415241 0.057617 -0.023074 11731.700000 0 0 1
-15.901251 -6.101019 -17.942778 24.738947 0.366360 2.382244 0.054102 -0.022611 335818.000000 0 1 0
-15.342751 -4.803419 -17.885778 24.049405 0.303408 2.409399 0.047717 -0.017377 -188633.000000 0 1 0
-14.941151 -4.194619 -16.521278 22.666836 0.273697 2.387473 0.064774 -0.012208 725997.000000 0 1 0
-16.104551 -3.884619 -15.723478 22.840197 0.236691 2.330094 0.098023 -0.023788 725974.000000 0 1 0
-16.478051 -2.529019 -15.809378 22.975172 0.152290 2.329673 0.057697 -0.026130 362266.000000 0 1 0
-17.715651 -2.201619 -14.921778 23.266948 0.123641 2.267026 0.057808 -0.032406 281826.000000 0 1 0
-17.456051 -2.554419 -13.586878 22.267511 0.145303 2.227066 0.083976 -0.029961 195309.000000 0 1 0
-18.369951 -1.951419 -12.720878 22.429531 0.105832 2.173836 0.083650 -0.035962 -409205.000000 0 1 0
-17.833251 -0.669019 -12.078378 21.549006 0.037498 2.165795 0.074944 -0.031881 -146240.000000 0 1 0
-17.851051 0.429581 -12.971978 22.070722 -0.024060 2.199066 0.115309 -0.033379 237198.000000 0 1 0
-17.042051 1.477681 -12.562978 21.223653 -0.086492 2.204251 0.112602 -0.020410 -1383750.000000 0 1 0
-16.670851 2.499081 -13.677678 21.708099 -0.148799 2.252443 0.124586 -0.010848 947553.000000 0 1 0
-15.716251 1.965081 -14.647578 21.573447 -0.124389 2.317146 0.101375 -0.024759 1294540.000000 0 1 0
-14.462351 1.453981 -14.212678 20.329139 -0.100199 2.344974 0.091286 -0.023886 -682206.000000 0 1 0
-13.845451 0.419981 -15.090478 20.484029 -0.030324 2.398966 0.079321 -0.026531 -127796.000000 0 1 0
-13.390351 0.951281 -16.344578 21.150690 -0.070923 2.453987 0.076879 -0.028602 205716.000000 0 1 0
-12.787051 -0.066619 -17.111878 21.361870 0.005210 2.499840 0.030512 -0.019967 -282019.000000 0 1 0
-12.268551 0.384681 -18.486178 22.190180 -0.031345 2.555448 0.056797 -0.027087 -955908.000000 0 1 0
-11.132151 1.146681 -18.299278 21.450017 -0.102644 2.592719 0.038459 -0.014589 -1028890.000000 0 1 0
-10.829551 1.818281 -19.521278 22.397893 -0.166348 2.629187 0.053052 -0.012086 -170245.000000 0 1 0
-9.438451 2.439981 -19.440078 21.747517 -0.252977 2.676765 0.041840 -0.007910 -328176.000000 0 1 0
-8.369051 1.470781 -19.515678 21.285345 -0.173964 2.730938 0.040658 -0.007181 806997.000000 0 1 0
-7.075951 1.989281 -19.204278 20.562846 -0.274059 2.776053 0.039989 -0.004878 912519.000000 0 1 0
-6.468051 3.109981 -20.127278 21.368551 -0.448188 2.799072 0.047300 -0.002689 -767235.000000 0 1 0
-6.218751 2.628481 -21.439478 22.477389 -0.399896 2.836517 0.042422 -0.005857 81381.100000 0 1 0
-6.104951 3.722081 -22.327378 23.444320 -0.547509 2.831672 0.052160 -0.005153 -167930.000000 0 1 0
-5.583851 3.253681 -23.721878 24.586446 -0.527598 2.875613 0.071388 -0.017191 86660.200000 0 1 0
-4.227151 2.870781 -23.607078 24.153764 -0.596581 2.928428 0.076996 -0.021475 -113195.000000 0 1 0
-3.767351 2.172281 -24.758578 25.137600 -0.523041 2.967720 0.104226 -0.026491 403988.000000 0 0 1
-2.318451 1.661581 -24.538078 24.703306 -0.621831 3.025869 0.068226 -0.027900 -263733.000000 0 1 0
-1.302351 2.659881 -24.558178 24.736111 -1.115481 3.021577 0.059075 -0.025414 1292260.000000 0 1 0
0.063149 2.185881 -24.567778 24.664910 1.541915 3.052816 0.058304 -0.020732 1370210.000000 0 1 0
0.584449 1.117381 -23.515978 23.549763 1.088877 3.088021 0.057318 -0.026043 -855208.000000 0 1 0
0.005449 -0.177719 -23.694178 23.694845 -1.540145 3.134089 0.054891 -0.024844 155984.000000 0 1 0
0.550349 -1.044519 -22.695478 22.726166 -1.085867 3.089619 0.050496 -0.019013 87332.300000 0 1 0
-0.130651 -2.426319 -22.780878 22.910096 1.517001 3.035333 0.062321 -0.020947 642855.000000 0 1 0
-1.321651 -2.549119 -21.985278 22.171992 1.092479 3.011724 0.053066 -0.021960 509008.000000 0 1 0
-2.476451 -2.874119 -22.751578 23.065725 0.859584 2.976361 0.066158 -0.024567 53208.900000 0 1 0
-3.444351 -1.693419 -22.866678 23.186552 0.456946 2.975295 0.088401 -0.026715 -1822300.000000 0 1 0
-4.022151 -1.453319 -21.586378 22.005944 0.346731 2.946007 0.069258 -0.023194 268927.000000 0 1 0
-4.950651 -0.370119 -21.658578 22.220260 0.074623 2.916270 0.049443 -0.020325 916650.000000 0 1 0
-6.264351 -0.637319 -22.474778 23.340178 0.101389 2.868429 0.064630 -0.011242 -235353.000000 0 1 0
-7.150051 -1.617719 -21.893478 23.088192 0.222506 2.818488 0.082633 -0.007026 1454450.000000 0 1 0
-8.549051 -1.240619 -22.056578 23.687930 0.144112 2.768300 0.059021 -0.001542 1260400.000000 0 1 0
-9.367451 -2.468719 -21.597778 23.670820 0.257683 2.719960 0.051669 -0.012377 -442625.000000 0 1 0
-9.401551 -3.430519 -22.645478 24.758338 0.349877 2.725464 0.089490 -0.013187 -82494.600000 0 1 0
-9.750451 -4.701819 -22.210478 24.707969 0.449319 2.688094 0.061933 -0.010770 -701960.000000 0 1 0
-10.875151 -5.329719 -23.019578 26.011070 0.455682 2.657272 0.058356 -0.020447 -427905.000000 0 0 1
-12.076251 -4.621419 -22.888378 26.288233 0.365492 2.627359 0.046491 -0.030384 -478965.000000 0 0 1
-13.159451 -5.368319 -23.366278 27.349094 0.387336 2.595136 0.051089 -0.033797 37928.100000 0 0 1
-14.573251 -5.129519 -22.801778 27.542924 0.338439 2.546084 0.045557 -0.034238 464345.000000 0 0 1
-15.196351 -3.912219 -23.242278 28.043502 0.251973 2.547745 0.067566 -0.031586 -295597.000000 0 0 1
-16.569251 -3.984519 -23.498178 29.027243 0.235996 2.514133 0.100813 -0.030383 -296906.000000 0 0 1
-17.121251 -2.670919 -24.055778 29.647116 0.154753 2.517346 0.068708 -0.026185 -410429.000000 0 0 1
-16.685551 -2.533619 -25.382798 30.481359 0.150694 2.554820 0.056383 -0.030512 40341.100000 0 0 1
-16.911051 -1.285919 -25.936568 30.989398 0.075894 2.562482 0.041089 -0.019236 1399390.000000 0 0 1
-18.442251 -1.074619 -26.382318 32.207113 0.058204 2.530716 0.040261 -0.015011 1585370.000000 0 0 1
-18.878651 -1.675819 -27.623688 33.500447 0.088536 2.540250 0.059312 -0.030050 137841.000000 0 0 1
-18.394351 -0.974519 -28.742298 34.138271 0.052930 2.571661 0.043875 -0.025363 -312354.000000 0 0 1
-18.333051 -1.880719 -29.987858 35.198146 0.102229 2.590538 0.052150 -0.028256 908893.000000 0 0 1
-19.682651 -2.230819 -30.330938 36.226359 0.112858 2.563052 0.046829 -0.035534 668420.000000 0 0 1
-19.655251 -2.825419 -31.639578 37.354716 0.142771 2.581119 0.056792 -0.041094 -1730770.000000 0 0 1
-20.990251 -3.240119 -32.180498 38.557405 0.153154 2.558226 0.037646 -0.034398 -1256820.000000 0 0 1
-21.936951 -2.240519 -32.344618 39.146188 0.101782 2.543218 0.036898 -0.035193 -40391.400000 0 0 1
-22.580051 -1.754919 -31.162958 38.523608 0.077564 2.513129 0.028562 -0.016965 -1590040.000000 0 0 1
-23.680351 -0.810519 -31.517038 39.430187 0.034214 2.496946 0.027128 -0.013639 -851589.000000 0 0 1
-23.263251 0.430181 -32.081888 39.630941 -0.018490 2.514124 0.028250 -0.013023 349672.000000 0 0 1
-24.354551 1.134781 -32.645148 40.744786 -0.046561 2.500112 0.029397 -0.009408 49329.400000 0 0 1
-23.876451 2.447281 -33.300518 41.048734 -0.102141 2.517072 0.037138 -0.008590 -699471.000000 0 0 1
-23.322051 3.376681 -32.385098 40.051400 -0.143786 2.512545 0.034568 -0.006565 252653.000000 0 0 1
-24.105451 4.047281 -31.395408 39.788502 -0.166347 2.480069 0.038758 -0.009256 -1090600.000000 0 0 1
-25.161691 4.981381 -31.903088 40.935704 -0.195448 2.464418 0.019804 -0.015018 -787955.000000 0 0 1
-26.354281 4.321781 -32.251348 41.873325 -0.162541 2.449970 0.042194 -0.020822 26628.300000 0 0 1
-27.164291 5.039781 -33.146988 43.151140 -0.183444 2.446759 0.058570 -0.030401 596994.000000 0 0 1
-28.439421 4.299381 -33.691588 44.299080 -0.150041 2.434953 0.072894 -0.026203 482691.000000 0 0 1
-28.148691 3.266281 33.257160 43.692747 -0.115520 0.705697 0.081177 -0.021063 639927.000000 0 0 1
-29.302131 2.852681 32.520052 43.866918 -0.097048 0.735740 0.083369 -0.025592 270323.000000 0 0 1
-29.566771 1.304281 32.421825 43.898404 -0.044085 0.739857 0.094502 -0.011332 -380142.000000 0 0 1
-29.884851 0.698881 33.673268 45.027567 -0.023382 0.725999 0.107311 -0.009479 262414.000000 0 0 1
-30.089781 -0.715819 33.445662 44.994662 0.023785 0.732769 0.106966 -0.010096 -542749.000000 0 0 1
-29.917061 -1.486619 -33.116968 44.653938 0.049650 2.406302 0.078287 -0.007482 1401260.000000 0 0 1
-28.539231 -1.691519 -32.677748 43.418707 0.059201 2.422827 0.084036 -0.015521 1940660.000000 0 0 1
-27.839081 -0.544019 -32.140618 42.524460 0.019539 2.427694 0.076091 -0.011052 -155119.000000 0 0 1
-28.119881 -0.247819 -30.625368 41.577666 0.008813 2.398799 0.083307 -0.004106 6273.360000 0 0 1
-27.207001 -0.970819 -29.796078 40.360496 0.035668 2.401266 0.059668 -0.010591 687074.000000 0 0 1
-27.326101 -0.592819 -28.427118 39.435622 0.021691 2.375822 0.072784 -0.010983 846292.000000 0 0 1
-26.062731 -1.157719 -27.631178 38.001161 0.044391 2.384905 0.068255 -0.014606 936314.000000 0 0 1
-26.113571 -2.532119 -27.397618 37.933622 0.096663 2.377849 0.047871 -0.006290 155451.000000 0 0 1
-25.136931 -2.936419 -26.458798 36.613602 0.116290 2.378424 0.066747 -0.016788 -230056.000000 0 0 1
-25.432211 -4.284919 -25.774958 36.462396 0.166916 2.355890 0.067473 -0.021349 -726738.000000 0 0 1
-26.550331 -4.206219 -24.980378 36.696480 0.157119 2.319554 0.073747 -0.007423 -834621.000000 0 0 1
-26.824621 -5.377219 -24.261478 36.566297 0.197836 2.296274 0.064589 -0.009267 1036740.000000 0 0 1
-28.106531 -5.303219 -23.317478 36.902656 0.186490 2.254753 0.081002 -0.010422 1031250.000000 0 0 1
-28.255251 -6.409419 -22.410778 36.628989 0.223065 2.229171 0.098674 -0.013582 807657.000000 0 0 1
-29.403151 -6.140619 -21.553478 36.970325 0.205883 2.193205 0.145036 -0.006629 673169.000000 0 0 1
-29.652481 -7.263519 -20.512178 36.780127 0.240225 2.162405 0.164951 -0.013843 121100.000000 0 0 1
-28.603141 -7.375819 -19.541578 35.417731 0.252369 2.155252 0.160547 -0.023550 329837.000000 0 0 1
-28.758111 -8.400419 -18.580078 35.253585 0.284199 2.125911 0.190684 -0.020397 -750.683000 0 0 1
-29.359371 -7.890419 -17.232878 34.945722 0.262549 2.086483 0.191430 -0.025597 193657.000000 0 0 1
-28.413451 -7.095819 -16.553478 33.640637 0.244729 2.085260 0.164963 -0.035339 165945.000000 0 0 1
-28.890131 -6.799819 -15.290078 33.386579 0.231161 2.046508 0.158838 -0.031108 -262923.000000 0 0 1
-27.963171 -5.971619 -14.381978 32.006881 0.210393 2.036823 0.173504 -0.031422 -187275.000000 0 0 1
-27.819371 -4.635419 -14.809178 31.854611 0.165109 2.054317 0.177991 -0.029140 -212573.000000 0 0 1
-27.037261 -3.951719 -13.900878 30.657201 0.145131 2.041406 0.152039 -0.038649 -515596.000000 0 0 1
-13.920951 21.067381 -5.030778 25.747547 -0.986879 1.767450 0.103690 -0.046028 -251945.000000 0 0 1
-14.395951 20.644181 -6.281278 25.939932 -0.961860 1.815374 0.139047 -0.048420 66304.900000 0 0 1
-14.996251 19.388081 -6.090678 25.256318 -0.912438 1.814352 0.122400 -0.060051 -48693.900000 0 0 1
-15.414151 18.635881 -7.334678 25.272310 -0.879735 1.865259 0.147129 -0.069745 126976.000000 0 0 1
-14.269151 18.081081 -7.982278 24.377263 -0.902690 1.904397 0.126777 -0.058012 417983.000000 0 1 0
-14.534151 16.951181 -8.855178 24.020788 -0.862015 1.948349 0.112741 -0.061096 -187253.000000 0 1 0
-15.035151 15.643381 -8.161278 23.181406 -0.805221 1.930569 0.109663 -0.055973 347896.000000 0 1 0
-16.386751 15.789181 -7.749478 24.039099 -0.766828 1.899028 0.117111 -0.041790 55960.200000 0 1 0
-16.783051 14.764681 -6.860378 23.382288 -0.721507 1.868578 0.108058 -0.032140 734172.000000 0 1 0
-18.235551 14.989081 -6.287878 24.428371 -0.687995 1.831128 0.114594 -0.037470 460962.000000 0 1 0
-19.215951 14.610081 -7.203278 25.191158 -0.650067 1.860788 0.114124 -0.038489 -211179.000000 0 0 1
-20.457751 15.206481 -6.842278 26.392677 -0.639207 1.833041 0.084104 -0.029281 406932.000000 0 0 1
-21.665251 14.752181 -7.693878 27.316766 -0.597802 1.856314 0.085198 -0.014629 -73661.500000 0 0 1
-21.940551 13.390781 -7.472078 26.768129 -0.547974 1.853696 0.123225 -0.029083 231750.000000 0 0 1
-22.811051 12.819981 -8.440978 27.494474 -0.512015 1.882842 0.133898 -0.032527 173296.000000 0 0 1
-23.136051 11.330081 -8.261478 27.053643 -0.455386 1.881127 0.135367 -0.024062 -523236.000000 0 0 1
-21.995651 10.518081 -8.252478 25.739893 -0.446047 1.897170 0.135694 -0.019537 -162547.000000 0 0 1
-22.354351 9.304281 -7.565378 25.367728 -0.394409 1.873632 0.152249 -0.032465 313223.000000 0 0 1
-21.141351 8.379081 -7.236378 23.864846 -0.377344 1.878870 0.112669 -0.017621 -79761.400000 0 1 0
-20.986151 7.253181 -8.107778 23.638173 -0.332765 1.920900 0.120964 -0.018663 489832.000000 0 1 0
-19.952951 6.447681 -7.548578 22.286181 -0.312553 1.916343 0.091616 -0.008412 -11383.800000 0 1 0
-19.582551 5.182581 -8.293578 21.888785 -0.258721 1.959400 0.082022 -0.024246 -73446.100000 0 1 0
-20.640351 4.227481 -8.251878 22.627178 -0.202022 1.944095 0.110078 -0.029494 803641.000000 0 1 0
-20.315751 3.180181 -9.200878 22.527748 -0.155278 1.991523 0.105621 -0.028738 -283397.000000 0 1 0
-21.375851 2.077881 -9.225978 23.374415 -0.096903 1.976542 0.109704 -0.030566 -164864.000000 0 1 0
-21.558751 1.274881 -8.072378 23.055766 -0.059066 1.928500 0.131578 -0.028492 -377513.000000 0 1 0
-22.422151 0.209781 -8.276178 23.901715 -0.009356 1.924377 0.127452 -0.021406 -634576.000000 0 1 0
-21.920551 -0.981719 -9.114078 23.760066 0.044755 1.964475 0.095934 -0.046664 -206554.000000 0 1 0
-20.900951 -1.781219 -8.550078 22.652292 0.085016 1.957836 0.091954 -0.032092 428121.000000 0 1 0
-20.774951 -3.064919 -9.125978 22.897069 0.146473 1.980748 0.072100 -0.028441 -86180.900000 0 1 0
-21.844151 -4.019119 -8.562478 23.804123 0.181956 1.938749 0.083731 -0.027882 109261.000000 0 1 0
-21.593951 -4.175319 -7.161278 23.130411 0.190999 1.885573 0.081943 -0.026779 832914.000000 0 1 0
-22.531551 -5.094719 -6.557978 24.013205 0.222375 1.847409 0.101560 -0.025479 20140.100000 0 1 0
-22.480851 -6.588719 -6.883278 24.416785 0.285097 1.856578 0.104632 -0.035309 -327146.000000 0 1 0
-21.248251 -7.221319 -6.640678 23.403722 0.327608 1.858493 0.075950 -0.034922 437152.000000 0 1 0
-21.529851 -8.603019 -6.502278 24.079577 0.380149 1.844224 0.093099 -0.031657 321348.000000 0 1 0
-20.415351 -9.510419 -5.835878 23.265685 0.435953 1.824340 0.085422 -0.029610 -279701.000000 0 1 0
-19.329351 -9.695319 -6.665378 22.628528 0.464915 1.869788 0.073594 -0.016831 86578.100000 0 1 0
-18.335051 -10.438219 -5.896878 21.906704 0.517543 1.843339 0.068320 -0.012262 778413.000000 0 1 0
-17.264751 -11.165419 -6.756578 21.642309 0.574064 1.888297 0.038118 -0.012693 353805.000000 0 1 0
-16.339351 -10.325019 -7.471178 20.721942 0.563554 1.939648 0.056306 -0.033365 687556.000000 0 1 0
-16.725151 -10.050619 -8.771178 21.393438 0.541102 1.993244 0.057922 -0.032875 -95866.700000 0 1 0
-15.710751 -10.658819 -9.783678 21.357867 0.596110 2.046634 0.060022 -0.022485 316882.000000 0 1 0
-15.890351 -12.036019 -10.198978 22.391698 0.648247 2.043708 0.075590 -0.019193 -586409.000000 0 1 0
-14.856551 -12.494819 -10.986178 22.305464 0.699264 2.085794 0.077247 -0.006200 -505950.000000 0 1 0
-15.168051 -13.893419 -11.625478 23.627285 0.741566 2.085223 0.087198 -0.007196 90010.200000 0 1 0
-15.943551 -13.783919 -12.812478 24.664809 0.712878 2.117020 0.083595 -0.010228 167403.000000 0 1 0
-16.308551 -15.031719 -13.375778 25.900441 0.744680 2.113474 0.072565 -0.011140 30128.200000 0 0 1
-16.888151 -15.031419 -14.796878 27.020377 0.727295 2.150313 0.084094 -0.016194 -19616.800000 0 0 1
-17.166151 -16.241819 -15.416078 28.215756 0.757737 2.148813 0.077762 -0.008216 194920.000000 0 0 1
-17.374051 -16.090719 -16.840278 29.057939 0.747068 2.188962 0.073399 -0.010973 -198126.000000 0 0 1
-17.703451 -17.395519 -17.588278 30.419792 0.776625 2.187299 0.081551 -0.026125 400852.000000 0 0 1
-19.015851 -17.774019 -17.183678 31.189696 0.751656 2.154288 0.057569 -0.013347 417191.000000 0 0 1
-19.929451 -17.969819 -18.269778 32.463552 0.733738 2.168539 0.052403 -0.013186 162646.000000 0 0 1
-21.412051 -17.781019 -17.930478 33.108044 0.693017 2.143105 0.046503 -0.015071 -386907.000000 0 0 1
-21.764251 -16.520519 -17.330278 32.356587 0.649279 2.136018 0.053192 -0.010568 153408.000000 0 0 1
-21.679751 -16.604419 -15.926978 31.613082 0.653597 2.098800 0.056735 -0.010219 -209584.000000 0 0 1
-21.488051 -15.255919 -15.111478 30.378218 0.617387 2.091447 0.076304 -0.018667 939848.000000 0 0 1
-22.748451 -14.551119 -15.023978 30.902217 0.569067 2.078507 0.091097 -0.018695 1152040.000000 0 0 1
-22.650751 -13.323219 -14.443978 29.986550 0.531699 2.073369 0.096864 -0.013264 -1106890.000000 0 0 1
-23.961651 -12.677819 -14.102678 30.557705 0.486646 2.050493 0.108316 -0.020374 -1137180.000000 0 0 1
-24.611751 -13.198319 -12.985578 30.798687 0.492234 2.006036 0.130466 -0.017528 -404930.000000 0 0 1
-25.811681 -12.533419 -12.802678 31.420344 0.452038 1.990472 0.152824 -0.020838 -706993.000000 0 0 1
-26.535401 -12.790019 -11.458278 31.607028 0.449143 1.941770 0.161715 -0.024092 -487695.000000 0 0 1
-27.625621 -11.967919 -11.187378 32.117961 0.408811 1.926576 0.150536 -0.030813 -285612.000000 0 0 1
-28.249781 -12.437419 -10.022878 32.453006 0.414730 1.884772 0.150298 -0.030338 258189.000000 0 0 1
-29.197781 -11.312119 -9.476078 32.714989 0.369624 1.864663 0.149223 -0.034052 868115.000000 0 0 1
-28.372431 -10.381219 -8.758078 31.455818 0.350761 1.852950 0.159382 -0.040449 1022560.000000 0 0 1
-29.220841 -9.415819 -8.137378 31.760543 0.311724 1.829896 0.188868 -0.041129 56247.100000 0 0 1
-28.436861 -8.352919 -7.441078 30.558075 0.285700 1.816775 0.177610 -0.037379 -444135.000000 0 0 1
-27.782481 -8.838719 -6.295878 29.826620 0.308015 1.783479 0.164182 -0.041640 91202.700000 0 0 1
-26.920331 -7.886519 -5.683078 28.621649 0.284984 1.770683 0.149048 -0.042532 120126.000000 0 0 1
-27.558031 -6.526719 -5.156578 28.785993 0.232551 1.750903 0.184642 -0.044588 -278878.000000 0 0 1
-28.449201 -6.589119 -4.048578 29.481596 0.227597 1.708557 0.191362 -0.044174 586969.000000 0 0 1
-27.924231 -7.046419 -2.773578 28.932809 0.247180 1.666806 0.189062 -0.038944 -445593.000000 0 0 1
-27.233101 -5.957819 -1.988778 27.948034 0.215378 1.642016 0.186180 -0.040234 -286058.000000 0 0 1
-28.134661 -5.095519 -1.345378 28.624002 0.179170 1.617815 0.204026 -0.044732 238314.000000 0 0 1
-27.433501 -4.127819 -0.597878 27.748753 0.149346 1.592344 0.187827 -0.050777 105814.000000 0 0 1
-28.369021 -3.046219 0.071822 28.532192 0.106968 1.568279 0.197288 -0.050764 1261590.000000 0 0 1
-29.293981 -3.516019 1.121522 29.525540 0.119454 1.532802 0.187808 -0.045560 973537.000000 0 0 1
-28.690321 -3.671519 2.371122 29.021316 0.127279 1.489002 0.170453 -0.042422 604710.000000 0 0 1
-29.838321 -3.964519 3.428622 30.295185 0.132093 1.457380 0.161984 -0.047815 1010580.000000 0 0 1
-30.412881 -5.254219 3.141322 31.022863 0.171074 1.469364 0.166601 -0.045982 -96975.800000 0 0 1
-31.582391 -5.509519 3.864222 32.291399 0.172711 1.450842 0.168039 -0.045061 -264613.000000 0 0 1
-32.141751 -6.914219 3.637722 33.077660 0.211887 1.460598 0.157746 -0.039638 -247529.000000 0 0 1
-31.419391 -7.892319 4.325622 32.682990 0.246101 1.438056 0.153674 -0.036306 302603.000000 0 0 1
-32.056581 -9.137419 4.165622 33.592696 0.277676 1.446473 0.150735 -0.031098 -44988.600000 0 0 1
-31.224431 -10.207719 4.856022 33.207583 0.315963 1.424038 0.139019 -0.021865 -123068.000000 0 0 1
-31.344291 -10.256519 6.259222 33.568417 0.316240 1.383237 0.126281 -0.023288 -5916.750000 0 0 1
-30.435171 -11.170519 6.779622 33.121645 0.351762 1.364651 0.127875 -0.025564 -382325.000000 0 0 1
-30.608801 -11.300019 8.269522 33.659681 0.353654 1.322575 0.119986 -0.025189 -26539.700000 0 0 1
-30.365971 -10.044419 8.842522 33.183923 0.319450 1.301068 0.135310 -0.020385 313674.000000 0 0 1
-30.339791 -10.252119 10.242922 33.623300 0.325864 1.261238 0.133275 -0.023907 -335376.000000 0 0 1
-30.024831 -9.033019 11.099122 33.260734 0.292238 1.230570 0.122042 -0.018989 -148663.000000 0 0 1
-28.745051 -8.508719 10.838522 31.877105 0.287789 1.223869 0.116102 -0.034825 -9566.400000 0 0 1
-28.467521 -7.440619 11.742722 31.680500 0.255653 1.191076 0.127433 -0.029128 1044320.000000 0 0 1
-27.257971 -6.529119 11.241922 30.199457 0.235101 1.189358 0.132731 -0.028759 659785.000000 0 0 1
-27.654451 -5.778219 10.130122 30.012928 0.205980 1.226510 0.154415 -0.025563 176596.000000 0 0 1
-27.096311 -4.466119 10.130522 29.270869 0.163355 1.217390 0.139610 -0.028361 -152375.000000 0 0 1
-27.470341 -3.754719 8.786422 29.084682 0.135841 1.263904 0.150054 -0.030313 324957.000000 0 0 1
-26.737161 -4.345119 7.714622 28.165071 0.161104 1.293343 0.127306 -0.025874 364259.000000 0 0 1
-27.159901 -3.745319 6.509622 28.179120 0.137035 1.337682 0.141474 -0.043449 -132721.000000 0 0 1
-26.226391 -4.097919 5.357922 27.079953 0.154998 1.371626 0.139008 -0.033295 -274439.000000 0 0 1
-24.876251 -3.688019 5.458122 25.733644 0.147183 1.357072 0.154852 -0.044263 364122.000000 0 0 1
-24.224751 -3.966619 4.229222 24.909013 0.162302 1.400183 0.157234 -0.044116 -733729.000000 0 1 0
-22.742751 -3.629419 4.282922 23.425388 0.158251 1.386930 0.153852 -0.039180 -551756.000000 0 1 0
-22.508151 -2.233419 4.465622 23.055299 0.098903 1.375873 0.132782 -0.035469 753409.000000 0 1 0
-21.098451 -2.080119 4.273522 21.627171 0.098273 1.371888 0.108881 -0.027380 404694.000000 0 1 0
-20.518151 -0.678719 4.439222 21.003854 0.033067 1.357838 0.082616 -0.033212 -468953.000000 0 1 0
-20.749951 0.281781 3.407822 21.029815 -0.013579 1.408031 0.090167 -0.024693 366126.000000 0 1 0
-22.043651 0.846881 3.471222 22.331349 -0.038399 1.414722 0.099640 -0.042066 -62349.700000 0 1 0
-22.140751 2.059181 2.568922 22.384201 -0.092737 1.455778 0.122783 -0.028276 -52388.300000 0 1 0
-21.358451 3.131781 3.090622 21.806958 -0.145592 1.428591 0.093079 -0.037266 177668.000000 0 1 0
-21.364351 4.377481 2.344522 21.933869 -0.202099 1.463701 0.095632 -0.020460 106674.000000 0 1 0
-20.404351 4.427381 1.101122 20.908173 -0.213670 1.518107 0.068562 -0.007125 -350677.000000 0 1 0
-20.865551 5.111281 -0.085978 21.482640 -0.240232 1.574799 0.097275 0.001652 -472474.000000 0 1 0
-21.911151 4.546381 -0.770578 22.391112 -0.204589 1.605218 0.132518 -0.014872 -920521.000000 0 1 0
-21.724951 3.347381 -1.722378 22.048697 -0.152878 1.648993 0.138962 -0.012145 -367575.000000 0 1 0
-21.396951 2.191581 -1.023078 21.533212 -0.102069 1.618326 0.093512 -0.007514 258896.000000 0 1 0
-20.775551 1.239281 -1.831678 20.892927 -0.059580 1.658579 0.072847 -0.006265 -359439.000000 0 1 0
-19.878851 0.300181 -1.006778 19.906592 -0.015099 1.621393 0.063825 -0.007692 -279846.000000 0 1 0
-20.594251 -0.557319 -0.061678 20.601883 0.027055 1.573790 0.079296 -0.013433 855174.000000 0 1 0
-19.841451 -1.363219 0.842622 19.906068 0.068598 1.528454 0.065670 -0.011941 -102472.000000 0 1 0
-18.994151 -2.565819 0.295122 19.168941 0.134272 1.555400 0.031821 -0.012104 59371.900000 0 1 0
-18.262551 -3.203019 1.318822 18.588152 0.173621 1.499787 0.035227 -0.013760 128434.000000 0 1 0
-17.730051 -4.437819 0.959222 18.302160 0.245260 1.518362 0.032617 -0.007793 -286496.000000 0 1 0
-18.689951 -5.608319 0.525322 19.520335 0.291522 1.543882 0.041151 -0.009533 -331848.000000 0 1 0
-19.507251 -5.853619 1.621922 20.431063 0.291525 1.491328 0.087304 -0.020505 -50248.600000 0 1 0
-20.392651 -6.910719 1.402222 21.577406 0.326737 1.505765 0.081795 -0.026488 -449197.000000 0 1 0
-21.158051 -7.263219 2.687922 22.530921 0.330679 1.451212 0.103121 -0.026292 366275.000000 0 1 0
-20.285251 -7.989219 3.575722 22.093094 0.375188 1.408233 0.091655 -0.026680 1286840.000000 0 1 0
-21.067751 -8.507019 4.635822 23.188582 0.383772 1.369522 0.103053 -0.031635 274105.000000 0 1 0
-20.285651 -9.446519 5.595722 23.066349 0.435812 1.325759 0.091197 -0.023052 55461.000000 0 1 0
-19.799451 -10.676619 5.053922 23.055380 0.494543 1.349794 0.098478 -0.018124 571213.000000 0 1 0
-18.875851 -11.253019 5.968522 22.771724 0.537591 1.305596 0.098241 -0.028232 164737.000000 0 1 0
-18.249551 -12.625819 5.512022 22.865690 0.605230 1.327338 0.077761 -0.021965 -90826.500000 0 1 0
-19.222851 -13.602619 5.226922 24.121980 0.615827 1.352377 0.112846 -0.022604 -85379.700000 0 1 0
-18.612251 -14.826919 5.082222 24.332743 0.672677 1.360384 0.093253 -0.021415 175518.000000 0 1 0
-19.593151 -15.900719 4.415822 25.616867 0.681741 1.397552 0.107724 -0.018210 1114290.000000 0 0 1
-18.875451 -17.124919 4.180822 25.826822 0.736811 1.408202 0.102917 -0.026407 659447.000000 0 0 1
-19.609551 -18.131519 4.841822 27.142765 0.746256 1.391453 0.098063 -0.024388 97273.900000 0 0 1
-18.820351 -19.432719 4.917422 27.495767 0.801405 1.390986 0.104416 -0.026201 -583262.000000 0 0 1
-18.715251 -19.933819 3.662322 27.586778 0.816917 1.437647 0.103341 -0.027127 486943.000000 0 0 1
-17.891451 -21.129219 3.503422 27.907380 0.868184 1.444927 0.096861 -0.023112 784652.000000 0 0 1
-16.362551 -20.830119 3.512222 26.720079 0.904945 1.438970 0.104112 -0.024293 60679.600000 0 0 1
-15.684051 -22.071319 3.734122 27.332695 0.952986 1.433750 0.092923 -0.027070 800448.000000 0 0 1
-14.252151 -21.866119 3.777422 26.372711 0.993163 1.427070 0.096953 -0.023628 1284960.000000 0 0 1
-13.498451 -23.212519 4.056622 27.156682 1.044079 1.420857 0.112404 -0.016515 8531.330000 0 0 1
-13.485751 -24.070119 2.995422 27.752633 1.060103 1.462653 0.110541 -0.021276 83772.600000 0 0 1
-12.610651 -25.156659 3.202922 28.322159 1.106121 1.457465 0.103793 -0.026965 59215.800000 0 0 1
19.490549 18.811781 -24.339978 36.417017 0.767679 2.302809 0.056969 0.007780 1023600.000000 0 0 1
18.488849 19.295281 -25.304278 36.802879 0.806738 2.328923 0.052484 -0.000862 1324610.000000 0 0 1
19.131849 19.349981 -26.606238 38.057080 0.791067 2.344954 0.068026 -0.001559 35513.400000 0 0 1
18.173049 19.476981 -27.775438 38.484899 0.820017 2.377085 0.072736 -0.004900 -166135.000000 0 0 1
17.644349 20.810581 -27.908228 39.029124 0.867549 2.367509 0.072646 -0.005936 -40221.400000 0 0 1
16.844349 20.906881 -29.030358 39.542275 0.892599 2.395225 0.073399 -0.007756 -449706.000000 0 0 1
16.362949 22.321781 -29.310498 40.312694 0.938233 2.384853 0.088279 -0.019075 -508944.000000 0 0 1
15.439249 22.828681 -28.414328 39.584001 0.976148 2.371468 0.083562 -0.014980 -137299.000000 0 0 1
15.183249 24.195781 -28.675528 40.475336 1.010390 2.358123 0.082998 -0.015289 -203281.000000 0 0 1
14.242049 24.824381 -27.661528 39.802588 1.049930 2.339172 0.082265 -0.017977 -115735.000000 0 0 1
12.883149 24.423881 -27.711118 39.120424 1.085406 2.357960 0.084079 -0.024700 461974.000000 0 0 1
12.229549 25.198581 -26.613418 38.636827 1.118956 2.330642 0.064328 -0.021170 -184260.000000 0 0 1
10.722849 24.906381 -26.433308 37.868550 1.164254 2.343436 0.067220 -0.023955 268425.000000 0 0 1
10.043649 25.850281 -25.626048 37.759850 1.200215 2.316731 0.061360 -0.018390 48658.800000 0 0 1
9.770049 27.097681 -26.229788 38.958182 1.224755 2.309433 0.059833 -0.017123 -622101.000000 0 0 1
9.271149 28.160381 -25.185798 38.900973 1.252746 2.275009 0.067574 -0.021271 -1187430.000000 0 0 1
10.180449 28.506881 -24.234378 38.776138 1.227790 2.245904 0.062558 -0.016495 -794569.000000 0 0 1
9.592949 29.248181 -23.195278 38.542207 1.253867 2.216568 0.080551 -0.027736 -496625.000000 0 0 1
10.528149 29.498281 -22.022378 38.288062 1.227981 2.183616 0.065017 -0.027744 -233050.000000 0 0 1
11.668749 30.236781 -22.399778 39.397623 1.202493 2.175547 0.047395 -0.032426 -44391.800000 0 0 1
12.403949 30.697581 -21.298378 39.367758 1.186787 2.142435 0.042720 -0.021608 -72591.300000 0 0 1
13.509449 31.690781 -21.773878 40.754296 1.167834 2.134443 0.044320 -0.007741 -262375.000000 0 0 1
14.546149 30.991781 -22.392178 40.908320 1.131964 2.150020 0.045370 -0.008727 -337433.000000 0 0 1
15.626249 31.890081 -22.627378 42.108849 1.115178 2.138093 0.048366 -0.009048 -1067520.000000 0 0 1
16.866149 31.274981 -23.141178 42.404075 1.076216 2.148056 0.030198 -0.002988 -648681.000000 0 0 1
17.826849 30.982681 -22.095678 42.023114 1.048676 2.124450 0.028338 0.006410 876775.000000 0 0 1
18.992049 30.406681 -22.699378 42.432605 1.012484 2.135246 0.030328 0.003738 309381.000000 0 0 1
19.910149 29.591381 -21.790778 41.795956 0.978535 2.119241 0.020904 0.008240 -122466.000000 0 0 1
20.642649 30.274481 -20.812078 42.140311 0.972356 2.087338 0.027346 0.006603 -263254.000000 0 0 1
21.567449 29.386281 -20.250178 41.698658 0.937660 2.077882 0.026896 0.006964 -77953.000000 0 0 1
22.415249 29.926781 -19.079178 41.977026 0.927934 2.042624 0.034000 0.007257 -282471.000000 0 0 1
23.382049 30.867781 -19.415078 43.318419 0.922519 2.035541 0.031849 0.001292 -242537.000000 0 0 1
23.840849 31.557781 -18.300878 43.579832 0.923806 2.004175 0.039465 -0.004895 -438141.000000 0 0 1
25.079049 32.452281 -18.486678 44.987404 0.912864 1.994270 0.050202 -0.008611 -40179.800000 0 0 1
26.252349 31.695381 -18.669678 45.192255 0.879053 1.996670 0.052630 -0.004717 -72278.900000 0 0 1
27.398349 32.529781 -18.680778 46.452424 0.870816 1.984659 0.055270 -0.008002 303792.000000 0 0 1
28.722749 31.882781 -19.110578 46.975763 0.837492 1.989764 0.074522 -0.008974 106899.000000 0 0 1
29.249449 30.806081 -18.349478 46.273624 0.811312 1.978544 0.061775 -0.003208 -620686.000000 0 0 1
30.526849 30.474281 -18.769178 47.040965 0.784536 1.981218 0.057083 0.000794 -638318.000000 0 0 1
31.156949 29.261281 -18.028178 46.389582 0.754033 1.969936 0.060533 -0.009222 -613207.000000 0 0 1
31.478649 29.420281 -16.629278 46.184318 0.751611 1.939132 0.053863 -0.004960 158088.000000 0 0 1
31.860249 28.151781 -16.101478 45.462687 0.723681 1.932822 0.058819 -0.005945 -197972.000000 0 0 1
32.408949 28.288181 -14.673378 45.451834 0.717612 1.899518 0.065060 0.000665 929178.000000 0 0 1
33.629449 29.013181 -14.392278 46.688780 0.711839 1.884160 0.033031 0.004513 773369.000000 0 0 1
33.560949 30.396381 -14.601878 47.576172 0.735959 1.882747 0.045735 -0.001384 -1133110.000000 0 0 1
34.922149 30.964781 -14.886078 48.989484 0.725407 1.879541 0.050390 -0.007940 -744485.000000 0 0 1
35.650249 31.124681 -13.726378 49.275750 0.717728 1.853093 0.045030 -0.009055 427341.000000 0 0 1
37.048149 31.442881 -13.872978 50.533946 0.703741 1.848895 0.049987 -0.018048 1362120.000000 0 0 1
-36.792527 31.563181 -12.501278 50.062025 -0.709045 1.823183 0.058581 -0.018134 -179593.000000 0 0 1
-37.233827 32.708681 -11.788378 50.942924 -0.720790 1.804317 0.057585 -0.017854 391054.000000 0 0 1
-36.408127 32.909381 -10.650678 50.219677 -0.734967 1.784501 0.046224 -0.013826 -201231.000000 0 0 1
-36.706527 -33.654702 -9.832878 50.761142 0.742052 1.765737 0.038376 -0.009839 -330495.000000 0 0 1
-35.624427 -33.003702 -9.231178 49.432366 0.747229 1.758643 0.033949 -0.004017 -410116.000000 0 0 1
-35.261327 -33.645402 -8.018078 49.392953 0.761952 1.733850 0.039207 -0.006625 149393.000000 0 0 1
-34.895027 -32.669602 -6.875478 48.293250 0.752472 1.713651 0.049333 -0.004390 -282427.000000 0 0 1
-35.993827 -31.860902 -6.560778 48.515116 0.724565 1.706444 0.037158 -0.000833 -435311.000000 0 0 1
-35.674927 -30.796602 -5.681278 47.470075 0.712140 1.690765 0.057182 -0.001655 275886.000000 0 0 1
-36.934727 -30.002102 -5.225278 47.870698 0.682196 1.680168 0.037977 -0.002311 533173.000000 0 0 1
36.759549 -30.833502 -4.487078 48.188206 -0.697949 1.664047 0.021726 -0.003630 708275.000000 0 0 1
35.492449 -30.231102 -4.198578 46.810913 -0.705516 1.660609 0.022616 -0.002221 212790.000000 0 0 1
35.391649 -29.351202 -2.964978 46.074429 -0.692368 1.635193 0.021636 0.002717 -577783.000000 0 0 1
35.900549 -28.030502 -2.983778 45.644949 -0.662912 1.636212 0.044596 -0.013489 208296.000000 0 0 1
34.992549 -27.286002 -2.227778 44.429353 -0.662281 1.620959 0.048236 -0.016713 -176809.000000 0 0 1
35.207749 -25.741202 -2.335578 43.676653 -0.631310 1.624296 0.072104 -0.033696 -352450.000000 0 0 1
34.961149 -25.304402 -3.623678 43.309650 -0.626512 1.654563 0.066301 -0.038036 406128.000000 0 0 1
34.904049 -23.912202 -3.721878 42.472796 -0.600645 1.658539 0.073141 -0.044830 -411521.000000 0 0 1
34.697749 -23.467302 -5.139778 42.202670 -0.594666 1.692887 0.083118 -0.048794 -20776.400000 0 0 1
35.791749 -23.672702 -6.029778 43.333640 -0.584348 1.710397 0.076181 -0.048591 419738.000000 0 0 1
35.470649 -23.067402 -7.262378 42.930340 -0.576603 1.740780 0.058686 -0.045127 -685826.000000 0 0 1
36.683549 -22.852902 -8.137678 43.979083 -0.557141 1.756904 0.052442 -0.040002 -759088.000000 0 0 1
37.225149 -24.057202 -8.650378 45.158496 -0.573743 1.763544 0.046230 -0.026065 -411040.000000 0 0 1
-36.241127 -23.765402 -9.415778 44.349413 0.580412 1.784734 0.067852 -0.016268 -235177.000000 0 0 1
-35.590827 -25.001402 -10.094478 44.650594 0.612380 1.798845 0.064798 -0.014051 -327588.000000 0 0 1
-34.954227 -25.867602 -9.203578 44.448134 0.637098 1.779369 0.065143 -0.010911 10665.700000 0 0 1
-35.752227 -26.982502 -8.789478 45.645723 0.646508 1.764565 0.053164 -0.007994 116729.000000 0 0 1
-34.815727 -28.121402 -8.374678 45.531125 0.679431 1.755783 0.048111 0.003432 -193843.000000 0 0 1
-34.113227 -28.697802 -9.444578 45.568368 0.699393 1.779571 0.053479 -0.003492 -198870.000000 0 0 1
-33.768927 -30.022602 -9.142078 46.100701 0.726738 1.770426 0.052182 0.002227 -186076.000000 0 0 1
-33.181927 -30.779402 -10.337478 46.424943 0.747854 1.795350 0.060090 0.005033 296647.000000 0 0 1
-31.836227 -30.431202 -10.670878 45.315241 0.762838 1.808510 0.039989 0.013304 426886.000000 0 0 1
-31.391327 -31.008702 -11.886378 45.697275 0.779266 1.833934 0.028281 0.007132 -351231.000000 0 0 1
-31.777927 -30.270502 -13.223778 45.836756 0.761109 1.863453 0.024509 0.015517 336306.000000 0 0 1
-30.845027 -29.226102 -13.530178 44.594242 0.758455 1.879062 0.023806 0.014302 416857.000000 0 0 1
-31.307427 -28.465002 -14.653678 44.778807 0.737880 1.904184 0.022015 0.019158 95234.300000 0 0 1
-30.332627 -27.399002 -15.208578 43.612778 0.734627 1.927000 0.040064 0.005941 341673.000000 0 0 1
-29.063527 -27.951602 -15.524878 43.208824 0.765898 1.938313 0.058119 0.000625 -73633.400000 0 0 1
-28.127727 -26.996402 -15.951978 42.124106 0.764878 1.959177 0.077886 0.005584 708455.000000 0 0 1
-26.794627 -27.704202 -16.420478 41.893996 0.802086 1.973550 0.088655 -0.002701 482850.000000 0 0 1
-26.934927 -28.520102 -17.580678 42.987984 0.813975 1.992118 0.087894 -0.006530 -108283.000000 0 0 1
-27.009927 -27.927502 -18.869878 43.192057 0.802099 2.022927 0.071898 -0.002815 -477518.000000 0 0 1
-25.729027 -27.348802 -19.468978 42.296346 0.815906 2.049129 0.067897 -0.007015 -214321.000000 0 0 1
-25.325427 -26.179002 -18.726978 40.956283 0.801970 2.045689 0.082174 -0.007610 -198102.000000 0 0 1
-23.933027 -25.953202 -18.807578 40.001043 0.825872 2.060288 0.079827 -0.018195 158947.000000 0 0 1
-23.437227 -24.888802 -17.864478 38.573250 0.815426 2.052321 0.089104 -0.024107 -229421.000000 0 0 1
-23.647127 -25.321802 -16.521578 38.384148 0.819584 2.015762 0.101397 -0.020575 178248.000000 0 0 1
-23.110227 -24.386702 -15.619078 37.050633 0.812267 2.005962 0.109473 -0.024456 -42456.100000 0 0 1
-23.708527 -24.522702 -14.206278 36.949634 0.802277 1.965437 0.098010 -0.025643 179073.000000 0 0 1
-25.036227 -24.035402 -14.086178 37.455755 0.765006 1.956353 0.072840 -0.013298 204472.000000 0 0 1
-25.422727 -23.926402 -12.745378 37.164935 0.755086 1.920842 0.074623 -0.010605 308243.000000 0 0 1
-26.955527 -23.776202 -12.560078 38.074450 0.722811 1.906975 0.063938 0.006013 -131789.000000 0 0 1
-27.775327 -24.907802 -12.731978 39.420434 0.731022 1.899672 0.069798 0.003865 686305.000000 0 0 1
-29.079327 -24.924502 -12.161878 40.183944 0.708614 1.878274 0.057021 0.007928 414689.000000 0 0 1
-30.128827 -23.983002 -12.823878 40.587959 0.672306 1.892257 0.066112 0.007102 -896579.000000 0 0 1
-30.477527 -22.760802 -12.195978 39.945909 0.641454 1.881063 0.071336 0.006758 375154.000000 0 0 1
-31.027627 -22.822102 -10.869178 40.021257 0.634183 1.845836 0.080251 0.002639 410976.000000 0 0 1
-32.562427 -23.175502 -10.770678 41.393514 0.618552 1.834028 0.068028 0.002760 346000.000000 0 0 1
-33.436727 -22.241502 -11.341078 41.729116 0.586974 1.846037 0.081899 -0.009660 -85152.400000 0 0 1
-33.657827 -22.304402 -12.745178 42.341176 0.585238 1.876549 0.069999 -0.002035 -589166.000000 0 0 1
-35.099027 -21.918902 -13.147378 43.419276 0.558231 1.878426 0.032595 -0.007138 -274293.000000 0 0 1
-35.996627 -22.917502 -12.803778 44.552281 0.566938 1.862295 0.041827 -0.001389 -168863.000000 0 0 1
-37.252527 -22.693802 -13.426578 45.640250 0.547148 1.869397 0.050974 -0.008484 332070.000000 0 0 1
36.182849 -23.654502 -13.067978 45.160891 -0.579006 1.864360 0.050079 -0.000394 27129.600000 0 0 1
36.198549 -24.976602 -13.598678 46.033571 -0.603976 1.870679 0.036472 0.013004 64153.200000 0 0 1
35.073149 -25.690402 -13.127178 45.414154 -0.632194 1.864036 0.037446 0.001888 225678.000000 0 0 1
34.768649 -26.927002 -13.989178 46.147801 -0.658974 1.878781 0.048366 -0.000552 404646.000000 0 0 1
34.249249 -26.643102 -15.330278 46.020467 -0.661130 1.910406 0.046733 -0.011042 29568.700000 0 0 1
34.184949 -27.896102 -15.997278 46.933103 -0.684442 1.918620 0.047728 0.002562 -55060.300000 0 0 1
33.235549 -28.085502 -17.196978 46.788174 -0.701610 1.947169 0.050454 -0.005251 -330272.000000 0 0 1
31.867549 -27.981902 -16.929978 45.663461 -0.720565 1.950619 0.071169 -0.007288 -284041.000000 0 0 1
31.177949 -27.680502 -18.157278 45.474844 -0.726047 1.981530 0.069224 -0.014582 642746.000000 0 0 1
29.627949 -27.664902 -18.084578 44.387094 -0.751148 1.990433 0.067005 -0.015530 486303.000000 0 0 1
29.048149 -26.694002 -17.200578 43.037479 -0.743190 1.981948 0.061098 -0.018846 295271.000000 0 0 1
27.633049 -26.767102 -17.129478 42.112732 -0.769481 1.989693 0.079471 -0.019438 368497.000000 0 0 1
27.086049 -25.992702 -15.922778 40.777561 -0.764802 1.971948 0.074349 -0.026645 -169720.000000 0 0 1
27.164549 -24.618702 -16.170978 40.068613 -0.736274 1.986225 0.083920 -0.033252 45905.600000 0 0 1
27.179949 -23.849202 -14.957878 39.131473 -0.720219 1.963023 0.078690 -0.029689 13758.500000 0 0 1
26.943949 -22.355802 -15.230978 38.180374 -0.692599 1.981137 0.080198 -0.033806 589292.000000 0 0 1
25.595749 -22.023502 -15.572578 37.184435 -0.710522 2.002912 0.093085 -0.031273 524065.000000 0 0 1
25.432449 -20.668402 -15.834878 36.396919 -0.682424 2.020902 0.087504 -0.039672 -205858.000000 0 0 1
23.959649 -20.259602 -15.987778 35.215413 -0.701918 2.042045 0.082777 -0.034704 -42750.300000 0 0 1
23.316649 -20.146102 -14.710078 34.145541 -0.712579 2.016181 0.094033 -0.040682 574144.000000 0 0 1
21.916349 -19.895302 -14.803578 33.095246 -0.737099 2.034543 0.084453 -0.043037 562198.000000 0 0 1
21.505849 -18.637002 -14.020578 31.724060 -0.714054 2.028572 0.066903 -0.036736 -125824.000000 0 0 1
21.329949 -18.854302 -12.648878 31.151975 -0.723869 1.988910 0.070963 -0.049619 -78010.100000 0 0 1
20.799949 -17.675502 -12.106278 29.860061 -0.704370 1.988250 0.082221 -0.058030 -419822.000000 0 0 1
19.938949 -17.877702 -10.881978 28.906597 -0.730946 1.956761 0.095494 -0.045288 -266928.000000 0 0 1
20.668649 -18.299302 -9.728778 29.269551 -0.724670 1.909628 0.104060 -0.057672 334136.000000 0 0 1
19.786049 -18.569202 -8.620178 28.471222 -0.753683 1.878392 0.095782 -0.050817 -2616.850000 0 0 1
20.358849 -19.149402 -7.356778 28.901635 -0.754795 1.828174 0.089792 -0.045617 -567783.000000 0 0 1
21.347449 -18.286002 -6.813078 28.922474 -0.708307 1.808595 0.095114 -0.043812 232110.000000 0 0 1
21.978949 -18.940902 -5.706978 29.570282 -0.711290 1.765012 0.100193 -0.040736 -399624.000000 0 0 1
23.317949 -18.294202 -5.320378 30.111642 -0.665252 1.748417 0.088821 -0.037564 -35393.000000 0 0 1
24.231149 -18.483102 -6.426378 31.145979 -0.651632 1.778620 0.082118 -0.053351 247789.000000 0 0 1
25.376749 -17.708702 -6.175678 31.554976 -0.609269 1.767779 0.091710 -0.049828 -201443.000000 0 0 1
26.392649 -17.592302 -7.370378 32.563530 -0.587929 1.799113 0.094772 -0.059713 391555.000000 0 0 1
27.478149 -18.485902 -7.284178 33.909239 -0.592202 1.787298 0.103852 -0.069529 178612.000000 0 0 1
27.219849 -19.650302 -8.028878 34.518364 -0.625280 1.805544 0.105704 -0.074466 -158755.000000 0 0 1
28.233549 -20.810402 -7.829278 35.937498 -0.635181 1.790416 0.104113 -0.076226 260048.000000 0 0 1
29.548149 -20.540502 -8.232678 36.915882 -0.607466 1.795699 0.113145 -0.061338 -79123.000000 0 0 1
30.524749 -21.544802 -8.109878 38.232302 -0.614617 1.784541 0.113821 -0.062215 -39594.700000 0 0 1
-30.181751 29.237881 4.554922 42.267471 -0.769515 1.462822 0.050677 -0.021711 65413.800000 0 0 1
-29.823741 30.131281 3.530622 42.541920 -0.790528 1.487709 0.047985 -0.018879 -30765.000000 0 0 1
-29.015431 31.185981 4.074222 42.790886 -0.821437 1.475440 0.048379 -0.007978 371813.000000 0 0 1
-28.596361 32.311581 3.083422 43.258498 -0.846320 1.499457 0.053465 -0.005174 -577876.000000 0 0 1
-27.663061 31.909581 2.126822 42.284627 -0.856561 1.520477 0.052369 -0.007902 -134450.000000 0 0 1
-27.171431 32.969081 1.327522 42.743529 -0.881503 1.539733 0.066671 -0.022281 -166672.000000 0 0 1
-26.038791 33.803281 1.952922 42.714100 -0.914427 1.525060 0.072361 -0.017404 -408911.000000 0 0 1
-24.768951 33.202981 1.775522 41.461927 -0.929869 1.527960 0.062248 -0.023853 -732862.000000 0 0 1
-23.837351 33.767281 2.621822 41.416453 -0.956101 1.507450 0.064243 -0.021686 56662.800000 0 0 1
-22.374251 33.443581 2.195122 40.297628 -0.981170 1.516297 0.067152 -0.029727 336217.000000 0 0 1
-21.924951 -33.646402 1.118122 40.175043 0.993277 1.542961 0.088764 -0.039312 -780971.000000 0 0 1
-20.636051 33.763081 0.838722 39.578981 -1.022181 1.549604 0.099645 -0.037289 -1182370.000000 0 0 1
-19.922151 -33.676602 -0.497478 39.131229 1.036597 1.583510 0.111605 -0.036018 299504.000000 0 0 1
-19.563251 -32.307802 -0.522578 37.772847 1.026323 1.584632 0.112108 -0.037832 91035.800000 0 0 1
-18.664451 -31.889502 0.467622 36.952953 1.041267 1.558141 0.113701 -0.031202 -911594.000000 0 0 1
-18.425251 -30.362902 0.474922 35.519308 1.025367 1.557425 0.112055 -0.035104 -145630.000000 0 0 1
-17.631051 -29.960402 -0.626978 34.768847 1.038892 1.588830 0.105318 -0.024920 104445.000000 0 0 1
-17.372651 -28.552502 -0.558478 33.427029 1.024190 1.587504 0.088293 -0.026683 -435893.000000 0 0 1
-16.276651 -28.098002 -1.505178 32.506809 1.045750 1.617116 0.076353 -0.024920 -550227.000000 0 0 1
-16.656451 -28.282702 -2.838578 32.945502 1.038558 1.657063 0.062068 -0.020228 -211743.000000 0 0 1
-15.692351 -27.733902 -3.695878 32.079257 1.055890 1.686264 0.057642 -0.014453 -161665.000000 0 0 1
-16.142751 -27.577502 -5.191678 32.373763 1.041212 1.731859 0.073320 -0.019864 411336.000000 0 0 1
-17.238251 -26.669502 -5.348378 32.202869 0.996980 1.737653 0.073143 -0.013000 268510.000000 0 0 1
-17.725651 -26.621802 -6.712178 32.679847 0.983372 1.777661 0.082199 -0.020028 311169.000000 0 0 1
-18.546051 -25.354102 -7.011178 32.186070 0.939253 1.790390 0.052263 -0.011727 -93530.000000 0 0 1
-17.703651 -24.241502 -6.978678 30.818365 0.940021 1.799223 0.043543 -0.005099 118951.000000 0 0 1
-18.328351 -23.026302 -7.363378 30.337409 0.898515 1.815961 0.033008 -0.003120 -122212.000000 0 0 1
-17.286651 -21.961202 -7.030178 28.819197 0.903943 1.817224 0.041992 -0.000805 -91609.000000 0 0 1
-16.270051 -21.870902 -7.969878 28.400174 0.931202 1.855244 0.056803 -0.006980 -59408.300000 0 0 1
-15.125651 -21.108102 -7.503178 27.030260 0.949029 1.852075 0.085564 -0.025034 1652440.000000 0 0 1
-14.074951 -20.986402 -8.685578 26.720265 0.980027 1.901867 0.084890 -0.018644 545243.000000 0 0 1
-14.657251 -20.364402 -9.814478 26.941935 0.946939 1.943659 0.094011 -0.017927 -164832.000000 0 0 1
-13.644551 -20.189002 -10.761078 26.637762 0.976469 1.986658 0.088708 -0.015534 67155.000000 0 0 1
-14.122851 -19.270402 -11.886378 26.685001 0.938344 2.032454 0.104808 -0.019994 172297.000000 0 0 1
-15.107451 -19.847802 -12.753878 28.014848 0.920188 2.043454 0.079420 0.000636 31570.700000 0 0 1
-15.351051 -18.927002 -13.797678 28.004680 0.889344 2.085977 0.085263 -0.021172 272971.000000 0 0 1
-16.559951 -19.371702 -14.689578 29.415617 0.863492 2.093680 0.094040 -0.020519 18008.500000 0 0 1
-17.744051 -19.314702 -13.950478 29.707321 0.827756 2.059631 0.086554 -0.019347 -1087390.000000 0 0 1
-18.845751 -19.672402 -14.720378 30.965388 0.806856 2.066194 0.073270 -0.013215 53547.700000 0 0 1
-20.189251 -19.471602 -13.922278 31.314198 0.767306 2.031523 0.053793 -0.003875 623409.000000 0 0 1
-21.262551 -20.035802 -14.675478 32.694022 0.755702 2.036301 0.075132 -0.018860 1299760.000000 0 0 1
-22.521651 -19.844802 -13.962278 33.105681 0.722299 2.006169 0.072690 -0.017182 139254.000000 0 0 1
-23.792451 -20.259702 -14.602878 34.493192 0.705375 2.007942 0.086591 -0.024597 -1260080.000000 0 0 1
-23.976051 -19.649102 -15.881278 34.830349 0.686537 2.044248 0.080122 -0.033159 359712.000000 0 0 1
-24.474351 -20.581602 -16.836178 36.139357 0.699214 2.055412 0.097689 -0.046427 -383141.000000 0 0 1
-24.781951 -20.022902 -18.185478 36.684783 0.679578 2.089463 0.093699 -0.036356 -747275.000000 0 0 1
-23.744051 -19.682902 -19.042078 36.246342 0.692153 2.123925 0.074026 -0.031131 -330599.000000 0 0 1
-24.185751 -19.361902 -20.341878 37.062458 0.675076 2.151789 0.076147 -0.036639 -853951.000000 0 0 1
-23.095451 -18.725202 -21.174278 36.501823 0.681276 2.189633 0.056700 -0.027669 337882.000000 0 0 1
-22.024151 -19.613002 -21.625478 36.570403 0.727554 2.203514 0.050198 -0.025280 253502.000000 0 0 1
-21.015251 -18.801502 -22.119978 35.838955 0.729857 2.235982 0.051188 -0.025324 -669569.000000 0 0 1
-19.682951 -19.549402 -22.261978 35.569557 0.781994 2.247045 0.055877 -0.018926 -261395.000000 0 0 1
-19.703451 -20.540202 -23.269278 36.763911 0.806187 2.256139 0.049904 -0.013046 -176046.000000 0 0 1
-18.467251 -21.198002 -23.139178 36.411759 0.854135 2.259435 0.059649 -0.006977 -143174.000000 0 0 1
-18.348551 -22.515802 -23.986878 37.669630 0.887025 2.261098 0.068673 -0.006547 -92091.200000 0 0 1
-18.049251 -22.343602 -25.356358 38.313926 0.891315 2.294021 0.071841 -0.012077 276376.000000 0 0 1
-18.323551 -23.614402 -25.986708 39.606837 0.910894 2.286458 0.084410 -0.018509 15786.000000 0 0 1
-18.198651 -23.448802 -27.521168 40.477795 0.910798 2.318433 0.080131 -0.009848 648683.000000 0 0 1
-16.834151 -23.474602 -27.973718 40.211621 0.948671 2.340138 0.073121 -0.012919 810539.000000 0 0 1
-16.788451 -23.511102 -29.399748 41.218554 0.950693 2.364942 0.096891 -0.015998 1251350.000000 0 0 1
-15.295051 -23.350602 -29.915798 40.916307 0.990902 2.390797 0.067068 -0.025561 1214320.000000 0 0 1
-14.456751 -24.446002 -29.619668 41.035709 1.036743 2.377199 0.083178 -0.030161 161247.000000 0 0 1
-13.182751 -24.288602 -30.236548 40.963032 1.073533 2.401109 0.106797 -0.037255 330806.000000 0 0 1
-12.250251 -25.430802 -29.799488 41.046362 1.121888 2.383278 0.113846 -0.036477 -1221450.000000 0 0 1
-12.553151 -26.636302 -30.435178 42.348250 1.130388 2.372710 0.113948 -0.034940 -50012.400000 0 0 1
-11.777751 -27.768802 -30.123788 42.629384 1.169658 2.355540 0.126540 -0.042603 606295.000000 0 0 1
-10.360251 -27.768102 -30.806618 42.748684 1.213693 2.375528 0.128531 -0.046683 144028.000000 0 0 1
-9.491151 -26.764402 -30.410698 41.608001 1.230013 2.390415 0.137009 -0.055728 -768769.000000 0 0 1
-8.337951 -26.657502 -31.200928 41.876506 1.267656 2.411436 0.132073 -0.044392 -709561.000000 0 0 1
-7.473251 -25.535202 -30.673718 40.605086 1.286083 2.427085 0.151933 -0.041992 -695946.000000 0 0 1
-8.002951 -24.262402 -30.663228 39.911714 1.252184 2.446940 0.160971 -0.044511 -126913.000000 0 0 1
-8.985751 -24.049302 -29.655018 39.224135 1.213220 2.428038 0.151498 -0.038853 -384741.000000 0 0 1
-9.331551 -22.547702 -29.454908 38.250076 1.178401 2.449734 0.148101 -0.038372 -566063.000000 0 0 1
-10.011051 -22.051202 -30.544828 38.980292 1.144628 2.471230 0.132818 -0.036547 -89412.200000 0 0 1
-10.460051 -20.719302 -30.305148 38.172034 1.103280 2.488009 0.126616 -0.035034 99083.300000 0 0 1
-11.034051 -19.957602 -31.516578 38.901811 1.065749 2.515216 0.092222 -0.024007 -186839.000000 0 0 1
-11.537851 -18.700902 -31.278268 38.225329 1.017994 2.529174 0.089369 -0.025588 -62219.900000 0 0 1
-12.067151 -18.270602 -32.546998 39.226753 0.987097 2.549392 0.090280 -0.018884 145189.000000 0 0 1
-13.164051 -17.172602 -32.333248 38.905391 0.916773 2.551832 0.073716 -0.019705 387575.000000 0 0 1
-12.704751 -15.781702 -32.440388 38.247243 0.892996 2.583328 0.073406 -0.017682 247438.000000 0 0 1
-11.896951 -15.231102 -31.399078 36.870395 0.907689 2.589839 0.062003 -0.009597 285246.000000 0 0 1
-11.754851 -13.641902 -31.516048 36.297924 0.859565 2.622481 0.052204 -0.010411 238249.000000 0 0 1
-10.855751 -13.125202 -32.525918 36.715850 0.879753 2.659189 0.043119 -0.013142 438543.000000 0 0 1
-11.258151 -13.324502 -33.904778 38.129022 0.869258 2.666416 0.050402 -0.016993 -460792.000000 0 0 1
-12.011651 -12.193902 33.296736 37.438532 0.792927 0.474829 0.048127 -0.010638 -924249.000000 0 0 1
-13.203551 -11.847502 33.904205 38.264765 0.731320 0.482059 0.035910 -0.011681 -793115.000000 0 0 1
-13.966951 -11.159002 32.886521 37.431569 0.674105 0.497921 0.034869 -0.017338 -10738.300000 0 0 1
-15.023551 -10.213102 33.393573 38.015067 0.597044 0.498230 0.047182 -0.019726 -350576.000000 0 0 1
-14.462851 -9.194102 -33.698408 37.805929 0.566260 2.671116 0.046171 -0.020929 -351185.000000 0 0 1
-15.430151 -8.520702 -32.926148 37.347331 0.504539 2.650080 0.056967 -0.023528 -103018.000000 0 0 1
-14.877851 -7.494902 -31.872968 35.964011 0.466653 2.659974 0.061923 -0.038519 -353341.000000 0 0 1
-14.733951 -6.140202 -32.226448 35.962972 0.394852 2.681701 0.066143 -0.044960 861816.000000 0 0 1
-15.926551 -5.325802 -32.121038 36.246107 0.322708 2.659858 0.068573 -0.037537 791239.000000 0 0 1
-16.289951 -4.803502 -30.681588 35.068447 0.286749 2.636038 0.072861 -0.044019 -320729.000000 0 0 1
-16.653851 -5.818702 -29.809718 34.638524 0.336132 2.607232 0.075570 -0.047852 38069.600000 0 0 1
-16.942551 -5.449102 -28.444008 33.553008 0.311174 2.582494 0.085822 -0.053261 47382.600000 0 0 1
-15.720351 -4.873702 -27.698458 32.219357 0.300628 2.605447 0.087429 -0.049498 32998.800000 0 0 1
-15.365351 -3.617002 -28.133938 32.259808 0.231191 2.630284 0.078235 -0.042463 -202482.000000 0 0 1
-14.002151 -3.336102 -27.882778 31.378960 0.233896 2.665041 0.068821 -0.032786 97431.400000 0 0 1
-13.653351 -1.968402 -28.475848 31.641152 0.143183 2.690480 0.047548 -0.012432 -119110.000000 0 0 1
-13.691251 -1.997402 -29.849118 32.899997 0.144867 2.707538 0.051605 -0.022972 69649.800000 0 0 1
-13.929651 -0.728402 -30.384888 33.433623 0.052244 2.711225 0.060832 -0.026310 21338.900000 0 0 1
-13.950951 -0.754402 -31.912408 34.836761 0.054023 2.728928 0.051974 -0.035093 644629.000000 0 0 1
-15.229551 -1.253402 -32.361098 35.787580 0.082116 2.700428 0.045170 -0.037842 932129.000000 0 0 1
-15.304751 -1.368402 -33.750768 37.083989 0.089173 2.714363 0.043817 -0.030997 261486.000000 0 0 1
-16.752751 -1.669402 33.644833 37.622020 0.099322 0.463964 0.036020 -0.033523 300456.000000 0 0 1
-16.757251 -1.862402 32.263241 36.403169 0.110686 0.481555 0.051914 -0.036275 167274.000000 0 0 1
-18.052751 -2.011402 31.720845 36.553517 0.110960 0.520055 0.045454 -0.033870 89233.300000 0 0 1
-17.975851 -2.056402 30.233085 35.233499 0.113903 0.539282 0.066240 -0.028050 53369.400000 0 0 1
-17.442651 -0.836402 29.727855 34.477399 0.047915 0.531117 0.066475 -0.015148 53445.500000 0 0 1
-17.385351 -0.828402 28.287165 33.212955 0.047613 0.551593 0.071309 -0.025367 -260442.000000 0 0 1
-16.849351 0.496598 27.653785 32.386403 -0.029464 0.547420 0.070037 -0.021034 61462.700000 0 0 1
-17.453051 1.754598 28.008485 33.047887 -0.100196 0.559516 0.067828 -0.019002 -310442.000000 0 0 1
-18.747351 1.975598 27.515325 33.353550 -0.104993 0.600666 0.077952 -0.025211 -254106.000000 0 0 1
-18.775951 2.818598 26.251625 32.397973 -0.149005 0.626156 0.082964 -0.025629 -321460.000000 0 0 1
-18.474251 4.149598 26.490765 32.561907 -0.220948 0.620564 0.081595 -0.018026 121480.000000 0 0 1
-18.732351 4.866598 25.310775 31.862519 -0.254177 0.652819 0.085628 -0.013963 -633685.000000 0 0 1
-18.638351 6.366598 25.460235 32.189211 -0.329159 0.658427 0.078024 -0.010403 -456491.000000 0 0 1
-17.434951 7.066598 25.398995 31.607330 -0.385077 0.637512 0.052282 -0.012216 -841353.000000 0 0 1
-16.866951 7.002598 24.131095 30.262851 -0.393512 0.647850 0.042145 -0.006999 -976714.000000 0 0 1
-15.699351 7.952598 24.036865 29.790675 -0.468879 0.631981 0.040390 -0.010226 -75550.300000 0 0 1
-14.477351 7.581598 24.687095 29.606199 -0.482417 0.584752 0.030777 -0.008920 244548.000000 0 0 1
-13.457651 8.237598 23.974825 28.701196 -0.549278 0.582073 0.049650 -0.013891 -451330.000000 0 0 1
-12.055551 8.149598 24.592315 28.575063 -0.594439 0.534307 0.035000 -0.008465 -176207.000000 0 0 1
-11.039151 8.661598 23.703415 27.545200 -0.665296 0.534491 0.037265 -0.020723 176957.000000 0 0 1
-9.824551 8.780598 24.406865 27.736542 -0.729346 0.495032 0.049777 -0.017048 -286928.000000 0 0 1
-9.613051 10.140598 25.148435 28.769537 -0.812098 0.507146 0.067757 -0.030088 -544470.000000 0 0 1
-10.592051 10.295598 26.179985 30.059649 -0.771206 0.513695 0.046703 -0.021467 552445.000000 0 0 1
-10.633651 11.593598 26.752725 31.035373 -0.828559 0.531579 0.056750 -0.018638 -512053.000000 0 0 1
-11.257951 12.779598 25.888915 30.988635 -0.848617 0.581877 0.049422 -0.024307 255216.000000 0 0 1
-12.666851 12.822598 25.785645 31.460573 -0.791508 0.610053 0.045536 -0.026595 67185.900000 0 0 1
-13.222851 11.844598 24.944655 30.616566 -0.730472 0.618509 0.044205 -0.022767 2480.930000 0 0 1
-14.779151 11.815598 24.797745 31.192304 -0.674422 0.651796 0.005273 -0.017935 293995.000000 0 0 1
-15.253951 13.042598 24.290495 31.509055 -0.707407 0.690535 0.022197 -0.023872 -1123130.000000 0 0 1
-16.483051 12.884598 23.689995 31.605691 -0.663475 0.723417 0.035126 -0.010649 -990811.000000 0 0 1
-16.560051 12.215598 22.273135 30.324061 -0.635553 0.745861 0.028946 -0.002322 -583396.000000 0 0 1
-16.271851 10.863598 22.225235 29.609998 -0.588670 0.721828 0.040294 -0.004857 -5498.040000 0 0 1
-16.182251 10.468598 20.859235 28.400079 -0.574206 0.745899 0.055012 -0.012913 -448190.000000 0 0 1
-16.428451 8.970598 20.626135 27.853242 -0.499798 0.736939 0.056198 -0.009554 403211.000000 0 0 1
-17.763351 8.716598 21.029535 28.874852 -0.456185 0.754959 0.061488 -0.001130 -42041.200000 0 0 1
-18.143051 7.348598 20.856635 28.603696 -0.384841 0.753704 0.051397 -0.004110 -700983.000000 0 0 1
-19.630751 7.063598 20.933735 29.554730 -0.345399 0.783704 0.091969 -0.017246 -579406.000000 0 0 1
-20.087951 7.329598 22.259535 30.866417 -0.349865 0.765325 0.081317 -0.021682 -684568.000000 0 0 1
-21.465151 7.518598 22.301835 31.853632 -0.336915 0.795210 0.086152 -0.025602 -734661.000000 0 0 1
-22.005851 8.393598 23.435095 33.225196 -0.364392 0.787892 0.104760 -0.032867 -823023.000000 0 0 1
-21.871951 9.813598 23.318745 33.443278 -0.421759 0.799225 0.100058 -0.024129 934694.000000 0 0 1
-20.585751 10.464598 23.286745 32.795632 -0.470299 0.781218 0.091827 -0.021125 732189.000000 0 0 1
-19.513551 10.133598 24.337325 32.798992 -0.478977 0.734726 0.096052 -0.028053 -542304.000000 0 0 1
-19.747851 10.655598 25.630125 34.064978 -0.494810 0.719115 0.106105 -0.025084 175007.000000 0 0 1
-19.295651 9.708598 26.578355 34.248912 -0.466164 0.682442 0.091200 -0.020806 113609.000000 0 0 1
-31.430011 -14.157419 20.736135 40.227670 0.423222 1.029241 0.078088 -0.012920 40205.400000 0 0 1
-30.884341 -15.453419 21.044035 40.441341 0.463939 1.023524 0.075007 -0.002451 268366.000000 0 0 1
-31.336321 -16.522919 20.210935 40.785460 0.485230 1.052337 0.074966 -0.001105 -31030.800000 0 0 1
-31.076001 -16.471419 18.623235 39.797618 0.487387 1.083828 0.082215 -0.009306 -20797.800000 0 0 1
-31.713331 -15.387619 17.926235 39.545721 0.451746 1.100328 0.087673 -0.027691 30898.400000 0 0 1
-31.225021 -15.127519 16.620435 38.471842 0.451145 1.124070 0.094089 -0.025630 -1277920.000000 0 0 1
-31.969871 -14.084519 15.797735 38.340771 0.414973 1.146110 0.092732 -0.026614 2179300.000000 0 0 1
-33.381931 -14.341319 15.412435 39.466060 0.405772 1.169596 0.097287 -0.020972 1983970.000000 0 0 1
-34.345716 -14.334719 16.398435 40.669658 0.395386 1.155774 0.104139 -0.023781 -864338.000000 0 0 1
-35.145746 -12.995819 16.461435 40.927908 0.354177 1.156872 0.098393 -0.027284 -316691.000000 0 0 1
-36.283361 -13.172119 17.265435 42.285722 0.348239 1.150201 0.089675 -0.027567 -136070.000000 0 0 1
-36.948131 -11.953519 17.528635 42.606385 0.312894 1.146797 0.082172 -0.021214 13826.400000 0 0 1
36.621695 -12.033819 18.681435 42.836402 -0.317483 1.119524 0.081765 -0.006851 -86356.700000 0 0 1
37.165855 -12.465319 19.904935 43.964661 -0.323607 1.100951 0.078005 -0.011211 193360.000000 0 0 1
36.329595 -12.160019 21.051535 43.713529 -0.322993 1.068340 0.070118 -0.020752 -791994.000000 0 0 1
36.914885 -12.534219 22.442035 44.982889 -0.327329 1.048465 0.067124 -0.023255 171325.000000 0 0 1
-36.445431 -11.960619 22.823935 44.634716 0.317104 1.034042 0.069743 -0.018174 1112.400000 0 0 1
-35.346227 -12.523319 22.161835 43.558423 0.340504 1.037024 0.069021 -0.024243 -1188440.000000 0 0 1
-34.014411 -11.790119 22.353535 42.375318 0.333662 1.015126 0.087373 -0.020099 -113013.000000 0 0 1
-33.991981 -10.444219 21.882235 41.753667 0.298100 1.019163 0.107901 -0.021106 -646531.000000 0 0 1
-32.658641 -10.100819 21.684935 40.482710 0.299953 1.005508 0.117623 -0.029949 -891956.000000 0 0 1
-32.564661 -8.707419 21.011735 39.721144 0.261276 1.013397 0.136009 -0.012227 145728.000000 0 0 1
-32.960841 -8.655319 19.616035 39.320738 0.256796 1.048499 0.124374 -0.014811 218168.000000 0 0 1
-34.321969 -8.925919 19.361935 40.404877 0.254428 1.071056 0.116441 -0.021537 -408206.000000 0 0 1
-34.504645 -8.981219 17.857335 39.876274 0.254640 1.106472 0.115588 -0.024018 47749.100000 0 0 1
-35.874146 -8.922119 17.501635 40.900682 0.243760 1.128622 0.069891 -0.021025 222763.000000 0 0 1
-36.058341 -8.435219 16.185435 40.414418 0.229800 1.158748 0.100119 -0.020475 -261921.000000 0 0 1
37.042855 -8.220819 15.932235 41.153263 -0.218388 1.173264 0.085646 -0.020043 -113582.000000 0 0 1
36.322685 -9.443719 16.036535 40.812887 -0.254363 1.166983 0.083890 -0.011050 495662.000000 0 0 1
34.935065 -9.249319 15.773035 39.430918 -0.258819 1.159261 0.076541 -0.011743 720051.000000 0 0 1
34.043575 -10.518819 15.630535 38.909178 -0.299676 1.157404 0.084553 -0.019745 31161.700000 0 0 1
33.658935 -11.048419 16.846135 39.227334 -0.317165 1.126914 0.071494 -0.022615 -28385.900000 0 0 1
32.609855 -11.965619 16.618335 38.506463 -0.351679 1.124561 0.085689 -0.022269 -2983.270000 0 0 1
32.196175 -12.607919 17.971635 38.968358 -0.373241 1.091466 0.075688 -0.021903 231591.000000 0 0 1
33.160415 -13.477619 18.580235 40.329697 -0.386043 1.092003 0.092143 -0.020378 211464.000000 0 0 1
32.831885 -13.735319 19.925735 40.787579 -0.396227 1.060398 0.082119 -0.015563 48451.900000 0 0 1
33.831275 -14.753019 20.575635 42.255928 -0.411215 1.062226 0.082748 -0.016843 194279.000000 0 0 1
33.999115 -14.722319 22.005935 43.092316 -0.408645 1.034833 0.079388 -0.022459 189731.000000 0 0 1
34.755445 -15.863919 22.498535 44.337219 -0.428200 1.038584 0.067787 -0.007993 450796.000000 0 0 1
35.029305 -15.797919 24.040255 45.327258 -0.423678 1.011758 0.084130 -0.015133 -3778.400000 0 0 1
36.164525 -15.027319 24.333485 46.106525 -0.393819 1.014827 0.080579 -0.012939 -148566.000000 0 0 1
36.449655 -15.091819 25.744955 47.107781 -0.392556 0.992603 0.076490 -0.009033 306558.000000 0 0 1
-36.960171 -14.116819 26.059335 47.375392 0.364847 0.988360 0.081062 -0.012846 -29475.500000 0 0 1
-35.731359 -14.589819 25.585145 46.305426 0.387658 0.985399 0.047733 -0.006885 -209327.000000 0 0 1
-34.716377 -13.634219 25.863815 45.387836 0.374225 0.964485 0.053762 -0.012000 273766.000000 0 0 1
-33.246161 -14.070919 25.772725 44.356864 0.400374 0.950801 0.063068 -0.010700 -100319.000000 0 0 1
-32.847591 -14.446019 24.457015 43.425768 0.414330 0.972554 0.053952 -0.007040 2043240.000000 0 0 1
-31.461911 -14.941819 24.267825 42.450408 0.443381 0.962251 0.066359 -0.015828 2100260.000000 0 0 1
-31.117121 -16.350919 24.793685 43.015748 0.483810 0.956497 0.060728 -0.007313 -600289.000000 0 0 1
-31.036721 -16.470319 26.233695 43.849244 0.487883 0.929456 0.066683 -0.008624 180636.000000 0 0 1
-30.681331 -17.755819 26.638305 44.341995 0.524623 0.926362 0.054206 -0.005931 -158606.000000 0 0 1
-30.255471 -17.864319 28.150255 45.021820 0.533367 0.895334 0.071407 -0.008623 -511235.000000 0 0 1
-29.141751 -17.125319 28.522705 44.227400 0.531293 0.869890 0.074059 -0.010574 -770412.000000 0 0 1
-28.586911 -17.723719 29.658795 44.844017 0.554992 0.848143 0.101681 -0.018945 -23800.500000 0 0 1
-27.329131 -16.905219 30.052865 43.998211 0.553968 0.818869 0.097643 -0.024512 -195161.000000 0 0 1
-27.454511 -15.631019 30.669305 44.030503 0.517572 0.800223 0.121300 -0.028439 19560.500000 0 0 1
-26.422021 -14.767919 30.206265 42.762520 0.509669 0.786436 0.114286 -0.032206 -21725.500000 0 0 1
-26.229961 -13.466719 31.039015 42.811025 0.474318 0.759727 0.119100 -0.028954 -60540.900000 0 0 1
-25.571721 -13.661219 32.278612 43.387217 0.490656 0.731810 0.119500 -0.034309 228839.000000 0 0 1
-25.265361 -12.437319 32.952376 43.346101 0.457443 0.707152 0.108789 -0.025016 -265824.000000 0 0 1
-24.544951 -12.437819 -33.557398 43.396462 0.469022 2.454786 0.118794 -0.022022 819214.000000 0 0 1
-23.145851 -12.770419 -33.640678 42.784451 0.504176 2.475566 0.075382 -0.016400 771060.000000 0 0 1
-22.825151 -14.169119 -33.655658 43.063381 0.555550 2.467923 0.084285 -0.026741 -260991.000000 0 0 1
-22.909751 -14.879219 -32.254458 42.268167 0.576003 2.438879 0.087883 -0.028725 911074.000000 0 0 1
-21.696551 -14.702719 -31.468118 40.953055 0.595570 2.447126 0.057093 -0.014682 984093.000000 0 0 1
-21.809451 -15.445819 -30.239778 40.356779 0.616219 2.417817 0.070523 -0.024242 707724.000000 0 0 1
-20.477651 -15.548819 -29.398478 39.055991 0.649431 2.422990 0.076874 -0.028489 802963.000000 0 0 1
-20.004451 -14.442819 -28.651078 37.810810 0.625326 2.430652 0.073995 -0.020379 -187141.000000 0 0 1
-20.759651 -14.035319 -27.534228 37.230189 0.594496 2.403223 0.082750 -0.028520 -227862.000000 0 0 1
-20.339351 -12.648319 -26.933758 36.042981 0.556341 2.414737 0.087025 -0.028258 175329.000000 0 0 1
-19.173351 -12.813819 -26.141618 34.859655 0.589142 2.418723 0.085620 -0.029058 -31936.600000 0 0 1
-18.737551 -11.572419 -25.609058 33.776331 0.553264 2.431337 0.097177 -0.035603 442186.000000 0 0 1
-17.317651 -11.622119 -24.975078 32.538119 0.591075 2.445828 0.096578 -0.035931 -595399.000000 0 0 1
-17.252551 -12.278219 -23.733878 31.807265 0.618519 2.413099 0.099039 -0.038340 -654376.000000 0 0 1
-15.995351 -12.475919 -23.178078 30.801349 0.662409 2.422649 0.105286 -0.043352 -460163.000000 0 0 1
-15.001851 -13.356619 -23.988578 31.287484 0.727448 2.444505 0.075610 -0.035123 -476957.000000 0 0 1
-14.248751 -12.768619 -25.042378 31.514841 0.730668 2.489181 0.080950 -0.038759 45952.000000 0 0 1
-13.578951 -13.699819 -25.873458 32.272415 0.789829 2.500965 0.077608 -0.033651 -118829.000000 0 0 1
-12.643151 -12.871419 -26.795848 32.303872 0.794344 2.548996 0.072729 -0.023433 72743.300000 0 0 1
-13.287951 -12.109719 -27.825728 33.128327 0.739040 2.567965 0.092441 -0.032023 308918.000000 0 0 1
-12.347951 -11.332319 -28.549898 33.105740 0.742535 2.610759 0.085732 -0.027701 -60477.500000 0 0 1
-13.134951 -10.430519 -29.458018 33.898340 0.671136 2.623996 0.050008 -0.022644 -158197.000000 0 0 1
-12.393251 -9.498019 -30.218518 34.014172 0.653906 2.664665 0.047393 -0.019550 -77067.600000 0 0 1
-12.025851 -9.940519 -31.492168 35.145293 0.690749 2.681602 0.059185 -0.011700 -305511.000000 0 0 1
-11.371551 -8.774819 -32.216588 35.273477 0.657212 2.722203 0.052602 -0.015773 -1536720.000000 0 0 1
-10.088451 -8.485319 -31.851528 34.471689 0.699300 2.749185 0.045425 -0.015120 -1382430.000000 0 0 1
-9.642351 -7.297419 -32.434288 34.615174 0.647845 2.784727 0.041635 -0.021705 -226141.000000 0 0 1
-8.094551 -7.207719 -32.489248 34.249441 0.727509 2.819600 0.051012 -0.019576 341267.000000 0 0 1
-7.364451 -7.072319 -31.255258 32.880754 0.765166 2.825843 0.043158 -0.013957 155755.000000 0 0 1
-7.701551 -6.057119 -30.322728 31.866447 0.666443 2.829056 0.043738 -0.011922 -484811.000000 0 0 1
-6.951851 -4.742419 -30.702968 31.835374 0.598666 2.874072 0.049616 -0.016768 541339.000000 0 0 1
-5.597551 -4.602819 -30.293278 31.148053 0.688186 2.906779 0.064678 -0.016029 197881.000000 0 0 1
-5.110551 -3.298419 -30.564678 31.164031 0.573144 2.945153 0.078741 -0.026853 1311870.000000 0 0 1
-3.580751 -3.210719 -30.145548 30.526784 0.730967 2.983386 0.087689 -0.018471 1265470.000000 0 0 1
-2.624251 -3.918419 -30.925568 31.283086 0.980682 2.990263 0.097441 -0.020873 428098.000000 0 0 1
-1.265451 -3.744319 -30.578428 30.832800 1.244883 3.013052 0.098807 -0.022227 732310.000000 0 0 1
-0.558851 -2.436619 -31.165238 31.265340 1.345341 3.061550 0.093555 -0.023175 -150866.000000 0 0 1
0.830549 -2.362819 -30.891698 30.993060 -1.232779 3.060695 0.098501 -0.016923 76955.000000 0 0 1
1.371149 -1.184919 -31.478548 31.530669 -0.712668 3.084087 0.051837 -0.012363 -166530.000000 0 0 1
1.412449 0.034281 -30.468978 30.501718 0.024266 3.095255 0.053529 -0.018795 -950920.000000 0 0 1
0.273849 0.331381 -29.734858 29.737966 0.880172 3.127136 0.070360 -0.017695 -1088030.000000 0 0 1
0.428549 1.505181 -28.991368 29.033578 1.293420 3.087663 0.081590 -0.034673 -476236.000000 0 0 1
-0.725851 1.900681 -28.043798 28.117505 -1.205999 3.069170 0.071200 -0.030277 -12864.200000 0 0 1
-1.785651 2.516581 -28.748278 28.913409 -0.953687 3.034666 0.058532 -0.042733 -140584.000000 0 0 1
-2.067451 3.821881 -28.181248 28.514275 -1.074927 2.988608 0.102860 -0.036807 541789.000000 0 0 1
-3.267951 4.440581 -29.009608 29.528895 -0.936362 2.953776 0.127856 -0.035491 602254.000000 0 0 1
-2.998951 4.876881 -30.335298 30.870828 -1.019470 2.955057 0.126129 -0.039768 -10101.500000 0 0 1
-4.236451 5.247981 -30.915608 31.642750 -0.891648 2.926798 0.133226 -0.027044 -111052.000000 0 0 1
-4.267451 5.796681 -32.371738 33.162359 -0.936193 2.922795 0.139875 -0.030585 -127171.000000 0 0 1
-3.945851 4.883481 -33.437868 34.022186 -0.891197 2.955991 0.157961 -0.037250 1042810.000000 0 0 1
-2.623951 4.298781 -33.492028 33.868578 -1.022769 2.992337 0.151196 -0.039852 643107.000000 0 0 1
-2.374351 3.842081 32.946492 33.254631 -1.017257 0.136238 0.126644 -0.041423 -360609.000000 0 0 1
-3.167851 2.734981 32.576361 32.844097 -0.712197 0.127772 0.122151 -0.044547 -80928.900000 0 0 1
-3.030751 2.205281 31.259315 31.483226 -0.629033 0.119336 0.122998 -0.040635 -94176.200000 0 0 1
-3.121751 3.097381 30.002055 30.322639 -0.781480 0.145541 0.123170 -0.038668 -436552.000000 0 0 1
-4.208051 3.969881 30.006985 30.559562 -0.756283 0.190456 0.102001 -0.034758 -537440.000000 0 0 1
-4.253851 4.720481 28.818845 29.511083 -0.837348 0.217021 0.100153 -0.036159 532658.000000 0 0 1
-5.408651 5.774581 28.594295 29.668721 -0.818108 0.269944 0.105910 -0.021629 663910.000000 0 0 1
-5.396051 6.276781 27.301485 28.528695 -0.860707 0.294376 0.102198 -0.019843 522168.000000 0 0 1
-6.477051 7.220881 27.126435 28.808624 -0.839647 0.343421 0.085833 -0.014077 547579.000000 0 0 1
-6.311551 7.900281 25.727415 27.643264 -0.896725 0.374491 0.085810 -0.017264 381868.000000 0 0 1
-5.192251 8.786481 25.690745 27.643736 -1.037068 0.378144 0.081463 -0.017816 278614.000000 0 0 1
-5.077651 9.396881 24.448755 26.680059 -1.075388 0.411884 0.087061 -0.018466 156381.000000 0 0 1
-4.628851 10.864981 24.679825 27.359968 -1.168050 0.446321 0.091146 -0.022198 -476505.000000 0 0 1
-4.461751 11.542681 23.474045 26.536230 -1.201944 0.485153 0.083532 -0.028136 34462.200000 0 0 1
-3.912651 12.820281 23.604075 27.144444 -1.274583 0.516459 0.069506 -0.020865 -199181.000000 0 0 1
-2.374151 12.966681 23.807835 27.213681 -1.389706 0.505674 0.045355 -0.010457 -147922.000000 0 0 1
-1.687551 12.395681 24.882125 27.849971 -1.435488 0.465862 0.049489 -0.011275 -51258.800000 0 0 1
-2.029351 12.991681 26.126045 29.248458 -1.415845 0.466284 0.072925 -0.015821 -748918.000000 0 0 1
-1.231951 12.442581 27.329965 30.054327 -1.472107 0.429072 0.079320 -0.016716 -96038.800000 0 0 1
0.121949 12.804881 27.187315 30.052121 1.561273 0.440187 0.069178 -0.014157 -293043.000000 0 0 1
0.834249 12.491681 28.410395 31.046556 1.504111 0.415065 0.061549 -0.019769 676829.000000 0 0 1
2.381449 12.561381 28.228915 30.989212 1.383435 0.425270 0.058475 -0.019389 242735.000000 0 0 1
2.862149 13.822681 28.366475 31.684623 1.366620 0.461747 0.060335 -0.020254 -569581.000000 0 0 1
4.234049 13.799881 28.065495 31.560037 1.273096 0.475043 0.064333 -0.017087 -189846.000000 0 0 1
4.941449 15.181981 28.210925 32.415533 1.256129 0.515005 0.067125 -0.021803 -292084.000000 0 0 1
4.936049 15.622781 29.560695 33.797494 1.264770 0.506100 0.073508 -0.015319 734653.000000 0 0 1
3.844849 16.456981 30.013565 34.444582 1.341283 0.512833 0.057790 -0.011445 487781.000000 0 0 1
3.751349 17.927681 29.448535 34.679830 1.364524 0.556414 0.071411 -0.013044 -495838.000000 0 0 1
4.774549 18.715481 29.946595 35.635153 1.321012 0.572837 0.090340 -0.012293 -480800.000000 0 0 1
5.309249 19.549281 28.967925 35.348313 1.305610 0.610259 0.069324 -0.013501 -152610.000000 0 0 1
6.438849 20.476581 29.466135 36.455484 1.266136 0.629576 0.066093 -0.014292 -222523.000000 0 0 1
6.071049 21.408081 30.509605 37.762410 1.294465 0.630156 0.068512 -0.020876 -655859.000000 0 0 1
7.154249 22.031281 31.092815 38.772720 1.256807 0.640286 0.067594 -0.025223 -681220.000000 0 0 1
7.396549 23.501981 30.574695 39.266577 1.265890 0.678294 0.076920 -0.015949 -136165.000000 0 0 1
7.887449 23.569181 29.261615 38.392191 1.247860 0.704128 0.059548 -0.014847 124520.000000 0 0 1
7.958549 24.888381 28.818745 38.901030 1.261302 0.736503 0.062735 -0.015793 -53888.700000 0 0 1
8.583549 24.977481 27.410425 38.064200 1.239788 0.766835 0.085378 -0.018779 60384.200000 0 0 1
7.777949 24.432881 26.368925 36.780191 1.262600 0.771404 0.077255 -0.019748 265398.000000 0 0 1
8.476849 24.506181 25.160215 36.130961 1.237773 0.800481 0.090186 -0.029606 -323708.000000 0 0 1
28.813925 2.678581 7.157922 29.810282 0.092695 1.328311 0.171288 -0.022333 25887.000000 0 0 1
29.518025 3.682581 7.849022 30.764953 0.124116 1.312816 0.169585 -0.041846 20236.800000 0 0 1
29.108525 3.783081 9.218422 30.766820 0.129240 1.266500 0.170918 -0.026291 133909.000000 0 0 1
29.948695 4.747381 10.151222 31.976699 0.157209 1.247750 0.170132 -0.032701 56718.200000 0 0 1
29.630265 6.140681 10.065822 31.890145 0.204351 1.249665 0.161055 -0.027779 326152.000000 0 0 1
30.350785 6.704081 8.963622 32.349055 0.217396 1.290031 0.162345 -0.039718 -139429.000000 0 0 1
29.829625 8.124681 8.570122 32.082144 0.265919 1.300382 0.170887 -0.039167 50512.500000 0 0 1
28.616125 8.109681 7.853622 30.762459 0.276155 1.312639 0.178354 -0.038464 -68821.000000 0 0 1
28.549725 9.244981 7.063822 30.829435 0.313165 1.339617 0.184432 -0.059172 938424.000000 0 0 1
27.301125 9.349081 6.066722 29.488334 0.329927 1.363584 0.172204 -0.047411 1798240.000000 0 0 1
26.109325 9.988281 6.586922 28.720204 0.365379 1.339389 0.175122 -0.038745 753625.000000 0 0 1
25.161525 9.910881 5.546222 27.605950 0.375228 1.368513 0.186761 -0.039096 -583374.000000 0 0 1
23.793125 10.544681 5.693222 26.640493 0.417170 1.355430 0.124194 -0.030874 -410247.000000 0 0 1
23.841025 11.973281 5.644022 27.269193 0.465417 1.362315 0.121797 -0.027832 -218012.000000 0 0 1
22.690725 12.440481 6.275022 26.627250 0.501509 1.332897 0.114579 -0.016504 -393486.000000 0 0 1
22.642225 13.992781 6.429722 27.382651 0.553546 1.333773 0.098986 -0.005669 -3103.810000 0 0 1
22.520825 14.688981 5.205122 27.386986 0.577948 1.379575 0.102231 -0.014357 261115.000000 0 0 1
22.391525 16.077981 5.441322 28.097862 0.622730 1.375909 0.109189 -0.021009 -168545.000000 0 0 1
22.037325 16.992781 4.217622 28.145810 0.656863 1.420381 0.117183 -0.032676 -549019.000000 0 0 1
20.692425 16.735381 3.934022 26.902155 0.680065 1.424036 0.117490 -0.017115 -350880.000000 0 0 1
20.256025 17.621281 2.942622 27.008797 0.715950 1.461629 0.125665 -0.020470 -50471.300000 0 0 1
18.747225 17.717981 2.664222 25.932284 0.757180 1.467877 0.096589 -0.009812 262760.000000 0 0 1
17.877625 18.218781 3.695822 25.791327 0.794849 1.427004 0.093519 -0.014426 215547.000000 0 0 1
16.546225 18.145181 3.262222 24.772308 0.831456 1.438724 0.066773 -0.021639 -614378.000000 0 1 0
15.640225 19.012181 4.152422 24.966423 0.882401 1.403700 0.092336 -0.027953 80272.700000 0 1 0
14.294525 18.596781 4.234422 23.834933 0.915462 1.392192 0.097624 -0.036942 360649.000000 0 1 0
13.341925 19.651781 4.309322 24.140624 0.974361 1.391325 0.069865 -0.036173 749245.000000 0 1 0
11.870625 19.163281 4.186922 22.927569 1.016201 1.387151 0.045591 -0.031854 308810.000000 0 1 0
11.275725 18.681281 5.350722 22.466919 1.027746 1.330325 0.036216 -0.039496 730086.000000 0 1 0
9.839725 18.692981 5.225422 21.761268 1.086263 1.328302 0.029481 -0.031812 938901.000000 0 1 0
9.260625 18.404281 6.634622 21.644744 1.104610 1.259258 0.024646 -0.018928 -920637.000000 0 1 0
9.385325 19.471281 7.505922 22.881302 1.121645 1.236571 0.046498 -0.023373 -420340.000000 0 1 0
8.854025 19.141281 8.769822 22.840582 1.137545 1.176717 0.050171 -0.012591 -735188.000000 0 1 0
7.723925 20.067181 9.152622 23.369238 1.203372 1.168369 0.046186 -0.015863 -729521.000000 0 1 0
6.568925 19.916581 8.392822 22.588945 1.252209 1.190123 0.036444 -0.028873 -574823.000000 0 1 0
6.436425 20.960481 7.433822 23.152344 1.272862 1.243924 0.037807 -0.028187 -627130.000000 0 1 0
5.074825 21.012781 6.734922 22.641776 1.333823 1.268770 0.013718 -0.018301 -285380.000000 0 1 0
3.881225 21.379481 7.375522 22.946556 1.391212 1.243566 0.011910 -0.012005 42961.200000 0 1 0
3.802725 22.745281 7.874922 24.368482 1.405141 1.241729 0.023034 -0.012533 -499063.000000 0 1 0
3.940525 23.901181 6.834322 25.169469 1.407399 1.295812 0.032167 -0.017181 -407340.000000 0 0 1
2.843925 24.041381 5.960122 24.931887 1.453051 1.329403 0.023209 -0.005881 -76981.700000 0 1 0
2.970725 25.078281 4.987422 25.741402 1.452888 1.375812 0.035146 -0.006490 -580075.000000 0 0 1
1.718825 25.353481 4.152422 25.748708 1.503105 1.408822 0.038318 -0.006304 -847478.000000 0 0 1
0.673925 25.754781 4.966722 26.237974 1.544635 1.380352 0.052956 -0.014525 -94870.600000 0 0 1
-0.535775 25.985481 4.227222 26.332522 -1.550181 1.409566 0.063241 -0.015184 754490.000000 0 0 1
-1.723975 26.473481 5.080722 27.011683 -1.505767 1.381576 0.077359 -0.018126 43766.200000 0 0 1
-2.789975 26.994381 4.328822 27.481253 -1.467808 1.412618 0.110869 -0.020489 -481402.000000 0 0 1
-3.822075 27.512981 5.135922 28.248011 -1.432761 1.387964 0.108311 -0.019922 -557370.000000 0 0 1
-4.918675 27.906381 4.165722 28.641102 -1.396332 1.424833 0.118467 -0.025313 -569179.000000 0 0 1
-4.420975 28.936081 3.325322 29.460136 -1.419185 1.457680 0.117097 -0.023509 -109726.000000 0 0 1
-5.390375 29.347981 2.384222 29.934005 -1.389150 1.491063 0.129810 -0.037050 -607577.000000 0 0 1
-5.004575 30.213681 1.181622 30.648141 -1.406647 1.532232 0.119591 -0.025263 -196043.000000 0 0 1
-4.575475 31.521781 1.538422 31.889252 -1.426650 1.522535 0.117291 -0.024883 375352.000000 0 0 1
-3.280575 31.594881 2.118522 31.835308 -1.467335 1.504201 0.115954 -0.031299 -378078.000000 0 0 1
-2.561575 32.941281 2.066422 33.105283 -1.493191 1.508336 0.124131 -0.039546 -653506.000000 0 0 1
-1.933575 33.150881 0.836322 33.217753 -1.512536 1.545617 0.113070 -0.031875 454129.000000 0 0 1
-1.106475 -33.518102 0.766822 33.545126 1.537797 1.547935 0.102970 -0.035200 1393430.000000 0 0 1
0.338825 -33.623602 1.408422 33.654793 -1.560720 1.528935 0.083624 -0.027994 463460.000000 0 0 1
0.370925 -33.688102 2.843622 33.809939 -1.559786 1.486591 0.071984 -0.028154 416355.000000 0 0 1
1.660025 33.926081 3.408422 34.137253 1.521905 1.470785 0.047387 -0.022786 411743.000000 0 0 1
1.534025 -33.842902 4.922722 34.233440 -1.525500 1.426497 0.038014 -0.016072 -375275.000000 0 0 1
0.648325 33.142281 5.530922 33.606878 1.551237 1.405467 0.075879 -0.023055 -116288.000000 0 0 1
0.023725 33.798881 6.649522 34.446786 1.570094 1.376539 0.098949 -0.021174 315193.000000 0 0 1
0.830825 33.497381 7.929122 34.433063 1.545999 1.338435 0.081836 -0.017721 102092.000000 0 0 1
0.936325 32.119881 8.308022 33.190160 1.541654 1.317790 0.084529 -0.018163 -419688.000000 0 0 1
1.971725 32.068881 9.226322 33.427921 1.509390 1.291160 0.089550 -0.016551 -410237.000000 0 0 1
2.664625 30.684481 9.418922 32.207976 1.484174 1.274018 0.080331 -0.017401 140167.000000 0 0 1
1.931625 29.757481 10.170622 31.506831 1.505975 1.242103 0.099874 -0.021321 772069.000000 0 0 1
2.762325 28.536981 10.331822 30.475175 1.474299 1.224917 0.077692 -0.022788 840082.000000 0 0 1
2.363725 27.528781 11.479722 29.919977 1.485143 1.177017 0.074445 -0.021938 -267228.000000 0 0 1
2.693925 28.062981 12.781822 30.954210 1.475094 1.145131 0.088937 -0.022832 -135726.000000 0 0 1
2.471725 27.245681 13.895522 30.684232 1.480324 1.100831 0.097863 -0.020178 -438344.000000 0 0 1
1.014625 26.883681 14.297022 30.465827 1.533073 1.082320 0.076684 -0.023961 -62678.200000 0 0 1
0.288325 27.963781 14.804622 31.642267 1.560486 1.083912 0.087812 -0.020649 -208203.000000 0 0 1
-0.327275 28.755081 13.817222 31.904192 -1.559415 1.122884 0.102870 -0.019759 -430874.000000 0 0 1
-1.098875 29.966681 14.501222 33.309082 -1.534143 1.120366 0.088625 -0.020103 175868.000000 0 0 1
-2.279475 29.617681 15.168022 33.353740 -1.493984 1.098691 0.074034 -0.014306 -232179.000000 0 0 1
-2.844575 30.739081 15.842222 34.698108 -1.478520 1.096657 0.077043 -0.012162 370789.000000 0 0 1
-4.251575 30.480981 16.462722 34.902540 -1.432208 1.079605 0.051065 -0.001948 28863.300000 0 0 1
-5.192975 30.091481 15.523422 34.255523 -1.399907 1.100483 0.054017 -0.007154 -646636.000000 0 0 1
-6.297775 29.552881 16.190522 34.280720 -1.360835 1.078907 0.048333 -0.009157 -158006.000000 0 0 1
-7.411575 28.902481 15.296922 33.530295 -1.319771 1.097063 0.047710 -0.016727 327415.000000 0 0 1
-8.551475 28.545681 16.032922 33.838414 -1.279733 1.077186 0.049591 -0.020798 -253225.000000 0 0 1
-9.541475 27.970381 15.193722 33.229974 -1.242047 1.095919 0.052612 -0.021799 -622.712000 0 0 1
-10.741775 27.414581 15.974322 33.498119 -1.197355 1.073704 0.041850 -0.016052 -436053.000000 0 0 1
-11.591075 28.329881 16.594322 34.818195 -1.182430 1.074014 0.039944 -0.019011 69578.400000 0 0 1
-11.096575 28.929781 17.761922 35.714872 -1.204534 1.050283 0.047013 -0.027503 -190211.000000 0 0 1
-12.019475 30.121881 18.178122 37.178484 -1.191128 1.059920 0.047645 -0.024557 894360.000000 0 0 1
-13.193775 29.783981 18.925022 37.673833 -1.153794 1.044495 0.058057 -0.019345 1091500.000000 0 0 1
-14.230375 30.779081 18.836822 38.790222 -1.137729 1.063738 0.082520 -0.016886 417239.000000 0 0 1
-15.394075 30.488881 19.774522 39.466203 -1.103230 1.045985 0.089134 -0.023486 -440458.000000 0 0 1
-14.993175 30.659881 21.127022 40.139441 -1.115974 1.016505 0.088631 -0.024621 431760.000000 0 0 1
-16.086775 30.579281 22.043122 40.985071 -1.086513 1.002932 0.083673 -0.022877 395038.000000 0 0 1
-15.602375 30.519881 23.524922 41.573059 -1.098213 0.969309 0.092049 -0.019154 68824.400000 0 0 1
-14.601575 29.521581 23.774122 40.619437 -1.111473 0.945560 0.081489 -0.021782 642787.000000 0 0 1
-14.150375 29.345681 25.098322 41.125757 -1.121493 0.914379 0.101066 -0.025299 41120.900000 0 0 1
-13.606475 30.530581 25.944822 42.312957 -1.151551 0.910735 0.107044 -0.022947 -576767.000000 0 0 1
-14.557275 31.544981 26.131422 43.472420 -1.138439 0.925915 0.101292 -0.019174 74699.600000 0 0 1
-14.039475 32.684781 26.811022 44.544727 -1.165085 0.924931 0.105792 -0.021314 74384.800000 0 0 1
-15.180975 33.628981 27.324022 45.912662 -1.146758 0.933368 0.108604 -0.019550 464703.000000 0 0 1
-15.929475 33.040381 28.393622 46.385480 -1.121554 0.912054 0.069702 -0.023454 116081.000000 0 0 1
-15.277875 33.099281 29.618822 46.970741 -1.138357 0.888496 0.100988 -0.014600 -473917.000000 0 0 1
-15.866975 32.187781 30.715522 47.236188 -1.112804 0.862878 0.089177 -0.015355 -741282.000000 0 0 1
-17.067175 32.676181 31.180622 48.283046 -1.089459 0.868741 0.075397 -0.013575 -1141710.000000 0 0 1
-17.596275 31.984481 32.302122 48.744877 -1.067838 0.846408 0.062781 -0.011295 50106.800000 0 0 1
-19.058475 32.447681 32.465122 49.699715 -1.039723 0.858960 0.059864 -0.009809 -230545.000000 0 0 1
-19.222875 33.759981 32.889922 50.901888 -1.053182 0.868276 0.073225 -0.012138 -237308.000000 0 0 1
-20.528575 -33.613102 32.693722 51.187327 1.022523 0.877979 0.064295 -0.006973 -246582.000000 0 0 1
-20.664975 -32.083502 33.021822 50.466157 0.998580 0.857492 0.076200 -0.008664 -407587.000000 0 0 1
-20.505675 -31.562702 -33.585492 50.444743 0.994646 2.299345 0.065297 -0.014699 -186767.000000 0 0 1
-21.367875 -31.985102 -32.575092 50.406046 0.981832 2.273461 0.048403 -0.009463 -312448.000000 0 0 1
-21.064575 -31.271102 -31.261292 48.978225 0.978001 2.263044 0.057077 -0.012749 -17433.200000 0 0 1
-21.278975 -29.864902 -31.266992 48.190579 0.951725 2.276828 0.074487 -0.016293 -219097.000000 0 0 1
-20.664975 -29.164002 -30.227592 46.811190 0.954336 2.272781 0.087780 -0.014136 -88829.500000 0 0 1
-20.886475 -27.624802 -30.312892 46.024406 0.923417 2.289788 0.081978 -0.021299 1266240.000000 0 0 1
-22.178975 -27.312002 -29.720192 46.055860 0.888745 2.272222 0.082950 -0.013111 1046740.000000 0 0 1
-22.409775 -25.909402 -29.657992 45.311054 0.857699 2.284373 0.073238 -0.012042 -64843.000000 0 0 1
-23.637075 -25.497502 -28.827692 45.164917 0.823244 2.263053 0.081378 -0.008701 -141795.000000 0 0 1
-23.647975 -25.669602 -27.389992 44.366281 0.826367 2.236179 0.079996 -0.012124 -85417.700000 0 0 1
-22.825175 -24.799002 -26.649392 42.967071 0.826820 2.239830 0.091492 -0.024328 -185234.000000 0 0 1
-22.751475 -25.277602 -25.172392 42.311182 0.837946 2.207981 0.083153 -0.015843 -530515.000000 0 0 1
-23.942175 -25.092402 -24.486192 42.455035 0.808851 2.185548 0.072621 -0.015852 -393973.000000 0 0 1
-23.796475 -25.438602 -23.149192 41.824392 0.818739 2.157340 0.069377 -0.016444 -1185750.000000 0 0 1
-25.098875 -25.195602 -22.411592 42.036310 0.787321 2.133114 0.067561 -0.018360 471306.000000 0 0 1
-26.326075 -25.789202 -22.865492 43.370219 0.775097 2.126118 0.072401 -0.017323 534479.000000 0 0 1
-26.312275 -27.177002 -22.955392 44.247885 0.801563 2.116232 0.065475 -0.005635 -691471.000000 0 0 1
-27.746675 -27.804402 -23.005192 45.521441 0.786437 2.100608 0.047425 -0.008691 739888.000000 0 0 1
-28.452475 -27.694602 -21.788492 45.290978 0.771901 2.072680 0.060178 -0.004978 186595.000000 0 0 1
-29.509475 -26.730202 -21.924392 45.453182 0.736020 2.074133 0.054636 -0.001667 425686.000000 0 0 1
-30.197775 -26.279302 -20.604492 45.022799 0.716128 2.046142 0.060848 0.000116 -31072.500000 0 0 1
-30.942475 -27.284002 -19.999992 45.845973 0.722649 2.022216 0.071679 0.001551 -206766.000000 0 0 1
-31.572575 -26.877002 -18.827592 45.537665 0.705235 1.997037 0.076841 0.008266 -904339.000000 0 0 1
-32.475175 -27.880002 -18.141892 46.487200 0.709409 1.971706 0.061843 0.011667 19553.800000 0 0 1
-33.738675 -28.199202 -18.762192 47.807040 0.696200 1.974097 0.060074 0.010993 1394890.000000 0 0 1
-34.791575 -27.226502 -18.705392 47.975283 0.664016 1.971315 0.050684 0.017988 -78275.600000 0 0 1
-35.278575 -26.679502 -17.360792 47.516006 0.647491 1.944824 0.044237 0.024191 -1061230.000000 0 0 1
-34.441675 -25.786802 -16.644692 46.132786 0.642675 1.939921 0.040835 0.023798 -120743.000000 0 0 1
-34.919275 -25.338602 -15.403092 45.811088 0.627723 1.913708 0.036809 0.020179 -176912.000000 0 0 1
-34.690975 -26.163402 -14.066292 45.671084 0.646174 1.883877 0.049606 0.022294 8748.350000 0 0 1
-35.383275 -27.388502 -13.977392 46.877219 0.658718 1.873571 0.053952 0.020195 124501.000000 0 0 1
-35.142475 -27.939002 -12.741192 46.668184 0.671698 1.847324 0.038228 0.014057 218028.000000 0 0 1
-35.970775 -29.268602 -12.546292 48.041203 0.683025 1.835017 0.050889 0.008025 163393.000000 0 0 1
-35.620575 -30.364502 -13.391092 48.684183 0.705911 1.849449 0.047784 0.007287 97565.600000 0 0 1
-36.012275 -31.634202 -12.891692 49.636704 0.720768 1.833530 0.037599 -0.005109 -78942.600000 0 0 1
-35.370475 -32.774502 -13.766092 50.147221 0.747322 1.848880 0.043363 0.001239 -205531.000000 0 0 1
-33.971275 -32.822902 -13.657392 49.172297 0.768207 1.852243 0.034290 -0.005196 -200321.000000 0 0 1
-33.518875 -33.580902 -14.816192 49.706252 0.786323 1.873472 0.071018 -0.023092 -483226.000000 0 0 1
-32.005875 -33.737602 -14.842792 48.815062 0.811733 1.879750 0.072210 -0.021475 -635017.000000 0 0 1
-31.613675 33.572781 -16.086492 48.839854 -0.815443 1.906435 0.101642 -0.024220 859106.000000 0 0 1
-30.217975 33.201781 -16.163792 47.715328 -0.832412 1.916389 0.105883 -0.021864 695346.000000 0 0 1
9.330849 19.612681 -8.951978 23.491699 1.126731 1.961750 0.049747 -0.015532 28521.900000 0 1 0
8.029549 19.286781 -9.422278 22.917961 1.176297 1.994490 0.045731 -0.026443 126124.000000 0 1 0
7.747049 19.883781 -10.668378 23.857825 1.199273 2.034389 0.054393 -0.017667 230919.000000 0 1 0
7.706449 18.791481 -11.755178 23.466856 1.181611 2.095466 0.047787 -0.005913 289659.000000 0 1 0
8.991449 18.215181 -11.930878 23.558116 1.112263 2.101853 0.078872 -0.024600 26406.200000 0 1 0
8.909749 17.121181 -12.836678 23.179706 1.090967 2.157705 0.077084 -0.027328 -280981.000000 0 1 0
10.221549 16.578181 -13.405078 23.643441 1.018285 2.173617 0.100404 -0.029357 -170190.000000 0 1 0
9.983249 15.582181 -14.371878 23.431187 1.000998 2.231111 0.108633 -0.029712 836618.000000 0 1 0
11.226449 15.157581 -14.991078 24.093938 0.933307 2.242337 0.138689 -0.036327 505107.000000 0 1 0
11.250749 13.809181 -15.753078 23.778821 0.887138 2.294926 0.133802 -0.034397 -266156.000000 0 1 0
11.218549 12.583181 -15.060878 22.605803 0.842669 2.299951 0.128231 -0.029377 1174940.000000 0 1 0
12.378749 12.277481 -14.236578 22.508890 0.781291 2.255556 0.154504 -0.036614 1036870.000000 0 1 0
13.678049 11.671881 -14.827278 23.306008 0.706424 2.260359 0.189451 -0.044777 479042.000000 0 1 0
14.304749 12.640581 -15.733878 24.737928 0.723716 2.260129 0.166966 -0.036194 57580.700000 0 1 0
15.347449 11.920181 -16.349078 25.395418 0.660364 2.270225 0.178526 -0.049455 -91015.400000 0 0 1
15.991749 12.640781 -17.565478 26.908575 0.668895 2.282050 0.137745 -0.037348 165762.000000 0 0 1
16.975149 13.588381 -17.200978 27.724961 0.675038 2.240068 0.101632 -0.028642 -101389.000000 0 0 1
17.549249 14.212181 -18.312778 29.074389 0.680716 2.252169 0.065126 -0.014692 522261.000000 0 0 1
18.810249 15.104181 -18.020978 30.111749 0.676553 2.212386 0.058339 -0.008760 238232.000000 0 0 1
18.617049 16.419381 -17.622078 30.442212 0.722755 2.188138 0.064266 -0.009901 -25398.400000 0 0 1
17.864949 17.249081 -18.450078 30.936913 0.767861 2.209777 0.054309 0.000811 -319724.000000 0 0 1
17.679849 18.711581 -17.882978 31.344876 0.813742 2.177939 0.048816 0.005894 -330560.000000 0 0 1
18.811249 19.527181 -17.949778 32.517202 0.804070 2.155568 0.059228 0.002412 -162298.000000 0 0 1
18.537249 20.765581 -17.243778 32.744265 0.842034 2.125416 0.046694 0.008485 528069.000000 0 0 1
19.595149 21.904481 -17.485978 34.198474 0.840988 2.107503 0.059546 0.005693 391230.000000 0 0 1
20.750649 21.969981 -16.694078 34.524799 0.813932 2.075489 0.069911 0.002376 -268137.000000 0 0 1
20.576949 22.803981 -15.564578 34.433828 0.836690 2.039818 0.065697 0.001608 608671.000000 0 0 1
21.928649 23.063481 -14.818878 35.105398 0.810616 2.006585 0.058411 -0.002499 -174450.000000 0 0 1
22.277949 22.080481 -13.890078 34.304358 0.780947 1.987674 0.071361 -0.004887 734945.000000 0 0 1
23.568149 22.310381 -13.295178 35.070964 0.757990 1.959613 0.065921 -0.005679 705831.000000 0 0 1
24.831249 21.960381 -14.096678 36.021738 0.724121 1.972882 0.067098 -0.003058 -613041.000000 0 0 1
25.004849 22.609381 -15.310878 37.024986 0.735131 1.997122 0.068385 -0.003119 -83173.300000 0 0 1
25.957849 23.653581 -15.161278 38.251356 0.738985 1.978344 0.055425 -0.004886 -230985.000000 0 0 1
26.502649 24.114181 -16.550178 39.468881 0.738246 2.003495 0.055411 -0.002838 -154721.000000 0 0 1
27.250949 23.180281 -17.287078 39.733899 0.704856 2.020914 0.057523 -0.006355 -24654.700000 0 0 1
27.408549 23.448581 -18.651278 40.607077 0.707690 2.048016 0.042108 -0.007466 -471950.000000 0 0 1
28.011949 22.415381 -19.649878 40.905211 0.674868 2.071880 0.039778 -0.008406 1077710.000000 0 0 1
29.450749 22.396181 -19.605878 41.872736 0.650163 2.058078 0.040868 -0.004836 628934.000000 0 0 1
29.936549 21.511681 -20.612178 42.235190 0.623084 2.080631 0.050929 -0.003320 532166.000000 0 0 1
31.399649 21.861581 -20.996578 43.643132 0.608196 2.072702 0.091878 -0.013603 327205.000000 0 0 1
31.355649 23.136481 -21.647678 44.576849 0.635694 2.077875 0.064230 -0.005545 -95409.400000 0 0 1
32.574049 23.829781 -21.510478 45.734318 0.631593 2.060467 0.103441 0.005794 -62696.000000 0 0 1
32.585349 25.306181 -22.065378 46.787698 0.660317 2.061908 0.107024 0.004850 -461026.000000 0 0 1
32.896549 25.521081 -23.450578 47.785334 0.659809 2.083745 0.090137 0.004625 235955.000000 0 0 1
31.987749 25.000781 -24.416778 47.375460 0.663404 2.112258 0.077353 -0.000937 -161863.000000 0 0 1
32.329349 25.351681 -25.873298 48.552262 0.665013 2.132815 0.091895 -0.013270 -303536.000000 0 0 1
32.261649 26.732981 -26.241868 49.437859 0.691956 2.130347 0.103604 -0.013396 -107789.000000 0 0 1
31.013549 27.226681 -26.692808 49.149145 0.720468 2.144919 0.079766 -0.002895 143461.000000 0 0 1
30.679849 26.798481 -28.166518 49.525392 0.717973 2.175756 0.087736 0.002135 955.855000 0 0 1
30.233349 25.402281 -28.179838 48.512211 0.698781 2.190607 0.081131 -0.010525 24146.500000 0 0 1
29.883249 25.094581 -29.511758 48.925356 0.698516 2.218303 0.086064 -0.019209 -338886.000000 0 0 1
28.998649 23.849581 -29.474588 47.733380 0.688273 2.236336 0.106983 -0.028808 68756.400000 0 0 1
27.753349 24.078681 -28.801508 46.685738 0.714621 2.235623 0.095128 -0.027328 137761.000000 0 0 1
27.029149 22.917781 -29.078908 45.840839 0.703269 2.257957 0.105202 -0.040801 68898.000000 0 0 1
25.547149 22.933381 -28.597558 44.681284 0.731537 2.265339 0.082859 -0.030070 425004.000000 0 0 1
25.559749 22.800881 -27.189498 43.731565 0.728412 2.241754 0.061360 -0.013817 1014790.000000 0 0 1
24.233249 22.981381 -26.676478 42.743757 0.758890 2.244778 0.042312 -0.011302 616881.000000 0 0 1
24.363149 22.980781 -25.151988 41.884387 0.756208 2.214935 0.044722 -0.003665 5074.380000 0 0 1
24.752349 21.693381 -24.661478 41.127486 0.719632 2.213841 0.048806 -0.010758 298203.000000 0 0 1
25.109649 21.788681 -23.286978 40.589709 0.714704 2.181832 0.048138 -0.004190 -52852.100000 0 0 1
25.738749 20.519481 -22.678278 39.972949 0.673044 2.174069 0.058084 0.001751 -291843.000000 0 0 1
27.044149 20.282881 -23.120478 40.955315 0.643496 2.170659 0.037586 0.005582 -443297.000000 0 0 1
27.366949 18.955481 -22.937178 40.427396 0.605770 2.174101 0.075762 -0.001780 -873376.000000 0 0 1
28.751649 18.448481 -23.269578 41.333728 0.570483 2.168769 0.096918 -0.012640 -762358.000000 0 0 1
29.772049 18.670381 -22.288178 41.613951 0.560116 2.136007 0.119866 -0.024186 -503007.000000 0 0 1
30.867249 18.056381 -22.867278 42.446818 0.529294 2.139723 0.101922 -0.020038 -817164.000000 0 0 1
32.107649 17.871481 -21.981078 42.818907 0.507905 2.109880 0.093183 -0.011187 -43142.400000 0 0 1
32.774649 19.021481 -21.547978 43.592542 0.525862 2.087831 0.097082 -0.018487 522031.000000 0 0 1
34.063549 18.642981 -21.021478 44.156411 0.500768 2.066975 0.106974 -0.017927 924608.000000 0 0 1
34.579449 19.731481 -20.061978 44.581976 0.518531 2.037564 0.084386 -0.018389 -7139.910000 0 0 1
33.910049 19.575581 -18.837178 43.450364 0.523546 2.019206 0.107334 -0.017538 19179.300000 0 0 1
33.989449 20.726381 -18.018278 43.698099 0.547586 1.995812 0.083990 -0.001788 474781.000000 0 0 1
33.167149 20.620581 -16.708978 42.478914 0.556235 1.975066 0.098700 -0.016933 528682.000000 0 0 1
34.000249 19.805281 -15.906178 42.441402 0.527455 1.954956 0.094895 -0.028996 516539.000000 0 0 1
33.701449 19.887881 -14.496478 41.730844 0.533123 1.925572 0.093834 -0.025313 -102549.000000 0 0 1
34.229349 18.703981 -13.653678 41.326870 0.500099 1.907505 0.087608 -0.025377 -676611.000000 0 0 1
35.619549 18.499081 -13.722778 42.417955 0.479009 1.900237 0.074242 -0.022684 -229300.000000 0 0 1
36.100449 17.384781 -13.015278 42.129212 0.448793 1.884872 0.067598 -0.002607 17649.000000 0 0 1
36.087949 17.478981 -11.498178 41.714062 0.451045 1.850055 0.090920 -0.012220 -912695.000000 0 0 1
36.933749 18.474681 -11.077778 42.756670 0.463817 1.832875 0.074662 -0.011962 -215635.000000 0 0 1
36.635249 18.910081 -9.769678 42.369556 0.476501 1.803473 0.085054 -0.012783 74154.600000 0 0 1
35.482049 19.946381 -9.598378 41.820603 0.512127 1.802374 0.081150 -0.013149 -209578.000000 0 0 1
34.220549 19.404281 -9.837478 40.550562 0.515828 1.815839 0.093483 -0.027268 -1256340.000000 0 0 1
33.265149 20.392481 -10.028978 40.286522 0.549944 1.822383 0.066096 -0.007367 -402883.000000 0 0 1
31.884649 19.732281 -10.219678 38.864323 0.554175 1.836883 0.042239 -0.006839 -227465.000000 0 0 1
31.572349 19.344081 -11.565378 38.791297 0.549699 1.873544 0.075418 -0.015798 -169063.000000 0 0 1
30.507149 18.429781 -11.574078 37.474021 0.543439 1.884786 0.054940 -0.017091 -288724.000000 0 0 1
30.324249 17.718881 -12.923178 37.423621 0.528806 1.923378 0.095540 -0.026448 -21046.200000 0 0 1
31.255949 16.659081 -13.090378 37.759997 0.489689 1.924818 0.084289 -0.030931 307630.000000 0 0 1
30.956449 15.920081 -14.276578 37.624080 0.475001 1.960002 0.063669 -0.032414 325543.000000 0 0 1
32.198449 15.273381 -14.953278 38.647339 0.442919 1.968081 0.087148 -0.037750 -22217.500000 0 0 1
32.972949 14.378781 -14.234878 38.685869 0.411216 1.947611 0.070241 -0.032485 -1974.290000 0 0 1
34.275049 14.381781 -14.790378 40.004624 0.397287 1.949500 0.090465 -0.031038 -339253.000000 0 0 1
35.224249 13.418681 -14.118478 40.250965 0.363977 1.929180 0.077970 -0.029869 -825381.000000 0 0 1
35.870249 13.897681 -12.964078 40.594182 0.369635 1.895848 0.082410 -0.016333 50516.600000 0 0 1
36.421349 12.840781 -12.180578 40.494034 0.338955 1.876327 0.067872 -0.008900 -22381.000000 0 0 1
-37.154327 13.387481 -11.187778 41.046742 -0.345840 1.846851 0.097244 -0.000873 483159.000000 0 0 1
-35.879327 13.761981 -11.712078 40.173262 -0.366257 1.866632 0.078238 -0.003882 21028.300000 0 0 1
-35.020327 14.214981 -10.727678 39.288319 -0.385588 1.847358 0.065370 -0.002265 -944929.000000 0 0 1
-33.585127 14.391981 -11.249278 38.231350 -0.404850 1.869459 0.115313 -0.015083 -144331.000000 0 0 1
-32.876227 13.238781 -11.696678 37.321896 -0.382819 1.889568 0.108919 -0.024980 339147.000000 0 0 1
-32.485627 12.330081 -10.686778 36.353185 -0.362758 1.869175 0.141707 -0.015298 -631029.000000 0 0 1
-31.531927 11.228881 -11.214378 35.300318 -0.342109 1.894083 0.154097 -0.022664 -321561.000000 0 0 1
-32.051827 10.391481 -12.174778 35.826355 -0.313516 1.917530 0.120231 -0.013524 -3180.680000 0 0 1
-31.250627 9.224581 -12.228378 34.802698 -0.287030 1.929823 0.143487 -0.019192 -35146.400000 0 0 1
-31.074027 8.565181 -13.642278 35.000989 -0.268959 1.971176 0.145149 -0.018378 -438025.000000 0 0 1
-32.278427 8.090481 -14.153078 36.161614 -0.245587 1.972931 0.118796 -0.012631 -49293.500000 0 0 1
-32.058927 7.291281 -15.281778 36.255624 -0.223630 2.005896 0.136608 -0.024676 -244233.000000 0 0 1
-33.408327 7.012981 -15.939978 37.674674 -0.206913 2.007655 0.125811 -0.031886 146163.000000 0 0 1
-34.414727 6.416881 -15.121678 38.134170 -0.184341 1.978540 0.148155 -0.037446 313119.000000 0 0 1
-35.269827 5.523281 -15.785978 39.034144 -0.155339 1.987135 0.118367 -0.042647 -225897.000000 0 0 1
-36.493627 5.215081 -14.904678 39.763442 -0.141943 1.955014 0.105928 -0.037170 845329.000000 0 0 1
37.024749 4.428181 -15.483178 40.375359 0.119035 1.964359 0.103962 -0.034336 1113090.000000 0 0 1
35.922449 4.203881 -14.625678 39.012888 0.116497 1.955078 0.113911 -0.029891 -37302.900000 0 0 1
34.843849 3.287481 -15.154378 38.138649 0.094071 1.979423 0.101673 -0.028121 -712443.000000 0 0 1
35.290149 1.952181 -15.353678 38.534933 0.055262 1.980607 0.118553 -0.034165 416443.000000 0 0 1
34.411649 0.855181 -14.958778 37.532093 0.024846 1.980742 0.093388 -0.014438 398803.000000 0 0 1
34.067549 0.681481 -13.425878 36.623988 0.020001 1.946134 0.112266 -0.023784 -427525.000000 0 0 1
35.086649 0.100081 -12.676278 37.306447 0.002852 1.917488 0.129630 -0.024764 25900.100000 0 0 1
34.868649 0.219781 -11.205078 36.625466 0.006303 1.881719 0.128231 -0.016206 -126360.000000 0 0 1
34.833049 1.703281 -10.580978 36.444472 0.048860 1.865370 0.131832 -0.030299 -485843.000000 0 0 1
33.717549 2.470981 -10.926778 35.529894 0.073154 1.883400 0.118038 -0.017851 253256.000000 0 0 1
33.923249 3.816181 -10.461878 35.704355 0.112024 1.868174 0.128756 -0.030109 167895.000000 0 0 1
32.853049 4.740281 -11.132678 35.010422 0.143298 1.894396 0.121564 -0.027466 425974.000000 0 0 1
33.098249 4.950481 -12.533378 35.736353 0.148469 1.929134 0.109900 -0.024770 303121.000000 0 0 1
32.086849 5.792381 -12.994578 35.099525 0.178598 1.950043 0.104612 -0.025804 -347155.000000 0 0 1
32.412049 6.375681 -14.401578 36.036033 0.194227 1.981925 0.070704 -0.020989 -412962.000000 0 0 1
32.165849 5.587681 -15.549778 36.161577 0.171998 2.015298 0.052566 -0.008611 230953.000000 0 0 1
32.471849 6.154681 -16.783678 37.067411 0.187317 2.040686 0.045601 -0.012238 -436172.000000 0 0 1
31.409549 7.235481 -17.299078 36.581007 0.226410 2.063373 0.059757 -0.014001 899439.000000 0 0 1
30.292149 6.661281 -17.981978 35.851618 0.216456 2.096205 0.036419 -0.013730 212160.000000 0 0 1
29.334149 6.101081 -17.125878 34.511030 0.205062 2.090063 0.023245 -0.000817 -1223220.000000 0 0 1
27.984849 5.937381 -17.849378 33.719498 0.209064 2.128629 0.019661 -0.006728 -357168.000000 0 0 1
28.099649 5.088981 -18.992178 34.295639 0.179163 2.157691 0.032484 -0.001933 67551.700000 0 0 1
26.929049 5.077581 -19.777478 33.795032 0.186366 2.195946 0.032874 0.003364 -101425.000000 0 0 1
26.598949 3.722081 -20.468278 33.768453 0.139031 2.221990 0.041412 -0.006808 -100621.000000 0 0 1
25.789649 2.898081 -19.655778 32.555406 0.111904 2.219011 0.052475 -0.006481 204569.000000 0 0 1
25.416649 1.701281 -20.352578 32.605641 0.066836 2.244909 0.052487 -0.007430 167197.000000 0 0 1
24.394049 0.906481 -19.455578 31.215555 0.037143 2.243708 0.056528 -0.012359 509478.000000 0 0 1
23.086949 1.445881 -19.427978 30.208345 0.062546 2.269379 0.062325 -0.020563 -300788.000000 0 0 1
22.283849 0.776981 -18.520778 28.986080 0.034853 2.263934 0.074330 -0.022731 -316834.000000 0 0 1
20.957849 1.538281 -18.336878 27.889762 0.073267 2.288262 0.077465 -0.032243 -610191.000000 0 0 1
20.061549 1.547381 -19.477378 28.004078 0.076979 2.339939 0.073571 -0.031655 550919.000000 0 0 1
19.024049 2.491481 -19.424078 27.302321 0.130224 2.362348 0.064127 -0.023720 -547182.000000 0 0 1
17.858449 2.110981 -18.560978 25.843575 0.117660 2.372015 0.115130 -0.034925 -1778810.000000 0 0 1
18.153949 2.333181 -17.192478 25.111569 0.127821 2.324911 0.130635 -0.037189 308185.000000 0 0 1
17.062149 2.062381 -16.325278 23.704115 0.120291 2.330506 0.106313 -0.025302 380758.000000 0 1 0
15.948349 3.137081 -16.246878 22.981561 0.194223 2.355977 0.118440 -0.031278 398852.000000 0 1 0
15.091949 3.435581 -17.373878 23.268472 0.223829 2.413839 0.102773 -0.023831 785062.000000 0 1 0
14.214649 4.499381 -17.015278 22.623447 0.306553 2.422051 0.123176 -0.032419 44243.200000 0 1 0
-20.640051 -21.499119 -17.473778 34.547890 0.805782 2.101087 0.088603 -0.031627 -21836.000000 0 0 1
-20.457651 -22.549519 -18.397578 35.573405 0.834000 2.114340 0.093511 -0.035588 407086.000000 0 0 1
-21.371651 -22.418019 -19.480378 36.589618 0.809289 2.132232 0.096839 -0.026254 -47803.000000 0 0 1
-20.999951 -23.184619 -20.769978 37.548854 0.834802 2.156932 0.076349 -0.020608 -171443.000000 0 0 1
-21.199951 -24.576719 -20.655478 38.472091 0.859031 2.137549 0.071187 -0.023381 592505.000000 0 0 1
-20.256551 -25.341769 -21.429278 38.881191 0.896461 2.154535 0.064985 -0.028135 253772.000000 0 0 1
-20.239451 -26.870709 -21.163278 39.743612 0.925240 2.132342 0.070788 -0.002345 -340773.000000 0 0 1
-21.506651 -27.323549 -21.552878 40.910132 0.903964 2.125669 0.069914 0.008994 -236834.000000 0 0 1
-21.657151 -28.724089 -21.417478 41.866619 0.924758 2.107801 0.098992 -0.020049 545872.000000 0 0 1
-23.139151 -29.254469 -21.566778 43.085614 0.901591 2.095038 0.088130 -0.018808 870619.000000 0 0 1
-23.622451 -29.046809 -22.869478 43.871976 0.888025 2.119144 0.063682 -0.020613 -53534.000000 0 0 1
-23.258951 -30.093019 -23.712778 44.820357 0.912798 2.128292 0.059225 -0.019537 -609222.000000 0 0 1
-23.400051 -29.630059 -25.167938 45.375410 0.902343 2.158751 0.052140 -0.014156 1735230.000000 0 0 1
-24.824851 -29.489729 -25.494898 46.215875 0.871074 2.155135 0.040415 -0.008139 1940060.000000 0 0 1
-25.144441 -28.563129 -26.542158 46.395920 0.848966 2.179835 0.047299 0.002603 -49066.900000 0 0 1
-24.686351 -28.861669 -27.994098 47.181367 0.863214 2.205985 0.047812 -0.011277 104602.000000 0 0 1
-25.435241 -29.943969 -28.559518 48.571996 0.866635 2.199360 0.029700 0.001968 376876.000000 0 0 1
-24.970851 -30.095929 -29.855238 49.200036 0.878201 2.222842 0.066807 -0.003761 90973.400000 0 0 1
-25.543861 -31.317789 -30.653388 50.723988 0.886595 2.219705 0.056103 -0.002669 101849.000000 0 0 1
-25.001451 -32.568619 -30.294958 51.025209 0.916092 2.206477 0.045168 -0.009611 -143665.000000 0 0 1
-25.817701 -33.615949 -30.760448 52.371661 0.915862 2.198576 0.054932 -0.011525 -181338.000000 0 0 1
-25.160991 32.845604 -30.858158 51.615260 -0.917109 2.211612 0.045160 -0.013339 82040.400000 0 0 1
-24.110551 32.692907 -31.793848 51.584820 -0.935353 2.234884 0.041577 -0.025026 -61570.400000 0 0 1
-23.622151 31.366795 -31.644048 50.430424 -0.925318 2.249108 0.051757 -0.019196 815884.000000 0 0 1
-22.233451 31.115995 -32.349648 50.090231 -0.950382 2.272903 0.047581 -0.015146 727705.000000 0 0 1
-22.387551 31.028785 -33.797708 51.051670 -0.945780 2.294320 0.055601 -0.013959 101969.000000 0 0 1
-22.102851 29.772175 33.586444 50.029668 -0.932177 0.834794 0.056158 -0.012215 -78770.900000 0 0 1
-22.192751 29.607195 32.070428 48.965463 -0.927569 0.856666 0.048107 -0.012232 -27843.500000 0 0 1
-21.277151 30.445885 31.370445 48.618658 -0.960842 0.869466 0.049665 -0.013017 391309.000000 0 0 1
-21.496151 30.336015 30.010825 47.780832 -0.954321 0.891696 0.051688 -0.011141 -336662.000000 0 0 1
-20.878551 31.462895 29.167455 47.713395 -0.984925 0.913087 0.050008 -0.019886 -357960.000000 0 0 1
-21.600651 32.621659 29.448825 48.969318 -0.985922 0.925578 0.044317 -0.014138 73770.900000 0 0 1
-21.173751 33.720517 28.679285 49.070382 -1.010101 0.946592 0.053179 -0.028961 156513.000000 0 0 1
-22.174851 -32.933509 28.770195 49.031257 0.978200 0.943729 0.074853 -0.038806 137164.000000 0 0 1
-22.134251 -32.380499 30.040425 49.404948 0.971184 0.917201 0.062408 -0.024480 731680.000000 0 0 1
-23.273051 -31.651079 30.572245 49.780396 0.936770 0.909498 0.097675 -0.027423 515847.000000 0 0 1
-23.386951 -30.212439 30.017895 48.588218 0.912059 0.904852 0.092632 -0.028482 -386918.000000 0 0 1
-23.994651 -30.094629 28.799635 48.071290 0.897700 0.928416 0.052410 -0.022131 -318329.000000 0 0 1
-24.283151 -28.711259 28.604215 47.246258 0.868763 0.920493 0.055051 -0.029819 -317024.000000 0 0 1
-25.414231 -28.307499 27.585045 46.990769 0.839203 0.943410 0.080263 -0.026119 45559.200000 0 0 1
-26.708501 -28.217159 28.138565 47.972189 0.812859 0.943992 0.119232 -0.026709 -66830.600000 0 0 1
-27.340421 -29.476379 28.249605 49.136501 0.822974 0.958289 0.095521 -0.027297 -501019.000000 0 0 1
-28.288291 -29.923609 27.081955 49.285719 0.813483 0.989044 0.081081 -0.002713 -241497.000000 0 0 1
-27.595091 -29.745269 25.835565 48.101419 0.822879 1.003794 0.060883 -0.012353 -20256.900000 0 0 1
-28.234311 -30.164879 24.672275 48.122940 0.818444 1.032478 0.039882 -0.001370 -802683.000000 0 0 1
-27.309131 -30.246219 23.443935 47.013195 0.836385 1.048736 0.032034 -0.002145 -1288840.000000 0 0 1
-26.764351 -28.966239 23.276485 45.794849 0.824887 1.037613 0.025123 -0.013266 22513.900000 0 0 1
-25.945391 -28.820989 22.150135 44.659167 0.837857 1.051831 0.044348 -0.019715 688049.000000 0 0 1
-24.631451 -29.696569 22.026035 44.426803 0.878362 1.052061 0.051664 -0.028328 -589103.000000 0 0 1
-24.875051 -30.993339 21.526735 45.196853 0.894476 1.074368 0.050036 -0.035514 508888.000000 0 0 1
-23.694651 -31.774089 21.367535 45.028888 0.930038 1.076367 0.049647 -0.020683 370069.000000 0 0 1
-22.980951 -32.342629 22.645235 45.683437 0.953027 1.052157 0.073189 -0.027438 27608.200000 0 0 1
-22.252551 -31.365039 23.360835 44.996337 0.953743 1.024915 0.091091 -0.040756 -86356.300000 0 0 1
-21.799151 -31.947369 24.551725 45.810747 0.972017 1.005178 0.094038 -0.046734 -843102.000000 0 0 1
-20.731851 -31.164239 25.283915 45.169633 0.983779 0.976707 0.088729 -0.030678 -736791.000000 0 0 1
-19.496051 -31.219049 24.558785 44.247700 1.012562 0.982398 0.106735 -0.029767 763502.000000 0 0 1
-18.413451 -30.590469 25.250305 43.731109 1.028956 0.955257 0.120803 -0.029550 526449.000000 0 0 1
-17.811551 -31.376419 26.504165 44.768312 1.054486 0.937221 0.088015 -0.036711 -499075.000000 0 0 1
-18.687951 -31.291649 27.608535 45.723495 1.032425 0.922518 0.091374 -0.030325 424238.000000 0 0 1
-18.170251 -32.066559 28.687805 46.705593 1.055266 0.909391 0.091234 -0.024112 -148485.000000 0 0 1
-18.417851 -31.392739 30.062625 47.206808 1.040220 0.880419 0.092433 -0.021632 188350.000000 0 0 1
-17.706151 -30.165439 30.173715 46.194313 1.040014 0.859005 0.097931 -0.020012 652492.000000 0 0 1
-18.146651 -29.544349 31.399495 46.777108 1.019988 0.834892 0.091531 -0.018692 97563.600000 0 0 1
-17.696551 -28.085119 31.391835 45.687954 1.008535 0.813317 0.100397 -0.022587 481662.000000 0 0 1
-18.662351 -27.183079 30.802415 45.121967 0.969159 0.819416 0.097020 -0.027897 674100.000000 0 0 1
-18.873351 -27.355649 29.367675 44.350820 0.966864 0.847089 0.097984 -0.023048 -1194580.000000 0 0 1
-17.731251 -27.029739 28.465275 43.072914 0.990221 0.848829 0.079562 -0.015174 -932448.000000 0 0 1
-17.611951 -25.637279 28.253765 42.020544 0.968871 0.833377 0.065954 -0.011001 -29431.400000 0 0 1
-16.503551 -25.266869 27.462255 40.803888 0.992196 0.832498 0.056798 -0.005535 -205742.000000 0 0 1
-16.512351 -23.836019 26.917265 39.564538 0.964954 0.822572 0.037107 -0.006651 -570714.000000 0 0 1
-17.404051 -23.692819 25.872375 39.161594 0.937243 0.849103 0.058262 -0.003819 -349101.000000 0 0 1
-17.031051 -22.663219 24.943145 37.760279 0.926346 0.849224 0.060322 -0.013338 -57068.800000 0 0 1
-17.480751 -21.213919 25.286925 37.350175 0.881578 0.827086 0.066821 -0.010353 -364538.000000 0 0 1
-17.064051 -20.219819 24.358715 35.963452 0.869839 0.826685 0.058654 -0.011046 -45152.300000 0 0 1
-17.505751 -18.973919 24.864985 35.843108 0.825623 0.804159 0.077607 -0.002820 -146430.000000 0 0 1
-17.002651 -17.737019 24.113065 34.425745 0.806534 0.794787 0.061205 -0.020456 -1099440.000000 0 0 1
-15.641751 -17.590419 24.315625 33.842826 0.843969 0.769172 0.059134 -0.021351 -1282190.000000 0 0 1
-15.227551 -16.688519 23.261355 32.426465 0.831142 0.770795 0.070721 -0.023357 -63976.200000 0 0 1
-13.775851 -16.206519 23.400615 31.623000 0.866291 0.737745 0.065708 -0.031133 -842478.000000 0 0 1
-12.794951 -17.174919 23.182115 31.561037 0.930517 0.745842 0.060959 -0.029054 769141.000000 0 0 1
-11.434051 -16.699319 23.301855 30.863915 0.970412 0.715162 0.063347 -0.031516 763492.000000 0 0 1
-10.898951 -15.653619 22.275935 29.326442 0.962586 0.708121 0.077899 -0.034169 -744439.000000 0 0 1
-10.523051 -16.224919 21.000435 28.548220 0.995425 0.744225 0.095779 -0.031657 729487.000000 0 0 1
-9.376151 -17.093219 21.065535 28.702737 1.069082 0.746720 0.089664 -0.027931 -326504.000000 0 0 1
-9.447651 -18.323519 20.129835 28.813534 1.094745 0.797323 0.093032 -0.022302 -242542.000000 0 0 1
-9.115451 -18.009919 18.838935 27.610761 1.102253 0.819887 0.092902 -0.017367 -86126.800000 0 0 1
-8.666151 -19.216519 18.224035 27.865610 1.147133 0.857940 0.100024 -0.021169 82051.800000 0 0 1
-8.380951 -19.114919 16.725035 26.745977 1.157588 0.895243 0.094268 -0.022836 -280464.000000 0 0 1
-7.301851 -18.236819 16.540835 25.680690 1.189953 0.870955 0.097717 -0.019177 -422187.000000 0 0 1
-7.173651 -17.807619 15.151035 24.456623 1.187843 0.902683 0.109105 -0.023641 670661.000000 0 1 0
-6.081151 -16.698119 14.958935 23.228803 1.221544 0.871104 0.086122 -0.021348 742485.000000 0 1 0
-6.437051 -15.578319 15.777235 23.087676 1.178958 0.818439 0.088766 -0.024768 713232.000000 0 1 0
-5.386751 -14.585219 15.688835 22.088124 1.217006 0.780895 0.063458 -0.016744 478464.000000 0 1 0
-5.309051 -13.581719 16.867135 22.296846 1.198162 0.712881 0.033871 -0.002877 -533074.000000 0 1 0
-4.833651 -14.072019 18.125835 23.450625 1.239929 0.687341 0.040534 -0.000521 -9930.870000 0 1 0
-5.744151 -14.860519 18.879535 24.703586 1.201949 0.700930 0.079062 -0.016079 452961.000000 0 1 0
-7.048051 -14.099719 19.321335 24.935739 1.107251 0.684326 0.106845 -0.026677 128525.000000 0 1 0
-6.961951 -13.068119 20.229035 25.069072 1.081299 0.631857 0.091989 -0.032100 -579717.000000 0 0 1
-8.156251 -12.873919 20.924035 25.885855 1.006073 0.629505 0.089756 -0.025455 27185.000000 0 0 1
-7.826451 -11.994919 22.182435 26.404391 0.992679 0.573321 0.078336 -0.019648 -162821.000000 0 0 1
-7.457951 -10.660519 21.802935 25.389677 0.960348 0.538006 0.056384 -0.019461 286351.000000 0 0 1
-6.856651 -9.832119 22.816335 25.773424 0.961836 0.483731 0.040073 -0.014393 449680.000000 0 0 1
-5.431251 -10.226119 23.271835 25.993274 1.082567 0.461687 0.033800 -0.009827 -154953.000000 0 0 1
-5.412151 -11.367219 24.099055 27.189511 1.126435 0.481424 0.060330 -0.008843 -822021.000000 0 0 1
-4.150151 -11.698019 24.578585 27.534964 1.229875 0.467646 0.052041 0.000715 -862633.000000 0 0 1
-4.066251 -13.057019 25.287235 28.748294 1.268893 0.495758 0.070533 -0.012046 -678153.000000 0 0 1
-2.814951 -13.344719 25.831405 29.210734 1.362903 0.485778 0.074484 -0.012438 -398817.000000 0 0 1
-2.810851 -14.517719 26.602425 30.436065 1.379547 0.507334 0.084340 -0.016093 -15566.600000 0 0 1
-2.685351 -15.921219 25.981095 30.589437 1.403704 0.556046 0.087593 -0.036260 176461.000000 0 0 1
-1.441851 -16.321119 25.426845 30.248675 1.482682 0.572418 0.094408 -0.038887 170705.000000 0 0 1
-1.636251 -17.607919 24.787525 30.448933 1.478135 0.619672 0.107577 -0.038071 -794705.000000 0 0 1
-0.381551 -18.448419 24.737625 30.861624 1.550117 0.640887 0.114975 -0.044568 -133049.000000 0 0 1
0.244649 -18.837819 25.991405 32.101035 -1.557810 0.627198 0.128428 -0.047168 399263.000000 0 0 1
0.771649 -17.856119 26.907875 32.302789 -1.527608 0.586308 0.137441 -0.046862 -240615.000000 0 0 1
1.440149 -18.493419 28.126195 33.692186 -1.493080 0.583029 0.132158 -0.048387 -255938.000000 0 0 1
2.623349 -19.248919 27.881225 33.981842 -1.435345 0.608556 0.122175 -0.055668 14096.600000 0 0 1
3.416149 -19.355019 29.018745 35.048173 -1.396096 0.595323 0.124720 -0.058071 256306.000000 0 0 1
4.435549 -18.202419 29.270165 34.752622 -1.331776 0.569365 0.129051 -0.049033 -546178.000000 0 0 1
3.785049 -17.035619 29.641145 34.396750 -1.352163 0.532102 0.131713 -0.051976 -87067.600000 0 0 1
4.721549 -16.094819 30.087695 34.447143 -1.285444 0.508563 0.148937 -0.069126 -348557.000000 0 0 1
3.966949 -14.849019 30.612635 34.254394 -1.309741 0.465305 0.164448 -0.050983 433081.000000 0 0 1
3.211249 -15.152119 31.788605 35.361197 -1.361953 0.453387 0.135931 -0.055142 193040.000000 0 0 1
2.766949 -13.979719 32.459732 35.450286 -1.375396 0.413697 0.131977 -0.036350 -270433.000000 0 0 1
1.854749 -14.234919 33.685035 36.616316 -1.441231 0.402853 0.104207 -0.030047 166140.000000 0 0 1
2.442449 -14.907819 -33.057498 36.345657 -1.408402 2.712950 0.115158 -0.036538 158167.000000 0 0 1
1.455349 -15.378619 -32.160168 35.677673 -1.476443 2.693809 0.124335 -0.039540 260114.000000 0 0 1
2.106249 -15.868719 -30.858468 34.763452 -1.438838 2.663056 0.105921 -0.026116 -168244.000000 0 0 1
1.163849 -16.174619 -29.869148 33.987334 -1.498965 2.644205 0.099944 -0.019778 -522959.000000 0 0 1
1.619849 -16.152919 -28.549728 32.842467 -1.470848 2.624567 0.080953 -0.022137 -321106.000000 0 0 1
1.419849 -17.477919 -27.802518 32.870559 -1.489738 2.578893 0.071007 -0.027230 -375607.000000 0 0 1
2.191949 -18.568319 -28.214778 33.847611 -1.453292 2.556358 0.050254 -0.017294 -288824.000000 0 0 1
2.017449 -19.692019 -27.384678 33.790032 -1.468702 2.515693 0.038088 -0.023803 -1000100.000000 0 0 1
2.988049 -20.848719 -27.660338 34.766245 -1.428445 2.490809 0.019933 -0.014230 1213230.000000 0 0 1
4.390549 -20.628019 -27.345978 34.533963 -1.361082 2.484641 0.047177 -0.013228 1159840.000000 0 0 1
4.706349 -20.460519 -26.002878 33.420536 -1.344708 2.462353 0.064376 -0.023053 -713872.000000 0 0 1
5.863149 -21.364619 -25.465518 33.753756 -1.302958 2.425612 0.041875 -0.020978 35936.600000 0 0 1
5.622149 -22.768019 -25.550738 34.681861 -1.328707 2.399000 0.056319 -0.021069 143838.000000 0 0 1
5.730249 -23.333419 -26.848618 36.029606 -1.329981 2.411604 0.038947 -0.014165 -312576.000000 0 0 1
5.288149 -24.807719 -26.923378 36.989941 -1.360774 2.385988 0.037202 -0.000552 -178832.000000 0 0 1
6.035449 -25.645999 -26.093198 37.080977 -1.339665 2.351362 0.038933 -0.003129 -382877.000000 0 0 1
5.554749 -26.934479 -26.109368 37.921240 -1.367416 2.330237 0.044279 -0.002562 -403957.000000 0 0 1
6.374449 -27.909689 -25.300618 38.206094 -1.346252 2.294566 0.052106 -0.003897 796138.000000 0 0 1
7.716649 -28.171029 -25.782468 38.960097 -1.303433 2.293968 0.067351 -0.014101 852729.000000 0 0 1
8.167249 -29.337229 -25.188038 39.519795 -1.299279 2.261854 0.078677 -0.016246 14741.600000 0 0 1
9.567949 -29.730109 -25.722768 40.460917 -1.259437 2.259768 0.095299 -0.024058 184929.000000 0 0 1
9.455949 -30.273249 -27.022018 41.666222 -1.268045 2.276455 0.087341 -0.014164 1064150.000000 0 0 1
10.667549 -30.036269 -27.780808 42.281761 -1.229536 2.287682 0.092228 -0.035665 919964.000000 0 0 1
10.336649 -29.926859 -29.274378 43.121368 -1.238228 2.317037 0.093575 -0.019064 -90775.700000 0 0 1
10.171849 -31.157259 -29.878418 44.350436 -1.255237 2.309986 0.084852 -0.027862 142852.000000 0 0 1
10.214649 -30.900569 -31.254638 45.122462 -1.251539 2.335970 0.093933 -0.037224 -190282.000000 0 0 1
-36.051251 -4.664519 -4.959578 36.688525 0.128671 1.706392 0.168744 -0.035435 -70145.600000 0 0 1
-35.950809 -3.616919 -3.997178 36.352719 0.100270 1.680975 0.184641 -0.039628 795913.000000 0 0 1
-35.054882 -2.570219 -4.418378 35.425596 0.073189 1.695845 0.198426 -0.041697 661848.000000 0 0 1
-35.864718 -1.331919 -4.933578 36.226954 0.037120 1.707406 0.166689 -0.031169 628010.000000 0 0 1
-36.735641 -0.688419 -3.990478 36.958154 0.018738 1.678980 0.160320 -0.035371 751449.000000 0 0 1
37.183995 0.471081 -4.492778 37.457395 0.012668 1.691029 0.163999 -0.030443 557882.000000 0 0 1
36.175285 1.068481 -3.459878 36.356067 0.029528 1.666107 0.169722 -0.033411 91852.800000 0 0 1
36.820035 1.783481 -2.421578 36.942656 0.048400 1.636393 0.205077 -0.040557 63039.300000 0 0 1
36.008995 2.832581 -1.946778 36.172658 0.078502 1.624641 0.180439 -0.044071 -758172.000000 0 0 1
36.805115 3.940281 -1.242378 37.036277 0.106652 1.604348 0.178398 -0.047791 367752.000000 0 0 1
-36.844031 4.719781 -1.955878 37.196564 -0.127408 1.623403 0.208954 -0.049439 1308560.000000 0 0 1
-35.659530 4.028081 -2.427378 35.968315 -0.112483 1.638334 0.185304 -0.036508 -334338.000000 0 0 1
-34.563283 4.948981 -2.919978 35.037683 -0.142219 1.654231 0.173593 -0.050209 -594723.000000 0 0 1
-33.878251 5.495681 -1.823578 34.369519 -0.160818 1.623879 0.174601 -0.054809 -345827.000000 0 0 1
-33.118071 6.581981 -2.210078 33.838049 -0.196187 1.636156 0.177065 -0.061392 -605533.000000 0 0 1
-32.515061 7.240081 -0.952978 33.325008 -0.219094 1.599397 0.172669 -0.059737 206186.000000 0 0 1
-31.262271 6.682281 -0.492778 31.972258 -0.210580 1.586210 0.191042 -0.057239 1038310.000000 0 0 1
-30.844951 7.100781 0.810922 31.662118 -0.226267 1.545182 0.191992 -0.043764 23529.800000 0 0 1
-30.726351 8.630181 1.175722 31.936985 -0.273817 1.533974 0.207338 -0.049468 -183239.000000 0 0 1
-32.022351 9.197381 1.199422 33.338587 -0.279689 1.534812 0.206130 -0.053459 98527.100000 0 0 1
-31.985391 10.534481 1.628322 33.714863 -0.318164 1.522481 0.211083 -0.041211 -651756.000000 0 0 1
-33.340021 11.208581 1.696022 35.214568 -0.324319 1.522615 0.212525 -0.042242 -1236490.000000 0 0 1
-33.802051 11.513981 0.393822 35.711420 -0.328303 1.559768 0.189616 -0.040319 933030.000000 0 0 1
-34.898585 12.454581 0.376222 37.056300 -0.342790 1.560643 0.180944 -0.033357 -89152.900000 0 0 1
-36.305831 11.987881 0.669122 38.239644 -0.318920 1.553297 0.186700 -0.047214 -916928.000000 0 0 1
-36.853991 11.082781 -0.289478 38.485432 -0.292118 1.578318 0.180704 -0.046599 -308494.000000 0 0 1
36.403155 10.815481 -0.024878 37.975847 0.288797 1.571451 0.180166 -0.056434 -80069.600000 0 0 1
35.686515 9.568281 -0.689978 36.953422 0.261959 1.589469 0.183805 -0.052647 369331.000000 0 0 1
35.412845 9.723881 -1.990078 36.777491 0.267982 1.624934 0.178771 -0.045790 1042.500000 0 0 1
34.744665 8.587581 -2.503178 35.877628 0.242306 1.640623 0.173815 -0.054899 -166484.000000 0 0 1
34.233385 8.813281 -3.934978 35.568000 0.251975 1.681656 0.139892 -0.034184 31039.700000 0 0 1
32.970225 9.444081 -4.056078 34.535173 0.278973 1.688516 0.154341 -0.038397 304617.000000 0 0 1
32.689155 9.669381 -5.452978 34.522641 0.287597 1.729414 0.120468 -0.021742 -361010.000000 0 0 1
31.285775 10.241281 -5.625178 33.396499 0.316353 1.740039 0.136692 -0.026839 -21118.900000 0 0 1
30.205295 9.348881 -5.357078 32.069607 0.300160 1.738628 0.123118 -0.020002 762586.000000 0 0 1
28.959525 9.841581 -5.806078 31.132320 0.327594 1.758392 0.138932 -0.011851 -224284.000000 0 0 1
27.817225 8.847781 -5.843178 29.769514 0.307950 1.768360 0.156090 0.004037 -583711.000000 0 0 1
27.924725 7.950381 -6.961978 29.857461 0.277369 1.806137 0.139646 -0.000862 718732.000000 0 0 1
26.680525 7.382681 -7.381778 28.650393 0.269952 1.831386 0.159017 0.000291 378617.000000 0 0 1
26.858425 6.364081 -8.533078 28.891001 0.232658 1.870623 0.155928 -0.008939 -426563.000000 0 0 1
27.672325 5.273581 -8.240378 29.350844 0.188314 1.855376 0.156702 -0.013362 178747.000000 0 0 1
27.629825 4.304581 -9.240878 29.450475 0.154552 1.889965 0.126228 -0.011890 -175573.000000 0 0 1
28.663925 3.163981 -9.003178 30.210736 0.109937 1.873406 0.130488 -0.011358 -718557.000000 0 0 1
29.988085 3.598681 -9.102278 31.545003 0.119433 1.863507 0.123526 -0.010605 317635.000000 0 0 1
30.922055 3.017581 -8.168778 32.124884 0.097279 1.827901 0.091900 -0.013809 428127.000000 0 0 1
31.190105 1.529981 -8.015578 32.239928 0.049014 1.822054 0.078596 -0.014305 -454399.000000 0 0 1
30.134425 0.881481 -7.308878 31.020643 0.029243 1.808646 0.115286 -0.019116 638733.000000 0 0 1
30.512285 -0.443619 -6.913778 31.288922 -0.014538 1.793601 0.108564 -0.024401 4974.970000 0 0 1
30.414205 -1.515519 -8.036378 31.494508 -0.049788 1.828817 0.097320 -0.026709 -645417.000000 0 0 1
31.538155 -1.576519 -8.843078 32.792387 -0.049946 1.843845 0.100830 -0.029287 -317689.000000 0 0 1
31.321445 -2.570819 -9.832578 32.929039 -0.081895 1.874021 0.097034 -0.041822 -460138.000000 0 0 1
32.367425 -2.783319 -10.914478 34.271313 -0.085780 1.894914 0.103085 -0.032849 -670777.000000 0 0 1
33.627995 -3.177619 -10.437078 35.353527 -0.094214 1.870482 0.108910 -0.027068 349008.000000 0 0 1
34.510775 -3.544119 -11.528778 36.557722 -0.102337 1.891630 0.122322 -0.036535 887782.000000 0 0 1
35.966885 -3.899019 -11.101378 37.842565 -0.107984 1.868533 0.139893 -0.029112 213076.000000 0 0 1
35.949415 -5.021919 -10.252878 37.718717 -0.138796 1.846085 0.125008 -0.028375 653903.000000 0 0 1
37.264295 -5.301519 -9.779678 38.889277 -0.141320 1.825000 0.144971 -0.027707 328472.000000 0 0 1
-37.253671 -6.644119 -8.989978 38.894730 0.176492 1.804042 0.137505 -0.033435 -162670.000000 0 0 1
36.723115 -6.559119 -7.738078 38.098386 -0.176746 1.775327 0.139637 -0.032299 239672.000000 0 0 1
36.415765 -7.819119 -7.219578 37.939015 -0.211507 1.762258 0.136624 -0.031950 -225983.000000 0 0 1
36.183695 -7.785919 -5.667878 37.443359 -0.211946 1.722753 0.131296 -0.033498 -354080.000000 0 0 1
37.294665 -7.566719 -4.814878 38.357924 -0.200173 1.696653 0.140518 -0.022879 205478.000000 0 0 1
-37.228411 -8.310819 -3.606878 38.314930 0.219637 1.665074 0.157919 -0.024310 -123641.000000 0 0 1
-36.482531 -9.718319 -3.758278 37.941342 0.260337 1.670014 0.156190 -0.028216 -210271.000000 0 0 1
-37.238231 -10.647619 -4.486878 38.989610 0.278501 1.686131 0.138110 -0.023746 140352.000000 0 0 1
-36.519551 -11.644419 -5.203978 38.682702 0.308663 1.705735 0.123989 -0.025902 -477276.000000 0 0 1
-37.246591 -12.067919 -6.440178 39.678950 0.313328 1.733825 0.113240 -0.028554 -305701.000000 0 0 1
37.227085 -11.130819 -7.468878 39.566843 -0.290537 1.760702 0.124140 -0.027143 66108.100000 0 0 1
36.754885 -11.647019 -8.658878 39.516462 -0.306873 1.791710 0.114973 -0.026205 -221047.000000 0 0 1
36.813915 -10.747619 -9.936478 39.617032 -0.284050 1.824317 0.091876 -0.025017 -516596.000000 0 0 1
35.993075 -9.624319 -10.140778 38.613007 -0.261281 1.836539 0.096819 -0.029447 48983.300000 0 0 1
36.204095 -9.094319 -11.459678 39.048269 -0.246104 1.868656 0.094579 -0.027810 -87845.600000 0 0 1
35.187575 -8.069819 -12.074778 38.066884 -0.225439 1.893571 0.096703 -0.031233 51228.400000 0 0 1
35.476075 -7.773619 -13.432678 38.722317 -0.215713 1.925058 0.099854 -0.026671 495129.000000 0 0 1
34.516665 -6.828319 -13.826278 37.804656 -0.195305 1.945213 0.084844 -0.029619 -83981.700000 0 0 1
34.840935 -6.240619 -15.205378 38.523234 -0.177238 1.976545 0.079827 -0.019682 -455663.000000 0 0 1
35.746285 -5.215619 -14.967778 39.102863 -0.144884 1.963599 0.085827 -0.015911 144003.000000 0 0 1
35.221395 -3.950119 -15.504678 38.685206 -0.111684 1.983176 0.101056 -0.022044 429156.000000 0 0 1
36.255695 -2.788319 -15.672778 39.596541 -0.076756 1.977748 0.112081 -0.023284 310002.000000 0 0 1
37.259835 -2.960219 -16.694478 40.936094 -0.079281 1.990859 0.114722 -0.017061 -172113.000000 0 0 1
-36.156151 -2.289819 -16.502278 39.809995 0.063247 1.998218 0.158948 -0.018097 -807793.000000 0 0 1
-36.180241 -0.731019 -16.264078 39.674481 0.020202 1.993182 0.148162 -0.014521 -982881.000000 0 0 1
-36.624381 0.041281 -17.334578 40.519558 -0.001127 2.012862 0.112713 -0.016435 178827.000000 0 0 1
-36.523101 1.416481 -17.037578 40.326448 -0.038764 2.006989 0.132119 -0.037302 -87558.800000 0 0 1
-36.537651 2.437581 -18.177478 40.882300 -0.066616 2.031557 0.099726 -0.037665 -158575.000000 0 0 1
-35.457989 2.388781 -19.072078 40.332610 -0.067268 2.063341 0.112549 -0.033422 4175.710000 0 0 1
-35.407244 3.557581 -19.822378 40.733966 -0.100140 2.079025 0.107197 -0.035909 -489920.000000 0 0 1
-34.396459 3.627581 -20.960578 40.442819 -0.105075 2.115631 0.097723 -0.026890 -345291.000000 0 0 1
-33.089721 3.929281 -20.516978 39.132024 -0.118193 2.122691 0.101220 -0.024608 6875.290000 0 0 1
-32.290661 4.390581 -21.556178 39.072149 -0.135142 2.155200 0.087664 -0.017426 1067.450000 0 0 1
-30.791751 4.705481 -21.334778 37.755082 -0.151643 2.171331 0.115071 -0.014769 346818.000000 0 0 1
-30.025241 3.585581 -20.902678 36.759943 -0.118856 2.175632 0.109465 -0.004824 -131448.000000 0 0 1
-28.672801 3.967681 -20.938078 35.724993 -0.137505 2.197022 0.094944 0.001826 -89756.300000 0 0 1
-27.655341 2.887981 -20.494378 34.542407 -0.104050 2.205962 0.119674 -0.005602 80179.100000 0 0 1
-27.537951 2.711681 -19.097178 33.621335 -0.098154 2.174879 0.123268 -0.006278 -608787.000000 0 0 1
-26.670361 1.787281 -18.621978 32.577302 -0.066914 2.179280 0.124048 -0.014460 -1113120.000000 0 0 1
-25.808871 2.074981 -17.387578 31.188640 -0.080225 2.162164 0.111985 -0.021665 -68116.200000 0 0 1
-24.734751 2.954881 -17.677378 30.545522 -0.118899 2.187958 0.110138 -0.015652 31368.400000 0 0 1
-24.142351 3.295481 -16.418778 29.381790 -0.135664 2.163744 0.123312 -0.024777 -504531.000000 0 0 1
-23.086651 4.358281 -16.589178 28.760892 -0.186583 2.185598 0.125212 -0.022393 -95719.100000 0 0 1
-21.897651 3.897781 -17.218278 28.127725 -0.176155 2.229568 0.145627 -0.032964 103253.000000 0 0 1
-20.844451 4.833581 -17.193878 27.449665 -0.227861 2.247695 0.120462 -0.027243 -699006.000000 0 0 1
-19.593251 4.221481 -17.783078 26.794668 -0.212212 2.296524 0.142674 -0.036418 -887910.000000 0 0 1
-18.972351 3.280381 -16.947878 25.650372 -0.171211 2.292582 0.166551 -0.040243 -255436.000000 0 0 1
-18.036951 2.528481 -17.677478 25.381451 -0.139276 2.341266 0.135043 -0.040494 -755477.000000 0 0 1
-17.784251 1.130081 -17.090278 24.690773 -0.063459 2.335291 0.149759 -0.037240 115858.000000 0 1 0
-18.576051 0.086581 -17.629278 25.609932 -0.004661 2.330045 0.111139 -0.036877 1172750.000000 0 0 1
-19.965251 0.221381 -17.226678 26.370792 -0.011088 2.282663 0.122759 -0.043477 411947.000000 0 0 1
-20.867151 -0.936619 -17.618678 27.326417 0.044855 2.271491 0.105702 -0.044264 -484976.000000 0 0 1
-20.809051 -2.092219 -16.775478 26.810644 0.100207 2.246828 0.094805 -0.040292 56745.700000 0 0 1
-21.668951 -3.093019 -17.251478 27.869763 0.141782 2.238269 0.092566 -0.030402 -145173.000000 0 0 1
-21.975651 -4.140319 -16.174278 27.598528 0.186222 2.196979 0.104642 -0.038185 42677.300000 0 0 1
-22.586251 -3.555619 -15.026478 27.360121 0.156143 2.152216 0.098070 -0.038614 346815.000000 0 0 1
-22.822251 -4.601019 -14.069778 27.202632 0.198936 2.114397 0.100643 -0.048157 -76134.300000 0 0 1
-23.143151 -4.175419 -12.626578 26.692134 0.178497 2.063540 0.112259 -0.051579 -109871.000000 0 0 1
-24.220551 -3.267119 -12.548678 27.473232 0.134081 2.045146 0.103916 -0.050310 317793.000000 0 0 1
-24.455951 -2.766719 -11.268578 27.068970 0.112652 2.000159 0.121784 -0.055280 -254524.000000 0 0 1
-25.405911 -1.549119 -11.080678 27.760431 0.060899 1.981390 0.165650 -0.064020 -77586.800000 0 0 1
-25.590701 -1.321319 -9.722878 27.407375 0.051587 1.933447 0.153845 -0.060614 518367.000000 0 0 1
-26.342731 -0.139319 -9.542678 28.018237 0.005289 1.918339 0.160724 -0.058618 -315173.000000 0 0 1
-26.684301 0.017081 -8.028678 27.865963 -0.000640 1.863057 0.168654 -0.051981 -183200.000000 0 0 1
-25.564441 0.566181 -7.363978 26.609949 -0.022144 1.851194 0.158280 -0.043117 419860.000000 0 0 1
-25.800091 0.690781 -5.991278 26.495609 -0.026768 1.798893 0.166801 -0.054430 -606930.000000 0 0 1
-24.531651 1.032981 -5.233278 25.104903 -0.042083 1.780793 0.114997 -0.037815 -515739.000000 0 0 1
-24.326951 2.431981 -5.225878 25.000498 -0.099640 1.781380 0.149772 -0.043298 -178043.000000 0 0 1
-22.970751 2.763581 -5.301078 23.735927 -0.119733 1.796032 0.127966 -0.020579 -468644.000000 0 1 0
-22.769351 4.253181 -5.488878 23.804636 -0.184666 1.803470 0.142592 -0.024789 -205188.000000 0 1 0
-23.146851 5.059181 -4.368178 24.092592 -0.215185 1.753113 0.144073 -0.028174 601143.000000 0 1 0
-22.666951 6.368581 -4.683278 24.005887 -0.273902 1.767144 0.133300 -0.029380 -312558.000000 0 1 0
-23.170451 7.501581 -3.764178 24.643712 -0.313107 1.724141 0.134309 -0.026507 -675174.000000 0 1 0
-22.688351 7.573881 -2.431178 24.042370 -0.322191 1.672090 0.134191 -0.025921 324966.000000 0 1 0
-21.312651 7.829581 -2.251378 22.816664 -0.352063 1.669630 0.143313 -0.027520 -42101.100000 0 1 0
-20.777251 9.250981 -2.507178 22.881450 -0.418893 1.680589 0.124329 -0.029041 -462701.000000 0 1 0
-20.740751 9.558181 -3.853078 23.159961 -0.431832 1.737942 0.108306 -0.025703 814844.000000 0 1 0
-20.030451 10.821981 -3.991478 23.114198 -0.495347 1.744351 0.100360 -0.018265 161367.000000 0 1 0
-19.812751 11.225481 -5.440178 23.412648 -0.515482 1.805300 0.089491 -0.024705 -21166.900000 0 1 0
-18.920851 10.493681 -6.285378 22.530467 -0.506375 1.853520 0.080747 -0.032002 240780.000000 0 1 0
-18.887251 11.158481 -7.518978 23.189976 -0.533623 1.900998 0.081744 -0.022655 -507426.000000 0 1 0
-17.563651 10.961481 -8.264478 22.292095 -0.557952 1.950597 0.070182 -0.013979 -172200.000000 0 1 0
-17.253851 9.599581 -8.653478 21.557598 -0.507723 1.983854 0.061710 -0.012638 546780.000000 0 1 0
-18.137751 9.041681 -9.647378 22.445532 -0.462447 2.015082 0.073092 -0.006861 107660.000000 0 1 0
-18.255051 9.673981 -11.087578 23.447115 -0.487307 2.063348 0.086322 -0.012082 534156.000000 0 1 0
-17.080651 9.525381 -11.940678 22.914217 -0.508713 2.118940 0.081925 -0.008006 932969.000000 0 1 0
-17.029351 10.391081 -13.059278 23.843618 -0.547876 2.150416 0.085837 -0.011690 421101.000000 0 1 0
-15.803751 10.080281 -14.003678 23.398154 -0.567780 2.212418 0.056918 -0.012758 -7203.780000 0 1 0
-15.783251 8.795281 -14.629078 23.248181 -0.508396 2.251393 0.067877 -0.025480 107280.000000 0 1 0
-15.481651 7.707881 -13.796478 22.123195 -0.461944 2.244162 0.059936 -0.017015 -597116.000000 0 1 0
-15.691551 6.357681 -14.431978 22.246952 -0.384952 2.276694 0.081485 -0.025862 339839.000000 0 1 0
-14.740351 6.139581 -15.496878 22.251419 -0.394662 2.341227 0.093306 -0.028625 681586.000000 0 1 0
-14.914851 4.962081 -16.176878 22.555851 -0.321175 2.370561 0.105292 -0.031142 -12335.600000 0 1 0
33.030225 -15.388519 28.030395 45.972876 -0.435991 0.915094 0.053554 -0.001478 -501333.000000 0 0 1
32.023265 -14.457919 28.247355 45.082524 -0.424085 0.893652 0.064724 -0.007399 -729004.000000 0 0 1
31.201035 -14.741119 29.357925 45.306654 -0.441371 0.865864 0.056380 -0.005303 -132107.000000 0 0 1
31.718165 -14.806519 30.807475 46.630200 -0.436749 0.849077 0.058473 -0.021700 -399880.000000 0 0 1
32.019345 -13.488519 31.291825 46.758496 -0.398700 0.837635 0.054987 -0.019605 -11945.800000 0 0 1
32.036075 -13.472819 32.726570 47.737358 -0.398097 0.815431 0.043928 -0.018929 -495882.000000 0 0 1
32.551845 -12.120119 33.159402 48.021514 -0.356430 0.808601 0.060995 -0.015483 -187503.000000 0 0 1
32.424845 -11.909819 -33.322518 47.995881 -0.352008 2.338214 0.037984 -0.030220 87239.300000 0 0 1
32.688555 -10.540019 -33.048868 47.664046 -0.311913 2.336953 0.035920 -0.018503 -180827.000000 0 0 1
32.281405 -10.174619 -31.594638 46.301545 -0.305329 2.321792 0.047945 -0.023029 209417.000000 0 0 1
30.882345 -10.205819 -31.392708 45.203762 -0.319175 2.338481 0.075334 -0.024987 137439.000000 0 0 1
30.635815 -9.879419 -30.030818 44.022791 -0.311950 2.321516 0.066378 -0.021348 -526260.000000 0 0 1
29.150325 -9.615419 -29.767498 42.758644 -0.318618 2.340852 0.070566 -0.009642 -322819.000000 0 0 1
28.738625 -9.508019 -28.440528 41.535221 -0.319509 2.325033 0.068239 -0.020793 -42465.800000 0 0 1
27.957625 -10.599319 -28.084428 41.020842 -0.362379 2.324903 0.108356 -0.023066 -793783.000000 0 0 1
27.432625 -10.453919 -26.608778 39.621464 -0.364087 2.307129 0.101234 -0.019440 40581.600000 0 0 1
26.441525 -9.449819 -26.342848 38.501934 -0.343239 2.324296 0.091347 -0.025458 1325430.000000 0 0 1
25.138325 -9.489819 -26.952288 38.058085 -0.360964 2.357725 0.089563 -0.026011 866218.000000 0 0 1
24.233325 -10.687519 -26.565678 37.512829 -0.415366 2.357707 0.094957 -0.020712 -718713.000000 0 0 1
24.604725 -11.926819 -27.181458 38.554807 -0.451363 2.353231 0.092426 -0.019715 639638.000000 0 0 1
23.600125 -12.923019 -26.925848 38.065359 -0.500985 2.356550 0.092577 -0.028181 675857.000000 0 0 1
24.140425 -14.245819 -27.487638 39.259059 -0.533125 2.346418 0.097415 -0.008835 271336.000000 0 0 1
24.275925 -14.258619 -28.905788 40.350630 -0.531071 2.369375 0.095677 -0.022004 969318.000000 0 0 1
25.502125 -14.845819 -29.398808 41.653891 -0.527184 2.354331 0.082483 -0.021540 497378.000000 0 0 1
25.528325 -14.769519 -30.942748 42.746786 -0.524501 2.380179 0.082706 -0.025114 -14067.000000 0 0 1
24.480725 -15.483119 -31.567158 42.842949 -0.563947 2.399138 0.092059 -0.018677 222231.000000 0 0 1
24.832425 -15.791119 -32.932278 44.164960 -0.566404 2.412329 0.087086 -0.019667 7902.430000 0 0 1
24.944925 -14.548319 -33.884108 44.520059 -0.527988 2.435800 0.046377 -0.009279 -193584.000000 0 0 1
23.839125 -13.676319 33.867245 43.615775 -0.520851 0.681719 0.064195 -0.013103 -285725.000000 0 0 1
24.041525 -12.644919 32.880002 42.649542 -0.484201 0.690489 0.037960 -0.002639 104408.000000 0 0 1
23.099625 -11.343819 32.919870 41.785077 -0.456488 0.663506 0.054060 -0.008916 647602.000000 0 0 1
21.733025 -11.442019 32.610055 40.824746 -0.484607 0.645529 0.046820 -0.005634 -95202.200000 0 0 1
21.409825 -11.874519 31.310695 39.745999 -0.506391 0.663616 0.044222 -0.000200 537515.000000 0 0 1
19.841225 -12.092219 31.231435 38.926835 -0.547338 0.639639 0.054861 -0.002020 1325550.000000 0 0 1
19.070325 -10.949119 31.516435 38.429757 -0.521191 0.609202 0.061907 -0.013225 -965038.000000 0 0 1
17.991525 -11.213619 32.315251 38.648618 -0.557356 0.580608 0.050855 -0.004173 -1022590.000000 0 0 1
17.220825 -10.000119 32.707606 38.292907 -0.526107 0.546896 0.062457 -0.007871 -954500.000000 0 0 1
16.560925 -9.390019 31.562775 36.859808 -0.515800 0.542748 0.096880 -0.017077 -434911.000000 0 0 1
15.645325 -8.417719 31.848322 36.468477 -0.493610 0.508838 0.107726 -0.016539 831544.000000 0 0 1
14.390225 -8.792519 32.770015 36.854590 -0.548473 0.475267 0.121422 -0.018438 -230650.000000 0 0 1
13.529925 -9.741919 32.171893 36.235267 -0.624041 0.478120 0.115911 -0.021216 -120184.000000 0 0 1
12.356425 -9.995719 32.906866 36.543911 -0.680174 0.449937 0.110114 -0.019156 744890.000000 0 0 1
11.121825 -9.078119 32.563745 35.587986 -0.684567 0.415237 0.127377 -0.019987 200765.000000 0 0 1
11.337625 -7.713219 32.938726 35.679057 -0.597396 0.394484 0.125705 -0.019821 567609.000000 0 0 1
10.176725 -6.974219 32.544245 34.804215 -0.600799 0.362351 0.133842 -0.014825 506935.000000 0 0 1
10.433625 -5.516719 32.236487 34.329081 -0.486378 0.350960 0.118289 -0.014908 -2522.220000 0 0 1
10.633425 -4.708319 33.411685 35.377658 -0.416838 0.334943 0.104714 -0.022061 239802.000000 0 0 1
10.979225 -3.388419 33.002484 34.945511 -0.299347 0.335036 0.064510 -0.014357 -125822.000000 0 0 1
10.961525 -2.372219 -33.697308 35.514659 -0.213127 2.820300 0.064987 -0.016598 555547.000000 0 0 1
9.610425 -2.131519 -33.284768 34.709933 -0.218259 2.854040 0.062282 -0.009722 640429.000000 0 0 1
9.686725 -1.333619 -32.154968 33.608825 -0.136815 2.846385 0.067750 -0.011740 56559.900000 0 0 1
8.302025 -0.907419 -31.624658 32.708807 -0.108869 2.883406 0.081557 -0.009937 274294.000000 0 0 1
7.548425 -0.121619 -32.554928 33.418810 -0.016110 2.913723 0.059961 -0.008613 -371784.000000 0 0 1
6.202125 -0.085819 -32.206308 32.798171 -0.013836 2.951329 0.074996 -0.014452 -192007.000000 0 0 1
5.291925 0.886081 -33.057968 33.490579 0.165901 2.980687 0.098567 -0.017766 235794.000000 0 0 1
5.568225 2.243881 -32.917538 33.460491 0.383072 2.961200 0.083427 -0.018024 80341.300000 0 0 1
4.986625 3.005281 33.891885 34.388342 0.542379 0.170127 0.090104 -0.021081 148263.000000 0 0 1
5.824325 4.291481 33.689325 34.457368 0.635013 0.211532 0.084267 -0.023321 -197861.000000 0 0 1
5.331925 5.174581 32.736016 33.568624 0.770423 0.223188 0.097843 -0.033142 -397001.000000 0 0 1
6.146025 6.305581 32.591727 33.760253 0.798212 0.263871 0.092011 -0.038181 -191135.000000 0 0 1
5.615325 7.451881 31.650335 32.997063 0.925031 0.286685 0.105265 -0.039900 714126.000000 0 0 1
4.332725 7.936181 32.118424 33.366880 1.071071 0.274415 0.116797 -0.043938 798428.000000 0 0 1
3.957225 9.221681 31.687505 33.238487 1.165440 0.306691 0.126852 -0.046556 63261.700000 0 0 1
3.657425 9.381581 30.150405 31.787384 1.199069 0.322323 0.111457 -0.039287 467101.000000 0 0 1
2.573825 8.507581 29.753325 31.052599 1.277017 0.290297 0.122329 -0.044045 438945.000000 0 0 1
2.318225 8.778581 28.372715 29.790076 1.312613 0.309711 0.092672 -0.032989 726350.000000 0 0 1
1.031225 8.060681 27.814505 28.977314 1.443555 0.284252 0.096574 -0.027742 245855.000000 0 0 1
-0.165775 8.554981 28.335475 29.599229 -1.551421 0.293267 0.099400 -0.025138 -652342.000000 0 0 1
-1.213875 8.128081 27.461685 28.665020 -1.422549 0.290779 0.093500 -0.019347 -147656.000000 0 0 1
-2.586375 8.363881 28.063385 29.397235 -1.270892 0.302393 0.087922 -0.020901 -565682.000000 0 0 1
-2.848775 9.730581 28.389435 30.145643 -1.285990 0.343022 0.095526 -0.020883 -13893.000000 0 0 1
-4.223475 9.949681 28.655265 30.626102 -1.169363 0.360704 0.074727 -0.005646 76079.500000 0 0 1
-4.603275 11.217281 29.490615 31.885952 -1.181379 0.390082 0.076196 -0.004202 -172676.000000 0 0 1
-4.542275 12.431381 28.737685 31.638996 -1.220479 0.431595 0.064894 -0.014913 943701.000000 0 0 1
-5.685075 12.628181 27.866295 31.117864 -1.147785 0.461225 0.055776 -0.017625 681165.000000 0 0 1
-6.031675 14.083981 27.533395 31.509165 -1.166164 0.507789 0.043751 -0.014109 246111.000000 0 0 1
-4.978375 14.563481 26.707305 30.824655 -1.241410 0.522796 0.035889 -0.013157 181599.000000 0 0 1
-5.112475 15.912881 26.423795 31.266182 -1.259934 0.564000 0.037746 -0.010382 10661.800000 0 0 1
-3.942875 16.569181 25.655475 30.794276 -1.337177 0.586063 0.056897 -0.018429 -25631.600000 0 0 1
-3.872275 16.087181 24.317675 29.413284 -1.334584 0.597476 0.042957 -0.004861 -119016.000000 0 0 1
-3.145775 16.982081 23.501515 29.165188 -1.387632 0.633759 0.057139 -0.007067 67025.600000 0 0 1
-3.095575 16.544281 21.963835 27.671391 -1.385827 0.653866 0.063325 -0.011207 -329514.000000 0 0 1
-2.256275 15.447981 21.675735 26.712701 -1.425765 0.624186 0.040514 -0.011081 -123025.000000 0 0 1
-2.308075 15.107581 20.341435 25.442882 -1.419193 0.644344 0.046755 -0.018788 -146153.000000 0 0 1
-1.313475 14.046681 19.892235 24.387200 -1.477560 0.616887 0.043502 -0.015014 -563878.000000 0 1 0
-1.800175 12.780181 19.917435 23.733476 -1.430860 0.574962 0.044050 -0.012063 -120382.000000 0 1 0
-0.906775 11.930081 19.239935 22.656659 -1.494935 0.556336 0.047675 -0.009729 -56257.400000 0 1 0
-1.610975 10.582881 18.961835 21.774844 -1.419731 0.513941 0.020266 -0.017409 -420650.000000 0 1 0
-1.811875 9.719081 20.089235 22.390195 -1.386488 0.457332 0.033959 -0.026112 77339.800000 0 1 0
-2.620375 10.090081 21.220735 23.643090 -1.316711 0.456627 0.049525 -0.020299 -283425.000000 0 1 0
-4.121775 10.134081 20.904735 23.594419 -1.184507 0.482143 0.042428 -0.018545 -647202.000000 0 1 0
-4.794675 8.899781 20.896135 23.213003 -1.076638 0.450589 0.054841 -0.023370 -755591.000000 0 1 0
-6.158275 9.142781 20.685835 23.439680 -0.978032 0.489616 0.054425 -0.023237 -172168.000000 0 1 0
-6.955375 7.811881 20.605535 23.108242 -0.843334 0.469717 0.052610 -0.025970 -211851.000000 0 1 0
-7.064275 7.253381 21.872935 24.102714 -0.798605 0.433530 0.064992 -0.032758 -11328.400000 0 1 0
-7.927775 6.144881 21.747835 23.949479 -0.659377 0.432141 0.055996 -0.030911 171164.000000 0 1 0
-7.987675 5.271781 23.037075 24.945971 -0.583366 0.393745 0.055567 -0.033166 -5138.460000 0 1 0
-8.669575 5.823481 24.145865 26.307742 -0.591489 0.408233 0.041218 -0.020404 -75021.400000 0 0 1
-8.766675 4.911581 25.232885 27.160205 -0.510683 0.378990 0.036467 -0.006382 347448.000000 0 0 1
-9.904175 5.224581 26.269305 28.556354 -0.485415 0.402943 0.032967 -0.001837 325074.000000 0 0 1
-9.598375 6.388081 27.065855 29.419329 -0.587221 0.402710 0.039550 -0.000352 -294502.000000 0 0 1
-10.674975 6.677181 27.887975 30.598677 -0.558958 0.424096 0.047996 -0.003951 -162744.000000 0 0 1
-10.253575 7.828881 28.825455 31.580596 -0.652102 0.420810 0.052164 -0.008123 632897.000000 0 0 1
-9.175775 7.601281 29.742715 32.040653 -0.691824 0.381034 0.054507 -0.010139 548997.000000 0 0 1
-8.728675 8.775981 30.375585 32.800668 -0.788101 0.386945 0.054098 -0.012509 518357.000000 0 0 1
-7.659475 8.573981 31.502555 33.534933 -0.841673 0.349934 0.067753 -0.014029 626800.000000 0 0 1
-6.387975 8.082981 31.132255 32.792654 -0.901998 0.319582 0.063001 -0.013555 -196658.000000 0 0 1
-5.637475 7.821081 32.301686 33.709782 -0.946243 0.290052 0.100499 -0.014179 1777440.000000 0 0 1
-4.072775 7.582581 32.076061 33.210793 -1.077894 0.262160 0.083934 -0.016596 1919730.000000 0 0 1
-3.315375 8.753681 31.704725 33.057651 -1.208750 0.287084 0.074977 -0.023032 428661.000000 0 0 1
-1.943475 8.336081 31.659155 32.795876 -1.341748 0.264055 0.093537 -0.033935 787257.000000 0 0 1
-0.933375 9.475981 31.359005 32.772742 -1.472614 0.294793 0.109255 -0.034245 158445.000000 0 0 1
-1.171275 10.607581 32.193708 33.916479 -1.460823 0.320095 0.106263 -0.042906 97464.500000 0 0 1
-1.461275 11.694681 31.367665 33.508676 -1.446488 0.359406 0.086891 -0.028842 -228313.000000 0 0 1
-1.651275 13.042081 32.152205 34.735960 -1.444855 0.388133 0.090334 -0.045717 798324.000000 0 0 1
-0.470175 13.472881 32.877951 35.534480 -1.535913 0.389126 0.121997 -0.040574 493874.000000 0 0 1
-0.767675 14.561481 33.755229 36.770118 -1.518126 0.407771 0.125081 -0.035754 -8665.010000 0 0 1
0.377525 15.093481 -33.233088 36.501971 1.545789 2.715158 0.098358 -0.033011 -19977.300000 0 0 1
1.402025 15.815181 -33.901048 37.434833 1.482377 2.703593 0.098169 -0.029507 -141448.000000 0 0 1
2.422325 16.098681 -32.989088 36.787432 1.421449 2.683164 0.109301 -0.027075 -30774.500000 0 0 1
3.601525 16.798381 -33.745798 37.867341 1.359596 2.670688 0.109399 -0.022768 132867.000000 0 0 1
3.353525 18.162581 33.809976 38.525835 1.388213 0.499980 0.086465 -0.014842 32057.500000 0 0 1
4.454925 18.735981 33.141196 38.330435 1.337357 0.526406 0.063861 0.000370 126435.000000 0 0 1
4.256125 20.281781 33.080225 39.035453 1.363948 0.559651 0.064669 -0.014441 -10497.600000 0 0 1
4.397625 21.002181 -33.558188 39.831931 1.364389 2.572694 0.084336 -0.029125 -770.336000 0 0 1
4.085125 22.306981 -33.795168 40.698932 1.389671 2.550568 0.074928 -0.026625 1854.560000 0 0 1
4.166725 23.134581 -32.428448 40.052150 1.392599 2.514361 0.096185 -0.027937 -64998.800000 0 0 1
3.672325 24.445381 -32.419078 40.768361 1.421686 2.490137 0.092704 -0.032172 111427.000000 0 0 1
3.615025 24.932081 -31.108098 40.029875 1.426805 2.460876 0.108717 -0.036659 -104291.000000 0 0 1
3.081425 26.378781 -30.843678 40.702184 1.454509 2.430715 0.105517 -0.046252 -302678.000000 0 0 1
4.023225 27.383281 -30.976338 41.539908 1.424917 2.412382 0.098797 -0.045287 -145409.000000 0 0 1
3.461325 28.604781 -30.478988 41.942616 1.450377 2.384278 0.092867 -0.044516 -167379.000000 0 0 1
4.507525 29.701881 -30.229988 42.618913 1.420187 2.359314 0.105317 -0.046180 121879.000000 0 0 1
5.318225 29.394881 -29.105208 41.706783 1.391809 2.343192 0.092473 -0.050263 238245.000000 0 0 1
6.072525 30.538581 -28.622428 42.293308 1.374509 2.314149 0.091784 -0.052149 132532.000000 0 0 1
7.227325 30.102181 -27.651618 41.508885 1.335163 2.299846 0.087349 -0.049719 538887.000000 0 0 1
8.351625 29.449781 -28.259158 41.660764 1.294463 2.316264 0.086236 -0.045833 1255100.000000 0 0 1
9.504225 30.307881 -28.480198 42.661688 1.266919 2.301753 0.090704 -0.044202 546147.000000 0 0 1
9.499125 31.558581 -29.386078 44.155623 1.278423 2.298975 0.112851 -0.051641 -721134.000000 0 0 1
8.674225 32.528481 -28.702458 44.239975 1.310195 2.276790 0.097389 -0.046968 474643.000000 0 0 1
8.359325 33.714581 -29.412678 45.515458 1.327754 2.273408 0.090784 -0.040059 -104926.000000 0 0 1
7.164925 33.675781 -30.402238 45.931367 1.361160 2.294155 0.081382 -0.030787 -255989.000000 0 0 1
7.307725 32.895081 -31.531608 46.149014 1.352194 2.323009 0.077077 -0.031590 436287.000000 0 0 1
6.145525 32.796181 -32.368788 46.487584 1.385559 2.341010 0.083428 -0.030686 308904.000000 0 0 1
6.364425 31.963081 -33.635028 46.834385 1.374249 2.371965 0.091742 -0.038538 -90764.800000 0 0 1
7.229625 32.611581 33.350166 47.201868 1.352636 0.786195 0.109201 -0.041879 30072.700000 0 0 1
7.070925 32.053981 32.044600 45.872782 1.353679 0.797422 0.108690 -0.039065 -190955.000000 0 0 1
6.282025 32.734181 30.914855 45.461179 1.381191 0.822996 0.103725 -0.043673 154741.000000 0 0 1
7.030025 33.797681 30.347315 45.963726 1.365717 0.849652 0.108944 -0.040668 283179.000000 0 0 1
6.385825 -33.541802 29.225335 44.943870 -1.382664 0.862866 0.089481 -0.048828 -151509.000000 0 0 1
18.352349 -21.814219 29.092515 40.731355 -0.871374 0.775239 0.093912 -0.008927 -787155.000000 0 0 1
17.509749 -20.792119 29.494865 40.110480 -0.870887 0.744627 0.099294 -0.009482 997830.000000 0 0 1
16.149249 -21.308619 29.612045 39.896475 -0.922275 0.734416 0.104555 -0.009204 1196680.000000 0 0 1
15.693249 -21.869019 30.989285 41.047142 -0.948354 0.715191 0.098331 -0.017531 -712004.000000 0 0 1
16.119749 -23.150719 31.379585 42.195740 -0.962561 0.732257 0.129862 -0.025567 45599.700000 0 0 1
16.020149 -23.388919 32.780597 43.338830 -0.970245 0.713036 0.109970 -0.034464 -326.775000 0 0 1
17.211449 -24.174719 33.359629 44.648806 -0.952088 0.727023 0.098285 -0.035680 -234406.000000 0 0 1
17.150049 -25.542859 33.015187 45.128311 -0.979508 0.750153 0.118618 -0.035527 405993.000000 0 0 1
18.062349 -26.353319 33.788428 46.501653 -0.969942 0.757426 0.121431 -0.041857 314706.000000 0 0 1
17.671249 -27.861349 33.727610 47.181347 -1.005568 0.774386 0.117646 -0.031606 137014.000000 0 0 1
18.257249 -28.521609 32.639459 47.033431 -1.001398 0.803818 0.111364 -0.034025 80376.300000 0 0 1
17.515349 -29.672039 32.337559 47.253942 -1.037541 0.817104 0.111983 -0.041178 162497.000000 0 0 1
18.130949 -30.528849 31.169425 47.246957 -1.034877 0.850360 0.110599 -0.035677 31645.600000 0 0 1
19.358049 -31.111199 31.545995 48.350704 -1.014198 0.859995 0.115453 -0.038078 11412.000000 0 0 1
20.014849 -31.483619 30.326705 48.078285 -1.004523 0.888241 0.085911 -0.030783 216925.000000 0 0 1
21.491049 -31.978819 30.349815 49.047134 -0.979083 0.903596 0.082499 -0.027480 265195.000000 0 0 1
22.453449 -31.040379 30.752005 49.125842 -0.944562 0.894403 0.079242 -0.028625 149288.000000 0 0 1
23.747549 -31.538989 30.425865 49.843627 -0.925404 0.914198 0.063873 -0.023543 174606.000000 0 0 1
24.833049 -30.457189 30.678145 49.854481 -0.886770 0.907962 0.057555 -0.022259 -344247.000000 0 0 1
25.916849 -30.631279 29.822995 49.993693 -0.868576 0.931619 0.057698 -0.019545 -291307.000000 0 0 1
26.720749 -29.447689 29.718425 49.642216 -0.833909 0.928979 0.054842 -0.013603 511000.000000 0 0 1
27.926449 -29.514749 28.748205 49.774153 -0.813042 0.955044 0.050570 -0.015814 412847.000000 0 0 1
29.034049 -30.264519 29.225365 51.117894 -0.806146 0.962190 0.037356 -0.015604 501778.000000 0 0 1
30.030149 -30.462689 28.218125 51.244979 -0.792548 0.987652 0.032828 -0.022859 224268.000000 0 0 1
31.088649 -31.488689 28.600025 52.687789 -0.791791 0.997004 0.024967 -0.025721 -94705.100000 0 0 1
30.518249 -32.802429 28.644865 53.177920 -0.821456 1.001949 0.015348 -0.020502 1178680.000000 0 0 1
31.498749 -33.768929 29.105365 54.586024 -0.820167 1.008416 0.022154 -0.013952 414852.000000 0 0 1
30.657749 32.914919 29.597325 53.845066 0.820889 0.988820 0.009978 -0.014472 252193.000000 0 0 1
30.032749 32.942071 30.940285 54.262762 0.831564 0.964055 0.017900 -0.015487 326487.000000 0 0 1
28.993849 33.843778 31.160485 54.378493 0.862427 0.960599 0.016434 -0.011412 -49469.400000 0 0 1
27.652249 33.729256 30.388905 53.158209 0.884080 0.962258 0.031982 -0.016789 65709.800000 0 0 1
27.031349 32.447443 30.523935 52.107975 0.876207 0.944951 0.039922 -0.013055 1302870.000000 0 0 1
25.624249 32.511039 30.157155 51.215465 0.903310 0.941187 0.051507 -0.018386 1658630.000000 0 0 1
24.951049 31.106505 30.057535 49.936209 0.894766 0.924895 0.064642 -0.026391 -5378.700000 0 0 1
25.225249 30.355635 28.904855 48.921043 0.877442 0.938688 0.076046 -0.033897 -133001.000000 0 0 1
24.573749 29.127505 28.886585 47.819614 0.869994 0.922193 0.097521 -0.047349 -610939.000000 0 0 1
24.207349 28.778195 27.409035 46.534240 0.871451 0.940966 0.105327 -0.044244 551912.000000 0 0 1
23.025849 29.502275 26.998245 46.146281 0.908073 0.945845 0.124791 -0.045641 284499.000000 0 0 1
22.117249 28.741135 26.261855 44.776228 0.914911 0.944049 0.134015 -0.040795 451850.000000 0 0 1
20.785649 29.590005 26.215285 44.663775 0.958425 0.943513 0.109161 -0.040200 475301.000000 0 0 1
20.750849 30.740135 25.433005 44.971006 0.977019 0.969706 0.125117 -0.048167 -105130.000000 0 0 1
19.395049 31.128595 25.333465 44.575126 1.013592 0.966319 0.095241 -0.035837 -161459.000000 0 0 1
19.208949 32.622044 24.931765 45.329620 1.038628 0.988420 0.099556 -0.030977 -591290.000000 0 0 1
19.605149 33.065841 23.655225 45.136254 1.035605 1.019156 0.096390 -0.032524 345376.000000 0 0 1
20.980849 33.404391 23.560215 45.947069 1.009981 1.032390 0.105859 -0.031928 369723.000000 0 0 1
21.556749 33.698944 22.104135 45.704541 1.001706 1.065998 0.109511 -0.035473 189834.000000 0 0 1
21.065849 -32.996849 21.457435 44.642844 -1.002605 1.069404 0.080416 -0.023319 145990.000000 0 0 1
21.792249 -32.796449 20.273835 44.289249 -0.984316 1.095323 0.093849 -0.023585 -53970.000000 0 0 1
21.654149 -31.445689 19.562735 42.900281 -0.967748 1.097295 0.096205 -0.019093 -217869.000000 0 0 1
22.084049 -30.323849 20.296835 42.652111 -0.941346 1.074844 0.097799 -0.016459 146311.000000 0 0 1
21.743449 -29.094869 19.645335 41.294408 -0.929007 1.074993 0.094860 -0.021219 -217565.000000 0 0 1
22.509949 -28.732509 18.318235 40.838861 -0.906240 1.105655 0.075622 -0.019824 -264506.000000 0 0 1
22.232849 -29.522119 17.183135 40.756781 -0.925320 1.135585 0.062049 -0.020582 234057.000000 0 0 1
22.965849 -29.105459 16.048335 40.399344 -0.902764 1.162286 0.053846 -0.016963 -330770.000000 0 0 1
22.455949 -29.757999 14.798235 40.109798 -0.924346 1.192925 0.045205 -0.020759 -325369.000000 0 0 1
23.125949 -30.938009 14.493435 41.255661 -0.928902 1.211829 0.057899 -0.020024 -189375.000000 0 0 1
23.243949 -31.300629 13.115235 41.134170 -0.932046 1.246291 0.062764 -0.020031 56627.400000 0 0 1
21.931849 -31.448899 12.279835 40.259578 -0.961831 1.260841 0.055877 -0.021629 -71451.200000 0 0 1
21.161449 -32.509079 12.705635 40.817647 -0.993761 1.254259 0.060098 -0.022669 -770623.000000 0 0 1
20.031149 -32.749389 11.919435 40.197541 -1.021855 1.269748 0.066179 -0.014028 -295142.000000 0 0 1
18.976449 -33.592209 12.654235 40.603839 -1.056581 1.253866 0.066522 -0.014454 -131353.000000 0 0 1
18.564449 -32.835619 13.850135 40.182619 -1.056225 1.218899 0.059288 -0.009982 429498.000000 0 0 1
19.233649 -33.295159 15.030935 41.284741 -1.046957 1.198152 0.055461 -0.015061 -952341.000000 0 0 1
19.231149 -32.311379 16.257535 40.965470 -1.033927 1.162704 0.054588 -0.016651 303807.000000 0 0 1
17.955749 -31.882159 16.724435 40.231675 -1.057882 1.142081 0.052036 -0.019558 949252.000000 0 0 1
16.955249 -32.873389 17.057835 40.732173 -1.094609 1.138694 0.050979 -0.013928 -378656.000000 0 0 1
17.084149 -33.577099 18.430735 41.940216 -1.100131 1.115807 0.037486 -0.017557 -440398.000000 0 0 1
18.105749 33.309110 18.353835 42.120995 1.072905 1.119935 0.034695 -0.011499 136452.000000 0 0 1
18.286949 32.625802 19.577535 42.215345 1.059923 1.088569 0.034046 -0.017572 -225937.000000 0 0 1
19.117749 31.381455 19.491535 41.595721 1.023636 1.083097 0.052613 -0.017510 -764398.000000 0 0 1
18.347849 30.279085 19.136435 40.245120 1.026008 1.075267 0.034004 -0.019415 -246716.000000 0 0 1
19.169149 29.229275 18.670135 39.628030 0.990340 1.080220 0.044211 -0.022279 -60805.300000 0 0 1
18.509949 27.834065 18.582035 38.244548 0.983941 1.063433 0.048519 -0.020656 -1573.750000 0 0 1
18.278949 27.172675 19.813335 38.275874 0.978631 1.026700 0.055522 -0.030004 -15071.000000 0 0 1
17.950949 25.834045 19.539835 37.032953 0.963531 1.014984 0.059645 -0.032346 -1190310.000000 0 0 1
17.795449 25.009955 20.833735 37.097445 0.952371 0.974484 0.074493 -0.026709 -146512.000000 0 0 1
16.513349 25.053665 21.405835 36.859010 0.988037 0.951148 0.077138 -0.024013 229041.000000 0 0 1
15.514349 24.399395 20.608035 35.506572 1.004433 0.951576 0.069009 -0.029311 -768640.000000 0 0 1
14.081649 24.497035 21.137535 35.287292 1.049089 0.928529 0.092966 -0.039929 -593674.000000 0 0 1
13.491949 25.737445 20.849135 35.765000 1.087965 0.948444 0.078576 -0.039918 -644170.000000 0 0 1
12.251149 25.679905 21.520135 35.674422 1.125659 0.923243 0.079796 -0.045014 -733830.000000 0 0 1
11.374249 26.682745 20.797135 35.691221 1.167844 0.948754 0.064815 -0.036444 -711042.000000 0 0 1
11.793749 28.034445 21.022135 36.972325 1.172584 0.966004 0.053668 -0.035862 -118186.000000 0 0 1
11.154949 28.916745 20.159335 36.973096 1.202625 0.994117 0.060544 -0.038887 -121903.000000 0 0 1
11.681649 30.394935 20.336735 38.391351 1.203872 1.012524 0.050236 -0.038509 3864.530000 0 0 1
11.220149 31.194105 21.407135 39.461746 1.225517 0.997412 0.059105 -0.034068 -431114.000000 0 0 1
11.789749 30.814265 22.601235 39.991661 1.205373 0.970183 0.049106 -0.024436 -212901.000000 0 0 1
11.329949 31.803895 23.697675 41.248458 1.228570 0.958790 0.055753 -0.023708 409239.000000 0 0 1
9.936849 31.740805 23.933665 40.976091 1.267399 0.947040 0.062698 -0.034338 -170484.000000 0 0 1
9.779349 32.309174 25.199005 42.124913 1.276882 0.929547 0.057172 -0.028967 -785026.000000 0 0 1
8.407049 32.169407 25.844855 42.113012 1.315177 0.910055 0.125695 -0.051413 -831095.000000 0 0 1
7.390049 33.056030 25.379875 42.325548 1.350852 0.927752 0.116472 -0.051205 550148.000000 0 0 1
6.542949 32.648064 24.327415 41.237476 1.373008 0.939818 0.114318 -0.056882 -218340.000000 0 0 1
5.817549 31.309535 24.335895 40.079504 1.387084 0.918276 0.112349 -0.057370 -763062.000000 0 0 1
6.633149 30.156995 24.438275 39.378577 1.354290 0.901291 0.085249 -0.048388 -446655.000000 0 0 1
5.831549 28.985155 24.357685 38.307219 1.372256 0.881686 0.077116 -0.046425 -39864.800000 0 0 1
6.697149 27.641755 24.422415 37.488302 1.333093 0.861279 0.082264 -0.041713 -197210.000000 0 0 1
7.564649 27.496155 23.322445 36.840181 1.302322 0.885282 0.078484 -0.043662 756119.000000 0 0 1
8.741149 28.317995 23.267425 37.678769 1.271397 0.905209 0.089416 -0.044821 -148984.000000 0 0 1
9.933749 27.952845 24.158375 38.257914 1.229341 0.887361 0.083336 -0.050436 -1048150.000000 0 0 1
9.620649 28.105495 25.521395 39.163980 1.240993 0.861032 0.085324 -0.044158 669908.000000 0 0 1
10.715849 27.745945 26.403355 39.771900 1.202231 0.844815 0.088845 -0.023317 928357.000000 0 0 1
11.814149 28.848935 26.464985 40.892917 1.182112 0.866920 0.066476 -0.027537 -162640.000000 0 0 1
11.495049 29.948215 27.299455 42.122346 1.204306 0.865711 0.075494 -0.036754 756143.000000 0 0 1
12.657749 30.774305 27.478065 43.154612 1.180579 0.880539 0.068997 -0.024126 578533.000000 0 0 1
12.375349 31.912980 28.464645 44.517677 1.200865 0.877077 0.064870 -0.031564 -238640.000000 0 0 1
12.211449 31.462125 29.789865 45.015785 1.200563 0.847626 0.069157 -0.051345 332921.000000 0 0 1
10.891949 31.657895 30.289105 45.147390 1.239431 0.835383 0.103125 -0.044826 142536.000000 0 0 1
10.767949 31.455075 31.874661 46.058273 1.240973 0.806470 0.130599 -0.048250 -367375.000000 0 0 1
10.919949 30.119655 32.241085 45.452464 1.222983 0.782240 0.122513 -0.048235 250632.000000 0 0 1
11.026049 29.980445 33.610698 46.368954 1.218375 0.759975 0.139981 -0.044024 -136791.000000 0 0 1
11.230949 28.517295 -33.792818 45.621540 1.195621 2.404939 0.131541 -0.045332 -625354.000000 0 0 1
12.416349 27.875955 33.737070 45.490928 1.151762 0.735311 0.136689 -0.036415 -370260.000000 0 0 1
12.302649 26.519085 -33.721798 44.629326 1.136430 2.427362 0.137748 -0.041169 446340.000000 0 0 1
13.633749 25.737445 33.902485 44.695343 1.083653 0.709751 0.141395 -0.039077 478793.000000 0 0 1
13.605849 24.400995 -33.668818 43.750623 1.062141 2.448951 0.119498 -0.038448 -83827.900000 0 0 1
13.822049 23.978805 -32.335328 42.562960 1.047890 2.433657 0.123319 -0.037190 -86792.700000 0 0 1
13.905049 22.452365 -32.283918 41.709836 1.016297 2.455950 0.103303 -0.045969 -82945.000000 0 0 1
15.148949 21.949965 -32.717838 42.210763 0.966706 2.457680 0.107239 -0.032794 35549.600000 0 0 1
15.232549 20.474765 -32.516378 41.334748 0.931168 2.476176 0.107405 -0.024560 44553.400000 0 0 1
16.600149 19.910565 -32.960358 41.933051 0.875821 2.475146 0.131691 -0.037262 131302.000000 0 0 1
17.650049 20.377965 -32.144398 41.952926 0.857010 2.443705 0.099416 -0.037941 -986380.000000 0 0 1
18.874249 19.930065 -32.601898 42.618406 0.812600 2.441795 0.105351 -0.033466 -854705.000000 0 0 1
19.991549 20.188565 -31.576868 42.477509 0.790301 2.408904 0.076311 -0.026688 -227324.000000 0 0 1
20.404049 21.552765 -31.654808 43.392093 0.812770 2.388396 0.061313 -0.032742 275125.000000 0 0 1
21.505749 21.876965 -30.817978 43.483866 0.793955 2.358482 0.043585 -0.018889 597115.000000 0 0 1
20.972649 22.280065 -29.400348 42.433875 0.815616 2.336232 0.045362 -0.024250 168878.000000 0 0 1
20.146649 23.404845 -29.364088 42.613659 0.860072 2.331011 0.038346 -0.009255 62803.100000 0 0 1
19.720349 23.945895 -28.115118 41.865952 0.881867 2.307096 0.043668 0.000182 733697.000000 0 0 1
20.919349 24.690475 -27.404928 42.406000 0.867893 2.273458 0.044723 -0.010642 761554.000000 0 0 1
21.528149 25.773785 -28.140428 43.813615 0.874914 2.268260 0.033920 0.003261 -46939.500000 0 0 1
20.759249 26.936065 -28.354028 44.276957 0.914187 2.265788 0.043804 0.000647 -708090.000000 0 0 1
21.601249 27.912405 -29.199098 45.807244 0.912177 2.261960 0.036350 0.001510 -259853.000000 0 0 1
21.748049 27.612755 -30.612108 46.610546 0.903657 2.287315 0.045241 -0.001336 357953.000000 0 0 1
22.471049 26.417825 -30.932298 46.472106 0.865953 2.299107 0.048788 -0.002117 -11992.700000 0 0 1
23.888249 26.122105 -30.383568 46.649480 0.830036 2.280114 0.061474 -0.013038 229357.000000 0 0 1
24.858049 27.047415 -30.976968 48.052657 0.827553 2.271357 0.064158 -0.008036 12741.600000 0 0 1
26.088949 26.764635 -30.373578 48.161532 0.798182 2.253200 0.091340 -0.023053 -1015010.000000 0 0 1
27.239249 27.578325 -30.911098 49.578591 0.791584 2.243978 0.079210 -0.016494 -835391.000000 0 0 1
27.441749 28.722975 -30.097078 49.838670 0.808206 2.219169 0.053503 -0.009541 -493908.000000 0 0 1
28.599649 29.359315 -30.507448 51.094165 0.798504 2.210656 0.055137 -0.014166 -535790.000000 0 0 1
28.733849 30.651025 -29.748048 51.478790 0.817671 2.186913 0.041646 0.003275 -64624.100000 0 0 1
28.990249 30.334175 -28.397048 50.665462 0.808048 2.165763 0.067880 -0.003058 300111.000000 0 0 1
28.751949 31.483625 -27.624168 50.803424 0.830717 2.145691 0.052324 -0.003083 -600879.000000 0 0 1
29.040549 31.276065 -26.082248 50.018291 0.822444 2.119351 0.069461 -0.002081 -72506.200000 0 0 1
28.293249 30.311135 -25.380428 48.615213 0.819817 2.120070 0.041070 0.003360 -1039950.000000 0 0 1
26.946849 30.558025 -25.246378 47.930212 0.848114 2.125548 0.030455 0.008114 -1360090.000000 0 0 1
26.368849 29.845225 -24.008378 46.502214 0.847161 2.113303 0.028673 0.012889 -145851.000000 0 0 1
26.469049 30.725095 -22.873078 46.559851 0.859675 2.084334 0.058739 -0.000122 93338.100000 0 0 1
25.879449 30.173125 -21.713978 45.295256 0.861850 2.070753 0.041550 0.000850 128767.000000 0 0 1
3.437749 -26.093829 -19.482978 32.745877 -1.439805 2.208031 0.080946 -0.017049 -109560.000000 0 0 1
3.459549 -27.265719 -18.699578 33.242475 -1.444588 2.168228 0.091796 -0.013569 189778.000000 0 0 1
3.136349 -26.942199 -17.372878 32.210800 -1.454908 2.140461 0.099783 -0.019563 -200057.000000 0 0 1
3.341049 -28.030279 -16.286678 32.590106 -1.452162 2.094098 0.086405 -0.016656 722207.000000 0 0 1
4.708649 -28.331959 -15.990778 32.872119 -1.406106 2.078823 0.081964 -0.024935 460073.000000 0 0 1
4.706049 -29.412439 -15.076878 33.384887 -1.412139 2.039363 0.083052 -0.028500 847907.000000 0 0 1
6.161449 -29.956509 -14.854278 34.000080 -1.367945 2.022934 0.089728 -0.031197 420130.000000 0 0 1
6.963949 -29.039279 -14.161778 33.050450 -1.335430 2.013617 0.084565 -0.021046 -232323.000000 0 0 1
8.275849 -29.562459 -13.984178 33.734046 -1.297839 1.998236 0.081645 -0.018753 308408.000000 0 0 1
8.529949 -30.255099 -12.657078 33.887057 -1.295995 1.953584 0.075540 -0.028241 -785721.000000 0 0 1
8.807549 -29.516999 -11.504378 32.881254 -1.280818 1.928236 0.077390 -0.032748 -47431.800000 0 0 1
9.014849 -30.242919 -10.312378 33.200102 -1.281101 1.886634 0.080954 -0.027907 791273.000000 0 0 1
10.286349 -31.168329 -10.087078 34.336902 -1.252026 1.868963 0.069782 -0.026483 1061000.000000 0 0 1
11.511849 -30.464859 -9.971478 34.059663 -1.209509 1.867914 0.069319 -0.023425 411909.000000 0 0 1
12.585049 -31.306929 -9.599278 35.080670 -1.188576 1.847966 0.068319 -0.022209 253899.000000 0 0 1
13.690149 -30.783079 -8.650978 34.783006 -1.152334 1.822147 0.082352 -0.021731 356924.000000 0 0 1
14.666249 -30.023139 -9.351778 34.697889 -1.116392 1.843691 0.080477 -0.030988 115319.000000 0 0 1
15.810949 -29.773109 -8.579878 34.785606 -1.082620 1.820019 0.085514 -0.028320 103050.000000 0 0 1
16.979349 -29.057299 -9.310178 34.918538 -1.041971 1.840687 0.092563 -0.037992 130693.000000 0 0 1
16.800449 -27.668159 -9.605978 33.764729 -1.025090 1.859278 0.096795 -0.033576 95793.500000 0 0 1
15.992249 -27.465689 -10.760378 33.554460 -1.043521 1.897248 0.083745 -0.032368 10634.900000 0 0 1
15.691249 -25.941169 -10.927378 32.226807 -1.026798 1.916732 0.086352 -0.029384 -294495.000000 0 0 1
14.689349 -25.378139 -10.063078 31.001491 -1.046097 1.901385 0.075312 -0.028192 630402.000000 0 0 1
14.151349 -24.078219 -10.424578 29.810956 -1.039452 1.928036 0.067521 -0.015442 452709.000000 0 0 1
13.533449 -23.931719 -11.831978 29.931206 -1.056129 1.977197 0.049977 -0.013686 -187893.000000 0 0 1
14.461049 -23.470919 -12.812978 30.400302 -1.018604 2.005868 0.050014 -0.012129 288087.000000 0 0 1
13.793649 -23.329619 -14.070278 30.537004 -1.036835 2.049649 0.063465 -0.015516 68373.900000 0 0 1
14.683249 -22.682619 -15.122878 30.964503 -0.996297 2.081045 0.056111 -0.022404 718696.000000 0 0 1
15.816349 -23.485619 -15.537778 32.297890 -0.978113 2.072679 0.052191 -0.024305 691200.000000 0 0 1
16.558949 -22.893119 -16.566678 32.752840 -0.944593 2.101116 0.066582 -0.026778 -943148.000000 0 0 1
17.422149 -23.939719 -17.298878 34.291290 -0.941687 2.099563 0.073394 -0.017537 652190.000000 0 0 1
18.705549 -24.223219 -16.735678 34.881869 -0.913228 2.071202 0.085988 -0.019750 372786.000000 0 0 1
19.673149 -23.207519 -17.047878 34.874803 -0.867636 2.081545 0.089932 -0.020450 -764874.000000 0 0 1
21.053349 -23.645519 -16.556178 35.727596 -0.843325 2.052625 0.077790 -0.020625 -211039.000000 0 0 1
21.516349 -24.781119 -17.279978 37.089820 -0.855799 2.055443 0.085357 -0.018046 788735.000000 0 0 1
22.811449 -25.324479 -16.920378 38.052472 -0.837558 2.031590 0.097646 -0.015735 1038600.000000 0 0 1
23.430549 -26.211989 -17.959578 39.479177 -0.841369 2.043070 0.084453 -0.014023 -632825.000000 0 0 1
24.205449 -25.600489 -18.928578 39.994748 -0.813400 2.063803 0.093811 -0.016475 -327773.000000 0 0 1
24.472949 -26.511969 -19.957278 41.232301 -0.825369 2.076040 0.078876 -0.018844 -688545.000000 0 0 1
25.825849 -26.204239 -20.592578 42.162672 -0.792671 2.081061 0.080517 -0.029658 -615020.000000 0 0 1
26.025649 -25.049509 -21.398378 41.984555 -0.766289 2.105601 0.095854 -0.034301 -49111.200000 0 0 1
26.378949 -23.901519 -20.680078 41.167914 -0.736166 2.097093 0.103964 -0.025667 -442498.000000 0 0 1
25.235149 -22.827119 -20.712278 39.835770 -0.735338 2.117579 0.116916 -0.018004 303611.000000 0 0 1
24.996849 -22.164719 -21.931378 39.963766 -0.725419 2.151702 0.120397 -0.017427 316778.000000 0 0 1
24.315949 -22.982419 -22.906978 40.548571 -0.757212 2.171141 0.089065 -0.020695 -285030.000000 0 0 1
23.606149 -22.246319 -24.082478 40.399440 -0.755750 2.209443 0.081502 -0.016999 -459808.000000 0 0 1
24.425949 -21.539219 -24.935178 41.016192 -0.722678 2.224253 0.080260 -0.008994 -671925.000000 0 0 1
23.704349 -20.891119 -25.962528 40.894839 -0.722398 2.258625 0.073310 -0.007470 -538006.000000 0 0 1
24.498349 -20.025119 -26.906468 41.534715 -0.685265 2.275498 0.077220 -0.014584 -415078.000000 0 0 1
23.623749 -19.143419 -27.597768 41.063229 -0.681018 2.307810 0.068523 -0.012929 85478.900000 0 0 1
24.175449 -18.506919 -28.693068 41.835996 -0.653364 2.326562 0.079221 -0.009046 -15900.400000 0 0 1
23.141149 -17.541319 -29.383208 41.310816 -0.648610 2.362102 0.106255 -0.018446 -682703.000000 0 0 1
22.095949 -18.195219 -29.980828 41.450537 -0.688885 2.379354 0.103508 -0.020395 -520859.000000 0 0 1
21.246449 -17.255819 -30.621728 41.071463 -0.682120 2.412189 0.103231 -0.021398 584949.000000 0 0 1
19.930649 -17.841619 -31.228588 41.119081 -0.730149 2.433290 0.086789 -0.014440 388845.000000 0 0 1
20.160049 -18.533619 -32.407098 42.428087 -0.743389 2.439996 0.088120 -0.012858 -307112.000000 0 0 1
18.992849 -18.994219 -33.010428 42.558160 -0.785434 2.458548 0.097234 -0.020862 -447846.000000 0 0 1
19.263949 -19.636719 33.479215 43.330801 -0.794980 0.687803 0.106686 -0.024743 161991.000000 0 0 1
20.134649 -20.745119 33.673570 44.381003 -0.800330 0.709422 0.104560 -0.019183 277385.000000 0 0 1
20.204949 -21.554619 32.495279 43.917932 -0.817707 0.737861 0.095285 -0.020746 262318.000000 0 0 1
21.061749 -22.836619 32.810357 45.184378 -0.825807 0.758100 0.083154 -0.018778 435933.000000 0 0 1
20.470549 -23.764919 33.762065 46.083531 -0.859734 0.748622 0.099479 -0.027815 35095.400000 0 0 1
20.714249 -23.422419 -32.762278 45.288593 -0.846680 2.379527 0.108647 -0.032417 -34965.700000 0 0 1
19.908149 -24.203619 -31.672908 44.556960 -0.882469 2.361489 0.111215 -0.037114 -133024.000000 0 0 1
20.072649 -25.604509 -31.668568 45.402646 -0.905919 2.342706 0.121285 -0.048842 -164975.000000 0 0 1
21.091749 -26.113499 -30.840998 45.584469 -0.891381 2.313888 0.098337 -0.054403 -153342.000000 0 0 1
21.151749 -27.660969 -30.915358 46.564848 -0.917967 2.296846 0.096502 -0.055612 977236.000000 0 0 1
19.934449 -28.296439 -30.425088 46.084235 -0.957066 2.291889 0.102953 -0.057639 901970.000000 0 0 1
19.925649 -29.719799 -30.475498 47.000573 -0.980179 2.276286 0.101230 -0.048681 1047520.000000 0 0 1
18.490349 -30.202299 -29.972278 46.394065 -1.021442 2.273177 0.144631 -0.054515 1965750.000000 0 0 1
17.398849 -30.158349 -30.907608 46.556699 -1.047523 2.296778 0.156434 -0.060290 431923.000000 0 0 1
17.431449 -31.099869 -31.949038 47.872730 -1.059928 2.301474 0.154953 -0.053827 1104770.000000 0 0 1
15.970949 -31.690749 -32.264028 47.961884 -1.103984 2.308650 0.148968 -0.055820 1483270.000000 0 0 1
15.078449 -30.768799 -32.819538 47.446819 -1.115135 2.334653 0.157188 -0.052948 -962848.000000 0 0 1
13.946249 -31.431939 -33.256618 47.837927 -1.153197 2.339485 0.117376 -0.041233 -181951.000000 0 0 1
12.913149 -30.561789 33.819208 47.376273 -1.171023 0.775826 0.111521 -0.030262 476618.000000 0 0 1
12.298849 -29.562759 -33.223728 46.141462 -1.176552 2.374657 0.130389 -0.031136 63031.400000 0 0 1
11.593649 -28.600079 33.877505 45.826440 -1.185668 0.738830 0.105197 -0.027707 -275704.000000 0 0 1
10.678249 -27.707999 -33.185708 44.531443 -1.202952 2.411661 0.106208 -0.027673 160867.000000 0 0 1
9.505649 -28.350159 -32.717448 44.322909 -1.247282 2.401137 0.097543 -0.016344 -63751.500000 0 0 1
8.547549 -27.502889 -32.175728 43.182716 -1.269473 2.411491 0.052892 -0.009389 788258.000000 0 0 1
7.288149 -28.137879 -31.466218 42.836669 -1.317351 2.395818 0.039490 -0.003075 665708.000000 0 0 1
6.341049 -28.853439 -32.229458 43.720336 -1.354468 2.399674 0.040861 -0.004445 -132638.000000 0 0 1
6.622149 -30.181599 -32.639598 44.945802 -1.354809 2.383573 0.040952 -0.002899 -499501.000000 0 0 1
5.396349 -31.042949 -33.001048 45.627343 -1.398681 2.379327 0.063171 -0.014696 133032.000000 0 0 1
4.822849 -31.543549 -31.818088 45.062690 -1.419076 2.354750 0.070853 -0.025784 79094.100000 0 0 1
3.645949 -32.321459 -31.935818 45.583617 -1.458468 2.347032 0.096738 -0.048650 -554722.000000 0 0 1
2.816649 -32.460629 -30.673888 44.749451 -1.484242 2.326029 0.074808 -0.044187 957074.000000 0 0 1
1.708649 -31.568729 -30.403118 43.861757 -1.516724 2.336657 0.065833 -0.035784 738042.000000 0 0 1
0.579649 -31.546709 -31.222378 44.388824 -1.552424 2.350943 0.059501 -0.003528 -290366.000000 0 0 1
-0.480951 -30.534359 -30.705358 43.305859 1.555046 2.358925 0.057117 -0.001136 13880.200000 0 0 1
-1.001451 -30.698039 -29.405498 42.521239 1.538185 2.334427 0.049618 -0.014624 -106421.000000 0 0 1
-1.764451 -29.570559 -29.077028 41.509093 1.511198 2.346891 0.088517 -0.014246 -61579.200000 0 0 1
-2.486851 -29.819399 -27.697988 40.774496 1.487592 2.317600 0.087193 -0.021933 -246319.000000 0 0 1
-1.622051 -30.033999 -26.612008 40.160566 1.516842 2.295135 0.068788 -0.019850 -46667.500000 0 0 1
-2.302951 -30.174319 -25.351288 39.477600 1.494622 2.268121 0.081450 -0.021275 183549.000000 0 0 1
-1.309251 -30.553989 -24.232978 39.019195 1.527972 2.240881 0.058384 -0.025993 105400.000000 0 0 1
-1.747351 -30.367809 -22.907678 38.079112 1.513320 2.216275 0.084130 -0.032349 -65721.700000 0 0 1
-0.696851 -30.646779 -22.007578 37.736509 1.548062 2.193447 0.079786 -0.025246 239540.000000 0 0 1
-1.258351 -30.687299 -20.545378 36.951405 1.529814 2.160375 0.051696 -0.014898 333821.000000 0 0 1
-1.542351 -29.429009 -19.928378 35.575071 1.518435 2.165397 0.053630 -0.015753 -270546.000000 0 0 1
-0.388351 -28.792139 -19.461878 34.754895 1.557309 2.165152 0.071230 -0.028374 -288271.000000 0 0 1
-0.599051 -27.364849 -18.822278 33.218548 1.548909 2.173194 0.063843 -0.024877 -60222.400000 0 0 1
-1.106751 -27.466149 -17.489178 32.580448 1.530523 2.137436 0.067570 -0.025885 232715.000000 0 0 1
-0.838851 -26.279489 -16.720478 31.159101 1.538887 2.137218 0.075988 -0.022965 188191.000000 0 0 1
-1.996451 -26.074479 -15.699978 30.501698 1.494378 2.111483 0.075336 -0.021895 144234.000000 0 0 1
-1.927151 -24.840319 -14.942378 29.052194 1.493370 2.111021 0.067401 -0.018348 544925.000000 0 0 1
-2.940251 -24.831419 -13.908478 28.612763 1.452937 2.078410 0.070600 -0.018535 466368.000000 0 0 1
-2.795451 -23.633519 -12.925178 27.081691 1.453060 2.068338 0.071113 -0.016434 90129.700000 0 0 1
-1.554751 -23.660619 -12.247678 26.687970 1.505180 2.047577 0.084280 -0.027581 -153027.000000 0 0 1
-1.272151 -22.509919 -11.500178 25.309463 1.514341 2.042475 0.077584 -0.020577 312313.000000 0 0 1
0.012549 -22.521919 -10.621378 24.900816 -1.570239 2.011468 0.082063 -0.025628 544682.000000 0 1 0
0.401049 -21.186919 -10.198778 23.517258 -1.551869 2.019360 0.070955 -0.021616 -740342.000000 0 1 0
1.543049 -21.287219 -9.420978 23.329841 -1.498436 1.986481 0.065217 -0.018149 -377805.000000 0 1 0
2.202849 -19.952819 -9.091078 22.036679 -1.460839 1.996040 0.057057 -0.010826 -1692850.000000 0 1 0
2.641549 -19.279419 -10.245778 21.992038 -1.434630 2.055432 0.057677 -0.000775 -280209.000000 0 1 0
3.351349 -18.079819 -10.128578 20.992843 -1.387513 2.074278 0.038880 -0.007234 -797513.000000 0 1 0
4.775149 -18.341619 -9.652078 21.269218 -1.316105 2.041827 0.055121 -0.023835 -1301160.000000 0 1 0
4.800449 -19.012719 -8.405978 21.335141 -1.323479 1.975772 0.049610 -0.017617 -380695.000000 0 1 0
5.938349 -19.870119 -8.284978 22.332185 -1.280387 1.950869 0.044731 -0.011402 156915.000000 0 1 0
5.606849 -20.979319 -7.280678 22.903642 -1.309644 1.894292 0.049656 -0.010675 136208.000000 0 1 0
4.884049 -22.061219 -7.888978 23.932975 -1.352924 1.906706 0.059002 -0.015882 274616.000000 0 1 0
4.625549 -23.066119 -6.915278 24.520657 -1.372887 1.856694 0.069857 -0.021322 336471.000000 0 1 0
3.658949 -24.168119 -7.523878 25.575273 -1.420542 1.869400 0.084411 -0.014640 292882.000000 0 0 1
4.231449 -24.950019 -8.536378 26.707271 -1.402798 1.896133 0.092036 -0.021666 190625.000000 0 0 1
3.274849 -25.662399 -9.323278 27.499215 -1.443870 1.916690 0.095192 -0.028773 499076.000000 0 0 1
4.034849 -26.582029 -10.325078 28.800894 -1.420158 1.937455 0.083627 -0.026010 300917.000000 0 0 1
4.701749 -27.629599 -9.638578 29.637870 -1.402240 1.902032 0.097918 -0.031783 283561.000000 0 0 1
5.485949 -28.400859 -10.577778 30.799250 -1.379985 1.921376 0.105669 -0.015515 416961.000000 0 0 1
5.017149 -29.880939 -10.525978 32.075512 -1.404443 1.905154 0.090040 -0.031409 395786.000000 0 0 1
3.776349 -30.118989 -11.185478 32.350104 -1.446066 1.923848 0.093459 -0.032642 255119.000000 0 0 1
3.425349 -31.514869 -11.094578 33.585854 -1.462531 1.907455 0.092780 -0.035894 -54917.700000 0 0 1
1.979349 -31.736479 -11.572078 33.838364 -1.508509 1.919821 0.077768 -0.049302 -270602.000000 0 0 1
1.765049 -31.507269 -12.918178 34.098427 -1.514834 1.959349 0.082937 -0.051195 205260.000000 0 0 1
1.350449 -32.673819 -13.606678 35.419540 -1.529489 1.965091 0.086891 -0.042372 -233628.000000 0 0 1
0.993549 -32.477299 -15.084478 35.823226 -1.540214 2.005433 0.092759 -0.036706 2460.280000 0 0 1
-0.183151 -31.714629 -15.233878 35.184119 1.565021 2.018588 0.098746 -0.031980 -172327.000000 0 0 1
-0.566851 -31.518819 -16.553478 35.605827 1.552814 2.054328 0.072260 -0.028750 -161464.000000 0 0 1
-1.897851 -30.776019 -16.699778 35.066334 1.509208 2.067163 0.074073 -0.021969 322822.000000 0 0 1
-3.036951 -31.430189 -16.133578 35.459444 1.474470 2.043154 0.085070 -0.026424 274485.000000 0 0 1
-4.175351 -31.272299 -16.972578 35.825391 1.438065 2.064350 0.092835 -0.014714 -20741.100000 0 0 1
-5.512451 -31.417129 -16.259278 35.802056 1.397104 2.042207 0.106412 -0.020103 -596925.000000 0 0 1
-5.859351 -30.176149 -15.578478 34.461876 1.379011 2.039858 0.085365 -0.009503 433412.000000 0 0 1
-7.232251 -29.808649 -15.642278 34.431698 1.332773 2.042381 0.094277 -0.018192 473160.000000 0 0 1
-8.209851 -30.403619 -14.625278 34.722909 1.307058 2.005564 0.095801 -0.030171 -165017.000000 0 0 1
-8.213951 -31.826859 -14.717878 36.014356 1.318225 1.991789 0.111304 -0.028520 -132983.000000 0 0 1
-9.187951 -32.483439 -13.929778 36.518912 1.295146 1.962150 0.102611 -0.023682 93680.700000 0 0 1
-9.191051 33.809371 -14.158278 37.788964 -1.305362 1.954834 0.154673 -0.037394 662201.000000 0 0 1
-8.092851 33.006310 -13.697878 36.640723 -1.330349 1.953945 0.149722 -0.041355 565042.000000 0 0 1
-8.370751 31.671315 -14.156678 35.686877 -1.312404 1.978706 0.173215 -0.052763 202901.000000 0 0 1
-8.070051 -21.803919 -3.300878 23.482597 1.216311 1.711830 0.087784 -0.019709 -8355.380000 0 1 0
-7.655851 -20.900219 -4.273378 22.664795 1.219671 1.760479 0.067206 -0.014719 -362916.000000 0 1 0
-6.340851 -21.116819 -4.703478 22.544381 1.279087 1.780972 0.054857 -0.006581 -79705.600000 0 1 0
-6.129251 -20.264419 -5.937378 21.987879 1.277081 1.844220 0.058854 -0.013145 -15544.900000 0 1 0
-6.776051 -20.596819 -7.167678 22.836799 1.252964 1.890058 0.059747 -0.013853 -123493.000000 0 1 0
-6.875151 -19.404019 -7.963978 22.072802 1.230282 1.939927 0.043808 -0.014322 -496607.000000 0 1 0
-8.020751 -19.502919 -8.945978 22.906916 1.180622 1.972010 0.055077 -0.025977 21006.800000 0 1 0
-7.515351 -20.271219 -10.045478 23.839346 1.215766 2.005765 0.063298 -0.020413 316759.000000 0 1 0
-8.543051 -20.310019 -11.006278 24.629631 1.172631 2.034061 0.081418 -0.024669 212268.000000 0 1 0
-8.138951 -21.096219 -12.277578 25.729980 1.202590 2.068228 0.075354 -0.022895 -263032.000000 0 0 1
-7.216951 -20.429319 -13.106178 25.322191 1.231216 2.114813 0.078868 -0.015572 -104931.000000 0 0 1
-6.729451 -21.286019 -14.113378 26.411504 1.264595 2.134552 0.064333 -0.014413 15353.900000 0 0 1
-5.608151 -20.834219 -15.059078 26.311440 1.307849 2.180152 0.054011 -0.007377 396711.000000 0 0 1
-4.270651 -20.853619 -14.542678 25.779863 1.368798 2.170151 0.050759 -0.008328 1062810.000000 0 0 1
-3.328651 -20.130819 -15.367278 25.543747 1.406928 2.216307 0.055799 -0.005641 404483.000000 0 0 1
-3.338151 -18.575719 -15.388478 24.351711 1.392989 2.254832 0.058045 -0.001480 691972.000000 0 1 0
-4.463051 -17.897019 -16.086878 24.474676 1.326407 2.288009 0.063468 -0.003549 1157860.000000 0 1 0
-4.371051 -17.996019 -17.476078 25.463230 1.332521 2.327222 0.085271 -0.020333 -776173.000000 0 0 1
-5.689551 -17.892119 -18.229878 26.169206 1.262916 2.341466 0.077625 -0.013318 -270646.000000 0 0 1
-6.534451 -19.003619 -17.934278 26.934641 1.239608 2.299421 0.060048 -0.010991 439294.000000 0 0 1
-7.824751 -18.900619 -18.553178 27.616671 1.178284 2.307447 0.058817 -0.018293 900347.000000 0 0 1
-8.821851 -19.855919 -17.834178 28.109437 1.152698 2.258100 0.072066 -0.020554 114746.000000 0 0 1
-8.483951 -21.191719 -18.132378 29.152178 1.189995 2.242079 0.070796 -0.015170 250632.000000 0 0 1
-9.416651 -22.105819 -17.596678 29.782270 1.168095 2.202901 0.084014 -0.016191 120212.000000 0 0 1
-9.060351 -23.530519 -18.031578 30.998598 1.203247 2.191601 0.095387 -0.021888 -499179.000000 0 0 1
-9.176751 -23.571419 -19.421878 31.890969 1.199533 2.225607 0.096863 -0.026524 286036.000000 0 0 1
-8.499851 -24.563819 -20.183578 32.909049 1.237661 2.231046 0.117178 -0.034109 210343.000000 0 0 1
-6.940351 -24.596619 -20.199578 32.575836 1.295779 2.239639 0.107247 -0.028480 303739.000000 0 0 1
-6.267851 -23.474019 -20.820478 31.996997 1.309871 2.279304 0.133454 -0.039533 402418.000000 0 0 1
-6.098751 -22.329419 -20.024178 30.606624 1.304173 2.283978 0.108701 -0.040571 209659.000000 0 0 1
-4.970651 -22.414019 -18.894178 29.733576 1.352563 2.259386 0.107462 -0.029285 53312.300000 0 0 1
-3.672251 -22.521019 -19.369078 29.930635 1.409160 2.274613 0.091579 -0.036690 -595227.000000 0 0 1
-2.773551 -22.646919 -18.287678 29.240634 1.448934 2.246466 0.058666 -0.027420 -157533.000000 0 0 1
-1.360851 -23.190019 -18.487778 29.688833 1.512181 2.243008 0.082677 -0.029153 210763.000000 0 0 1
-0.457751 -22.235619 -19.051678 29.284786 1.550213 2.279125 0.103274 -0.038374 651511.000000 0 0 1
0.886049 -22.742719 -19.131678 29.732767 -1.531856 2.269799 0.079306 -0.033519 1069500.000000 0 0 1
1.831549 -21.798419 -19.926478 29.590373 -1.486971 2.309609 0.071535 -0.033624 47290.800000 0 0 1
1.466649 -21.627519 -21.250778 30.356156 -1.503086 2.346262 0.069814 -0.036180 -480964.000000 0 0 1
2.402149 -20.928419 -22.023278 30.476119 -1.456517 2.378411 0.041739 -0.035249 -614538.000000 0 0 1
2.128049 -21.140919 -23.594478 31.751637 -1.470474 2.408480 0.069855 -0.040357 1217130.000000 0 0 1
1.165449 -20.267919 -24.286278 31.653911 -1.513357 2.445329 0.059495 -0.036879 1413360.000000 0 0 1
-0.127451 -20.075619 -23.686278 31.049742 1.564448 2.438505 0.080081 -0.040727 202521.000000 0 0 1
-1.007251 -19.094219 -24.473878 31.057599 1.518094 2.478376 0.098364 -0.044426 -676627.000000 0 0 1
-0.592351 -17.776519 -24.374078 30.173684 1.537487 2.511194 0.055848 -0.035757 -366900.000000 0 0 1
-1.290451 -16.891719 -25.195798 30.361549 1.494549 2.549651 0.081019 -0.042178 -17693.100000 0 0 1
-0.842751 -15.448519 -24.818478 29.245920 1.516298 2.584155 0.064616 -0.023776 1125500.000000 0 0 1
0.557249 -15.236419 -25.085088 29.355078 -1.534239 2.595461 0.065834 -0.030206 339538.000000 0 0 1
1.116949 -14.021119 -24.692378 28.417475 -1.491302 2.623803 0.060711 -0.026804 59947.600000 0 0 1
0.543249 -12.747919 -25.341678 28.372614 -1.528207 2.675150 0.055828 -0.011059 -362350.000000 0 0 1
1.067449 -11.515119 -24.944878 27.495170 -1.478361 2.707485 0.043636 -0.008885 -275392.000000 0 0 1
0.714349 -10.528619 -25.884668 27.953142 -1.503052 2.754478 0.044771 -0.007420 -158729.000000 0 0 1
1.517049 -9.187019 -25.785608 27.415330 -1.407144 2.795055 0.052653 -0.013607 791283.000000 0 0 1
2.898049 -9.081719 -26.098238 27.784786 -1.261903 2.791379 0.062882 -0.019556 80599.400000 0 0 1
3.117149 -9.168719 -27.531208 29.184747 -1.243079 2.803359 0.070460 -0.020077 -479364.000000 0 0 1
4.529249 -8.843019 -28.019978 29.729316 -1.097449 2.800840 0.104682 -0.026333 -571818.000000 0 0 1
4.718849 -7.462919 -28.158618 29.510514 -1.006960 2.837735 0.100165 -0.023911 -69276.500000 0 0 1
5.928349 -6.915119 -28.642438 30.055839 -0.862078 2.833700 0.110466 -0.024534 236740.000000 0 0 1
7.083449 -6.846419 -27.531588 29.241016 -0.768384 2.797969 0.122463 -0.030517 503726.000000 0 0 1
7.671749 -8.015619 -27.116688 29.298817 -0.807315 2.753207 0.092694 -0.030771 383223.000000 0 0 1
8.506549 -8.703419 -28.073058 30.597508 -0.796837 2.732532 0.102193 -0.040254 -127931.000000 0 0 1
8.962049 -10.091119 -27.539518 30.668780 -0.844588 2.685922 0.097033 -0.030113 9645.070000 0 0 1
7.855549 -10.963219 -27.388028 30.528772 -0.949058 2.684007 0.107260 -0.041202 167419.000000 0 0 1
8.124549 -12.192219 -26.661818 30.422213 -0.982998 2.639117 0.103033 -0.037962 523270.000000 0 0 1
9.242849 -13.244819 -27.075438 31.526732 -0.961517 2.603736 0.099569 -0.047226 559403.000000 0 0 1
8.913649 -13.827919 -28.319388 32.751370 -0.998218 2.615305 0.112365 -0.058219 152712.000000 0 0 1
9.657749 -15.030419 -28.565878 33.692655 -0.999678 2.582689 0.098254 -0.057489 310474.000000 0 0 1
9.067049 -15.835119 -29.769938 34.917210 -1.050774 2.591711 0.087659 -0.054539 21954.700000 0 0 1
9.125649 -15.027519 -30.943758 35.589605 -1.025054 2.624906 0.091991 -0.049364 227864.000000 0 0 1
8.382549 -15.613919 -31.967768 36.551331 -1.078094 2.635405 0.107210 -0.049581 -1235840.000000 0 0 1
7.127949 -14.953919 -32.480688 36.461246 -1.125994 2.669960 0.120543 -0.042145 -637077.000000 0 0 1
7.330449 -13.725619 -33.196968 36.662880 -1.080265 2.703271 0.133761 -0.042429 1245500.000000 0 0 1
6.130949 -13.341719 33.927375 36.968322 -1.140044 0.408439 0.113385 -0.043113 1042870.000000 0 0 1
6.272449 -12.020419 33.217829 35.878382 -1.089848 0.387530 0.147145 -0.036545 102756.000000 0 0 1
6.969149 -12.154419 31.968794 34.904194 -1.050177 0.413049 0.145497 -0.034810 445303.000000 0 0 1
7.074849 -10.962219 31.260885 33.874278 -0.997672 0.395380 0.150695 -0.035796 -158083.000000 0 0 1
7.741449 -11.175819 29.912945 32.857469 -0.964989 0.426583 0.150094 -0.033426 57774.000000 0 0 1
6.780449 -11.695519 29.028355 32.021947 -1.045401 0.435843 0.138822 -0.024233 274659.000000 0 0 1
7.274349 -11.670919 27.726175 30.949431 -1.013429 0.460447 0.120074 -0.029688 49910.000000 0 0 1
6.263649 -12.311319 26.760005 30.114776 -1.100156 0.476511 0.106002 -0.030630 112992.000000 0 0 1
6.163349 -13.733519 26.896575 30.822430 -1.148956 0.510235 0.101108 -0.025446 -66875.200000 0 0 1
5.737549 -14.349519 25.645965 29.942340 -1.190426 0.542324 0.066686 -0.022126 138541.000000 0 0 1
4.268949 -14.820219 25.589335 29.877699 -1.290339 0.542406 0.077653 -0.032945 247122.000000 0 0 1
3.297749 -13.789619 25.493415 29.170927 -1.336058 0.507562 0.075445 -0.037015 488234.000000 0 0 1
2.016149 -14.364719 25.161615 29.043362 -1.431353 0.522956 0.074007 -0.029757 1029000.000000 0 0 1
0.978149 -13.262019 24.826945 28.164075 -1.497174 0.491743 0.064030 -0.025834 -602378.000000 0 0 1
1.412049 -12.407519 23.826025 26.900184 -1.457478 0.482754 0.040039 -0.010916 64348.200000 0 0 1
0.587949 -11.239419 23.547645 26.099077 -1.518533 0.445859 0.043106 -0.003126 1209530.000000 0 0 1
-0.862051 -11.547519 23.026485 25.774160 1.496282 0.465952 0.042990 -0.008089 76562.300000 0 0 1
-0.855051 -12.189319 21.781135 24.974556 1.500763 0.511251 0.041987 -0.006059 303731.000000 0 1 0
-2.111451 -12.777519 21.450135 25.056566 1.407029 0.543182 0.062933 -0.016794 452119.000000 0 0 1
-2.094151 -13.585719 20.109335 24.358625 1.417856 0.599615 0.076254 -0.019386 274674.000000 0 1 0
-1.238451 -14.728119 20.207335 25.035727 1.486906 0.631505 0.094194 -0.020120 191941.000000 0 0 1
-1.369951 -15.484019 19.038335 24.578239 1.482551 0.684712 0.098893 -0.024239 -59375.700000 0 1 0
-2.428251 -16.589719 18.943535 25.297682 1.425458 0.724509 0.092050 -0.027112 -170728.000000 0 0 1
-2.134351 -17.583019 17.938135 25.209020 1.450000 0.779057 0.076071 -0.024918 -435137.000000 0 0 1
-3.151151 -18.539619 17.815635 25.904518 1.402437 0.812422 0.088769 -0.025270 -214902.000000 0 0 1
-2.767451 -19.726619 16.968435 26.167271 1.431416 0.865236 0.085482 -0.024133 -240916.000000 0 0 1
-1.691451 -20.422219 17.522735 26.962460 1.488161 0.863352 0.090619 -0.029252 -564646.000000 0 0 1
-1.919551 -21.786419 17.517635 28.021425 1.482916 0.895471 0.092600 -0.041575 -474765.000000 0 0 1
-0.802451 -22.631519 18.105135 28.993542 1.535354 0.896364 0.106493 -0.034065 303032.000000 0 0 1
0.395049 -22.595119 17.322035 28.473643 -1.553314 0.916812 0.113029 -0.044688 368459.000000 0 0 1
1.400549 -23.430419 17.896135 29.516397 -1.511093 0.919382 0.117548 -0.040382 191921.000000 0 0 1
2.764349 -23.372219 17.181235 29.139270 -1.453068 0.940202 0.120256 -0.050149 252768.000000 0 0 1
3.431549 -22.127619 17.495135 28.416312 -1.416942 0.907558 0.111747 -0.036917 -493879.000000 0 0 1
4.604849 -21.939919 16.775235 27.999521 -1.363915 0.928388 0.100072 -0.030951 39404.900000 0 0 1
5.359949 -20.593119 17.068235 27.278751 -1.316167 0.894771 0.089494 -0.026415 -194380.000000 0 0 1
6.062549 -20.499819 18.282835 28.129329 -1.283255 0.863269 0.083063 -0.022902 -199569.000000 0 0 1
6.543249 -19.253819 18.761535 27.668011 -1.243200 0.825629 0.075062 -0.007453 73904.400000 0 0 1
7.629249 -18.543419 17.978735 26.931371 -1.180479 0.839848 0.076778 -0.013766 -703632.000000 0 0 1
7.093649 -18.191119 16.689035 25.685805 -1.198983 0.863557 0.068493 -0.010240 15226.000000 0 0 1
8.048349 -17.695919 15.764635 25.028887 -1.143946 0.889426 0.086615 -0.014496 -209026.000000 0 0 1
7.471149 -16.812819 14.649235 23.517845 -1.152632 0.898354 0.066997 -0.001570 42122.100000 0 1 0
6.483349 -17.514519 13.896535 23.278872 -1.216267 0.931091 0.065356 0.001996 227842.000000 0 1 0
5.873649 -16.672019 12.915335 21.892050 -1.232069 0.939793 0.049481 -0.001954 76910.000000 0 1 0
6.481649 -16.689619 11.487035 21.272215 -1.200361 1.000357 0.052507 -0.003207 257315.000000 0 1 0
7.763549 -16.074319 11.353035 21.155326 -1.120858 1.004333 0.055666 -0.007493 222004.000000 0 1 0
8.187049 -16.300419 10.027135 20.815256 -1.105342 1.068179 0.053447 -0.008536 68671.700000 0 1 0
9.669649 -15.922219 9.858735 21.076381 -1.025023 1.084039 0.049867 -0.001573 169274.000000 0 1 0
10.371349 -16.506919 8.779835 21.380570 -1.009825 1.147634 0.050334 0.000313 -463972.000000 0 1 0
11.651649 -15.927719 8.673935 21.556676 -0.939219 1.156683 0.048710 -0.005829 -123628.000000 0 1 0
12.570049 -16.799519 7.808135 22.387428 -0.928423 1.214535 0.054035 -0.012655 -98924.100000 0 1 0
13.047249 -17.956119 8.499735 23.767592 -0.942428 1.205080 0.074490 -0.012961 244058.000000 0 1 0
13.916249 -18.739419 7.686435 24.574562 -0.932036 1.252678 0.071820 -0.012435 193287.000000 0 1 0
14.388349 -20.044019 8.399635 26.064174 -0.948199 1.242673 0.069210 -0.012008 634807.000000 0 0 1
13.335849 -20.905819 8.883535 26.340374 -1.002973 1.226792 0.073934 -0.013428 558870.000000 0 0 1
13.932949 -22.139319 9.295735 27.761253 -1.009089 1.229355 0.055762 -0.011977 583214.000000 0 0 1
12.988049 -23.113019 10.070935 28.360620 -1.058835 1.207772 0.079012 -0.017723 325673.000000 0 0 1
12.842849 -22.569219 11.365735 28.345870 -1.053451 1.158225 0.085448 -0.015052 287107.000000 0 0 1
11.875349 -23.267719 12.186735 28.825807 -1.098880 1.134295 0.098329 -0.017218 198429.000000 0 0 1
12.342449 -24.669419 12.709435 30.371796 -1.106898 1.139045 0.079517 -0.022963 -435212.000000 0 0 1
13.483249 -24.536819 13.498335 31.081482 -1.068329 1.121548 0.047315 -0.025033 -519917.000000 0 0 1
13.815349 -25.834159 13.837535 32.399769 -1.079721 1.129527 0.052401 -0.036544 -298201.000000 0 0 1
14.929149 -25.967419 14.883635 33.447106 -1.049023 1.109633 0.050876 -0.025497 -394715.000000 0 0 1
14.637249 -25.394759 16.119535 33.451192 -1.047919 1.067995 0.057551 -0.023155 -201262.000000 0 0 1
15.426149 -25.868899 17.148435 34.658835 -1.033087 1.053217 0.060930 -0.022934 -828355.000000 0 0 1
15.108649 -25.205169 18.541235 34.746931 -1.030799 1.007936 0.066650 -0.021207 -178597.000000 0 0 1
15.622249 -23.882119 18.748835 34.145704 -0.991516 0.989529 0.066573 -0.026980 -284273.000000 0 0 1
16.987449 -23.921419 19.059435 34.986709 -0.953300 0.994691 0.071038 -0.025202 -629522.000000 0 0 1
17.576749 -22.570819 19.345635 34.534585 -0.909155 0.976191 0.072791 -0.027216 -416724.000000 0 0 1
17.653249 -21.690219 18.229035 33.382638 -0.887649 0.993138 0.062858 -0.027090 385345.000000 0 0 1
16.452149 -20.982219 17.941235 32.137434 -0.905826 0.978502 0.074740 -0.028357 -421431.000000 0 0 1
16.647649 -19.942719 16.809335 30.942043 -0.875209 0.996490 0.062745 -0.022251 657258.000000 0 0 1
17.595849 -18.891719 17.098935 30.965861 -0.820899 0.985812 0.060678 -0.023028 316306.000000 0 0 1
18.955649 -19.220219 17.106135 31.958619 -0.792328 1.005982 0.066435 -0.024504 -643887.000000 0 0 1
19.938849 -18.023219 17.136435 31.875563 -0.734979 1.003203 0.075836 -0.029007 -54101.800000 0 0 1
19.976349 -17.431219 18.376235 32.258145 -0.717465 0.964702 0.066552 -0.026906 165141.000000 0 0 1
20.525149 -16.128019 18.305535 31.882399 -0.666003 0.959221 0.068348 -0.025806 -448588.000000 0 0 1
20.854449 -15.690019 19.732335 32.717729 -0.645009 0.923404 0.060237 -0.016450 438118.000000 0 0 1
21.948249 -16.396119 20.350435 34.127680 -0.641601 0.931909 0.054542 -0.023484 489779.000000 0 0 1
22.110449 -16.047919 21.707235 34.894294 -0.627837 0.899393 0.044971 -0.015104 32379.700000 0 0 1
34.726345 -0.864219 -7.694778 35.579144 -0.024881 1.788791 0.118830 -0.019081 49112.700000 0 0 1
36.006265 -0.867819 -8.291878 36.958889 -0.024097 1.797077 0.157530 -0.023273 62604.700000 0 0 1
36.707215 -2.051319 -7.980678 37.620722 -0.055825 1.784556 0.176889 -0.030181 -1754.140000 0 0 1
-36.449331 -1.977919 -8.526178 37.485485 0.054212 1.800257 0.179330 -0.034729 -213484.000000 0 0 1
-35.552205 -2.894619 -7.978178 36.551189 0.081240 1.790842 0.181547 -0.028195 -564112.000000 0 0 1
-34.270185 -2.694619 -8.503178 35.412012 0.078467 1.813287 0.256952 -0.038093 -345403.000000 0 0 1
-33.239501 -3.752319 -8.086078 34.414081 0.112411 1.807978 0.249238 -0.034981 -87220.700000 0 0 1
-32.844091 -3.680319 -6.735878 33.729084 0.111589 1.771854 0.235282 -0.039611 1940660.000000 0 0 1
-31.618271 -4.476219 -6.447278 32.577891 0.140636 1.770015 0.231764 -0.043296 1561090.000000 0 0 1
-31.046481 -4.392419 -5.076778 31.763989 0.140546 1.731313 0.219466 -0.054662 -264320.000000 0 0 1
-30.420791 -3.147319 -4.842978 30.964247 0.103093 1.727847 0.223720 -0.051735 371214.000000 0 0 1
-30.103351 -2.976719 -3.482878 30.450009 0.098563 1.685427 0.220025 -0.053215 -268623.000000 0 0 1
-29.667721 -1.533219 -3.188178 29.877900 0.051634 1.677707 0.243649 -0.048572 7146.780000 0 0 1
-28.303301 -1.286919 -2.886178 28.479168 0.045438 1.672314 0.210134 -0.042258 474838.000000 0 0 1
-28.062951 0.037781 -2.547978 28.178411 -0.001346 1.661343 0.224609 -0.054017 97373.500000 0 0 1
-26.592271 0.300181 -2.124378 26.678680 -0.011288 1.650509 0.203838 -0.033644 69993.100000 0 0 1
-26.165731 -0.383219 -0.988578 26.187203 0.014645 1.608556 0.195536 -0.040478 -1345460.000000 0 0 1
-24.815451 -0.186119 -0.871078 24.831432 0.007500 1.605883 0.157059 -0.034496 -1315010.000000 0 1 0
-24.196951 -1.147819 0.129722 24.224507 0.047401 1.565441 0.139072 -0.040039 -202739.000000 0 1 0
-24.241251 -2.485219 -0.291978 24.370060 0.102163 1.582778 0.144887 -0.037643 167974.000000 0 1 0
-23.479851 -3.320119 0.537622 23.719520 0.140472 1.548129 0.128329 -0.031776 -239992.000000 0 1 0
-23.873451 -4.853619 0.468822 24.366351 0.200572 1.551555 0.130851 -0.033197 -796495.000000 0 1 0
-24.864651 -5.164419 1.377022 25.432622 0.204790 1.516626 0.136217 -0.041156 -363111.000000 0 0 1
-25.167981 -6.536919 1.255622 26.033347 0.254117 1.522546 0.128417 -0.038895 228289.000000 0 0 1
-26.537531 -6.940319 1.895122 27.495455 0.255799 1.501817 0.148041 -0.036142 148699.000000 0 0 1
-26.590221 -6.930719 3.309822 27.677240 0.254976 1.450923 0.142643 -0.037732 472839.000000 0 0 1
-27.803761 -7.483919 3.842822 29.048674 0.262937 1.438118 0.141619 -0.025491 523392.000000 0 0 1
-27.918311 -7.529819 5.353622 29.407338 0.263441 1.387725 0.136501 -0.029304 92497.500000 0 0 1
-26.902671 -8.360719 5.898722 28.782811 0.301314 1.364395 0.123716 -0.004567 167915.000000 0 0 1
-26.998281 -8.541519 7.332222 29.251089 0.306409 1.317429 0.112350 -0.017082 6515.840000 0 0 1
-26.144851 -7.496519 8.105222 28.380374 0.279239 1.281172 0.126728 -0.021541 -930688.000000 0 0 1
-24.809351 -7.567719 7.739422 27.067931 0.296070 1.280824 0.142877 -0.028763 -975504.000000 0 0 1
-24.244051 -6.273019 7.878822 26.252630 0.253192 1.265983 0.139584 -0.036392 235624.000000 0 0 1
-22.814451 -6.224119 7.251022 24.734917 0.266333 1.273277 0.124047 -0.032449 975334.000000 0 1 0
-21.759451 -6.512719 8.180022 24.141292 0.290819 1.225113 0.120530 -0.043879 12732.100000 0 1 0
-20.512551 -6.200519 7.624822 22.745309 0.293547 1.228951 0.109283 -0.038748 34955.100000 0 1 0
-19.320851 -6.427619 8.600922 22.103968 0.321160 1.171129 0.116766 -0.038748 182018.000000 0 1 0
-19.286051 -5.532919 9.674122 22.274505 0.279384 1.121520 0.111667 -0.033274 164596.000000 0 1 0
-18.249851 -5.848919 10.590722 21.895897 0.310149 1.065936 0.113953 -0.039554 -202951.000000 0 1 0
-18.076651 -4.625019 11.454422 21.894289 0.250483 1.020231 0.116331 -0.031496 65933.300000 0 1 0
-19.110951 -4.580319 12.412022 23.243624 0.235233 1.007476 0.125337 -0.022991 109924.000000 0 1 0
-19.170051 -3.361219 13.134722 23.479982 0.173573 0.977134 0.119889 -0.015060 373525.000000 0 1 0
-20.440851 -3.381319 14.028722 25.021326 0.163935 0.975601 0.114821 -0.010237 140265.000000 0 0 1
-20.315051 -4.229219 15.141922 25.687845 0.205250 0.940408 0.113875 -0.009130 323043.000000 0 0 1
-21.460951 -4.171819 15.986422 27.083984 0.191997 0.939423 0.094587 0.005922 134751.000000 0 0 1
-21.461051 -5.182519 17.147622 27.954895 0.236948 0.910434 0.090421 0.014237 110652.000000 0 0 1
-22.317451 -4.791019 18.229022 29.211637 0.211466 0.896903 0.071804 0.014699 740603.000000 0 0 1
-22.032251 -5.594919 19.392122 29.879384 0.248686 0.864509 0.078838 0.017807 70769.300000 0 0 1
-22.975951 -5.131619 20.545422 31.246475 0.219741 0.853264 0.076354 0.010929 91494.900000 0 0 1
-22.580851 -3.874119 21.021522 31.093536 0.169912 0.828375 0.076283 0.006164 585315.000000 0 0 1
-23.375151 -3.569319 22.180822 32.421082 0.151527 0.817361 0.072777 0.001710 261655.000000 0 0 1
-23.584051 -2.039919 22.464422 32.634628 0.086281 0.811569 0.070006 0.001982 551901.000000 0 0 1
-24.579551 -1.306719 21.714722 32.823635 0.053113 0.847902 0.078921 -0.007455 368078.000000 0 0 1
-24.531751 0.105481 21.961022 32.925741 -0.004300 0.840640 0.085521 -0.009564 -696149.000000 0 0 1
-25.818151 0.799881 21.556422 33.643663 -0.030971 0.875351 0.105812 -0.018561 -379229.000000 0 0 1
-26.880091 0.447581 22.428322 35.010987 -0.016649 0.875506 0.116413 -0.019619 -315089.000000 0 0 1
-28.081371 0.992981 21.945722 35.653389 -0.035346 0.907738 0.112551 -0.017802 -102099.000000 0 0 1
-29.227641 1.090181 22.977122 37.193973 -0.037282 0.904899 0.095689 -0.014944 -95028.100000 0 0 1
-28.893111 1.924981 24.103422 37.676151 -0.066526 0.876620 0.088783 -0.019692 115125.000000 0 0 1
-29.845431 1.626781 25.094022 39.026992 -0.054453 0.872399 0.074662 -0.018876 -241445.000000 0 0 1
-29.678851 2.461881 26.381322 39.785289 -0.082761 0.845854 0.095602 -0.024563 -24204.000000 0 0 1
-28.488561 2.073581 27.027522 39.324099 -0.072658 0.813029 0.069925 -0.028848 -28551.100000 0 0 1
-28.250861 3.059281 28.038822 39.920494 -0.107870 0.792080 0.061858 -0.033308 -685165.000000 0 0 1
-27.037061 2.817881 28.909422 39.682462 -0.103848 0.754639 0.076186 -0.032556 -718212.000000 0 0 1
-27.064461 1.683181 29.767922 40.267199 -0.062112 0.738826 0.075832 -0.028633 -4141.640000 0 0 1
-25.944591 1.665681 30.600322 40.153157 -0.064113 0.704261 0.065392 -0.030498 -372082.000000 0 0 1
-26.109261 0.468081 31.610722 41.001833 -0.017926 0.690451 0.057646 -0.032550 -251354.000000 0 0 1
-26.095531 -0.726619 30.899822 40.451251 0.027837 0.701495 0.046705 -0.037574 37754.900000 0 0 1
-26.608911 -1.752219 31.691322 41.417922 0.065756 0.699507 0.052344 -0.035029 -667786.000000 0 0 1
-27.294991 -2.777519 30.783922 41.235676 0.101410 0.727956 0.069577 -0.028268 49834.600000 0 0 1
-28.641991 -2.456519 30.467822 41.888976 0.085557 0.756348 0.078606 -0.032089 203621.000000 0 0 1
-28.909061 -1.482519 29.466622 41.306337 0.051237 0.776504 0.076491 -0.028607 -190033.000000 0 0 1
-30.425781 -1.269419 29.232622 42.212389 0.041698 0.805830 0.076086 -0.033222 603863.000000 0 0 1
-31.111871 -0.645119 30.302722 43.435235 0.020732 0.798680 0.101300 -0.022250 -203064.000000 0 0 1
-32.473701 -0.386119 30.003622 44.214338 0.011890 0.824948 0.090388 -0.027168 271353.000000 0 0 1
-33.272711 -0.170919 31.301222 45.682261 0.005137 0.815926 0.094322 -0.019985 -235738.000000 0 0 1
-33.691581 -1.451719 31.773322 46.333294 0.043062 0.815155 0.115445 -0.027810 262464.000000 0 0 1
-34.393014 -1.325519 33.037722 47.708778 0.038521 0.805865 0.133064 -0.023034 391464.000000 0 0 1
-34.733197 -2.638919 33.719822 48.480772 0.075831 0.801639 0.136640 -0.022942 440752.000000 0 0 1
-35.912218 -3.280419 33.239522 49.044004 0.091093 0.826099 0.098445 -0.019233 280828.000000 0 0 1
-36.207201 -4.491719 -33.913492 49.812266 0.123425 2.319686 0.092950 -0.013634 -57724.600000 0 0 1
37.152985 -5.178619 33.402522 50.228387 -0.138494 0.843285 0.092827 -0.011641 -175622.000000 0 0 1
35.900365 -4.663219 33.748022 49.492533 -0.129170 0.820465 0.097949 -0.020717 -801187.000000 0 0 1
34.803465 -5.308219 33.172722 48.372387 -0.151353 0.815124 0.097609 -0.020340 -322391.000000 0 0 1
33.529535 -4.698919 33.841122 47.869939 -0.139236 0.785636 0.112715 -0.022209 -434005.000000 0 0 1
33.296205 -5.093019 -32.686492 46.935944 -0.151784 2.341174 0.089934 -0.021858 85275.200000 0 0 1
32.900235 -6.468819 -32.470392 46.675447 -0.194143 2.340139 0.093245 -0.023062 -59984.700000 0 0 1
31.495365 -6.845919 -33.044292 46.160046 -0.214033 2.368656 0.061566 -0.015498 14397.200000 0 0 1
30.464205 -6.217219 -32.308292 44.839127 -0.201318 2.375374 0.062175 -0.023127 -1425710.000000 0 0 1
29.258225 -6.583019 -32.837592 44.471196 -0.221312 2.401493 0.061158 -0.017818 -1307100.000000 0 0 1
28.118825 -6.190719 -31.869392 42.949405 -0.216706 2.406877 0.067043 -0.036180 -283566.000000 0 0 1
26.898625 -6.793719 -32.199192 42.502689 -0.247394 2.430394 0.044973 -0.026321 -234503.000000 0 0 1
25.813725 -6.434819 -31.368092 41.130432 -0.244300 2.438195 0.039925 -0.026828 931502.000000 0 0 1
24.474725 -7.148419 -31.833992 40.786212 -0.284169 2.466275 0.038445 -0.031547 697776.000000 0 0 1
24.562625 -8.548419 -31.782792 41.067552 -0.334915 2.455796 0.038559 -0.027878 60840.700000 0 0 1
24.254125 -9.075419 -30.470392 39.988380 -0.358052 2.437163 0.055631 -0.032202 -198234.000000 0 0 1
23.935225 -10.600719 -30.391692 40.111409 -0.416927 2.430550 0.073258 -0.023619 368089.000000 0 0 1
22.834625 -10.958319 -31.230692 40.210209 -0.447438 2.460183 0.073144 -0.029797 400298.000000 0 0 1
22.570525 -12.342619 -31.071792 40.338878 -0.500419 2.450059 0.075642 -0.022731 -614570.000000 0 0 1
21.457125 -12.953619 -31.951492 40.609140 -0.543134 2.476412 0.063869 -0.018180 618460.000000 0 0 1
20.098325 -12.639119 -31.674892 39.585209 -0.561373 2.498375 0.061818 -0.018229 306637.000000 0 0 1
19.769925 -11.282919 -32.079392 39.334991 -0.518605 2.524464 0.055329 -0.021011 189776.000000 0 0 1
18.392825 -10.840119 -31.449492 38.011507 -0.532564 2.545201 0.052952 -0.030398 747306.000000 0 0 1
17.249125 -11.392019 -32.041292 38.130759 -0.583680 2.568633 0.053355 -0.018026 -456754.000000 0 0 1
16.081225 -10.981219 -31.353192 36.908205 -0.599129 2.585816 0.090265 -0.028822 66777.500000 0 0 1
14.827525 -11.377619 -32.150992 37.188600 -0.654501 2.615029 0.089483 -0.022167 -817767.000000 0 0 1
14.666125 -12.789919 -32.373992 37.772378 -0.717169 2.600373 0.100830 -0.024801 663738.000000 0 0 1
13.534925 -13.174019 -33.187892 38.186190 -0.771886 2.624191 0.086188 -0.033510 1173160.000000 0 0 1
12.155325 -13.242419 -32.444892 37.091570 -0.828175 2.635663 0.080636 -0.036837 191487.000000 0 0 1
11.805325 -11.995619 -31.925392 36.090043 -0.793393 2.656440 0.148458 -0.028909 -482176.000000 0 0 1
10.804925 -12.119819 -30.926092 34.929351 -0.842692 2.658128 0.148061 -0.041192 913195.000000 0 0 1
9.374425 -11.649519 -31.380892 34.761350 -0.893193 2.696922 0.126640 -0.029313 558066.000000 0 0 1
9.415125 -10.241419 -31.225392 34.184153 -0.827410 2.722470 0.133212 -0.024081 257864.000000 0 0 1
8.289825 -9.552319 -31.744892 34.171715 -0.856040 2.762448 0.129736 -0.021472 17627.000000 0 0 1
8.597525 -8.089719 -32.096292 34.198434 -0.754977 2.789146 0.134548 -0.027430 -40033.300000 0 0 1
8.859625 -7.206119 -31.004992 33.041347 -0.682838 2.788679 0.125297 -0.030980 307511.000000 0 0 1
8.988825 -5.890719 -31.424892 33.211795 -0.580119 2.812069 0.104361 -0.010723 8186.240000 0 0 1
9.242025 -4.918219 -30.295992 32.053877 -0.489042 2.808876 0.098311 -0.014083 -270627.000000 0 0 1
8.046025 -4.589019 -29.655992 31.068882 -0.518330 2.838855 0.110525 -0.021215 -466174.000000 0 0 1
8.193525 -3.457219 -28.796492 30.138416 -0.399280 2.842060 0.118835 -0.020953 -186888.000000 0 0 1
6.880125 -2.812919 -28.367092 29.324742 -0.388110 2.885327 0.101001 -0.021160 -875355.000000 0 0 1
6.108425 -2.229319 -29.379192 30.090191 -0.349938 2.923773 0.084125 -0.010143 -335931.000000 0 0 1
4.906425 -1.631619 -28.979092 29.436762 -0.321043 2.965025 0.086766 -0.015178 862402.000000 0 0 1
3.719625 -2.714319 -29.066492 29.428967 -0.630401 2.984479 0.067333 -0.021875 241015.000000 0 0 1
3.780425 -3.669719 -27.974192 28.466012 -0.770540 2.955434 0.073072 -0.019544 76965.600000 0 0 1
2.626025 -4.481319 -27.874592 28.354384 -1.040739 2.957369 0.073622 -0.018613 218203.000000 0 0 1
2.786225 -5.370419 -26.646092 27.324323 -1.092215 2.918322 0.059388 -0.021580 -207747.000000 0 0 1
2.627425 -4.812819 -25.393192 25.978467 -1.071089 2.928922 0.062391 -0.025622 -75848.100000 0 0 1
2.797425 -5.772019 -24.365192 25.195324 -1.119502 2.884181 0.067206 -0.032482 -84593.700000 0 0 1
2.740825 -5.128919 -22.952792 23.678019 -1.080019 2.893454 0.081588 -0.041373 -395107.000000 0 1 0
3.796825 -4.249419 -22.734492 23.437802 -0.841588 2.895996 0.084371 -0.036674 -525458.000000 0 1 0
3.732225 -3.524119 -21.547992 22.150956 -0.756727 2.907733 0.076858 -0.033970 -62510.300000 0 1 0
4.850325 -2.452719 -21.405892 22.085146 -0.468182 2.892936 0.088248 -0.030993 555101.000000 0 1 0
6.091425 -3.064719 -21.027092 22.105125 -0.466141 2.828000 0.081926 -0.034443 344072.000000 0 1 0
6.962725 -2.049319 -20.529992 21.775211 -0.286244 2.801773 0.096672 -0.030542 -377472.000000 0 1 0
8.363025 -2.461319 -20.117992 21.925598 -0.286228 2.732689 0.105685 -0.037616 -1263360.000000 0 1 0
9.155025 -2.675619 -21.244392 23.287284 -0.284338 2.719599 0.117802 -0.048446 -51426.500000 0 1 0
10.417525 -3.265719 -21.008192 23.675596 -0.303780 2.662330 0.105066 -0.048940 415693.000000 0 1 0
11.563425 -2.459319 -20.379292 23.560063 -0.209558 2.615933 0.094717 -0.042964 -693470.000000 0 1 0
11.398425 -2.349819 -18.951692 22.239882 -0.203305 2.590874 0.084711 -0.032395 391240.000000 0 1 0
12.569525 -2.015719 -18.213792 22.221572 -0.159012 2.531587 0.080918 -0.036910 225908.000000 0 1 0
13.010325 -0.507719 -18.220492 22.394478 -0.039004 2.521140 0.082788 -0.033437 149859.000000 0 1 0
13.478925 0.054181 -19.456792 23.669624 0.004020 2.535737 0.093670 -0.037301 312382.000000 0 1 0
13.724725 1.445781 -19.194992 23.641194 0.104954 2.518247 0.124574 -0.049192 15230.100000 0 1 0
14.073025 2.377681 -20.417892 24.911718 0.167373 2.531526 0.100508 -0.040914 128366.000000 0 1 0
15.334525 2.206281 -21.039892 26.128382 0.142896 2.506894 0.093233 -0.034228 196250.000000 0 0 1
15.442525 3.140381 -22.088092 27.133326 0.200624 2.521901 0.097094 -0.034727 -877797.000000 0 0 1
16.811625 3.134181 -22.712992 28.431212 0.184314 2.496219 0.067677 -0.024881 -776698.000000 0 0 1
17.008425 1.921581 -23.462892 29.042835 0.112501 2.511329 0.053316 -0.024670 -1102450.000000 0 0 1
18.301625 1.494881 -23.271292 29.643501 0.081499 2.473555 0.046921 -0.023719 -1207230.000000 0 0 1
9.455149 26.569381 3.235022 28.386568 1.228905 1.456585 0.015413 -0.004535 -73626.700000 0 0 1
9.473649 27.062781 4.546022 29.031198 1.234066 1.413558 0.026608 -0.009474 558627.000000 0 0 1
10.813649 27.349481 4.950622 29.823444 1.194272 1.404027 0.041583 -0.011490 235314.000000 0 0 1
10.872949 27.981281 6.386022 30.691276 1.200174 1.361192 0.039775 -0.017885 -40991.300000 0 0 1
10.549649 27.066481 7.431822 29.985355 1.199142 1.320338 0.036960 -0.025552 5244.920000 0 0 1
10.432549 27.748781 8.630922 30.875974 1.211181 1.287486 0.041039 -0.021362 -470034.000000 0 0 1
10.561849 26.871981 9.904322 30.524607 1.196302 1.240345 0.046796 -0.020309 -757981.000000 0 0 1
11.793649 26.331481 10.206222 30.603987 1.149697 1.230790 0.056883 -0.026453 -773277.000000 0 0 1
12.290949 25.347981 9.334322 29.676879 1.119311 1.250833 0.060423 -0.031146 -704240.000000 0 0 1
13.600649 24.721581 9.797722 29.868539 1.067836 1.236581 0.066500 -0.035158 -948025.000000 0 0 1
14.671549 25.586781 9.915022 31.116642 1.050163 1.246501 0.074596 -0.038893 -3331.430000 0 0 1
15.708849 24.928581 10.677422 31.340221 1.008499 1.223141 0.074359 -0.040567 638957.000000 0 0 1
17.054049 25.662681 10.831322 32.660853 0.984263 1.232765 0.072913 -0.038232 -871114.000000 0 0 1
17.696949 26.024581 9.635022 32.913439 0.973614 1.273707 0.079020 -0.039430 1453530.000000 0 0 1
19.139949 25.938681 9.777322 33.686034 0.935089 1.276310 0.100564 -0.053703 1556430.000000 0 0 1
19.923849 26.875381 10.762122 35.143551 0.932859 1.259563 0.090784 -0.049424 -959888.000000 0 0 1
19.887749 28.224881 10.478022 36.082620 0.956978 1.276162 0.085249 -0.051386 -572456.000000 0 0 1
18.740749 28.909481 10.828922 36.114254 0.995648 1.266259 0.070180 -0.038627 -758408.000000 0 0 1
18.975949 30.397481 11.027922 37.492780 1.012729 1.272246 0.059703 -0.016497 -710337.000000 0 0 1
19.280749 31.206481 9.864622 37.985557 1.017359 1.308091 0.086012 -0.041003 413904.000000 0 0 1
18.238949 31.459681 8.913322 37.440862 1.045395 1.330424 0.089194 -0.043019 1660080.000000 0 0 1
16.814149 31.934581 9.458122 37.309371 1.086160 1.314494 0.084940 -0.041673 562057.000000 0 0 1
16.854949 33.247981 9.978522 38.588709 1.101607 1.309238 0.083535 -0.034824 1878940.000000 0 0 1
15.481149 33.726181 10.214622 38.489736 1.140463 1.302192 0.093308 -0.030782 2036980.000000 0 0 1
15.472849 -32.580802 10.332722 37.519100 -1.127424 1.291792 0.084209 -0.036189 -194677.000000 0 0 1
16.035149 -31.986302 9.216422 36.948504 -1.106099 1.318695 0.090933 -0.036987 -96840.700000 0 0 1
16.400449 -30.641902 9.389422 36.000863 -1.079364 1.306934 0.076196 -0.022276 -281573.000000 0 0 1
17.252849 -30.057802 8.249522 35.625649 -1.049722 1.337114 0.058492 -0.027015 -48761.300000 0 0 1
16.580749 -29.853802 7.001722 34.859645 -1.063818 1.368566 0.066335 -0.035439 -500002.000000 0 0 1
17.397849 -29.309702 6.040122 34.615414 -1.035106 1.395406 0.049014 -0.019307 -442098.000000 0 0 1
16.924749 -29.406702 4.552822 34.233455 -1.048556 1.437408 0.071576 -0.021351 -103580.000000 0 0 1
17.237849 -30.647202 4.001722 35.389380 -1.058437 1.457477 0.076004 -0.025181 -142245.000000 0 0 1
17.105249 -30.638502 2.598422 35.186065 -1.061609 1.496881 0.073429 -0.019168 -147004.000000 0 0 1
17.206549 -32.009202 1.998322 36.395709 -1.077562 1.515863 0.085640 -0.022276 -646080.000000 0 0 1
18.472149 -32.590502 1.967022 37.513068 -1.055150 1.518337 0.095656 -0.014987 -502147.000000 0 0 1
18.565149 -33.916802 1.567022 38.697155 -1.069972 1.530291 0.112592 -0.020885 -183146.000000 0 0 1
20.024449 33.466581 1.649222 39.034735 1.031597 1.528534 0.110223 -0.022371 302435.000000 0 0 1
20.558849 33.252181 3.014922 39.210504 1.017051 1.493830 0.111594 -0.040158 37088.300000 0 0 1
21.917549 32.918481 3.018822 39.662560 0.983385 1.494610 0.090669 -0.028213 -227568.000000 0 0 1
22.429549 32.304581 4.367722 39.569529 0.963896 1.460190 0.089166 -0.027469 320428.000000 0 0 1
21.649349 31.190881 4.858422 38.277535 0.964046 1.443527 0.094479 -0.039011 293265.000000 0 0 1
22.317349 30.676681 5.949222 38.399428 0.941850 1.415240 0.077306 -0.040414 -263513.000000 0 0 1
21.415449 29.851781 6.808722 37.364542 0.948493 1.387548 0.091409 -0.044616 -366728.000000 0 0 1
20.813049 28.638981 6.274022 35.954661 0.942350 1.395400 0.104251 -0.042414 -228675.000000 0 0 1
19.719049 28.232781 7.002222 35.142025 0.961115 1.370199 0.101282 -0.048294 -604368.000000 0 0 1
18.322649 28.441081 6.401822 34.432512 0.998487 1.383784 0.113430 -0.047298 -301341.000000 0 0 1
17.896849 29.781881 6.338722 35.319075 1.029693 1.390348 0.107601 -0.055277 144259.000000 0 0 1
18.330249 30.504281 5.184222 35.963667 1.029710 1.426141 0.118267 -0.050008 -505676.000000 0 0 1
18.143449 32.055481 5.215822 37.201390 1.055751 1.430128 0.120231 -0.044750 -543385.000000 0 0 1
16.832449 32.499281 5.331222 36.985897 1.092905 1.426150 0.109011 -0.041061 -744079.000000 0 0 1
16.761549 33.893381 5.446122 38.201716 1.111528 1.427747 0.107455 -0.043897 -766803.000000 0 0 1
15.373249 -33.372702 5.557122 37.161211 -1.139118 1.420692 0.089963 -0.041844 -644629.000000 0 0 1
14.504149 -33.489202 4.436022 36.763777 -1.162086 1.449839 0.093929 -0.034835 -109833.000000 0 0 1
13.526349 -32.486402 4.635922 35.493946 -1.176258 1.439810 0.088896 -0.031076 -466381.000000 0 0 1
12.626949 -32.317102 3.447822 34.867211 -1.198315 1.471750 0.084460 -0.024028 -197982.000000 0 0 1
11.624849 -31.327102 3.523122 33.599655 -1.215467 1.465747 0.093313 -0.033174 153308.000000 0 0 1
10.760649 -31.236402 2.428022 33.127023 -1.239038 1.497436 0.084018 -0.020923 -1144750.000000 0 0 1
9.812249 -30.065602 2.411622 31.718080 -1.255334 1.494690 0.093452 -0.026176 -291241.000000 0 0 1
9.136949 -29.623802 1.207722 31.024379 -1.271621 1.531858 0.096649 -0.012997 548202.000000 0 0 1
8.096249 -30.532402 0.837622 31.598709 -1.311593 1.544285 0.072871 -0.014740 -438954.000000 0 0 1
8.328649 -31.083702 -0.588578 32.185546 -1.309003 1.589084 0.084287 -0.016230 -111653.000000 0 0 1
9.510249 -31.837402 -0.725078 33.235384 -1.280521 1.592615 0.080194 -0.028223 -350975.000000 0 0 1
9.638649 -32.551902 -1.894278 34.001738 -1.282920 1.626536 0.068073 -0.012408 675788.000000 0 0 1
10.989749 -33.369502 -1.957178 35.187055 -1.252648 1.626447 0.070227 -0.009631 765844.000000 0 0 1
11.186549 33.647181 -0.860878 35.468476 1.249826 1.595070 0.065328 -0.006242 -1256130.000000 0 0 1
12.314049 32.932381 -1.079378 35.175881 1.212974 1.601486 0.076773 -0.014472 -1519350.000000 0 0 1
12.520349 31.860081 0.006522 34.231915 1.196357 1.570606 0.074035 -0.017754 -410694.000000 0 0 1
12.812449 32.256481 1.328522 34.733333 1.192701 1.532538 0.082702 -0.020737 1124690.000000 0 0 1
14.119649 32.833581 1.615822 35.777359 1.164667 1.525618 0.091882 -0.023350 1619740.000000 0 0 1
15.283649 31.766981 1.658222 35.291369 1.122369 1.523792 0.104550 -0.029189 142607.000000 0 0 1
15.898049 31.502281 0.386022 35.288677 1.103425 1.559857 0.101987 -0.031328 521437.000000 0 0 1
16.831849 30.427581 0.480122 34.776132 1.065517 1.556990 0.108643 -0.027336 170908.000000 0 0 1
17.595549 29.971381 -0.773478 34.763275 1.039932 1.593048 0.102198 -0.023544 123595.000000 0 0 1
18.700549 30.745781 -1.207578 36.006553 1.024346 1.604340 0.088304 -0.018806 65680.700000 0 0 1
18.403149 31.885381 -1.997878 36.869296 1.047336 1.625011 0.088244 -0.024810 -94950.200000 0 0 1
19.656749 32.686681 -2.408278 38.217885 1.029371 1.633853 0.100766 -0.020587 -70445.700000 0 0 1
20.293649 33.500281 -1.445278 39.194258 1.026141 1.607679 0.094607 -0.018850 -35507.000000 0 0 1
21.377349 -33.780302 -2.169278 40.035055 -1.006583 1.625007 0.098953 -0.019025 -1135130.000000 0 0 1
22.399049 -33.190602 -1.178478 40.058985 -0.977142 1.600219 0.094603 -0.013643 -542599.000000 0 0 1
23.339549 33.780681 -0.595178 41.063648 0.966194 1.585291 0.087412 -0.012453 807215.000000 0 0 1
24.233449 33.023181 -1.417678 40.985368 0.937724 1.605393 0.089794 -0.010002 355917.000000 0 0 1
25.107649 33.720281 -2.546578 42.118125 0.930769 1.631296 0.075317 -0.011099 -225137.000000 0 0 1
24.290449 -33.748602 -3.656878 41.741668 -0.946940 1.658516 0.088069 -0.020857 193483.000000 0 0 1
24.984849 -33.081102 -4.692678 41.720777 -0.923937 1.683513 0.082164 -0.015099 173113.000000 0 0 1
24.075449 -32.744602 -5.946878 41.075559 -0.936803 1.716086 0.080232 -0.021622 209726.000000 0 0 1
23.054949 -31.802102 -5.689378 39.689714 -0.943521 1.714638 0.097366 -0.020618 60937.200000 0 0 1
22.628749 -31.241102 -6.895778 39.186969 -0.943930 1.747689 0.097650 -0.026644 228633.000000 0 0 1
21.613649 -30.041602 -6.760078 37.621089 -0.947131 1.751466 0.109916 -0.030387 350576.000000 0 0 1
20.294249 -30.374302 -6.447178 37.094755 -0.981775 1.745486 0.106614 -0.024731 -69065.800000 0 0 1
19.477449 -29.204402 -6.177778 35.643135 -0.982608 1.744999 0.120868 -0.037917 682727.000000 0 0 1
18.359849 -29.227602 -5.112578 34.892338 -1.009922 1.717850 0.099689 -0.027910 136990.000000 0 0 1
17.193249 -29.844102 -5.599478 34.894590 -1.048134 1.731961 0.097735 -0.032201 -354842.000000 0 0 1
16.172849 -29.791302 -4.618678 34.211327 -1.073443 1.706214 0.075456 -0.022796 1036530.000000 0 0 1
14.843449 -30.553302 -5.040278 34.340015 -1.118556 1.718104 0.068283 -0.016647 840419.000000 0 0 1
14.979349 -31.956202 -4.950078 35.638224 -1.132463 1.710145 0.060692 -0.005878 639184.000000 0 0 1
13.690249 -32.576202 -5.081278 35.699457 -1.172953 1.713616 0.062637 -0.000836 590834.000000 0 0 1
13.868849 33.725681 -5.144178 36.827016 1.180651 1.710940 0.060120 -0.005351 -30331.800000 0 0 1
14.113649 33.142681 -3.871978 36.230162 1.168210 1.677872 0.070267 -0.012750 -16866.800000 0 0 1
14.573249 31.803981 -3.854478 35.195594 1.141127 1.680532 0.074462 -0.016644 -378708.000000 0 0 1
13.663249 30.728981 -4.431578 33.920400 1.152411 1.701817 0.070427 -0.014994 -553087.000000 0 0 1
12.705949 30.168181 -3.590478 32.931016 1.172174 1.680044 0.064971 -0.014722 -288807.000000 0 0 1
13.205349 29.234181 -2.630678 32.186007 1.146522 1.652621 0.072986 -0.021775 566184.000000 0 0 1
12.055349 28.378581 -1.932978 30.893555 1.169091 1.633406 0.054642 -0.017556 875568.000000 0 0 1
11.202949 29.154981 -1.139678 31.254086 1.203936 1.607269 0.052712 -0.016549 -242668.000000 0 0 1
10.326049 28.387081 -0.326778 30.208616 1.221917 1.581614 0.029462 -0.003329 411325.000000 0 0 1
9.115149 29.169181 0.227122 30.561065 1.267918 1.563365 0.021602 0.003561 621972.000000 0 0 1
8.196149 28.446481 1.055222 29.622503 1.290269 1.535166 0.018318 -0.003346 150461.000000 0 0 1
6.982349 29.149981 1.212322 29.999072 1.335694 1.530373 0.028598 -0.004049 -331289.000000 0 0 1
5.909049 28.373181 1.949922 29.047487 1.365470 1.503617 0.019945 -0.007261 -415234.000000 0 0 1
5.375349 27.386881 1.131222 27.932335 1.376985 1.530287 0.030912 -0.013229 -520923.000000 0 0 1
4.218649 26.808981 1.679922 27.190819 1.414717 1.508974 0.033069 -0.017791 -128728.000000 0 0 1
3.428849 26.049281 0.576522 26.280305 1.439919 1.548857 0.038835 -0.016713 -644037.000000 0 0 1
2.452649 25.248681 1.152922 25.393712 1.473960 1.525379 0.057283 -0.021060 -550110.000000 0 0 1
1.981449 24.365381 0.119622 24.446109 1.489653 1.565903 0.052875 -0.019238 -393236.000000 0 1 0
0.583849 23.868081 0.470922 23.879865 1.546340 1.551075 0.050873 -0.016012 -372650.000000 0 1 0
-0.435851 24.834781 0.607522 24.846034 -1.553248 1.546342 0.063712 -0.025867 -727925.000000 0 1 0
-1.652651 24.165581 0.668122 24.231239 -1.502514 1.543220 0.051541 -0.015876 -537736.000000 0 1 0
-2.802751 24.995081 1.269922 25.183769 -1.459131 1.520349 0.079405 -0.030758 381985.000000 0 0 1
-4.084151 24.417481 1.040722 24.778555 -1.405067 1.528783 0.080268 -0.016722 735136.000000 0 1 0
-5.122451 24.903381 1.881722 25.494289 -1.367933 1.496920 0.075598 -0.024928 -332217.000000 0 0 1
-6.438651 25.263781 1.259922 26.101768 -1.321252 1.522508 0.080263 -0.027904 -873302.000000 0 0 1
-6.381051 26.349581 0.366022 27.113691 -1.333202 1.557296 0.097015 -0.024437 535007.000000 0 0 1
-7.588851 26.518681 -0.403778 27.586123 -1.292075 1.585434 0.091994 -0.020307 562997.000000 0 0 1
-7.618751 27.729481 -1.364278 28.789421 -1.302660 1.618202 0.089602 -0.012862 36752.900000 0 0 1
-7.734151 29.021681 -0.764178 30.044285 -1.310354 1.596234 0.114105 -0.028994 -104380.000000 0 0 1
-7.628951 30.035081 -1.796878 31.040873 -1.322055 1.628716 0.104677 -0.025739 -21290.400000 0 0 1
-7.472051 31.490381 -1.256178 32.389098 -1.337824 1.609590 0.085383 -0.020343 -740644.000000 0 0 1
-7.697251 32.559881 -2.171878 33.527759 -1.338655 1.635620 0.076917 -0.004073 -543373.000000 0 0 1
-6.898251 32.706781 -3.309078 33.589722 -1.362931 1.669471 0.073099 -0.008336 -429253.000000 0 0 1
-5.413451 32.998781 -3.036178 33.577424 -1.408195 1.661343 0.095253 -0.015506 -956178.000000 0 0 1
-5.148451 -33.652202 -2.377678 34.126685 1.418983 1.640525 0.095512 -0.024018 -50546.500000 0 0 1
-4.827751 -33.812602 -1.025578 34.170909 1.428975 1.600814 0.119828 -0.039115 -340758.000000 0 0 1
-4.627851 -32.427602 -0.349578 32.758031 1.429040 1.581468 0.121479 -0.039674 -286516.000000 0 0 1
-5.786851 -31.641302 -0.358678 32.168125 1.389906 1.581947 0.105983 -0.027108 -355622.000000 0 0 1
-5.908451 -30.728102 -1.448478 31.324497 1.380833 1.617054 0.112522 -0.024216 -203082.000000 0 0 1
-7.253951 -29.987102 -1.414478 30.884411 1.333453 1.616611 0.126231 -0.031855 -217658.000000 0 0 1
-7.412851 -29.156602 -0.276378 30.085448 1.321829 1.579983 0.113464 -0.024222 -116131.000000 0 0 1
-8.637951 -28.450202 -0.314278 29.734273 1.276025 1.581366 0.077278 -0.014047 131612.000000 0 0 1
-8.780451 -27.801202 1.107622 29.175846 1.264881 1.532824 0.080378 -0.014921 110176.000000 0 0 1
-7.946751 -26.687002 1.400222 27.880236 1.281381 1.520552 0.096407 -0.022873 -234796.000000 0 0 1
-7.788251 -26.296702 2.782122 27.566530 1.282859 1.469700 0.111719 -0.023889 277151.000000 0 0 1
-8.724451 -25.173502 3.318822 26.848386 1.237178 1.446866 0.102090 -0.018322 414663.000000 0 0 1
-8.275551 -23.899302 2.827022 25.449036 1.237451 1.459481 0.106214 -0.020091 -405515.000000 0 0 1
-9.111451 -22.912902 3.301122 24.878043 1.192312 1.437712 0.106344 -0.028689 -167907.000000 0 1 0
-8.291451 -21.671802 3.727322 23.501236 1.205387 1.411523 0.069110 -0.009270 522000.000000 0 1 0
-7.514251 -21.765802 4.905322 23.543073 1.238375 1.360903 0.084328 -0.011695 -114802.000000 0 1 0
-7.003651 -20.481202 5.313922 22.288305 1.241306 1.330060 0.061042 -0.011565 -4208.310000 0 1 0
-8.108651 -19.492702 5.756722 21.882767 1.176587 1.304592 0.064971 -0.016192 94977.500000 0 1 0
-8.693251 -19.933202 6.955122 22.831533 1.159545 1.261249 0.081532 -0.017306 -286021.000000 0 1 0
-9.384951 -18.871502 7.548822 22.387398 1.109305 1.226865 0.063439 -0.019166 -684289.000000 0 1 0
-28.184971 28.273381 -5.561578 40.307665 -0.786964 1.709216 0.133875 -0.011066 104271.000000 0 0 1
-27.605601 29.258681 -4.687378 40.498286 -0.814461 1.686799 0.117260 -0.020340 182519.000000 0 0 1
-26.524771 28.618381 -4.023878 39.227118 -0.823347 1.673556 0.102905 -0.016844 -135837.000000 0 0 1
-25.577591 29.557781 -3.306978 39.227691 -0.857463 1.655199 0.087142 -0.013292 -611598.000000 0 0 1
-26.124861 30.074581 -2.115978 39.893184 -0.855563 1.623862 0.069278 -0.019199 178590.000000 0 0 1
-25.339351 31.121181 -1.606578 40.164558 -0.887447 1.610807 0.064044 -0.021298 621755.000000 0 0 1
-24.055051 30.738681 -0.787778 39.040141 -0.906777 1.590976 0.051300 -0.017128 868647.000000 0 0 1
-22.962851 30.238381 -1.550378 38.000736 -0.921310 1.611606 0.086353 -0.022578 -32024.400000 0 0 1
-21.776451 30.253481 -0.803078 37.284472 -0.946905 1.592337 0.081699 -0.020074 520304.000000 0 0 1
-20.509451 29.809381 -1.630678 36.220104 -0.968156 1.615833 0.092494 -0.023746 900224.000000 0 0 1
-19.314051 29.695281 -0.865778 35.434332 -0.994134 1.595232 0.101922 -0.024906 652934.000000 0 0 1
-18.285551 28.936581 -1.502678 34.262883 -1.007238 1.614668 0.109926 -0.024141 765165.000000 0 0 1
-16.834451 29.147081 -0.997978 33.674130 -1.047034 1.600437 0.118268 -0.028321 247976.000000 0 0 1
-16.557051 28.432281 0.205322 32.902473 -1.043469 1.564556 0.118310 -0.034063 -183563.000000 0 0 1
-15.361751 28.950881 0.726122 32.782071 -1.082958 1.548645 0.121742 -0.039751 -24558.300000 0 0 1
-14.615851 28.109781 1.786322 31.732851 -1.091312 1.514474 0.125542 -0.039402 -7982.150000 0 0 1
-15.277151 28.131281 3.079722 32.159680 -1.073292 1.474886 0.125146 -0.041362 -21687.900000 0 0 1
-14.606151 27.604181 4.188722 31.509933 -1.084119 1.437468 0.134620 -0.050671 155495.000000 0 0 1
-13.468351 28.454581 4.844622 31.851688 -1.128713 1.418104 0.117823 -0.040445 -23742.100000 0 0 1
-13.806051 29.628681 5.618322 33.166720 -1.134742 1.400579 0.095148 -0.036016 -529230.000000 0 0 1
-14.210951 30.716881 4.801722 34.183833 -1.137478 1.429863 0.095283 -0.032594 -57824.300000 0 0 1
-14.138951 32.071481 5.568922 35.489474 -1.155571 1.413228 0.098291 -0.031464 -130545.000000 0 0 1
-15.171051 32.303881 6.496522 36.275423 -1.131734 1.390736 0.105886 -0.040953 -50184.800000 0 0 1
-15.027151 33.607281 7.051922 37.483253 -1.150324 1.381533 0.081931 -0.030873 382019.000000 0 0 1
-16.204251 -33.903602 8.007422 38.420708 1.124943 1.360843 0.068020 -0.027250 332251.000000 0 0 1
-16.093851 33.281481 9.258022 38.110104 -1.120381 1.325413 0.045088 -0.031177 -22613.900000 0 0 1
-17.278651 33.560781 9.965022 39.040741 -1.095342 1.312693 0.048633 -0.030006 -655399.000000 0 0 1
-17.392451 32.839881 11.350522 38.856010 -1.083739 1.274356 0.040167 -0.020056 279252.000000 0 0 1
-16.627051 33.342281 12.463622 39.287510 -1.108207 1.247977 0.051918 -0.027569 -191552.000000 0 0 1
-15.251551 33.112381 12.327622 38.483891 -1.139163 1.244716 0.060933 -0.025690 -570893.000000 0 0 1
-14.475151 33.308681 13.659722 38.801885 -1.160843 1.211049 0.061585 -0.026686 -212340.000000 0 0 1
-14.767651 32.277081 14.609322 38.383926 -1.141700 1.180340 0.051774 -0.018958 -267758.000000 0 0 1
-13.925351 31.145881 14.582522 37.102982 -1.150356 1.166874 0.037143 -0.017803 -450096.000000 0 0 1
-14.525251 29.867181 13.972922 36.031569 -1.118146 1.172556 0.029044 -0.018267 -126086.000000 0 0 1
-14.638651 29.777581 12.573622 35.483664 -1.113891 1.208578 0.033587 -0.012859 402072.000000 0 0 1
-15.850751 29.115581 12.239822 35.338034 -1.072257 1.217104 0.028457 -0.013508 144542.000000 0 0 1
-16.104951 28.964481 10.738222 34.837050 -1.063340 1.257452 0.041074 -0.017172 402929.000000 0 0 1
-15.184551 28.008981 10.173522 33.445092 -1.074014 1.261713 0.041113 -0.019952 512366.000000 0 0 1
-15.234051 28.079781 8.736722 33.119190 -1.073708 1.303840 0.060360 -0.023404 53988.600000 0 0 1
-14.445551 26.851281 8.228522 31.581226 -1.077225 1.307203 0.069283 -0.028875 -450722.000000 0 0 1
-13.066851 27.030381 8.169722 31.114763 -1.120506 1.305114 0.086575 -0.032427 -406867.000000 0 0 1
-12.419751 25.746381 7.904822 29.658263 -1.121337 1.301005 0.095513 -0.035930 -586844.000000 0 0 1
-11.106551 25.856081 7.190022 29.044601 -1.165076 1.320644 0.128142 -0.043276 -1086740.000000 0 0 1
-11.148851 26.414581 5.884022 29.268562 -1.171408 1.368381 0.132842 -0.040345 137014.000000 0 0 1
-9.966951 26.177081 5.140622 28.478162 -1.206993 1.389290 0.126029 -0.034853 -3150.520000 0 0 1
-10.140251 26.460981 3.631122 28.569096 -1.204843 1.443352 0.127207 -0.034606 12227.500000 0 0 1
-10.154951 27.822581 3.317722 29.803126 -1.220831 1.459244 0.125786 -0.024921 43574.200000 0 0 1
-10.285951 28.055081 1.907322 29.942048 -1.219380 1.507053 0.123656 -0.028821 135324.000000 0 0 1
-10.069851 29.538881 1.482422 31.243319 -1.242250 1.523331 0.134144 -0.032801 587497.000000 0 0 1
-11.012451 30.364981 2.193022 32.374612 -1.222880 1.503005 0.123924 -0.035550 154855.000000 0 0 1
-10.792551 31.768081 1.992422 33.610414 -1.243300 1.511482 0.119178 -0.030766 -259115.000000 0 0 1
-11.685351 32.808981 2.722522 34.934064 -1.228642 1.492784 0.112396 -0.032611 1223520.000000 0 0 1
-13.079951 32.895781 2.357222 35.479206 -1.192345 1.504308 0.119993 -0.034914 871309.000000 0 0 1
-13.158951 33.736281 1.206922 36.231910 -1.198894 1.537479 0.100154 -0.023213 -192765.000000 0 0 1
-14.649351 33.876381 0.813422 36.917128 -1.162645 1.548761 0.103466 -0.020591 273534.000000 0 0 1
-15.239851 32.791481 0.118922 36.160039 -1.135744 1.567508 0.097863 -0.017890 -61430.000000 0 0 1
-15.351451 32.893481 -1.308478 36.322999 -1.134140 1.606828 0.106059 -0.024898 277743.000000 0 0 1
-14.046151 32.654081 -2.131278 35.610753 -1.164572 1.630681 0.102998 -0.015615 306607.000000 0 0 1
-13.595451 31.328181 -2.039478 34.211850 -1.161354 1.630445 0.103438 -0.014571 131916.000000 0 0 1
-12.193451 31.266681 -2.222178 33.633669 -1.198956 1.636915 0.090591 -0.010167 142630.000000 0 0 1
-11.553451 29.851581 -2.314078 32.092898 -1.201521 1.642965 0.055552 -0.015218 105367.000000 0 0 1
-11.790951 29.224481 -3.516178 31.708995 -1.187310 1.681914 0.075198 -0.027502 560651.000000 0 0 1
-10.623251 29.273881 -4.366678 31.446486 -1.222683 1.710107 0.058291 -0.013982 715310.000000 0 0 1
-10.831051 28.850081 -5.843078 31.365274 -1.211653 1.758182 0.057095 -0.012477 -70752.200000 0 0 1
-11.263451 27.519481 -5.908178 30.316559 -1.182307 1.766934 0.059705 -0.010462 97181.700000 0 0 1
-10.858351 26.983081 -7.141878 29.949906 -1.188211 1.811577 0.056365 -0.010368 15775.500000 0 0 1
-11.447551 25.585681 -7.274078 28.958345 -1.150090 1.824707 0.074937 -0.022473 130589.000000 0 0 1
-10.763251 24.624781 -6.477578 27.643922 -1.158730 1.807317 0.038094 -0.013527 210769.000000 0 0 1
-11.164951 23.279181 -6.811178 26.701471 -1.123593 1.828733 0.098396 -0.034536 335213.000000 0 0 1
-10.512251 22.204181 -5.855578 25.255116 -1.128625 1.804783 0.072699 -0.029241 -301378.000000 0 0 1
-9.157751 21.885181 -6.022278 24.476385 -1.174491 1.819393 0.062879 -0.022950 -194782.000000 0 1 0
-8.663551 20.683881 -5.414978 23.069505 -1.174142 1.807731 0.058314 -0.015165 -392656.000000 0 1 0
-8.546051 20.648081 -3.869778 22.679361 -1.178373 1.742265 0.055209 -0.026386 -1524090.000000 0 1 0
-9.679751 20.671181 -3.144678 23.040927 -1.132851 1.707706 0.069358 -0.027761 -1542450.000000 0 1 0
-10.505351 19.520081 -3.256478 22.405370 -1.077072 1.716657 0.072064 -0.025726 613432.000000 0 1 0
-11.731851 19.573981 -2.241278 22.930338 -1.030848 1.668696 0.067524 -0.023565 636514.000000 0 1 0
-11.444151 19.530881 -0.844178 22.652518 -1.040771 1.608071 0.057066 -0.029086 58103.500000 0 1 0
-11.100951 18.250281 -0.289878 21.363237 -1.024324 1.584366 0.052768 -0.020808 2171.660000 0 1 0
-10.874951 18.284681 1.239722 21.310351 -1.034241 1.512589 0.056112 -0.025574 278547.000000 0 1 0
-12.162551 18.306281 1.827122 22.054160 -0.984370 1.487854 0.078836 -0.032419 506903.000000 0 1 0
-11.984451 18.404681 3.213322 22.196504 -0.993604 1.425519 0.078530 -0.028970 -226992.000000 0 1 0
-13.328651 18.400481 3.936822 23.059254 -0.943905 1.399230 0.090242 -0.033944 -119382.000000 0 1 0
-13.848351 17.057381 4.069922 22.344918 -0.888860 1.387633 0.067142 -0.030816 873885.000000 0 1 0
-15.164051 17.047381 4.629222 23.280708 -0.843799 1.370618 0.087614 -0.041021 585565.000000 0 1 0
-15.620351 15.721581 5.324522 22.792850 -0.788628 1.335013 0.068764 -0.032982 49034.300000 0 1 0
-14.818251 15.357881 6.462522 22.298190 -0.803279 1.276755 0.066827 -0.020499 342831.000000 0 1 0
-15.086351 16.080081 7.638522 23.334824 -0.817272 1.237305 0.060758 -0.011254 -233297.000000 0 1 0
-13.995551 15.860881 8.747922 22.890372 -0.847794 1.178657 0.061255 -0.008986 1859710.000000 0 1 0
-12.759851 16.620681 8.700022 22.688130 -0.916057 1.177255 0.061110 -0.023419 838134.000000 0 1 0
-11.902351 16.406581 7.635222 21.659605 -0.943185 1.210545 0.057282 -0.021687 -1317950.000000 0 1 0
-10.808051 17.432181 7.510122 21.842547 -1.015797 1.219804 0.073805 -0.027315 -210360.000000 0 1 0
-9.798151 17.281281 8.502522 21.608779 -1.055010 1.166387 0.066143 -0.025843 -146242.000000 0 1 0
-8.896051 18.345981 8.428222 22.062404 -1.119298 1.178818 0.054678 -0.033899 -1027890.000000 0 1 0
-7.722051 18.313281 9.359122 21.968148 -1.171755 1.130695 0.049296 -0.031399 -1623460.000000 0 1 0
-6.749351 17.462581 8.847022 20.706648 -1.201979 1.129342 0.044555 -0.027218 646940.000000 0 1 0
-5.444051 17.627381 9.488122 20.745764 -1.271249 1.095781 0.041217 -0.029328 1472800.000000 0 1 0
-4.580751 18.796381 8.982322 21.330010 -1.331752 1.136125 0.032638 -0.026989 -1750900.000000 0 1 0
-5.086551 20.120681 9.221722 22.710239 -1.323182 1.152658 0.046477 -0.031552 -188538.000000 0 1 0
-4.409151 21.148481 8.560122 23.237353 -1.365255 1.193533 0.042796 -0.028333 819681.000000 0 1 0
-2.919851 21.506281 8.900022 23.457537 -1.435854 1.181638 0.045025 -0.026167 1616170.000000 0 1 0
-1.854551 20.622081 8.460622 22.367202 -1.481107 1.182880 0.030039 -0.009858 845251.000000 0 1 0
-0.655751 21.340181 8.194722 22.868905 -1.540078 1.204313 0.026833 -0.013941 -462191.000000 0 1 0
0.557049 20.480881 8.119922 22.038828 1.543605 1.193469 0.016621 -0.010695 -637145.000000 0 1 0
0.924549 19.934581 9.404522 22.060992 1.524450 1.130402 0.018866 -0.009561 -816042.000000 0 1 0
2.139449 19.262581 9.425522 21.551444 1.460182 1.118147 0.010431 -0.018726 -584351.000000 0 1 0
2.669149 18.831181 10.787522 21.865690 1.429993 1.054855 0.008846 -0.029797 916273.000000 0 1 0
4.050449 18.401081 10.707222 21.671422 1.354131 1.054030 0.030629 -0.022034 1288560.000000 0 1 0
4.638049 18.047281 11.988722 22.157286 1.319246 0.999083 0.034519 -0.023953 -508282.000000 0 1 0
6.150049 18.131081 11.961922 22.575358 1.243776 1.012353 0.040825 -0.031302 -930573.000000 0 1 0
6.852749 17.213881 11.182522 21.640857 1.191934 1.027767 0.034317 -0.031151 159948.000000 0 1 0
7.670249 16.428781 12.071022 21.781808 1.133995 0.983420 0.041898 -0.025597 -264127.000000 0 1 0
8.935249 15.756481 11.495222 21.453333 1.054931 1.005312 0.045445 -0.031691 -601067.000000 0 1 0
9.852249 16.688181 11.078322 22.322442 1.037486 1.051481 0.058387 -0.035794 -352817.000000 0 1 0
10.866349 16.104681 10.259122 21.970159 0.977231 1.084950 0.052993 -0.039328 377721.000000 0 1 0
12.125049 16.996881 10.125722 23.204332 0.951154 1.119234 0.059358 -0.036978 155833.000000 0 1 0
13.115049 16.641281 9.175922 23.089701 0.903352 1.162111 0.063437 -0.027985 55445.500000 0 1 0
14.179849 17.566581 9.251222 24.397500 0.891677 1.181878 0.073796 -0.025423 169293.000000 0 1 0
15.107649 17.463281 8.013122 24.442123 0.857596 1.236779 0.080044 -0.018983 -474560.000000 0 1 0
15.767549 16.304181 7.700722 23.952934 0.802129 1.243490 0.099111 -0.039367 238082.000000 0 1 0
16.837149 16.455381 6.770622 24.497153 0.773932 1.290767 0.101550 -0.029139 426488.000000 0 1 0
18.211249 16.762681 7.419022 25.839485 0.744003 1.279578 0.108537 -0.026682 -557366.000000 0 0 1
18.646149 15.574781 8.059322 25.596980 0.695887 1.250493 0.113633 -0.028126 724044.000000 0 0 1
19.756149 15.928981 8.916422 26.898707 0.678558 1.232923 0.104930 -0.028575 526880.000000 0 0 1
20.121449 14.807081 9.936722 26.886071 0.634406 1.192233 0.098000 -0.028014 -86062.900000 0 0 1
20.690249 13.645881 9.348722 26.489528 0.583047 1.210105 0.095897 -0.032275 298802.000000 0 0 1
20.599249 12.556181 10.225222 26.201945 0.547409 1.169897 0.093922 -0.040225 -489706.000000 0 0 1
21.467749 11.330081 9.890322 26.211705 0.485618 1.183891 0.085384 -0.029943 -1045480.000000 0 0 1
22.787149 11.557881 10.354822 27.569206 0.469399 1.185759 0.099456 -0.043098 461648.000000 0 0 1
23.746549 10.825781 9.618122 27.813745 0.427740 1.217700 0.135719 -0.031345 -142966.000000 0 0 1
23.763649 9.313981 9.969522 27.401690 0.373541 1.198421 0.143517 -0.037964 -1320280.000000 0 0 1
22.666449 8.625081 9.444522 26.026120 0.363603 1.199433 0.141891 -0.036503 137640.000000 0 0 1
22.680249 7.204781 9.664922 25.684884 0.307586 1.185009 0.140172 -0.040424 269732.000000 0 0 1
23.894849 6.399781 9.031422 26.334153 0.261689 1.220736 0.173387 -0.042101 736069.000000 0 0 1
23.895349 6.552081 7.638022 25.927917 0.267621 1.271773 0.160006 -0.025284 479645.000000 0 0 1
24.965249 5.823081 7.049822 26.587063 0.229151 1.302427 0.172451 -0.032034 239966.000000 0 0 1
24.619249 5.360181 5.580122 25.806525 0.214378 1.352846 0.160159 -0.033823 492629.000000 0 0 1
23.782349 4.157381 5.582722 24.780047 0.173061 1.343555 0.153975 -0.024941 938935.000000 0 1 0
23.287249 3.911381 4.257322 23.994159 0.166409 1.392420 0.138163 -0.027689 -460164.000000 0 1 0
22.268449 2.821481 4.173322 22.831145 0.126032 1.386972 0.110038 -0.021235 -73929.400000 0 1 0
22.899849 1.545281 4.527222 23.394160 0.067378 1.376048 0.147473 -0.025157 1228550.000000 0 1 0
21.927149 0.535981 4.235522 22.338908 0.024439 1.380039 0.121933 -0.020265 -189187.000000 0 1 0
22.566949 -0.795919 4.155122 22.960090 -0.035255 1.388822 0.148934 -0.021245 -646381.000000 0 1 0
22.841149 -1.290919 5.444522 23.516534 -0.056457 1.337158 0.159112 -0.027909 507378.000000 0 1 0
23.027149 -2.667019 5.501422 23.824950 -0.115307 1.337783 0.156178 -0.032074 -271817.000000 0 1 0
23.043349 -3.209619 6.969222 24.287191 -0.138396 1.279754 0.184235 -0.033897 -71773.600000 0 1 0
22.858949 -4.616419 7.087522 24.373671 -0.199272 1.275748 0.155232 -0.037163 422952.000000 0 1 0
22.926249 -5.091019 8.362322 24.929095 -0.218515 1.228720 0.186560 -0.041901 -149419.000000 0 1 0
22.543749 -6.518919 8.572822 24.984199 -0.281489 1.220549 0.173153 -0.047796 -322004.000000 0 1 0
21.152349 -6.663819 8.712222 23.827110 -0.305196 1.196473 0.160359 -0.041690 171889.000000 0 1 0
20.894549 -7.995219 9.084922 24.146252 -0.365457 1.185056 0.150316 -0.044621 -159240.000000 0 1 0
-27.642951 -32.455402 5.302122 42.960428 0.865304 1.447062 0.038896 -0.016992 152822.000000 0 0 1
-28.337981 -33.586002 5.798522 44.324751 0.869946 1.439601 0.048247 -0.015051 144978.000000 0 0 1
-28.414941 -33.556302 7.169422 44.551486 0.868172 1.409169 0.042116 -0.008738 -121812.000000 0 0 1
-29.091411 33.065981 7.792222 44.725698 -0.849255 1.395680 0.047667 -0.007318 1208610.000000 0 0 1
-30.526421 32.960681 7.662222 45.573880 -0.823722 1.401867 0.055673 -0.012335 928405.000000 0 0 1
-31.061131 31.688381 7.960522 45.081230 -0.795394 1.393284 0.066480 -0.023708 45699.200000 0 0 1
-32.591391 31.698381 8.078522 46.176278 -0.771509 1.394942 0.073369 -0.023673 -288515.000000 0 0 1
-33.252021 31.928281 6.869322 46.607935 -0.765092 1.422872 0.057280 -0.023758 -556607.000000 0 0 1
-34.645817 31.991481 6.937122 47.664569 -0.745587 1.424737 0.056230 -0.028444 -569370.000000 0 0 1
-35.211310 31.995981 5.523822 47.896678 -0.737593 1.455211 0.041068 -0.024357 -486860.000000 0 0 1
-35.078702 30.773481 4.880022 46.918409 -0.720114 1.466597 0.045613 -0.025054 257664.000000 0 0 1
-35.909447 30.653981 3.740022 47.361828 -0.706607 1.491747 0.051771 -0.016177 -277765.000000 0 0 1
-35.681389 29.322681 3.057422 46.285300 -0.687888 1.504692 0.058817 -0.021013 -141344.000000 0 0 1
-35.940744 28.167481 3.803922 45.821544 -0.664735 1.487685 0.089673 -0.032436 -81749.100000 0 0 1
-35.424934 26.998081 3.229922 44.657079 -0.651213 1.498406 0.082786 -0.028199 -257986.000000 0 0 1
-35.961964 25.711081 3.912322 44.380500 -0.620691 1.482528 0.097835 -0.031637 -903365.000000 0 0 1
-37.242741 25.409581 3.523222 45.222579 -0.598727 1.492809 0.109701 -0.027740 -1226440.000000 0 0 1
36.678305 24.678081 4.553822 44.441456 0.592254 1.468148 0.114779 -0.024890 475399.000000 0 0 1
35.232125 24.293981 4.111322 42.993059 0.603672 1.475022 0.141360 -0.026128 -27657.700000 0 0 1
35.086085 23.305281 3.069622 42.232595 0.586315 1.498048 0.124588 -0.030484 133650.000000 0 0 1
35.370915 21.987681 3.536122 41.797893 0.556173 1.486095 0.111408 -0.026594 -878813.000000 0 0 1
35.042095 20.902681 2.461622 40.877012 0.537844 1.510540 0.126270 -0.019712 588709.000000 0 0 1
33.641905 20.808281 2.187222 39.617500 0.553928 1.515560 0.124669 -0.021573 1248860.000000 0 0 1
32.794835 20.153581 3.169622 38.622720 0.551039 1.488638 0.104383 -0.024011 -63379.600000 0 0 1
32.905895 18.582381 3.277522 37.932110 0.514069 1.484284 0.119826 -0.024864 -962117.000000 0 0 1
32.383415 17.969481 2.148522 37.097223 0.506596 1.512848 0.100858 -0.032163 171381.000000 0 0 1
32.425705 16.545081 2.170722 36.467493 0.471811 1.511236 0.102105 -0.033472 -178863.000000 0 0 1
31.629395 15.775881 3.252622 35.494740 0.462665 1.479031 0.117838 -0.035794 342799.000000 0 0 1
30.209495 15.884481 3.235222 34.284063 0.484082 1.476291 0.092083 -0.033188 428612.000000 0 0 1
29.594275 14.915781 4.042122 33.386230 0.466850 1.449427 0.083846 -0.032176 382481.000000 0 0 1
28.042325 15.109781 4.112822 32.118418 0.494220 1.442392 0.079529 -0.028831 422210.000000 0 0 1
27.562325 14.602581 2.887922 31.325025 0.487204 1.478473 0.087582 -0.031930 162841.000000 0 0 1
26.221725 15.003181 2.660322 30.327407 0.519702 1.482963 0.069069 -0.021520 457222.000000 0 0 1
25.411125 14.456481 1.428922 29.270411 0.517241 1.521959 0.089333 -0.025086 73308.400000 0 0 1
25.914925 14.823981 0.147422 29.855577 0.519596 1.565858 0.098827 -0.025623 105376.000000 0 0 1
27.103625 14.263681 -0.340578 30.629644 0.484438 1.581916 0.105498 -0.023491 -890646.000000 0 0 1
27.731325 15.029581 -1.557878 31.580717 0.496658 1.620146 0.121921 -0.027034 172817.000000 0 0 1
28.191625 16.361781 -1.264278 32.620147 0.525866 1.609564 0.087927 -0.028524 312098.000000 0 0 1
29.271825 16.422381 -0.365078 33.565870 0.511272 1.581673 0.101496 -0.035307 -928272.000000 0 0 1
29.802795 17.828881 -0.239078 34.729422 0.539116 1.577680 0.116898 -0.029592 -131339.000000 0 0 1
30.650705 18.261581 -1.283378 35.701514 0.537323 1.606752 0.090310 -0.025479 148676.000000 0 0 1
31.271305 19.516281 -0.998778 36.875158 0.557949 1.597885 0.103951 -0.014851 231717.000000 0 0 1
32.507975 19.826781 -1.875178 38.123300 0.547671 1.620003 0.095213 -0.015018 86274.700000 0 0 1
33.023705 21.154381 -1.669178 39.253778 0.569726 1.613332 0.055470 -0.002848 394185.000000 0 0 1
32.243965 22.162281 -2.319678 39.194654 0.602173 1.630014 0.094570 -0.005984 -203331.000000 0 0 1
33.046605 23.472581 -2.554878 40.614869 0.617597 1.633743 0.104319 -0.011669 70370.600000 0 0 1
33.231355 24.384481 -1.460278 41.243888 0.633039 1.606210 0.124329 -0.008949 -166210.000000 0 0 1
34.137115 23.887081 -0.523978 41.667851 0.610551 1.583372 0.144934 0.001045 -812385.000000 0 0 1
34.561275 24.902781 0.478822 42.601168 0.624379 1.559556 0.151403 -0.018435 -34161.000000 0 0 1
35.201705 26.038781 -0.108478 43.785727 0.636878 1.573274 0.157524 -0.012144 529275.000000 0 0 1
36.319985 26.414381 0.723722 44.915305 0.628794 1.554683 0.135937 -0.014593 326338.000000 0 0 1
37.055145 27.564881 0.082522 46.183474 0.639578 1.569009 0.095120 -0.028443 -414968.000000 0 0 1
-37.102271 27.315481 -1.239478 46.089590 -0.634624 1.597692 0.081110 -0.025393 461961.000000 0 0 1
36.626745 27.929781 -2.211778 46.113806 0.651486 1.618778 0.066863 -0.016452 354633.000000 0 0 1
36.611105 27.246581 -3.590678 45.778184 0.639789 1.649313 0.073111 -0.013929 973128.000000 0 0 1
-36.834181 27.624981 -4.401278 46.252219 -0.643490 1.666099 0.063915 -0.010576 983221.000000 0 0 1
-36.796411 27.055181 -5.713078 46.028230 -0.634005 1.695238 0.068292 -0.006365 -350959.000000 0 0 1
36.740995 27.564481 -6.728378 46.421680 0.643653 1.716249 0.061990 0.002527 308735.000000 0 0 1
35.504155 26.936181 -6.411578 45.024562 0.649031 1.713684 0.068419 0.000685 41356.600000 0 0 1
34.507385 27.105081 -7.440378 44.506227 0.665828 1.738761 0.053679 -0.003678 455605.000000 0 0 1
33.252435 26.295381 -7.067778 42.978192 0.669094 1.735997 0.066192 0.003208 -499433.000000 0 0 1
33.240165 24.893881 -7.260178 42.158321 0.642803 1.743871 0.070652 -0.003903 -347370.000000 0 0 1
34.122555 24.132481 -6.466778 42.291188 0.615562 1.724309 0.071757 -0.004518 28061.200000 0 0 1
34.026635 22.674581 -6.839178 41.457483 0.587802 1.736522 0.079806 0.001423 229217.000000 0 0 1
33.098655 21.974781 -6.045278 40.186532 0.586097 1.721800 0.069571 0.004041 -70955.500000 0 0 1
33.327935 20.564281 -6.235978 39.655117 0.552846 1.728707 0.071048 -0.004003 161571.000000 0 0 1
32.303675 19.608281 -5.541278 38.193165 0.545550 1.716396 0.077836 -0.006088 280974.000000 0 0 1
31.089985 19.576981 -6.278078 37.272773 0.561963 1.740039 0.072463 -0.011384 -336490.000000 0 0 1
30.113295 18.914881 -5.504778 35.984522 0.560843 1.724376 0.087407 -0.021755 1161300.000000 0 0 1
28.825125 18.605581 -6.426278 34.904907 0.573180 1.755961 0.050458 -0.020296 1233620.000000 0 0 1
29.006325 17.440881 -7.204478 34.604273 0.541359 1.780527 0.045126 -0.022788 343547.000000 0 0 1
27.920925 17.393081 -8.123878 33.883546 0.557117 1.812914 0.068043 -0.026586 287178.000000 0 0 1
28.072625 16.261281 -9.137878 33.704634 0.525028 1.845349 0.060462 -0.023838 -617009.000000 0 0 1
27.303725 16.427381 -10.259978 33.475654 0.541634 1.882300 0.068527 -0.028990 -219173.000000 0 0 1
27.715425 15.526781 -11.288678 33.714388 0.510657 1.912224 0.069894 -0.024479 -369713.000000 0 0 1
26.815525 15.532881 -12.523078 33.424097 0.525022 1.954839 0.079630 -0.023237 -488797.000000 0 0 1
25.479525 15.146881 -12.279178 32.084457 0.536345 1.963529 0.071783 -0.024868 172158.000000 0 0 1
24.700625 15.128081 -13.471378 31.944604 0.549529 2.006127 0.073628 -0.026351 -342077.000000 0 0 1
24.802225 13.849081 -14.293878 31.800352 0.509255 2.036988 0.063034 -0.032296 -897589.000000 0 0 1
26.042025 13.580981 -14.880378 32.925002 0.480701 2.039744 0.073687 -0.036679 -288541.000000 0 0 1
26.300025 14.294681 -16.079178 33.978952 0.497857 2.063727 0.080989 -0.039071 -273928.000000 0 0 1
27.697325 13.828681 -16.586378 35.120965 0.463070 2.062654 0.088756 -0.034814 374898.000000 0 0 1
27.769325 12.459481 -16.842878 34.785868 0.421754 2.076231 0.080347 -0.039250 438091.000000 0 0 1
29.122625 12.090381 -17.109678 35.875419 0.393502 2.067943 0.074830 -0.024028 696569.000000 0 0 1
29.215025 10.647781 -17.660778 35.760257 0.349500 2.087327 0.051897 -0.015405 11557.900000 0 0 1
28.584925 10.470881 -18.930678 35.848401 0.351128 2.127130 0.039552 -0.018025 33151.800000 0 0 1
28.764325 9.211281 -19.507678 35.955300 0.309914 2.144270 0.025205 -0.005910 -63279.300000 0 0 1
30.030835 8.893381 -20.355378 37.353510 0.287913 2.147112 0.035610 -0.004111 -1017280.000000 0 0 1
30.307555 9.955981 -21.260578 38.336427 0.317393 2.158653 0.047236 -0.015980 404806.000000 0 0 1
31.031495 9.621881 -22.469278 39.501933 0.300668 2.175860 0.044577 -0.010748 -806180.000000 0 0 1
32.327115 8.866281 -22.278178 40.248857 0.267685 2.157370 0.050160 -0.009027 -2269950.000000 0 0 1
33.398705 9.729681 -22.121278 41.224885 0.283474 2.137199 0.066410 -0.013627 -904844.000000 0 0 1
34.594405 9.009281 -22.097278 42.026536 0.254767 2.124444 0.067509 -0.009646 -393986.000000 0 0 1
35.860965 9.868381 -21.942178 43.183943 0.268538 2.103785 0.088217 -0.018808 -161439.000000 0 0 1
36.004905 10.406681 -20.669678 42.800558 0.281367 2.074794 0.071710 -0.014145 -63977.300000 0 0 1
37.049585 11.338281 -20.532978 43.850103 0.296980 2.058110 0.045245 0.002074 -215386.000000 0 0 1
37.017375 12.162981 -19.252578 43.461315 0.317462 2.029718 0.039576 -0.002491 39597.200000 0 0 1
-36.928091 11.491281 -18.198278 42.742377 -0.301682 2.010605 0.047730 -0.010551 216048.000000 0 0 1
-37.273861 12.192081 -17.055878 42.765530 -0.316125 1.981029 0.050395 -0.007114 -149174.000000 0 0 1
-37.088111 11.334781 -15.781778 41.869676 -0.296603 1.957272 0.044489 -0.010035 -404107.000000 0 0 1
36.655095 10.239781 -15.555278 41.114666 0.272410 1.958797 0.040595 -0.014867 89529.100000 0 0 1
37.137365 9.462381 -14.454278 40.959085 0.249486 1.931460 0.040485 -0.024359 -13512.200000 0 0 1
36.219595 8.255081 -14.286378 39.800829 0.224090 1.937936 0.097964 -0.019877 1015950.000000 0 0 1
35.027815 8.464581 -13.473978 38.472653 0.237107 1.928605 0.104964 -0.025405 1537860.000000 0 0 1
35.319825 8.262281 -12.123678 38.245769 0.229795 1.893355 0.103813 -0.025219 -50014.900000 0 0 1
34.119025 8.771781 -11.272678 36.988177 0.251644 1.880487 0.110162 -0.021376 131260.000000 0 0 1
33.974345 10.204281 -11.329978 37.239117 0.291780 1.879947 0.116429 -0.024499 -101223.000000 0 0 1
32.962735 10.671381 -10.484178 36.198595 0.313093 1.864636 0.084394 -0.016805 -813695.000000 0 0 1
33.179735 10.543581 -8.911078 35.937017 0.307680 1.821374 0.101762 -0.016788 -211493.000000 0 0 1
34.482725 10.983181 -8.551678 37.186285 0.308353 1.802842 0.112139 -0.014633 389900.000000 0 0 1
34.651525 12.406281 -8.421578 37.756681 0.343810 1.795737 0.109643 -0.013943 -270910.000000 0 0 1
34.188145 12.932881 -7.000178 37.216813 0.361648 1.760015 0.109050 -0.020408 95719.400000 0 0 1
34.941225 12.382081 -5.897778 37.536501 0.340562 1.728571 0.140664 -0.017382 521172.000000 0 0 1
34.617565 12.902381 -4.600578 37.229190 0.356763 1.694688 0.127362 -0.015382 67431.100000 0 0 1
35.859545 12.779881 -3.687978 38.247006 0.342354 1.667372 0.165082 -0.019895 315489.000000 0 0 1
36.799385 13.843781 -3.706478 39.491556 0.359819 1.664790 0.165055 -0.011322 423797.000000 0 0 1
-36.674621 13.451581 -2.896278 39.170924 -0.351546 1.644803 0.157118 -0.023767 398975.000000 0 0 1
-35.540100 14.484581 -2.964378 38.492718 -0.387003 1.647884 0.154583 -0.025528 -33709.400000 0 0 1
-35.879589 15.605981 -2.166278 39.186532 -0.410272 1.626106 0.155820 -0.025259 887448.000000 0 0 1
-34.797381 16.553781 -2.005678 38.586372 -0.444035 1.622799 0.186458 -0.028738 857639.000000 0 0 1
-35.248660 17.706681 -1.053778 39.460170 -0.465515 1.597504 0.157354 -0.023692 274480.000000 0 0 1
-36.195541 18.574781 -1.653578 40.716999 -0.474135 1.611419 0.127597 -0.015580 569620.000000 0 0 1
-36.892071 19.391081 -0.683078 41.683396 -0.483930 1.587184 0.114988 -0.015433 623407.000000 0 0 1
36.829015 20.443081 -1.441978 42.147066 0.506736 1.605016 0.115473 -0.010270 421210.000000 0 0 1
-37.014371 21.603981 -1.733578 42.892901 -0.528322 1.611224 0.103955 -0.004138 319062.000000 0 0 1
36.986195 22.281681 -2.819378 43.271247 0.542206 1.635998 0.088309 -0.002727 51602.900000 0 0 1
-36.707851 23.446181 -3.286178 43.680530 -0.568407 1.646100 0.092671 -0.001028 -520847.000000 0 0 1
-35.572721 22.977381 -3.913778 42.528769 -0.573507 1.662953 0.103374 0.002938 -1098640.000000 0 0 1
-34.756941 24.020781 -4.389078 42.477134 -0.604733 1.674309 0.114409 -0.003839 113937.000000 0 0 1
-33.347371 23.536481 -4.789278 41.096840 -0.614606 1.687598 0.127794 -0.013184 -90282.000000 0 0 1
-33.252601 22.793781 -5.975678 40.755376 -0.600910 1.717950 0.129774 -0.010962 -687021.000000 0 0 1
-31.922181 22.711281 -6.397578 39.695805 -0.618374 1.732667 0.130913 -0.004983 -488179.000000 0 0 1
-31.742141 22.042381 -7.741878 39.412774 -0.606971 1.768513 0.121272 -0.016982 131437.000000 0 0 1
-32.366211 22.682681 -8.862678 40.504601 -0.611272 1.791388 0.119447 -0.020785 20860.700000 0 0 1
-32.073451 22.039581 -10.114778 40.208931 -0.602056 1.825083 0.079493 -0.011514 -314264.000000 0 0 1
-33.150321 22.087781 -11.200078 41.379411 -0.587743 1.844883 0.069687 -0.005333 -404449.000000 0 0 1
-33.405891 23.417181 -11.613178 42.416787 -0.611390 1.848125 0.078671 -0.003881 -174344.000000 0 0 1
-34.099429 23.494481 -12.825878 43.350489 -0.603305 1.871157 0.053960 -0.001115 -671633.000000 0 0 1
-34.428958 24.920081 -13.239578 44.515728 -0.626529 1.872779 0.065765 -0.002369 505661.000000 0 0 1
-33.281161 25.740381 -13.397278 44.155294 -0.658323 1.879069 0.069392 -0.003645 442046.000000 0 0 1
-32.267431 25.500181 -14.365078 43.563767 -0.668784 1.906833 0.074120 -0.005536 -302967.000000 0 0 1
-30.900011 26.055481 -13.961978 42.762549 -0.700544 1.903395 0.094624 -0.006260 -9588.840000 0 0 1
-30.063521 25.196781 -13.170978 41.378349 -0.697555 1.894738 0.106999 -0.013763 390353.000000 0 0 1
-30.501311 25.070181 -11.818678 41.213167 -0.687975 1.861649 0.109086 -0.008435 -387255.000000 0 0 1
-30.513201 26.354781 -10.981278 41.787778 -0.712404 1.836706 0.121454 -0.006409 622726.000000 0 0 1
-29.233831 26.953081 -10.782278 41.198823 -0.744828 1.835593 0.125129 -0.006949 330555.000000 0 0 1
-29.432261 28.104481 -9.935678 41.890781 -0.762325 1.810259 0.113925 -0.008898 -71480.000000 0 0 1
-28.168131 28.921381 -9.792578 41.542562 -0.798592 1.808760 0.135093 -0.010625 -300058.000000 0 0 1
-28.528021 30.068881 -9.119278 42.439920 -0.811688 1.787360 0.113981 -0.020206 139264.000000 0 0 1
-27.423921 30.939481 -8.919678 42.295196 -0.845561 1.783283 0.135393 -0.016580 -104503.000000 0 0 1
35.661095 -24.576919 33.707502 54.881093 -0.603427 0.909435 0.024797 -0.021211 -114149.000000 0 0 1
35.454825 -23.256619 -33.883728 54.277269 -0.580547 2.244994 0.025585 -0.021916 419806.000000 0 0 1
34.227865 -23.162319 -33.155828 52.984419 -0.594923 2.246909 0.029238 -0.014681 440700.000000 0 0 1
33.731505 -21.742919 -32.788938 51.823579 -0.572561 2.255835 0.023224 -0.005305 154218.000000 0 0 1
33.114765 -21.116219 -33.909098 51.887467 -0.567657 2.283012 0.017746 -0.003491 202265.000000 0 0 1
32.532595 -19.834519 -33.616908 50.812148 -0.547508 2.293736 0.011176 0.002004 370870.000000 0 0 1
32.182485 -19.100919 32.959025 49.868374 -0.535640 0.848752 0.016614 0.002477 -87958.400000 0 0 1
33.343455 -18.847819 32.221201 50.052293 -0.514486 0.871407 0.040582 -0.007627 -93754.500000 0 0 1
33.039385 -18.206819 31.006915 48.831527 -0.503660 0.882817 0.051555 -0.000753 -633999.000000 0 0 1
34.272575 -18.060219 30.151285 49.090538 -0.484981 0.909428 0.043673 0.004662 -635975.000000 0 0 1
35.065435 -16.944319 30.492325 49.461870 -0.450134 0.906530 0.050724 -0.006743 243352.000000 0 0 1
36.376215 -17.163019 29.991545 50.172612 -0.440850 0.930083 0.067762 -0.007021 303770.000000 0 0 1
-37.287921 -15.905619 30.154165 50.523771 0.403193 0.931250 0.065187 -0.010387 -231202.000000 0 0 1
-35.961546 -16.335819 30.217455 49.731141 0.426389 0.917740 0.071623 -0.003894 114590.000000 0 0 1
-35.031374 -15.214719 30.097095 48.626330 0.409736 0.903396 0.081066 -0.012227 1019500.000000 0 0 1
-33.551891 -15.635719 30.320865 47.849346 0.436093 0.884504 0.092068 -0.016277 -190456.000000 0 0 1
-32.662491 -14.583119 30.481265 46.995885 0.419922 0.865060 0.099521 -0.017089 181823.000000 0 0 1
-31.493261 -15.175419 31.082915 46.778910 0.449033 0.844020 0.108739 -0.027805 575504.000000 0 0 1
-30.492261 -14.166319 31.690495 46.203355 0.434918 0.814968 0.108900 -0.032401 4802.060000 0 0 1
-30.838951 -13.698619 32.936528 47.154087 0.418019 0.797515 0.119516 -0.036986 762478.000000 0 0 1
-29.870461 -12.731019 33.373056 46.562691 0.402893 0.771689 0.112368 -0.033426 508663.000000 0 0 1
-30.313401 -12.408619 -33.095648 46.563913 0.388536 2.361371 0.103559 -0.020731 25548.300000 0 0 1
-30.198171 -13.469719 -32.104958 46.087864 0.419559 2.341449 0.113536 -0.021228 190705.000000 0 0 1
-30.376501 -12.820019 -30.827148 45.137543 0.399359 2.322604 0.109269 -0.013594 -405858.000000 0 0 1
-30.572261 -13.874819 -29.716428 44.835698 0.426040 2.295328 0.105748 -0.017980 491411.000000 0 0 1
-31.845101 -14.526319 -29.668058 45.883745 0.427961 2.273905 0.099587 -0.019023 414004.000000 0 0 1
-31.968961 -15.202619 -28.415728 45.393696 0.443891 2.247189 0.102884 -0.025603 912677.000000 0 0 1
-33.313991 -15.994419 -28.541548 46.693291 0.447610 2.228443 0.102553 -0.031977 616736.000000 0 0 1
-33.073241 -17.146819 -29.329078 47.413579 0.478298 2.237730 0.096602 -0.029997 767793.000000 0 0 1
-34.263510 -17.935419 -29.478248 48.627507 0.482235 2.222077 0.078911 -0.031256 554113.000000 0 0 1
-33.994971 -19.222219 -30.267258 49.409095 0.514622 2.230123 0.068042 -0.024848 345350.000000 0 0 1
-35.183548 -19.980519 -30.454368 50.641601 0.516477 2.216012 0.034993 -0.030249 266123.000000 0 0 1
-34.876613 -21.270719 -30.978408 51.268737 0.547656 2.219603 0.033419 -0.020765 63917.600000 0 0 1
-36.153751 -22.058519 -31.359728 52.698240 0.547835 2.208163 0.036738 -0.024757 590821.000000 0 0 1
-36.870311 -22.606419 -30.229318 52.766293 0.550020 2.180825 0.032413 -0.021730 -228666.000000 0 0 1
36.771275 -23.575219 -30.470018 53.257296 -0.570115 2.179895 0.043084 -0.021717 -395101.000000 0 0 1
-37.294841 -25.031109 -30.666158 54.386348 0.591113 2.169846 0.040959 -0.020710 17688.000000 0 0 1
-36.465451 -25.140819 -31.789988 54.519659 0.603605 2.193326 0.043528 -0.021358 -591526.000000 0 0 1
-35.911107 -26.404759 -31.909788 54.818368 0.634014 2.192106 0.051077 -0.020799 -297987.000000 0 0 1
-36.339411 -27.234109 -33.134198 56.214985 0.643141 2.201136 0.051747 -0.022732 1058630.000000 0 0 1
36.887445 -27.690859 -33.087258 56.764724 -0.643939 2.193070 0.062026 -0.023576 698265.000000 0 0 1
36.551095 -28.838979 -33.910118 57.598310 -0.668000 2.200289 0.047304 -0.018011 158401.000000 0 0 1
37.201975 -30.232999 -33.569068 58.522675 -0.682420 2.181700 0.044366 -0.011988 415645.000000 0 0 1
36.743895 -30.611529 -32.257068 57.686202 -0.694604 2.164195 0.051631 -0.018619 208139.000000 0 0 1
-36.949131 -31.510129 -31.664358 57.972045 0.706116 2.148618 0.050995 -0.020045 271529.000000 0 0 1
37.067315 -31.905689 -30.256618 57.510188 -0.710702 2.124815 0.049418 -0.022039 94468.100000 0 0 1
35.952695 -32.747619 -30.289788 57.292880 -0.738779 2.127845 0.057004 -0.019090 -182730.000000 0 0 1
35.627995 -33.420899 -29.082198 56.851427 -0.753445 2.107781 0.054295 -0.013050 382042.000000 0 0 1
34.330475 33.586931 -29.285098 56.251937 0.774451 2.118357 0.064714 -0.020538 217314.000000 0 0 1
33.203975 -33.483399 -29.567968 55.658842 -0.789588 2.130855 0.067523 -0.020107 388805.000000 0 0 1
31.998235 33.770826 -29.062498 54.854211 0.812343 2.129177 0.076754 -0.021278 1490090.000000 0 0 1
30.689375 -33.842359 -29.899268 54.599535 -0.834219 2.150302 0.040942 -0.021465 731441.000000 0 0 1
30.783825 33.484498 -31.191658 55.152289 0.827395 2.171903 0.035737 -0.019163 395403.000000 0 0 1
29.600415 33.806267 -31.931388 55.124058 0.851633 2.188622 0.033870 -0.007880 526841.000000 0 0 1
29.535425 33.096310 -33.316428 55.476945 0.842191 2.214979 0.030512 -0.008642 -347576.000000 0 0 1
29.293125 31.755235 -33.146768 54.453561 0.825707 2.225238 0.029126 -0.009034 -44270.500000 0 0 1
28.947625 31.154265 33.523199 54.151252 0.822097 0.903243 0.039648 -0.011265 -10354.900000 0 0 1
28.929925 29.595295 33.681895 53.360024 0.796767 0.887672 0.040740 -0.025159 902578.000000 0 0 1
30.257865 29.037615 33.705614 53.803252 0.764822 0.893792 0.040394 -0.024367 512275.000000 0 0 1
30.217755 27.754235 -33.713018 53.103464 0.742929 2.258618 0.048674 -0.033269 619852.000000 0 0 1
31.654425 27.136175 -33.652628 53.580537 0.708696 2.249874 0.067122 -0.033390 603899.000000 0 0 1
32.283215 27.531135 -32.453898 53.417458 0.706118 2.223772 0.057580 -0.030484 466288.000000 0 0 1
33.555055 26.864145 -32.311488 53.774122 0.675106 2.215391 0.079768 -0.029734 953268.000000 0 0 1
34.243795 27.188115 -30.933838 53.560558 0.671046 2.186519 0.078163 -0.033689 -605354.000000 0 0 1
35.041595 28.283885 -30.750418 54.529622 0.679087 2.169923 0.075683 -0.032408 -157783.000000 0 0 1
34.381835 29.496595 -30.994198 54.888979 0.709070 2.170831 0.069523 -0.026978 496200.000000 0 0 1
33.192905 29.942535 -30.048358 53.863050 0.733961 2.162608 0.087027 -0.017759 754947.000000 0 0 1
33.635095 30.373925 -28.767508 53.679274 0.734494 2.136387 0.087024 -0.010571 -118400.000000 0 0 1
32.573585 30.355675 -27.863018 52.524787 0.750168 2.129956 0.083824 -0.015636 -401238.000000 0 0 1
32.923565 30.811145 -26.419068 52.261410 0.752266 2.100778 0.111085 -0.018014 -125374.000000 0 0 1
33.238295 32.204664 -26.302228 53.232808 0.769605 2.087593 0.107348 -0.021585 239083.000000 0 0 1
33.768485 32.555631 -25.043068 53.172690 0.767113 2.061193 0.098988 -0.025408 284119.000000 0 0 1
34.424625 33.915805 -24.869778 54.349264 0.777953 2.046081 0.098176 -0.025475 266498.000000 0 0 1
33.384865 -32.968799 -24.769878 53.056929 -0.779128 2.056527 0.092469 -0.020493 396156.000000 0 0 1
33.737685 -31.598059 -24.785078 52.449678 -0.752662 2.062978 0.080855 -0.025859 -1043230.000000 0 0 1
34.527285 -31.012169 -26.028168 53.210464 -0.731816 2.081917 0.066357 -0.023599 -260557.000000 0 0 1
35.845245 -31.376469 -26.208158 54.371241 -0.719018 2.073758 0.080237 -0.022524 -1275100.000000 0 0 1
36.723435 -30.818589 -25.286558 54.201532 -0.698195 2.056158 0.078110 -0.026391 232856.000000 0 0 1
-36.343031 -31.164959 -25.594398 54.287602 0.708845 2.061741 0.071656 -0.020592 1063760.000000 0 0 1
-35.908728 -32.461189 -25.315508 54.626371 0.735016 2.052659 0.065997 -0.016789 -316507.000000 0 0 1
-35.909041 -32.828489 -23.924678 54.217701 0.740612 2.027810 0.065266 -0.014959 -781010.000000 0 0 1
-34.830894 -32.266949 -23.021578 52.766848 0.747205 2.022266 0.063901 -0.015965 -482707.000000 0 0 1
-34.883815 -30.853519 -23.026478 51.952275 0.724166 2.029988 0.026860 -0.010963 -211534.000000 0 0 1
-34.279508 -30.294879 -21.854178 50.699797 0.723770 2.016453 0.052878 -0.015202 -166103.000000 0 0 1
-34.121477 -28.779589 -22.005678 49.767357 0.700676 2.028814 0.059798 -0.004052 -420596.000000 0 0 1
-35.258825 -27.997989 -22.215778 50.205706 0.671115 2.029175 0.040202 -0.002561 -696097.000000 0 0 1
-35.349029 -27.681149 -23.588578 50.717067 0.664339 2.054545 0.034605 -0.006374 -140358.000000 0 0 1
-36.648871 -26.929549 -23.928378 51.389762 0.633701 2.055137 0.042386 -0.004859 -52913.100000 0 0 1
-36.688051 -25.578149 -23.522678 50.532872 0.608830 2.054987 0.048925 -0.003993 70881.500000 0 0 1
37.028365 -24.743519 -24.296478 50.731256 -0.589085 2.070226 0.048219 -0.008222 26875.500000 0 0 1
-36.978001 -24.286719 -25.649998 51.138436 0.581133 2.096220 0.062240 -0.015463 6778.820000 0 0 1
-35.982581 -23.263719 -25.442998 49.832649 0.573930 2.106643 0.046337 -0.012906 259081.000000 0 0 1
-35.691305 -22.536719 -26.619858 49.903805 0.563213 2.133439 0.046378 -0.022366 84776.100000 0 0 1
-34.444718 -21.617019 -26.708498 48.652625 0.560457 2.151920 0.052970 -0.031722 -242703.000000 0 0 1
-34.381702 -20.439519 -25.948518 47.678097 0.536357 2.146284 0.061518 -0.027871 -277472.000000 0 0 1
-35.201723 -19.381919 -26.341458 48.048855 0.503300 2.151034 0.068934 -0.028655 -135557.000000 0 0 1
-36.475651 -19.242319 -25.468478 48.470438 0.485435 2.124033 0.067613 -0.027354 25859.300000 0 0 1
-36.308771 -18.565319 -24.187878 47.413620 0.472661 2.106151 0.058655 -0.039981 184979.000000 0 0 1
-35.538195 -19.301819 -23.201678 46.624472 0.497553 2.091659 0.043026 -0.030411 44309.100000 0 0 1
-36.180211 -20.613219 -22.746778 47.448165 0.517870 2.070770 0.059550 -0.021245 125771.000000 0 0 1
-37.254611 -20.439219 -21.840978 47.777568 0.501795 2.045572 0.051361 -0.018872 -68531.600000 0 0 1
36.718965 -21.701919 -21.711778 47.860808 -0.533796 2.041647 0.044679 0.007311 -265801.000000 0 0 1
35.708485 -21.745119 -20.570078 46.594787 -0.546983 2.028030 0.022975 0.005324 156103.000000 0 0 1
34.438165 -21.163319 -20.842678 45.478462 -0.551036 2.046875 0.055623 -0.000903 366088.000000 0 0 1
33.475435 -21.468319 -19.839278 44.441989 -0.570246 2.033544 0.051966 -0.005987 -358628.000000 0 0 1
32.075915 -21.005219 -20.177778 43.326969 -0.579784 2.055232 0.062056 -0.007822 -942494.000000 0 0 1
31.472855 -21.725419 -21.275578 43.762822 -0.604180 2.078482 0.059939 -0.002505 481457.000000 0 0 1
30.282535 -21.068319 -21.700978 42.799981 -0.607851 2.102535 0.094720 -0.005842 238392.000000 0 0 1
30.515615 -19.716819 -22.539578 42.754979 -0.573644 2.126075 0.076147 -0.008715 -496149.000000 0 0 1
30.641885 -18.557719 -21.753378 41.910899 -0.544551 2.116522 0.085761 -0.006448 164056.000000 0 0 1
30.298025 -17.377619 -22.470278 41.531498 -0.520749 2.142472 0.077493 -0.007075 -75288.200000 0 0 1
30.740685 -16.135819 -21.674578 40.928495 -0.483369 2.128892 0.054799 -0.012864 -448707.000000 0 0 1
30.296995 -15.923119 -20.368378 39.828688 -0.483892 2.107609 0.028062 -0.007779 74171.300000 0 0 1
31.087745 -15.111719 -19.486378 39.680358 -0.452465 2.084130 0.011255 -0.006970 355357.000000 0 0 1
32.279935 -15.864119 -18.806578 40.587582 -0.456788 2.052577 0.030152 -0.014712 871505.000000 0 0 1
33.346795 -16.205619 -19.720378 41.994334 -0.452363 2.059630 0.040279 -0.016359 675100.000000 0 0 1
34.066545 -17.377619 -19.346178 42.857738 -0.471701 2.039135 0.036212 -0.015650 551648.000000 0 0 1
35.211145 -17.752719 -20.350978 44.375061 -0.466985 2.047230 0.041764 -0.026159 128639.000000 0 0 1
36.212725 -16.777719 -20.370378 44.808544 -0.433867 2.042730 0.044839 -0.032722 -1075550.000000 0 0 1
37.157725 -17.131719 -21.279378 46.119456 -0.432008 2.050365 0.058763 -0.029766 -1102610.000000 0 0 1
-36.428321 -16.018019 -21.561378 45.260275 0.414267 2.067336 0.092223 -0.036630 -339267.000000 0 0 1
-35.379123 -15.872619 -20.634578 43.925029 0.421725 2.059824 0.119180 -0.049591 -367386.000000 0 0 1
-34.540578 -14.829519 -21.019378 43.067162 0.405538 2.080663 0.137161 -0.048895 -35028.800000 0 0 1
-33.299001 -14.634619 -20.073178 41.544290 0.414081 2.075074 0.150760 -0.043591 846347.000000 0 0 1
-32.197831 -15.515119 -20.285678 41.096569 0.449037 2.087032 0.160361 -0.061991 137642.000000 0 0 1
-32.426831 -16.907019 -20.055878 41.708331 0.480613 2.072432 0.139168 -0.062038 -862849.000000 0 0 1
-31.207531 -17.835419 -20.119178 41.192153 0.519208 2.081077 0.113290 -0.067123 -302722.000000 0 0 1
-31.576551 -19.100819 -19.680078 41.823741 0.544018 2.060708 0.112499 -0.062248 -347761.000000 0 0 1
-30.529121 -19.994319 -19.448078 41.352482 0.579830 2.060427 0.110318 -0.053660 -564225.000000 0 0 1
-31.019131 -21.364619 -18.973278 42.173673 0.603140 2.037432 0.093867 -0.032661 88968.900000 0 0 1
-31.872211 -21.951319 -19.934378 43.532490 0.603121 2.046450 0.077379 -0.027783 -53791.700000 0 0 1
-32.407391 -23.193019 -19.620678 44.419884 0.621166 2.028299 0.070072 -0.014485 -215050.000000 0 0 1
-33.325971 -23.550919 -20.808478 45.806756 0.615198 2.042345 0.055287 -0.006038 -235565.000000 0 0 1
-32.641261 -23.823119 -22.039978 46.029920 0.630478 2.070105 0.061652 -0.014030 -34205.600000 0 0 1
-33.407831 -24.405119 -23.073978 47.371948 0.630917 2.079541 0.055465 -0.008357 95059.000000 0 0 1
-32.553321 -24.607319 -24.359478 47.524972 0.647272 2.108962 0.060040 0.001904 604104.000000 0 0 1
-31.418071 -25.454159 -24.237978 47.143281 0.680915 2.110794 0.045366 -0.007832 80477.100000 0 0 1
-31.141701 -26.022669 -25.501138 47.930083 0.696087 2.131815 0.050286 -0.001109 -1290920.000000 0 0 1
-29.682091 -26.259459 -25.724458 47.247576 0.724292 2.146543 0.060605 -0.014128 -1245840.000000 0 0 1
-28.940661 -25.120309 -26.075058 46.351919 0.714848 2.168258 0.070784 -0.019125 398749.000000 0 0 1
-27.534651 -25.390959 -26.032038 45.612770 0.744916 2.178177 0.063440 -0.009923 768397.000000 0 0 1
-26.677161 -24.150019 -26.315768 44.580421 0.735719 2.202225 0.071316 -0.008279 -201071.000000 0 0 1
-26.888991 -23.593019 -27.609218 45.187579 0.720201 2.228109 0.066254 -0.013018 -34924.700000 0 0 1
-26.090531 -22.454419 -27.814428 44.255611 0.710636 2.250413 0.074317 -0.008418 4910.100000 0 0 1
-25.988631 -21.925619 -29.277738 44.870120 0.700803 2.281675 0.068964 -0.010581 -184829.000000 0 0 1
-25.465831 -22.861619 -30.132438 45.597434 0.731563 2.292729 0.081129 -0.018810 15366.300000 0 0 1
-25.124901 -22.249319 -31.381488 45.946606 0.724773 2.322657 0.089979 -0.020563 -184501.000000 0 0 1
-24.808451 -23.285619 -32.449418 47.017486 0.753745 2.332501 0.072530 -0.023570 470525.000000 0 0 1
-25.875701 -24.105319 -32.960068 48.342366 0.749992 2.321024 0.045398 -0.018253 374535.000000 0 0 1
-25.363041 -25.049769 -33.894428 49.189501 0.779184 2.330985 0.069365 -0.020880 272314.000000 0 0 1
-20.057051 -14.076219 -11.349478 27.004368 0.611939 2.004554 0.062410 0.014037 115238.000000 0 0 1
-20.240351 -13.639219 -10.061178 26.399382 0.592968 1.961797 0.071181 0.012513 172480.000000 0 0 1
-19.525551 -14.486419 -9.204178 25.996545 0.638311 1.932699 0.060744 -0.001912 -192723.000000 0 0 1
-19.833151 -14.109919 -7.754978 25.545711 0.618357 1.879236 0.088515 -0.018679 -359259.000000 0 0 1
-21.130051 -14.437519 -7.308078 26.614451 0.599409 1.848960 0.129578 -0.021318 245858.000000 0 0 1
-21.414751 -13.843119 -6.059178 26.209485 0.573861 1.804089 0.118510 -0.033717 475065.000000 0 0 1
-22.724551 -14.409819 -5.402078 27.445046 0.565122 1.768923 0.129308 -0.035857 123049.000000 0 0 1
-22.710351 -15.812919 -5.047978 28.129887 0.608230 1.751226 0.108945 -0.034836 -65501.500000 0 0 1
-21.930651 -16.098619 -3.946978 27.489955 0.633227 1.714873 0.104231 -0.032549 -476057.000000 0 0 1
-21.835051 -17.586719 -3.629278 28.270723 0.678046 1.699527 0.078596 -0.022763 -4642.820000 0 0 1
-23.085651 -18.115419 -3.227378 29.521715 0.665345 1.680337 0.079027 -0.020689 361272.000000 0 0 1
-22.959251 -19.088319 -2.234978 29.941380 0.693596 1.645511 0.071698 -0.013667 -36633.700000 0 0 1
-24.166451 -20.049519 -2.204878 31.477961 0.692556 1.640899 0.081795 -0.023676 -81615.800000 0 0 1
-24.246951 -20.938919 -3.253178 32.201492 0.712319 1.671995 0.066977 -0.028704 -49850.200000 0 0 1
-25.311211 -21.862019 -3.196878 33.597995 0.712410 1.666091 0.084204 -0.022080 -34351.700000 0 0 1
-25.148181 -22.957119 -4.233878 34.313059 0.739882 1.694501 0.090122 -0.022950 -121505.000000 0 0 1
-24.067451 -23.804619 -3.892878 34.074280 0.779908 1.685293 0.088397 -0.022622 -224558.000000 0 0 1
-23.637851 -24.643119 -4.931378 34.501446 0.806216 1.714220 0.087974 -0.020389 903860.000000 0 0 1
-22.079751 -24.528219 -5.136578 33.399601 0.837883 1.725201 0.062152 -0.017786 737203.000000 0 0 1
-21.712051 -23.306519 -5.881078 32.391265 0.820801 1.753373 0.039166 -0.009317 255522.000000 0 0 1
-21.526051 -22.126219 -5.123478 31.292019 0.799146 1.735268 0.035903 -0.006503 -346110.000000 0 0 1
-21.648951 -20.907119 -6.070878 30.702447 0.767968 1.769841 0.042636 -0.003966 -502400.000000 0 0 1
-20.445851 -20.710619 -6.728778 29.870370 0.791831 1.798012 0.023954 0.004353 -687952.000000 0 0 1
-20.473351 -19.499919 -7.449978 29.238794 0.761051 1.828435 0.017739 0.003260 370083.000000 0 0 1
-19.259351 -19.088919 -8.343878 28.371283 0.780954 1.869306 0.041145 -0.001254 21579.900000 0 0 1
-19.193751 -19.883819 -9.488578 29.219847 0.803055 1.901523 0.037985 0.003094 -20555.500000 0 0 1
-17.963351 -19.767919 -10.174178 28.582626 0.833189 1.934734 0.049537 0.002839 -103937.000000 0 0 1
-17.688551 -18.467119 -10.938478 27.813119 0.806929 1.974998 0.050842 -0.003098 -534257.000000 0 0 1
-17.442551 -17.235119 -10.212078 26.562726 0.779417 1.965410 0.065643 0.001436 696843.000000 0 0 1
-16.116851 -17.168019 -9.675578 25.458016 0.816969 1.960658 0.079642 -0.000765 199787.000000 0 0 1
-15.887451 -15.918719 -8.788078 24.146366 0.786381 1.943302 0.070216 0.001195 -90923.900000 0 1 0
-16.519251 -15.999319 -7.521878 24.195919 0.769411 1.886909 0.056229 -0.002120 158779.000000 0 1 0
-16.461351 -14.805319 -6.777278 23.153942 0.732483 1.867851 0.058307 -0.007626 -204953.000000 0 1 0
-16.890851 -14.965819 -5.271678 23.174710 0.725044 1.800281 0.045864 -0.019679 -40937.600000 0 1 0
-17.327251 -13.763119 -4.608278 22.602949 0.671259 1.776115 0.054727 -0.016969 196274.000000 0 1 0
-17.778451 -14.163819 -3.309378 22.970395 0.672716 1.715371 0.047989 -0.015791 -325981.000000 0 1 0
-18.613351 -13.128419 -2.560078 22.920868 0.614289 1.682722 0.058670 -0.020992 248130.000000 0 1 0
-19.933451 -12.887219 -3.056378 23.932495 0.573919 1.698854 0.091725 -0.035182 1106920.000000 0 1 0
-20.605551 -12.005419 -2.136578 23.943345 0.527550 1.660150 0.097844 -0.028620 -1634580.000000 0 1 0
-22.082451 -12.057319 -2.291578 25.263905 0.499777 1.661627 0.106093 -0.031189 -1794010.000000 0 0 1
-22.549551 -11.481719 -3.483678 25.543064 0.470962 1.707607 0.125491 -0.038700 1403160.000000 0 0 1
-23.998651 -11.540519 -3.415878 26.847477 0.448237 1.698375 0.129770 -0.035526 1509210.000000 0 0 1
-24.772551 -11.069819 -4.752578 27.546455 0.420238 1.744194 0.143566 -0.040287 504501.000000 0 0 1
-24.393851 -11.854219 -5.889478 27.753710 0.452345 1.784627 0.147841 -0.046172 103214.000000 0 0 1
-25.063281 -11.402219 -7.048278 28.422823 0.426952 1.821390 0.158332 -0.045560 -344821.000000 0 0 1
-24.379651 -11.595719 -8.382878 28.268369 0.443963 1.871870 0.163267 -0.046876 123103.000000 0 0 1
-23.251351 -10.717919 -8.533878 26.987519 0.431930 1.892534 0.158676 -0.047656 531595.000000 0 0 1
-22.633251 -10.957719 -9.795978 26.986975 0.450881 1.942270 0.116626 -0.032013 -699174.000000 0 0 1
-21.269951 -10.297819 -9.821578 25.591391 0.450886 1.964687 0.115748 -0.039515 -891176.000000 0 0 1
-21.339451 -8.989019 -10.290878 25.339234 0.398681 1.989005 0.104840 -0.038961 864282.000000 0 0 1
-20.225651 -8.191019 -9.865578 23.947847 0.384794 1.995401 0.114341 -0.034989 213095.000000 0 1 0
-20.053351 -6.800019 -10.585278 23.673302 0.326928 2.034362 0.120115 -0.044661 -190768.000000 0 1 0
-19.689851 -7.022719 -11.947778 24.078169 0.342602 2.090022 0.126477 -0.036153 496818.000000 0 1 0
-19.360251 -5.807419 -12.579078 23.807113 0.291426 2.127481 0.115046 -0.048277 -493408.000000 0 1 0
-18.658951 -5.931119 -13.905378 24.014457 0.307769 2.188349 0.121753 -0.036036 439277.000000 0 1 0
-19.488851 -6.586519 -14.903178 25.402800 0.325912 2.197743 0.124746 -0.043910 897603.000000 0 0 1
-18.737851 -6.515019 -16.066978 25.528422 0.334618 2.251546 0.121082 -0.047423 -344108.000000 0 0 1
-19.375451 -7.260519 -17.155878 26.878381 0.358532 2.263056 0.111141 -0.042263 -699072.000000 0 0 1
-20.669751 -6.899619 -17.569778 27.991792 0.322173 2.249361 0.100832 -0.046632 73951.500000 0 0 1
-21.013751 -7.833319 -18.598378 29.134829 0.356815 2.263156 0.115557 -0.041785 -1566360.000000 0 0 1
-22.444551 -7.670119 -19.006278 30.394526 0.329294 2.246337 0.088650 -0.035472 -2045930.000000 0 0 1
-22.733351 -6.489619 -19.726878 30.790747 0.278071 2.266174 0.093881 -0.038876 621891.000000 0 0 1
-23.910151 -6.607019 -20.537678 32.204724 0.269599 2.262334 0.074201 -0.029482 873177.000000 0 0 1
-25.246441 -6.442119 -19.759378 32.700408 0.249838 2.219627 0.117091 -0.029304 -330401.000000 0 0 1
-25.309581 -5.158619 -19.199078 32.183704 0.201067 2.209988 0.119763 -0.028052 461797.000000 0 0 1
-26.557841 -4.985019 -18.523678 32.761196 0.185545 2.171733 0.143406 -0.021858 285747.000000 0 0 1
-26.608611 -3.551519 -17.949478 32.292650 0.132688 2.160167 0.127753 -0.024762 128761.000000 0 0 1
-26.933721 -2.420919 -18.810878 32.941392 0.089643 2.178569 0.131876 -0.025525 1192530.000000 0 0 1
-28.319271 -2.364619 -19.227678 34.311458 0.083305 2.165649 0.158719 -0.015916 895207.000000 0 0 1
-28.623681 -1.004219 -19.947778 34.903258 0.035069 2.179149 0.151261 -0.015626 -88601.100000 0 0 1
-28.184171 -0.734619 -21.285478 35.326459 0.026059 2.217472 0.133314 -0.008490 33811.900000 0 0 1
-28.739821 -1.581119 -22.287478 36.403419 0.054960 2.229682 0.122003 0.001296 -231250.000000 0 0 1
-28.183341 -1.451019 -23.696778 36.850284 0.051440 2.269278 0.099964 0.001425 -584920.000000 0 0 1
-28.344271 -0.261519 -24.445978 37.430895 0.009226 2.282462 0.097026 0.004877 293538.000000 0 0 1
-27.732491 0.932181 -23.926678 36.639404 -0.033601 2.282377 0.101309 0.004946 1771810.000000 0 0 1
-26.169101 0.996581 -23.586878 35.244231 -0.038064 2.303983 0.099696 -0.001135 1346300.000000 0 0 1
-25.291921 1.047881 -24.678578 35.352674 -0.041408 2.343492 0.085500 -0.000312 37202.200000 0 0 1
-23.944451 0.974681 -24.237578 34.084409 -0.040683 2.361864 0.065179 0.000735 701430.000000 0 0 1
-22.941351 0.256281 -25.210488 34.087241 -0.011171 2.403253 0.065169 -0.004986 215594.000000 0 0 1
-22.590751 1.048981 -26.305718 34.690535 -0.046401 2.431493 0.046402 -0.000663 -241852.000000 0 0 1
-21.907251 0.271281 -27.219678 34.941553 -0.012383 2.463875 0.034663 -0.005904 -370207.000000 0 0 1
-21.862251 0.951081 -28.645768 36.047782 -0.043476 2.489245 0.029273 0.008707 -33032.700000 0 0 1
-20.912151 2.003281 -28.670278 35.543157 -0.095504 2.509229 0.031903 0.007405 233302.000000 0 0 1
-20.836951 2.838581 -29.877558 36.536346 -0.135395 2.528285 0.021847 0.008695 -432342.000000 0 0 1
-20.196851 2.380281 -31.168048 37.215934 -0.117313 2.563474 0.012326 0.009110 -849102.000000 0 0 1
-18.819651 2.208781 -31.045768 36.371661 -0.116831 2.593597 0.004423 0.017321 -675405.000000 0 0 1
-18.374951 2.006181 -32.384098 37.287979 -0.108749 2.622937 0.013684 0.009792 -65557.500000 0 0 1
-16.846951 1.841281 -32.524708 36.675151 -0.108863 2.661241 0.028446 -0.006895 -83203.500000 0 0 1
-16.200651 3.094881 -32.542828 36.483901 -0.188760 2.672498 0.041031 0.000421 -673860.000000 0 0 1
-14.828951 2.935781 -32.731528 36.053703 -0.195449 2.708935 0.059456 -0.009334 -565381.000000 0 0 1
-14.078051 4.218181 -33.097318 36.213493 -0.291116 2.723709 0.062698 -0.004511 -279918.000000 0 0 1
-14.143351 5.184881 -32.051278 35.414712 -0.351382 2.702240 0.073319 -0.010333 173198.000000 0 0 1
-13.546451 6.363481 -32.533778 35.811268 -0.439158 2.710426 0.093531 -0.009358 -123548.000000 0 0 1
-13.106951 7.409781 -31.457798 34.875351 -0.514538 2.695192 0.096055 -0.010734 -492744.000000 0 0 1
-12.004351 7.137281 -30.619498 33.654107 -0.536408 2.713669 0.125666 -0.027717 182802.000000 0 0 1
-12.224951 6.148581 -29.656738 32.661546 -0.466008 2.709286 0.121190 -0.031473 826371.000000 0 0 1
-10.835651 5.434381 -29.322448 31.729321 -0.464869 2.749584 0.142594 -0.041291 1397230.000000 0 0 1
-10.251251 4.661081 -30.416568 32.434263 -0.426742 2.787009 0.115760 -0.036148 363607.000000 0 0 1
-10.958251 3.496981 -30.821618 32.898089 -0.308903 2.784399 0.121535 -0.029395 49929.900000 0 0 1
-10.159651 2.622181 -31.877228 33.559678 -0.252585 2.823606 0.113591 -0.034163 228268.000000 0 0 1
-10.981351 1.596281 -32.354938 34.204973 -0.144352 2.811195 0.113452 -0.036448 11831.400000 0 0 1
-10.561651 1.167281 -33.631998 35.270701 -0.110074 2.835570 0.098915 -0.029238 337894.000000 0 0 1
-11.394951 1.741681 33.000479 34.955829 -0.151673 0.336057 0.105256 -0.028450 742770.000000 0 0 1
-12.709451 1.251381 32.810516 35.208324 -0.098144 0.371189 0.062307 -0.023523 28333.700000 0 0 1
-13.185051 1.655981 31.522265 34.208786 -0.124941 0.398956 0.055733 -0.019054 -464867.000000 0 0 1
-14.615151 1.202581 31.231375 34.502864 -0.082098 0.438988 0.076134 -0.014547 -554678.000000 0 0 1
-15.525151 2.091781 31.860177 35.503194 -0.133928 0.456980 0.079345 0.000742 -148635.000000 0 0 1
-16.822651 1.584781 31.560295 35.798958 -0.093928 0.491559 0.072435 0.004498 483159.000000 0 0 1
-17.815551 2.739581 31.144095 35.984078 -0.152580 0.524655 0.067493 0.008201 110436.000000 0 0 1
-18.242951 3.591681 32.203128 37.185305 -0.194394 0.523614 0.059433 0.002731 183922.000000 0 0 1
-17.350351 4.651081 32.466599 37.104546 -0.261911 0.505354 0.068752 0.004531 -496970.000000 0 0 1
-17.718551 5.563781 33.708791 38.486171 -0.304259 0.503565 0.052564 0.002287 317200.000000 0 0 1
-18.961551 6.247681 33.596859 39.080979 -0.318289 0.536167 0.047378 0.001215 86164.500000 0 0 1
-19.973351 5.595581 -33.560268 39.452970 -0.273150 2.587997 0.032361 0.005057 431943.000000 0 0 1
-21.409051 6.237081 -33.576458 40.306664 -0.283483 2.555350 0.033578 0.003138 687964.000000 0 0 1
-21.567851 7.540981 -33.021828 40.155694 -0.336354 2.536316 0.042919 0.000002 44022.600000 0 0 1
-21.173451 8.550581 -33.909698 40.881476 -0.383808 2.548943 0.040034 -0.000950 -386491.000000 0 0 1
-21.048251 9.951281 -33.236848 40.580105 -0.441639 2.530537 0.048271 -0.004756 -356153.000000 0 0 1
-19.981751 10.168281 -32.330818 39.343946 -0.470725 2.535268 0.056257 -0.005743 304012.000000 0 0 1
-19.772151 11.591281 -31.999518 39.360703 -0.530243 2.520050 0.062202 -0.011007 634004.000000 0 0 1
-19.006851 12.455581 -33.147538 40.189068 -0.580106 2.540627 0.058009 -0.021151 316167.000000 0 0 1
-19.792851 12.563081 33.552569 40.931197 -0.565564 0.609855 0.069925 -0.023297 522354.000000 0 0 1
-18.996851 12.786981 32.395915 39.672189 -0.592451 0.615318 0.063018 -0.021139 76620.900000 0 0 1
-19.713251 12.278481 31.109005 38.821947 -0.557055 0.641289 0.086157 -0.029919 -170991.000000 0 0 1
-19.874751 10.854981 31.045045 38.426959 -0.499898 0.630221 0.079256 -0.017382 732744.000000 0 0 1
-18.685851 10.192381 30.602485 37.276773 -0.499351 0.607718 0.073537 -0.023134 460572.000000 0 0 1
-18.774751 8.645481 30.748435 37.049992 -0.431539 0.591837 0.092445 -0.008187 -113173.000000 0 0 1
-19.587851 8.060181 29.777285 36.542265 -0.390371 0.618287 0.093823 -0.012388 97202.400000 0 0 1
-19.672151 6.657781 29.994385 36.482636 -0.326337 0.605610 0.086511 -0.009837 -117436.000000 0 0 1
-20.213351 5.811481 28.845295 35.698795 -0.279956 0.630015 0.086285 -0.010789 -1111730.000000 0 0 1
-21.558251 5.926381 28.598825 36.301143 -0.268274 0.663532 0.099224 -0.021570 -1160600.000000 0 0 1
-22.002051 5.003381 27.619125 35.664270 -0.223603 0.684998 0.089761 -0.024923 847951.000000 0 0 1
-23.549251 4.966081 27.348015 36.429976 -0.207836 0.721674 0.087540 -0.025901 769492.000000 0 0 1
-24.018851 5.911281 26.391715 36.171413 -0.241314 0.753017 0.100524 -0.033850 892161.000000 0 0 1
-25.451941 5.923581 26.451745 37.183127 -0.228665 0.779321 0.100491 -0.031821 545032.000000 0 0 1
-26.156801 6.754081 25.335205 37.036043 -0.252695 0.817470 0.099853 -0.031321 -17781.900000 0 0 1
-26.334091 6.212481 24.025765 36.184481 -0.231674 0.844668 0.099119 -0.027315 694452.000000 0 0 1
-27.234181 5.094181 23.916485 36.601224 -0.184914 0.858684 0.086878 -0.021139 124335.000000 0 0 1
-27.303421 4.504981 22.464635 35.643113 -0.163524 0.888901 0.100752 -0.020814 164121.000000 0 0 1
-27.914351 5.415781 21.519135 35.659709 -0.191633 0.922966 0.095112 -0.013684 257506.000000 0 0 1
-27.912471 4.946981 20.200335 34.808508 -0.175410 0.951666 0.118629 -0.012292 312236.000000 0 0 1
-28.980931 5.694081 19.343335 35.305546 -0.194006 0.990964 0.118350 -0.016992 720911.000000 0 0 1
-30.332601 5.270681 19.476335 36.430405 -0.172045 1.006741 0.124825 -0.013416 669429.000000 0 0 1
-31.142541 5.847881 18.455635 36.669688 -0.185616 1.043390 0.132220 -0.010907 -511715.000000 0 0 1
-32.654701 5.785881 18.590535 38.018600 -0.175364 1.059870 0.130640 -0.010309 -537692.000000 0 0 1
-33.172101 6.709681 19.519335 39.069330 -0.199576 1.047651 0.121218 -0.009639 -528260.000000 0 0 1
-34.330803 6.256681 20.127235 40.284683 -0.180268 1.047630 0.115352 -0.004437 -813968.000000 0 0 1
-35.009728 7.364181 20.933535 41.450273 -0.207324 1.041382 0.105590 -0.008437 -466185.000000 0 0 1
-34.272888 7.703581 22.071735 41.486594 -0.221097 1.009811 0.100026 -0.007714 -185437.000000 0 0 1
-34.981270 8.456581 22.998405 42.709831 -0.237195 1.002164 0.103217 -0.011644 -376174.000000 0 0 1
-0.897951 32.586281 11.816622 34.674264 -1.543247 1.223040 0.117667 -0.027175 -132652.000000 0 0 1
-1.200751 32.757081 13.182422 35.330503 -1.534157 1.188430 0.102857 -0.024621 -98622.300000 0 0 1
-0.743951 -33.878302 13.644322 36.530266 1.548840 1.188009 0.096730 -0.028679 -78797.700000 0 0 1
-0.535651 -33.808202 15.183122 37.064925 1.554954 1.148741 0.086991 -0.020443 -615733.000000 0 0 1
-1.705751 -33.657602 15.889822 37.258961 1.520160 1.130210 0.085322 -0.014752 -967588.000000 0 0 1
-1.485251 -33.534802 17.277422 37.753122 1.526535 1.095455 0.074181 -0.018911 276487.000000 0 0 1
-2.734751 -33.211702 18.162222 37.952106 1.488639 1.071786 0.066046 -0.014310 217905.000000 0 0 1
-3.592451 33.564281 18.398022 38.444166 -1.464170 1.071777 0.056899 -0.009343 -326477.000000 0 0 1
-4.500851 33.772281 19.439022 39.226270 -1.438306 1.052315 0.042287 -0.013010 -176295.000000 0 0 1
-5.429451 32.551081 19.610322 38.387714 -1.405520 1.034624 0.039595 -0.013881 128865.000000 0 0 1
-6.429151 32.533781 18.619422 38.032404 -1.375695 1.059203 0.040738 -0.014105 -117742.000000 0 0 1
-7.556151 31.730281 18.892822 37.694096 -1.337014 1.045795 0.051152 -0.025660 533961.000000 0 0 1
-8.631551 31.822781 17.752722 37.447994 -1.305931 1.076896 0.033766 -0.025037 -158422.000000 0 0 1
-9.484451 32.934681 17.782722 38.611828 -1.290405 1.092180 0.053909 -0.028776 -35729.900000 0 0 1
-10.162451 33.099681 16.542622 38.373463 -1.272907 1.125090 0.052648 -0.025435 -252667.000000 0 0 1
-11.271851 -33.717102 16.440622 39.168759 1.248170 1.137640 0.086017 -0.032730 -479120.000000 0 0 1
-12.470951 33.775281 17.094422 39.856160 -1.217091 1.127518 0.085601 -0.031124 -310965.000000 0 0 1
-13.338451 -32.998702 16.821522 39.367400 1.186665 1.129297 0.068352 -0.031908 -660745.000000 0 0 1
-14.750251 -33.311702 17.306522 40.333052 1.153950 1.127311 0.100841 -0.035945 -594179.000000 0 0 1
-14.860751 -33.158602 18.717322 40.873866 1.149464 1.095132 0.099277 -0.027721 -550818.000000 0 0 1
-16.138451 -33.411502 19.213322 41.784325 1.120824 1.093002 0.098799 -0.033496 -279619.000000 0 0 1
-16.176451 -33.147902 20.756022 42.323438 1.116788 1.058231 0.101278 -0.041765 -124017.000000 0 0 1
-16.175551 -31.775502 20.975522 41.367904 1.099929 1.039040 0.091861 -0.035256 23872.500000 0 0 1
-16.049051 -31.413502 22.379422 41.775814 1.098469 1.005456 0.084221 -0.018830 113529.000000 0 0 1
-15.808451 -29.890502 22.603622 40.672755 1.084314 0.981539 0.090762 -0.025115 -103726.000000 0 0 1
-15.780451 -29.409002 23.890422 41.044662 1.078310 0.949538 0.099569 -0.025058 10693.500000 0 0 1
-15.563051 -27.949602 23.977122 39.978634 1.062728 0.927610 0.073408 -0.001510 648795.000000 0 0 1
-16.877251 -27.145402 23.648522 39.761376 1.014548 0.933828 0.092209 -0.001134 788788.000000 0 0 1
-17.772651 -27.087702 24.759622 40.775601 0.990134 0.918244 0.103210 -0.010454 530017.000000 0 0 1
-18.869151 -26.233802 24.426422 40.508114 0.947255 0.923539 0.093734 -0.011385 68018.300000 0 0 1
-19.857551 -25.870402 25.582922 41.449800 0.916140 0.905614 0.099188 -0.011575 555804.000000 0 0 1
-20.630451 -26.941102 26.203522 42.872638 0.917284 0.913227 0.122844 -0.018354 798469.000000 0 0 1
-21.499051 -27.738702 25.422322 43.335196 0.911451 0.943888 0.104144 -0.026370 -496328.000000 0 0 1
-22.884551 -27.216002 25.044822 43.493178 0.871639 0.957173 0.064723 -0.012479 -582254.000000 0 0 1
-22.973751 -26.099102 24.200822 42.363146 0.849000 0.962743 0.077880 -0.012560 -43068.300000 0 0 1
-24.324251 -25.959102 23.819722 42.812654 0.817899 0.980784 0.068923 -0.011312 159214.000000 0 0 1
-24.836351 -24.584502 23.249422 41.973536 0.780302 0.983747 0.062278 0.006900 364799.000000 0 0 1
-25.228791 -23.551302 24.221322 42.164300 0.751023 0.958863 0.051274 0.006839 194537.000000 0 0 1
-25.996811 -22.477102 23.729622 41.763013 0.712915 0.966483 0.042964 0.024982 201864.000000 0 0 1
-26.516361 -21.523002 24.805122 42.209609 0.681827 0.942626 0.055151 0.020287 -272774.000000 0 0 1
-27.585471 -22.010802 25.555322 43.571873 0.673467 0.944054 0.046996 0.022721 -381200.000000 0 0 1
-27.854731 -21.227302 26.695522 44.035614 0.651182 0.919490 0.037054 0.015776 -286357.000000 0 0 1
-29.016011 -21.848002 27.546022 45.585605 0.645395 0.921947 0.033639 0.016151 2169280.000000 0 0 1
-30.411191 -21.796702 27.105022 46.201937 0.621868 0.943863 0.030699 0.016960 1859100.000000 0 0 1
-30.642981 -22.424702 25.897922 45.962614 0.631755 0.972233 0.010941 0.023387 -753782.000000 0 0 1
-32.160091 -22.784802 25.866122 47.143132 0.616395 0.990021 0.019208 0.014444 518506.000000 0 0 1
-32.659801 -23.141402 24.591722 46.978079 0.616447 1.019875 0.016591 0.005082 192909.000000 0 0 1
-32.453701 -24.570702 24.389222 47.453095 0.648030 1.030996 0.003390 0.007738 -430448.000000 0 0 1
-32.839111 -25.025002 22.990222 47.256833 0.651168 1.062723 0.027421 -0.003511 -169608.000000 0 0 1
-34.218951 -25.225802 22.823322 48.251235 0.635251 1.078092 0.051123 -0.011268 -249849.000000 0 0 1
-34.466013 -25.914202 21.596522 48.227188 0.644701 1.106484 0.062074 -0.014537 687858.000000 0 0 1
-35.876297 -26.600402 21.503622 49.569102 0.638005 1.122078 0.075033 -0.017114 598570.000000 0 0 1
-36.019944 -27.739402 22.407622 50.685425 0.656249 1.112867 0.063557 -0.016089 131565.000000 0 0 1
-35.253516 -28.874602 22.069322 50.632085 0.686253 1.119785 0.045791 -0.014367 -311269.000000 0 0 1
-35.846018 -29.854602 20.952022 51.139236 0.694457 1.148665 0.072199 -0.016220 -163046.000000 0 0 1
-35.854783 -29.308302 19.618422 50.293384 0.685271 1.170078 0.082941 -0.018679 326951.000000 0 0 1
-36.058011 -30.386102 18.739222 50.741046 0.700241 1.192529 0.079306 -0.017043 -491904.000000 0 0 1
-36.388521 -29.747902 17.397522 50.117222 0.685326 1.216280 0.090345 -0.013473 -775104.000000 0 0 1
-35.304583 -29.339102 16.611522 48.817406 0.693376 1.223583 0.114470 -0.025682 -182598.000000 0 0 1
-35.594149 -28.720402 15.307222 48.229825 0.678925 1.247830 0.113245 -0.027567 -100757.000000 0 0 1
-36.344571 -29.564902 14.230222 48.964380 0.682895 1.275917 0.121307 -0.038803 155718.000000 0 0 1
-35.579219 -30.710402 13.828222 48.992135 0.712082 1.284654 0.124352 -0.051001 164726.000000 0 0 1
-36.193331 -31.678302 13.002322 49.825018 0.718973 1.306780 0.123623 -0.046617 -246453.000000 0 0 1
-36.679041 -31.306902 11.560722 49.589560 0.706544 1.335503 0.125136 -0.047493 -100797.000000 0 0 1
36.859805 -30.399002 11.643522 49.176378 -0.689633 1.331756 0.129351 -0.051869 -180056.000000 0 0 1
36.839255 -29.576002 10.522922 48.400439 -0.676470 1.351632 0.098818 -0.030780 573952.000000 0 0 1
35.662425 -28.528802 10.657422 46.896500 -0.674721 1.341539 0.123479 -0.018391 610809.000000 0 0 1
35.587575 -27.712802 9.516022 46.098043 -0.661631 1.362871 0.137342 -0.049902 322912.000000 0 0 1
34.610185 -26.699702 9.696122 44.774477 -0.657082 1.352512 0.109155 -0.041515 85161.600000 0 0 1
34.477015 -25.742302 8.511422 43.860859 -0.641354 1.375502 0.099813 -0.039594 79899.400000 0 0 1
35.546125 -24.840802 8.536822 44.198074 -0.609942 1.376426 0.122446 -0.046092 110892.000000 0 0 1
35.293455 -24.087002 7.396222 43.364913 -0.598869 1.399401 0.104412 -0.042253 209960.000000 0 0 1
35.902165 -22.677302 7.394922 43.103484 -0.563361 1.398381 0.122803 -0.043131 76219.500000 0 0 1
35.064045 -21.678902 7.989022 41.991505 -0.553742 1.379376 0.097065 -0.040291 198157.000000 0 0 1
35.586415 -20.405002 7.709822 41.739650 -0.520626 1.385017 0.118561 -0.032881 441560.000000 0 0 1
34.864915 -19.325102 8.622522 40.784430 -0.506127 1.357772 0.122485 -0.023476 391435.000000 0 0 1
35.183665 -19.530802 9.999922 41.464936 -0.506758 1.327229 0.114830 -0.039329 74953.600000 0 0 1
34.498255 -18.664602 10.898822 40.709720 -0.495931 1.299770 0.120636 -0.029265 6417.610000 0 0 1
35.039165 -18.664602 12.366522 41.581742 -0.489447 1.268825 0.113831 -0.038458 -518781.000000 0 0 1
36.265255 -18.035002 12.530622 42.396303 -0.461492 1.270755 0.094761 -0.030413 -405633.000000 0 0 1
36.676395 -18.232702 13.855122 43.238337 -0.461344 1.244607 0.099177 -0.022760 -321200.000000 0 0 1
-36.641851 -17.540902 14.354122 43.085372 0.446473 1.231148 0.114678 -0.026867 -1167610.000000 0 0 1
-35.497847 -17.904102 13.710822 42.055209 0.467139 1.238706 0.099025 -0.022823 -844782.000000 0 0 1
-34.383849 -17.255202 14.286922 41.037875 0.465119 1.215210 0.077237 -0.019456 747315.000000 0 0 1
-33.014951 -17.403002 13.525622 39.696271 0.485111 1.223105 0.087320 -0.020132 453519.000000 0 0 1
-32.402001 -18.652902 13.622322 39.791809 0.522339 1.221390 0.090863 -0.025115 175971.000000 0 0 1
-31.204481 -18.514202 12.863122 38.496171 0.535492 1.230103 0.100639 -0.033676 453198.000000 0 0 1
-30.491221 -19.917902 12.551522 38.522436 0.578645 1.238914 0.091286 -0.035333 645857.000000 0 0 1
-31.124741 -20.740802 11.553822 39.146151 0.587802 1.271188 0.100287 -0.031674 45565.300000 0 0 1
-30.173501 -21.686602 11.179222 38.803658 0.623186 1.278557 0.092833 -0.036685 -115654.000000 0 0 1
-30.682541 -22.455402 9.875522 39.283449 0.631792 1.316679 0.105426 -0.033570 781659.000000 0 0 1
-31.536911 -23.583402 10.083422 40.650080 0.642094 1.320125 0.109831 -0.032642 239803.000000 0 0 1
-32.869081 -23.300302 10.438222 41.620152 0.616662 1.317293 0.126691 -0.038941 -80382.500000 0 0 1
-33.861461 -24.505702 10.429022 43.080070 0.626459 1.326283 0.159706 -0.041985 106947.000000 0 0 1
-33.933511 -25.233702 9.238022 43.284685 0.639407 1.355717 0.149124 -0.035524 38304.000000 0 0 1
-34.617088 -26.464102 9.426022 44.581850 0.652705 1.357757 0.151253 -0.034396 -51632.300000 0 0 1
-34.686331 -27.234902 8.103822 44.839195 0.665637 1.389067 0.133482 -0.028737 -150786.000000 0 0 1
-33.422541 -27.581102 7.611222 43.996751 0.689934 1.396927 0.136771 -0.030854 -380643.000000 0 0 1
-33.555241 -28.131702 6.314622 44.240494 0.697703 1.427573 0.104577 -0.028370 67875.700000 0 0 1
-32.247471 -28.464202 5.558622 43.370594 0.723163 1.442277 0.102143 -0.023049 185705.000000 0 0 1
-31.621341 -27.379202 4.929422 42.116851 0.713622 1.453486 0.097279 -0.016656 -601184.000000 0 0 1
-30.265941 -27.602402 4.652122 41.225745 0.739403 1.457710 0.091117 -0.017603 -93422.300000 0 0 1
-29.680541 -26.369702 3.907722 39.894436 0.726398 1.472687 0.073583 -0.009180 -63274.600000 0 0 1
-30.155991 -26.136202 2.592622 39.990081 0.714110 1.505919 0.101194 -0.016828 -234972.000000 0 0 1
-29.715821 -24.932102 2.021922 38.842347 0.698084 1.518718 0.088255 -0.020381 -227167.000000 0 0 1
-30.393011 -24.546402 0.671322 39.073158 0.679378 1.553614 0.100412 -0.019031 -137205.000000 0 0 1
-29.811691 -25.256102 -0.411078 39.073989 0.702859 1.581317 0.097665 -0.020884 -32999.100000 0 0 1
-30.071161 -24.688702 -1.688778 38.944303 0.687421 1.614174 0.106458 -0.019993 778084.000000 0 0 1
-31.545181 -24.570402 -2.238878 40.047668 0.661739 1.626731 0.125946 -0.014952 681903.000000 0 0 1
-32.207531 -23.444702 -1.715378 39.873821 0.629223 1.613830 0.113596 -0.011255 -147401.000000 0 0 1
-33.575701 -23.557802 -2.079478 41.068503 0.611821 1.621452 0.114039 -0.021265 -293958.000000 0 0 1
-34.387250 -22.324302 -1.832578 41.039198 0.575815 1.615466 0.124024 -0.024034 -626033.000000 0 0 1
-34.557129 -22.167802 -0.417178 41.058259 0.570364 1.580957 0.121770 -0.035799 200541.000000 0 0 1
-35.102974 -20.881602 -0.157478 40.844643 0.536637 1.574652 0.119017 -0.031384 -256815.000000 0 0 1
-35.155017 -20.595002 1.334422 40.765304 0.529938 1.538056 0.107913 -0.032237 450213.000000 0 0 1
-36.267071 -21.257602 1.977022 42.084376 0.530166 1.523801 0.102510 -0.040045 862746.000000 0 0 1
-36.350111 -20.888202 3.291122 42.053288 0.521563 1.492455 0.117395 -0.042155 -974472.000000 0 0 1
37.155525 -21.741302 3.979922 43.232592 -0.529424 1.478607 0.134998 -0.035526 1437430.000000 0 0 1
35.814965 -21.543202 3.455222 41.937570 -0.541532 1.488313 0.105710 -0.032659 1062270.000000 0 0 1
35.225145 -20.274502 3.800422 40.820454 -0.522262 1.477560 0.107810 -0.040020 -948456.000000 0 0 1
33.983415 -20.059802 2.940522 39.571641 -0.533243 1.496419 0.092410 -0.028573 186064.000000 0 0 1
32.859325 -20.877102 3.305922 39.070676 -0.566006 1.486081 0.082656 -0.023874 715573.000000 0 0 1
31.698455 -20.445702 2.529022 37.804956 -0.572857 1.503850 0.102187 -0.029850 533657.000000 0 0 1
30.541125 -21.300502 3.005522 37.356457 -0.609004 1.490254 0.087263 -0.013056 -689778.000000 0 0 1
30.299835 -22.575802 2.398322 37.861574 -0.640345 1.507409 0.057781 -0.017277 49459.600000 0 0 1
29.033325 -23.111702 2.743922 37.210399 -0.672322 1.496989 0.059833 -0.016662 196588.000000 0 0 1
28.698225 -24.357202 1.889622 37.688620 -0.703759 1.520638 0.049223 -0.015697 -44431.600000 0 0 1
28.561725 -23.954902 0.567222 37.281781 -0.697901 1.555581 0.047250 -0.021245 75212.300000 0 0 1
28.035025 -25.004002 -0.219778 37.566089 -0.728313 1.576647 0.045189 -0.025159 -229412.000000 0 0 1
27.062625 -24.475402 -1.318378 36.512588 -0.735240 1.606912 0.071659 -0.034772 -128619.000000 0 0 1
27.591925 -23.800402 -2.459478 36.521535 -0.711756 1.638191 0.051923 -0.043094 -297715.000000 0 0 1
28.148225 -24.572602 -3.459778 37.524730 -0.717680 1.663127 0.053176 -0.043506 -661171.000000 0 0 1
27.171125 -25.229202 -4.458278 37.345132 -0.748356 1.690462 0.068337 -0.040807 373720.000000 0 0 1
26.477325 -24.410902 -5.441478 36.421842 -0.744813 1.720759 0.073296 -0.053722 1073940.000000 0 0 1
25.370625 -23.650502 -4.951278 35.036124 -0.750323 1.712590 0.067799 -0.055433 262568.000000 0 0 1
24.696525 -22.575802 -5.896078 33.975711 -0.740566 1.745217 0.071082 -0.057986 473669.000000 0 0 1
23.899025 -23.104502 -6.975978 33.965360 -0.768496 1.777653 0.075857 -0.057438 1344900.000000 0 0 1
22.820425 -22.296902 -7.502078 32.775064 -0.773795 1.801740 0.081545 -0.055969 661721.000000 0 0 1
23.222525 -21.036502 -8.243178 32.400155 -0.736047 1.828042 0.079765 -0.055646 -819300.000000 0 0 1
23.717625 -21.102302 -9.568378 33.157001 -0.727112 1.863538 0.085897 -0.056406 86745.600000 0 0 1
23.641025 -19.913202 -10.271278 32.571964 -0.700016 1.891612 0.088182 -0.057571 26192.200000 0 0 1
24.512625 -19.760802 -11.584778 33.549443 -0.678478 1.923360 0.082688 -0.058499 150238.000000 0 0 1
25.893725 -19.680502 -11.303678 34.432256 -0.649902 1.905286 0.085584 -0.053611 -210990.000000 0 0 1
26.552125 -19.518802 -12.552178 35.264091 -0.633905 1.934724 0.074878 -0.055815 -351877.000000 0 0 1
28.041025 -19.869402 -12.516678 36.575394 -0.616463 1.920070 0.073233 -0.050754 -431662.000000 0 0 1
28.322025 -21.229102 -12.366478 37.493221 -0.643220 1.906922 0.061925 -0.050412 8783.480000 0 0 1
29.514625 -21.477302 -11.658278 38.318442 -0.629065 1.879944 0.072149 -0.052160 -4147.370000 0 0 1
30.054435 -22.939202 -11.853278 39.622926 -0.651931 1.874600 0.063826 -0.034598 -181474.000000 0 0 1
30.395515 -23.236802 -13.187478 40.469073 -0.652705 1.902723 0.059060 -0.040710 -54640.600000 0 0 1
31.023395 -24.441302 -13.321578 41.680843 -0.667279 1.896113 0.064836 -0.024990 -185595.000000 0 0 1
-3.776751 -9.041819 -27.260288 28.967942 1.175127 2.796518 0.039049 0.001691 241013.000000 0 0 1
-3.872051 -7.829519 -26.550628 27.950492 1.111522 2.823764 0.040727 -0.001781 188895.000000 0 0 1
-4.523251 -6.812919 -27.356068 28.552235 0.984696 2.851111 0.047828 -0.007213 207959.000000 0 0 1
-4.632151 -5.455019 -26.642428 27.586827 0.866794 2.879178 0.054073 -0.020044 273824.000000 0 0 1
-5.681851 -5.442219 -25.657868 26.837052 0.763860 2.844055 0.055452 -0.014036 519979.000000 0 0 1
-5.613651 -4.268719 -24.878778 25.859015 0.650135 2.865372 0.068021 -0.026094 47014.900000 0 0 1
-6.254951 -4.400219 -23.501478 24.714486 0.613056 2.826989 0.051611 -0.022874 -210462.000000 0 1 0
-5.460451 -5.187219 -22.603778 23.825502 0.759743 2.819965 0.052637 -0.028114 317337.000000 0 1 0
-5.908051 -5.266319 -21.256878 22.682461 0.728032 2.785168 0.049012 -0.023683 -470792.000000 0 1 0
-5.112851 -6.164219 -20.340278 21.860141 0.878360 2.766499 0.043031 -0.027974 -404312.000000 0 1 0
-5.517251 -7.509919 -20.383578 22.412702 0.937184 2.712793 0.039423 -0.025419 552684.000000 0 1 0
-4.564651 -8.344619 -19.718878 21.892986 1.070246 2.692160 0.036935 -0.022175 -454970.000000 0 1 0
-5.081451 -9.779719 -19.724678 22.594844 1.091599 2.632060 0.045554 -0.017684 634270.000000 0 1 0
-6.215251 -10.034519 -18.886078 22.271166 1.016243 2.583007 0.051281 -0.016268 172084.000000 0 1 0
-7.470651 -9.617919 -19.353378 22.866312 0.910398 2.579930 0.050269 -0.017374 -1238110.000000 0 1 0
-8.526551 -9.867619 -18.298078 22.469794 0.858177 2.522389 0.045669 -0.016212 -401924.000000 0 1 0
-9.205851 -11.144919 -18.493978 23.473051 0.880394 2.478157 0.060941 -0.015132 350293.000000 0 1 0
-9.881951 -11.492019 -17.302678 23.002220 0.860585 2.422218 0.053136 -0.019612 207276.000000 0 1 0
-10.906751 -12.665719 -17.531778 24.222735 0.859880 2.380052 0.072464 -0.018272 -498996.000000 0 1 0
-12.066451 -12.438619 -18.260378 25.174588 0.800584 2.382338 0.082713 -0.035862 -486375.000000 0 0 1
-11.901751 -12.236919 -19.679978 26.051783 0.799282 2.427088 0.083766 -0.032609 -1249660.000000 0 0 1
-13.227751 -11.635119 -20.200978 26.803524 0.721429 2.424423 0.081479 -0.032640 711815.000000 0 0 1
-14.304951 -12.564219 -20.405778 27.908547 0.720703 2.390826 0.077330 -0.034739 302261.000000 0 0 1
-14.885251 -12.896119 -19.177078 27.488923 0.713921 2.342880 0.075321 -0.030872 -1371880.000000 0 0 1
-16.018851 -13.934219 -19.329278 28.712141 0.715914 2.309337 0.075559 -0.027647 287577.000000 0 0 1
-15.477451 -15.188919 -19.684378 29.287019 0.775990 2.307864 0.085896 -0.025837 449691.000000 0 0 1
-16.244151 -15.701319 -20.795478 30.705956 0.768407 2.314809 0.092165 -0.024240 474051.000000 0 0 1
-15.832851 -17.117919 -21.193178 31.509572 0.824378 2.308506 0.066108 -0.018603 -369208.000000 0 0 1
-16.155351 -18.087619 -20.246478 31.592360 0.841767 2.266423 0.068001 -0.004833 32769.300000 0 0 1
-15.939751 -19.395619 -20.778678 32.588635 0.882890 2.262182 0.060765 -0.003734 257167.000000 0 0 1
-16.728751 -20.489719 -19.946478 33.129166 0.886107 2.216903 0.067970 -0.014056 82565.400000 0 0 1
-16.287051 -21.782319 -20.303478 33.940664 0.928757 2.212056 0.069592 -0.011301 510714.000000 0 0 1
-17.049951 -22.841919 -19.712078 34.655737 0.929582 2.175839 0.085076 -0.012277 266547.000000 0 0 1
-16.543151 -24.240819 -20.208978 35.632793 0.971946 2.173832 0.091928 -0.010235 101426.000000 0 0 1
-17.008551 -24.652119 -21.477678 36.855236 0.966852 2.192915 0.073234 -0.010040 274420.000000 0 0 1
-16.178351 -25.712859 -21.953278 37.481149 1.009187 2.196558 0.085959 -0.014164 -70527.000000 0 0 1
-16.436251 -26.319259 -23.384178 38.854517 1.012560 2.216599 0.086703 -0.018876 -478114.000000 0 0 1
-17.660651 -26.970949 -23.590878 39.948219 0.991052 2.202520 0.107588 -0.018058 -285155.000000 0 0 1
-17.508151 -28.356389 -23.459878 40.755196 1.017657 2.184170 0.103787 -0.015091 -330097.000000 0 0 1
-18.642851 -29.175199 -24.103478 42.186796 1.002195 2.178948 0.102228 -0.023054 -58764.100000 0 0 1
-18.734451 -29.190709 -25.556918 43.084025 1.000211 2.205809 0.106075 -0.017784 117400.000000 0 0 1
-19.131851 -27.939449 -26.138068 42.776619 0.970371 2.228165 0.121605 -0.027649 251611.000000 0 0 1
-18.032151 -27.252199 -27.029048 42.407667 0.986256 2.261867 0.124734 -0.036011 494599.000000 0 0 1
-17.883151 -27.706059 -28.337258 43.479110 0.997619 2.280678 0.118623 -0.025587 -575278.000000 0 0 1
-16.713451 -27.290049 -28.941858 43.147623 1.021282 2.306034 0.095247 -0.026463 -697100.000000 0 0 1
-16.686851 -27.429289 -30.527718 44.303030 1.024253 2.330996 0.100393 -0.029880 6380.920000 0 0 1
-16.883051 -28.773009 -30.914308 45.482061 1.040164 2.318154 0.081875 -0.028702 251018.000000 0 0 1
-17.254051 -28.764099 -32.265148 46.541545 1.030490 2.336792 0.078596 -0.025485 -126197.000000 0 0 1
-17.366151 -30.146879 -32.869958 47.862842 1.048172 2.327809 0.074526 -0.026384 -578948.000000 0 0 1
-16.137651 -30.610049 -33.293208 48.019127 1.085625 2.336899 0.091787 -0.018460 -782868.000000 0 0 1
-16.320851 -31.818959 33.866865 49.252217 1.096859 0.812589 0.092261 -0.017178 -56187.700000 0 0 1
-15.112451 -32.434129 33.139141 48.770499 1.134764 0.823727 0.081231 -0.022117 541906.000000 0 0 1
-14.115351 -33.110889 -33.934288 49.468273 1.167821 2.326747 0.101825 -0.020763 631198.000000 0 0 1
-13.143651 -33.682879 33.062924 48.994376 1.198751 0.830061 0.105907 -0.018676 -16937.200000 0 0 1
-12.191751 33.329693 33.930055 49.099449 -1.220122 0.807859 0.118525 -0.023760 -129932.000000 0 0 1
-11.257851 -33.756609 -33.186408 48.657841 1.248895 2.321340 0.125115 -0.026466 277707.000000 0 0 1
-10.688551 33.136927 -32.246248 47.456523 -1.258776 2.317864 0.119588 -0.034672 511420.000000 0 0 1
-9.660751 33.840306 -31.282558 47.086037 -1.292713 2.297447 0.106819 -0.038251 -119305.000000 0 0 1
-10.251651 -33.257409 -30.303628 46.146088 1.271787 2.287216 0.127584 -0.044547 -275788.000000 0 0 1
-9.436751 -32.288839 -29.619318 44.821037 1.286455 2.292727 0.126766 -0.048625 -189874.000000 0 0 1
-10.240451 -31.296959 -28.705768 43.685096 1.254573 2.287770 0.139384 -0.043566 327833.000000 0 0 1
-10.558351 -31.654519 -27.348448 43.144234 1.248851 2.257361 0.169292 -0.047531 139234.000000 0 0 1
-11.284751 -32.848599 -27.127708 44.071403 1.239890 2.233867 0.165084 -0.047180 -246786.000000 0 0 1
-11.558451 -33.078729 -25.640518 43.419307 1.234636 2.202515 0.162613 -0.050892 709483.000000 0 0 1
-10.360451 -33.210499 -24.853978 42.755074 1.268401 2.191135 0.177031 -0.060290 530476.000000 0 0 1
-10.684151 -33.160779 -23.454678 41.998931 1.259106 2.163323 0.169342 -0.062423 732300.000000 0 0 1
-9.461751 -33.404429 -22.483678 41.362983 1.294778 2.145481 0.175121 -0.063089 690575.000000 0 0 1
-9.035251 33.128388 -22.504678 41.055893 -1.304538 2.150944 0.155422 -0.061560 -262824.000000 0 0 1
-8.035351 32.923360 -21.538078 40.154742 -1.331414 2.136935 0.168950 -0.061083 6196.180000 0 0 1
-7.256751 31.557185 -21.563678 38.903838 -1.344770 2.158296 0.171398 -0.068113 -541396.000000 0 0 1
-6.096051 31.521485 -22.303278 39.092225 -1.379761 2.177947 0.142827 -0.072911 -587053.000000 0 0 1
-5.326451 30.350525 -22.048078 37.889883 -1.397068 2.191858 0.133830 -0.056988 1093990.000000 0 0 1
-3.802751 30.582865 -22.382478 38.088684 -1.447089 2.198937 0.132636 -0.062485 832621.000000 0 0 1
-3.564451 30.514205 -23.808878 38.867528 -1.454510 2.230098 0.142347 -0.060956 -36830.300000 0 0 1
-2.421851 31.244605 -24.195978 39.592121 -1.493438 2.228285 0.117390 -0.064721 -94333.200000 0 0 1
-2.141951 31.400325 -25.732398 40.653717 -1.502688 2.256174 0.118688 -0.042258 -309960.000000 0 0 1
-1.166951 32.355828 -26.059488 41.561500 -1.534746 2.248506 0.112808 -0.054187 -466736.000000 0 0 1
-1.560251 33.681735 -26.025908 42.593914 -1.524506 2.228150 0.102725 -0.043987 -215089.000000 0 0 1
-0.613251 -33.075379 -26.667288 42.491187 1.552257 2.249258 0.053714 -0.023163 247466.000000 0 0 1
0.534349 -32.861559 -25.841968 41.808789 -1.554537 2.237118 0.064667 -0.027041 166751.000000 0 0 1
1.387949 -31.983339 -26.543268 41.586121 -1.527428 2.263048 0.048271 -0.013936 -7835.160000 0 0 1
2.657349 -31.541229 -25.808618 40.841099 -1.486745 2.254834 0.047886 -0.015029 -211066.000000 0 0 1
2.249649 -30.693859 -24.714178 39.471059 -1.497634 2.247382 0.053799 -0.019089 808325.000000 0 0 1
3.391249 -30.068819 -24.148278 38.714000 -1.458488 2.244342 0.035353 -0.015074 97721.900000 0 0 1
3.080549 -29.466969 -22.735578 37.345663 -1.466632 2.225328 0.047959 -0.017077 -118081.000000 0 0 1
3.156549 -30.427369 -21.669078 37.487831 -1.467426 2.187108 0.063060 -0.019725 516364.000000 0 0 1
3.391849 -29.892869 -20.394678 36.345992 -1.457813 2.166542 0.065239 -0.018504 -287662.000000 0 0 1
3.603349 -30.761369 -19.141678 36.409474 -1.454189 2.124373 0.061208 -0.014423 -782086.000000 0 0 1
2.452449 -31.411209 -18.730578 36.653964 -1.492879 2.107157 0.068535 -0.020096 -367438.000000 0 0 1
2.218349 -32.738639 -19.182278 38.009201 -1.503140 2.099801 0.061988 -0.013623 -200536.000000 0 0 1
2.886149 -33.859309 -18.289178 38.591148 -1.485762 2.064535 0.050782 -0.028108 1570110.000000 0 0 1
4.336149 -33.795379 -18.419478 38.732505 -1.443188 2.066392 0.048816 -0.019441 1105120.000000 0 0 1
4.911549 33.039186 -17.618078 37.763843 1.423219 2.056163 0.055741 -0.036284 -358842.000000 0 0 1
5.915349 32.292322 -18.462478 37.664951 1.389624 2.083089 0.069830 -0.031355 -910586.000000 0 0 1
7.129749 32.937554 -18.664978 38.523982 1.357623 2.076591 0.104590 -0.031220 -497877.000000 0 0 1
7.966849 32.179213 -19.546378 38.484196 1.328099 2.103549 0.079215 -0.034675 366005.000000 0 0 1
9.384249 32.786694 -19.725278 39.396929 1.292028 2.095181 0.062868 -0.035607 148488.000000 0 0 1
10.084749 32.772278 -18.479078 38.951261 1.272270 2.065096 0.053635 -0.035143 -777970.000000 0 0 1
11.265949 33.468002 -18.644978 39.933244 1.246092 2.056582 0.050984 -0.021431 -700632.000000 0 0 1
12.224449 33.612252 -17.453778 39.797676 1.221978 2.024795 0.027685 -0.019321 -502295.000000 0 0 1
13.097349 32.574074 -17.228278 39.107856 1.188499 2.026988 0.035141 -0.023138 -680416.000000 0 0 1
13.639149 32.704450 -15.897878 38.837481 1.175685 1.992531 0.037880 -0.030027 72964.600000 0 0 1
14.905449 31.880542 -15.600378 38.495625 1.133452 1.988049 0.049458 -0.022205 6157.800000 0 0 1
14.695449 30.555555 -15.096478 37.114712 1.122511 1.989692 0.063462 -0.025221 -321095.000000 0 0 1
15.894349 29.890195 -14.761978 36.931966 1.082066 1.981994 0.043828 -0.012595 -259720.000000 0 0 1
15.703049 28.582085 -14.001078 35.490161 1.068412 1.976326 0.069128 -0.018785 -593586.000000 0 0 1
15.531249 28.749005 -12.637878 35.034853 1.075480 1.939839 0.067399 -0.022508 -798130.000000 0 0 1
14.243949 28.879465 -12.145778 34.415600 1.112587 1.931481 0.069963 -0.022752 -656729.000000 0 0 1
13.471549 27.589085 -11.771178 32.881619 1.116558 1.936907 0.077492 -0.018073 -874446.000000 0 0 1
12.909649 27.003725 -12.916478 32.599012 1.124847 1.978196 0.067547 -0.022710 36685.600000 0 0 1
12.222749 25.780985 -12.728278 31.242021 1.128083 1.990411 0.087396 -0.027144 586081.000000 0 0 1
11.158649 25.660225 -11.569878 30.279113 1.160602 1.962872 0.079286 -0.022278 -356306.000000 0 0 1
10.064749 26.543335 -11.751478 30.723689 1.208364 1.963285 0.070328 -0.020347 -192184.000000 0 0 1
9.421549 26.718015 -10.532478 30.225006 1.231781 1.926734 0.055089 -0.008957 -164538.000000 0 0 1
8.257149 27.724435 -10.621978 30.816412 1.281332 1.922700 0.056231 -0.010307 -107249.000000 0 0 1
8.698749 29.061865 -10.712678 32.171753 1.279965 1.910263 0.061224 -0.015470 -199386.000000 0 0 1
7.631749 29.971365 -10.763478 32.747195 1.321460 1.905706 0.041002 -0.012113 -203287.000000 0 0 1
8.080849 31.414765 -11.159678 34.303440 1.319024 1.902149 0.080513 -0.025807 142890.000000 0 0 1
9.011149 31.953554 -10.217978 34.736688 1.295927 1.869368 0.073210 -0.023782 147420.000000 0 0 1
9.651349 33.136040 -10.660178 36.121809 1.287373 1.870375 0.074108 -0.027462 727473.000000 0 0 1
10.828449 33.087694 -11.721478 36.734777 1.254517 1.895559 0.057937 -0.029202 103775.000000 0 0 1
12.043149 32.726187 -11.104078 36.597012 1.218179 1.879071 0.059526 -0.016913 54174.200000 0 0 1
13.081549 32.979005 -12.072478 37.476478 1.193170 1.898780 0.060375 -0.022269 155857.000000 0 0 1
14.501149 32.656204 -11.606878 37.569011 1.152897 1.884883 0.065428 -0.022404 31666.300000 0 0 1
15.000649 33.541176 -10.580478 38.235801 1.150248 1.851172 0.072335 -0.018965 -95785.800000 0 0 1
16.365849 33.348970 -10.302078 38.550326 1.114580 1.841321 0.077206 -0.026537 92720.400000 0 0 1
17.014849 -33.468499 -9.359178 38.694182 -1.100464 1.815095 0.089213 -0.028693 170949.000000 0 0 1
16.772649 -33.845609 -8.009778 38.613515 -1.110704 1.779748 0.080783 -0.030956 253708.000000 0 0 1
17.338949 -32.866449 -7.135978 37.838668 -1.085346 1.760522 0.077284 -0.030618 -855259.000000 0 0 1
17.764449 -33.424199 -5.739678 38.284417 -1.082279 1.721286 0.083220 -0.021716 2801.380000 0 0 1
18.876249 33.587275 -5.773778 38.958367 1.058782 1.719548 0.079295 -0.028390 256141.000000 0 0 1
20.152049 -33.719399 -6.131878 39.758054 -1.032114 1.725644 0.096431 -0.026301 -146050.000000 0 0 1
20.952149 33.071501 -6.984778 39.768126 1.006079 1.747350 0.083176 -0.018481 361208.000000 0 0 1
21.404749 31.865534 -6.357478 38.910064 0.979303 1.734921 0.089160 -0.011680 94167.100000 0 0 1
22.303349 31.980189 -5.275778 39.344704 0.961810 1.705293 0.086219 -0.012094 -400146.000000 0 0 1
22.645949 30.550445 -4.727878 38.321293 0.932910 1.694486 0.058054 -0.012583 279415.000000 0 0 1
23.446849 29.801435 -5.668178 38.340690 0.904175 1.719177 0.048194 -0.012719 244009.000000 0 0 1
23.818749 28.580515 -5.102378 37.552802 0.876024 1.707090 0.038677 -0.002958 -28746.800000 0 0 1
24.797749 27.805155 -6.048178 37.744343 0.842508 1.731731 0.027656 0.002114 -99584.000000 0 0 1
26.050849 28.483105 -6.087778 39.076784 0.829969 1.727224 0.049017 -0.001294 683000.000000 0 0 1
26.993949 27.764095 -6.951578 39.342632 0.799462 1.748422 0.032722 -0.000224 470432.000000 0 0 1
27.783249 26.727015 -6.171478 39.042661 0.766024 1.729532 0.028324 0.012931 -246447.000000 0 0 1
28.861649 27.242255 -5.330178 40.044301 0.756542 1.704300 0.047788 0.003373 691962.000000 0 0 1
29.330949 26.150175 -4.578978 39.561386 0.728130 1.686800 0.065853 0.002796 157800.000000 0 0 1
30.526449 26.390795 -3.621278 40.514834 0.712865 1.660297 0.070372 -0.004225 455468.000000 0 0 1
30.193349 27.257765 -2.555578 40.757270 0.734345 1.633540 0.076786 -0.008702 354487.000000 0 0 1
31.355749 27.267095 -1.726278 41.589151 0.715766 1.612316 0.090441 -0.024444 750388.000000 0 0 1
31.473249 28.622525 -0.977878 42.553150 0.737997 1.593779 0.107886 -0.019208 97505.100000 0 0 1
31.773949 29.634555 -1.890278 43.489813 0.750574 1.614275 0.077694 -0.016417 -30357.400000 0 0 1
31.623849 30.924725 -1.282678 44.249878 0.774221 1.599788 0.095548 -0.018251 84833.300000 0 0 1
33.970765 22.660181 19.126235 45.092234 0.588268 1.132764 0.119156 -0.022437 307191.000000 0 0 1
34.414595 22.482981 20.490635 45.931633 0.578690 1.108380 0.113168 -0.031107 -35017.700000 0 0 1
35.219585 23.536281 20.916635 47.242791 0.589114 1.112136 0.128017 -0.027651 -404849.000000 0 0 1
35.278375 23.618381 22.476635 48.037390 0.589952 1.083885 0.110046 -0.014204 -530503.000000 0 0 1
34.193325 24.249981 23.078355 47.852435 0.616875 1.067539 0.077355 -0.008128 -412653.000000 0 0 1
34.179075 24.347281 24.483815 48.584529 0.618963 1.042639 0.076461 -0.010446 -525861.000000 0 0 1
32.798395 24.806381 24.965435 48.107840 0.647539 1.025177 0.058184 -0.012758 -178252.000000 0 0 1
32.556285 26.202181 24.834825 48.613111 0.677677 1.034604 0.032061 -0.012907 -437132.000000 0 0 1
31.280515 26.421581 25.339015 48.152220 0.701389 1.016638 0.029572 -0.010183 -485711.000000 0 0 1
30.973125 27.930781 25.473385 48.870813 0.733795 1.022494 0.021889 -0.007402 -231419.000000 0 0 1
31.089405 28.596781 24.248515 48.706442 0.743660 1.049678 0.019499 -0.016135 306712.000000 0 0 1
30.785295 29.958981 24.432545 49.418865 0.771796 1.053655 0.020503 -0.015966 -224589.000000 0 0 1
31.139755 30.845081 23.218375 49.600366 0.780644 1.083647 0.026486 -0.019747 -892443.000000 0 0 1
32.484925 31.075881 23.003645 50.498994 0.763233 1.097832 0.005171 -0.016959 -900534.000000 0 0 1
32.706025 31.825381 21.839335 50.591457 0.771752 1.124442 0.013534 -0.014583 347421.000000 0 0 1
34.197265 32.221881 21.670135 51.742606 0.755666 1.138666 -0.000662 -0.025833 310661.000000 0 0 1
34.559365 33.362981 22.415135 53.008268 0.767786 1.134196 0.010406 -0.009300 153285.000000 0 0 1
35.945525 33.617181 22.222835 54.000463 0.751940 1.146664 0.023182 -0.005105 417063.000000 0 0 1
36.363595 -32.951402 23.009255 54.199001 -0.736211 1.132350 0.028526 -0.000414 -283232.000000 0 0 1
35.859115 -31.802102 22.416235 52.912545 -0.725509 1.133329 0.029478 -0.000883 135220.000000 0 0 1
36.140915 -30.690902 23.247305 52.806575 -0.704030 1.114936 0.034652 -0.000972 -240957.000000 0 0 1
35.171025 -29.472102 22.973025 51.316330 -0.697466 1.106633 0.035809 -0.010449 1376250.000000 0 0 1
33.772105 -29.587602 23.259855 50.566809 -0.719450 1.092821 0.028725 -0.008532 1127440.000000 0 0 1
32.912345 -30.155002 22.260235 49.880504 -0.741705 1.108202 0.044109 -0.004072 66305.000000 0 0 1
32.443755 -31.594202 22.499535 50.566985 -0.772133 1.109683 0.031190 -0.002545 -105231.000000 0 0 1
31.448005 -31.600902 23.515055 50.403887 -0.787823 1.085430 0.042586 -0.006840 182800.000000 0 0 1
30.763695 -32.834502 23.561325 50.790211 -0.817947 1.088409 0.032680 -0.010876 -162568.000000 0 0 1
29.864405 -32.894602 24.812935 50.888302 -0.833644 1.061462 0.041016 -0.013675 -159215.000000 0 0 1
29.279925 33.710981 25.039595 51.193023 0.855627 1.059714 0.046863 -0.026793 154555.000000 0 0 1
28.599525 33.587181 26.258995 51.337768 0.865431 1.033873 0.053722 -0.023758 -499551.000000 0 0 1
28.275525 32.055981 26.510385 50.298030 0.847978 1.015652 0.061246 -0.018644 254703.000000 0 0 1
27.580825 31.383081 25.477975 48.935947 0.849793 1.023197 0.080157 -0.024460 -975036.000000 0 0 1
26.212125 31.569281 25.505135 48.313631 0.877848 1.014661 0.081313 -0.028969 -1198690.000000 0 0 1
25.589225 31.122881 24.169255 46.985052 0.882665 1.030485 0.126801 -0.037878 -97000.300000 0 0 1
25.711225 31.918381 23.037655 47.016845 0.892692 1.058721 0.147441 -0.046246 396151.000000 0 0 1
27.031425 31.934681 22.495635 47.503425 0.868361 1.077470 0.111931 -0.038051 292921.000000 0 0 1
27.153025 32.563281 21.062735 47.342295 0.875751 1.109730 0.123560 -0.033843 6338.890000 0 0 1
28.485525 32.833081 20.690735 48.140865 0.856181 1.126530 0.117223 -0.031398 205793.000000 0 0 1
28.472525 33.431081 19.398435 48.006470 0.865329 1.154824 0.109787 -0.030258 1415420.000000 0 0 1
29.915675 -33.894902 18.946135 49.018038 -0.847678 1.173948 0.107604 -0.029004 2329040.000000 0 0 1
30.937595 32.962581 18.680235 48.914392 0.817077 1.178949 0.102809 -0.036179 1313050.000000 0 0 1
32.071465 33.539781 18.006635 49.776849 0.807773 1.200655 0.088985 -0.029101 542277.000000 0 0 1
33.070915 32.500081 17.441635 49.539392 0.776693 1.211008 0.074042 -0.027810 139243.000000 0 0 1
33.775385 31.783481 18.462835 49.918359 0.755024 1.191937 0.054142 -0.027812 475189.000000 0 0 1
34.580365 30.724981 17.905035 49.602585 0.726430 1.201489 0.062609 -0.033229 550519.000000 0 0 1
35.676645 30.152281 18.840535 50.368133 0.701674 1.187417 0.051785 -0.033598 629388.000000 0 0 1
36.716245 31.090581 19.171835 51.790599 0.702622 1.191594 0.060619 -0.026030 531493.000000 0 0 1
-36.847521 30.474081 19.892035 51.789019 -0.691008 1.176566 0.083561 -0.023750 -127224.000000 0 0 1
-35.761290 31.374981 20.487935 51.797826 -0.720156 1.164144 0.089450 -0.026390 -327344.000000 0 0 1
-35.146926 32.065181 19.433335 51.391991 -0.739579 1.183011 0.105842 -0.028426 155471.000000 0 0 1
-33.950061 32.729881 19.832035 51.158200 -0.767101 1.172704 0.090819 -0.012182 241075.000000 0 0 1
-34.020091 -33.805002 20.618635 52.204146 0.782227 1.164770 0.074410 -0.014362 -427045.000000 0 0 1
-34.362416 33.822881 21.960235 52.981269 -0.777486 1.143413 0.072647 -0.007049 214198.000000 0 0 1
-34.167470 -32.869002 22.790235 52.604013 0.766031 1.122710 0.060349 -0.005213 -104706.000000 0 0 1
-34.238084 -33.220902 24.275505 53.527328 0.770321 1.100090 0.057910 -0.006485 188767.000000 0 0 1
-35.553755 -33.559702 24.728635 54.788945 0.756554 1.102526 0.053159 0.002935 260563.000000 0 0 1
-35.559618 33.755381 26.067325 55.528530 -0.759375 1.082140 0.063016 -0.005494 156772.000000 0 0 1
-36.970651 33.509681 26.643845 56.565204 -0.736332 1.080340 0.036962 -0.009819 132128.000000 0 0 1
-36.977441 32.758981 27.772585 56.672732 -0.724980 1.058647 0.059022 -0.019551 -367772.000000 0 0 1
36.355255 32.826281 28.386095 56.613070 0.734432 1.045574 0.055165 -0.021925 -182481.000000 0 0 1
36.282935 31.751981 29.619585 56.585860 0.718899 1.019907 0.057593 -0.018022 -120728.000000 0 0 1
36.252585 30.331281 29.471105 55.702626 0.696701 1.013281 0.052077 -0.017894 -64621.000000 0 0 1
37.237275 29.804281 28.604885 55.616088 0.674978 1.030573 0.054634 -0.020377 -422827.000000 0 0 1
37.163445 28.306781 28.221925 54.579049 0.650937 1.027356 0.063550 -0.019050 -959469.000000 0 0 1
36.085525 27.895281 27.461435 53.239480 0.658080 1.028844 0.059966 -0.012069 -661905.000000 0 0 1
36.080475 26.598281 26.882365 52.267875 0.635254 1.030583 0.073425 -0.015234 -123411.000000 0 0 1
35.919235 25.419581 27.921285 52.114727 0.615867 1.005382 0.070206 -0.012888 84399.400000 0 0 1
37.120795 25.190281 28.660475 53.234637 0.596221 1.002283 0.055781 -0.008337 303988.000000 0 0 1
-37.267321 23.801381 28.948105 52.852169 -0.568366 0.991162 0.049657 -0.000151 18439.600000 0 0 1
-36.892491 22.825081 27.783785 51.516783 -0.554050 1.001173 0.082188 0.003087 -297229.000000 0 0 1
36.718365 22.836581 26.767205 50.855000 0.556395 1.016502 0.079326 0.002742 -53572.400000 0 0 1
37.008835 21.947981 25.697145 50.116973 0.535291 1.032419 0.085801 -0.015542 -78354.200000 0 0 1
36.617845 20.430181 25.932175 49.302501 0.508911 1.016928 0.083716 -0.011391 -82888.100000 0 0 1
35.224075 20.316481 26.154085 48.348020 0.523170 0.999225 0.100968 -0.008679 91655.400000 0 0 1
34.930325 19.076981 26.670565 47.910102 0.499878 0.980413 0.103633 -0.006484 -341751.000000 0 0 1
35.022135 18.936881 28.247275 48.816636 0.495684 0.953736 0.080037 -0.000343 -76483.800000 0 0 1
34.088705 19.635681 29.085435 48.924047 0.522598 0.934150 0.068008 -0.006871 407868.000000 0 0 1
33.968945 21.043081 28.870035 49.296850 0.554620 0.945131 0.074660 -0.010097 -667301.000000 0 0 1
32.800185 21.682381 29.641965 49.240470 0.584100 0.924813 0.071664 -0.011403 663649.000000 0 0 1
31.488145 21.172481 29.302165 47.941570 0.591958 0.913213 0.095882 -0.013448 1345000.000000 0 0 1
30.782925 21.848781 28.230305 47.137118 0.617253 0.928673 0.086498 -0.006757 254240.000000 0 0 1
30.371545 23.357381 28.394745 47.689198 0.655585 0.933017 0.076000 -0.005553 210035.000000 0 0 1
31.515415 24.204181 28.153665 48.700027 0.654929 0.954394 0.062633 -0.007685 651334.000000 0 0 1
31.516985 25.426381 28.820255 49.703404 0.678844 0.952258 0.040941 -0.007270 35499.700000 0 0 1
31.947135 25.420881 30.317735 50.852785 0.672124 0.932054 0.044139 -0.015213 -1207470.000000 0 0 1
33.280695 25.118681 30.484615 51.651375 0.646536 0.939490 0.035374 -0.008317 -1002270.000000 0 0 1
33.780295 25.111881 31.808685 52.758955 0.639256 0.923658 0.045909 -0.015915 -18004.200000 0 0 1
33.472815 23.899181 32.784286 52.596669 0.620052 0.897822 0.066065 -0.015078 -402658.000000 0 0 1
33.642295 24.010981 -33.717918 53.340690 0.619871 2.255087 0.067870 -0.029289 246355.000000 0 0 1
33.156085 22.898281 -32.965558 52.061361 0.604403 2.256485 0.067270 -0.031352 -274087.000000 0 0 1
33.703265 22.842381 -31.539268 51.501552 0.595636 2.229882 0.057183 -0.038561 -324095.000000 0 0 1
33.136585 23.750381 -30.614548 50.983962 0.621874 2.214890 0.045095 -0.038723 164195.000000 0 0 1
33.429775 23.467481 -29.259558 50.243350 0.612063 2.192421 0.075675 -0.043465 461961.000000 0 0 1
34.741865 24.055581 -28.620048 51.036999 0.605613 2.166113 0.081916 -0.022596 498161.000000 0 0 1
35.133375 23.201481 -27.607728 50.347288 0.583640 2.151181 0.086146 -0.021033 -716735.000000 0 0 1
36.152775 23.764681 -26.849258 50.918227 0.581518 2.126218 0.097720 -0.014579 -482843.000000 0 0 1
36.793245 22.708181 -25.936718 50.419418 0.552959 2.111127 0.076669 -0.007181 -214698.000000 0 0 1
-36.921351 21.743681 -26.475818 50.368073 -0.532232 2.124272 0.060000 -0.010377 48926.500000 0 0 1
-36.818121 20.599381 -25.626018 49.361942 -0.510100 2.116647 0.039655 -0.000070 -363960.000000 0 0 1
-35.708268 19.628781 -26.051298 48.363618 -0.502612 2.139636 0.043755 0.007357 234953.000000 0 0 1
-34.407595 20.090581 -25.705498 47.416102 -0.528497 2.143761 0.052800 -0.000239 88517.000000 0 0 1
-33.436371 19.068381 -25.829488 46.354682 -0.518286 2.161823 0.017716 -0.011866 415952.000000 0 0 1
-32.059641 19.478181 -25.255238 45.222198 -0.545960 2.163336 0.034220 -0.014867 -162786.000000 0 0 1
-32.223861 19.816981 -23.912778 44.753893 -0.551360 2.134496 0.035217 -0.007268 876211.000000 0 0 1
-30.964581 19.973281 -23.226378 43.556881 -0.572878 2.133225 0.048043 -0.010682 907109.000000 0 0 1
-31.262251 20.096481 -21.718878 43.045401 -0.571322 2.099666 0.044914 -0.007806 57988.100000 0 0 1
-31.783711 18.933781 -21.121678 42.600677 -0.537257 2.089559 0.027675 -0.002098 -31481.700000 0 0 1
-31.947401 19.254781 -19.744378 42.204544 -0.542404 2.057626 0.032348 0.001615 -443117.000000 0 0 1
-33.050161 18.360781 -19.095278 42.356358 -0.507089 2.038485 0.038796 0.005974 419021.000000 0 0 1
-33.739881 18.965981 -17.988978 42.681276 -0.512103 2.005865 0.033495 -0.003001 -208785.000000 0 0 1
-34.681198 19.930081 -18.302078 43.988177 -0.521583 1.999913 0.025942 -0.000548 -1236570.000000 0 0 1
-35.902779 19.890981 -17.386378 44.575182 -0.505927 1.971478 0.038859 -0.003444 -490432.000000 0 0 1
-35.802675 20.499481 -16.125578 44.295536 -0.520005 1.943404 0.045677 -0.011116 -623539.000000 0 0 1
-36.936781 20.317981 -15.343278 44.861591 -0.502900 1.919855 0.052639 -0.003252 -605052.000000 0 0 1
-36.813061 20.950581 -13.974378 44.602820 -0.517394 1.889470 0.062132 -0.010754 -221032.000000 0 0 1
-37.006651 22.346481 -13.923978 45.417338 -0.543246 1.882393 0.074227 -0.016579 882641.000000 0 0 1
36.230395 22.729781 -13.643678 44.893590 0.560300 1.879592 0.072908 -0.016946 912649.000000 0 0 1
35.839355 24.218181 -14.084878 45.490257 0.594260 1.885594 0.073410 -0.018673 573629.000000 0 0 1
36.509535 25.190181 -13.203578 46.279864 0.603957 1.860114 0.070996 -0.019392 460637.000000 0 0 1
36.126645 26.543381 -13.493178 46.816145 0.633657 1.863160 0.078217 -0.008479 -97208.500000 0 0 1
37.025925 27.308881 -14.469678 48.229303 0.635493 1.875508 0.082345 0.002524 -43273.300000 0 0 1
37.036155 26.918081 -15.849978 48.450817 0.628491 1.904067 0.090234 0.001951 -184755.000000 0 0 1
-36.676411 27.805281 -16.472778 48.883998 -0.648680 1.914500 0.093255 -0.000437 -446417.000000 0 0 1
-36.434351 27.461081 -17.989878 49.042926 -0.645874 1.946384 0.099770 -0.006327 281050.000000 0 0 1
-35.816590 26.182381 -18.303878 47.993512 -0.631238 1.962088 0.102300 -0.009455 626315.000000 0 0 1
-34.426663 26.119681 -18.019378 46.820197 -0.649049 1.965856 0.109218 0.000512 471150.000000 0 0 1
-33.731221 24.776381 -18.591978 45.796572 -0.633522 1.988835 0.086018 0.002422 251093.000000 0 0 1
-33.638911 24.918781 -19.972478 46.383422 -0.637569 2.015948 0.085109 -0.000481 51578.200000 0 0 1
-32.947271 23.884181 -20.595878 45.608848 -0.627257 2.039328 0.069602 0.003861 -244965.000000 0 0 1
-32.855621 23.849681 -22.126878 46.237408 -0.627894 2.069798 0.077312 -0.003214 -768845.000000 0 0 1
-34.018481 23.407381 -22.741878 47.141866 -0.602680 2.074204 0.080743 -0.005612 -355024.000000 0 0 1
-33.875331 23.170181 -24.098378 47.593352 -0.599896 2.101731 0.073041 -0.010735 -720306.000000 0 0 1
-34.560249 24.237981 -24.857878 48.987801 -0.611615 2.102996 0.085738 -0.013581 -643785.000000 0 0 1
-34.007961 25.550281 -24.713978 49.194908 -0.644334 2.097132 0.094938 -0.018937 309532.000000 0 0 1
-34.608687 26.408681 -25.721978 50.564808 -0.651810 2.104463 0.102202 -0.020761 112825.000000 0 0 1
-33.945791 27.800481 -25.741428 50.870469 -0.686200 2.101359 0.086875 -0.020174 761318.000000 0 0 1
-32.654511 27.640981 -26.346968 50.244439 -0.702440 2.122778 0.070421 -0.032419 -8010.230000 0 0 1
-32.159201 28.901881 -26.730938 50.833808 -0.732103 2.124510 0.078355 -0.033003 785726.000000 0 0 1
-30.779861 28.878181 -27.499458 50.374293 -0.753533 2.148262 0.062255 -0.023910 497655.000000 0 0 1
-29.740891 28.558881 -26.606928 49.071977 -0.765126 2.143852 0.057896 -0.021437 1213220.000000 0 0 1
-28.424631 28.739881 -27.248118 48.748337 -0.790913 2.163921 0.058017 -0.019259 1918110.000000 0 0 1
-27.652861 30.054981 -26.971358 48.943200 -0.827000 2.154448 0.043591 -0.016373 -324032.000000 0 0 1
-27.014231 30.189781 -25.684628 47.967611 -0.840854 2.135846 0.030536 -0.019053 546092.000000 0 0 1
-27.922031 30.473281 -24.590078 48.092958 -0.829060 2.107497 0.055604 -0.019016 344711.000000 0 0 1
-27.228841 31.030881 -23.308578 47.409020 -0.850566 2.084778 0.034567 -0.019932 175356.000000 0 0 1
-26.792751 32.344281 -23.596678 48.174758 -0.879000 2.082673 0.027926 -0.018861 137210.000000 0 0 1
-25.659211 32.735781 -22.841278 47.452613 -0.905995 2.072990 0.023734 0.000205 183488.000000 0 0 1
-25.557871 -33.588802 -22.995678 48.064682 0.920353 2.069664 0.016004 0.015951 -195230.000000 0 0 1
-26.173741 -32.870802 -21.987578 47.423707 0.898339 2.052897 0.012600 0.000260 52979.500000 0 0 1
-26.223851 -31.496102 -22.236878 46.628034 0.876487 2.067920 0.024073 -0.002987 -298978.000000 0 0 1
17.406749 8.503181 -25.052298 31.668859 0.454405 2.483353 0.052759 -0.024614 -1440850.000000 0 0 1
16.126449 8.068881 -24.878978 30.726743 0.463928 2.514411 0.047423 -0.028435 -1255640.000000 0 0 1
16.098349 6.677481 -25.154868 30.602500 0.393194 2.535688 0.039176 -0.027103 -155577.000000 0 0 1
14.690449 6.069581 -25.157618 29.758274 0.391804 2.578108 0.069728 -0.039159 -304473.000000 0 0 1
14.004649 6.074281 -23.952078 28.402978 0.409244 2.574180 0.095482 -0.041346 191713.000000 0 0 1
12.683349 5.574081 -24.130178 27.824508 0.414071 2.620403 0.102527 -0.044905 400489.000000 0 0 1
11.854649 5.631081 -22.785878 26.295209 0.443457 2.619026 0.115410 -0.049921 143016.000000 0 0 1
12.332649 4.885981 -21.658278 25.397796 0.377211 2.592047 0.118743 -0.038094 293669.000000 0 0 1
11.535349 5.116981 -20.485378 24.060310 0.417512 2.589479 0.128053 -0.034119 165465.000000 0 1 0
11.792249 6.449681 -19.724878 23.868941 0.500493 2.543449 0.124712 -0.039164 -167196.000000 0 1 0
11.128449 6.549181 -18.481478 22.545492 0.531927 2.531756 0.100067 -0.031142 -323937.000000 0 1 0
11.400749 7.780981 -17.853578 22.567034 0.598882 2.483459 0.107417 -0.036682 -86936.900000 0 1 0
12.844149 8.165081 -17.497378 23.190493 0.566260 2.425698 0.105731 -0.033534 -276084.000000 0 1 0
13.341349 7.580381 -16.292478 22.380765 0.516699 2.386150 0.120987 -0.039427 516565.000000 0 1 0
14.704249 7.926381 -16.119378 23.213720 0.494400 2.338368 0.119332 -0.037985 174407.000000 0 1 0
15.387349 7.492381 -14.774378 22.609479 0.453128 2.282942 0.124546 -0.038353 246398.000000 0 1 0
16.641649 8.121281 -14.548178 23.548868 0.454009 2.236721 0.108705 -0.039731 632783.000000 0 1 0
17.120249 7.767881 -13.229178 22.988129 0.425947 2.183986 0.096244 -0.043651 -43565.300000 0 1 0
17.931349 9.050381 -12.828978 23.833283 0.467420 2.139191 0.139626 -0.044860 -102745.000000 0 1 0
17.125749 10.171981 -12.507378 23.520098 0.535965 2.131490 0.178803 -0.050903 353828.000000 0 1 0
17.873149 11.306081 -12.192678 24.411848 0.564027 2.093769 0.206605 -0.066512 -385234.000000 0 1 0
16.969949 12.536481 -11.916378 24.231026 0.636260 2.084931 0.221522 -0.056217 -558568.000000 0 1 0
16.268149 12.346581 -10.706878 23.059228 0.649199 2.053664 0.243925 -0.046595 393291.000000 0 1 0
15.497749 13.450881 -10.190178 22.911704 0.714809 2.031701 0.140371 -0.036966 662393.000000 0 1 0
14.198349 13.744581 -11.011578 22.622146 0.769161 2.079174 0.098004 -0.044174 -171660.000000 0 1 0
13.286649 14.711181 -10.540278 22.451088 0.836234 2.059495 0.130987 -0.049441 71094.300000 0 1 0
13.628449 16.098681 -10.887278 23.736786 0.868305 2.047291 0.147629 -0.043183 614489.000000 0 1 0
12.692649 17.079581 -10.080278 23.546283 0.931695 2.013191 0.130782 -0.031053 562366.000000 0 1 0
13.046149 16.942881 -8.723778 23.094751 0.914613 1.958149 0.126030 -0.022470 432467.000000 0 1 0
12.078849 17.385481 -7.761278 22.547528 0.963591 1.922203 0.105152 -0.010204 283224.000000 0 1 0
12.499949 17.077881 -6.300378 22.081611 0.938956 1.860139 0.093348 -0.011279 122475.000000 0 1 0
13.451149 17.954081 -5.755378 23.160458 0.927809 1.821928 0.107788 -0.014845 -14025.300000 0 1 0
13.977349 17.564781 -4.514378 22.896887 0.898646 1.769258 0.109816 -0.018489 -403233.000000 0 1 0
15.042049 18.556981 -4.053078 24.229161 0.889633 1.738867 0.095739 -0.022533 235257.000000 0 1 0
16.295649 18.420881 -4.739978 25.046845 0.846539 1.761189 0.112434 -0.037615 742796.000000 0 0 1
16.962449 19.686881 -4.734578 26.414280 0.859600 1.751013 0.083311 -0.033534 1555060.000000 0 0 1
18.381549 19.721681 -5.485478 27.512116 0.820555 1.771526 0.084036 -0.023465 1596270.000000 0 0 1
19.428049 18.924781 -4.971078 27.573684 0.772277 1.752071 0.076984 -0.034483 264366.000000 0 0 1
19.544549 17.633681 -5.600678 26.912891 0.734046 1.780432 0.104051 -0.040866 63592.200000 0 0 1
20.704149 16.836781 -4.943278 27.139915 0.682743 1.753959 0.115103 -0.041398 646843.000000 0 0 1
22.028449 17.251081 -5.276678 28.472719 0.664368 1.757198 0.085643 -0.042287 733669.000000 0 0 1
22.959049 16.450181 -4.539878 28.606588 0.621715 1.730171 0.093330 -0.041872 843219.000000 0 0 1
24.457749 16.845481 -4.780078 30.079908 0.603141 1.730386 0.094736 -0.042464 713849.000000 0 0 1
24.879449 17.967581 -4.041278 30.954045 0.625461 1.701727 0.103856 -0.041545 286785.000000 0 0 1
26.267949 18.020281 -3.765678 32.076721 0.601280 1.688464 0.085831 -0.033323 -22825.600000 0 0 1
26.730049 19.273281 -3.081678 33.097608 0.624704 1.664040 0.107880 -0.024588 -259430.000000 0 0 1
26.614349 20.468881 -3.868678 33.797416 0.655608 1.685514 0.106349 -0.024370 218398.000000 0 0 1
26.704949 21.656381 -3.076078 34.519783 0.681382 1.660025 0.103752 -0.009788 -348968.000000 0 0 1
26.709749 22.918881 -3.985478 35.419908 0.709162 1.683556 0.067941 -0.005868 79793.200000 0 0 1
27.908349 23.292581 -4.693178 36.653052 0.695491 1.699192 0.071599 0.002235 697261.000000 0 0 1
28.340949 22.388181 -5.664978 36.558611 0.668588 1.726379 0.056913 0.003424 -283740.000000 0 0 1
29.432949 22.967181 -6.584978 37.909786 0.662627 1.745383 0.048917 0.001411 -85634.900000 0 0 1
28.999749 23.775181 -7.666878 38.275654 0.686723 1.772467 0.031732 0.013381 676901.000000 0 0 1
30.094549 24.499281 -8.303578 39.684330 0.683266 1.781595 0.036864 0.010368 830519.000000 0 0 1
30.874649 23.671881 -9.332278 40.008666 0.654110 1.806221 0.045677 -0.001682 -312674.000000 0 0 1
30.098149 23.536581 -10.479178 39.619218 0.663665 1.838479 0.041141 0.003175 113461.000000 0 0 1
30.799749 22.913881 -11.552278 40.088972 0.639626 1.863107 0.028963 -0.007104 -85560.400000 0 0 1
29.965049 22.749581 -12.822078 39.747369 0.649366 1.899260 0.063018 0.001483 36160.300000 0 0 1
30.343649 23.729481 -13.785678 40.912959 0.663684 1.914473 0.052939 -0.006521 99573.600000 0 0 1
30.064749 23.168381 -15.027578 40.822679 0.656565 1.947781 0.076228 -0.009640 -172538.000000 0 0 1
30.518149 23.976281 -16.223778 42.064599 0.665923 1.966749 0.069547 -0.006824 -1116950.000000 0 0 1
31.847949 23.842681 -16.544278 43.086871 0.642631 1.964894 0.062790 -0.001251 -1334210.000000 0 0 1
32.160049 24.494781 -17.741078 44.147581 0.650917 1.984342 0.079006 -0.005416 446118.000000 0 0 1
33.624349 25.021781 -17.790978 45.532464 0.639751 1.972223 0.081620 -0.007120 872101.000000 0 0 1
34.568149 23.936081 -17.760478 45.643483 0.605628 1.970465 0.084356 0.004864 78786.400000 0 0 1
35.901649 24.405781 -17.850178 46.938251 0.597037 1.960907 0.099093 0.003283 163948.000000 0 0 1
36.940149 23.262081 -17.958678 47.203953 0.561989 1.961078 0.089138 -0.009708 -254263.000000 0 0 1
36.884949 22.535081 -19.150878 47.276691 0.548436 1.987863 0.081801 0.002402 261243.000000 0 0 1
-36.762827 22.964081 -20.123878 47.789381 -0.558351 2.005449 0.093973 0.008974 -5927.730000 0 0 1
-36.736327 22.062181 -21.355978 47.878757 -0.540827 2.033135 0.084886 0.001789 -87983.100000 0 0 1
-36.363527 20.782481 -21.022878 46.863408 -0.519215 2.035993 0.060292 0.000429 73368.900000 0 0 1
-35.733727 20.172581 -22.130778 46.621922 -0.513926 2.065404 0.053787 0.002272 2542.990000 0 0 1
-35.329227 18.710481 -21.925478 45.595646 -0.487049 2.072441 0.034960 0.001088 33039.400000 0 0 1
-36.410927 17.794381 -21.797078 46.016391 -0.454575 2.064262 0.056318 -0.009462 276178.000000 0 0 1
-36.116127 16.463081 -22.282178 45.518162 -0.427698 2.082339 0.034301 -0.014431 274388.000000 0 0 1
-37.275227 15.467181 -21.953078 45.941418 -0.393324 2.069001 0.034964 -0.005237 177093.000000 0 0 1
36.065649 15.763981 -22.525978 45.350346 0.412067 2.090600 0.081227 -0.006236 428370.000000 0 0 1
35.103449 14.719281 -22.364378 44.148327 0.397043 2.102002 0.099293 -0.002611 69055.800000 0 0 1
35.320549 13.401281 -23.197678 44.331341 0.362639 2.121491 0.064733 -0.009638 -635455.000000 0 0 1
35.221749 13.527081 -24.635778 45.060793 0.366685 2.149242 0.078300 -0.007297 321200.000000 0 0 1
35.765149 12.390081 -25.292688 45.523401 0.333490 2.159878 0.066862 -0.006802 -110785.000000 0 0 1
35.588149 12.448681 -26.824388 46.271307 0.336495 2.189181 0.071954 -0.008910 -950847.000000 0 0 1
34.285149 12.534181 -27.270448 45.565936 0.350492 2.212403 0.068969 -0.006391 -872970.000000 0 0 1
33.889749 13.715081 -28.046238 46.078303 0.384549 2.225173 0.080489 -0.007638 -28939.500000 0 0 1
34.322449 13.791181 -29.553728 47.346067 0.382068 2.244912 0.074569 -0.019760 -1161810.000000 0 0 1
35.656049 14.090481 -29.750728 48.528356 0.376342 2.230723 0.065838 -0.009930 -969007.000000 0 0 1
36.041049 13.928581 -31.105748 49.603731 0.368784 2.248601 0.065348 -0.017847 -76479.800000 0 0 1
-37.032927 14.202081 -31.314458 50.534464 -0.366201 2.239113 0.062811 -0.012078 743428.000000 0 0 1
-36.197127 13.144181 -30.833778 49.332782 -0.348322 2.245948 0.055169 -0.009891 106362.000000 0 0 1
-36.041927 12.976181 -29.466188 48.328646 -0.345582 2.226484 0.040048 -0.011072 -592871.000000 0 0 1
-35.022427 11.863181 -29.051788 47.024587 -0.326601 2.236738 0.046710 -0.018188 258940.000000 0 0 1
-35.301427 10.544081 -29.473788 47.181273 -0.290252 2.245534 0.050894 -0.022138 953199.000000 0 0 1
-34.115427 9.716581 -29.362738 46.048286 -0.277468 2.262241 0.049441 -0.022310 813489.000000 0 0 1
-34.378727 8.308781 -29.762118 46.224629 -0.237136 2.270327 0.063489 -0.020507 -643482.000000 0 0 1
-34.668427 8.176881 -31.130028 47.305812 -0.231626 2.289035 0.064145 -0.020523 104808.000000 0 0 1
-34.950727 6.892281 -31.651548 47.653723 -0.194702 2.297218 0.071709 -0.019682 208049.000000 0 0 1
-36.317127 6.283981 -31.202638 48.291063 -0.171334 2.273308 0.090708 -0.018887 1409.050000 0 0 1
-36.233027 5.614781 -29.975598 47.359207 -0.153740 2.256143 0.101805 -0.029109 529797.000000 0 0 1
37.121349 5.143081 -29.465928 47.672705 0.137671 2.237105 0.105920 -0.020851 258646.000000 0 0 1
-37.282427 4.444281 -28.144058 46.923544 -0.118646 2.214029 0.103198 -0.024578 391692.000000 0 0 1
-36.356127 3.345581 -28.210138 46.138625 -0.091764 2.228652 0.117352 -0.022058 441642.000000 0 0 1
-36.528227 2.457781 -27.149108 45.578790 -0.067183 2.208874 0.118350 -0.025703 -603569.000000 0 0 1
-35.529327 1.321581 -27.073158 44.688203 -0.037180 2.221597 0.121743 -0.025172 -681169.000000 0 0 1
-34.274027 1.806181 -26.687458 43.476334 -0.052650 2.231710 0.121462 -0.022506 29029.400000 0 0 1
-33.287827 0.755081 -26.576238 42.602183 -0.022680 2.244422 0.118230 -0.017856 577652.000000 0 0 1
-32.366627 0.786681 -25.348468 41.118879 -0.024301 2.235045 0.116289 -0.012056 185343.000000 0 0 1
-33.079927 0.795681 -24.109678 40.941314 -0.024049 2.200473 0.114680 -0.013158 248552.000000 0 0 1
-32.119727 0.834281 -23.091178 39.567352 -0.025968 2.193941 0.125387 -0.006138 214161.000000 0 0 1
-32.767027 0.456981 -21.733978 39.322419 -0.013945 2.156411 0.123840 -0.003918 -424201.000000 0 0 1
-32.923527 -0.931319 -21.614978 39.395853 0.028280 2.151558 0.135770 -0.005546 177707.000000 0 0 1
-33.307027 -1.275419 -20.281378 39.016907 0.038274 2.117425 0.141320 -0.013158 704884.000000 0 0 1
-34.798627 -0.982519 -19.891578 40.094696 0.028227 2.089915 0.129781 -0.012427 148226.000000 0 0 1
-35.734327 -1.781919 -20.557078 41.263916 0.049824 2.092301 0.125328 -0.011335 971369.000000 0 0 1
-37.111927 -1.538319 -20.200278 42.281352 0.041427 2.068898 0.115808 -0.007370 1336580.000000 0 0 1
36.613549 -2.797319 -19.954178 41.791700 -0.076253 2.068566 0.091243 -0.013793 -330232.000000 0 0 1
36.134549 -3.504719 -21.083178 41.982009 -0.096688 2.096932 0.095284 -0.006706 -127651.000000 0 0 1
37.048249 -4.213519 -21.926778 43.256330 -0.113244 2.102385 0.100442 -0.003982 -293659.000000 0 0 1
36.443149 -5.164919 -22.954978 43.378687 -0.140788 2.128426 0.093074 -0.002205 -621989.000000 0 0 1
35.879549 -6.382419 -22.402178 42.777738 -0.176043 2.121970 0.093973 -0.001503 427362.000000 0 0 1
35.313649 -7.235719 -23.356578 42.952755 -0.202101 2.145724 0.097827 -0.000236 -81637.200000 0 0 1
33.923549 -6.872419 -23.906278 42.065989 -0.199880 2.175240 0.071608 0.004142 -698656.000000 0 0 1
33.859249 -5.825919 -24.877478 42.417909 -0.170394 2.197509 0.081150 -0.004354 -483571.000000 0 0 1
32.545349 -5.422019 -25.109468 41.461831 -0.165083 2.221322 0.050560 -0.000983 -429334.000000 0 0 1
32.477149 -4.138619 -25.929998 41.764317 -0.126749 2.240642 0.083818 -0.032242 -16034.100000 0 0 1
32.334349 -4.409519 -27.325328 42.563218 -0.135536 2.267892 0.079219 -0.038562 223233.000000 0 0 1
32.205249 -3.273219 -28.153758 42.901353 -0.101288 2.286627 0.080857 -0.039651 -15918.200000 0 0 1
31.959749 -3.669419 -29.626548 43.733540 -0.114313 2.315064 0.086831 -0.033311 66040.200000 0 0 1
31.708649 -2.565519 -30.460748 44.044040 -0.080733 2.334495 0.074771 -0.044923 10346.100000 0 0 1
30.984549 -3.039219 -31.586408 44.350652 -0.097775 2.363420 0.066600 -0.042593 -761197.000000 0 0 1
30.564349 -1.943219 -32.564448 44.703454 -0.063492 2.386860 0.074896 -0.040706 -409609.000000 0 0 1
29.641649 -0.974119 -32.102278 43.705063 -0.032851 2.395757 0.069901 -0.038658 588867.000000 0 0 1
28.335549 -1.416819 -31.740848 42.572199 -0.049960 2.412196 0.071087 -0.045560 537989.000000 0 0 1
27.320149 -1.894819 -32.849688 42.767779 -0.069245 2.446656 0.075303 -0.037675 -356333.000000 0 0 1
27.695949 -3.150819 -33.454148 43.545072 -0.113278 2.446922 0.075429 -0.035194 4133.360000 0 0 1
27.155449 -3.273219 33.141674 42.970955 -0.119958 0.689982 0.065071 -0.033023 -642234.000000 0 0 1
27.427549 -4.613119 32.406741 42.705365 -0.166633 0.709259 0.050057 -0.025966 331915.000000 0 0 1
28.768849 -4.848619 31.963510 43.276111 -0.166968 0.739813 0.054699 -0.020434 536316.000000 0 0 1
29.231249 -4.186219 30.786375 42.659011 -0.142243 0.764563 0.065319 -0.032110 -126392.000000 0 0 1
29.854849 -2.780719 30.955455 43.096225 -0.092873 0.769459 0.055327 -0.029292 53841.000000 0 0 1
31.142649 -2.853419 31.577845 44.442850 -0.091369 0.780549 0.060895 -0.023288 430376.000000 0 0 1
31.580949 -1.535319 31.861638 44.887387 -0.048577 0.781564 0.057410 -0.020817 29704.200000 0 0 1
33.072349 -1.447319 32.266323 46.227596 -0.043734 0.798212 0.052105 -0.018308 237419.000000 0 0 1
33.949449 -1.771219 31.187345 46.134074 -0.052125 0.828455 0.067242 -0.015019 406442.000000 0 0 1
35.299049 -1.573819 31.611985 47.411153 -0.044556 0.840940 0.079970 -0.007318 822366.000000 0 0 1
36.452149 -2.152519 30.739585 47.731694 -0.058982 0.871071 0.097827 -0.006880 406329.000000 0 0 1
36.792649 -1.573219 29.490335 47.178956 -0.042733 0.895570 0.088341 -0.004014 589574.000000 0 0 1
-36.616327 -2.169319 28.951235 46.729384 0.059175 0.902626 0.097278 -0.008748 779059.000000 0 0 1
-36.299927 -1.586519 27.593645 45.624675 0.043678 0.921286 0.092715 -0.010873 55110.700000 0 0 1
-37.072427 -2.180919 26.595355 45.677502 0.058761 0.949313 0.086260 -0.024284 -110617.000000 0 0 1
-36.638327 -1.541119 25.388835 44.601962 0.042038 0.965226 0.085581 -0.019530 52754.900000 0 0 1
-27.391411 15.019781 12.165022 33.524185 -0.501567 1.199447 0.113774 -0.032709 573665.000000 0 0 1
-28.604961 14.296381 12.427822 34.308615 -0.463477 1.200130 0.085798 -0.009783 750225.000000 0 0 1
-29.625261 15.180381 12.843722 35.679984 -0.473529 1.202561 0.097475 -0.020741 579046.000000 0 0 1
-30.816221 14.458681 13.574122 36.646278 -0.438698 1.191347 0.094851 -0.013101 312479.000000 0 0 1
-31.896041 15.270881 13.893622 37.994605 -0.446520 1.196440 0.105543 -0.013611 -968677.000000 0 0 1
-32.897251 14.561781 14.554322 38.808541 -0.416720 1.186368 0.129213 -0.027060 -100243.000000 0 0 1
-33.896601 15.427781 15.380822 40.293494 -0.427122 1.179140 0.133504 -0.029292 202424.000000 0 0 1
-33.362011 16.276081 16.403722 40.583453 -0.453891 1.154695 0.119909 -0.025508 -100726.000000 0 0 1
-33.901601 15.928181 17.676422 41.418370 -0.439226 1.129870 0.130456 -0.046528 241309.000000 0 0 1
-33.027621 16.490281 18.850322 41.449822 -0.463078 1.098677 0.150386 -0.040133 268725.000000 0 0 1
-31.931771 15.630481 19.133822 40.373916 -0.455209 1.077064 0.159656 -0.033508 -413131.000000 0 0 1
-31.215971 15.979181 20.301022 40.520397 -0.473115 1.046034 0.116632 -0.040283 34276.900000 0 0 1
-31.924641 15.847681 21.677822 41.716420 -0.460771 1.024358 0.134715 -0.044223 -148481.000000 0 0 1
-32.724571 17.017381 21.969722 42.932010 -0.479534 1.033596 0.134988 -0.044499 426359.000000 0 0 1
-33.205821 17.075481 23.338122 44.032562 -0.474968 1.012173 0.129718 -0.046317 -647158.000000 0 0 1
-34.350064 16.103081 23.722322 44.743543 -0.438372 1.011978 0.132391 -0.056988 268727.000000 0 0 1
-35.601251 16.248281 23.057822 45.421568 -0.428160 1.038353 0.156854 -0.043079 803702.000000 0 0 1
-36.315041 17.481581 23.346222 46.577183 -0.448646 1.045768 0.144506 -0.041559 565488.000000 0 0 1
36.717375 17.401981 23.126022 46.752620 0.442586 1.053368 0.122576 -0.043111 984527.000000 0 0 1
36.097065 16.597781 24.060422 46.447695 0.430982 1.026272 0.122761 -0.039213 -693671.000000 0 0 1
34.891915 16.046681 23.600622 45.076946 0.431054 1.019769 0.121706 -0.040524 -254542.000000 0 0 1
34.291995 15.194781 24.709722 44.915394 0.417101 0.988265 0.084546 -0.018425 -369581.000000 0 0 1
33.884405 15.955881 25.827722 45.495211 0.440091 0.967085 0.090928 -0.019774 119659.000000 0 0 1
33.962495 15.255481 27.094322 46.046531 0.422177 0.941703 0.085808 -0.016126 630937.000000 0 0 1
32.893855 14.089781 27.358322 45.044482 0.404697 0.918060 0.084683 -0.013215 603533.000000 0 0 1
33.188145 12.959081 26.602722 44.464543 0.372267 0.929430 0.088123 -0.020782 -260878.000000 0 0 1
32.443775 11.904981 27.124522 43.932525 0.351687 0.905346 0.082847 -0.017960 -411306.000000 0 0 1
32.916095 10.500781 26.849422 43.756453 0.308811 0.910171 0.080540 -0.015511 259095.000000 0 0 1
34.096935 10.141481 27.573322 45.008207 0.289098 0.911414 0.079483 -0.013810 334722.000000 0 0 1
34.360655 8.740381 27.558222 44.905506 0.249089 0.910066 0.075618 -0.011372 146811.000000 0 0 1
35.495255 8.289781 28.518322 46.280971 0.229434 0.906888 0.069541 -0.011880 -236562.000000 0 0 1
36.745455 8.856581 28.263722 47.196456 0.236514 0.928729 0.082572 -0.010569 -469809.000000 0 0 1
-36.860141 7.974881 28.744622 47.418583 -0.213071 0.919536 0.085319 -0.013687 89564.300000 0 0 1
-35.463852 8.567781 29.015622 46.615426 -0.237050 0.898931 0.087067 -0.015460 151294.000000 0 0 1
-34.731580 8.859981 27.838322 45.384514 -0.249772 0.910453 0.081481 -0.013923 244489.000000 0 0 1
-33.488471 9.480581 28.156122 44.767469 -0.275881 0.890605 0.087537 -0.014062 292642.000000 0 0 1
-32.698581 10.053281 27.007022 43.584916 -0.298280 0.902510 0.097687 -0.020099 -210459.000000 0 0 1
-32.261601 9.183081 25.964522 42.418113 -0.277310 0.912071 0.087045 -0.013781 687157.000000 0 0 1
-31.327871 9.918181 25.138422 41.373253 -0.306609 0.917760 0.084844 -0.016583 418000.000000 0 0 1
-30.753591 8.965681 24.052522 40.058590 -0.283671 0.926753 0.099729 -0.019046 697014.000000 0 0 1
-29.590171 9.459181 23.364722 38.871128 -0.309406 0.925942 0.091232 -0.026090 473220.000000 0 0 1
-29.030591 8.375181 22.664922 37.770591 -0.280869 0.927210 0.091645 -0.015653 45095.900000 0 0 1
-27.730581 8.734481 21.908522 36.404115 -0.305139 0.925025 0.084934 -0.018365 -1103440.000000 0 0 1
-26.680851 9.175481 22.760122 36.250247 -0.331228 0.891994 0.086274 -0.031464 105839.000000 0 0 1
-25.601181 9.800281 22.150422 35.243541 -0.365597 0.891178 0.066519 -0.017726 -168711.000000 0 0 1
-24.888351 9.165081 20.938222 33.791091 -0.352838 0.902516 0.058850 -0.012567 -1694080.000000 0 0 1
-25.585611 9.194481 19.748322 33.602949 -0.344990 0.942588 0.066986 -0.016429 316091.000000 0 0 1
-24.775951 8.756781 18.630422 32.212134 -0.339735 0.954071 0.076509 -0.022722 286355.000000 0 0 1
-24.495951 7.209981 18.529122 31.549387 -0.286250 0.943071 0.078429 -0.006234 -471733.000000 0 0 1
-23.588851 6.716481 19.482622 31.322796 -0.277391 0.899508 0.079056 -0.008838 177532.000000 0 0 1
-23.710451 5.315481 19.878122 31.393941 -0.220537 0.885137 0.092797 -0.008069 -245182.000000 0 0 1
-23.552051 4.281381 18.734922 30.397806 -0.179820 0.906729 0.086777 -0.008774 -364109.000000 0 0 1
-24.769651 3.995581 18.081422 30.926333 -0.159932 0.946334 0.107582 -0.009878 236558.000000 0 0 1
-24.709151 3.035781 16.985022 30.137171 -0.122248 0.972070 0.099628 -0.004962 -249097.000000 0 0 1
-24.510251 1.536381 17.324022 30.053862 -0.062601 0.956440 0.099164 0.001350 146694.000000 0 0 1
-23.253051 1.112981 17.841022 29.329936 -0.047827 0.916896 0.072076 0.003191 416905.000000 0 0 1
-23.263551 -0.226619 18.343722 29.626615 0.009741 0.903119 0.081896 -0.001564 -227486.000000 0 0 1
-21.908051 -0.912019 18.617322 28.764547 0.041605 0.866849 0.087158 0.006409 -84091.900000 0 0 1
-21.178551 -0.452719 19.736022 28.952487 0.021373 0.820755 0.079986 0.004505 -202054.000000 0 0 1
-20.182951 -1.327919 20.125222 28.533129 0.065699 0.787910 0.078326 0.008576 351145.000000 0 0 1
-19.158351 -0.951619 21.265322 28.638469 0.049630 0.733936 0.087151 -0.007152 810012.000000 0 0 1
-19.803751 -0.896419 22.502622 29.989333 0.045234 0.722199 0.083121 -0.008948 -490309.000000 0 0 1
-18.869751 -0.712019 23.508322 30.153203 0.037715 0.676723 0.084672 -0.013269 -679679.000000 0 0 1
-19.361151 -0.869319 25.003822 31.635439 0.044870 0.659377 0.091236 -0.007301 -28175.900000 0 0 1
-20.199951 0.167081 25.431522 32.478119 -0.008271 0.671265 0.097079 -0.020837 -420567.000000 0 0 1
-21.568351 0.010781 25.125522 33.113226 -0.000500 0.709364 0.103399 -0.030072 -513801.000000 0 0 1
-22.332251 1.228281 25.673222 34.049265 -0.054945 0.716662 0.108454 -0.039268 -651183.000000 0 0 1
-22.105451 2.430381 24.992822 33.454430 -0.109505 0.727152 0.106915 -0.028684 838379.000000 0 0 1
-23.274551 2.925981 24.304722 33.778478 -0.125060 0.767667 0.112660 -0.031697 237866.000000 0 0 1
-22.846551 4.145181 23.441622 32.994803 -0.179483 0.780639 0.118398 -0.030317 328679.000000 0 0 1
-22.134051 3.993581 22.222622 31.618188 -0.178507 0.791410 0.120831 -0.025650 1673.580000 0 0 1
-20.822951 3.534081 22.373122 30.767541 -0.168118 0.756611 0.091386 -0.013946 -891009.000000 0 0 1
-20.230251 2.717581 21.193922 29.425000 -0.133533 0.766606 0.084930 -0.014610 96535.100000 0 0 1
-19.735451 3.516381 20.090422 28.380945 -0.176326 0.784298 0.078510 -0.007074 360207.000000 0 0 1
-19.520051 2.721481 18.975322 27.358759 -0.138527 0.804358 0.096524 -0.012989 -158886.000000 0 0 1
-19.125351 3.511581 17.771522 26.342689 -0.181586 0.830335 0.085152 -0.011013 947438.000000 0 0 1
-17.699151 3.757681 17.786922 25.372322 -0.209202 0.793946 0.094592 -0.020293 1193610.000000 0 0 1
-17.285251 4.398381 16.557822 24.336950 -0.249171 0.822546 0.095266 -0.014259 601825.000000 0 1 0
-15.850551 5.026381 16.547922 23.459288 -0.307080 0.787825 0.095169 -0.010863 700188.000000 0 1 0
-15.863251 6.149681 17.444722 24.367594 -0.369831 0.772886 0.103669 -0.017083 283455.000000 0 1 0
-16.476251 7.381681 16.964322 24.773863 -0.421206 0.816513 0.111006 -0.030551 139177.000000 0 1 0
-15.828551 8.081881 15.730222 23.733936 -0.472083 0.846280 0.064154 -0.020098 -9620.250000 0 1 0
-15.942851 7.422681 14.477022 22.778386 -0.435735 0.882063 0.101252 -0.023972 799985.000000 0 1 0
-17.242251 7.529081 13.882722 23.381879 -0.411709 0.935099 0.080398 -0.032100 497558.000000 0 1 0
-17.529651 6.430581 12.862222 22.673284 -0.351598 0.967591 0.089172 -0.027895 -113493.000000 0 1 0
-17.490751 5.089981 13.415722 22.623348 -0.283189 0.936013 0.093700 -0.013231 241977.000000 0 1 0
-17.740451 4.184581 12.427322 22.060658 -0.231644 0.972392 0.060389 -0.022864 -430.896000 0 1 0
-17.552051 2.763381 13.029222 22.033415 -0.156157 0.938078 0.076008 0.003443 -268321.000000 0 1 0
-18.411851 2.383181 14.101022 23.313400 -0.128722 0.921224 0.084904 -0.014141 352967.000000 0 1 0
-18.227751 1.011281 14.391322 23.246155 -0.055423 0.903221 0.084994 -0.003024 674859.000000 0 1 0
-19.523851 0.469981 15.128822 24.703904 -0.024068 0.911696 0.117065 -0.010948 955662.000000 0 1 0
-20.601551 0.373981 14.207422 25.028276 -0.018151 0.967142 0.124822 -0.015102 435290.000000 0 0 1
-21.809651 0.022581 14.856422 26.388912 -0.001035 0.972810 0.112612 -0.016366 325311.000000 0 0 1
-23.057051 -0.244919 13.974722 26.962575 0.010622 1.025934 0.116362 -0.010627 104581.000000 0 0 1
-22.958751 -1.480719 13.268822 26.558584 0.064406 1.047653 0.133271 -0.029116 835255.000000 0 0 1
-24.204551 -2.003919 12.771122 27.440436 0.082603 1.086696 0.128603 -0.014035 531110.000000 0 0 1
-24.187451 -3.362619 11.975122 27.198227 0.138138 1.114874 0.133262 -0.027447 -253348.000000 0 0 1
-23.837351 -4.456419 12.866922 27.452443 0.184818 1.082979 0.121965 -0.021648 314061.000000 0 0 1
-23.535551 -5.634619 12.089722 27.052402 0.234986 1.107499 0.128147 -0.036401 -56039.300000 0 0 1
-23.556051 -6.849619 13.017922 27.771768 0.282976 1.082925 0.120875 -0.026631 268363.000000 0 0 1
-24.826151 -7.090819 13.628322 29.195010 0.278211 1.085124 0.114224 -0.023198 595168.000000 0 0 1
-24.987751 -8.392819 14.172822 29.928180 0.324038 1.077467 0.121454 -0.044168 -1121430.000000 0 0 1
-25.978711 -8.427319 15.254522 31.282800 0.313683 1.061420 0.116001 -0.020095 -1289120.000000 0 0 1
-27.217561 -8.005619 14.754222 31.977689 0.286067 1.091234 0.130321 -0.028773 155320.000000 0 0 1
-28.222611 -8.181619 15.773422 33.350495 0.282161 1.078150 0.121014 -0.023133 195418.000000 0 0 1
-29.655941 -7.639919 15.533322 34.338423 0.252136 1.101387 0.126623 -0.032568 443628.000000 0 0 1
-30.539451 -8.283019 14.619222 34.856680 0.264852 1.138002 0.120564 -0.032649 656246.000000 0 0 1
-30.742171 -9.700119 14.623222 35.397909 0.305644 1.144930 0.120163 -0.036059 -768465.000000 0 0 1
-31.199351 -10.403319 15.949622 36.551593 0.321853 1.119248 0.111271 -0.031679 -566570.000000 0 0 1
-30.156201 -10.607619 16.877222 36.149117 0.338238 1.085039 0.116354 -0.024765 138506.000000 0 0 1
-30.451111 -11.324419 18.111522 37.195965 0.356040 1.062234 0.102270 -0.018259 258443.000000 0 0 1
-29.125241 -11.390619 18.936222 36.559627 0.372803 1.026338 0.109692 -0.008727 -87954.300000 0 0 1
-28.222591 -12.223819 18.350622 35.814546 0.408730 1.032844 0.106557 -0.013815 540789.000000 0 0 1
-26.887561 -11.954219 18.852822 34.946719 0.418354 1.000985 0.097299 -0.013406 1518470.000000 0 0 1
-25.667661 -12.753419 18.286322 33.998060 0.461138 1.002895 0.075750 -0.003460 332589.000000 0 0 1
-25.304121 -12.304919 16.989722 32.868833 0.452612 1.027577 0.076138 -0.005385 249065.000000 0 0 1
-24.443851 -13.256719 16.381222 32.273625 0.496938 1.038431 0.079331 -0.013804 -195747.000000 0 0 1
-24.021451 -13.021219 14.905122 31.124667 0.496732 1.071413 0.085361 -0.023421 -501421.000000 0 0 1
-23.049251 -12.050219 14.864822 29.957281 0.481723 1.051579 0.089651 -0.023246 -855728.000000 0 0 1
-22.294351 -12.034719 13.724922 28.813990 0.494986 1.074322 0.122415 -0.027641 12841.100000 0 0 1
-21.129951 -11.006719 13.658022 27.462051 0.480232 1.050264 0.100243 -0.032661 -17249.600000 0 0 1
-21.465451 -9.653819 13.444722 27.105762 0.422636 1.051799 0.098251 -0.031938 -124185.000000 0 0 1
-20.365751 -8.804119 13.205522 25.819801 0.408038 1.033926 0.100424 -0.039585 -216184.000000 0 0 1
-19.879051 -8.731519 11.685922 24.657187 0.413863 1.077041 0.112151 -0.043054 -332699.000000 0 1 0
-18.891151 -9.655819 11.346922 24.059573 0.472511 1.079672 0.093507 -0.054299 -19808.200000 0 1 0
-18.512851 -9.689919 9.989922 23.160715 0.482204 1.124829 0.096466 -0.049518 284785.000000 0 1 0
-17.598851 -10.893719 9.584122 22.808947 0.554274 1.137140 0.043324 -0.038975 1111060.000000 0 1 0
-16.221951 -10.846819 9.977022 21.916800 0.589375 1.098174 0.053315 -0.034580 908906.000000 0 1 0
-15.936151 -11.498519 11.207822 22.622823 0.625034 1.052477 0.075428 -0.026680 -927999.000000 0 1 0
-14.556351 -12.106419 11.270322 22.033449 0.693770 1.033856 0.076803 -0.023055 -858495.000000 0 1 0
-14.292451 -13.374919 10.645922 22.282241 0.752247 1.072675 0.074394 -0.030733 807667.000000 0 1 0
-12.920651 -13.765219 10.714022 21.707481 0.817036 1.054614 0.080522 -0.027987 465351.000000 0 1 0
-12.765651 -15.296419 10.498822 22.520380 0.875339 1.085815 0.087646 -0.025717 -214442.000000 0 1 0
-13.063451 -15.868119 9.219822 22.526785 0.882038 1.149129 0.077508 -0.028721 368337.000000 0 1 0
-12.713051 -17.242619 9.208322 23.317863 0.935470 1.164833 0.069247 -0.020639 -10164.800000 0 1 0
-13.029651 -17.921319 7.893722 23.521401 0.942147 1.228557 0.075642 -0.025437 -97724.500000 0 1 0
-12.293951 -17.517019 6.747122 22.439047 0.958844 1.265384 0.076159 -0.041113 -187149.000000 0 1 0
-12.372651 -18.492819 5.806022 22.995146 0.981144 1.315545 0.048515 -0.022934 -215831.000000 0 1 0
-11.836951 -18.119819 4.378822 22.082013 0.992133 1.371175 0.065174 -0.024079 31973.400000 0 1 0
-12.310751 -18.996219 3.422722 22.893797 0.995784 1.420729 0.084648 -0.022162 -211576.000000 0 1 0
-11.396051 -19.076119 2.381522 22.348153 1.032292 1.464029 0.097243 -0.030494 -228104.000000 0 1 0
-11.566551 -20.177019 1.265522 23.291602 1.050275 1.516436 0.094685 -0.024937 -171127.000000 0 1 0
-11.409651 -21.503719 1.580922 24.394453 1.082978 1.505944 0.089345 -0.031260 -342656.000000 0 1 0
-11.705151 -22.411419 0.535622 25.289704 1.089480 1.549615 0.082507 -0.028522 152126.000000 0 0 1
-10.733251 -22.521619 -0.678478 24.957690 1.126063 1.597985 0.095845 -0.020023 140310.000000 0 1 0
-10.932651 -21.440319 -1.570278 24.117958 1.099252 1.635951 0.101411 -0.033852 17289.400000 0 1 0
-11.926751 -21.689219 -2.558278 24.884019 1.068035 1.673786 0.104737 -0.022977 131871.000000 0 1 0
-12.862251 -20.474719 -2.802378 24.341424 1.009898 1.686180 0.096592 -0.021656 212877.000000 0 1 0
-13.493351 -20.170619 -1.516178 24.315081 0.981207 1.633192 0.076784 -0.033426 209109.000000 0 1 0
-14.202751 -18.946119 -1.568978 23.730471 0.927526 1.636961 0.072063 -0.029424 169951.000000 0 1 0
27.092949 -20.296219 -3.747378 34.058879 -0.642946 1.681046 0.098639 -0.044742 -131617.000000 0 0 1
25.790949 -20.204519 -3.218178 32.920393 -0.664534 1.668709 0.091688 -0.043335 51007.300000 0 0 1
25.644749 -21.148519 -2.145978 33.309431 -0.689605 1.635267 0.067409 -0.042115 -151693.000000 0 0 1
24.196049 -21.410719 -1.660478 32.351582 -0.724401 1.622145 0.065217 -0.038807 203575.000000 0 0 1
23.395749 -22.045019 -2.648278 32.254570 -0.755682 1.652994 0.081980 -0.047121 51231.500000 0 0 1
22.203049 -22.525819 -2.069478 31.696540 -0.792614 1.636133 0.076739 -0.039962 -427617.000000 0 0 1
21.133349 -23.069019 -2.967778 31.426196 -0.829161 1.665374 0.093327 -0.045471 -499468.000000 0 0 1
20.487249 -22.155619 -3.821178 30.417104 -0.824502 1.696755 0.094788 -0.051745 -297167.000000 0 0 1
19.503049 -22.879419 -4.538878 30.404574 -0.864895 1.720639 0.100709 -0.044955 39704.600000 0 0 1
18.604649 -21.916219 -5.399978 29.250870 -0.866942 1.756470 0.085547 -0.025392 965114.000000 0 0 1
17.460949 -21.344219 -4.719578 27.977399 -0.885137 1.740299 0.089634 -0.025559 914150.000000 0 0 1
17.840949 -20.384019 -3.776278 27.350831 -0.851829 1.709307 0.076650 -0.029864 -442480.000000 0 0 1
16.704349 -19.873119 -2.862778 26.118415 -0.871814 1.680625 0.091461 -0.012203 -207838.000000 0 0 1
16.152149 -20.867519 -2.049078 26.467791 -0.912091 1.648292 0.086333 -0.021652 109432.000000 0 0 1
15.225549 -20.214119 -1.196878 25.334965 -0.925242 1.618056 0.084829 -0.010378 -229980.000000 0 0 1
14.976849 -20.778819 0.183822 25.614431 -0.946263 1.563620 0.085036 -0.016904 -31623.000000 0 0 1
14.254949 -21.995319 0.246222 26.211796 -0.995765 1.561403 0.098068 -0.024515 -112350.000000 0 0 1
13.766749 -22.201219 1.552722 26.169227 -1.015736 1.511428 0.094700 -0.021500 321037.000000 0 0 1
12.844149 -23.485619 1.492822 26.809979 -1.070341 1.515086 0.102277 -0.026856 265109.000000 0 0 1
13.587549 -24.672519 1.398622 28.201255 -1.067404 1.521182 0.091856 -0.027586 238607.000000 0 0 1
12.810649 -25.745289 0.876122 28.769779 -1.109077 1.540339 0.077031 -0.030281 172609.000000 0 0 1
13.183749 -27.010689 1.649622 30.101658 -1.116719 1.515967 0.088417 -0.027905 53709.400000 0 0 1
12.583549 -26.961549 2.922322 29.896668 -1.134124 1.472893 0.118486 -0.040332 27898.500000 0 0 1
12.867149 -28.087819 3.655422 31.110307 -1.141223 1.453026 0.120104 -0.041989 19285.800000 0 0 1
12.195949 -28.128649 5.034422 31.069397 -1.161683 1.408041 0.112940 -0.044290 -490646.000000 0 0 1
12.805749 -29.183989 5.732222 32.381334 -1.157301 1.392836 0.101786 -0.038849 -84047.200000 0 0 1
12.245949 -29.488879 6.987222 32.686060 -1.177193 1.355366 0.091708 -0.039182 -357564.000000 0 0 1
13.132349 -30.430349 7.790622 34.046417 -1.163387 1.339927 0.077937 -0.024451 -2773.600000 0 0 1
12.604549 -30.879469 9.086822 34.568578 -1.183254 1.304807 0.067159 -0.021411 -75441.800000 0 0 1
11.819749 -32.047869 9.051122 35.336881 -1.217459 1.311771 0.064760 -0.023198 349647.000000 0 0 1
11.283949 -32.409489 10.521022 35.894211 -1.235754 1.273316 0.056089 -0.018482 -270778.000000 0 0 1
12.294849 -32.992709 11.286322 36.973818 -1.214084 1.260594 0.057463 -0.025266 -211722.000000 0 0 1
12.113949 -33.092759 12.703522 37.460084 -1.219886 1.224813 0.056378 -0.021780 -337484.000000 0 0 1
11.073749 33.757153 13.211322 37.903988 1.253816 1.214776 0.054799 -0.026302 -144040.000000 0 0 1
11.383249 32.449093 12.774922 36.684065 1.233406 1.215102 0.072664 -0.030681 -90258.600000 0 0 1
10.279549 31.645715 13.034122 35.735259 1.256716 1.197441 0.053163 -0.018978 -617114.000000 0 0 1
10.397749 30.318305 12.229322 34.305526 1.240413 1.206296 0.066313 -0.025191 -209770.000000 0 0 1
10.190749 30.365615 10.780922 33.795713 1.247006 1.246119 0.067119 -0.022260 225404.000000 0 0 1
11.057449 31.247065 10.060322 34.638942 1.230677 1.276116 0.046084 -0.021120 136151.000000 0 0 1
10.488449 31.550015 8.654922 34.355766 1.249851 1.316132 0.050118 -0.019907 -116579.000000 0 0 1
9.457049 32.507064 8.701622 34.955160 1.287688 1.319214 0.054127 -0.015865 -122994.000000 0 0 1
8.838749 32.691073 7.425522 34.669412 1.306738 1.354943 0.048278 -0.017419 -74099.400000 0 0 1
9.191449 -33.904899 6.621922 35.747374 -1.306064 1.384478 0.053455 -0.011765 -215938.000000 0 0 1
8.544149 -32.738459 7.031322 34.557903 -1.315509 1.365901 0.059591 -0.010057 -13538.800000 0 0 1
8.718649 -31.703539 6.063222 33.434890 -1.302425 1.388443 0.086746 -0.029604 45659.300000 0 0 1
8.113449 -30.454419 6.662322 32.213137 -1.310431 1.362473 0.077023 -0.030928 270681.000000 0 0 1
8.812349 -29.961099 7.821922 32.194835 -1.284737 1.325385 0.079521 -0.029354 379151.000000 0 0 1
8.181349 -28.770239 8.270322 31.033197 -1.293741 1.301037 0.101634 -0.026175 352041.000000 0 0 1
8.895949 -27.460129 7.749522 29.887316 -1.257506 1.308508 0.133395 -0.036209 315594.000000 0 0 1
9.934349 -26.895669 8.551622 29.919868 -1.216974 1.280937 0.120772 -0.033093 506850.000000 0 0 1
10.816049 -25.973259 7.918922 29.228520 -1.176207 1.296436 0.102252 -0.036810 680633.000000 0 0 1
10.076249 -24.771119 7.142622 27.679526 -1.184464 1.309796 0.112503 -0.035202 1110.610000 0 0 1
9.611549 -25.157129 5.895122 27.568378 -1.205850 1.355296 0.124962 -0.040034 -715888.000000 0 0 1
8.615349 -24.326519 5.395522 26.365041 -1.230425 1.364693 0.110528 -0.033200 -127173.000000 0 0 1
8.126549 -24.792819 4.036822 26.401147 -1.254054 1.417291 0.099691 -0.028272 147039.000000 0 0 1
7.309649 -25.986009 4.103422 27.304609 -1.296590 1.419942 0.072922 -0.028384 -50124.100000 0 0 1
7.908449 -27.266339 3.916422 28.658945 -1.288498 1.433711 0.080566 -0.030169 -315237.000000 0 0 1
6.871849 -28.259159 3.387022 29.279246 -1.332254 1.454857 0.083491 -0.026456 -538445.000000 0 0 1
5.877749 -28.520599 4.339822 29.441578 -1.367554 1.422853 0.069203 -0.021142 -641232.000000 0 0 1
4.721149 -29.069129 3.765322 29.689748 -1.409791 1.443632 0.058186 -0.012693 -24699.400000 0 0 1
4.626349 -30.588949 4.031922 31.198450 -1.420691 1.441199 0.063321 -0.011211 -443340.000000 0 0 1
5.704249 -31.257339 3.428122 31.957968 -1.390290 1.463320 0.062336 -0.016886 -150548.000000 0 0 1
5.606849 -32.701129 3.455422 33.357765 -1.400990 1.467023 0.052296 -0.015604 -570851.000000 0 0 1
6.852849 -33.394259 2.939922 34.216680 -1.368396 1.484770 0.047488 -0.017094 -396482.000000 0 0 1
6.821649 -33.536199 1.573322 34.259113 -1.370123 1.524856 0.058439 -0.012584 -428535.000000 0 0 1
7.770049 33.341528 1.270522 34.258508 1.341839 1.533702 0.047822 -0.015024 -593375.000000 0 0 1
7.704249 32.640311 -0.126778 33.537463 1.339004 1.574577 0.062141 -0.012895 263602.000000 0 0 1
6.590149 31.815465 -0.390478 32.493174 1.366548 1.582814 0.049966 -0.010942 172510.000000 0 0 1
5.343649 32.456689 -0.672178 32.900503 1.407621 1.591228 0.057931 -0.018165 172168.000000 0 0 1
4.149349 31.570415 -0.326278 31.843597 1.440114 1.581043 0.055993 -0.018795 -309181.000000 0 0 1
3.958749 30.552495 -1.292778 30.835011 1.441942 1.612734 0.070694 -0.017569 218499.000000 0 0 1
2.782549 29.832555 -0.938078 29.976723 1.477793 1.602095 0.074841 -0.027077 225183.000000 0 0 1
2.376649 28.820805 -1.983178 28.986553 1.488520 1.639267 0.071405 -0.024737 -121260.000000 0 0 1
2.209449 29.414525 -3.255978 29.676545 1.495823 1.680733 0.090066 -0.036254 7777.440000 0 0 1
1.982349 28.378175 -4.122078 28.744426 1.501055 1.714697 0.085356 -0.038668 -176906.000000 0 0 1
1.884449 28.887455 -5.599978 29.485521 1.505654 1.761880 0.088852 -0.045132 -528239.000000 0 0 1
0.671149 29.519805 -5.849878 30.101336 1.548065 1.766380 0.109765 -0.042900 -638580.000000 0 0 1
0.565049 30.276665 -7.060478 31.094149 1.552136 1.799862 0.100723 -0.043694 -15862.400000 0 0 1
0.688149 29.482885 -8.409478 30.666486 1.547460 1.848579 0.097258 -0.046450 50830.700000 0 0 1
-0.548451 28.827525 -8.759578 30.133988 -1.551773 1.865742 0.108995 -0.045007 850497.000000 0 0 1
-0.736651 28.514505 -10.141878 30.273377 -1.544968 1.912412 0.100700 -0.045033 -73495.000000 0 0 1
-1.073451 29.722575 -11.005978 31.713015 -1.534696 1.925219 0.088325 -0.048682 -743293.000000 0 0 1
0.018349 30.600925 -11.096578 32.550745 1.570197 1.918671 0.078231 -0.047857 -334521.000000 0 0 1
-0.248851 31.901598 -11.619078 33.952568 -1.562996 1.920070 0.075525 -0.049892 -176766.000000 0 0 1
-0.474551 32.939290 -10.454678 34.561862 -1.556390 1.878102 0.069682 -0.051219 468666.000000 0 0 1
0.701849 33.372874 -9.795478 34.787824 1.549769 1.856234 0.066663 -0.056015 467145.000000 0 0 1
0.190549 -33.811459 -8.663178 34.904179 -1.565161 1.821617 0.073099 -0.049865 39324.200000 0 0 1
1.305049 -33.682939 -7.611278 34.556838 -1.532071 1.792871 0.074745 -0.047158 251333.000000 0 0 1
2.351549 -32.853059 -8.107178 33.920194 -1.499340 1.812140 0.081889 -0.047684 -133423.000000 0 0 1
3.279349 -32.597389 -7.073478 33.516831 -1.470532 1.783438 0.083902 -0.050769 -156432.000000 0 0 1
4.551949 -31.781379 -7.417378 32.951385 -1.428537 1.797843 0.060515 -0.041498 848140.000000 0 0 1
5.593349 -32.363819 -8.215178 33.855449 -1.399660 1.815898 0.068181 -0.037328 872792.000000 0 0 1
6.379849 -33.377789 -7.579278 34.817017 -1.381934 1.790242 0.070091 -0.026387 -605063.000000 0 0 1
6.515549 33.138876 -8.380278 34.797508 1.376659 1.814017 0.064935 -0.024625 550071.000000 0 0 1
5.308549 32.383827 -8.515778 33.902971 1.408315 1.824696 0.057775 -0.030158 379013.000000 0 0 1
4.443249 32.705647 -9.612278 34.377285 1.435767 1.854186 0.067538 -0.039659 406544.000000 0 0 1
3.576049 31.486275 -9.971878 33.220656 1.457706 1.875668 0.073946 -0.051869 117788.000000 0 0 1
4.352449 30.384955 -10.453378 32.426261 1.428521 1.899032 0.047399 -0.037949 397104.000000 0 0 1
3.579449 29.190395 -10.506778 31.229537 1.448781 1.913927 0.043648 -0.043114 84352.400000 0 0 1
4.340549 28.225045 -11.423478 30.756940 1.418208 1.951325 0.037094 -0.035708 -18171.700000 0 0 1
4.255449 28.697695 -12.736378 31.684095 1.423584 1.984475 0.047174 -0.037006 36457.300000 0 0 1
5.459949 28.656625 -13.473478 32.133282 1.382523 2.003470 0.040859 -0.032199 -166627.000000 0 0 1
5.325149 29.120195 -14.930578 33.155168 1.389927 2.037925 0.053889 -0.035324 -33673.100000 0 0 1
4.705049 28.263445 -15.887478 32.762353 1.405838 2.077081 0.066149 -0.035228 -2257.210000 0 0 1
4.240349 28.972535 -16.994778 33.855736 1.425471 2.096679 0.093782 -0.032196 227393.000000 0 0 1
3.069349 28.256445 -17.744078 33.506714 1.462596 2.128887 0.092377 -0.033709 345094.000000 0 0 1
3.395949 26.985325 -18.321378 32.793492 1.445610 2.163601 0.106304 -0.024723 46008.900000 0 0 1
2.307949 26.492095 -19.106378 32.744639 1.483897 2.193824 0.108402 -0.037550 506537.000000 0 0 1
2.796249 25.409065 -20.108778 32.523877 1.461188 2.237345 0.121733 -0.038309 116001.000000 0 0 1
3.083749 24.207115 -19.432478 31.194793 1.444089 2.243291 0.118170 -0.045127 -1392710.000000 0 0 1
4.299049 23.688355 -19.745178 31.136667 1.391267 2.257699 0.123768 -0.046911 -1186830.000000 0 0 1
4.716049 22.511565 -18.826778 29.723042 1.364288 2.256744 0.115756 -0.041344 204246.000000 0 0 1
3.848749 21.370865 -18.872078 28.769464 1.392613 2.286271 0.126981 -0.034492 -183883.000000 0 0 1
4.330349 20.291565 -18.091378 27.528122 1.360544 2.287889 0.095918 -0.024835 39512.700000 0 0 1
3.394649 19.057765 -17.928778 26.384904 1.394521 2.317889 0.077268 -0.028012 35388.000000 0 0 1
2.253049 19.244365 -17.127178 25.860434 1.454251 2.294671 0.077104 -0.022387 -408744.000000 0 0 1
1.521549 18.064165 -16.861478 24.757597 1.486764 2.320009 0.056797 -0.013320 -4287.290000 0 1 0
2.155649 17.079665 -15.854678 23.403688 1.445249 2.315078 0.041778 -0.004226 448449.000000 0 1 0
3.399849 16.446665 -16.175878 23.317607 1.366948 2.337437 0.049588 -0.017620 66870.900000 0 1 0
3.291349 15.142665 -16.823278 22.872603 1.356769 2.397232 0.054555 -0.028923 -167073.000000 0 1 0
3.201449 15.276765 -18.390978 24.121710 1.364222 2.437848 0.062254 -0.025715 -439669.000000 0 1 0
4.460049 15.695565 -18.839478 24.923257 1.293934 2.427823 0.084648 -0.030063 -447047.000000 0 1 0
4.377849 16.263565 -20.132578 26.248615 1.307848 2.444942 0.102462 -0.029409 -208699.000000 0 0 1
4.713149 15.216265 -21.285978 26.586488 1.270424 2.499145 0.103355 -0.035612 -74006.100000 0 0 1
3.818649 14.143765 -21.496078 26.013642 1.307096 2.543371 0.081649 -0.035020 133356.000000 0 0 1
2.662049 14.573065 -22.228178 26.712406 1.390119 2.553733 0.094372 -0.039904 429042.000000 0 0 1
1.757249 13.408465 -22.694078 26.417722 1.440484 2.604202 0.092361 -0.035512 -328649.000000 0 0 1
0.999849 12.835465 -21.682678 25.216808 1.493056 2.605773 0.079399 -0.024255 94961.700000 0 0 1
0.153449 11.837965 -22.277178 25.227636 1.557835 2.653111 0.054767 -0.020072 21054.500000 0 0 1
-0.463451 10.818565 -21.370478 23.957326 -1.527984 2.672597 0.036785 -0.020364 -527226.000000 0 1 0
-1.413151 11.331765 -20.473578 23.442980 -1.446730 2.632804 0.043924 -0.017126 -182098.000000 0 1 0
-1.898751 10.440665 -19.496178 22.197155 -1.390901 2.643130 0.034114 -0.014076 413712.000000 0 1 0
-3.002651 9.382365 -19.838678 22.149895 -1.261065 2.680700 0.034039 -0.016500 74981.300000 0 1 0
-2.615751 8.361265 -20.736978 22.511667 -1.267600 2.741862 0.033071 -0.011999 -288661.000000 0 1 0
-3.575951 7.334065 -20.725178 22.273503 -1.117133 2.766533 0.041823 -0.009811 -84814.200000 0 1 0
-3.114451 6.171365 -21.686078 22.761185 -1.103426 2.833013 0.040477 -0.012754 569110.000000 0 1 0
-2.144751 5.330865 -21.020178 21.791420 -1.188286 2.874749 0.042877 -0.006034 544286.000000 0 1 0
-1.874851 4.113765 -21.764278 22.228854 -1.143170 2.936786 0.053807 -0.013897 -311254.000000 0 1 0
-1.176651 2.985065 -21.007078 21.250705 -1.195318 2.990025 0.042302 -0.012853 -429856.000000 0 1 0
0.148349 3.301765 -20.663278 20.925934 1.525896 2.982986 0.041732 -0.023041 -714535.000000 0 1 0
0.703449 2.239765 -19.937778 20.075517 1.266479 3.024384 0.045314 -0.022621 609808.000000 0 1 0
2.264149 2.316265 -20.070778 20.330460 0.796776 2.981591 0.034474 -0.023345 598607.000000 0 1 0
2.742449 2.075465 -21.361478 21.636574 0.647834 2.981959 0.049116 -0.017285 1028970.000000 0 1 0
4.192649 2.139465 -21.297578 21.811521 0.471845 2.924079 0.065836 -0.015776 1495790.000000 0 1 0
5.017649 1.470065 -22.431078 23.032394 0.285003 2.912587 0.074001 -0.012747 182978.000000 0 1 0
6.352349 1.184265 -22.029978 22.958109 0.184314 2.856277 0.088750 -0.028594 -83342.300000 0 1 0
6.997349 0.704465 -23.180078 24.223443 0.100338 2.847024 0.099453 -0.027993 -786353.000000 0 1 0
8.477049 0.418965 -22.983878 24.500909 0.049383 2.787850 0.108207 -0.037063 -733595.000000 0 1 0
9.244149 1.588165 -22.867378 24.716261 0.170141 2.752347 0.105498 -0.052624 -43151.900000 0 1 0
10.624749 1.269965 -22.895678 25.272716 0.118965 2.704402 0.122998 -0.040034 195559.000000 0 0 1
13.692949 -20.129319 23.093725 33.556020 -0.973449 0.811772 0.091819 -0.016085 -374986.000000 0 0 1
13.006549 -21.345919 22.957945 33.939443 -1.023550 0.827880 0.078817 -0.009060 25156.200000 0 0 1
11.637849 -21.157519 22.642935 33.102608 -1.067909 0.817533 0.069536 -0.017959 337129.000000 0 0 1
11.276149 -21.024219 21.107235 31.854116 -1.078500 0.846482 0.093666 -0.029271 -252929.000000 0 0 1
11.735849 -19.827219 20.556735 30.877631 -1.036350 0.842300 0.106769 -0.030588 -145145.000000 0 0 1
11.477949 -19.831019 19.217435 29.905224 -1.046120 0.872895 0.116398 -0.029529 48608.200000 0 0 1
11.653249 -18.470619 18.558535 28.659749 -1.007960 0.866435 0.123786 -0.029240 -496383.000000 0 0 1
10.627649 -17.570619 18.795135 27.837577 -1.026816 0.829599 0.149460 -0.033205 -553268.000000 0 0 1
10.922749 -16.253819 18.305235 26.806244 -0.979103 0.819109 0.149021 -0.029556 302495.000000 0 0 1
9.889849 -15.235119 18.902735 26.215098 -0.995020 0.765461 0.123637 -0.022281 504517.000000 0 0 1
8.661349 -15.331319 18.214135 25.334226 -1.056552 0.768501 0.098940 -0.023538 -275047.000000 0 0 1
7.722149 -14.365319 18.650935 24.776024 -1.077558 0.718519 0.081302 -0.017078 -6764.880000 0 1 0
6.273849 -14.672219 18.257835 24.248376 -1.166725 0.718262 0.039857 -0.012227 -589790.000000 0 1 0
6.002549 -14.649419 16.867335 23.133159 -1.181916 0.753730 0.029154 -0.021055 208802.000000 0 1 0
4.634749 -14.923919 16.593935 22.793923 -1.269681 0.755399 0.014624 -0.015622 207161.000000 0 1 0
4.087549 -16.381219 16.761235 23.790574 -1.326263 0.789032 0.005253 -0.002775 -321927.000000 0 1 0
2.738149 -16.387919 16.348235 23.309357 -1.405242 0.793494 0.022407 -0.006921 -411851.000000 0 1 0
2.099249 -17.628719 16.616635 24.316479 -1.452273 0.818457 0.031950 -0.009457 186762.000000 0 1 0
0.594949 -17.484619 16.330635 23.932311 -1.536782 0.819800 0.038145 -0.004589 -224774.000000 0 1 0
0.226149 -17.332719 14.968835 22.902845 -1.557750 0.858492 0.041384 -0.008190 -422321.000000 0 1 0
-1.129651 -17.571019 14.712435 22.944990 1.506594 0.874729 0.046876 -0.003951 -468984.000000 0 1 0
-1.608951 -17.708019 13.243435 22.170955 1.480185 0.930625 0.043633 -0.018131 -323134.000000 0 1 0
-2.955651 -18.077219 13.180135 22.566295 1.408729 0.947071 0.047930 -0.020086 -450622.000000 0 1 0
-3.064751 -19.393619 12.623335 23.342102 1.414064 0.999412 0.067889 -0.022791 212205.000000 0 1 0
-4.509951 -19.896819 12.359335 23.853222 1.347896 1.026120 0.061332 -0.020693 173193.000000 0 1 0
-5.099251 -20.375519 13.520135 24.979155 1.325570 0.998865 0.067677 -0.023799 202405.000000 0 1 0
-6.433751 -20.767419 13.181935 25.425229 1.270373 1.025749 0.068874 -0.025099 411650.000000 0 0 1
-7.136251 -21.607719 14.242335 26.845180 1.251811 1.011564 0.079792 -0.024643 732637.000000 0 0 1
-8.562351 -21.472719 14.252335 27.157330 1.191364 1.018309 0.083402 -0.022485 554609.000000 0 0 1
-9.196951 -22.403219 15.097435 28.538056 1.181255 1.013341 0.079009 -0.020737 1173450.000000 0 0 1
-10.718551 -22.085919 15.372335 28.965218 1.118968 1.011350 0.090862 -0.020197 1095170.000000 0 0 1
-10.861851 -20.880019 16.153935 28.546534 1.091117 0.969295 0.079359 -0.017077 -1236580.000000 0 0 1
-12.104151 -20.306019 16.008235 28.550104 1.033259 0.975557 0.065183 -0.011314 -833181.000000 0 0 1
-12.309151 -19.071719 16.966935 28.339417 0.997652 0.928914 0.072707 -0.010475 -150754.000000 0 0 1
-12.833151 -19.558919 18.189435 29.632695 0.990125 0.909893 0.067088 -0.012958 -48877.200000 0 0 1
-13.069151 -18.471919 19.042935 29.574446 0.955045 0.871214 0.070077 -0.019550 -155420.000000 0 0 1
-13.590951 -18.943119 20.416035 30.989840 0.948447 0.851577 0.068894 -0.029022 -127259.000000 0 0 1
-14.928251 -19.373419 20.303435 31.786971 0.914270 0.877944 0.059833 -0.019755 -125475.000000 0 0 1
-15.238951 -20.114019 21.453335 33.121669 0.922431 0.866218 0.058409 -0.009573 216107.000000 0 0 1
-16.684151 -20.681319 21.356235 34.090565 0.891968 0.893798 0.073198 -0.017982 -410362.000000 0 0 1
-16.789051 -21.670419 20.354035 34.143316 0.911646 0.932117 0.076557 -0.020751 -162385.000000 0 0 1
-18.072951 -22.056719 19.938535 34.794764 0.884346 0.960595 0.058935 -0.007717 191741.000000 0 0 1
-18.911651 -22.835019 21.049735 36.361793 0.879103 0.953421 0.056096 -0.015413 -146392.000000 0 0 1
-19.563551 -21.988219 21.990835 36.739776 0.843685 0.929098 0.066307 -0.015265 -268270.000000 0 0 1
-20.450651 -22.725319 22.756535 38.112060 0.838033 0.930921 0.066879 -0.008511 -290183.000000 0 0 1
-21.059651 -22.018119 24.002715 38.787070 0.807644 0.903540 0.059629 0.000968 105842.000000 0 0 1
-22.111651 -21.169219 23.592555 38.648022 0.763627 0.914172 0.063280 0.011796 -53573.800000 0 0 1
-22.140951 -20.034019 24.423365 38.575697 0.735483 0.885208 0.067827 0.000575 556307.000000 0 0 1
-23.072951 -18.798519 24.051525 38.265144 0.683666 0.891110 0.075534 -0.002598 419194.000000 0 0 1
-22.772851 -18.183319 22.810235 37.007332 0.673804 0.906671 0.078610 -0.001788 83003.900000 0 0 1
-23.672251 -17.130719 22.425635 36.834035 0.626431 0.916212 0.070812 0.007142 82290.400000 0 0 1
-23.425251 -16.485219 21.051835 35.548342 0.613230 0.937006 0.061798 0.002622 -109086.000000 0 0 1
-22.385351 -15.518919 20.982335 34.383123 0.606190 0.914419 0.075826 -0.007227 -102566.000000 0 0 1
-22.110951 -15.315819 19.636535 33.302582 0.605796 0.940183 0.069799 0.001705 670863.000000 0 0 1
-20.918751 -14.332819 19.349335 31.897031 0.600701 0.918996 0.071766 -0.016841 791404.000000 0 0 1
-20.250751 -14.498119 18.096435 30.785863 0.621337 0.942439 0.069280 -0.022614 9393.990000 0 0 1
-19.572551 -13.325319 17.736435 29.584286 0.597735 0.927892 0.079227 -0.026211 -358769.000000 0 0 1
-19.290251 -13.408219 16.190435 28.531111 0.607415 0.967371 0.073484 -0.036102 128634.000000 0 0 1
-18.770051 -12.274419 15.517435 27.272091 0.579137 0.965524 0.075062 -0.026125 233140.000000 0 0 1
-17.357751 -12.145719 15.603135 26.310983 0.610544 0.935983 0.096097 -0.038961 51355.200000 0 0 1
-16.955051 -10.861319 14.796435 24.987527 0.569735 0.937068 0.093548 -0.033896 -62476.700000 0 1 0
-17.127851 -9.655719 15.474935 25.021387 0.513334 0.904004 0.089800 -0.021563 288644.000000 0 0 1
-16.659351 -8.636319 14.558335 23.750055 0.478264 0.910968 0.076033 -0.010806 -152197.000000 0 1 0
-16.933351 -7.201819 15.120435 23.816636 0.402128 0.882958 0.095279 -0.003139 21181.200000 0 1 0
-16.336551 -6.754619 16.317935 24.057905 0.392061 0.825380 0.101654 -0.005880 739276.000000 0 1 0
-14.928751 -6.469919 16.259335 23.002031 0.408953 0.785740 0.104588 -0.010734 496711.000000 0 1 0
-14.242051 -6.185319 17.592435 23.464611 0.409721 0.723122 0.101854 -0.015362 -139961.000000 0 1 0
-14.111551 -7.240319 18.569835 24.421238 0.474055 0.706872 0.096068 -0.024910 166145.000000 0 1 0
-13.429251 -8.391119 18.106235 24.053927 0.558483 0.718589 0.090907 -0.025594 -628442.000000 0 1 0
-13.550251 -9.590819 19.058535 25.274906 0.615939 0.716590 0.100017 -0.034845 199075.000000 0 0 1
-14.782351 -10.287319 19.069135 26.229349 0.607982 0.756832 0.111773 -0.037649 143421.000000 0 0 1
-15.742251 -9.688219 19.920935 27.175793 0.551686 0.748016 0.101695 -0.035687 -881754.000000 0 0 1
-17.010551 -10.564819 20.325935 28.532751 0.555771 0.777924 0.093157 -0.027613 1785610.000000 0 0 1
-18.040851 -10.740519 19.309435 28.525170 0.536989 0.827218 0.091421 -0.019604 1040110.000000 0 0 1
-18.532351 -9.443119 18.867235 28.081900 0.471257 0.834073 0.077290 -0.011955 -938219.000000 0 0 1
-19.625051 -9.486519 17.717035 28.089678 0.450270 0.888301 0.097143 -0.001263 221836.000000 0 0 1
-20.882551 -9.719319 18.295035 29.415207 0.435609 0.899555 0.086525 0.001474 -588812.000000 0 0 1
-21.843051 -9.715419 17.252935 29.481723 0.418507 0.945660 0.111519 -0.002500 -453015.000000 0 0 1
-23.267951 -9.826919 17.780735 30.888840 0.399613 0.957414 0.100687 -0.010213 -649627.000000 0 0 1
-23.770051 -8.723919 18.505435 31.361971 0.351750 0.939664 0.096345 0.004910 -887442.000000 0 0 1
-25.082781 -8.862519 18.848935 32.603259 0.339639 0.954361 0.095583 0.006563 -1299330.000000 0 0 1
-25.829861 -7.714819 19.557235 33.304438 0.290244 0.943169 0.109870 0.004042 -40914.400000 0 0 1
-25.700861 -7.681819 20.970235 34.048427 0.290441 0.907276 0.109556 -0.002842 126491.000000 0 0 1
-26.387901 -6.577619 21.515635 34.677211 0.244288 0.901474 0.104784 -0.007634 -756361.000000 0 0 1
-26.413541 -6.595219 23.068505 35.683722 0.244688 0.867846 0.100369 -0.007067 709962.000000 0 0 1
-25.223461 -6.157819 23.743895 35.184006 0.239447 0.830036 0.077740 -0.011159 910483.000000 0 0 1
-24.103851 -7.038319 23.564465 34.435702 0.284101 0.817148 0.085712 -0.008913 -591607.000000 0 0 1
-23.058051 -6.869719 24.658595 34.451605 0.289558 0.773105 0.087617 -0.011699 -354128.000000 0 0 1
-22.467051 -5.589519 24.524255 33.726106 0.243837 0.756621 0.077837 -0.014821 101969.000000 0 0 1
-21.622451 -5.291119 25.616015 33.936803 0.239989 0.715424 0.079197 -0.031772 108136.000000 0 0 1
-21.392451 -3.764819 25.808505 33.732622 0.174204 0.699615 0.077984 -0.027866 176726.000000 0 0 1
-20.407451 -3.398719 26.783115 33.843029 0.165028 0.657713 0.072565 -0.033544 53709.400000 0 0 1
-20.880051 -3.198419 28.054635 35.117930 0.151999 0.645383 0.075144 -0.036139 -84383.300000 0 0 1
-21.730951 -1.947919 28.422135 35.830802 0.089399 0.654698 0.083277 -0.039353 1030140.000000 0 0 1
-22.925951 -1.908719 27.598995 35.929751 0.083064 0.694869 0.089435 -0.046104 342645.000000 0 0 1
-23.792651 -0.958019 28.233775 36.934457 0.040244 0.700641 0.076383 -0.044065 774021.000000 0 0 1
-25.174371 -0.813619 27.518345 37.305097 0.032308 0.741204 0.079397 -0.037461 164861.000000 0 0 1
-25.046251 -0.163819 26.196255 36.243418 0.006541 0.762970 0.079999 -0.036374 283316.000000 0 0 1
-26.283431 -0.021619 25.495915 36.617768 0.000823 0.800606 0.095963 -0.037786 355287.000000 0 0 1
-27.063891 -1.275519 24.998525 36.864718 0.047095 0.825601 0.091357 -0.031428 79803.500000 0 0 1
-27.964691 -1.742119 26.017225 38.235519 0.062217 0.822425 0.082562 -0.028729 311732.000000 0 0 1
-28.377461 -3.078119 25.822625 38.491078 0.108048 0.835411 0.075757 -0.027457 -150887.000000 0 0 1
-27.283311 -4.130519 26.034085 37.936972 0.150253 0.814481 0.089562 -0.032699 -98373.200000 0 0 1
-26.842051 -4.347319 27.375175 38.584908 0.160565 0.782038 0.080782 -0.037666 255133.000000 0 0 1
-25.892771 -5.423719 27.425005 38.104898 0.206483 0.767392 0.090614 -0.034841 465897.000000 0 0 1
-25.469471 -5.773819 28.863215 38.924493 0.222928 0.735466 0.075241 -0.034185 936489.000000 0 0 1
-26.639801 -6.234819 29.580085 40.293094 0.229903 0.746422 0.090437 -0.030354 1042410.000000 0 0 1
-26.256641 -7.090019 30.640545 40.969776 0.263738 0.725931 0.093439 -0.026027 247364.000000 0 0 1
-27.527401 -7.578919 31.360755 42.411022 0.268666 0.738546 0.085443 -0.029900 490166.000000 0 0 1
-28.496671 -8.227019 30.563785 42.589777 0.281059 0.770400 0.071593 -0.028077 -126304.000000 0 0 1
-29.731821 -8.458219 31.176665 43.903384 0.277162 0.781128 0.091577 -0.024645 -162814.000000 0 0 1
-30.801281 -9.035319 30.246625 44.104583 0.285338 0.815103 0.083734 -0.025720 -419453.000000 0 0 1
-30.556311 -10.397819 29.955295 44.035469 0.327993 0.822687 0.096945 -0.021593 647194.000000 0 0 1
-31.524561 -10.931419 29.037405 44.231943 0.333784 0.854653 0.069991 -0.020422 369185.000000 0 0 1
-30.953251 -12.214419 28.484455 43.802511 0.375850 0.862827 0.089123 -0.019410 127373.000000 0 0 1
-29.778931 -12.017019 27.730465 42.428436 0.383555 0.858489 0.092741 -0.018485 -497651.000000 0 0 1
-29.055541 -13.154819 27.430235 42.067702 0.425136 0.860511 0.083806 -0.019931 -601598.000000 0 0 1
-27.658121 -12.716619 26.970715 40.670672 0.430956 0.845778 0.104147 -0.028876 -136278.000000 0 0 1
-26.743821 -12.235719 27.988285 40.599124 0.429086 0.810161 0.093026 -0.030308 416376.000000 0 0 1
-27.001391 -10.966619 28.637085 40.858591 0.385797 0.794162 0.105751 -0.030412 -790508.000000 0 0 1
-26.968961 -9.675019 27.787895 39.913631 0.344445 0.800705 0.098911 -0.025955 740531.000000 0 0 1
-25.677361 -9.316719 27.264805 38.594012 0.348066 0.786324 0.085316 -0.033046 633516.000000 0 0 1
-25.202991 -10.159019 26.167455 37.724424 0.383165 0.804256 0.077668 -0.028657 -224880.000000 0 0 1
-25.823321 -9.985719 24.737765 37.128365 0.368983 0.841592 0.089305 -0.021205 565022.000000 0 0 1
-27.157471 -10.478219 24.537495 38.071117 0.368233 0.870404 0.092405 -0.023308 254656.000000 0 0 1
-27.496721 -10.468219 23.207485 37.473199 0.363765 0.902934 0.096656 -0.014645 424615.000000 0 0 1
-28.795851 -11.349519 23.024855 38.576632 0.375442 0.931214 0.104693 -0.021811 1485170.000000 0 0 1
-30.091731 -10.927319 23.448485 39.683120 0.348327 0.938631 0.107440 -0.020495 486395.000000 0 0 1
-30.250491 -10.575719 24.809485 40.527134 0.336323 0.911995 0.114467 -0.025404 -1772200.000000 0 0 1
-31.679051 -10.397019 25.233865 41.813972 0.317122 0.922939 0.071814 -0.022926 -1162580.000000 0 0 1
-32.183841 -9.150819 24.857265 41.682379 0.277019 0.931851 0.084738 -0.029436 827051.000000 0 0 1
-33.602591 -8.904719 24.973205 42.802910 0.259047 0.947830 0.068788 -0.018946 1678480.000000 0 0 1
-34.318569 -8.831019 26.408105 44.194333 0.251861 0.930360 0.059377 -0.010303 -222220.000000 0 0 1
-34.590276 -10.127519 26.936165 44.995676 0.284825 0.928995 0.057181 -0.024026 112016.000000 0 0 1
-35.349712 -9.954019 28.115905 46.251365 0.274480 0.917391 0.072134 -0.028483 -1104130.000000 0 0 1
-35.662454 -11.384319 28.723245 47.185148 0.308999 0.916331 0.075049 -0.010541 -141605.000000 0 0 1
-36.834021 -12.061319 28.379735 48.037796 0.316447 0.938772 0.060289 -0.016786 -430708.000000 0 0 1
36.556795 -11.436919 28.694565 47.860009 -0.303207 0.927855 0.064177 -0.016867 -16124.400000 0 0 1
35.257425 -12.053819 28.064635 46.647661 -0.329423 0.925256 0.062514 -0.015596 687363.000000 0 0 1
35.129265 -11.720419 26.729835 45.671846 -0.322024 0.945598 0.065645 -0.013356 -875682.000000 0 0 1
33.980475 -12.226419 26.157815 44.591359 -0.345385 0.943928 0.069011 -0.009436 -676777.000000 0 0 1
33.749735 -11.860419 24.701405 43.472676 -0.337942 0.966473 0.071258 -0.015116 -22018.400000 0 0 1
33.429765 -10.494419 24.592655 42.807484 -0.304182 0.958810 0.071961 -0.023922 -3447.000000 0 0 1
33.719075 -9.958019 23.305325 42.181469 -0.287160 0.985434 0.063152 -0.024448 -368773.000000 0 0 1
33.138035 -8.538019 23.045535 41.256803 -0.252166 0.978114 0.074534 -0.014072 -801823.000000 0 0 1
31.750845 -8.533119 23.126155 40.196384 -0.262549 0.957790 0.091539 -0.020523 -923755.000000 0 0 1
31.346155 -7.134819 22.951335 39.500011 -0.223801 0.950783 0.091101 -0.010697 -458123.000000 0 0 1
29.859385 -6.826119 22.857015 38.218083 -0.224747 0.929708 0.085472 -0.005163 -523958.000000 0 0 1
29.354125 -7.345219 21.628235 37.194051 -0.245193 0.950229 0.074561 0.005740 -410382.000000 0 0 1
27.954725 -7.384819 21.571835 36.074177 -0.258271 0.929811 0.090399 -0.014753 -244947.000000 0 0 1
15.296049 -16.850919 26.259315 34.748730 -0.833728 0.714087 0.090299 -0.018245 157850.000000 0 0 1
14.557749 -18.045019 26.240645 35.016028 -0.891955 0.723657 0.081754 -0.019442 -205834.000000 0 0 1
15.453449 -19.086419 26.387765 36.047394 -0.890195 0.749500 0.074995 -0.013694 -849445.000000 0 0 1
14.808649 -20.531319 26.280415 36.489606 -0.945937 0.766682 0.057949 -0.020358 315121.000000 0 0 1
13.889749 -20.984419 27.245565 37.088971 -0.986096 0.745719 0.054757 -0.017221 1490480.000000 0 0 1
12.640749 -20.236219 27.345215 36.291237 -1.012442 0.717436 0.069567 -0.021795 993172.000000 0 0 1
11.804849 -20.341719 28.652715 37.069099 -1.044968 0.687312 0.069339 -0.028563 325013.000000 0 0 1
12.563349 -19.839419 29.770175 37.917062 -1.006285 0.667875 0.072207 -0.023245 276958.000000 0 0 1
11.836249 -19.031719 30.671315 37.987270 -1.014413 0.631047 0.071666 -0.027884 -141893.000000 0 0 1
11.586749 -17.603719 30.162285 36.795477 -0.988679 0.609860 0.078208 -0.029646 851653.000000 0 0 1
12.765049 -16.765119 30.245645 36.862104 -0.920036 0.608497 0.068107 -0.020279 645879.000000 0 0 1
12.487549 -15.610419 29.518805 35.650861 -0.896086 0.595270 0.077970 -0.022362 -17942.000000 0 0 1
13.708749 -14.692319 29.575385 35.756083 -0.820016 0.596792 0.082886 -0.015367 -45725.500000 0 0 1
13.415149 -13.378919 29.102365 34.726206 -0.784046 0.577093 0.110924 -0.022110 176425.000000 0 0 1
14.420149 -12.434819 29.494645 35.106973 -0.711605 0.573262 0.105096 -0.019799 146424.000000 0 0 1
14.047149 -10.922319 29.442945 34.402129 -0.660899 0.543611 0.100677 -0.014928 -152601.000000 0 0 1
13.995649 -10.321119 28.176905 33.111051 -0.635422 0.552944 0.130566 -0.019817 876685.000000 0 0 1
15.281949 -10.155619 27.538335 33.091305 -0.586536 0.587746 0.109465 -0.024588 722283.000000 0 0 1
15.435349 -8.778119 26.713495 32.076724 -0.517089 0.586650 0.098932 -0.018548 -245966.000000 0 0 1
15.721549 -7.555919 27.263535 32.366022 -0.448015 0.569166 0.097145 -0.027315 838081.000000 0 0 1
17.068549 -7.412219 27.773535 33.431207 -0.409689 0.590313 0.096716 -0.033527 425666.000000 0 0 1
17.518249 -5.957519 27.642135 33.263625 -0.327806 0.589890 0.088130 -0.032831 -76701.800000 0 0 1
18.916549 -5.824219 27.796305 34.123188 -0.298680 0.618779 0.073804 -0.043574 -138324.000000 0 0 1
19.311549 -4.560119 27.358895 33.797038 -0.231887 0.627487 0.073855 -0.044478 780504.000000 0 0 1
20.881049 -4.542219 27.140915 34.543874 -0.214191 0.666979 0.077472 -0.044714 349773.000000 0 0 1
21.215149 -5.333819 26.050155 34.016801 -0.246311 0.698508 0.086146 -0.042109 839102.000000 0 0 1
22.589349 -5.433819 25.656895 34.613312 -0.236063 0.735875 0.084910 -0.035940 521112.000000 0 0 1
23.729449 -5.757519 26.600615 36.108566 -0.238032 0.742642 0.078380 -0.034398 -1146150.000000 0 0 1
24.201549 -4.630919 27.289735 36.768057 -0.189063 0.734430 0.086816 -0.041362 -320778.000000 0 0 1
25.000049 -5.022019 28.360565 38.138495 -0.198242 0.732327 0.092483 -0.049150 -273632.000000 0 0 1
25.753549 -3.839419 29.040195 39.004094 -0.147993 0.730947 0.097230 -0.046157 571384.000000 0 0 1
26.855949 -3.284119 28.293685 39.147926 -0.121682 0.763041 0.083179 -0.031404 715878.000000 0 0 1
26.879549 -1.896719 28.305055 39.080479 -0.070447 0.760812 0.071320 -0.039305 -270687.000000 0 0 1
27.943949 -1.264819 27.374985 39.138905 -0.045232 0.796194 0.069695 -0.036637 86118.600000 0 0 1
29.273949 -1.334619 27.838585 40.419453 -0.045559 0.811043 0.082930 -0.028794 -352978.000000 0 0 1
30.133449 -0.810819 26.851695 40.369490 -0.026901 0.843104 0.069124 -0.017021 -1403980.000000 0 0 1
31.561549 -0.795919 27.260035 41.711802 -0.025213 0.858554 0.064768 -0.013969 -1457130.000000 0 0 1
31.755749 0.295581 28.138055 42.429531 0.009308 0.845748 0.049018 -0.011603 247928.000000 0 0 1
33.029249 0.067381 28.733245 43.778251 0.002040 0.854844 0.051996 -0.010864 483895.000000 0 0 1
33.611049 1.113981 29.743875 44.895898 0.033131 0.846635 0.058387 -0.012009 2665.920000 0 0 1
33.929549 2.408881 29.200025 44.829215 0.070878 0.861419 0.045766 -0.009916 193960.000000 0 0 1
34.076549 3.400481 30.219285 45.672527 0.099460 0.847777 0.040332 -0.007278 -245767.000000 0 0 1
34.324149 4.767981 29.560695 45.549046 0.138027 0.864545 0.047815 -0.010822 -36039.500000 0 0 1
34.261349 5.952281 30.340375 46.149844 0.172015 0.853391 0.054089 -0.010959 128676.000000 0 0 1
32.938249 6.253181 30.724795 45.475747 0.187613 0.828977 0.058619 -0.012393 -206713.000000 0 0 1
32.842049 7.212581 31.914623 46.359084 0.216182 0.811485 0.068414 -0.013094 -93707.400000 0 0 1
33.386749 6.579481 33.054876 47.440378 0.194575 0.799916 0.066313 -0.012761 271479.000000 0 0 1
33.734849 7.461981 -33.761158 48.306697 0.217690 2.344643 0.072563 -0.022748 -68448.800000 0 0 1
33.954349 6.761781 -32.359098 47.389142 0.196572 2.322436 0.097786 -0.025941 -659128.000000 0 0 1
32.775749 6.258981 -31.845458 46.125457 0.188692 2.332851 0.084373 -0.027091 -647313.000000 0 0 1
32.558749 4.899681 -32.080648 45.970066 0.149367 2.343201 0.101871 -0.028696 272379.000000 0 0 1
33.352549 3.883281 -31.146338 45.799201 0.115909 2.318645 0.102712 -0.035680 290837.000000 0 0 1
33.132549 2.569281 -31.607118 45.862588 0.077391 2.331139 0.108831 -0.034535 101873.000000 0 0 1
33.754449 1.690781 -30.736828 45.683413 0.050049 2.308814 0.095563 -0.031695 -173850.000000 0 0 1
33.607549 0.202981 -31.127768 45.808804 0.006040 2.317898 0.084054 -0.040144 -261764.000000 0 0 1
34.486549 -0.177819 -32.203028 47.184624 -0.005156 2.321960 0.088590 -0.038874 129970.000000 0 0 1
34.928649 -1.527919 -32.176658 47.515075 -0.043716 2.314731 0.086702 -0.036610 546153.000000 0 0 1
35.979649 -1.860119 -31.064038 47.570681 -0.051653 2.282346 0.100713 -0.039269 72523.300000 0 0 1
35.436149 -1.854819 -29.730208 46.293048 -0.052295 2.268184 0.102829 -0.038819 -221705.000000 0 0 1
36.301549 -1.219719 -28.822988 46.368684 -0.033587 2.241586 0.110667 -0.040716 -141368.000000 0 0 1
35.613149 -0.874819 -27.462018 44.980264 -0.024560 2.227532 0.113276 -0.044869 166752.000000 0 0 1
34.756149 0.230481 -27.617538 44.393372 0.006631 2.242231 0.114103 -0.039986 -1285.740000 0 0 1
34.038349 0.645881 -26.516218 43.152476 0.018973 2.232520 0.111986 -0.031426 -220650.000000 0 0 1
33.389949 2.007481 -26.617418 42.748165 0.060050 2.242929 0.106565 -0.033377 -254340.000000 0 0 1
32.342749 2.105681 -27.526388 42.522810 0.065013 2.274876 0.120421 -0.046584 -237509.000000 0 0 1
31.373149 3.042481 -27.173538 41.616491 0.096675 2.282271 0.100684 -0.033785 45725.000000 0 0 1
30.361949 3.378881 -28.327078 41.661591 0.110831 2.318467 0.109383 -0.040708 -142408.000000 0 0 1
29.517349 4.419881 -27.918888 40.868980 0.148634 2.322838 0.092866 -0.035162 7670.230000 0 0 1
28.760249 5.037481 -28.956738 41.122024 0.173395 2.352044 0.062167 -0.037403 -897728.000000 0 0 1
27.697249 5.869681 -28.323048 40.047295 0.208833 2.356383 0.061024 -0.025844 -696264.000000 0 0 1
26.728449 4.986681 -27.699798 38.814376 0.184448 2.365488 0.080366 -0.032381 600125.000000 0 0 1
25.734649 5.813481 -27.091138 37.815321 0.222172 2.369434 0.083649 -0.029842 -318962.000000 0 0 1
24.406749 5.095981 -26.868528 36.654825 0.205837 2.393540 0.096218 -0.023249 -361623.000000 0 0 1
23.598949 5.037681 -28.036278 36.990830 0.210314 2.430923 0.101781 -0.021019 654060.000000 0 0 1
22.296149 4.493081 -27.829278 35.941268 0.198855 2.456402 0.083967 -0.016204 523074.000000 0 0 1
21.444049 4.307481 -29.097838 36.401728 0.198233 2.497014 0.073955 -0.016553 64650.400000 0 0 1
21.923549 3.193581 -29.857848 37.179726 0.144652 2.503222 0.074266 -0.025972 544513.000000 0 0 1
21.091449 2.852781 -30.993398 37.597584 0.134442 2.539841 0.050972 -0.033344 274074.000000 0 0 1
21.300249 3.550881 -32.373718 38.914869 0.165187 2.553339 0.069015 -0.028784 -318595.000000 0 0 1
22.532349 3.171181 -32.919128 40.017898 0.139821 2.536783 0.084651 -0.031138 -443158.000000 0 0 1
22.666149 3.838581 33.727200 40.816823 0.167761 0.598279 0.090830 -0.035499 808147.000000 0 0 1
24.026249 3.535581 32.977727 40.954749 0.146106 0.634744 0.104027 -0.028884 947640.000000 0 0 1
24.193849 2.157581 32.614488 40.665739 0.088944 0.640137 0.114294 -0.039259 706135.000000 0 0 1
25.575949 1.831981 32.386222 41.308023 0.071507 0.669684 0.108304 -0.038229 597292.000000 0 0 1
25.854149 0.304281 32.126343 41.238714 0.011769 0.677673 0.093130 -0.039675 -588982.000000 0 0 1
25.240449 -0.223219 30.954965 39.941707 -0.008843 0.684076 0.095623 -0.044007 718557.000000 0 0 1
23.829549 -0.427319 30.979335 39.086433 -0.017930 0.655759 0.099217 -0.047665 411102.000000 0 0 1
23.295949 -1.498119 31.988964 39.601003 -0.064220 0.630417 0.089225 -0.052420 -893812.000000 0 0 1
23.656149 -2.809619 31.656065 39.618352 -0.118215 0.645124 0.075818 -0.049542 97354.100000 0 0 1
22.981049 -3.782819 32.423204 39.921204 -0.163143 0.622917 0.074432 -0.048085 -209399.000000 0 0 1
23.150149 -5.177119 31.833445 39.700129 -0.220012 0.640416 0.071443 -0.045932 157232.000000 0 0 1
24.465749 -5.676119 31.966150 40.652503 -0.227970 0.665956 0.058261 -0.034476 -131557.000000 0 0 1
24.325549 -7.044619 31.587395 40.486078 -0.281886 0.675805 0.063756 -0.036193 -859476.000000 0 0 1
25.650849 -7.762119 31.369105 41.258179 -0.293847 0.707002 0.053636 -0.030646 -386887.000000 0 0 1
26.162049 -7.282519 30.134585 40.565763 -0.271489 0.733467 0.074076 -0.028612 18232.800000 0 0 1
27.309549 -8.056319 29.764105 41.190020 -0.286863 0.763233 0.052096 -0.011070 661851.000000 0 0 1
27.858349 -7.699419 28.373735 40.502315 -0.269646 0.794634 0.063012 -0.021190 653987.000000 0 0 1
27.042049 -8.452319 27.431765 39.436225 -0.302941 0.801544 0.064068 -0.023002 390539.000000 0 0 1
27.376949 -8.129019 26.117455 38.700126 -0.288637 0.830011 0.081998 -0.026019 67420.500000 0 0 1
26.516549 -8.718919 24.962845 37.447170 -0.317674 0.841138 0.062149 -0.016936 571603.000000 0 0 1
25.189849 -8.181219 24.885495 36.342107 -0.314035 0.816527 0.066951 -0.015424 768624.000000 0 0 1
24.407849 -8.872219 23.881215 35.281324 -0.348649 0.827281 0.084278 -0.017353 183664.000000 0 0 1
22.963749 -8.367019 23.753345 34.081699 -0.349408 0.799656 0.067481 -0.025683 -299485.000000 0 0 1
22.151949 -8.702219 24.866175 34.420403 -0.374321 0.763493 0.056073 -0.020644 -1147370.000000 0 0 1
20.858249 -8.516219 24.409965 33.218052 -0.387633 0.745365 0.067470 -0.012419 -695339.000000 0 0 1
19.802749 -8.488419 25.554855 33.425331 -0.404957 0.700476 0.058498 -0.019460 -123614.000000 0 0 1
19.265249 -9.746519 26.002185 33.797309 -0.468366 0.692963 0.074075 -0.021550 7241.930000 0 0 1
20.129649 -10.492319 26.807885 35.127685 -0.480493 0.702614 0.058133 -0.018940 -790293.000000 0 0 1
19.456249 -11.496919 27.670675 35.726615 -0.533710 0.684854 0.060417 -0.017356 -56872.600000 0 0 1
18.693649 -12.417919 26.888495 35.023541 -0.586352 0.695511 0.081152 -0.019369 554018.000000 0 0 1
17.832249 -13.286919 27.640505 35.475750 -0.640362 0.677507 0.075350 -0.020928 217542.000000 0 0 1
18.530149 -14.542319 28.214335 36.754512 -0.665399 0.695641 0.086626 -0.012719 -337726.000000 0 0 1
17.613049 -15.491719 28.697145 37.063985 -0.721406 0.685252 0.079291 -0.008321 172831.000000 0 0 1
18.203849 -16.726319 29.125945 38.203018 -0.743124 0.703784 0.078651 -0.001651 -155516.000000 0 0 1
18.545049 -17.810219 28.091865 38.082485 -0.765188 0.741201 0.083224 -0.010677 -251489.000000 0 0 1
19.513449 -17.219519 27.253995 37.683773 -0.723030 0.762330 0.079945 -0.010887 106105.000000 0 0 1
20.015449 -18.210219 26.347915 37.768279 -0.738208 0.798726 0.075324 0.000239 282511.000000 0 0 1
21.239649 -17.659519 25.544785 37.623362 -0.693621 0.824450 0.076116 -0.012498 317185.000000 0 0 1
22.449449 -17.660419 26.271335 38.807876 -0.666563 0.827173 0.076618 -0.004325 -75082.800000 0 0 1
23.543349 -17.387719 25.428195 38.771319 -0.636127 0.855487 0.050754 -0.005723 487158.000000 0 0 1
24.950949 -17.303319 26.124605 40.055583 -0.606346 0.860302 0.060626 -0.012852 740291.000000 0 0 1
25.435749 -18.579519 26.449255 41.130754 -0.630871 0.872318 0.068499 -0.007886 1133930.000000 0 0 1
26.683149 -18.915119 25.770725 41.640154 -0.616660 0.903466 0.053433 -0.010011 795297.000000 0 0 1
27.398149 -20.124619 26.355275 43.014642 -0.633523 0.911318 0.044681 -0.012125 148256.000000 0 0 1
28.107049 -19.945619 27.600995 44.154828 -0.617160 0.895542 0.043710 -0.003275 400384.000000 0 0 1
28.706949 -21.085919 28.219355 45.442677 -0.633522 0.900794 0.044563 -0.003353 76579.100000 0 0 1
27.754249 -22.146219 28.838935 45.743169 -0.673483 0.888659 0.063749 -0.007600 98465.400000 0 0 1
27.272049 -21.749419 30.117495 46.085414 -0.673214 0.858578 0.071912 -0.007427 -45813.100000 0 0 1
26.651749 -22.867119 30.717925 46.656316 -0.709118 0.852122 0.086039 -0.011554 -167569.000000 0 0 1
26.285949 -22.672719 32.209291 47.354427 -0.711730 0.822795 0.076404 -0.010369 203161.000000 0 0 1
25.630449 -23.824719 32.742389 47.922867 -0.748902 0.818618 0.074071 -0.013954 209282.000000 0 0 1
25.302049 -23.669519 -33.740938 48.362079 -0.752074 2.342941 0.065829 -0.011394 -160056.000000 0 0 1
25.258249 -25.021299 -33.002908 48.510169 -0.780686 2.319009 0.066184 -0.015604 643879.000000 0 0 1
24.046949 -25.768179 -33.166278 48.396868 -0.819937 2.325809 0.079805 -0.027247 234659.000000 0 0 1
23.728949 -26.259419 33.395002 48.660521 -0.835976 0.814427 0.088037 -0.026770 -468034.000000 0 0 1
22.524349 -27.187859 33.340490 48.560419 -0.878935 0.814025 0.109102 -0.029724 10902.700000 0 0 1
22.783749 -28.584479 33.635542 49.674152 -0.897846 0.826950 0.103284 -0.034779 227585.000000 0 0 1
21.495649 -29.168269 33.726146 49.500543 -0.935698 0.821220 0.131798 -0.038279 130247.000000 0 0 1
21.438149 -30.720109 33.818075 50.467629 -0.961512 0.836460 0.098376 -0.036803 -50442.400000 0 0 1
21.926549 -31.319429 -32.842978 50.401799 -0.960007 2.280519 0.085312 -0.041850 940038.000000 0 0 1
23.329849 -31.612479 -32.816118 51.191096 -0.935023 2.266664 0.060019 -0.022941 345006.000000 0 0 1
23.849949 -32.315519 -31.538838 51.066732 -0.934998 2.236484 0.047164 -0.021209 147719.000000 0 0 1
25.210749 -32.728849 -31.671938 52.056422 -0.914435 2.224859 0.047299 -0.008648 652899.000000 0 0 1
25.837449 -33.205519 -30.466698 51.946125 -0.909548 2.197534 0.043122 -0.010737 85883.400000 0 0 1
26.451749 -32.222049 -29.500788 51.071048 -0.883428 2.186634 0.041737 -0.023210 -686607.000000 0 0 1
26.991349 -32.924599 -28.380208 51.166379 -0.884103 2.158757 0.048990 -0.026170 119402.000000 0 0 1
27.499849 -32.008419 -27.435808 50.333926 -0.861017 2.147276 0.042372 -0.021376 -1019620.000000 0 0 1
27.763249 -32.522989 -25.974018 50.031914 -0.864187 2.116651 0.045222 -0.026270 300081.000000 0 0 1
28.943049 -33.282189 -25.833288 51.115193 -0.855018 2.100634 0.046755 -0.001819 585355.000000 0 0 1
30.157249 -32.510519 -25.954658 51.381298 -0.822932 2.100338 0.059405 -0.021088 -14255.600000 0 0 1
-27.461501 -30.735802 9.480522 42.293071 0.841601 1.344713 0.057729 -0.021116 -274310.000000 0 0 1
-27.301051 -31.804002 10.331922 43.169324 0.861437 1.329116 0.061757 -0.021765 -560942.000000 0 0 1
-25.973691 -31.972102 10.722422 42.565459 0.888548 1.316149 0.048541 -0.022681 -591334.000000 0 0 1
-25.804901 -33.011902 11.918522 43.562940 0.907323 1.293670 0.046544 -0.017922 -242028.000000 0 0 1
-26.133401 33.510381 11.686222 44.073440 -0.908457 1.302433 0.056019 -0.005097 786630.000000 0 0 1
-27.510961 33.127381 11.497322 44.569774 -0.877756 1.309884 0.041694 -0.021681 601119.000000 0 0 1
-27.825551 31.651281 11.194222 43.604765 -0.849633 1.311169 0.043948 -0.015858 41342.300000 0 0 1
-27.286891 31.218281 9.947822 42.639356 -0.852495 1.335325 0.068432 -0.023730 214395.000000 0 0 1
-27.576061 29.845481 9.671822 41.770038 -0.824900 1.337126 0.084491 -0.022478 5805.460000 0 0 1
-26.961611 29.499381 8.281922 40.813383 -0.830315 1.366456 0.064296 -0.009510 584468.000000 0 0 1
-25.615161 29.020981 8.417622 39.613258 -0.847654 1.356669 0.046312 -0.000369 324007.000000 0 0 1
-25.176571 28.995381 7.114722 39.053952 -0.855776 1.387597 0.054706 0.000910 710601.000000 0 0 1
-23.697251 28.514181 6.809522 37.695992 -0.877396 1.389156 0.055720 -0.000168 1009860.000000 0 0 1
-23.500951 27.098681 6.987122 36.543852 -0.856381 1.378414 0.065939 -0.009448 48084.600000 0 0 1
-24.042251 26.327581 5.951122 36.146746 -0.830738 1.405406 0.051455 -0.015624 -719785.000000 0 0 1
-24.187751 24.806381 6.181322 35.193928 -0.798024 1.394245 0.068887 -0.009339 -296966.000000 0 0 1
-25.105951 24.533881 7.231122 35.840051 -0.773874 1.367641 0.080259 -0.015402 414847.000000 0 0 1
-25.411141 23.168581 7.539522 35.204455 -0.739268 1.354961 0.097110 -0.032791 100622.000000 0 0 1
-26.046581 22.223781 6.442622 34.840038 -0.706368 1.384806 0.091160 -0.042175 -124949.000000 0 0 1
-27.382771 22.529081 6.097022 35.979846 -0.688458 1.400518 0.086220 -0.045791 65125.300000 0 0 1
-27.694211 22.072281 4.775922 35.734638 -0.672909 1.436746 0.084984 -0.041443 -24447.400000 0 0 1
-27.400521 22.956381 3.504022 35.917435 -0.697373 1.473083 0.065364 -0.033222 145262.000000 0 0 1
-26.025461 23.299781 3.351022 35.091791 -0.730195 1.475158 0.057015 -0.033284 512788.000000 0 0 1
-25.795711 24.100581 2.228122 35.372606 -0.751438 1.507765 0.043050 -0.028129 -944023.000000 0 0 1
-24.396151 24.626781 2.085922 34.727534 -0.790103 1.510695 0.041686 -0.020098 -913084.000000 0 0 1
-24.217851 25.573281 1.026622 35.235649 -0.812614 1.541656 0.039087 -0.020769 -128420.000000 0 0 1
-22.881751 26.038181 1.054222 34.679573 -0.849831 1.540393 0.059539 -0.022665 -143336.000000 0 0 1
-22.238851 26.458681 -0.302978 34.564723 -0.871836 1.579562 0.082185 -0.015842 180575.000000 0 0 1
-22.030051 25.494681 -1.335478 33.720697 -0.858171 1.610411 0.085345 -0.021166 115903.000000 0 0 1
-20.907051 24.694181 -1.014478 32.371848 -0.868257 1.602140 0.096147 -0.039372 -220139.000000 0 0 1
-20.641751 23.606381 -2.037278 31.424411 -0.852298 1.635673 0.107273 -0.050059 -266199.000000 0 0 1
-21.722751 22.746281 -2.231878 31.531770 -0.808411 1.641637 0.086151 -0.040053 -487827.000000 0 0 1
-21.408851 21.775681 -3.190478 30.703393 -0.793892 1.674897 0.086923 -0.041474 120759.000000 0 0 1
-22.580251 21.214181 -4.048678 31.245816 -0.754216 1.700737 0.097294 -0.034132 226439.000000 0 0 1
-22.935851 22.175581 -5.016178 32.295073 -0.768547 1.726751 0.087911 -0.031124 94312.700000 0 0 1
-24.083051 21.916681 -5.813678 33.077683 -0.738338 1.747472 0.084937 -0.019165 371434.000000 0 0 1
-23.999451 22.692681 -7.134778 33.791071 -0.757419 1.783541 0.078334 -0.017285 70547.000000 0 0 1
-23.327151 21.953281 -8.141378 33.051242 -0.755066 1.819684 0.066142 -0.019226 -18837.300000 0 0 1
-22.824351 22.736081 -9.149078 33.490088 -0.783461 1.847501 0.062964 -0.018796 -216022.000000 0 0 1
-22.104151 22.005681 -10.297578 32.846364 -0.783166 1.889681 0.065101 -0.019964 -252977.000000 0 0 1
-23.025151 21.451881 -11.196578 33.402158 -0.750040 1.912619 0.050656 -0.015683 397988.000000 0 0 1
-22.355651 20.815081 -12.285278 32.923712 -0.749728 1.953192 0.040738 -0.013951 372478.000000 0 0 1
-23.362051 20.615481 -13.472078 33.945256 -0.723025 1.978908 0.034698 -0.024559 153281.000000 0 0 1
-24.100851 19.462081 -13.256878 33.695229 -0.679314 1.975161 0.049334 -0.012438 -136565.000000 0 0 1
-25.389831 19.593881 -13.825178 34.924193 -0.657259 1.977803 0.062779 -0.021745 136582.000000 0 0 1
-26.187761 18.278181 -13.806578 34.792418 -0.609360 1.978854 0.108542 -0.026185 -47430.500000 0 0 1
-25.668521 17.391981 -14.790478 34.352762 -0.595507 2.015895 0.101872 -0.026016 652224.000000 0 0 1
-26.427601 16.146881 -14.823178 34.334625 -0.548458 2.017203 0.128195 -0.037602 439078.000000 0 0 1
-25.935911 15.281281 -16.040378 34.109863 -0.532436 2.060378 0.128530 -0.024782 577608.000000 0 0 1
-24.572451 14.893681 -15.935178 32.856613 -0.544902 2.077150 0.119203 -0.019428 183532.000000 0 0 1
-24.195851 14.067581 -16.989978 32.741341 -0.526634 2.116378 0.122660 -0.030452 119385.000000 0 0 1
-23.245851 12.898181 -16.659178 31.372932 -0.506566 2.130582 0.119582 -0.025410 155545.000000 0 0 1
-21.933051 13.200181 -16.257178 30.324897 -0.541771 2.136607 0.110621 -0.034990 -372425.000000 0 0 1
-21.106851 12.113581 -16.257178 29.266600 -0.521020 2.159743 0.103484 -0.033249 -404197.000000 0 0 1
-19.792951 12.308981 -15.456378 27.967330 -0.556358 2.156347 0.098382 -0.036511 -70352.900000 0 0 1
-18.953451 13.263181 -16.065578 28.164660 -0.610576 2.177809 0.088348 -0.033021 186699.000000 0 0 1
-17.807251 13.468481 -15.250178 27.038234 -0.647552 2.170046 0.086558 -0.019775 52078.100000 0 0 1
-16.881351 14.595981 -15.730178 27.303135 -0.712922 2.184783 0.055881 -0.015665 -353766.000000 0 0 1
-16.188651 14.317581 -16.893878 27.431162 -0.724141 2.234279 0.081198 -0.030620 23241.600000 0 0 1
-15.348951 15.372781 -17.319678 27.782800 -0.786174 2.243874 0.070649 -0.020428 63812.000000 0 0 1
-14.496951 15.032481 -18.549178 27.932223 -0.803532 2.297056 0.081070 -0.032124 -1914.560000 0 0 1
-13.525851 14.050881 -18.328778 26.764156 -0.804435 2.325161 0.078703 -0.035302 47924.000000 0 0 1
-12.469251 14.045281 -19.292678 26.925073 -0.844769 2.369614 0.100467 -0.036200 1304930.000000 0 0 1
-11.510451 12.782381 -19.273278 25.832905 -0.837709 2.412944 0.097227 -0.047335 366699.000000 0 0 1
-12.195751 11.662381 -19.728978 25.961126 -0.763046 2.434022 0.110540 -0.047005 -305329.000000 0 0 1
-11.446951 10.507181 -19.641878 25.044699 -0.742618 2.472320 0.095426 -0.035881 -679088.000000 0 0 1
-11.749851 9.488281 -20.706078 25.628659 -0.679312 2.511422 0.113614 -0.035249 25215.000000 0 0 1
-11.354151 9.865481 -22.014478 26.662365 -0.715358 2.542196 0.124337 -0.037516 -60386.400000 0 0 1
-11.552051 8.773981 -22.870678 27.083215 -0.649564 2.576352 0.117407 -0.014107 -4748.780000 0 0 1
-11.347451 8.983481 -24.334878 28.313493 -0.669643 2.605048 0.105168 -0.024235 226331.000000 0 0 1
-9.954151 8.810181 -24.590078 27.953110 -0.724508 2.646007 0.108039 -0.018966 196890.000000 0 0 1
-9.733251 8.366781 -25.873858 28.882447 -0.710046 2.681099 0.081591 -0.023291 -122260.000000 0 0 1
-9.466051 9.451681 -26.915008 30.055916 -0.784639 2.680345 0.127303 -0.031096 -381192.000000 0 0 1
-8.139551 9.879281 -27.112058 29.981931 -0.881650 2.700486 0.112503 -0.034141 -98788.900000 0 0 1
-7.859151 11.104981 -26.446188 29.740338 -0.954912 2.666469 0.081829 -0.027457 -132844.000000 0 0 1
-6.423251 11.650981 -26.550688 29.697518 -1.066951 2.677074 0.065552 -0.031297 -297881.000000 0 0 1
-6.098251 12.218781 -27.813858 30.985448 -1.107878 2.685187 0.070364 -0.045111 323267.000000 0 0 1
-4.716751 12.518981 -27.816438 30.866274 -1.210477 2.693308 0.083436 -0.042255 -25313.300000 0 0 1
-4.091651 12.795681 -29.198938 32.141081 -1.261304 2.710385 0.088500 -0.039514 -194996.000000 0 0 1
-2.695851 12.925281 -29.150358 32.001155 -1.365172 2.716295 0.110946 -0.051328 -229609.000000 0 0 1
-2.077551 12.828081 -30.427898 33.086748 -1.410237 2.737959 0.120020 -0.046213 877288.000000 0 0 1
-0.548751 12.530981 -30.231838 32.730577 -1.527033 2.748313 0.134034 -0.053806 245632.000000 0 0 1
-0.296351 11.198981 -29.726518 31.767450 -1.544340 2.781187 0.107235 -0.036747 302123.000000 0 0 1
1.036249 10.724681 -29.854478 31.739289 1.474473 2.795236 0.121399 -0.043118 383776.000000 0 0 1
1.575849 10.407781 -31.254098 32.979143 1.420527 2.816725 0.131848 -0.047586 -420419.000000 0 0 1
1.849149 11.547581 -32.058918 34.125360 1.412011 2.791805 0.136374 -0.048608 140172.000000 0 0 1
1.817249 11.090981 -33.381818 35.222976 1.408390 2.816836 0.148263 -0.042759 -14357.600000 0 0 1
2.270349 12.117181 33.402354 35.604745 1.385578 0.353568 0.137045 -0.043556 -557141.000000 0 0 1
3.664449 12.246581 33.385878 35.749459 1.280053 0.365669 0.133415 -0.044041 -517841.000000 0 0 1
4.018749 12.950881 32.220129 34.957294 1.269911 0.398357 0.109957 -0.039479 1147740.000000 0 0 1
5.564949 13.043581 31.883809 34.895286 1.167535 0.418500 0.095404 -0.036334 1058100.000000 0 0 1
6.022149 11.796981 31.324125 34.009350 1.098798 0.400042 0.113029 -0.040457 -726543.000000 0 0 1
7.346549 11.938781 30.939825 33.967324 1.019165 0.425408 0.096811 -0.027342 -656336.000000 0 0 1
7.876849 10.684781 30.224885 33.011407 0.935536 0.413826 0.068338 -0.016531 -158102.000000 0 0 1
7.259749 10.518281 28.978705 31.671810 0.966676 0.415367 0.069204 -0.024454 137095.000000 0 0 1
7.970249 9.622281 28.120405 30.771259 0.879029 0.418122 0.081599 -0.030212 516201.000000 0 0 1
7.021749 8.727381 27.239375 29.452601 0.893278 0.390143 0.062466 -0.014804 362464.000000 0 0 1
6.436849 7.720881 28.025565 29.773770 0.875845 0.344384 0.059904 -0.014091 -283480.000000 0 0 1
5.665349 6.826481 27.264415 28.671334 0.878083 0.314570 0.072331 -0.016938 -311621.000000 0 0 1
5.146749 5.625081 28.064085 29.081325 0.829775 0.265273 0.081398 -0.034726 22514.900000 0 0 1
6.106449 4.643381 28.438985 29.455485 0.650128 0.263477 0.063448 -0.035504 216782.000000 0 0 1
5.606549 3.960881 29.595305 30.380982 0.615058 0.227917 0.077614 -0.039564 -12528.500000 0 0 1
6.543749 2.902281 30.179635 31.017000 0.417452 0.232892 0.106283 -0.028171 -50230.100000 0 0 1
6.389549 1.664081 29.467005 30.197681 0.254778 0.220430 0.102249 -0.023221 128813.000000 0 0 1
7.357149 1.437081 28.427245 29.398999 0.192902 0.257828 0.098643 -0.022840 202277.000000 0 0 1
7.462049 0.006081 27.944555 28.923699 0.000815 0.260942 0.103383 -0.024124 -46843.200000 0 0 1
7.957949 -0.912119 28.890265 29.980133 -0.114119 0.270464 0.084418 -0.032045 -51064.400000 0 0 1
8.035549 -2.216319 28.407645 29.605345 -0.269123 0.285416 0.109210 -0.033265 -249456.000000 0 0 1
8.858249 -3.050319 29.443315 30.897926 -0.331631 0.308065 0.084522 -0.019921 -503575.000000 0 0 1
10.192949 -2.680119 29.525515 31.350204 -0.257119 0.342861 0.071438 -0.017201 -801267.000000 0 0 1
11.034349 -3.548019 28.772295 31.019192 -0.311102 0.382956 0.094818 -0.018590 621686.000000 0 0 1
12.569949 -3.327019 29.092135 31.865734 -0.258747 0.420317 0.075212 -0.017677 1279280.000000 0 0 1
13.436949 -4.282719 28.496365 31.795222 -0.308548 0.459562 0.087930 -0.025283 84929.800000 0 0 1
13.589949 -5.489519 29.231135 32.699859 -0.383898 0.464775 0.101179 -0.023974 -376493.000000 0 0 1
12.931949 -6.778019 28.665965 32.170086 -0.482765 0.471088 0.112407 -0.024116 -502577.000000 0 0 1
11.535849 -6.766919 28.651185 31.618941 -0.530508 0.436729 0.118691 -0.017847 -806100.000000 0 0 1
10.956049 -8.028019 28.397325 31.478440 -0.632368 0.446139 0.139032 -0.024200 138988.000000 0 0 1
9.452849 -7.781019 28.150275 30.697534 -0.688692 0.410251 0.146951 -0.028314 277209.000000 0 0 1
8.728749 -7.367719 29.324025 31.470189 -0.701044 0.371447 0.159276 -0.026677 118880.000000 0 0 1
7.338049 -7.277619 29.088425 30.869843 -0.781264 0.341383 0.154952 -0.030075 297876.000000 0 0 1
6.465349 -6.789419 30.258855 31.677994 -0.809843 0.300458 0.130038 -0.029386 37037.300000 0 0 1
6.202449 -7.695619 31.310195 32.833234 -0.892425 0.305778 0.127537 -0.029383 -404767.000000 0 0 1
5.495949 -7.179219 32.403357 33.641109 -0.917426 0.272105 0.129242 -0.026059 -338238.000000 0 0 1
6.049149 -6.125219 33.409144 34.500456 -0.791646 0.252190 0.119858 -0.014173 -498692.000000 0 0 1
6.314649 -4.936519 32.692413 33.660628 -0.663518 0.240429 0.125731 -0.015194 -94268.100000 0 0 1
6.895649 -3.919119 33.489865 34.416283 -0.516820 0.232550 0.093134 -0.005061 110898.000000 0 0 1
7.116849 -2.653219 32.600428 33.473528 -0.356848 0.228899 0.087101 -0.018873 -504665.000000 0 0 1
5.874749 -2.178319 32.197932 32.801899 -0.355078 0.192194 0.109511 -0.031365 -292796.000000 0 0 1
6.087949 -0.928219 31.559085 32.154325 -0.151303 0.192714 0.100546 -0.024141 -393372.000000 0 0 1
4.800449 -0.425019 30.917435 31.290778 -0.088307 0.154630 0.125394 -0.041229 -973219.000000 0 0 1
3.913149 0.018381 31.859474 32.098897 0.004697 0.122215 0.113453 -0.035327 -1470420.000000 0 0 1
2.768649 0.557481 31.312535 31.439642 0.198698 0.089951 0.123870 -0.042999 -971812.000000 0 0 1
1.619049 0.815281 32.264202 32.315086 0.466488 0.056125 0.113051 -0.041710 -366646.000000 0 0 1
1.783649 1.984881 33.070776 33.178267 0.838746 0.080518 0.100999 -0.029381 58323.100000 0 0 1
0.850549 1.887081 -33.739898 33.803332 1.147342 3.080321 0.078161 -0.033304 150267.000000 0 0 1
0.971049 2.982881 -32.674508 32.824747 1.256076 3.045880 0.079039 -0.028218 -1303190.000000 0 0 1
2.154549 2.925681 -32.021708 32.227186 0.936039 3.028609 0.049614 -0.010351 -1378460.000000 0 0 1
2.447949 4.016981 -31.119618 31.473151 1.023494 2.991566 0.049383 -0.014232 191954.000000 0 0 1
3.621849 3.671081 -30.162268 30.599952 0.792149 2.972255 0.053212 -0.008954 223265.000000 0 0 1
3.155549 2.877681 -29.054098 29.366293 0.739374 2.995648 0.052262 -0.009920 197962.000000 0 0 1
3.997849 2.939681 -27.902178 28.340008 0.634037 2.965586 0.074458 -0.014732 -157446.000000 0 0 1
3.479449 2.136481 -26.673578 26.984271 0.550671 2.989698 0.040611 -0.017721 -182406.000000 0 0 1
3.775449 0.773281 -26.785098 27.060921 0.202024 2.998694 0.070685 -0.017200 92819.400000 0 0 1
3.195649 -0.031719 -25.765678 25.963115 -0.009925 3.018189 0.062012 -0.014600 -318125.000000 0 0 1
3.677049 -1.484819 -25.595418 25.900788 -0.383784 2.987884 0.072096 -0.023367 660253.000000 0 0 1
5.037949 -1.537219 -25.133388 25.679392 -0.296155 2.935010 0.083458 -0.031735 693198.000000 0 0 1
5.310049 -2.912119 -25.009878 25.732685 -0.501627 2.904015 0.089007 -0.030218 33516.500000 0 0 1
6.738949 -3.209619 -24.457078 25.570760 -0.444491 2.845374 0.106385 -0.040317 732230.000000 0 0 1
7.769849 -2.937019 -25.404378 26.727871 -0.361400 2.825582 0.130297 -0.038926 -1258430.000000 0 0 1
8.955149 -3.412119 -24.917478 26.696778 -0.364041 2.774435 0.109754 -0.033712 -980158.000000 0 0 1
-30.274481 -3.821719 17.805335 35.329587 0.125571 1.042598 0.152002 -0.016805 944753.000000 0 0 1
-31.655701 -3.727519 18.219035 36.713908 0.117212 1.051530 0.142625 -0.001129 718505.000000 0 0 1
-32.145571 -5.061319 18.333635 37.350728 0.156168 1.057730 0.133990 -0.020095 -319851.000000 0 0 1
-33.597191 -5.301319 18.740635 38.834091 0.156500 1.067196 0.122639 -0.018477 391972.000000 0 0 1
-34.540556 -4.863019 17.716835 39.122694 0.139872 1.100833 0.112050 -0.017052 790698.000000 0 0 1
-35.873861 -4.943719 18.169735 40.515596 0.136946 1.105752 0.107331 -0.014053 421477.000000 0 0 1
-36.998431 -4.539319 17.147435 41.030767 0.122079 1.139646 0.078134 -0.011015 630511.000000 0 0 1
36.312575 -4.961619 17.572135 40.644811 -0.135795 1.123717 0.075071 -0.011072 -529986.000000 0 0 1
35.408485 -4.604019 16.604535 39.378527 -0.129300 1.135516 0.060098 -0.015055 -68469.000000 0 0 1
33.938165 -5.050819 16.866935 38.233536 -0.147740 1.113910 0.053126 -0.007012 417252.000000 0 0 1
33.272355 -4.385719 17.911335 38.040768 -0.131057 1.080547 0.064138 -0.014474 -92180.200000 0 0 1
32.041195 -5.010019 18.182535 37.179874 -0.155106 1.059805 0.092231 -0.009362 -216858.000000 0 0 1
31.511245 -4.620119 19.570935 37.380818 -0.145581 1.019777 0.077660 0.000445 -409427.000000 0 0 1
30.734895 -3.448019 19.730035 36.685104 -0.111719 1.002945 0.074006 0.000205 -113521.000000 0 0 1
31.283825 -2.217019 19.355235 36.854009 -0.070750 1.017862 0.071957 0.001396 -349609.000000 0 0 1
30.270895 -1.115919 19.738535 36.154974 -0.036848 0.993283 0.081400 0.004824 332567.000000 0 0 1
30.597945 0.165381 19.210735 36.129129 0.005405 1.010161 0.082052 0.005473 479997.000000 0 0 1
29.526925 1.077681 19.506635 35.404936 0.036482 0.987284 0.072355 0.005517 643074.000000 0 0 1
29.719545 2.551081 18.944535 35.336310 0.085629 1.004961 0.085222 -0.000306 -50714.000000 0 0 1
29.648285 2.557781 17.524135 34.534886 0.086058 1.038593 0.087831 0.001473 113952.000000 0 0 1
29.589815 3.825081 16.971935 34.325428 0.128557 1.053603 0.089773 -0.000588 -6445.660000 0 0 1
29.291025 3.735581 15.519035 33.358045 0.126849 1.086906 0.100854 -0.010600 -101483.000000 0 0 1
28.890925 4.936381 14.935535 32.895647 0.169229 1.099516 0.119573 -0.007362 354533.000000 0 0 1
28.413525 4.631781 13.622035 31.848731 0.161592 1.128838 0.125923 -0.018122 36315.700000 0 0 1
27.717425 5.815881 12.840335 31.095889 0.206827 1.145131 0.138776 -0.020226 1415330.000000 0 0 1
26.488225 6.346381 13.446235 30.376041 0.235160 1.112234 0.118595 -0.018998 1355010.000000 0 0 1
26.018525 7.465881 12.747335 29.919853 0.279437 1.130675 0.140886 -0.035739 -1035380.000000 0 0 1
24.765925 8.153381 13.318635 29.278229 0.318042 1.098538 0.140053 -0.034912 110398.000000 0 0 1
23.531525 7.518081 13.021735 27.925254 0.309240 1.085685 0.132262 -0.023633 550702.000000 0 0 1
23.393825 6.191381 13.670235 27.793517 0.258727 1.056583 0.135875 -0.021566 -2313370.000000 0 0 1
21.960525 5.738381 13.710135 26.517192 0.255589 1.027421 0.138333 -0.025037 -860547.000000 0 0 1
21.349425 5.787581 12.383235 25.350317 0.264726 1.060444 0.147320 -0.027403 906753.000000 0 0 1
20.284325 4.861981 12.226635 24.178158 0.235253 1.040616 0.121337 -0.026141 -49942.200000 0 1 0
19.933925 4.775681 10.708835 23.126773 0.235144 1.089364 0.122451 -0.029615 -38161.700000 0 1 0
20.964725 4.149281 9.942735 23.571046 0.195392 1.135345 0.151156 -0.032613 858965.000000 0 1 0
20.568925 3.769981 8.639235 22.625866 0.181273 1.179021 0.153795 -0.037215 -177867.000000 0 1 0
21.759525 3.093481 7.948535 23.371473 0.141220 1.223778 0.157792 -0.031726 -887972.000000 0 1 0
22.172225 1.894481 8.516635 23.827079 0.085237 1.205276 0.159865 -0.030079 636384.000000 0 1 0
22.970525 1.111081 7.607735 24.223071 0.048332 1.251320 0.157998 -0.020768 -223390.000000 0 1 0
24.441325 1.530681 7.368735 25.573807 0.062545 1.278517 0.167389 -0.030125 46599.000000 0 0 1
25.428425 1.065881 8.316635 26.775125 0.041892 1.254961 0.174695 -0.024810 986813.000000 0 0 1
25.261725 1.643581 9.644435 27.090058 0.064971 1.206798 0.167136 -0.035353 -1238440.000000 0 0 1
26.042425 0.868281 10.659035 28.152741 0.033329 1.182497 0.128002 -0.024356 -910246.000000 0 0 1
27.387625 1.222981 10.538435 29.370671 0.044625 1.203806 0.148256 -0.036794 -344922.000000 0 0 1
28.233125 0.386181 11.321535 30.420974 0.013677 1.189459 0.132593 -0.023716 -875085.000000 0 0 1
29.689495 0.547281 10.933935 31.643586 0.018431 1.217989 0.150639 -0.020027 -624349.000000 0 0 1
30.187565 1.808481 11.462835 32.341247 0.059837 1.208488 0.140277 -0.011874 -1112980.000000 0 0 1
31.375375 1.618681 12.092735 33.664054 0.051545 1.203366 0.117398 -0.029380 -1368460.000000 0 0 1
32.073285 2.932381 12.536135 34.560804 0.091174 1.199604 0.105071 -0.031845 -232630.000000 0 0 1
32.891725 3.518181 11.561035 35.041414 0.106557 1.234572 0.111303 -0.045914 76657.500000 0 0 1
33.546905 4.656981 12.063735 35.952969 0.137938 1.228616 0.102433 -0.037847 -345315.000000 0 0 1
35.017425 4.811081 11.658235 37.219363 0.136536 1.252204 0.095739 -0.032218 -383941.000000 0 0 1
35.854355 3.834781 12.271535 38.089774 0.106549 1.242771 0.094835 -0.046470 -167478.000000 0 0 1
37.186575 4.077081 11.913435 39.260589 0.109202 1.262490 0.101473 -0.039201 -743971.000000 0 0 1
-36.485891 3.168681 12.708335 38.765482 -0.086629 1.236795 0.128491 -0.029799 -1148940.000000 0 0 1
-36.284931 1.838481 12.271535 38.347970 -0.050625 1.245062 0.120282 -0.032733 242796.000000 0 0 1
37.249135 0.900381 12.384535 39.264302 0.024167 1.249903 0.115231 -0.035825 -448716.000000 0 0 1
36.774665 0.662381 13.821535 39.291851 0.018010 1.211339 0.114373 -0.024829 -636008.000000 0 0 1
-36.955481 -0.099419 14.616135 39.741022 0.002690 1.194171 0.108105 -0.026436 36581.300000 0 0 1
-37.296811 -0.021519 15.971035 40.572485 0.000577 1.166206 0.110955 -0.030427 -398777.000000 0 0 1
-36.546171 -0.984919 16.889135 40.272020 0.026943 1.138038 0.116420 -0.024671 -311098.000000 0 0 1
-35.181707 -0.621819 16.930235 39.048329 0.017673 1.122344 0.129400 -0.027466 201783.000000 0 0 1
-34.332017 -1.435919 17.754235 38.677670 0.041800 1.093893 0.120444 -0.013163 313700.000000 0 0 1
-34.447148 -1.200119 19.298735 39.503006 0.034825 1.060382 0.113274 -0.014717 -548530.000000 0 0 1
-35.589722 -1.795819 19.848135 40.789726 0.050416 1.062607 0.111918 -0.022727 -206625.000000 0 0 1
-35.577273 -1.601419 21.235935 41.464103 0.044982 1.033108 0.103225 -0.024170 165663.000000 0 0 1
-36.013430 -2.871219 21.960735 42.278658 0.079558 1.024614 0.085437 -0.022092 -144081.000000 0 0 1
-35.061656 -3.906719 21.786635 41.463715 0.110967 1.017566 0.108521 -0.025763 -46875.200000 0 0 1
-35.293717 -5.144019 22.444835 42.141168 0.144730 1.009114 0.102262 -0.027807 -8107.270000 0 0 1
-35.403953 -5.086719 24.013515 43.080895 0.142700 0.979539 0.093157 -0.033462 910687.000000 0 0 1
-34.174768 -4.667719 24.617715 42.376105 0.135744 0.950921 0.106173 -0.035135 210198.000000 0 0 1
-34.438325 -4.699219 26.005565 43.409334 0.135616 0.928448 0.108445 -0.037389 326640.000000 0 0 1
-33.256121 -4.091819 26.809615 42.912330 0.122424 0.895981 0.097351 -0.036133 192848.000000 0 0 1
-33.112081 -2.703419 26.806615 42.688558 0.081464 0.891870 0.087152 -0.028186 -256821.000000 0 0 1
-32.713841 -2.142619 25.575425 41.579906 0.065402 0.908295 0.083588 -0.028262 -337974.000000 0 0 1
-32.722571 -0.635619 25.647225 41.580655 0.019422 0.906117 0.085721 -0.030579 -383859.000000 0 0 1
-33.986451 -0.063319 25.497575 42.487754 0.001863 0.927150 0.087887 -0.030198 -849110.000000 0 0 1
-33.875121 1.268581 25.106885 42.183988 -0.037431 0.933312 0.075814 -0.013317 -141902.000000 0 0 1
-35.162401 1.922781 24.577225 42.943353 -0.054628 0.961467 0.077276 -0.012515 176083.000000 0 0 1
-35.802992 1.275881 23.456345 42.821516 -0.035621 0.991100 0.084812 -0.005100 -36652.900000 0 0 1
-36.781831 2.116581 22.844335 43.350279 -0.057481 1.015764 0.076539 -0.000528 126394.000000 0 0 1
-36.374151 3.393081 22.093835 42.693435 -0.093014 1.026870 0.079687 0.001055 -465227.000000 0 0 1
-35.857487 3.029081 20.848935 41.588614 -0.084275 1.045680 0.079687 -0.016550 102681.000000 0 0 1
-36.764381 3.309681 19.762835 41.870555 -0.089782 1.079240 0.098247 -0.018415 239579.000000 0 0 1
-36.265281 2.775981 18.409935 40.765211 -0.076398 1.102228 0.112820 -0.017791 11575.600000 0 0 1
-35.201752 3.462981 17.790735 39.593760 -0.098060 1.104779 0.124330 -0.024250 18902.700000 0 0 1
-34.832136 2.745381 16.632135 38.696805 -0.078655 1.126518 0.147386 -0.019861 -91071.600000 0 0 1
-33.767551 3.407581 15.738335 37.410618 -0.100572 1.136589 0.141963 -0.024188 -32089.000000 0 0 1
-34.253299 4.566881 15.122535 37.720498 -0.132545 1.158286 0.148269 -0.027420 121420.000000 0 0 1
-33.285331 5.179081 14.314835 36.601238 -0.154359 1.168967 0.164355 -0.026948 -198891.000000 0 0 1
-33.907761 6.468781 13.748535 37.156475 -0.188511 1.191769 0.179469 -0.035901 45139.400000 0 0 1
-33.149561 7.008381 12.707335 36.186837 -0.208349 1.211988 0.190538 -0.029297 88717.400000 0 0 1
-33.390431 8.409781 12.642935 36.680909 -0.246730 1.218905 0.181755 -0.033361 220683.000000 0 0 1
-32.542171 9.120381 11.529735 35.708669 -0.273253 1.242022 0.200825 -0.032433 369007.000000 0 0 1
-32.935371 10.481481 11.440335 36.407161 -0.308109 1.251148 0.174480 -0.015860 458508.000000 0 0 1
-32.211801 11.181581 10.398235 35.647597 -0.334113 1.274798 0.179185 -0.027334 177506.000000 0 0 1
-32.449771 12.695981 10.223235 36.313773 -0.372941 1.285413 0.155800 -0.021551 -321157.000000 0 0 1
-31.729781 13.205981 9.150735 35.565614 -0.394395 1.310578 0.167032 -0.024473 -97543.600000 0 0 1
-31.511471 14.565881 9.438935 35.975425 -0.432986 1.305317 0.134066 -0.024837 123993.000000 0 0 1
-30.748611 15.416981 8.376535 35.402355 -0.464757 1.331921 0.141058 -0.029544 -903984.000000 0 0 1
-29.377991 15.295481 8.370735 34.162660 -0.480026 1.323250 0.167105 -0.022130 -1366660.000000 0 0 1
-28.808081 16.356681 7.715035 34.014237 -0.516392 1.341987 0.143880 -0.040247 221640.000000 0 0 1
-27.300881 16.565681 8.080835 32.940246 -0.545391 1.322949 0.144595 -0.027886 305703.000000 0 0 1
-26.990461 16.979281 9.388635 33.240449 -0.561531 1.284453 0.123557 -0.027900 116469.000000 0 0 1
-27.470211 18.259281 9.716435 34.386378 -0.586636 1.284328 0.124223 -0.042742 -542346.000000 0 0 1
-27.321281 18.645581 11.220835 34.928745 -0.598854 1.243748 0.137474 -0.033035 -126354.000000 0 0 1
-26.054431 18.454581 11.815535 34.044263 -0.616281 1.216358 0.123861 -0.033580 -11820.000000 0 0 1
-25.968111 18.815581 13.185035 34.672958 -0.627023 1.180710 0.120744 -0.039363 -171183.000000 0 0 1
-26.550271 17.875981 14.235435 35.030204 -0.592573 1.152312 0.108531 -0.030803 104244.000000 0 0 1
-25.667761 16.779781 14.425435 33.889352 -0.578993 1.131102 0.105715 -0.032975 393114.000000 0 0 1
-26.094551 16.149481 15.612435 34.430793 -0.554189 1.100171 0.088308 -0.030376 105987.000000 0 0 1
-25.056831 15.075781 16.046135 33.355696 -0.541642 1.068931 0.092870 -0.020858 649848.000000 0 0 1
-23.887451 15.612681 16.690935 33.059847 -0.578897 1.041565 0.089189 -0.021596 476203.000000 0 0 1
-22.845051 14.684081 16.894235 31.983336 -0.571275 1.014294 0.070040 -0.028537 95946.800000 0 0 1
-23.071551 13.632981 17.989735 32.276698 -0.533702 0.979594 0.097845 -0.026618 -662552.000000 0 0 1
-23.184551 14.056081 19.368435 33.320161 -0.545017 0.950492 0.102630 -0.023213 160964.000000 0 0 1
-23.304951 12.947081 20.219035 33.459783 -0.507095 0.921936 0.110726 -0.028379 -458472.000000 0 0 1
-22.750451 13.344481 21.576835 34.076649 -0.530478 0.885135 0.105357 -0.020274 -310039.000000 0 0 1
-21.364151 13.546881 21.603735 33.266595 -0.565112 0.863985 0.107826 -0.020006 -277872.000000 0 0 1
-20.934051 14.918881 21.540135 33.537814 -0.619173 0.873348 0.105417 0.000611 -235282.000000 0 0 1
-19.586551 15.168381 22.255335 33.301843 -0.658953 0.838887 0.095314 -0.009792 411642.000000 0 0 1
-18.434251 14.705881 21.583135 31.967425 -0.673366 0.829614 0.068520 -0.011287 340003.000000 0 0 1
-17.839351 15.647881 20.613635 31.432795 -0.720049 0.855554 0.064244 -0.022942 -447125.000000 0 0 1
-16.607451 15.008081 19.919235 29.963743 -0.734853 0.843600 0.063273 -0.009356 1424600.000000 0 0 1
-15.499051 14.635381 20.814435 29.793551 -0.756745 0.797326 0.045095 -0.000368 1138380.000000 0 0 1
-14.723551 15.656381 21.385135 30.318794 -0.816094 0.787890 0.042100 -0.000350 -798385.000000 0 0 1
-13.572251 15.256081 22.311335 30.244829 -0.843741 0.741153 0.006993 -0.003117 145838.000000 0 0 1
-12.446351 14.765681 21.580735 28.959716 -0.870424 0.729964 0.021108 -0.002052 -149880.000000 0 0 1
-11.402751 14.498881 22.481535 29.080229 -0.904368 0.687103 0.023556 -0.006469 48582.700000 0 0 1
-10.207751 13.720481 21.855135 27.750617 -0.931160 0.663965 0.048174 -0.009785 -601064.000000 0 0 1
-9.562551 12.956481 22.887185 27.984568 -0.934986 0.613131 0.047437 -0.018990 1306.720000 0 0 1
-8.369751 12.316181 22.513035 26.992181 -0.973911 0.584374 0.061396 -0.002147 1017920.000000 0 0 1
-7.119451 13.291581 22.313935 26.930734 -1.079048 0.594252 0.074187 -0.005060 -410449.000000 0 0 1
-7.117451 14.227581 21.170835 26.481814 -1.106943 0.644420 0.059150 -0.001306 -504068.000000 0 0 1
-6.429251 15.416981 21.379635 27.131299 -1.175701 0.663232 0.054904 -0.003061 -1207630.000000 0 0 1
-7.138251 16.457181 22.245235 28.576983 -1.161540 0.678632 0.060450 -0.004099 574551.000000 0 0 1
-8.320551 17.032781 21.672635 28.793234 -1.116389 0.718644 0.029846 -0.010902 193741.000000 0 0 1
-7.985851 17.810281 20.551135 28.343061 -1.149287 0.759638 0.020482 -0.005018 -1245890.000000 0 0 1
-9.159951 18.000781 19.565035 28.119805 -1.100083 0.801299 0.023835 0.002449 1194660.000000 0 0 1
-10.275351 18.809681 20.024235 29.331842 -1.070814 0.819374 0.001785 0.008101 450018.000000 0 0 1
-11.150151 18.116781 20.898635 29.821076 -1.019087 0.794277 0.010904 0.000950 -885678.000000 0 0 1
-12.477551 18.885781 20.995235 30.873321 -0.986946 0.822973 0.001412 0.001579 -62886.000000 0 0 1
-13.100951 19.025381 19.718235 30.371185 -0.967760 0.864209 0.003889 0.004062 -91546.900000 0 0 1
-14.323351 19.726181 19.763035 31.382450 -0.942762 0.889568 -0.010778 -0.005903 -236992.000000 0 0 1
-15.104351 19.777881 18.480435 30.997298 -0.918585 0.932043 0.016246 -0.003008 -565763.000000 0 0 1
-15.872551 18.605181 18.313635 30.552903 -0.864491 0.928036 0.043397 -0.005594 548825.000000 0 0 1
-16.728651 18.684481 17.139235 30.376158 -0.840571 0.971292 0.063403 -0.014759 284347.000000 0 0 1
-17.389851 17.314581 16.738735 29.704998 -0.783229 0.972181 0.071202 -0.023339 184927.000000 0 0 1
-18.336051 16.787181 17.625935 30.474478 -0.741329 0.954051 0.071203 -0.025138 -282816.000000 0 0 1
-19.668751 17.191981 17.427935 31.403136 -0.718306 0.982464 0.077610 -0.026619 -127908.000000 0 0 1
34.955665 -9.632519 11.761222 38.118372 -0.268890 1.257134 0.099835 -0.032341 -754256.000000 0 0 1
33.748445 -10.189819 11.389822 37.047510 -0.293231 1.258297 0.096897 -0.030847 -792450.000000 0 0 1
33.301465 -11.311019 12.132422 37.203795 -0.327429 1.238614 0.121779 -0.029943 -21440.600000 0 0 1
31.789685 -11.609019 12.128322 35.950654 -0.350135 1.226685 0.120871 -0.029995 -390335.000000 0 0 1
30.994985 -10.551619 12.613622 35.087451 -0.328124 1.203074 0.120514 -0.031319 1785240.000000 0 0 1
29.563775 -10.782319 12.789522 33.968324 -0.349722 1.184767 0.115071 -0.034460 1819530.000000 0 0 1
29.122125 -11.822319 13.894822 34.364683 -0.385631 1.154545 0.087247 -0.024394 -1145320.000000 0 0 1
29.226125 -11.304219 15.222222 34.837735 -0.369062 1.118595 0.093949 -0.026046 418578.000000 0 0 1
28.289225 -11.888719 16.121022 34.662793 -0.397846 1.087070 0.091350 -0.029250 1747260.000000 0 0 1
26.745725 -11.560619 15.911722 33.198864 -0.407988 1.070956 0.083773 -0.037778 1011760.000000 0 0 1
26.333925 -10.241119 16.271522 32.605498 -0.370896 1.048303 0.089616 -0.028268 33170.800000 0 0 1
25.990925 -9.477919 15.084822 31.510490 -0.349677 1.071596 0.093751 -0.029922 21842.800000 0 0 1
25.884925 -7.926919 15.335322 31.113300 -0.297169 1.055392 0.116005 -0.030647 -171704.000000 0 0 1
27.080825 -7.177819 15.372922 31.956515 -0.259094 1.068936 0.102087 -0.019836 -228328.000000 0 0 1
26.966825 -5.828119 15.631922 31.710150 -0.212848 1.055305 0.084359 -0.010437 -416875.000000 0 0 1
28.273925 -5.050319 15.476622 32.625854 -0.176757 1.076552 0.095924 -0.008849 -358634.000000 0 0 1
28.604825 -4.714919 14.165822 32.266654 -0.163361 1.116285 0.110637 -0.014051 396387.000000 0 0 1
29.790875 -3.930419 14.142422 33.210729 -0.131176 1.130907 0.112096 -0.009941 143212.000000 0 0 1
30.107705 -3.344619 12.766122 32.873001 -0.110635 1.171960 0.125437 -0.024490 -7081.500000 0 0 1
30.624895 -4.195119 11.757722 33.071547 -0.136137 1.207322 0.114068 -0.035947 265589.000000 0 0 1
30.760905 -3.469319 10.563122 32.708546 -0.112309 1.241955 0.131916 -0.045970 -209245.000000 0 0 1
31.313965 -4.397819 9.477922 33.011153 -0.139530 1.279585 0.149300 -0.036900 612545.000000 0 0 1
32.630225 -4.833019 9.884522 34.435351 -0.147046 1.279655 0.149019 -0.048225 902130.000000 0 0 1
33.181745 -5.625619 8.841722 34.797296 -0.167943 1.313887 0.146118 -0.045890 -551054.000000 0 0 1
34.570725 -6.197819 9.083822 36.277593 -0.177395 1.317705 0.131023 -0.038235 -203177.000000 0 0 1
35.613495 -5.231319 9.031322 37.111352 -0.145848 1.324971 0.136775 -0.044825 -784694.000000 0 0 1
36.832805 -5.853719 8.906522 38.343809 -0.157609 1.336375 0.143822 -0.041858 -656708.000000 0 0 1
-36.588931 -4.888619 8.627622 37.908895 0.132823 1.341196 0.142190 -0.046805 12100.400000 0 0 1
-36.530131 -4.470919 7.276222 37.515103 0.121784 1.375605 0.141739 -0.039652 -322769.000000 0 0 1
-35.321026 -3.816719 7.046722 36.218759 0.107640 1.374987 0.124373 -0.033719 -688340.000000 0 0 1
-35.209665 -3.278719 5.600922 35.802805 0.092852 1.413713 0.144917 -0.036708 -483120.000000 0 0 1
-34.949725 -4.148319 4.544022 35.487180 0.118141 1.442397 0.147572 -0.043599 83136.200000 0 0 1
-35.220161 -3.512819 3.325422 35.550781 0.099410 1.477119 0.158227 -0.039161 -11669.900000 0 0 1
-34.658747 -4.244819 2.086822 34.980024 0.121868 1.511103 0.183686 -0.044591 -272790.000000 0 0 1
-35.241237 -5.496119 1.768322 35.711050 0.154711 1.521259 0.159748 -0.032270 -740607.000000 0 0 1
-36.310411 -5.447719 0.910122 36.728081 0.148921 1.546014 0.142802 -0.027820 -930731.000000 0 0 1
-35.904658 -5.517019 -0.581678 36.330707 0.152465 1.586808 0.185398 -0.029367 -1460900.000000 0 0 1
-35.462951 -6.754419 -1.100478 36.117227 0.188210 1.601271 0.170627 -0.032267 283538.000000 0 0 1
-34.482228 -6.619519 -2.090878 35.174051 0.189662 1.630275 0.162486 -0.030923 -126303.000000 0 0 1
-33.109501 -6.012419 -1.688678 33.693321 0.179634 1.620936 0.171093 -0.042899 -712018.000000 0 0 1
-32.401621 -6.916719 -0.841978 33.142344 0.210312 1.596204 0.164204 -0.037484 -151480.000000 0 0 1
-31.191631 -6.404719 -0.367878 31.844522 0.202520 1.582349 0.183323 -0.053144 -270420.000000 0 0 1
-30.331391 -7.289619 0.557022 31.200033 0.235859 1.552942 0.161176 -0.044137 -31099.900000 0 0 1
-29.791661 -8.457319 -0.079478 30.968946 0.276605 1.573363 0.160525 -0.041299 395218.000000 0 0 1
-29.084631 -9.267419 0.799922 30.535892 0.308465 1.544597 0.154027 -0.032479 -379634.000000 0 0 1
-28.557511 -10.590219 0.133522 30.458201 0.355117 1.566413 0.123962 -0.024047 -340483.000000 0 0 1
-27.527641 -10.423519 -0.786978 29.445544 0.361972 1.597526 0.139667 -0.037408 -61064.500000 0 0 1
-26.995181 -11.609419 -1.379978 29.418068 0.406145 1.617723 0.121787 -0.016620 305998.000000 0 0 1
-27.977521 -12.541219 -2.238578 30.741423 0.421406 1.643680 0.114713 -0.021276 248494.000000 0 0 1
-28.797991 -13.389719 -1.475578 31.792864 0.435219 1.617225 0.129525 -0.023652 -205778.000000 0 0 1
-29.340121 -14.389719 -2.207978 32.753349 0.455975 1.638260 0.118449 -0.023077 -94362.900000 0 0 1
-30.322981 -15.319519 -1.447278 34.003903 0.467808 1.613371 0.140215 -0.019121 662896.000000 0 0 1
-29.533251 -16.008819 -0.453578 33.596144 0.496727 1.584298 0.119593 -0.007060 1155870.000000 0 0 1
-30.346011 -16.748819 0.484622 34.664653 0.504322 1.556816 0.108440 -0.002264 661404.000000 0 0 1
-30.898531 -18.201219 0.076322 35.860973 0.532340 1.568668 0.119723 -0.012771 348532.000000 0 0 1
-29.930941 -19.242119 0.074522 35.582663 0.571356 1.568702 0.132389 -0.018941 215668.000000 0 0 1
-30.488061 -20.537519 -0.053478 36.760228 0.592804 1.572251 0.124221 -0.017205 690498.000000 0 0 1
-31.479061 -21.085119 1.064322 37.903117 0.590178 1.542713 0.122598 -0.016272 553304.000000 0 0 1
-30.814041 -21.351219 2.308122 37.559381 0.605949 1.509305 0.116286 -0.018547 633734.000000 0 0 1
-31.763441 -21.774219 3.303722 38.651615 0.600936 1.485218 0.104935 -0.023462 513669.000000 0 0 1
-31.119401 -22.012219 4.681922 38.404105 0.615640 1.448580 0.101567 -0.022388 61162.100000 0 0 1
-30.588841 -20.830519 5.221622 37.374497 0.597849 1.430627 0.097128 -0.025773 239625.000000 0 0 1
-29.856071 -21.077719 6.428722 37.107730 0.614727 1.396673 0.087286 -0.027757 286535.000000 0 0 1
-29.583551 -19.778319 7.169222 36.301048 0.589311 1.371996 0.095696 -0.023457 20983.500000 0 0 1
-28.759371 -19.843019 8.312022 35.915686 0.603961 1.337247 0.091569 -0.032308 -250737.000000 0 0 1
-28.356551 -18.564019 8.693022 34.989790 0.579647 1.319722 0.120413 -0.038188 361608.000000 0 0 1
-27.180971 -18.637919 9.732622 34.364242 0.601062 1.283647 0.116692 -0.033308 35956.100000 0 0 1
-27.492011 -19.119219 11.005822 35.248877 0.607663 1.253255 0.115328 -0.033762 532281.000000 0 0 1
-26.409021 -19.508419 11.899822 34.923066 0.636232 1.223088 0.097013 -0.019326 937580.000000 0 0 1
-25.510431 -18.382319 12.538922 33.851385 0.624405 1.191345 0.097009 -0.025382 -803904.000000 0 0 1
-24.564751 -17.834519 11.615922 32.502718 0.627977 1.205332 0.105421 -0.028769 430506.000000 0 0 1
-24.002851 -16.584319 12.077622 31.576026 0.604614 1.178303 0.096352 -0.026060 186223.000000 0 0 1
-23.172351 -16.661419 13.350022 31.508472 0.623378 1.133274 0.071194 -0.008597 -1004010.000000 0 0 1
-23.971551 -16.926519 14.500222 32.732228 0.614814 1.111859 0.081972 -0.021057 53056.400000 0 0 1
-23.141951 -17.181719 15.590222 32.769137 0.638651 1.074969 0.073209 -0.012592 -622824.000000 0 0 1
-23.923551 -17.860519 16.709222 34.213046 0.641300 1.060555 0.048733 0.023074 47262.300000 0 0 1
-24.800251 -17.004919 17.415722 34.749490 0.601047 1.045835 0.057762 0.001441 13981.600000 0 0 1
-25.616221 -17.772219 18.263022 36.132817 0.606544 1.040903 0.048483 0.015450 298487.000000 0 0 1
-26.791831 -16.981619 18.952022 36.950733 0.564928 1.032237 0.061709 0.014193 436360.000000 0 0 1
-26.399321 -16.203719 20.042322 36.894164 0.550500 0.996507 0.066338 0.010213 63734.500000 0 0 1
-27.479781 -15.397219 20.487022 37.575667 0.510725 0.994144 0.069101 0.001327 78566.700000 0 0 1
-27.346771 -14.912019 21.939122 38.099071 0.499223 0.957160 0.074485 -0.002794 -586493.000000 0 0 1
-26.286771 -14.047719 22.113222 37.112361 0.490789 0.932479 0.069946 -0.000173 -519928.000000 0 0 1
-25.856051 -13.950819 23.475222 37.606472 0.494790 0.896646 0.057784 -0.002796 -72354.500000 0 0 1
-24.385751 -13.476419 23.476822 36.434048 0.504864 0.870604 0.064239 0.005880 -49567.300000 0 0 1
-24.261551 -12.085919 23.131922 35.633946 0.462167 0.864324 0.087555 -0.011874 203789.000000 0 0 1
-23.248151 -11.846019 22.155522 34.229692 0.471256 0.866811 0.096359 -0.009355 -204481.000000 0 0 1
-22.964151 -10.370419 21.907322 33.389048 0.424177 0.855127 0.102179 -0.009428 -106910.000000 0 0 1
-22.301251 -9.655719 22.941722 33.420073 0.408600 0.814179 0.089973 -0.015839 689740.000000 0 0 1
-20.882751 -9.771119 22.770622 32.404711 0.437643 0.791618 0.067749 -0.018794 230550.000000 0 0 1
-20.102051 -9.689519 24.082922 32.832398 0.449158 0.747323 0.084565 -0.023660 -60126.300000 0 0 1
-20.156851 -10.924119 24.711422 33.708892 0.496646 0.747952 0.101159 -0.027100 -319870.000000 0 0 1
-19.522551 -10.754219 25.913022 34.179934 0.503504 0.710347 0.101789 -0.033913 -955786.000000 0 0 1
-19.750251 -11.926919 26.879322 35.423463 0.543273 0.709328 0.092270 -0.037982 86064.700000 0 0 1
-21.019151 -12.019019 27.479222 36.624707 0.519436 0.722293 0.097106 -0.029284 -381704.000000 0 0 1
-21.941151 -12.769819 26.711022 36.850523 0.527081 0.759983 0.092162 -0.027815 523909.000000 0 0 1
-23.192251 -13.286319 27.521622 38.364651 0.520238 0.770777 0.087372 -0.024201 618952.000000 0 0 1
-23.118751 -14.428419 28.326522 39.307095 0.557952 0.766062 0.086075 -0.027222 -39955.200000 0 0 1
-22.367851 -14.229419 29.537922 39.689872 0.566581 0.731433 0.074038 -0.018833 364501.000000 0 0 1
-22.852251 -15.197719 30.646822 41.139078 0.586877 0.730327 0.070821 -0.019360 -343382.000000 0 0 1
-22.485551 -16.589919 30.552922 41.404184 0.635650 0.740815 0.070444 -0.018677 -332514.000000 0 0 1
-22.733651 -17.415419 31.666122 42.694952 0.653703 0.735220 0.068272 -0.022312 585319.000000 0 0 1
-24.172551 -17.703219 32.232722 44.007551 0.632121 0.748903 0.088181 -0.021541 745290.000000 0 0 1
-24.703551 -16.750719 33.124622 44.588032 0.595855 0.733398 0.105588 -0.023232 -489134.000000 0 0 1
-25.958281 -17.176919 33.608222 45.808203 0.584565 0.747085 0.108835 -0.032862 2927.240000 0 0 1
-26.786961 -16.060619 -33.586492 45.864334 0.540102 2.392491 0.105498 -0.028275 -31553.900000 0 0 1
-26.360201 -15.671419 -32.317292 44.551778 0.536373 2.382393 0.117817 -0.036205 -532711.000000 0 0 1
-27.176591 -14.681719 -31.817492 44.344929 0.495314 2.371003 0.119633 -0.033953 -443690.000000 0 0 1
-26.631451 -14.067719 -30.503092 42.866928 0.485981 2.362536 0.103105 -0.025522 -36481.500000 0 0 1
-26.769461 -14.883119 -29.369792 42.434608 0.507418 2.335217 0.113426 -0.016167 302834.000000 0 0 1
-26.074271 -14.267519 -28.285292 41.030323 0.500681 2.331423 0.116564 -0.009368 82989.100000 0 0 1
-26.325091 -15.043819 -27.014392 40.609165 0.519172 2.298597 0.094149 -0.012426 401414.000000 0 0 1
-27.601531 -14.818719 -26.414092 40.977349 0.492715 2.271299 0.096616 -0.011716 367729.000000 0 0 1
-27.786541 -13.738119 -25.513592 40.146869 0.459171 2.259461 0.097526 -0.016430 -19140.000000 0 0 1
-26.914781 -13.756019 -24.181292 38.708763 0.472484 2.245541 0.086045 -0.022736 -15808.400000 0 0 1
-25.574971 -13.313019 -24.385592 37.762053 0.479951 2.272827 0.069263 -0.026021 745147.000000 0 0 1
-24.703351 -13.589419 -23.282592 36.565105 0.502923 2.261064 0.060243 -0.028834 287930.000000 0 0 1
-24.173751 -15.054919 -23.487892 36.914792 0.557001 2.260454 0.051781 -0.043855 -1171410.000000 0 0 1
-23.262451 -15.262619 -24.540692 37.098985 0.580655 2.293603 0.069586 -0.027225 106310.000000 0 0 1
-22.970651 -16.647319 -24.655292 37.585468 0.627125 2.286276 0.089483 -0.021784 161823.000000 0 0 1
-22.108251 -16.998419 -25.924392 38.076175 0.655470 2.319727 0.079952 -0.017895 374928.000000 0 0 1
-22.768151 -16.958919 -27.197392 39.315286 0.640199 2.334743 0.084423 -0.013004 -174031.000000 0 0 1
-23.712451 -17.975919 -27.377192 40.434201 0.648652 2.314584 0.083330 -0.017957 -105425.000000 0 0 1
-24.422751 -17.892219 -28.741692 41.745504 0.632275 2.330212 0.094657 -0.022197 150526.000000 0 0 1
-23.500451 -18.301819 -29.707592 42.068620 0.661671 2.354870 0.093544 -0.016614 568554.000000 0 0 1
-24.217551 -18.357619 -30.955692 43.379105 0.648620 2.365432 0.086114 -0.022537 160754.000000 0 0 1
-23.375151 -18.954819 -32.111792 44.009658 0.681350 2.388611 0.077175 -0.026418 -453601.000000 0 0 1
-22.414151 -18.056019 -32.672092 43.541699 0.678124 2.419408 0.076923 -0.024112 844553.000000 0 0 1
-21.068751 -18.347119 -32.237692 42.658854 0.716458 2.427533 0.082658 -0.028306 664219.000000 0 0 1
-20.412251 -19.419519 -33.128292 43.488635 0.760480 2.436836 0.082177 -0.031949 -973260.000000 0 0 1
-20.226951 -19.084019 33.352422 43.424801 0.756332 0.695006 0.072964 -0.028233 100792.000000 0 0 1
-19.794651 -20.187119 32.565622 43.126183 0.795214 0.714953 0.061910 -0.027461 336602.000000 0 0 1
-21.000251 -20.902519 31.876222 43.520333 0.783066 0.748891 0.051178 -0.024928 651737.000000 0 0 1
-21.853551 -21.690619 32.690622 44.908099 0.781656 0.755477 0.059795 -0.028011 385039.000000 0 0 1
-23.122851 -22.068919 32.166922 45.347704 0.762081 0.782235 0.071107 -0.016650 386520.000000 0 0 1
-23.094151 -23.243619 31.191322 45.238304 0.788624 0.810013 0.069219 -0.013781 -678466.000000 0 0 1
-22.822351 -24.434119 31.849722 46.176733 0.819492 0.809673 0.064380 -0.014900 -155020.000000 0 0 1
-22.682351 -25.480049 30.882622 46.015848 0.843422 0.835064 0.090502 -0.004024 -226691.000000 0 0 1
-22.040751 -26.721869 31.494822 46.816416 0.881103 0.832904 0.084382 -0.020760 -437968.000000 0 0 1
-22.805151 -27.218189 32.557022 48.175350 0.873390 0.828743 0.087422 -0.023889 -467666.000000 0 0 1
-22.152751 -28.215809 33.209422 48.884987 0.905196 0.823936 0.091532 -0.023925 -820383.000000 0 0 1
-23.073351 -28.975409 -33.681092 50.063657 0.898311 2.308736 0.084092 -0.021316 65054.500000 0 0 1
-24.084751 -29.724409 33.509822 50.857879 0.889825 0.851452 0.085166 -0.021745 691437.000000 0 0 1
-25.303211 -29.173279 33.041222 50.823764 0.856320 0.863062 0.072060 -0.014226 -157504.000000 0 0 1
-26.312621 -28.832629 -33.737792 51.593731 0.831064 2.283541 0.070793 -0.011384 -759408.000000 0 0 1
-27.403751 -28.069309 33.701822 51.717158 0.797395 0.861030 0.052363 -0.004772 -56042.000000 0 0 1
-28.346541 -27.786079 -33.165592 51.725709 0.775414 2.266834 0.050340 0.000189 242786.000000 0 0 1
-29.530781 -26.927909 -33.679292 52.263505 0.739329 2.271052 0.033452 -0.002329 1075040.000000 0 0 1
-30.489361 -27.646069 33.319222 52.953534 0.736529 0.890252 0.034987 -0.001526 1721150.000000 0 0 1
-31.718181 -26.883259 33.241222 53.232804 0.703079 0.896369 0.024444 -0.010445 886941.000000 0 0 1
