# x y z rho theta phi s1 s2 stress_xx np intf bulk
-0.760092 -10.820905 -14.349421 17.988207 1.500669 2.494289 0.000306 -0.001624 312539.000000 1 0 0
2.104308 -13.461305 -13.164121 18.945420 -1.415729 2.339000 -0.011601 0.011419 -516707.000000 1 0 0
2.157808 -11.071705 -14.693321 18.523835 -1.378315 2.486861 -0.002504 0.001365 670930.000000 1 0 0
-5.649992 -6.297605 -16.432421 18.482605 0.839550 2.666117 0.011476 -0.006961 978114.000000 1 0 0
4.433508 -14.088405 -11.533221 18.739112 -1.265916 2.233769 -0.018883 0.007251 1502400.000000 1 0 0
14.026708 -10.579605 -7.889521 19.259313 -0.646214 1.992863 0.023375 -0.007677 -201077.000000 1 0 0
7.016208 10.800495 -10.821821 16.822297 0.994689 2.269600 0.025470 -0.015815 -335356.000000 1 0 0
5.731608 -4.272305 -12.640421 14.521851 -0.640547 2.626895 -0.001433 -0.000954 991488.000000 1 0 0
13.619808 0.540695 -10.025421 16.920419 0.039678 2.204960 0.018891 -0.002706 969869.000000 1 0 0
14.095608 5.117295 -10.375421 18.235192 0.348246 2.176059 0.023298 -0.008018 839846.000000 1 0 0
4.007308 4.312995 -13.473621 14.703703 0.822121 2.729643 0.002159 -0.005731 1053430.000000 1 0 0
10.330108 -5.102205 -13.645021 17.858618 -0.458769 2.440376 0.017031 -0.007459 -63168.000000 1 0 0
2.608708 -7.572905 -12.098021 14.509182 -1.239048 2.556785 0.001059 0.001702 1843540.000000 1 0 0
-5.630192 -1.968505 -15.232721 16.358785 0.336349 2.768390 0.006963 -0.004727 -1661.360000 1 0 0
10.643208 0.026295 -9.678821 14.386040 0.002471 2.308773 0.011252 -0.003946 2365480.000000 1 0 0
-1.760692 -9.582905 -16.783121 19.406320 1.389090 2.615603 0.018141 -0.008253 955730.000000 1 0 0
8.544308 1.747895 -18.020921 20.020338 0.201784 2.690866 0.018062 -0.004254 -1119250.000000 1 0 0
16.502908 -6.061005 -8.868621 19.690967 -0.351976 2.037999 0.029373 0.001028 925689.000000 1 0 0
10.117208 7.493295 -9.940321 16.041114 0.637489 2.239128 0.010352 -0.011286 1533730.000000 1 0 0
13.798808 -2.293005 -10.552321 17.521885 -0.164669 2.217096 0.025717 -0.005003 -895468.000000 1 0 0
7.237108 -1.903205 -13.657621 15.573327 -0.257156 2.640354 0.004236 -0.006311 1442140.000000 1 0 0
-2.813392 6.604595 -13.773521 15.532087 -1.168100 2.661124 0.000111 -0.002330 2022200.000000 1 0 0
11.275508 1.774895 -13.871921 17.964340 0.156130 2.453080 0.020486 -0.010124 557560.000000 1 0 0
-2.292692 10.732795 -12.933821 16.962695 -1.360344 2.437943 -0.002402 0.001804 630326.000000 1 0 0
2.858508 -1.137805 -15.275121 15.581880 -0.378817 2.942837 -0.000329 -0.001678 1011900.000000 1 0 0
-9.092392 0.487495 -15.249521 17.761113 -0.053564 2.603310 0.003931 -0.002552 -1899310.000000 1 0 0
2.382208 -1.874305 -18.054021 18.306709 -0.666636 2.975250 0.010819 -0.006779 1862420.000000 1 0 0
0.995408 7.840595 -13.060521 15.265745 1.444516 2.597398 0.002618 -0.004878 -1230270.000000 1 0 0
9.388208 -9.137505 -9.835621 16.382060 -0.771866 2.214785 0.019228 -0.001469 -645454.000000 1 0 0
3.874608 7.375995 -13.574921 15.927848 1.087114 2.591117 0.004415 -0.002292 726546.000000 1 0 0
-2.714792 9.055695 -15.426621 18.092991 -1.279534 2.591794 -0.004757 -0.002875 298869.000000 1 0 0
5.658108 -7.736305 -15.301621 18.055586 -0.939325 2.582003 0.008042 -0.006763 -44925.200000 1 0 0
4.161208 7.316095 -16.398821 18.432640 1.053653 2.667401 0.011807 -0.000486 -287021.000000 1 0 0
-0.241592 5.017495 -13.490721 14.395595 -1.522684 2.785145 0.002288 -0.005919 2545290.000000 1 0 0
8.807508 4.253195 -16.583021 19.252492 0.449879 2.608706 0.017548 -0.004414 -760708.000000 1 0 0
5.282408 0.257395 -14.374421 15.316463 0.048688 2.789041 -0.000474 -0.000445 -394953.000000 1 0 0
6.266108 7.940395 -11.634921 15.417048 0.902711 2.425961 0.007211 -0.006577 -386794.000000 1 0 0
2.895608 -8.336105 -15.152721 17.535112 -1.236478 2.614227 0.005670 -0.004213 -618006.000000 1 0 0
3.929908 11.563895 -13.862221 18.475091 1.243199 2.419342 0.026602 -0.013150 -743495.000000 1 0 0
0.594608 -4.593705 -13.741021 14.500736 -1.442072 2.816460 0.008918 -0.002892 1512620.000000 1 0 0
8.437508 -0.114405 -11.664121 14.396400 -0.013558 2.515308 0.001269 -0.003042 375748.000000 1 0 0
-0.998892 -5.150305 -16.245121 17.071244 1.379227 2.829221 0.010418 -0.008526 1026580.000000 1 0 0
4.429408 0.898295 -11.708321 12.550353 0.200089 2.773201 -0.001012 -0.005083 286578.000000 1 0 0
-2.916592 -7.179505 -15.563721 17.386236 1.184923 2.679620 0.006150 -0.003801 2072900.000000 1 0 0
11.430608 -3.801305 -11.398221 16.583973 -0.321050 2.328566 0.021572 -0.005530 884339.000000 1 0 0
6.472408 -7.069205 -12.578221 15.813835 -0.829441 2.490453 0.004180 -0.001100 -577229.000000 1 0 0
3.435008 -4.130905 -14.686621 15.638430 -0.877118 2.790905 0.004893 -0.004060 2193680.000000 1 0 0
-0.601592 -1.669805 -18.294321 18.380216 1.224996 3.044878 0.023068 -0.012449 1127250.000000 1 0 0
14.853108 2.937795 -8.475121 17.351459 0.195270 2.081096 0.017103 -0.003392 -358097.000000 1 0 0
6.904008 4.239795 -14.252221 16.394114 0.550727 2.624682 0.004357 -0.003068 3424760.000000 1 0 0
10.199608 -9.610405 -13.963421 19.783049 -0.755664 2.354387 0.035196 -0.017382 -801576.000000 1 0 0
9.004008 -3.292905 -15.564621 18.280394 -0.350606 2.589517 0.013793 -0.014893 714584.000000 1 0 0
-5.314292 -2.069605 -18.159121 19.033618 0.371371 2.837287 0.001372 0.005643 540360.000000 1 0 0
4.989608 -9.180005 -11.197621 15.315201 -1.072934 2.390794 -0.007571 0.003534 1724170.000000 1 0 0
-2.461792 3.926295 -17.108121 17.724672 -1.010759 2.877061 0.008669 -0.002090 1678450.000000 1 0 0
9.484308 9.206795 -14.517221 19.633310 0.770552 2.403002 0.031866 -0.012376 756235.000000 1 0 0
9.720008 9.873895 -11.669221 18.114719 0.793252 2.270753 0.016363 -0.016200 581073.000000 1 0 0
11.959008 -5.969205 -9.696721 16.512894 -0.462958 2.198418 0.026838 -0.004866 -1532540.000000 1 0 0
8.105808 6.830195 -13.686921 17.311484 0.700200 2.482628 0.012334 -0.004194 619246.000000 1 0 0
3.977708 -4.326705 -17.557821 18.515388 -0.827399 2.818577 0.014142 -0.007692 635282.000000 1 0 0
9.355008 -7.517405 -12.319221 17.198568 -0.676914 2.369272 0.019019 -0.009180 316376.000000 1 0 0
11.959908 -8.650605 -8.773121 17.170906 -0.626193 2.107062 0.028319 -0.005714 314678.000000 1 0 0
-3.000292 -2.515205 -13.959521 14.498146 0.697674 2.868157 0.008230 -0.006510 -2594480.000000 1 0 0
-0.443492 6.109295 -17.566821 18.604122 -1.498330 2.806086 0.008713 -0.002650 2278310.000000 1 0 0
1.019208 -8.524105 -17.516421 19.507028 -1.451794 2.685895 0.011333 -0.009385 2997680.000000 1 0 0
0.054708 8.493295 -15.871121 18.000875 1.564355 2.650220 0.000810 -0.002008 -1229360.000000 1 0 0
1.742008 3.317295 -15.013221 15.473714 1.087248 2.897017 0.009306 -0.006582 1435770.000000 1 0 0
-2.005592 -0.511505 -15.851821 15.986377 0.249716 3.011756 0.012122 -0.007470 1395900.000000 1 0 0
14.143608 -4.434005 -8.450821 17.062193 -0.303795 2.088971 0.024057 -0.002779 -265438.000000 1 0 0
0.559708 0.578395 -14.603121 14.625284 0.801816 3.086532 0.006161 -0.004718 1740770.000000 1 0 0
8.779108 2.689795 -12.524421 15.529612 0.297305 2.508981 0.005716 -0.003461 1873640.000000 1 0 0
5.855908 0.921495 -17.101421 18.099707 0.156082 2.807918 0.009832 -0.001125 -913434.000000 1 0 0
15.335808 1.662495 -12.280921 19.717300 0.107984 2.243177 0.036265 -0.012741 502559.000000 1 0 0
8.849908 -11.250705 -11.900721 18.615219 -0.904274 2.264385 0.022245 -0.004427 1957190.000000 1 0 0
-4.570592 0.701195 -15.070821 15.764251 -0.152228 2.843889 0.006691 -0.007514 1599670.000000 1 0 0
2.373908 5.137395 -17.283021 18.186013 1.137939 2.825145 0.010805 -0.002806 1833320.000000 1 0 0
5.963208 -11.755805 -12.503021 18.168223 -1.101360 2.329775 0.000663 0.005696 894186.000000 1 0 0
12.810908 7.260395 -8.699321 17.102949 0.515601 2.104406 0.013216 -0.008819 -269391.000000 1 0 0
-5.046492 3.580595 -15.680821 16.857517 -0.617088 2.765747 0.005096 -0.001622 969370.000000 1 0 0
-0.510292 -4.565305 -19.011521 19.558638 1.459482 2.904508 0.025511 -0.010699 -1169120.000000 1 0 0
9.802908 4.327195 -10.210721 14.801366 0.415695 2.332078 0.003608 -0.003887 376595.000000 1 0 0
13.206608 3.677395 -12.767121 18.733315 0.271572 2.320633 0.026303 -0.012933 1098400.000000 1 0 0
-6.036592 5.972195 -17.018221 19.019132 -0.780036 2.678768 -0.004343 0.001968 -677116.000000 1 0 0
-10.189992 3.241895 -15.405121 18.752695 -0.308019 2.534813 0.010716 0.002614 -216757.000000 1 0 0
10.794408 13.310695 -8.279221 19.032586 0.889410 2.020837 0.022147 -0.010218 -859167.000000 1 0 0
7.530708 13.366395 -12.324021 19.678759 1.057719 2.247543 0.030156 -0.014732 -1744390.000000 1 0 0
5.303908 15.057895 -11.390321 19.611503 1.232132 2.190505 0.028029 -0.014105 1590830.000000 1 0 0
14.106508 9.516795 -9.882721 19.678189 0.593501 2.096957 0.032658 -0.011277 905330.000000 1 0 0
8.364908 -17.278005 -2.046621 19.305176 -1.119920 1.677010 0.027461 0.003084 -1660130.000000 1 0 0
0.659108 -16.079805 0.000079 16.093308 -1.529829 1.570791 0.005261 -0.004180 2746390.000000 1 0 0
-9.257892 -11.622705 7.645279 16.710659 0.898172 1.095604 0.015959 -0.007524 817308.000000 1 0 0
1.958408 -15.977905 -2.626721 16.310380 -1.448835 1.732547 0.000913 -0.003257 3952820.000000 1 0 0
-1.243292 -11.042005 -9.463921 14.595802 1.458672 2.276277 -0.002220 0.002970 146296.000000 1 0 0
-4.777992 -12.655605 -13.026621 18.779947 1.209801 2.337334 0.008885 -0.000089 1846310.000000 1 0 0
-8.139092 -17.689505 -1.656621 19.542462 1.139568 1.655668 0.005895 -0.004086 -953818.000000 1 0 0
-11.376392 -7.050705 -8.927121 16.088139 0.554827 2.159025 0.015297 -0.002616 2558250.000000 1 0 0
-13.516992 -11.529705 -4.621621 18.357629 0.706221 1.825289 0.007719 -0.002991 -1188880.000000 1 0 0
-5.725092 -13.434205 9.835679 17.606679 1.167945 0.978059 0.013805 -0.007806 980257.000000 1 0 0
0.096208 -13.988305 -3.687421 14.466479 -1.563919 1.828535 -0.003431 -0.000824 -1640120.000000 1 0 0
-14.804392 -11.581205 1.904079 18.892323 0.663843 1.469839 -0.005050 0.005672 1228130.000000 1 0 0
-3.852392 -16.496505 -7.533521 18.539945 1.341380 1.989241 -0.004691 -0.004526 -47531.200000 1 0 0
0.573308 -15.323405 -9.374321 17.972571 -1.533400 2.119510 -0.012991 0.008851 614232.000000 1 0 0
4.483308 -14.275605 -2.620221 15.190738 -1.266497 1.744151 -0.002040 0.002680 399123.000000 1 0 0
-3.495792 -18.054505 -2.416321 18.547893 1.379539 1.701442 -0.006325 -0.006185 -31451.400000 1 0 0
-1.005592 -13.593505 0.660579 13.646647 1.496955 1.522371 0.004386 -0.002944 581525.000000 1 0 0
-8.426892 -11.182305 -10.566221 17.541422 0.925001 2.217249 0.019366 -0.005392 1385640.000000 1 0 0
-3.692592 -14.188105 -0.461821 14.668021 1.316185 1.602286 -0.000769 -0.000609 3445320.000000 1 0 0
-1.463492 -14.905405 -7.312821 16.667041 1.472925 2.025014 -0.011333 0.000882 718332.000000 1 0 0
-14.257292 -7.979805 -1.895221 16.448086 0.510260 1.686277 0.007162 -0.000442 878706.000000 1 0 0
-10.817692 -7.181105 -11.759621 17.517974 0.586036 2.306743 0.015746 0.000155 -465565.000000 1 0 0
-9.619092 -14.653405 6.930179 18.848783 0.989907 1.194291 0.009117 -0.000825 247157.000000 1 0 0
-2.447592 -14.396005 -12.395421 19.154167 1.402388 2.274623 0.003909 0.003143 491772.000000 1 0 0
2.335608 -17.810305 -4.795821 18.591986 -1.440402 1.831697 -0.002038 -0.000363 -1249330.000000 1 0 0
-6.514192 -9.689105 -9.140221 14.827579 0.978889 2.235002 0.011226 -0.004060 968070.000000 1 0 0
-10.823792 -15.340105 0.484679 18.780528 0.956330 1.544986 -0.006067 0.006736 710851.000000 1 0 0
-12.762692 -10.970405 4.128479 17.328602 0.710023 1.330236 0.008238 0.001763 1686650.000000 1 0 0
-17.096792 -8.790605 -1.561221 19.287624 0.474917 1.651829 0.004329 -0.001162 -27953.300000 1 0 0
-1.349392 -19.211605 -4.010121 19.672003 1.500673 1.776084 -0.004554 -0.006430 -578078.000000 1 0 0
3.257108 -14.261805 -8.810421 17.077217 -1.346267 2.112874 -0.017334 0.008886 527029.000000 1 0 0
-4.399992 -8.030805 -13.073821 15.961784 1.069575 2.530585 0.009040 -0.001889 1943650.000000 1 0 0
5.523508 -16.617705 1.299679 17.559796 -1.249898 1.496714 0.020362 -0.000985 3785970.000000 1 0 0
-2.786692 -13.842705 -3.282421 14.496911 1.372140 1.799199 -0.006990 -0.001684 -563730.000000 1 0 0
-0.440792 -14.004705 3.680179 14.486883 1.539332 1.313946 0.007396 -0.000172 -4376930.000000 1 0 0
1.216408 -16.123205 7.044479 17.636952 -1.495494 1.159917 0.015555 -0.009302 3460430.000000 1 0 0
-5.570192 -10.322905 -14.732221 18.831562 1.075976 2.469171 0.012264 0.000336 -704491.000000 1 0 0
-0.288692 -17.252405 -5.911321 18.239313 1.554064 1.900854 -0.004213 -0.003221 -294455.000000 1 0 0
-6.507292 -13.404305 -1.346721 14.961080 1.118846 1.660933 0.001830 0.000590 2370680.000000 1 0 0
-1.761892 -17.805805 -0.129621 17.893233 1.472167 1.578041 0.002321 -0.002871 939851.000000 1 0 0
-9.479292 -9.720805 -4.926021 14.443570 0.797976 1.918833 0.016972 -0.006688 3303070.000000 1 0 0
-0.857392 -16.664905 4.913379 17.395272 1.519393 1.284444 0.017750 -0.006958 3314260.000000 1 0 0
-6.712892 -9.961305 -6.271821 13.550877 0.977805 2.051987 0.016390 -0.005088 1821950.000000 1 0 0
-5.865892 -14.528105 -8.685121 17.913845 1.187051 2.076962 0.004763 -0.003402 -872809.000000 1 0 0
-5.658492 -12.134305 -10.325321 16.907754 1.134452 2.227722 0.009688 -0.003621 2133920.000000 1 0 0
-10.612592 -12.281105 -8.883021 18.502992 0.858150 2.071549 0.024038 -0.008307 -334104.000000 1 0 0
3.979608 -17.191005 6.618279 18.845943 -1.343310 1.211967 0.024552 -0.007174 495395.000000 1 0 0
-6.727592 -14.362605 -4.191721 16.404739 1.132738 1.829181 0.004182 -0.005236 -301553.000000 1 0 0
-2.774592 -12.241305 -7.161921 14.451333 1.347904 2.089309 0.000105 -0.001263 2583130.000000 1 0 0
-7.137492 -12.757005 4.525179 15.302360 1.060692 1.270590 0.006166 0.001659 2036380.000000 1 0 0
2.611608 -16.365105 2.466579 16.754736 -1.412547 1.423042 0.011853 -0.006538 3362580.000000 1 0 0
-6.302992 -11.903405 7.401979 15.369062 1.083819 1.068299 0.009987 0.000578 2247510.000000 1 0 0
-11.159792 -12.833805 -0.992021 17.036186 0.855054 1.629059 0.006822 0.007990 1168610.000000 1 0 0
-14.322392 -8.632805 4.707479 17.372870 0.542438 1.296399 0.002803 -0.000157 1309190.000000 1 0 0
-8.122192 -15.554405 4.509379 18.117506 1.089563 1.319256 0.004936 0.007367 414035.000000 1 0 0
-16.448992 -9.113505 1.225379 18.844810 0.505945 1.505726 -0.007738 0.005733 -902593.000000 1 0 0
-6.625292 -16.913905 2.434479 18.327612 1.197460 1.437571 0.004445 0.001662 2583160.000000 1 0 0
-11.555392 -14.822705 -4.795921 19.396921 0.908635 1.820639 0.022455 -0.001779 -208047.000000 1 0 0
-10.105792 -9.835805 -12.619221 18.923922 0.771860 2.300756 0.018002 -0.000584 -562434.000000 1 0 0
-4.363792 -16.045805 -4.591621 17.250899 1.305260 1.840211 -0.003473 -0.003656 -633652.000000 1 0 0
-11.852092 -8.279505 -0.008021 14.457605 0.609765 1.571351 0.006902 0.002690 2786760.000000 1 0 0
-9.714392 -11.155105 3.519079 15.204924 0.854323 1.337235 0.005800 0.004297 4412610.000000 1 0 0
-14.161892 -12.954905 -0.543921 19.201162 0.740917 1.599128 -0.000601 0.010884 990178.000000 1 0 0
5.576808 -15.021605 -7.081821 17.518607 -1.215315 1.986950 -0.001370 0.001201 2281430.000000 1 0 0
-7.440792 -10.507605 -1.317521 12.942605 0.954632 1.672770 0.005237 0.001465 1670010.000000 1 0 0
-11.697692 -8.175805 -6.112021 15.525353 0.610004 1.975428 0.014778 -0.007235 2776820.000000 1 0 0
-14.300892 -6.467205 -9.404621 18.297189 0.424702 2.110629 0.005672 -0.003612 908753.000000 1 0 0
-3.847392 -16.449505 1.461079 16.956515 1.341036 1.484523 -0.000136 -0.003585 1170380.000000 1 0 0
-7.851192 -15.504305 0.235879 17.380459 1.102052 1.557224 0.010583 0.005709 1535340.000000 1 0 0
1.067508 -18.547505 3.766579 18.956177 -1.513304 1.370766 0.012675 -0.010942 1521310.000000 1 0 0
-14.220492 -8.770505 -4.619521 17.334478 0.552646 1.840549 0.014174 -0.005975 1460580.000000 1 0 0
-3.259292 -14.503905 11.190779 18.606983 1.349750 0.925508 0.007916 -0.007568 326637.000000 1 0 0
-10.841792 -12.058305 -3.759921 16.645846 0.838471 1.798640 0.019854 -0.006401 533341.000000 1 0 0
-9.966392 -10.652805 0.525379 14.597508 0.818676 1.534798 0.005032 0.004871 2566130.000000 1 0 0
-0.073392 -13.221405 -11.172821 17.310195 1.565245 2.272405 -0.005563 0.001651 695717.000000 1 0 0
-5.774292 -12.697205 -6.355421 15.328172 1.143984 1.998325 0.003960 -0.007256 1109860.000000 1 0 0
1.717308 -15.801405 9.924879 18.738644 -1.462540 1.012611 0.017845 -0.010023 -1227900.000000 1 0 0
-8.957592 -15.668805 -5.636921 18.908326 1.051458 1.873517 0.023087 -0.004931 -1732640.000000 1 0 0
-3.353292 -15.454005 5.969279 16.902756 1.357123 1.209856 0.005302 -0.003656 -1811250.000000 1 0 0
-17.400492 -5.478605 -6.527521 19.375262 0.305028 1.914419 0.007722 -0.005868 -699472.000000 1 0 0
18.844608 5.497595 -2.889221 19.841633 0.283855 1.716930 0.007027 0.002858 -1344910.000000 1 0 0
12.798808 -12.389105 -5.894021 18.762700 -0.769134 1.890342 0.027760 -0.001464 -416077.000000 1 0 0
10.953808 -13.568905 -1.709221 17.522059 -0.891636 1.668498 0.026030 0.000701 2329020.000000 1 0 0
18.699308 -2.774805 4.439379 19.418336 -0.147316 1.340139 0.030252 -0.008804 -1477470.000000 1 0 0
8.586308 -16.940205 4.975679 19.632948 -1.101676 1.314567 0.024207 -0.005554 31218.900000 1 0 0
18.225508 -1.025505 6.691579 19.442172 -0.056208 1.219433 0.063655 -0.015293 -510592.000000 1 0 0
18.034708 -4.207005 -5.011821 19.185097 -0.229174 1.835098 0.028169 -0.004910 57949.600000 1 0 0
5.659508 -11.693605 14.694879 19.614024 -1.120044 0.723939 0.006570 0.004060 -1071210.000000 1 0 0
16.034408 -8.930605 -0.793221 18.370823 -0.508175 1.613988 0.021320 -0.004486 624378.000000 1 0 0
13.824508 -12.604605 -1.402621 18.760609 -0.739273 1.645630 0.026929 0.001077 575574.000000 1 0 0
11.352408 -2.117505 13.813579 18.004888 -0.184406 0.696312 0.018593 -0.009208 -3223070.000000 1 0 0
17.013908 -6.219905 -1.435921 18.172016 -0.350485 1.649897 0.015497 -0.005869 -1210450.000000 1 0 0
17.720708 3.556195 -0.930721 18.097963 0.198049 1.622246 0.007863 0.000659 287937.000000 1 0 0
9.684808 -11.023005 9.546979 17.505627 -0.849931 0.993970 0.010187 -0.002829 274909.000000 1 0 0
8.999208 -11.175005 4.225679 14.957368 -0.892833 1.284382 0.012167 -0.004562 250057.000000 1 0 0
14.123708 -10.081405 6.746279 18.617899 -0.619923 1.200003 0.027329 -0.008183 -109516.000000 1 0 0
16.253508 -0.546105 -4.703321 16.929146 -0.033587 1.852324 0.012148 -0.002037 -272527.000000 1 0 0
15.777208 -0.451805 -1.769521 15.882557 -0.028629 1.682441 0.013417 -0.001483 -1099890.000000 1 0 0
13.002308 -5.214705 -0.308221 14.012429 -0.381420 1.592794 0.012277 -0.008787 2679120.000000 1 0 0
14.391708 -7.526705 1.132479 16.280512 -0.481869 1.501180 0.016946 -0.007409 1449470.000000 1 0 0
15.442708 2.461295 3.649479 16.057830 0.158053 1.341522 0.019322 -0.005545 2629200.000000 1 0 0
15.950508 -7.076505 5.018579 18.157141 -0.417564 1.290753 0.027763 -0.010508 -1332390.000000 1 0 0
13.741508 -12.052505 3.324279 18.578018 -0.720011 1.390891 0.026776 -0.003991 2640920.000000 1 0 0
13.931808 -0.990005 9.161379 16.703481 -0.070942 0.990261 0.030785 -0.013051 682092.000000 1 0 0
14.212708 -2.774005 -1.648521 14.574423 -0.192755 1.684149 0.007483 -0.002794 1318700.000000 1 0 0
14.945408 1.798395 9.050879 17.564677 0.119755 1.029452 0.038411 -0.010543 -860964.000000 1 0 0
14.340608 -10.135105 -2.941021 17.805140 -0.615236 1.736735 0.023488 -0.004939 -136694.000000 1 0 0
7.208608 -12.641805 6.092079 15.776334 -1.052562 1.174339 0.006277 -0.001996 563663.000000 1 0 0
12.279308 -4.689305 7.005079 14.894366 -0.364795 1.081146 0.018949 -0.007294 3079840.000000 1 0 0
15.048808 -8.951905 -5.611621 18.387320 -0.536630 1.880934 0.033403 -0.002412 -382282.000000 1 0 0
14.315708 -4.600605 4.679479 15.748098 -0.310943 1.269094 0.019507 -0.008438 1489820.000000 1 0 0
17.142108 -4.267805 0.932779 17.690000 -0.244005 1.518043 0.012200 -0.009395 -1322570.000000 1 0 0
10.206008 -14.525605 1.027079 17.782314 -0.958313 1.513006 0.026049 0.000121 918035.000000 1 0 0
16.383808 -2.490105 8.544679 18.645143 -0.150831 1.094738 0.043437 -0.014074 1231490.000000 1 0 0
16.023408 -2.628305 3.179579 16.545916 -0.162581 1.377426 0.016902 -0.006560 1649280.000000 1 0 0
7.796808 -15.265705 2.726179 17.356959 -1.098594 1.413078 0.014928 0.000498 3519670.000000 1 0 0
16.724408 -6.903405 7.860779 19.727004 -0.391470 1.160939 0.038147 -0.010315 -478926.000000 1 0 0
10.240708 -8.676505 5.114779 14.363663 -0.702899 1.206714 0.015864 -0.006340 1999910.000000 1 0 0
10.956008 -11.951105 2.131879 16.352613 -0.828811 1.440055 0.022476 -0.003651 361278.000000 1 0 0
12.303008 -7.181505 11.974279 18.609712 -0.528363 0.871809 0.014387 -0.012791 -1233510.000000 1 0 0
15.294408 -9.812005 4.306979 18.674701 -0.570406 1.338069 0.021948 -0.006657 -514889.000000 1 0 0
7.310308 -10.295305 7.748479 14.814616 -0.953349 1.020395 0.004942 -0.001484 2684010.000000 1 0 0
15.340408 -3.302005 -4.401721 16.297439 -0.212014 1.844279 0.022527 -0.004541 833121.000000 1 0 0
11.791608 -8.941005 9.783179 17.739622 -0.648761 0.986650 0.016316 -0.011092 -897551.000000 1 0 0
17.040108 -6.652405 2.434279 18.453875 -0.372201 1.438499 0.023850 -0.009188 2447620.000000 1 0 0
17.493508 3.946295 1.989879 18.043162 0.221872 1.460287 0.015878 -0.002522 643203.000000 1 0 0
14.678908 -4.937505 8.735979 17.781075 -0.324479 1.057206 0.029335 -0.012724 830563.000000 1 0 0
12.833508 -12.572705 6.167079 18.994860 -0.775133 1.240133 0.025239 -0.001656 902652.000000 1 0 0
18.175108 0.715295 -0.842621 18.208685 0.039335 1.617089 0.015056 -0.002932 -93953.700000 1 0 0
11.695208 -2.152405 10.938679 16.157520 -0.182005 0.827114 0.013777 -0.007289 2462840.000000 1 0 0
5.834708 -12.519805 10.541279 17.375498 -1.134685 0.918925 0.002041 0.004323 -411589.000000 1 0 0
10.649408 -5.021405 11.021979 16.127878 -0.440605 0.818371 0.014514 -0.007525 1027860.000000 1 0 0
17.798508 1.378495 5.180279 18.588234 0.077296 1.288371 0.045387 -0.007920 -810539.000000 1 0 0
12.231708 -7.758905 7.119279 16.139995 -0.565278 1.113977 0.023145 -0.008989 825001.000000 1 0 0
10.692508 -7.867105 14.313779 19.521920 -0.634324 0.747757 0.008398 -0.013091 -251438.000000 1 0 0
14.078108 -0.352705 3.741379 14.571048 -0.025048 1.311120 0.008908 -0.003769 720733.000000 1 0 0
11.773408 -7.776205 2.566479 14.341176 -0.583713 1.390868 0.016985 -0.005891 1395550.000000 1 0 0
9.308108 6.060995 3.441979 11.628575 0.577185 1.270301 -0.002477 0.000037 2694870.000000 1 0 0
-4.038292 14.909995 -9.873421 18.333035 -1.306297 2.139522 0.005979 0.003662 2499020.000000 1 0 0
8.753608 -6.458805 9.223179 14.262148 -0.635676 0.867560 0.003943 -0.004788 -1067040.000000 1 0 0
5.801408 -10.722805 -8.569721 14.902181 -1.074862 2.183480 -0.005031 0.004231 470056.000000 1 0 0
5.350708 0.970295 0.518779 5.462662 0.179390 1.475685 0.004461 -0.001132 4313230.000000 1 0 0
-0.531592 9.922395 10.929279 14.771109 -1.517273 0.737861 -0.003770 0.001999 -59372.100000 1 0 0
-6.350692 -5.169505 1.084779 8.260255 0.683223 1.439091 0.003103 0.000516 4720160.000000 1 0 0
-1.006092 3.979095 -10.866421 11.615701 -1.323142 2.780451 0.004945 -0.005749 2283450.000000 1 0 0
10.918208 5.620395 1.121379 12.331001 0.475396 1.479731 -0.000502 0.000574 399814.000000 1 0 0
-10.139392 -1.790805 -13.617121 17.071620 0.174816 2.494179 0.006626 -0.006222 1771850.000000 1 0 0
7.454708 10.823795 -6.042021 14.464896 0.967672 2.001711 0.004381 -0.004190 1386040.000000 1 0 0
-12.415192 -2.781105 -9.628121 15.955320 0.220370 2.218608 0.005501 -0.002884 -236567.000000 1 0 0
-3.906392 -8.697005 2.582479 9.877601 1.148637 1.306274 0.004820 0.002757 -1457870.000000 1 0 0
8.019808 -6.720005 -5.870321 11.997352 -0.697443 2.082085 0.005112 -0.002077 2205120.000000 1 0 0
14.393408 3.150395 -4.199421 15.320911 0.215479 1.848447 0.012884 -0.001876 1393420.000000 1 0 0
-2.556292 -4.932705 9.832279 11.293358 1.092669 0.514325 0.003321 0.000595 1569240.000000 1 0 0
3.434908 -1.939705 -4.549621 6.021636 -0.514062 2.427283 0.001502 -0.001338 -2157370.000000 1 0 0
-4.049992 8.397495 -3.553121 9.977225 -1.121420 1.934912 -0.000246 -0.000897 827935.000000 1 0 0
5.711308 0.116295 11.682879 13.004701 0.020359 0.454779 0.002961 0.002246 1873230.000000 1 0 0
7.138508 4.655595 12.362879 15.015780 0.577906 0.603550 -0.000996 0.006195 151998.000000 1 0 0
1.090908 -14.513305 12.497479 19.183668 -1.495771 0.861283 0.009115 0.002619 1066750.000000 1 0 0
3.027508 8.655595 -9.194421 12.985472 1.234322 2.357535 0.003904 -0.002433 642044.000000 1 0 0
-4.392992 -8.910405 -4.559621 10.930866 1.112750 2.001084 0.008698 -0.003152 1274500.000000 1 0 0
5.713308 -6.697905 -4.001221 9.670243 -0.864564 1.997384 0.001862 -0.004351 1860500.000000 1 0 0
-3.076692 3.518595 8.704979 9.880446 -0.852301 0.492759 0.001958 0.002149 2152320.000000 1 0 0
-3.754892 3.065195 -11.122121 12.132444 -0.684613 2.730602 0.000516 -0.006576 -357028.000000 1 0 0
3.021108 -6.161305 8.600979 11.002983 -1.114910 0.673417 -0.003953 0.001545 586756.000000 1 0 0
-5.127292 -8.662205 10.589079 14.609980 1.036343 0.760076 0.014174 -0.005615 2534220.000000 1 0 0
-13.226192 -2.368005 6.619879 14.978732 0.177162 1.113023 0.005747 0.003170 107208.000000 1 0 0
3.934708 -5.954005 -8.312321 10.955673 -0.986831 2.432147 -0.005180 0.000711 3621970.000000 1 0 0
2.926308 -0.577205 12.439479 12.792072 -0.194747 0.235333 0.001464 0.003780 575765.000000 1 0 0
1.460808 -1.483705 -7.590921 7.871303 -0.793174 2.873882 -0.002420 -0.003664 -1558580.000000 1 0 0
3.572108 -3.585105 3.423779 6.110254 -0.787214 0.976008 -0.000619 0.000439 2037430.000000 1 0 0
1.536808 0.448295 -11.864121 11.971637 0.283829 3.007470 0.002922 -0.005426 -612242.000000 1 0 0
4.039108 3.539095 -10.641521 11.919796 0.719513 2.674231 -0.001695 -0.002390 1436990.000000 1 0 0
2.851408 3.244795 3.325479 5.451425 0.849839 0.914710 -0.006349 0.002860 -186183.000000 1 0 0
-5.309092 0.880695 2.654979 6.000916 -0.164387 1.112491 0.000240 -0.002027 659492.000000 1 0 0
-9.455592 -9.217105 5.720179 14.390403 0.772627 1.162006 0.007352 0.000989 -1647730.000000 1 0 0
-3.067392 3.825695 -0.633021 4.944244 -0.894967 1.699181 -0.003999 -0.005204 118438.000000 1 0 0
-15.984292 -6.446605 4.944179 17.930455 0.383356 1.291435 0.014227 -0.004772 1217940.000000 1 0 0
1.008408 6.607995 -8.152221 10.542352 1.419360 2.454799 0.003274 -0.000608 706314.000000 1 0 0
-1.560892 6.483295 -9.516821 11.620644 -1.334537 2.530389 0.000588 -0.002549 -455523.000000 1 0 0
2.068108 -0.433205 5.223079 5.634297 -0.206484 0.384422 -0.004285 0.004123 2945990.000000 1 0 0
-3.409892 -0.618205 -6.276521 7.169676 0.179350 2.637113 0.001703 -0.008175 505811.000000 1 0 0
1.802408 -1.166105 -2.486621 3.285081 -0.574243 2.429419 0.006794 -0.001163 559365.000000 1 0 0
2.478008 -8.635305 -7.696521 11.829854 -1.291343 2.279173 -0.007695 0.002573 1882350.000000 1 0 0
-2.519692 14.041995 -5.555321 15.309737 -1.393246 1.942134 0.015164 0.001356 2491130.000000 1 0 0
6.880808 -5.096705 -8.201421 11.856864 -0.637531 2.334640 0.003350 -0.001678 4750870.000000 1 0 0
-14.201092 -4.986705 -2.198921 15.210966 0.337698 1.715866 0.008396 -0.002456 -1027280.000000 1 0 0
-2.771392 6.941795 -6.824121 10.121153 -1.190952 2.310736 0.001695 -0.002530 -1753980.000000 1 0 0
-5.619492 -1.138505 -8.126121 9.945286 0.199894 2.527129 0.010289 -0.009099 -163889.000000 1 0 0
-5.750992 -10.588105 3.559779 12.563993 1.073223 1.283530 0.004115 0.002192 -3024310.000000 1 0 0
8.043908 -7.568805 6.646479 12.890576 -0.754977 1.029080 0.006396 -0.006524 1416540.000000 1 0 0
8.773208 -6.002405 13.138979 16.900616 -0.600026 0.680233 0.007938 -0.006116 -104534.000000 1 0 0
-4.819592 9.479495 -0.792921 10.663865 -1.100433 1.645221 -0.000747 -0.000334 1385980.000000 1 0 0
2.836208 6.602795 12.161179 14.125695 1.165081 0.533709 -0.005345 0.003929 1229460.000000 1 0 0
6.046708 -2.787005 10.980679 12.841550 -0.431892 0.545072 0.003506 -0.000960 636289.000000 1 0 0
-9.651792 -6.495705 -1.189321 11.694689 0.592378 1.672670 0.009369 -0.000497 184527.000000 1 0 0
0.847108 -13.352405 6.300979 14.788734 -1.507439 1.130656 0.003941 -0.002802 1332950.000000 1 0 0
-0.527692 -3.191505 8.764979 9.342860 1.406936 0.353556 -0.001066 0.002671 840772.000000 1 0 0
4.170508 0.718995 3.391079 5.423054 0.170722 0.895270 -0.003599 0.003249 1792550.000000 1 0 0
-10.128492 5.707695 8.332979 14.303939 -0.513170 0.948915 -0.005578 -0.003151 -724865.000000 1 0 0
9.417008 7.909295 -0.019921 12.297861 0.698598 1.572416 -0.000667 0.000520 -634286.000000 1 0 0
4.316708 2.838495 8.111379 9.616938 0.581671 0.567128 -0.010615 0.004586 692331.000000 1 0 0
1.348508 2.568195 -9.769421 10.190960 1.087286 2.852967 0.002475 -0.004960 243554.000000 1 0 0
-1.400392 -10.224505 2.968979 10.738550 1.434679 1.290668 0.004054 -0.001392 -572499.000000 1 0 0
-9.801792 9.619595 9.174179 16.515971 -0.776017 0.981864 -0.002458 -0.007364 2679840.000000 1 0 0
9.845908 -2.017405 -7.630521 12.618902 -0.202101 2.220173 0.013282 -0.001315 3202680.000000 1 0 0
-5.199892 -1.897305 6.729079 8.713160 0.349864 0.688359 0.002413 -0.000122 339223.000000 1 0 0
3.168008 -7.855605 -4.909521 9.790312 -1.187466 2.096090 -0.007922 -0.000665 2535140.000000 1 0 0
-5.127992 4.851895 -12.989521 14.783938 -0.757740 2.643769 -0.002012 -0.007935 2510810.000000 1 0 0
-5.636692 9.674295 5.440979 12.448636 -1.043235 1.118453 -0.001669 0.002163 1579550.000000 1 0 0
-0.430292 -1.804805 -9.407721 9.588935 1.336751 2.946872 0.002146 -0.006291 -731490.000000 1 0 0
-16.832892 0.241595 6.441979 18.025086 -0.014352 1.205325 0.008246 -0.001417 -426417.000000 1 0 0
-5.947892 -2.861705 4.039779 7.738643 0.448437 1.021571 -0.001991 -0.000227 2404590.000000 1 0 0
1.015708 -5.685905 -5.126221 7.722650 -1.394025 2.296672 -0.001480 -0.001020 1135360.000000 1 0 0
-6.934992 1.337895 -8.431921 10.999153 -0.190578 2.444321 0.004519 -0.002684 298722.000000 1 0 0
7.985108 1.951895 4.674479 9.456352 0.239741 1.053742 -0.008228 0.002626 641413.000000 1 0 0
0.474008 -8.144705 -0.531621 8.175789 -1.512664 1.635866 0.000512 0.000002 862571.000000 1 0 0
5.379008 5.481695 -3.413321 8.404372 0.794853 1.989018 0.003129 -0.000511 160574.000000 1 0 0
-0.821492 -0.372905 -1.267821 1.556045 0.426123 2.523131 0.000750 -0.003903 364587.000000 1 0 0
9.025508 6.278595 -6.312021 12.677624 0.607801 2.091957 0.003473 -0.003411 2114350.000000 1 0 0
-14.884192 -7.063005 2.480679 16.660702 0.443065 1.421347 -0.005833 0.001875 1018290.000000 1 0 0
-6.356392 6.822895 9.003379 12.962116 -0.820780 0.802944 -0.001532 -0.001588 190136.000000 1 0 0
-9.441092 -3.161105 -9.605421 13.834410 0.323092 2.338262 0.012775 -0.003538 1884350.000000 1 0 0
14.847908 3.452395 -1.243121 15.294599 0.228458 1.652164 -0.000335 0.000924 51110.900000 1 0 0
12.038808 1.676195 -5.684321 13.418421 0.138343 2.008235 0.009603 -0.001106 -247715.000000 1 0 0
1.733908 -9.469805 12.782579 16.002437 -1.389704 0.645516 0.001386 -0.000026 -212404.000000 1 0 0
-3.587092 6.378795 7.882679 10.756063 -1.058524 0.748281 -0.000118 0.001075 2366640.000000 1 0 0
-4.041592 13.140695 -12.332121 18.468717 -1.272415 2.301952 0.000969 -0.000173 1515150.000000 1 0 0
-10.194792 7.902095 6.501179 14.444453 -0.659379 1.103940 -0.004384 -0.002967 1865100.000000 1 0 0
8.055708 -9.424905 -7.109521 14.292255 -0.863565 2.091440 0.005886 0.000053 405487.000000 1 0 0
5.887808 -3.855405 -0.314821 7.044824 -0.579750 1.615499 0.007493 -0.003470 -1845300.000000 1 0 0
-1.659492 -4.484305 4.137279 6.322973 1.216358 0.857507 -0.001098 0.001600 1109580.000000 1 0 0
9.942608 -2.095905 -2.626921 10.495189 -0.207759 1.823784 0.009166 -0.002812 -1670060.000000 1 0 0
13.471708 7.077795 1.436679 15.285488 0.483747 1.476668 0.000804 0.001986 194835.000000 1 0 0
5.383008 -3.768705 -3.268721 7.339240 -0.610801 2.032390 0.006749 -0.003763 -2336110.000000 1 0 0
-12.131692 -5.906205 1.910479 13.627588 0.453065 1.430141 0.004686 0.002751 856837.000000 1 0 0
3.707908 -5.731105 -0.274721 6.831517 -0.996547 1.611021 0.004562 -0.003971 151120.000000 1 0 0
-5.200092 3.668795 -8.644321 10.734304 -0.614424 2.506975 0.001747 -0.005038 469578.000000 1 0 0
-1.718792 -9.266705 7.165079 11.839106 1.387400 0.920774 0.003390 -0.002937 2285060.000000 1 0 0
-7.376692 -7.331005 2.696279 10.743796 0.782292 1.317123 0.011179 0.000895 -3659830.000000 1 0 0
-5.750492 13.066595 -8.515221 16.622666 -1.156213 2.108617 0.006887 -0.001845 756416.000000 1 0 0
9.190408 -13.940105 -4.179421 17.212138 -0.987926 1.816066 0.017780 0.002858 -104830.000000 1 0 0
-6.467392 -5.165405 -6.721921 10.662682 0.673938 2.252885 0.013690 -0.006457 2277640.000000 1 0 0
3.405908 0.361295 -6.192421 7.076497 0.105684 2.636374 0.000073 -0.005093 1892150.000000 1 0 0
-3.548892 5.815895 4.944679 8.418380 -1.022906 0.942995 0.000040 0.004209 562351.000000 1 0 0
-2.608592 -10.875705 -2.934821 11.562824 1.335388 1.827419 0.002227 0.000670 1354930.000000 1 0 0
-12.614992 -0.362105 1.830879 12.752304 0.028696 1.426726 0.006915 -0.001979 701445.000000 1 0 0
8.380408 -12.028705 -6.064221 15.864922 -0.962288 1.963016 0.010039 0.000367 -437191.000000 1 0 0
6.115908 3.860895 0.942079 7.293720 0.563108 1.441271 0.001434 -0.000433 -205106.000000 1 0 0
3.482008 -4.818905 -10.971021 12.478362 -0.945081 2.644984 -0.002844 0.000356 -519956.000000 1 0 0
-7.643792 4.255495 8.663179 12.312086 -0.507992 0.790300 -0.001201 0.001610 929238.000000 1 0 0
8.203008 8.738595 4.143379 12.681481 0.817001 1.237958 0.001114 -0.000517 527505.000000 1 0 0
0.184308 10.635095 -6.374821 12.400707 1.553468 2.110718 0.006857 0.000179 1998920.000000 1 0 0
5.468508 8.011195 3.262579 10.233682 0.971838 1.246325 -0.002770 0.001500 2469650.000000 1 0 0
8.023408 6.601695 -3.767721 11.052292 0.688492 1.918670 0.002409 -0.001722 67695.300000 1 0 0
10.504608 2.452095 -8.137621 13.512233 0.229324 2.217102 0.005255 -0.002547 1486750.000000 1 0 0
3.300308 -12.536005 -0.286921 12.966333 -1.313371 1.592926 -0.000076 -0.003834 -1672170.000000 1 0 0
0.608908 2.126595 5.218679 5.668138 1.291927 0.400915 -0.003805 0.004487 976522.000000 1 0 0
-4.900892 13.421995 1.479279 14.365130 -1.220699 1.467636 0.001367 -0.000485 1408270.000000 1 0 0
8.152208 3.995795 -8.029821 12.120350 0.455736 2.294957 -0.000069 0.000239 487545.000000 1 0 0
-13.880892 -0.605205 -3.561421 14.343261 0.043572 1.821720 0.001615 0.000142 382198.000000 1 0 0
-8.563992 0.063395 -0.483621 8.577871 -0.007402 1.627206 -0.001466 -0.003265 996812.000000 1 0 0
1.758008 -3.852605 -1.150921 4.388369 -1.142702 1.836166 0.002851 -0.001213 -1079330.000000 1 0 0
8.056708 -5.667505 -0.279221 9.854396 -0.613039 1.599135 0.010373 -0.005312 1513330.000000 1 0 0
-2.308692 -1.234705 7.387479 7.837692 0.491104 0.340589 0.003279 0.002548 1504560.000000 1 0 0
-5.801892 8.854295 -11.672221 15.757576 -0.990730 2.404963 -0.004157 -0.001532 -56920.100000 1 0 0
-6.175792 9.254995 -8.819121 14.197613 -0.982360 2.241030 -0.002338 0.001631 -597264.000000 1 0 0
-1.585192 13.982595 -8.362221 16.369255 -1.457909 2.106969 0.016666 0.001792 -575488.000000 1 0 0
-1.412792 7.211995 9.754479 12.213055 -1.377351 0.645677 0.002333 -0.000088 2322650.000000 1 0 0
10.007908 2.344695 -4.048621 11.047495 0.230133 1.946013 0.004922 -0.003211 -2292260.000000 1 0 0
-2.922392 -7.527805 -6.945921 10.651481 1.200492 2.281159 0.004804 -0.004047 2196130.000000 1 0 0
-5.532392 -5.001505 -1.540521 7.615486 0.735043 1.774490 0.005715 -0.002278 1060200.000000 1 0 0
5.682608 7.400195 -8.821521 12.840333 0.915937 2.328172 0.000920 -0.001680 901808.000000 1 0 0
-9.583992 5.242895 -7.489821 13.245311 -0.500573 2.171799 -0.000862 0.001674 1420350.000000 1 0 0
-0.435392 6.114495 -5.374121 8.152164 -1.499710 2.290586 0.004061 -0.001641 -1954260.000000 1 0 0
-8.261092 2.780595 -6.396421 10.811639 -0.324678 2.203868 0.002950 -0.000638 1537230.000000 1 0 0
3.612008 1.421695 -2.021321 4.376477 0.374979 2.050888 0.002485 -0.003490 2479010.000000 1 0 0
-6.856592 12.395395 -3.521621 14.596591 -1.065533 1.814464 -0.001988 0.001084 857809.000000 1 0 0
-6.526392 3.130595 -2.328421 7.603680 -0.447262 1.882019 -0.001320 -0.002655 -920248.000000 1 0 0
12.116308 3.952595 -0.851721 12.773150 0.315336 1.637526 0.001605 -0.002090 -977598.000000 1 0 0
2.233808 12.372995 -5.559021 13.747131 1.392181 1.987094 0.010257 -0.000612 10725.300000 1 0 0
-9.108492 -1.423705 -4.261921 10.156551 0.155051 2.003826 0.006908 -0.003065 -1018810.000000 1 0 0
-1.133492 5.755595 3.329979 6.745401 -1.376347 1.054495 -0.001486 0.003447 1294670.000000 1 0 0
11.512608 2.624795 12.132979 16.930413 0.224161 0.771826 0.013061 0.004711 647955.000000 1 0 0
-6.976792 -2.404405 -5.764421 9.364045 0.331882 2.233932 0.012345 -0.006884 -1099610.000000 1 0 0
7.470808 -7.402605 10.837679 15.101882 -0.780813 0.770392 0.000176 -0.001765 -2101290.000000 1 0 0
-5.441292 -2.042805 -10.945321 12.392770 0.359145 2.653443 0.009867 -0.006765 -540.371000 1 0 0
0.764508 -6.199105 4.458279 7.673958 -1.448090 0.950886 -0.002822 0.001691 -633570.000000 1 0 0
-4.797392 -9.304105 7.498279 12.876550 1.094730 0.949216 0.004929 -0.002699 1968640.000000 1 0 0
-8.786192 9.370295 1.745279 12.963240 -0.817558 1.435753 -0.003385 -0.000123 821784.000000 1 0 0
-8.131092 7.251295 -9.096021 14.192728 -0.728265 2.266457 -0.000886 0.001244 -685412.000000 1 0 0
-1.284792 -10.723605 -0.140021 10.801204 1.451555 1.583760 0.002587 0.000929 -40484.300000 1 0 0
-3.917092 10.330695 7.669779 13.449624 -1.208375 0.963974 0.002710 0.001261 1460810.000000 1 0 0
-7.513592 12.091595 2.067879 14.385300 -1.014797 1.426547 -0.006794 -0.002244 1099350.000000 1 0 0
-8.182492 -8.213505 -2.939521 11.960586 0.787290 1.819107 0.014966 -0.001725 -723938.000000 1 0 0
5.433608 4.611395 -8.156621 10.831413 0.703727 2.423485 0.000499 -0.000645 1400630.000000 1 0 0
-8.907292 -0.187005 -10.208621 13.549567 0.020992 2.424056 0.003438 -0.003076 -1247740.000000 1 0 0
-15.172892 -2.275405 -1.481721 15.413942 0.148856 1.667074 0.001764 -0.000720 231205.000000 1 0 0
-7.244892 -5.832505 8.832679 12.826644 0.677813 0.811213 0.005715 -0.002485 -1495620.000000 1 0 0
8.083608 3.400695 -0.961721 8.822378 0.398215 1.680023 0.001440 -0.000144 1585190.000000 1 0 0
11.837108 7.252895 -5.922221 15.092856 0.549724 1.974020 0.005071 -0.004462 -259486.000000 1 0 0
3.757908 13.302295 -9.537721 16.794077 1.295470 2.174775 0.013636 -0.009052 402385.000000 1 0 0
-9.685892 5.433495 -0.427121 11.114036 -0.511226 1.609237 0.000052 -0.001539 354506.000000 1 0 0
11.329308 -1.311505 -5.142621 12.510788 -0.115249 1.994407 0.014386 -0.004486 -861662.000000 1 0 0
10.583808 1.655395 -1.210221 10.780629 0.155151 1.683292 0.003018 -0.002474 211083.000000 1 0 0
14.588508 5.092095 4.858279 16.197434 0.335827 1.266165 0.018110 -0.003471 2468930.000000 1 0 0
0.922108 -0.855705 10.335679 10.411954 -0.748065 0.121117 -0.000283 0.003922 1475700.000000 1 0 0
-7.919092 1.381295 -12.528321 14.885523 -0.172689 2.571118 0.000078 -0.002968 -320155.000000 1 0 0
3.094708 -11.582905 -7.814021 14.310829 -1.309716 2.148404 -0.012293 0.004609 164717.000000 1 0 0
2.885808 4.972495 -6.806121 8.909370 1.044948 2.440175 0.000521 -0.000205 -1271130.000000 1 0 0
6.537908 7.958895 0.522279 10.313148 0.883107 1.520133 0.001921 -0.002093 153617.000000 1 0 0
-9.135592 -5.373005 6.802979 12.593997 0.531653 1.000150 0.002741 0.002184 -3421810.000000 1 0 0
-0.308792 -6.970105 -11.802321 13.710306 1.526523 2.607706 0.005257 0.001800 2168660.000000 1 0 0
6.401308 -13.414205 -4.572521 15.550743 -1.125552 1.869246 0.002056 0.001363 2478370.000000 1 0 0
-3.242592 -0.331705 10.042579 10.558306 0.101942 0.313842 0.005347 0.002150 567443.000000 1 0 0
8.580108 8.455395 6.975479 13.920103 0.778077 1.045917 -0.004163 0.002187 -2016730.000000 1 0 0
-7.892692 5.637095 -2.581521 10.036716 -0.620204 1.830928 0.001534 -0.002711 1000390.000000 1 0 0
-5.417792 5.810095 -6.465321 10.242560 -0.820324 2.253923 0.001186 -0.001556 -530807.000000 1 0 0
3.281408 -13.620905 2.527379 14.236725 -1.334391 1.392325 0.003525 -0.004708 -1481650.000000 1 0 0
-11.329992 -6.968705 6.516979 14.812245 0.551425 1.115228 0.009610 -0.001589 115901.000000 1 0 0
-12.866392 -3.635605 -6.756021 14.980170 0.275387 2.038679 0.009521 -0.002377 189929.000000 1 0 0
6.013108 0.281695 -7.292221 9.455861 0.046813 2.451497 0.002321 0.000172 -160715.000000 1 0 0
-1.452292 2.184295 -2.552321 3.659868 -0.984032 2.342532 -0.001612 -0.005548 2592320.000000 1 0 0
7.549208 0.970495 -4.974421 9.092704 0.127855 2.149666 0.005680 -0.000882 1182730.000000 1 0 0
3.658108 -4.523005 10.902279 12.357145 -0.890726 0.490144 -0.003347 0.003488 395699.000000 1 0 0
6.002008 -2.608905 2.039779 6.855012 -0.410034 1.268660 0.006657 -0.002997 -520629.000000 1 0 0
-6.333092 7.750695 1.236979 10.085209 -0.885715 1.447834 -0.003843 -0.000583 1764910.000000 1 0 0
5.999308 -3.464305 7.968079 10.558570 -0.523674 0.715668 -0.001591 -0.000697 39402.600000 1 0 0
6.769908 -2.299105 -7.911721 10.663623 -0.327386 2.406749 0.002195 -0.000613 996797.000000 1 0 0
12.146308 -8.109805 -5.819821 15.721707 -0.588701 1.949996 0.024121 -0.004606 1450330.000000 1 0 0
5.551408 -9.655105 10.001679 14.969061 -1.048984 0.839068 -0.003372 0.002339 2526390.000000 1 0 0
-6.718692 7.516595 -4.519221 11.048229 -0.841391 1.992203 0.001272 0.000485 1284290.000000 1 0 0
-1.370792 -7.562505 9.695979 12.372654 1.391482 0.670257 0.002892 -0.001762 -183112.000000 1 0 0
10.113308 -9.293705 0.727379 13.754310 -0.743191 1.517888 0.013665 -0.007331 1958850.000000 1 0 0
11.013108 6.007695 9.787779 15.911680 0.499385 0.908243 0.000823 0.002964 1673780.000000 1 0 0
-15.266892 -4.171305 -4.946621 16.581521 0.266716 1.873730 0.004895 -0.006389 1269370.000000 1 0 0
-4.781692 -4.633705 7.834979 10.282155 0.769682 0.704404 0.003662 -0.001259 324128.000000 1 0 0
2.944908 10.882795 -11.085321 15.811136 1.306523 2.347747 0.006577 -0.005762 -2048070.000000 1 0 0
9.886708 -1.498305 1.521979 10.114758 -0.150403 1.419751 0.004822 -0.000923 -660625.000000 1 0 0
-1.645692 -2.582905 0.625879 3.125928 1.003509 1.369212 -0.000571 -0.002281 -215886.000000 1 0 0
1.510108 2.961595 0.815279 3.422886 1.099263 1.330300 -0.001815 -0.000179 -649992.000000 1 0 0
-8.964392 -2.309905 4.313579 10.212882 0.252190 1.134742 -0.000055 0.000008 3717540.000000 1 0 0
9.879808 4.877195 -2.678121 11.338870 0.458557 1.809239 0.000489 -0.000763 2359270.000000 1 0 0
2.618008 8.491495 2.432779 9.212918 1.271734 1.303565 -0.003213 0.000895 2266090.000000 1 0 0
-8.140992 -0.061705 2.431679 8.496624 0.007579 1.280544 -0.002724 -0.003242 2575720.000000 1 0 0
6.885808 1.998095 13.749979 15.507052 0.282420 0.480656 0.003223 0.001172 -1036910.000000 1 0 0
6.843208 4.368595 3.673379 8.911107 0.568166 1.145902 -0.006140 0.001798 222023.000000 1 0 0
-0.277192 3.397695 7.812179 8.523574 -1.489394 0.411460 -0.004036 0.003793 1552380.000000 1 0 0
2.681108 -10.264105 9.274179 14.090799 -1.315293 0.852407 -0.001942 -0.000174 1122610.000000 1 0 0
1.328508 -4.571505 6.865979 8.354955 -1.287980 0.606259 -0.004204 0.001942 557484.000000 1 0 0
-0.112192 10.823895 -2.004221 11.008460 -1.560431 1.753879 0.007778 -0.002494 4385700.000000 1 0 0
8.731908 5.551895 7.982079 13.068410 0.566340 0.913736 -0.006996 0.005142 358982.000000 1 0 0
2.665208 11.350495 -2.950421 12.026722 1.340165 1.818648 0.011922 -0.006243 -715662.000000 1 0 0
1.424608 2.371095 -6.748121 7.293060 1.029772 2.752569 -0.000126 -0.002707 2875130.000000 1 0 0
-13.620192 -2.155505 3.690579 14.275020 0.156956 1.309292 0.005977 -0.000449 3217460.000000 1 0 0
-0.865592 -10.621105 -5.388621 11.941288 1.489479 2.038973 -0.002801 0.000727 1112480.000000 1 0 0
-5.722592 2.774095 0.429479 6.374018 -0.451383 1.503366 -0.001030 -0.003724 43801.900000 1 0 0
3.675308 7.294795 -5.110721 9.635423 1.104093 2.129880 0.003455 -0.001025 -1185900.000000 1 0 0
2.861708 9.756295 -6.597921 12.120529 1.285480 2.146421 0.004471 -0.000695 748375.000000 1 0 0
-12.255192 1.653995 -2.461321 12.608867 -0.134152 1.767263 0.005154 -0.002552 1042080.000000 1 0 0
-2.529092 9.658295 -5.747321 11.520011 -1.314690 2.093124 0.003942 -0.000236 38869.100000 1 0 0
-1.361592 3.364995 1.651079 3.987880 -1.186301 1.143926 -0.004963 0.000715 844450.000000 1 0 0
12.816908 3.668195 9.624479 16.442609 0.278748 0.945500 0.026717 0.001717 1510170.000000 1 0 0
-2.546292 -9.482505 11.731379 15.297934 1.308460 0.696861 0.002145 -0.006499 2718150.000000 1 0 0
-0.339492 -8.914405 -7.563021 11.695348 1.532731 2.274006 -0.001483 0.001214 1159150.000000 1 0 0
2.287108 7.592895 -0.478021 7.944269 1.278223 1.631004 0.000258 -0.000783 2008060.000000 1 0 0
-11.792792 -1.288605 -5.507321 13.079030 0.108839 2.005432 0.006935 0.001185 -98677.800000 1 0 0
-6.205792 -7.149005 -10.815221 14.373209 0.855908 2.422581 0.011606 -0.003201 2605930.000000 1 0 0
-4.719692 -2.279005 -1.485921 5.447689 0.449851 1.847059 0.001676 -0.003388 -2679170.000000 1 0 0
-10.399892 3.769895 4.505979 11.944610 -0.347761 1.183983 0.000364 -0.006060 2336860.000000 1 0 0
6.751808 9.296295 -3.540121 12.022498 0.942643 1.869685 0.004386 0.000220 905486.000000 1 0 0
1.307608 -2.704705 -11.530121 11.915072 -1.120471 2.886707 0.002542 -0.003670 -1056670.000000 1 0 0
1.343408 8.798795 7.537079 11.663237 1.419285 0.868168 -0.006363 0.006503 406535.000000 1 0 0
10.286108 0.419795 10.486679 14.695261 0.040789 0.776159 0.004926 -0.000826 966736.000000 1 0 0
-5.262992 -0.868305 -3.981221 6.656062 0.163510 2.211968 0.003372 -0.007584 -1842310.000000 1 0 0
11.738108 5.647795 5.363379 14.087108 0.448454 1.180211 0.000931 0.003882 2737880.000000 1 0 0
9.896408 -3.517905 3.672279 11.126553 -0.341542 1.234444 0.010815 -0.006101 -345480.000000 1 0 0
7.317208 -1.737105 -3.464121 8.280048 -0.233085 2.002446 0.008308 -0.001760 -2846600.000000 1 0 0
2.435608 9.244895 10.445479 14.160095 1.313195 0.741183 -0.006719 0.007775 2252970.000000 1 0 0
2.347408 -10.888205 6.403879 12.848074 -1.358455 1.049008 -0.002301 -0.001424 1088980.000000 1 0 0
5.923608 -7.576305 -1.232321 9.695780 -0.907215 1.698240 0.003694 -0.006389 1112910.000000 1 0 0
-0.301092 -5.602605 -2.365421 6.088929 1.517107 1.969777 0.001987 -0.000175 946325.000000 1 0 0
7.677308 -5.192305 2.693479 9.651732 -0.594655 1.287974 0.006241 -0.005643 1251120.000000 1 0 0
-2.747292 -12.505805 4.626079 13.614088 1.354550 1.224091 0.006532 -0.000273 -460083.000000 1 0 0
4.889508 -10.353705 -1.150021 11.507782 -1.129596 1.670898 0.001509 -0.005919 1276350.000000 1 0 0
0.953508 0.178095 1.140579 1.497270 0.184651 0.704751 -0.004266 -0.000240 -2628040.000000 1 0 0
-1.531492 8.565395 2.335579 9.009239 -1.393866 1.308558 0.000239 0.002778 -284443.000000 1 0 0
-7.477092 0.655095 -3.045521 8.100077 -0.087390 1.956258 0.002289 -0.002590 -763019.000000 1 0 0
4.434108 -6.309905 12.980579 15.098731 -0.958246 0.536088 0.002677 0.002057 -1511120.000000 1 0 0
-5.049292 13.077595 8.387579 16.336166 -1.202328 1.031612 0.001504 -0.005052 1913640.000000 1 0 0
0.725308 6.096895 8.252979 10.286392 1.452389 0.639624 -0.004520 0.005463 531768.000000 1 0 0
7.969108 -0.589805 -0.801621 8.031012 -0.073877 1.670778 0.007225 -0.003423 2985170.000000 1 0 0
2.425308 -9.269205 -2.451021 9.889782 -1.314881 1.821240 -0.004119 -0.001580 3148030.000000 1 0 0
-7.167192 12.164795 4.916079 14.950542 -1.038374 1.235740 -0.000336 -0.001882 -447698.000000 1 0 0
-14.974692 0.282295 0.229179 14.979106 -0.018849 1.555496 0.004262 -0.003926 -332208.000000 1 0 0
6.817408 -0.544005 3.886779 7.866387 -0.079628 1.053997 -0.000892 0.001911 1213300.000000 1 0 0
-4.209392 -5.023505 5.105479 8.307858 0.873346 0.908998 0.001705 0.000111 -688947.000000 1 0 0
2.950708 5.142195 6.792779 9.016135 1.049847 0.717575 -0.010052 0.004706 -279276.000000 1 0 0
2.018408 -7.267405 1.781779 7.750090 -1.299890 1.338817 -0.000647 -0.001000 1976050.000000 1 0 0
-2.494292 6.379595 -1.832021 7.090629 -1.198090 1.832133 -0.000307 0.000272 1136310.000000 1 0 0
2.685108 -3.847905 -6.505521 8.021096 -0.961541 2.516743 -0.003946 -0.001403 -1757440.000000 1 0 0
-5.077092 0.853895 -12.217521 13.257971 -0.166626 2.742780 0.003679 -0.003237 643517.000000 1 0 0
-7.443092 6.343595 -11.925321 15.422519 -0.705816 2.454732 0.002863 -0.003036 853376.000000 1 0 0
-1.097492 11.307295 -9.063521 14.532956 -1.474039 2.244203 0.004926 0.004562 972311.000000 1 0 0
4.598108 5.859495 -0.634021 7.475176 0.905437 1.655715 0.001703 -0.000542 2549410.000000 1 0 0
-2.652592 13.352195 3.545879 14.067360 -1.374686 1.315983 0.000908 0.000590 1850460.000000 1 0 0
1.440308 -7.942005 10.309579 13.093409 -1.391393 0.664238 -0.003932 0.001899 -811017.000000 1 0 0
12.979708 -0.270105 -1.097821 13.028852 -0.020807 1.655157 0.011621 -0.004721 1008660.000000 1 0 0
-1.060992 3.110095 -5.428421 6.345561 -1.242032 2.597249 0.000721 -0.006137 803863.000000 1 0 0
6.561508 1.055095 7.213479 9.808206 0.159436 0.744461 -0.007480 0.004797 1750930.000000 1 0 0
5.387208 -6.231205 6.917079 10.756204 -0.857914 0.872285 -0.002385 -0.000892 104016.000000 1 0 0
12.185908 -4.947905 2.564979 13.399897 -0.385698 1.378190 0.013580 -0.007424 179792.000000 1 0 0
4.464108 -9.164705 13.898579 17.236316 -1.117524 0.632834 0.001740 0.004169 520983.000000 1 0 0
-2.738992 -4.302005 -1.438221 5.298849 1.003843 1.845666 0.003094 -0.003093 2091830.000000 1 0 0
-9.256592 -5.265105 -7.594721 13.079970 0.517159 2.190308 0.020863 -0.002930 1147670.000000 1 0 0
-10.609892 -3.033105 7.882679 13.561201 0.278448 0.950511 0.005304 0.001790 -282791.000000 1 0 0
12.026008 -0.733105 1.640379 12.159488 -0.060885 1.435478 0.004127 -0.003131 943818.000000 1 0 0
-7.552692 4.708795 4.373979 9.917036 -0.557490 1.114020 0.000537 -0.003388 1870930.000000 1 0 0
-1.015692 10.565295 6.916879 12.668871 -1.474956 0.993245 -0.002306 0.005798 3423960.000000 1 0 0
7.386408 -9.941505 1.840679 12.521208 -0.931799 1.423257 0.007656 -0.006221 3927240.000000 1 0 0
-4.365592 -1.659205 1.542279 4.918331 0.363203 1.251838 -0.002743 0.000596 1633920.000000 1 0 0
6.631208 -15.050205 -0.905021 16.471207 -1.155782 1.625770 0.014218 0.002167 -742829.000000 1 0 0
-10.461092 1.734995 2.453879 10.884217 -0.164356 1.343388 0.001510 -0.002252 959995.000000 1 0 0
-2.995492 8.279495 -11.343021 14.359217 -1.223651 2.481519 -0.003544 0.001087 -1586870.000000 1 0 0
-1.237892 -5.145505 -6.952621 8.737708 1.334706 2.490964 -0.002745 -0.002172 -965402.000000 1 0 0
12.689408 -0.532305 6.390479 14.217688 -0.041924 1.104620 0.016002 -0.007426 2285190.000000 1 0 0
5.927908 -13.262505 3.656479 14.980120 -1.150467 1.324216 0.007481 -0.002026 417057.000000 1 0 0
-5.653992 3.505195 -4.941621 8.286955 -0.554960 2.209697 -0.000103 -0.003988 652194.000000 1 0 0
-4.294792 8.164995 3.326879 9.807166 -1.086565 1.224699 -0.001799 0.002994 497716.000000 1 0 0
13.926308 6.118295 -4.003021 15.728947 0.413948 1.828127 0.012848 -0.002403 692149.000000 1 0 0
-6.681792 -8.476605 5.391479 12.065125 0.903253 1.107539 0.013119 0.001364 1759790.000000 1 0 0
1.735408 11.437395 2.624179 11.862207 1.420214 1.347729 0.000627 -0.001808 399994.000000 1 0 0
-7.310192 7.297095 6.003579 11.946944 -0.784502 1.044285 -0.001031 -0.000917 -257348.000000 1 0 0
-17.537392 -3.961905 5.208979 18.718715 0.222182 1.288797 0.020986 -0.008744 -1249150.000000 1 0 0
7.427208 -13.202805 -8.575021 17.407138 -1.058371 2.085889 0.009531 0.003604 -993446.000000 1 0 0
-2.321392 12.828895 -2.783721 13.331110 -1.391783 1.781158 0.006321 0.000063 580007.000000 1 0 0
-5.546292 13.867895 -5.701421 15.987059 -1.190344 1.935452 0.011888 0.000845 1565020.000000 1 0 0
-5.648392 2.551395 7.433579 9.678432 -0.424269 0.694996 0.001719 0.000238 2519700.000000 1 0 0
-7.327092 5.096295 1.456079 9.043155 -0.607727 1.409078 0.001021 -0.003491 1085900.000000 1 0 0
10.701208 -5.670405 -4.921521 13.072518 -0.487268 1.956788 0.016528 -0.007430 3529800.000000 1 0 0
-9.557792 -0.700305 6.851579 11.780745 0.073140 0.950113 -0.001423 0.000092 991887.000000 1 0 0
-11.248192 -4.537805 -2.593321 12.403177 0.383456 1.781436 0.005657 -0.002834 739244.000000 1 0 0
6.516308 -4.302205 13.604879 15.686427 -0.583527 0.521039 0.007598 -0.004218 -1622460.000000 1 0 0
0.235008 10.254795 -11.633421 15.509755 1.547883 2.418966 0.000758 -0.001870 -1669980.000000 1 0 0
-11.802992 -3.193905 1.479979 12.316736 0.264272 1.450345 0.005529 -0.000682 2813530.000000 1 0 0
5.238608 5.972595 5.355979 9.581306 0.850774 0.977613 -0.008894 0.004568 -4069830.000000 1 0 0
-7.136892 0.036195 8.045679 10.754975 -0.005071 0.725619 -0.002016 0.000483 -495218.000000 1 0 0
1.850508 2.024195 9.550879 9.936853 0.830194 0.279631 -0.004789 0.004204 3198050.000000 1 0 0
10.525408 -4.947705 -2.003921 11.801682 -0.439420 1.741423 0.010190 -0.004819 1712920.000000 1 0 0
-9.740392 -2.316605 -1.665321 10.149640 0.233497 1.735618 0.002862 -0.002451 -289223.000000 1 0 0
-1.922492 -5.234205 -9.988421 11.439468 1.218799 2.632433 0.008859 -0.004248 2490190.000000 1 0 0
7.575608 -1.701405 6.473279 10.108806 -0.220924 0.875829 -0.003256 0.000715 2348980.000000 1 0 0
1.552808 -11.921805 -2.548321 12.289613 -1.441276 1.779667 -0.004283 0.001317 -4247860.000000 1 0 0
-0.814492 -1.522005 4.752079 5.055903 1.079430 0.348438 -0.000836 0.002804 3077110.000000 1 0 0
7.533008 1.525595 9.886079 12.522309 0.199819 0.660839 -0.002871 0.003715 1769770.000000 1 0 0
-3.874392 10.734095 -8.009021 13.941883 -1.224407 2.182738 0.006569 0.003492 2478410.000000 1 0 0
-9.501192 12.712095 6.400079 17.112306 -0.928953 1.187473 -0.006430 -0.001535 679556.000000 1 0 0
-2.470692 -2.396005 -11.138821 11.658408 0.770053 2.841917 0.010114 -0.008133 -758261.000000 1 0 0
1.141008 -11.907405 11.153679 16.355206 -1.475265 0.820350 0.002955 0.001301 2231460.000000 1 0 0
1.314708 3.455795 -1.954421 4.182192 1.207269 2.057053 0.000490 -0.002881 3171570.000000 1 0 0
-1.955292 -9.433705 -12.025421 15.408722 1.366424 2.466149 0.001393 0.001809 17637.600000 1 0 0
1.279908 -2.731405 1.549679 3.391201 -1.132591 1.096210 0.002044 -0.000102 2603480.000000 1 0 0
-1.016692 -2.212405 -6.624121 7.057434 1.140036 2.789351 -0.001181 -0.007805 -921076.000000 1 0 0
1.826508 5.902095 3.991279 7.355349 1.270676 0.997224 -0.008257 0.005546 29851.200000 1 0 0
-10.990492 8.637495 3.733779 14.468529 -0.666088 1.309780 -0.008421 -0.003353 1226840.000000 1 0 0
-16.484592 -1.443705 4.055579 17.037423 0.087356 1.330450 0.011567 -0.002213 1136310.000000 1 0 0
-12.229492 0.381795 6.826879 14.011157 -0.031209 1.061863 -0.000555 0.002139 99788.200000 1 0 0
-5.041792 3.081695 4.648879 7.518550 -0.548636 0.904191 -0.001339 0.000480 1377560.000000 1 0 0
5.129408 -6.097405 4.031479 8.929838 -0.871407 1.102394 -0.001000 -0.002419 858344.000000 1 0 0
9.872208 3.467095 6.291479 12.209175 0.337741 1.029430 -0.005486 0.004618 1690990.000000 1 0 0
-12.085392 5.821395 3.111879 13.770589 -0.448891 1.342847 0.001280 -0.004032 1433010.000000 1 0 0
-4.946592 12.310295 -1.292121 13.329730 -1.188717 1.667884 -0.000078 0.001478 2545990.000000 1 0 0
-1.802992 -12.087905 10.307079 15.987624 1.422731 0.870177 0.008888 -0.005643 1053770.000000 1 0 0
5.248208 6.354895 13.895279 16.155716 0.880489 0.535361 -0.001899 0.003593 190809.000000 1 0 0
12.986408 -3.758705 -5.871721 14.739463 -0.281735 1.980532 0.014184 -0.005050 2271020.000000 1 0 0
3.510408 -2.564905 6.396579 7.734205 -0.631006 0.596956 -0.007294 0.003764 1206650.000000 1 0 0
7.261908 -11.895905 -0.623721 13.951233 -1.022725 1.615518 0.009363 -0.002149 -1716190.000000 1 0 0
-6.025992 -6.573105 -4.058321 9.797360 0.828796 1.997889 0.014923 -0.004485 1177500.000000 1 0 0
0.271108 -8.959405 5.010279 10.268756 -1.540546 1.061097 -0.001132 -0.001979 1143460.000000 1 0 0
-10.270492 2.510795 -0.347821 10.578661 -0.239764 1.603682 0.000511 -0.002058 -1720090.000000 1 0 0
-1.870992 8.951295 -0.463021 9.156455 -1.364744 1.621386 0.002872 -0.001556 540546.000000 1 0 0
-3.545092 2.280095 -6.604221 7.834682 -0.571558 2.573534 0.004324 -0.008461 -334664.000000 1 0 0
-12.642392 3.228595 6.447979 14.554392 -0.250034 1.111825 0.000618 -0.006275 1709970.000000 1 0 0
11.279008 1.577795 7.912579 13.867746 0.138986 0.963591 0.010426 -0.002595 -2314270.000000 1 0 0
5.965908 2.647095 -3.207621 7.272414 0.417605 2.027583 0.003407 -0.001720 1495290.000000 1 0 0
10.411408 -2.482405 6.377179 12.459060 -0.234061 1.033459 0.009514 -0.006061 3046930.000000 1 0 0
-0.844092 11.048195 4.035679 11.792447 -1.494544 1.221512 0.004572 0.001073 2332190.000000 1 0 0
-1.568892 -12.180305 7.375679 14.325568 1.442696 1.029951 0.005425 0.001575 -1151130.000000 1 0 0
8.079308 8.573795 -7.782521 14.119235 0.815083 2.154598 0.005878 -0.006612 45818.000000 1 0 0
-4.659192 -5.879105 -8.698721 11.486500 0.900645 2.429964 0.011594 -0.005324 440014.000000 1 0 0
-8.496992 -5.280505 -11.599621 15.317761 0.556047 2.429913 0.016103 -0.002874 1079610.000000 1 0 0
6.004208 -0.676605 -9.988421 11.673768 -0.112215 2.597562 0.000199 -0.001538 -652935.000000 1 0 0
-11.185192 -5.441605 -5.458921 13.583792 0.452790 1.984355 0.007243 -0.005805 268480.000000 1 0 0
3.877508 8.830195 -2.752321 10.029091 1.157028 1.848797 0.006098 -0.002947 1585110.000000 1 0 0
11.636708 -10.382805 -4.025921 16.106634 -0.728515 1.823429 0.020712 -0.003775 1136240.000000 1 0 0
3.934108 -11.313105 3.990379 12.624844 -1.236129 1.249208 0.000011 -0.001922 820866.000000 1 0 0
-0.986592 0.889895 3.201079 3.465860 -0.733913 0.393420 -0.003568 0.002316 -536448.000000 1 0 0
-10.600992 -5.047205 4.526979 12.583674 0.444351 1.202796 0.009116 0.001435 3900790.000000 1 0 0
4.540308 -8.676805 2.755879 10.173309 -1.088707 1.296476 -0.000427 -0.002719 4255820.000000 1 0 0
-3.634092 -5.756505 2.625579 7.296413 1.007678 1.202694 0.000564 0.001483 2364800.000000 1 0 0
9.974008 5.077395 12.379879 16.688984 0.470871 0.735047 0.000652 0.010795 -273271.000000 1 0 0
1.666108 -12.353005 -5.236021 13.519932 -1.436731 1.968478 -0.006842 0.000561 979239.000000 1 0 0
9.815008 -10.782105 -1.784721 14.689228 -0.832317 1.692596 0.013106 -0.005994 986477.000000 1 0 0
9.646108 -4.459905 -9.211621 14.063858 -0.433079 2.284960 0.015327 -0.001758 1978720.000000 1 0 0
-7.402692 -3.141905 -13.135621 15.401816 0.401386 2.592238 0.007743 -0.001314 2835960.000000 1 0 0
0.368708 6.231595 -2.562321 6.747904 1.511698 1.960291 0.002622 -0.001890 2178930.000000 1 0 0
-6.063392 -9.474705 1.044179 11.297127 1.001515 1.478235 0.004373 0.003287 676924.000000 1 0 0
-9.020892 -4.019005 0.555079 9.891259 0.419124 1.514649 -0.000753 0.000850 3138510.000000 1 0 0
1.913908 3.821095 12.070879 12.805075 1.106445 0.340273 -0.000473 -0.001075 528305.000000 1 0 0
6.607008 4.299795 9.567979 12.397057 0.576932 0.689138 -0.011109 0.005240 2474900.000000 1 0 0
-8.413892 9.771395 -3.637521 13.397958 -0.859908 1.845746 -0.005641 0.003136 2640330.000000 1 0 0
16.437608 2.127395 -6.047321 17.643437 0.128707 1.920641 0.016539 -0.003407 -1731210.000000 1 0 0
-10.936492 2.651695 -5.002121 12.315013 -0.237873 1.989067 0.001632 0.000109 711052.000000 1 0 0
-13.726992 4.107595 1.430679 14.399635 -0.290755 1.471277 0.000978 -0.001703 -1065410.000000 1 0 0
-17.435192 10.491795 3.338579 20.620615 -0.541712 1.408176 0.034591 -0.008613 -72519.500000 1 0 0
-14.369592 2.906695 -1.181321 14.708146 -0.199588 1.651200 0.006423 -0.002546 1403850.000000 1 0 0
-14.395392 5.160295 5.061679 16.108276 -0.344199 1.251152 -0.000803 -0.004165 1169490.000000 1 0 0
-17.490792 7.561795 3.061679 19.299804 -0.408063 1.411485 0.019444 -0.005079 -802825.000000 1 0 0
-14.867992 12.497395 -3.347421 19.709066 -0.698986 1.741465 0.036886 -0.002521 198230.000000 1 0 0
-8.453392 12.486995 -9.682121 17.920054 -0.975691 2.141584 -0.000226 -0.005188 993974.000000 1 0 0
-12.442992 8.866995 -9.930121 18.222484 -0.619139 2.147111 0.017806 -0.001841 -1678190.000000 1 0 0
-13.932592 -3.213505 -12.219121 18.808260 0.226682 2.277944 0.010132 0.001959 -1543360.000000 1 0 0
-14.901192 5.883995 -7.664321 17.759750 -0.376074 2.017013 0.031515 -0.000431 -116454.000000 1 0 0
-10.859392 13.632695 -8.559921 19.417749 -0.898151 2.027319 0.013331 -0.003725 -1426280.000000 1 0 0
-10.933292 13.574995 3.937679 17.869602 -0.892772 1.348617 -0.003728 -0.000048 -1068420.000000 1 0 0
-15.209192 3.392595 2.980979 15.865543 -0.219469 1.381783 -0.001776 -0.000230 1178610.000000 1 0 0
-11.107792 9.476195 -12.509221 19.226594 -0.706298 2.279198 0.026134 -0.010252 76303.100000 1 0 0
-12.938892 11.693195 -9.087321 19.665328 -0.734869 2.051156 0.019175 -0.012503 -608681.000000 1 0 0
-8.930392 14.575495 -3.414221 17.431404 -1.021092 1.767937 -0.001438 -0.005181 -454347.000000 1 0 0
-16.801792 8.316095 -4.086621 19.187447 -0.459602 1.785424 0.037308 0.002023 -843847.000000 1 0 0
-16.910792 6.683695 0.261279 18.185569 -0.376390 1.556428 0.017594 0.001497 -970350.000000 1 0 0
-10.410392 2.859695 -12.460821 16.487151 -0.268084 2.427656 0.004612 -0.005222 -1352650.000000 1 0 0
-16.914692 0.986395 2.355579 17.106389 -0.058250 1.432656 0.004598 -0.004515 10381.000000 1 0 0
-12.682492 1.226895 -6.884321 14.482567 -0.096439 2.066161 0.004808 -0.002168 998040.000000 1 0 0
-12.411392 9.092595 -5.528021 16.348607 -0.632272 1.915730 0.015991 0.000844 -665365.000000 1 0 0
-9.630592 14.042595 1.343979 17.080663 -0.969656 1.492031 0.006017 -0.001739 448200.000000 1 0 0
-12.195892 11.155595 2.743979 16.754596 -0.740878 1.406280 -0.002666 0.002677 -251341.000000 1 0 0
-12.574692 6.943895 -3.699721 14.833357 -0.504540 1.822877 0.003602 0.002544 2351250.000000 1 0 0
-15.833192 3.715995 -9.389421 18.779239 -0.230524 2.094383 0.024721 -0.005505 -388210.000000 1 0 0
-15.137392 5.924895 -4.719921 16.926980 -0.373078 1.853382 0.019619 -0.000067 790673.000000 1 0 0
-17.738992 5.415795 7.506979 20.008933 -0.296316 1.186204 -0.001464 -0.005929 -1859290.000000 1 0 0
-15.747792 10.052195 -2.065421 18.796423 -0.568123 1.680902 0.031633 0.000543 -736332.000000 1 0 0
-8.806792 9.982095 -8.347921 15.712720 -0.847870 2.130912 0.002037 -0.000517 553558.000000 1 0 0
-17.048092 4.279895 -1.392821 17.632212 -0.245965 1.649872 0.009624 -0.000784 267858.000000 1 0 0
-10.195792 5.436695 -4.516121 12.405933 -0.489876 1.943386 0.001932 0.002272 593628.000000 1 0 0
-18.116192 2.927495 6.064779 19.327395 -0.160211 1.251612 0.002328 -0.001278 -1050250.000000 1 0 0
-10.417992 10.154695 -5.780521 15.654609 -0.772600 1.949002 0.000805 -0.000363 356121.000000 1 0 0
-15.361992 0.432295 -5.885021 16.456340 -0.028133 1.936508 0.007972 -0.001479 252538.000000 1 0 0
-16.367792 -4.134205 -8.885621 19.077487 0.247407 2.055295 0.005403 -0.008229 -540283.000000 1 0 0
-9.912992 9.661995 -1.011621 13.879659 -0.772577 1.643746 -0.005557 0.001242 2011800.000000 1 0 0
-17.362092 -2.995905 -3.206021 17.907994 0.170872 1.750794 0.009255 -0.005092 -1022560.000000 1 0 0
-11.818192 5.162395 -11.561021 17.319849 -0.411838 2.301644 0.009974 -0.002519 -339562.000000 1 0 0
-16.252092 7.168095 5.713279 18.658875 -0.415392 1.259601 0.005630 -0.003870 -682234.000000 1 0 0
-12.197392 6.077395 -8.831721 16.239162 -0.462250 2.145818 0.013285 0.002322 2285460.000000 1 0 0
-14.518892 8.258195 -0.088821 16.703409 -0.517154 1.576114 0.016581 -0.000679 2169980.000000 1 0 0
-14.841592 11.807195 3.903479 19.362847 -0.672020 1.367809 0.001746 -0.005545 759495.000000 1 0 0
-17.273792 4.140595 -4.210221 18.255256 -0.235265 1.803522 0.015439 -0.003000 357236.000000 1 0 0
-13.758992 13.459395 -0.799821 19.264082 -0.774391 1.612327 0.022242 0.002749 -883401.000000 1 0 0
-9.991492 6.906995 -13.159621 17.908436 -0.604855 2.396209 0.005569 -0.003821 -140552.000000 1 0 0
-15.813892 -1.118905 -8.346021 17.916115 0.070637 2.055379 0.007106 -0.003853 182808.000000 1 0 0
-11.394092 11.937895 -0.005521 16.502687 -0.808701 1.571131 0.006837 -0.000918 1015090.000000 1 0 0
-11.872092 7.408595 -0.995221 14.029409 -0.557905 1.641794 0.000344 0.002481 1789690.000000 1 0 0
-11.424792 0.204095 -11.716921 16.366238 -0.017862 2.368738 0.005931 -0.004880 64290.100000 1 0 0
-19.016592 -1.246605 -4.788821 19.649875 0.065460 1.816983 0.013140 -0.007829 -1325710.000000 1 0 0
-17.988392 1.430395 -5.138521 18.762534 -0.079351 1.848212 0.012444 -0.003223 -181581.000000 1 0 0
-13.287692 0.044395 -9.483121 16.324653 -0.003341 2.190640 0.010143 -0.004789 295977.000000 1 0 0
-6.146192 11.248095 -13.258821 18.441573 -1.070705 2.373106 -0.007155 -0.001900 -285434.000000 1 0 0
16.397608 5.752395 7.098379 18.771217 0.337394 1.182997 0.052910 -0.010405 987902.000000 1 0 0
14.899208 10.027095 -5.374921 18.746168 0.592371 1.861599 0.035851 -0.006501 -17738.100000 1 0 0
2.377708 16.887795 4.282579 17.583845 1.430921 1.324770 0.012985 -0.008104 321137.000000 1 0 0
-3.885592 18.281895 -5.802221 19.570162 -1.361375 1.871804 0.019046 -0.000925 1013640.000000 1 0 0
5.382508 14.557695 5.633879 16.511767 1.216648 1.222599 0.002838 -0.006910 -886312.000000 1 0 0
9.905908 6.004695 15.080479 19.015894 0.544946 0.655003 0.009283 0.011636 -1833570.000000 1 0 0
4.663608 12.702595 -1.208621 13.585504 1.218936 1.659878 0.006588 -0.005219 1236920.000000 1 0 0
3.556808 13.681795 12.965979 19.182258 1.316460 0.828562 0.007024 0.000003 -716972.000000 1 0 0
-0.703992 12.361195 9.150779 15.395827 -1.513906 0.934317 0.002251 0.004337 2008190.000000 1 0 0
-7.680992 13.999795 8.438379 18.060956 -1.068990 1.084656 0.000958 -0.006052 866994.000000 1 0 0
11.445608 12.857595 -4.162821 17.710132 0.843432 1.808069 0.024278 -0.005895 281428.000000 1 0 0
-5.827692 16.142295 0.840479 17.182610 -1.224338 1.521862 -0.000280 -0.000247 530429.000000 1 0 0
3.301008 10.591495 6.680179 12.949950 1.268671 1.028801 -0.006728 0.005761 3045560.000000 1 0 0
-1.210692 15.548395 2.400479 15.779121 -1.493087 1.418073 0.004214 -0.001775 -1151540.000000 1 0 0
9.951008 8.844695 9.550579 16.384894 0.726606 0.948516 0.008879 0.000334 1385040.000000 1 0 0
7.276808 12.298395 6.209179 15.580640 1.036511 1.160895 0.000240 -0.003511 438406.000000 1 0 0
11.882808 14.008895 -1.558221 18.435789 0.867329 1.655419 0.021463 -0.002330 -244173.000000 1 0 0
9.749008 15.942795 -1.167521 18.723754 1.021964 1.633192 0.014975 -0.006665 2054600.000000 1 0 0
10.074008 13.648095 2.961879 17.220013 0.934938 1.397935 0.011538 -0.006450 2404980.000000 1 0 0
-6.037592 14.611595 6.236679 16.995511 -1.178958 1.195057 -0.004548 -0.004785 376235.000000 1 0 0
-0.901692 18.305895 -6.289221 19.377129 -1.521579 1.901353 0.035898 0.003675 1986740.000000 1 0 0
-3.562892 15.767895 5.355579 17.029472 -1.348570 1.250878 -0.003162 -0.002344 1450720.000000 1 0 0
7.147208 12.221095 10.585779 17.677570 1.041609 0.928763 0.000640 0.000480 3493000.000000 1 0 0
1.438108 14.614795 6.162679 15.926048 1.472711 1.173468 0.004139 -0.001063 985235.000000 1 0 0
17.380408 7.569795 -1.393021 19.008442 0.410761 1.644146 0.007194 0.002361 1064710.000000 1 0 0
2.098708 16.185495 -3.426821 16.676868 1.441850 1.777754 0.012091 -0.002500 948945.000000 1 0 0
6.699908 11.168195 0.505779 13.033540 1.030443 1.531981 0.006115 -0.001537 1128060.000000 1 0 0
12.618608 9.363695 3.238779 16.043620 0.638397 1.367526 0.007202 0.001361 -2161070.000000 1 0 0
6.067608 14.268395 -3.489921 15.892844 1.168716 1.792191 0.001755 -0.000251 191572.000000 1 0 0
3.129908 16.506995 1.428879 16.861758 1.383410 1.485954 0.009962 -0.012071 508103.000000 1 0 0
2.818408 18.835995 -2.454521 19.203197 1.422269 1.698965 0.013992 -0.011404 -820401.000000 1 0 0
4.001408 11.938695 10.655079 16.494678 1.247400 0.868502 -0.000365 0.000857 2266860.000000 1 0 0
7.954808 11.531195 3.390979 14.413402 0.966914 1.333304 -0.000036 -0.001011 798542.000000 1 0 0
0.797208 12.486995 0.109479 12.512896 1.507040 1.562047 0.007567 -0.004431 -128195.000000 1 0 0
12.039908 9.922495 -4.623621 16.272466 0.689284 1.858903 0.016116 -0.003392 127646.000000 1 0 0
-1.423792 16.473395 9.882379 19.262952 -1.484581 1.032091 0.009208 -0.005154 -815531.000000 1 0 0
8.284408 14.645895 -8.008721 18.635269 1.056019 2.015025 0.018320 -0.008240 210506.000000 1 0 0
14.398608 7.617095 -1.381121 16.347707 0.486590 1.655381 0.006293 0.000417 630486.000000 1 0 0
12.494208 8.340795 6.027479 16.186556 0.588630 1.189229 0.010712 0.000030 142291.000000 1 0 0
-2.998192 14.198595 10.213879 17.745776 -1.362692 0.957499 0.003351 -0.007354 1474830.000000 1 0 0
-4.632392 17.111795 -3.103321 17.997310 -1.306420 1.744095 0.022881 -0.007101 745728.000000 1 0 0
-7.158792 16.325595 -1.665721 17.903853 -1.157546 1.663968 0.004651 -0.004885 147871.000000 1 0 0
8.390608 11.255095 -1.900121 14.166507 0.930185 1.705329 0.008130 -0.001672 -505723.000000 1 0 0
8.569108 12.904095 -4.224221 16.055819 0.984600 1.837026 0.014641 -0.004809 2353630.000000 1 0 0
2.535608 14.848195 -7.350721 16.761005 1.401659 2.024793 0.009051 0.000073 -617512.000000 1 0 0
11.332308 11.402995 9.680179 18.765803 0.788507 1.028807 0.022574 -0.012500 678216.000000 1 0 0
8.640908 15.701895 1.525579 17.987278 1.067715 1.485880 0.009279 -0.008850 472197.000000 1 0 0
6.120108 9.966795 7.754579 14.033040 1.020110 0.985322 -0.002301 0.005284 1964710.000000 1 0 0
14.452308 11.324195 2.577079 18.540440 0.664633 1.431347 0.023279 0.000981 800846.000000 1 0 0
12.168608 12.597095 1.099479 17.549093 0.802698 1.508104 0.019253 0.000102 2592810.000000 1 0 0
5.301008 15.799495 8.214479 18.579623 1.247081 1.112832 0.017685 -0.007536 -1528510.000000 1 0 0
11.541108 14.877495 5.103479 19.508524 0.911022 1.306114 0.026060 -0.008766 -477870.000000 1 0 0
5.994608 16.807395 1.741179 17.929181 1.228196 1.473529 0.003322 -0.016201 699026.000000 1 0 0
-0.614592 16.210395 -4.259921 16.772046 -1.532901 1.827599 0.020554 -0.001538 1920450.000000 1 0 0
15.949708 6.385795 2.574579 17.372393 0.380826 1.422049 0.001130 -0.003274 -801796.000000 1 0 0
7.765108 16.670695 -3.223921 18.670903 1.134886 1.744337 0.002883 -0.005431 -58891.400000 1 0 0
14.903508 8.141495 7.484779 18.558567 0.499983 1.155670 0.044844 -0.007854 799748.000000 1 0 0
2.153408 12.879495 8.519879 15.591886 1.405132 0.992700 0.001366 0.002462 1467730.000000 1 0 0
15.869408 7.339295 -5.906621 18.455122 0.433184 1.896582 0.014284 0.001573 239218.000000 1 0 0
-3.020992 17.040895 0.699479 17.320732 -1.395340 1.530401 0.005861 -0.002957 684663.000000 1 0 0
-2.941592 18.545495 4.554279 19.321744 -1.413492 1.332850 -0.002648 -0.004295 535978.000000 1 0 0
-0.913592 19.092995 0.790279 19.131169 -1.522983 1.529476 0.011555 -0.009318 690229.000000 1 0 0
7.087708 16.678695 -6.142421 19.134884 1.168963 1.897588 0.007193 -0.004398 143486.000000 1 0 0
10.953208 10.063895 0.817679 14.897092 0.743110 1.515880 0.008121 0.002003 -989014.000000 1 0 0
9.108108 8.698495 14.249479 19.017600 0.762399 0.723824 0.007611 0.006415 -1325630.000000 1 0 0
6.388608 12.286795 -8.386221 16.189760 1.091311 2.115302 0.018764 -0.010854 2044840.000000 1 0 0
6.358808 8.975895 13.279779 17.243946 0.954434 0.691779 -0.004809 0.005149 1104500.000000 1 0 0
16.640208 9.358895 3.008379 19.327074 0.512334 1.414505 0.017296 -0.003691 -1040620.000000 1 0 0
2.612608 14.694595 -0.889721 14.951536 1.394841 1.630338 0.007723 -0.007354 442874.000000 1 0 0
9.126808 12.945295 8.286379 17.875776 0.956703 1.088795 0.012520 -0.010114 1307250.000000 1 0 0
7.269908 9.399395 10.536179 15.881161 0.912459 0.845391 -0.002833 0.003845 982280.000000 1 0 0
4.434308 15.806395 -5.380421 17.275825 1.297288 1.887507 0.012656 -0.002786 2717340.000000 1 0 0
0.282408 16.381995 -8.241921 18.340631 1.553559 2.036868 0.019039 0.006223 1187870.000000 1 0 0
-2.403192 15.760295 -2.005121 16.068065 -1.419478 1.695912 0.011613 0.000747 363330.000000 1 0 0
13.373108 10.489095 7.742179 18.676254 0.665120 1.143352 0.035558 -0.010216 69025.000000 1 0 0
-1.002992 15.937195 6.989679 17.431460 -1.507945 1.158209 0.006011 -0.002321 3712140.000000 1 0 0
13.329608 13.288395 6.642879 19.959653 0.783850 1.231509 0.035307 -0.011720 -959220.000000 1 0 0
5.270708 17.372495 4.486479 18.700600 1.276229 1.328522 0.010646 -0.014394 -376463.000000 1 0 0
10.864908 9.481295 -1.851421 14.538533 0.717499 1.698489 0.007571 0.001242 298210.000000 1 0 0
3.237308 12.722195 4.693479 13.941418 1.321623 1.227432 0.002095 0.002321 1711410.000000 1 0 0
-0.207192 17.990495 3.464879 18.322287 -1.559280 1.380543 0.008261 -0.007290 1061510.000000 1 0 0
-7.778992 15.855395 -5.782421 18.583397 -1.114680 1.887210 0.012853 -0.010825 179290.000000 1 0 0
-12.561792 -9.051705 8.271579 17.554231 0.624401 1.080144 0.012116 -0.006238 1107730.000000 1 0 0
-13.352592 -11.719705 6.907479 19.061912 0.720363 1.199986 0.007728 -0.000033 -1003330.000000 1 0 0
-6.494892 -12.278705 12.393579 18.615881 1.084253 0.842294 0.024038 -0.008072 -130422.000000 1 0 0
-1.720992 -10.678005 14.461379 18.058602 1.410999 0.642162 0.003707 -0.006670 820498.000000 1 0 0
-8.881992 2.929595 10.972479 14.417615 -0.318599 0.705871 0.002202 0.001514 622875.000000 1 0 0
0.733108 10.068895 15.128879 18.187993 1.498115 0.588443 -0.003658 -0.001547 791513.000000 1 0 0
0.995008 -6.759405 16.740679 18.081204 -1.424642 0.387489 0.008472 -0.004489 1258810.000000 1 0 0
6.153808 2.175595 17.761879 18.923185 0.339822 0.352158 0.022940 -0.012719 2101180.000000 1 0 0
-5.186592 -2.845905 17.620079 18.586746 0.501848 0.323931 0.015758 -0.009927 -396392.000000 1 0 0
-4.240092 8.211195 12.937779 15.899315 -1.094131 0.620252 0.002233 -0.004644 -584297.000000 1 0 0
0.020108 -4.852905 18.729679 19.348178 -1.566653 0.253529 0.016194 -0.015022 245762.000000 1 0 0
-11.671692 2.170995 11.247479 16.353819 -0.183903 0.812399 0.006127 -0.000173 1013860.000000 1 0 0
-3.435192 -6.114505 14.435779 16.049282 1.058931 0.452251 0.017198 -0.006614 1465130.000000 1 0 0
-7.507592 -2.274405 14.581779 16.557933 0.294159 0.493559 0.011855 0.001761 1356980.000000 1 0 0
-6.168292 -1.053705 10.546679 12.263383 0.169193 0.535500 0.006274 0.001084 1372360.000000 1 0 0
-3.991392 2.485095 11.144679 12.095899 -0.556881 0.399231 0.003934 0.001868 1679360.000000 1 0 0
-6.466792 6.357095 13.529679 16.287550 -0.776844 0.590475 -0.003386 -0.001914 1171600.000000 1 0 0
-8.980892 5.426695 12.584779 16.385424 -0.543538 0.695010 0.002703 -0.004461 -372600.000000 1 0 0
-12.297092 -2.156905 15.900079 20.215915 0.173633 0.665654 0.015770 0.007467 792601.000000 1 0 0
-3.573592 -7.608405 17.032279 18.993602 1.131689 0.458454 0.022771 -0.010317 -56072.700000 1 0 0
-0.563592 -5.390005 14.501979 15.481512 1.466613 0.357631 0.012662 -0.001954 1828160.000000 1 0 0
-14.265292 -2.283405 13.657679 19.880762 0.158721 0.813472 0.004304 0.004697 -1316250.000000 1 0 0
-6.529992 1.503695 12.137879 13.864704 -0.226330 0.504427 0.006022 0.000526 1858610.000000 1 0 0
2.139108 -2.229405 14.656579 14.978697 -0.806065 0.207762 0.007972 0.002501 335477.000000 1 0 0
-12.550392 4.149395 9.213979 16.112952 -0.319305 0.962053 -0.002367 0.000033 -367024.000000 1 0 0
-9.135592 -2.985405 12.580879 15.831936 0.315849 0.652362 0.002787 0.005382 1603430.000000 1 0 0
-7.163292 -7.227205 15.357279 18.422575 0.789840 0.585181 0.030848 -0.008165 -588145.000000 1 0 0
-3.277592 6.022195 19.462179 20.634579 -1.072377 0.338714 0.023723 -0.012907 -396837.000000 1 0 0
0.628108 5.414295 16.130679 17.026683 1.455303 0.325858 0.012047 -0.008528 1001620.000000 1 0 0
3.412308 1.498795 16.863579 17.270511 0.413863 0.217510 0.021370 -0.010271 956802.000000 1 0 0
-11.630392 11.563295 7.955279 18.228063 -0.782505 1.119169 0.000833 -0.009013 -115734.000000 1 0 0
0.745108 -9.410005 15.564179 18.202941 -1.491779 0.545175 -0.000338 0.002415 422576.000000 1 0 0
-2.577292 -3.489505 18.982579 19.471965 0.934642 0.224672 0.015346 -0.019037 3704740.000000 1 0 0
-12.984892 2.456195 13.763879 19.081003 -0.186949 0.765062 0.014816 -0.004224 -239592.000000 1 0 0
-5.431092 -0.572105 15.735179 16.655928 0.104952 0.334058 0.010041 0.004418 2915230.000000 1 0 0
-4.499792 -5.950005 11.700279 13.876139 0.923296 0.567599 0.012355 -0.003023 672946.000000 1 0 0
2.502608 1.879595 14.024879 14.369870 0.644176 0.219566 0.004636 -0.001841 217091.000000 1 0 0
0.069808 3.311095 14.206279 14.587207 1.549716 0.229034 0.010632 -0.004178 792569.000000 1 0 0
-12.917992 7.187095 12.257479 19.203506 -0.507715 0.878517 0.005530 -0.006323 1831170.000000 1 0 0
0.884408 1.486295 18.204979 18.286950 1.034030 0.094718 0.022267 -0.011535 567262.000000 1 0 0
-1.978592 6.393995 12.507379 14.185645 -1.270697 0.491359 0.001159 -0.002522 1068520.000000 1 0 0
-13.518692 -2.619805 10.890779 17.556409 0.191419 0.901632 0.008862 0.000585 221510.000000 1 0 0
-2.617892 3.628395 13.451679 14.176258 -0.945785 0.321103 0.001417 -0.000986 56110.400000 1 0 0
3.570408 6.047195 16.413679 17.852878 1.037448 0.404281 0.004127 -0.003510 859721.000000 1 0 0
-3.705792 12.347595 12.377879 17.871986 -1.279227 0.805729 0.003756 -0.006383 -200294.000000 1 0 0
3.668908 -1.482605 17.092879 17.544957 -0.384036 0.227501 0.018361 -0.008164 -452997.000000 1 0 0
-15.813392 0.582595 9.198979 18.303661 -0.036825 1.044221 0.002828 -0.000631 252310.000000 1 0 0
-4.735392 4.659195 15.199879 16.588200 -0.777288 0.412037 0.009656 -0.004472 1145800.000000 1 0 0
-8.073392 -8.141205 10.578979 15.600439 0.789580 0.825594 0.015788 -0.008235 3390180.000000 1 0 0
-2.578592 -0.491605 14.726479 14.958610 0.188388 0.176400 0.011234 0.002802 1584000.000000 1 0 0
-1.878492 1.043395 17.245379 17.378737 -0.507012 0.123963 0.008452 -0.008197 1727500.000000 1 0 0
-0.701992 -2.488505 14.385579 14.616099 1.295847 0.177838 0.012477 0.001745 -98346.600000 1 0 0
5.139708 -8.290305 16.631979 19.281299 -1.015825 0.530417 0.007935 0.003008 123788.000000 1 0 0
-4.405392 10.018595 10.601379 15.237092 -1.156523 0.801317 0.000573 -0.006470 -2266030.000000 1 0 0
-6.287692 2.141395 15.166279 16.557073 -0.328249 0.412803 0.015324 -0.001670 -123307.000000 1 0 0
-4.768992 6.934795 17.196579 19.145678 -0.968380 0.455147 0.008509 -0.005205 -768300.000000 1 0 0
-3.947592 9.238695 15.621979 18.573723 -1.166989 0.571520 0.006055 -0.006541 -1576710.000000 1 0 0
-4.577692 -9.715905 18.769079 21.624810 1.130490 0.519753 0.035687 -0.005389 236209.000000 1 0 0
-6.877492 -4.112305 11.076079 13.670790 0.538901 0.626302 0.008425 0.001660 822369.000000 1 0 0
-2.453992 -0.684405 19.599179 19.764066 0.271983 0.129262 0.012908 -0.012890 1465080.000000 1 0 0
-5.708792 -4.518805 15.293679 16.938316 0.669568 0.444317 0.020888 -0.004479 2358640.000000 1 0 0
-12.854192 0.105695 9.770079 16.146079 -0.008222 0.920898 -0.000256 0.003186 1986160.000000 1 0 0
-14.335692 8.954595 10.423479 19.858141 -0.558338 1.018202 0.006450 -0.012600 1364980.000000 1 0 0
-8.184392 10.442095 13.001379 18.575723 -0.906019 0.795521 0.002780 -0.021128 -2075000.000000 1 0 0
-10.418392 7.271295 10.845679 16.704591 -0.609334 0.864181 0.004969 -0.004792 -1649020.000000 1 0 0
-9.912992 -6.587805 14.812379 19.001926 0.586545 0.676897 0.030292 -0.009947 1070920.000000 1 0 0
-0.609592 -13.426905 14.632879 19.868934 1.525427 0.742959 0.005235 -0.006801 833975.000000 1 0 0
3.856008 -5.719005 17.070679 18.411516 -0.977566 0.383999 0.015740 -0.006934 3151160.000000 1 0 0
-7.159092 9.412295 10.417679 15.759820 -0.920539 0.848609 -0.006979 -0.009796 -1121290.000000 1 0 0
-10.291592 -6.726605 11.894379 17.106734 0.578903 0.801954 0.016222 -0.009989 3287430.000000 1 0 0
-10.963592 -3.973405 10.724479 15.843067 0.347695 0.827227 0.008373 0.003732 -949643.000000 1 0 0
-10.262292 -10.131905 9.878279 17.480004 0.779005 0.970219 0.022384 -0.011332 960176.000000 1 0 0
-9.910392 -3.609505 15.273879 18.561675 0.349281 0.604350 0.027292 -0.006968 290240.000000 1 0 0
5.640808 -3.397205 16.191879 17.479608 -0.542076 0.386246 0.014995 -0.003425 909931.000000 1 0 0
-11.468592 0.567495 15.373679 19.188556 -0.049442 0.641515 0.020896 0.000575 636462.000000 1 0 0
-3.313092 3.202195 18.685279 19.245007 -0.768379 0.241770 0.014480 -0.012744 -433839.000000 1 0 0
0.551008 7.373395 13.947079 15.785803 1.496206 0.487471 0.003102 -0.002457 1621830.000000 1 0 0
-13.213392 -7.433905 12.164279 19.437756 0.512468 0.894631 0.003455 -0.009401 610073.000000 1 0 0
-1.484092 -1.141905 12.170479 12.313693 0.655821 0.152664 0.006807 0.003205 433921.000000 1 0 0
2.024108 -4.926305 13.254779 14.284771 -1.180948 0.382067 0.005532 0.000800 -67302.100000 1 0 0
-14.708992 -3.917205 8.668279 17.516792 0.260273 1.053128 0.012630 -0.008095 -1735300.000000 1 0 0
8.015108 0.693895 16.049479 17.952973 0.086358 0.464661 0.014727 -0.010862 -888267.000000 1 0 0
-1.109392 11.449495 13.336279 17.611872 -1.474203 0.711731 -0.007633 0.003718 1459920.000000 1 0 0
2.826508 -12.264405 -13.856621 18.719261 -1.344287 2.404214 -0.004486 0.009419 -555022.000000 1 0 0
0.769908 -10.600405 -14.040621 17.609667 -1.498294 2.493646 -0.003528 0.002256 -1455940.000000 1 0 0
3.088608 -14.344005 -12.372621 19.193013 -1.358711 2.271351 -0.018384 0.006841 -1562990.000000 1 0 0
-5.098892 -10.279505 -16.274921 19.913311 1.110334 2.527486 0.005271 -0.004521 -846932.000000 1 0 0
-1.113892 -12.266005 -14.959421 19.377304 1.480233 2.452790 -0.001393 -0.000585 27268.400000 1 0 0
5.543308 -15.116105 -12.168821 20.181801 -1.219309 2.218003 -0.006971 0.010186 915893.000000 1 0 0
1.902108 -11.670305 -16.140621 20.008340 -1.409230 2.509334 -0.001408 -0.001244 -600892.000000 1 0 0
1.352308 -14.381405 -14.288521 20.317859 -1.477040 2.350754 -0.002186 0.018155 -285043.000000 1 0 0
-1.232692 -10.765805 -15.876521 19.222019 1.456792 2.542690 0.009585 -0.005862 -323164.000000 1 0 0
-6.118992 -5.664005 -15.025121 17.183634 0.746804 2.634964 0.016204 -0.006423 -38394.900000 1 0 0
-6.381692 -7.719705 -16.680621 19.456694 0.880000 2.600838 0.006572 0.002481 504170.000000 1 0 0
4.993808 -12.607405 -11.629221 17.864030 -1.193656 2.279678 -0.007629 0.011042 -655615.000000 1 0 0
-1.696192 -15.469305 -13.298921 20.470412 1.461584 2.277941 -0.001965 0.004844 1260.960000 1 0 0
15.828408 -7.511205 -8.983421 19.689047 -0.443073 2.044589 0.016970 0.005348 484813.000000 1 0 0
19.401308 -3.641805 -4.362221 20.216391 -0.185550 1.788283 0.021515 -0.004187 537385.000000 1 0 0
14.880508 -11.541205 -8.887821 20.823600 -0.659680 2.011764 0.031125 -0.011817 467392.000000 1 0 0
18.063708 -3.589805 -6.534921 19.541992 -0.196174 1.911769 0.050529 -0.000444 725400.000000 1 0 0
9.605608 -9.097005 -15.381321 20.288130 -0.758211 2.431258 0.039895 -0.020867 156521.000000 1 0 0
1.312208 1.774095 -15.365921 15.523557 0.933953 2.998961 0.009958 -0.006153 175586.000000 1 0 0
4.825708 -4.404405 -13.954821 15.408545 -0.739785 2.703717 0.002534 -0.001640 -398148.000000 1 0 0
13.134008 -5.555205 -8.719521 16.715039 -0.400144 2.119589 0.024735 -0.001375 -1404640.000000 1 0 0
2.957208 0.909195 -12.286421 12.669958 0.298278 2.894913 0.001297 -0.005967 -4110940.000000 1 0 0
0.598208 6.305095 -12.945021 14.411302 1.476203 2.686578 0.005390 -0.005124 256481.000000 1 0 0
3.116708 -1.222105 -16.808621 17.138761 -0.373690 2.944997 0.005470 -0.002549 -188859.000000 1 0 0
13.129608 4.333095 -11.388621 17.912649 0.318770 2.259823 0.019843 -0.008194 652059.000000 1 0 0
-3.857292 9.338395 -16.468721 19.321053 -1.179085 2.591301 0.000150 -0.003388 -810409.000000 1 0 0
-0.035192 -5.075505 -17.556021 18.275006 1.563863 2.860156 0.019741 -0.011451 1490400.000000 1 0 0
-0.599292 -8.662905 -17.415521 19.460356 1.501727 2.679055 0.016472 -0.011164 275572.000000 1 0 0
5.560208 -10.238105 -12.280121 16.927377 -1.073274 2.382498 -0.001298 0.000609 619350.000000 1 0 0
1.633208 -9.872605 -18.136421 20.713895 -1.406853 2.637406 0.010724 -0.007231 -266076.000000 1 0 0
11.023308 8.698995 -14.497721 20.183402 0.668087 2.372151 0.036246 -0.014345 399467.000000 1 0 0
11.054608 -3.855905 -12.921721 17.436835 -0.335610 2.405442 0.017401 -0.009495 485725.000000 1 0 0
4.922608 7.429795 -12.373321 15.249032 0.985649 2.517368 0.001997 -0.001802 249571.000000 1 0 0
9.640808 -5.989505 -12.511021 16.892158 -0.555910 2.404820 0.013565 -0.007179 -1106600.000000 1 0 0
-3.311592 0.373095 -16.004221 16.347505 -0.112190 2.936297 0.011320 -0.005401 -1833820.000000 1 0 0
-0.680892 10.827295 -12.797721 16.777234 -1.507992 2.438433 -0.004387 0.000505 -21662.000000 1 0 0
6.715808 -5.478605 -12.496321 15.207736 -0.684288 2.535198 0.001973 -0.002192 -355085.000000 1 0 0
18.002808 -6.153005 -8.248721 20.736489 -0.329333 1.979901 0.029465 -0.002511 1284490.000000 1 0 0
12.902308 4.816495 -13.838821 19.523861 0.357284 2.358614 0.015821 -0.016296 315358.000000 1 0 0
14.265908 0.803795 -11.458421 18.315502 0.056284 2.246714 0.031084 -0.007191 147659.000000 1 0 0
15.026508 6.073295 -11.255421 19.732343 0.384098 2.177795 0.028751 -0.007947 50571.600000 1 0 0
8.234808 1.493395 -11.608221 14.310593 0.179402 2.516934 -0.003390 -0.001105 592379.000000 1 0 0
9.928008 1.220995 -8.925121 13.405743 0.122370 2.299320 0.003475 -0.000670 -35643.700000 1 0 0
-0.125892 -5.796205 -12.916421 14.157887 1.549080 2.719693 0.004372 -0.002756 502953.000000 1 0 0
10.588008 -5.712805 -9.039921 15.048662 -0.494788 2.215188 0.020437 -0.005536 -2614060.000000 1 0 0
10.152608 8.372095 -11.242621 17.307915 0.689577 2.277809 0.014932 -0.014722 696190.000000 1 0 0
8.427408 7.966595 -14.795921 18.799125 0.757297 2.476815 0.029102 -0.003367 1779610.000000 1 0 0
8.565208 10.500995 -10.661421 17.242377 0.886581 2.237408 0.023435 -0.015278 -180379.000000 1 0 0
6.978108 1.786595 -17.850121 19.248707 0.250644 2.758041 0.011226 -0.002931 -1787050.000000 1 0 0
12.097808 2.544295 -12.732321 17.746616 0.207289 2.370932 0.020778 -0.012283 -1593900.000000 1 0 0
2.739108 -0.998005 -19.337721 19.556231 -0.349405 2.991964 0.015411 -0.010215 -400654.000000 1 0 0
10.290508 -2.322205 -15.497421 18.747193 -0.221947 2.543930 0.021407 -0.010455 373064.000000 1 0 0
8.293808 -0.804705 -13.104521 15.529432 -0.096722 2.575216 0.002851 -0.004305 525418.000000 1 0 0
0.491408 4.285095 -14.704921 15.324432 1.456617 2.856280 0.005864 -0.006510 106724.000000 1 0 0
4.171208 -7.707905 -15.836021 18.099457 -1.074766 2.636118 0.013578 -0.008999 -2011660.000000 1 0 0
11.495108 -5.906005 -14.422421 19.365553 -0.474614 2.410951 0.024992 -0.010057 -202267.000000 1 0 0
-5.914092 4.392795 -16.732021 18.282058 -0.638856 2.726838 0.006628 -0.000703 104661.000000 1 0 0
11.410408 7.898395 -9.075021 16.581256 0.605478 2.149938 0.014201 -0.012957 -1034630.000000 1 0 0
9.497708 6.036695 -13.424721 17.517741 0.566182 2.443936 0.015314 -0.008757 -131918.000000 1 0 0
12.045508 0.618095 -10.224521 15.811930 0.051268 2.273959 0.010460 -0.003157 -823998.000000 1 0 0
5.527008 -7.283005 -13.793721 16.548617 -0.921629 2.556258 0.005304 -0.005247 -1373560.000000 1 0 0
8.628008 -10.319405 -10.601921 17.126978 -0.874430 2.238289 0.014007 -0.001512 240129.000000 1 0 0
10.154208 4.531495 -15.778221 19.302710 0.419746 2.527696 0.026540 -0.010791 -755837.000000 1 0 0
9.808108 -0.526005 -10.962721 14.719270 -0.053578 2.411012 0.003546 -0.002241 -235756.000000 1 0 0
-1.739592 5.423795 -13.952121 15.070016 -1.260428 2.753995 0.000652 -0.005096 536166.000000 1 0 0
1.330508 -0.802105 -14.896921 14.977712 -0.542517 3.037679 0.006741 -0.004992 150708.000000 1 0 0
11.508908 -10.475505 -14.312521 21.143307 -0.738427 2.314379 0.048478 -0.014292 -222401.000000 1 0 0
9.366408 -7.852705 -10.754721 16.280620 -0.697715 2.292393 0.017437 -0.003576 -46574.800000 1 0 0
13.961308 -0.997705 -9.692721 17.025345 -0.071341 2.176464 0.014464 -0.002437 729584.000000 1 0 0
3.904008 11.192595 -12.296221 17.079593 1.235188 2.374507 0.017621 -0.010265 -571258.000000 1 0 0
-1.238992 2.890095 -16.845921 17.136884 -1.165793 2.957055 0.009231 -0.006682 587425.000000 1 0 0
6.036808 -0.593405 -17.590221 18.606747 -0.097983 2.809517 0.004289 -0.001610 -1198.090000 1 0 0
6.502408 -6.675705 -16.136121 18.633860 -0.798548 2.617857 0.014187 -0.005167 -281981.000000 1 0 0
-1.725092 -5.415805 -19.684321 20.488518 1.262428 2.860485 0.022369 -0.016072 213325.000000 1 0 0
-0.121792 -4.361905 -15.161021 15.776489 1.542882 2.861350 0.008969 -0.005693 460940.000000 1 0 0
0.538808 0.831295 -13.052321 13.089860 0.995719 3.065840 0.004425 -0.007544 662229.000000 1 0 0
15.760108 0.706395 -13.490321 20.757378 0.044792 2.278256 0.038304 -0.015240 602634.000000 1 0 0
-0.087292 6.945895 -16.269321 17.690219 -1.558230 2.738058 0.003074 -0.001804 -351803.000000 1 0 0
-5.003992 -0.528705 -18.223021 18.904971 0.105266 2.872180 0.006315 -0.003378 -567733.000000 1 0 0
10.498308 -8.351705 -13.027921 18.700058 -0.672009 2.341553 0.025069 -0.018914 235596.000000 1 0 0
4.086408 8.568195 -17.412921 19.832360 1.125776 2.642476 0.019127 -0.007456 -156553.000000 1 0 0
9.022408 0.688195 -16.885721 19.157375 0.076129 2.649659 0.013605 -0.006334 -653361.000000 1 0 0
3.329208 4.899795 -18.556721 19.479309 0.973990 2.832591 0.012402 -0.000396 -504790.000000 1 0 0
1.646308 -8.116405 -16.067421 18.076182 -1.370674 2.665675 0.012458 -0.005725 -443932.000000 1 0 0
4.477808 7.854495 -14.934921 17.458399 1.052656 2.597230 0.008907 -0.000688 676620.000000 1 0 0
-5.735792 -0.407805 -15.239421 16.288203 0.070979 2.780782 0.003500 -0.003579 318625.000000 1 0 0
2.852108 3.315095 -13.887421 14.559699 0.860330 2.836523 0.005771 -0.004263 -816778.000000 1 0 0
-2.503892 -10.272805 -18.059921 20.927511 1.331718 2.611925 0.012950 -0.009137 -208066.000000 1 0 0
6.286608 -9.225805 -15.339221 18.971785 -0.972652 2.512443 0.011346 -0.013596 -123231.000000 1 0 0
-1.868292 5.363095 -17.403921 18.307096 -1.235583 2.826170 0.006700 -0.001009 659160.000000 1 0 0
10.065708 -12.249905 -11.547421 19.614321 -0.882965 2.200276 0.033903 -0.005956 368386.000000 1 0 0
10.883208 3.527795 -9.292821 14.739270 0.313463 2.252968 0.004480 -0.004131 -691461.000000 1 0 0
4.759408 -0.470405 -10.974921 11.971722 -0.098517 2.730631 0.000206 -0.005338 292731.000000 1 0 0
6.288208 9.547095 -11.549121 16.250254 0.988363 2.361295 0.018141 -0.012356 142035.000000 1 0 0
10.838608 -9.559905 -9.409521 17.245472 -0.722794 2.147928 0.033743 -0.004585 -2164290.000000 1 0 0
3.205008 -2.549505 -14.591121 15.154961 -0.671976 2.867958 0.002199 -0.002499 -7641.480000 1 0 0
9.178208 -4.537305 -14.565521 17.803961 -0.459122 2.528905 0.014351 -0.014586 22504.900000 1 0 0
-4.050292 -6.527305 -16.493321 18.194510 1.015429 2.705715 0.003674 -0.006888 201196.000000 1 0 0
5.819008 -7.843405 -11.316121 14.947724 -0.932501 2.429577 -0.001235 -0.000714 -387734.000000 1 0 0
5.378208 6.358895 -16.822721 18.771377 0.868759 2.681903 0.012357 -0.010753 -1291350.000000 1 0 0
8.853508 1.170195 -19.498521 21.446358 0.131411 2.712098 0.023130 -0.006589 348759.000000 1 0 0
13.057908 5.842395 -9.346021 17.087734 0.420708 2.149505 0.011917 -0.009622 1223810.000000 1 0 0
-1.675692 -0.927305 -17.367221 17.472498 0.505440 3.031762 0.016093 -0.006344 269743.000000 1 0 0
-0.398092 -0.587605 -19.485121 19.498043 0.975344 3.105183 0.023055 -0.012885 -7640.120000 1 0 0
2.816508 6.461595 -16.465021 17.910383 1.159743 2.737095 0.009020 -0.003782 -976046.000000 1 0 0
7.658408 3.744895 -15.603721 17.780651 0.454802 2.641561 0.009564 -0.002540 164173.000000 1 0 0
3.133108 -9.869505 -14.901921 18.146370 -1.263405 2.534319 0.004834 -0.003868 -433876.000000 1 0 0
9.168908 -10.636105 -13.294321 19.337388 -0.859345 2.328828 0.032885 -0.009719 41021.200000 1 0 0
3.785308 0.079695 -14.815421 15.291553 0.021051 2.891393 -0.002651 -0.001632 -2709730.000000 1 0 0
-0.968292 -3.060505 -18.932421 19.202626 1.264378 2.973638 0.021837 -0.006295 60560.800000 1 0 0
9.095608 9.954395 -13.163721 18.844193 0.830448 2.344174 0.027546 -0.015039 385250.000000 1 0 0
4.650508 2.101895 -10.719121 11.872015 0.424492 2.697241 -0.003252 -0.001803 -157953.000000 1 0 0
-0.465592 7.140295 -18.797021 20.112895 -1.505682 2.777860 0.013413 -0.002409 -137979.000000 1 0 0
0.829908 -1.853705 -17.617621 17.734304 -1.149855 3.026817 0.022960 -0.009504 -908792.000000 1 0 0
-4.515892 -2.249805 -14.157021 15.029176 0.462204 2.799245 0.009593 -0.007798 -4244270.000000 1 0 0
10.054108 5.922895 -10.368521 15.609996 0.532368 2.297250 0.008567 -0.004411 114978.000000 1 0 0
8.369508 5.649295 -17.251121 19.989106 0.593740 2.612026 0.025134 -0.011516 -250372.000000 1 0 0
11.249408 0.174995 -13.778521 17.788407 0.015555 2.456845 0.011223 0.003943 564039.000000 1 0 0
6.775808 12.049095 -11.802121 18.176422 1.058521 2.277472 0.029045 -0.019455 -76722.300000 1 0 0
-0.942392 0.468795 -15.138821 15.175367 -0.461607 3.072178 0.007917 -0.006093 -87936.600000 1 0 0
-4.338592 -2.972205 -19.094021 19.805025 0.600630 2.872829 0.003603 -0.001141 198124.000000 1 0 0
5.843608 -12.220605 -14.027021 19.499955 -1.124759 2.373642 -0.000541 0.004367 -128023.000000 1 0 0
2.166408 -4.827805 -14.015121 14.980809 -1.148994 2.780576 0.006432 -0.003298 4726.560000 1 0 0
11.740408 2.048395 -15.382221 19.458824 0.172735 2.482423 0.029387 -0.010430 383673.000000 1 0 0
9.716408 2.143295 -13.687121 16.921571 0.217108 2.513001 0.013769 -0.009128 392404.000000 1 0 0
-2.279392 -4.227505 -16.518321 17.202394 1.076297 2.858635 0.008103 -0.006814 -1354280.000000 1 0 0
-2.862692 10.140395 -14.279921 17.746513 -1.295651 2.505900 -0.004506 -0.002926 -87350.100000 1 0 0
3.469408 5.822795 -13.648621 15.238982 1.033447 2.680661 0.004480 -0.003381 30188.200000 1 0 0
-5.131692 -2.489405 -16.639921 17.590292 0.451660 2.811375 0.007170 -0.002246 338497.000000 1 0 0
-4.339092 6.089195 -13.528121 15.456910 -0.951671 2.636677 -0.002925 -0.000488 564082.000000 1 0 0
5.887208 -1.171205 -14.047221 15.275973 -0.196377 2.737763 0.001398 -0.001651 -1212670.000000 1 0 0
6.728308 -3.046705 -12.645521 14.644512 -0.425196 2.612963 0.000665 -0.004743 798649.000000 1 0 0
2.949108 -3.371605 -18.354321 18.893016 -0.852142 2.902221 0.014390 -0.009744 367676.000000 1 0 0
7.471108 -12.083805 -12.015221 18.606486 -1.017048 2.272807 0.008832 0.002203 620099.000000 1 0 0
-6.164192 -5.312105 -17.602621 19.392472 0.711287 2.708575 0.025524 -0.008377 553358.000000 1 0 0
0.485008 8.677995 -11.823321 14.674254 1.514965 2.507684 0.001592 -0.003738 -84850.600000 1 0 0
0.367608 8.541495 -14.322321 16.679962 1.527785 2.603435 -0.001460 -0.003585 199232.000000 1 0 0
7.690008 -2.488305 -15.084221 17.113200 -0.312944 2.649694 0.006607 -0.010796 525700.000000 1 0 0
14.184508 1.564995 -8.917021 16.827440 0.109887 2.129290 0.014137 -0.001053 323355.000000 1 0 0
2.665308 10.873095 -14.618821 18.412984 1.330408 2.488060 0.010939 -0.003879 495482.000000 1 0 0
6.123708 1.008195 -15.512321 16.707733 0.163174 2.761019 0.004079 -0.002138 769781.000000 1 0 0
16.830408 -5.567105 -10.355421 20.530222 -0.319448 2.099482 0.047473 -0.009217 860369.000000 1 0 0
4.933308 -4.280205 -11.243721 13.003036 -0.714631 2.615348 -0.001504 0.002031 -1915800.000000 1 0 0
8.832808 -3.792805 -17.084621 19.603268 -0.405591 2.629088 0.010273 -0.013174 376055.000000 1 0 0
13.318208 -9.481505 -8.739521 18.537876 -0.618682 2.061721 0.029968 -0.007432 -461470.000000 1 0 0
2.424408 -7.712405 -13.714221 15.919761 -1.266225 2.608932 0.004642 -0.002732 620456.000000 1 0 0
-6.889692 -2.247405 -18.521221 19.888547 0.315315 2.768626 0.005400 -0.006817 349022.000000 1 0 0
-1.463592 -6.547305 -15.685921 17.060405 1.350871 2.737436 0.008788 -0.005982 -184246.000000 1 0 0
1.419508 -7.449805 -18.619221 20.104477 -1.382510 2.754798 0.022413 -0.003433 29052.300000 1 0 0
5.280608 11.014595 -14.500621 18.959803 1.123749 2.441541 0.034963 -0.018198 -655481.000000 1 0 0
5.393608 -3.588905 -17.351421 18.521421 -0.587125 2.784251 0.010695 -0.008525 -324783.000000 1 0 0
3.894908 13.141095 -13.987821 19.583611 1.282653 2.366365 0.031159 -0.017580 153712.000000 1 0 0
9.378408 10.278695 -15.717221 20.991358 0.831166 2.416966 0.044778 -0.017778 401151.000000 1 0 0
2.438908 3.829995 -16.352021 16.970731 1.003763 2.870738 0.007048 -0.005303 426488.000000 1 0 0
16.620708 2.115095 -11.388221 20.258656 0.126576 2.167769 0.031328 -0.005992 616219.000000 1 0 0
10.052508 -3.722805 -10.573021 15.056592 -0.354675 2.349305 0.017681 -0.004014 -23250.600000 1 0 0
14.727008 -2.250605 -11.864621 19.045189 -0.151648 2.243333 0.037121 -0.008398 87201.600000 1 0 0
-2.788192 -8.729405 -15.953521 18.398134 1.261636 2.620201 0.008080 -0.002006 -1018080.000000 1 0 0
14.050808 8.197995 -8.949921 18.566998 0.528164 2.073771 0.036471 -0.008319 143359.000000 1 0 0
-8.313292 0.111295 -16.604621 18.569777 -0.013387 2.677380 0.001421 -0.002960 -410089.000000 1 0 0
-3.529792 4.028895 -15.928421 16.804940 -0.851333 2.817191 0.004543 -0.002820 -834467.000000 1 0 0
15.067008 4.007195 -9.647921 18.334522 0.259941 2.124941 0.025447 -0.004525 1010390.000000 1 0 0
5.352308 1.080095 -13.002821 14.102736 0.199126 2.744029 -0.001028 -0.002439 288052.000000 1 0 0
7.880308 -7.801605 -12.833821 16.960874 -0.780380 2.429004 0.012264 -0.005954 -1526150.000000 1 0 0
3.392908 -6.202705 -11.789621 13.747019 -1.070256 2.601406 0.002156 0.001487 -1289270.000000 1 0 0
-3.238892 3.485795 -18.423021 19.027582 -0.822098 2.888837 0.011586 -0.006111 -470740.000000 1 0 0
0.853608 5.215995 -17.828021 18.594988 1.408582 2.853382 0.010607 -0.004098 259434.000000 1 0 0
6.320608 7.169795 -10.257421 14.020368 0.848263 2.391475 0.002959 -0.003796 114491.000000 1 0 0
9.772108 3.612095 -11.615421 15.603183 0.354057 2.410472 0.012769 -0.006404 248423.000000 1 0 0
4.448908 1.560995 -17.533321 18.156178 0.337451 2.878901 0.006662 -0.001041 -382637.000000 1 0 0
2.550608 8.095295 -13.132721 15.636743 1.265569 2.567827 0.005929 -0.005258 -2144190.000000 1 0 0
14.380608 -3.580105 -9.760821 17.745215 -0.243994 2.153225 0.025384 -0.000762 680188.000000 1 0 0
-1.302692 9.230695 -16.179421 18.672878 -1.430596 2.618876 0.003538 -0.001111 -1304000.000000 1 0 0
-5.270092 1.990395 -15.667621 16.649621 -0.361116 2.796428 0.006710 -0.006322 571923.000000 1 0 0
4.417208 4.275895 -11.982221 13.467316 0.769144 2.667541 0.000328 -0.004237 406189.000000 1 0 0
9.143908 3.200895 -17.773421 20.242314 0.336726 2.642533 0.020077 0.000037 781667.000000 1 0 0
-4.386392 14.321595 -13.390521 20.091156 -1.273590 2.300285 0.008470 -0.000778 -24026.900000 1 0 0
15.571508 -5.030705 -8.031321 18.228603 -0.312486 2.027051 0.024927 0.000684 734518.000000 1 0 0
1.246808 9.231095 -16.628321 19.059609 1.436543 2.630964 0.005951 -0.004690 -525639.000000 1 0 0
0.539608 -3.271905 -12.812321 13.234504 -1.407346 2.888329 0.003749 -0.003490 103627.000000 1 0 0
7.533308 3.591295 -12.955421 15.410745 0.444852 2.569324 0.002080 -0.003536 -9579.560000 1 0 0
-2.938892 7.528195 -15.049921 17.082474 -1.198606 2.648800 -0.002681 0.000761 173518.000000 1 0 0
12.219308 -5.156605 -11.031121 17.250730 -0.399331 2.264590 0.031059 -0.005616 -719349.000000 1 0 0
0.706008 -4.649005 -20.039821 20.584123 -1.420086 2.911114 0.030903 -0.010021 -661742.000000 1 0 0
3.355608 -4.708705 -16.111021 17.117155 -0.951638 2.797022 0.009322 -0.010732 702354.000000 1 0 0
-5.686492 4.078995 -14.278121 15.900915 -0.622251 2.685870 -0.001711 -0.004363 973699.000000 1 0 0
12.331608 -7.521805 -9.807321 17.459371 -0.547712 2.167263 0.028840 -0.003675 471098.000000 1 0 0
-2.155892 -1.906705 -15.106121 15.377850 0.724138 2.953324 0.011484 -0.005912 -246025.000000 1 0 0
7.041008 5.810295 -14.274621 16.944029 0.689924 2.572624 0.006601 -0.005112 -122570.000000 1 0 0
4.252708 -5.687305 -18.343721 19.670360 -0.928734 2.772227 0.018766 -0.013887 157943.000000 1 0 0
7.565708 7.413795 -12.321121 16.248517 0.775257 2.431485 0.008846 -0.008093 -1564020.000000 1 0 0
12.311208 -2.488805 -11.115421 16.772375 -0.199469 2.295244 0.023601 -0.003893 -453369.000000 1 0 0
7.342408 -0.798005 -10.762221 13.052707 -0.108259 2.540150 0.000341 -0.002898 -2433770.000000 1 0 0
5.298708 4.062995 -14.356221 15.833045 0.654160 2.706249 -0.002445 -0.004633 168086.000000 1 0 0
14.663408 2.973495 -12.966921 19.798945 0.200070 2.284886 0.024065 -0.013191 1166670.000000 1 0 0
-6.335492 6.862795 -15.724921 18.289602 -0.825329 2.605623 -0.002409 0.002866 499660.000000 1 0 0
-11.439392 3.740395 -16.298021 20.260200 -0.316017 2.505521 0.033343 -0.008607 38123.200000 1 0 0
-4.750892 6.424495 -17.899021 19.601532 -0.934051 2.721728 0.009293 0.007121 116771.000000 1 0 0
-10.085592 1.657895 -15.522721 18.585549 -0.162925 2.559300 0.014796 -0.009430 -703447.000000 1 0 0
-7.349192 6.120795 -17.917121 20.310046 -0.694455 2.651268 -0.003685 0.002984 -310262.000000 1 0 0
-8.865992 4.031095 -15.869621 18.619892 -0.426730 2.591152 0.002415 0.013363 -510617.000000 1 0 0
9.023208 13.369095 -11.933021 20.063598 0.977094 2.207763 0.040430 -0.020972 -2890640.000000 1 0 0
13.743208 9.181095 -11.415521 20.086871 0.588957 2.175244 0.025047 -0.011842 250560.000000 1 0 0
8.392008 15.700995 -9.200421 20.039830 1.079940 2.047786 0.030406 -0.013905 900.762000 1 0 0
7.559608 13.508895 -13.927921 20.823662 1.060611 2.303458 0.035959 -0.014237 165796.000000 1 0 0
4.592008 15.818795 -12.590021 20.732328 1.288273 2.223410 0.051619 -0.019460 56672.200000 1 0 0
10.972008 10.833195 -11.516221 19.244906 0.779032 2.212303 0.027265 -0.015387 -368303.000000 1 0 0
15.707308 9.967495 -9.858421 21.053715 0.565456 2.058107 0.053185 0.000955 2704940.000000 1 0 0
13.169908 10.653795 -9.281621 19.315753 0.680174 2.072045 0.039423 -0.011645 100971.000000 1 0 0
10.347008 11.773195 -8.266021 17.719926 0.849783 2.056105 0.012145 -0.004276 -18089.300000 1 0 0
5.269108 16.170595 -10.221521 19.842659 1.255800 2.111954 0.023509 -0.008714 17346.300000 1 0 0
6.819008 14.686295 -11.835821 20.056739 1.136105 2.202000 0.026755 0.004167 407984.000000 1 0 0
10.918808 13.868095 -9.782521 20.180241 0.903827 2.076882 0.038404 -0.007210 -457874.000000 1 0 0
8.395908 -18.602805 -1.161221 20.442702 -1.146841 1.627631 0.036264 0.002134 -38687.100000 1 0 0
7.361008 -17.522505 -3.246421 19.281128 -1.173093 1.739975 0.026258 0.003411 -597476.000000 1 0 0
4.440908 -18.589605 5.975479 20.025021 -1.336299 1.267780 0.027299 0.010922 210607.000000 1 0 0
9.793108 -17.040505 -2.653521 19.832422 -1.049191 1.704996 0.033910 0.003156 -1785840.000000 1 0 0
-9.599492 -12.127005 -10.119421 18.482889 0.901211 2.150173 0.024908 -0.005495 -557518.000000 1 0 0
-5.250292 -7.069505 -12.132421 14.991301 0.932005 2.513751 0.009064 -0.002371 575279.000000 1 0 0
-10.849592 -9.453705 -5.723021 15.486741 0.716754 1.949314 0.013647 -0.008102 212467.000000 1 0 0
-4.647092 -11.448805 -14.029121 18.694567 1.185212 2.419521 0.014229 -0.002612 481408.000000 1 0 0
-2.939492 -15.358605 7.516979 17.350284 1.381693 1.122703 0.004747 -0.004722 3812.500000 1 0 0
-4.738792 -11.997105 -11.598121 17.346558 1.194612 2.303137 0.007476 -0.001305 257843.000000 1 0 0
-14.250792 -12.759005 -3.950221 19.531552 0.730223 1.774449 0.004721 -0.004900 -488788.000000 1 0 0
-3.256292 -12.292905 -3.275021 13.131821 1.311852 1.822853 0.000617 -0.000190 783833.000000 1 0 0
-2.390292 -17.432505 -1.520121 17.661158 1.434529 1.656974 -0.006716 -0.001524 -1639100.000000 1 0 0
-5.844292 -12.159705 3.794379 14.014689 1.122766 1.296632 0.003097 0.002906 272190.000000 1 0 0
-8.816692 -10.455905 -11.922521 18.144049 0.870248 2.287766 0.016867 -0.001429 258797.000000 1 0 0
-9.818092 -12.012005 -7.495021 17.229583 0.885561 2.020844 0.019303 -0.008128 317409.000000 1 0 0
-11.022792 -14.949805 6.175579 19.573870 0.935460 1.249812 0.020456 -0.009066 -695290.000000 1 0 0
-9.336892 -15.786105 0.771679 18.356856 1.036678 1.528746 0.006868 0.012281 -1752760.000000 1 0 0
-14.786092 -7.680005 -8.441821 18.678205 0.479053 2.039759 0.003355 -0.002849 195135.000000 1 0 0
-2.446392 -16.543505 5.252979 17.529010 1.423984 1.266446 0.012638 -0.004858 836242.000000 1 0 0
4.354208 -15.957705 5.632079 17.473632 -1.304421 1.242618 0.017722 0.001166 -508964.000000 1 0 0
4.279508 -14.445305 -9.994021 18.079311 -1.282778 2.156502 -0.009255 0.003870 -788555.000000 1 0 0
-7.535192 -14.018605 -0.282321 15.917918 1.077590 1.588533 0.004170 0.004375 750438.000000 1 0 0
2.917008 -14.795705 9.720279 17.941730 -1.376140 0.998256 0.013342 -0.006739 -1237560.000000 1 0 0
2.272008 -17.229605 10.287379 20.195334 -1.439686 1.036316 0.029929 -0.010514 -662078.000000 1 0 0
-8.236392 -17.100305 -5.832321 19.856348 1.121935 1.868919 0.022410 -0.003714 -98762.500000 1 0 0
-6.317792 -9.223805 -7.634321 13.537944 0.970247 2.169921 0.014476 -0.005995 369128.000000 1 0 0
-5.992492 -13.109805 -4.837421 15.204525 1.142054 1.894581 0.002796 -0.005385 157432.000000 1 0 0
2.268608 -19.408705 -4.969221 20.162777 -1.454438 1.819817 -0.002996 -0.001467 184751.000000 1 0 0
-5.517892 -12.915405 8.354379 16.341679 1.167036 1.034179 0.012440 -0.001431 1039860.000000 1 0 0
2.230608 -17.473505 3.579779 17.975367 -1.443826 1.370307 0.010434 -0.007658 -93031.800000 1 0 0
-17.913392 -9.751405 -2.543021 20.553503 0.498506 1.694841 0.021458 -0.007628 307038.000000 1 0 0
-3.303092 -15.457105 2.570379 16.013725 1.360269 1.409588 0.002346 0.000090 -419092.000000 1 0 0
-10.133092 -10.368105 -14.109321 20.229930 0.796861 2.342626 0.021321 -0.006357 -98938.600000 1 0 0
6.010108 -14.584405 -5.580321 16.732192 -1.179910 1.910819 -0.005423 -0.000545 406292.000000 1 0 0
-7.220692 -12.195805 -10.796521 17.816872 1.036233 2.221783 0.014148 -0.007248 -17240.200000 1 0 0
-7.441692 -14.216805 3.994179 16.536318 1.088570 1.326844 0.006698 0.003272 950082.000000 1 0 0
3.221108 -15.076505 -3.178921 15.741096 -1.360310 1.774145 -0.000959 -0.002858 721957.000000 1 0 0
-7.692392 -11.374705 8.020479 15.902355 0.976173 1.042158 0.013241 -0.007813 528231.000000 1 0 0
-12.725092 -12.470005 -1.102621 17.850624 0.775274 1.632605 0.000022 0.010989 -159189.000000 1 0 0
-1.900792 -13.690605 4.057279 14.405110 1.432839 1.285277 0.003079 0.001611 -4065420.000000 1 0 0
-3.216892 -13.988005 5.266279 15.288767 1.344752 1.219139 0.002666 0.000510 338155.000000 1 0 0
-14.542292 -10.329005 -4.658621 18.435546 0.617588 1.826264 0.011913 -0.001566 576803.000000 1 0 0
-6.103292 -8.639105 -10.217721 14.706669 0.955739 2.338893 0.009533 -0.002060 280328.000000 1 0 0
0.863908 -19.371705 2.393579 19.538130 -1.526229 1.447980 0.016541 -0.012714 209129.000000 1 0 0
6.400508 -14.306205 -8.201221 17.688811 -1.150112 2.052894 -0.000307 0.006040 -3076650.000000 1 0 0
-3.867192 -16.787105 -5.933121 18.219879 1.344380 1.902485 -0.007325 -0.003008 -28665.400000 1 0 0
-3.624792 -13.729305 -13.243121 19.416827 1.312668 2.321350 0.012125 0.000833 -824891.000000 1 0 0
-8.209192 -14.718205 -4.606921 17.471122 1.062017 1.837640 0.011161 -0.004879 -1372430.000000 1 0 0
-4.467192 -14.387805 10.166879 18.174988 1.269749 0.977148 0.011171 -0.004162 -137584.000000 1 0 0
-0.206992 -12.113305 -10.061421 15.748244 1.553710 2.263853 -0.002682 0.003531 715168.000000 1 0 0
2.409108 -17.256905 6.934979 18.753627 -1.432090 1.192009 0.013546 -0.008797 206540.000000 1 0 0
-2.810092 -19.066005 -3.412421 19.571760 1.424462 1.746046 -0.005235 -0.008876 -850746.000000 1 0 0
0.537708 -15.408505 -3.122821 15.730962 -1.535914 1.770638 -0.004654 -0.002822 313972.000000 1 0 0
5.952708 -18.057305 0.670279 19.024991 -1.252359 1.535558 0.020836 0.002756 -58400.900000 1 0 0
-7.042992 -16.640605 3.970079 18.500676 1.170416 1.354523 0.004456 0.004272 834931.000000 1 0 0
-5.139492 -13.485205 -9.621021 17.344428 1.206670 2.158803 0.006470 -0.002204 -41894.900000 1 0 0
5.635008 -15.258605 -2.168221 16.409739 -1.217032 1.703314 0.012158 0.003352 -414990.000000 1 0 0
-8.865092 -10.253005 -0.607521 13.567721 0.857868 1.615588 0.004292 0.002390 262064.000000 1 0 0
-7.274892 -18.098305 -3.013421 19.737108 1.188597 1.724074 0.008117 -0.007542 667084.000000 1 0 0
7.876708 -15.995605 -1.184421 17.869101 -1.113223 1.637128 0.018218 0.003053 -412651.000000 1 0 0
-8.036792 -10.128305 -9.454221 16.017331 0.900033 2.202164 0.019463 -0.005374 259207.000000 1 0 0
-8.967192 -14.989205 -7.080821 18.847409 1.031670 1.955940 0.021023 -0.007511 -444711.000000 1 0 0
-11.447992 -10.422505 -11.968421 19.568552 0.738543 2.228897 0.027256 0.004765 -232510.000000 1 0 0
6.552408 -16.270005 2.496479 17.716646 -1.187939 1.429414 0.018947 -0.002109 382715.000000 1 0 0
-2.162992 -11.156605 -6.177121 12.934651 1.379297 2.068676 0.001011 -0.000994 353305.000000 1 0 0
-12.390892 -15.243205 -3.501821 19.953753 0.888251 1.747207 0.014669 0.000830 73873.700000 1 0 0
-0.264692 -19.588905 -2.870521 19.799878 1.557285 1.716286 0.006665 -0.009954 -33196.800000 1 0 0
-5.858592 -15.609405 -4.770721 17.341753 1.211741 1.849490 -0.001087 -0.003110 -2210080.000000 1 0 0
1.882708 -16.040105 -1.026921 16.182835 -1.453956 1.634296 0.004577 -0.004214 607265.000000 1 0 0
-13.303092 -11.911205 5.309179 18.628914 0.730252 1.281793 0.009964 0.000494 229894.000000 1 0 0
2.133808 -15.369605 -9.084621 17.980774 -1.432845 2.100457 -0.012346 0.012705 -1297880.000000 1 0 0
-11.760092 -16.629005 0.177179 20.367989 0.955252 1.562097 0.012546 0.002628 529054.000000 1 0 0
-7.332292 -16.608205 -0.873721 18.175763 1.155045 1.618885 0.007286 0.004541 479222.000000 1 0 0
-2.912892 -14.474505 -1.825621 14.877135 1.372206 1.693820 -0.004029 -0.001204 72502.800000 1 0 0
-1.795592 -10.583805 -13.091621 16.930198 1.402742 2.454779 0.002802 -0.002140 807254.000000 1 0 0
1.439508 -19.587705 4.927579 20.249233 -1.497438 1.324982 0.023277 -0.013757 -79040.000000 1 0 0
-17.386192 -9.280305 2.527579 19.869383 0.490301 1.443241 -0.001508 0.002855 75762.100000 1 0 0
-2.602792 -15.665205 -8.079121 17.816997 1.406149 2.041429 -0.008133 -0.001424 -1044370.000000 1 0 0
-10.522192 -12.105605 0.256079 16.041439 0.855261 1.554832 0.005676 0.006065 403949.000000 1 0 0
-6.805692 -11.528605 -6.530021 14.895212 1.037517 2.024611 0.012829 -0.006224 127593.000000 1 0 0
-2.187792 -13.633505 -6.770221 15.378387 1.411681 2.026665 -0.009873 -0.000173 319486.000000 1 0 0
-14.373192 -14.469305 -1.014621 20.420061 0.788731 1.620504 0.021688 0.012208 468432.000000 1 0 0
-9.667592 -11.246505 -4.434321 15.479322 0.860750 1.861334 0.018592 -0.008640 336743.000000 1 0 0
9.389408 -15.250005 -5.108221 18.623039 -1.018914 1.848654 0.021113 0.004839 362782.000000 1 0 0
-5.448392 -10.849705 -9.403821 15.356853 1.105415 2.229830 0.010633 -0.002885 84482.700000 1 0 0
-10.398492 -15.876905 -5.130121 19.660186 0.990953 1.834792 0.019732 -0.004449 -2692940.000000 1 0 0
2.183908 -17.426505 -3.257121 17.862289 -1.446125 1.754168 0.002673 -0.001713 438331.000000 1 0 0
-0.216592 -14.543005 -8.248121 16.720568 1.555904 2.086666 -0.009747 0.003141 155594.000000 1 0 0
-0.535892 -18.245105 -7.126221 19.594746 1.541433 1.943012 -0.007337 -0.000283 -191544.000000 1 0 0
-1.796092 -9.947405 -10.528721 14.595574 1.392162 2.376566 0.002240 0.000128 422500.000000 1 0 0
-5.068392 -17.281505 2.152579 18.137602 1.285512 1.451835 0.005558 0.000100 793243.000000 1 0 0
0.313108 -12.858105 -2.598321 13.121745 -1.546450 1.770130 -0.001309 -0.000761 -2327150.000000 1 0 0
2.602408 -14.907605 3.098279 15.446960 -1.397969 1.368851 0.008586 -0.004535 -1048230.000000 1 0 0
-9.549592 -13.038905 6.961979 17.597640 0.938660 1.164053 0.012058 -0.004195 -315596.000000 1 0 0
-1.011392 -17.760005 -4.582921 18.369645 1.513910 1.822943 -0.005288 -0.008632 -161053.000000 1 0 0
-9.511792 -17.136005 -2.235221 19.725949 1.064064 1.684354 0.009811 -0.015281 -919535.000000 1 0 0
1.356208 -16.217205 1.437779 16.337205 -1.487363 1.482676 0.007386 -0.007675 963842.000000 1 0 0
-0.401292 -17.938605 4.123679 18.410848 1.548430 1.344899 0.016476 -0.014954 1124720.000000 1 0 0
-17.431092 -9.134405 -0.023321 19.679453 0.482686 1.571981 -0.003031 0.000949 851959.000000 1 0 0
-14.688092 -6.777105 -10.910221 19.511589 0.432295 2.164176 0.011363 -0.006937 244596.000000 1 0 0
2.709308 -12.735605 -8.863921 15.751352 -1.361186 2.168493 -0.014605 0.005831 647487.000000 1 0 0
-11.475192 -14.513705 1.736679 18.583426 0.901786 1.477207 0.002271 0.002175 284928.000000 1 0 0
-2.199392 -15.564405 10.668579 18.997543 1.430417 0.974506 0.007258 -0.006376 -546595.000000 1 0 0
-6.985792 -15.656605 1.540279 17.213455 1.151117 1.481195 0.009458 0.002448 -1265660.000000 1 0 0
-12.520992 -14.978305 -6.086021 20.449071 0.874521 1.872993 0.023526 -0.001180 242995.000000 1 0 0
0.921408 -13.737405 -5.050821 14.665473 -1.503824 1.922398 -0.004814 0.000221 67605.300000 1 0 0
5.817908 -16.602105 -7.284421 19.040503 -1.233737 1.963378 0.005820 -0.001532 -66311.500000 1 0 0
-6.697492 -12.747905 6.074479 15.628973 1.087052 1.171611 0.008383 -0.001553 44264.300000 1 0 0
-2.595792 -13.590805 0.554879 13.847600 1.382073 1.530715 0.005015 -0.001447 -409180.000000 1 0 0
-4.214392 -15.577005 0.197879 16.138257 1.306570 1.558535 -0.002198 -0.000748 23781.200000 1 0 0
-17.597792 -7.362205 -2.021821 19.182599 0.396233 1.676391 -0.011720 -0.000729 338318.000000 1 0 0
1.153208 -12.807505 -12.071121 17.637291 -1.480997 2.324589 -0.005104 0.007196 -1012690.000000 1 0 0
1.277708 -17.087405 -5.761821 18.077902 -1.496160 1.895177 -0.003596 0.001048 -1650410.000000 1 0 0
-12.740992 -6.226305 -9.140721 16.871649 0.454553 2.143350 0.008829 -0.002603 129369.000000 1 0 0
-11.196492 -13.776805 -8.977721 19.893749 0.888356 2.038999 0.019278 -0.005060 273393.000000 1 0 0
-4.299192 -9.930805 3.627279 11.413199 1.162241 1.247373 0.007657 0.000647 -3535270.000000 1 0 0
-7.135692 -14.191505 9.806379 18.667673 1.104900 1.017713 0.015253 -0.008276 -539992.000000 1 0 0
-5.165092 -15.871605 -8.158721 18.578233 1.256176 2.025454 0.004221 -0.006407 -1152460.000000 1 0 0
-0.374692 -13.501705 2.143479 13.675926 1.543052 1.413414 0.005822 -0.002122 534041.000000 1 0 0
-10.972492 -13.325505 -4.723821 17.896345 0.881937 1.837916 0.023513 -0.008540 -931855.000000 1 0 0
-9.776492 -10.433405 6.715379 15.796584 0.817891 1.131706 0.012854 -0.002535 48708.400000 1 0 0
-15.678792 -8.062105 -4.767221 18.263309 0.474947 1.834882 0.018851 -0.005079 604266.000000 1 0 0
-14.710692 -7.270805 5.528679 17.315755 0.459040 1.245820 0.016633 -0.002577 180907.000000 1 0 0
-1.708692 -19.386505 0.010979 19.461663 1.482885 1.570232 0.007491 -0.004346 -716799.000000 1 0 0
-15.233392 -12.046605 -1.292321 19.463993 0.669108 1.637241 -0.005973 0.007936 110608.000000 1 0 0
-4.350092 -12.161805 -6.835421 14.613548 1.227292 2.057535 0.002345 -0.002894 -607243.000000 1 0 0
-7.411092 -18.277505 1.978879 19.821893 1.185578 1.470797 0.010783 0.003109 208723.000000 1 0 0
-2.384892 -11.832005 -8.672321 14.862476 1.371899 2.193834 -0.003116 0.000605 75707.500000 1 0 0
-1.312192 -20.286805 -5.176221 20.977835 1.506204 1.820118 -0.002092 -0.003157 -168713.000000 1 0 0
-5.404792 -8.891705 -13.991221 17.436412 1.024627 2.502126 0.010289 0.000514 608761.000000 1 0 0
-8.406792 -19.006505 -0.713521 20.794964 1.154355 1.605115 0.010706 0.005555 6920.110000 1 0 0
-17.322392 -7.238405 5.447579 19.548296 0.395811 1.288384 0.019519 -0.006605 546875.000000 1 0 0
-3.590992 -14.662705 -4.424921 15.731182 1.330617 1.855928 -0.005367 -0.002845 -2005790.000000 1 0 0
-2.912692 -15.087505 -11.007221 18.901733 1.380089 2.192400 0.002195 0.002159 -152795.000000 1 0 0
-0.135592 -16.612105 6.344879 17.783080 1.562634 1.205964 0.024538 -0.012546 -535126.000000 1 0 0
-11.269692 -11.518705 3.902579 16.580611 0.796325 1.333197 0.006321 0.002158 1321900.000000 1 0 0
-0.338292 -14.791305 -0.135921 14.795798 1.547929 1.579983 -0.004302 -0.000741 806161.000000 1 0 0
-7.277092 -9.453205 -2.520021 12.193017 0.914742 1.778974 0.008775 -0.000458 -320633.000000 1 0 0
-10.873892 -14.407205 -0.833621 18.069422 0.924260 1.616947 -0.005017 0.003543 566270.000000 1 0 0
0.281908 -14.696905 -10.779221 18.228277 -1.551617 2.203523 -0.012847 0.009053 -449219.000000 1 0 0
-1.388092 -13.959905 -3.962521 14.577631 1.471688 1.846082 -0.006771 -0.001510 -5808090.000000 1 0 0
-11.398092 -8.013205 -7.699221 15.918730 0.612757 2.075626 0.014435 -0.004838 665106.000000 1 0 0
-0.255492 -17.327405 -0.176021 17.330183 1.556052 1.580953 0.000833 -0.005141 -1239370.000000 1 0 0
-12.914292 -9.437505 4.697179 16.670601 0.631086 1.285164 0.004859 0.003108 205580.000000 1 0 0
3.958608 -16.760905 1.655279 17.301401 -1.338865 1.474977 0.015879 -0.007438 621212.000000 1 0 0
-3.644292 -17.979505 -8.154021 20.075645 1.370814 1.989049 0.005458 -0.004926 172301.000000 1 0 0
-13.499292 -11.058405 2.709879 17.659634 0.686330 1.416737 -0.000233 0.002957 310310.000000 1 0 0
-8.586392 -12.089705 4.238679 15.422500 0.953242 1.292376 0.011044 0.001081 1136410.000000 1 0 0
-8.199992 -9.550305 -5.932521 13.915567 0.861325 2.011220 0.018067 -0.005674 152530.000000 1 0 0
3.736008 -17.280105 -5.260121 18.445288 -1.357871 1.859985 -0.010017 0.003751 -2104180.000000 1 0 0
-2.584992 -13.043305 11.359079 17.488244 1.375146 0.863835 0.006916 -0.006919 584542.000000 1 0 0
0.222208 -16.854805 -9.380121 19.290425 -1.557613 2.078598 -0.010934 0.006017 -287792.000000 1 0 0
-7.103092 -10.769705 -14.674221 19.539018 0.987741 2.420404 0.011533 0.006080 -1065180.000000 1 0 0
-4.551092 -18.843705 -1.522721 19.445214 1.333817 1.649185 0.008789 -0.007254 -856838.000000 1 0 0
-2.533992 -17.270005 1.155079 17.493096 1.425108 1.504718 0.008540 -0.006533 -499356.000000 1 0 0
4.012008 -14.693905 -7.475921 16.967512 -1.304254 2.027066 -0.009259 0.004907 1544780.000000 1 0 0
-0.818592 -15.761405 -6.145921 16.937070 1.518906 1.942140 -0.008811 -0.002006 -14277.600000 1 0 0
-9.627192 -15.176305 8.436679 19.853983 1.005497 1.131905 0.015752 -0.005337 -313555.000000 1 0 0
-7.180092 -12.007105 -1.740221 14.097967 1.031858 1.694550 0.003587 -0.000345 845943.000000 1 0 0
-7.201292 -15.018505 -9.407721 19.129018 1.123687 2.084956 0.017418 -0.006088 -374347.000000 1 0 0
-4.999992 -13.282305 -0.747821 14.211924 1.210764 1.623440 0.001102 0.001112 1567200.000000 1 0 0
-6.381192 -13.726205 -7.415321 16.855720 1.135628 2.026316 0.006618 -0.005732 471247.000000 1 0 0
5.668608 -15.404205 0.299079 16.416824 -1.218185 1.552577 0.013255 0.003092 -8137.070000 1 0 0
-14.267192 -12.787305 1.059079 19.188267 0.730752 1.515574 -0.015204 0.003529 737773.000000 1 0 0
0.859308 -15.355505 11.182279 19.015082 -1.514894 0.942121 0.020901 -0.006005 -302016.000000 1 0 0
-9.370092 -10.863005 1.974479 14.481094 0.859050 1.434021 0.005549 0.003138 47028.400000 1 0 0
-9.451992 -8.825805 -3.613021 13.427171 0.751152 1.843237 0.012673 -0.003861 -1322220.000000 1 0 0
-12.186392 -6.968705 -12.549321 18.829669 0.519459 2.300254 0.011907 0.004112 -1120310.000000 1 0 0
-13.325192 -8.385505 -0.658621 15.757894 0.561683 1.612605 0.004486 0.000253 133466.000000 1 0 0
-11.287292 -9.704905 0.435279 14.892200 0.710161 1.541563 0.006178 0.003372 1340170.000000 1 0 0
-15.849192 -12.147005 2.970479 20.188372 0.653922 1.423122 0.005749 0.007970 -418955.000000 1 0 0
-10.384892 -12.497105 -2.297721 16.410458 0.877446 1.711274 0.012291 -0.001882 291560.000000 1 0 0
-3.376092 -8.851205 -12.174721 15.426135 1.206403 2.480345 0.005710 0.000390 -2103850.000000 1 0 0
-0.269892 -15.547905 3.917279 16.036062 1.553439 1.324020 0.012334 -0.005748 -627581.000000 1 0 0
-15.603192 -7.741505 1.226779 17.461257 0.460562 1.500481 -0.011794 0.003044 641077.000000 1 0 0
-6.240792 -13.356605 -13.317621 19.867194 1.133695 2.305453 0.017097 -0.005963 1285860.000000 1 0 0
-15.411392 -10.301605 1.082479 18.568948 0.589230 1.512468 0.002121 0.003291 33778.400000 1 0 0
-10.046692 -8.237805 -12.618521 18.111447 0.686789 2.341604 0.021142 0.001830 27027.600000 1 0 0
-13.204392 -11.916305 -6.159621 18.822732 0.734167 1.904182 0.015030 -0.000025 -386125.000000 1 0 0
-12.206992 -11.205305 -3.767321 16.993005 0.742640 1.794352 0.010061 -0.004601 -1031370.000000 1 0 0
-11.773792 -11.202605 -8.986921 18.571087 0.760544 2.075925 0.019856 -0.007437 -187411.000000 1 0 0
-13.310292 -8.369405 -5.888021 16.789270 0.561322 1.929116 0.015203 -0.006663 1568030.000000 1 0 0
-13.503292 -8.278405 -3.252021 16.169308 0.549971 1.773301 0.010609 -0.003256 623601.000000 1 0 0
-4.297892 -16.953705 -3.236921 17.787008 1.322519 1.753798 -0.005248 -0.006247 182855.000000 1 0 0
-15.523292 -8.927205 -1.806821 17.998116 0.521898 1.671355 0.002904 -0.000217 -1450580.000000 1 0 0
-9.492292 -15.775505 3.738879 18.786947 1.029120 1.370444 0.011394 0.008556 -1353370.000000 1 0 0
4.637008 -17.106205 8.042479 19.462928 -1.306086 1.144809 0.027090 -0.021512 -130375.000000 1 0 0
-8.498892 -15.443605 6.063679 18.641468 1.067709 1.239489 0.013363 0.006932 251783.000000 1 0 0
0.843708 -15.887005 8.591579 18.081040 -1.517739 1.075638 0.017878 -0.013972 267236.000000 1 0 0
-11.025992 -7.755805 -10.271721 16.947957 0.613012 2.221912 0.018460 0.000585 601500.000000 1 0 0
-4.857792 -15.919305 5.936079 17.670865 1.274621 1.228210 0.009396 -0.002909 -1605300.000000 1 0 0
-1.395792 -13.229705 -12.061121 17.956725 1.465681 2.307267 -0.002570 0.001439 -432413.000000 1 0 0
-6.471492 -14.396705 -2.606921 15.998168 1.148348 1.734477 0.004490 -0.001013 721280.000000 1 0 0
-17.494592 -6.914205 -7.306221 20.180383 0.376379 1.941258 -0.001740 -0.007502 -154893.000000 1 0 0
-17.189692 -4.177705 -10.276521 20.458387 0.238413 2.097068 0.007932 -0.003759 378234.000000 1 0 0
-15.198592 -5.255305 -8.929821 18.394486 0.332907 2.077688 -0.001341 -0.011903 -54117.500000 1 0 0
-16.044692 -5.303705 -5.723421 17.841496 0.319251 1.897363 0.007926 -0.005879 -372082.000000 1 0 0
-15.297492 -4.033205 -12.315821 20.048926 0.257785 2.232280 0.015935 -0.004193 -1159830.000000 1 0 0
-18.723692 -5.351305 -5.654421 20.277711 0.278383 1.853392 0.009811 -0.005226 -413023.000000 1 0 0
-17.352792 -4.380405 -7.681321 19.475883 0.247267 1.976213 0.000011 -0.009463 251217.000000 1 0 0
12.196408 -7.823905 8.714279 16.908712 -0.570371 1.029354 0.020875 -0.011373 1079.020000 1 0 0
16.028608 -3.415705 1.748279 16.481499 -0.209960 1.464521 0.014726 -0.008267 492531.000000 1 0 0
12.106108 -2.115405 12.434479 17.482822 -0.172992 0.779536 0.018743 -0.010312 132494.000000 1 0 0
9.732908 -10.159605 5.229479 15.009815 -0.806845 1.214928 0.013258 -0.005044 477217.000000 1 0 0
17.129808 -2.020705 7.222079 18.699519 -0.117422 1.174269 0.052978 -0.014284 230785.000000 1 0 0
5.089008 -12.769205 9.105479 16.488189 -1.191551 0.985745 0.006334 0.000994 29333.600000 1 0 0
15.064608 -9.048205 -2.051321 17.692381 -0.540880 1.687001 0.014516 -0.003637 236731.000000 1 0 0
11.074508 -8.612505 6.473979 15.450967 -0.660987 1.138451 0.018411 -0.008341 -2104850.000000 1 0 0
19.850108 -3.155805 3.419979 20.388285 -0.157662 1.402257 0.030859 -0.013083 -288243.000000 1 0 0
13.605208 -8.566105 6.709479 17.421164 -0.561914 1.175444 0.023643 -0.007509 175465.000000 1 0 0
8.350208 -11.063705 8.713779 16.372584 -0.924269 1.009578 0.008794 -0.002901 -1013020.000000 1 0 0
16.744508 0.033895 -0.633021 16.756504 0.002024 1.608583 0.013145 -0.001187 -1044340.000000 1 0 0
12.466608 -12.341705 2.351879 17.699304 -0.780363 1.437522 0.022523 -0.004034 -558761.000000 1 0 0
10.223108 -11.869905 3.520479 16.056163 -0.859800 1.349740 0.014275 -0.002019 -79763.900000 1 0 0
16.298108 2.951195 2.390479 16.734762 0.179135 1.427461 0.015240 -0.003564 -175080.000000 1 0 0
18.289508 -3.263505 0.382279 18.582323 -0.176578 1.550223 0.014616 -0.009130 740673.000000 1 0 0
13.494308 -11.661405 -0.184121 17.835880 -0.712664 1.581120 0.029054 -0.001979 -254896.000000 1 0 0
17.064508 -7.723605 -0.924221 18.753818 -0.425024 1.620098 0.026070 -0.005201 372295.000000 1 0 0
10.085108 -5.773405 9.687279 15.128946 -0.519930 0.875889 0.015890 -0.008301 -1064670.000000 1 0 0
11.302408 -13.149205 6.166979 18.403197 -0.860784 1.229081 0.021887 -0.001256 967962.000000 1 0 0
13.077508 -1.929305 10.095179 16.632982 -0.146472 0.918595 0.025180 -0.013708 1401280.000000 1 0 0
15.620308 -2.001705 -1.583721 15.827477 -0.127453 1.671026 0.011188 -0.004686 28060.500000 1 0 0
10.623008 -12.291305 9.278779 18.708828 -0.858076 1.051859 0.018175 -0.005084 149390.000000 1 0 0
14.434008 1.207795 3.325479 14.861298 0.083483 1.345118 0.010300 -0.003053 1595780.000000 1 0 0
14.948908 -5.905205 5.323479 16.931649 -0.376211 1.250961 0.023372 -0.007594 -999843.000000 1 0 0
14.406808 -3.371305 -3.105121 15.118320 -0.229871 1.777656 0.011015 -0.004047 933377.000000 1 0 0
13.956908 0.570295 9.536379 16.913399 0.040838 0.971773 0.030170 -0.009065 653097.000000 1 0 0
15.410408 -3.486605 4.397879 16.400562 -0.222504 1.299320 0.018796 -0.006767 -687809.000000 1 0 0
18.578108 4.929395 -4.357721 19.708748 0.259357 1.793745 0.003394 0.003302 744421.000000 1 0 0
18.153108 -5.796005 -4.999521 19.700868 -0.309054 1.827374 0.038393 -0.008246 485186.000000 1 0 0
17.383208 0.098095 5.980779 18.383560 0.005643 1.239432 0.050468 -0.009753 623058.000000 1 0 0
17.045908 -6.592505 3.986579 18.706067 -0.369032 1.356032 0.022554 -0.011442 -96828.900000 1 0 0
9.700008 -6.613905 14.254079 18.466529 -0.598437 0.688992 0.007319 -0.009873 -720072.000000 1 0 0
8.507508 -12.352905 5.211779 15.878747 -0.967691 1.236374 0.010595 -0.003024 -1627240.000000 1 0 0
16.847208 -10.332905 -0.545621 19.771066 -0.550164 1.598397 0.022540 0.000250 391735.000000 1 0 0
15.044208 -8.790005 0.449279 17.429694 -0.528779 1.545017 0.029605 -0.009209 15291.200000 1 0 0
10.049008 -13.007505 1.389979 16.495751 -0.913016 1.486433 0.020778 -0.003366 365901.000000 1 0 0
17.110908 -8.097805 8.856479 20.899638 -0.442023 1.133201 0.040626 -0.008630 248288.000000 1 0 0
19.037008 -0.225405 -1.811721 19.124351 -0.011840 1.665672 0.016074 -0.000899 -514181.000000 1 0 0
13.212908 -1.199405 7.721179 15.350444 -0.090527 1.043737 0.018092 -0.010893 343130.000000 1 0 0
12.811608 -9.774905 -3.115521 16.413182 -0.651752 1.761773 0.020385 -0.006548 -1555060.000000 1 0 0
8.823808 -15.250305 1.427679 17.676812 -1.046262 1.489943 0.021070 0.005191 795024.000000 1 0 0
11.412308 -8.220205 11.131279 17.936497 -0.624216 0.901297 0.017330 -0.011672 209303.000000 1 0 0
14.020408 -3.994805 -0.614621 14.591370 -0.277572 1.612931 0.009188 -0.008256 -243078.000000 1 0 0
7.224108 -13.355605 10.637179 18.539405 -1.074963 0.959706 0.011636 0.005996 365156.000000 1 0 0
15.482308 -6.662605 1.912479 16.963188 -0.406382 1.457813 0.022449 -0.010015 371424.000000 1 0 0
15.995608 -6.174505 -2.658421 17.350827 -0.368390 1.724618 0.019961 -0.005545 -235004.000000 1 0 0
11.250108 -8.610905 3.864879 14.685024 -0.653289 1.304474 0.020651 -0.007996 836302.000000 1 0 0
10.483608 -14.572905 -0.556821 17.960670 -0.947175 1.601804 0.029038 0.001120 434422.000000 1 0 0
13.504908 -12.784605 4.718879 19.185841 -0.758006 1.322290 0.025904 -0.002352 290239.000000 1 0 0
12.844908 -11.025305 6.584079 18.163125 -0.709316 1.199851 0.020518 -0.006592 34509.000000 1 0 0
10.888608 -10.557905 1.342879 15.226112 -0.769980 1.482486 0.017587 -0.004865 565558.000000 1 0 0
13.853408 -7.489205 11.808679 19.683750 -0.495601 0.927395 0.020208 -0.016746 -999833.000000 1 0 0
15.314908 -1.803805 -4.905421 16.182190 -0.117241 1.878779 0.016981 -0.003046 -882995.000000 1 0 0
12.871408 -11.362705 -7.104821 18.581246 -0.723223 1.963151 0.031456 -0.003050 191083.000000 1 0 0
17.777808 -5.346605 1.875579 18.658897 -0.292141 1.470107 0.022733 -0.009032 495594.000000 1 0 0
10.513108 -9.684605 9.195979 16.996560 -0.744402 0.999112 0.009529 -0.007885 -1326240.000000 1 0 0
16.353208 1.707795 9.824879 19.153909 0.104055 1.032186 0.054315 -0.012866 378808.000000 1 0 0
18.170808 3.676695 0.598279 18.548700 0.199645 1.538536 0.009337 -0.002885 648538.000000 1 0 0
13.246708 -4.126505 5.799179 15.037746 -0.301984 1.174893 0.021100 -0.009984 334263.000000 1 0 0
12.012108 -6.232905 6.590979 15.052603 -0.478641 1.117576 0.020091 -0.011181 -240473.000000 1 0 0
16.644208 -10.087605 3.456079 19.766991 -0.544873 1.395052 0.015900 -0.008660 117343.000000 1 0 0
16.383208 -8.100205 -5.485621 19.081794 -0.459175 1.862390 0.028543 -0.003874 -213024.000000 1 0 0
13.924908 -0.459205 5.323679 14.914942 -0.032965 1.205811 0.018222 -0.006500 1280690.000000 1 0 0
18.223608 -4.170105 5.001479 19.352118 -0.224957 1.309383 0.032741 -0.011155 -259002.000000 1 0 0
13.701008 -13.403905 7.219879 20.481918 -0.774437 1.210555 0.035028 -0.003845 68959.900000 1 0 0
15.026508 -13.544005 -0.949221 20.251841 -0.733555 1.617684 0.029298 0.002708 235736.000000 1 0 0
17.863208 -5.786105 7.904479 20.372875 -0.313247 1.172346 0.046460 -0.009736 -457104.000000 1 0 0
14.333508 3.251995 9.242179 17.362108 0.223104 1.009459 0.034989 -0.005056 229479.000000 1 0 0
18.697708 3.712495 3.037579 19.303207 0.196004 1.412778 0.038065 -0.009345 230678.000000 1 0 0
14.736408 -10.314105 8.221479 19.777139 -0.610663 1.142077 0.020161 -0.011790 -273058.000000 1 0 0
14.708708 -4.767605 10.344479 18.603344 -0.313449 0.981165 0.024947 -0.016403 228822.000000 1 0 0
17.974808 -7.849005 1.915479 19.707097 -0.411711 1.473445 0.034028 -0.013335 161164.000000 1 0 0
18.524808 -5.867805 -1.869121 19.521610 -0.306756 1.666689 0.022234 -0.007079 279081.000000 1 0 0
14.255208 -12.934505 -5.441521 20.003063 -0.736863 1.846303 0.032872 -0.004441 -70549.700000 1 0 0
15.452308 -1.421705 9.200779 18.040217 -0.091748 1.035594 0.043671 -0.017350 -1049000.000000 1 0 0
12.874008 -10.053805 10.310179 19.316286 -0.663009 1.007761 0.007514 -0.009693 -750310.000000 1 0 0
16.466708 2.147395 4.845579 17.298654 0.129676 1.286884 0.030784 -0.006881 -940672.000000 1 0 0
14.940808 2.387695 -0.006621 15.130396 0.158470 1.571234 0.004738 -0.000524 -1454230.000000 1 0 0
15.005508 -9.875105 -6.887521 19.238527 -0.582047 1.936928 0.027469 -0.006618 153156.000000 1 0 0
16.191708 -0.005805 -3.227921 16.510328 -0.000359 1.767573 0.010553 0.000050 -124450.000000 1 0 0
12.145008 2.390295 13.601879 18.390918 0.194329 0.738324 0.020288 0.003810 -304211.000000 1 0 0
17.524108 -2.890705 9.572679 20.176391 -0.163484 1.076458 0.037919 -0.012362 62895.200000 1 0 0
7.761908 -18.185305 4.444479 20.265881 -1.167383 1.349691 0.032010 -0.009764 -457169.000000 1 0 0
6.721108 -11.232305 6.580479 14.650621 -1.031574 1.104971 0.008018 -0.004790 187377.000000 1 0 0
17.835208 2.080095 -1.520621 18.020370 0.116104 1.655280 0.002591 0.001332 181083.000000 1 0 0
17.517108 -2.243605 3.521079 18.007800 -0.127387 1.373998 0.020876 -0.005180 -1630110.000000 1 0 0
12.553108 -13.475805 -1.927621 18.517386 -0.820832 1.675083 0.030462 0.003880 994292.000000 1 0 0
15.101808 -8.286705 4.334479 17.762934 -0.501862 1.324289 0.023618 -0.008758 -213106.000000 1 0 0
12.027708 -3.194805 14.785079 19.325401 -0.259625 0.699663 0.019642 -0.015563 -127052.000000 1 0 0
12.009008 -13.661905 -6.402721 19.283640 -0.849697 1.909250 0.030406 -0.005105 -165303.000000 1 0 0
10.551808 -12.070205 -1.319121 16.086348 -0.852418 1.652891 0.023967 -0.005365 -1327650.000000 1 0 0
13.278708 -8.021405 2.152879 15.662117 -0.543414 1.432902 0.016530 -0.005950 -1749700.000000 1 0 0
8.691408 -7.906505 9.963679 15.405464 -0.738144 0.867464 0.005069 -0.005720 -2289020.000000 1 0 0
15.479008 -3.776905 8.066979 17.858916 -0.239325 1.102120 0.034422 -0.015547 94261.900000 1 0 0
10.073808 -17.453805 5.412979 20.866655 -1.047333 1.308387 0.030156 -0.003367 835639.000000 1 0 0
15.304408 -6.328905 8.344979 18.545043 -0.392120 1.104049 0.036421 -0.007504 132082.000000 1 0 0
16.630108 -5.146705 -0.321921 17.411281 -0.300132 1.589287 0.012675 -0.008491 -727957.000000 1 0 0
14.120608 -10.533505 3.535679 17.967953 -0.640915 1.372727 0.028583 -0.005407 -338704.000000 1 0 0
14.982808 -9.971805 -4.393021 18.526200 -0.587229 1.810201 0.030374 -0.007868 413823.000000 1 0 0
13.734408 -6.611905 0.004879 15.243073 -0.448667 1.570476 0.018019 -0.009669 -202321.000000 1 0 0
17.821208 -0.947105 -4.833521 18.489332 -0.053095 1.835292 0.012749 0.000469 588765.000000 1 0 0
14.404208 0.211995 -1.592521 14.493525 0.014716 1.680897 0.008970 -0.001897 -3436790.000000 1 0 0
4.873308 -12.927205 11.722579 18.118517 -1.210290 0.867160 -0.000168 0.005732 -480081.000000 1 0 0
11.981708 -7.403705 13.507479 19.514820 -0.553490 0.806312 0.011799 -0.013669 55481.000000 1 0 0
11.984808 -5.696105 11.602279 17.626518 -0.443674 0.852333 0.016789 -0.009473 259900.000000 1 0 0
13.146408 -4.723505 8.345979 16.272520 -0.344936 1.032251 0.024192 -0.013231 -750214.000000 1 0 0
15.198208 -1.232805 3.045179 15.549227 -0.080938 1.373681 0.017602 -0.005623 -26949.500000 1 0 0
15.266108 -10.464305 5.749079 19.380600 -0.600901 1.269623 0.026155 -0.003887 -844423.000000 1 0 0
13.758308 -8.040705 -5.733721 16.935747 -0.528889 1.916180 0.028436 -0.001713 -315817.000000 1 0 0
9.855208 -2.449005 13.654479 17.016685 -0.243565 0.639462 0.024166 -0.004370 -2637030.000000 1 0 0
9.992708 -9.125305 13.681879 19.243681 -0.740058 0.779905 0.010722 -0.004099 -416069.000000 1 0 0
20.298308 6.185395 -2.854121 21.410895 0.295786 1.704497 0.028966 0.003778 -49996.200000 1 0 0
11.022208 -3.559705 10.556679 15.671760 -0.312383 0.831712 0.011024 -0.007430 1066200.000000 1 0 0
10.253908 -14.068905 -3.015921 17.668404 -0.940979 1.742332 0.024044 0.001819 -187887.000000 1 0 0
14.993108 -12.782205 2.583879 19.870946 -0.705966 1.440394 0.023599 0.005449 608887.000000 1 0 0
11.345408 -0.674605 14.502679 18.425555 -0.059391 0.664710 0.020047 -0.003743 260877.000000 1 0 0
19.136508 -1.778505 5.642479 20.030142 -0.092672 1.285232 0.056151 -0.011132 497245.000000 1 0 0
19.198608 -0.448005 7.857279 20.749075 -0.023331 1.182426 0.086996 -0.017045 896842.000000 1 0 0
18.911208 0.809095 0.555179 18.936648 0.042758 1.541474 0.024710 -0.004831 -23147.400000 1 0 0
18.482908 0.890195 3.827679 18.896070 0.048126 1.366820 0.037234 -0.008507 -41129.800000 1 0 0
16.821108 -3.756205 -4.085121 17.712904 -0.219699 1.803521 0.019431 -0.005333 -1157250.000000 1 0 0
11.169008 -8.138505 15.841679 21.022389 -0.629709 0.717332 0.022916 -0.015549 431840.000000 1 0 0
16.639908 -7.537905 6.374379 19.347849 -0.425347 1.235063 0.028928 -0.007390 327638.000000 1 0 0
18.796008 2.362195 5.988679 19.867918 0.125020 1.264610 0.061791 -0.012071 515719.000000 1 0 0
15.284808 1.692395 7.496279 17.108003 0.110275 1.117230 0.040691 -0.011707 80121.300000 1 0 0
8.745108 -15.737405 3.922679 18.426347 -1.063596 1.356270 0.020533 -0.003878 917079.000000 1 0 0
11.420908 -15.246905 1.836979 19.138437 -0.927895 1.474665 0.028296 0.004634 629540.000000 1 0 0
7.793408 -16.225505 6.162979 19.025944 -1.123018 1.240921 0.015437 -0.000847 -125622.000000 1 0 0
14.486908 -11.661805 -2.469021 18.760711 -0.677776 1.702785 0.023143 -0.004789 575570.000000 1 0 0
13.628108 -4.908005 3.251479 14.845402 -0.345678 1.349984 0.013223 -0.005320 -1181330.000000 1 0 0
-1.136492 10.335695 -5.538921 11.781249 -1.461278 2.060254 0.007834 -0.000485 -1960360.000000 1 0 0
8.290808 -1.768005 -8.021921 11.671099 -0.210102 2.328606 0.002927 -0.000729 -556914.000000 1 0 0
2.896008 -10.201305 7.702879 13.106786 -1.294188 0.942581 0.000493 -0.002197 500779.000000 1 0 0
-6.356992 1.406995 8.270879 10.526083 -0.217819 0.666887 -0.001153 0.001563 -304168.000000 1 0 0
7.297908 -6.242105 -7.179121 11.990126 -0.707579 2.212739 0.001860 -0.001225 55699.900000 1 0 0
-11.328692 -4.486005 -4.187121 12.883923 0.377041 1.901795 0.007067 -0.002732 140690.000000 1 0 0
2.075408 -3.287005 2.849679 4.820000 -1.007610 0.938226 0.000011 0.001176 1239000.000000 1 0 0
-3.689892 -4.239705 8.906179 10.531402 0.854624 0.562961 0.001619 0.001002 -1078700.000000 1 0 0
-4.852492 -1.028405 -2.437821 5.526958 0.208843 2.027596 -0.000006 -0.003645 -614363.000000 1 0 0
5.029108 -5.295605 -3.662621 8.170077 -0.811204 2.035656 0.006020 -0.003432 -171518.000000 1 0 0
2.717108 14.266995 -8.834421 16.999318 1.382603 2.117288 0.015303 -0.004477 -186279.000000 1 0 0
5.482708 -5.447005 13.804379 15.820583 -0.782132 0.510382 0.008478 0.000413 -1712160.000000 1 0 0
-4.752192 -0.765405 9.867179 10.978634 0.159692 0.453859 0.009598 0.000716 -2798430.000000 1 0 0
-0.954092 12.094695 -2.624821 12.412961 -1.492074 1.783863 0.006704 -0.002157 -616553.000000 1 0 0
3.234208 9.346695 -10.587821 14.488711 1.237665 2.390236 0.005502 -0.003454 -119093.000000 1 0 0
-10.615392 2.701195 1.192279 11.018372 -0.249172 1.462376 0.001259 -0.002609 212628.000000 1 0 0
5.761608 -9.050905 -0.737921 10.754513 -1.003914 1.639465 0.001627 -0.006375 937783.000000 1 0 0
-6.950592 5.405195 9.476679 12.935776 -0.660970 0.748670 -0.002094 -0.000024 -40135.000000 1 0 0
-5.549992 -1.829205 5.208979 7.828274 0.318375 0.842759 0.000443 -0.001024 645473.000000 1 0 0
6.659408 -3.767205 -7.365921 10.620562 -0.514815 2.337205 0.003342 -0.001956 489877.000000 1 0 0
6.266008 4.763195 11.036879 13.555943 0.649974 0.619493 -0.008386 0.006163 130547.000000 1 0 0
3.702008 -9.864405 3.387279 11.067295 -1.211772 1.259742 -0.003346 -0.002354 888571.000000 1 0 0
-6.657592 6.604495 -5.822321 11.038220 -0.781394 2.126415 0.000223 -0.001354 -264539.000000 1 0 0
-11.132492 8.481695 5.316779 14.971295 -0.651065 1.207742 -0.007077 -0.001573 681150.000000 1 0 0
-9.144992 -5.500405 5.179379 11.862180 0.541497 1.118947 0.003327 0.000523 353740.000000 1 0 0
3.309108 9.774495 -8.110821 13.125409 1.244362 2.236926 0.005346 -0.003118 792113.000000 1 0 0
-8.090392 -8.548105 6.125479 13.268234 0.812901 1.090925 0.006278 0.001093 -2105400.000000 1 0 0
-7.732892 -5.801205 -7.494321 12.231780 0.643628 2.230259 0.018602 -0.003502 285592.000000 1 0 0
9.158408 -1.655905 6.962679 11.623139 -0.178875 0.928500 0.001415 -0.003520 2593300.000000 1 0 0
-4.072792 -0.459405 -4.859921 6.357477 0.112324 2.440971 0.002735 -0.008782 -1950790.000000 1 0 0
9.086108 1.170695 -4.570221 10.237910 0.128138 2.033536 0.003514 -0.001965 -2281030.000000 1 0 0
-2.142492 -10.604705 10.685179 15.206022 1.371448 0.791620 0.004596 -0.004173 472131.000000 1 0 0
-12.944892 0.235995 -2.581821 13.201959 -0.018229 1.767628 0.004141 -0.001600 -171636.000000 1 0 0
-9.779992 -5.130605 -6.131821 12.632125 0.483135 2.077634 0.015422 -0.005371 -1168370.000000 1 0 0
-5.761792 8.373095 -0.140521 10.164974 -0.968080 1.584621 -0.002963 -0.000223 741268.000000 1 0 0
6.403708 9.541295 0.285379 11.494574 0.979691 1.545966 0.004938 -0.002718 305849.000000 1 0 0
-0.668192 -12.205605 -0.069321 12.224078 1.516106 1.576467 0.004941 -0.001007 -700025.000000 1 0 0
6.163808 4.683395 2.291979 8.073406 0.649757 1.282945 -0.000731 -0.000292 315353.000000 1 0 0
3.580308 -7.561505 -8.180821 11.701316 -1.128580 2.344986 -0.005043 0.000288 372222.000000 1 0 0
-6.551392 -9.869405 4.692979 12.741662 0.984775 1.193597 0.007898 0.002672 -2825340.000000 1 0 0
-0.020992 6.484595 -9.330421 11.362533 -1.567559 2.534231 0.002640 -0.002314 -3235360.000000 1 0 0
-17.380192 -2.748005 4.187179 18.087429 0.156813 1.337180 0.016602 -0.004601 391056.000000 1 0 0
-8.241592 0.878695 -9.233721 12.407963 -0.106216 2.410098 0.003854 -0.002268 731902.000000 1 0 0
-9.970892 -5.778005 -11.875121 16.547583 0.525200 2.371196 0.009759 0.001409 -835580.000000 1 0 0
2.221008 9.435695 6.341479 11.583591 1.339621 0.991478 -0.007393 0.005731 408939.000000 1 0 0
-11.402592 1.696695 -1.094821 11.580005 -0.147715 1.665482 0.004028 -0.003839 -1649670.000000 1 0 0
-5.909992 -5.342305 -3.043421 8.528226 0.734990 1.935705 0.013559 -0.003343 562695.000000 1 0 0
-6.996792 -8.285205 1.449879 10.940835 0.869508 1.437885 0.007933 0.003835 -555782.000000 1 0 0
-0.069292 11.126395 -7.859021 13.622249 -1.564569 2.185756 0.006534 0.001610 508612.000000 1 0 0
-2.891592 9.240795 -4.196021 10.552733 -1.267533 1.979722 0.001941 -0.000716 -307381.000000 1 0 0
3.371108 -4.817005 9.380779 11.070995 -0.960181 0.559860 -0.001895 0.002287 -933803.000000 1 0 0
-8.976592 1.602095 -0.418821 9.128051 -0.176615 1.616695 -0.002505 -0.002585 -1687510.000000 1 0 0
2.446808 3.516395 -10.397621 11.245551 0.962875 2.750777 -0.001094 -0.004251 -717193.000000 1 0 0
-13.727792 0.593395 1.175979 13.790842 -0.043199 1.485420 0.005273 -0.002875 -608465.000000 1 0 0
9.396408 -12.610305 -5.024321 16.509273 -0.930415 1.880035 0.019449 0.000272 -2254860.000000 1 0 0
-4.700292 9.456495 -8.323321 13.446029 -1.109516 2.238287 -0.000832 0.001794 -1997710.000000 1 0 0
-2.275192 7.198695 8.394279 11.289891 -1.264675 0.732475 0.002014 0.001310 221142.000000 1 0 0
-10.630892 -1.121005 -4.440221 11.575322 0.105060 1.964481 0.004624 -0.002356 -2947790.000000 1 0 0
2.691008 -7.135605 9.796579 12.414965 -1.210165 0.661463 -0.003130 0.000058 -1236940.000000 1 0 0
-16.077392 -6.366505 3.315579 17.607044 0.377046 1.381355 0.003521 -0.002314 594882.000000 1 0 0
-10.794992 0.045095 6.213679 12.455669 -0.004177 1.048509 0.000053 -0.001492 -1618570.000000 1 0 0
-8.267392 10.043295 9.540979 16.132198 -0.882083 0.937972 -0.004942 -0.009004 49689.000000 1 0 0
0.192208 -6.038305 -3.795421 7.134654 -1.538976 2.131721 -0.001595 -0.000161 442788.000000 1 0 0
4.875108 1.467795 -3.007521 5.913229 0.292447 2.104365 0.002925 -0.001057 629593.000000 1 0 0
0.377608 5.354795 3.606179 6.466911 1.500395 0.979262 -0.003335 0.005720 -1697170.000000 1 0 0
6.053208 -11.351205 -1.475221 12.948647 -1.080892 1.684973 0.001517 -0.004096 -2595770.000000 1 0 0
6.112908 -13.472705 5.201179 15.682274 -1.144849 1.232734 0.007153 -0.002962 418659.000000 1 0 0
8.128008 -8.311605 -5.914521 13.043345 -0.796566 2.041430 0.003330 -0.002826 595622.000000 1 0 0
-13.030492 -1.409205 -4.569621 13.880238 0.107728 1.906271 0.002563 0.001231 -3080890.000000 1 0 0
-6.705592 -1.516305 -7.080021 9.868680 0.222385 2.370893 0.010643 -0.006373 -1151230.000000 1 0 0
-5.725992 12.806795 -4.533821 14.743015 -1.150352 1.883385 0.003760 0.001500 140678.000000 1 0 0
-4.335392 6.905695 -6.744421 10.581656 -1.010186 2.261875 0.002296 -0.001018 -2899850.000000 1 0 0
-9.364892 -3.792005 -8.161221 12.987918 0.384738 2.250253 0.016992 -0.003158 654377.000000 1 0 0
-2.244192 -6.344905 9.164879 11.370543 1.230829 0.633400 0.003129 -0.000564 -223451.000000 1 0 0
7.412608 -6.010405 10.018979 13.836607 -0.681313 0.761079 0.003685 -0.001582 386027.000000 1 0 0
9.607808 -4.990205 12.231679 16.334813 -0.479039 0.724531 0.009320 -0.004881 -711381.000000 1 0 0
-6.466292 2.784395 -9.014021 11.437585 -0.406606 2.478521 0.001629 -0.003555 -494883.000000 1 0 0
7.291408 5.518695 8.779979 12.677092 0.647887 0.805728 -0.010712 0.003912 1208060.000000 1 0 0
12.657608 3.288295 11.186279 17.209322 0.254169 0.863195 0.022817 0.003987 503656.000000 1 0 0
-7.457192 -7.287805 -3.976921 11.159647 0.773911 1.935172 0.016850 -0.005397 -668107.000000 1 0 0
2.250708 1.388595 -5.762721 6.340570 0.552796 2.711350 -0.000763 -0.002248 858036.000000 1 0 0
12.719408 6.879995 -7.188421 16.149027 0.495834 2.032116 0.008070 -0.006156 111158.000000 1 0 0
0.797408 -7.934805 1.021879 8.039977 -1.470638 1.443352 -0.000372 -0.001387 451240.000000 1 0 0
-10.109092 -6.121405 -8.595321 14.613175 0.544479 2.199615 0.016805 -0.000874 -283852.000000 1 0 0
-6.715692 0.251195 3.131479 7.414161 -0.037387 1.134744 -0.000332 -0.003082 232129.000000 1 0 0
10.930208 -8.004405 1.185979 13.599504 -0.632089 1.483478 0.012056 -0.006804 270818.000000 1 0 0
6.118408 1.134195 10.498979 12.204503 0.183293 0.535028 0.000640 0.003194 -453639.000000 1 0 0
-12.817292 5.386495 1.737279 14.011261 -0.397842 1.446485 0.003963 -0.002621 90796.900000 1 0 0
2.097408 7.434595 3.591479 8.518864 1.295828 1.135597 -0.008091 0.003820 18417.400000 1 0 0
10.100308 -9.501305 -0.837621 13.892179 -0.754849 1.631127 0.011259 -0.006361 791663.000000 1 0 0
6.734308 -11.875005 -9.150821 16.434846 -1.054920 2.161317 -0.004957 0.005044 -644598.000000 1 0 0
10.201608 3.508995 12.154979 16.252058 0.331288 0.725897 0.000779 0.009123 -1535510.000000 1 0 0
-11.102592 -3.100705 -1.899921 11.682963 0.272339 1.734145 0.006502 -0.001294 -795756.000000 1 0 0
12.178808 0.939995 6.745679 13.953894 0.077030 1.066232 0.012776 -0.005185 208991.000000 1 0 0
-9.612192 9.213095 3.147879 13.681538 -0.764201 1.338634 -0.005883 -0.002664 -191951.000000 1 0 0
-6.650892 7.734295 -8.827321 13.489821 -0.860570 2.284144 0.000493 -0.000992 -1470820.000000 1 0 0
8.476508 5.438395 12.115979 15.755135 0.570436 0.693493 -0.002841 0.007700 -3617080.000000 1 0 0
1.245808 4.852495 -2.668521 5.676244 1.319488 2.060224 0.001475 -0.002103 865499.000000 1 0 0
1.427708 0.473695 9.582579 9.699926 0.320358 0.155706 -0.002490 0.004084 417058.000000 1 0 0
2.663808 12.587595 -4.018421 13.479285 1.362251 1.873517 0.012068 -0.003878 356383.000000 1 0 0
2.192508 0.690295 12.999679 13.201336 0.305017 0.175011 0.004969 -0.000478 -165316.000000 1 0 0
-12.309792 -1.743605 0.959979 12.469671 0.140708 1.493735 0.003087 -0.001995 -73085.500000 1 0 0
3.236908 8.660895 -1.277621 9.333862 1.213132 1.708108 0.005132 -0.002226 581806.000000 1 0 0
3.643308 -2.809805 -5.840721 7.435235 -0.656946 2.474375 -0.000717 -0.001426 -1413070.000000 1 0 0
-7.880592 -7.236005 9.324179 14.191682 0.742783 0.853941 0.009000 -0.003510 147071.000000 1 0 0
-7.165392 10.843295 -3.578021 13.480434 -0.986857 1.839439 -0.003327 0.003795 1171880.000000 1 0 0
0.405708 0.507995 2.565879 2.646960 0.896881 0.248149 -0.004803 0.001620 -2908000.000000 1 0 0
-7.002692 4.563195 -1.931821 8.578599 -0.577523 1.797935 0.000705 -0.002889 -1433460.000000 1 0 0
-6.967792 -3.916705 -5.894121 9.931332 0.512098 2.206181 0.007943 -0.005683 -128467.000000 1 0 0
3.004308 -6.152805 13.564079 15.194313 -1.116566 0.467478 0.005269 0.001685 -2396990.000000 1 0 0
-5.486092 -0.666205 -11.748021 12.982951 0.120844 2.701895 0.007047 -0.007527 -699242.000000 1 0 0
11.913308 2.351995 -0.641621 12.160200 0.194919 1.623585 0.000424 -0.001744 -1430460.000000 1 0 0
6.141708 -10.968005 10.754979 16.543497 -1.060334 0.863076 0.001707 0.003173 550885.000000 1 0 0
-8.135092 6.446895 -10.493621 14.760022 -0.670139 2.361643 0.001637 -0.002897 206062.000000 1 0 0
2.975508 7.907095 11.234679 14.056807 1.210879 0.644777 -0.005687 0.006232 1004340.000000 1 0 0
-6.231992 -10.105105 -0.372921 11.878129 1.018175 1.602197 0.008936 0.001724 107216.000000 1 0 0
11.303608 4.220195 6.003979 13.476994 0.357323 1.109065 0.000462 0.003851 1685040.000000 1 0 0
-7.876392 10.648195 1.519279 13.331534 -0.933925 1.456587 -0.006932 -0.000095 381769.000000 1 0 0
4.305008 -2.674505 -3.478121 6.146820 -0.555901 2.172249 0.003575 -0.002377 -4444590.000000 1 0 0
6.466808 6.425695 6.155079 10.999735 0.782209 0.976934 -0.008243 0.004550 -5722300.000000 1 0 0
-0.397592 10.401595 -10.146821 14.536479 -1.532591 2.343432 -0.001111 0.000505 -14165.400000 1 0 0
13.876008 6.564995 -2.485521 15.550581 0.441912 1.731319 0.003916 -0.001292 701404.000000 1 0 0
1.314508 9.492195 -6.268721 11.451050 1.433188 2.150094 0.006995 -0.001327 -153279.000000 1 0 0
0.753508 7.350495 7.298279 10.385684 1.468642 0.791576 -0.004774 0.006945 -287362.000000 1 0 0
12.150908 6.302495 1.790879 13.804827 0.478484 1.440701 -0.000595 0.000646 -2475330.000000 1 0 0
-6.828792 6.709495 -3.189121 10.090600 -0.776587 1.892358 0.000517 -0.001611 952517.000000 1 0 0
1.057908 9.758595 11.057879 14.786008 1.462810 0.725962 -0.004254 0.002452 -619460.000000 1 0 0
-3.606192 13.837895 -11.002221 18.042749 -1.315864 2.226587 0.002135 0.007715 -96185.200000 1 0 0
-10.090892 -5.556705 -2.377121 11.762388 0.503354 1.774293 0.005577 -0.001306 -1053940.000000 1 0 0
-3.995892 3.818595 -12.491221 13.659407 -0.762714 2.725011 0.000061 -0.007917 9839.630000 1 0 0
-3.100392 8.591595 2.397479 9.443296 -1.224477 1.314105 -0.001222 0.004195 -3071690.000000 1 0 0
7.076208 8.867395 7.158479 13.414441 0.897274 1.007898 -0.002204 0.002812 -2049870.000000 1 0 0
-1.321192 -2.260505 -8.209321 8.616750 1.041876 2.832851 0.001053 -0.007163 -2297110.000000 1 0 0
0.810708 -1.402405 4.806579 5.072198 -1.046647 0.325057 -0.002393 0.002659 1334620.000000 1 0 0
2.660508 -8.769605 -6.113121 11.016103 -1.276243 2.159070 -0.008852 0.000978 137265.000000 1 0 0
5.276308 3.891395 8.757479 10.939645 0.635467 0.642622 -0.008829 0.005118 -787379.000000 1 0 0
6.167508 -7.561105 -2.767221 10.142287 -0.886562 1.847140 0.003079 -0.005434 914905.000000 1 0 0
1.789908 2.129095 -8.302521 8.756064 0.871732 2.818325 -0.001107 -0.003329 164045.000000 1 0 0
-5.409092 10.942595 -0.652221 12.223913 -1.111707 1.624178 -0.001490 0.000016 555027.000000 1 0 0
-5.404492 3.307395 -3.421321 7.200891 -0.549176 2.065902 -0.001197 -0.001637 -159557.000000 1 0 0
2.006608 13.714895 -6.375421 15.256828 1.425518 2.001899 0.005423 0.002106 444745.000000 1 0 0
-5.245592 -2.545305 2.601479 6.384552 0.451760 1.151120 -0.003253 -0.000701 510781.000000 1 0 0
10.504708 -3.357105 -1.858121 11.183544 -0.309323 1.737718 0.006232 -0.003881 106885.000000 1 0 0
2.282208 -3.325505 7.085979 8.153439 -0.969342 0.517460 -0.004528 0.002097 -1220210.000000 1 0 0
-2.836492 9.796295 -11.702021 15.522576 -1.288956 2.424730 -0.004553 0.002234 -2647080.000000 1 0 0
0.463708 -2.048105 9.305179 9.539189 -1.348142 0.221956 -0.000644 0.002940 332405.000000 1 0 0
9.409708 2.652495 4.976179 10.969991 0.274760 1.099976 -0.006332 0.001361 3353.090000 1 0 0
13.466408 2.076195 -5.019221 14.520582 0.152971 1.923741 0.011561 -0.004250 -236320.000000 1 0 0
-6.494492 3.873895 7.641579 10.750778 -0.537834 0.780171 -0.001140 -0.001410 -189959.000000 1 0 0
10.540208 -0.067005 1.725979 10.680800 -0.006357 1.408488 -0.000725 0.000175 1553690.000000 1 0 0
15.344808 6.536695 -4.624421 17.308286 0.402707 1.841261 0.014722 -0.002305 346353.000000 1 0 0
8.109108 -4.954705 -9.297821 13.294969 -0.548472 2.345282 0.006158 0.001201 1851430.000000 1 0 0
4.403708 5.619395 -2.176421 7.463715 0.906097 1.866696 0.003002 -0.001944 62098.400000 1 0 0
-1.711692 -10.505905 1.397479 10.735776 1.409289 1.440256 0.004877 0.000662 -749128.000000 1 0 0
-2.811992 12.230595 -12.865721 17.972799 -1.344809 2.368628 -0.003678 0.001141 512067.000000 1 0 0
8.339108 4.179295 -9.602721 13.387288 0.464582 2.370718 0.000838 -0.001620 -1226600.000000 1 0 0
4.102308 7.547895 -9.011821 12.450404 1.072954 2.380115 0.002654 -0.002543 -1857070.000000 1 0 0
-1.792592 -5.056205 -2.465221 5.903889 1.230089 2.001553 0.003934 -0.002527 -563404.000000 1 0 0
-3.305892 -9.160405 6.976579 11.979758 1.224454 0.949163 0.005394 -0.001675 -1003570.000000 1 0 0
0.993908 7.241595 -1.437821 7.449555 1.434399 1.765023 0.001820 -0.001482 1296890.000000 1 0 0
0.261408 -0.934605 -2.258721 2.458382 -1.298067 2.735784 0.004117 -0.000632 -1960400.000000 1 0 0
4.158608 -6.844505 7.631579 11.062653 -1.024819 0.809513 -0.004520 -0.000066 -822422.000000 1 0 0
-13.988192 3.953195 5.962079 15.711259 -0.275427 1.181564 0.002725 -0.002942 201118.000000 1 0 0
4.321008 6.266895 12.633379 14.749487 0.967154 0.542288 -0.002772 0.005940 -1720920.000000 1 0 0
8.308708 10.067795 -7.182221 14.898973 0.880832 2.073802 0.012257 -0.007083 70310.700000 1 0 0
12.350308 5.196695 9.382679 16.357580 0.398286 0.959904 0.016975 0.002736 610462.000000 1 0 0
7.577108 4.007795 0.361179 8.579361 0.486526 1.528685 0.000820 0.001145 -1457440.000000 1 0 0
-10.849592 -7.543705 -1.046921 13.255836 0.607564 1.649857 0.008181 -0.000418 -194434.000000 1 0 0
10.463508 6.727195 0.102579 12.439882 0.571382 1.562550 0.001382 -0.000041 -977029.000000 1 0 0
14.532108 3.682995 4.170879 15.560940 0.248212 1.299443 0.017468 -0.004643 753004.000000 1 0 0
2.248108 5.598695 8.179979 10.164223 1.188962 0.635489 -0.009829 0.006455 -251699.000000 1 0 0
4.133308 -0.048105 11.574779 12.290731 -0.011638 0.343004 0.000487 0.001836 -2171700.000000 1 0 0
-1.664692 -1.461005 -0.496121 2.269773 0.720325 1.791152 0.003807 -0.005731 -1181720.000000 1 0 0
3.076208 -5.275305 -9.486621 11.282193 -1.042871 2.569646 -0.006313 0.000886 501939.000000 1 0 0
-3.974292 -5.294805 -1.239021 6.735364 0.926910 1.755807 0.002232 -0.002479 -458795.000000 1 0 0
-1.323492 -8.677205 8.574879 12.270863 1.419438 0.797078 0.002131 -0.001296 82730.100000 1 0 0
3.814008 8.638195 -5.979921 11.176964 1.155010 2.135330 0.006492 -0.001215 -10290.500000 1 0 0
-14.325992 -1.831205 -2.716321 14.695773 0.127135 1.756702 0.001847 -0.001937 -1115380.000000 1 0 0
8.869808 -10.636805 -6.559221 15.324441 -0.875736 2.013101 0.005059 0.000244 -47960.800000 1 0 0
14.702808 6.035295 1.658279 15.979588 0.389513 1.466834 0.000461 0.000202 -352631.000000 1 0 0
-5.684492 0.381895 -8.596821 10.313322 -0.067081 2.556326 0.006727 -0.008308 -553495.000000 1 0 0
-7.981392 -4.598605 -13.000221 15.932844 0.522710 2.525147 0.010620 -0.001767 277340.000000 1 0 0
0.883208 -10.645305 12.102979 16.142636 -1.488019 0.723109 0.005785 -0.001897 -121285.000000 1 0 0
0.334508 11.808795 3.227479 12.246475 1.542477 1.304103 0.003037 0.000242 -1598890.000000 1 0 0
5.167308 -13.236505 -3.615421 14.662108 -1.198608 1.819949 -0.000545 0.000408 -353701.000000 1 0 0
-7.476392 1.546895 -7.019421 10.371190 -0.204025 2.314229 0.002383 -0.002206 553926.000000 1 0 0
1.471308 2.823395 4.053479 5.154319 1.090401 0.665798 -0.006137 0.004355 -305215.000000 1 0 0
17.150508 5.489995 2.158179 18.136640 0.309800 1.451518 0.007018 -0.006758 -915631.000000 1 0 0
2.427808 -8.300905 -3.626821 9.378332 -1.286257 1.967872 -0.005115 -0.000400 382539.000000 1 0 0
-0.339392 -9.518905 -0.630221 9.545780 1.535157 1.636865 0.003982 0.002381 -1140740.000000 1 0 0
0.738508 11.848095 -5.514121 13.089242 1.508545 2.005643 0.010666 -0.002040 -1181660.000000 1 0 0
5.954508 -5.065705 7.842179 11.073270 -0.704920 0.783839 -0.001803 -0.000077 -1190640.000000 1 0 0
-5.911392 -1.976405 -9.473821 11.340371 0.322655 2.559668 0.011615 -0.006152 -394261.000000 1 0 0
1.992308 -1.406405 11.377379 11.635808 -0.614686 0.211152 0.001602 0.004635 -426885.000000 1 0 0
18.007108 2.210995 -5.882821 19.072284 0.122173 1.884358 0.009620 0.003922 -1213250.000000 1 0 0
-8.862592 4.909095 7.880679 12.835492 -0.505842 0.909709 -0.000718 -0.003821 -2125470.000000 1 0 0
11.616608 -6.974805 -4.869921 14.398251 -0.540726 1.915832 0.018375 -0.005441 247548.000000 1 0 0
10.796808 0.540595 9.009679 14.072584 0.050028 0.876000 0.003210 -0.001872 -56730.300000 1 0 0
-8.374592 -7.326805 -1.642921 11.247891 0.718765 1.717386 0.011643 0.000180 -1021070.000000 1 0 0
10.207108 -10.405505 -3.288321 14.942311 -0.795023 1.792680 0.017467 -0.002824 730342.000000 1 0 0
7.689608 -13.897905 -3.695421 16.307605 -1.065429 1.799389 0.013170 -0.001982 -1252160.000000 1 0 0
1.680308 -1.138805 -11.803221 11.976491 -0.595627 2.971284 0.001884 -0.006462 229862.000000 1 0 0
-11.743892 -2.542305 -6.382921 13.606028 0.213189 2.059095 0.011509 -0.002091 276306.000000 1 0 0
2.768208 -12.177605 -6.369521 14.018839 -1.347275 2.042444 -0.008407 0.002894 511428.000000 1 0 0
-5.393092 1.459395 1.226579 5.720120 -0.264275 1.354686 -0.002809 -0.004604 578868.000000 1 0 0
0.166708 6.843995 -4.049521 7.954035 1.546443 2.104953 0.004057 -0.002426 863175.000000 1 0 0
5.429208 -11.766505 3.593779 13.447758 -1.138493 1.300269 -0.000630 -0.003578 -2146500.000000 1 0 0
-4.484092 -9.163705 1.143679 10.265894 1.115720 1.459159 0.005623 0.003155 210524.000000 1 0 0
7.104908 -6.270605 -4.646221 10.554031 -0.723103 2.026653 0.007031 -0.004399 -178303.000000 1 0 0
-7.052092 -5.906005 2.283779 9.477792 0.697182 1.327440 0.003945 0.001329 348650.000000 1 0 0
-6.106492 -0.688405 7.116979 9.402901 0.112259 0.712252 -0.000301 0.001312 -687450.000000 1 0 0
4.159308 -5.103305 3.197579 7.319022 -0.886962 1.118662 -0.002166 -0.000579 -38975.300000 1 0 0
-2.499092 10.572495 -8.833121 14.001683 -1.338680 2.253459 0.002175 0.002890 -158598.000000 1 0 0
-2.240492 -4.947505 2.707279 6.068523 1.145573 1.108373 -0.001479 0.002026 196775.000000 1 0 0
15.104808 5.091795 6.367679 17.164759 0.325135 1.190739 0.030367 -0.007168 778151.000000 1 0 0
6.789008 0.258395 0.034979 6.794014 0.038042 1.565648 0.005662 -0.002408 4835950.000000 1 0 0
-9.686792 9.099395 0.494879 13.299542 -0.754141 1.533577 -0.006453 -0.001807 -1858850.000000 1 0 0
7.245208 10.417695 -2.568321 12.946724 0.963116 1.770497 0.002613 -0.000994 -690470.000000 1 0 0
1.638608 -4.255405 -5.380921 7.053213 -1.203231 2.438589 -0.002539 -0.001470 -1008850.000000 1 0 0
0.981108 -8.100805 -8.022321 11.443044 -1.450271 2.347687 -0.006467 0.001257 873523.000000 1 0 0
-10.376592 0.269095 -10.518321 14.777724 -0.025927 2.362809 0.001219 -0.001840 -3666990.000000 1 0 0
5.758008 -2.497405 0.486379 6.295098 -0.409239 1.493456 0.005946 -0.002032 319356.000000 1 0 0
-3.410292 5.326395 -1.131721 6.425057 -1.001297 1.747862 -0.001383 -0.003559 753467.000000 1 0 0
-0.338992 4.541295 -5.153721 6.877435 -1.496288 2.417901 0.000819 -0.003504 -681133.000000 1 0 0
3.951508 -9.701105 10.064179 14.526306 -1.183991 0.805398 -0.003090 0.003021 -1635540.000000 1 0 0
7.257208 -13.516605 -0.741921 15.359562 -1.078058 1.619119 0.014567 -0.001577 898824.000000 1 0 0
12.971108 -0.177705 0.487179 12.981470 -0.013699 1.533259 0.000804 -0.002864 319559.000000 1 0 0
9.297908 2.395095 -0.566721 9.618147 0.252114 1.629752 0.002131 -0.001508 835794.000000 1 0 0
-0.759892 -5.797205 4.480779 7.366302 1.440460 0.916904 -0.002879 0.002460 -1154470.000000 1 0 0
11.438608 -3.787405 3.370479 12.511847 -0.319746 1.298044 0.013345 -0.006350 -1053890.000000 1 0 0
1.699508 -8.227205 11.844179 14.521013 -1.367090 0.616931 -0.000289 0.000392 392209.000000 1 0 0
9.447708 -5.979005 -5.928221 12.655098 -0.564226 2.058327 0.006864 -0.004418 482491.000000 1 0 0
3.105508 6.321895 -0.187021 7.045957 1.114189 1.597342 -0.002046 0.000570 237275.000000 1 0 0
6.417208 -1.318805 11.434879 13.178630 -0.202689 0.520273 0.001815 0.001694 488169.000000 1 0 0
-4.842092 -7.618105 -3.723521 9.764527 1.004609 1.962032 0.011910 -0.004602 457307.000000 1 0 0
-3.362692 -8.488305 -5.711321 10.769318 1.193608 2.129789 0.008999 -0.002602 -98488.400000 1 0 0
9.770408 5.256495 2.121579 11.295694 0.493585 1.381852 -0.002738 -0.001480 -557013.000000 1 0 0
8.856108 -1.469705 0.243379 8.980530 -0.164455 1.543692 0.005772 -0.001983 1105110.000000 1 0 0
-3.869992 9.718895 9.125179 13.881738 -1.191849 0.853498 0.000354 -0.000560 118698.000000 1 0 0
-14.242392 -3.470305 -5.949721 15.820491 0.239003 1.956355 0.000413 -0.001689 -647895.000000 1 0 0
10.608108 6.224395 -5.958621 13.666755 0.530626 2.021939 0.005254 -0.005427 141987.000000 1 0 0
-1.830992 4.510495 2.625379 5.530797 -1.185179 1.076192 -0.002205 0.002863 177342.000000 1 0 0
6.914408 -3.774605 2.593379 8.293510 -0.499693 1.252762 0.005628 -0.004698 -1364640.000000 1 0 0
8.295608 -11.232405 -1.605921 14.055712 -0.934668 1.685300 0.015239 -0.004653 -2067040.000000 1 0 0
4.455608 0.470695 1.794279 4.826327 0.105251 1.189882 0.002715 0.000318 438235.000000 1 0 0
-10.741992 2.358595 3.876379 11.661032 -0.216138 1.231926 -0.001207 -0.004614 80611.000000 1 0 0
-0.891992 -3.043205 4.229379 5.286246 1.285673 0.643381 -0.001480 0.001077 590132.000000 1 0 0
8.612408 -8.775705 -8.454921 14.922207 -0.794789 2.173170 0.012313 -0.001739 -355405.000000 1 0 0
12.118208 -4.803705 0.995979 13.073581 -0.377402 1.494540 0.009583 -0.005921 651425.000000 1 0 0
2.936508 4.831995 3.412779 6.604416 1.024718 1.027755 -0.009058 0.002562 100396.000000 1 0 0
6.201308 7.446595 1.954579 9.885766 0.876390 1.371768 -0.002764 -0.001254 -232915.000000 1 0 0
-1.591992 -1.289905 -10.342421 10.543432 0.680957 2.946012 0.008151 -0.006830 906352.000000 1 0 0
-0.949992 -8.586305 5.962379 10.496528 1.460604 0.966682 -0.001726 -0.001021 -838816.000000 1 0 0
-4.337592 -0.278905 2.306579 4.920650 0.064211 1.082916 -0.002394 -0.001055 -364288.000000 1 0 0
-8.506292 6.286495 -7.914321 13.210355 -0.636450 2.213173 -0.002428 0.000156 -1036310.000000 1 0 0
6.394408 11.102395 -9.387121 15.882999 1.048249 2.203115 0.015937 -0.011947 23229.300000 1 0 0
-10.982392 -5.672605 3.078079 12.738366 0.476775 1.326742 0.003332 0.003302 839574.000000 1 0 0
1.446908 -6.403505 3.020579 7.226502 -1.348572 1.139569 -0.001659 0.000203 604621.000000 1 0 0
10.009408 2.297195 7.350979 12.629420 0.225597 0.949546 0.000996 0.001590 -1602390.000000 1 0 0
-3.971192 -2.550805 -10.673721 11.670702 0.570963 2.725250 0.007302 -0.007977 -2386360.000000 1 0 0
-8.248692 11.836295 5.993279 15.622362 -0.962155 1.177067 -0.001266 -0.000095 -1186140.000000 1 0 0
6.840108 5.921395 -2.947021 9.514984 0.713531 1.885699 0.004200 -0.000439 -2556160.000000 1 0 0
3.931608 -9.892705 -2.347621 10.901123 -1.192512 1.787853 -0.004054 -0.004163 -9603.910000 1 0 0
8.402308 -12.940005 -7.363221 17.095600 -0.994894 2.016074 0.011145 0.001546 27183.800000 1 0 0
-0.995092 9.506595 3.534479 10.191079 -1.466502 1.216617 0.003941 0.003123 3452.320000 1 0 0
0.448708 -13.202605 4.748279 14.037674 -1.536823 1.225737 0.004223 -0.002624 -1254760.000000 1 0 0
-11.286192 -6.994805 -5.112921 14.228401 0.554827 1.938363 0.007940 -0.006433 201315.000000 1 0 0
3.621708 10.229695 -3.405621 11.373727 1.230528 1.874890 0.010989 -0.004264 -934696.000000 1 0 0
11.537908 -8.129805 -7.304121 15.892364 -0.613818 2.048340 0.029989 -0.004042 451964.000000 1 0 0
11.643208 -4.660305 -5.727921 13.787379 -0.380730 1.999230 0.018602 -0.009524 1228020.000000 1 0 0
1.285608 -10.384705 -2.653821 10.795261 -1.447625 1.819174 -0.005941 0.000206 -603567.000000 1 0 0
2.444408 -12.085105 -3.857121 12.919067 -1.371223 1.873980 -0.006303 0.000720 -1808720.000000 1 0 0
-7.743392 -5.680005 7.340079 12.087156 0.632876 0.918186 0.002830 0.001934 -3602300.000000 1 0 0
-7.246992 -0.754305 9.406079 11.897991 0.103712 0.659073 0.001684 0.001149 38719.300000 1 0 0
16.145108 2.604395 -7.547921 18.011621 0.159934 2.003204 0.018689 -0.000905 318152.000000 1 0 0
-1.979492 6.332095 -5.582621 8.670609 -1.267809 2.270323 0.002135 -0.000855 -1201550.000000 1 0 0
7.598008 1.102595 8.394679 11.376119 0.144110 0.740811 -0.004566 0.002697 -436207.000000 1 0 0
7.827308 8.151195 -3.811121 11.926163 0.805666 1.896061 0.006125 -0.001152 -208242.000000 1 0 0
7.978408 0.530095 3.880279 8.887776 0.066344 1.118996 -0.003550 0.000222 92250.800000 1 0 0
-6.915292 5.874495 5.306079 10.511205 -0.704200 1.041644 0.000429 -0.005134 146113.000000 1 0 0
-6.043192 -2.102305 -4.570521 7.863175 0.334785 2.191068 0.006627 -0.006204 -2138460.000000 1 0 0
-15.188792 -2.000505 3.236579 15.658125 0.130956 1.362592 0.009176 -0.001257 1344760.000000 1 0 0
1.047108 1.232695 -10.559521 10.682670 0.866624 2.989604 0.001806 -0.008591 533327.000000 1 0 0
1.480608 -9.247805 9.403079 13.271473 -1.412040 0.783400 -0.001422 0.000237 -759999.000000 1 0 0
-0.163592 -6.827005 -1.255021 6.943331 1.546838 1.752547 0.001427 0.000265 410472.000000 1 0 0
-0.365592 -10.251605 -8.456121 13.294173 1.535150 2.260200 -0.004338 0.001923 -912916.000000 1 0 0
-4.255492 6.623295 3.779179 8.732665 -0.999709 1.123240 -0.000058 0.001657 -451040.000000 1 0 0
10.852908 -1.118305 -8.574121 13.876302 -0.102680 2.236861 0.012882 -0.002152 1171930.000000 1 0 0
3.019308 -1.060905 6.321679 7.085575 -0.337898 0.468625 -0.006447 0.005868 279478.000000 1 0 0
1.768508 -12.238805 6.945979 14.183181 -1.427290 1.059012 -0.002752 -0.000057 -786167.000000 1 0 0
2.879908 -4.950305 -1.388021 5.892877 -1.043894 1.808573 0.006346 -0.003026 -1516450.000000 1 0 0
-1.046192 9.572195 -1.720121 9.781628 -1.461934 1.747568 0.004955 -0.002536 336521.000000 1 0 0
4.491208 -2.674905 2.537579 5.810798 -0.537168 1.118868 0.002715 0.000118 -1055000.000000 1 0 0
17.763308 6.562895 -2.592521 19.113552 0.353908 1.706854 0.005241 0.002290 -565232.000000 1 0 0
-7.170892 3.459095 -5.427021 9.635330 -0.449452 2.169100 0.000536 -0.002514 -706037.000000 1 0 0
-13.666292 -6.051505 2.327679 15.126346 0.416855 1.416300 -0.001493 0.001200 90484.600000 1 0 0
6.649308 -6.070905 3.524379 9.669046 -0.739958 1.197699 0.003573 -0.004378 -180507.000000 1 0 0
-4.587692 1.971195 3.598979 6.155094 -0.405820 0.946267 -0.001668 -0.001381 531917.000000 1 0 0
6.932708 -12.077905 -5.337921 14.914142 -1.049714 1.936825 0.006142 0.000807 80832.800000 1 0 0
2.831708 -12.256405 3.312179 13.008020 -1.343741 1.313335 -0.001568 -0.003999 261809.000000 1 0 0
3.222208 11.307495 -6.227021 13.304805 1.293192 2.057854 0.005357 0.000247 -591741.000000 1 0 0
-5.611592 -8.233305 6.638779 11.972914 0.972545 0.983055 0.009635 -0.002074 447318.000000 1 0 0
-3.919092 6.585995 6.317479 9.932027 -1.034014 0.881400 0.002827 0.000616 233047.000000 1 0 0
4.312508 4.356095 -7.061221 9.350621 0.790426 2.426695 0.000957 -0.000982 -1481460.000000 1 0 0
-0.329392 -2.639505 1.557479 3.082407 1.446645 1.041090 -0.000624 -0.000566 -46689.900000 1 0 0
-13.194592 -0.805105 6.599479 14.774931 0.060942 1.107759 0.001742 0.001641 -898454.000000 1 0 0
-0.397592 -9.214905 -5.990621 10.998186 1.527676 2.146818 -0.004854 0.001914 42128.100000 1 0 0
1.984008 -1.731905 -3.966621 4.761288 -0.717658 2.555482 0.004532 -0.001339 -1332570.000000 1 0 0
11.342608 -2.102805 1.141579 11.592228 -0.183309 1.472158 0.007666 -0.004044 867073.000000 1 0 0
0.487708 -4.263605 -2.007321 4.737671 -1.456903 2.008315 0.001666 -0.001353 -1304470.000000 1 0 0
1.158108 -7.443705 -11.369521 13.638767 -1.416452 2.556422 -0.002219 0.002244 470742.000000 1 0 0
-4.408892 4.002795 -9.961521 11.605713 -0.737158 2.602800 0.000126 -0.003975 172469.000000 1 0 0
-1.109192 5.739095 -2.207921 6.248394 -1.379881 1.931955 0.000218 -0.001910 -2229950.000000 1 0 0
-11.347492 1.732395 -3.755221 12.077601 -0.151498 1.886962 0.001609 -0.000402 -77832.200000 1 0 0
-1.762692 -11.311805 4.129179 12.170216 1.416212 1.224639 0.007996 -0.001123 -353680.000000 1 0 0
-3.516092 -5.291205 -9.665421 11.566335 0.984284 2.560113 0.006157 -0.000012 678673.000000 1 0 0
-12.923492 -3.579205 -8.343821 15.793882 0.270181 2.127387 0.009074 -0.000880 -377379.000000 1 0 0
11.491908 4.339595 0.463879 12.292730 0.361067 1.533051 0.000684 0.001815 -453295.000000 1 0 0
-8.848692 -2.337205 -3.003121 9.632269 0.258233 1.887859 0.006522 -0.004249 393276.000000 1 0 0
-2.420492 -6.092605 -6.448621 9.195832 1.192634 2.347952 0.000185 -0.003952 -234523.000000 1 0 0
-0.099292 2.686295 -1.945521 3.318296 -1.533851 2.197282 -0.001562 -0.004259 -1427740.000000 1 0 0
7.973108 5.976095 -5.189521 11.234558 0.643201 2.050960 0.003002 -0.001488 -715404.000000 1 0 0
-9.819892 -0.874905 -0.899621 9.899750 0.088861 1.661795 0.000102 -0.002372 371577.000000 1 0 0
6.132108 0.528695 -8.873321 10.798985 0.086005 2.535150 0.001225 0.000711 480873.000000 1 0 0
-4.122392 2.639195 7.929179 9.318334 -0.569462 0.553057 -0.000327 0.002552 -387032.000000 1 0 0
-10.189892 -3.298505 1.430079 10.805515 0.313059 1.438060 0.002169 -0.000177 747628.000000 1 0 0
-1.693492 -8.154405 -7.838121 11.436712 1.366029 2.325877 -0.001047 -0.001368 286435.000000 1 0 0
-9.397792 -9.756605 4.226379 14.190565 0.804129 1.268377 0.004810 0.004029 -190332.000000 1 0 0
-1.105692 -10.735705 7.288779 13.023219 1.468166 0.976802 0.003963 -0.002333 -565135.000000 1 0 0
9.389208 3.753795 -3.708821 10.770495 0.380333 1.922343 0.001408 -0.001167 -928921.000000 1 0 0
12.749408 -0.870505 3.071779 13.143098 -0.068172 1.334896 0.004267 -0.003602 -1155780.000000 1 0 0
6.435608 11.774295 -6.854421 15.067652 1.070582 2.043067 0.009739 -0.006960 532251.000000 1 0 0
-11.845192 -0.093405 -6.503221 13.513296 0.007885 2.072872 0.003525 -0.000867 856102.000000 1 0 0
-7.680692 -6.618105 -11.232921 15.131783 0.711222 2.407352 0.018046 -0.006239 -466074.000000 1 0 0
4.148108 6.115695 6.545679 9.871902 0.974802 0.845895 -0.010850 0.004425 -1917110.000000 1 0 0
-4.225492 -1.439505 -7.377521 8.622921 0.328340 2.597449 0.003366 -0.008411 -640183.000000 1 0 0
9.570808 9.256095 0.844079 13.341219 0.768684 1.507486 0.004765 0.000254 -1363660.000000 1 0 0
-8.876192 3.995795 4.919779 10.906759 -0.422995 1.102825 0.000632 -0.004712 -472500.000000 1 0 0
-6.900292 7.805795 -12.236521 16.070995 -0.846894 2.436272 -0.001746 -0.003254 -141965.000000 1 0 0
11.073408 -3.634505 7.340179 13.773461 -0.317141 1.008746 0.015363 -0.007322 749256.000000 1 0 0
11.856808 6.906795 6.386579 15.135260 0.527465 1.135183 0.008549 0.001830 91253.300000 1 0 0
-9.967992 -0.753405 -14.824221 17.879765 0.075439 2.548303 0.003131 -0.001211 91008.800000 1 0 0
1.695308 -13.084305 12.064279 17.877918 -1.441946 0.830083 0.007418 0.001065 532391.000000 1 0 0
2.956808 3.139695 13.093779 13.785770 0.815388 0.318188 0.000272 -0.000889 -932334.000000 1 0 0
-2.573192 -1.398005 11.073279 11.453962 0.497682 0.258541 0.008839 0.003007 -624891.000000 1 0 0
2.558608 -10.155005 -8.279321 13.349822 -1.323978 2.239771 -0.012719 0.004763 -1468760.000000 1 0 0
13.839708 3.665395 -7.476421 16.151455 0.258902 2.052054 0.011658 -0.004130 -1955830.000000 1 0 0
7.305208 -1.672405 4.926479 8.968456 -0.225055 0.989256 -0.003026 0.000460 360901.000000 1 0 0
-1.247992 8.726495 10.203579 13.484147 -1.428748 0.712532 -0.000046 0.002135 -259162.000000 1 0 0
-12.269892 -4.611105 0.901279 13.138677 0.359478 1.502145 0.004546 -0.000252 140246.000000 1 0 0
-4.985192 4.871295 -5.250421 8.726315 -0.773843 2.216395 0.000694 -0.002035 -150631.000000 1 0 0
-11.277692 0.452495 1.994379 11.461616 -0.040101 1.395901 0.002345 -0.000231 -2213440.000000 1 0 0
-1.307092 2.201095 -4.169821 4.892924 -1.034921 2.591000 -0.001139 -0.006368 749437.000000 1 0 0
3.210108 -9.861005 13.172879 16.765112 -1.256080 0.666918 0.003217 -0.000335 -1826140.000000 1 0 0
8.876008 4.651595 -1.488621 10.130984 0.482713 1.718268 0.001990 -0.002643 -1050000.000000 1 0 0
4.061208 2.313695 3.774379 6.007706 0.517847 0.891486 -0.006682 0.004079 -177595.000000 1 0 0
-5.634892 -3.308905 7.413379 9.882260 0.530967 0.722476 0.000897 -0.000103 496539.000000 1 0 0
1.753308 -5.837205 7.722979 9.838265 -1.279002 0.668110 -0.005527 0.000325 -773738.000000 1 0 0
-5.845292 -6.092305 -9.676421 12.841991 0.806087 2.424164 0.014086 -0.001970 -1434770.000000 1 0 0
-11.696692 -5.737905 5.536979 14.156069 0.456065 1.168928 0.007721 0.000857 -2465100.000000 1 0 0
10.567308 6.185495 4.420479 13.018025 0.529572 1.224341 -0.002551 0.001558 -502911.000000 1 0 0
1.353608 -3.801405 0.403579 4.055344 -1.228714 1.471113 0.008263 -0.000608 -821023.000000 1 0 0
8.719108 4.405895 6.895879 11.957755 0.467890 0.956129 -0.007580 0.005645 258432.000000 1 0 0
-7.993892 12.129795 3.572879 14.959936 -0.988100 1.329636 -0.003698 -0.001082 -399854.000000 1 0 0
-6.182692 13.160095 -6.950121 16.115767 -1.131594 2.016688 0.005256 -0.002536 347899.000000 1 0 0
4.424008 -7.035205 -0.937721 8.363330 -1.009441 1.683155 0.003963 -0.004563 1125240.000000 1 0 0
-1.903592 -8.119905 11.128579 13.906898 1.340520 0.643134 0.002120 -0.001316 -216590.000000 1 0 0
11.672808 8.816995 -5.763821 15.723087 0.646913 1.946130 0.013634 -0.004808 263861.000000 1 0 0
-3.374392 -2.923105 -2.000221 4.892029 0.713859 1.992016 0.002481 -0.003659 -2475590.000000 1 0 0
-1.973192 6.002695 4.664379 7.853806 -1.253206 0.934898 -0.002817 0.004197 205477.000000 1 0 0
0.497008 -11.394105 -5.614321 12.711933 -1.527204 2.028242 -0.009378 0.000438 -1002750.000000 1 0 0
-8.822692 6.261995 -1.428121 10.912928 -0.617246 1.702038 0.001772 -0.000561 -958499.000000 1 0 0
2.820008 -0.050605 3.835279 4.760712 -0.017943 0.634091 -0.003943 0.003305 -565103.000000 1 0 0
-10.038892 3.974795 -1.044621 10.847561 -0.377001 1.667246 0.005220 -0.002815 -187513.000000 1 0 0
6.503508 5.465095 13.570279 16.009852 0.698853 0.559312 0.004714 0.005015 -1050720.000000 1 0 0
-8.756892 -1.442505 5.659779 10.526019 0.163262 1.003096 -0.001802 -0.001083 351606.000000 1 0 0
12.929308 -1.801505 -1.509021 13.141140 -0.138444 1.685882 0.010481 -0.003980 -1323670.000000 1 0 0
4.961508 -5.630405 5.539779 9.327764 -0.848466 0.934896 -0.000076 -0.002220 172498.000000 1 0 0
-9.097192 -1.222905 3.113779 9.692782 0.133626 1.243750 -0.003886 -0.000828 1125670.000000 1 0 0
1.966608 5.455295 5.525779 8.010120 1.224802 0.809515 -0.007143 0.003967 -306180.000000 1 0 0
9.200608 2.967595 -7.345321 12.141315 0.312008 2.220544 0.003997 -0.001439 -131456.000000 1 0 0
2.221608 -2.373705 -1.540721 3.597755 -0.818484 2.013346 0.004800 -0.000843 75319.300000 1 0 0
-6.184492 0.374095 -3.940921 7.342938 -0.060416 2.137312 0.001452 -0.002729 -2026790.000000 1 0 0
-3.964392 4.247095 4.873079 7.582949 -0.819812 0.872862 0.000361 0.000441 167546.000000 1 0 0
-6.399292 1.781695 -12.356821 14.029126 -0.271544 2.648340 -0.002500 -0.002809 -1515460.000000 1 0 0
-0.221092 2.990395 6.283179 6.962017 -1.496997 0.445271 -0.003692 0.003606 1745530.000000 1 0 0
-8.789792 9.379395 -2.119121 13.027822 -0.817837 1.734183 -0.006435 0.003141 -222008.000000 1 0 0
-1.270492 -3.732905 -6.185221 7.335236 1.242745 2.574042 -0.003298 -0.003698 311412.000000 1 0 0
-3.391592 7.029095 -3.048221 8.378706 -1.121240 1.943147 -0.000830 -0.000068 1512970.000000 1 0 0
7.034708 -0.406105 -4.299321 8.254465 -0.057665 2.118640 0.006280 -0.000425 -8099.610000 1 0 0
-5.256292 -10.759305 7.071079 13.906524 1.116363 1.037387 0.008001 -0.001687 161370.000000 1 0 0
9.845408 8.299695 -1.509821 12.965205 0.700417 1.687513 0.005002 -0.000786 259516.000000 1 0 0
13.655108 4.593795 -4.294121 15.033443 0.324522 1.860468 0.003317 -0.003863 1040800.000000 1 0 0
4.708008 1.035995 -6.814621 8.347316 0.216597 2.525919 -0.001934 -0.001269 -1278040.000000 1 0 0
8.975008 -4.830205 3.480879 10.770245 -0.493726 1.241694 0.006640 -0.004983 -1054340.000000 1 0 0
-8.836992 -3.268705 -0.811621 9.457039 0.354282 1.656724 -0.000076 -0.000845 -102078.000000 1 0 0
-8.541092 -4.199205 -10.415321 14.108950 0.456943 2.401204 0.014837 -0.004624 -241411.000000 1 0 0
10.444508 -1.138305 10.809479 15.074095 -0.108558 0.771178 0.007219 -0.004073 1423910.000000 1 0 0
2.174008 -11.612905 9.937579 15.438308 -1.385732 0.871478 -0.002919 -0.001013 448435.000000 1 0 0
-6.413792 -10.526005 2.139579 12.510448 1.023546 1.398928 0.008714 0.003778 -1018040.000000 1 0 0
-3.682392 -1.511105 6.678879 7.775016 0.389405 0.537448 0.004165 0.000672 -2979870.000000 1 0 0
4.678208 -7.581505 3.888479 9.720346 -1.017930 1.159241 -0.002091 -0.001874 276546.000000 1 0 0
11.497508 -9.457505 -5.316121 15.808170 -0.688352 1.913770 0.023572 -0.004496 599257.000000 1 0 0
11.246808 1.253095 11.480079 16.119962 0.110960 0.778218 0.008830 0.002033 386336.000000 1 0 0
-10.156292 -3.457905 4.392679 11.593231 0.328159 1.182189 0.007175 0.000354 1085940.000000 1 0 0
2.171608 8.750295 8.943879 12.699469 1.327536 0.789399 -0.009569 0.007815 -144763.000000 1 0 0
6.598708 8.734495 4.167079 11.713193 0.923799 1.207070 -0.002897 0.000827 69008.800000 1 0 0
-4.313292 3.506295 0.349479 5.569625 -0.682560 1.508008 -0.000752 -0.003678 -305748.000000 1 0 0
4.876208 6.854195 4.103079 9.359095 0.952447 1.116972 -0.005439 0.001600 -1953100.000000 1 0 0
-8.256092 13.261695 1.238479 15.670655 -1.013959 1.491682 -0.007382 0.002091 -455722.000000 1 0 0
8.832708 8.099895 -9.150721 15.078485 0.742147 2.222916 0.004659 -0.010062 -343214.000000 1 0 0
7.117408 1.917695 5.996479 9.502253 0.263187 0.887879 -0.006946 0.005087 -1217380.000000 1 0 0
11.503108 -6.296105 3.052479 13.464029 -0.500798 1.342094 0.014379 -0.006856 195661.000000 1 0 0
11.398108 4.694395 -2.090121 12.502912 0.390686 1.738756 0.003406 -0.000194 1106810.000000 1 0 0
-4.038692 14.291695 -5.955821 16.001105 -1.295387 1.952189 0.009049 0.001773 -1418570.000000 1 0 0
7.023508 -3.099805 6.844079 10.284935 -0.415635 0.842704 -0.000494 -0.000660 -1241910.000000 1 0 0
-7.904192 -0.339005 0.882579 7.960535 0.042863 1.459699 0.000384 -0.002466 149726.000000 1 0 0
-3.219392 1.115095 10.707979 11.236937 -0.333436 0.308049 0.007728 0.003065 440104.000000 1 0 0
7.118508 -1.304805 -1.909121 7.484679 -0.181285 1.828717 0.010181 -0.002892 -1704410.000000 1 0 0
-7.792492 5.409995 2.959479 9.937278 -0.606861 1.268392 0.000728 -0.003520 800882.000000 1 0 0
9.397308 -2.302305 2.788679 10.069098 -0.240264 1.290173 0.003419 -0.003643 -1854560.000000 1 0 0
0.224608 3.436295 1.580879 3.789162 1.505526 1.140422 -0.004062 0.002171 -3485950.000000 1 0 0
-7.546092 -3.030805 3.992379 9.059160 0.381919 1.114417 -0.001409 -0.000221 607276.000000 1 0 0
-2.248092 8.398795 -6.709921 10.982564 -1.309259 2.228071 0.001607 -0.001074 -508321.000000 1 0 0
4.566308 9.863095 7.417579 13.158734 1.137210 0.971938 -0.006903 0.005477 437810.000000 1 0 0
-11.819892 -3.072605 6.860379 14.007696 0.254323 1.058984 0.005276 -0.000074 -1586810.000000 1 0 0
-4.765792 2.369895 -5.602421 7.727631 -0.461463 2.381810 0.002524 -0.007020 -652406.000000 1 0 0
-2.804092 2.905295 -1.934521 4.477280 -0.803122 2.017589 -0.003889 -0.002978 2093590.000000 1 0 0
2.399208 5.221195 11.422379 12.786236 1.140059 0.466086 -0.001734 0.000874 280272.000000 1 0 0
-0.731692 1.678495 4.560679 4.914521 -1.159712 0.381786 -0.002391 0.003294 -336192.000000 1 0 0
5.064308 1.590595 7.525179 9.208992 0.304323 0.614337 -0.009868 0.005215 400489.000000 1 0 0
3.376108 -8.141505 1.829479 9.001623 -1.177700 1.366132 -0.000297 -0.002042 1267500.000000 1 0 0
4.979508 6.470795 -4.644221 9.393374 0.914909 2.087957 0.005957 -0.001172 -1735290.000000 1 0 0
-4.014092 2.831195 -7.972021 9.363851 -0.614283 2.589371 0.006111 -0.009208 293877.000000 1 0 0
-8.706192 -2.179905 -12.938821 15.746836 0.245342 2.535144 0.008396 -0.003448 1473630.000000 1 0 0
-7.843592 8.130695 1.547279 11.402816 -0.803369 1.434684 -0.000470 0.000001 -1649780.000000 1 0 0
7.279308 0.923695 -6.539821 9.829079 0.126219 2.298765 0.002738 -0.000499 273520.000000 1 0 0
8.948508 8.949395 5.501079 13.799614 0.785448 1.160763 -0.001365 0.000717 134576.000000 1 0 0
9.426208 -1.100305 -1.411321 9.594576 -0.116202 1.718428 0.007402 -0.003978 726846.000000 1 0 0
5.349608 0.050095 4.268079 6.843780 0.009364 0.897401 -0.006578 0.003390 221101.000000 1 0 0
-4.153892 -7.204305 -7.898421 11.469171 1.047772 2.330443 0.013192 -0.005716 -503359.000000 1 0 0
-2.237392 7.419895 -0.666421 7.778488 -1.277928 1.656576 0.001519 -0.001864 260936.000000 1 0 0
13.408108 -3.521305 -7.395021 15.711884 -0.256825 2.060840 0.016067 -0.001786 1197580.000000 1 0 0
-4.764492 -5.112705 1.588479 7.166827 0.820638 1.347297 0.004137 -0.000192 3667460.000000 1 0 0
-8.917992 1.320195 2.570179 9.374397 -0.146970 1.293070 -0.001439 -0.002971 -593455.000000 1 0 0
-1.065492 11.129695 10.065579 15.043978 -1.475353 0.837830 -0.002925 0.001030 126845.000000 1 0 0
-8.527692 0.404095 7.420079 11.311163 -0.047351 0.855295 -0.000827 -0.001729 -812067.000000 1 0 0
-6.172292 12.861095 -2.194521 14.433325 -1.123342 1.723434 -0.000354 0.000684 993530.000000 1 0 0
-12.959692 -0.709105 3.369479 13.409319 0.054662 1.316795 0.006157 -0.002121 664930.000000 1 0 0
-6.622992 12.805795 8.692479 16.834833 -1.093494 1.028226 0.002913 -0.007252 822674.000000 1 0 0
-8.175392 0.869495 -14.027421 16.259200 -0.105957 2.611455 0.001335 -0.003518 -750985.000000 1 0 0
7.272408 2.861895 3.639079 8.620978 0.374914 1.135015 -0.004229 0.001541 -828518.000000 1 0 0
-1.721492 0.681995 -2.025721 2.744484 -0.377196 2.401055 -0.002339 -0.005475 752009.000000 1 0 0
-6.304992 9.660795 -10.367821 15.510499 -0.992570 2.302904 -0.003597 0.001348 -277080.000000 1 0 0
-10.065292 13.737395 5.309479 17.838629 -0.938464 1.268577 -0.010676 0.000448 758279.000000 1 0 0
-5.612792 8.384895 2.484179 10.391392 -0.980908 1.329397 -0.002293 0.000645 -1515550.000000 1 0 0
-2.445292 -10.822905 -1.297021 11.171258 1.348590 1.687162 0.003039 0.002339 462489.000000 1 0 0
-2.263992 -12.345705 8.822179 15.341869 1.389429 0.958144 0.006504 -0.001192 475444.000000 1 0 0
-14.687892 -6.437805 -1.770621 16.134268 0.413088 1.680761 0.013739 -0.001848 207647.000000 1 0 0
-2.721892 -9.402905 3.281479 10.324313 1.289025 1.247346 0.002343 0.000790 -1619050.000000 1 0 0
4.636408 -2.757905 7.509979 9.246735 -0.536614 0.622924 -0.006091 0.004290 -1504410.000000 1 0 0
-14.946892 -1.239905 -0.289121 15.001018 0.082765 1.590071 0.001287 -0.001835 -158493.000000 1 0 0
5.477708 8.628195 -2.814321 10.600539 1.005137 1.839507 0.004361 -0.001327 -296772.000000 1 0 0
-5.714792 -5.729605 8.538179 11.763832 0.786693 0.758601 0.006659 -0.000946 -2887530.000000 1 0 0
3.540008 3.659295 6.953079 8.617854 0.801966 0.632042 -0.009823 0.004903 116815.000000 1 0 0
3.425908 2.321695 9.282679 10.163427 0.595594 0.419380 -0.003533 0.002131 -93758.200000 1 0 0
9.786208 -3.301205 5.199079 11.562796 -0.325345 1.104436 0.011295 -0.005641 -967254.000000 1 0 0
6.610508 9.912195 -5.021021 12.929078 0.982628 1.969638 0.008054 -0.002524 303875.000000 1 0 0
-4.505492 12.102195 -8.556721 15.491289 -1.214406 2.155985 0.002955 0.002332 -1359440.000000 1 0 0
-3.320692 -7.272005 2.246079 8.303850 1.142434 1.296898 0.003798 -0.001079 1015640.000000 1 0 0
-7.476592 -3.990505 1.126679 8.549442 0.490269 1.438628 0.000471 0.000677 3416360.000000 1 0 0
-1.909592 -3.962505 -11.003621 11.850218 1.121721 2.761307 0.008312 -0.004375 -802574.000000 1 0 0
-5.314092 8.312695 -4.527421 10.855321 -1.001998 2.001015 -0.000786 -0.000147 453994.000000 1 0 0
-10.970992 -3.190005 -10.154121 15.285449 0.282965 2.297353 0.010355 -0.000066 105142.000000 1 0 0
4.668408 -11.422305 -7.719921 14.555421 -1.182804 2.129846 -0.006690 0.002137 -2096340.000000 1 0 0
-9.420092 -3.916405 7.365479 12.582792 0.394010 0.945471 0.002234 0.000243 -833903.000000 1 0 0
-5.669292 -9.763805 -5.057621 12.371430 1.044731 1.991951 0.012570 -0.006982 623684.000000 1 0 0
4.756808 4.458195 -9.594621 11.599977 0.753004 2.544767 -0.001262 0.000009 40852.200000 1 0 0
-3.485692 -7.111805 -14.055621 16.133453 1.115078 2.628457 0.005219 -0.002261 668641.000000 1 0 0
0.659908 -0.844905 -8.818521 8.883448 -0.907721 3.020616 -0.000361 -0.007666 -412217.000000 1 0 0
-7.742592 2.211095 -2.864721 8.546537 -0.278171 1.912604 0.000506 -0.003610 54994.600000 1 0 0
-2.412392 7.509695 -12.558621 14.830175 -1.259972 2.580791 -0.004139 -0.002012 -249841.000000 1 0 0
-9.681292 8.898095 7.694079 15.234906 -0.743269 1.041380 -0.007422 -0.005910 123189.000000 1 0 0
-10.673192 -3.068805 -14.388621 18.176000 0.279973 2.484264 0.006193 -0.001591 -562896.000000 1 0 0
-3.100092 4.902095 8.023579 9.900451 -1.006892 0.625918 0.000256 0.001886 -388410.000000 1 0 0
8.767008 -2.245405 -3.676521 9.768269 -0.250730 1.956675 0.008279 -0.002444 -4987610.000000 1 0 0
1.894508 -8.407605 -1.206521 8.702453 -1.349165 1.709886 -0.002889 0.000005 -685209.000000 1 0 0
-13.586492 -2.832705 5.128079 14.795749 0.205550 1.216861 0.007045 -0.002000 472487.000000 1 0 0
7.017808 2.711695 -1.947121 7.771370 0.368729 1.824045 0.004394 -0.002565 892005.000000 1 0 0
-11.044892 4.563095 8.876979 14.886646 -0.391783 0.931906 -0.002844 -0.001830 -1841320.000000 1 0 0
-1.722992 -2.545305 7.972179 8.544175 0.975722 0.367984 0.001031 0.002101 -1070880.000000 1 0 0
3.074808 11.925495 -9.880521 15.789128 1.318457 2.246927 0.008871 -0.008119 629165.000000 1 0 0
3.629208 -5.027405 -7.033721 9.376523 -0.945533 2.419073 -0.005398 -0.000643 24189.100000 1 0 0
8.221708 -13.965805 -9.747021 18.911494 -1.038725 2.112273 0.011067 0.008758 110303.000000 1 0 0
-6.389992 -5.781505 -0.374221 8.625418 0.735447 1.614196 0.005619 0.000172 -170562.000000 1 0 0
-1.255292 -4.068205 9.920679 10.795644 1.271504 0.405381 0.001430 0.002872 -329453.000000 1 0 0
2.760708 3.293495 1.730879 4.632986 0.873175 1.187910 -0.004072 0.000890 -337037.000000 1 0 0
-9.030692 13.483395 7.757079 17.986873 -0.980653 1.124904 -0.001636 -0.010625 -174992.000000 1 0 0
4.053908 -11.139205 -0.026221 11.853976 -1.221765 1.573008 -0.001499 -0.003868 -364036.000000 1 0 0
-12.511092 -1.286305 -9.091321 15.518831 0.102453 2.196694 0.009810 -0.002697 58234.300000 1 0 0
-4.179092 0.885495 -13.515621 14.174657 -0.208799 2.835459 0.005171 -0.006442 236190.000000 1 0 0
3.870008 -3.160405 4.957179 7.038377 -0.684806 0.789350 -0.004275 0.003940 -149184.000000 1 0 0
1.650008 -1.249805 1.070779 2.330474 -0.648255 1.093400 0.000643 -0.000330 35680.900000 1 0 0
8.130708 -8.978905 7.314179 14.150137 -0.834932 1.027573 0.009665 -0.005194 -800143.000000 1 0 0
-0.187592 2.354095 -6.553921 6.966407 -1.491277 2.795747 -0.001777 -0.006602 601028.000000 1 0 0
-3.665092 -9.712805 -3.373321 10.915621 1.209970 1.884976 0.009482 0.001397 716755.000000 1 0 0
-9.484992 2.305795 -5.504121 11.206119 -0.238473 2.084230 0.001822 -0.000468 -1531890.000000 1 0 0
8.918308 -7.725005 5.303379 12.935910 -0.713822 1.148371 0.010833 -0.007272 1756150.000000 1 0 0
-5.495692 -4.237505 4.658279 8.358149 0.656844 0.979625 0.000148 0.000200 -987895.000000 1 0 0
-0.237592 -12.297905 10.449379 16.139531 1.551479 0.866576 0.011620 -0.002073 -1521520.000000 1 0 0
-14.210292 -8.285505 3.184279 16.754749 0.527873 1.379581 -0.002150 0.000325 -903967.000000 1 0 0
11.016708 -1.440705 -3.602021 11.679813 -0.130037 1.884304 0.015488 -0.001883 -670634.000000 1 0 0
-13.626192 3.117995 2.735579 14.243539 -0.224951 1.377538 -0.001285 -0.002746 -570476.000000 1 0 0
-6.262492 6.201895 1.075379 8.879118 -0.780537 1.449385 -0.001720 -0.001564 159394.000000 1 0 0
7.181008 -6.958305 -0.575121 10.015770 -0.769649 1.628249 0.008400 -0.007433 -1471200.000000 1 0 0
-6.755392 7.895295 10.066679 14.467516 -0.863047 0.801246 -0.001674 -0.004623 -41793.400000 1 0 0
-12.649092 -5.115505 -2.064221 13.799599 0.384308 1.720945 0.004164 -0.004547 -2402620.000000 1 0 0
-9.406592 -5.521105 0.118179 10.907820 0.530761 1.559962 0.005696 0.000429 -1270360.000000 1 0 0
-1.788792 1.822795 2.080979 3.294364 -0.794813 0.887080 -0.003629 0.000583 571241.000000 1 0 0
-7.020092 7.343495 7.612579 12.694880 -0.807910 0.927723 -0.000688 -0.001968 99623.900000 1 0 0
5.694208 7.020895 -0.443021 9.050593 0.889361 1.619765 0.003379 -0.002472 -717088.000000 1 0 0
-0.049492 -4.084905 7.528679 8.565624 1.558681 0.497159 -0.001703 0.002099 -535632.000000 1 0 0
6.178108 0.738895 13.070579 14.476016 0.119033 0.444298 0.003127 0.000576 616163.000000 1 0 0
5.812608 6.118295 -7.886921 11.550907 0.811014 2.322380 -0.000382 -0.000777 -747045.000000 1 0 0
9.788008 5.277995 9.090279 14.362991 0.494537 0.885508 -0.008956 0.006869 -2625900.000000 1 0 0
-1.116792 -5.017305 -8.600221 10.019200 1.351779 2.602888 0.007545 -0.003415 786617.000000 1 0 0
9.915408 -3.549305 -7.928021 13.182048 -0.343747 2.216081 0.016258 -0.005274 322672.000000 1 0 0
8.236108 -5.838305 1.307979 10.179887 -0.616652 1.441954 0.008340 -0.006032 1398270.000000 1 0 0
15.791708 3.123895 -4.974921 16.848935 0.195297 1.870530 0.016322 -0.001032 -226402.000000 1 0 0
-6.830692 3.627195 1.150379 7.819096 -0.488150 1.423136 0.000453 -0.004437 -429362.000000 1 0 0
-1.742392 3.858795 0.205679 4.238930 -1.146664 1.522256 -0.002777 -0.003469 -1269910.000000 1 0 0
-2.531792 9.950895 6.874079 12.356506 -1.321654 0.980855 -0.000123 0.003383 2403780.000000 1 0 0
5.492808 -5.747305 -8.739521 11.814469 -0.808036 2.403466 -0.003182 -0.000426 829238.000000 1 0 0
-1.246092 -1.025205 6.203279 6.409717 0.688452 0.254485 -0.000062 0.003368 420445.000000 1 0 0
-5.673392 4.984695 -7.832321 10.880248 -0.720871 2.374406 0.001314 -0.002795 176642.000000 1 0 0
6.766508 -1.331705 2.502879 7.336449 -0.194325 1.222649 0.001075 0.000527 -1438510.000000 1 0 0
8.798408 7.575995 3.251879 12.057462 0.710882 1.297716 -0.000381 -0.000642 -234866.000000 1 0 0
-5.185292 -4.776305 -7.676621 10.422612 0.744365 2.398730 0.012439 -0.006280 1911160.000000 1 0 0
-2.167692 7.826495 -10.031421 12.906677 -1.300601 2.461043 -0.003127 -0.000046 432943.000000 1 0 0
-2.909092 -2.342305 1.546079 4.042224 0.677884 1.178315 -0.003580 0.001605 -647370.000000 1 0 0
5.988108 -2.103605 -9.304121 11.262737 -0.337830 2.542944 -0.001179 0.001066 1119920.000000 1 0 0
1.107408 -7.610105 5.152479 9.256787 -1.426293 0.980489 -0.004976 0.000206 477783.000000 1 0 0
1.795708 11.875295 1.144979 12.064749 1.420720 1.475750 0.005174 -0.003251 -399809.000000 1 0 0
-1.037392 7.031395 2.422479 7.509001 -1.424316 1.242311 -0.000354 0.002418 610890.000000 1 0 0
8.709608 7.793295 -6.629321 13.436540 0.729931 2.086768 0.006965 -0.006458 -376690.000000 1 0 0
3.600608 -11.310805 5.533379 13.096449 -1.262606 1.134584 0.002726 -0.003138 10818.800000 1 0 0
7.954808 -7.142405 12.336779 16.324492 -0.731639 0.714040 0.003286 -0.004272 341901.000000 1 0 0
-8.615492 0.048695 -3.928121 9.468854 -0.005652 1.998570 0.004854 -0.003316 -1499640.000000 1 0 0
-3.217792 -5.062505 11.306679 12.799381 1.004602 0.487777 0.008503 -0.003323 790921.000000 1 0 0
-8.151192 0.154695 -11.551721 14.138886 -0.018976 2.527016 0.000137 -0.001636 -1835660.000000 1 0 0
1.449708 -5.069005 5.342779 7.506115 -1.292238 0.778753 -0.003193 0.002775 -578725.000000 1 0 0
6.647108 3.603095 -7.875021 10.917064 0.496723 2.376545 0.000380 0.000783 -1527930.000000 1 0 0
16.273308 4.179095 -1.214821 16.845212 0.251375 1.642976 0.002765 0.004461 -529069.000000 1 0 0
7.960708 7.418795 0.112779 10.882284 0.750177 1.560433 0.001944 -0.003007 -3730890.000000 1 0 0
5.617108 -10.268305 13.922779 18.188837 -1.070233 0.699045 0.001829 0.001960 74212.200000 1 0 0
-4.980492 -9.238305 9.118379 13.903109 1.076350 0.855486 0.002846 -0.004615 555419.000000 1 0 0
-12.643992 -3.164205 2.915479 13.356000 0.245217 1.350735 0.006421 0.000202 903885.000000 1 0 0
-2.044592 -1.328605 -5.864621 6.351324 0.576245 2.747563 0.000406 -0.008576 -913579.000000 1 0 0
-2.616292 12.937795 -4.367121 13.903354 -1.371266 1.890311 0.011493 0.000623 318347.000000 1 0 0
3.917808 -0.483305 -4.948521 6.330139 -0.122741 2.468247 0.002449 -0.000392 -103524.000000 1 0 0
-8.805592 3.869895 -7.420621 12.148257 -0.414072 2.227915 0.002636 0.000598 359722.000000 1 0 0
-4.525692 7.981695 -11.232321 14.503598 -1.054988 2.456643 -0.001427 -0.001535 -2550030.000000 1 0 0
-10.170392 -6.378205 7.522379 14.167024 0.560133 1.011042 0.005385 0.002629 -262964.000000 1 0 0
8.091008 5.253495 4.079479 10.474052 0.575883 1.170725 -0.006649 0.003055 -1570720.000000 1 0 0
-6.716892 -7.483205 4.152379 10.879212 0.839311 1.179183 0.010426 0.001143 -662904.000000 1 0 0
-4.091492 11.875795 7.948279 14.864385 -1.239009 1.006620 0.000729 -0.000548 264855.000000 1 0 0
-7.248592 10.044595 -7.934121 14.710073 -0.945693 2.140481 0.000102 -0.000420 -331589.000000 1 0 0
13.076708 5.559595 4.505779 14.906758 0.402000 1.263729 0.002644 -0.003314 31700.000000 1 0 0
5.363108 3.980695 -3.758521 7.663898 0.638514 2.083367 0.004391 -0.000802 372917.000000 1 0 0
-2.884292 -4.202105 5.105779 7.214278 0.969262 0.784513 0.000912 0.001488 -2359130.000000 1 0 0
12.550208 -2.327505 -5.355021 13.842010 -0.183372 1.968028 0.011917 -0.007367 -1277990.000000 1 0 0
-5.206192 9.844995 6.960679 13.133142 -1.084362 1.012185 -0.001276 0.002897 -1422370.000000 1 0 0
1.680308 3.809795 -0.479621 4.191421 1.155410 1.685477 -0.000187 -0.001916 606618.000000 1 0 0
0.065908 9.688695 7.720679 12.388868 1.563994 0.897975 -0.003217 0.005987 -1107820.000000 1 0 0
-5.445492 2.186695 5.929279 8.342144 -0.381851 0.780215 -0.000485 0.000271 829496.000000 1 0 0
8.779508 0.883595 10.704879 13.872813 0.100305 0.689374 -0.000018 0.002599 -222077.000000 1 0 0
0.481808 -2.905305 -10.156321 10.574677 -1.406455 2.859367 0.000718 -0.003772 -1501540.000000 1 0 0
1.293808 10.594695 -2.815621 11.038533 1.449280 1.828718 0.007770 -0.002706 -641920.000000 1 0 0
2.343608 -4.330105 11.818879 12.803446 -1.074707 0.394727 -0.000350 0.004648 -168769.000000 1 0 0
6.575408 -3.030205 9.454679 11.908363 -0.431831 0.653513 0.000554 -0.000270 746727.000000 1 0 0
-10.637992 -8.167105 5.672279 14.561704 0.654752 1.170671 0.003808 -0.000119 -1010770.000000 1 0 0
-2.961392 0.784695 -6.870321 7.522426 -0.259022 2.722140 0.003375 -0.009433 931934.000000 1 0 0
11.091608 2.707595 -5.028921 12.475772 0.239429 1.985693 0.005101 -0.003853 -3764360.000000 1 0 0
-1.908792 -4.033205 -0.046221 4.462328 1.128761 1.581154 0.000370 -0.001291 1372720.000000 1 0 0
-1.323792 -6.559205 -10.649621 12.577361 1.371649 2.580604 0.003685 -0.000400 673380.000000 1 0 0
0.268808 6.782195 -6.706421 9.541829 1.531183 2.350185 0.003782 -0.000917 -2706760.000000 1 0 0
1.963708 3.760995 -6.339121 7.627954 1.089606 2.551768 -0.000809 -0.001080 -1461170.000000 1 0 0
1.645808 -14.752505 6.357579 16.148186 -1.459694 1.166141 0.008351 -0.002989 -42174.600000 1 0 0
-1.745992 5.353895 -10.585521 11.990243 -1.255555 2.652681 0.000214 -0.003727 -180654.000000 1 0 0
13.648008 4.327295 -0.807621 14.340358 0.307038 1.627144 0.004148 -0.000815 -2397160.000000 1 0 0
-2.453692 3.320895 -6.135621 7.395592 -0.934460 2.549245 0.001200 -0.006072 -1785150.000000 1 0 0
5.721008 7.841395 14.189879 17.192152 0.940486 0.599940 -0.000006 0.005379 446477.000000 1 0 0
15.993408 0.611795 -5.757921 17.009322 0.038234 1.916135 0.014283 -0.005152 16165.300000 1 0 0
6.182908 -8.282405 10.632579 14.828295 -0.929532 0.771240 -0.001946 -0.000029 -348560.000000 1 0 0
0.090108 -5.824805 -6.425121 8.672869 -1.555328 2.405101 -0.003444 -0.000686 -1089300.000000 1 0 0
8.627008 5.483995 -7.583721 12.728405 0.566241 2.209071 0.001555 -0.002614 -609459.000000 1 0 0
-16.084092 -0.782305 5.469579 17.006655 0.048600 1.243363 0.008625 -0.003853 209001.000000 1 0 0
-0.364992 3.917595 -12.314521 12.927807 -1.477897 2.832338 0.001526 -0.006983 636627.000000 1 0 0
-11.272792 3.852795 5.856979 13.274941 -0.329332 1.113855 0.001109 -0.006567 326395.000000 1 0 0
5.165508 -9.794605 -9.707921 14.726184 -1.085483 2.290589 -0.006500 0.005763 -13394.700000 1 0 0
1.509908 11.139095 -11.616921 16.165151 1.436067 2.372641 0.004577 -0.004670 -4225750.000000 1 0 0
5.826508 2.327695 1.209979 6.389868 0.380076 1.380287 0.002149 -0.000389 -338044.000000 1 0 0
5.675208 4.519295 4.789579 8.693220 0.672494 0.987287 -0.009104 0.003608 307620.000000 1 0 0
0.411008 -1.530905 -6.383521 6.577380 -1.308507 2.898201 -0.001838 -0.003734 -1112700.000000 1 0 0
12.673808 6.842795 -4.647921 15.134478 0.495068 1.882949 0.006336 -0.005310 -502563.000000 1 0 0
7.468808 3.131195 12.732079 15.089510 0.396979 0.566527 0.000131 0.004289 -656548.000000 1 0 0
-2.487092 -0.217605 8.604079 8.958971 0.087272 0.282409 0.003816 0.002496 756237.000000 1 0 0
2.349008 -15.089505 13.371279 20.297836 -1.416364 0.851635 0.012882 -0.001139 1052470.000000 1 0 0
18.828108 4.335695 -1.771921 19.401949 0.226332 1.662251 0.007918 -0.000877 741927.000000 1 0 0
-0.434692 -13.275105 7.278679 15.145843 1.538063 1.069489 0.001241 -0.000217 -1480800.000000 1 0 0
4.321808 1.510595 -0.617521 4.619659 0.336255 1.704870 0.004204 -0.001499 609930.000000 1 0 0
2.719508 -0.551405 -7.312721 7.821487 -0.200047 2.778922 -0.002258 -0.002127 -126011.000000 1 0 0
7.203308 -11.220005 0.860379 13.361004 -1.000062 1.506357 0.006289 -0.003071 176529.000000 1 0 0
-11.773692 -7.261305 1.224279 13.886873 0.552637 1.482521 0.006002 0.001691 202863.000000 1 0 0
0.126808 -7.133005 10.001879 12.285497 -1.553021 0.619583 -0.001639 -0.000292 -1977230.000000 1 0 0
-4.756592 -7.124705 10.625879 13.649026 0.982134 0.678511 0.010438 -0.002787 -758076.000000 1 0 0
11.803608 0.709095 -1.684421 11.944256 0.060002 1.712291 0.003553 -0.004868 738109.000000 1 0 0
6.529008 -9.741105 -7.480321 13.909431 -0.980315 2.138607 -0.004188 0.001700 -226603.000000 1 0 0
-10.902392 4.827995 3.491779 12.424339 -0.416882 1.285915 -0.001636 -0.005662 -143605.000000 1 0 0
5.968308 -9.067505 2.039579 11.045372 -0.988672 1.385076 0.001256 -0.004895 4032980.000000 1 0 0
11.461108 -1.375205 5.818479 12.926828 -0.119418 1.103909 0.014470 -0.006537 33270.200000 1 0 0
-6.448292 3.611595 4.130179 8.466550 -0.510553 1.061202 -0.001635 -0.002585 -1195300.000000 1 0 0
9.451808 6.289795 -3.184221 11.791414 0.587166 1.844237 0.005583 -0.001432 -839678.000000 1 0 0
-2.215792 6.510895 10.945179 12.926656 -1.242770 0.561018 0.000297 -0.001480 183629.000000 1 0 0
1.968908 9.884295 2.865779 10.478004 1.374174 1.293762 -0.001919 0.000993 -335961.000000 1 0 0
2.819008 6.092595 -5.682721 8.795444 1.137436 2.273258 0.000931 -0.000602 -2206250.000000 1 0 0
11.925808 0.065295 -5.615721 13.182014 0.005475 2.010879 0.012617 -0.003566 249355.000000 1 0 0
-2.646592 -12.488505 6.248379 14.213003 1.361964 1.115616 0.006977 0.000321 -8915.420000 1 0 0
10.752708 1.738495 -2.787121 11.243271 0.160293 1.821300 0.004540 -0.003811 456306.000000 1 0 0
-8.787292 5.207695 0.839779 10.248991 -0.534990 1.488767 -0.001530 -0.003529 -556943.000000 1 0 0
1.129308 -10.174905 5.587879 11.663123 -1.460259 1.071160 -0.002919 -0.001789 216373.000000 1 0 0
9.467508 -5.672405 -1.026421 11.084378 -0.539790 1.663530 0.011078 -0.006341 66063.100000 1 0 0
-7.982392 8.454395 -4.453321 12.451001 -0.814107 1.936565 -0.003276 0.001380 -645471.000000 1 0 0
-7.424392 -0.029205 -1.630121 7.601299 0.003934 1.786928 -0.000041 -0.002984 -858501.000000 1 0 0
4.219608 8.774295 2.646179 10.089381 1.122541 1.305419 -0.001335 -0.000607 795731.000000 1 0 0
-1.309692 -10.555705 -3.832421 11.306001 1.447353 1.916621 0.001368 0.002373 -397012.000000 1 0 0
3.107408 7.825095 -3.727821 9.207863 1.192785 1.987613 0.007372 -0.003346 -632874.000000 1 0 0
-4.269292 1.517495 -11.068421 11.959915 -0.341517 2.753044 0.004140 -0.006194 -451877.000000 1 0 0
1.430508 2.744795 10.954479 11.383359 1.090355 0.275373 -0.000492 0.000991 582815.000000 1 0 0
2.142508 5.471795 -8.108821 10.014182 1.197591 2.514494 -0.000546 0.000296 59782.500000 1 0 0
15.547408 6.082095 4.094879 17.189584 0.372894 1.330265 0.015919 -0.006486 -291434.000000 1 0 0
-4.414992 9.145995 4.591879 11.145704 -1.121065 1.146163 0.000109 0.003514 -351150.000000 1 0 0
-0.898292 -8.288505 -12.463521 14.994852 1.462840 2.552035 0.003057 -0.000242 281580.000000 1 0 0
14.391408 -4.239505 -5.281521 15.905361 -0.286482 1.909282 0.014831 -0.002109 1103210.000000 1 0 0
-5.970092 -6.175205 -5.596221 10.251480 0.802285 2.148252 0.014478 -0.004511 484605.000000 1 0 0
-8.914592 2.587595 -12.143521 15.284982 -0.282502 2.488937 0.004045 -0.003786 -1901400.000000 1 0 0
10.587908 5.500895 13.756879 18.210310 0.479161 0.714464 0.009468 0.013238 518469.000000 1 0 0
-0.343792 10.934095 5.532879 12.259093 -1.539364 1.102543 0.001372 0.005300 584109.000000 1 0 0
0.422108 11.158395 -0.592121 11.182064 1.532986 1.623774 0.006897 -0.003617 -249701.000000 1 0 0
-1.569492 -0.515505 3.689679 4.042621 0.317352 0.420965 -0.001548 0.002167 775296.000000 1 0 0
-4.777492 6.706495 8.902379 12.126577 -0.951818 0.746424 -0.001188 -0.000048 -1363430.000000 1 0 0
3.433708 -8.806305 -11.470021 14.862797 -1.199014 2.452348 -0.006441 0.002944 836602.000000 1 0 0
6.711108 -3.777005 12.083079 14.328487 -0.512617 0.567420 0.007594 -0.000479 -205918.000000 1 0 0
-2.381692 -1.869105 -12.650421 13.007657 0.665392 2.906687 0.008673 -0.009345 983732.000000 1 0 0
-16.201692 -4.899005 5.414979 17.771243 0.293635 1.261168 0.017634 -0.006329 1924850.000000 1 0 0
-8.877492 7.299095 5.824479 12.884534 -0.688133 1.101732 -0.008003 -0.001738 -2541830.000000 1 0 0
-12.774992 1.669095 6.065379 14.239913 -0.129917 1.130793 -0.000007 -0.004820 354922.000000 1 0 0
-3.530892 3.673695 10.213979 11.414403 -0.805217 0.462740 0.002326 0.001244 269956.000000 1 0 0
1.998908 -12.201505 -1.067721 12.410173 -1.408414 1.656939 -0.002979 0.000696 -3368110.000000 1 0 0
10.199508 -5.258405 -3.496921 11.996218 -0.476014 1.866593 0.015744 -0.004858 404045.000000 1 0 0
2.983608 -13.402205 0.986979 13.765724 -1.351748 1.499036 -0.001285 -0.001256 472788.000000 1 0 0
10.129508 -1.689205 -6.121521 11.955474 -0.165240 2.108339 0.012442 -0.002413 -244480.000000 1 0 0
11.966708 -5.479705 -1.564121 13.254273 -0.429414 1.689081 0.015816 -0.006742 399324.000000 1 0 0
1.499408 0.932095 5.776979 6.040738 0.556181 0.296597 -0.005323 0.004024 285434.000000 1 0 0
-10.673592 11.686995 6.683979 17.181007 -0.830688 1.171215 -0.005255 -0.004688 -546447.000000 1 0 0
4.776808 -14.005405 2.905779 15.080213 -1.242100 1.376895 0.005885 -0.005180 -3677230.000000 1 0 0
5.287708 -3.598705 -1.743521 6.629510 -0.597573 1.836920 0.007640 -0.002072 -1312940.000000 1 0 0
1.985408 -2.996405 -7.649221 8.451678 -0.985617 2.702302 -0.002229 -0.000824 -658674.000000 1 0 0
-2.840792 14.821895 -8.792121 17.465968 -1.381431 2.098309 0.013538 0.001831 -1183550.000000 1 0 0
-2.278192 6.147995 -8.121521 10.437772 -1.215925 2.462415 0.002661 -0.004931 -220467.000000 1 0 0
2.649908 -3.530805 -11.420421 12.243962 -0.926968 2.772733 -0.002144 -0.000844 -1704260.000000 1 0 0
14.546808 2.786495 -2.650721 15.046611 0.189261 1.747888 0.005006 -0.000848 397603.000000 1 0 0
-3.523692 13.111795 2.208379 13.755454 -1.308257 1.409553 -0.000076 -0.000684 -910178.000000 1 0 0
7.824408 -5.068705 13.974879 16.799119 -0.574832 0.588306 0.008664 -0.006987 -2210940.000000 1 0 0
-11.347792 7.264595 2.924179 13.787586 -0.569439 1.357085 -0.004138 -0.001693 1124600.000000 1 0 0
-2.236192 11.876895 4.037879 12.742278 -1.384694 1.248349 0.001429 0.002283 711851.000000 1 0 0
1.786508 1.401995 0.709379 2.379164 0.665384 1.268028 -0.003353 -0.000680 -1662660.000000 1 0 0
-6.864192 8.636695 5.281279 12.231171 -0.899252 1.124322 -0.003678 0.000339 -111421.000000 1 0 0
-1.109592 9.151295 0.910179 9.263143 -1.450136 1.472379 0.002829 0.000755 242992.000000 1 0 0
5.044108 13.105195 -8.645321 16.490322 1.203380 2.122650 0.015446 -0.012198 -1265470.000000 1 0 0
8.933008 6.947495 7.182679 13.403626 0.661015 1.005252 -0.009046 0.004175 -1486740.000000 1 0 0
7.244508 -13.739405 2.860379 15.793541 -1.085564 1.388681 0.014989 -0.000954 161921.000000 1 0 0
4.063908 -13.491405 -1.322221 14.152089 -1.278219 1.664362 -0.002063 0.001866 -2545630.000000 1 0 0
12.116308 -11.771005 -4.602821 17.508496 -0.770944 1.836813 0.022635 -0.001538 -1004630.000000 1 0 0
2.729508 0.048495 -1.972121 3.367763 0.017765 2.196401 0.003987 -0.003217 1411550.000000 1 0 0
-13.549292 -2.978505 -10.717521 17.530546 0.216386 2.228578 0.002137 -0.003297 7489.200000 1 0 0
-6.645592 13.680695 5.067679 16.031428 -1.118602 1.249171 0.000274 -0.002920 -101427.000000 1 0 0
7.370908 -4.269405 -0.508921 8.533294 -0.525003 1.630471 0.008992 -0.002632 -2557380.000000 1 0 0
11.742108 1.991995 -7.197921 13.916005 0.168045 2.114420 0.010635 -0.004201 -304842.000000 1 0 0
-7.609192 -4.564005 9.732879 13.170379 0.540274 0.739215 0.005442 -0.000012 146172.000000 1 0 0
1.060408 2.834995 8.432979 8.959732 1.212865 0.344605 -0.003567 0.003763 -1908290.000000 1 0 0
1.637608 7.920295 -8.845321 11.985513 1.366908 2.400899 0.003794 -0.000864 -73740.400000 1 0 0
-8.504092 -2.082805 -5.545121 10.363688 0.240190 2.135367 0.011826 -0.005761 -1221750.000000 1 0 0
6.595008 -0.522305 7.014379 9.642015 -0.079032 0.756153 -0.005336 0.004236 682007.000000 1 0 0
-10.808992 6.525295 7.126179 14.498145 -0.543129 1.056958 -0.004242 -0.004138 681038.000000 1 0 0
-6.004592 11.085495 4.841579 13.504970 -1.074377 1.204132 -0.005733 0.001242 -285398.000000 1 0 0
6.038208 -1.284005 -6.954521 9.299139 -0.209526 2.415640 0.002054 0.000143 -517562.000000 1 0 0
4.477508 -5.730205 11.497979 13.604663 -0.907508 0.563951 0.000726 -0.000744 -1753990.000000 1 0 0
-8.951592 -7.420205 2.810679 11.962038 0.692131 1.333612 0.008971 0.003216 -2417110.000000 1 0 0
-1.319892 12.838595 -9.422921 15.980083 -1.468350 2.201442 0.011572 0.004105 520126.000000 1 0 0
-4.753792 9.199695 -2.372021 10.623530 -1.093852 1.795974 -0.001371 -0.002515 791995.000000 1 0 0
-3.293892 9.623195 -0.316921 10.176249 -1.241009 1.601945 0.001947 -0.003056 -1097410.000000 1 0 0
-3.502492 10.673295 -6.449121 12.952908 -1.253714 2.091960 0.006451 0.002445 -74856.600000 1 0 0
4.952108 -4.963705 0.312179 7.018490 -0.786568 1.526302 0.004366 -0.003587 -1430550.000000 1 0 0
-2.220492 2.933995 -10.863221 11.469458 -0.922948 2.815007 0.003781 -0.005590 -1740430.000000 1 0 0
-3.538892 12.086995 -2.079021 12.764855 -1.285972 1.734396 0.001945 0.001859 524720.000000 1 0 0
-0.163092 0.276295 0.037879 0.323067 -1.037553 1.453277 -0.007613 -0.001663 -1896630.000000 1 0 0
-4.862192 -1.654005 -0.003721 5.135821 0.327897 1.571521 -0.002140 -0.001642 125628.000000 1 0 0
2.580508 2.549695 -2.452121 4.378682 0.779392 2.165198 -0.004768 -0.002517 1597350.000000 1 0 0
5.989708 -9.735505 8.491679 14.239568 -1.019244 0.931858 -0.000962 0.000159 475694.000000 1 0 0
-4.238092 -5.498805 6.638679 9.605746 0.914160 0.807765 0.003258 -0.000499 5739.290000 1 0 0
-6.301792 5.241395 -11.938321 14.481308 -0.693792 2.539929 -0.001572 -0.002207 347906.000000 1 0 0
-12.844992 3.259695 7.984879 15.471837 -0.248525 1.028515 -0.001186 -0.002708 638174.000000 1 0 0
4.760408 -7.561705 -4.962621 10.220982 -1.008938 2.077769 -0.005179 -0.002255 921045.000000 1 0 0
-5.939192 2.429495 -1.044421 6.501327 -0.388294 1.732143 -0.000383 -0.004162 -1442190.000000 1 0 0
-6.887592 -2.725405 -14.621321 16.390539 0.376792 2.672676 0.007062 -0.003140 -377353.000000 1 0 0
2.698208 -6.135005 0.866579 6.757927 -1.156453 1.442211 0.001121 -0.001093 203016.000000 1 0 0
4.874808 -7.863505 13.093079 16.032068 -1.015853 0.615161 0.000542 0.001942 120553.000000 1 0 0
-9.988492 -1.609505 8.082379 12.949337 0.159763 0.896748 0.004611 0.000508 -337123.000000 1 0 0
-4.678592 13.352895 -0.069821 14.148989 -1.233783 1.575731 0.001991 0.000650 405506.000000 1 0 0
6.804908 2.259695 -4.460621 8.444533 0.320612 2.127306 0.004636 -0.001128 -1569140.000000 1 0 0
5.009408 4.439795 -0.022021 6.693761 0.725189 1.574086 -0.000550 -0.002132 -753890.000000 1 0 0
-5.940192 12.268495 1.948379 13.769460 -1.119883 1.428820 -0.002358 -0.000529 -742943.000000 1 0 0
6.460308 -7.346605 6.499879 11.745494 -0.849502 0.984363 0.000021 -0.003545 -709117.000000 1 0 0
-0.197992 4.959495 7.668979 9.135044 -1.530896 0.574412 -0.004095 0.004697 -1383700.000000 1 0 0
-5.815192 -3.423105 -1.552121 6.924102 0.532031 1.796879 0.002504 -0.003814 -856576.000000 1 0 0
2.338608 -6.546305 -5.101221 8.622393 -1.227685 2.203869 -0.004696 0.000929 -658420.000000 1 0 0
-14.471692 -4.834605 -3.743521 15.710418 0.322416 1.811394 0.007303 -0.005969 -92690.500000 1 0 0
-12.400592 -5.072605 -6.425121 14.858943 0.388294 2.017958 0.009954 -0.007573 -879451.000000 1 0 0
-14.662992 -3.792705 -1.212621 15.194025 0.253111 1.650690 0.003201 -0.002763 587208.000000 1 0 0
11.885508 2.866895 8.655379 14.979986 0.236688 0.954770 0.014783 0.001493 -1794340.000000 1 0 0
8.689508 -6.529405 7.598679 13.261999 -0.644405 0.960676 0.009079 -0.007168 -273132.000000 1 0 0
-8.811892 -1.701605 -9.721321 13.230607 0.190755 2.396109 0.009845 -0.004152 -29590.100000 1 0 0
-8.819792 5.100195 -3.746421 10.855247 -0.524286 1.923169 0.002418 -0.002966 -568087.000000 1 0 0
-4.121692 -6.246705 4.099979 8.533434 0.987550 1.069616 0.004420 0.000801 -1448630.000000 1 0 0
-0.159392 -9.291605 3.462979 9.917236 1.553644 1.214092 -0.000884 -0.001248 871295.000000 1 0 0
7.839108 -10.510605 3.307279 13.522668 -0.929970 1.323717 0.010008 -0.004708 3204.820000 1 0 0
0.111508 6.591595 9.626679 11.667669 1.553881 0.600465 -0.004922 0.000167 1301990.000000 1 0 0
0.060208 3.454295 -9.742721 10.337136 1.553368 2.800821 0.003526 -0.004752 -676717.000000 1 0 0
4.490408 -3.141405 11.016179 12.303999 -0.610445 0.461618 -0.000434 0.001269 -1261810.000000 1 0 0
8.571508 -9.123605 1.173679 12.573323 -0.816589 1.477313 0.009863 -0.006925 24529.900000 1 0 0
-0.283392 -0.492605 11.311279 11.325547 1.048743 0.050200 0.006363 0.004524 -1681510.000000 1 0 0
10.852208 5.926795 11.356479 16.788893 0.499873 0.827894 0.010909 0.004886 269671.000000 1 0 0
-6.322992 -2.963705 -11.924421 13.818668 0.438311 2.611818 0.009481 -0.005179 115392.000000 1 0 0
-1.596792 2.900595 8.668579 9.279411 -1.067565 0.364861 0.003186 -0.000655 1137850.000000 1 0 0
-1.807992 13.476695 -6.884021 15.240731 -1.437436 2.039450 0.016632 0.001311 603464.000000 1 0 0
7.696008 3.102295 9.714279 12.775758 0.383180 0.706917 -0.003542 0.006363 842613.000000 1 0 0
6.519708 8.459495 -7.944321 13.310968 0.914180 2.210335 0.008170 -0.005746 -1087310.000000 1 0 0
6.646108 -3.106205 -3.906421 8.311401 -0.437206 2.060096 0.008770 -0.002026 -2103090.000000 1 0 0
2.020908 8.119895 0.984379 8.425305 1.326869 1.453693 -0.000342 0.000338 539809.000000 1 0 0
-17.537692 6.364795 6.253479 19.677074 -0.348139 1.247382 0.008293 -0.007961 231043.000000 1 0 0
-14.456192 3.214095 -10.105921 17.928790 -0.218775 2.169618 0.017509 -0.006611 227957.000000 1 0 0
-18.311492 0.099895 -4.340921 18.819254 -0.005455 1.803556 0.024066 -0.005455 39422.700000 1 0 0
-12.977092 7.834695 0.072079 15.158910 -0.543160 1.566041 0.002421 0.000259 -145357.000000 1 0 0
-12.828492 -4.066305 -12.960221 18.683478 0.306956 2.337372 0.011060 0.004580 -846312.000000 1 0 0
-17.333692 -0.737405 -8.763821 19.437212 0.042516 2.038546 0.010498 -0.007042 546905.000000 1 0 0
-16.691792 -2.214205 -1.999021 16.956259 0.131882 1.688964 0.008336 -0.001869 114166.000000 1 0 0
-15.277292 4.262095 1.667179 15.948059 -0.272065 1.466067 -0.000552 -0.001082 -2241360.000000 1 0 0
-13.175392 5.817895 4.255679 15.018311 -0.415824 1.283494 -0.002896 -0.002337 -629626.000000 1 0 0
-9.994992 14.320095 2.848879 17.694097 -0.961434 1.409085 0.008634 -0.000730 532297.000000 1 0 0
-11.842092 2.436095 -6.296421 13.631383 -0.202885 2.050940 0.004154 0.000831 -105041.000000 1 0 0
-15.876692 10.598795 3.708279 19.446211 -0.588627 1.378927 0.011897 -0.006256 30439.500000 1 0 0
-12.767492 1.235195 -8.476421 15.374793 -0.096445 2.154741 0.008942 -0.001554 989377.000000 1 0 0
-12.285792 14.350195 4.106579 19.332169 -0.862748 1.356743 0.006527 -0.006384 -1124780.000000 1 0 0
-10.270092 11.186195 -0.887121 15.211598 -0.828068 1.629148 -0.002647 0.001507 376971.000000 1 0 0
-16.880392 5.860095 8.784379 19.911144 -0.334137 1.113884 0.003168 -0.007543 182928.000000 1 0 0
-11.623192 12.535895 -9.365121 19.492376 -0.823159 2.071965 0.013078 -0.007265 -2119650.000000 1 0 0
-17.250192 -0.355005 3.144979 17.538131 0.020577 1.390499 0.011499 -0.004672 773083.000000 1 0 0
-12.964792 14.845595 -0.851921 19.728235 -0.852925 1.613993 0.016934 -0.002428 114777.000000 1 0 0
-16.606892 4.697795 -10.380021 20.139587 -0.275679 2.112275 0.040125 -0.006246 453021.000000 1 0 0
-11.914292 7.674895 -9.004621 16.790996 -0.572270 2.136816 0.013523 0.002382 293096.000000 1 0 0
-14.819892 13.358895 -1.983721 20.050546 -0.733597 1.669894 0.040958 -0.006421 518786.000000 1 0 0
-11.914992 10.629795 -5.478321 16.881101 -0.728453 1.901305 0.017210 -0.002159 417194.000000 1 0 0
-17.720692 2.897595 -1.004021 17.984077 -0.162080 1.626654 0.010082 -0.001992 -735442.000000 1 0 0
-9.521992 15.508995 0.632879 18.209826 -1.020171 1.536034 0.010841 -0.004939 -159954.000000 1 0 0
-8.219792 13.184095 -3.722521 15.976310 -1.013303 1.805960 -0.005072 -0.000936 -679445.000000 1 0 0
-17.785392 11.699395 2.318979 21.414333 -0.581845 1.462293 0.056317 0.007488 -629474.000000 1 0 0
-8.187392 15.531495 -7.295621 19.012806 -1.085667 1.964619 0.023062 -0.014913 -78350.900000 1 0 0
-6.387792 15.184695 -5.369021 17.326431 -1.172596 1.885857 0.009940 -0.003515 -680091.000000 1 0 0
-17.411692 5.258795 -0.219021 18.189830 -0.293315 1.582837 0.020596 0.000924 332989.000000 1 0 0
-5.422892 12.324895 -12.330021 18.257606 -1.156294 2.312217 -0.008915 0.002525 235074.000000 1 0 0
-11.075092 3.768095 -11.352021 16.301060 -0.327946 2.341162 0.004347 -0.002536 -176718.000000 1 0 0
-11.828092 10.984295 1.181979 16.185041 -0.748426 1.497702 -0.001629 0.000929 -45603.800000 1 0 0
-12.860692 0.350495 -10.995221 16.923803 -0.027246 2.277973 0.007854 -0.005914 741434.000000 1 0 0
-14.188292 -1.800405 -12.980121 19.314052 0.126219 2.307778 0.013437 -0.005965 168366.000000 1 0 0
-18.706392 -2.325605 -3.728721 19.215642 0.123687 1.766081 0.010527 -0.003515 619580.000000 1 0 0
-18.180692 4.860695 -5.371021 19.570687 -0.261245 1.848806 0.015524 -0.010770 109014.000000 1 0 0
-8.322492 15.308795 -2.125121 17.553894 -1.072848 1.692157 0.007026 -0.006498 296237.000000 1 0 0
-16.235992 9.158995 -5.381021 19.402319 -0.513617 1.851820 0.041097 0.002694 -134682.000000 1 0 0
-18.293192 1.733695 2.036379 18.487656 -0.094490 1.460424 0.011641 -0.004926 -418808.000000 1 0 0
-15.636092 -2.701505 -8.640021 18.067525 0.171085 2.069409 0.002374 -0.005939 -475381.000000 1 0 0
-9.743392 10.614795 -7.174021 16.095780 -0.828176 2.032762 0.002557 -0.003770 833384.000000 1 0 0
-13.666592 12.281795 -7.769521 19.949528 -0.732081 1.970840 0.027157 -0.006784 -260732.000000 1 0 0
-10.990192 6.598595 -3.852721 13.385411 -0.540719 1.862756 0.000175 0.002012 382155.000000 1 0 0
-12.892892 4.989995 -12.710121 18.779613 -0.369280 2.314209 0.019252 -0.003967 -518414.000000 1 0 0
-17.684692 9.082595 2.622979 20.052977 -0.474457 1.439618 0.030525 -0.007299 765734.000000 1 0 0
-13.591592 8.900095 -6.566421 17.523154 -0.579759 1.954900 0.020673 0.001231 -733154.000000 1 0 0
-15.823392 7.077995 -3.820221 17.750263 -0.420616 1.787714 0.021213 0.004329 -472450.000000 1 0 0
-14.865892 -0.177505 -9.249821 17.509581 0.011940 2.127360 0.013101 -0.007745 259238.000000 1 0 0
-9.950592 5.788895 -6.059021 13.009124 -0.526903 2.055280 0.002555 0.001822 294671.000000 1 0 0
-12.678092 12.320295 -0.854321 17.698970 -0.771086 1.619085 0.017760 -0.000470 -735973.000000 1 0 0
-10.491692 3.582695 -13.901421 17.780911 -0.329064 2.468371 0.003741 -0.002595 165383.000000 1 0 0
-10.820492 6.374795 -11.886621 17.291987 -0.532397 2.328708 0.005124 -0.003161 -820898.000000 1 0 0
-5.663692 11.509295 -14.775221 19.566512 -1.113491 2.426646 -0.000153 -0.011079 6633.740000 1 0 0
-15.545392 13.182095 3.562679 20.691049 -0.703317 1.397749 0.006767 -0.009647 -59679.400000 1 0 0
-14.989292 10.932295 -3.142721 18.816765 -0.630147 1.738600 0.033132 -0.000120 498949.000000 1 0 0
-18.278992 7.937095 -4.505721 20.430872 -0.409654 1.793159 0.037017 0.000640 -781163.000000 1 0 0
-4.077592 16.384295 -10.406621 19.833548 -1.326880 2.123157 0.014012 -0.000979 118307.000000 1 0 0
-15.717092 4.443795 -4.483421 16.937395 -0.275544 1.838695 0.018018 -0.002671 77377.200000 1 0 0
-18.534192 -1.785905 -6.214821 19.629817 0.096061 1.892940 0.009071 -0.004905 201698.000000 1 0 0
-10.906192 8.617095 -5.899421 15.099752 -0.668681 1.972184 0.004488 0.000167 1041330.000000 1 0 0
-11.215792 13.655095 -6.946021 18.986911 -0.883164 1.945323 0.008490 -0.001030 -277149.000000 1 0 0
-9.545692 10.507995 -4.482421 14.887252 -0.833348 1.876633 -0.007087 0.000761 -937545.000000 1 0 0
-10.948592 6.347795 -0.220021 12.657589 -0.525421 1.588180 0.002361 0.001182 -1449130.000000 1 0 0
-14.637192 9.121195 -1.454521 17.307779 -0.557269 1.654934 0.021866 0.001079 -282270.000000 1 0 0
-18.472492 3.589495 4.619979 19.376832 -0.191924 1.330049 -0.001524 -0.000665 221664.000000 1 0 0
-14.571092 13.460795 0.592579 19.845928 -0.745810 1.540933 0.012788 0.012453 216629.000000 1 0 0
-16.782292 2.472895 -9.118421 19.258923 -0.146299 2.064017 0.016314 -0.004646 141961.000000 1 0 0
-9.121592 8.533295 -8.961021 15.372718 -0.752088 2.193111 0.005848 0.002277 -1929770.000000 1 0 0
-17.660692 4.734795 -2.790421 18.496074 -0.261938 1.722240 0.013641 -0.002052 602204.000000 1 0 0
-13.571292 5.942995 -4.478221 15.477519 -0.412754 1.864331 0.013559 0.002293 -822075.000000 1 0 0
-12.123492 9.722095 3.398479 15.907478 -0.675912 1.355496 -0.008014 0.002023 448142.000000 1 0 0
-17.521192 2.599795 -4.166421 18.196433 -0.147305 1.801815 0.017525 -0.001919 791785.000000 1 0 0
-11.209392 1.506595 -12.649321 16.968371 -0.133604 2.412028 0.008391 -0.005096 -267153.000000 1 0 0
-11.154492 12.064795 3.548579 16.809949 -0.824583 1.358096 -0.004238 0.001052 -59819.200000 1 0 0
-16.144392 13.055795 -4.162721 21.176010 -0.680017 1.768662 0.042335 -0.000424 208413.000000 1 0 0
-11.087692 4.158995 -4.470521 12.657792 -0.358858 1.931768 0.000648 -0.000301 -430351.000000 1 0 0
-11.219792 15.030595 -9.212021 20.896503 -0.929562 2.027331 0.025488 -0.007206 133538.000000 1 0 0
-15.425692 6.928595 -0.226221 16.911788 -0.422155 1.584173 0.012246 0.003996 -981245.000000 1 0 0
-12.889292 8.456095 -4.112921 15.954795 -0.580621 1.831526 0.010165 0.001899 877916.000000 1 0 0
-19.256792 1.986195 -5.947321 20.251904 -0.102779 1.868857 0.030182 -0.009396 155550.000000 1 0 0
-12.681492 10.132495 -8.990521 18.555785 -0.674130 2.076603 0.019983 -0.009833 645226.000000 1 0 0
-16.540392 10.963595 -0.949421 19.866715 -0.585347 1.618604 0.023143 0.001443 758083.000000 1 0 0
-10.730492 6.595295 -14.536121 19.233829 -0.551108 2.427607 0.015206 -0.006264 -407817.000000 1 0 0
-13.582092 12.852695 -4.294521 19.186138 -0.757813 1.796543 0.024799 -0.003794 908232.000000 1 0 0
-17.909592 7.785895 -0.314221 19.531318 -0.410086 1.586885 0.030950 0.000535 -307275.000000 1 0 0
-12.772492 6.744495 -2.156021 14.603876 -0.485834 1.718971 0.001673 0.004454 713536.000000 1 0 0
-13.812692 8.527995 -10.665921 19.423671 -0.553117 2.152107 0.023715 -0.006089 -904798.000000 1 0 0
-15.064592 1.472695 -0.869121 15.161337 -0.097449 1.628153 0.004969 -0.002968 -457906.000000 1 0 0
-13.444592 2.725195 -2.473021 13.939138 -0.199989 1.749156 0.002571 -0.003094 79547.400000 1 0 0
-11.251092 9.169695 -10.926721 18.167652 -0.683824 2.216096 0.022489 -0.007992 -298173.000000 1 0 0
-15.410492 4.379395 -7.945021 17.882553 -0.276883 2.031177 0.026879 -0.001958 915123.000000 1 0 0
-18.307792 10.572795 4.683879 21.654052 -0.523713 1.352768 0.042436 -0.019975 300955.000000 1 0 0
-15.364492 6.324395 -6.239621 17.748195 -0.390487 1.930037 0.027441 0.000788 591141.000000 1 0 0
-7.753292 11.275995 -13.157721 18.983867 -0.968446 2.336577 -0.001547 -0.001926 -164898.000000 1 0 0
-16.876492 9.210195 -2.788621 19.427302 -0.499568 1.714835 0.032072 0.000646 456958.000000 1 0 0
-20.606792 -1.046605 -4.858921 21.197744 0.050746 1.802071 0.027051 -0.010759 173872.000000 1 0 0
-15.502292 4.439795 4.141979 16.648989 -0.278930 1.319373 0.002855 -0.001443 25694.700000 1 0 0
-6.863392 12.449395 -9.466621 17.079534 -1.066953 2.158278 0.000387 -0.004159 -436015.000000 1 0 0
-17.194692 1.657795 5.789379 18.218744 -0.096116 1.247419 0.002609 -0.004251 262005.000000 1 0 0
-10.411792 14.220895 -3.026121 17.882859 -0.938819 1.740834 0.007645 -0.007137 -1325780.000000 1 0 0
-9.971392 8.540295 -13.124021 18.563545 -0.708244 2.356013 0.005718 -0.001878 178132.000000 1 0 0
-13.684592 11.690495 2.849579 18.222399 -0.706974 1.413774 0.000768 0.000505 -1388310.000000 1 0 0
-16.962092 6.659295 1.859979 18.317158 -0.374110 1.469078 0.015778 0.000412 760984.000000 1 0 0
-9.321692 13.332395 -8.654221 18.426671 -0.960624 2.059699 0.010995 -0.008334 -1544110.000000 1 0 0
-5.549292 9.811895 -12.893121 17.126017 -1.056079 2.423160 -0.007743 -0.000633 -445357.000000 1 0 0
-15.884992 1.956095 3.102479 16.302903 -0.122524 1.379326 -0.001860 -0.003801 -550469.000000 1 0 0
-18.774492 -4.724405 4.663079 19.913459 0.246521 1.334434 0.023933 -0.002698 -1166990.000000 1 0 0
-5.409892 14.489295 -9.092721 17.941130 -1.213454 2.102275 0.010591 0.000634 910465.000000 1 0 0
-15.424292 -0.897305 -6.782621 16.873585 0.058109 1.984460 0.009563 -0.003666 788664.000000 1 0 0
-8.999892 10.992795 -9.541321 17.113632 -0.884752 2.162201 0.003720 -0.005973 438344.000000 1 0 0
-16.764092 1.127795 -6.107821 17.877700 -0.067173 1.919463 0.010964 -0.004391 -841875.000000 1 0 0
-11.148892 8.717895 -1.522821 14.234411 -0.663639 1.677983 -0.001868 0.000681 -321404.000000 1 0 0
-10.751192 11.011195 -12.910721 20.087838 -0.797345 2.268831 0.025033 -0.006759 -170668.000000 1 0 0
-14.017792 11.785895 -10.265221 20.994774 -0.699118 2.081672 0.048247 -0.019404 216896.000000 1 0 0
-13.313592 5.848095 -7.709821 16.458836 -0.413885 2.058310 0.016575 0.002305 -728802.000000 1 0 0
-8.952192 15.425695 -4.759821 18.459406 -1.044956 1.831596 0.007525 -0.008990 757106.000000 1 0 0
-8.580892 6.228495 -13.022321 16.793055 -0.627869 2.458238 0.002498 -0.003311 -1490150.000000 1 0 0
-16.309292 7.481995 4.158479 18.419180 -0.430112 1.343064 0.011550 -0.003641 600016.000000 1 0 0
-12.669992 5.475695 -10.220921 17.174957 -0.407935 2.208194 0.013707 0.000144 664459.000000 1 0 0
-12.466892 9.090995 -13.254521 20.340892 -0.630063 2.280514 0.038074 -0.017352 -1098450.000000 1 0 0
-10.854692 5.232795 -8.524921 14.760784 -0.449206 2.186507 0.000723 0.004114 1001970.000000 1 0 0
-17.744792 -4.481405 -2.749821 18.507354 0.247375 1.719928 0.006490 -0.003178 408637.000000 1 0 0
-8.795392 13.077895 -11.132921 19.295911 -0.978739 2.185795 0.011712 -0.009995 154912.000000 1 0 0
-15.011392 6.279095 5.986579 17.338052 -0.396172 1.218253 0.002743 -0.005943 -1921640.000000 1 0 0
-16.323792 -3.132705 -4.376421 17.188167 0.189605 1.828249 0.005170 -0.005258 -1574420.000000 1 0 0
-11.151592 -1.172805 -12.516921 16.804963 0.104784 2.411084 0.005650 -0.003363 137962.000000 1 0 0
-15.599192 6.977895 -8.630221 19.144360 -0.420626 2.038454 0.037226 0.000368 523476.000000 1 0 0
-14.911492 9.084495 1.247979 17.505373 -0.547177 1.499445 0.014725 -0.001942 -302977.000000 1 0 0
-19.282792 5.452895 7.853079 21.522801 -0.275590 1.197300 0.016048 -0.012831 -1249770.000000 1 0 0
-16.309992 0.505095 0.971779 16.346722 -0.030959 1.511313 0.004786 -0.003666 -1549350.000000 1 0 0
-17.395792 3.945895 7.053379 19.181601 -0.223056 1.194245 0.001147 0.001382 439223.000000 1 0 0
-15.468592 4.030895 -1.516621 16.056948 -0.254917 1.665390 0.005728 -0.001881 -568205.000000 1 0 0
-10.825492 13.319695 0.533879 17.172378 -0.888333 1.539702 0.006679 -0.003770 -497280.000000 1 0 0
-13.433392 3.382495 0.040879 13.852760 -0.246670 1.567845 0.003967 -0.001463 -428747.000000 1 0 0
-15.128692 0.033095 -4.347321 15.740953 -0.002188 1.850613 0.005851 0.000199 481537.000000 1 0 0
-18.915092 6.979795 3.524179 20.467488 -0.353506 1.397750 0.022220 -0.002760 555997.000000 1 0 0
-14.149492 1.383795 -6.281321 15.542780 -0.097488 1.986825 0.011027 0.000580 -429866.000000 1 0 0
-14.153892 11.859595 5.364579 19.229180 -0.697429 1.288063 0.000679 -0.011850 380128.000000 1 0 0
17.728908 5.426995 6.231979 19.560266 0.297053 1.246540 0.052982 -0.015396 372367.000000 1 0 0
18.376308 7.337095 -0.167121 19.787612 0.379876 1.579242 0.013715 -0.003119 42454.600000 1 0 0
16.608508 5.104295 8.538779 19.359936 0.298168 1.114023 0.059439 -0.008529 381819.000000 1 0 0
11.554908 12.373195 10.943679 20.158769 0.819583 0.996940 0.024913 -0.012646 434106.000000 1 0 0
-2.299392 16.333495 -0.544721 16.503544 -1.430938 1.603809 0.011712 -0.000656 -157390.000000 1 0 0
15.037608 12.510495 3.399979 19.854521 0.693920 1.398704 0.029117 -0.002153 115623.000000 1 0 0
13.680708 11.747995 6.801179 19.272602 0.709539 1.210134 0.038740 -0.003553 750695.000000 1 0 0
-0.703592 15.899695 8.563179 18.072725 -1.526573 1.077175 0.006246 -0.002511 300889.000000 1 0 0
0.823308 12.765795 9.414879 15.883429 1.506392 0.936329 -0.001497 -0.000626 -387447.000000 1 0 0
0.759908 15.480895 -3.914721 15.986263 1.521749 1.818193 0.011886 -0.001474 -777331.000000 1 0 0
5.384408 10.236495 13.405279 17.705344 1.086565 0.711885 0.000196 -0.003368 -221714.000000 1 0 0
-1.299292 16.489795 -2.848721 16.784418 -1.492165 1.741346 0.014562 -0.001760 -725784.000000 1 0 0
8.549508 10.088495 3.400379 13.654098 0.867784 1.319110 0.002975 -0.000464 582763.000000 1 0 0
12.644008 13.703495 -4.845021 19.264759 0.825589 1.825023 0.039583 -0.011568 489959.000000 1 0 0
2.453808 11.578995 7.626979 14.080664 1.361967 0.998382 -0.000292 0.007081 163854.000000 1 0 0
-0.348192 14.954795 -8.599121 17.254333 -1.547518 2.092519 0.016370 0.002812 -1138490.000000 1 0 0
2.409508 15.915195 0.109779 16.096931 1.420541 1.563976 0.008781 -0.009457 -223332.000000 1 0 0
1.881308 13.361895 5.264979 14.484459 1.430919 1.198783 0.004801 0.003232 437403.000000 1 0 0
17.621808 9.087495 -1.867121 19.914739 0.476125 1.664690 0.010235 0.008108 362853.000000 1 0 0
-7.154992 15.021295 7.367479 18.196509 -1.126269 1.153944 0.002464 -0.006158 -400645.000000 1 0 0
8.565308 15.834895 -0.076121 18.003172 1.074956 1.575025 0.008790 -0.012933 347288.000000 1 0 0
15.664808 10.374895 2.164679 18.913236 0.584978 1.456092 0.019892 -0.000320 417325.000000 1 0 0
14.116708 7.424695 8.700879 18.169008 0.484192 1.071411 0.032902 -0.006090 -792031.000000 1 0 0
4.224708 18.388595 -1.817021 18.954950 1.344969 1.666804 0.011222 -0.010096 -403332.000000 1 0 0
-0.406992 17.635195 -4.942621 18.319258 -1.547722 1.843986 0.025275 0.003446 181022.000000 1 0 0
1.378708 13.681695 -0.847821 13.777097 1.470365 1.632374 0.009859 -0.006766 -153453.000000 1 0 0
10.215608 14.580395 4.245579 18.302227 0.959641 1.336693 0.013391 -0.012546 150241.000000 1 0 0
-1.658192 15.347995 -5.187221 16.285509 -1.463174 1.894962 0.018017 -0.000033 1215450.000000 1 0 0
15.030208 8.700195 -6.171521 18.430632 0.524721 1.912244 0.020799 -0.005240 205454.000000 1 0 0
-2.419592 18.490595 0.869779 18.668504 -1.440680 1.524189 0.006381 -0.005630 387582.000000 1 0 0
-3.792492 19.419495 3.500379 20.093592 -1.377931 1.395699 0.004086 -0.009197 147220.000000 1 0 0
1.874408 17.548495 -2.648921 17.846004 1.464387 1.719779 0.014168 -0.006617 -55091.200000 1 0 0
2.933608 12.269795 3.226179 13.021603 1.336110 1.320433 0.001241 0.001076 -65196.000000 1 0 0
-2.600492 16.111495 1.918779 16.432423 -1.410770 1.453761 0.004656 -0.006178 -1644890.000000 1 0 0
11.814608 12.773195 -2.565621 17.587549 0.824365 1.717196 0.013803 0.000522 421569.000000 1 0 0
7.179308 11.663595 4.779679 14.506110 1.019035 1.235029 -0.000941 -0.000301 -325377.000000 1 0 0
7.140608 15.767995 1.992179 17.423740 1.145571 1.456209 0.006920 -0.010490 -2274890.000000 1 0 0
5.543508 12.141995 10.254579 16.831961 1.142503 0.915704 -0.000377 0.004689 828430.000000 1 0 0
-1.357592 14.118795 3.047779 14.507666 -1.474936 1.359139 0.000983 -0.002011 -786945.000000 1 0 0
4.666408 16.013995 1.323479 16.732453 1.287252 1.491617 0.003036 -0.015088 -379881.000000 1 0 0
7.340508 13.051695 11.956479 19.162129 1.058469 0.896991 0.007956 -0.003046 208916.000000 1 0 0
0.794108 17.148295 -9.556821 19.647581 1.524521 2.078775 0.021689 0.001756 444605.000000 1 0 0
9.885308 9.683795 15.232879 20.579986 0.775101 0.737459 0.017632 -0.004021 -382286.000000 1 0 0
13.468508 7.613795 -0.072321 15.471775 0.514517 1.575471 -0.000224 0.002760 -8586.230000 1 0 0
12.489608 13.486995 -0.171921 18.382570 0.823775 1.580149 0.023836 -0.002834 644942.000000 1 0 0
9.362808 12.278995 3.450579 15.822212 0.919339 1.350945 0.003796 -0.001291 631771.000000 1 0 0
-0.653592 12.875295 0.766679 12.914650 -1.520077 1.511396 0.007190 -0.004893 648250.000000 1 0 0
15.878108 7.216195 -0.933321 17.465935 0.426569 1.624258 0.006422 0.000412 -513002.000000 1 0 0
-4.345392 18.427595 -2.215021 19.062135 -1.339218 1.687259 0.026900 -0.003433 68049.300000 1 0 0
11.511008 9.268395 -3.255621 15.132928 0.677889 1.787626 0.008854 -0.000693 -191190.000000 1 0 0
14.715708 9.683695 7.957379 19.329922 0.582015 1.146520 0.035946 -0.008531 -679220.000000 1 0 0
4.427208 13.775895 4.631979 15.193113 1.259848 1.260991 0.003563 0.000912 -423663.000000 1 0 0
2.189108 15.889795 5.535779 16.968283 1.433890 1.238470 0.007775 -0.001021 71065.700000 1 0 0
6.007508 18.465495 5.368079 20.146487 1.256260 1.301086 0.021761 -0.017766 -269470.000000 1 0 0
10.849108 17.087595 -0.761121 20.255082 1.005101 1.608382 0.025350 -0.011244 65421.100000 1 0 0
10.023808 13.536195 -4.423321 17.414679 0.933391 1.827610 0.022243 -0.007452 -256704.000000 1 0 0
16.435708 7.902495 2.352079 18.387882 0.448180 1.442530 0.000285 -0.003925 -144636.000000 1 0 0
4.034708 14.020695 -0.619821 14.602840 1.290599 1.613254 0.006539 -0.006035 44670.700000 1 0 0
5.586008 13.139095 -2.454321 14.486648 1.168804 1.741037 0.005651 -0.003675 -326237.000000 1 0 0
-6.174092 16.730695 -2.843221 18.058778 -1.217272 1.728897 0.011897 -0.007261 -440208.000000 1 0 0
18.113908 9.801595 2.580879 20.756827 0.495991 1.446135 0.026836 -0.005902 -737500.000000 1 0 0
7.887008 12.906895 9.324979 17.769301 1.022277 1.018339 0.011179 -0.006192 526408.000000 1 0 0
-2.601292 15.865095 6.613679 17.384151 -1.408279 1.180521 0.002386 0.000650 1353070.000000 1 0 0
11.341408 16.017095 6.257779 20.599385 0.954667 1.262134 0.028655 -0.009878 -38018.600000 1 0 0
13.565808 11.925895 1.393779 18.116311 0.721155 1.493785 0.022225 0.002416 -455524.000000 1 0 0
17.445008 7.738995 -5.760921 19.935109 0.417538 1.863961 0.010546 0.016008 907365.000000 1 0 0
9.457908 9.240295 8.036279 15.473101 0.773760 1.024682 0.005268 0.000039 -269997.000000 1 0 0
-2.109292 14.176795 -1.969521 14.467537 -1.423095 1.707354 0.010756 -0.001625 712503.000000 1 0 0
10.905008 11.629195 0.692279 15.957338 0.817524 1.527400 0.008261 0.005617 1431930.000000 1 0 0
11.771508 9.751095 -0.537321 15.295129 0.691798 1.605934 0.004664 0.003963 -1443930.000000 1 0 0
-0.346092 16.196395 11.029779 19.598444 -1.549431 0.973041 0.010728 -0.004361 -164076.000000 1 0 0
2.162608 19.916095 -1.514321 20.090318 1.462634 1.646244 0.018702 -0.014208 -1073050.000000 1 0 0
9.159408 14.230195 1.836979 17.022564 0.998891 1.462671 0.005383 -0.008012 -660096.000000 1 0 0
8.533708 11.629895 -5.122321 15.307410 0.937761 1.912009 0.012446 -0.005669 247266.000000 1 0 0
10.631308 10.106995 10.225479 17.881177 0.760121 0.962028 0.010683 -0.002750 -201330.000000 1 0 0
-5.133892 15.834895 5.711179 17.598815 -1.257276 1.240291 -0.006504 -0.004200 606198.000000 1 0 0
14.485408 9.129395 -1.907521 17.228219 0.562364 1.681745 0.023939 0.003062 -343017.000000 1 0 0
12.248008 9.605595 7.031379 17.079855 0.665068 1.146503 0.014162 -0.001595 -1376400.000000 1 0 0
3.295908 12.916395 9.597279 16.425713 1.320955 0.946799 0.001184 -0.002027 -1001300.000000 1 0 0
8.568108 12.599495 -2.707221 15.475425 0.973595 1.746638 0.010405 -0.003089 -871433.000000 1 0 0
9.469408 16.912195 2.200879 19.507329 1.060372 1.457732 0.016540 -0.012684 -126869.000000 1 0 0
9.710608 14.214195 -7.536121 18.791816 0.971460 1.983440 0.024424 -0.013147 -1625080.000000 1 0 0
6.471008 11.486995 7.307479 15.073959 1.057774 1.064690 -0.001906 0.001509 -1316450.000000 1 0 0
5.600508 16.871295 -5.616021 18.642585 1.250287 1.876796 0.009604 -0.000984 -1790050.000000 1 0 0
-4.160292 17.250195 -4.638221 18.340947 -1.334142 1.826461 0.020059 -0.001133 426924.000000 1 0 0
-0.274392 18.676695 -0.623721 18.689121 -1.556106 1.604176 0.010952 -0.003951 -558069.000000 1 0 0
6.576708 15.631495 -2.828121 17.192876 1.172544 1.736041 0.003743 -0.001334 967574.000000 1 0 0
-0.852892 20.699195 0.975979 20.739735 -1.529616 1.523721 0.015942 -0.006163 72415.900000 1 0 0
-1.376492 18.782895 4.248279 19.306469 -1.497643 1.348936 0.002370 -0.008228 399625.000000 1 0 0
7.242108 13.767595 -4.407121 16.168411 1.086546 1.846866 0.007794 -0.000750 -981270.000000 1 0 0
-0.971592 11.929795 7.610879 14.184128 -1.489533 1.004421 0.001165 0.006424 438091.000000 1 0 0
7.747308 10.863395 10.959279 17.266729 0.951294 0.883170 0.000023 0.005520 -316432.000000 1 0 0
1.588408 16.137395 -7.360421 17.807704 1.472682 1.996902 0.015561 0.003031 -146833.000000 1 0 0
8.934508 7.273295 14.931179 18.859119 0.683260 0.657174 0.006983 0.012142 348181.000000 1 0 0
11.486608 11.411895 -4.836421 16.898653 0.782135 1.861057 0.022076 -0.004722 -82055.900000 1 0 0
-3.346992 17.054695 4.434579 17.936846 -1.377009 1.320973 -0.003978 -0.001641 -701956.000000 1 0 0
3.959708 15.251595 -6.781521 17.154575 1.316779 1.977211 0.016180 -0.007238 -494120.000000 1 0 0
-4.389592 13.935795 9.504979 17.430419 -1.265647 0.994038 0.003987 -0.008435 -1082080.000000 1 0 0
6.339308 17.884295 0.570879 18.983170 1.230152 1.540719 0.003275 -0.009812 -78814.100000 1 0 0
9.867708 10.690395 -2.041621 14.690964 0.825394 1.710219 0.007642 0.000684 -1026130.000000 1 0 0
7.322508 18.065495 -2.603521 19.666203 1.185703 1.703572 0.006445 -0.003904 184458.000000 1 0 0
3.582608 10.375495 10.401579 15.122130 1.238319 0.812290 -0.004675 0.007190 758872.000000 1 0 0
-0.015492 18.521595 1.960079 18.625027 -1.569960 1.465362 0.010511 -0.010175 110234.000000 1 0 0
-0.874892 17.208495 -7.484121 18.785893 -1.519999 1.980558 0.028476 0.004716 614251.000000 1 0 0
9.929108 8.704095 12.908879 18.465850 0.719749 0.796703 0.007681 0.002026 -571208.000000 1 0 0
3.866908 11.447295 5.429779 13.246737 1.245030 1.148457 -0.002735 0.003183 950269.000000 1 0 0
12.965108 13.875495 8.090879 20.641844 0.819303 1.168030 0.033743 -0.017985 -133303.000000 1 0 0
-0.468292 17.434295 6.706979 18.685757 -1.543942 1.203669 0.002903 -0.001885 -426489.000000 1 0 0
12.094308 13.527895 5.651279 19.005609 0.841291 1.268883 0.021722 -0.010852 -319581.000000 1 0 0
4.887308 14.548995 -4.513721 15.997897 1.246719 1.856825 0.007126 -0.000819 -752375.000000 1 0 0
3.708008 17.600095 4.651679 18.578234 1.363152 1.317720 0.012505 -0.011023 -2571560.000000 1 0 0
7.034108 11.579895 2.035579 13.700957 1.024923 1.421672 0.006024 -0.001016 758629.000000 1 0 0
6.547608 8.645795 11.736479 15.980172 0.922629 0.745955 -0.001584 0.006757 256853.000000 1 0 0
-5.400592 14.905695 1.755179 15.950761 -1.223191 1.460536 -0.000179 0.001791 -180145.000000 1 0 0
6.729608 13.785695 5.969379 16.461060 1.116666 1.199701 0.001702 -0.004005 -466080.000000 1 0 0
5.773908 15.929495 4.925079 17.644921 1.223059 1.287917 0.003950 -0.010157 476433.000000 1 0 0
1.186508 17.959795 4.170679 18.475838 1.504828 1.343097 0.018962 -0.008522 -1270770.000000 1 0 0
7.458908 17.951495 -7.042521 20.675797 1.176997 1.918369 0.007198 0.002647 334158.000000 1 0 0
-2.394292 18.823195 -5.958221 19.888330 -1.444277 1.875053 0.028240 0.002623 -418453.000000 1 0 0
13.601508 10.064895 -4.480121 17.503560 0.637060 1.829632 0.022845 -0.000642 -2471600.000000 1 0 0
-1.685792 18.046195 9.860779 20.633517 -1.477651 1.072533 0.019267 -0.008705 -349725.000000 1 0 0
3.427908 11.805095 -1.672021 12.405904 1.288193 1.705984 0.010272 -0.006123 -724448.000000 1 0 0
4.293608 13.908195 -10.915421 18.193937 1.271367 2.214233 0.025079 -0.019731 752928.000000 1 0 0
11.534508 13.369695 2.321179 17.809590 0.858955 1.440091 0.019098 -0.004805 648047.000000 1 0 0
15.787908 6.407695 -7.187121 18.492466 0.385549 1.969964 0.011337 -0.005166 -45542.000000 1 0 0
2.527308 16.095195 2.868079 16.542928 1.415046 1.396544 0.007255 -0.007124 -20341.400000 1 0 0
13.423608 10.665895 3.589079 17.516736 0.671417 1.364441 0.014470 0.001741 -754712.000000 1 0 0
-4.949292 19.500495 -5.868321 20.957146 -1.322241 1.854606 0.017418 -0.004051 576810.000000 1 0 0
5.394508 11.957295 0.054879 13.117950 1.146988 1.566613 0.007755 -0.003252 -46514.100000 1 0 0
4.797208 15.361195 9.680079 18.779868 1.268099 1.029264 0.012018 -0.003560 -65224.100000 1 0 0
7.765508 9.390295 13.919179 18.499306 0.879824 0.719074 0.000215 0.001743 -2571530.000000 1 0 0
-4.987992 13.718995 6.939979 16.163360 -1.222073 1.127007 -0.001989 -0.000455 -2418320.000000 1 0 0
-4.594792 17.087395 0.613179 17.705004 -1.308111 1.536156 0.008777 -0.003549 -2156110.000000 1 0 0
-0.697092 16.486095 3.575279 16.883716 -1.528538 1.357422 0.008077 -0.004838 -1667370.000000 1 0 0
7.958808 16.762795 -4.811321 19.169839 1.127519 1.824493 0.008327 -0.004410 344138.000000 1 0 0
3.146008 16.453995 -4.629021 17.379849 1.381876 1.840394 0.009033 0.001460 1414130.000000 1 0 0
9.637908 14.423695 8.069479 19.132400 0.981733 1.135399 0.022952 -0.010939 166382.000000 1 0 0
12.790008 10.982995 9.129279 19.171704 0.709533 1.074485 0.032696 -0.014963 551717.000000 1 0 0
3.785608 12.324595 12.183179 17.738555 1.272785 0.813693 0.003621 0.000160 644739.000000 1 0 0
-3.313392 19.157295 5.990179 20.343617 -1.399533 1.271916 0.004976 -0.008243 105401.000000 1 0 0
-2.807792 15.785995 10.170179 18.987203 -1.394771 1.005539 0.008371 -0.008016 -712943.000000 1 0 0
2.008908 14.222195 7.637179 16.267546 1.430473 1.082102 0.005315 0.000191 -130729.000000 1 0 0
4.583408 17.186395 7.892079 19.459309 1.310174 1.153196 0.028028 -0.011847 149508.000000 1 0 0
-1.817892 13.498995 9.382579 16.539661 -1.436933 0.967600 0.003544 -0.003189 63470.100000 1 0 0
5.753708 17.696895 3.019179 18.852074 1.256451 1.409953 0.001916 -0.018617 384583.000000 1 0 0
7.393508 15.272395 -6.849521 18.298249 1.119942 1.954467 0.013282 -0.005246 -301930.000000 1 0 0
10.980708 7.605795 9.452179 16.363611 0.605776 0.954969 0.007613 -0.000015 253344.000000 1 0 0
9.151608 16.281595 -2.577321 18.854305 1.058724 1.707922 0.013287 -0.011098 -715909.000000 1 0 0
14.825908 11.242295 -6.457921 19.695215 0.648784 1.904869 0.057312 -0.005552 626598.000000 1 0 0
11.008408 6.424095 16.141479 20.566998 0.528245 0.668384 0.012017 0.003109 -563136.000000 1 0 0
8.566608 8.496595 10.255979 15.835530 0.781295 0.866292 0.000382 0.004884 -800294.000000 1 0 0
16.453008 9.277395 4.569579 19.433285 0.513431 1.333432 0.033948 -0.007927 88315.400000 1 0 0
-3.357992 14.305695 4.640279 15.409776 -1.340239 1.264923 -0.003562 0.000308 -885166.000000 1 0 0
4.924008 14.511095 12.923279 20.045670 1.243661 0.870176 0.012328 0.002700 -699907.000000 1 0 0
16.209008 10.347495 -4.498721 19.749458 0.568163 1.800603 0.037948 -0.007456 466841.000000 1 0 0
14.642308 13.951195 6.044779 21.108585 0.761233 1.280365 0.031607 -0.008424 -1033450.000000 1 0 0
6.252008 9.461995 9.294579 14.663088 0.986901 0.884242 -0.004167 0.005424 477681.000000 1 0 0
10.448008 12.119595 8.601379 18.166705 0.859333 1.077571 0.017635 -0.011798 -361071.000000 1 0 0
7.933908 11.615695 -0.415621 14.072811 0.971548 1.600334 0.003405 0.000245 83565.500000 1 0 0
7.578808 13.340895 -8.682921 17.629830 1.054172 2.085771 0.018457 -0.011085 -590604.000000 1 0 0
2.807808 15.232195 -2.405221 15.674458 1.388509 1.724853 0.008169 -0.005614 339266.000000 1 0 0
12.251008 13.508795 -7.674321 19.785599 0.834187 1.969120 0.025318 -0.016951 -269645.000000 1 0 0
-8.013092 14.712995 9.841879 19.430503 -1.072088 1.039656 0.012668 -0.016736 142180.000000 1 0 0
11.512108 9.639095 2.242279 15.181192 0.697075 1.422553 0.008726 0.001947 -3146030.000000 1 0 0
12.060908 8.752895 4.580079 15.590247 0.627783 1.272619 0.006676 0.001275 72962.500000 1 0 0
14.071808 8.011795 6.120479 17.310832 0.517578 1.209418 0.017677 -0.003279 -1139540.000000 1 0 0
16.297308 7.353595 7.305279 19.314365 0.423864 1.182912 0.057774 -0.010646 543167.000000 1 0 0
13.536408 8.288595 2.456679 16.061458 0.549428 1.417239 0.004252 0.001245 -1920660.000000 1 0 0
-4.277992 17.459795 -7.113621 19.332595 -1.330511 1.947610 0.018344 -0.001435 287760.000000 1 0 0
3.110108 19.536795 -3.861121 20.156075 1.412929 1.763549 0.009078 -0.002395 527429.000000 1 0 0
-0.144892 14.852395 6.220979 16.103267 -1.561041 1.174160 0.008504 0.000766 -383268.000000 1 0 0
6.882208 15.920895 8.153479 19.165566 1.162780 1.131367 0.022517 -0.014853 -1422320.000000 1 0 0
12.841608 15.195795 -2.155621 20.011641 0.869168 1.678724 0.037190 -0.007360 289960.000000 1 0 0
12.566108 15.501295 4.049879 20.361698 0.889596 1.370564 0.029369 -0.009805 -669235.000000 1 0 0
3.014608 18.083595 1.211079 18.373105 1.405611 1.504833 0.013253 -0.013954 -429421.000000 1 0 0
10.411008 14.483895 -1.245921 17.880845 0.947565 1.640532 0.014465 -0.001324 -1372540.000000 1 0 0
-6.428592 15.595395 -0.501421 16.875857 -1.179808 1.600513 -0.000880 -0.003134 -758372.000000 1 0 0
-3.913892 15.875695 -2.527721 16.545259 -1.329083 1.724173 0.016309 -0.001904 -940789.000000 1 0 0
-6.958392 17.035695 1.602479 18.471655 -1.183019 1.483934 0.001411 -0.001304 535841.000000 1 0 0
0.100308 19.491895 -6.677021 20.604044 1.565650 1.900818 0.034026 0.001929 -81938.100000 1 0 0
4.754908 14.795795 7.083179 17.079114 1.259852 1.143153 0.009121 -0.005219 -541892.000000 1 0 0
8.743308 12.372195 6.820979 16.614524 0.955594 1.147747 0.009189 -0.006638 -627061.000000 1 0 0
-7.771692 17.439595 -5.613621 19.901040 -1.151578 1.856754 0.026401 -0.011101 396636.000000 1 0 0
-7.799492 17.704095 -1.219921 19.384407 -1.155831 1.633771 0.011209 -0.007520 -133817.000000 1 0 0
-13.963992 -9.070505 9.130179 18.990190 0.576069 1.069248 0.017674 -0.014080 1369140.000000 1 0 0
-12.661292 -12.946305 7.692279 19.674509 0.796528 1.169104 0.017618 -0.004366 -65815.300000 1 0 0
-3.888992 -14.959305 12.573579 19.924858 1.316455 0.887890 0.012064 -0.007743 97113.500000 1 0 0
-1.849592 -14.154405 15.296879 20.922780 1.440860 0.750847 0.018112 0.001093 -1287500.000000 1 0 0
-6.931592 -13.726505 12.911779 20.079292 1.103174 0.872336 0.022787 -0.008913 50279.000000 1 0 0
-10.112192 -11.420905 8.960879 17.691548 0.846100 1.039668 0.022020 -0.011152 187822.000000 1 0 0
-10.814692 -10.608005 11.349879 18.929002 0.775750 0.927792 0.035849 -0.015610 490070.000000 1 0 0
-5.906892 -12.256605 10.902379 17.434954 1.121705 0.895258 0.020606 -0.006516 813086.000000 1 0 0
-12.568492 -10.364905 7.385679 17.887049 0.689606 1.145153 0.009632 -0.001918 53786.800000 1 0 0
-7.732192 -11.253105 12.608779 18.584953 0.968770 0.825159 0.027973 -0.010151 251933.000000 1 0 0
-14.869092 -11.681005 7.396579 20.303822 0.665892 1.197921 0.008536 0.000441 -537569.000000 1 0 0
-11.283592 -9.045605 9.224779 17.153396 0.675752 1.002993 0.014880 -0.007349 282808.000000 1 0 0
-5.330392 -11.741405 13.382779 18.584199 1.144636 0.766827 0.027974 -0.012643 -110708.000000 1 0 0
4.255808 -12.396405 14.681079 19.680367 -1.240094 0.728797 0.005742 0.003113 -1569340.000000 1 0 0
6.808808 -12.623905 14.108379 20.118877 -1.076160 0.793646 0.016491 0.003017 -406736.000000 1 0 0
6.653208 -8.484605 16.110779 19.385843 -0.905795 0.589787 0.008260 -0.000749 -486719.000000 1 0 0
0.675508 -1.687905 14.406979 14.521239 -1.190113 0.125529 0.011904 0.000132 -2864750.000000 1 0 0
-0.111392 -6.368305 15.663479 16.908942 1.553307 0.386211 0.013884 -0.004017 -168449.000000 1 0 0
-1.523792 -4.623705 18.402679 19.035735 1.252445 0.258620 0.013831 -0.020164 -363303.000000 1 0 0
-5.140192 12.483295 13.047179 18.774534 -1.180188 0.802459 0.010263 -0.015313 -969070.000000 1 0 0
-3.997292 8.814495 11.526379 15.050949 -1.145043 0.698474 -0.001492 -0.004193 -522559.000000 1 0 0
-0.609592 -3.929905 15.104979 15.619736 1.416907 0.257442 0.011161 -0.003157 -294709.000000 1 0 0
-4.264892 9.296595 14.104879 17.423077 -1.140683 0.627408 0.001987 -0.006935 331155.000000 1 0 0
-13.471292 -2.493305 16.974179 21.813185 0.183012 0.679063 0.016897 0.008178 406513.000000 1 0 0
-0.276292 0.898595 17.307779 17.333293 -1.272499 0.054264 0.019294 -0.009010 -378838.000000 1 0 0
-3.500092 -7.338205 15.463779 17.470786 1.125743 0.484040 0.015575 -0.010185 181666.000000 1 0 0
-7.398892 5.490395 12.592679 15.603320 -0.638398 0.631655 0.001211 -0.002438 -1751390.000000 1 0 0
-9.638692 10.071595 13.494479 19.402123 -0.807358 0.801659 0.009905 -0.022627 -755612.000000 1 0 0
-5.585192 2.267095 11.135079 12.661915 -0.385592 0.496164 0.004944 0.000765 -1064980.000000 1 0 0
-7.207892 -7.449605 16.951379 19.869564 0.801887 0.548835 0.027394 -0.009600 -154282.000000 1 0 0
-4.866692 2.947695 18.450179 19.307582 -0.544591 0.299133 0.010395 -0.011698 -960937.000000 1 0 0
1.024308 -8.370505 16.763879 18.765453 -1.449031 0.466079 0.007782 0.000305 682654.000000 1 0 0
-14.800092 -3.815505 13.785279 20.582389 0.252309 0.836910 0.006303 0.000129 23233.100000 1 0 0
-14.371892 2.273195 13.002579 19.513733 -0.156870 0.841521 0.002985 0.000444 -1138670.000000 1 0 0
-5.512692 0.988195 16.008979 16.960357 -0.177374 0.336531 0.011161 -0.000181 496901.000000 1 0 0
4.504108 5.734795 15.150779 16.814309 0.905021 0.448578 0.001393 -0.000906 504760.000000 1 0 0
-1.033692 -12.038205 14.015179 18.504382 1.485139 0.711478 0.001975 -0.004006 -69057.800000 1 0 0
-5.879892 -3.949505 16.745379 18.181844 0.591477 0.400171 0.020769 -0.010031 -405635.000000 1 0 0
-12.926492 -1.517605 9.918379 16.363727 0.116868 0.919623 -0.001169 0.005426 -874575.000000 1 0 0
-14.211792 10.539295 10.275079 20.460426 -0.638096 1.044664 0.003874 -0.010348 253983.000000 1 0 0
-3.659992 -3.232005 17.804179 18.461587 0.723379 0.267667 0.013122 -0.010995 -1094600.000000 1 0 0
-7.753192 9.406795 11.871779 17.015843 -0.881465 0.798629 -0.007347 -0.011925 -161457.000000 1 0 0
-4.107892 10.772595 16.072479 19.779994 -1.206489 0.622261 0.006957 -0.012929 189545.000000 1 0 0
-12.371192 12.927695 8.348279 19.745011 -0.807392 1.134259 0.007850 -0.014535 -170671.000000 1 0 0
-12.562992 3.325395 10.542079 16.733871 -0.258763 0.889263 0.000563 0.001951 656515.000000 1 0 0
-10.146692 -3.492205 13.728579 17.424831 0.331473 0.663446 0.013818 0.001512 -1309700.000000 1 0 0
-4.385592 -6.461205 17.834079 19.468821 0.974470 0.412721 0.021307 -0.008520 -216753.000000 1 0 0
0.826908 -3.576705 18.266579 18.631815 -1.343595 0.198329 0.013730 -0.006539 -799702.000000 1 0 0
-6.067492 1.827295 13.608279 15.011287 -0.292522 0.435791 0.009271 0.001736 -656494.000000 1 0 0
-10.371492 8.802595 10.423179 17.137566 -0.703756 0.916997 0.005941 -0.011500 -382025.000000 1 0 0
4.609808 2.420195 17.294579 18.061289 0.483455 0.292418 0.022662 -0.014302 -56621.100000 1 0 0
0.551508 -5.437005 13.355979 14.430779 -1.469706 0.388389 0.007045 0.001682 -1674630.000000 1 0 0
-4.417892 5.708095 20.546779 21.777747 -0.912130 0.337831 0.036959 -0.017843 -274928.000000 1 0 0
-10.677892 10.957995 9.082779 17.793030 -0.798344 1.035067 0.003684 -0.011818 317216.000000 1 0 0
0.629008 4.135895 12.937979 13.597521 1.419868 0.312736 0.007264 -0.001580 -2381950.000000 1 0 0
-3.096792 7.169095 13.259079 15.387957 -1.163042 0.532278 0.004213 -0.002734 -1683880.000000 1 0 0
0.766908 8.928895 14.048479 16.663525 1.485116 0.567834 -0.001345 -0.001060 67986.700000 1 0 0
-4.315592 -6.573805 13.188879 15.355318 0.989877 0.537653 0.019972 -0.002440 107132.000000 1 0 0
-5.010692 8.263595 16.291879 18.942528 -1.025715 0.535392 0.010955 -0.010261 -62363.900000 1 0 0
1.772208 -10.613205 15.868679 19.172789 -1.405341 0.595859 0.002662 0.000734 88304.700000 1 0 0
-15.263092 -1.227505 14.341779 20.979880 0.080250 0.818117 0.016366 0.000690 236940.000000 1 0 0
-13.657592 -5.111705 8.455079 16.856682 0.358136 1.045365 0.012201 -0.006201 -448221.000000 1 0 0
-14.153192 -1.888705 12.158779 18.754092 0.132664 0.865412 0.005899 0.002714 452393.000000 1 0 0
9.307108 1.077295 16.919879 19.340764 0.115237 0.505712 0.016574 -0.007186 -560178.000000 1 0 0
5.052408 -6.766305 17.087679 19.060391 -0.929410 0.458986 0.012119 0.000168 156378.000000 1 0 0
-6.189992 -2.644405 10.907579 12.817339 0.403738 0.552906 0.006086 0.001437 322084.000000 1 0 0
0.578408 -6.228705 18.145379 19.193387 -1.478200 0.331984 0.015798 -0.010844 -395015.000000 1 0 0
-8.290792 11.984495 12.461279 19.174171 -0.965600 0.863344 0.002714 -0.011622 72270.500000 1 0 0
-6.667492 -5.772305 14.958779 17.364908 0.713560 0.532703 0.026111 -0.007378 -459763.000000 1 0 0
-4.266492 -8.969405 17.385179 20.022429 1.126800 0.519061 0.027238 -0.006736 -22804.000000 1 0 0
2.472708 -6.261805 16.381479 17.710939 -1.194705 0.389930 0.007400 -0.002872 678546.000000 1 0 0
2.202008 5.240195 16.250879 17.216259 1.172986 0.336469 0.008263 -0.004671 -1377580.000000 1 0 0
1.012108 -8.853805 14.085579 16.667867 -1.456977 0.564093 0.003962 -0.003287 -271745.000000 1 0 0
-9.936492 -2.823205 11.193279 15.231345 0.276830 0.745300 -0.001855 0.002483 -137653.000000 1 0 0
-1.147692 10.142195 12.378179 16.043710 -1.458116 0.689556 -0.006801 0.002460 -373416.000000 1 0 0
-12.362692 -3.651605 11.354079 17.178053 0.287206 0.848693 0.005091 0.003072 -1749720.000000 1 0 0
-1.991192 6.580295 20.244479 21.379992 -1.276957 0.327377 0.015662 -0.007180 -293108.000000 1 0 0
0.691708 -13.483405 15.609579 20.638305 -1.519541 0.713096 0.004862 -0.007291 301942.000000 1 0 0
4.168808 -8.680105 15.428379 18.186756 -1.123056 0.557972 0.008391 0.002983 -576674.000000 1 0 0
4.508608 -4.511205 16.287379 17.491634 -0.785686 0.373235 0.014454 -0.001784 -503137.000000 1 0 0
8.061208 1.461095 14.655079 16.789557 0.179304 0.509745 0.005162 0.001624 -113280.000000 1 0 0
-6.392492 -0.083505 11.830779 13.447612 0.013062 0.495422 0.005957 0.000546 201746.000000 1 0 0
-3.332392 -10.758205 19.021079 22.105322 1.270416 0.534595 0.028245 -0.001475 619381.000000 1 0 0
3.189808 -1.491105 13.685779 14.131484 -0.437278 0.251821 0.004925 0.002015 334725.000000 1 0 0
-2.466992 8.733395 15.882279 18.292212 -1.295491 0.519125 0.003161 -0.001471 -1762480.000000 1 0 0
-3.326892 4.042695 14.802079 15.700737 -0.882224 0.339974 0.005474 -0.003256 -503472.000000 1 0 0
-4.836792 -8.709105 19.994279 22.338628 1.063838 0.462244 0.051133 -0.014149 -245616.000000 1 0 0
-5.845592 -2.817005 19.059779 20.134092 0.449065 0.328144 0.023124 -0.016908 -1245520.000000 1 0 0
-6.662592 -8.681805 11.120779 15.602423 0.916239 0.777371 0.019598 -0.009711 44462.800000 1 0 0
-11.738492 2.516295 12.765679 17.523884 -0.211167 0.754706 0.013303 -0.002255 -41861.700000 1 0 0
-11.664792 -7.595705 11.770179 18.229077 0.577194 0.868881 0.012666 -0.006252 892837.000000 1 0 0
-11.159692 -7.372805 15.518979 20.487452 0.583835 0.711341 0.044714 -0.019566 542218.000000 1 0 0
-0.027092 5.561895 17.609779 18.467261 -1.565925 0.305929 0.011373 -0.011929 205011.000000 1 0 0
-2.174092 -0.125505 13.222679 13.400809 0.057664 0.163230 0.010698 0.002855 124967.000000 1 0 0
-5.901392 -10.608305 18.609179 22.218554 1.063130 0.578010 0.040259 0.001958 -8337.270000 1 0 0
0.242108 2.631995 19.148279 19.329838 1.479068 0.137167 0.024877 -0.019424 -199852.000000 1 0 0
-0.407392 11.130895 14.747479 18.481097 -1.534213 0.646866 -0.003179 0.007421 345064.000000 1 0 0
-12.882992 -2.260505 14.411679 19.462216 0.173696 0.736989 0.014649 0.004216 -1391170.000000 1 0 0
-13.529792 8.583095 11.763279 19.877111 -0.565320 0.937506 0.004703 -0.016420 370505.000000 1 0 0
-18.187192 -0.396505 7.010279 19.495517 0.021798 1.202974 0.025740 -0.009551 -331656.000000 1 0 0
-2.048392 -7.703505 17.558279 19.282974 1.310906 0.426163 0.022310 -0.016152 -1258730.000000 1 0 0
5.717008 2.598995 14.574479 15.869921 0.426679 0.406852 0.008708 -0.004080 -2870680.000000 1 0 0
-14.084792 -6.742905 11.034879 19.121106 0.446493 0.955617 0.011281 -0.012713 484052.000000 1 0 0
3.388908 7.672695 16.490179 18.500837 1.154879 0.470546 0.005295 -0.003569 71479.600000 1 0 0
1.051508 2.135495 14.574579 14.767680 1.113251 0.161892 0.014690 -0.005882 -2343480.000000 1 0 0
-14.338492 0.690795 9.760679 17.359159 -0.048140 0.973658 -0.000530 0.002359 -2035940.000000 1 0 0
-9.763892 -5.181505 15.642179 19.153573 0.487890 0.615176 0.028013 -0.002857 186025.000000 1 0 0
-2.654592 0.056695 18.214879 18.407387 -0.021354 0.144751 0.010166 -0.009046 69576.100000 1 0 0
6.966908 3.469495 17.417179 19.077037 0.462043 0.420238 0.028221 -0.011979 -1030090.000000 1 0 0
-4.131892 -0.871905 14.806379 15.396806 0.207967 0.277831 0.013930 0.002873 269814.000000 1 0 0
4.934408 -9.259405 17.898279 20.746888 -1.081170 0.530218 0.011687 0.003804 -354969.000000 1 0 0
1.976508 6.870195 13.459579 15.240290 1.290668 0.488244 0.002537 0.001718 -1654460.000000 1 0 0
-3.938892 -0.719905 20.294779 20.686015 0.180773 0.194797 0.013656 -0.016203 278254.000000 1 0 0
-10.700092 1.694095 16.280079 19.555125 -0.157022 0.587151 0.020781 -0.004190 69612.800000 1 0 0
-3.752992 7.143095 18.419979 20.109808 -1.087035 0.412878 0.018024 -0.009121 178655.000000 1 0 0
-12.819092 1.171195 14.714479 19.550364 -0.091110 0.718727 0.022925 -0.000854 786681.000000 1 0 0
-16.133192 -4.529805 8.427679 18.756993 0.273728 1.104805 0.021066 -0.013941 -1864060.000000 1 0 0
-2.282092 0.743095 15.734979 15.916963 -0.314793 0.151362 0.010514 0.001330 197216.000000 1 0 0
-13.830792 -8.901205 12.386379 20.589916 0.571848 0.925325 0.009370 -0.015610 583216.000000 1 0 0
6.146508 -3.235405 14.685879 16.245691 -0.484529 0.441794 0.011164 -0.001945 686111.000000 1 0 0
-15.789692 0.428195 7.626279 17.540178 -0.027112 1.120992 0.006944 -0.003857 406693.000000 1 0 0
-14.056492 6.037395 12.416679 19.703021 -0.405684 0.888996 0.012147 -0.011863 293481.000000 1 0 0
0.350208 9.458395 16.598079 19.107070 1.533787 0.518249 -0.000849 -0.008680 59394.000000 1 0 0
-10.410992 -5.473005 10.877779 16.020881 0.483992 0.824431 0.010743 -0.003597 176976.000000 1 0 0
-3.142092 -10.918805 15.163579 18.948013 1.290598 0.643046 0.018006 -0.009262 -950976.000000 1 0 0
-3.570492 2.767995 12.622579 13.406704 -0.659461 0.343705 0.004532 0.000855 -2191950.000000 1 0 0
-12.468692 -7.780705 7.289379 16.405569 0.557894 1.110377 0.010764 -0.007026 -482268.000000 1 0 0
-8.219892 -1.875005 13.179079 15.645140 0.224269 0.569120 0.007208 0.002649 -643840.000000 1 0 0
-9.753392 6.583495 9.604779 15.189564 -0.593747 0.886242 -0.004109 -0.002222 -520942.000000 1 0 0
-18.007392 -3.333705 6.604179 19.467792 0.183057 1.224692 0.022300 -0.015930 271332.000000 1 0 0
-1.474092 0.100995 20.658779 20.711550 -0.068406 0.071400 0.013336 -0.010275 -49090.900000 1 0 0
-3.035392 2.584795 20.113879 20.505192 -0.705395 0.195676 0.022707 -0.013985 -622166.000000 1 0 0
-3.709992 11.321795 11.191779 16.346345 -1.254137 0.816652 0.000464 -0.005564 -861337.000000 1 0 0
-4.141792 -4.783605 14.947979 16.232049 0.857183 0.400431 0.017264 -0.006476 1070600.000000 1 0 0
-0.249692 -14.337005 13.362779 19.600407 1.553382 0.820630 0.012806 -0.008271 263549.000000 1 0 0
-12.067492 0.574495 8.412679 14.721670 -0.047571 0.962526 0.000077 0.001705 -171883.000000 1 0 0
-7.830792 1.913695 15.480179 17.453352 -0.239683 0.480106 0.010704 0.003046 -1281030.000000 1 0 0
3.591508 -2.236005 18.489679 18.967522 -0.556858 0.224941 0.021353 -0.010484 -400374.000000 1 0 0
-2.184192 4.834195 12.544379 13.619897 -1.146429 0.400071 -0.002207 0.001642 -767733.000000 1 0 0
-10.358092 -6.131705 13.352679 17.977261 0.534496 0.733622 0.009889 -0.008546 145485.000000 1 0 0
2.381608 -3.787905 14.323779 15.006363 -1.009512 0.302772 0.003582 0.001728 -181608.000000 1 0 0
6.780408 0.951795 16.941879 18.273126 0.139463 0.384070 0.017567 -0.010646 -2122030.000000 1 0 0
-1.937492 -5.889805 13.968879 15.283104 1.252990 0.417740 0.008397 -0.001139 -2485320.000000 1 0 0
-13.094092 3.767495 14.716179 20.055303 -0.280157 0.746927 0.018885 0.004940 6672.480000 1 0 0
-13.408192 -6.521205 13.460179 20.086865 0.452676 0.836455 0.010593 -0.012028 -190473.000000 1 0 0
-9.522792 6.857095 12.093079 16.850694 -0.624070 0.770359 0.003587 -0.006185 -381735.000000 1 0 0
-1.128092 -2.529205 12.869179 13.163786 1.151252 0.211962 0.008519 0.003183 96685.000000 1 0 0
0.277108 6.729995 15.359779 16.771775 1.529644 0.413273 0.008494 -0.004897 376758.000000 1 0 0
-16.531892 -0.673905 9.834679 19.247819 0.040741 1.034506 0.013218 0.000353 -385486.000000 1 0 0
-1.343292 2.717895 13.833579 14.161896 -1.111767 0.215746 0.005448 -0.000867 -1150770.000000 1 0 0
-11.121492 -3.155405 16.146879 19.858648 0.276456 0.621355 0.018364 -0.005372 -2090920.000000 1 0 0
-5.328892 -1.325405 17.122679 17.981656 0.243774 0.310338 0.021416 0.002762 390625.000000 1 0 0
-11.852492 6.715995 11.130279 17.591739 -0.515522 0.885762 0.007675 -0.004766 -2240660.000000 1 0 0
-2.855392 4.698795 18.728479 19.518911 -1.024744 0.285559 0.017015 -0.008220 -30204.300000 1 0 0
5.060708 -1.965505 16.546779 17.414646 -0.370454 0.317033 0.017114 -0.002101 -1169600.000000 1 0 0
-8.034792 -4.124005 12.188379 15.169769 0.474206 0.637704 0.012025 -0.000310 -408501.000000 1 0 0
-11.821592 -0.686205 16.296679 20.144545 0.057982 0.628369 0.038753 0.003066 418979.000000 1 0 0
2.097108 2.162995 17.442879 17.701143 0.800863 0.171031 0.018846 -0.014363 -1621860.000000 1 0 0
-8.857992 -7.434205 11.745279 16.482810 0.698229 0.777631 0.012966 -0.009279 285433.000000 1 0 0
-7.259192 6.946295 14.835279 17.917377 -0.763375 0.595296 0.004560 -0.006143 -111275.000000 1 0 0
-5.809492 3.596095 15.647779 17.074399 -0.554275 0.411687 0.012176 -0.002992 64306.300000 1 0 0
-9.382192 4.322295 11.511979 15.467173 -0.431709 0.731333 0.002235 -0.001952 -414180.000000 1 0 0
-10.515892 0.073895 14.195879 17.666704 -0.007027 0.637580 0.017002 0.003149 -617414.000000 1 0 0
8.106508 -0.861505 15.732079 17.718803 -0.105876 0.478091 0.016955 -0.009014 15516.200000 1 0 0
-8.615992 -7.513905 14.822379 18.718895 0.717178 0.656980 0.033791 -0.008196 -2247120.000000 1 0 0
-0.160292 4.228995 15.495279 16.062807 -1.532911 0.266615 0.012258 -0.010177 -30136.600000 1 0 0
-8.164692 3.059595 9.556779 12.936589 -0.358538 0.739597 0.001099 0.002249 -655822.000000 1 0 0
-1.896492 -9.717805 13.200479 16.501063 1.378062 0.643539 -0.000433 -0.004721 306217.000000 1 0 0
-5.930292 10.348395 10.497979 15.889154 -1.050418 0.849044 0.004179 -0.009515 -4021030.000000 1 0 0
-8.561992 -2.850205 15.643979 18.060052 0.321352 0.523209 0.020064 -0.004403 -887424.000000 1 0 0
4.314208 5.501495 17.697879 19.028762 0.905771 0.376222 0.013856 -0.012570 153449.000000 1 0 0
-6.870892 -0.950805 15.144279 16.657202 0.137508 0.429502 0.010734 0.002856 256603.000000 1 0 0
-0.754092 -9.970105 15.521679 18.463320 1.495305 0.572265 0.000193 -0.004751 -446363.000000 1 0 0
-4.238392 5.779595 16.268179 17.776989 -0.938045 0.414977 0.009698 -0.004503 566797.000000 1 0 0
3.649008 0.050195 17.435279 17.813106 0.013755 0.206330 0.020687 -0.011279 -727047.000000 1 0 0
1.200708 0.308395 19.258879 19.298737 0.251410 0.064281 0.018109 -0.012579 -318612.000000 1 0 0
-6.224092 6.606495 17.788479 19.970355 -0.815193 0.471816 0.001802 -0.005538 -523020.000000 1 0 0
-12.221992 0.703895 11.072679 16.506871 -0.057529 0.835520 0.007980 0.002249 -699440.000000 1 0 0
-5.375392 5.301795 13.907579 15.824811 -0.778505 0.497357 0.000668 -0.000479 -1167210.000000 1 0 0
-8.865392 -9.466205 10.148579 16.468087 0.818161 0.906815 0.022793 -0.005557 -1159880.000000 1 0 0
6.927208 -3.713205 17.145379 18.861022 -0.492056 0.429827 0.018872 -0.004035 521612.000000 1 0 0
-16.498692 1.971495 9.610379 19.195130 -0.118930 1.046427 0.001426 -0.001806 253825.000000 1 0 0
-4.178592 -9.386305 11.679479 15.555501 1.151958 0.721484 0.012269 -0.008337 1370260.000000 1 0 0
-11.119292 -3.787105 9.168079 14.900822 0.328266 0.908064 0.005165 0.002834 -529631.000000 1 0 0
3.578608 -5.276605 18.591379 19.654221 -0.974850 0.330368 0.013561 -0.009541 -30692.800000 1 0 0
2.434408 -1.857505 16.149479 16.437225 -0.651783 0.187387 0.015601 -0.004717 -12759.200000 1 0 0
-3.359992 -4.199805 20.220079 20.923181 0.896034 0.259976 0.014148 -0.018034 -757822.000000 1 0 0
-6.286192 -3.330905 14.363079 16.028387 0.487262 0.459887 0.015507 -0.000029 852823.000000 1 0 0
-9.565892 5.077495 14.009079 17.707104 -0.487976 0.658100 0.017193 -0.005836 81578.500000 1 0 0
-5.914992 -5.233305 11.688979 14.106979 0.724327 0.594202 0.013880 -0.002268 -668894.000000 1 0 0
6.266108 1.794395 19.312779 20.383018 0.278901 0.325492 0.037270 -0.019759 -26375.900000 1 0 0
-2.651692 11.870395 13.486679 18.161175 -1.351018 0.733836 0.003378 -0.011035 -314456.000000 1 0 0
3.420908 1.373495 15.269479 15.708154 0.381799 0.236886 0.017541 -0.005045 -630006.000000 1 0 0
-5.612792 7.476195 12.804779 15.854315 -0.926812 0.630636 -0.008116 -0.006808 -1434540.000000 1 0 0
-1.787992 -1.738805 15.242379 15.445080 0.771453 0.162190 0.013537 0.001939 -904464.000000 1 0 0
-7.203592 10.419495 14.275779 19.085478 -0.965895 0.725765 0.017534 -0.019953 38430.800000 1 0 0
-10.167192 2.069795 10.703179 14.906840 -0.200831 0.769865 0.000530 0.002175 -1524790.000000 1 0 0
-13.647392 5.260695 9.167479 17.261775 -0.367920 1.010915 0.001363 -0.002703 -763315.000000 1 0 0
0.323708 -4.970305 20.288979 20.891420 -1.505760 0.240734 0.021440 -0.017034 -34437.900000 1 0 0
-14.351992 -2.688205 7.706879 16.510667 0.185160 1.085148 0.004214 -0.003333 329041.000000 1 0 0
-2.371692 2.522895 17.571979 17.909896 -0.816280 0.194562 0.005640 -0.007924 222113.000000 1 0 0
-6.261692 -8.374705 14.667879 18.013638 0.928775 0.619334 0.025371 -0.008208 -219314.000000 1 0 0
-8.028092 2.113295 12.026979 14.613846 -0.257398 0.604150 0.000856 0.002338 233529.000000 1 0 0
-14.668992 -3.430305 10.183479 18.183772 0.229719 0.976373 0.011526 -0.003938 57843.900000 1 0 0
-0.483392 6.928595 12.795379 14.558874 -1.501142 0.497305 0.001213 -0.001816 -17612.000000 1 0 0
-1.932692 -2.162405 19.547379 19.761360 0.841434 0.147294 0.012599 -0.010173 -141776.000000 1 0 0
-12.627092 10.401695 7.547379 18.016704 -0.689062 1.138552 -0.001558 -0.011019 -903393.000000 1 0 0
-19.506892 2.498295 6.729779 20.785818 -0.127379 1.241087 0.018053 -0.008525 276780.000000 1 0 0
-16.065892 8.500695 6.601179 19.337794 -0.486667 1.222431 0.006998 -0.008636 380069.000000 1 0 0
-12.209992 7.514395 13.683979 19.819216 -0.551688 0.808699 0.017209 -0.011131 -123703.000000 1 0 0
-15.926892 8.510895 10.546779 20.912574 -0.490766 1.042194 0.012393 -0.005808 1884320.000000 1 0 0
2.204208 10.728495 15.184379 18.722300 1.368162 0.624883 0.003523 -0.000960 95889.700000 1 0 0
2.341708 14.582095 12.412179 19.292052 1.411568 0.871887 0.001573 0.003018 -86062.300000 1 0 0
-3.204892 13.671995 11.715679 18.288027 -1.340541 0.875491 0.000211 -0.004080 198373.000000 1 0 0
9.054008 4.891695 15.748679 18.812885 0.495350 0.578796 0.010207 0.006044 -661343.000000 1 0 0
-0.351292 12.691995 12.669579 17.936788 -1.543125 0.786473 -0.007710 0.001403 -494195.000000 1 0 0
3.331608 13.338295 14.526479 20.000708 1.326027 0.757875 -0.007018 0.002579 -144351.000000 1 0 0
-3.012092 -4.107805 -13.752021 14.665089 0.938095 2.786858 0.006057 -0.006587 -57052.400000 1 0 0
6.019508 -11.521605 16.226479 20.791356 -1.089347 0.675421 0.009528 -0.001448 42844.500000 1 0 0
7.566908 -13.570605 7.341379 17.184740 -1.062140 1.129399 -0.002591 -0.000407 -208287.000000 1 0 0
-0.147292 15.611495 1.187679 15.657300 -1.561362 1.494869 0.006952 -0.006980 -1707680.000000 1 0 0
-13.559392 8.295695 9.173979 18.353135 -0.549054 1.047360 0.000282 -0.006144 663117.000000 1 0 0
-15.558792 -9.707705 4.931979 18.990523 0.557835 1.308077 0.009015 -0.002153 62617.500000 1 0 0
9.341608 -11.004705 11.129879 18.227545 -0.866956 0.913969 -0.000926 -0.004075 11830.800000 1 0 0
-5.712792 -10.310205 -16.999221 20.685981 1.064818 2.535315 0.014445 -0.002009 -72566.900000 1 0 0
-1.994592 -12.563305 -14.763221 19.487630 1.413347 2.430377 0.002017 0.001637 -134089.000000 1 0 0
5.232208 -15.378905 -13.027121 20.822887 -1.242861 2.246717 -0.015739 0.001811 100124.000000 1 0 0
2.643708 -11.909505 -16.684221 20.668544 -1.352355 2.510236 0.001596 0.004009 134670.000000 1 0 0
0.421608 -14.551205 -14.202321 20.337680 -1.541830 2.343852 0.003627 0.017113 151080.000000 1 0 0
-6.892492 -6.066005 -14.647721 17.287527 0.721705 2.581677 0.020584 -0.002109 87380.900000 1 0 0
-6.026192 -8.084005 -17.482821 20.182050 0.930216 2.618455 -0.000990 -0.000728 -96954.200000 1 0 0
-2.184792 -16.280705 -13.372321 21.181446 1.437398 2.254054 -0.001650 0.002469 297461.000000 1 0 0
16.576408 -8.088805 -9.080421 20.558699 -0.453978 2.028270 0.034130 -0.002263 306562.000000 1 0 0
19.391308 -3.205905 -3.518221 19.966936 -0.163845 1.747923 0.025480 -0.008824 265148.000000 1 0 0
15.729508 -11.152605 -9.062821 21.305698 -0.616757 2.010168 0.027002 -0.017220 283831.000000 1 0 0
18.563708 -2.792905 -6.666821 19.921297 -0.149330 1.912039 0.132694 -0.002381 -268176.000000 1 0 0
9.111408 -9.825705 -15.738121 20.670043 -0.823100 2.436263 0.048508 -0.009256 55668.100000 1 0 0
-4.466292 9.990695 -16.142921 19.502708 -1.150402 2.545841 0.000090 0.002847 261263.000000 1 0 0
2.424208 -9.834405 -18.661221 21.232839 -1.329112 2.644316 0.015640 0.004797 250405.000000 1 0 0
11.153008 7.915695 -15.019321 20.313242 0.617231 2.402954 0.037437 -0.032084 500218.000000 1 0 0
18.533408 -5.380805 -8.405121 21.049616 -0.282562 1.981550 0.025201 -0.008940 207273.000000 1 0 0
12.632308 5.643895 -13.458021 19.301478 0.420175 2.342355 0.030080 -0.019431 49503.900000 1 0 0
15.865208 6.177495 -10.821621 20.173590 0.371312 2.136992 0.022386 -0.011364 103864.000000 1 0 0
3.207408 -0.200905 -19.118821 19.387035 -0.062556 2.975059 0.017600 -0.009704 150131.000000 1 0 0
10.025508 -1.419505 -15.365221 18.401517 -0.140654 2.558925 0.010798 0.006447 87673.800000 1 0 0
12.250108 -5.933405 -13.846421 19.416328 -0.451054 2.364753 0.027531 -0.010554 152900.000000 1 0 0
10.145708 6.594195 -13.010221 17.767516 0.576339 2.392413 0.022377 -0.007931 366679.000000 1 0 0
10.677308 5.244495 -16.125221 20.038273 0.456568 2.506002 0.034073 -0.021597 451720.000000 1 0 0
12.038108 -10.017705 -14.955221 21.654771 -0.694049 2.333142 0.061001 -0.022323 279160.000000 1 0 0
-1.396592 2.212495 -17.492821 17.687407 -1.007730 2.993123 0.007838 -0.007791 341421.000000 1 0 0
6.706308 -1.047205 -17.091821 18.390257 -0.154901 2.763568 0.011840 0.004388 114794.000000 1 0 0
6.315208 -5.772605 -15.908321 18.063208 -0.740540 2.648141 -0.015486 -0.007573 226328.000000 1 0 0
-2.240692 -4.990705 -20.359521 21.081696 1.148797 2.879091 0.028944 -0.017298 259531.000000 1 0 0
15.984908 -0.189205 -13.267121 20.774253 -0.011836 2.263517 0.030518 -0.008676 -38405.300000 1 0 0
-4.104292 -0.273105 -18.389421 18.843847 0.066443 2.921534 0.006638 -0.008757 187502.000000 1 0 0
4.499308 9.388495 -17.169821 20.079600 1.123897 2.596516 0.026321 -0.023280 65129.900000 1 0 0
8.923008 1.094295 -16.032721 18.381123 0.122028 2.630557 0.017704 -0.051498 -162131.000000 1 0 0
4.114308 4.443395 -18.277821 19.254870 0.823834 2.821661 0.013057 -0.007877 337247.000000 1 0 0
-3.172092 -10.839305 -17.692321 20.989781 1.286099 2.573450 0.013427 -0.027561 54794.200000 1 0 0
6.738908 -9.462705 -16.140321 19.886317 -0.951959 2.517732 0.030316 -0.011592 258341.000000 1 0 0
9.897608 -13.184605 -11.524221 20.114774 -0.926851 2.180864 0.011994 0.038666 80473.300000 1 0 0
6.243708 6.731495 -16.702621 19.059760 0.822974 2.638984 0.021148 -0.020842 340951.000000 1 0 0
8.261308 1.380895 -20.210821 21.877691 0.165621 2.748711 0.021670 -0.006407 77385.200000 1 0 0
-1.075492 -0.816305 -20.110621 20.155895 0.649240 3.074555 0.023458 -0.013795 257294.000000 1 0 0
-1.315892 7.169295 -19.219721 20.555486 -1.389271 2.779102 0.007151 -0.010778 -414413.000000 1 0 0
8.965908 6.025395 -17.887821 20.896579 0.591709 2.598311 0.033376 -0.015164 -120025.000000 1 0 0
12.053908 -0.154605 -13.395421 18.021040 -0.012825 2.408818 0.008202 0.000415 -3810.620000 1 0 0
-4.256692 -2.624205 -19.974221 20.590662 0.552456 2.896283 -0.000972 -0.007115 467177.000000 1 0 0
5.664108 -11.457105 -14.563021 19.375989 -1.111659 2.421283 -0.008545 -0.002896 106458.000000 1 0 0
11.009608 2.158395 -15.979121 19.524406 0.193591 2.529448 0.019394 -0.007656 -469275.000000 1 0 0
-2.901292 -4.428305 -17.207921 18.003886 0.990795 2.843129 0.006051 -0.006105 276069.000000 1 0 0
-6.767792 -4.630805 -17.330621 19.172839 0.600071 2.699633 0.014286 -0.016997 64844.900000 1 0 0
2.947908 10.457095 -15.424821 18.867063 1.296022 2.527945 0.009502 -0.013734 201212.000000 1 0 0
16.919308 -6.238205 -11.021921 21.134354 -0.353239 2.119424 0.033537 -0.009056 -35961.100000 1 0 0
9.567508 -3.577505 -17.647121 20.390111 -0.357826 2.616893 0.010679 -0.014349 -56613.400000 1 0 0
-7.302692 -1.399805 -18.637321 20.065854 0.189386 2.761979 -0.000526 -0.006061 503596.000000 1 0 0
1.174808 -7.849105 -19.445721 21.002968 -1.422225 2.754090 0.024921 -0.007599 205467.000000 1 0 0
6.021808 10.868195 -13.924721 18.662199 1.064829 2.413050 0.032037 -0.009262 521712.000000 1 0 0
6.017508 -3.787205 -18.039921 19.390515 -0.561732 2.766156 0.012017 -0.011483 522886.000000 1 0 0
4.499008 13.419395 -14.666221 20.381836 1.247311 2.373984 0.033597 -0.016524 155944.000000 1 0 0
9.504708 11.206595 -15.557121 21.399795 0.867386 2.384703 0.058697 -0.020465 -41445.600000 1 0 0
17.329508 1.485295 -11.446721 20.821752 0.085500 2.152859 0.049982 0.000713 42825.300000 1 0 0
15.007808 -3.120405 -12.123521 19.543566 -0.204998 2.239964 0.030536 -0.009073 61535.800000 1 0 0
-8.896592 0.199095 -17.349321 19.498408 -0.022375 2.667662 0.008576 -0.008499 489807.000000 1 0 0
-3.531292 4.235395 -18.928021 19.714932 -0.875808 2.858104 0.021518 -0.010121 174108.000000 1 0 0
3.975708 1.773895 -16.737421 17.294340 0.419675 2.887126 0.006365 -0.011185 318990.000000 1 0 0
-4.914792 14.078095 -14.141521 20.550682 -1.234915 2.329704 0.004993 -0.005372 89902.300000 1 0 0
1.316608 8.992495 -17.545221 19.759382 1.425417 2.663652 0.016047 -0.020265 348513.000000 1 0 0
1.331408 -5.350505 -19.900721 20.650405 -1.326912 2.871313 0.029459 -0.000166 423175.000000 1 0 0
3.539008 -6.314005 -18.363221 19.738265 -1.059926 2.766125 0.019307 -0.007609 -116997.000000 1 0 0
-6.524392 7.757095 -15.984121 18.927026 -0.871499 2.576452 -0.007787 0.005451 43220.700000 1 0 0
-11.774892 2.939395 -16.683221 20.630511 -0.244633 2.512680 0.029106 -0.018927 165131.000000 1 0 0
-4.191092 7.161395 -17.684221 19.534136 -1.041305 2.702878 0.006429 0.026942 518180.000000 1 0 0
-8.137592 5.984895 -17.404821 20.123795 -0.634132 2.615723 0.003103 -0.007420 356430.000000 1 0 0
-8.397392 4.526795 -15.208321 17.952746 -0.494414 2.581358 -0.013001 -0.005208 479518.000000 1 0 0
9.599408 13.165195 -12.660321 20.633824 0.940773 2.231372 0.042932 -0.030958 391870.000000 1 0 0
14.327808 9.622595 -12.020321 21.032559 0.591412 2.179141 0.054683 -0.014215 -150183.000000 1 0 0
8.828308 15.349395 -9.967521 20.319803 1.048844 2.083497 0.022581 -0.014483 35583.800000 1 0 0
8.100408 14.243595 -14.193121 21.678129 1.053706 2.284609 0.041278 -0.018189 205985.000000 1 0 0
3.727608 15.450995 -12.731421 20.364611 1.334066 2.246150 0.054234 -0.026933 109270.000000 1 0 0
10.873108 11.345295 -10.722121 19.023776 0.806647 2.169554 0.032775 -0.034600 157474.000000 1 0 0
15.976908 10.593795 -9.196921 21.262018 0.585508 2.018117 0.055096 -0.030123 311946.000000 1 0 0
13.233608 11.420495 -9.838921 20.058924 0.711988 2.083461 0.040451 -0.012317 61624.800000 1 0 0
10.935708 11.193395 -7.797321 17.483707 0.797042 2.033061 0.015189 -0.008531 119162.000000 1 0 0
6.013008 16.744495 -10.362221 20.589074 1.226035 2.098195 0.057892 -0.005029 192032.000000 1 0 0
11.781108 13.626395 -10.099521 20.651234 0.857898 2.081799 0.050637 -0.027444 103620.000000 1 0 0
8.077308 -19.388705 -1.589421 21.063975 -1.176063 1.646325 0.027162 -0.001303 93404.200000 1 0 0
7.620808 -17.231405 -4.112621 19.285012 -1.154395 1.785701 0.025071 0.006764 257414.000000 1 0 0
3.797608 -19.285405 6.042979 20.563713 -1.376368 1.272527 0.030607 0.004431 153661.000000 1 0 0
10.361708 -17.795505 -2.557821 20.750601 -1.043519 1.694376 0.036399 0.000110 495178.000000 1 0 0
-3.342192 -14.607005 7.935879 16.956209 1.345861 1.083745 0.024679 -0.036179 110648.000000 1 0 0
-15.054392 -12.895705 -4.438021 20.313295 0.708318 1.791051 -0.005574 0.002226 40044.900000 1 0 0
-9.229392 -12.666705 -7.138221 17.221536 0.941110 1.998183 0.016304 -0.008519 180400.000000 1 0 0
-11.679892 -15.087305 6.847779 20.271624 0.912015 1.226217 0.019246 -0.004347 -20655.700000 1 0 0
-15.231492 -7.317005 -7.685421 18.563475 0.447834 1.997649 0.052756 -0.019347 -575312.000000 1 0 0
5.297608 -15.847905 5.652279 17.639984 -1.248196 1.244619 0.026301 -0.005052 66192.700000 1 0 0
2.771108 -14.014705 9.199379 16.991751 -1.375586 0.998692 0.009681 -0.003455 275155.000000 1 0 0
3.211208 -17.228305 10.430279 20.394046 -1.386520 1.033940 0.023225 -0.009913 168016.000000 1 0 0
-7.649792 -17.266405 -5.103821 19.562644 1.153741 1.834747 -0.011457 -0.007499 -72648.200000 1 0 0
1.846808 -19.808905 -4.217921 20.337018 -1.477834 1.779714 0.003665 -0.001675 -74064.600000 1 0 0
-18.799692 -9.439005 -2.404321 21.173190 0.465313 1.684597 0.043499 -0.023023 -158749.000000 1 0 0
-3.979992 -15.014405 3.068679 15.833177 1.311678 1.375749 0.000677 0.003804 31252.500000 1 0 0
-10.893592 -9.994305 -14.538821 20.734845 0.742372 2.347845 0.020652 0.000077 170962.000000 1 0 0
0.812208 -20.297505 2.600179 20.479486 -1.530802 1.443488 0.023988 -0.012289 198818.000000 1 0 0
5.311808 -18.712805 0.919579 19.473829 -1.294212 1.523557 0.007508 0.010811 247889.000000 1 0 0
-7.585192 -18.912505 -3.392021 20.657294 1.189370 1.735748 0.007940 -0.007652 156636.000000 1 0 0
-9.239092 -15.553005 -7.795421 19.698360 1.034771 1.977669 0.030253 -0.006789 82568.400000 1 0 0
-11.497792 -11.366105 -12.065921 20.173597 0.779639 2.211930 0.000982 0.007408 320737.000000 1 0 0
-13.294992 -14.957105 -3.445221 20.306190 0.844162 1.741285 0.009868 -0.000549 111220.000000 1 0 0
-0.165292 -20.524605 -2.739521 20.707287 1.562743 1.703483 0.013860 -0.005693 395202.000000 1 0 0
-12.106492 -16.691905 -0.705221 20.632115 0.943297 1.604984 0.012382 0.004546 286597.000000 1 0 0
0.675808 -19.843505 5.431379 20.584492 -1.536753 1.303777 0.030376 -0.024579 203188.000000 1 0 0
-17.977192 -8.558805 2.708379 20.093977 0.444339 1.435599 -0.000533 0.004065 -124854.000000 1 0 0
-15.102792 -14.945805 -0.636221 21.257380 0.780174 1.600730 0.016924 0.008741 -79912.200000 1 0 0
10.308308 -15.296605 -5.344821 19.204543 -0.977806 1.852831 0.029674 0.002322 -65568.400000 1 0 0
-0.144192 -19.100805 -6.996721 20.342459 1.563247 1.921913 -0.003787 -0.000342 181410.000000 1 0 0
-9.552592 -16.271705 -2.627421 19.050558 1.039940 1.709156 -0.001093 -0.011028 421247.000000 1 0 0
-15.585092 -6.518705 -11.086321 20.206314 0.396153 2.151552 0.059774 -0.013310 74677.700000 1 0 0
-12.285092 -14.867205 2.085479 19.398621 0.880210 1.463082 0.012994 -0.007267 337073.000000 1 0 0
-2.557992 -16.250305 10.117779 19.312825 1.414666 1.019386 0.012265 -0.018319 425645.000000 1 0 0
-12.550692 -14.257405 -6.704021 20.142923 0.848976 1.910092 0.028619 -0.003315 171817.000000 1 0 0
5.008208 -17.039705 -7.519721 19.286781 -1.284932 1.971308 0.001033 0.004343 85494.100000 1 0 0
-17.303392 -7.226105 -2.914821 18.976832 0.395596 1.725006 -0.027586 -0.004054 -165516.000000 1 0 0
-12.060392 -13.830305 -9.369221 20.603706 0.853653 2.042871 0.034487 -0.011761 38152.000000 1 0 0
-7.815792 -13.859505 10.380679 18.998184 1.057321 0.992732 0.024997 -0.001117 455359.000000 1 0 0
-16.313092 -8.686905 -5.098621 19.172251 0.489317 1.839973 0.043997 0.004246 152231.000000 1 0 0
-0.870092 -19.830005 0.061979 19.849182 1.526947 1.567674 0.006944 0.002063 54989.500000 1 0 0
-14.745792 -11.382205 -1.765021 18.711180 0.657367 1.665267 -0.008937 0.004167 117343.000000 1 0 0
-6.904492 -19.077005 2.060279 20.392373 1.223535 1.469592 0.004869 0.002091 210802.000000 1 0 0
-2.111092 -20.733305 -5.430821 21.536492 1.469325 1.825717 0.000293 0.001022 24319.700000 1 0 0
-9.162292 -19.504405 -1.003221 21.572572 1.131636 1.617318 0.014459 0.001150 269172.000000 1 0 0
-17.866292 -7.546305 4.732079 19.963559 0.399647 1.331483 0.016651 -0.003909 70096.800000 1 0 0
-2.652792 -15.997105 -10.920521 19.549999 1.406462 2.163487 0.002594 0.007830 91025.200000 1 0 0
-2.781492 -18.155305 -8.510721 20.243127 1.418773 2.004710 -0.003769 -0.001074 186904.000000 1 0 0
4.312608 -18.030705 -5.341021 19.293300 -1.336026 1.851293 0.000817 0.024576 399629.000000 1 0 0
0.848708 -17.431305 -8.958521 19.616977 -1.522146 2.045047 -0.011306 0.006914 -87161.600000 1 0 0
-7.660492 -10.002405 -14.728621 19.382041 0.917219 2.433972 0.007057 -0.007384 405710.000000 1 0 0
-5.041892 -19.491105 -2.015221 20.233264 1.317668 1.670561 0.010657 -0.005511 375214.000000 1 0 0
-10.025992 -16.037005 8.489179 20.730948 1.012069 1.148898 0.009771 -0.001364 239728.000000 1 0 0
-7.232392 -14.917505 -10.351821 19.544811 1.119362 2.128979 0.025538 -0.013144 281588.000000 1 0 0
-12.685492 -7.777005 -12.545621 19.462685 0.549969 2.271295 0.013841 0.000322 268853.000000 1 0 0
-15.484592 -12.920105 3.385079 20.448972 0.695358 1.404493 -0.000875 0.005494 231433.000000 1 0 0
-6.211892 -14.281905 -13.104321 20.353959 1.160530 2.270279 0.003022 -0.000123 447099.000000 1 0 0
-13.596192 -11.305305 -6.772621 18.935014 0.693658 1.936576 0.002323 -0.014872 272831.000000 1 0 0
-11.529092 -10.287905 -9.063921 17.914118 0.728569 2.101297 0.017060 -0.002055 163451.000000 1 0 0
-10.032692 -14.994205 3.751979 18.427112 0.981108 1.365751 0.009703 0.010546 456168.000000 1 0 0
4.666708 -17.942405 8.492379 20.391875 -1.316340 1.141249 0.024953 -0.018342 224946.000000 1 0 0
-4.979392 -16.639505 5.328579 18.167588 1.280027 1.273118 0.010339 0.005298 379384.000000 1 0 0
-17.564692 -7.721205 -6.809821 20.359496 0.414161 1.911848 -0.025910 -0.011757 -4664.010000 1 0 0
-16.978692 -3.374605 -10.738021 20.370789 0.196198 2.126014 0.020436 -0.011962 -179777.000000 1 0 0
-15.721692 -4.014805 -13.165621 20.895546 0.250024 2.252437 0.011410 -0.003055 352352.000000 1 0 0
-19.465392 -5.797705 -6.045721 21.191168 0.289480 1.860110 0.035670 -0.003809 166756.000000 1 0 0
5.386308 -13.502905 8.580479 16.880918 -1.191239 1.037593 0.019297 -0.004558 96443.900000 1 0 0
19.560408 -3.545405 2.603379 20.048867 -0.179307 1.440577 0.007883 -0.010505 -329732.000000 1 0 0
17.856408 -2.491105 0.038279 18.029376 -0.138613 1.568673 0.008684 -0.012217 348015.000000 1 0 0
14.280308 -11.417505 0.290379 18.285813 -0.674453 1.554916 0.031661 -0.000283 221299.000000 1 0 0
11.322908 -13.939005 5.639479 18.823067 -0.888589 1.266518 0.033281 0.010380 639772.000000 1 0 0
10.296508 -12.643005 8.458879 18.368895 -0.887334 1.092238 0.026809 -0.016171 243432.000000 1 0 0
18.758108 3.996695 -4.362621 19.669078 0.209926 1.794457 0.045078 0.002534 -16719.800000 1 0 0
18.745108 -6.108805 -4.325621 20.184340 -0.315035 1.786777 0.017649 -0.010686 -71684.600000 1 0 0
17.610208 -10.138005 -0.014221 20.319911 -0.522352 1.571496 0.026896 -0.002219 259065.000000 1 0 0
17.702908 -8.723005 8.454979 21.470223 -0.457826 1.166034 0.062802 -0.013593 -163253.000000 1 0 0
19.733108 0.196795 -2.301321 19.867822 0.009972 1.686888 0.018249 0.001507 118449.000000 1 0 0
7.794508 -13.086405 11.347579 18.994102 -1.033605 0.930508 0.018421 -0.002630 457828.000000 1 0 0
15.963108 -6.870805 -3.303921 17.690242 -0.406451 1.758665 0.013466 -0.006126 325309.000000 1 0 0
14.376308 -7.024305 12.451379 20.274515 -0.454488 0.909501 0.023978 -0.014460 300352.000000 1 0 0
16.428808 1.105395 10.555679 19.558886 0.067183 1.000731 0.058424 -0.023093 324292.000000 1 0 0
16.558208 -10.163805 2.513079 19.590630 -0.550521 1.442162 0.005733 -0.005367 271696.000000 1 0 0
16.332908 -7.226005 -5.854021 18.794909 -0.416533 1.887534 0.026455 0.000038 209689.000000 1 0 0
17.821608 -4.072205 5.856679 19.196178 -0.224642 1.260757 0.045644 -0.011028 -7101.590000 1 0 0
13.444908 -13.143605 8.096879 20.471428 -0.774067 1.164161 0.036426 -0.015189 197925.000000 1 0 0
15.305508 -14.182605 -1.594821 20.927215 -0.747337 1.647078 0.035354 0.000617 252899.000000 1 0 0
18.710508 -6.213005 7.856579 21.222874 -0.320604 1.191579 0.047142 -0.011192 137376.000000 1 0 0
19.494008 3.303695 2.719379 19.958101 0.167877 1.434117 0.048398 -0.007664 315404.000000 1 0 0
15.636108 -10.596705 8.336579 20.646467 -0.595607 1.155154 0.042010 -0.020374 363071.000000 1 0 0
14.035008 -4.222105 10.733179 18.166143 -0.292215 0.938704 0.023715 -0.016747 -188645.000000 1 0 0
18.877308 -7.625405 1.720479 20.431829 -0.383903 1.486491 0.033202 -0.013441 -1508.200000 1 0 0
19.215708 -6.221205 -1.321121 20.240855 -0.313107 1.636113 0.031966 -0.009583 267179.000000 1 0 0
14.844708 -13.184605 -6.143221 20.783126 -0.726240 1.870866 0.047689 -0.010042 461323.000000 1 0 0
13.704408 -9.680905 10.582179 19.837168 -0.615014 1.008120 0.009191 -0.004000 381228.000000 1 0 0
14.125908 2.213895 0.449679 14.305412 0.155461 1.539357 -0.002881 -0.002637 -250611.000000 1 0 0
13.079808 2.555795 13.565679 19.016864 0.192969 0.776530 0.025771 -0.006026 -177489.000000 1 0 0
18.367608 -3.167505 9.234479 20.800907 -0.170771 1.110799 0.047890 -0.013032 195847.000000 1 0 0
7.257008 -18.567705 5.152479 20.590578 -1.198211 1.317874 0.023276 -0.014431 391606.000000 1 0 0
12.974208 -3.162005 14.860079 19.978747 -0.239054 0.732067 0.021184 -0.006298 343516.000000 1 0 0
12.486208 -14.151805 -7.062121 20.150745 -0.847844 1.928863 0.057790 0.008178 245354.000000 1 0 0
10.764008 -17.102205 4.862879 20.784535 -1.009044 1.334641 0.036559 -0.007395 468570.000000 1 0 0
18.212808 -0.374705 -5.482721 19.023854 -0.020571 1.863145 0.014012 -0.001709 12242.800000 1 0 0
4.353108 -13.712005 11.596879 18.478535 -1.263393 0.892347 0.004076 -0.000608 320158.000000 1 0 0
9.455608 -2.949705 14.355979 17.441429 -0.302386 0.603954 0.029271 -0.006833 428185.000000 1 0 0
9.048108 -9.096605 13.778879 18.827480 -0.788071 0.749765 0.009444 -0.017780 404005.000000 1 0 0
21.062908 5.671295 -2.622421 21.970134 0.263017 1.690445 0.039581 0.005810 613551.000000 1 0 0
14.733008 -13.377305 1.890479 19.989691 -0.737208 1.476082 0.024470 0.003196 230119.000000 1 0 0
12.137608 -0.281705 14.849979 19.181313 -0.023205 0.685362 0.050964 -0.012392 -214146.000000 1 0 0
20.052808 -0.088105 7.649279 21.462394 -0.004394 1.206380 0.134573 -0.023553 165304.000000 1 0 0
19.789308 1.165695 0.489679 19.829658 0.058837 1.546100 0.037552 -0.004523 286490.000000 1 0 0
17.883208 0.558195 3.169979 18.170566 0.031203 1.395442 0.032700 -0.005489 -43314.600000 1 0 0
10.462408 -8.244705 16.467579 21.180612 -0.667400 0.680142 0.033723 -0.005406 187989.000000 1 0 0
18.928708 3.189495 5.540879 19.979245 0.166932 1.289780 0.052082 -0.005583 61904.300000 1 0 0
14.692308 2.244295 6.999579 16.428478 0.151581 1.130659 0.024969 -0.013153 79261.600000 1 0 0
11.407208 -16.185505 1.690779 19.873443 -0.956870 1.485616 0.014701 0.010560 366060.000000 1 0 0
8.105308 -16.306305 7.056679 19.529166 -1.109499 1.201091 0.010459 0.004477 344397.000000 1 0 0
6.273808 6.657895 7.055879 11.553080 0.815091 0.913807 -0.007578 0.003578 -1198740.000000 1 0 0
18.290908 3.004595 -6.321121 19.584215 0.162813 1.899447 -0.001055 0.004164 284628.000000 1 0 0
14.157308 4.385395 -6.944221 16.367140 0.300388 2.008961 0.017619 -0.011673 181721.000000 1 0 0
-10.494092 -3.929705 -14.029021 17.954998 0.358304 2.467612 0.001668 -0.001491 -44806.300000 1 0 0
7.641208 -14.138005 -10.479121 19.185495 -1.075297 2.148618 0.001209 0.008357 81404.900000 1 0 0
2.196108 -15.636905 14.132479 21.191099 -1.431265 0.840747 0.010343 -0.002737 312048.000000 1 0 0
-9.322892 -7.584305 1.951879 12.175707 0.682927 1.409792 0.010039 0.008447 164587.000000 1 0 0
-13.678092 3.400495 -9.593621 17.049666 -0.243669 2.168429 0.013413 -0.004820 304671.000000 1 0 0
-13.265092 -4.661905 -13.557821 19.532294 0.337959 2.337998 0.019629 0.000610 206830.000000 1 0 0
-17.625592 0.126995 -8.498821 19.568024 -0.007205 2.020082 0.024747 -0.012480 394591.000000 1 0 0
-12.195092 15.188095 4.544979 20.001383 -0.894267 1.341561 0.007919 -0.011285 491352.000000 1 0 0
-17.372092 6.388795 9.401779 20.760533 -0.352410 1.100817 0.019416 -0.012178 180705.000000 1 0 0
-13.194392 15.352695 -0.082121 20.243615 -0.860860 1.574853 0.024427 -0.013286 55190.000000 1 0 0
-16.155592 5.526695 -10.488121 20.038667 -0.329612 2.121626 0.044441 -0.010671 -2070.100000 1 0 0
-18.518292 2.941095 -0.489721 18.756785 -0.157506 1.596908 0.042787 -0.004063 -10215.400000 1 0 0
-10.177692 15.585195 -0.050221 18.614140 -0.992290 1.573494 0.013118 -0.005884 107109.000000 1 0 0
-18.183192 12.421995 2.790079 22.197274 -0.599333 1.444768 0.077748 -0.009299 -94786.600000 1 0 0
-8.772292 16.212095 -7.607321 19.941325 -1.074815 1.962199 0.034757 -0.023753 3159.640000 1 0 0
-15.110992 -1.688405 -13.176621 20.120043 0.111272 2.284847 0.019392 -0.012172 159959.000000 1 0 0
-18.926192 5.309795 -4.990221 20.280458 -0.273521 1.819410 0.030982 -0.011355 -24159.800000 1 0 0
-16.887692 9.514595 -5.973721 20.283170 -0.513076 1.869745 0.044639 0.009833 -114420.000000 1 0 0
-18.938192 1.337595 2.610379 19.163986 -0.070512 1.434159 0.010021 -0.008740 -57858.200000 1 0 0
-13.148092 12.331995 -6.975021 19.328769 -0.753380 1.939988 0.019982 0.002026 -458941.000000 1 0 0
-12.570892 5.035195 -13.602721 19.194127 -0.380975 2.358439 0.023105 -0.009327 -129535.000000 1 0 0
-14.184492 9.641895 -6.540421 18.356008 -0.597005 1.935112 0.030257 -0.000704 36569.500000 1 0 0
-6.244292 12.106195 -15.232621 20.434869 -1.094594 2.411965 0.006898 -0.006243 -101127.000000 1 0 0
-14.921892 13.833095 3.262579 20.607324 -0.747552 1.411806 0.013311 -0.011216 7768.750000 1 0 0
-18.753992 8.510895 -5.095321 21.215792 -0.426024 1.813334 0.045662 -0.003058 324774.000000 1 0 0
-3.526292 17.001095 -9.939521 20.006649 -1.366281 2.090716 0.010419 0.001378 107688.000000 1 0 0
-19.283792 -1.774205 -6.798321 20.523879 0.091747 1.908413 0.018119 -0.005964 -115438.000000 1 0 0
-10.570792 14.036195 -6.361921 18.687708 -0.925308 1.918174 0.002308 -0.004176 -43243.700000 1 0 0
-19.308492 3.247295 4.325779 20.051812 -0.166620 1.353357 0.019209 0.002570 93071.600000 1 0 0
-15.368392 12.948995 0.522779 20.103165 -0.700167 1.544789 0.026283 0.010140 56110.400000 1 0 0
-16.784192 2.090495 -8.248821 18.818138 -0.123913 2.024552 -0.020601 -0.011517 119973.000000 1 0 0
-16.534992 12.370795 -4.692421 21.176905 -0.642322 1.794233 0.034078 -0.001892 257284.000000 1 0 0
-10.966492 15.799595 -8.715021 21.114988 -0.964041 1.996258 0.032967 -0.006159 106008.000000 1 0 0
-19.342892 1.561095 -6.792521 20.560224 -0.080532 1.907494 0.044289 -0.017989 79262.300000 1 0 0
-17.247692 10.501995 -0.514521 20.199988 -0.546933 1.596270 0.041158 0.002348 103946.000000 1 0 0
-11.622792 6.920895 -14.517021 19.842680 -0.537074 2.391471 0.022890 -0.008873 339002.000000 1 0 0
-13.853792 13.470295 -4.963321 19.950211 -0.771364 1.822222 0.039883 0.008543 246100.000000 1 0 0
-18.726492 7.409195 -0.619621 20.148489 -0.376753 1.601554 0.030930 -0.000735 53661.800000 1 0 0
-14.551392 8.642395 -10.079721 19.698598 -0.535939 2.107956 0.027865 -0.011009 405405.000000 1 0 0
-18.335892 11.404595 5.142079 22.197087 -0.556426 1.337017 0.032136 -0.022508 166957.000000 1 0 0
-8.186492 11.753195 -13.855621 19.928233 -0.962401 2.339600 0.001853 -0.006837 432599.000000 1 0 0
-20.972392 -1.904305 -5.040921 21.653602 0.090552 1.805750 0.019730 -0.022118 205169.000000 1 0 0
-10.691592 13.325795 -3.178021 17.377766 -0.894641 1.754710 0.006340 -0.000551 338725.000000 1 0 0
-18.891292 -4.703805 3.720479 19.820410 0.244031 1.381967 0.026234 -0.003470 -6926.060000 1 0 0
-11.535492 11.528495 -13.051621 20.888240 -0.785095 2.245711 0.040162 -0.012369 313921.000000 1 0 0
-14.622192 11.065295 -10.398821 21.080434 -0.647805 2.086667 0.047728 -0.028994 235782.000000 1 0 0
-12.456692 9.439995 -14.138021 21.075253 -0.648490 2.306131 0.044530 -0.016332 448837.000000 1 0 0
-18.530592 -4.852305 -3.133721 19.409995 0.256104 1.732955 0.013854 -0.005983 -294007.000000 1 0 0
-9.490092 12.590695 -11.560121 19.550545 -0.924907 2.203459 0.017473 -0.009225 35108.400000 1 0 0
-16.050092 7.731695 -8.268321 19.640511 -0.448919 2.005325 0.039405 -0.001434 20958.000000 1 0 0
-14.474292 8.862795 2.061779 17.096935 -0.549424 1.449909 0.011501 0.000551 -6151.210000 1 0 0
-19.568292 6.358795 7.840179 22.018645 -0.314190 1.206737 0.021395 -0.012309 215642.000000 1 0 0
-18.760192 6.114695 3.884879 20.110360 -0.315082 1.376396 0.004954 0.000322 183108.000000 1 0 0
-14.516792 12.609495 5.821079 20.090335 -0.715202 1.276836 0.012092 -0.014371 128979.000000 1 0 0
18.256308 6.153595 5.921679 20.155044 0.325107 1.272590 0.055015 -0.013942 245093.000000 1 0 0
18.315408 8.106195 0.387179 20.032835 0.416674 1.551468 0.023658 0.004926 48723.600000 1 0 0
16.831508 4.180795 8.540179 19.331668 0.243464 1.113224 0.058347 -0.013333 -14620.200000 1 0 0
12.361308 12.868295 10.858979 20.888092 0.805490 1.024104 0.047280 -0.020421 161007.000000 1 0 0
15.287008 12.384495 4.307979 20.140184 0.680889 1.355231 0.029588 -0.003413 157544.000000 1 0 0
4.835108 10.167495 14.177279 18.103908 1.126903 0.671152 0.003097 -0.003573 306524.000000 1 0 0
13.267508 13.214895 -5.369521 19.480553 0.783411 1.850046 0.042628 -0.005737 372177.000000 1 0 0
18.072008 9.169695 -2.699621 20.444284 0.469548 1.703231 0.028716 0.002014 -18962.800000 1 0 0
14.515108 7.494595 9.560379 18.927709 0.476627 1.041299 0.041112 -0.004004 179187.000000 1 0 0
4.762308 19.148695 -1.627621 19.799021 1.327040 1.653096 0.002444 -0.004429 499067.000000 1 0 0
-4.480992 18.976595 3.018279 19.730698 -1.338911 1.417220 -0.001419 -0.022045 328549.000000 1 0 0
6.758308 12.663695 12.599079 19.099233 1.080572 0.850425 0.009415 0.001575 23280.300000 1 0 0
0.472408 16.786895 -10.374321 19.739542 1.542662 2.124170 0.022216 0.004788 5451.680000 1 0 0
10.747408 9.388095 15.500979 21.069491 0.717992 0.744086 0.021107 -0.002661 -118716.000000 1 0 0
-1.395392 12.626395 0.227979 12.705311 -1.460729 1.552852 0.000475 0.000918 488349.000000 1 0 0
-4.828692 19.190895 -2.508821 19.947453 -1.324299 1.696902 0.021456 0.007504 23303.900000 1 0 0
6.088608 18.224795 6.283479 20.216241 1.248371 1.254748 0.027791 -0.021174 131989.000000 1 0 0
11.001808 17.660495 -1.503421 20.861283 1.013664 1.642926 0.019506 -0.001234 352782.000000 1 0 0
18.465508 10.518295 3.095879 21.475427 0.517781 1.426133 0.030248 -0.000367 201178.000000 1 0 0
11.906908 16.779195 6.215179 21.492889 0.953641 1.277433 0.041327 -0.003082 -184858.000000 1 0 0
18.019108 6.994495 -5.624821 20.130818 0.370268 1.853979 0.005107 0.008859 380180.000000 1 0 0
0.132908 15.385195 10.906679 18.859415 1.562158 0.954135 0.004905 -0.003885 348561.000000 1 0 0
1.332108 20.257495 -1.824521 20.383068 1.505132 1.660428 0.015862 -0.003155 168325.000000 1 0 0
14.264208 9.815395 -1.288621 17.362896 0.602704 1.645082 0.016497 -0.000149 -122970.000000 1 0 0
9.624608 17.702095 1.696479 20.220665 1.072804 1.486799 0.022255 -0.012215 236183.000000 1 0 0
-0.016292 17.762395 -0.627021 17.773466 -1.569879 1.606082 0.005618 -0.003699 18089.200000 1 0 0
-0.241992 21.062895 1.605979 21.125417 -1.559308 1.494702 0.019584 -0.003647 102619.000000 1 0 0
6.201908 17.532595 -0.300821 18.599624 1.230797 1.586971 0.004059 -0.016426 -85130.900000 1 0 0
6.552008 18.400995 -3.046721 19.768862 1.228726 1.725530 -0.011389 -0.011285 51217.000000 1 0 0
10.407008 9.523695 12.860379 19.089158 0.741108 0.831591 0.020160 -0.001164 56419.700000 1 0 0
12.462008 14.665195 8.251279 20.939274 0.866437 1.165754 0.023503 -0.015573 193344.000000 1 0 0
0.468508 17.559495 6.802879 18.837052 1.544121 1.201302 0.003295 -0.006579 299971.000000 1 0 0
7.145108 17.945395 -7.939121 20.883472 1.191879 1.960769 0.009325 -0.002140 86871.500000 1 0 0
-1.115292 18.573295 9.313779 20.807634 -1.510820 1.106701 0.033170 -0.015486 56538.700000 1 0 0
16.311808 6.734695 -7.909021 19.338661 0.391554 1.992126 0.055222 -0.005870 -410013.000000 1 0 0
-5.187292 19.723795 -6.760521 21.485826 -1.313623 1.890884 0.018338 -0.003455 259253.000000 1 0 0
4.034208 15.855695 9.955479 19.151748 1.321650 1.024155 0.012185 -0.001652 198106.000000 1 0 0
9.057308 14.958195 7.540579 19.043181 1.026337 1.163669 0.018452 -0.004691 -1490.200000 1 0 0
-3.010792 20.040995 6.163579 21.182447 -1.421680 1.275550 0.017164 -0.001749 69580.200000 1 0 0
4.798308 17.900395 8.480779 20.380665 1.308897 1.141623 0.027711 -0.014714 -75181.000000 1 0 0
14.076208 11.062195 -7.012821 19.227362 0.666071 1.944141 -0.020323 -0.030770 -74490.900000 1 0 0
11.231108 7.347595 16.150679 20.999271 0.579335 0.693354 -0.002305 0.014569 -23919.100000 1 0 0
17.271708 9.421995 5.029379 20.307155 0.499394 1.320526 0.046853 -0.014258 159864.000000 1 0 0
5.170608 14.908195 12.096279 19.882390 1.236948 0.916764 0.000269 -0.012503 448981.000000 1 0 0
16.339308 11.265295 -4.290721 20.304929 0.603617 1.783716 0.056925 0.018961 167358.000000 1 0 0
15.183208 14.079795 6.815079 21.799443 0.747709 1.252840 0.031794 0.009848 -23457.600000 1 0 0
12.479108 14.430295 -7.711321 20.577318 0.857781 1.954922 0.034260 -0.015547 292473.000000 1 0 0
-8.611792 15.440095 9.717979 20.174206 -1.062019 1.068199 0.028930 -0.017089 213997.000000 1 0 0
-5.217992 17.499195 -7.245121 19.645382 -1.281006 1.948509 0.015065 0.028638 65657.900000 1 0 0
3.281008 20.467395 -3.775821 21.069791 1.411845 1.750975 0.028066 0.006380 22922.400000 1 0 0
7.312608 16.149695 8.968779 19.867709 1.145615 1.102435 0.025144 -0.023251 678308.000000 1 0 0
13.163408 15.767695 -1.468721 20.592539 0.875173 1.642180 0.037473 -0.008166 99877.700000 1 0 0
12.705208 16.422695 4.234879 21.191069 0.912338 1.369599 0.035587 -0.015157 254466.000000 1 0 0
2.315208 18.300895 0.605979 18.456710 1.444957 1.537958 0.003621 -0.018995 -13332.200000 1 0 0
-7.085092 17.837995 1.109779 19.225613 -1.192714 1.513040 -0.018984 0.015151 247583.000000 1 0 0
0.508208 19.823095 -5.885521 20.684601 1.545165 1.859319 0.031804 0.001803 246163.000000 1 0 0
-7.918792 17.947695 -6.402721 20.635451 -1.155272 1.886281 0.047362 -0.011685 49253.800000 1 0 0
-7.590692 18.545295 -1.608721 20.103098 -1.182294 1.650905 0.014465 -0.005896 5308.520000 1 0 0
-14.416492 -9.904605 9.174079 19.750954 0.601970 1.087740 0.011992 0.010938 399340.000000 1 0 0
-13.285092 -13.581405 8.023879 20.623552 0.796427 1.171181 0.017285 -0.004239 16460.700000 1 0 0
-3.709092 -15.876905 12.741679 20.692605 1.341297 0.907446 0.024846 -0.003533 132611.000000 1 0 0
-2.495792 -14.322605 14.621179 20.619042 1.398273 0.782560 0.022077 -0.037560 208694.000000 1 0 0
-7.138792 -13.745705 13.838679 20.770552 1.091791 0.841608 -0.000116 -0.003331 100784.000000 1 0 0
-10.195192 -11.092205 11.883079 19.188187 0.827511 0.902956 0.040674 -0.008356 22176.200000 1 0 0
-7.578392 -10.557005 13.236579 18.549647 0.948188 0.776207 0.030637 -0.006167 423075.000000 1 0 0
-15.450392 -12.416005 7.240779 21.102149 0.676935 1.220549 0.011227 -0.003102 293295.000000 1 0 0
-4.431892 -11.841705 13.090779 18.199894 1.212673 0.768034 0.023958 -0.024566 300554.000000 1 0 0
3.512508 -12.070205 14.187579 18.955606 -1.287611 0.725054 0.003019 0.002211 672114.000000 1 0 0
6.805908 -13.438405 14.597179 20.975909 -1.102000 0.801121 0.016094 0.004827 467115.000000 1 0 0
7.171308 -9.066605 16.654079 20.272872 -0.901593 0.606767 0.010378 -0.001736 539935.000000 1 0 0
-5.206992 13.319595 13.493079 19.661830 -1.198136 0.814465 0.006534 -0.013183 422592.000000 1 0 0
-13.499192 -1.887905 17.705779 22.344731 0.138952 0.656076 0.025661 -0.002500 321001.000000 1 0 0
-10.044592 10.744895 14.027779 20.325481 -0.819071 0.809090 0.006959 0.021469 302711.000000 1 0 0
-7.450692 -8.357305 17.090979 20.431812 0.842687 0.579952 0.037785 -0.011021 269645.000000 1 0 0
-5.077692 2.029995 18.324479 19.123033 -0.380323 0.290009 0.012170 -0.006505 598252.000000 1 0 0
-15.601692 -3.875905 14.291479 21.510040 0.243499 0.844093 0.024126 -0.005006 80131.300000 1 0 0
-14.667592 3.112295 12.669379 19.630023 -0.209087 0.869239 0.005592 0.009061 298559.000000 1 0 0
-13.353892 10.928995 10.396179 20.145717 -0.685868 1.028564 -0.056460 0.024001 -123085.000000 1 0 0
-4.575992 11.366395 15.497279 19.756019 -1.188060 0.669014 0.024223 -0.010482 180118.000000 1 0 0
-13.309392 12.917995 8.199379 20.279160 -0.770476 1.154555 0.019616 -0.029976 211210.000000 1 0 0
-3.908592 -6.315805 18.642679 20.067785 1.016625 0.379134 0.022718 -0.011214 466510.000000 1 0 0
0.578808 -2.835005 18.805779 19.027076 -1.369399 0.152664 0.014972 -0.002917 102843.000000 1 0 0
-4.766592 6.484495 20.968779 22.460160 -0.936916 0.366468 0.033967 -0.015535 333759.000000 1 0 0
1.936408 -10.723005 16.797879 20.022519 -1.392137 0.575447 0.001524 0.003985 347586.000000 1 0 0
-14.940292 -0.355705 14.537479 20.848913 0.023804 0.799204 -0.009812 0.011367 -116320.000000 1 0 0
-13.952992 -5.690505 7.762179 16.950494 0.387242 1.095128 0.010518 -0.007295 147038.000000 1 0 0
10.101208 0.657995 16.609779 19.451276 0.065048 0.547330 0.018035 0.009497 459955.000000 1 0 0
-7.482992 12.452395 12.285179 19.025849 -1.029695 0.868844 0.010461 -0.008690 -136312.000000 1 0 0
-1.625192 7.362395 19.848279 21.232058 -1.353538 0.363028 0.021565 -0.027959 424102.000000 1 0 0
0.961108 -14.352005 15.884379 21.429356 -1.503929 0.735875 -0.000114 0.017500 542157.000000 1 0 0
-3.333692 -11.425305 18.344679 21.867290 1.286896 0.575520 0.023645 -0.002484 523373.000000 1 0 0
-2.247492 8.658595 16.803579 19.036354 -1.316833 0.489198 0.009575 -0.010045 289753.000000 1 0 0
-5.411392 -9.118005 20.630779 23.195910 1.035182 0.474734 0.082916 -0.020215 251000.000000 1 0 0
-6.790892 -2.733705 19.103979 20.458529 0.382707 0.365933 0.022695 -0.017917 -99588.400000 1 0 0
-11.003492 -8.097305 16.113279 21.125363 0.634406 0.703248 0.070554 -0.013839 151183.000000 1 0 0
-0.866592 6.005895 17.585179 18.602696 -1.427495 0.332275 0.022988 -0.020842 -2514.570000 1 0 0
-5.853292 -11.390005 19.146879 23.034675 1.096093 0.589498 0.050363 -0.004342 354426.000000 1 0 0
0.064608 3.477995 18.754179 19.074063 1.552222 0.183399 0.021351 -0.015383 127373.000000 1 0 0
-18.033592 -1.207805 7.480079 19.560696 0.066875 1.178400 -0.007624 0.003141 333087.000000 1 0 0
-1.827692 -8.627505 17.551179 19.642256 1.362038 0.465623 0.016209 -0.011435 332226.000000 1 0 0
6.081008 3.265395 15.145379 16.644037 0.492794 0.427613 0.010293 -0.006289 516258.000000 1 0 0
-13.672292 -7.062105 10.240879 18.484602 0.476781 0.983608 0.005537 -0.003336 199935.000000 1 0 0
3.721808 8.048495 17.296679 19.437213 1.137660 0.473726 0.008130 0.007769 178858.000000 1 0 0
6.873608 4.174495 18.046979 19.757691 0.545786 0.419199 0.031628 -0.011975 414892.000000 1 0 0
5.737908 -9.601505 18.272279 21.424021 -1.032140 0.549305 0.029342 0.008244 295959.000000 1 0 0
-4.640792 -0.579805 19.669979 20.218339 0.124293 0.233432 0.012275 -0.017017 741489.000000 1 0 0
-11.322192 1.989395 16.934479 20.467690 -0.173932 0.596376 0.047282 -0.009063 428946.000000 1 0 0
-16.801892 -4.078105 8.928979 19.459219 0.238112 1.094089 0.020838 -0.014654 337382.000000 1 0 0
-13.212092 -9.494705 11.977179 20.203010 0.623125 0.936214 0.015428 -0.023645 211015.000000 1 0 0
-14.880392 6.316295 12.798679 20.618628 -0.401422 0.901118 0.021466 -0.018674 499104.000000 1 0 0
1.106508 8.995295 16.938679 19.210897 1.448402 0.491295 0.000391 -0.016802 266505.000000 1 0 0
-3.551192 -10.068205 15.271279 18.633081 1.231706 0.610121 0.023335 -0.011820 629606.000000 1 0 0
-18.948692 -3.358705 6.729879 20.386886 0.175431 1.234378 0.105019 -0.013679 -302485.000000 1 0 0
-1.547192 -0.223605 21.548679 21.605309 0.143530 0.072419 0.013416 -0.003752 427827.000000 1 0 0
-2.103592 2.559695 20.297179 20.565812 -0.882895 0.161806 0.010849 -0.016127 113270.000000 1 0 0
-8.164392 2.322095 16.270379 18.351421 -0.277100 0.480853 0.012544 0.009755 591794.000000 1 0 0
2.828908 -2.020105 19.013379 19.328532 -0.620122 0.180829 0.026641 -0.009851 -47285.800000 1 0 0
-12.588792 4.482895 14.348079 19.607177 -0.342101 0.749871 0.011920 -0.002604 202048.000000 1 0 0
-13.311792 -5.620505 13.173879 19.553644 0.399514 0.831551 0.006718 -0.007645 -21086.800000 1 0 0
-17.477192 -0.759805 9.796179 20.049805 0.043447 1.060321 0.023113 -0.010155 95039.200000 1 0 0
-7.019192 7.861095 14.925079 18.270847 -0.841916 0.614816 0.005320 -0.007181 -56110.800000 1 0 0
-9.778592 0.661295 14.078179 17.153813 -0.067524 0.608157 0.023080 0.002352 305002.000000 1 0 0
7.914008 -0.993605 14.811179 16.822301 -0.124897 0.493988 0.023973 -0.010076 181104.000000 1 0 0
4.065408 5.967995 18.487179 19.847426 0.972798 0.372378 0.014548 -0.012677 -100073.000000 1 0 0
1.068908 0.458995 20.187579 20.221068 0.405596 0.057560 0.012835 -0.005520 77206.100000 1 0 0
-6.780292 7.376495 17.775279 20.404548 -0.827488 0.513271 0.004887 -0.007675 495191.000000 1 0 0
7.475408 -2.947805 17.272479 19.050192 -0.375612 0.435444 0.011540 0.012980 443687.000000 1 0 0
-16.039692 2.743595 9.300779 18.743093 -0.169411 1.051552 0.000502 -0.004612 99152.500000 1 0 0
3.679808 -6.002105 19.196279 20.446599 -1.020810 0.351523 0.017203 -0.015393 135550.000000 1 0 0
-4.042692 -3.690605 20.640979 21.354483 0.739901 0.259230 0.018720 -0.019322 440157.000000 1 0 0
-9.516892 5.734495 14.693479 18.421563 -0.542299 0.647451 0.012840 -0.004457 -124004.000000 1 0 0
6.836808 2.347195 19.833579 21.109764 0.330709 0.349496 0.033433 -0.016107 68900.500000 1 0 0
-7.195892 11.149095 14.884179 19.940461 -0.997645 0.728114 0.020220 -0.023114 141983.000000 1 0 0
-14.519392 4.900895 9.279779 17.914961 -0.325533 1.026296 0.000780 -0.005083 236660.000000 1 0 0
0.886008 -5.710205 20.486179 21.285559 -1.416862 0.274927 0.024145 -0.015590 316424.000000 1 0 0
-6.381492 -8.321705 13.726979 17.274379 0.916599 0.652376 0.029918 -0.006066 257874.000000 1 0 0
-12.579192 10.060795 6.661979 17.430939 -0.674617 1.178628 -0.017930 -0.018693 43845.500000 1 0 0
-19.351692 1.970995 7.504679 20.849293 -0.101501 1.202583 -0.007447 -0.005536 189608.000000 1 0 0
-15.332692 8.991595 6.249079 18.841210 -0.530384 1.232722 -0.014919 -0.014082 99625.400000 1 0 0
-11.896592 8.410895 13.707179 20.003970 -0.615409 0.815887 -0.012317 -0.018307 233501.000000 1 0 0
-16.451392 9.159795 11.001179 21.807707 -0.508033 1.042037 0.019900 -0.013035 386620.000000 1 0 0
2.752808 10.241795 15.788379 19.019601 1.308220 0.591490 0.001675 0.003625 390022.000000 1 0 0
1.892708 15.100395 13.069679 20.060428 1.446105 0.861216 0.000178 0.001110 614420.000000 1 0 0
8.461008 5.145395 16.446179 19.197410 0.546376 0.541983 0.000746 -0.001420 239898.000000 1 0 0
0.387508 12.987095 13.188779 18.513743 1.540967 0.777916 -0.008014 0.003682 117073.000000 1 0 0
4.121008 13.257095 15.048679 20.474277 1.269413 0.745123 0.010201 0.021359 56945.900000 1 0 0
-3.722792 -4.532105 -14.218321 15.380501 0.883126 2.750356 0.007799 -0.007910 54380.900000 1 0 0
5.560808 -12.105005 16.819679 21.455893 -1.140169 0.669843 -0.031164 0.018620 232063.000000 1 0 0
8.447808 -13.912505 7.243979 17.815681 -1.025092 1.152059 0.004153 0.003190 284315.000000 1 0 0
-0.523792 15.214895 0.410879 15.229452 -1.536384 1.543814 0.008197 -0.005254 -315215.000000 1 0 0
-14.155192 7.804795 8.620279 18.319211 -0.503897 1.080872 0.011067 -0.007022 200761.000000 1 0 0
-16.045792 -9.719005 5.747479 19.620398 0.544603 1.273502 0.005443 0.002489 258103.000000 1 0 0
9.212208 -10.168005 11.560779 17.941704 -0.834676 0.870620 0.002962 0.002180 117014.000000 1 0 0
-25.855012 6.249095 30.982623 40.834492 -0.237150 0.709425 0.038616 -0.016797 23862.600000 0 0 1
-24.713992 5.492195 30.613903 39.726020 -0.218677 0.690973 0.038861 -0.018163 369226.000000 0 0 1
-23.739492 5.580995 31.662093 39.964974 -0.230900 0.656315 0.023942 -0.011022 96645.600000 0 0 1
-22.440092 4.849995 31.280643 38.801531 -0.212857 0.633146 0.023147 -0.014170 -365045.000000 0 0 1
-22.431492 3.452495 31.339753 38.694595 -0.152714 0.626771 0.035986 -0.015769 -930729.000000 0 0 1
-21.278792 3.037195 30.702503 37.478731 -0.141776 0.610785 0.024333 -0.013087 -906404.000000 0 0 1
-20.601092 2.050595 31.646693 37.816969 -0.099211 0.579314 0.017790 -0.011702 -355030.000000 0 0 1
-21.343992 0.845795 31.798533 38.307024 -0.039606 0.591515 0.023035 -0.014773 125839.000000 0 0 1
-20.952592 0.171295 32.929035 39.030268 -0.008175 0.566696 0.012666 -0.010231 -317608.000000 0 0 1
-21.242392 -1.349105 32.912676 39.195709 0.063425 0.574064 0.026759 -0.020138 -139593.000000 0 0 1
-20.490292 -2.187405 32.029623 38.085871 0.106350 0.571696 0.045721 -0.015629 125544.000000 0 0 1
-20.723992 -3.588005 32.211073 38.469610 0.171434 0.578448 0.053520 -0.022535 534902.000000 0 0 1
-22.152092 -4.121105 31.784143 38.960627 0.183934 0.616682 0.043937 -0.014985 816912.000000 0 0 1
-23.207192 -3.852805 32.677989 40.264983 0.164517 0.623956 0.039170 -0.006550 112860.000000 0 0 1
-23.360292 -4.764705 33.729490 41.304772 0.201206 0.615300 0.024910 -0.003919 202702.000000 0 0 1
-24.421892 -4.162805 -33.884551 41.975237 0.168831 2.510276 0.021669 0.003987 687315.000000 0 0 1
-24.436292 -4.863905 -32.633861 41.057993 0.196476 2.489513 0.036279 0.008029 127652.000000 0 0 1
-25.628722 -4.558505 -31.940961 41.204809 0.176026 2.457789 0.038531 0.007923 -34153.600000 0 0 1
-25.916522 -5.241705 -30.558761 40.410140 0.199561 2.428306 0.035706 0.006485 -592300.000000 0 0 1
-26.183182 -6.582505 -30.501861 40.733916 0.246298 2.417057 0.030437 0.007043 435298.000000 0 0 1
-25.998802 -7.054305 -29.179331 39.713150 0.264953 2.396098 0.023472 0.004731 -81272.000000 0 0 1
-26.142072 -8.589305 -29.213511 40.132447 0.317451 2.386091 0.028464 0.005676 -874169.000000 0 0 1
-27.480722 -8.908305 -29.075501 40.986982 0.313477 2.359420 0.038293 0.003587 -952904.000000 0 0 1
-27.668922 -10.229905 -28.671491 41.137265 0.354138 2.341961 0.038022 0.001890 -92277.600000 0 0 1
-29.145362 -10.474605 -28.346201 41.984242 0.345017 2.311982 0.058409 0.002215 -92953.000000 0 0 1
-29.345642 -11.446905 -27.307841 41.688326 0.371918 2.285042 0.054847 -0.000873 -480027.000000 0 0 1
-30.643852 -11.577505 -26.785741 42.315011 0.361231 2.256229 0.041626 0.008101 -177067.000000 0 0 1
-30.676742 -12.387005 -25.463641 41.748023 0.383771 2.226777 0.039290 0.001877 -17935.500000 0 0 1
-30.237582 -11.695705 -24.311321 40.523341 0.369070 2.214215 0.044216 0.000890 30731.800000 0 0 1
-30.065192 -12.590105 -23.210421 40.014374 0.396574 2.189589 0.043642 -0.006345 28437.800000 0 0 1
-29.287352 -11.904605 -22.039121 38.538182 0.386077 2.179589 0.058644 -0.013987 112750.000000 0 0 1
-29.175312 -12.528605 -20.720921 37.914658 0.405613 2.148993 0.049159 -0.011106 95030.900000 0 0 1
-28.137742 -13.475905 -20.591321 37.380945 0.446647 2.154180 0.057676 -0.008890 -309916.000000 0 0 1
-27.795112 -13.718705 -19.117321 36.417620 0.458487 2.123449 0.065653 -0.016548 60202.700000 0 0 1
-27.212072 -12.551105 -18.556521 35.247291 0.432156 2.125235 0.068172 -0.016361 216149.000000 0 0 1
-26.748292 -12.695205 -17.237321 34.260248 0.443136 2.098012 0.067305 -0.014696 16218.100000 0 0 1
-26.492732 -11.389105 -16.375621 33.162291 0.406010 2.087253 0.061694 -0.014601 113234.000000 0 0 1
-25.279832 -10.722205 -16.688221 32.133041 0.401143 2.116884 0.058359 -0.019358 360864.000000 0 0 1
-25.250952 -9.519205 -15.949121 31.346456 0.360509 2.104588 0.065259 -0.023579 -43043.200000 0 0 1
-23.879792 -8.798405 -16.027621 30.075588 0.353012 2.132834 0.070377 -0.018046 382351.000000 0 0 1
-22.980292 -9.186605 -15.002221 28.940528 0.380300 2.115753 0.054202 -0.015816 3922.630000 0 0 1
-21.772192 -8.452205 -15.061821 27.790764 0.370302 2.143578 0.052844 -0.031615 -239958.000000 0 0 1
-20.741392 -9.036005 -14.112321 26.664814 0.410857 2.128511 0.031071 -0.011659 -510475.000000 0 0 1
-20.046992 -10.187305 -14.582321 26.801253 0.470163 2.146102 0.020358 -0.001848 -484847.000000 0 0 1
-19.025992 -10.519605 -13.731321 25.713802 0.505072 2.134128 0.025050 0.001295 -592749.000000 0 0 1
-18.275592 -11.745405 -14.327221 26.023471 0.571214 2.153819 0.029264 -0.000899 169598.000000 0 0 1
-17.436792 -11.529705 -15.475521 26.008990 0.584228 2.208070 0.035030 -0.008318 810205.000000 0 0 1
-18.148292 -11.613605 -16.716621 27.270529 0.569262 2.230639 0.027723 -0.006500 32485.400000 0 0 1
-17.346192 -10.944605 -17.823421 27.172580 0.562868 2.286216 0.024176 -0.002369 -249117.000000 0 0 1
-17.850792 -11.339905 -19.020321 28.443221 0.565944 2.303271 0.018905 -0.002640 466048.000000 0 0 1
-17.209792 -10.599305 -20.070621 28.484242 0.552020 2.352686 0.023349 -0.002602 886695.000000 0 0 1
-18.211492 -10.707705 -21.287521 29.991197 0.531523 2.360000 0.042442 0.001118 1117320.000000 0 0 1
-19.425192 -9.951605 -21.229921 30.448022 0.473442 2.342352 0.029103 -0.005251 247297.000000 0 0 1
-20.379092 -10.571105 -22.003521 31.799537 0.478514 2.334976 0.038306 0.002812 -331385.000000 0 0 1
-21.520692 -9.743405 -22.616421 32.704382 0.425135 2.334417 0.036601 -0.006901 146154.000000 0 0 1
-21.035192 -8.818005 -23.637121 32.847374 0.396950 2.374029 0.040199 -0.019540 246791.000000 0 0 1
-22.048092 -8.269505 -24.426421 33.928647 0.358829 2.374505 0.041618 -0.022458 -404120.000000 0 0 1
-21.434692 -7.458905 -25.573001 34.191514 0.334877 2.415741 0.029486 -0.023065 56272.800000 0 0 1
-20.849392 -8.299605 -26.566191 34.775610 0.378845 2.440180 0.036865 -0.024477 313094.000000 0 0 1
-20.102492 -7.561505 -27.532951 34.919191 0.359776 2.479124 0.032531 -0.032394 -182231.000000 0 0 1
-18.873292 -8.336705 -28.023661 34.799818 0.415947 2.506947 0.036184 -0.022988 -627283.000000 0 0 1
-19.142492 -9.422105 -28.841991 35.875779 0.457395 2.504688 0.033250 -0.017092 75800.500000 0 0 1
-17.961692 -10.068505 -29.267951 35.785613 0.510910 2.528494 0.014004 -0.008688 -83097.700000 0 0 1
-18.217092 -11.264205 -30.215511 37.036763 0.553790 2.524950 0.014982 -0.004568 -312467.000000 0 0 1
-18.756392 -10.821405 -31.406421 38.147979 0.523295 2.537960 0.014637 -0.003822 240158.000000 0 0 1
-18.975492 -11.973805 -32.213561 39.257544 0.562912 2.533204 0.004267 0.007926 15240.600000 0 0 1
-19.445892 -11.798605 -33.673201 40.635382 0.545361 2.547518 0.000241 0.008154 375742.000000 0 0 1
-18.409092 -11.406005 34.048607 40.352191 0.554696 0.566498 0.003202 0.002616 420450.000000 0 0 1
-18.978992 -11.207105 32.781473 39.502232 0.533405 0.591933 0.001169 0.003942 117142.000000 0 0 1
-18.643892 -12.324405 31.698573 38.785116 0.584099 0.614109 0.004425 0.001364 -78778.900000 0 0 1
-17.280292 -12.273505 31.318643 37.816727 0.617579 0.594963 0.014434 -0.005012 300037.000000 0 0 1
-16.864892 -13.171705 30.281023 37.079088 0.663056 0.615196 0.022512 -0.002138 28250.500000 0 0 1
-17.033192 -14.703905 30.581433 37.967862 0.712136 0.634352 0.019871 0.004759 -55050.100000 0 0 1
-18.350592 -15.260305 30.457553 38.694750 0.693713 0.664665 0.000608 0.005942 452238.000000 0 0 1
-18.482992 -16.532005 31.092873 39.770529 0.729737 0.673238 0.017070 0.000895 -521987.000000 0 0 1
-18.654092 -16.643705 32.637979 41.112355 0.728505 0.653645 -0.002849 -0.002762 -780986.000000 0 0 1
-17.502192 -16.361805 33.350899 41.064801 0.751735 0.622964 0.006826 -0.001795 -704873.000000 0 0 1
-17.805292 -16.126205 -33.955261 41.593781 0.735954 2.525866 0.003833 0.000346 -223637.000000 0 0 1
-16.601692 -15.746205 -33.089851 40.230553 0.758958 2.536599 -0.003301 0.000187 -239843.000000 0 0 1
-16.063992 -14.515805 -33.541641 39.922451 0.734814 2.568393 -0.003917 0.000820 -219680.000000 0 0 1
-14.995592 -13.972105 -32.783941 38.663604 0.750081 2.582860 0.007395 -0.000433 -213340.000000 0 0 1
-15.256492 -13.554905 -31.282531 37.350940 0.726407 2.563543 0.015855 -0.001070 -396649.000000 0 0 1
-15.428892 -14.706505 -30.468411 37.184083 0.761431 2.531149 0.010914 -0.001782 -107919.000000 0 0 1
-15.716492 -14.325205 -29.158971 36.089683 0.739119 2.511476 0.018304 -0.001499 -343047.000000 0 0 1
-15.667192 -15.536005 -28.151721 35.767971 0.781194 2.476833 0.032013 -0.004080 629739.000000 0 0 1
-14.384692 -16.045205 -27.763261 35.144937 0.839913 2.481548 0.028549 -0.013919 616294.000000 0 0 1
-13.634892 -16.701205 -28.796071 35.972965 0.886134 2.498912 0.015629 -0.016152 204400.000000 0 0 1
-12.216592 -17.159105 -28.344931 35.314517 0.952089 2.502509 0.006121 -0.010223 473349.000000 0 0 1
-11.340692 -16.064005 -28.316201 34.474204 0.956075 2.534611 0.007789 -0.008791 89942.000000 0 0 1
-9.969292 -16.311805 -28.013711 33.915037 1.022204 2.542765 0.012566 -0.014307 1229580.000000 0 0 1
-9.084892 -15.013205 -28.013521 33.055846 1.026616 2.581979 0.013700 -0.013859 354583.000000 0 0 1
-9.324692 -14.220305 -26.826161 31.761767 0.990403 2.576624 0.014083 -0.015955 239564.000000 0 0 1
-8.206192 -13.364905 -26.603231 30.881939 1.020139 2.608913 0.022665 -0.016620 287098.000000 0 0 1
-8.199492 -12.024205 -27.365421 30.994829 0.972311 2.652805 0.020978 -0.023369 -260904.000000 0 0 1
-7.585792 -12.091805 -28.611241 31.974350 1.010509 2.678821 0.034108 -0.020438 63188.600000 0 0 1
-7.582792 -10.872705 -29.267661 32.129588 0.961807 2.716318 0.032043 -0.013880 -575000.000000 0 0 1
-6.530592 -10.903605 -30.357861 32.911046 1.031158 2.745101 0.031483 -0.003563 -853748.000000 0 0 1
-5.201092 -10.997505 -29.837631 32.222363 1.129035 2.754449 0.047134 -0.010857 115669.000000 0 0 1
-4.292292 -10.819605 -30.873081 32.994465 1.193126 2.781048 0.047749 -0.007623 -500171.000000 0 0 1
-4.132392 -9.360005 -31.397531 33.022588 1.155038 2.826571 0.028364 -0.002655 -732632.000000 0 0 1
-2.994492 -9.104805 -32.231841 33.626716 1.253049 2.852556 0.029385 -0.006190 390024.000000 0 0 1
-3.052392 -7.692205 -32.536691 33.572658 1.193038 2.892524 0.016963 -0.010089 356732.000000 0 0 1
-1.701192 -6.982805 -32.858881 33.635690 1.331826 2.926259 0.029498 -0.012991 556394.000000 0 0 1
-1.150592 -7.249905 -34.161583 34.941361 1.413405 2.929931 0.040346 -0.016226 -187145.000000 0 0 1
-0.289292 -6.254305 33.968382 34.540571 1.524574 0.182272 0.031447 -0.010218 60502.700000 0 0 1
0.466508 -6.804105 32.709475 33.412921 -1.502341 0.205560 0.026002 -0.006667 584811.000000 0 0 1
-0.382392 -7.058505 31.560413 32.342363 1.516675 0.220342 0.024949 -0.005160 641172.000000 0 0 1
0.422408 -7.660305 30.551423 31.499971 -1.515710 0.246028 0.023446 -0.009100 221674.000000 0 0 1
0.017508 -7.084605 29.177193 30.024999 -1.568325 0.238204 0.028002 -0.008902 -48275.900000 0 0 1
0.462608 -5.786205 28.838613 29.416999 -1.491016 0.198627 0.032145 -0.013596 -152263.000000 0 0 1
0.200908 -5.285005 27.560643 28.063512 -1.532800 0.189593 0.040305 -0.008003 -406442.000000 0 0 1
-1.052492 -4.464005 27.309803 27.692245 1.339252 0.166387 0.039322 -0.002391 -28628.800000 0 0 1
-2.296392 -5.119105 27.428523 27.996474 1.149114 0.201769 0.037073 0.001048 -411530.000000 0 0 1
-3.346392 -4.250105 27.136663 27.670566 0.903806 0.196760 0.025703 -0.008687 -839495.000000 0 0 1
-4.745292 -4.716605 27.464443 28.267646 0.782366 0.238955 0.024985 -0.004920 -536213.000000 0 0 1
-5.085092 -5.838105 26.659203 27.760669 0.854226 0.282639 0.022021 0.002025 -718857.000000 0 0 1
-6.411092 -6.250405 26.780043 28.237216 0.772708 0.322660 0.020043 -0.005102 -143150.000000 0 0 1
-6.548792 -7.780205 26.801183 28.665689 0.871126 0.362659 0.029260 -0.005953 250210.000000 0 0 1
-5.972192 -8.422405 27.945863 29.792202 0.954000 0.353906 0.027902 -0.008201 -82513.500000 0 0 1
-6.034192 -9.873805 27.913773 30.217251 1.022232 0.392987 0.029813 -0.013175 405479.000000 0 0 1
-5.201992 -10.560505 29.090803 31.382477 1.113095 0.384527 0.026788 -0.013727 347393.000000 0 0 1
-5.153792 -11.973805 28.946553 31.746441 1.164342 0.423139 0.041266 -0.024388 -29822.700000 0 0 1
-4.762492 -12.554705 30.156293 33.010665 1.208227 0.418912 0.053732 -0.024317 -195372.000000 0 0 1
-4.876192 -14.081705 30.070993 33.560934 1.237441 0.460092 0.070822 -0.035440 392883.000000 0 0 1
-6.202092 -14.565705 29.850723 33.788924 1.168247 0.487627 0.076887 -0.035489 290826.000000 0 0 1
-6.308792 -15.980705 29.882763 34.469745 1.194802 0.521792 0.074293 -0.035447 90694.800000 0 0 1
-6.319092 -16.696905 31.273153 36.010105 1.208997 0.518719 0.074465 -0.032731 -920631.000000 0 0 1
-7.545992 -16.735405 31.893553 36.799654 1.147194 0.522287 0.072256 -0.030307 -1186210.000000 0 0 1
-7.540492 -17.017305 33.278920 38.130490 1.153689 0.509960 0.065110 -0.028880 -677054.000000 0 0 1
-8.968592 -17.126005 33.836121 38.969460 1.088383 0.519086 0.054995 -0.021942 -17373.300000 0 0 1
-9.616992 -18.355805 33.562286 39.444254 1.088196 0.553140 0.059068 -0.020281 -102694.000000 0 0 1
-10.257092 -18.359705 32.311443 38.552770 1.061318 0.576988 0.057935 -0.025725 -1015010.000000 0 0 1
-10.864692 -19.702305 32.060653 39.167689 1.066846 0.611917 0.066899 -0.026518 -531212.000000 0 0 1
-12.092892 -19.977105 32.690076 40.174169 1.026461 0.620292 0.062135 -0.021387 -74883.000000 0 0 1
-12.445892 -21.311105 32.516213 40.821166 1.042217 0.649225 0.059302 -0.018785 -333465.000000 0 0 1
-11.925192 -22.280805 33.601987 42.044477 1.079369 0.644832 0.070484 -0.019415 -521934.000000 0 0 1
-10.519392 -22.371905 33.606808 41.720226 1.131267 0.634230 0.054604 -0.020373 -160443.000000 0 0 1
-10.031192 -23.227905 -33.977921 42.363422 1.163130 2.501529 0.039747 -0.025705 86790.200000 0 0 1
-10.331092 -24.717005 -34.013021 43.296043 1.174891 2.474448 0.073861 -0.013251 -429606.000000 0 0 1
-9.813092 -25.398225 33.507511 43.175455 1.202096 0.682374 0.070528 -0.008847 -51462.300000 0 0 1
-9.688392 -26.769555 33.869139 44.244691 1.223544 0.698984 0.076736 -0.012547 29478.600000 0 0 1
-8.892392 -27.724245 32.879290 43.917606 1.260418 0.724760 0.064135 -0.010960 297030.000000 0 0 1
-7.525192 -27.624365 32.607958 43.393698 1.304838 0.720548 0.062872 -0.014710 -90880.600000 0 0 1
-6.661992 -28.142995 33.618732 44.346696 1.338356 0.710419 0.057968 -0.012363 -573023.000000 0 0 1
-5.209892 -27.728945 33.509755 43.805719 1.385075 0.699812 0.060388 -0.021671 -601685.000000 0 0 1
-4.826792 -26.485215 34.042009 43.400725 1.390530 0.669125 0.056178 -0.016026 100930.000000 0 0 1
-4.974492 -25.383675 33.125250 42.028071 1.377277 0.662967 0.072877 -0.012731 -111342.000000 0 0 1
-4.547392 -24.009205 33.711516 41.636367 1.383612 0.627215 0.062836 -0.013878 -384381.000000 0 0 1
-3.222292 -23.972805 34.163000 41.859159 1.437183 0.616094 0.044660 -0.015917 -222050.000000 0 0 1
-2.886492 -22.850505 -33.613181 40.747065 1.445141 2.540862 0.043297 -0.021632 65098.200000 0 0 1
33.869305 -15.614905 2.465979 37.376947 -0.431992 1.504772 0.092187 -0.025943 -103352.000000 0 0 1
34.956975 -15.785505 3.323679 38.499599 -0.424158 1.484358 0.089378 -0.024707 40527.200000 0 0 1
34.454755 -16.135405 4.579179 38.320365 -0.437973 1.451013 0.089334 -0.028453 60954.300000 0 0 1
35.553195 -16.201805 5.661479 39.478862 -0.427589 1.426895 0.075930 -0.013110 -62710.200000 0 0 1
-35.536032 -17.333605 5.523779 39.922119 0.453820 1.431987 0.081217 -0.016842 -369827.000000 0 0 1
-34.630132 -17.542405 6.552779 39.369035 0.468886 1.403573 0.073349 -0.019251 -559271.000000 0 0 1
-33.524422 -18.564305 6.361179 38.845655 0.505721 1.406300 0.051893 -0.020080 -264441.000000 0 0 1
-33.871472 -19.946905 6.366779 39.820742 0.532218 1.410221 0.061531 -0.021990 201358.000000 0 0 1
-32.725632 -20.587905 6.905279 39.274823 0.561547 1.394058 0.036652 -0.013515 261274.000000 0 0 1
-32.881652 -22.105505 7.153579 40.262018 0.591875 1.392172 0.036135 -0.011948 -679973.000000 0 0 1
-32.647452 -22.905805 5.980979 40.327461 0.611806 1.421937 0.047533 -0.005372 156032.000000 0 0 1
-32.977442 -24.268105 6.123279 41.399845 0.634416 1.422346 0.058925 -0.015236 -7478.980000 0 0 1
-32.394372 -25.091815 4.944079 41.272733 0.659043 1.450718 0.050315 -0.009486 495650.000000 0 0 1
-33.133662 -24.871605 3.719079 41.596489 0.643914 1.481268 0.044080 -0.008417 310770.000000 0 0 1
-32.483382 -25.509935 2.647379 41.387625 0.665727 1.506787 0.033898 -0.001137 8589.880000 0 0 1
-33.090942 -25.212105 1.248879 41.619952 0.651076 1.540785 0.030625 -0.003048 2889.700000 0 0 1
-34.194050 -26.065485 0.906379 43.005396 0.651315 1.549719 0.034983 -0.001844 498111.000000 0 0 1
-34.681127 -25.654605 -0.367121 43.140168 0.636895 1.579306 0.033851 0.004258 168931.000000 0 0 1
-35.649650 -24.435105 -0.429121 43.222171 0.600876 1.580725 0.048426 -0.005724 -823460.000000 0 0 1
34.927335 -24.639205 0.000279 42.743528 -0.614369 1.570790 0.029921 0.001954 -339550.000000 0 0 1
34.284965 -23.489905 0.492579 41.562930 -0.600681 1.558945 0.040586 0.001586 203316.000000 0 0 1
32.747975 -23.418405 0.432479 40.262124 -0.620795 1.560055 0.022208 0.005186 302178.000000 0 0 1
32.217755 -23.254405 -0.888021 39.743423 -0.625200 1.593142 0.014635 -0.007181 928146.000000 0 0 1
30.782385 -23.124405 -0.890821 38.510868 -0.644283 1.593930 0.008808 -0.001441 1143390.000000 0 0 1
30.260415 -23.111805 -2.359621 38.149916 -0.652252 1.632687 0.013089 0.000791 64065.400000 0 0 1
30.755425 -21.924005 -3.017121 37.890120 -0.619298 1.650509 0.017675 -0.002321 200719.000000 0 0 1
30.423935 -21.787605 -4.359521 37.673877 -0.621472 1.686773 0.023786 -0.029109 -47432.800000 0 0 1
30.571425 -20.402705 -4.904721 37.080166 -0.588495 1.703459 0.032863 -0.029059 426937.000000 0 0 1
29.664505 -19.525605 -4.211321 35.762653 -0.582128 1.688828 0.043860 -0.025308 240488.000000 0 0 1
29.802795 -18.139005 -4.420221 35.167719 -0.546744 1.696819 0.047491 -0.023783 -100010.000000 0 0 1
28.956935 -17.437505 -3.330821 33.965645 -0.542026 1.669019 0.059032 -0.020026 -53504.900000 0 0 1
29.347715 -17.496305 -1.957521 34.223398 -0.537601 1.628026 0.064172 -0.010658 -339728.000000 0 0 1
29.782755 -18.653305 -1.349121 35.167861 -0.559542 1.609168 0.049195 0.006191 -482538.000000 0 0 1
28.813015 -19.813505 -1.125821 34.986173 -0.602395 1.602981 0.032086 0.011134 -335514.000000 0 0 1
27.740285 -19.591005 -0.241721 33.961586 -0.614895 1.577914 0.030539 0.018298 -140583.000000 0 0 1
27.150065 -20.782405 0.167679 34.191556 -0.653325 1.565892 0.028702 0.010722 -303163.000000 0 0 1
26.123315 -20.408905 1.275779 33.174970 -0.663205 1.532331 0.023920 0.012091 -523394.000000 0 0 1
25.461515 -21.556705 1.817279 33.410819 -0.702539 1.516378 0.017234 0.022329 505997.000000 0 0 1
24.448115 -21.286405 2.790079 32.536225 -0.716376 1.484938 0.013168 0.021635 1524990.000000 0 0 1
23.060715 -20.713105 2.264079 31.079823 -0.731819 1.497884 0.017864 0.015638 418349.000000 0 0 1
22.996915 -19.383905 1.785079 30.129394 -0.700353 1.511515 0.041085 0.000141 59593.900000 0 0 1
23.098815 -18.382005 2.781179 29.651110 -0.672174 1.476861 0.046163 0.000679 -262248.000000 0 0 1
22.916615 -16.963805 2.161779 28.593972 -0.637226 1.495121 0.042308 0.007249 -1263320.000000 0 0 1
21.627715 -16.595605 1.911479 27.328116 -0.654501 1.500794 0.042920 0.005192 -1246130.000000 0 0 1
21.635615 -15.284505 1.389879 26.526359 -0.615042 1.518376 0.053233 -0.006713 -624650.000000 0 0 1
20.253915 -14.855605 0.948079 25.135810 -0.632837 1.533069 0.035174 -0.002470 -635385.000000 0 0 1
19.312415 -14.768505 2.027279 24.396475 -0.652853 1.487603 0.034388 -0.002326 683105.000000 0 1 0
18.359115 -13.713905 1.813579 22.987331 -0.641566 1.491820 0.042641 -0.006871 209401.000000 0 1 0
18.846715 -12.343505 2.343279 22.650646 -0.579842 1.467158 0.047991 -0.008564 -312686.000000 0 1 0
19.576715 -11.603605 1.385179 22.799345 -0.535053 1.510004 0.038954 -0.014276 465779.000000 0 1 0
20.084715 -10.390805 1.947679 22.697094 -0.477430 1.484879 0.036592 -0.022034 229437.000000 0 1 0
21.026115 -9.616105 0.933179 23.139529 -0.428942 1.530457 0.051231 -0.016360 559614.000000 0 1 0
20.320815 -8.966805 -0.159521 22.211812 -0.415564 1.577978 0.044970 -0.013388 1076090.000000 0 1 0
21.159215 -8.931905 -1.302721 23.004095 -0.399436 1.627457 0.047703 -0.001779 101926.000000 0 1 0
20.365415 -8.617805 -2.612421 22.267497 -0.400310 1.688387 0.042501 -0.002236 -204849.000000 0 1 0
21.199315 -8.145605 -3.628121 22.998372 -0.366846 1.729214 0.042657 -0.000120 576307.000000 0 1 0
22.181415 -9.002705 -4.212821 24.306619 -0.385554 1.744996 0.040133 0.004014 -231267.000000 0 1 0
21.655015 -10.237705 -5.019721 24.473412 -0.441622 1.777372 0.032811 0.001135 -353430.000000 0 1 0
21.054415 -9.947505 -6.257821 24.112270 -0.441379 1.833330 0.023418 -0.000319 -87719.400000 0 1 0
19.740715 -9.470905 -6.258221 22.771895 -0.447329 1.849201 0.017418 0.001145 -956185.000000 0 1 0
19.134615 -9.429205 -7.644421 22.660110 -0.457857 1.914898 0.022823 0.000166 -403433.000000 0 1 0
19.032015 -10.623205 -8.423921 23.367339 -0.509098 1.939600 0.022638 0.000946 -51271.200000 0 1 0
20.200815 -10.948705 -9.098921 24.713102 -0.496675 1.947849 0.021143 -0.001887 -700704.000000 0 1 0
20.102415 -12.286505 -9.785721 25.511284 -0.548611 1.964470 0.016652 -0.006151 -107961.000000 0 0 1
19.115515 -12.291905 -10.802021 25.163019 -0.571462 2.014494 0.035739 -0.009313 86412.000000 0 0 1
19.050715 -13.529005 -11.443021 26.017426 -0.617510 2.026196 0.047075 -0.009695 -266800.000000 0 0 1
17.684615 -13.918705 -12.022321 25.514940 -0.666796 2.061433 0.050523 -0.017734 -308998.000000 0 0 1
17.611215 -15.320705 -12.223921 26.349633 -0.715957 2.053203 0.054294 -0.019932 517817.000000 0 0 1
16.609415 -15.459805 -13.235321 26.268840 -0.749566 2.098836 0.071342 -0.021819 101771.000000 0 0 1
16.661015 -16.878105 -13.804521 27.441295 -0.791871 2.097928 0.076356 -0.017657 -318489.000000 0 0 1
16.223215 -17.829905 -12.850821 27.317427 -0.832545 2.060569 0.062165 -0.011779 282564.000000 0 0 1
16.080015 -19.106105 -13.429621 28.354274 -0.871189 2.064212 0.065744 -0.017483 -713844.000000 0 0 1
15.178015 -19.966105 -12.564121 28.051286 -0.920806 2.035209 0.054190 -0.009131 186840.000000 0 0 1
13.802315 -19.838405 -12.907321 27.398269 -0.962937 2.061334 0.052260 -0.011689 147678.000000 0 0 1
12.949915 -20.356605 -11.897421 26.900563 -1.004217 2.028929 0.037438 0.002386 44476.700000 0 0 1
11.479115 -20.398205 -12.318821 26.450146 -1.058216 2.055264 0.028546 -0.001708 -346044.000000 0 0 1
10.661315 -21.109605 -11.444821 26.272857 -1.103120 2.021516 0.028202 -0.003038 346073.000000 0 0 1
9.276315 -20.761105 -11.614821 25.533852 -1.150597 2.043033 0.016892 0.002293 913160.000000 0 0 1
8.457315 -21.223405 -10.379521 25.093696 -1.191592 1.997235 0.007033 0.001509 -182120.000000 0 0 1
8.347115 -22.627705 -10.307021 26.228268 -1.217394 1.974660 0.021205 0.003571 -8096.280000 0 0 1
7.593215 -23.080205 -9.201321 25.981091 -1.252958 1.932806 0.019331 -0.011533 -169573.000000 0 0 1
7.676415 -24.605005 -9.042621 27.314879 -1.268380 1.908214 0.028180 -0.007703 -1114120.000000 0 0 1
8.989115 -24.953705 -8.921221 27.983563 -1.225036 1.895262 0.015736 0.003159 -1679400.000000 0 0 1
9.236815 -26.274055 -9.415921 29.399053 -1.232736 1.896821 0.018404 0.001141 -80097.600000 0 0 1
10.675015 -26.699715 -9.116321 30.165179 -1.190447 1.877810 0.011267 0.008483 -234486.000000 0 0 1
10.921715 -27.090685 -7.792721 30.231037 -1.187574 1.831512 0.023715 0.003629 -154064.000000 0 0 1
12.227515 -27.618525 -7.671121 31.163138 -1.154006 1.819513 0.025466 0.007739 -274518.000000 0 0 1
12.566215 -28.088125 -6.240521 31.397399 -1.150119 1.770888 0.030313 -0.004112 -108959.000000 0 0 1
11.996115 -29.282385 -5.758321 32.164004 -1.181982 1.750797 0.049591 -0.010276 -1136330.000000 0 0 1
10.629915 -29.283525 -5.582021 31.649311 -1.222588 1.748095 0.051930 -0.009775 -1347140.000000 0 0 1
10.192515 -30.399835 -4.677621 32.402430 -1.247293 1.715663 0.070055 -0.015327 -77537.500000 0 0 1
10.462915 -31.735365 -5.084921 33.800332 -1.252326 1.721810 0.082718 -0.018337 218248.000000 0 0 1
9.517815 -32.284555 -6.032921 34.194699 -1.284108 1.748153 0.088643 -0.019257 534629.000000 0 0 1
9.635015 -33.799885 -6.298721 35.706297 -1.293101 1.748128 0.077927 -0.020337 -79117.800000 0 0 1
9.337915 34.201095 -5.088321 35.816233 1.304263 1.713346 0.072556 -0.019446 14138.600000 0 0 1
9.356515 32.838174 -5.417021 34.572159 1.293224 1.728132 0.076293 -0.011513 195615.000000 0 0 1
8.876315 31.892865 -4.240721 33.375553 1.299349 1.698201 0.054935 -0.007757 1014610.000000 0 0 1
7.466715 31.639535 -4.242121 32.784259 1.339043 1.700555 0.048055 -0.004316 69668.200000 0 0 1
7.056115 30.891555 -3.091721 31.837646 1.346233 1.668059 0.030056 0.000169 -39380.300000 0 0 1
5.727815 30.186285 -3.396521 30.912069 1.383277 1.680895 0.030878 -0.004726 -278872.000000 0 0 1
5.745715 29.366735 -4.580421 30.272077 1.377583 1.722688 0.029127 -0.008422 -92718.600000 0 0 1
5.317715 30.084645 -5.692121 31.076747 1.395845 1.755000 0.038829 -0.017071 -491317.000000 0 0 1
5.494915 29.479035 -7.090221 30.813614 1.386510 1.802977 0.044393 -0.022527 -25398.800000 0 0 1
4.619015 28.404215 -7.434321 29.722111 1.409590 1.823608 0.032670 -0.023960 -110557.000000 0 0 1
5.060415 27.176845 -7.071821 28.534179 1.386701 1.821243 0.031725 -0.017466 -929133.000000 0 0 1
4.208315 26.039715 -7.569621 27.442227 1.410570 1.850258 0.026289 -0.021980 -509983.000000 0 0 1
2.872715 25.970985 -7.142421 27.087981 1.460632 1.837626 0.024991 -0.019373 -191176.000000 0 0 1
1.921215 26.608015 -7.990821 27.848353 1.498717 1.861828 0.032738 -0.028198 468014.000000 0 0 1
1.331015 25.734635 -9.158621 27.348188 1.519122 1.912284 0.041923 -0.025231 -247076.000000 0 0 1
2.294215 25.730475 -10.178821 27.765611 1.481868 1.946146 0.041481 -0.021526 25170.200000 0 0 1
2.056615 24.853555 -11.277621 27.369940 1.488235 1.995493 0.057873 -0.017307 -497485.000000 0 0 1
1.936515 23.313315 -11.053221 25.873431 1.487922 2.012194 0.061813 -0.018513 -101365.000000 0 0 1
0.811215 22.950715 -10.292121 25.165873 1.535465 1.992123 0.058999 -0.016429 -165030.000000 0 0 1
0.722415 21.547315 -10.115021 23.814330 1.537282 2.009477 0.034565 -0.012165 -366702.000000 0 1 0
-0.401485 21.072315 -9.166021 22.983028 -1.551746 1.981023 0.040796 -0.006123 -229988.000000 0 1 0
-1.636685 21.080115 -9.822621 23.313813 -1.493311 2.005699 0.052069 -0.010888 -305291.000000 0 1 0
-2.684085 20.477115 -9.054721 22.550045 -1.440462 1.983993 0.047752 -0.009753 230320.000000 0 1 0
-3.929685 20.207415 -9.902121 22.843687 -1.378726 2.019139 0.042490 -0.017169 -625591.000000 0 1 0
-4.888485 19.475015 -9.238921 22.102741 -1.324864 2.002038 0.032090 -0.019760 -188944.000000 0 1 0
-6.020085 19.229115 -10.054021 22.518517 -1.267391 2.033622 0.038197 -0.015709 -355777.000000 0 1 0
-6.902085 18.000815 -9.645021 21.556775 -1.204654 2.034679 0.038277 -0.015433 495107.000000 0 1 0
-7.939885 18.250415 -8.683421 21.714539 -1.160442 1.982193 0.046322 -0.016656 -219310.000000 0 1 0
-9.098385 18.712815 -9.291521 22.787769 -1.118240 1.990776 0.046286 -0.017629 -1407050.000000 0 1 0
-10.165385 19.026015 -8.267921 23.101576 -1.080095 1.936808 0.061660 -0.019765 -393558.000000 0 1 0
-10.432585 17.909815 -7.382021 22.002148 -1.043339 1.912947 0.048014 -0.021305 -540680.000000 0 1 0
-11.296285 18.308215 -6.378321 22.438355 -1.017966 1.859031 0.038682 -0.014118 -599265.000000 0 1 0
-11.883185 17.094515 -5.628321 21.566421 -0.963335 1.834830 0.030468 -0.015490 -170870.000000 0 1 0
-12.644785 17.445215 -4.501121 22.011047 -0.943601 1.776743 0.037094 -0.014650 -141576.000000 0 1 0
-13.158985 16.337515 -3.793421 21.318145 -0.892744 1.749692 0.040522 -0.011370 -99842.900000 0 1 0
-14.370685 16.797515 -2.940121 22.300615 -0.863104 1.703022 0.043955 -0.004524 298583.000000 0 1 0
-15.528485 16.887215 -3.783921 23.251450 -0.827289 1.734262 0.074276 -0.012631 1394720.000000 0 1 0
-16.721785 17.326115 -3.091021 24.276877 -0.803146 1.698467 0.077325 -0.003053 1781360.000000 0 1 0
-18.012785 17.569115 -3.973321 25.473938 -0.772930 1.727412 0.084491 -0.015497 924094.000000 0 0 1
-17.850185 18.584615 -4.932321 26.236326 -0.805553 1.759918 0.074875 -0.012266 -29375.700000 0 0 1
-19.058085 18.692015 -5.639121 27.283726 -0.775701 1.778981 0.063191 -0.015733 187671.000000 0 0 1
-18.848185 19.565415 -6.871621 28.022825 -0.804067 1.818538 0.055310 -0.006077 57169.200000 0 0 1
-18.576385 20.941815 -6.518421 28.742503 -0.845184 1.799574 0.052915 -0.013448 104148.000000 0 0 1
-18.113485 21.719615 -7.599021 29.284555 -0.875683 1.833289 0.039782 0.002925 -306645.000000 0 0 1
-17.888985 23.246515 -7.215421 30.207260 -0.914910 1.811992 0.041368 -0.004684 179110.000000 0 0 1
-16.745485 23.532215 -6.418221 29.586652 -0.952329 1.789464 0.031700 -0.007198 267018.000000 0 0 1
-17.034485 24.493245 -5.454921 30.329011 -0.963112 1.751639 0.032569 -0.015062 204176.000000 0 0 1
-15.777785 24.891305 -4.626121 29.831469 -1.005846 1.726500 0.027533 -0.006637 73863.500000 0 0 1
-16.034885 25.888195 -3.589521 30.662695 -1.016241 1.688130 0.033671 -0.007526 220780.000000 0 0 1
-14.902385 26.660325 -3.206621 30.710526 -1.061091 1.675401 0.025426 -0.004522 277778.000000 0 0 1
-14.367985 27.691875 -4.261221 31.487092 -1.092181 1.706545 0.032144 -0.008265 57046.700000 0 0 1
-15.183785 28.831255 -4.507021 32.895316 -1.086062 1.708240 0.042002 -0.015477 -27224.600000 0 0 1
-14.504485 29.776475 -5.290621 33.541157 -1.117512 1.729193 0.044726 -0.012383 209760.000000 0 0 1
-15.212885 31.134635 -4.917421 34.999691 -1.116297 1.711762 0.061404 -0.019566 -93894.600000 0 0 1
-16.547585 31.143545 -5.313821 35.664824 -1.082398 1.720346 0.063004 -0.014431 -678653.000000 0 0 1
-17.154885 32.324555 -4.770121 36.904214 -1.082886 1.700416 0.079061 -0.018902 13244.700000 0 0 1
12.657308 -8.654305 18.757283 24.226847 -0.599730 0.685290 0.026036 -0.007621 -63373.400000 0 1 0
12.925308 -10.000205 19.155983 25.179742 -0.658492 0.706298 0.025379 -0.006766 -20640.300000 0 0 1
13.497108 -10.874505 18.197283 25.131015 -0.678202 0.761073 0.033717 -0.011515 74479.100000 0 0 1
14.042208 -12.189805 18.785483 26.432354 -0.714899 0.780303 0.048819 -0.017161 -1210420.000000 0 0 1
15.119308 -12.192805 19.633083 27.617312 -0.678655 0.780023 0.037719 -0.015841 -540699.000000 0 0 1
15.358508 -13.442405 20.281083 28.773328 -0.718967 0.788575 0.039272 -0.015486 -128693.000000 0 0 1
15.803908 -14.627105 19.417983 28.996100 -0.746746 0.837024 0.048006 -0.018932 -1342530.000000 0 0 1
14.885208 -14.940905 18.451783 28.022641 -0.787266 0.852026 0.044068 -0.021825 -366992.000000 0 0 1
15.227208 -16.108705 17.720683 28.379233 -0.813521 0.896402 0.045272 -0.021705 -563519.000000 0 0 1
14.492108 -16.294205 16.409783 27.291085 -0.843867 0.925685 0.043343 -0.023546 -264524.000000 0 0 1
13.102208 -16.492305 16.542383 26.782727 -0.899453 0.905044 0.059180 -0.028602 -108412.000000 0 0 1
12.309608 -16.389205 15.388383 25.630740 -0.926604 0.926810 0.063939 -0.027371 83172.100000 0 0 1
12.115508 -17.697905 14.556383 25.920835 -0.970499 0.974513 0.053792 -0.018988 -604944.000000 0 0 1
13.297108 -18.251205 14.098283 26.621066 -0.941158 1.012678 0.051630 -0.018640 -473678.000000 0 0 1
12.883708 -19.277105 13.214583 26.687487 -0.981634 1.052777 0.053201 -0.010869 192762.000000 0 0 1
13.985008 -20.213105 12.630683 27.634838 -0.965542 1.096113 0.059323 -0.020487 -443454.000000 0 0 1
14.697208 -20.877005 13.612483 28.933665 -0.957397 1.080971 0.049004 -0.015300 -333907.000000 0 0 1
15.119908 -22.147405 13.146983 29.865739 -0.971780 1.114972 0.035180 -0.018028 -95581.400000 0 0 1
15.767908 -23.042005 14.244983 31.344545 -0.970677 1.099025 0.029199 -0.011093 426404.000000 0 0 1
17.122408 -22.712105 14.527183 31.938310 -0.924811 1.098591 0.009898 -0.011096 -41128.400000 0 0 1
17.579008 -23.440105 15.568983 33.179110 -0.927324 1.082366 0.010146 -0.009892 -622437.000000 0 0 1
19.012708 -23.062505 15.951683 33.879469 -0.881354 1.080558 0.000798 -0.001049 -325169.000000 0 0 1
19.941208 -23.659205 15.081283 34.421721 -0.870467 1.117276 0.000542 -0.007964 -676278.000000 0 0 1
21.175408 -22.997605 15.197483 34.759909 -0.826626 1.118299 0.010289 -0.002813 -59758.600000 0 0 1
22.409508 -23.767405 14.687583 35.816208 -0.814796 1.148252 0.016389 -0.004428 -77550.600000 0 0 1
22.694908 -24.877105 15.437183 37.043702 -0.831237 1.140952 0.026022 -0.001662 41908.600000 0 0 1
23.867508 -25.532585 15.007483 38.036764 -0.819091 1.165216 0.031801 -0.009114 -171488.000000 0 0 1
24.445708 -26.680325 15.871483 39.513749 -0.829078 1.157457 0.049840 -0.010767 -28396.400000 0 0 1
25.000508 -26.207715 17.099483 40.053241 -0.808968 1.129714 0.046356 0.000084 160208.000000 0 0 1
25.354408 -27.301805 17.944583 41.355080 -0.822365 1.121963 0.057775 0.001183 120478.000000 0 0 1
25.761308 -26.790255 19.350283 41.902222 -0.804975 1.090777 0.050626 0.002865 -215664.000000 0 0 1
24.700608 -26.377295 20.164083 41.382025 -0.818212 1.061839 0.054166 0.009468 -272852.000000 0 0 1
25.097708 -26.033825 21.466783 42.053273 -0.803704 1.035069 0.052043 0.017255 442693.000000 0 0 1
23.829108 -25.829485 22.376283 41.661574 -0.825659 1.003805 0.049165 0.018036 515457.000000 0 0 1
23.363208 -27.152545 22.596883 42.352324 -0.860271 1.008009 0.049632 0.015793 -1329550.000000 0 0 1
22.115808 -27.264945 23.134383 42.043857 -0.889297 0.988140 0.052980 0.003320 -1314310.000000 0 0 1
21.664208 -28.737975 23.095683 42.762364 -0.924834 1.000248 0.075108 0.003911 -487482.000000 0 0 1
22.450408 -29.615205 23.843253 44.154071 -0.922150 1.000358 0.069655 0.000800 186304.000000 0 0 1
22.120608 -30.923545 23.516183 44.705680 -0.949854 1.016880 0.066450 0.000267 -340845.000000 0 0 1
23.099708 -31.914995 24.139583 46.204793 -0.944283 1.021077 0.051811 0.005737 -162406.000000 0 0 1
22.853608 -32.068445 25.541733 46.936689 -0.951630 0.995392 0.047919 0.000228 215659.000000 0 0 1
24.005308 -32.458285 26.233143 48.145331 -0.934001 0.994557 0.033518 0.001762 -720356.000000 0 0 1
23.603908 -32.780335 27.691763 48.974775 -0.946732 0.969843 0.020872 -0.008695 52862.400000 0 0 1
22.980608 -33.978235 27.995863 49.662835 -0.976131 0.971915 0.024550 -0.007303 345566.000000 0 0 1
21.609608 -34.069415 27.627503 48.897640 -1.005550 0.970355 0.033629 -0.008771 4378.740000 0 0 1
20.907808 33.377915 28.180083 48.428698 1.011193 0.949748 0.040362 -0.025697 -114060.000000 0 0 1
20.564708 33.358910 29.521943 49.063930 1.018356 0.925164 0.024701 -0.023557 20238.100000 0 0 1
20.076008 32.111105 29.949493 48.281894 1.012050 0.901665 0.032868 -0.026513 -83301.400000 0 0 1
19.899808 32.115525 31.440323 49.151839 1.016066 0.876744 0.022349 -0.028310 1159470.000000 0 0 1
21.186908 32.329345 32.093503 50.240070 0.990672 0.877855 0.003860 -0.016307 1295800.000000 0 0 1
20.988608 32.871231 33.362203 51.323251 1.002541 0.863158 -0.011683 -0.013582 399218.000000 0 0 1
22.306008 32.605915 34.158629 52.225623 0.970815 0.857859 -0.029031 0.001203 583442.000000 0 0 1
22.533908 31.305675 -33.961091 51.392392 0.946903 2.292706 -0.017446 -0.007866 -398523.000000 0 0 1
23.750508 31.306275 -33.270701 51.488921 0.921782 2.273354 -0.018079 0.005053 -483089.000000 0 0 1
24.164408 29.895155 -32.856031 50.568346 0.891012 2.278032 -0.002492 -0.002742 -442446.000000 0 0 1
24.342208 29.113065 -33.963341 50.927617 0.874412 2.300830 0.001373 -0.008888 42138.900000 0 0 1
23.679708 27.885135 -33.915891 49.885839 0.866774 2.318382 0.001865 -0.017094 -258301.000000 0 0 1
23.763008 27.177625 33.397625 49.180334 0.852329 0.824281 0.035908 -0.023104 -425853.000000 0 0 1
25.076608 26.818955 33.076407 49.418027 0.818960 0.837505 0.021635 -0.024606 83131.700000 0 0 1
25.128508 26.106145 31.865203 48.253123 0.804477 0.849477 0.033387 -0.032282 -390293.000000 0 0 1
26.515808 25.483315 31.649093 48.519610 0.765545 0.860188 0.021940 -0.022988 -284534.000000 0 0 1
26.662608 24.319355 32.471313 48.545977 0.739468 0.838099 0.027817 -0.028205 576297.000000 0 0 1
27.803308 24.420625 33.323087 49.797781 0.720716 0.837708 0.033235 -0.033613 -702011.000000 0 0 1
27.842708 23.513915 -34.058201 49.880674 0.701308 2.322376 0.031545 -0.042602 -231561.000000 0 0 1
26.949408 23.769795 -32.956331 48.758522 0.722790 2.312994 0.037851 -0.036815 884970.000000 0 0 1
25.559008 23.728885 -33.236911 48.176915 0.748284 2.332137 0.023739 -0.032451 -89233.600000 0 0 1
24.891108 22.324715 -33.349471 47.224436 0.731097 2.354900 0.015538 -0.032774 -586150.000000 0 0 1
24.852708 21.627715 -32.137061 46.023970 0.716125 2.343771 0.004093 -0.035558 377227.000000 0 0 1
24.603008 20.244215 -32.339041 45.397685 0.688510 2.363637 0.001162 -0.025925 -324274.000000 0 0 1
24.430908 19.453815 -31.064311 44.048968 0.672468 2.353533 0.002893 -0.027853 -358033.000000 0 0 1
23.271808 19.703615 -30.302891 42.989239 0.702559 2.353071 -0.001807 -0.022643 -40513.700000 0 0 1
23.210208 18.838815 -29.200771 41.788751 0.681811 2.344474 0.006793 -0.018112 246984.000000 0 0 1
21.860108 18.889215 -28.417571 40.524377 0.712620 2.347941 0.029179 -0.022964 282102.000000 0 0 1
21.825108 18.314815 -27.102341 39.323081 0.698169 2.331211 0.030523 -0.016316 -110110.000000 0 0 1
22.569408 19.005215 -26.120811 39.406511 0.699877 2.295422 0.018285 -0.006081 -242063.000000 0 0 1
22.684408 18.210215 -24.785821 38.216897 0.676424 2.276483 0.024352 0.002978 58734.200000 0 0 1
23.429808 17.001715 -24.857121 38.156135 0.627731 2.280301 0.017413 -0.017846 252509.000000 0 0 1
23.306008 16.230315 -23.663121 36.966693 0.608306 2.265451 0.022199 -0.007793 -295566.000000 0 0 1
24.380008 15.088015 -23.574121 37.118353 0.554178 2.258943 0.036911 -0.016301 26264.200000 0 0 1
25.635908 15.643315 -23.235721 37.971197 0.547894 2.229295 0.067357 -0.027214 674040.000000 0 0 1
26.709908 14.708715 -22.967221 38.174058 0.503368 2.216355 0.070022 -0.034634 751967.000000 0 0 1
26.576308 13.866315 -21.696621 37.004300 0.480900 2.197314 0.054952 -0.025420 -908799.000000 0 0 1
25.624808 12.861115 -21.828521 36.035030 0.465167 2.221515 0.040748 -0.015325 -407536.000000 0 0 1
25.331108 12.240715 -20.623521 34.883087 0.450141 2.203365 0.032807 -0.025051 623432.000000 0 0 1
23.847608 11.682615 -20.664121 33.648147 0.455524 2.232071 0.034427 -0.019802 1169480.000000 0 0 1
22.943608 12.773015 -20.494421 33.310364 0.507983 2.233508 0.052146 -0.017480 -496966.000000 0 0 1
21.686308 12.461515 -21.044821 32.687456 0.521553 2.270276 0.043190 -0.019126 451309.000000 0 0 1
20.685108 13.668915 -20.898121 32.425983 0.583937 2.271148 0.035337 -0.014177 -148203.000000 0 0 1
21.189108 14.769215 -21.628921 33.688547 0.608723 2.267934 0.022446 -0.007131 753971.000000 0 0 1
20.317008 15.940915 -21.792021 33.790320 0.665286 2.271714 0.015147 0.001097 98591.100000 0 0 1
19.072708 15.829015 -22.689921 33.602952 0.692726 2.312081 0.026417 0.010437 -201220.000000 0 0 1
18.093608 15.033515 -22.084621 32.266325 0.693285 2.324643 0.035831 -0.001237 135824.000000 0 0 1
17.038408 14.603215 -22.939921 32.090516 0.708588 2.367207 0.045451 -0.013989 365591.000000 0 0 1
15.813508 14.032415 -22.188121 30.647812 0.725793 2.380338 0.046346 -0.019195 226900.000000 0 0 1
14.700108 13.835615 -23.027121 30.622960 0.755112 2.421821 0.043211 -0.017932 -42796.800000 0 0 1
13.504308 13.406515 -22.409921 29.399074 0.781764 2.437603 0.053695 -0.020816 -243238.000000 0 0 1
12.293608 13.555815 -23.334821 29.654793 0.834189 2.476536 0.046785 -0.020137 -558010.000000 0 0 1
11.792108 14.909615 -23.318721 30.085099 0.901625 2.457657 0.055582 -0.023513 45008.600000 0 0 1
11.078708 15.262315 -24.488821 30.909196 0.942907 2.485337 0.056260 -0.030969 -825605.000000 0 0 1
10.731508 16.763715 -24.456721 31.532818 1.001368 2.458455 0.051697 -0.032861 763439.000000 0 0 1
11.852408 17.721015 -24.377321 32.384683 0.981295 2.423014 0.043827 -0.027813 2020840.000000 0 0 1
13.010908 17.504415 -25.238191 33.356477 0.931602 2.428925 0.037208 -0.031708 554423.000000 0 0 1
12.746608 17.332015 -26.761951 34.337687 0.936681 2.464465 0.046374 -0.031455 -640143.000000 0 0 1
13.923908 17.067315 -27.513411 35.244237 0.886481 2.466501 0.031561 -0.030627 176634.000000 0 0 1
13.568608 16.652215 -28.863021 35.978846 0.887082 2.501804 0.033563 -0.046175 -554007.000000 0 0 1
14.443208 17.242115 -29.963271 37.465910 0.873504 2.497671 0.034625 -0.034732 -792438.000000 0 0 1
15.740208 16.738715 -29.935811 37.737137 0.816132 2.486960 0.028105 -0.031701 -547177.000000 0 0 1
16.560108 17.230615 -30.973621 39.121560 0.805238 2.484428 0.029982 -0.021537 790863.000000 0 0 1
17.894108 16.427315 -31.218311 39.555514 0.742687 2.480347 0.033954 -0.022109 819382.000000 0 0 1
18.894908 16.511215 -30.178261 39.247486 0.718175 2.447950 0.032285 -0.021783 1165660.000000 0 0 1
19.915608 15.528015 -30.436021 39.548730 0.662234 2.448984 0.029298 -0.016488 1179170.000000 0 0 1
21.245708 15.983715 -31.140351 40.946071 0.644989 2.434912 0.015215 -0.015043 284473.000000 0 0 1
21.029308 16.471115 -32.473571 42.048332 0.664441 2.453237 0.024347 -0.015789 -160312.000000 0 0 1
22.230108 16.839915 -33.079221 43.266561 0.648301 2.441131 0.017361 -0.012527 -593289.000000 0 0 1
22.006508 17.543515 34.200914 44.291804 0.673029 0.688543 0.007723 -0.002700 -718879.000000 0 0 1
23.118908 17.980615 33.494810 44.493693 0.661023 0.718492 0.009791 -0.018580 -522708.000000 0 0 1
22.727308 18.652715 32.349973 43.714701 0.687247 0.737689 0.031493 -0.013686 -158146.000000 0 0 1
23.453408 20.021115 32.147143 44.546001 0.706612 0.764597 0.034748 -0.017823 105173.000000 0 0 1
24.827608 19.960915 31.826643 45.030917 0.677163 0.785870 0.029507 -0.024786 53901.900000 0 0 1
25.456608 21.239915 31.850863 45.974454 0.695342 0.805439 0.047438 -0.033716 180245.000000 0 0 1
26.981508 21.105915 31.597233 46.603075 0.663815 0.825748 0.025796 -0.033299 193005.000000 0 0 1
27.642108 20.262815 32.571227 47.281631 0.632559 0.810858 0.021268 -0.033286 -269781.000000 0 0 1
29.006508 20.584215 32.427993 48.131717 0.617167 0.831546 0.040694 -0.024823 -247777.000000 0 0 1
29.851008 19.837315 33.516460 49.070917 0.586532 0.818906 0.021894 -0.024467 -77460.400000 0 0 1
29.896708 20.338415 -33.774381 49.479016 0.597375 2.322111 0.016193 -0.027825 287401.000000 0 0 1
28.814408 19.912415 -32.955751 48.092160 0.604699 2.325760 0.013253 -0.033439 -158027.000000 0 0 1
29.079708 20.294715 -31.506611 47.435972 0.609315 2.297209 0.023531 -0.030539 219293.000000 0 0 1
29.907308 19.256515 -30.953581 47.152779 0.572056 2.286903 0.029521 -0.029951 263262.000000 0 0 1
30.392308 19.588815 -29.648671 46.759574 0.572522 2.257597 0.015188 -0.031053 -909421.000000 0 0 1
31.832508 19.234915 -29.386891 47.401264 0.543541 2.239488 0.065156 -0.022108 -1543400.000000 0 0 1
32.738608 19.939315 -30.153691 48.771281 0.547044 2.237333 0.029814 -0.023833 -431538.000000 0 0 1
33.943208 19.838315 -29.403751 49.094609 0.528912 2.212948 0.055068 -0.018067 601149.000000 0 0 1
35.182808 20.649715 -29.968501 50.619678 0.530751 2.204375 0.049813 -0.016637 479973.000000 0 0 1
35.729208 20.145215 -31.157361 51.509097 0.513400 2.220425 0.031868 -0.012597 -549163.000000 0 0 1
-35.124599 20.982115 -31.517561 51.646328 -0.538478 2.227182 0.034984 -0.015974 -449325.000000 0 0 1
-34.168399 20.479815 -32.631481 51.494814 -0.539963 2.257104 0.032541 -0.021229 343197.000000 0 0 1
-33.220699 19.474515 -32.245041 50.225633 -0.530223 2.267905 0.050951 -0.015130 326242.000000 0 0 1
-32.388299 19.157315 -33.329501 50.267885 -0.534138 2.295666 0.042882 -0.008283 -387454.000000 0 0 1
-31.408499 17.989915 -33.091991 49.042947 -0.520158 2.311429 0.029594 -0.002201 -37961.400000 0 0 1
-32.019899 16.796915 -32.541761 48.645416 -0.483116 2.303603 0.029110 0.000866 300809.000000 0 0 1
-31.409099 15.611115 -33.025771 48.176134 -0.461265 2.326116 0.019407 0.004188 71418.200000 0 0 1
-32.426699 14.451315 -32.928081 48.420964 -0.419240 2.318610 0.020323 0.003492 -3429.260000 0 0 1
-31.914499 13.184415 -33.284171 47.960401 -0.391763 2.337816 0.030177 -0.000329 322729.000000 0 0 1
-32.918099 12.202315 -33.070601 48.230305 -0.354984 2.326335 0.046183 -0.000611 -96747.300000 0 0 1
-32.470299 10.752715 -33.220221 47.681487 -0.319789 2.341599 0.038593 0.004295 -108543.000000 0 0 1
-32.072699 10.399115 34.055882 47.922883 -0.313540 0.780390 0.027878 -0.000105 214167.000000 0 0 1
-32.285799 9.035015 33.917962 47.691010 -0.272865 0.779589 0.043249 -0.004695 -502741.000000 0 0 1
-31.602399 8.358315 32.735272 46.261983 -0.258563 0.784691 0.047114 -0.011059 -672920.000000 0 0 1
-30.272999 8.074815 33.031496 45.527320 -0.260665 0.758990 0.047290 -0.003781 -975467.000000 0 0 1
-29.634799 7.517715 31.953173 44.223779 -0.248438 0.763336 0.044232 -0.007335 -159747.000000 0 0 1
20.399408 -4.454305 -31.395701 37.704996 -0.214980 2.554703 0.039305 -0.030934 -308200.000000 0 0 1
21.500308 -4.497805 -32.282491 39.046801 -0.206223 2.544127 0.041044 -0.031589 -573863.000000 0 0 1
22.479308 -3.596605 -31.917891 39.204676 -0.158652 2.522034 0.030879 -0.026082 -552682.000000 0 0 1
22.243108 -2.129105 -32.323031 39.294621 -0.095429 2.536732 0.033476 -0.026893 132737.000000 0 0 1
23.331208 -1.287905 -31.865251 39.514531 -0.055145 2.508867 0.028990 -0.021720 998439.000000 0 0 1
23.180908 0.052095 -32.372151 39.815994 0.002247 2.520158 0.020552 -0.023757 -551133.000000 0 0 1
24.247108 0.999095 -31.833491 40.028634 0.041181 2.490246 0.028269 -0.017702 -438047.000000 0 0 1
25.548608 0.707795 -32.311181 41.197630 0.027697 2.472359 0.038470 -0.019235 -592529.000000 0 0 1
26.368208 1.619895 -31.654431 41.229958 0.061357 2.446123 0.038715 -0.014100 -448558.000000 0 0 1
27.837008 1.610895 -32.130251 42.542297 0.057804 2.426838 0.040578 -0.017338 -11186.400000 0 0 1
28.178208 2.234295 -33.376031 43.737431 0.079126 2.438893 0.047685 -0.019753 -132691.000000 0 0 1
28.856208 1.331895 -34.179398 44.751379 0.046124 2.439917 0.042896 -0.017985 -415995.000000 0 0 1
29.534308 1.934595 33.189698 44.469923 0.065410 0.728250 0.046836 -0.022105 197684.000000 0 0 1
28.697408 2.648095 32.255843 43.254977 0.092016 0.729190 0.051304 -0.018687 418580.000000 0 0 1
28.517708 4.018795 32.672087 43.553136 0.140001 0.722483 0.044665 -0.011405 249583.000000 0 0 1
27.878508 5.005895 31.606733 42.441204 0.177668 0.730684 0.047933 -0.006131 164378.000000 0 0 1
27.760908 6.316595 32.021093 42.847612 0.223727 0.726769 0.038453 -0.003458 -57614.100000 0 0 1
27.105908 7.194495 31.154953 41.918041 0.259440 0.732904 0.029542 -0.000318 -203436.000000 0 0 1
27.409708 8.691495 31.506943 42.655851 0.307066 0.739759 0.022111 0.006984 -275684.000000 0 0 1
28.641008 9.036695 30.952823 43.128256 0.305630 0.770313 0.032919 0.006227 -475316.000000 0 0 1
28.935308 10.392295 31.372133 43.925649 0.344808 0.775302 0.026569 0.003121 -81045.900000 0 0 1
30.241308 10.982895 30.803653 44.542404 0.348364 0.807153 0.031316 0.006508 -447203.000000 0 0 1
31.401508 10.334795 31.285213 45.515132 0.317952 0.812950 0.031023 0.010285 1205410.000000 0 0 1
32.650708 10.851095 30.722653 46.126960 0.320855 0.841902 0.023605 0.007056 1421980.000000 0 0 1
33.122608 12.268495 31.122703 47.077020 0.354729 0.848510 0.029037 0.008280 -664099.000000 0 0 1
33.928308 12.344695 32.290983 48.437890 0.348957 0.841095 0.031887 -0.002018 -90796.600000 0 0 1
34.477908 13.590195 32.490923 49.285694 0.375471 0.850994 0.030859 0.005250 51547.000000 0 0 1
33.520308 14.815095 32.685794 49.106611 0.416159 0.842487 0.039642 0.007869 -71133.800000 0 0 1
33.022408 15.381795 31.442553 48.121858 0.435914 0.858737 0.043065 -0.002683 952488.000000 0 0 1
31.972908 16.375295 31.514773 47.787007 0.473329 0.850664 0.048743 -0.011730 601139.000000 0 0 1
30.545508 15.863095 31.721773 46.807443 0.478989 0.826155 0.041286 -0.004236 -455033.000000 0 0 1
29.836008 15.434895 30.535833 45.396701 0.477411 0.833020 0.034139 -0.008718 439661.000000 0 0 1
28.777508 14.585495 30.971623 44.722736 0.469102 0.805813 0.023973 -0.004747 754374.000000 0 0 1
27.775608 14.103395 29.835393 43.133987 0.469838 0.806968 0.014381 0.001475 492048.000000 0 0 1
28.240308 12.971895 29.125243 42.591840 0.430594 0.817808 0.019512 0.000532 128760.000000 0 0 1
27.424208 12.767395 27.987273 41.211419 0.435711 0.824241 0.019334 -0.008991 161433.000000 0 0 1
27.010108 11.314295 27.828813 40.398045 0.396685 0.810874 0.013337 0.002354 112992.000000 0 0 1
28.145308 10.597295 27.408743 40.690297 0.360103 0.831735 0.024065 0.002776 209371.000000 0 0 1
27.753708 9.230395 27.353223 40.045815 0.321075 0.818868 0.030051 0.005727 32603.400000 0 0 1
28.823808 8.229895 26.866063 40.253304 0.278124 0.840051 0.025079 0.006606 -127032.000000 0 0 1
29.245008 8.478795 25.552793 39.750544 0.282186 0.872611 0.027810 0.006357 92202.500000 0 0 1
30.124408 7.440495 25.147663 39.940530 0.242146 0.889722 0.028083 0.011380 387905.000000 0 0 1
30.768508 7.706595 23.710943 39.601787 0.245421 0.928877 0.036285 0.007785 541483.000000 0 0 1
31.611208 8.868195 23.521183 40.387615 0.273509 0.949136 0.022677 0.005603 513151.000000 0 0 1
30.918808 10.020495 23.108083 39.879400 0.313409 0.952744 0.024340 0.005856 -94136.300000 0 0 1
30.337608 10.156995 21.654383 38.632206 0.323069 0.975775 0.025396 0.017166 -111506.000000 0 0 1
31.268808 10.415195 20.639483 38.887053 0.321528 1.011306 0.030303 0.002297 -212107.000000 0 0 1
30.723008 10.300795 19.326383 37.729547 0.323501 1.033012 0.032739 -0.003009 -1019270.000000 0 0 1
31.647808 10.864595 18.203483 38.091862 0.330691 1.072552 0.045092 -0.019556 222740.000000 0 0 1
32.811708 10.107395 17.966083 38.749810 0.298819 1.088694 0.046162 -0.014583 92799.400000 0 0 1
33.822108 10.224595 18.944483 40.092029 0.293570 1.078643 0.050154 -0.005139 -931785.000000 0 0 1
35.182508 9.645195 18.476383 40.892730 0.267573 1.101986 0.069758 -0.021563 -165560.000000 0 0 1
35.149908 8.262195 18.187083 40.429567 0.230865 1.104203 0.064263 -0.013219 -33645.200000 0 0 1
-35.829799 7.939795 17.187783 40.524495 -0.218074 1.132792 0.069709 -0.008244 -663630.000000 0 0 1
-35.769199 6.442895 16.950983 40.103395 -0.178213 1.134394 0.068323 -0.003298 -620342.000000 0 0 1
34.908408 5.847295 16.598283 39.093360 0.165963 1.132298 0.048768 -0.002534 -95818.900000 0 0 1
35.139208 4.510595 16.209383 38.959640 0.127665 1.141693 0.059427 -0.010445 -1321140.000000 0 0 1
33.958708 3.638995 16.300983 37.843866 0.106752 1.125480 0.049532 0.001716 -1322560.000000 0 0 1
33.682708 3.117195 17.565783 38.115594 0.092283 1.091837 0.047287 0.010348 56470.400000 0 0 1
32.396508 2.541195 17.576683 36.944975 0.078280 1.074976 0.045398 0.007647 -34156.600000 0 0 1
32.220008 1.514495 18.713683 37.291079 0.046970 1.045086 0.042953 -0.006408 302562.000000 0 0 1
32.984208 0.279495 18.574783 37.855762 0.008473 1.057935 0.050906 -0.005077 449507.000000 0 0 1
32.907308 -0.395705 19.796383 38.405004 -0.012024 1.029248 0.048560 -0.006763 -36164.400000 0 0 1
33.684808 -1.708005 19.872083 39.146945 -0.050662 1.038367 0.047094 -0.011055 -32989.500000 0 0 1
33.364208 -2.451305 21.014483 39.506807 -0.073339 1.009929 0.054125 -0.006782 265295.000000 0 0 1
34.012408 -3.717905 20.915483 40.101424 -0.108878 1.022113 0.039832 -0.005768 132352.000000 0 0 1
33.466808 -4.661605 22.004383 40.323079 -0.138400 0.993570 0.039223 -0.000725 -89276.500000 0 0 1
33.863108 -4.317805 23.302083 41.332077 -0.126823 0.971844 0.042124 -0.004400 190882.000000 0 0 1
33.064108 -4.841705 24.341433 41.342263 -0.145400 0.941250 0.029692 -0.005945 -240171.000000 0 0 1
33.521308 -4.345505 25.700463 42.462635 -0.128915 0.920718 0.023370 -0.001891 -470846.000000 0 0 1
32.702208 -4.647105 26.764583 42.513209 -0.141159 0.889811 0.031404 -0.002697 -409455.000000 0 0 1
33.040208 -3.905605 27.910703 43.427140 -0.117662 0.872777 0.034128 0.005466 -130446.000000 0 0 1
32.143208 -4.229205 29.106173 43.568812 -0.130822 0.839210 0.038247 -0.001166 -56390.800000 0 0 1
32.290408 -5.562905 29.519033 44.102037 -0.170603 0.837483 0.050027 -0.013062 126451.000000 0 0 1
31.437208 -5.880305 30.604173 44.266144 -0.184912 0.807416 0.063113 -0.019553 -96922.900000 0 0 1
31.675508 -7.307605 31.089313 44.980933 -0.226735 0.807694 0.069262 -0.017445 255699.000000 0 0 1
32.917608 -7.549405 31.743683 46.348936 -0.225444 0.816351 0.071952 -0.019506 44926.100000 0 0 1
33.413508 -8.778905 31.238733 46.576713 -0.256928 0.835652 0.063681 -0.022280 -169107.000000 0 0 1
34.666008 -9.205105 32.018473 48.079608 -0.259547 0.842034 0.063314 -0.024348 -37295.000000 0 0 1
34.463008 -9.720305 33.360058 48.939521 -0.274909 0.820769 0.048436 -0.027770 518287.000000 0 0 1
35.754008 -10.080305 33.851428 50.258142 -0.274802 0.831794 0.015409 -0.021391 284978.000000 0 0 1
35.814608 -10.456405 -33.294211 50.005270 -0.284064 2.299381 0.023879 -0.010120 -505621.000000 0 0 1
35.464908 -9.434105 -32.309401 48.894370 -0.259991 2.292680 0.007404 -0.001286 -31014.000000 0 0 1
-35.601599 -8.327405 -32.098691 48.653319 0.229774 2.291273 0.022815 0.000977 -697651.000000 0 0 1
35.622108 -7.062605 -31.532531 48.094859 -0.195726 2.285816 0.021572 -0.008587 -300753.000000 0 0 1
35.273608 -7.145805 -30.189351 46.975386 -0.199877 2.268766 0.009443 -0.001146 247185.000000 0 0 1
34.673108 -5.946905 -29.677361 46.025383 -0.169861 2.271563 0.020228 -0.012583 -46818.200000 0 0 1
35.001208 -5.665605 -28.183371 45.293333 -0.160477 2.242399 0.022912 -0.009239 -274026.000000 0 0 1
-35.532199 -5.318705 -28.085231 45.602697 0.148584 2.234283 0.016435 -0.008908 -341702.000000 0 0 1
-35.380399 -4.739205 -26.811591 44.644082 0.133157 2.215002 0.021350 -0.010468 1454940.000000 0 0 1
-33.880399 -4.283105 -26.520131 43.238221 0.125751 2.231091 0.025910 -0.002162 394186.000000 0 0 1
-33.739099 -3.973505 -25.126941 42.254925 0.117232 2.207628 0.034942 -0.018876 320723.000000 0 0 1
-32.446199 -4.029605 -24.539321 40.879968 0.123561 2.214644 0.044131 -0.015623 110978.000000 0 0 1
-31.341499 -3.124905 -25.094481 40.271423 0.099377 2.243539 0.063628 -0.021875 -843636.000000 0 0 1
-30.863399 -3.550805 -26.320591 40.717700 0.114545 2.273675 0.061169 -0.008181 -617207.000000 0 0 1
-29.697999 -2.878305 -26.684671 40.029082 0.096617 2.300478 0.078375 -0.017499 -300019.000000 0 0 1
-29.066799 -3.565705 -27.904971 40.450963 0.122063 2.332074 0.080708 -0.005374 166052.000000 0 0 1
-29.926599 -3.512405 -29.051241 41.855858 0.116833 2.337935 0.076050 -0.001634 251703.000000 0 0 1
-29.395899 -4.258305 -30.117481 42.300292 0.143860 2.363128 0.068479 0.002633 15259.100000 0 0 1
-30.503499 -4.441405 -31.252981 43.896906 0.144587 2.363086 0.041726 0.015753 1422150.000000 0 0 1
-31.713799 -5.153705 -30.940651 44.605488 0.161098 2.337342 0.038182 0.011769 1291980.000000 0 0 1
-32.612599 -4.584805 -29.958711 44.521078 0.139669 2.308933 0.045327 -0.001756 -181698.000000 0 0 1
-33.614899 -3.553705 -30.604471 45.598507 0.105327 2.306586 0.070273 -0.006320 -555000.000000 0 0 1
-33.216599 -2.320605 -31.183281 45.619345 0.069749 2.323417 0.082833 -0.006940 -205262.000000 0 0 1
-32.856199 -1.317805 -30.262421 44.688707 0.040087 2.314723 0.092761 -0.010728 -43776.700000 0 0 1
-32.501799 0.007195 -30.974161 44.897278 -0.000221 2.332133 0.098989 -0.019156 321542.000000 0 0 1
-33.619899 0.606495 -31.618771 46.156387 -0.018038 2.325449 0.105449 -0.010550 380438.000000 0 0 1
-33.292799 1.938195 -32.078021 46.272740 -0.058151 2.336768 0.110873 -0.006956 142873.000000 0 0 1
-34.562999 2.672095 -32.561281 47.560256 -0.077157 2.324895 0.093119 -0.008756 16065.800000 0 0 1
-35.006999 2.245795 -33.820231 48.727216 -0.064065 2.337927 0.072219 -0.010869 7499.540000 0 0 1
35.527508 2.639195 -33.942931 49.206623 0.074150 2.332015 0.050433 -0.008829 36708.100000 0 0 1
34.668008 1.962595 33.596809 48.316334 0.056551 0.801888 0.027592 -0.001833 -135005.000000 0 0 1
34.941408 2.268195 32.226773 47.587936 0.064823 0.826839 0.029538 0.006104 992632.000000 0 0 1
-35.758399 1.640995 31.676943 47.799421 -0.045859 0.846370 0.030159 0.011739 759232.000000 0 0 1
-35.674899 1.815895 30.154743 46.747240 -0.050857 0.869695 0.036167 0.009017 -193418.000000 0 0 1
-35.566799 3.190695 29.718283 46.458089 -0.089470 0.876715 0.031233 0.006781 226138.000000 0 0 1
-35.147399 3.115695 28.340073 45.257121 -0.088415 0.894125 0.036670 0.004661 219392.000000 0 0 1
-34.516699 4.486895 27.920203 44.621435 -0.129267 0.894751 0.031444 0.007169 -104056.000000 0 0 1
-33.988999 4.547195 26.638993 43.423093 -0.132995 0.910343 0.025083 0.008332 138633.000000 0 0 1
-33.362199 5.815695 26.421603 42.952995 -0.172586 0.908248 0.027543 0.009911 54263.600000 0 0 1
-32.441299 5.849895 25.171253 41.475910 -0.178405 0.918656 0.034375 0.006647 -252697.000000 0 0 1
-31.238299 5.145095 25.374113 40.572761 -0.163239 0.895155 0.033499 0.003957 559963.000000 0 0 1
-30.246599 5.358195 24.321093 39.180130 -0.175331 0.901096 0.040431 -0.001156 597600.000000 0 0 1
-30.540399 5.067095 22.792483 38.443318 -0.164417 0.936159 0.054048 -0.006609 -512628.000000 0 0 1
-30.662499 3.672595 22.643483 38.293656 -0.119207 0.938112 0.030677 -0.006366 -153189.000000 0 0 1
-31.289299 3.425495 21.416383 38.071193 -0.109044 0.973347 0.060421 -0.008627 -231815.000000 0 0 1
-31.283599 1.975995 20.888483 37.668247 -0.063080 0.982988 0.042318 0.003348 312105.000000 0 0 1
-30.085899 1.408695 20.354683 36.351876 -0.046788 0.976489 0.019201 0.007128 369655.000000 0 0 1
-29.699499 1.833695 19.043183 35.327971 -0.061663 1.001500 0.030383 0.005008 280191.000000 0 0 1
-28.483699 1.033695 18.474683 33.966212 -0.036275 0.995702 0.038826 0.005349 153240.000000 0 0 1
-28.772199 -0.338005 18.198483 34.046123 0.011747 1.006851 0.039908 0.008318 325030.000000 0 0 1
-27.825099 -1.044805 17.383583 32.825550 0.037531 1.012697 0.053254 0.004786 123456.000000 0 0 1
-27.842199 -0.682205 15.863183 32.051428 0.024498 1.053043 0.057045 0.007210 -74226.200000 0 0 1
-27.451599 0.624795 15.638083 31.599530 -0.022756 1.053096 0.063659 0.008132 60037.400000 0 0 1
-27.578999 1.008895 14.275183 31.070885 -0.036566 1.093433 0.080332 -0.000787 -195172.000000 0 0 1
-26.948999 2.311495 13.849183 30.387356 -0.085564 1.097576 0.078330 -0.003568 668948.000000 0 0 1
-25.517399 2.390695 13.754783 29.086889 -0.093416 1.078233 0.065947 -0.013825 768090.000000 0 0 1
-25.181899 3.673395 13.332283 28.729282 -0.144853 1.088216 0.061779 -0.018449 1002790.000000 0 0 1
-23.635299 3.853995 13.068283 27.281141 -0.161638 1.071255 0.044809 -0.017059 961265.000000 0 0 1
-22.775299 3.696395 14.174983 27.079655 -0.160895 1.019895 0.032132 -0.008241 229544.000000 0 0 1
-21.472699 4.142795 13.848483 25.884745 -0.190591 1.006282 0.021691 -0.012620 -9428.850000 0 0 1
-20.716999 4.716095 15.060383 26.043247 -0.223829 0.954173 0.008129 -0.016628 -439098.000000 0 0 1
-21.010899 6.078895 15.291883 26.688060 -0.281631 0.960652 0.003928 -0.012664 395754.000000 0 0 1
-20.538899 6.553395 16.545283 27.176088 -0.308861 0.916227 0.002824 -0.003172 -323919.000000 0 0 1
-20.901799 8.043695 16.803883 27.999227 -0.367363 0.927101 -0.001277 -0.000127 -846173.000000 0 0 1
-20.320999 8.997995 15.964383 27.363633 -0.416844 0.947868 0.018795 -0.011407 421124.000000 0 0 1
-20.689099 10.374195 16.148683 28.221316 -0.464793 0.961591 0.013441 -0.005492 -381095.000000 0 0 1
-20.105199 11.072495 17.419383 28.814130 -0.503402 0.921604 0.030806 -0.007156 147673.000000 0 0 1
-20.841199 10.832195 18.633583 29.981702 -0.479322 0.900142 0.042081 -0.002589 51539.400000 0 0 1
-20.069699 11.034595 19.763383 30.251387 -0.502700 0.858855 0.044084 -0.007459 -584635.000000 0 0 1
-12.109192 -33.549426 -20.499321 41.139016 1.224412 2.092426 0.085673 -0.033890 -154615.000000 0 0 1
-13.271692 -34.095426 -19.944621 41.670418 1.199590 2.069888 0.108638 -0.032155 -1457730.000000 0 0 1
-14.362192 -33.315426 -20.072921 41.462179 1.163773 2.076160 0.075432 -0.048000 -874588.000000 0 0 1
-15.604092 -33.757626 -19.256421 41.879288 1.137811 2.048575 0.055849 -0.038414 -977698.000000 0 0 1
-16.311892 33.898695 -19.890721 42.553967 -1.122305 2.057170 0.054661 -0.036222 54036.100000 0 0 1
-17.036992 33.088995 -18.989521 41.782084 -1.095313 2.042595 0.047415 -0.032159 622195.000000 0 0 1
-18.293392 33.673795 -18.230821 42.437430 -1.073148 2.014838 0.046458 -0.039444 -358638.000000 0 0 1
-18.010792 -34.011026 -17.307321 42.198126 1.083783 1.993409 0.041640 -0.039721 -133354.000000 0 0 1
-19.200892 -33.611326 -16.663221 42.143308 1.051775 1.977293 0.019765 -0.032526 43633.500000 0 0 1
-19.399892 34.318595 -15.308021 42.290155 -1.056291 1.941183 0.029049 -0.030424 -649741.000000 0 0 1
-19.636792 32.942995 -15.421121 41.335886 -1.033261 1.953111 0.030060 -0.036367 33878.900000 0 0 1
-19.687092 32.281795 -14.252721 40.408364 -1.023165 1.931270 0.043733 -0.025116 -142115.000000 0 0 1
-19.895492 30.745995 -14.356721 39.335254 -0.996468 1.944411 0.024732 -0.018882 -519920.000000 0 0 1
-18.849592 30.031495 -13.821021 38.055465 -1.010286 1.942476 0.027131 -0.023043 -762782.000000 0 0 1
-19.084492 28.667795 -13.977521 37.167612 -0.983455 1.956345 0.032477 -0.020489 333626.000000 0 0 1
-17.891792 27.812095 -13.426121 35.691589 -0.999139 1.956456 0.028892 -0.018728 496106.000000 0 0 1
-16.679192 28.164395 -14.049921 35.620624 -1.036126 1.976246 0.058371 -0.026763 -951572.000000 0 0 1
-15.602592 27.354895 -13.711721 34.347379 -1.052444 1.981448 0.068659 -0.030052 -769308.000000 0 0 1
-14.388192 27.802995 -14.502121 34.501276 -1.093243 2.004612 0.060108 -0.035718 -789314.000000 0 0 1
-14.404592 27.646795 -15.898621 34.994337 -1.090473 2.042405 0.042689 -0.028372 -476267.000000 0 0 1
-13.253092 28.222795 -16.428421 35.242922 -1.131773 2.055728 0.075650 -0.030139 -601545.000000 0 0 1
-13.292092 28.216895 -17.978421 36.001340 -1.130561 2.093682 0.094543 -0.037171 -98586.600000 0 0 1
-13.092492 27.020895 -18.678121 35.361197 -1.119599 2.127287 0.078245 -0.032568 118950.000000 0 0 1
-13.217692 27.281095 -20.049721 36.344969 -1.119625 2.155138 0.074107 -0.040027 -297182.000000 0 0 1
-12.608892 26.159495 -20.873621 35.763268 -1.121652 2.194026 0.044770 -0.016965 -10591.300000 0 0 1
-11.259992 26.458995 -21.191421 35.720332 -1.168448 2.205898 0.042420 -0.018403 -141078.000000 0 0 1
-10.640892 25.385595 -21.850621 35.144084 -1.173874 2.241764 0.046847 -0.021536 950958.000000 0 0 1
-9.295592 25.818595 -22.541621 35.512428 -1.225210 2.258485 0.051037 -0.016720 934320.000000 0 0 1
-9.649592 26.616995 -23.692521 36.917673 -1.222998 2.267596 0.056162 -0.017904 262633.000000 0 0 1
-8.481792 26.852495 -24.453921 37.295998 -1.264848 2.285868 0.039324 -0.022591 -32175.300000 0 0 1
-8.747692 27.527595 -25.797231 38.727092 -1.263109 2.299803 0.051657 -0.019091 -7538.900000 0 0 1
-9.540492 26.778995 -26.734491 39.023948 -1.228549 2.325509 0.058322 -0.023820 -12438.700000 0 0 1
-9.871892 27.592295 -27.825671 40.411099 -1.227210 2.330305 0.081604 -0.022729 79846.700000 0 0 1
-11.134292 26.981895 -28.490771 40.788713 -1.179426 2.344091 0.061891 -0.017348 63270.600000 0 0 1
-11.497592 27.505095 -29.773111 42.132683 -1.174855 2.355550 0.080508 -0.022079 -167567.000000 0 0 1
-12.746892 26.914295 -30.046141 42.304055 -1.128482 2.360639 0.080241 -0.015320 -82734.000000 0 0 1
-13.184292 27.144995 -31.535601 43.648258 -1.118655 2.378199 0.073478 -0.020671 -455482.000000 0 0 1
-12.417192 26.521095 -32.497131 43.744927 -1.132910 2.408155 0.067770 -0.014962 -358969.000000 0 0 1
-12.401192 25.131895 -32.611291 42.998813 -1.112407 2.431686 0.059500 -0.016857 427603.000000 0 0 1
-11.485792 24.611495 -33.810161 43.367915 -1.134155 2.464843 0.046444 -0.007575 472419.000000 0 0 1
-11.909292 25.008295 33.540742 43.499741 -1.126358 0.690298 0.053497 -0.005372 -201476.000000 0 0 1
-11.338592 24.132095 32.598815 42.114183 -1.131554 0.685571 0.053182 -0.006772 -529960.000000 0 0 1
-11.895292 24.045495 31.163453 41.119881 -1.111398 0.710757 0.057782 -0.003904 -663999.000000 0 0 1
-13.120692 23.407095 31.033883 41.026169 -1.059894 0.712942 0.048359 -0.001744 -704934.000000 0 0 1
-13.499592 23.244495 29.675683 40.039876 -1.044640 0.736010 0.057780 0.001967 753813.000000 0 0 1
-14.777692 22.328095 29.513493 39.849345 -0.986141 0.736794 0.041559 0.002349 916110.000000 0 0 1
-14.538892 20.933995 29.751023 39.175693 -0.963764 0.708367 0.015679 0.000429 571041.000000 0 0 1
-15.800192 20.274095 29.967793 39.481054 -0.908787 0.708955 0.016952 -0.001568 749146.000000 0 0 1
-15.679992 18.740995 30.161613 38.817650 -0.874093 0.680898 0.012772 -0.007293 -66883.500000 0 0 1
-15.571392 18.174195 28.842613 37.478873 -0.862376 0.692629 0.020327 -0.004253 284704.000000 0 0 1
-14.928992 16.876095 28.918903 36.660337 -0.846542 0.661888 0.002788 -0.007214 251762.000000 0 0 1
-14.652392 16.302995 27.482783 35.153714 -0.838670 0.673267 0.007061 -0.010092 -1075390.000000 0 0 1
-13.457292 16.693895 26.949373 34.439128 -0.892334 0.672090 0.004094 -0.012610 -1183380.000000 0 0 1
-13.162292 16.021595 25.724203 33.040461 -0.883062 0.678418 0.008291 -0.011960 589193.000000 0 0 1
-11.799992 16.527095 25.143933 32.320304 -0.950750 0.679382 0.013677 -0.010285 496730.000000 0 0 1
-11.896792 17.672795 24.292633 32.310886 -0.978305 0.719947 0.013192 -0.014149 -255758.000000 0 0 1
-12.375092 18.916095 24.733943 33.507156 -0.991467 0.740444 0.011120 -0.011534 149432.000000 0 0 1
-11.325892 19.825395 25.459983 34.198433 -1.051761 0.731044 0.002628 -0.003400 358089.000000 0 0 1
-10.982792 19.442795 26.796303 34.881024 -1.056603 0.694740 0.013847 -0.004197 540936.000000 0 0 1
-11.994292 19.803795 27.766853 36.153167 -1.026228 0.695031 0.022875 -0.003634 418631.000000 0 0 1
-11.567992 19.447095 29.210933 36.949784 -1.034176 0.659077 0.020619 0.000203 -33364.800000 0 0 1
-10.603792 20.353595 29.714863 37.545736 -1.090507 0.657650 0.008883 -0.007726 -173899.000000 0 0 1
-10.566892 20.228595 31.110533 38.583941 -1.089410 0.632913 0.002738 -0.001728 280322.000000 0 0 1
-9.366392 20.916795 31.829143 39.221626 -1.149779 0.624047 0.005364 -0.006859 734401.000000 0 0 1
-8.128292 20.217095 31.735663 38.496135 -1.188524 0.601680 0.003428 -0.012878 801323.000000 0 0 1
-7.070992 20.981195 32.341423 39.194095 -1.245735 0.600310 -0.008466 -0.009727 771978.000000 0 0 1
-5.993792 20.101795 33.073168 39.164297 -1.281017 0.565217 0.004711 -0.006769 54827.900000 0 0 1
-6.518892 19.465495 34.240143 39.922285 -1.247641 0.540075 0.002117 -0.010603 425338.000000 0 0 1
-5.485392 18.995895 -33.527541 38.923380 -1.289676 2.608762 -0.003636 -0.011522 526111.000000 0 0 1
-4.521392 17.902395 -34.125488 38.800614 -1.323412 2.645626 -0.001237 -0.015424 -336376.000000 0 0 1
-5.126392 16.695795 34.213169 38.413154 -1.272887 0.471995 -0.002639 -0.014973 -107979.000000 0 0 1
-4.755092 16.145095 32.944385 36.994696 -1.284372 0.472317 0.005306 -0.010546 -145189.000000 0 0 1
-5.450192 14.784795 32.712341 36.309668 -1.217618 0.448897 0.011605 -0.008861 -56372.300000 0 0 1
-4.934592 13.713895 33.519717 36.551232 -1.225396 0.410150 0.017356 -0.009321 402518.000000 0 0 1
-5.687492 12.490795 33.387881 36.098728 -1.143515 0.390012 0.031097 -0.010178 10195.900000 0 0 1
-4.870792 11.289895 33.799270 35.966332 -1.163493 0.348905 0.058624 -0.017731 33235.900000 0 0 1
-4.677892 11.145795 -33.475941 35.591432 -1.173423 2.795077 0.046926 -0.023837 -584806.000000 0 0 1
-3.658692 10.207795 -33.287441 35.009124 -1.226639 2.826675 0.070301 -0.026599 -43871.500000 0 0 1
-3.647292 9.723195 -31.852541 33.502651 -1.211927 2.826433 0.065006 -0.025234 406574.000000 0 0 1
-4.801692 9.002195 -31.432851 33.047237 -1.080794 2.827733 0.060284 -0.026413 86642.400000 0 0 1
-4.598592 8.442695 -30.143461 31.639443 -1.072044 2.832855 0.071537 -0.021573 -20831.800000 0 0 1
-5.858492 7.760295 -29.602341 31.158348 -0.924146 2.824229 0.058278 -0.018769 -256673.000000 0 0 1
-5.647492 7.084695 -28.387041 29.797838 -0.897802 2.832646 0.056435 -0.009468 -512247.000000 0 0 1
-6.768392 6.352095 -28.026471 29.523606 -0.753680 2.821767 0.059771 -0.021359 -1167920.000000 0 0 1
-6.549292 5.442695 -26.798101 28.118576 -0.693381 2.833914 0.053510 -0.016764 -244468.000000 0 0 1
-6.713792 6.160495 -25.586461 27.160517 -0.742448 2.799474 0.041850 -0.009243 293238.000000 0 0 1
-5.623192 6.991695 -25.208351 26.757523 -0.893459 2.799645 0.039830 -0.009326 -590592.000000 0 0 1
-5.889392 7.926495 -24.027821 25.977883 -0.931790 2.751658 0.025349 -0.003229 -196470.000000 0 0 1
-6.375992 7.182895 -22.963821 24.891450 -0.844839 2.745456 0.019499 0.000702 1704130.000000 0 1 0
-7.730292 7.664295 -22.611921 25.095772 -0.781111 2.692923 0.018236 0.009731 1717510.000000 0 0 1
-7.775592 8.005295 -21.109821 23.878214 -0.799953 2.655279 0.012065 0.006087 -204975.000000 0 1 0
-6.954392 9.035895 -20.639621 23.579756 -0.914843 2.636875 -0.000391 0.006590 -364642.000000 0 1 0
-6.841892 9.301695 -19.236721 22.436230 -0.936605 2.600984 0.005807 0.009307 -1896430.000000 0 1 0
-8.051492 9.479395 -18.427421 22.231853 -0.866669 2.547890 0.002248 0.011500 -1697710.000000 0 1 0
-7.838392 9.484395 -17.000221 20.985748 -0.880133 2.515092 -0.003602 0.006852 423778.000000 0 1 0
-9.008192 9.937595 -16.315421 21.120991 -0.834415 2.453524 0.011367 0.006882 664205.000000 0 1 0
-9.429492 11.421695 -16.482921 22.159808 -0.880653 2.409565 0.018449 -0.003395 -377943.000000 0 1 0
-8.365692 12.271695 -16.140921 21.934188 -0.972454 2.397761 0.005368 -0.009036 -73993.800000 0 1 0
-8.677392 13.595095 -16.443621 23.032941 -1.002709 2.365873 0.029816 -0.014779 -94245.800000 0 1 0
-7.539992 14.580795 -16.099421 22.992225 -1.093548 2.346490 0.024458 -0.013976 -426249.000000 0 1 0
-7.035592 14.662195 -14.792421 21.983976 -1.123402 2.308882 0.022477 -0.008124 206761.000000 0 1 0
-8.013192 15.023395 -13.805021 21.920133 -1.080802 2.252076 0.017265 -0.027731 -135579.000000 0 1 0
-7.466992 16.041695 -12.819321 21.850101 -1.135149 2.197767 0.010227 -0.015248 132199.000000 0 1 0
-7.149992 17.352295 -13.248921 22.972993 -1.179946 2.185501 0.022823 -0.014285 341905.000000 0 1 0
-6.129292 17.533395 -14.248521 23.409581 -1.234497 2.225169 0.035463 -0.005862 277953.000000 0 1 0
-5.916092 18.962195 -14.605321 24.655230 -1.268372 2.204809 0.043035 -0.003023 -10312.600000 0 1 0
-5.225392 19.779695 -13.674421 24.607536 -1.312517 2.160002 0.036154 -0.008754 73351.300000 0 1 0
-5.399492 21.126895 -14.045021 25.937671 -1.320578 2.143006 0.036429 -0.007983 -276378.000000 0 0 1
-4.602792 22.077195 -13.152821 26.107181 -1.365254 2.098790 0.035258 -0.013031 -701684.000000 0 0 1
-4.874992 23.475695 -13.372021 27.453319 -1.366045 2.079542 0.022092 -0.014212 251152.000000 0 0 1
-6.165092 24.006995 -13.101221 28.035444 -1.319424 2.057041 0.024272 -0.009777 403867.000000 0 0 1
-6.725892 23.917195 -11.643121 27.437786 -1.296661 2.009036 0.016555 -0.010765 -175340.000000 0 0 1
-6.993692 22.579895 -11.244221 26.176246 -1.270436 2.014800 0.020378 -0.008504 452274.000000 0 0 1
-7.918792 22.486395 -10.132921 25.904079 -1.232199 1.972700 0.027137 -0.013679 562868.000000 0 0 1
-7.361692 22.904295 -8.726321 25.591989 -1.259814 1.918754 0.031441 -0.011093 31272.900000 0 0 1
-7.290292 24.338695 -8.648721 26.838792 -1.279766 1.898898 0.023433 -0.005494 156829.000000 0 0 1
-6.545192 24.812995 -7.510721 26.738271 -1.312890 1.855526 0.024192 -0.006057 106704.000000 0 0 1
-6.634092 26.356995 -7.403021 28.169257 -1.324217 1.836725 0.014056 -0.008572 -80045.900000 0 0 1
-5.905892 27.161695 -8.322421 29.015511 -1.356694 1.861709 0.010540 -0.007113 86576.300000 0 0 1
-6.417292 27.124395 -9.687321 29.508619 -1.338481 1.905287 0.010853 -0.002495 480729.000000 0 0 1
-5.602992 28.063295 -10.610121 30.520758 -1.373732 1.925845 0.004858 0.007546 352797.000000 0 0 1
-6.043392 29.424095 -10.443921 31.802129 -1.368224 1.905409 0.003972 0.008853 289776.000000 0 0 1
-6.984892 29.707395 -11.489221 32.608591 -1.339868 1.930864 0.010965 -0.001119 396666.000000 0 0 1
-8.004492 30.815095 -11.115021 33.722183 -1.316654 1.906682 0.029223 -0.007062 364555.000000 0 0 1
-9.076392 30.364895 -10.294421 33.322407 -1.280339 1.884868 0.039976 -0.006702 237283.000000 0 0 1
-10.199692 31.219495 -10.420921 34.457019 -1.255019 1.878040 0.054511 -0.020043 721557.000000 0 0 1
-11.403992 30.960595 -9.450621 34.320893 -1.217878 1.849761 0.061653 -0.017499 551659.000000 0 0 1
-12.049092 29.775495 -9.853921 33.598518 -1.186275 1.868457 0.070296 -0.021265 -599228.000000 0 0 1
-13.245092 29.603995 -9.137621 33.694585 -1.150099 1.845425 0.081678 -0.014297 -138868.000000 0 0 1
-14.197392 28.546495 -9.692621 33.322893 -1.109277 1.865932 0.071560 -0.013331 -197022.000000 0 0 1
-13.898292 27.177795 -9.392421 31.937636 -1.098083 1.869296 0.059300 -0.012284 -80935.500000 0 0 1
-14.810192 26.380395 -10.105021 31.896370 -1.059236 1.893158 0.054797 -0.015408 -260779.000000 0 0 1
-14.943392 24.996495 -9.467321 30.622865 -1.031982 1.885104 0.058126 -0.011849 -232916.000000 0 0 1
-13.825892 24.169395 -9.690621 29.482589 -1.051188 1.905712 0.052191 -0.008326 173613.000000 0 0 1
-14.022392 22.973195 -9.012121 28.383331 -1.022779 1.893904 0.049198 -0.007334 25999.100000 0 0 1
-13.091692 21.823595 -9.484721 27.159190 -1.030460 1.927542 0.049021 0.000308 -95286.300000 0 0 1
-13.350592 21.455795 -10.803521 27.482822 -1.014186 1.974798 0.059280 -0.005784 343167.000000 0 0 1
-12.691392 20.238895 -11.128721 26.353988 -1.010703 2.006754 0.059813 -0.011921 -132325.000000 0 0 1
-12.716992 19.810595 -12.651821 26.725458 -1.000116 2.063943 0.070722 -0.012016 426717.000000 0 0 1
-13.999692 19.245295 -12.917321 27.078218 -0.941894 2.068077 0.066232 -0.008784 278356.000000 0 0 1
-14.102592 18.610595 -14.180321 27.318836 -0.922340 2.116556 0.067753 -0.014609 -76964.400000 0 0 1
-15.552992 18.345595 -14.619221 28.145657 -0.867594 2.116960 0.061986 -0.001290 69588.000000 0 0 1
-16.161092 19.543895 -15.078821 29.504500 -0.879859 2.107224 0.031352 0.003003 -249249.000000 0 0 1
-17.499192 19.313495 -15.459621 30.302354 -0.834643 2.106189 0.021463 0.007652 -184872.000000 0 0 1
-18.172492 20.562195 -16.052921 31.792131 -0.847014 2.100102 0.014309 0.010266 -219288.000000 0 0 1
-18.500892 21.591895 -15.198521 32.241091 -0.862342 2.061676 0.016136 0.002665 167756.000000 0 0 1
-18.771492 22.730095 -16.033821 33.557555 -0.880495 2.068946 0.025335 -0.005402 -7026.940000 0 0 1
-19.176192 23.939395 -15.136021 34.204094 -0.895427 2.029204 0.021602 0.003701 491545.000000 0 0 1
-20.497092 23.872795 -14.607521 34.690355 -0.861333 2.005435 0.016009 0.008423 543948.000000 0 0 1
-20.964692 25.046295 -13.966821 35.523334 -0.873876 1.974876 0.025459 -0.006772 114850.000000 0 0 1
-25.642192 -0.702105 3.339879 25.868316 0.027374 1.441324 0.100977 -0.029725 136191.000000 0 0 1
-26.152162 0.148095 4.383179 26.517348 -0.005663 1.404739 0.104356 -0.028118 -67702.800000 0 0 1
-27.368222 -0.218705 4.960479 27.814992 0.007991 1.391499 0.100719 -0.023613 -455759.000000 0 0 1
-27.730242 0.565295 6.210479 28.422806 -0.020383 1.350516 0.094323 -0.014400 -306965.000000 0 0 1
-28.123872 1.891895 5.924679 28.803355 -0.067169 1.363623 0.109778 -0.018300 -14237.200000 0 0 1
-28.318052 2.613795 7.131779 29.319043 -0.092041 1.325084 0.106616 -0.010369 1453560.000000 0 0 1
-27.019862 3.059995 8.028179 28.352922 -0.112769 1.283718 0.103146 -0.011064 1872790.000000 0 0 1
-26.340202 1.959195 8.674679 27.800985 -0.074244 1.253470 0.094267 -0.019303 595065.000000 0 0 1
-25.219192 2.432495 9.409779 27.027183 -0.096157 1.215189 0.085788 -0.028492 157892.000000 0 0 1
-24.621492 1.369995 10.395679 26.761257 -0.055585 1.171837 0.069567 -0.022222 -37750.800000 0 0 1
-23.813292 0.400095 9.690979 25.712799 -0.016800 1.184356 0.069050 -0.023145 576016.000000 0 0 1
-24.488892 -0.708905 9.089179 26.130854 0.028940 1.215537 0.067781 -0.022414 -256214.000000 0 0 1
-23.505992 -1.577205 8.293979 24.976175 0.066998 1.232293 0.065994 -0.023439 -251948.000000 0 1 0
-22.579092 -2.216905 9.125379 24.454092 0.097870 1.188380 0.064979 -0.027271 117821.000000 0 1 0
-21.470892 -2.764605 8.389679 23.216997 0.128056 1.201071 0.066273 -0.021128 233530.000000 0 1 0
-20.222892 -2.972405 9.283079 22.449412 0.145937 1.144489 0.043365 -0.012363 -252041.000000 0 1 0
-19.641692 -1.744505 9.622079 21.941371 0.088584 1.116827 0.032926 -0.012533 191915.000000 0 1 0
-20.381392 -0.980805 10.579279 22.984435 0.048085 1.092486 0.050951 -0.019864 -691132.000000 0 1 0
-19.885992 0.485795 10.775279 22.622894 -0.024424 1.074355 0.026028 -0.012106 -256648.000000 0 1 0
-20.329392 1.379195 9.793679 22.607576 -0.067739 1.122752 0.027200 -0.010146 336680.000000 0 1 0
-20.767592 2.511395 10.529979 23.419659 -0.120344 1.104455 0.025940 -0.005101 -184490.000000 0 1 0
-21.380792 3.760395 9.820479 23.826889 -0.174097 1.145973 0.023330 -0.010661 -340951.000000 0 1 0
-21.528292 4.878995 10.646379 24.507495 -0.222867 1.121410 0.015207 -0.011455 411284.000000 0 1 0
-21.917192 5.928595 9.872379 24.758340 -0.264178 1.160643 0.009582 -0.011502 -520656.000000 0 1 0
-22.167192 7.122195 10.810079 25.670369 -0.310877 1.136126 0.011928 -0.017806 -277661.000000 0 0 1
-23.162092 6.903695 11.778079 26.886180 -0.289676 1.117344 0.020194 -0.013052 199273.000000 0 0 1
-22.964692 7.782195 12.843979 27.439159 -0.326731 1.083669 0.021734 -0.016471 336731.000000 0 0 1
-23.850892 7.387695 14.083179 28.666688 -0.300373 1.057245 0.041338 -0.016780 -124413.000000 0 0 1
-25.230142 7.520695 13.929179 29.784945 -0.289698 1.084157 0.061960 -0.018739 -438258.000000 0 0 1
-25.988672 7.009595 14.977979 30.803983 -0.263448 1.063020 0.057738 -0.017836 131785.000000 0 0 1
-27.483792 6.752095 14.680279 31.881973 -0.240904 1.092286 0.070156 -0.011914 95142.200000 0 0 1
-27.700982 5.709995 13.797679 31.469420 -0.203282 1.116926 0.081269 -0.005930 59366.300000 0 0 1
-28.916022 5.947395 13.112679 32.302480 -0.202849 1.152796 0.073459 -0.004922 -121823.000000 0 0 1
-29.280012 4.808395 12.093579 32.042073 -0.162768 1.183779 0.092335 -0.006374 -40478.700000 0 0 1
-29.934032 3.696395 12.702079 32.726937 -0.122863 1.172202 0.079945 -0.008554 275733.000000 0 0 1
-30.265942 2.748695 11.715879 32.570606 -0.090570 1.202842 0.072719 -0.000773 -490041.000000 0 0 1
-31.352232 1.791695 12.209579 33.693418 -0.057085 1.199984 0.065149 0.007317 -476465.000000 0 0 1
-30.944002 0.835495 13.152179 33.633453 -0.026994 1.169030 0.055034 0.013702 1078120.000000 0 0 1
-32.118332 0.075495 13.594279 34.876889 -0.002351 1.170405 0.058556 0.019355 1033320.000000 0 0 1
-31.853632 -1.099905 14.554379 35.038459 0.034516 1.142433 0.052782 0.008761 -96505.700000 0 0 1
-31.611302 -2.396105 13.998579 34.655100 0.075654 1.154977 0.038803 0.006425 47539.000000 0 0 1
-31.838652 -3.396605 14.964679 35.343717 0.106280 1.133597 0.031543 0.013800 -120537.000000 0 0 1
-31.770972 -4.911805 14.457479 35.249669 0.153386 1.148183 0.037608 0.008431 343854.000000 0 0 1
-32.860752 -5.257505 13.593779 35.948035 0.158649 1.182998 0.031506 0.001637 571381.000000 0 0 1
-32.848092 -6.598505 13.248979 36.028778 0.198241 1.194226 0.041891 0.003272 -476884.000000 0 0 1
-33.941322 -7.063005 12.228279 36.761803 0.205167 1.231700 0.043725 0.002145 566461.000000 0 0 1
-35.285611 -7.147805 12.649279 38.159792 0.199865 1.232923 0.042073 0.004974 200715.000000 0 0 1
-35.893843 -5.882905 12.850579 38.576080 0.162453 1.231182 0.047957 0.002858 -474988.000000 0 0 1
34.472855 -5.832305 12.554679 37.148533 -0.167598 1.226049 0.064775 -0.004363 783964.000000 0 0 1
33.621855 -6.613605 13.439679 36.807525 -0.194226 1.197020 0.065508 -0.007179 754234.000000 0 0 1
32.274785 -6.476705 13.017279 35.398574 -0.198043 1.194225 0.071404 -0.006372 302169.000000 0 0 1
31.213355 -7.473405 13.487379 34.814289 -0.235006 1.172977 0.055877 -0.008916 -109525.000000 0 0 1
30.833895 -7.280005 14.827579 34.979775 -0.231858 1.133060 0.057561 -0.004803 183734.000000 0 0 1
29.683985 -8.091105 15.045279 34.248582 -0.266110 1.115981 0.065011 -0.009629 294156.000000 0 0 1
29.230945 -8.026305 16.542879 34.533123 -0.267978 1.071231 0.052225 -0.006885 -210239.000000 0 0 1
30.113235 -8.721405 17.356879 35.834775 -0.281907 1.065167 0.042829 -0.000638 -558473.000000 0 0 1
29.772575 -8.543005 18.708579 36.185634 -0.279434 1.027434 0.034004 -0.004963 -232201.000000 0 0 1
30.838335 -8.935805 19.750879 37.695474 -0.282039 1.019304 0.031377 -0.010486 614553.000000 0 0 1
31.945685 -8.069105 20.036779 38.563062 -0.247413 1.024431 0.040268 -0.007192 47611.200000 0 0 1
33.154325 -8.478505 19.480179 39.377300 -0.250363 1.053300 0.020868 0.003859 38766.600000 0 0 1
34.384015 -7.869005 20.240479 40.667662 -0.224982 1.049846 0.005804 -0.002137 383434.000000 0 0 1
34.580585 -8.413305 21.538279 41.599255 -0.238659 1.026570 0.014004 -0.002242 96201.300000 0 0 1
-35.940952 -8.226605 21.854679 42.860892 0.225016 1.035730 0.017201 -0.001561 131649.000000 0 0 1
-35.641243 -8.704005 23.295379 43.459551 0.239523 1.005076 0.011903 0.002255 -94357.000000 0 0 1
35.529215 -8.053205 24.334279 43.810232 -0.222898 0.981895 0.011168 -0.001563 193597.000000 0 0 1
35.236045 -8.971605 25.344679 44.321793 -0.249317 0.962057 0.009649 -0.003786 -340257.000000 0 0 1
34.819635 -8.352905 26.700879 44.666710 -0.235442 0.930067 0.019475 -0.007292 914913.000000 0 0 1
35.927764 -7.889105 27.518179 45.937919 -0.216152 0.928508 0.009014 -0.015752 704638.000000 0 0 1
35.443585 -6.985205 28.539479 46.038492 -0.194586 0.902175 0.015142 -0.021445 746801.000000 0 0 1
-35.265605 -6.470205 29.425879 46.383282 0.181453 0.883555 0.024931 -0.013600 876591.000000 0 0 1
-34.700523 -7.412205 30.318879 46.672278 0.210442 0.863722 0.023815 -0.013141 -590414.000000 0 0 1
-33.432102 -7.098605 30.781279 45.995465 0.209222 0.837632 0.019942 -0.018346 -417252.000000 0 0 1
-32.867212 -7.854405 31.988279 46.531659 0.234575 0.812822 0.008849 -0.007415 -23322.600000 0 0 1
-32.797282 -9.250705 31.736779 46.566731 0.274915 0.820940 0.008569 -0.010456 348321.000000 0 0 1
-32.265652 -9.957605 32.851479 47.110996 0.299340 0.799144 -0.003121 -0.004600 -188395.000000 0 0 1
-32.403762 -11.458205 32.709879 47.447133 0.339885 0.810141 0.012983 -0.008691 -266531.000000 0 0 1
-33.747232 -11.874305 32.808379 48.541369 0.338331 0.828632 0.003061 -0.017562 -54844.800000 0 0 1
-33.944792 -13.240305 32.834979 49.047838 0.371903 0.837331 0.007720 -0.018327 -248128.000000 0 0 1
-35.426397 -13.503305 33.128779 50.347640 0.364165 0.852636 0.009601 -0.016529 -150622.000000 0 0 1
-35.776295 -14.882605 33.195679 51.023410 0.394215 0.862426 0.005100 -0.018086 -105594.000000 0 0 1
34.784945 -15.093705 33.603579 50.665697 -0.409397 0.845655 -0.001692 -0.013740 -262718.000000 0 0 1
34.394925 -16.507105 34.035079 51.126138 -0.447462 0.842354 -0.001391 -0.004558 -215064.000000 0 0 1
34.969945 -16.962605 -33.380925 51.233906 -0.451626 2.280409 -0.006177 -0.007522 111331.000000 0 0 1
34.906815 -18.363505 -33.363425 51.660644 -0.484287 2.272892 -0.009362 -0.012410 -368683.000000 0 0 1
35.468715 -18.962005 -32.072225 51.441374 -0.490952 2.243971 -0.012201 -0.005544 281751.000000 0 0 1
34.545345 -18.769405 -31.013425 50.074983 -0.497705 2.238698 -0.016859 -0.003344 149152.000000 0 0 1
35.034825 -19.520805 -29.910725 50.031513 -0.508341 2.211597 -0.017765 -0.001966 -856702.000000 0 0 1
34.015535 -19.624705 -28.749925 48.669743 -0.523286 2.202740 -0.007318 -0.002899 332476.000000 0 0 1
32.861525 -20.365505 -29.103325 48.390465 -0.554806 2.216082 -0.007177 -0.006449 -381527.000000 0 0 1
31.892345 -19.644705 -29.782025 47.853998 -0.552079 2.242540 -0.001048 -0.007588 -929668.000000 0 0 1
30.678295 -20.574405 -30.173625 47.696033 -0.590755 2.255732 0.000558 -0.005305 571591.000000 0 0 1
29.643385 -19.861105 -30.812125 47.144255 -0.590308 2.283090 -0.000947 -0.000700 -310043.000000 0 0 1
28.403605 -20.511805 -30.718525 46.595351 -0.625441 2.290633 0.003106 0.003008 -202599.000000 0 0 1
27.385765 -19.786705 -31.626525 46.278838 -0.625679 2.323193 0.006117 0.007977 -13740.200000 0 0 1
27.697435 -19.886305 -33.002325 47.452782 -0.622694 2.339880 -0.000639 0.005696 -706429.000000 0 0 1
26.524415 -19.852705 -33.721225 47.273624 -0.642521 2.365020 0.016547 0.011291 -773571.000000 0 0 1
26.689215 -20.033205 33.402579 47.216267 -0.643892 0.784930 0.002441 0.006206 87289.000000 0 0 1
27.381335 -18.929805 32.786479 46.722888 -0.604890 0.792985 0.001304 0.012223 450035.000000 0 0 1
27.617865 -19.194205 31.364979 45.988324 -0.607357 0.820274 -0.010611 0.009287 -277958.000000 0 0 1
26.811715 -18.330105 30.408179 44.491777 -0.599675 0.818310 -0.001192 0.015387 -573122.000000 0 0 1
26.902155 -16.956705 30.605879 44.135877 -0.562409 0.804534 0.014999 0.013137 534844.000000 0 0 1
26.056015 -16.163405 29.771679 42.737858 -0.555236 0.800133 0.023997 0.014150 42428.300000 0 0 1
25.697615 -14.809405 30.348679 42.434989 -0.522807 0.773914 0.041912 0.002736 92929.000000 0 0 1
26.760415 -13.871405 30.301379 42.740020 -0.478224 0.782760 0.048048 0.002042 679657.000000 0 0 1
26.270515 -12.714505 30.954279 42.543696 -0.450753 0.755997 0.070945 -0.006845 211835.000000 0 0 1
27.541915 -11.926905 31.257079 43.333742 -0.408666 0.765104 0.073930 -0.017991 151753.000000 0 0 1
28.087585 -11.216805 30.135779 42.695367 -0.379947 0.787199 0.069693 -0.021009 -365168.000000 0 0 1
29.438045 -10.924005 30.316079 43.646272 -0.355334 0.802952 0.066919 -0.021223 -469432.000000 0 0 1
30.243285 -10.544505 29.064879 43.250550 -0.335477 0.833874 0.060032 -0.010684 -217259.000000 0 0 1
30.031585 -9.209805 28.729779 42.568966 -0.297565 0.829968 0.065671 -0.021043 138726.000000 0 0 1
30.486195 -8.937505 27.391779 41.947547 -0.285175 0.859256 0.058081 -0.011117 -24081.300000 0 0 1
30.507265 -7.451405 26.913279 41.358690 -0.239560 0.862253 0.057385 -0.003539 -186990.000000 0 0 1
29.255885 -6.860405 26.675479 40.181503 -0.230335 0.844808 0.067503 -0.005072 -541809.000000 0 0 1
29.283185 -5.437005 26.500079 39.866279 -0.183579 0.843672 0.061332 -0.006887 412428.000000 0 0 1
27.899775 -4.748905 26.242179 38.595356 -0.168597 0.823128 0.062140 -0.000822 287521.000000 0 0 1
27.372805 -5.088005 25.043079 37.447484 -0.183781 0.838267 0.061477 -0.009103 -453685.000000 0 0 1
25.979015 -4.872005 25.132679 36.473240 -0.185383 0.810589 0.066207 -0.006873 -426572.000000 0 0 1
25.310215 -5.347005 23.860079 35.192341 -0.208198 0.825771 0.068599 -0.010484 -482908.000000 0 0 1
25.551315 -4.440705 22.774279 34.514597 -0.172077 0.850184 0.076362 -0.002334 272198.000000 0 0 1
24.828715 -4.833705 21.613579 33.271258 -0.192277 0.863716 0.083411 -0.007354 106607.000000 0 0 1
25.028415 -3.851305 20.357879 32.491497 -0.152680 0.893665 0.091739 -0.014218 221782.000000 0 0 1
24.369215 -2.603305 20.466479 31.929808 -0.106424 0.875017 0.083681 -0.010101 -12235.700000 0 0 1
24.844315 -1.691205 19.498279 31.627252 -0.067967 0.906504 0.085522 -0.017992 -317287.000000 0 0 1
23.730815 -0.782905 18.924879 30.363063 -0.032979 0.897858 0.066236 -0.012297 -593887.000000 0 0 1
22.775015 -1.544505 18.277979 29.243313 -0.067712 0.895625 0.072791 -0.014299 -1352420.000000 0 0 1
21.808715 -0.687405 17.822379 28.173210 -0.031509 0.885890 0.062546 -0.008590 23915.100000 0 0 1
20.627515 -1.353505 17.018179 26.775825 -0.065523 0.882037 0.051168 -0.010794 726598.000000 0 0 1
21.079915 -2.008205 15.828179 26.437227 -0.094980 0.928909 0.068995 -0.018868 16935.300000 0 0 1
19.969315 -2.572405 15.206979 25.231786 -0.128112 0.923927 0.062703 -0.024915 -191276.000000 0 0 1
20.408415 -3.249905 13.925079 24.919332 -0.157917 0.977851 0.071726 -0.030858 -594654.000000 0 1 0
19.372215 -4.011105 13.432379 23.912350 -0.204169 0.974316 0.065936 -0.030893 35.710800 0 1 0
19.607815 -4.409805 12.080079 23.448691 -0.221220 1.029589 0.064812 -0.026684 85907.900000 0 1 0
18.637515 -5.552505 11.604779 22.646373 -0.289548 1.032779 0.053791 -0.027141 150303.000000 0 1 0
18.731515 -6.768605 12.322479 23.420657 -0.346749 1.016744 0.062000 -0.023581 711218.000000 0 1 0
17.523015 -7.507005 12.234279 22.651463 -0.404754 1.000229 0.044837 -0.008931 -15699.800000 0 1 0
17.669015 -8.986405 12.611079 23.494444 -0.470501 1.004194 0.051067 -0.019613 -297718.000000 0 1 0
18.438515 -9.790505 11.725279 23.943997 -0.488124 1.059055 0.041055 -0.027986 470389.000000 0 1 0
18.145515 -11.177605 11.787179 24.354387 -0.552100 1.065592 0.052406 -0.022215 -69078.700000 0 1 0
18.766915 -12.004805 10.624879 24.681988 -0.569086 1.125782 0.054988 -0.021963 -85845.200000 0 1 0
18.254315 -11.645505 9.380679 23.597351 -0.567864 1.161972 0.055527 -0.021746 -67162.400000 0 1 0
19.030415 -12.034805 8.304179 23.999013 -0.563902 1.217469 0.048827 -0.026145 -672259.000000 0 1 0
18.562815 -11.486205 6.939479 22.905619 -0.554110 1.263000 0.034605 -0.014719 -194192.000000 0 1 0
18.642115 -10.070005 6.711379 22.225573 -0.495269 1.264041 0.016957 -0.011936 638326.000000 0 1 0
19.423715 -9.827605 5.546479 22.463881 -0.468404 1.321310 0.018522 -0.009917 -114073.000000 0 1 0
19.718015 -8.357105 5.257579 22.051836 -0.400880 1.330059 0.015814 -0.008772 -706648.000000 0 1 0
20.483815 -8.134205 4.104179 22.418659 -0.378007 1.386688 0.038778 -0.014125 418649.000000 0 1 0
20.608015 -6.743505 4.059679 22.060058 -0.316245 1.385713 0.031856 -0.011777 -539852.000000 0 1 0
21.385415 -6.157605 2.863879 22.437778 -0.280351 1.442811 0.047653 -0.018696 -201767.000000 0 1 0
20.649515 -6.229205 1.680379 21.633981 -0.292982 1.493045 0.027636 -0.023747 176917.000000 0 1 0
21.359115 -5.584805 0.667279 22.087261 -0.255746 1.540581 0.052347 -0.015384 28062.300000 0 1 0
-25.392382 -15.530905 -0.232021 29.766355 0.548932 1.578591 0.064596 -0.006513 274385.000000 0 0 1
-24.379092 -14.676105 -0.808021 28.467193 0.541886 1.599184 0.048231 -0.000347 841292.000000 0 0 1
-23.053992 -15.170905 -0.634721 27.605177 0.582020 1.593791 0.036496 0.005950 817722.000000 0 0 1
-22.326592 -14.776005 0.704479 26.782519 0.584634 1.544490 0.035091 0.000861 -353550.000000 0 0 1
-22.913492 -15.360705 1.821679 27.645938 0.590568 1.504855 0.042181 0.011665 13340.100000 0 0 1
-22.245092 -14.973605 3.011879 26.983780 0.592457 1.458945 0.036986 0.027390 39400.800000 0 0 1
-22.714492 -15.742805 4.251879 27.961805 0.606062 1.418144 0.042494 0.021771 -549119.000000 0 0 1
-22.513492 -17.163205 4.198279 28.619198 0.651360 1.423571 0.062263 0.006330 200125.000000 0 0 1
-22.746292 -17.797405 5.418279 29.385357 0.663936 1.385348 0.052355 0.001133 -166192.000000 0 0 1
-23.182392 -19.271205 5.180579 30.588250 0.693529 1.400611 0.041002 0.008133 160934.000000 0 0 1
-23.603492 -19.974205 6.369579 31.570006 0.702307 1.367641 0.034262 0.004545 25293.600000 0 0 1
-24.129592 -21.233105 5.935379 32.685023 0.721633 1.388190 0.046199 -0.004037 52271.600000 0 0 1
-24.791192 -22.122605 7.077379 33.972079 0.728577 1.360930 0.044156 0.000642 170644.000000 0 0 1
-23.944292 -22.617705 8.121879 33.924248 0.756915 1.329036 0.042615 0.010198 -75145.100000 0 0 1
-24.612892 -23.484905 9.022579 35.195769 0.761951 1.311548 0.055908 0.006800 -69834.500000 0 0 1
-23.734392 -23.958905 10.190179 35.230530 0.790106 1.277361 0.021668 0.001591 -127426.000000 0 0 1
-23.265692 -22.906205 10.926479 34.429270 0.777612 1.247852 0.038290 0.000794 -216975.000000 0 0 1
-22.546892 -23.384205 12.021879 34.636815 0.803626 1.216336 0.038857 -0.001958 -207979.000000 0 0 1
-22.613092 -22.482805 13.276979 34.541376 0.782509 1.176261 0.026720 0.000399 -524952.000000 0 0 1
-23.809392 -22.661205 13.961379 35.711868 0.760695 1.169138 0.033677 -0.008926 -1254290.000000 0 0 1
-23.820192 -21.885405 15.177479 35.731336 0.743092 1.132092 0.021095 0.006506 -633795.000000 0 0 1
-25.061752 -22.222905 16.048579 37.141699 0.725433 1.123987 0.013341 0.010529 653269.000000 0 0 1
-26.314612 -22.037305 15.394879 37.617867 0.697166 1.149171 0.007690 0.014468 354506.000000 0 0 1
-26.581212 -23.020205 14.345579 37.977445 0.713729 1.183443 0.002150 0.007242 -1552390.000000 0 0 1
-27.841912 -23.859105 14.718279 39.510210 0.708515 1.189075 -0.004839 0.004669 93194.600000 0 0 1
-27.688942 -24.526905 15.964779 40.287973 0.724915 1.163349 0.000108 0.010795 132214.000000 0 0 1
-28.682302 -25.523385 16.194779 41.669995 0.727188 1.171637 0.008329 0.003438 52484.100000 0 0 1
-28.423662 -26.878465 15.523379 42.087192 0.757464 1.193037 0.028638 -0.001954 -126407.000000 0 0 1
-28.921562 -26.982045 14.206479 42.027510 0.750718 1.225975 0.035836 -0.007340 58980.400000 0 0 1
-30.207602 -27.573015 14.196379 43.293274 0.739833 1.236704 0.064036 -0.020055 -340131.000000 0 0 1
-30.641722 -27.964355 12.801579 43.414292 0.739746 1.271477 0.082159 -0.017950 -124419.000000 0 0 1
-29.961252 -29.074445 12.239579 43.506405 0.770378 1.285618 0.083165 -0.022985 8396.130000 0 0 1
-30.581042 -29.374155 11.050079 43.819464 0.765271 1.315871 0.074117 -0.011984 -172316.000000 0 0 1
-30.054492 -30.604245 10.262179 44.104474 0.794461 1.335965 0.070205 -0.019734 -61113.100000 0 0 1
-30.142462 -31.820145 10.985779 45.186027 0.812467 1.325212 0.076168 -0.010606 159071.000000 0 0 1
-29.738352 -32.899335 10.199979 45.505774 0.835820 1.344729 0.081335 -0.009461 -211154.000000 0 0 1
-29.748072 -34.234385 11.012679 46.671405 0.855401 1.332588 0.078228 -0.000594 197607.000000 0 0 1
-31.078752 34.054925 11.232979 47.453204 -0.831060 1.331811 0.081068 0.001125 169116.000000 0 0 1
-31.009592 32.705163 11.719979 46.568019 -0.812004 1.316386 0.074671 -0.005263 -596315.000000 0 0 1
-32.338412 32.139505 12.262579 47.213256 -0.782313 1.308056 0.082387 -0.006605 1001720.000000 0 0 1
-33.423862 31.891665 11.315379 47.563333 -0.761944 1.330592 0.045040 -0.009614 891023.000000 0 0 1
-34.066727 33.097555 10.992079 48.752598 -0.770969 1.343374 0.058242 0.002566 -832524.000000 0 0 1
-35.481317 32.933612 10.381079 49.510741 -0.748176 1.359556 0.042595 0.022463 238773.000000 0 0 1
-35.491846 32.264175 9.097679 48.820241 -0.737797 1.383350 0.029693 0.010479 20256.600000 0 0 1
35.020905 32.096735 8.847779 48.321293 0.741858 1.386654 0.025039 0.011073 -150954.000000 0 0 1
34.741465 31.605415 7.375279 47.542259 0.738166 1.415036 0.025772 -0.003372 -122033.000000 0 0 1
34.967125 30.222015 7.253779 46.783409 0.712736 1.415118 0.042494 -0.010561 71760.800000 0 0 1
34.756915 29.795115 5.942779 46.163932 0.708684 1.441706 0.065607 -0.019703 -96950.000000 0 0 1
34.741955 28.261245 5.819479 45.161574 0.682895 1.441578 0.071513 -0.016507 -456603.000000 0 0 1
33.737235 27.586795 6.506679 44.063241 0.685438 1.422587 0.062033 -0.013358 -377551.000000 0 0 1
34.039795 27.140615 7.780679 44.225102 0.673105 1.393942 0.056026 -0.007695 -48485.400000 0 0 1
33.084035 25.973685 8.176779 42.849101 0.665578 1.378791 0.043787 -0.009234 319357.000000 0 0 1
33.317195 24.839835 7.390679 42.209893 0.640651 1.394796 0.045423 -0.013875 -272931.000000 0 0 1
32.293125 23.918615 7.562679 40.891811 0.637504 1.384782 0.037183 -0.010349 -899600.000000 0 0 1
32.342865 22.776515 6.538379 40.094650 0.613553 1.406991 0.038717 -0.002228 302025.000000 0 0 1
33.329045 21.753915 6.627479 40.348253 0.578272 1.405792 0.044791 0.002720 -169597.000000 0 0 1
34.675495 22.142915 6.501779 41.652993 0.568302 1.414061 0.047706 -0.004217 -138378.000000 0 0 1
35.637095 20.911915 6.621279 41.846769 0.530658 1.411902 0.028039 0.003039 80568.700000 0 0 1
35.517205 20.087915 5.478379 41.170485 0.514728 1.437335 0.045419 -0.001438 165357.000000 0 0 1
35.849025 18.734615 5.797379 40.862550 0.481562 1.428441 0.051940 0.000269 61649.900000 0 0 1
35.286645 17.694915 4.767879 39.761665 0.464817 1.450596 0.053848 -0.000635 190846.000000 0 0 1
35.939200 17.667215 3.486179 40.198384 0.456894 1.483963 0.061428 -0.003071 509431.000000 0 0 1
35.440535 16.534315 2.798179 39.207715 0.436521 1.499368 0.038420 -0.008040 -390041.000000 0 0 1
-35.443532 16.009715 1.725979 38.929859 -0.424264 1.526446 0.057912 0.000176 749582.000000 0 0 1
-34.355302 15.171015 2.160379 37.617997 -0.415840 1.513335 0.061412 -0.002915 1506340.000000 0 0 1
-33.215922 16.003015 2.544879 36.957684 -0.448972 1.501883 0.069486 -0.010060 486148.000000 0 0 1
-31.912002 15.178915 2.681779 35.439629 -0.443978 1.495052 0.052323 -0.014467 -202958.000000 0 0 1
-31.857412 14.396115 3.838979 35.169313 -0.424426 1.461421 0.052704 -0.011275 -1289860.000000 0 0 1
-30.578332 13.979715 4.025779 33.862571 -0.428806 1.451629 0.058822 -0.015149 -1610310.000000 0 0 1
-30.249802 13.330515 5.401379 33.495194 -0.415077 1.408831 0.060341 -0.010263 -57907.000000 0 0 1
-30.591972 11.928815 5.523179 33.296710 -0.371798 1.404148 0.058324 -0.000658 260195.000000 0 0 1
-29.955972 11.339915 6.637579 32.711029 -0.361882 1.366462 0.028830 0.006519 -137295.000000 0 0 1
-30.014112 9.790015 6.555179 32.243785 -0.315299 1.366069 0.033515 -0.000080 -302598.000000 0 0 1
-31.328282 9.343115 6.689279 33.369170 -0.289835 1.368966 0.041869 0.006611 -535536.000000 0 0 1
-31.448212 7.992215 6.244979 33.043385 -0.248870 1.380659 0.053182 -0.003061 -863446.000000 0 0 1
-32.857722 7.460315 6.295379 34.277077 -0.223264 1.386086 0.052752 0.000175 -589397.000000 0 0 1
-33.440242 7.390915 7.628879 35.086681 -0.217522 1.351616 0.056048 0.002076 515974.000000 0 0 1
-34.536218 6.466515 7.649979 35.959538 -0.185095 1.356420 0.044521 -0.001301 419772.000000 0 0 1
-34.773368 5.799115 9.022979 36.389985 -0.165248 1.320230 0.060525 -0.000629 44118.200000 0 0 1
-35.554632 6.611215 9.896179 37.493658 -0.183846 1.303689 0.056557 -0.000648 666178.000000 0 0 1
-34.778565 7.592815 10.616479 37.147127 -0.214946 1.280960 0.059641 -0.008268 -167070.000000 0 0 1
-35.681265 8.563815 11.343279 38.407832 -0.235553 1.270987 0.050646 -0.017939 -468744.000000 0 0 1
35.343115 7.984815 12.299479 38.264478 0.222193 1.243554 0.051771 -0.018227 452785.000000 0 0 1
34.796515 9.043315 13.054779 38.249265 0.254266 1.222488 0.063338 -0.025875 -847688.000000 0 0 1
34.011205 8.634715 14.289279 37.888044 0.248626 1.184085 0.049410 -0.024635 -30998.600000 0 0 1
32.633815 8.302915 14.164579 36.531351 0.249141 1.172620 0.058644 -0.032639 668213.000000 0 0 1
32.126695 7.764515 15.368779 36.450125 0.237137 1.135545 0.043978 -0.016338 560027.000000 0 0 1
30.589575 7.469915 15.292179 35.005321 0.239511 1.118699 0.046042 -0.011025 467098.000000 0 0 1
29.791495 8.652615 15.472879 34.667145 0.282662 1.108140 0.031161 -0.009973 347773.000000 0 0 1
28.420425 8.316515 15.563479 33.453055 0.284677 1.086898 0.033650 -0.002104 213509.000000 0 0 1
27.770645 7.707715 16.868979 33.394312 0.270734 1.041246 0.038085 0.004233 -267328.000000 0 0 1
27.775075 8.663015 17.930579 34.176137 0.302337 1.018490 0.056275 -0.011213 -164326.000000 0 0 1
27.163615 8.250115 19.107879 34.220424 0.294866 0.978369 0.061613 -0.006162 -474269.000000 0 0 1
27.769125 7.167815 20.014479 34.972579 0.252608 0.961500 0.054735 -0.006863 25025.600000 0 0 1
27.034815 6.997515 21.236379 35.083191 0.253275 0.920635 0.033964 0.006753 248554.000000 0 0 1
27.443035 5.800515 21.857179 35.559843 0.208300 0.908843 0.040329 0.004535 -382033.000000 0 0 1
26.834615 5.470915 23.275979 35.941601 0.201119 0.866359 0.041860 0.011126 202533.000000 0 0 1
25.459215 5.190815 23.336279 34.924177 0.201131 0.839012 0.043655 0.007297 111310.000000 0 0 1
24.589115 6.339715 23.341879 34.491447 0.252331 0.827465 0.046932 0.010830 376015.000000 0 0 1
23.090215 5.987615 23.545779 33.517358 0.253725 0.791899 0.046824 0.002849 450187.000000 0 0 1
22.495615 5.273815 22.443879 32.211699 0.230279 0.799923 0.053463 0.007703 922414.000000 0 0 1
21.077215 5.209515 22.664279 31.385627 0.242307 0.763930 0.050085 0.000122 163718.000000 0 0 1
20.425115 4.013115 21.881779 30.201038 0.194008 0.760433 0.062336 -0.003121 596880.000000 0 0 1
19.154415 4.227915 21.260279 28.926914 0.217245 0.745181 0.049518 -0.006293 830057.000000 0 0 1
18.045115 4.214415 22.167479 28.892640 0.229436 0.696276 0.056477 -0.007735 308512.000000 0 0 1
16.749315 4.196715 21.276879 27.401780 0.245506 0.681739 0.066970 -0.010449 283168.000000 0 0 1
16.334315 2.811715 21.082779 26.817889 0.170465 0.666248 0.052652 -0.006971 174867.000000 0 0 1
15.145315 2.736915 20.320879 25.491360 0.178781 0.648207 0.047900 -0.015382 -675176.000000 0 0 1
14.151515 1.635215 20.730279 25.153206 0.115040 0.602078 0.051855 -0.011384 -635816.000000 0 0 1
14.516415 0.315615 20.837079 25.397043 0.021739 0.608593 0.032458 -0.008987 -790426.000000 0 0 1
13.543315 -0.410885 21.475179 25.392391 -0.030329 0.562859 0.040342 -0.013428 -616841.000000 0 0 1
13.831315 -1.958085 21.704679 25.811480 -0.140634 0.571866 0.017756 -0.011898 -375.911000 0 0 1
13.781415 -2.620285 20.470179 24.815752 -0.187889 0.600795 0.032711 -0.011753 118946.000000 0 1 0
13.910015 -4.002585 20.646779 25.215049 -0.280179 0.611431 0.014510 -0.000504 -101561.000000 0 0 1
13.544515 -4.705085 19.305579 24.047809 -0.334338 0.638820 0.017761 -0.006420 69515.700000 0 1 0
12.147215 -4.726785 19.116279 23.137188 -0.371096 0.598442 0.031151 -0.009433 -130568.000000 0 1 0
11.796115 -5.380185 17.888979 22.093219 -0.427913 0.627148 0.031455 -0.008120 666021.000000 0 1 0
10.266215 -5.520285 17.626479 21.132002 -0.493361 0.584273 0.034176 -0.011833 710818.000000 0 1 0
9.561615 -6.338485 18.514979 21.780848 -0.585397 0.554701 0.027219 0.001404 -1683880.000000 0 1 0
8.204815 -6.251985 18.402479 21.096387 -0.651130 0.510900 0.026979 -0.006168 -1324760.000000 0 1 0
7.454115 -7.223285 19.375479 21.980648 -0.769673 0.491811 0.014540 -0.008798 -336656.000000 0 1 0
7.732415 -8.644485 19.195879 22.427643 -0.841033 0.543502 0.019373 -0.005867 -116564.000000 0 1 0
8.959015 -9.116285 19.708779 23.490564 -0.794099 0.575338 0.033857 -0.010356 78514.900000 0 1 0
9.268715 -10.551885 19.168979 23.763441 -0.850047 0.632320 0.041100 -0.017844 113567.000000 0 1 0
9.357615 -10.539985 17.744779 22.661276 -0.844751 0.671251 0.032260 -0.004596 29774.000000 0 1 0
9.726415 -11.814585 17.243279 23.054680 -0.882036 0.725859 0.023344 -0.013473 197929.000000 0 1 0
9.922915 -11.802985 15.741179 22.035413 -0.871719 0.775090 0.023887 -0.014017 228532.000000 0 1 0
10.314515 -13.031185 15.109979 22.461355 -0.901244 0.832931 0.015492 -0.011619 1021.790000 0 1 0
10.191815 -12.921185 13.692979 21.408592 -0.902942 0.876816 0.020041 -0.010493 -642437.000000 0 1 0
10.757115 -14.160785 12.932979 21.988754 -0.921153 0.942010 0.031887 -0.011999 -619692.000000 0 1 0
12.125215 -14.179085 12.752479 22.598518 -0.863321 0.971204 0.021390 -0.009920 -1192850.000000 0 1 0
12.428415 -13.357285 11.624379 21.633510 -0.821405 1.003526 0.011980 -0.010353 -4221.090000 0 1 0
13.896715 -13.230385 11.064379 22.149092 -0.760840 1.047727 0.031490 -0.018043 834884.000000 0 1 0
14.273915 -14.394085 10.368879 22.769453 -0.789590 1.097991 0.039011 -0.016189 232300.000000 0 1 0
15.560315 -14.125385 9.801779 23.188894 -0.737098 1.134382 0.045264 -0.027486 394087.000000 0 1 0
16.248515 -15.399085 9.247779 24.221220 -0.758564 1.179048 0.043062 -0.030739 184464.000000 0 1 0
16.743715 -16.413485 10.134579 25.543378 -0.775439 1.162812 0.048739 -0.026551 329194.000000 0 0 1
15.718015 -17.142685 10.798979 25.642652 -0.828726 1.136102 0.071882 -0.024562 263153.000000 0 0 1
16.210415 -17.594285 12.193079 26.851585 -0.826313 1.099444 0.064757 -0.017457 -93339.700000 0 0 1
17.199315 -18.607685 12.125579 28.090782 -0.824710 1.124468 0.079614 -0.023671 -3274.430000 0 0 1
17.591315 -19.166885 13.350879 29.241577 -0.828235 1.096658 0.052754 -0.022662 70643.600000 0 0 1
18.892315 -20.026485 13.285179 30.569195 -0.814532 1.121209 0.028830 -0.024734 1244730.000000 0 0 1
20.020115 -19.217785 12.889779 30.598606 -0.764953 1.135969 0.030223 -0.025410 -216244.000000 0 0 1
21.204415 -19.937585 12.707879 31.758852 -0.754616 1.159130 0.015607 -0.023449 62399.000000 0 0 1
22.194115 -19.167685 11.812179 31.614972 -0.712359 1.187881 0.028278 -0.015601 -584784.000000 0 0 1
21.999715 -19.165685 10.380179 30.968679 -0.716662 1.228997 0.023940 -0.015485 -181330.000000 0 0 1
20.820515 -18.561585 9.888179 29.593958 -0.728102 1.230116 0.034742 -0.019933 104617.000000 0 0 1
20.570915 -17.027085 9.929479 28.489976 -0.691420 1.214799 0.057804 -0.031193 -111006.000000 0 0 1
21.569615 -16.277185 9.270179 28.568011 -0.646461 1.240318 0.050915 -0.017108 3251.620000 0 0 1
21.212215 -14.915285 9.125379 27.489932 -0.612834 1.232423 0.053825 -0.027149 -33551.400000 0 0 1
-34.852101 25.060795 7.523079 43.581063 -0.623405 1.397305 0.046308 -0.008335 436468.000000 0 0 1
-34.123955 24.302395 8.552779 42.757464 -0.618854 1.369408 0.036920 0.000190 1051620.000000 0 0 1
-32.980682 25.021995 9.020979 42.369844 -0.649037 1.356244 0.046290 -0.005558 -475910.000000 0 0 1
-32.015422 24.238195 9.831879 41.341785 -0.648016 1.330676 0.054457 -0.012157 -888157.000000 0 0 1
-31.075662 23.511295 9.092479 40.014384 -0.647700 1.341564 0.057962 -0.014316 159010.000000 0 0 1
-30.343842 22.564195 9.891579 39.086250 -0.639403 1.314944 0.051153 -0.012431 -143240.000000 0 0 1
-29.345952 21.801095 9.049479 37.661196 -0.638941 1.328135 0.048584 -0.018563 -739523.000000 0 0 1
-29.923572 21.005395 8.063779 37.438901 -0.612046 1.353710 0.062934 -0.024401 -89282.400000 0 0 1
-29.033882 20.139795 7.394279 36.100595 -0.606462 1.364512 0.066742 -0.024020 -203289.000000 0 0 1
-29.769742 19.422395 6.253479 36.091175 -0.578075 1.396648 0.069584 -0.026812 162801.000000 0 0 1
-30.607902 18.366495 6.761679 36.330319 -0.540462 1.383588 0.064481 -0.015485 753960.000000 0 0 1
-31.415082 17.834795 5.687979 36.569665 -0.516342 1.414624 0.053441 -0.015693 101265.000000 0 0 1
-32.279332 16.651595 6.140479 36.836617 -0.476254 1.403320 0.038952 -0.003575 -12335.500000 0 0 1
-33.150842 17.072395 7.216879 37.980631 -0.475569 1.379619 0.037838 0.000392 451108.000000 0 0 1
-33.849062 15.879095 7.576279 38.148455 -0.438636 1.370867 0.043852 -0.006195 -38049.500000 0 0 1
-34.806486 16.080595 8.774579 39.332814 -0.432788 1.345818 0.028209 -0.006237 262604.000000 0 0 1
-35.813469 17.067195 8.544679 40.582080 -0.444719 1.358656 0.038526 -0.007962 403990.000000 0 0 1
35.179105 17.133295 9.624079 40.295684 0.453218 1.329629 0.047158 -0.002841 -170542.000000 0 0 1
34.191975 18.301295 9.660979 39.967025 0.491449 1.326654 0.030395 0.004002 88454.100000 0 0 1
33.177125 18.204895 8.659779 38.821793 0.501859 1.345839 0.039121 -0.001942 -22244.800000 0 0 1
32.406745 19.370295 8.688379 38.741365 0.538744 1.344606 0.035980 0.001945 309375.000000 0 0 1
31.039985 19.264395 7.942079 37.385481 0.555452 1.356728 0.035854 -0.005824 362022.000000 0 0 1
30.247515 20.426095 8.109479 37.388517 0.593955 1.352161 0.029853 -0.007143 62302.600000 0 0 1
28.897255 20.435195 7.696279 36.219901 0.615520 1.356676 0.027576 -0.012209 346872.000000 0 0 1
28.633705 20.409195 6.168279 35.699747 0.619244 1.397143 0.009324 0.003302 -700600.000000 0 0 1
28.927775 19.122495 5.606679 35.127209 0.584099 1.410500 0.021029 -0.002008 96419.800000 0 0 1
28.550025 18.926795 4.264279 34.518279 0.585414 1.446943 0.022496 -0.007747 -222774.000000 0 0 1
27.080375 19.094195 3.823379 33.354958 0.614136 1.455917 0.051876 -0.006426 75210.400000 0 0 1
26.048415 18.327495 4.443979 32.158451 0.613134 1.432163 0.049173 -0.013325 1866690.000000 0 0 1
24.692315 18.694895 4.062179 31.236370 0.648038 1.440380 0.046190 -0.014884 1819700.000000 0 0 1
23.968815 19.967795 4.701679 31.548735 0.694585 1.421210 0.049581 -0.017299 -252720.000000 0 0 1
24.507615 21.163295 4.200879 32.652039 0.712302 1.441783 0.037688 -0.018862 -235020.000000 0 0 1
23.932115 22.353295 4.552579 33.062696 0.751301 1.432662 0.021468 -0.007723 -627125.000000 0 0 1
24.860315 23.563495 4.450279 34.540969 0.758624 1.441597 0.002062 -0.007669 615918.000000 0 0 1
25.953315 23.641395 5.393279 35.518693 0.738816 1.418363 0.014443 -0.019062 1107550.000000 0 0 1
26.827815 24.764695 5.209579 36.880367 0.745431 1.429066 0.013009 -0.017586 108519.000000 0 0 1
28.256825 24.609895 5.820579 37.920631 0.716524 1.416693 0.021376 -0.012200 351082.000000 0 0 1
29.092035 23.574595 5.297979 37.817676 0.681017 1.430241 0.018300 -0.017349 328704.000000 0 0 1
29.306975 23.533395 3.893779 37.787312 0.676565 1.467568 0.012936 -0.031562 -874684.000000 0 0 1
30.393105 24.520395 3.432679 39.201708 0.678858 1.483119 0.032014 -0.040995 -741407.000000 0 0 1
29.964195 25.841895 3.546079 39.726958 0.711664 1.481416 0.026765 -0.034006 -423026.000000 0 0 1
30.687755 26.702895 2.698379 40.768421 0.716075 1.504560 0.055285 -0.032666 -875513.000000 0 0 1
30.044835 28.147295 2.555679 41.249167 0.752802 1.508800 0.049671 -0.024639 77831.900000 0 0 1
28.766895 28.157995 1.997679 40.303817 0.774702 1.521210 0.070673 -0.023489 -883267.000000 0 0 1
27.754805 27.727095 2.852879 39.335225 0.784899 1.498205 0.036180 -0.022679 -1419630.000000 0 0 1
26.375815 28.254195 2.426679 38.728180 0.819768 1.508096 -0.011242 -0.013132 -248413.000000 0 0 1
26.292715 29.712395 2.521479 39.755391 0.846383 1.507329 -0.003163 -0.017632 -285378.000000 0 0 1
24.972215 30.118995 2.313779 39.193353 0.878551 1.511727 -0.005056 -0.015013 -323626.000000 0 0 1
24.885015 31.693495 2.457579 40.370550 0.905159 1.509883 0.013815 -0.028220 -98148.000000 0 0 1
24.732915 32.303295 3.747479 40.856622 0.917356 1.478945 0.002389 -0.036355 -474950.000000 0 0 1
25.889115 32.245595 4.524579 41.599236 0.894306 1.461815 0.003220 -0.034663 -501415.000000 0 0 1
25.754015 32.019495 6.032879 41.532071 0.893425 1.425022 0.008558 -0.038527 133932.000000 0 0 1
25.132815 30.800195 6.472579 40.276602 0.886378 1.409393 0.007949 -0.038290 296509.000000 0 0 1
26.030515 29.703195 6.434479 40.015872 0.851200 1.409297 0.011630 -0.038390 118176.000000 0 0 1
25.478815 28.376195 7.044079 38.781407 0.839146 1.388147 0.026347 -0.033145 -42606.700000 0 0 1
24.283215 27.931095 6.422579 37.564213 0.855148 1.398976 -0.002058 -0.033727 294699.000000 0 0 1
23.748415 26.665595 6.907079 36.369615 0.843198 1.379722 0.009662 -0.021696 -939112.000000 0 0 1
22.392415 26.368595 6.316279 35.165586 0.866762 1.390201 0.006161 -0.006169 -912039.000000 0 0 1
22.260215 25.971195 4.943879 34.560991 0.862188 1.427256 -0.003395 -0.008212 102875.000000 0 0 1
22.653115 27.008895 4.052079 35.483283 0.872883 1.456350 -0.008762 -0.012061 -345539.000000 0 0 1
22.765915 26.734795 2.577079 35.209054 0.865405 1.497537 -0.002250 -0.003791 -191723.000000 0 0 1
23.776615 25.786895 2.299879 35.150829 0.825936 1.505321 -0.025077 0.007970 91264.600000 0 0 1
23.674115 25.483495 0.962479 34.796531 0.822189 1.543133 -0.004224 0.007100 933547.000000 0 0 1
25.039515 24.820095 0.445779 35.259228 0.780997 1.558153 0.003609 0.001048 -56246.200000 0 0 1
26.076615 25.757995 0.375779 36.655223 0.779251 1.560544 -0.000834 -0.003323 -584216.000000 0 0 1
26.886045 25.619895 -0.731821 37.145309 0.761288 1.590499 -0.002015 0.005467 -403340.000000 0 0 1
27.871075 24.414295 -0.770821 37.060070 0.719381 1.591597 0.001162 -0.013808 -1149650.000000 0 0 1
27.338625 23.146295 -0.766221 35.829296 0.702547 1.592183 0.008854 -0.017137 114630.000000 0 0 1
28.011615 22.324695 0.205579 35.820174 0.672897 1.565057 0.014260 -0.020717 302332.000000 0 0 1
26.952885 21.589695 1.098579 34.551119 0.675360 1.538995 0.018605 -0.015114 302465.000000 0 0 1
26.543415 20.457995 0.424679 33.515113 0.656641 1.558125 0.032214 -0.025158 768116.000000 0 0 1
25.201115 20.099095 0.791779 32.244328 0.673244 1.546238 0.031336 -0.019074 149881.000000 0 0 1
24.716515 18.989095 -0.113121 31.168969 0.655095 1.574426 0.043656 -0.022388 -1469020.000000 0 0 1
23.514115 18.481395 0.309979 29.909391 0.666127 1.560432 0.043663 -0.015493 -991560.000000 0 0 1
23.158115 17.413295 -0.481021 28.978483 0.644736 1.587396 0.057625 -0.018671 16388.400000 0 0 1
21.706515 16.972495 -0.199521 27.555003 0.663611 1.578037 0.060777 -0.004733 -671565.000000 0 0 1
21.235015 15.945695 -1.060821 26.576613 0.644087 1.610722 0.067429 -0.006674 919087.000000 0 0 1
19.815315 15.751395 -0.957521 25.331206 0.671630 1.608605 0.073487 -0.003745 1418760.000000 0 0 1
18.820815 16.832195 -1.531521 25.296075 0.729679 1.631377 0.074746 -0.003435 -54924.100000 0 0 1
18.700815 17.929995 -0.676221 25.916452 0.764358 1.596892 0.055693 -0.008074 467227.000000 0 0 1
17.478615 18.632395 -0.929421 25.564271 0.817338 1.607161 0.039736 -0.014053 575613.000000 0 0 1
17.469415 20.043695 -0.298821 26.589837 0.853914 1.582035 0.036913 -0.008864 -229567.000000 0 0 1
17.061915 19.963595 1.055379 26.282463 0.863608 1.530630 0.044342 -0.001870 173447.000000 0 0 1
17.238015 21.206595 1.747279 27.384700 0.888262 1.506948 0.045252 -0.003789 -165957.000000 0 0 1
16.394515 22.439695 1.269279 27.819617 0.939825 1.525155 0.047474 -0.008832 -50673.000000 0 0 1
15.056015 22.220895 1.655179 26.892218 0.975289 1.509209 0.042644 -0.005199 -622637.000000 0 0 1
14.255015 23.242395 1.252579 27.294383 1.020641 1.524889 0.033855 -0.000142 -271969.000000 0 0 1
12.806715 23.251595 1.802179 26.606324 1.067348 1.503009 0.026666 0.004551 368611.000000 0 0 1
12.804315 23.568695 3.195479 27.011941 1.073130 1.452220 0.021178 0.017553 249313.000000 0 0 1
11.452715 23.433795 3.595279 26.329327 1.116208 1.433818 0.009504 0.016990 386281.000000 0 0 1
11.111515 23.529995 5.081379 26.513144 1.129612 1.377948 0.023050 0.009297 111957.000000 0 0 1
11.820115 22.577795 5.827579 26.142544 1.088504 1.345992 0.028796 -0.013933 140820.000000 0 0 1
11.123315 22.478495 7.041679 26.049877 1.111283 1.297076 0.029965 -0.007201 -83412.100000 0 0 1
11.760515 21.404795 8.004579 25.701133 1.068388 1.254079 0.026210 -0.007232 657218.000000 0 0 1
12.924215 21.740695 8.752979 26.763927 1.034452 1.237623 0.026397 0.000984 -531351.000000 0 0 1
14.088615 21.599495 8.049679 27.015266 0.992830 1.268233 0.022101 0.006440 -1811280.000000 0 0 1
15.373915 21.565695 8.837479 27.920199 0.951473 1.248731 0.022468 0.002997 -704569.000000 0 0 1
15.512215 20.436895 9.634479 27.406544 0.921541 1.211581 0.024642 0.000371 1034610.000000 0 0 1
16.825915 20.439295 10.233679 28.383171 0.882060 1.201934 0.023739 0.000957 665566.000000 0 0 1
16.923315 21.069795 11.643679 29.426351 0.894106 1.163979 0.010514 -0.002152 -403605.000000 0 0 1
16.342215 20.455895 12.760079 29.126127 0.896726 1.117315 0.015450 -0.006357 -382076.000000 0 0 1
16.505015 21.172495 13.958279 30.257621 0.908650 1.091320 0.019358 -0.001501 -883364.000000 0 0 1
17.620815 20.726095 14.881579 31.008475 0.866200 1.070233 0.031465 -0.006677 -5107.440000 0 0 1
18.887115 21.133195 14.348079 31.767946 0.841463 1.102179 0.028202 -0.002679 -78800.600000 0 0 1
19.905715 20.630595 15.191479 32.444414 0.803278 1.083509 0.023246 -0.012519 189995.000000 0 0 1
21.293415 21.228895 14.832379 33.527227 0.783881 1.112525 0.033772 -0.010357 52534.100000 0 0 1
21.752315 20.831595 13.563179 33.031476 0.763780 1.147669 0.036093 -0.009734 166686.000000 0 0 1
22.971815 21.544595 13.342879 34.203893 0.753349 1.170058 0.047020 -0.006806 208541.000000 0 0 1
23.768215 21.057595 12.095479 33.980155 0.725002 1.206858 0.053151 -0.000442 -308501.000000 0 0 1
23.489415 21.604395 10.860179 33.711215 0.743620 1.242793 0.051999 -0.002441 27253.100000 0 0 1
24.355515 21.186695 9.836079 33.746342 0.715930 1.275032 0.067823 -0.016304 -332259.000000 0 0 1
24.165315 22.039795 8.585779 33.814651 0.739429 1.314079 0.055361 -0.016696 91943.700000 0 0 1
24.306415 23.421395 8.818679 34.887428 0.766857 1.315249 0.052821 -0.018126 493617.000000 0 0 1
25.687815 23.749195 8.746979 36.061028 0.746204 1.325792 0.046042 -0.025063 -41503.400000 0 0 1
26.026315 25.179195 9.199779 37.363041 0.768856 1.322011 0.064820 -0.017840 -1518180.000000 0 0 1
27.306595 25.537495 8.883479 38.428244 0.751933 1.337516 0.052893 -0.021192 -1072170.000000 0 0 1
27.571045 26.789895 9.381779 39.571186 0.771029 1.331431 0.057795 -0.028769 -171224.000000 0 0 1
28.908135 27.302395 8.826079 40.730832 0.756839 1.352371 0.058730 -0.029785 5475.880000 0 0 1
28.714985 27.884895 7.549279 40.732166 0.770733 1.384379 0.056917 -0.029341 263233.000000 0 0 1
29.982335 27.979195 6.927779 41.590502 0.750852 1.403445 0.063652 -0.021740 162842.000000 0 0 1
30.052445 28.991795 5.807079 42.159172 0.767436 1.432615 0.084353 -0.018605 16410.700000 0 0 1
29.994355 30.352995 6.179979 43.117952 0.791341 1.426974 0.081717 -0.024495 139273.000000 0 0 1
30.133625 31.268795 5.076879 43.721249 0.803883 1.454415 0.068674 -0.023484 128883.000000 0 0 1
30.322355 32.726595 5.513879 44.954178 0.823513 1.447831 0.033304 -0.011230 200732.000000 0 0 1
29.125095 33.229595 6.061679 44.600685 0.851128 1.434464 0.026459 -0.019337 131343.000000 0 0 1
29.313555 -34.142226 6.489879 45.465313 -0.861347 1.427564 0.018170 -0.009901 178492.000000 0 0 1
27.989335 -33.514926 7.002079 44.223096 -0.874998 1.411792 0.044296 -0.022962 344296.000000 0 0 1
27.060465 -33.399626 5.952379 43.396251 -0.889865 1.433199 0.036844 -0.028048 -314735.000000 0 0 1
25.841515 -32.788026 6.311579 42.221731 -0.903330 1.420747 0.035798 -0.035105 24916.900000 0 0 1
24.679015 -32.971226 5.342279 41.529453 -0.928255 1.441801 0.051672 -0.033777 -190819.000000 0 0 1
24.964115 -32.336826 4.124679 41.059595 -0.913362 1.470171 0.035227 -0.012087 -105829.000000 0 0 1
23.905515 -32.479926 3.210379 40.456468 -0.936310 1.491359 0.042670 -0.018779 -178566.000000 0 0 1
24.294015 -31.773826 1.922879 40.043385 -0.918022 1.522758 0.045943 -0.006974 -48305.800000 0 0 1
24.292415 -30.387226 1.968479 38.953560 -0.896404 1.520241 0.056163 0.000245 -50815.300000 0 0 1
24.733615 -29.803026 0.799879 38.737732 -0.878086 1.550146 0.041982 -0.001956 -306151.000000 0 0 1
25.162215 -28.328826 0.928979 37.901484 -0.844528 1.546284 0.039347 -0.003306 105391.000000 0 0 1
24.065715 -27.433826 1.032779 36.508082 -0.850706 1.542503 0.032831 0.005233 88753.800000 0 0 1
23.436315 -27.085126 -0.151921 35.817426 -0.857496 1.575038 0.036326 -0.001353 -415281.000000 0 0 1
22.206715 -26.173726 -0.025821 34.324959 -0.867211 1.571549 0.024649 0.006270 -169714.000000 0 0 1
22.511215 -24.785026 0.185379 33.482633 -0.833437 1.565260 0.032013 -0.002388 -217882.000000 0 0 1
22.722015 -24.470126 1.550079 33.428727 -0.822424 1.524410 0.020391 0.005935 1283600.000000 0 0 1
21.411415 -24.222026 2.462679 32.422523 -0.846911 1.494767 0.026870 0.004156 1116130.000000 0 0 1
21.576915 -23.466426 3.634079 32.084933 -0.827322 1.457288 0.024207 0.000285 -18414.300000 0 0 1
20.404415 -23.397826 4.436979 31.360568 -0.853631 1.428837 0.031318 0.000194 176435.000000 0 0 1
20.432815 -22.313026 5.535579 30.757336 -0.829356 1.389834 0.030527 0.000392 -66267.600000 0 0 1
20.584515 -20.929426 5.195979 29.812100 -0.793706 1.395611 0.051880 -0.003615 230528.000000 0 0 1
19.407515 -20.409026 4.609979 28.538253 -0.810546 1.408549 0.043764 0.003408 -203790.000000 0 0 1
19.386015 -18.836526 4.684379 27.433113 -0.771023 1.399199 0.040575 0.001560 143572.000000 0 0 1
19.239315 -18.328126 6.029479 27.247497 -0.761148 1.347664 0.053996 -0.013716 688918.000000 0 0 1
17.993615 -18.660526 6.680879 26.769751 -0.803591 1.318562 0.048028 -0.004028 850508.000000 0 0 1
18.745508 -26.534985 -12.309921 34.742390 -0.955758 1.932983 0.101523 -0.021170 199411.000000 0 0 1
18.927608 -25.250765 -12.868321 34.080041 -0.927561 1.957990 0.110341 -0.022332 -252618.000000 0 0 1
17.683008 -24.769705 -13.317921 33.220387 -0.950805 1.983291 0.074933 -0.011207 61406.800000 0 0 1
17.788208 -23.266205 -13.781321 32.367599 -0.918047 2.010615 0.075723 -0.021092 -53043.200000 0 0 1
17.744308 -22.238705 -12.810421 31.201400 -0.897336 1.993878 0.078002 -0.020145 558465.000000 0 0 1
18.987108 -21.989305 -12.112421 31.476190 -0.858534 1.965801 0.075221 -0.027908 374828.000000 0 0 1
19.249508 -22.706905 -10.755621 31.651706 -0.867617 1.917513 0.080384 -0.027150 764534.000000 0 0 1
18.420508 -22.281705 -9.601121 30.462617 -0.879980 1.891440 0.070252 -0.019786 1731820.000000 0 0 1
16.999508 -22.510105 -9.729821 29.838859 -0.923979 1.902949 0.064211 -0.000955 486660.000000 0 0 1
16.166608 -22.049405 -8.587421 28.657971 -0.938135 1.875124 0.051371 -0.002672 -1272570.000000 0 0 1
15.968408 -20.620605 -8.552221 27.447038 -0.911867 1.887662 0.046723 -0.006217 670686.000000 0 0 1
15.028508 -20.216405 -7.539921 26.294667 -0.931544 1.861626 0.040283 -0.004705 347776.000000 0 0 1
13.541708 -20.416905 -7.864421 25.730857 -0.985156 1.881409 0.032471 -0.002416 -706282.000000 0 0 1
13.103708 -21.719705 -7.956321 26.584879 -1.027947 1.874734 0.027636 0.003065 -282808.000000 0 0 1
11.693508 -21.657905 -8.122821 25.918781 -1.075726 1.889563 0.030031 0.001885 288338.000000 0 0 1
10.970808 -22.942105 -7.676721 26.563713 -1.124744 1.863971 0.021337 0.001638 -438628.000000 0 0 1
10.978008 -22.984405 -6.294721 26.237817 -1.125206 1.813070 0.022233 0.001313 -15363.100000 0 0 1
10.242608 -24.065905 -5.843021 26.799622 -1.168412 1.790588 0.020616 0.001571 -5236.520000 0 0 1
10.883808 -24.581605 -4.506821 27.258467 -1.153978 1.736896 0.032951 -0.011549 389864.000000 0 0 1
10.114708 -25.614335 -3.899121 27.813749 -1.194707 1.711446 0.040275 -0.018562 301326.000000 0 0 1
10.831608 -26.144145 -2.788621 28.436183 -1.178021 1.669020 0.038932 -0.020358 94462.600000 0 0 1
9.847308 -26.994995 -2.004221 28.804794 -1.221013 1.640432 0.052073 -0.020157 -572414.000000 0 0 1
8.877508 -26.217035 -1.424321 27.715912 -1.244299 1.622209 0.040127 -0.016071 -1046690.000000 0 0 1
8.199308 -27.096565 -0.559521 28.315465 -1.276960 1.590558 0.048147 -0.021953 -111661.000000 0 0 1
7.404608 -26.489825 0.588379 27.511548 -1.298227 1.549408 0.049143 -0.016659 1015540.000000 0 0 1
6.102608 -25.896165 0.359279 26.607937 -1.339362 1.557293 0.059681 -0.026062 685366.000000 0 0 1
5.498808 -25.681775 1.605279 26.312875 -1.359868 1.509751 0.046231 -0.015411 -869227.000000 0 0 1
4.067408 -25.208555 1.507979 25.579075 -1.410825 1.511808 0.033386 -0.020767 -413607.000000 0 0 1
3.147108 -26.132265 0.931179 26.337553 -1.450944 1.535433 0.036237 -0.026862 674887.000000 0 0 1
1.817008 -25.567915 1.051479 25.653955 -1.499850 1.529798 0.032311 -0.024022 1088800.000000 0 0 1
0.791708 -26.371205 0.214979 26.383963 -1.540784 1.562648 0.035049 -0.019571 256587.000000 0 0 1
0.300608 -27.574925 0.851779 27.589716 -1.559895 1.539918 0.038260 -0.012460 559877.000000 0 0 1
1.292408 -28.604575 0.769779 28.644103 -1.525645 1.543919 0.019675 -0.019491 114168.000000 0 0 1
0.777308 -29.794775 1.588579 29.847218 -1.544714 1.517547 0.035541 -0.013013 149731.000000 0 0 1
0.801908 -29.526375 2.968379 29.686043 -1.543644 1.470637 0.036102 -0.013309 18937.900000 0 0 1
0.322408 -30.656625 3.648079 30.874603 -1.560280 1.452362 0.037264 -0.011421 -238238.000000 0 0 1
0.213108 -30.474925 5.136879 30.905566 -1.563804 1.403809 0.039900 -0.009265 -49764.600000 0 0 1
1.450908 -30.748315 5.771379 31.318890 -1.523645 1.385459 0.030988 0.002620 66085.000000 0 0 1
1.353008 -30.860575 7.180579 31.713821 -1.526982 1.342398 0.029241 0.004072 942311.000000 0 0 1
2.776908 -31.264185 7.724679 32.323848 -1.482208 1.329483 0.029043 0.008686 1166460.000000 0 0 1
3.273008 -32.487535 7.254279 33.448126 -1.470389 1.352178 0.023288 -0.000526 -1460910.000000 0 0 1
4.575608 -32.673675 7.632679 33.863890 -1.431662 1.343450 0.040180 -0.004576 -956500.000000 0 0 1
4.930208 -34.213573 7.497279 35.370676 -1.427681 1.357213 0.041108 -0.001512 -79761.300000 0 0 1
4.840208 33.916504 6.200979 34.816792 1.429044 1.391738 0.038480 -0.000140 -125135.000000 0 0 1
4.849008 32.533865 6.368179 33.504014 1.422841 1.379561 0.020020 -0.004924 57000.500000 0 0 1
5.440208 31.867975 5.074479 32.724823 1.401715 1.415103 0.024215 -0.004891 -49200.900000 0 0 1
6.810508 32.071745 4.857079 33.144699 1.361552 1.423725 0.025713 -0.006014 -104981.000000 0 0 1
7.502908 30.887865 4.375379 32.085788 1.332504 1.434005 0.021872 0.003373 329592.000000 0 0 1
8.944108 31.149195 3.930079 32.645290 1.291181 1.450116 -0.005013 0.011243 206543.000000 0 0 1
9.949608 31.314055 4.913879 33.222146 1.263148 1.422342 0.001369 0.002431 848360.000000 0 0 1
11.196008 31.825465 4.376279 34.020033 1.232524 1.441801 0.007466 0.001714 803908.000000 0 0 1
12.141108 32.212905 5.492379 34.860350 1.210359 1.412583 0.009554 -0.008188 -316945.000000 0 0 1
12.588108 31.142005 6.284479 34.172791 1.186660 1.385841 0.020712 -0.004410 566927.000000 0 0 1
13.745208 31.433505 7.095679 35.033479 1.158571 1.366845 0.037126 -0.011860 934542.000000 0 0 1
14.397408 30.216145 7.822379 34.372815 1.126141 1.341210 0.046690 -0.004485 100190.000000 0 0 1
13.703908 29.878455 9.048779 34.093982 1.140768 1.302170 0.046926 -0.001601 648695.000000 0 0 1
14.348608 28.810115 9.789179 33.641244 1.108717 1.275538 0.044900 0.001260 208956.000000 0 0 1
14.128508 28.951995 11.335779 34.151613 1.116797 1.232453 0.040785 0.000575 265852.000000 0 0 1
14.880408 29.955335 12.013379 35.539695 1.109750 1.225977 0.037339 -0.013395 154043.000000 0 0 1
14.233808 30.245275 13.200779 35.939373 1.130934 1.194684 0.036617 -0.007614 18941.800000 0 0 1
15.095908 31.266505 13.981179 37.429322 1.120992 1.187979 0.028055 -0.004991 720653.000000 0 0 1
16.384108 30.730465 14.273879 37.637005 1.080978 1.181809 0.027689 -0.013137 313245.000000 0 0 1
17.148408 31.591525 15.100479 38.988676 1.073485 1.173091 0.037057 -0.008410 538400.000000 0 0 1
18.431508 30.944985 15.698679 39.290726 1.033602 1.159768 0.046414 -0.016527 715601.000000 0 0 1
19.527608 30.642485 14.848379 39.252564 1.003421 1.182861 0.026150 -0.014688 168954.000000 0 0 1
19.883208 29.284985 14.838779 38.381528 0.974334 1.173841 0.021957 -0.009253 448645.000000 0 0 1
21.327208 29.054125 14.288279 38.770439 0.937581 1.193363 0.059589 -0.013940 502777.000000 0 0 1
22.343908 29.338835 15.216579 39.894383 0.919924 1.179463 0.064130 -0.018839 -480483.000000 0 0 1
23.623008 29.350555 14.612879 40.410863 0.893101 1.200805 0.055027 -0.010268 115154.000000 0 0 1
24.650908 29.380565 15.786279 41.473986 0.872711 1.180318 0.052444 -0.013985 -212701.000000 0 0 1
24.857508 28.105615 16.378079 40.939746 0.846649 1.159221 0.057533 -0.009551 926796.000000 0 0 1
25.963008 28.087685 17.329279 41.991663 0.824687 1.145398 0.048199 -0.002595 694413.000000 0 0 1
26.746108 26.772685 17.624079 41.746127 0.785895 1.134955 0.013346 0.004632 -68009.100000 0 0 1
26.055808 25.718975 18.241579 40.903863 0.778893 1.108547 0.039022 0.000675 -185601.000000 0 0 1
25.446208 25.862725 19.497579 41.189145 0.793516 1.077687 0.042062 0.004114 301368.000000 0 0 1
24.773608 24.501685 19.945879 40.148504 0.779880 1.050886 0.038848 -0.003474 351383.000000 0 0 1
25.755808 23.581915 20.367679 40.426609 0.741365 1.042783 0.027641 0.005949 76122.900000 0 0 1
25.184908 22.300815 20.517179 39.402546 0.724737 1.023118 0.029362 0.002938 -492162.000000 0 0 1
26.188708 21.196715 20.836679 39.614598 0.680437 1.016924 0.018386 0.010117 -468082.000000 0 0 1
25.662608 19.859215 20.738879 38.510505 0.658596 1.002110 0.010497 0.023654 645739.000000 0 0 1
26.533408 18.711015 21.072979 38.706515 0.614199 0.995087 0.019463 0.017824 689405.000000 0 0 1
27.109808 18.502215 22.482479 39.783609 0.598878 0.970219 0.031679 0.011997 -152874.000000 0 0 1
26.146508 17.997815 23.342479 39.400921 0.602861 0.936718 0.019755 0.017223 75747.600000 0 0 1
26.732708 17.753415 24.607879 40.439698 0.586229 0.916617 0.041582 0.011890 128958.000000 0 0 1
25.796608 16.931015 25.513379 40.038192 0.580810 0.879903 0.021272 0.003915 158334.000000 0 0 1
25.481408 15.683615 24.894279 38.923041 0.551733 0.876849 0.020168 0.001827 98242.800000 0 0 1
24.354708 15.068615 25.465679 38.323828 0.554067 0.843989 0.025449 0.002415 -217416.000000 0 0 1
23.817208 13.856115 24.666279 36.982113 0.526907 0.840650 0.030920 -0.001124 -87821.600000 0 0 1
22.618408 13.405915 25.252379 36.455365 0.535034 0.805580 0.014768 0.000271 70842.000000 0 0 1
22.114508 12.224715 24.651779 35.301634 0.504984 0.797751 0.026540 -0.002314 191775.000000 0 0 1
20.836108 11.667115 25.328979 34.811236 0.510448 0.755966 0.029221 -0.003325 321867.000000 0 0 1
19.664108 12.406715 25.064579 34.188256 0.562854 0.747877 0.037839 -0.007830 800175.000000 0 0 1
18.473008 11.665715 25.422979 33.521170 0.563260 0.709918 0.045170 -0.008051 954703.000000 0 0 1
17.177708 12.513315 25.447079 33.154345 0.629574 0.695811 0.044883 -0.017850 130102.000000 0 0 1
17.138208 13.234015 26.644679 34.333603 0.657554 0.682414 0.057061 -0.017176 338848.000000 0 0 1
15.899508 13.925315 26.728879 34.075530 0.719302 0.669067 0.074813 -0.022290 238494.000000 0 0 1
15.553608 14.522715 28.065179 35.220424 0.751136 0.648743 0.074586 -0.009903 -252271.000000 0 0 1
15.101508 13.580415 28.986079 35.393164 0.732415 0.611176 0.072187 -0.004146 -224832.000000 0 0 1
15.449208 13.727015 30.334979 36.705857 0.726439 0.598051 0.063325 0.005296 341770.000000 0 0 1
16.904408 13.317215 30.742179 37.525842 0.667255 0.610735 0.055302 0.003581 -199477.000000 0 0 1
17.812808 14.284315 30.400479 38.020086 0.675906 0.644184 0.062526 -0.007431 -1130490.000000 0 0 1
19.087808 13.721815 30.395079 38.425167 0.623284 0.658322 0.040512 0.002604 -148242.000000 0 0 1
20.253008 14.708315 30.032479 39.095635 0.628113 0.694803 0.027071 -0.007962 108665.000000 0 0 1
20.125208 15.420915 28.785979 38.359630 0.653819 0.722093 0.050212 -0.014799 101052.000000 0 0 1
19.940108 14.670415 27.565979 37.050131 0.634302 0.731732 0.054260 -0.010470 -386728.000000 0 0 1
19.728908 15.609915 26.277379 36.378564 0.669365 0.763629 0.044787 -0.013181 37824.700000 0 0 1
20.838308 16.439615 25.951179 37.120880 0.667944 0.796659 0.048817 -0.010667 250082.000000 0 0 1
20.734608 17.079315 24.721179 36.507036 0.689032 0.826897 0.042662 -0.012402 561848.000000 0 0 1
22.011508 17.929415 24.362679 37.410033 0.683549 0.861587 0.044790 -0.005370 566731.000000 0 0 1
21.718408 18.719615 23.190779 36.877168 0.711376 0.890703 0.033336 -0.009706 436450.000000 0 0 1
22.902208 19.214415 22.566879 37.456227 0.698059 0.924183 0.035639 0.005588 235426.000000 0 0 1
23.023708 20.689715 22.957379 38.538250 0.732056 0.932655 0.047083 -0.007735 -63575.700000 0 0 1
22.027608 21.506115 22.370779 38.054964 0.773420 0.942392 0.054989 -0.005995 167000.000000 0 0 1
22.085608 22.748215 23.130779 39.246507 0.800176 0.940515 0.059971 -0.012840 113508.000000 0 0 1
21.143708 23.888175 22.645979 39.122138 0.846268 0.953475 0.072067 -0.025388 -70197.400000 0 0 1
21.538908 24.579285 21.453579 39.093758 0.851229 0.989901 0.077236 -0.018323 537524.000000 0 0 1
20.708308 25.734655 21.164979 39.230892 0.893205 1.000956 0.074571 -0.031271 212749.000000 0 0 1
21.407908 26.621385 20.094379 39.633077 0.893523 1.039084 0.070657 -0.024663 28101.500000 0 0 1
21.484508 26.017805 18.836479 38.643541 0.880543 1.061639 0.072411 -0.026235 -167033.000000 0 0 1
21.964908 26.839525 17.851979 39.006544 0.884949 1.095428 0.066035 -0.028660 -421852.000000 0 0 1
21.773208 26.283365 16.389279 37.861542 0.878975 1.123118 0.039317 -0.013166 535251.000000 0 0 1
20.399508 26.145465 16.004279 36.822035 0.908226 1.121159 0.030754 -0.017322 196964.000000 0 0 1
20.328608 25.356415 14.796179 35.708921 0.895011 1.143562 0.035863 -0.007025 252248.000000 0 0 1
18.958108 24.731915 14.330379 34.299231 0.916791 1.139769 0.035817 -0.005084 628331.000000 0 0 1
17.940408 25.650965 14.049979 34.310817 0.960470 1.148900 0.024078 0.000139 -132981.000000 0 0 1
17.195708 26.065865 15.252279 34.752751 0.987631 1.116445 0.033672 -0.008488 -810841.000000 0 0 1
15.728708 26.273185 14.845279 34.030205 1.031363 1.119382 0.028656 -0.004878 -615852.000000 0 0 1
15.006008 25.087425 14.498679 32.630827 1.031739 1.110376 0.028414 -0.004164 161097.000000 0 0 1
14.693308 24.196145 15.585879 32.315111 1.025057 1.067507 0.035456 -0.010877 -251294.000000 0 0 1
13.745708 24.759435 16.690579 32.871714 1.063992 1.038226 0.045588 -0.020444 -45078.800000 0 0 1
14.341008 25.712295 17.544079 34.272166 1.062023 1.033396 0.044130 -0.015274 63969.200000 0 0 1
13.318308 26.140345 18.405279 34.633066 1.099584 1.010501 0.038767 -0.015776 136503.000000 0 0 1
13.741608 27.461975 19.118379 36.173254 1.106839 1.013937 0.046424 -0.027663 -217741.000000 0 0 1
13.719608 28.541475 18.229379 36.539755 1.122716 1.048477 0.040700 -0.019188 328660.000000 0 0 1
14.420208 29.655405 18.825379 37.970783 1.118202 1.052057 0.049639 -0.016165 -74396.700000 0 0 1
14.418608 30.908415 18.012779 38.570541 1.134310 1.084891 0.036868 -0.016071 -126743.000000 0 0 1
13.226508 31.647745 17.869279 38.675980 1.174930 1.090519 0.024921 -0.010332 91805.100000 0 0 1
13.456008 32.856045 17.120279 39.416847 1.182089 1.121492 0.033151 -0.011741 -401820.000000 0 0 1
12.162808 33.630499 17.246879 39.703894 1.223772 1.121438 0.040202 -0.014681 -611431.000000 0 0 1
12.213108 -33.698935 16.703779 39.544842 -1.223102 1.134704 0.045644 -0.015270 272031.000000 0 0 1
12.981208 -32.746465 17.504379 39.335049 -1.193384 1.109614 0.049864 -0.012129 73768.000000 0 0 1
12.524808 -32.510565 19.020979 39.693896 -1.203067 1.071063 0.042748 -0.024169 -109107.000000 0 0 1
12.924208 -33.575325 19.847079 41.088249 -1.203347 1.066678 0.044862 -0.024628 320682.000000 0 0 1
12.585808 -33.285655 21.198879 41.421370 -1.209297 1.033534 0.037733 -0.016256 -744886.000000 0 0 1
13.686208 -33.662515 22.151779 42.557944 -1.184638 1.023350 0.044028 -0.023302 -1608550.000000 0 0 1
14.819608 -32.942065 21.964379 42.275695 -1.148051 1.024471 0.042914 -0.020332 -1217400.000000 0 0 1
15.868708 -33.282065 22.847379 43.376428 -1.125885 1.016055 0.035501 -0.016439 443563.000000 0 0 1
17.208408 -32.534035 22.593179 43.186161 -1.084269 1.020244 0.057997 -0.010285 338698.000000 0 0 1
17.229708 -31.153345 22.896779 42.327961 -1.065606 0.999245 0.061748 -0.019207 -202433.000000 0 0 1
18.459008 -30.604225 22.530579 42.249031 -1.028062 1.008323 0.068227 -0.011469 -693147.000000 0 0 1
-4.499892 12.942495 18.762083 23.233015 -1.236187 0.630791 0.019267 -0.004238 -369402.000000 0 1 0
-3.981492 14.055295 18.136283 23.287945 -1.294755 0.678071 0.015167 -0.006194 130798.000000 0 1 0
-4.974092 14.720495 17.379983 23.313052 -1.244939 0.729505 0.016579 -0.010628 161822.000000 0 1 0
-4.596792 16.240895 17.236983 24.124899 -1.294973 0.774902 0.020976 -0.011521 81057.200000 0 1 0
-4.417292 16.969295 18.424183 25.434621 -1.316137 0.760670 0.014650 0.000627 241504.000000 0 0 1
-4.410992 18.386795 18.264083 26.288929 -1.335346 0.802732 0.023237 0.006619 -439465.000000 0 0 1
-4.006892 19.069795 19.555783 27.606900 -1.363692 0.783616 0.031770 0.004847 -232576.000000 0 0 1
-4.867792 18.909995 20.654283 28.423278 -1.318847 0.757337 0.022279 0.008015 -67134.300000 0 0 1
-4.363392 19.724395 21.721983 29.663707 -1.353085 0.749140 0.029562 0.009095 606839.000000 0 0 1
-5.412492 19.974195 22.884983 30.854270 -1.306177 0.735177 0.026156 0.011416 495451.000000 0 0 1
-5.572392 18.870495 23.752423 30.843553 -1.283660 0.691808 0.017552 0.005768 -103230.000000 0 0 1
-6.501792 19.155195 24.770743 31.981002 -1.243571 0.684800 0.012241 0.003817 136021.000000 0 0 1
-5.903792 19.973495 25.966173 33.287196 -1.283398 0.676027 0.005946 -0.004098 -53764.200000 0 0 1
-5.469992 21.296995 25.606113 33.751383 -1.319387 0.709529 0.004419 -0.006092 1181400.000000 0 0 1
-4.442892 21.838195 26.514603 34.636256 -1.370090 0.698954 0.011707 -0.000423 1781770.000000 0 0 1
-2.945592 21.483295 26.233573 34.035406 -1.434535 0.690743 0.037293 0.002715 423201.000000 0 0 1
-2.441292 20.360995 26.901583 33.826398 -1.451466 0.651321 0.035745 0.003672 348781.000000 0 0 1
-1.109292 20.100995 26.475803 33.260317 -1.515666 0.650109 0.036077 0.006252 348931.000000 0 0 1
-0.332792 18.889895 26.991963 32.947002 -1.553181 0.610687 0.026982 0.004572 -358107.000000 0 0 1
-0.765292 17.647295 26.496303 31.844415 -1.527458 0.587994 0.028791 0.004121 -318788.000000 0 0 1
-0.124692 16.411695 26.879563 31.493971 -1.563199 0.548164 0.024211 0.004596 203221.000000 0 0 1
1.306008 16.158895 26.315973 30.908672 1.490149 0.552127 0.017634 0.003484 111977.000000 0 0 1
1.491908 15.881995 24.923543 29.591326 1.477134 0.569337 0.010199 -0.000239 -214162.000000 0 0 1
1.089308 14.529995 24.700163 28.677612 1.495967 0.532964 0.018973 -0.004438 -127003.000000 0 0 1
1.157608 14.078395 23.225683 27.184069 1.488755 0.546429 0.013263 -0.005728 216332.000000 0 0 1
2.489508 14.131595 22.740083 26.888864 1.396419 0.562909 0.010830 -0.009888 21694.300000 0 0 1
2.668808 13.436995 21.541683 25.528797 1.374731 0.566436 0.003661 -0.014642 195310.000000 0 0 1
4.152908 13.487395 21.102683 25.386605 1.272098 0.589439 -0.000152 -0.010199 327242.000000 0 0 1
4.555008 14.681495 20.441783 25.576569 1.269958 0.644769 -0.000988 -0.004011 386171.000000 0 0 1
5.970908 14.669895 20.252583 25.710400 1.184255 0.663698 0.008934 -0.008489 584018.000000 0 0 1
6.556808 15.716895 19.255283 25.705611 1.175566 0.724140 0.028572 -0.016104 88743.100000 0 0 1
6.056508 15.486895 17.949283 24.468387 1.198009 0.747236 0.022444 -0.019738 380948.000000 0 1 0
6.590808 16.543295 17.143283 24.718647 1.191672 0.804410 0.033305 -0.016716 119677.000000 0 1 0
6.645208 16.180495 15.628883 23.456965 1.181106 0.841589 0.032501 -0.015314 896205.000000 0 1 0
7.821408 15.413395 15.271283 23.064242 1.101213 0.847153 0.028232 -0.005354 822407.000000 0 1 0
7.884008 14.098895 15.753383 22.563366 1.060922 0.797938 0.021701 -0.004153 -132464.000000 0 1 0
8.954608 13.264095 14.982883 21.922774 0.976977 0.818333 0.022695 -0.014680 355398.000000 0 1 0
10.278108 13.678295 15.237483 22.911049 0.926389 0.843207 0.037462 -0.024510 -282128.000000 0 1 0
11.183708 13.056495 14.377883 22.411401 0.862505 0.874288 0.039540 -0.016808 802535.000000 0 1 0
12.652608 13.647295 14.311383 23.476645 0.823201 0.915239 0.048080 -0.009182 867325.000000 0 1 0
13.485208 13.085595 15.333983 24.253137 0.770360 0.886346 0.043397 -0.024072 265736.000000 0 1 0
14.729108 13.731595 15.515583 25.421185 0.750364 0.914306 0.043078 -0.022165 307248.000000 0 0 1
15.850808 13.298795 14.550583 25.294773 0.698072 0.957898 0.058030 -0.029452 -522593.000000 0 0 1
17.129308 13.856795 14.803183 26.543515 0.680176 0.979190 0.052145 -0.030621 473533.000000 0 0 1
18.050908 13.232895 13.920383 26.357577 0.632589 1.014392 0.055513 -0.026614 -36656.400000 0 0 1
19.525108 13.654395 14.049983 27.659978 0.610273 1.037989 0.042348 -0.025958 106347.000000 0 0 1
20.103708 13.402395 15.304483 28.600882 0.588000 1.006164 0.033068 -0.026527 96248.500000 0 0 1
21.437608 13.887395 15.361683 29.806242 0.574831 1.029340 0.025329 -0.019759 428947.000000 0 0 1
22.240108 13.490795 16.618483 30.867425 0.545257 1.002280 0.036834 -0.021353 110710.000000 0 0 1
22.533508 12.071995 16.681283 30.524699 0.491825 0.992635 0.038393 -0.021318 119.831000 0 0 1
23.429608 11.767895 17.686383 31.626540 0.465459 0.977344 0.040750 -0.023579 -870507.000000 0 0 1
23.479508 10.187295 17.823783 31.189029 0.409368 0.962493 0.050626 -0.017535 -486186.000000 0 0 1
22.329108 9.578195 18.327183 30.433806 0.405216 0.924545 0.042594 -0.017599 43915.400000 0 0 1
21.969908 8.372995 17.636283 29.390856 0.364118 0.927220 0.045618 -0.003642 -191003.000000 0 0 1
20.819508 7.616995 18.309683 28.752653 0.350732 0.880456 0.059045 -0.008412 -246272.000000 0 0 1
20.678808 6.308395 17.788783 27.997317 0.296098 0.882303 0.063861 -0.009013 274785.000000 0 0 1
19.613008 5.653395 18.440683 27.507995 0.280640 0.836082 0.062323 -0.002919 -228440.000000 0 0 1
19.252708 4.254295 17.890683 26.624093 0.217477 0.833926 0.057869 0.002939 -550386.000000 0 0 1
18.616808 4.443495 16.624683 25.351731 0.234298 0.855606 0.053265 -0.010744 402967.000000 0 0 1
18.267608 3.262495 15.902483 24.438461 0.176731 0.862270 0.052685 -0.012975 -13336.200000 0 1 0
17.551008 2.055195 16.559483 24.217312 0.116568 0.817856 0.040632 -0.005544 -161552.000000 0 1 0
18.310708 1.412595 17.595983 25.434152 0.076993 0.806783 0.042357 -0.013376 -259580.000000 0 0 1
17.473008 0.996195 18.617483 25.552086 0.056952 0.754507 0.043742 -0.008919 -932743.000000 0 0 1
18.048808 0.148895 19.773883 26.772899 0.008249 0.739837 0.032202 -0.009911 -399563.000000 0 0 1
18.365008 -1.199105 19.381383 26.727316 -0.065200 0.759540 0.038242 -0.008956 -941711.000000 0 0 1
17.332608 -2.049605 19.650083 26.282046 -0.117705 0.726262 0.021093 -0.004509 -826886.000000 0 0 1
17.418108 -3.531305 19.126183 26.108840 -0.200026 0.748727 0.011837 -0.004390 -204802.000000 0 0 1
17.308308 -3.638805 17.725383 25.040121 -0.207217 0.784305 0.018326 -0.010733 264026.000000 0 0 1
17.261408 -4.987205 17.235483 24.897597 -0.281263 0.806187 0.035718 -0.009994 -293245.000000 0 1 0
16.883308 -5.031605 15.686183 23.588546 -0.289642 0.843314 0.027323 -0.015661 -982416.000000 0 1 0
15.598208 -4.707305 15.300483 22.351009 -0.293094 0.816804 0.021698 -0.020447 -778328.000000 0 1 0
15.341008 -4.572805 13.886583 21.191845 -0.289692 0.856244 0.023754 -0.021888 37284.200000 0 1 0
15.855108 -3.249705 13.239683 20.910147 -0.202163 0.885154 0.024570 -0.019826 -212504.000000 0 1 0
15.198208 -2.097305 13.681483 20.556440 -0.137131 0.842556 0.029912 -0.012011 225643.000000 0 1 0
15.719808 -0.934205 13.067983 20.463560 -0.059359 0.878122 0.039704 -0.016855 91696.600000 0 1 0
14.620608 0.149995 13.079183 19.617587 0.010259 0.841014 0.038680 -0.010927 -436674.000000 0 1 0
14.898708 1.414195 12.562083 19.539125 0.094637 0.872492 0.041255 -0.010625 -175330.000000 0 1 0
15.885108 2.152095 13.244983 20.794176 0.134659 0.880253 0.052754 -0.016705 -316481.000000 0 1 0
15.941608 3.597095 12.639283 20.659754 0.221925 0.912484 0.044108 -0.014735 66953.900000 0 1 0
14.864408 4.393495 13.077283 20.279762 0.287389 0.869977 0.029020 -0.008127 371382.000000 0 1 0
15.074908 5.637395 12.436883 20.339841 0.357858 0.912899 0.047475 -0.009866 541698.000000 0 1 0
14.158708 6.753995 13.039183 20.398671 0.445096 0.877316 0.041485 0.001356 358116.000000 0 1 0
14.427608 8.029495 12.408083 20.654036 0.507848 0.926347 0.039102 -0.004788 843528.000000 0 1 0
13.425308 9.048395 12.674783 20.561189 0.593049 0.906580 0.030414 0.008504 432044.000000 0 1 0
13.588408 9.799395 14.034083 21.854713 0.624786 0.873492 0.037977 -0.001403 269317.000000 0 1 0
12.938508 9.152795 15.148283 21.923712 0.615680 0.807988 0.021164 -0.002322 602699.000000 0 1 0
13.527508 9.693995 16.334083 23.318861 0.621789 0.794745 0.037456 -0.010554 61403.800000 0 1 0
13.073708 8.945495 17.635883 23.705866 0.600067 0.731840 0.033962 -0.014749 -261881.000000 0 1 0
11.702708 9.100695 17.903483 23.244585 0.660968 0.691608 0.011376 -0.014271 -263517.000000 0 1 0
11.265908 8.357695 19.044083 23.652671 0.638269 0.634858 0.026519 -0.009736 -55704.500000 0 1 0
11.745408 8.833095 20.473083 25.201693 0.644810 0.622593 0.031730 -0.004596 -390630.000000 0 0 1
13.122308 8.566195 20.564883 25.855156 0.578338 0.651149 0.049239 -0.008170 -410172.000000 0 0 1
13.634708 8.889695 21.844983 27.242159 0.577773 0.640359 0.046364 -0.003501 278144.000000 0 0 1
15.152808 8.554595 21.875883 27.952513 0.513949 0.671951 0.055080 -0.009441 425866.000000 0 0 1
15.887708 9.461895 21.080983 28.042015 0.537140 0.720063 0.058086 -0.007394 506053.000000 0 0 1
16.849308 8.841195 20.177583 27.734469 0.483229 0.756085 0.056519 -0.012694 961609.000000 0 0 1
17.627208 9.913995 19.308683 27.961241 0.512333 0.808545 0.056391 -0.018475 -60745.800000 0 0 1
18.534308 10.649095 20.061583 29.315370 0.521504 0.817103 0.050214 -0.018005 -40210.000000 0 0 1
19.277408 11.603595 19.292383 29.638791 0.541835 0.862005 0.049935 -0.020868 458055.000000 0 0 1
20.322608 12.315295 20.180683 31.175870 0.544812 0.866737 0.044715 -0.013142 -461669.000000 0 0 1
19.699608 13.352795 20.922783 31.688082 0.595685 0.849614 0.030146 -0.011028 297242.000000 0 0 1
20.445408 14.027695 21.920283 33.095162 0.601339 0.846857 0.030374 -0.004724 -562891.000000 0 0 1
21.695708 14.806795 21.534083 33.965595 0.598868 0.884086 0.014553 -0.003121 -466371.000000 0 0 1
22.769008 14.047195 21.026283 34.027283 0.552785 0.904696 0.000092 0.007557 -114769.000000 0 0 1
23.978908 14.761195 21.136583 35.208466 0.551804 0.926887 -0.006278 0.013240 -519168.000000 0 0 1
25.220908 13.919195 20.957983 35.624083 0.504294 0.941830 -0.005182 0.005115 -585400.000000 0 0 1
25.486108 13.429895 19.646383 34.869531 0.484974 0.972270 -0.001759 0.007377 352694.000000 0 0 1
26.620008 12.566095 19.624483 35.378693 0.441042 0.982797 0.020550 -0.001238 214856.000000 0 0 1
27.005908 11.812495 18.336783 34.714431 0.412330 1.014296 0.041769 -0.007223 -599756.000000 0 0 1
27.637808 12.653495 17.438283 35.043588 0.429349 1.049947 0.042516 -0.008426 -116211.000000 0 0 1
28.128708 12.044895 16.264783 34.653238 0.404583 1.082232 0.056739 -0.021746 -236390.000000 0 0 1
27.187108 11.740295 15.088083 33.235879 0.407644 1.099581 0.061894 -0.033482 -95034.300000 0 0 1
26.477308 12.843795 14.565283 32.835322 0.451646 1.111201 0.063336 -0.030036 718413.000000 0 0 1
25.482108 12.501195 13.570283 31.460615 0.456089 1.124817 0.056990 -0.022138 791632.000000 0 0 1
24.939908 13.675795 12.737783 31.165325 0.501575 1.149749 0.054134 -0.016278 -65324.300000 0 0 1
24.142708 14.652495 13.338983 31.232906 0.545486 1.129534 0.039637 -0.018974 50177.500000 0 0 1
23.922908 15.794195 12.530683 31.285462 0.583521 1.158704 0.044707 -0.018707 39764.700000 0 0 1
23.104108 16.877795 13.285383 31.546175 0.630911 1.136094 0.037754 -0.017290 -1435270.000000 0 0 1
21.838608 16.462095 13.575283 30.532175 0.645933 1.110044 0.033655 -0.010929 -1439800.000000 0 0 1
20.872608 17.430295 13.825183 30.506010 0.695768 1.100450 0.019822 -0.007710 -870548.000000 0 0 1
20.202008 18.120795 12.584983 29.914313 0.731144 1.136578 0.028217 -0.004669 -197506.000000 0 0 1
19.149808 17.380995 12.001383 28.510478 0.737016 1.136308 0.027908 -0.005508 -40768.300000 0 0 1
17.952508 17.333395 12.744783 28.020860 0.767854 1.098613 0.018480 -0.000922 -815435.000000 0 0 1
16.792708 16.782495 11.888783 26.551654 0.785094 1.106537 0.026873 -0.005628 -265419.000000 0 0 1
16.793008 15.380795 11.740383 25.620511 0.741533 1.094780 0.037380 -0.012999 1403520.000000 0 0 1
15.590608 15.019695 10.993983 24.280156 0.766749 1.100896 0.041973 -0.020713 1252300.000000 0 1 0
15.758408 13.584795 10.267083 23.201014 0.711458 1.112381 0.048716 -0.021943 40368.500000 0 1 0
15.872008 12.484595 11.204183 23.093711 0.666504 1.064248 0.055651 -0.019402 351563.000000 0 1 0
16.518308 11.493495 10.455383 22.677521 0.607904 1.091623 0.067816 -0.011878 -204064.000000 0 1 0
16.752708 10.131395 11.212083 22.561232 0.543913 1.050702 0.073477 -0.022489 -740369.000000 0 1 0
17.681508 9.339695 10.486783 22.579598 0.485967 1.087798 0.091476 -0.016057 398555.000000 0 1 0
18.261208 8.281595 11.216383 22.975286 0.425767 1.060778 0.107063 -0.008363 -24797.700000 0 1 0
19.352908 8.708495 12.200583 24.479117 0.422840 1.049035 0.080574 -0.016327 -1145280.000000 0 1 0
18.872908 9.429295 13.340583 24.961359 0.463344 1.006940 0.063241 -0.021089 -381226.000000 0 1 0
19.803508 9.689995 14.349183 26.305399 0.455057 0.993829 0.063850 -0.009163 -987521.000000 0 0 1
19.068408 10.004495 15.692683 26.644970 0.483183 0.941031 0.045026 -0.015807 769015.000000 0 0 1
18.285308 8.971295 16.343583 26.114160 0.456122 0.894574 0.047866 -0.010627 1191100.000000 0 0 1
17.241008 8.382695 15.550183 24.684613 0.452552 0.889302 0.049462 -0.015793 -347933.000000 0 1 0
16.750008 7.011795 16.095383 24.264983 0.396450 0.845553 0.048867 -0.006991 -162745.000000 0 1 0
15.951908 6.995195 17.300183 24.549796 0.413264 0.788799 0.055436 -0.008070 399498.000000 0 1 0
15.528208 5.731995 17.806283 24.311412 0.353618 0.748920 0.053953 0.008940 381870.000000 0 1 0
14.397008 5.068995 16.949683 22.809216 0.338533 0.733095 0.049939 -0.021252 -86279.300000 0 1 0
14.035608 3.822595 17.487983 22.747309 0.265901 0.693844 0.054225 -0.007703 46732.000000 0 1 0
13.637608 3.019395 16.409583 21.549374 0.217887 0.705191 0.051339 -0.000931 -218139.000000 0 1 0
13.331208 1.536095 16.707183 21.429201 0.114720 0.676697 0.039598 -0.002717 391220.000000 0 1 0
14.475508 0.731895 17.060083 22.385764 0.050518 0.704253 0.035365 -0.001999 414069.000000 0 1 0
14.348208 -0.690205 17.001083 22.257230 -0.048067 0.701546 0.034292 0.015724 306800.000000 0 1 0
13.168208 -1.324905 17.801383 22.182117 -0.100276 0.639305 0.026221 0.004552 863633.000000 0 1 0
11.819308 -1.129505 17.424283 21.085006 -0.095275 0.598143 0.024899 -0.007155 -58756.100000 0 1 0
10.953708 -1.822005 18.277183 21.385950 -0.164828 0.545949 0.029019 -0.014122 39306.200000 0 1 0
-25.616522 13.847495 28.794173 40.951968 -0.495574 0.791020 0.047030 -0.006695 63938.900000 0 0 1
-24.611092 14.058395 29.791853 41.120540 -0.518990 0.760487 0.054192 -0.003127 706027.000000 0 0 1
-23.931292 12.841595 30.056193 40.509111 -0.492499 0.734805 0.048142 -0.005033 -180336.000000 0 0 1
-22.751892 12.922495 31.032973 40.591685 -0.516538 0.700507 0.058864 -0.012381 -213834.000000 0 0 1
-23.162492 13.196795 32.363283 41.928970 -0.517879 0.689035 0.053372 -0.014913 440441.000000 0 0 1
-22.067992 13.125695 33.272663 42.027970 -0.536576 0.657244 0.038377 -0.010541 143916.000000 0 0 1
-22.572692 13.266195 -33.908661 42.840584 -0.531334 2.484069 0.037044 -0.015021 280904.000000 0 0 1
-23.194192 12.101995 -33.323551 42.366117 -0.480910 2.476017 0.027212 -0.013724 268345.000000 0 0 1
-23.851592 12.401795 -32.113611 41.880627 -0.479485 2.444620 0.015255 -0.013700 -220633.000000 0 0 1
-24.869592 11.350695 -31.665681 41.833601 -0.428170 2.429420 0.010104 -0.017928 -420221.000000 0 0 1
-24.343492 10.221095 -30.980751 40.704831 -0.397517 2.435815 -0.006401 -0.015236 379257.000000 0 0 1
-23.494692 9.359195 -31.750341 40.591615 -0.379086 2.468969 -0.009327 -0.014894 11688.600000 0 0 1
-22.639092 8.446395 -30.839321 39.178231 -0.357094 2.476978 -0.009592 -0.000578 -553440.000000 0 0 1
-23.306592 7.519095 -30.063631 38.775713 -0.312075 2.458020 -0.011022 0.002439 -344940.000000 0 0 1
-22.423392 6.890095 -29.200841 37.456254 -0.298116 2.464821 -0.004106 0.008865 -112833.000000 0 0 1
-23.123392 5.837095 -28.229341 36.954818 -0.247267 2.440113 -0.002739 0.010075 -54363.800000 0 0 1
-23.688092 4.782095 -28.920381 37.687963 -0.199200 2.445516 0.007222 0.002637 86668.200000 0 0 1
-24.109992 3.734295 -28.039721 37.168032 -0.153665 2.425542 0.032782 0.008420 -746758.000000 0 0 1
-24.693092 2.506495 -28.719971 37.958767 -0.101159 2.428909 0.047148 0.010214 187316.000000 0 0 1
-26.001442 2.517795 -29.257701 39.222791 -0.096532 2.412736 0.059226 -0.002923 353525.000000 0 0 1
-26.372142 3.618295 -30.102841 40.184113 -0.136350 2.417533 0.046636 0.004277 -976721.000000 0 0 1
-27.720452 3.295795 -30.811191 41.576618 -0.118338 2.405459 0.089381 -0.009701 -409418.000000 0 0 1
-28.816212 3.477395 -29.970781 41.721865 -0.120094 2.372220 0.073678 -0.016461 185889.000000 0 0 1
-30.096762 3.523995 -30.600691 43.065484 -0.116558 2.361093 0.091712 -0.026695 577338.000000 0 0 1
-30.519362 4.970095 -31.070391 43.834946 -0.161433 2.358598 0.094601 -0.037378 -616525.000000 0 0 1
-29.751772 5.498695 -32.140931 44.141171 -0.182757 2.386400 0.078638 -0.030737 245119.000000 0 0 1
-29.964462 6.903195 -32.519141 44.755084 -0.226429 2.384160 0.074542 -0.029446 -448054.000000 0 0 1
-29.371332 7.892095 -31.493451 43.781249 -0.262500 2.373643 0.059699 -0.028220 664707.000000 0 0 1
-27.948052 8.092795 -31.437591 42.835838 -0.281857 2.394855 0.011208 -0.022637 947516.000000 0 0 1
-27.290442 7.601595 -30.292921 41.475457 -0.271658 2.389677 0.009341 -0.022217 -410687.000000 0 0 1
-27.440732 8.435395 -28.987251 40.797185 -0.298236 2.361034 0.015110 -0.017587 947193.000000 0 0 1
-28.760372 8.655195 -28.409011 41.341786 -0.292320 2.328389 0.017015 -0.014936 1403410.000000 0 0 1
-29.411252 7.491295 -27.868121 41.204046 -0.249405 2.313585 0.019958 0.000510 238670.000000 0 0 1
-30.834052 7.801095 -27.314091 41.924401 -0.247803 2.280367 0.033480 -0.001317 226295.000000 0 0 1
-30.824142 8.647395 -26.148621 41.335886 -0.273509 2.255688 -0.002151 0.006669 -38303.400000 0 0 1
-30.423742 7.944495 -24.964421 40.148989 -0.255424 2.241828 -0.002896 0.008580 -331156.000000 0 0 1
-30.164792 8.855495 -23.777721 39.417185 -0.285548 2.218344 -0.009009 0.009327 101725.000000 0 0 1
-31.131032 9.799695 -23.256221 40.075266 -0.304969 2.189910 -0.002393 0.009098 371224.000000 0 0 1
-30.440862 10.741095 -22.442321 39.315073 -0.339213 2.178316 0.000136 0.007941 -204749.000000 0 0 1
-31.326842 11.626895 -21.571121 39.772716 -0.355389 2.144040 -0.002919 0.005399 -381625.000000 0 0 1
-31.840412 10.928095 -20.437321 39.381711 -0.330617 2.116424 -0.001561 -0.001828 266663.000000 0 0 1
-32.610742 11.790895 -19.598621 39.832042 -0.346940 2.085218 -0.001426 -0.003541 -97173.100000 0 0 1
-31.816092 12.845695 -18.742121 39.096581 -0.383734 2.070744 0.013211 -0.006937 312254.000000 0 0 1
-30.989632 12.262595 -17.706321 37.739135 -0.376794 2.059155 0.027406 -0.010050 853948.000000 0 0 1
-31.699232 11.850495 -16.530021 37.663206 -0.357755 2.025160 0.023130 -0.003465 59544.200000 0 0 1
-32.410292 12.896295 -15.640921 38.227998 -0.378701 1.992317 0.019623 -0.001364 245354.000000 0 0 1
-33.169622 13.890995 -16.354221 39.504988 -0.396596 1.997617 0.017448 -0.001877 524794.000000 0 0 1
-33.785932 14.802395 -15.428021 39.982795 -0.412933 1.966943 0.019959 -0.001269 -234293.000000 0 0 1
-34.531650 15.908895 -16.142421 41.305030 -0.431720 1.972308 0.016767 -0.001606 -121115.000000 0 0 1
-35.858589 15.492795 -16.452321 42.385657 -0.407829 1.969428 0.006560 0.001001 465831.000000 0 0 1
35.263835 16.575495 -16.953121 42.493451 0.439396 1.981177 0.000765 -0.002167 -434280.000000 0 0 1
34.942055 16.452995 -18.450121 42.802514 0.440069 2.016455 -0.002213 -0.007247 -268078.000000 0 0 1
33.960745 15.528695 -18.847721 41.829525 0.428870 2.038216 0.010134 -0.015192 -565002.000000 0 0 1
32.698735 16.073095 -18.974221 41.080077 0.456866 2.050914 0.037290 -0.023330 -1463460.000000 0 0 1
31.624025 15.053695 -19.302921 39.991192 0.444281 2.074508 0.046585 -0.024626 -591507.000000 0 0 1
31.496895 14.682095 -20.661921 40.429361 0.436198 2.107216 0.048061 -0.027306 374902.000000 0 0 1
30.734035 13.501595 -20.894621 39.540601 0.413924 2.127552 0.034701 -0.023827 45476.700000 0 0 1
31.449945 12.208095 -20.420321 39.435087 0.370271 2.115098 0.027694 0.000146 69049.900000 0 0 1
31.522485 12.020595 -19.031421 38.734439 0.364312 2.084413 0.028640 -0.002566 -1980.670000 0 0 1
32.256075 10.856495 -18.749421 38.856899 0.324663 2.074331 0.012311 0.001612 -390603.000000 0 0 1
32.257235 10.520395 -17.221721 38.049909 0.315263 2.040485 0.008478 0.000379 -574639.000000 0 0 1
30.998975 10.164395 -16.691721 36.645121 0.316848 2.043726 0.011047 -0.001147 -66693.500000 0 0 1
31.174385 9.840995 -15.345421 36.113286 0.305775 2.009675 0.002685 -0.000399 -381976.000000 0 0 1
30.789035 10.927595 -14.304021 35.664857 0.341050 1.983478 0.011242 -0.002920 -904663.000000 0 0 1
29.436635 11.253995 -14.304921 34.609228 0.365166 1.996901 -0.000273 -0.001608 -399895.000000 0 0 1
29.140805 12.332095 -13.400221 34.363251 0.400336 1.971382 0.003269 0.001091 -159053.000000 0 0 1
27.612205 12.490595 -13.292421 33.092858 0.424813 1.984136 0.031227 -0.008365 -381522.000000 0 0 1
26.991405 11.416295 -12.661321 31.924548 0.400142 1.978608 0.016485 -0.003380 559522.000000 0 0 1
25.629015 11.244995 -13.097421 30.900465 0.413468 2.008497 0.026122 -0.003865 639826.000000 0 0 1
25.337815 10.360095 -14.407021 30.933779 0.388137 2.055264 0.026853 -0.005617 -584186.000000 0 0 1
25.702915 8.961595 -14.262321 30.730503 0.335481 2.053425 0.010662 -0.004169 310106.000000 0 0 1
27.022575 8.821995 -14.750321 32.025289 0.315559 2.049449 0.010156 -0.008239 -135119.000000 0 0 1
27.867715 7.786095 -13.943821 32.119510 0.272447 2.019861 0.010096 -0.004122 -388611.000000 0 0 1
27.500705 6.386795 -14.063421 31.541397 0.228196 2.032944 -0.000020 -0.010625 526953.000000 0 0 1
26.435115 5.965895 -13.221921 30.153381 0.221962 2.024713 0.009707 -0.010940 15788.700000 0 0 1
25.952915 4.531095 -13.525521 29.614597 0.172847 2.045099 0.021972 -0.012354 167211.000000 0 0 1
25.039615 4.035395 -12.535921 28.291625 0.159787 2.029846 0.024408 -0.013289 324998.000000 0 0 1
24.749915 2.669195 -12.826721 28.003708 0.107431 2.046581 0.019424 -0.020016 251293.000000 0 0 1
23.706815 2.015995 -11.852921 26.581366 0.084835 2.032988 0.016663 -0.009377 134948.000000 0 0 1
24.219115 1.830495 -10.534421 26.474332 0.075437 1.980035 0.013355 -0.007036 329513.000000 0 0 1
23.197015 1.762495 -9.579721 25.159073 0.075834 1.961421 0.004518 0.001702 -772604.000000 0 0 1
23.661915 1.215695 -8.172621 25.063038 0.051333 1.902953 -0.002447 0.010285 -364571.000000 0 0 1
24.026815 -0.121105 -7.990921 25.321085 -0.005040 1.891868 0.003051 0.000260 646201.000000 0 0 1
25.251715 -0.635805 -8.475521 26.643720 -0.025173 1.894527 0.022156 -0.005932 -397147.000000 0 0 1
25.393815 -2.179305 -8.284121 26.799662 -0.085611 1.885056 0.032876 -0.012532 -266351.000000 0 0 1
25.987215 -2.469105 -7.019321 27.031513 -0.094728 1.833479 0.049149 -0.012135 526409.000000 0 0 1
26.250215 -3.828605 -6.783721 27.381579 -0.144829 1.821151 0.048615 -0.010403 -849172.000000 0 0 1
27.361835 -4.086405 -5.795221 28.265762 -0.148251 1.777287 0.071309 -0.020016 -978363.000000 0 0 1
28.638275 -3.962905 -6.351721 29.600672 -0.137505 1.787058 0.074602 -0.021965 41607.800000 0 0 1
29.612075 -4.506205 -5.457221 30.446053 -0.151016 1.751013 0.084495 -0.022326 461522.000000 0 0 1
30.932215 -4.935005 -6.177521 31.926759 -0.158209 1.765515 0.085630 -0.021542 119536.000000 0 0 1
30.881425 -6.032605 -7.098821 32.255976 -0.192918 1.792690 0.064511 -0.020616 493963.000000 0 0 1
31.825125 -5.827505 -8.163621 33.368295 -0.181104 1.817957 0.062737 -0.033422 -153847.000000 0 0 1
31.519425 -6.765705 -9.369421 33.571341 -0.211443 1.853642 0.054727 -0.029770 1490440.000000 0 0 1
30.238385 -6.607605 -10.060421 32.545851 -0.215135 1.885059 0.066453 -0.028342 2030420.000000 0 0 1
29.109775 -7.147305 -9.335121 31.394386 -0.240767 1.872712 0.072185 -0.027966 642763.000000 0 0 1
27.874805 -6.183805 -9.289321 30.025584 -0.218307 1.885337 0.066045 -0.024149 94737.100000 0 0 1
27.100725 -6.101305 -10.499121 29.696915 -0.221442 1.932152 0.041492 -0.021534 737561.000000 0 0 1
25.980015 -5.251805 -10.346621 28.453386 -0.199460 1.942962 0.044379 -0.013698 431416.000000 0 0 1
24.617915 -5.740505 -9.804321 27.113094 -0.229090 1.940789 0.051743 -0.010505 -1315640.000000 0 0 1
24.698015 -6.375505 -8.557021 26.904677 -0.252624 1.894468 0.049951 -0.012646 1221650.000000 0 0 1
23.426215 -6.984705 -8.242521 25.797535 -0.289766 1.896007 0.042043 -0.015969 734768.000000 0 0 1
22.336315 -5.983805 -7.731521 24.382233 -0.261750 1.893463 0.042677 -0.004253 -540060.000000 0 1 0
21.865015 -5.178405 -8.764521 24.118698 -0.232550 1.942702 0.034442 -0.000044 90897.700000 0 1 0
21.341315 -3.921905 -8.347521 23.248961 -0.181743 1.938045 0.011037 0.000736 -227454.000000 0 1 0
21.301615 -2.850805 -9.434121 23.471015 -0.133040 1.984439 0.015149 0.003468 704936.000000 0 1 0
22.569115 -2.875805 -10.135521 24.907107 -0.126739 1.989890 0.014008 -0.004050 1463720.000000 0 1 0
22.497915 -2.083505 -11.295321 25.260274 -0.092345 2.034381 0.019914 -0.004515 -610995.000000 0 0 1
23.741515 -2.128905 -12.179821 26.768261 -0.089431 2.043180 0.024601 -0.014988 -120843.000000 0 0 1
24.748915 -1.213705 -11.732821 27.416071 -0.049001 2.013024 0.015340 -0.018819 -739564.000000 0 0 1
25.842315 -1.202105 -12.503921 28.733575 -0.046483 2.021021 0.027476 -0.017589 -1640490.000000 0 0 1
26.976765 -0.348005 -11.888821 29.482385 -0.012899 1.985864 0.033136 -0.010350 -784761.000000 0 0 1
28.164915 -0.553705 -12.594321 30.857510 -0.019657 1.991217 0.038752 -0.016969 273965.000000 0 0 1
29.255755 0.258095 -12.125721 31.670158 0.008822 1.963703 0.051415 -0.021648 512928.000000 0 0 1
29.374005 1.557695 -12.913921 32.125192 0.052980 1.984483 0.058663 -0.026941 -309434.000000 0 0 1
29.843815 1.327495 -14.257521 33.101245 0.044452 2.016092 0.058941 -0.022865 484705.000000 0 0 1
29.715825 2.514495 -15.046221 33.402720 0.084417 2.038064 0.040811 -0.020578 -167223.000000 0 0 1
29.953075 2.286795 -16.548421 34.296740 0.076198 2.074311 0.039784 -0.021319 659353.000000 0 0 1
28.873375 1.576595 -17.204321 33.647379 0.054550 2.107507 0.041272 -0.014966 525146.000000 0 0 1
29.289605 1.324395 -18.510521 34.673828 0.045186 2.133940 0.026349 -0.012326 -303512.000000 0 0 1
28.248195 0.698395 -19.455521 34.306932 0.024718 2.173779 0.024976 -0.010247 -300558.000000 0 0 1
28.095365 -0.708005 -19.181921 34.026415 -0.025195 2.169699 0.039990 -0.016410 260594.000000 0 0 1
27.590995 -1.253605 -20.394521 34.333235 -0.045404 2.206839 0.037413 -0.013951 -108499.000000 0 0 1
27.312935 -2.803505 -20.377621 34.192155 -0.102286 2.209274 0.037388 -0.014539 -459886.000000 0 0 1
26.099815 -3.217805 -19.827821 32.934740 -0.122669 2.216842 0.035270 -0.012575 -258043.000000 0 0 1
25.877815 -4.610305 -19.807521 32.912826 -0.176307 2.216571 0.047577 -0.019887 -255576.000000 0 0 1
26.451515 -5.445305 -18.578921 32.779724 -0.203024 2.173390 0.042170 -0.018308 746583.000000 0 0 1
27.862765 -5.620805 -18.748821 34.050630 -0.199060 2.153898 0.050965 -0.019286 698384.000000 0 0 1
28.536135 -5.925705 -17.553421 34.022751 -0.204746 2.112891 0.033525 -0.016005 449770.000000 0 0 1
30.035075 -5.513605 -17.514321 35.203082 -0.181551 2.091537 0.060693 -0.009200 1228170.000000 0 0 1
30.936095 -6.206705 -18.446921 36.549337 -0.198001 2.099846 0.061451 -0.019134 608723.000000 0 0 1
32.179205 -5.567105 -18.581621 37.573535 -0.171308 2.088102 0.046788 -0.011017 -413982.000000 0 0 1
33.252305 -6.435305 -19.213721 38.939646 -0.191166 2.086817 0.037006 -0.013959 -511948.000000 0 0 1
33.739315 -7.441705 -18.386821 39.138160 -0.217089 2.059852 0.030360 -0.019705 9152.080000 0 0 1
34.079775 -8.624105 -19.085421 40.000744 -0.247853 2.068179 0.010107 -0.010334 -257114.000000 0 0 1
34.820745 -9.657405 -18.237421 40.476577 -0.270546 2.038197 0.008539 -0.002953 -440284.000000 0 0 1
33.979825 -10.343005 -17.308521 39.511912 -0.295476 2.024234 0.011820 -0.012983 332616.000000 0 0 1
34.704535 -11.154505 -16.405221 39.974479 -0.310985 1.993681 0.031460 -0.016090 -504589.000000 0 0 1
35.778305 -10.588905 -15.425821 40.375339 -0.287745 1.962821 0.037407 -0.027978 10989.700000 0 0 1
-35.584771 -11.374505 -14.348121 40.019044 0.309381 1.937492 0.032394 -0.030636 605708.000000 0 0 1
-35.058150 -12.644505 -14.744021 40.079216 0.346151 1.947516 0.036297 -0.022830 -1025680.000000 0 0 1
-33.599202 -12.716005 -15.180921 39.000814 0.361802 1.970609 0.039287 -0.023834 -869359.000000 0 0 1
-33.473292 -12.167205 -16.445421 39.229504 0.348642 2.003372 0.033505 -0.018769 -10140.500000 0 0 1
-32.164692 -12.289705 -16.952721 38.379669 0.364969 2.028301 0.040316 -0.014445 -264746.000000 0 0 1
-31.823972 -11.426905 -18.216821 38.408227 0.344728 2.064959 0.040787 -0.007725 140988.000000 0 0 1
-31.868932 -10.061505 -17.956921 37.938288 0.305811 2.063851 0.046791 -0.011432 453090.000000 0 0 1
-33.181602 -9.523705 -18.044121 38.952663 0.279504 2.052435 0.029371 -0.009706 -113806.000000 0 0 1
-33.301552 -8.033505 -17.578521 38.503700 0.236713 2.044900 0.037848 -0.011964 -444924.000000 0 0 1
-34.594199 -7.515705 -17.732521 39.594024 0.213929 2.035165 0.032204 -0.011323 -383978.000000 0 0 1
-34.698803 -6.102305 -17.529021 39.351132 0.174085 2.032475 0.042723 -0.011065 -230924.000000 0 0 1
23.706208 26.406995 -27.097461 44.649592 0.839240 2.222940 0.027342 0.015002 41345.000000 0 0 1
24.633608 26.026995 -26.093641 44.329417 0.812896 2.200160 0.034770 -0.000586 -745606.000000 0 0 1
25.852308 25.650095 -26.650001 45.127505 0.781472 2.202535 0.046494 -0.005073 -864843.000000 0 0 1
26.648208 24.912295 -25.576551 44.552322 0.751743 2.182275 0.036328 -0.008313 -464176.000000 0 0 1
27.153908 25.745295 -24.530621 44.742667 0.758776 2.151079 0.049415 -0.001858 326937.000000 0 0 1
27.545908 24.998795 -23.424021 43.959089 0.736961 2.132773 0.038088 -0.008517 -241762.000000 0 0 1
28.099608 25.763195 -22.206521 44.118700 0.742048 2.098251 0.031558 0.004130 393410.000000 0 0 1
27.122108 26.392795 -21.389521 43.470679 0.771771 2.085233 0.027576 0.007050 431283.000000 0 0 1
27.857608 27.032395 -20.380621 43.842518 0.770365 2.054272 0.012456 0.007543 291941.000000 0 0 1
27.015708 28.110395 -19.645821 43.657772 0.805253 2.037557 0.019376 0.010809 13553.300000 0 0 1
26.156908 27.559695 -18.660621 42.331305 0.811507 2.027312 0.028058 0.010351 -101732.000000 0 0 1
25.362708 28.639795 -18.208621 42.368133 0.846008 2.015036 0.033464 0.005831 297270.000000 0 0 1
24.156708 28.236995 -17.299021 40.989395 0.863119 2.006487 0.033736 0.005403 421283.000000 0 0 1
23.223308 27.367795 -17.939421 40.126563 0.867137 2.034284 0.041566 0.004428 -297588.000000 0 0 1
22.042108 27.372995 -17.183021 39.120219 0.892862 2.025545 0.027408 0.011008 -273111.000000 0 0 1
21.125408 26.193595 -17.580021 37.966359 0.892098 2.052221 0.021656 0.005488 -167782.000000 0 0 1
20.581208 26.419195 -18.857521 38.433918 0.908977 2.083629 0.021786 0.003836 -404594.000000 0 0 1
19.854808 25.343295 -19.394821 37.585304 0.906238 2.112996 0.019179 0.011009 -86120.500000 0 0 1
19.109408 25.891895 -20.643321 38.232269 0.934990 2.141168 0.010282 0.014295 -30785.400000 0 0 1
18.076908 26.772695 -20.318921 38.162944 0.976910 2.132260 -0.003347 0.017100 -669137.000000 0 0 1
17.275608 27.099695 -21.413821 38.618542 1.003270 2.158553 -0.004792 0.016997 -131744.000000 0 0 1
16.248108 28.201295 -21.101821 38.789185 1.048100 2.146009 -0.010029 0.020763 220287.000000 0 0 1
15.330708 27.887395 -20.045021 37.610374 1.068156 2.132897 -0.001730 0.022727 617808.000000 0 0 1
14.477008 28.978495 -19.643821 37.884253 1.107487 2.115918 -0.001941 0.013778 642462.000000 0 0 1
13.936308 28.782395 -18.179321 36.784978 1.119872 2.087716 0.006752 0.010621 210264.000000 0 0 1
13.237908 27.538795 -18.010121 35.468181 1.122707 2.103405 0.009824 0.009415 71634.800000 0 0 1
12.757108 27.480995 -16.676021 34.583790 1.136184 2.073951 0.029928 0.005802 -98544.900000 0 0 1
11.835108 26.329795 -16.296521 33.149728 1.148363 2.084726 0.038170 0.005075 -210192.000000 0 0 1
12.503108 25.130795 -16.041821 32.329933 1.109134 2.090002 0.012966 0.007527 -336875.000000 0 0 1
11.600708 24.067695 -15.974521 31.129016 1.121649 2.109672 0.047116 0.002014 38631.800000 0 0 1
12.400908 22.748595 -16.091721 30.499583 1.071701 2.126575 0.021318 0.010599 16957.200000 0 0 1
12.891308 22.625595 -17.427421 31.333981 1.052904 2.160582 0.023693 0.013611 153907.000000 0 0 1
13.836408 21.583995 -17.648321 31.125203 1.000739 2.173668 0.028877 0.013528 248812.000000 0 0 1
13.090108 20.263695 -17.877121 30.025984 0.997247 2.208545 0.029134 0.004873 470719.000000 0 0 1
12.456508 19.673495 -16.711121 28.661342 1.006349 2.193279 0.032642 0.002321 246233.000000 0 0 1
12.004008 18.300395 -16.944421 27.678765 0.990255 2.229613 0.036030 -0.002967 89026.400000 0 0 1
13.130108 17.247395 -17.048621 27.577669 0.920115 2.237252 0.034851 -0.001092 72861.600000 0 0 1
13.708308 16.988795 -15.800521 26.947974 0.891860 2.197323 0.023387 0.004280 -495845.000000 0 0 1
14.824608 16.158595 -15.969121 27.127145 0.828427 2.200217 0.035614 0.002792 -947992.000000 0 0 1
15.149508 15.486195 -14.573921 26.109940 0.796388 2.162981 0.050575 0.007523 -717272.000000 0 0 1
15.994408 16.129095 -13.632621 26.491831 0.789591 2.111334 0.035566 0.012513 1179340.000000 0 0 1
17.306008 16.581595 -14.026521 27.770316 0.764024 2.100283 0.028580 0.014197 598550.000000 0 0 1
18.293708 15.451295 -14.482021 27.984481 0.701364 2.114725 0.027783 0.006048 -807726.000000 0 0 1
18.715308 14.460695 -13.544221 27.254731 0.657851 2.090876 0.049617 -0.001306 749649.000000 0 0 1
19.589508 15.006195 -12.524521 27.673061 0.653683 2.040463 0.053414 0.003562 -107300.000000 0 0 1
20.312608 13.822995 -11.846321 27.276593 0.597527 2.020061 0.068301 -0.009305 -944427.000000 0 0 1
19.460708 13.060895 -11.079521 25.924157 0.591094 2.012391 0.095160 -0.012535 -287454.000000 0 0 1
19.903208 11.842495 -10.468621 25.416026 0.536738 1.995324 0.103612 -0.003566 -280915.000000 0 0 1
20.166308 10.647595 -11.424121 25.506113 0.485788 2.035209 0.088412 -0.001653 147763.000000 0 0 1
21.321408 10.723595 -12.304421 26.851382 0.466005 2.046812 0.076130 0.000263 1198000.000000 0 0 1
21.650408 9.559895 -13.062121 27.032402 0.415811 2.075105 0.065274 0.000475 -96182.700000 0 0 1
22.385208 8.458895 -12.253321 26.884834 0.361292 2.044034 0.054606 0.008652 -592695.000000 0 0 1
21.624008 7.921195 -11.187621 25.602850 0.351135 2.023021 0.058661 0.002728 578556.000000 0 0 1
22.282408 6.886095 -10.421421 25.544667 0.299727 1.991024 0.042843 0.014129 -565337.000000 0 0 1
22.645408 5.565895 -11.165521 25.854643 0.241007 2.017348 0.048357 -0.001904 480224.000000 0 0 1
21.555108 4.718795 -11.628221 24.942037 0.215518 2.055798 0.070526 -0.009069 975395.000000 0 1 0
20.733508 5.244495 -12.640421 24.842772 0.247751 2.104606 0.044685 -0.015215 489.424000 0 1 0
19.642008 4.279195 -13.170321 24.032839 0.214508 2.150784 0.048462 -0.023683 99547.700000 0 1 0
20.262708 3.236795 -13.825521 24.742659 0.158403 2.163701 0.046108 -0.026625 62971.700000 0 1 0
19.464708 2.088795 -13.815321 23.960405 0.106903 2.185345 0.049855 -0.023596 -229341.000000 0 1 0
20.139308 0.798095 -14.428721 24.787430 0.039608 2.192103 0.061348 -0.024672 -197063.000000 0 1 0
21.361508 0.462495 -13.771321 25.420016 0.021647 2.143315 0.070801 -0.019465 503660.000000 0 0 1
22.322608 0.210695 -14.794921 26.781204 0.009438 2.156081 0.039784 -0.026885 -340069.000000 0 0 1
22.383908 -1.208505 -15.444321 27.221809 -0.053938 2.174082 0.031493 -0.020687 -356044.000000 0 0 1
21.261208 -1.516205 -16.282821 26.822902 -0.071193 2.223138 0.028811 -0.013643 674759.000000 0 0 1
21.618508 -2.646905 -17.024121 27.643927 -0.121831 2.234243 0.032267 -0.016890 -71704.900000 0 0 1
20.426808 -3.236905 -17.795021 27.283600 -0.157157 2.281311 0.032461 -0.018191 433090.000000 0 0 1
19.497208 -3.991605 -16.954321 26.144273 -0.201937 2.276396 0.044244 -0.018231 648328.000000 0 0 1
18.665808 -4.792305 -17.748121 26.198747 -0.251314 2.315075 0.040831 -0.019189 -131822.000000 0 0 1
18.015008 -6.006005 -17.072021 25.535593 -0.321801 2.303064 0.047096 -0.021203 -326013.000000 0 0 1
18.985808 -6.961505 -16.732521 26.246918 -0.351447 2.262051 0.041047 -0.014907 -109048.000000 0 0 1
18.526208 -8.045905 -16.003621 25.769611 -0.409720 2.240848 0.044710 -0.012771 -422419.000000 0 0 1
19.530708 -9.123105 -15.506021 26.554026 -0.436996 2.194373 0.062168 -0.008623 -150246.000000 0 0 1
20.167408 -9.803105 -16.559821 27.875668 -0.452455 2.206893 0.069029 -0.014105 29046.500000 0 0 1
21.106308 -10.680805 -16.025321 28.572132 -0.468474 2.166236 0.072227 -0.023748 -659463.000000 0 0 1
21.641108 -11.657705 -17.088021 29.937269 -0.494113 2.178269 0.078400 -0.021575 363730.000000 0 0 1
22.715508 -11.200005 -17.934221 31.033380 -0.458077 2.186951 0.075254 -0.018163 615528.000000 0 0 1
23.061108 -12.132105 -18.941521 32.214653 -0.484297 2.199354 0.073992 -0.015679 -707622.000000 0 0 1
22.258108 -12.139605 -20.244421 32.444259 -0.499306 2.244616 0.082824 -0.017536 124053.000000 0 0 1
20.933208 -12.623705 -20.080621 31.635241 -0.542657 2.258487 0.074225 -0.020166 114397.000000 0 0 1
20.768108 -14.015005 -19.968621 32.038734 -0.593635 2.243707 0.060701 -0.013848 -748287.000000 0 0 1
19.266208 -14.318705 -19.904421 31.183298 -0.639137 2.263089 0.066839 -0.017902 -125614.000000 0 0 1
18.653308 -14.075605 -21.168421 31.530471 -0.646432 2.306844 0.066339 -0.010982 -575343.000000 0 0 1
17.263508 -14.070105 -21.016921 30.622011 -0.683833 2.327232 0.062247 -0.006314 -25084.700000 0 0 1
16.431908 -13.474605 -22.210921 30.739187 -0.686834 2.378295 0.051758 -0.005550 70955.400000 0 0 1
16.542008 -14.292505 -23.352721 31.988487 -0.712573 2.389170 0.043282 -0.001934 262731.000000 0 0 1
15.870608 -13.763405 -24.462921 32.245031 -0.714410 2.432046 0.041987 -0.002872 -355293.000000 0 0 1
15.999708 -14.691005 -25.680221 33.634655 -0.742782 2.439519 0.029856 -0.007034 -804991.000000 0 0 1
15.103908 -15.732305 -25.747531 33.742685 -0.805774 2.438823 0.037154 -0.008807 -475844.000000 0 0 1
14.992208 -16.359105 -27.026341 34.968696 -0.828970 2.454152 0.040597 -0.007037 259940.000000 0 0 1
16.077508 -17.443205 -27.417401 36.255559 -0.826118 2.428322 0.039728 -0.012286 1269120.000000 0 0 1
17.387508 -16.853905 -27.573371 36.697007 -0.769816 2.420946 0.047480 -0.011273 670791.000000 0 0 1
18.381408 -17.821405 -27.731051 37.742414 -0.769931 2.396087 0.051247 -0.003155 853055.000000 0 0 1
19.898808 -17.436205 -27.669891 38.283243 -0.719534 2.378595 0.044672 0.004196 817240.000000 0 0 1
20.346908 -16.964205 -26.423921 37.416634 -0.694983 2.354924 0.050838 0.000814 -89051.900000 0 0 1
21.705508 -16.588105 -26.501311 38.060659 -0.652549 2.341014 0.051983 0.000650 -233259.000000 0 0 1
22.288608 -16.248205 -25.137721 37.318778 -0.629920 2.309858 0.054253 0.002478 -125170.000000 0 0 1
22.094508 -14.936105 -24.669721 36.329735 -0.594443 2.317265 0.069568 -0.005713 -393765.000000 0 0 1
20.778808 -14.610105 -24.294021 35.148449 -0.612820 2.333921 0.075400 -0.004285 -93692.900000 0 0 1
20.632808 -13.236205 -23.560721 34.000257 -0.570385 2.336379 0.077266 -0.003773 -16639.000000 0 0 1
20.762708 -12.099905 -24.430721 34.268905 -0.527655 2.364439 0.091102 -0.018056 170503.000000 0 0 1
20.501808 -10.925305 -23.682621 33.174583 -0.489616 2.365818 0.088610 -0.015561 -7112.160000 0 0 1
20.456808 -9.660205 -24.580121 33.406330 -0.441181 2.397632 0.091811 -0.021204 -343625.000000 0 0 1
20.113908 -8.502305 -23.853321 32.339440 -0.399928 2.400294 0.086571 -0.018512 -23182.700000 0 0 1
19.876408 -7.402105 -24.661421 32.527656 -0.356495 2.431295 0.059520 -0.015225 -879096.000000 0 0 1
19.292808 -6.254205 -23.863621 31.317725 -0.313484 2.437168 0.047113 -0.019693 -945599.000000 0 0 1
17.974008 -6.491705 -23.503821 30.292520 -0.346593 2.458929 0.034142 -0.010467 -712439.000000 0 0 1
17.376208 -5.594005 -22.570621 29.028579 -0.311457 2.461526 0.013184 -0.009874 137316.000000 0 0 1
17.883408 -5.759205 -21.081421 28.238467 -0.311554 2.413657 0.032286 -0.016022 -398539.000000 0 0 1
17.453908 -6.934505 -20.418621 27.742501 -0.378180 2.397946 0.040805 -0.013224 174308.000000 0 0 1
18.045708 -8.197105 -20.796221 28.728434 -0.426375 2.380220 0.052867 -0.013867 -239220.000000 0 0 1
17.768708 -9.259905 -19.762821 28.143239 -0.480413 2.349311 0.046941 -0.011715 400474.000000 0 0 1
16.367608 -9.482405 -19.656821 27.280125 -0.525090 2.375398 0.031411 -0.005731 134372.000000 0 0 1
16.187408 -10.579505 -18.829021 26.990556 -0.578877 2.342860 0.048005 -0.008564 158782.000000 0 0 1
14.706808 -10.671405 -18.347821 25.822696 -0.627708 2.361049 0.058941 -0.011303 232294.000000 0 0 1
14.267508 -9.902005 -17.245921 24.475156 -0.606705 2.352697 0.064468 -0.012082 177960.000000 0 1 0
14.258808 -8.496705 -17.472621 24.099794 -0.537393 2.381847 0.059719 -0.025833 -60311.700000 0 1 0
12.984008 -7.759105 -16.941821 22.711527 -0.538645 2.412767 0.055129 -0.020468 374799.000000 0 1 0
11.876008 -7.738305 -17.806921 22.759775 -0.577493 2.469283 0.043870 -0.020524 38771.700000 0 1 0
11.010508 -6.640705 -17.497421 21.713820 -0.542714 2.507854 0.034732 -0.016444 682259.000000 0 1 0
9.497208 -6.888605 -17.781421 21.303257 -0.627524 2.558349 0.036349 -0.015813 484374.000000 0 1 0
9.192808 -6.697005 -19.163721 22.284654 -0.629602 2.605971 0.031940 -0.015150 -232332.000000 0 1 0
7.852508 -6.346805 -19.373921 21.847028 -0.679752 2.661168 0.031084 -0.024091 -266766.000000 0 1 0
7.436308 -5.966605 -20.824321 22.903087 -0.676179 2.712242 0.039955 -0.025154 14447.200000 0 1 0
7.560208 -7.036205 -21.751921 24.079265 -0.749514 2.698305 0.045817 -0.021566 609148.000000 0 1 0
6.831808 -6.666205 -22.979021 24.882670 -0.773130 2.747890 0.055601 -0.023228 390261.000000 0 1 0
6.935808 -7.730005 -24.068721 26.213770 -0.839498 2.734235 0.054612 -0.015251 41447.800000 0 0 1
6.093508 -8.849805 -23.834421 26.144397 -0.967798 2.718067 0.051890 -0.016240 312419.000000 0 0 1
6.243108 -9.807405 -24.877521 27.460019 -1.003920 2.704425 0.052606 -0.004906 -280216.000000 0 0 1
5.259808 -10.966705 -24.701821 27.533873 -1.123588 2.684055 0.048765 -0.007796 -88877.000000 0 0 1
5.702108 -11.944805 -23.777021 27.212848 -1.125415 2.633641 0.038654 -0.011118 -347333.000000 0 0 1
4.900408 -13.072005 -23.769621 27.566033 -1.212133 2.610550 0.038683 -0.014833 -844603.000000 0 0 1
5.388608 -14.263005 -22.892121 27.504901 -1.209570 2.554027 0.039064 -0.010242 -418295.000000 0 0 1
6.412608 -15.072805 -23.427221 28.585760 -1.168551 2.531407 0.050955 -0.009310 441172.000000 0 0 1
7.751208 -14.608505 -23.615221 28.829990 -1.082973 2.530672 0.053475 -0.010258 1027340.000000 0 0 1
8.485108 -14.191105 -22.269921 27.736869 -1.031910 2.502940 0.053626 -0.003388 -727636.000000 0 0 1
8.744408 -15.175705 -21.248821 27.536868 -1.048052 2.452227 0.051348 -0.000582 279570.000000 0 0 1
7.707708 -15.616205 -20.363421 26.794468 -1.112305 2.434088 0.059163 -0.003498 236075.000000 0 0 1
8.288508 -15.875905 -18.940121 26.066682 -1.089640 2.384161 0.056038 -0.005269 849296.000000 0 0 1
9.344508 -16.865805 -18.900621 27.000161 -1.064849 2.346220 0.068916 -0.005863 482005.000000 0 0 1
9.885608 -17.165205 -17.614521 26.507374 -1.048279 2.297640 0.076531 -0.013033 100124.000000 0 0 1
8.951808 -18.063805 -16.710321 26.185315 -1.110702 2.262897 0.045509 -0.010170 -510738.000000 0 0 1
8.702708 -19.416705 -17.106621 27.301686 -1.149434 2.247950 0.054455 -0.009415 143244.000000 0 0 1
8.076208 -19.567605 -18.372521 28.029731 -1.179361 2.285595 0.049963 0.000168 -988714.000000 0 0 1
6.567808 -19.369405 -18.334021 27.467185 -1.243881 2.301627 0.045327 0.003709 -988072.000000 0 0 1
6.187208 -18.071505 -17.882821 26.165934 -1.240932 2.323260 0.041544 0.003077 -1288890.000000 0 0 1
4.819708 -17.917305 -17.705521 25.646537 -1.308019 2.332792 0.020813 0.004210 -594136.000000 0 0 1
4.475308 -16.404105 -17.599621 24.471814 -1.304461 2.373417 -0.002026 0.014436 12727.600000 0 1 0
4.983508 -15.817705 -16.420221 23.337926 -1.265582 2.351227 -0.006949 0.012823 71786.400000 0 1 0
4.621208 -14.481905 -16.327021 22.308132 -1.261908 2.391883 -0.015003 0.015652 -28311.400000 0 1 0
10.596408 30.275495 -17.898221 36.731944 1.234122 2.079752 0.049161 -0.011522 127370.000000 0 0 1
9.732908 29.789195 -18.964621 36.630349 1.255004 2.114992 0.066353 -0.012943 86857.300000 0 0 1
8.797008 28.915595 -18.386721 35.377542 1.275463 2.117330 0.066732 -0.013252 -300648.000000 0 0 1
7.876108 28.433495 -19.517221 35.375395 1.300571 2.155218 0.069481 -0.009083 188702.000000 0 0 1
6.886508 29.370595 -19.943921 36.163736 1.340487 2.154945 0.080968 -0.024368 6139.170000 0 0 1
6.070008 28.961695 -20.994221 36.281980 1.364199 2.187857 0.062977 -0.020341 88102.900000 0 0 1
5.005008 29.969295 -21.434721 37.184082 1.405319 2.185172 0.064049 -0.030979 -449922.000000 0 0 1
3.764308 29.943695 -20.824621 36.666874 1.445739 2.174798 0.063645 -0.025088 -679260.000000 0 0 1
2.816208 30.826495 -21.388621 37.625482 1.479692 2.175430 0.049794 -0.030231 -966426.000000 0 0 1
1.424708 30.608995 -20.805021 37.037673 1.524284 2.167267 0.043403 -0.024762 -346314.000000 0 0 1
0.735208 29.383295 -21.053521 36.154796 1.545780 2.192371 0.048266 -0.035171 268858.000000 0 0 1
0.420008 29.212195 -22.430321 36.832703 1.556419 2.225568 0.061792 -0.039595 -785177.000000 0 0 1
-0.128592 27.806695 -22.741921 35.922469 -1.566172 2.256326 0.070460 -0.037130 345709.000000 0 0 1
-1.269692 27.435595 -21.982321 35.178777 -1.524550 2.245767 0.072386 -0.036430 333867.000000 0 0 1
-1.789392 26.141795 -22.302621 34.409333 -1.502453 2.275957 0.075403 -0.044618 -252960.000000 0 0 1
-2.953092 25.706895 -21.424921 33.594529 -1.456422 2.262370 0.054025 -0.033656 -772898.000000 0 0 1
-4.019892 26.612395 -21.385021 34.375837 -1.420876 2.242211 0.060214 -0.034992 -474847.000000 0 0 1
-5.050892 25.970595 -20.659721 33.567951 -1.378709 2.233765 0.049000 -0.031356 -510654.000000 0 0 1
-6.129192 26.969695 -20.243721 34.274475 -1.347330 2.202642 0.051430 -0.037028 -407990.000000 0 0 1
-7.202492 26.360995 -19.574221 33.614402 -1.304081 2.192372 0.058677 -0.030810 -451283.000000 0 0 1
-7.959492 27.291195 -18.808921 34.087216 -1.287017 2.155303 0.063902 -0.037342 614647.000000 0 0 1
-9.270892 26.634195 -18.274221 33.604715 -1.235831 2.145754 0.065243 -0.030337 293473.000000 0 0 1
-9.142992 25.814995 -17.106221 32.289798 -1.230408 2.129128 0.068202 -0.032268 -215534.000000 0 0 1
-10.347092 25.322695 -16.549821 31.971827 -1.182890 2.114884 0.047604 -0.022602 355282.000000 0 0 1
-9.930892 24.545195 -15.292521 30.576958 -1.186334 2.094548 0.049601 -0.014493 444357.000000 0 0 1
-9.411092 23.188295 -15.357721 29.361969 -1.185253 2.121220 0.048939 -0.013878 -69716.200000 0 0 1
-9.575192 22.501295 -14.129521 28.242449 -1.168469 2.094734 0.051798 -0.011362 -270604.000000 0 0 1
-9.136392 21.025395 -14.030921 26.877641 -1.160872 2.120025 0.058464 -0.003819 69688.100000 0 0 1
-10.027292 20.054795 -14.595521 26.753889 -1.107153 2.147839 0.054982 -0.003220 -67968.600000 0 0 1
-10.372792 20.075395 -16.003321 27.689755 -1.093885 2.187012 0.067498 -0.000573 1126500.000000 0 0 1
-9.116092 19.999795 -16.983121 27.776272 -1.143122 2.228657 0.062772 -0.006723 928512.000000 0 0 1
-8.461092 18.789795 -17.137121 26.801630 -1.147691 2.264522 0.055205 -0.012533 -222985.000000 0 0 1
-7.598992 18.794495 -18.265121 27.287219 -1.186571 2.304151 0.059328 -0.015276 51131.400000 0 0 1
-6.998792 17.426695 -18.643021 26.461954 -1.188900 2.352545 0.052107 -0.020106 3498.650000 0 0 1
-7.943392 16.450595 -19.046121 26.390798 -1.120952 2.377045 0.052663 -0.021747 -218817.000000 0 0 1
-7.535692 15.548995 -20.114221 26.516782 -1.119511 2.431876 0.043617 -0.018451 -360830.000000 0 0 1
-6.383492 14.600195 -19.800821 25.416277 -1.158621 2.463962 0.037852 -0.015243 -512828.000000 0 0 1
-6.618192 13.445495 -18.937921 24.150085 -1.113389 2.472164 0.023861 -0.013972 976957.000000 0 1 0
-5.360792 12.783195 -18.633921 23.224365 -1.173710 2.502008 0.020238 -0.009254 1532960.000000 0 1 0
-4.499892 13.419995 -17.476621 22.489499 -1.247266 2.460843 0.016983 0.001797 -166614.000000 0 1 0
-3.959192 14.682095 -17.655121 23.301124 -1.307400 2.430569 0.018247 -0.004945 -488738.000000 0 1 0
-3.293192 15.070795 -16.488121 22.579462 -1.355663 2.389450 0.016370 0.000434 -163042.000000 0 1 0
-2.526992 16.407995 -16.530321 23.427750 -1.417987 2.354048 0.032849 -0.005272 -343694.000000 0 1 0
-3.265992 17.572895 -16.687521 24.452948 -1.387039 2.321884 0.028620 -0.011414 -809400.000000 0 1 0
-2.504392 18.741695 -16.702821 25.229096 -1.437957 2.294342 0.039139 -0.011890 -659061.000000 0 0 1
-3.220392 19.999195 -17.124321 26.525103 -1.411141 2.272591 0.045830 -0.020159 -251740.000000 0 0 1
-3.637392 19.830295 -18.479321 27.348793 -1.389387 2.312697 0.051279 -0.025064 -419296.000000 0 0 1
-4.043492 20.955995 -19.158521 28.680175 -1.380187 2.302322 0.067313 -0.019544 -588397.000000 0 0 1
-3.081992 22.126195 -19.430321 29.607508 -1.432395 2.286652 0.065330 -0.024437 -1061820.000000 0 0 1
-2.140592 21.893795 -20.439021 30.027886 -1.473334 2.319470 0.074077 -0.020455 134913.000000 0 0 1
-0.898592 22.580595 -20.298021 30.375983 -1.531022 2.302618 0.061207 -0.023183 1025520.000000 0 0 1
0.081408 22.002995 -19.215021 29.212248 1.567096 2.288654 0.071638 -0.021196 -236271.000000 0 0 1
-0.310092 22.342495 -17.897721 28.628860 -1.556918 2.246137 0.069462 -0.021828 -92712.000000 0 0 1
0.650808 21.800995 -17.020421 27.665893 1.540953 2.233453 0.078206 -0.022484 -75312.400000 0 0 1
0.305208 22.027795 -15.548821 26.964471 1.556942 2.185408 0.074837 -0.024068 -215795.000000 0 0 1
-0.858092 21.340595 -15.158921 26.190650 -1.530609 2.188042 0.061062 -0.012475 -166388.000000 0 0 1
-0.818192 21.196995 -13.757321 25.283312 -1.532216 2.146144 0.077372 -0.018461 163198.000000 0 0 1
-1.570892 20.013195 -13.103221 23.972694 -1.492464 2.149082 0.043998 -0.012146 -111879.000000 0 1 0
-0.990092 18.783695 -13.353421 23.067755 -1.518135 2.188149 0.039344 -0.006101 138793.000000 0 1 0
-1.907492 17.735895 -12.969621 22.054740 -1.463658 2.199461 0.026412 -0.004623 534917.000000 0 1 0
-1.380192 16.318495 -13.007321 20.913837 -1.486419 2.242024 0.010949 0.001386 585347.000000 0 1 0
-0.199192 15.936695 -12.223821 20.085808 -1.558298 2.225066 0.016864 0.000519 1143040.000000 0 1 0
0.054508 14.557895 -12.325321 19.074821 1.567052 2.273334 0.015793 0.003929 51408.100000 0 1 0
0.689808 14.081095 -13.633021 19.611535 1.521847 2.339429 0.011969 0.003223 -417370.000000 0 1 0
-0.212192 13.891595 -14.727121 20.246222 -1.555523 2.385323 0.014194 -0.003252 307783.000000 0 1 0
0.313108 12.893795 -15.591721 20.234864 1.546517 2.450480 0.019432 -0.009117 -257400.000000 0 1 0
-0.396492 12.768295 -16.952821 21.226980 -1.539753 2.495837 0.011020 -0.007280 -233985.000000 0 1 0
-0.315692 13.862095 -17.760921 22.532368 -1.548027 2.478740 0.026107 -0.007755 -2586.220000 0 1 0
-0.460592 13.584795 -19.137821 23.473708 -1.536904 2.524022 0.033398 -0.015216 -262343.000000 0 1 0
-0.965292 14.906095 -19.737521 24.752639 -1.506128 2.493755 0.032793 -0.005291 -594364.000000 0 1 0
-0.117692 15.955495 -19.493621 25.191127 -1.563420 2.455660 0.036417 -0.013956 -732054.000000 0 0 1
-0.711692 17.141495 -19.823221 26.216358 -1.529301 2.428190 0.058908 -0.023015 -166846.000000 0 0 1
0.320508 18.298495 -19.906321 27.040696 1.553283 2.398178 0.076188 -0.022869 317363.000000 0 0 1
1.012908 18.172195 -21.135421 27.891946 1.515114 2.430671 0.078889 -0.025689 -49778.800000 0 0 1
1.946608 19.173795 -21.444421 28.832046 1.469619 2.409490 0.077190 -0.021385 -8114.760000 0 0 1
2.335508 19.235195 -22.919621 30.012603 1.449969 2.439770 0.077474 -0.027110 277936.000000 0 0 1
3.171508 18.092195 -23.213921 29.601893 1.397262 2.472208 0.060688 -0.028257 328952.000000 0 0 1
3.499608 18.043495 -24.616421 30.721053 1.379221 2.500242 0.056338 -0.033510 383826.000000 0 0 1
4.487808 16.901995 -25.017121 30.523338 1.311265 2.531520 0.039636 -0.025387 1042510.000000 0 0 1
5.835508 16.942595 -24.438921 30.304546 1.239094 2.508910 0.034176 -0.021476 1438980.000000 0 0 1
6.687308 15.978395 -25.005721 30.418995 1.174425 2.535786 0.039519 -0.029485 -86809.400000 0 0 1
7.139808 16.244695 -26.424661 31.829698 1.156695 2.550243 0.037461 -0.033795 -1838940.000000 0 0 1
8.230508 17.109495 -26.541281 32.633045 1.122424 2.520641 0.028654 -0.027179 1472.870000 0 0 1
8.747808 17.181295 -27.898761 33.912562 1.099858 2.536883 0.032703 -0.027716 360408.000000 0 0 1
9.378808 15.915295 -28.582971 34.032996 1.038285 2.567823 0.029565 -0.028681 -316753.000000 0 0 1
10.595608 15.519095 -27.979371 33.703922 0.971744 2.550176 0.041260 -0.028642 -57275.900000 0 0 1
11.034508 14.227095 -28.392081 33.619649 0.911113 2.576443 0.044121 -0.021785 -285969.000000 0 0 1
10.513908 13.076695 -27.499091 32.214006 0.893610 2.593726 0.038250 -0.017474 225099.000000 0 0 1
9.126108 12.818995 -27.637311 31.803041 0.952115 2.624004 0.038621 -0.020480 48153.700000 0 0 1
8.581608 12.158395 -26.509961 30.401457 0.956177 2.630062 0.038623 -0.016239 -356173.000000 0 0 1
7.143308 11.702695 -26.730891 30.041978 1.022766 2.667669 0.031213 -0.018452 -355562.000000 0 0 1
6.217408 12.744595 -26.793191 30.314286 1.116919 2.654820 0.036567 -0.028740 -1598220.000000 0 0 1
4.956508 12.389295 -26.393251 29.574740 1.190235 2.673489 0.043380 -0.025766 -513087.000000 0 0 1
3.876408 13.504995 -26.579191 30.064344 1.291276 2.655311 0.055314 -0.024830 -37645.300000 0 0 1
3.451408 13.828295 -27.914351 31.342382 1.326203 2.669517 0.062721 -0.033087 300911.000000 0 0 1
4.327508 14.727695 -28.539531 32.405819 1.285005 2.648116 0.072213 -0.038948 -219988.000000 0 0 1
4.152608 14.625095 -30.078151 33.702117 1.294140 2.673589 0.078247 -0.039785 -150997.000000 0 0 1
4.927608 13.585095 -30.648841 33.884916 1.222833 2.700998 0.072362 -0.039474 184.652000 0 0 1
4.698508 13.376895 -32.051051 35.046928 1.233017 2.725111 0.074679 -0.037172 -1133430.000000 0 0 1
5.654008 12.349195 -32.659501 35.371081 1.141438 2.747484 0.074660 -0.023614 1246090.000000 0 0 1
7.078308 12.613495 -32.731611 35.784927 1.059418 2.725502 0.070679 -0.018657 1689620.000000 0 0 1
7.770408 12.917895 -31.471991 34.896095 1.029258 2.694892 0.060530 -0.016046 -562079.000000 0 0 1
8.022508 11.722695 -30.490651 33.637211 0.970646 2.705611 0.067063 -0.013159 19293.700000 0 0 1
8.946208 10.715895 -30.905671 33.912026 0.875161 2.717344 0.060427 -0.009318 158958.000000 0 0 1
8.901108 9.686795 -29.937341 32.700276 0.827642 2.727563 0.050330 -0.007532 11797.400000 0 0 1
9.777408 8.461295 -30.206431 32.857566 0.713363 2.737131 0.043354 -0.010383 -347693.000000 0 0 1
11.082408 8.528295 -29.724311 32.849448 0.655886 2.701858 0.054494 -0.011630 42625.200000 0 0 1
11.844908 7.279195 -29.714221 32.805844 0.551044 2.703966 0.034517 -0.005268 -20099.900000 0 0 1
13.223708 7.313495 -29.095081 32.785323 0.505189 2.662562 0.032972 -0.001045 -283482.000000 0 0 1
13.886608 6.084495 -28.805231 32.551502 0.412961 2.657102 0.045537 -0.004091 126071.000000 0 0 1
14.928608 5.799295 -29.713951 33.755207 0.370526 2.647243 0.037294 -0.000802 39580.300000 0 0 1
15.844808 4.607295 -29.307151 33.633230 0.282973 2.628794 0.062660 -0.011984 222081.000000 0 0 1
16.563808 4.798495 -28.116401 32.983591 0.281978 2.591423 0.030644 -0.009920 32277.400000 0 0 1
17.446008 3.737895 -27.832111 33.059967 0.211064 2.571531 0.033721 -0.010624 -110304.000000 0 0 1
18.168008 3.987895 -26.500361 32.376673 0.216074 2.529594 0.026720 -0.007876 -283638.000000 0 0 1
19.065208 5.064595 -26.492451 33.030020 0.259649 2.501553 0.044016 -0.017110 -116226.000000 0 0 1
19.441608 5.361995 -25.169431 32.252556 0.269110 2.466079 0.045074 -0.014777 -301949.000000 0 0 1
20.479108 6.493595 -25.125121 33.058015 0.307055 2.434157 0.032137 -0.017612 -669076.000000 0 0 1
20.072208 7.758395 -25.674991 33.500617 0.368836 2.444020 0.040260 -0.020005 282645.000000 0 0 1
21.039508 8.581895 -26.343621 34.789311 0.387293 2.429863 0.044618 -0.022385 -609783.000000 0 0 1
21.301608 8.265295 -27.861081 36.032116 0.370130 2.454714 0.029469 -0.021352 328786.000000 0 0 1
20.206108 8.514295 -28.772751 36.175284 0.398794 2.490415 0.029214 -0.012400 1163000.000000 0 0 1
19.031808 7.726995 -28.532081 35.156732 0.385672 2.517627 0.025546 -0.006238 -165273.000000 0 0 1
17.734108 8.363395 -29.039741 35.039285 0.440670 2.547714 0.027408 0.002512 -364556.000000 0 0 1
17.654708 8.533095 -30.482861 36.245099 0.450225 2.569963 0.022346 0.001641 19016.400000 0 0 1
16.563308 9.405295 -30.696861 36.126168 0.516436 2.586236 0.013240 0.008837 -69685.700000 0 0 1
16.016308 9.203495 -32.123161 37.055686 0.521558 2.619723 0.014201 0.012169 -107493.000000 0 0 1
15.412208 7.960895 -32.221801 36.594486 0.476785 2.647733 0.029261 0.009694 697494.000000 0 0 1
14.366108 7.883395 -33.234711 37.055080 0.501883 2.683506 0.021369 0.010635 912316.000000 0 0 1
13.773608 6.506195 -33.485321 36.787356 0.441298 2.714659 0.025999 0.001653 128361.000000 0 0 1
12.939408 6.012695 -32.436451 35.435915 0.434995 2.727186 0.039522 -0.007326 90250.100000 0 0 1
12.123208 4.991095 -32.950131 35.462576 0.390550 2.762909 0.043543 -0.014353 -97238.600000 0 0 1
11.753108 3.941395 -31.909031 34.232388 0.323564 2.771047 0.045245 -0.014207 -599953.000000 0 0 1
12.788208 3.089295 -31.572141 34.203539 0.237032 2.746774 0.064690 -0.025676 -174590.000000 0 0 1
12.402608 2.131595 -30.570661 33.059547 0.170204 2.751083 0.069240 -0.023732 -248166.000000 0 0 1
11.686308 0.859395 -31.017591 33.157190 0.073406 2.780386 0.064787 -0.016347 141745.000000 0 0 1
12.415908 -0.260605 -31.605541 33.957810 -0.020987 2.767199 0.060729 -0.019343 309987.000000 0 0 1
13.264908 -1.033805 -30.778171 33.530916 -0.077778 2.733563 0.061208 -0.020695 359062.000000 0 0 1
13.768608 -2.335705 -31.498741 34.455780 -0.168040 2.724273 0.054288 -0.021922 -41128.700000 0 0 1
12.914608 -3.448205 -31.446281 34.169369 -0.260914 2.739659 0.059320 -0.018747 -347831.000000 0 0 1
13.422008 -4.587005 -32.073231 35.069688 -0.329309 2.725208 0.067586 -0.015434 -479045.000000 0 0 1
12.622508 -5.886705 -31.995481 34.895441 -0.436380 2.731028 0.064247 -0.010522 -343164.000000 0 0 1
12.726708 -6.523105 -30.744861 33.908206 -0.473639 2.706210 0.069358 -0.009748 290583.000000 0 0 1
12.349108 -7.939705 -30.808391 34.127647 -0.571394 2.696893 0.072712 -0.019394 27702.600000 0 0 1
12.523308 -8.709305 -29.552311 33.256944 -0.607664 2.665093 0.051424 -0.015838 639130.000000 0 0 1
13.885308 -8.978105 -29.169921 33.530470 -0.573974 2.625903 0.045772 -0.013278 766610.000000 0 0 1
14.084908 -9.582505 -27.962001 32.742671 -0.597408 2.594408 0.045619 -0.012954 -300270.000000 0 0 1
14.103008 -11.146905 -28.015181 33.286614 -0.668855 2.571100 0.035526 -0.011529 -218682.000000 0 0 1
12.898708 -11.834705 -28.189701 33.182769 -0.742406 2.585887 0.024820 -0.014907 -209024.000000 0 0 1
13.283608 -13.020605 -28.768831 34.258372 -0.775400 2.567638 0.022932 -0.019589 377225.000000 0 0 1
-10.049692 -3.062605 -17.771521 20.644680 0.295805 2.607691 0.002513 -0.005768 -16997.800000 0 1 0
-10.817692 -2.485605 -18.776321 21.811715 0.225852 2.607708 0.005007 -0.014020 -331693.000000 0 1 0
-11.668792 -3.357705 -19.427421 22.909814 0.280182 2.582988 0.003026 -0.007414 -74401.000000 0 1 0
-12.508892 -2.736405 -20.655921 24.302826 0.215364 2.586666 0.003612 -0.023202 143777.000000 0 1 0
-13.477992 -1.841605 -20.218921 24.369090 0.135797 2.549358 0.003701 -0.019590 -460438.000000 0 1 0
-14.412992 -1.588805 -21.241121 25.718550 0.109791 2.542605 0.006684 -0.017274 80598.800000 0 0 1
-15.225092 -0.317205 -21.100321 26.021675 0.020831 2.516442 0.010703 -0.015290 -745875.000000 0 0 1
-14.392092 0.742895 -21.278821 25.699658 -0.051572 2.546293 0.017261 -0.021272 -483206.000000 0 0 1
-14.993492 2.036795 -21.090121 25.956628 -0.135019 2.519248 0.015670 -0.013420 -353219.000000 0 0 1
-14.281492 3.161695 -21.817621 26.267202 -0.217870 2.550986 0.030710 -0.021573 132415.000000 0 0 1
-13.102892 3.621595 -21.161421 25.151689 -0.269664 2.570576 0.021941 -0.015918 207962.000000 0 0 1
-12.537492 4.636295 -21.931121 25.683808 -0.354199 2.594209 0.025850 -0.020238 44227.300000 0 0 1
-11.495592 5.500395 -21.096021 24.646400 -0.446283 2.598177 0.020005 -0.016769 485544.000000 0 1 0
-12.098192 6.146895 -19.987021 24.158467 -0.470094 2.545134 0.038512 -0.021499 519152.000000 0 1 0
-11.208292 6.269995 -18.879621 22.833719 -0.510037 2.544246 0.029333 -0.017580 533513.000000 0 1 0
-11.972092 6.892995 -17.661021 22.422221 -0.522402 2.477793 0.062378 -0.014130 167777.000000 0 1 0
-12.169192 8.310095 -17.758821 23.076451 -0.599143 2.448955 0.054346 -0.015227 114577.000000 0 1 0
-13.222492 8.683995 -16.907221 23.153837 -0.581112 2.389429 0.067410 -0.015110 -322311.000000 0 1 0
-13.587392 10.101795 -17.015221 24.003775 -0.639308 2.358671 0.066826 -0.012664 -219912.000000 0 1 0
-12.852992 10.958395 -16.156421 23.373398 -0.705999 2.333988 0.045986 -0.005974 362492.000000 0 1 0
-13.260592 12.297495 -16.415021 24.423852 -0.747733 2.307824 0.039905 -0.008912 -279666.000000 0 1 0
-12.573292 13.350895 -15.566721 24.055287 -0.815384 2.274601 0.048731 -0.003431 -346642.000000 0 1 0
-12.934392 13.380995 -14.225321 23.424544 -0.802368 2.223432 0.067246 -0.012507 -28174.600000 0 1 0
-12.411492 14.536695 -13.634921 23.479175 -0.864098 2.190414 0.064785 -0.014007 -483879.000000 0 1 0
-12.901192 14.687795 -12.137521 23.010682 -0.850066 2.126420 0.055585 -0.020812 1608930.000000 0 1 0
-14.291492 15.064295 -11.969621 23.967718 -0.811717 2.093709 0.049503 -0.011706 2420070.000000 0 1 0
-15.319692 14.069495 -12.327821 24.178892 -0.742884 2.105817 0.054395 -0.013524 513982.000000 0 1 0
-16.750992 14.426295 -11.880421 25.096974 -0.710972 2.063921 0.038277 -0.006859 -179819.000000 0 0 1
-17.682892 13.438295 -12.261221 25.369469 -0.649845 2.075224 0.035117 -0.015918 -876873.000000 0 0 1
-18.931892 13.873495 -11.835121 26.286127 -0.632409 2.037833 0.063976 -0.014574 -108414.000000 0 0 1
-20.097092 13.275295 -12.734521 27.245083 -0.583762 2.057151 0.038544 -0.018492 401299.000000 0 0 1
-20.469992 11.950595 -12.432621 26.765787 -0.528430 2.053863 0.045213 -0.022589 525485.000000 0 0 1
-21.628092 11.465595 -13.110821 27.769189 -0.487456 2.062508 0.052662 -0.017040 296005.000000 0 0 1
-22.208992 10.202695 -12.373521 27.394129 -0.430639 2.039450 0.044258 -0.018003 -564177.000000 0 0 1
-21.490192 9.092695 -12.609921 26.523867 -0.400268 2.066235 0.048029 -0.022794 -251542.000000 0 0 1
-22.023792 8.088995 -11.815121 26.269304 -0.351989 2.037303 0.046825 -0.019120 -239543.000000 0 0 1
-21.019192 6.938195 -11.640621 25.008979 -0.318827 2.054948 0.073829 -0.021248 -103387.000000 0 0 1
-20.984292 6.092895 -12.788321 25.318077 -0.282585 2.100301 0.087292 -0.017721 1184630.000000 0 0 1
-19.686792 5.459195 -12.730121 24.071322 -0.270505 2.128041 0.081612 -0.023326 903276.000000 0 1 0
-19.487492 4.304595 -13.682121 24.196948 -0.217399 2.171773 0.079998 -0.027582 608173.000000 0 1 0
-20.291992 3.098095 -13.367021 24.495721 -0.151506 2.148006 0.067245 -0.028801 916873.000000 0 1 0
-20.121392 2.188995 -14.457321 24.873203 -0.108363 2.191049 0.073331 -0.032863 9587.460000 0 1 0
-20.858292 0.827095 -14.263521 25.282414 -0.039632 2.170221 0.066479 -0.025622 -614903.000000 0 0 1
-22.204792 0.973895 -14.575821 26.579236 -0.043832 2.151236 0.065890 -0.030425 -461730.000000 0 0 1
-22.842792 -0.285505 -14.486821 27.050742 0.012498 2.135946 0.061115 -0.031644 957154.000000 0 0 1
-24.230792 -0.477205 -15.256121 28.637532 0.019692 2.132621 0.059247 -0.022490 1178240.000000 0 0 1
-25.290902 0.033295 -14.463121 29.134390 -0.001316 2.090275 0.075833 -0.031449 -600445.000000 0 0 1
-26.494232 -0.196005 -15.125321 30.508328 0.007398 2.089525 0.070664 -0.024812 -645779.000000 0 0 1
-27.739712 0.238395 -14.341621 31.228681 -0.008594 2.047942 0.077407 -0.021001 -339058.000000 0 0 1
-28.026242 -0.697105 -13.326221 31.041011 0.024868 2.014525 0.096556 -0.029155 -168882.000000 0 0 1
-29.236652 -0.276505 -12.755921 31.899401 0.009457 1.982182 0.109237 -0.034028 -71103.400000 0 0 1
-29.497342 -0.927905 -11.348521 31.618714 0.031447 1.937905 0.102828 -0.036182 -254600.000000 0 0 1
-29.740812 -2.315605 -11.241221 31.878566 0.077703 1.931173 0.108269 -0.029057 -697421.000000 0 0 1
-28.706272 -3.145905 -11.524421 31.092749 0.109154 1.950501 0.113925 -0.028078 -1369760.000000 0 0 1
-28.878982 -4.627505 -11.134021 31.294981 0.158887 1.934541 0.110002 -0.030158 -180552.000000 0 0 1
-29.793412 -5.271705 -12.005321 32.550975 0.175129 1.948531 0.103439 -0.029704 354619.000000 0 0 1
-30.283872 -6.524805 -11.554221 33.063363 0.212211 1.927788 0.106051 -0.026222 -328889.000000 0 0 1
-29.520652 -7.710205 -12.091121 32.819375 0.255473 1.948099 0.100616 -0.032872 -343045.000000 0 0 1
-28.197092 -7.783605 -11.612721 31.472461 0.269335 1.948708 0.090789 -0.031167 -389124.000000 0 0 1
-27.482062 -8.819205 -12.191721 31.331776 0.310526 1.970469 0.095128 -0.029711 102731.000000 0 0 1
-25.990282 -8.828605 -11.744421 29.855828 0.327459 1.975092 0.081694 -0.033982 38501.200000 0 0 1
-25.290402 -7.714105 -12.319521 29.169889 0.296057 2.006818 0.075261 -0.031540 296381.000000 0 0 1
-23.912492 -7.625005 -12.031421 27.833488 0.308679 2.017799 0.066289 -0.027727 126644.000000 0 0 1
-23.382492 -7.440505 -10.536521 26.704313 0.308077 1.976388 0.046343 -0.023378 -321597.000000 0 0 1
-23.763792 -6.213405 -9.834821 26.458418 0.255740 1.951645 0.058832 -0.019989 1999030.000000 0 0 1
-25.187002 -5.934605 -9.638121 27.613366 0.231401 1.927341 0.065149 -0.026364 1271240.000000 0 0 1
-25.532882 -4.544705 -9.040521 27.464767 0.176149 1.906219 0.074826 -0.032165 -364774.000000 0 0 1
-25.352412 -4.457205 -7.594821 26.838271 0.174031 1.857701 0.063175 -0.028309 249701.000000 0 0 1
-25.641842 -3.146905 -7.158321 26.807622 0.122115 1.841102 0.086795 -0.027561 -98554.600000 0 0 1
-25.440052 -2.915305 -5.618821 26.215766 0.114097 1.786802 0.076630 -0.024581 -620395.000000 0 0 1
-24.130392 -3.146905 -5.216021 24.887461 0.129681 1.781946 0.048818 -0.014757 -574999.000000 0 1 0
-24.013192 -2.948305 -3.837921 24.496031 0.122167 1.728120 0.033523 -0.011991 63754.900000 0 1 0
-22.667892 -3.466005 -3.286121 23.165602 0.151729 1.713130 0.019176 -0.004461 -143062.000000 0 1 0
-22.642092 -4.881005 -3.392921 23.409409 0.212323 1.716247 0.029865 -0.008704 -33728.500000 0 1 0
-21.435492 -5.431405 -2.961621 22.310349 0.248161 1.703936 0.020734 -0.010513 -626434.000000 0 1 0
-21.508992 -6.954905 -2.869821 22.786911 0.312738 1.697073 0.029346 -0.007124 -43722.800000 0 1 0
-22.216292 -7.324805 -1.697021 23.454131 0.318481 1.643214 0.042032 -0.003717 661803.000000 0 1 0
-22.779692 -8.615605 -1.934221 24.431214 0.361586 1.650049 0.033471 -0.009944 40531.300000 0 1 0
-23.007292 -9.410705 -0.581921 24.864342 0.388268 1.594202 0.027140 -0.010037 529673.000000 0 1 0
-21.814392 -10.074605 -0.131921 24.028790 0.432651 1.576286 0.008668 0.006135 697446.000000 0 1 0
-21.938692 -10.748705 1.116279 24.455816 0.455570 1.525136 -0.011795 0.011842 -234546.000000 0 1 0
-20.600092 -11.219005 1.695779 23.518196 0.498695 1.498629 -0.007443 0.008762 -103105.000000 0 1 0
-19.906892 -12.113205 0.851779 23.318225 0.546641 1.534260 -0.009070 0.020689 -237029.000000 0 1 0
-18.760692 -12.613505 1.449879 22.653173 0.591918 1.506749 -0.027841 0.018276 -840648.000000 0 1 0
-18.149792 -13.792905 0.711979 22.807150 0.649838 1.539574 -0.013950 0.019292 -551596.000000 0 1 0
-18.847392 -14.974605 0.957679 24.091080 0.671390 1.531033 -0.007051 0.021241 142562.000000 0 1 0
-18.309892 -16.171305 0.402879 24.432060 0.723456 1.554306 0.001156 0.019240 375994.000000 0 1 0
-17.193892 -16.851705 1.278279 24.109000 0.775348 1.517751 -0.000975 0.018496 956646.000000 0 1 0
-15.871592 -16.285605 1.179579 22.771029 0.798272 1.518971 -0.002820 0.019993 1141720.000000 0 1 0
-14.909592 -16.833405 2.079279 22.582800 0.845930 1.478592 0.013427 0.008892 501402.000000 0 1 0
-15.188892 -16.452005 3.567579 22.673741 0.825297 1.412796 0.027427 -0.006470 -601890.000000 0 1 0
-14.763192 -15.108305 3.881579 21.477416 0.796951 1.389069 0.002406 -0.004848 21147.300000 0 1 0
-14.012292 -15.013105 5.065479 21.151755 0.819865 1.328963 -0.007463 -0.003166 -370589.000000 0 1 0
-14.707392 -15.471205 6.410579 22.288138 0.810703 1.279052 0.024471 -0.002470 -543284.000000 0 1 0
-15.767992 -14.659405 6.882479 22.603014 0.748980 1.261389 0.018161 -0.001137 278664.000000 0 1 0
-16.142592 -14.975805 8.222279 23.504551 0.747921 1.213421 0.027174 -0.005963 -209905.000000 0 1 0
-16.978292 -16.219105 8.536779 24.983962 0.762533 1.222081 0.021732 -0.002277 -733127.000000 0 1 0
-16.363992 -17.449105 8.310379 25.324177 0.817479 1.236441 0.025349 0.000871 -196669.000000 0 0 1
-17.033792 -18.542805 8.924479 26.713892 0.827789 1.230171 0.036724 -0.000398 73735.100000 0 0 1
-16.513392 -18.821905 10.375679 27.103707 0.850637 1.177956 0.034136 0.002578 956387.000000 0 0 1
-15.181792 -19.357805 10.519179 26.755646 0.905719 1.166733 0.022274 0.003348 692148.000000 0 0 1
-15.015392 -19.844005 11.805379 27.542940 0.923039 1.127835 0.026792 0.000485 135479.000000 0 0 1
-13.615892 -20.459605 12.037079 27.365658 0.983601 1.115353 0.022078 0.003702 362413.000000 0 0 1
-12.525692 -19.555005 11.960979 26.121949 1.001103 1.095176 0.011399 0.000937 -100881.000000 0 0 1
-11.343592 -20.208905 12.391479 26.279758 1.059306 1.079781 0.014960 0.004250 212000.000000 0 0 1
-10.138692 -19.290605 12.640379 25.193248 1.086897 1.045191 0.021757 -0.005466 -51523.900000 0 0 1
-9.567992 -18.851005 11.448379 24.041054 1.101120 1.074467 0.020036 0.000948 -180988.000000 0 1 0
-8.487892 -17.982705 11.780679 23.112906 1.129796 1.035959 0.019767 -0.004807 325017.000000 0 1 0
-7.719592 -17.354905 10.577979 21.741170 1.152269 1.062670 0.010449 -0.008494 -86376.900000 0 1 0
-6.832692 -18.278205 10.019679 21.935643 1.213064 1.096428 0.016613 -0.004703 -449613.000000 0 1 0
-6.152892 -17.610105 8.977779 20.702039 1.234660 1.122239 0.020496 -0.004813 -487444.000000 0 1 0
-5.054092 -18.461905 8.330779 20.875528 1.303585 1.160295 0.018640 -0.002301 -7560.500000 0 1 0
-3.942592 -18.561705 9.216779 21.095733 1.361502 1.118644 0.034957 0.000244 -497445.000000 0 1 0
-2.840892 -18.975505 8.470079 20.973381 1.422186 1.155076 0.037308 -0.010352 -205922.000000 0 1 0
-1.516892 -19.254205 9.200479 21.393322 1.492176 1.126234 0.033116 -0.011648 202592.000000 0 1 0
-0.476092 -19.615005 8.321179 21.312370 1.546529 1.169688 0.047316 -0.008942 137563.000000 0 1 0
0.763808 -19.722405 9.015079 21.698579 -1.532088 1.142338 0.047886 -0.018751 252866.000000 0 1 0
1.946208 -20.261005 8.199279 21.943661 -1.475033 1.187854 0.045634 -0.025470 -278048.000000 0 1 0
1.889108 -21.602705 7.796679 23.044171 -1.483570 1.225648 0.054548 -0.021926 -119775.000000 0 1 0
2.131808 -22.538505 8.853879 24.308846 -1.476492 1.197996 0.053004 -0.023581 -330288.000000 0 1 0
1.798408 -23.953305 8.442679 25.461224 -1.495857 1.232808 0.052582 -0.016487 33065.600000 0 0 1
2.052208 -24.984905 9.377779 26.765646 -1.488842 1.212834 0.045561 -0.009146 -167656.000000 0 0 1
1.509208 -26.215775 8.965879 27.747641 -1.513291 1.241769 0.050422 -0.008286 -963056.000000 0 0 1
1.603408 -27.413985 9.977579 29.217283 -1.512374 1.222288 0.044968 -0.003595 261423.000000 0 0 1
0.817408 -27.342595 11.154779 29.541746 -1.540910 1.183600 0.037929 -0.007049 295690.000000 0 0 1
-0.589392 -27.224125 10.950079 29.349696 1.549150 1.188459 0.018179 0.002023 212473.000000 0 0 1
-1.317692 -27.326595 12.311579 30.000902 1.522614 1.147933 0.018632 -0.005456 -69404.900000 0 0 1
-1.096892 -28.603355 12.920879 31.405481 1.532467 1.146784 0.010642 -0.011001 -101732.000000 0 0 1
-1.245592 -28.503485 14.297679 31.912753 1.527124 1.106242 0.014255 -0.016493 -307473.000000 0 0 1
-0.867692 -29.789705 15.074879 33.398075 1.541677 1.102497 0.003553 -0.007744 96006.500000 0 0 1
-0.989692 -29.551155 16.427579 33.824779 1.537318 1.063670 0.012546 -0.007445 -45269.700000 0 0 1
-0.320292 -30.484595 17.238479 35.022540 1.560290 1.056168 0.011035 -0.004510 -24607.600000 0 0 1
-0.634192 -30.313365 18.753179 35.650863 1.549878 1.016879 0.025828 -0.006531 1300730.000000 0 0 1
-1.971492 -30.772385 19.075279 36.258692 1.506817 1.016802 0.009356 -0.003163 964636.000000 0 0 1
-2.546692 -30.238785 20.243279 36.478215 1.486775 0.982504 0.032852 -0.010031 1149300.000000 0 0 1
-4.055592 -30.671285 20.479979 37.102630 1.439331 0.986057 0.057174 -0.018291 1424120.000000 0 0 1
-4.984792 -29.868975 19.698179 36.125090 1.405432 0.994077 0.042655 -0.020107 1097140.000000 0 0 1
-6.181192 -29.527375 20.420679 36.429071 1.364439 0.975734 0.055420 -0.022797 776070.000000 0 0 1
-5.966792 -28.335235 21.399179 36.005736 1.363250 0.934368 0.076755 -0.028265 -586572.000000 0 0 1
-5.164792 -28.669535 22.491879 36.803559 1.392559 0.913305 0.079553 -0.028808 -165804.000000 0 0 1
-5.180292 -27.681045 23.574479 36.726445 1.385794 0.873831 0.081587 -0.028486 -419495.000000 0 0 1
-4.262292 -28.022915 24.768779 37.642308 1.419853 0.852632 0.085755 -0.033898 -116477.000000 0 0 1
-4.459892 -29.228805 25.480679 39.031766 1.419379 0.859496 0.080033 -0.029104 182843.000000 0 0 1
-3.791792 -30.348295 24.883279 39.428090 1.446498 0.887819 0.073632 -0.027416 109876.000000 0 0 1
-4.090592 -31.612445 25.693779 40.942032 1.442113 0.892375 0.075419 -0.027288 10998.200000 0 0 1
-3.495592 -31.553265 26.958379 41.648313 1.460462 0.866778 0.082241 -0.026416 19354.200000 0 0 1
-3.628692 -32.733085 27.705779 43.037571 1.460390 0.871397 0.082059 -0.032654 -179116.000000 0 0 1
-3.342792 -32.582555 29.186979 43.871140 1.468560 0.842916 0.091696 -0.029166 -581872.000000 0 0 1
-1.964292 -32.408265 29.317579 43.745566 1.510260 0.836340 0.087285 -0.036222 -491169.000000 0 0 1
-1.613892 -32.220155 30.691779 44.527838 1.520749 0.810313 0.079711 -0.033261 83612.300000 0 0 1
-28.308482 2.990695 -10.367721 30.295281 -0.105256 1.920077 0.082239 -0.028060 255250.000000 0 0 1
-28.886592 2.827895 -11.687421 31.289423 -0.097585 1.953604 0.085663 -0.045541 362340.000000 0 0 1
-29.599962 4.016595 -12.071821 32.218312 -0.134872 1.954857 0.069219 -0.034161 268503.000000 0 0 1
-30.564632 3.789695 -13.279521 33.539591 -0.123360 1.977883 0.071281 -0.026403 -252741.000000 0 0 1
-31.675022 3.005395 -12.971321 34.359781 -0.094599 1.957907 0.086700 -0.032403 -497541.000000 0 0 1
-32.401292 2.769395 -14.143521 35.461986 -0.085265 1.981044 0.087383 -0.026268 -477938.000000 0 0 1
-33.589372 1.863695 -13.833721 36.374319 -0.055428 1.960934 0.076266 -0.028183 -167598.000000 0 0 1
-33.168042 0.551195 -13.491821 35.811340 -0.016617 1.957079 0.072230 -0.024963 -310653.000000 0 0 1
-34.227934 -0.132805 -12.932621 36.589913 0.003880 1.932050 0.070427 -0.025797 -411364.000000 0 0 1
-33.779402 -1.536105 -12.478021 36.043149 0.045443 1.924310 0.061427 -0.028858 93283.400000 0 0 1
-33.699892 -2.469305 -13.571721 36.413895 0.073143 1.952721 0.059242 -0.024835 111829.000000 0 0 1
-33.074292 -3.710905 -13.269521 35.829594 0.111732 1.950183 0.070558 -0.025768 245608.000000 0 0 1
-33.701672 -4.972605 -13.972221 36.820544 0.146491 1.960018 0.056424 -0.024725 45162.900000 0 0 1
-33.261662 -6.174105 -13.434921 36.399929 0.183533 1.948828 0.063891 -0.028788 -338000.000000 0 0 1
-34.032242 -7.245305 -13.822921 37.440100 0.209764 1.948945 0.062512 -0.028336 -612854.000000 0 0 1
-33.582552 -8.452805 -13.035121 37.002055 0.246580 1.930804 0.074627 -0.040005 -98038.400000 0 0 1
-32.278962 -8.969205 -13.196221 36.007197 0.271028 1.946028 0.071468 -0.037187 175988.000000 0 0 1
-32.005612 -9.639105 -14.424021 36.404998 0.292529 1.978182 0.054561 -0.030509 -726573.000000 0 0 1
-30.700102 -10.426605 -14.422821 35.485604 0.327405 1.989352 0.053055 -0.028191 -541618.000000 0 0 1
-30.806692 -11.619905 -13.620221 35.631235 0.360687 1.963032 0.057473 -0.026657 215416.000000 0 0 1
-29.551152 -12.227705 -13.409021 34.678368 0.392330 1.967812 0.056873 -0.024836 -163916.000000 0 0 1
-29.593332 -13.677305 -14.065621 35.505995 0.432933 1.978114 0.056266 -0.022806 -120436.000000 0 0 1
-29.590252 -13.763405 -15.489321 36.123862 0.435367 2.013942 0.051887 -0.024271 139108.000000 0 0 1
-29.727472 -15.038705 -16.136721 37.017280 0.468345 2.021861 0.051453 -0.022575 -79075.900000 0 0 1
-28.686222 -16.183905 -15.891821 36.570043 0.513657 2.020344 0.034738 -0.012690 -169836.000000 0 0 1
-27.444062 -15.989205 -16.472821 35.779674 0.527535 2.049238 0.040993 -0.019877 -357709.000000 0 0 1
-26.560542 -17.119305 -16.500421 35.648238 0.572527 2.052024 0.038258 -0.021891 287516.000000 0 0 1
-25.139062 -16.813405 -16.983521 34.685775 0.589489 2.082472 0.029571 -0.028921 -127580.000000 0 0 1
-25.086062 -16.373705 -18.359921 35.135387 0.578272 2.120633 0.051857 -0.028574 1200440.000000 0 0 1
-23.721892 -16.264105 -18.852821 34.390088 0.601007 2.151013 0.031273 -0.020474 955940.000000 0 0 1
-23.826292 -15.780805 -20.366521 35.093036 0.584992 2.189964 0.062190 -0.022267 285586.000000 0 0 1
-24.454792 -16.785705 -21.216121 36.468075 0.601538 2.191702 0.062184 -0.033012 -53699.000000 0 0 1
-25.837032 -16.563405 -21.327821 37.373447 0.570074 2.178115 0.069001 -0.035570 -1280.200000 0 0 1
-26.647852 -17.702905 -22.107221 38.887402 0.586382 2.175469 0.076880 -0.038567 433598.000000 0 0 1
-26.195752 -17.678605 -23.442521 39.348472 0.593657 2.209017 0.076549 -0.022597 -30102.500000 0 0 1
-26.846042 -18.609605 -24.268021 40.693540 0.606146 2.209756 0.057436 -0.015775 -439185.000000 0 0 1
-26.091342 -18.950605 -25.565491 41.151888 0.628171 2.241129 0.073003 -0.013493 572470.000000 0 0 1
-24.774492 -19.479605 -25.378391 40.463480 0.666317 2.248740 0.086765 -0.020433 345900.000000 0 0 1
-24.634792 -20.836205 -25.080231 40.866103 0.702053 2.231556 0.057721 -0.015376 240425.000000 0 0 1
-23.143792 -21.251305 -24.849821 40.059539 0.742796 2.239950 0.049119 -0.010219 434695.000000 0 0 1
-22.371892 -21.282505 -26.012411 40.374399 0.760449 2.270878 0.048466 -0.018196 -1494030.000000 0 0 1
-21.126292 -21.752405 -25.661231 39.723873 0.799999 2.273116 0.035705 -0.020121 -1098110.000000 0 0 1
-20.120092 -21.356505 -26.756501 39.709303 0.815199 2.310149 0.025067 -0.020755 -659416.000000 0 0 1
-19.969492 -22.315705 -27.847411 40.893148 0.840827 2.319896 0.027249 -0.010870 -629496.000000 0 0 1
-20.857092 -22.146405 -28.905081 41.964095 0.815371 2.330636 0.050488 -0.010507 -206009.000000 0 0 1
-20.096692 -22.186605 -30.288961 42.585721 0.834784 2.362067 0.043154 -0.016926 346831.000000 0 0 1
-19.854092 -23.495905 -30.757931 43.500492 0.869211 2.356144 0.034165 -0.023714 159373.000000 0 0 1
-19.022192 -23.574605 -31.905861 43.995338 0.891866 2.382136 0.030080 -0.023347 2395.490000 0 0 1
-18.867992 -24.995105 -32.505591 45.137233 0.924187 2.374815 0.032943 -0.019896 32493.100000 0 0 1
-18.201892 -25.127735 -33.757821 45.850871 0.943898 2.398312 0.034120 -0.016429 -172026.000000 0 0 1
-19.006892 -24.734705 33.774682 45.976046 0.915604 0.745698 0.039836 -0.009935 -277061.000000 0 0 1
-18.396992 -24.767105 32.362503 44.712308 0.931920 0.761511 0.035104 -0.004502 -482696.000000 0 0 1
-17.669892 -23.598205 32.150033 43.620236 0.928076 0.742110 0.028734 -0.006093 -801161.000000 0 0 1
-17.019992 -23.681705 30.945463 42.522053 0.947631 0.755759 0.037201 0.001093 -362767.000000 0 0 1
-16.147192 -22.465105 30.600833 41.253167 0.947585 0.735074 0.029524 0.006057 -398524.000000 0 0 1
-16.894492 -21.301105 30.369233 40.760904 0.900260 0.730175 0.028630 -0.004350 -91049.100000 0 0 1
-16.159192 -20.126205 30.020983 39.590947 0.894294 0.710127 0.031036 -0.010742 -60071.100000 0 0 1
-15.304892 -19.478005 31.126263 39.780355 0.904803 0.672201 0.026525 -0.011112 -130565.000000 0 0 1
-15.185292 -18.080205 30.996413 38.964914 0.872204 0.650972 0.033317 -0.014934 25548.000000 0 0 1
-14.387892 -17.534905 32.041263 39.257189 0.883663 0.616013 0.027253 -0.015192 281603.000000 0 0 1
-13.796392 -16.103505 31.920593 38.322155 0.862407 0.586371 0.032181 -0.010080 302101.000000 0 0 1
-12.822592 -15.981205 30.882923 37.061742 0.894621 0.585776 0.051683 -0.017350 142017.000000 0 0 1
-12.502492 -14.640005 30.611853 36.162517 0.863988 0.561405 0.044620 -0.017106 368493.000000 0 0 1
-10.984092 -14.544005 30.282363 35.344022 0.923955 0.541786 0.054275 -0.023218 499041.000000 0 0 1
-10.603392 -13.213305 30.005693 34.458163 0.894546 0.513997 0.065504 -0.024330 -868281.000000 0 0 1
-9.236592 -13.003105 30.152193 34.110851 0.953166 0.486559 0.063821 -0.025491 -456946.000000 0 0 1
-8.769992 -11.544205 30.157193 33.460988 0.921124 0.448118 0.064900 -0.020955 -121503.000000 0 0 1
-9.243992 -10.760305 31.268603 34.336003 0.861053 0.425905 0.066516 -0.016165 132614.000000 0 0 1
-8.912292 -9.423005 31.131513 33.725259 0.813245 0.394752 0.050961 -0.012537 -127570.000000 0 0 1
-9.608992 -8.606105 32.262113 34.745384 0.730396 0.380364 0.028230 -0.015046 -62024.300000 0 0 1
-10.958392 -8.367705 31.932033 34.781599 0.652141 0.407606 0.034387 -0.018497 -27093.300000 0 0 1
-11.761992 -7.869605 33.010001 35.915670 0.589665 0.405012 0.018345 -0.020224 342156.000000 0 0 1
-11.518792 -6.376505 33.461597 35.958599 0.505583 0.374860 0.006206 -0.011795 -304618.000000 0 0 1
-11.829492 -5.437005 32.451813 34.965956 0.430820 0.381526 0.019842 -0.016625 126377.000000 0 0 1
-12.129792 -4.180105 32.984201 35.391562 0.331869 0.370961 0.011339 -0.017075 -405091.000000 0 0 1
-11.884592 -2.951005 32.100003 34.356399 0.243383 0.364439 0.016023 -0.004007 191752.000000 0 0 1
-10.486992 -2.706205 32.032513 33.813939 0.252544 0.326044 0.014867 -0.009127 225532.000000 0 0 1
-10.275592 -1.595105 31.214283 32.900815 0.154003 0.321575 0.008037 -0.007296 437015.000000 0 0 1
-8.768492 -1.211905 31.093973 32.329404 0.137341 0.277344 0.027834 -0.007815 781559.000000 0 0 1
-8.241492 -0.761405 32.370893 33.412223 0.092125 0.250317 0.028928 -0.021148 676117.000000 0 0 1
-6.857192 -0.391205 32.339713 33.061022 0.056989 0.209272 0.042646 -0.021998 683236.000000 0 0 1
-6.323692 0.396895 33.548229 34.141328 -0.062681 0.186668 0.051635 -0.029111 -359304.000000 0 0 1
-6.874592 1.648095 33.815347 34.546403 -0.235296 0.206090 0.065262 -0.025337 -176016.000000 0 0 1
-6.334292 2.710195 33.028636 33.739580 -0.404291 0.205650 0.077012 -0.022996 -16792.100000 0 0 1
-7.130992 4.012395 33.320699 34.310630 -0.512519 0.240798 0.075898 -0.021940 -274727.000000 0 0 1
-8.393892 4.022095 32.729344 34.027116 -0.446845 0.277071 0.049696 -0.011200 -229880.000000 0 0 1
-9.143792 5.209395 32.899066 34.541212 -0.517857 0.309591 0.041716 -0.000081 452467.000000 0 0 1
-10.485292 5.333195 32.137523 34.222868 -0.470532 0.350894 0.030550 0.008402 350723.000000 0 0 1
-11.346292 6.338795 32.617146 35.111208 -0.509473 0.379185 0.029731 0.002995 265625.000000 0 0 1
-12.588292 6.316395 31.923393 34.892191 -0.465061 0.415499 0.013450 0.004477 -28366.700000 0 0 1
-13.450992 7.541395 32.091643 35.604429 -0.510988 0.447946 0.022638 -0.004312 -267459.000000 0 0 1
-14.085192 7.633695 33.350702 36.999125 -0.496654 0.447824 0.030879 -0.007808 630581.000000 0 0 1
-14.881992 8.865395 33.440326 37.660647 -0.537261 0.477953 0.035288 -0.006426 493201.000000 0 0 1
-15.510092 9.066895 -33.769781 38.251400 -0.529004 2.652667 0.036146 -0.003705 40813.700000 0 0 1
-14.625392 9.507595 -32.773431 37.126732 -0.576428 2.652469 0.037368 -0.012213 -169007.000000 0 0 1
-15.343392 10.017895 -31.658981 36.579625 -0.578420 2.616907 0.040507 -0.015611 -390368.000000 0 0 1
-14.436792 10.256695 -30.364581 35.151508 -0.617709 2.613600 0.051248 -0.021224 1496780.000000 0 0 1
-13.398892 11.247195 -30.489321 35.151506 -0.698315 2.620687 0.059008 -0.021700 460787.000000 0 0 1
-12.275592 10.965795 -31.303541 35.367364 -0.729101 2.657498 0.043033 -0.031506 -7732.360000 0 0 1
-11.381892 12.252795 -31.390381 35.567322 -0.822230 2.652081 0.037148 -0.023387 110465.000000 0 0 1
-11.959192 13.217795 -32.321341 36.910722 -0.835347 2.637603 0.033918 -0.022566 478995.000000 0 0 1
-11.180592 14.411195 -32.445491 37.220935 -0.910970 2.629457 0.020295 -0.021961 -120433.000000 0 0 1
-11.574892 15.482895 -31.324141 36.808965 -0.928838 2.588668 0.031358 -0.016013 -75615.500000 0 0 1
-12.760992 16.214795 -31.458121 37.621481 -0.904035 2.561067 0.039559 -0.017406 -168155.000000 0 0 1
-12.979392 17.247695 -30.501761 37.367164 -0.925679 2.525724 0.025860 -0.010111 -602479.000000 0 0 1
-14.411692 17.751795 -30.612251 38.209069 -0.888875 2.500057 0.017774 -0.017164 -903028.000000 0 0 1
-14.641092 18.433695 -31.858271 39.612019 -0.899567 2.505222 0.024183 -0.014354 -1038220.000000 0 0 1
-15.958192 18.801395 -31.989291 40.391472 -0.867013 2.484844 0.020964 -0.019118 -864785.000000 0 0 1
-16.366192 20.082795 -31.173511 40.533426 -0.887014 2.448199 0.014861 -0.019620 -764760.000000 0 0 1
-15.685992 21.252795 -31.551701 41.149015 -0.934976 2.444586 0.017276 -0.015784 82933.600000 0 0 1
-16.175292 22.486195 -30.995961 41.569443 -0.947206 2.412295 0.012021 -0.016739 1001150.000000 0 0 1
-17.611492 22.965295 -31.438371 42.731026 -0.916583 2.397536 0.026469 -0.018175 1133210.000000 0 0 1
-18.724092 22.162395 -31.060971 42.503497 -0.869295 2.390269 0.029698 -0.024545 1235030.000000 0 0 1
-19.892092 22.480195 -31.862101 43.774969 -0.846402 2.385994 0.047180 -0.027778 280812.000000 0 0 1
-21.177692 21.737795 -31.448491 43.703935 -0.798449 2.373994 0.050766 -0.034259 -676365.000000 0 0 1
-22.028292 22.465095 -30.571441 43.869569 -0.795215 2.341822 0.071109 -0.028819 904578.000000 0 0 1
-23.002192 23.332995 -31.208801 45.249516 -0.792537 2.331877 0.077239 -0.027518 -393177.000000 0 0 1
-24.200792 22.662495 -31.844511 45.971076 -0.752585 2.336033 0.080454 -0.033127 -1407430.000000 0 0 1
-23.940792 21.739495 -32.894621 46.128334 -0.737246 2.364722 0.099600 -0.027424 450601.000000 0 0 1
-25.091562 21.622995 -33.724991 47.270661 -0.711284 2.365198 0.113411 -0.025553 363785.000000 0 0 1
-24.742692 20.611395 33.742373 46.643093 -0.694559 0.762059 0.109824 -0.020725 73791.000000 0 0 1
-24.693592 19.245895 34.112668 46.301750 -0.662046 0.742550 0.100423 -0.024539 315521.000000 0 0 1
-24.262092 18.442295 33.037169 44.946879 -0.649952 0.745090 0.090274 -0.023577 -377753.000000 0 0 1
-24.009892 16.943095 33.479749 44.547020 -0.614522 0.720373 0.073853 -0.019463 -460554.000000 0 0 1
-25.125872 16.153995 33.783047 45.094958 -0.571384 0.724013 0.077355 -0.013806 133863.000000 0 0 1
-25.537882 15.354695 32.683809 44.228740 -0.541339 0.739253 0.075415 -0.014290 -334873.000000 0 0 1
-26.528772 14.193395 32.827166 44.529216 -0.491269 0.741872 0.052311 -0.007165 -626880.000000 0 0 1
-27.821552 14.555895 33.216466 45.708276 -0.482025 0.757282 0.053664 -0.000287 -361145.000000 0 0 1
-28.655742 13.416995 33.488644 46.072297 -0.437896 0.757041 0.033871 0.005834 141587.000000 0 0 1
-28.358412 12.464095 -33.962431 45.967378 -0.414105 2.402140 0.023693 0.005651 -514931.000000 0 0 1
-27.264312 11.587095 -34.080715 45.156379 -0.401863 2.426033 0.025574 -0.008409 28589.600000 0 0 1
-27.718652 10.240795 -34.244363 45.231338 -0.353900 2.429649 0.034200 -0.002203 338549.000000 0 0 1
-26.524652 9.201995 -34.082888 44.157413 -0.333930 2.452542 0.027667 -0.011149 831524.000000 0 0 1
-25.660972 8.961795 33.454535 43.104584 -0.335996 0.682299 0.017823 -0.002117 449826.000000 0 0 1
-24.740092 10.015895 33.163607 42.570120 -0.384676 0.677671 0.011366 -0.003625 -271001.000000 0 0 1
-23.519592 9.573095 32.328923 41.109301 -0.386549 0.665815 0.026384 -0.005490 -57980.500000 0 0 1
-23.844092 9.403095 30.984273 40.211741 -0.375633 0.691127 0.036649 -0.007632 289489.000000 0 0 1
-22.657992 9.064295 30.289193 38.897060 -0.380548 0.678203 0.035372 -0.000844 363479.000000 0 0 1
-22.736492 9.187995 28.749493 37.787573 -0.384043 0.706223 0.055852 -0.009466 17799.500000 0 0 1
-22.909992 10.447295 28.184023 37.793556 -0.427845 0.729157 0.047409 -0.008122 191895.000000 0 0 1
-22.938592 10.398495 26.784843 36.765956 -0.425610 0.754633 0.040565 -0.006800 -762949.000000 0 0 1
-23.212392 11.777295 26.095593 36.857832 -0.469527 0.784125 0.031847 -0.005931 1493590.000000 0 0 1
-24.548892 12.326295 26.292663 38.024857 -0.465336 0.807288 0.039220 -0.009136 637304.000000 0 0 1
-25.532362 11.663995 25.573343 37.972966 -0.428521 0.831914 0.038214 -0.005242 -74706.500000 0 0 1
-26.945912 12.300195 25.857033 39.318738 -0.428227 0.853133 0.031608 -0.001088 629039.000000 0 0 1
-26.848372 13.648595 25.350613 39.367154 -0.470312 0.871142 0.038861 -0.007429 -203403.000000 0 0 1
-27.907272 14.505695 25.715913 40.626829 -0.479348 0.885402 0.032596 -0.009208 -185536.000000 0 0 1
-27.873642 15.958695 25.116173 40.773055 -0.519981 0.907142 0.030209 -0.013714 -302246.000000 0 0 1
-26.933902 16.789595 25.723073 40.853422 -0.557421 0.889703 0.045104 -0.019018 -180488.000000 0 0 1
-27.097852 18.141195 25.202483 41.213610 -0.589941 0.912830 0.024153 -0.027375 -163748.000000 0 0 1
-22.599292 -9.272105 32.159703 40.384978 0.389339 0.649596 0.018827 0.012729 137409.000000 0 0 1
-21.572192 -8.927905 31.243243 39.002657 0.392399 0.641742 0.012380 0.003567 92520.700000 0 0 1
-21.970192 -9.160005 29.883063 38.204614 0.395014 0.672632 0.015698 0.004412 12398.600000 0 0 1
-20.976992 -8.729705 28.775573 36.664364 0.394356 0.668362 0.033087 -0.002120 -841372.000000 0 0 1
-20.665692 -7.364805 28.640673 36.077685 0.342346 0.653664 0.038127 -0.005914 372523.000000 0 0 1
-19.404692 -6.994105 29.212963 35.761107 0.345939 0.614794 0.029588 -0.003797 1503320.000000 0 0 1
-18.120292 -7.424405 28.343213 34.450029 0.388865 0.604592 0.034957 -0.006393 165567.000000 0 0 1
-17.842592 -8.848605 28.401623 34.688732 0.460383 0.611555 0.029741 -0.005934 -48733.800000 0 0 1
-17.436992 -9.447105 29.677383 35.693747 0.496514 0.589093 0.036923 -0.010472 -366074.000000 0 0 1
-16.061792 -8.988705 30.233763 35.395740 0.510209 0.546855 0.036496 -0.014870 174805.000000 0 0 1
-14.973092 -9.541605 29.478113 34.412133 0.567360 0.542114 0.030631 -0.016357 -757530.000000 0 0 1
-13.783392 -9.017605 29.941623 34.173088 0.579348 0.502927 0.030428 -0.019708 -294828.000000 0 0 1
-12.517992 -9.713805 29.363773 33.365991 0.659927 0.494827 0.041975 -0.020554 242279.000000 0 0 1
-12.375692 -9.579105 27.976593 32.056307 0.658701 0.510024 0.050988 -0.019015 -822027.000000 0 0 1
-11.106392 -10.020405 27.641953 31.429891 0.734040 0.496028 0.066551 -0.011722 -660008.000000 0 0 1
-10.789892 -9.735705 26.169893 29.934412 0.734084 0.506926 0.054629 -0.008663 -74493.800000 0 0 1
-11.660592 -10.383505 25.265453 29.700669 0.727530 0.553539 0.049540 -0.009081 -101300.000000 0 0 1
-11.252792 -10.169105 23.974803 28.369477 0.734853 0.564060 0.048565 -0.008968 471633.000000 0 0 1
-12.347092 -10.767905 23.013783 28.249472 0.717185 0.618649 0.053184 -0.010901 -361359.000000 0 0 1
-12.387192 -12.164505 22.961083 28.785918 0.776328 0.647408 0.054731 -0.007051 201334.000000 0 0 1
-13.449292 -12.768205 22.213583 28.937066 0.759426 0.695628 0.044172 -0.004942 610229.000000 0 0 1
-14.792092 -12.637005 22.979483 30.109077 0.706990 0.702533 0.034530 -0.004407 -1218280.000000 0 0 1
-15.955492 -13.079705 22.377883 30.437248 0.686675 0.744814 0.018171 0.001490 264996.000000 0 0 1
-17.088492 -12.826505 23.241183 31.570372 0.643881 0.743401 0.011947 0.004200 1098790.000000 0 0 1
-18.338892 -13.729505 22.994883 32.458881 0.642640 0.783523 0.029501 -0.004445 213900.000000 0 0 1
-18.084392 -15.111505 23.192083 33.064718 0.696081 0.793416 0.022402 -0.003961 563661.000000 0 0 1
-19.288492 -15.866105 23.110083 34.027271 0.688352 0.824174 0.028764 0.000985 621618.000000 0 0 1
-20.263292 -15.986405 24.304073 35.452139 0.667957 0.815443 0.019801 -0.003965 -311005.000000 0 0 1
-19.640892 -16.643805 25.349383 36.129934 0.702986 0.793132 0.018160 0.000555 -386421.000000 0 0 1
-20.365592 -16.709305 26.522893 37.382109 0.687097 0.781997 0.011984 -0.002943 -660146.000000 0 0 1
-19.757192 -17.669505 27.569863 38.244678 0.729675 0.765724 0.011888 -0.003621 -37228.500000 0 0 1
-19.950992 -19.054205 27.260973 38.784862 0.762411 0.791363 0.017715 -0.004180 162444.000000 0 0 1
-19.875292 -19.822605 28.468733 39.980391 0.784071 0.778358 0.014951 -0.004444 -205029.000000 0 0 1
-19.800092 -21.312805 28.161553 40.488917 0.822176 0.801629 0.027284 -0.002715 438847.000000 0 0 1
-21.012492 -21.864205 27.640573 41.031325 0.805260 0.831666 0.017775 -0.004036 512646.000000 0 0 1
-20.833792 -23.221905 27.349033 41.488232 0.839552 0.851042 0.027591 0.001792 -72804.500000 0 0 1
-22.135992 -23.864605 26.841283 42.189762 0.822959 0.881229 0.027498 -0.000312 134841.000000 0 0 1
-23.063292 -24.108205 27.905253 43.495105 0.807546 0.874250 0.022697 0.005254 267685.000000 0 0 1
-24.259792 -24.665705 27.393663 44.128758 0.793695 0.901076 0.013532 0.009498 397751.000000 0 0 1
-24.997492 -25.607225 28.454473 45.719379 0.797447 0.899026 -0.004995 0.008749 -16463.400000 0 0 1
-25.675072 -24.937705 29.492953 46.378150 0.770830 0.881592 -0.003534 0.013586 114517.000000 0 0 1
-25.999992 -25.742595 30.618763 47.709427 0.780424 0.873985 -0.002834 0.016219 -240011.000000 0 0 1
-27.091942 -25.122105 31.525313 48.568909 0.747690 0.864416 -0.004708 0.019460 503736.000000 0 0 1
-28.191882 -24.806305 30.653543 48.474475 0.721604 0.886194 -0.002822 0.016065 649511.000000 0 0 1
-29.268442 -24.166405 31.347783 49.227435 0.690205 0.880462 0.006312 0.008047 314151.000000 0 0 1
-30.537562 -23.947905 30.478083 49.345298 0.665039 0.905046 0.009383 0.003521 112190.000000 0 0 1
-31.427742 -25.058915 30.570093 50.499335 0.673123 0.920583 0.009583 0.000115 425061.000000 0 0 1
-32.456302 -24.892705 29.567373 50.470664 0.654268 0.944889 0.009017 -0.003801 771870.000000 0 0 1
-33.667772 -25.854955 29.741763 51.832134 0.654887 0.959647 0.024494 -0.009363 320557.000000 0 0 1
-33.179082 -27.187305 29.828373 52.246846 0.686465 0.963180 0.027451 -0.011032 -64508.400000 0 0 1
-34.152978 -27.997635 30.445253 53.639602 0.686681 0.967222 0.032242 -0.017091 -51436.100000 0 0 1
-33.675772 -29.416185 30.777433 54.282778 0.717987 0.967957 0.037765 -0.016459 19610.500000 0 0 1
-32.936012 -29.374735 31.984133 54.503585 0.728307 0.943663 0.049222 -0.014570 -130631.000000 0 0 1
-32.267412 -30.580205 32.246313 54.919574 0.758559 0.943256 0.041741 -0.019068 -439650.000000 0 0 1
-31.446702 -30.597135 33.528129 55.219699 0.771706 0.918294 0.034159 -0.016043 -472096.000000 0 0 1
-32.103342 -30.361145 -33.869761 55.673911 0.757514 2.224788 0.029500 -0.007497 -176138.000000 0 0 1
-31.180152 -30.362085 -32.788241 54.489695 0.772106 2.216465 0.024294 -0.008873 192544.000000 0 0 1
-31.761222 -29.899835 -31.416431 53.756558 0.755220 2.194962 0.019686 -0.009355 -80135.400000 0 0 1
-31.979432 -28.528305 -31.246241 53.036552 0.728424 2.200797 0.024193 -0.009043 126375.000000 0 0 1
-30.818132 -27.725725 -31.104591 51.826332 0.732625 2.214509 0.036080 -0.004509 287571.000000 0 0 1
-31.248672 -26.183285 -30.946741 51.183441 0.697428 2.220090 0.033945 0.003459 252334.000000 0 0 1
-31.963082 -25.923055 -29.749361 50.780585 0.681431 2.196714 0.023155 -0.002713 55679.900000 0 0 1
-31.987132 -24.564205 -29.381701 49.898508 0.654884 2.200406 0.033349 -0.005277 161912.000000 0 0 1
-30.640922 -24.027705 -28.807741 48.436377 0.665014 2.207756 0.043018 -0.007667 185357.000000 0 0 1
-30.567612 -22.632705 -28.930501 47.786945 0.637338 2.221072 0.039437 -0.000761 -738486.000000 0 0 1
-29.332082 -22.151105 -28.555241 46.545078 0.646810 2.231277 0.053321 -0.008105 -878098.000000 0 0 1
-29.066742 -20.616905 -28.699801 45.755992 0.616937 2.248795 0.061022 -0.018707 -198232.000000 0 0 1
-28.853432 -20.149905 -30.018991 46.256665 0.609620 2.277021 0.078709 -0.006485 204477.000000 0 0 1
-28.470242 -18.809105 -30.017681 45.446653 0.583832 2.292286 0.076371 -0.011842 -443162.000000 0 0 1
-28.055362 -18.306005 -31.381611 45.902273 0.578128 2.323564 0.090409 -0.006274 382207.000000 0 0 1
-29.040442 -18.076605 -32.396111 47.112832 0.556773 2.329014 0.077226 -0.011213 516460.000000 0 0 1
-30.034732 -17.069005 -32.240121 47.253163 0.516791 2.321680 0.048705 -0.009323 114127.000000 0 0 1
-30.747972 -16.649405 -33.574571 48.475687 0.496278 2.335893 0.039053 -0.018240 39250.500000 0 0 1
-31.603262 -17.648205 -34.075901 49.713100 0.509292 2.326019 0.040628 -0.022262 1279430.000000 0 0 1
-32.988422 -17.195005 -34.075061 50.448131 0.480498 2.312368 0.037415 -0.018834 1192550.000000 0 0 1
-33.792942 -17.884905 33.440287 50.794543 0.486773 0.852180 0.036709 -0.023409 -678560.000000 0 0 1
-34.215672 -19.153705 33.821512 51.782925 0.510331 0.859072 0.011815 -0.013268 327841.000000 0 0 1
-35.020625 -19.725705 32.747690 51.845529 0.512966 0.887130 0.022177 -0.011053 137731.000000 0 0 1
-35.357025 -21.218405 33.087939 52.869194 0.540507 0.894581 0.008944 -0.005586 -150495.000000 0 0 1
-34.238630 -22.077505 33.050293 52.459717 0.572720 0.889227 0.024647 -0.001894 25225.800000 0 0 1
-34.465367 -23.357605 33.584214 53.491483 0.595611 0.892018 0.022619 -0.005291 -510475.000000 0 0 1
-33.167502 -24.196405 33.703475 53.117544 0.630266 0.883425 0.022464 -0.001541 496861.000000 0 0 1
-32.201712 -24.089705 -33.892241 52.592282 0.642276 2.271079 0.006261 -0.003098 292316.000000 0 0 1
-31.507662 -22.850405 -33.926601 51.632238 0.627461 2.287737 0.023856 -0.005159 -81053.100000 0 0 1
-30.119582 -22.902205 -33.189431 50.331288 0.650109 2.290843 0.035931 -0.001745 -316411.000000 0 0 1
-29.165002 -23.716805 -33.775481 50.535802 0.682734 2.302781 0.032883 0.003670 466900.000000 0 0 1
-27.855842 -23.613605 -33.183851 49.342864 0.703162 2.308399 0.045927 -0.002036 1003000.000000 0 0 1
-27.659182 -24.067705 -31.683221 48.457314 0.716078 2.283442 0.042835 0.006161 -831674.000000 0 0 1
-27.634602 -25.457635 -31.453521 49.000881 0.744418 2.267766 0.044257 -0.001007 65428.200000 0 0 1
-27.221922 -25.685815 -30.118521 48.040810 0.756373 2.248411 0.046790 -0.003231 -135174.000000 0 0 1
-26.636982 -27.076375 -29.874191 48.323143 0.793578 2.237269 0.046045 -0.009083 -411052.000000 0 0 1
-27.584932 -28.070805 -30.062981 49.524553 0.794128 2.223117 0.042135 -0.006951 -94030.100000 0 0 1
-27.202152 -29.257145 -29.411261 49.608063 0.821780 2.205418 0.039187 -0.014569 -142138.000000 0 0 1
-28.053202 -30.458105 -29.825881 51.031965 0.826477 2.195004 0.037167 -0.002140 -247994.000000 0 0 1
-27.711892 -30.918475 -31.106231 51.879655 0.840035 2.213778 0.037575 -0.011377 237601.000000 0 0 1
-28.068482 -32.248095 -31.383191 53.034743 0.854582 2.204022 0.037705 -0.003573 -314588.000000 0 0 1
-27.787192 -32.680795 -32.870921 54.043129 0.866151 2.224631 0.034889 -0.009227 -1730.650000 0 0 1
-26.396222 -32.625485 -33.099021 53.448367 0.890551 2.238610 0.019160 -0.009005 -245346.000000 0 0 1
-26.101872 -33.088105 34.211010 54.281891 0.902885 0.888925 0.026438 -0.012842 466322.000000 0 0 1
-24.669892 -33.673525 34.017150 53.848643 0.938512 0.887029 0.034044 -0.013316 374504.000000 0 0 1
-24.336392 -34.176406 32.766071 53.234408 0.952008 0.907769 0.033530 -0.007047 170439.000000 0 0 1
-23.393092 33.476038 32.913865 52.451925 -0.960875 0.892451 0.035177 0.001357 -153696.000000 0 0 1
-23.413692 32.678022 31.598803 51.132558 -0.949084 0.904628 0.045277 -0.007646 1451810.000000 0 0 1
-24.730792 32.081195 31.364603 51.230396 -0.914065 0.911923 0.051855 -0.028983 1294220.000000 0 0 1
-24.634692 31.266255 30.204003 49.967275 -0.903477 0.921689 0.052052 -0.018383 112413.000000 0 0 1
-26.007892 30.834055 29.610493 50.039292 -0.870100 0.937575 0.057160 -0.019899 60249.500000 0 0 1
-26.617062 30.051555 30.615503 50.486365 -0.845931 0.919257 0.062785 -0.026203 -186032.000000 0 0 1
-27.863702 29.550855 30.190963 50.607640 -0.814775 0.931577 0.060560 -0.027672 -9726.280000 0 0 1
-28.393062 28.458895 31.103993 50.828467 -0.786556 0.912285 0.067831 -0.041376 -141872.000000 0 0 1
-27.616492 27.255745 31.018653 49.675981 -0.778824 0.896408 0.065674 -0.034157 57910.700000 0 0 1
-28.108992 26.052455 31.573033 49.655838 -0.747446 0.881703 0.054979 -0.027405 84918.400000 0 0 1
-29.004782 25.256795 30.582593 49.137339 -0.716435 0.899004 0.037213 -0.024835 387576.000000 0 0 1
-28.290792 24.843575 29.450333 47.800568 -0.720612 0.907004 0.031873 -0.017850 96868.200000 0 0 1
-29.184262 24.041555 28.698503 47.469165 -0.689077 0.921569 0.021296 -0.011018 372217.000000 0 0 1
-28.555992 23.742655 27.332263 46.110855 -0.693621 0.936326 0.020226 -0.016419 405473.000000 0 0 1
-27.455752 22.823615 27.465143 45.045198 -0.693530 0.915084 0.043723 -0.017518 327857.000000 0 0 1
-26.888832 22.686915 26.175323 43.850347 -0.700843 0.931135 0.038331 -0.011188 119805.000000 0 0 1
-25.487192 21.995415 26.242143 42.685423 -0.711992 0.908689 0.036696 -0.011050 207125.000000 0 0 1
-25.474802 20.753115 26.871703 42.446976 -0.683612 0.885290 0.057261 -0.025904 -255690.000000 0 0 1
-24.192492 20.358515 27.243463 41.736700 -0.699552 0.859593 0.050771 -0.017175 -647396.000000 0 0 1
-24.285392 19.059815 28.125773 41.762614 -0.665420 0.831906 0.070681 -0.021819 397358.000000 0 0 1
-23.063092 18.376215 28.438973 40.967874 -0.672775 0.803520 0.058680 -0.016702 707487.000000 0 0 1
-23.318492 17.113215 29.107743 41.035045 -0.633111 0.782237 0.064441 -0.014557 1003020.000000 0 0 1
-22.007292 16.224315 29.202343 40.004077 -0.635275 0.752498 0.061130 -0.014181 1308850.000000 0 0 1
-20.934992 16.684615 30.043263 40.239880 -0.672892 0.727853 0.078852 -0.008362 531091.000000 0 0 1
-19.935992 15.686315 30.020273 39.302940 -0.666661 0.701589 0.057503 -0.008972 834713.000000 0 0 1
-18.528092 16.035715 30.641793 39.234600 -0.713413 0.674548 0.043357 -0.011303 685718.000000 0 0 1
-18.545292 15.983415 32.076643 40.352304 -0.711338 0.651929 0.031451 -0.005992 -53231.800000 0 0 1
-17.557392 16.728615 32.724237 40.730631 -0.761230 0.637761 0.031843 -0.016979 -1139800.000000 0 0 1
-17.640892 16.563115 34.268702 41.950945 -0.753898 0.614823 0.027909 -0.025459 -61240.400000 0 0 1
-18.593192 17.176615 -33.498331 41.986677 -0.745816 2.494488 0.045077 -0.026430 592303.000000 0 0 1
-19.936292 16.775915 -33.791461 42.670246 -0.699525 2.484745 0.058440 -0.024916 9619.520000 0 0 1
-20.970192 17.516215 -32.919461 42.781510 -0.695893 2.448821 0.069787 -0.033186 -175165.000000 0 0 1
-21.124092 16.949615 -31.648311 41.654919 -0.676192 2.433761 0.068995 -0.037337 209348.000000 0 0 1
-21.977192 17.767415 -30.847531 41.835967 -0.679871 2.399928 0.058482 -0.034200 -588068.000000 0 0 1
-22.003392 17.419815 -29.313471 40.581754 -0.669652 2.377964 0.057861 -0.031520 23892.200000 0 0 1
-22.838692 16.326215 -28.851501 40.256183 -0.620622 2.369851 0.057808 -0.029110 -188958.000000 0 0 1
-24.194992 16.583615 -29.119441 41.332260 -0.600870 2.352544 0.070198 -0.029055 -849862.000000 0 0 1
-25.037042 15.579815 -28.305711 40.875388 -0.556634 2.335728 0.061195 -0.024441 -89364.100000 0 0 1
-24.756692 14.255115 -28.676801 40.477907 -0.522442 2.358104 0.027541 -0.014310 700647.000000 0 0 1
-25.770722 13.464915 -28.013591 40.375677 -0.481476 2.337581 0.003320 -0.002959 706939.000000 0 0 1
-25.536042 11.937615 -28.059901 39.773787 -0.437296 2.353907 0.013469 -0.010843 -296856.000000 0 0 1
-24.586692 11.404615 -27.187041 38.388876 -0.434314 2.357743 0.011198 -0.008213 -99058.600000 0 0 1
-23.890092 10.311615 -27.819201 38.091650 -0.407471 2.389591 0.001686 0.000339 750718.000000 0 0 1
-22.692092 9.694615 -27.010831 36.585538 -0.403753 2.401332 0.039641 -0.005760 663984.000000 0 0 1
-23.139292 8.705115 -26.058791 35.920279 -0.359827 2.382501 0.022429 -0.000245 13401.600000 0 0 1
-22.062392 8.193715 -25.308201 34.559964 -0.355601 2.392487 0.061818 0.001922 -378246.000000 0 0 1
-22.387692 7.138315 -24.278821 33.787948 -0.308659 2.372532 0.055141 0.012700 -29174.100000 0 0 1
-22.915792 5.954815 -24.889521 34.352315 -0.254234 2.381159 0.051494 -0.002877 411690.000000 0 0 1
-22.951692 4.867915 -23.919621 33.505597 -0.208997 2.365847 0.046630 0.008623 -339941.000000 0 0 1
34.893995 24.568195 -10.762821 44.011651 0.613460 1.817847 -0.013602 0.003901 107437.000000 0 0 1
35.831205 23.969295 -9.895821 44.230415 0.589582 1.796440 0.005967 -0.006711 -47755.000000 0 0 1
-35.625091 22.713095 -10.256621 43.476776 -0.567580 1.808952 0.027204 -0.007030 -264234.000000 0 0 1
-34.629224 22.108895 -9.251721 42.113901 -0.568210 1.792286 0.035637 -0.012149 -345782.000000 0 0 1
-35.183007 21.438995 -8.107321 41.990512 -0.547271 1.765092 0.022918 -0.016780 -81946.600000 0 0 1
-34.116290 20.940395 -7.351521 40.699708 -0.550501 1.752422 0.023435 -0.012422 -346180.000000 0 0 1
-34.528884 19.960395 -6.232021 40.367057 -0.524145 1.725800 0.017957 -0.012286 -285577.000000 0 0 1
-35.135573 18.780695 -6.614321 40.385297 -0.490881 1.735318 0.021511 -0.020527 85458.200000 0 0 1
-35.528375 17.953995 -5.590721 40.197854 -0.467912 1.710329 0.031809 -0.031551 -184665.000000 0 0 1
35.427575 16.777995 -6.024721 39.659948 0.442294 1.723296 0.032915 -0.020079 331569.000000 0 0 1
34.197245 17.261695 -6.554621 38.863617 0.467455 1.740263 0.046112 -0.028293 -246503.000000 0 0 1
33.563445 16.164595 -7.111821 37.925940 0.448830 1.759432 0.067983 -0.027281 -295834.000000 0 0 1
32.364495 16.636995 -7.965121 37.251755 0.474825 1.786279 0.062698 -0.027713 -106014.000000 0 0 1
32.007155 15.663195 -8.919921 36.733617 0.455104 1.816076 0.068204 -0.024167 -135588.000000 0 0 1
31.346235 16.224995 -10.010721 36.688574 0.477633 1.847157 0.050288 -0.023026 -666373.000000 0 0 1
30.922215 15.177595 -11.066321 36.180191 0.456286 1.881645 0.034431 -0.010169 890070.000000 0 0 1
29.789295 14.295595 -10.773021 34.753764 0.447431 1.885970 0.025558 -0.006648 1320160.000000 0 0 1
29.827835 13.594095 -9.539921 34.139555 0.427627 1.854006 0.028563 -0.009705 -1018220.000000 0 0 1
28.653615 12.619995 -9.396321 32.689215 0.414869 1.862354 0.018540 0.000442 -473957.000000 0 0 1
28.863935 11.387095 -10.095321 32.629866 0.375764 1.885347 0.026797 0.001601 -318741.000000 0 0 1
27.925155 10.424695 -9.845221 31.391351 0.357287 1.889808 0.029517 0.004131 -1271200.000000 0 0 1
28.355645 9.046195 -10.401321 31.528776 0.308819 1.906993 0.023314 0.004764 -218564.000000 0 0 1
29.503525 8.572195 -9.735321 32.229132 0.282763 1.877655 0.033201 -0.003924 384032.000000 0 0 1
29.486555 7.118495 -9.645421 31.830238 0.236882 1.878664 0.038895 -0.005926 -635295.000000 0 0 1
30.585505 6.611295 -8.726621 32.485939 0.212883 1.842764 0.072576 -0.011944 291151.000000 0 0 1
31.905105 6.777295 -9.246621 33.902322 0.209309 1.847039 0.082505 -0.015870 763826.000000 0 0 1
32.952905 6.595595 -8.318421 34.620687 0.197542 1.813444 0.100651 -0.025357 -39274.400000 0 0 1
34.323715 7.077595 -8.818021 36.138169 0.203351 1.817293 0.098017 -0.025213 -190592.000000 0 0 1
34.751805 6.216995 -9.861021 36.654859 0.177024 1.843175 0.097112 -0.025981 -555178.000000 0 0 1
-35.848724 6.557895 -10.252821 37.858385 -0.180932 1.845041 0.099179 -0.027572 -1072840.000000 0 0 1
-35.240207 5.508095 -11.210921 37.388448 -0.155047 1.875332 0.091266 -0.030281 223432.000000 0 0 1
-33.899712 5.437495 -11.670421 36.262316 -0.159045 1.898461 0.082510 -0.025966 585844.000000 0 0 1
-33.351322 6.525895 -12.381921 36.169185 -0.193230 1.920196 0.062351 -0.021273 589970.000000 0 0 1
-32.319432 7.430995 -11.560421 35.119919 -0.225996 1.906221 0.056047 -0.007231 280277.000000 0 0 1
-33.021692 8.241895 -10.640221 35.659154 -0.244593 1.873798 0.064701 -0.015419 254636.000000 0 0 1
-33.367742 9.477495 -11.215821 36.455778 -0.276743 1.883524 0.076957 -0.016634 190100.000000 0 0 1
-34.296053 10.398495 -10.336921 37.298792 -0.294388 1.851611 0.093904 -0.009731 413155.000000 0 0 1
-33.705792 10.856395 -9.141321 36.571922 -0.311600 1.823430 0.059890 -0.006562 -278629.000000 0 0 1
-34.588041 11.669495 -8.458821 37.470806 -0.325393 1.798503 0.072985 -0.008407 -20323.500000 0 0 1
-33.825602 12.620995 -7.457121 36.865560 -0.357121 1.774481 0.083872 -0.012961 245571.000000 0 0 1
-33.089412 13.606795 -8.121821 36.688118 -0.390135 1.794020 0.055745 -0.010728 -127952.000000 0 0 1
-32.394242 14.495895 -7.267021 36.226060 -0.420759 1.772769 0.051289 -0.017433 243018.000000 0 0 1
-31.446362 15.479995 -7.960421 35.942624 -0.457442 1.794124 0.025414 -0.012049 -182882.000000 0 0 1
-32.227502 16.451795 -8.576821 37.186493 -0.472004 1.803535 0.021611 -0.009557 222435.000000 0 0 1
-31.497682 17.612095 -9.058321 37.206760 -0.509845 1.816727 0.021599 -0.003753 113024.000000 0 0 1
-32.406212 18.427395 -9.933521 38.579869 -0.517040 1.831209 0.004229 -0.009411 -76440.500000 0 0 1
-32.018212 18.354895 -11.275321 38.590166 -0.520529 1.867303 0.004327 -0.007874 146427.000000 0 0 1
-33.061352 18.867495 -12.098121 39.942457 -0.518583 1.878519 0.003125 -0.012357 111835.000000 0 0 1
-32.663552 18.972195 -13.558521 40.133344 -0.526210 1.915414 0.006578 -0.005729 -149821.000000 0 0 1
-31.865012 20.093295 -13.880021 40.146911 -0.562599 1.923814 0.010915 -0.009486 220882.000000 0 0 1
-31.793242 20.389395 -15.251121 40.732473 -0.570244 1.954569 0.001146 -0.005459 -595293.000000 0 0 1
-30.852822 21.559295 -15.542621 40.721896 -0.609906 1.962407 0.029432 -0.015973 -1792850.000000 0 0 1
-29.541352 21.394395 -15.199421 39.514984 -0.626796 1.965624 0.029867 -0.016234 -1000520.000000 0 0 1
-28.909722 22.626395 -14.970021 39.646277 -0.664076 1.957988 0.034696 -0.022891 -253367.000000 0 0 1
-28.082062 23.163695 -16.137521 39.819323 -0.689715 1.988069 0.027969 -0.015020 -795964.000000 0 0 1
-28.886172 23.769695 -17.137121 41.147177 -0.688534 2.000370 0.033867 -0.003355 375512.000000 0 0 1
-28.129392 24.323595 -18.201321 41.402754 -0.712969 2.025968 0.020641 0.005481 -56110.100000 0 0 1
-27.404172 25.666095 -17.834121 41.566728 -0.752659 2.014235 0.022359 0.000357 95678.800000 0 0 1
-28.190592 26.820995 -17.556421 42.688443 -0.760507 1.994642 0.030920 -0.003189 -186709.000000 0 0 1
-27.402332 27.919695 -17.144221 42.712076 -0.794750 1.983831 0.032171 -0.005342 -234650.000000 0 0 1
-28.101602 29.194195 -16.619421 43.797331 -0.804465 1.960011 0.029352 -0.005440 -279605.000000 0 0 1
-28.578402 29.108795 -15.305421 43.569518 -0.794592 1.929742 0.036923 -0.005727 263140.000000 0 0 1
-27.525802 29.255995 -14.381721 42.666344 -0.815860 1.914604 0.036420 -0.005266 -201413.000000 0 0 1
-27.920512 30.154595 -13.240121 43.175865 -0.823848 1.882474 0.034617 -0.007567 -191630.000000 0 0 1
-27.484632 31.468095 -13.455721 43.894218 -0.852866 1.882361 0.041416 -0.003874 147077.000000 0 0 1
-27.932552 32.236995 -12.387221 44.417277 -0.856815 1.853427 0.023070 -0.004609 154985.000000 0 0 1
-27.368232 33.698195 -12.421521 45.153988 -0.888686 1.849482 0.004857 -0.001266 152595.000000 0 0 1
-27.986682 -34.266826 -13.429421 46.236555 0.885938 1.865494 -0.006826 -0.007897 48303.500000 0 0 1
-27.285282 -33.021926 -13.655921 44.960186 0.880236 1.879405 0.028707 -0.010820 369533.000000 0 0 1
-27.557382 -32.330226 -15.013621 45.056205 0.864927 1.910513 0.018502 -0.012071 128394.000000 0 0 1
-26.924452 -33.001626 -16.099521 45.532713 0.886464 1.932193 0.026110 -0.016564 2426.450000 0 0 1
-27.058972 -32.184626 -17.264121 45.454240 0.871702 1.960391 0.034412 -0.004346 64541.300000 0 0 1
-26.223942 -32.694226 -18.490721 45.809544 0.894778 1.986292 0.023922 -0.003482 -45351.900000 0 0 1
-26.420592 -34.063826 -18.949121 47.089926 0.911099 1.984936 0.024508 0.004299 25586.200000 0 0 1
-25.883652 33.662495 -18.062421 46.145184 -0.915298 1.972977 0.007280 -0.010286 -388447.000000 0 0 1
-26.111822 32.235295 -18.652821 45.484824 -0.889964 1.993348 0.012703 -0.016134 100348.000000 0 0 1
-27.476892 31.903295 -18.760621 46.095126 -0.859804 1.989961 0.016175 -0.006095 -101094.000000 0 0 1
-28.054552 32.308695 -20.000721 47.232811 -0.855758 2.008046 0.019234 -0.002501 -869883.000000 0 0 1
-29.546842 32.034495 -20.094021 47.989524 -0.825772 2.002828 0.022114 -0.005924 -721898.000000 0 0 1
-29.836132 30.650995 -20.226221 47.315729 -0.798869 2.012493 0.015128 -0.006477 1130460.000000 0 0 1
-31.249092 30.541595 -20.485021 48.258997 -0.773949 2.009185 0.025574 -0.011234 587205.000000 0 0 1
-31.621892 29.156395 -20.971421 47.852271 -0.744855 2.024451 0.023687 -0.010233 -27245.900000 0 0 1
-32.985212 28.934895 -21.307221 48.777556 -0.720079 2.022862 0.034342 -0.015383 485968.000000 0 0 1
-33.130312 27.606695 -21.856821 48.347366 -0.694704 2.039891 0.026554 -0.008288 -255440.000000 0 0 1
-34.568805 27.143495 -22.120421 49.204518 -0.665652 2.037070 0.031536 -0.007102 42243.600000 0 0 1
-35.280179 27.795995 -23.176821 50.541798 -0.667297 2.047179 0.023213 -0.007284 -710380.000000 0 0 1
35.463795 27.081295 -23.471821 50.418287 0.652169 2.055043 0.039377 -0.004134 -465085.000000 0 0 1
34.761005 27.680795 -24.742221 50.859919 0.672491 2.078850 0.050499 -0.009200 44726.000000 0 0 1
35.416865 27.496495 -25.987451 51.824310 0.660164 2.096074 0.053695 -0.017537 145831.000000 0 0 1
34.572235 27.976395 -27.070191 52.064511 0.680335 2.117572 0.071927 -0.015594 368292.000000 0 0 1
35.239125 28.028995 -28.426691 53.249387 0.671926 2.133932 0.069569 -0.019189 -166942.000000 0 0 1
35.719355 26.782795 -28.909051 53.187627 0.643381 2.145433 0.058471 -0.013122 -71181.600000 0 0 1
-35.548261 26.923095 -30.188861 53.850712 -0.648200 2.165910 0.039890 -0.010027 -112113.000000 0 0 1
-34.812270 25.629595 -30.619581 52.974796 -0.634625 2.187075 0.032059 -0.007756 1127150.000000 0 0 1
-33.696622 25.091395 -29.865801 51.546158 -0.640053 2.188788 0.037155 -0.005878 2471510.000000 0 0 1
-32.400652 25.809995 -30.061371 51.182459 -0.672657 2.198561 0.029257 0.000227 1827290.000000 0 0 1
-31.396982 25.184295 -29.066741 49.647705 -0.676035 2.196244 0.007614 -0.002129 -893514.000000 0 0 1
-31.000222 23.868495 -29.420001 48.951560 -0.656145 2.215551 0.028302 -0.004630 351341.000000 0 0 1
-31.882312 22.813195 -29.033511 48.783895 -0.621082 2.208243 0.022129 -0.000919 -208945.000000 0 0 1
-31.567112 21.432995 -29.693641 48.348403 -0.596469 2.232117 0.021989 -0.006155 -102347.000000 0 0 1
-30.310572 20.944395 -29.257321 47.046671 -0.604655 2.241936 0.051801 -0.006675 308883.000000 0 0 1
-30.091372 19.612895 -29.644011 46.571704 -0.577624 2.260779 0.049467 -0.011934 -1161630.000000 0 0 1
-28.622232 19.267495 -29.796651 45.588473 -0.592488 2.283128 0.072564 -0.016380 -1169760.000000 0 0 1
-28.098242 19.867595 -30.957751 46.288388 -0.615459 2.303392 0.082405 -0.021738 453122.000000 0 0 1
-26.772942 19.469295 -31.288191 45.549915 -0.628749 2.328010 0.085073 -0.026779 338733.000000 0 0 1
-26.726732 18.070095 -32.019921 45.454613 -0.594509 2.352426 0.077128 -0.019716 -405483.000000 0 0 1
-26.807162 16.925795 -31.241271 44.509813 -0.563182 2.348853 0.054647 -0.018786 81735.400000 0 0 1
-26.860972 15.778195 -32.072581 44.711449 -0.531105 2.370750 0.034277 -0.008257 79705.000000 0 0 1
-27.441482 14.514295 -31.331031 44.105931 -0.486514 2.360804 0.029604 -0.008955 254760.000000 0 0 1
-28.746432 14.644795 -30.789801 44.596403 -0.471177 2.332852 0.022960 -0.001846 53376.500000 0 0 1
-29.499772 13.470595 -30.705491 44.660056 -0.428357 2.328890 0.013349 -0.004962 -302041.000000 0 0 1
-29.203902 12.360595 -29.689391 43.440903 -0.400389 2.323265 -0.004789 -0.007119 -490501.000000 0 0 1
-29.542932 12.830595 -28.411671 42.949179 -0.409724 2.293638 -0.013411 -0.009511 252977.000000 0 0 1
-29.812972 11.781395 -27.514561 42.245303 -0.376342 2.280099 -0.000284 -0.000846 28597.300000 0 0 1
-29.805832 12.259295 -26.062451 41.447910 -0.390214 2.250805 -0.007086 0.001194 792483.000000 0 0 1
-28.453492 12.402495 -25.607481 40.238863 -0.411055 2.260601 -0.011801 -0.001781 608349.000000 0 0 1
-28.370352 13.247195 -24.478221 39.743532 -0.436850 2.234330 -0.004496 -0.001239 313612.000000 0 0 1
-26.903592 13.422895 -23.981621 38.459010 -0.462788 2.244089 0.009214 -0.000363 -34814.800000 0 0 1
-26.148672 14.296695 -24.803821 38.773419 -0.500342 2.264920 0.021197 -0.003195 209341.000000 0 0 1
-24.839992 14.472595 -24.277021 37.627848 -0.527552 2.272065 0.031544 -0.003990 169462.000000 0 0 1
-24.547592 15.308995 -22.984221 36.948937 -0.557625 2.242159 0.037027 -0.007458 -756158.000000 0 0 1
-24.734592 16.718095 -22.976121 37.672229 -0.594367 2.226725 0.052566 -0.012176 148644.000000 0 0 1
-24.718592 17.209995 -21.632621 37.083190 -0.608196 2.193648 0.045901 -0.006496 -89357.300000 0 0 1
-26.082422 17.393295 -20.922121 37.690245 -0.588136 2.159288 0.050939 -0.005850 123927.000000 0 0 1
-26.870322 16.200195 -20.969721 37.738438 -0.542551 2.159952 0.042894 -0.001114 -607479.000000 0 0 1
-28.098292 16.415995 -20.374321 38.394164 -0.528747 2.130178 0.033067 0.004650 -1296560.000000 0 0 1
-29.042342 15.152695 -20.499721 38.643244 -0.480892 2.129971 0.007178 -0.004142 317578.000000 0 0 1
-29.614742 14.853295 -21.789121 39.653740 -0.464887 2.152544 -0.008404 0.001545 -43431.800000 0 0 1
-30.552212 15.816695 -22.090121 40.884947 -0.477702 2.141589 -0.002289 0.003066 -1373440.000000 0 0 1
-31.117202 15.946295 -23.520921 42.140221 -0.473565 2.162961 -0.007078 0.008565 -67178.600000 0 0 1
-32.228202 15.089095 -23.740021 42.777638 -0.437882 2.159115 0.004207 0.001152 443580.000000 0 0 1
-32.842462 15.458295 -24.992421 44.070481 -0.439918 2.173778 0.020391 -0.011369 142668.000000 0 0 1
-34.038185 14.605195 -25.463631 44.947817 -0.405324 2.173067 0.016473 -0.011258 71890.500000 0 0 1
-33.753052 13.194195 -25.757831 44.461457 -0.372640 2.188702 0.020409 -0.006768 130230.000000 0 0 1
-33.665042 12.309895 -24.619221 43.485337 -0.350555 2.172624 0.011586 -0.001724 -218029.000000 0 0 1
-33.565112 10.777495 -25.090401 43.270074 -0.310693 2.189348 0.017785 -0.001929 285634.000000 0 0 1
-34.837686 10.307095 -25.511911 44.393222 -0.287655 2.183010 0.030116 -0.005169 290959.000000 0 0 1
-34.729190 8.978895 -25.987221 44.295291 -0.253000 2.197751 0.023842 0.003112 -1323120.000000 0 0 1
-35.933561 8.467995 -26.669151 45.543071 -0.231434 2.196393 0.039118 0.002413 -1562750.000000 0 0 1
35.010345 8.041295 -25.723781 44.182571 0.225768 2.192247 0.018467 0.009151 -515330.000000 0 0 1
34.019335 7.353095 -26.446991 43.713001 0.212870 2.220580 0.023130 0.005852 -87720.200000 0 0 1
33.078725 6.414395 -25.623231 42.330798 0.191536 2.220951 0.022754 0.000885 200470.000000 0 0 1
33.731945 5.286595 -25.189281 42.429849 0.155459 2.206407 0.023583 -0.006785 -246108.000000 0 0 1
32.818395 4.425695 -24.571821 41.236006 0.134045 2.209161 0.025744 -0.004632 -40629.200000 0 0 1
33.428555 3.554895 -23.436921 40.980420 0.105945 2.179623 0.028676 -0.006341 -113029.000000 0 0 1
34.254645 2.509395 -23.900121 41.843680 0.073126 2.178735 0.029152 -0.017858 143129.000000 0 0 1
35.018055 1.960295 -22.819321 41.842901 0.055921 2.147611 0.040782 -0.022761 216983.000000 0 0 1
-35.923611 0.854695 -23.398121 42.880163 -0.023788 2.147976 0.061966 -0.022041 458326.000000 0 0 1
35.275555 -0.280905 -23.933721 42.629411 -0.007963 2.166917 0.034381 -0.023782 378695.000000 0 0 1
-35.641201 -1.253205 -24.238021 43.120150 0.035147 2.167724 0.053902 -0.031639 290863.000000 0 0 1
-23.248992 29.932495 27.198243 46.649912 -0.910416 0.948345 0.045673 -0.020331 -734724.000000 0 0 1
-24.608092 29.983395 26.847443 47.173587 -0.883546 0.965361 0.031183 -0.020625 72785.700000 0 0 1
-24.827892 29.430395 25.562723 46.217152 -0.870021 0.984715 0.022906 -0.011295 -260773.000000 0 0 1
-24.973692 27.915295 25.439943 45.278468 -0.840959 0.974170 0.035728 -0.012711 -461206.000000 0 0 1
-26.164762 27.331795 25.918173 45.862550 -0.807210 0.970209 0.031105 -0.015897 -180992.000000 0 0 1
-26.269432 27.229695 27.403573 46.717183 -0.803345 0.943961 0.040589 -0.020450 -423378.000000 0 0 1
-25.320192 26.131495 27.976043 45.897997 -0.801165 0.915333 0.041562 -0.016638 1041830.000000 0 0 1
-24.005292 26.475095 28.432793 45.668462 -0.834285 0.898746 0.051316 -0.017898 507079.000000 0 0 1
-23.871192 27.186495 29.660163 46.783166 -0.850240 0.884092 0.055593 -0.015522 618229.000000 0 0 1
-22.525192 26.724395 30.341593 46.283797 -0.870456 0.855878 0.058470 -0.008822 1339400.000000 0 0 1
-21.310492 27.159295 29.683833 45.529049 -0.905487 0.860609 0.061301 -0.008850 1261230.000000 0 0 1
-20.149892 26.636895 30.348783 45.128605 -0.923170 0.833221 0.080492 -0.010996 551157.000000 0 0 1
-19.645292 25.240895 29.918693 43.796900 -0.909420 0.818765 0.077808 -0.002702 -522287.000000 0 0 1
-18.864992 25.132995 28.753593 42.594888 -0.926907 0.829767 0.063313 -0.005976 -157389.000000 0 0 1
-19.368192 24.251195 27.785613 41.656783 -0.896880 0.840604 0.058944 -0.006149 -321145.000000 0 0 1
-19.067292 22.779895 27.880623 40.740820 -0.873885 0.817096 0.040781 0.010411 45969.800000 0 0 1
-19.729592 22.180695 28.989183 41.492322 -0.843816 0.797268 0.049338 0.008501 140925.000000 0 0 1
-19.614592 20.767795 28.991793 40.700830 -0.813947 0.778006 0.052514 0.006196 63575.800000 0 0 1
-19.978092 20.085095 30.346053 41.514072 -0.788069 0.751036 0.063324 0.001609 390216.000000 0 0 1
-19.019292 20.316995 31.366953 41.933274 -0.818376 0.725722 0.056856 -0.002538 216717.000000 0 0 1
-19.636392 20.057195 32.595511 43.015652 -0.795999 0.710924 0.061532 -0.004654 121034.000000 0 0 1
-18.872392 20.631895 33.841206 43.898400 -0.829908 0.690546 0.060428 -0.004888 -300695.000000 0 0 1
-18.916592 22.044895 34.006928 44.724557 -0.861622 0.706923 0.044324 -0.002850 4380.600000 0 0 1
-18.228592 22.874995 33.097660 44.170149 -0.897962 0.723759 0.052612 0.008254 -337010.000000 0 0 1
-16.699492 22.999395 33.324564 43.799221 -0.942778 0.706177 0.044074 0.001012 30828.200000 0 0 1
-16.029092 21.785695 33.072365 42.723877 -0.936470 0.685511 0.051334 -0.012326 92627.400000 0 0 1
-14.745192 21.845495 33.699849 42.782311 -0.977063 0.663721 0.031171 -0.006162 757413.000000 0 0 1
-13.812592 20.571895 33.455572 41.632510 -0.979503 0.637489 0.019887 -0.004701 1181990.000000 0 0 1
-12.444392 20.620095 33.867241 41.557686 -1.027801 0.618161 0.006881 -0.001810 721390.000000 0 0 1
-12.216592 20.578095 -33.344671 41.043515 -1.035044 2.519091 0.019672 -0.005044 -286163.000000 0 0 1
-10.724292 20.453795 -32.992811 40.272741 -1.087884 2.530871 0.001796 -0.005574 95902.700000 0 0 1
-10.028492 21.682395 -33.001401 40.740512 -1.137582 2.515015 0.011337 -0.008756 1134230.000000 0 0 1
-8.628192 21.495295 -32.671421 40.048909 -1.189084 2.524887 0.004957 -0.005036 761653.000000 0 0 1
-7.773792 22.744795 -32.739661 40.615796 -1.241460 2.508298 0.003329 -0.006401 -429168.000000 0 0 1
-7.929092 23.787095 -31.770871 40.473258 -1.249043 2.473467 0.007936 -0.005319 -6730.060000 0 0 1
-7.501492 23.395395 -30.510411 39.172720 -1.260513 2.463657 0.005227 -0.011235 -339748.000000 0 0 1
-7.164892 24.611495 -29.585451 39.145373 -1.287506 2.427647 0.011642 -0.011647 -201405.000000 0 0 1
-6.016292 25.270595 -30.045131 39.717862 -1.337072 2.428686 0.009998 -0.005379 -224261.000000 0 0 1
-5.734392 26.479895 -29.351711 39.944849 -1.357533 2.396177 0.018346 -0.002667 -86921.100000 0 0 1
-4.285792 26.846995 -29.710511 40.272119 -1.412494 2.400519 0.002670 -0.002126 -654583.000000 0 0 1
-3.248192 26.114195 -29.052941 39.199174 -1.447048 2.405596 0.014042 0.002687 1777180.000000 0 0 1
-1.921792 26.342195 -29.625661 39.689851 -1.497970 2.413476 0.022764 0.001406 1516100.000000 0 0 1
-1.337392 27.777395 -29.500091 40.541677 -1.522687 2.385684 0.024050 -0.006012 -1107710.000000 0 0 1
-0.805592 27.985295 -28.225301 39.755418 -1.542018 2.360257 0.038774 -0.017236 168768.000000 0 0 1
-0.254692 29.266795 -28.070391 40.553137 -1.562094 2.335312 0.036440 -0.018208 -847837.000000 0 0 1
0.218408 29.561395 -26.610141 39.774657 1.563408 2.303689 0.048480 -0.031540 -103725.000000 0 0 1
1.219308 28.787095 -25.993281 38.805079 1.528466 2.304793 0.078492 -0.040336 649203.000000 0 0 1
2.486108 28.880495 -26.651621 39.377310 1.484925 2.314240 0.082975 -0.039577 438100.000000 0 0 1
3.758508 28.891595 -25.722831 38.865340 1.441433 2.294074 0.084150 -0.046263 615076.000000 0 0 1
4.073208 27.572695 -25.241081 37.602615 1.424131 2.306702 0.101132 -0.036705 270958.000000 0 0 1
5.407808 27.631095 -24.770321 37.500541 1.377525 2.292324 0.065610 -0.025007 131633.000000 0 0 1
5.792508 26.368995 -23.906321 36.060909 1.354560 2.295539 0.074915 -0.020859 2688.840000 0 0 1
7.155108 26.423295 -23.540321 36.104470 1.306350 2.281023 0.061099 -0.015185 -354830.000000 0 0 1
7.572408 25.233495 -22.916021 34.917254 1.279254 2.286694 0.059087 -0.006972 573052.000000 0 0 1
9.043708 25.279095 -22.409221 34.971337 1.227230 2.266321 0.047063 0.012456 -48433.600000 0 0 1
9.248208 26.186595 -21.324621 35.014376 1.231304 2.225627 0.050486 0.004827 1459220.000000 0 0 1
10.661708 26.374695 -21.009821 35.365366 1.186640 2.206917 0.048687 0.004952 1820230.000000 0 0 1
11.437208 25.181395 -20.328121 34.324115 1.144461 2.204633 0.019301 0.013140 -130624.000000 0 0 1
11.777708 24.142795 -21.235021 34.242007 1.116928 2.239724 0.018724 0.009708 61309.200000 0 0 1
12.200008 22.935195 -20.567921 33.134615 1.081929 2.240480 0.016370 0.013357 -252993.000000 0 0 1
12.328108 21.753095 -21.461821 32.951314 1.055200 2.280118 0.020845 0.006362 -97894.000000 0 0 1
11.120808 21.205995 -21.959221 32.489598 1.087806 2.312961 0.026726 -0.005345 58474.700000 0 0 1
11.317008 20.485195 -23.128821 32.903802 1.066075 2.350294 0.028340 -0.009273 57289.800000 0 0 1
10.476908 20.992395 -24.336321 33.803886 1.107884 2.374493 0.040254 -0.012354 375101.000000 0 0 1
9.078608 20.797195 -24.298621 33.247066 1.159200 2.390363 0.032040 -0.013466 286630.000000 0 0 1
8.413108 20.532495 -25.544831 33.836402 1.181917 2.426376 0.031716 -0.018047 1428110.000000 0 0 1
6.885508 20.181495 -25.352891 33.128115 1.242001 2.442301 0.037864 -0.025774 1685680.000000 0 0 1
5.879108 21.092295 -24.840121 33.113145 1.298963 2.419099 0.061171 -0.017207 766957.000000 0 0 1
6.086508 21.685695 -23.522921 32.567510 1.297167 2.377892 0.061561 -0.015457 -622599.000000 0 0 1
4.725908 22.186895 -23.008921 32.311034 1.360928 2.363291 0.079776 -0.019508 2999.580000 0 0 1
4.165708 23.130795 -23.886921 33.510771 1.392613 2.364298 0.084117 -0.018039 -1021.840000 0 0 1
2.907008 23.589795 -23.412421 33.362712 1.448183 2.348653 0.084799 -0.013350 295890.000000 0 0 1
2.341408 24.731095 -24.349921 34.785455 1.476403 2.346198 0.071691 -0.010093 -827670.000000 0 0 1
1.047108 24.447495 -24.748821 34.803456 1.527992 2.361861 0.083728 -0.033542 -734744.000000 0 0 1
0.680208 25.264895 -25.870041 36.166788 1.543880 2.367847 0.075427 -0.025342 -147552.000000 0 0 1
-0.800392 25.187295 -26.254171 36.391234 -1.539029 2.376679 0.081000 -0.024897 -351358.000000 0 0 1
-1.194292 23.965995 -26.678311 35.882133 -1.521005 2.409083 0.089242 -0.029181 -1305650.000000 0 0 1
-2.504092 23.940895 -27.097541 36.245187 -1.466581 2.415264 0.080080 -0.018528 -770009.000000 0 0 1
-3.028892 22.536195 -27.559511 35.729272 -1.437196 2.451744 0.067639 -0.021735 -354740.000000 0 0 1
-2.369192 22.099895 -28.716571 36.313356 -1.464000 2.482910 0.083866 -0.029707 -205263.000000 0 0 1
-2.567892 20.765095 -29.056051 35.805548 -1.447757 2.517504 0.065628 -0.030979 -239173.000000 0 0 1
-3.931992 20.384995 -29.714171 36.248317 -1.380250 2.531752 0.048954 -0.020486 96122.300000 0 0 1
-4.088392 20.737295 -31.089331 37.593840 -1.376141 2.544510 0.038687 -0.016684 20832.900000 0 0 1
-3.865692 22.103995 -31.422311 38.612067 -1.397661 2.521449 0.054891 -0.022429 -519779.000000 0 0 1
-3.567292 22.320295 -32.911101 39.925702 -1.412314 2.539776 0.041634 -0.015463 -393793.000000 0 0 1
-2.333092 21.726995 -33.174091 39.724374 -1.463824 2.559123 0.039932 -0.013842 -236121.000000 0 0 1
-1.804692 22.122995 34.205318 40.776067 -1.489401 0.575615 0.037741 0.000181 476877.000000 0 0 1
-0.625692 21.204495 33.729505 39.845974 -1.541297 0.561425 0.050009 0.007953 472462.000000 0 0 1
-1.078892 19.902795 33.366343 38.866414 -1.516641 0.538483 0.040463 0.008971 101393.000000 0 0 1
-0.052192 19.097195 32.852718 38.000088 -1.568063 0.526556 0.048533 0.007422 -71944.400000 0 0 1
-0.590292 17.687195 32.501413 37.007123 -1.537435 0.498611 0.038303 0.017105 660437.000000 0 0 1
-1.304092 17.657295 31.208563 35.881125 -1.497074 0.516047 0.028726 0.009796 610853.000000 0 0 1
-1.712992 16.311995 30.911313 34.993211 -1.466166 0.487831 0.021828 0.010392 -928562.000000 0 0 1
-2.539392 16.042295 29.666693 33.821834 -1.413805 0.500909 0.026969 0.008834 -298846.000000 0 0 1
-3.862792 16.506595 29.778143 34.265532 -1.340918 0.517536 0.014834 0.005371 -149763.000000 0 0 1
-3.942792 17.890395 29.488933 34.716120 -1.353878 0.555891 0.011141 0.003030 -1373750.000000 0 0 1
-5.365692 18.389895 29.609023 35.265750 -1.286903 0.574255 0.000536 -0.003780 -532465.000000 0 0 1
-6.245492 17.717695 28.756223 34.348847 -1.231896 0.578687 -0.004843 -0.000473 -241783.000000 0 0 1
-7.583392 18.149195 28.844473 34.912816 -1.175009 0.598493 0.003670 0.001407 329574.000000 0 0 1
-8.710592 17.400795 28.078043 34.161946 -1.106680 0.606040 0.003833 -0.000842 222399.000000 0 0 1
-8.906992 16.057695 28.441163 33.853860 -1.064362 0.573300 0.020630 -0.009136 118833.000000 0 0 1
-9.788892 15.814095 29.534773 34.902877 -1.016525 0.561985 0.021460 -0.007827 15614.600000 0 0 1
-10.342092 14.317795 29.668123 34.527607 -0.945244 0.536979 0.031733 -0.009128 428302.000000 0 0 1
-9.391492 13.330995 30.074843 34.211281 -0.957066 0.496844 0.039149 -0.007964 338421.000000 0 0 1
-8.764492 13.467295 31.353493 35.231036 -0.993860 0.473584 0.030456 -0.004255 -243527.000000 0 0 1
-9.567092 13.087095 32.609545 36.416806 -0.939545 0.461348 0.054281 -0.018871 -352684.000000 0 0 1
-9.598392 11.677395 32.746101 36.066575 -0.882806 0.432466 0.034553 -0.016422 138424.000000 0 0 1
-10.228292 11.290995 33.919291 37.183637 -0.834742 0.422150 0.034101 -0.013615 -347559.000000 0 0 1
-10.424792 9.710495 33.943075 36.811715 -0.749938 0.397394 0.032757 -0.010861 378881.000000 0 0 1
-9.161392 9.022595 34.027026 36.375498 -0.777765 0.361300 0.034715 -0.010710 679418.000000 0 0 1
-9.028192 8.239395 -33.419851 35.584860 -0.739749 2.790971 0.056929 -0.026180 108999.000000 0 0 1
-8.223392 8.960395 -32.283891 34.498731 -0.828261 2.781316 0.050364 -0.026328 426061.000000 0 0 1
-8.957992 10.113495 -31.786801 34.538805 -0.845912 2.739698 0.039183 -0.025405 500252.000000 0 0 1
-8.195792 10.789895 -30.809081 33.656980 -0.921192 2.727259 0.035462 -0.015852 -460043.000000 0 0 1
-7.236392 11.844595 -31.289971 34.230426 -1.022368 2.724075 0.020402 -0.011471 -448972.000000 0 0 1
-7.898092 13.064695 -31.623111 35.115342 -1.027047 2.691829 0.019985 -0.017280 -298673.000000 0 0 1
-6.999192 13.932195 -32.197941 35.774322 -1.105250 2.690633 0.010444 -0.015634 -494548.000000 0 0 1
-7.548692 15.335695 -32.572141 36.784652 -1.113384 2.658326 0.005758 -0.008776 188187.000000 0 0 1
-8.447192 15.393895 -33.697061 37.997617 -1.068924 2.661215 0.019247 -0.010800 308507.000000 0 0 1
-8.798492 16.705695 -34.052641 38.936821 -1.086036 2.635327 0.026732 -0.011588 -933309.000000 0 0 1
-9.241892 16.877895 33.070214 38.261142 -1.069818 0.526982 0.017621 -0.006483 485744.000000 0 0 1
-10.442092 16.300795 32.580008 37.897363 -1.001066 0.536133 0.014045 -0.006043 150511.000000 0 0 1
-11.596792 16.814895 33.194698 38.975816 -0.967034 0.551625 0.011138 -0.012974 -491090.000000 0 0 1
-12.959192 16.259795 32.694307 38.745830 -0.897882 0.566443 0.021505 -0.023919 234080.000000 0 0 1
-13.019592 14.852695 32.723544 38.222280 -0.851072 0.543047 0.017590 -0.023410 43609.100000 0 0 1
-14.213992 14.358795 33.280654 38.933463 -0.790466 0.545615 0.026568 -0.017815 -179132.000000 0 0 1
-14.244992 12.802995 33.443110 38.539306 -0.732136 0.520106 0.023281 -0.018816 -34921.800000 0 0 1
-14.383992 12.278795 32.114643 37.269536 -0.706605 0.532213 0.009445 -0.017431 -19814.000000 0 0 1
-13.168392 11.696695 31.705503 36.269245 -0.726280 0.507071 0.025307 -0.008374 -292125.000000 0 0 1
-13.079192 11.350695 30.201313 34.814119 -0.714762 0.520638 0.024880 0.004708 -1386.170000 0 0 1
-13.983292 10.358595 29.752183 34.467744 -0.637577 0.529244 0.018409 0.013453 37244.900000 0 0 1
-13.812392 10.090195 28.399563 33.153120 -0.630915 0.542117 0.004187 0.016392 449951.000000 0 0 1
-14.621492 8.808195 27.919493 32.724157 -0.542193 0.548751 0.019290 0.010941 348343.000000 0 0 1
-14.096892 7.605595 28.367293 32.577151 -0.494764 0.514025 -0.003775 0.010401 -151775.000000 0 0 1
-14.906592 6.521595 27.947713 32.339022 -0.412408 0.527218 0.012402 0.011300 43610.900000 0 0 1
-14.232192 5.141295 28.084893 31.902185 -0.346656 0.494210 0.013519 0.012316 -357444.000000 0 0 1
-13.232292 4.920395 27.158223 30.608380 -0.356004 0.479381 0.007113 0.000267 -803736.000000 0 0 1
-13.735092 4.451795 25.938033 29.685902 -0.313434 0.507938 0.013830 0.004386 -305676.000000 0 0 1
-12.743792 4.131595 24.778913 28.168579 -0.313512 0.495639 0.017389 0.002488 -79859.400000 0 0 1
-11.954292 2.966895 24.958693 27.832426 -0.243271 0.458429 0.009920 -0.003752 213727.000000 0 0 1
-11.385292 2.423995 23.799523 26.493734 -0.209774 0.454894 0.019586 -0.013920 91013.900000 0 0 1
-10.341092 1.250495 23.921033 26.090568 -0.120341 0.410689 0.017986 -0.011595 1327930.000000 0 0 1
-9.012292 1.730095 24.237323 25.916452 -0.189663 0.361945 0.017671 -0.016164 473560.000000 0 0 1
-8.171492 0.686095 24.604683 25.935197 -0.083766 0.321702 0.009204 -0.012431 -352053.000000 0 0 1
-6.716992 1.198795 24.522863 25.454389 -0.176612 0.271372 0.019154 -0.015808 -526946.000000 0 0 1
-6.219992 1.365795 23.169983 24.029187 -0.216151 0.268223 0.015715 -0.013102 255725.000000 0 1 0
-4.813392 1.347695 23.038883 23.574884 -0.272998 0.213648 0.006799 -0.011194 16292.200000 0 1 0
-4.150492 2.700095 23.398083 23.916258 -0.576760 0.208542 0.013512 -0.014137 -882315.000000 0 1 0
-4.087092 2.934695 24.774853 25.280627 -0.622731 0.200367 0.032886 -0.015870 2460.050000 0 0 1
-3.928892 4.305695 24.985693 25.656580 -0.831125 0.229188 0.036679 -0.022623 -350955.000000 0 0 1
4.052108 -23.187005 13.081379 26.929153 -1.397786 1.063552 0.052254 -0.009578 237926.000000 0 0 1
3.923208 -24.455305 13.696279 28.302678 -1.411728 1.065666 0.047075 -0.006768 -246112.000000 0 0 1
2.708708 -24.999105 13.233079 28.414904 -1.462865 1.086361 0.040149 -0.004361 148592.000000 0 0 1
2.396508 -26.449065 13.834679 29.944860 -1.480435 1.090542 0.029120 -0.007298 -7179.260000 0 0 1
2.123308 -26.303985 15.181379 30.444743 -1.490249 1.048752 0.032095 -0.004431 45401.400000 0 0 1
2.183308 -27.527905 15.861379 31.845498 -1.491649 1.049421 0.035683 -0.008514 -312743.000000 0 0 1
2.041308 -27.468325 17.362479 32.559661 -1.496618 1.008357 0.021186 -0.005158 64783.100000 0 0 1
3.091708 -26.880795 18.117479 32.563459 -1.456284 0.980780 0.031825 -0.005686 276052.000000 0 0 1
3.153508 -27.445955 19.437279 33.779179 -1.456399 0.957676 0.022908 -0.000018 212638.000000 0 0 1
3.859408 -26.544545 20.534279 33.781127 -1.426414 0.917430 0.026217 -0.001155 50655.900000 0 0 1
3.062108 -25.443925 20.836279 33.029084 -1.451025 0.888153 0.025372 -0.000874 -49454.700000 0 0 1
3.556608 -24.779505 21.937379 33.285462 -1.428240 0.851218 0.044913 -0.002071 -60814.600000 0 0 1
2.567208 -23.700205 22.425579 32.729145 -1.462897 0.815936 0.057361 -0.008844 37188.400000 0 0 1
2.157208 -22.670205 21.541979 31.347227 -1.475926 0.813161 0.057107 -0.008372 -349069.000000 0 0 1
3.109908 -21.680405 21.392979 30.616516 -1.428325 0.797162 0.049194 -0.003764 -485307.000000 0 0 1
2.644808 -20.525305 20.492279 29.124160 -1.442647 0.790320 0.033478 -0.000937 -65797.700000 0 0 1
2.100708 -19.415105 21.225079 28.842040 -1.463016 0.743790 0.019523 -0.004959 237358.000000 0 0 1
1.389708 -18.592805 20.307779 27.568634 -1.496191 0.742728 0.012529 -0.005043 66885.800000 0 0 1
1.090508 -17.207705 20.839679 27.047857 -1.507508 0.691211 0.016589 -0.008246 18129.700000 0 0 1
2.102508 -16.254005 20.605179 26.328438 -1.442157 0.671932 0.000974 -0.001990 -225991.000000 0 0 1
1.594308 -14.995405 20.913979 25.783687 -1.464874 0.624711 0.008986 -0.003867 248446.000000 0 0 1
2.580108 -13.732305 20.911679 25.150179 -1.385075 0.589044 -0.006318 0.000768 249822.000000 0 0 1
2.943908 -13.296005 19.554079 23.828814 -1.352899 0.608325 -0.018922 -0.002567 123957.000000 0 1 0
1.846408 -12.820905 18.794979 22.826215 -1.427764 0.603429 -0.004748 0.004305 324356.000000 0 1 0
1.057008 -11.603205 19.362579 22.597812 -1.479951 0.541698 -0.009353 0.002233 -456590.000000 0 1 0
1.538308 -10.291605 19.079979 21.733135 -1.422423 0.499293 -0.004730 -0.002747 -486482.000000 0 1 0
1.188008 -9.260405 19.986779 22.059869 -1.443204 0.437002 0.000270 -0.009167 788846.000000 0 1 0
-0.314392 -8.864805 20.202379 22.063992 1.535346 0.413732 0.009488 -0.009813 625663.000000 0 1 0
-0.568592 -7.643605 20.786979 22.155056 1.496545 0.353260 0.011562 -0.028180 893135.000000 0 1 0
-1.973892 -7.460305 21.107279 22.473755 1.312138 0.350513 0.017504 -0.020001 1195560.000000 0 1 0
-2.118592 -6.854905 22.528879 23.643785 1.271046 0.308317 0.016145 -0.011662 -253208.000000 0 1 0
-1.975892 -7.810405 23.573279 24.911967 1.323013 0.329317 0.016940 -0.005960 161476.000000 0 1 0
-2.199892 -7.225305 24.881779 26.002837 1.275243 0.294708 0.028606 -0.000409 -29673.600000 0 0 1
-2.375892 -8.302705 25.985379 27.382836 1.292086 0.320856 0.031367 -0.000596 734270.000000 0 0 1
-1.113692 -8.929405 26.275479 27.773646 1.446715 0.329952 0.031157 -0.002082 597195.000000 0 0 1
-1.191692 -10.029905 27.141979 28.960424 1.452537 0.356256 0.034439 -0.004003 18719.400000 0 0 1
0.087408 -10.883205 27.321379 29.409345 -1.562765 0.379086 0.036780 -0.009090 433227.000000 0 0 1
1.084808 -10.384505 28.204779 30.075311 -1.466710 0.354543 0.025632 -0.004071 385838.000000 0 0 1
2.166308 -11.323305 28.336179 30.591652 -1.381766 0.386400 0.032779 -0.010903 110334.000000 0 0 1
3.007608 -10.790605 29.481579 31.538015 -1.298971 0.363115 0.042275 -0.011427 -576030.000000 0 0 1
2.303808 -10.759905 30.682779 32.596258 -1.359871 0.344343 0.032373 -0.017645 -324794.000000 0 0 1
3.098408 -10.166205 31.671679 33.407292 -1.274964 0.323757 0.048868 -0.012233 -203197.000000 0 0 1
2.474208 -10.021105 33.098179 34.670358 -1.328738 0.302303 0.035781 -0.015648 -117203.000000 0 0 1
2.526408 -11.199205 33.860379 35.753744 -1.348922 0.326894 0.035986 -0.021159 115625.000000 0 0 1
1.942408 -11.055805 -33.483825 35.315298 -1.396880 2.818126 0.026079 -0.019561 -162878.000000 0 0 1
2.877508 -10.359105 -32.437725 34.173046 -1.299851 2.821542 0.020447 -0.005748 127345.000000 0 0 1
3.027108 -8.972305 -32.785825 34.125884 -1.245405 2.860424 0.013214 -0.011111 -311467.000000 0 0 1
3.911808 -8.387605 -31.908425 33.223512 -1.134405 2.859292 0.017463 -0.013054 -551520.000000 0 0 1
3.522808 -6.940105 -31.526325 32.472825 -1.101086 2.899559 0.009100 -0.011692 -43410.500000 0 0 1
3.777308 -5.945805 -32.515725 33.270001 -1.004832 2.928250 0.021157 -0.009436 -8309.330000 0 0 1
3.369708 -4.743805 -31.938525 32.464257 -0.953165 2.961381 0.019474 -0.006108 112144.000000 0 0 1
3.375708 -3.578205 -32.928325 33.293746 -0.814510 2.993297 0.020261 -0.002692 -454159.000000 0 0 1
2.503108 -3.928005 -33.915725 34.234064 -1.003439 3.005113 0.015913 -0.004802 -455656.000000 0 0 1
2.612508 -2.866505 33.754079 33.976167 -0.831723 0.114400 0.025908 -0.006771 -87047.400000 0 0 1
1.989408 -3.341705 32.446279 32.678522 -1.033820 0.119292 0.040216 -0.009326 677252.000000 0 0 1
0.562608 -3.309005 32.449479 32.622611 -1.402383 0.103071 0.044914 -0.015635 100000.000000 0 0 1
0.065908 -3.383405 31.137079 31.320433 -1.551319 0.108257 0.043168 -0.014305 456459.000000 0 0 1
-1.470492 -3.505205 31.009279 31.241386 1.173579 0.121973 0.042910 -0.019237 546069.000000 0 0 1
-2.254292 -2.350305 30.667479 30.839910 0.806247 0.105796 0.042948 -0.020898 601017.000000 0 0 1
-3.626992 -2.733605 30.572479 30.907995 0.645855 0.147479 0.033011 -0.019017 95204.100000 0 0 1
-4.473692 -1.707405 29.872179 30.253533 0.364592 0.158945 0.040320 -0.022835 -781917.000000 0 0 1
-4.253692 -1.536605 28.491679 28.848412 0.346653 0.157425 0.042346 -0.018965 -414094.000000 0 0 1
-5.144192 -0.701905 27.798779 28.279454 0.135609 0.184638 0.037667 -0.020379 -31546.400000 0 0 1
-5.515592 0.727995 28.339679 28.880602 -0.131230 0.193847 0.042493 -0.018896 -123611.000000 0 0 1
-6.673892 0.818395 29.124779 29.890858 -0.122017 0.226889 0.039996 -0.020108 -646274.000000 0 0 1
-6.970992 2.181695 29.236879 30.135521 -0.303311 0.244824 0.046891 -0.019383 -590616.000000 0 0 1
-8.368392 2.574995 29.683679 30.948044 -0.298510 0.286830 0.039488 -0.017084 34853.100000 0 0 1
-9.393892 1.978895 28.854779 30.409859 -0.207622 0.321183 0.024505 -0.004674 236005.000000 0 0 1
-10.633892 2.608195 29.065279 31.059182 -0.240524 0.360266 0.008173 0.004610 267569.000000 0 0 1
-11.787892 2.007795 28.193179 30.624190 -0.168708 0.401136 -0.002052 0.011679 454842.000000 0 0 1
-12.225392 0.686695 28.586879 31.098898 -0.056111 0.404689 -0.001298 0.013378 73013.500000 0 0 1
-12.277192 -0.079805 27.408279 30.032476 0.006500 0.421145 -0.003417 0.016223 -832354.000000 0 0 1
-12.228692 -1.577305 27.704879 30.324728 0.128276 0.418728 -0.004499 0.006817 146682.000000 0 0 1
-11.018792 -2.155005 28.196979 30.350082 0.193138 0.378939 0.005073 -0.004867 1113250.000000 0 0 1
-9.833992 -2.044805 27.372179 29.156900 0.205011 0.351698 0.002918 -0.000024 347181.000000 0 0 1
-9.854892 -2.664405 25.940879 27.877360 0.264051 0.374923 0.005257 -0.002950 -495471.000000 0 0 1
-10.774392 -2.064305 25.005479 27.306096 0.189300 0.413433 -0.001215 -0.002709 505946.000000 0 0 1
-10.702492 -2.597905 23.684579 26.119949 0.238133 0.435256 0.008937 -0.007085 -743977.000000 0 0 1
-9.521092 -2.168105 22.812479 24.814534 0.223898 0.404449 0.018046 -0.012542 459578.000000 0 1 0
-8.220792 -2.626105 23.206279 24.759024 0.309201 0.356036 0.014421 -0.010069 18164.500000 0 1 0
-7.281992 -1.988005 22.367879 23.607236 0.266509 0.325469 0.012354 -0.010377 -813628.000000 0 1 0
-5.860692 -2.215805 22.880979 23.723337 0.361467 0.267281 0.014202 -0.008520 -618085.000000 0 1 0
-5.404692 -3.512405 22.598679 23.499957 0.576291 0.277849 0.021384 -0.016501 -179239.000000 0 1 0
-5.891092 -4.459605 23.520979 24.654199 0.647971 0.304372 0.024126 -0.011189 -492243.000000 0 1 0
-5.580592 -5.933505 23.148779 24.540079 0.816039 0.338346 0.027523 -0.007211 -362557.000000 0 1 0
-6.330792 -6.489005 22.082679 23.871130 0.797739 0.389553 0.025444 -0.014023 51560.300000 0 1 0
-6.043792 -5.911505 20.825779 22.476352 0.774334 0.385624 0.026965 -0.015852 -935663.000000 0 1 0
-7.233492 -5.950205 19.893279 21.987972 0.688365 0.440040 0.033824 -0.015269 -308362.000000 0 1 0
-8.280792 -5.059605 20.220279 22.428349 0.548472 0.447458 0.038542 -0.009600 -615390.000000 0 1 0
-9.193892 -4.880805 19.214879 21.853181 0.488041 0.496466 0.038201 -0.006824 -10890.800000 0 1 0
-9.907592 -3.506105 19.206479 21.893881 0.340128 0.500686 0.035088 -0.016360 1298590.000000 0 1 0
-8.950992 -2.496305 18.710679 20.891178 0.271975 0.460960 0.031987 -0.020997 709829.000000 0 1 0
-9.444192 -1.206205 18.857679 21.124861 0.127032 0.467546 0.022375 -0.010905 -27223.000000 0 1 0
-8.374592 -0.156605 18.440179 20.253359 0.018698 0.426365 0.015223 -0.007548 332609.000000 0 1 0
-7.431692 0.103295 19.492679 20.861574 -0.013898 0.364276 0.020342 0.005553 254746.000000 0 1 0
-7.831592 0.910795 20.564079 22.023731 -0.115777 0.366119 0.034116 0.003754 -511526.000000 0 1 0
-7.733192 2.451295 20.345479 21.903188 -0.306964 0.379413 0.027691 -0.005702 -110012.000000 0 1 0
-8.411692 2.869695 19.203479 21.160466 -0.328774 0.433463 0.020563 -0.016129 -225192.000000 0 1 0
-8.397792 4.283595 19.228479 21.415100 -0.471684 0.455836 0.021026 -0.006297 233969.000000 0 1 0
-9.255892 4.954895 18.117079 20.939224 -0.491505 0.525203 0.021395 -0.002034 -743984.000000 0 1 0
-10.610692 4.629595 18.155079 21.531996 -0.411415 0.567649 0.020031 -0.002053 -195354.000000 0 1 0
-11.379592 5.088595 17.007879 21.086889 -0.420497 0.632484 0.029424 0.000683 407759.000000 0 1 0
-11.698092 6.607495 16.940579 21.621461 -0.514162 0.670506 0.037793 -0.001916 -453593.000000 0 1 0
-10.572592 7.414295 16.635679 21.059375 -0.611581 0.660082 0.033528 -0.006051 232675.000000 0 1 0
-10.919192 8.787695 16.866679 21.930281 -0.677657 0.693357 0.046772 -0.013103 -123178.000000 0 1 0
-9.766292 9.799195 16.836979 21.791938 -0.787080 0.687832 0.036484 -0.012683 -570790.000000 0 1 0
-8.951092 9.746895 17.959879 22.308771 -0.827933 0.635021 0.044457 -0.006677 1063760.000000 0 1 0
-7.817592 10.687995 18.001879 22.347609 -0.939282 0.634211 0.042921 -0.016228 1410280.000000 0 1 0
-8.193192 12.198995 17.989779 23.228776 -0.979367 0.684934 0.037928 -0.013002 -313530.000000 0 1 0
-8.118992 12.659795 16.675079 22.455438 -1.000547 0.733874 0.028394 -0.021777 -114489.000000 0 1 0
-8.662092 13.921695 16.505279 23.265203 -1.014212 0.782092 0.029164 -0.026178 -252344.000000 0 1 0
-8.693992 14.348595 15.027479 22.523161 -1.026041 0.840351 0.027233 -0.025215 667177.000000 0 1 0
-7.460592 14.951195 14.642979 22.217459 -1.107952 0.851208 0.039195 -0.013961 312063.000000 0 1 0
-7.410292 15.137695 13.211179 21.414889 -1.115563 0.905979 0.027397 -0.032699 -321301.000000 0 1 0
-6.575092 16.399995 12.921179 21.889462 -1.189497 0.939375 0.002901 -0.016639 1576530.000000 0 1 0
-5.141692 16.291495 13.146979 21.556736 -1.265084 0.914890 -0.000738 -0.011417 953267.000000 0 1 0
-4.649492 17.460695 13.725979 22.691323 -1.310552 0.921156 0.004473 -0.008421 -196097.000000 0 1 0
-3.108592 17.573595 13.700379 22.498777 -1.395717 0.916074 0.001927 -0.000225 -252303.000000 0 1 0
-2.368292 16.898495 14.635379 22.480264 -1.431555 0.861853 0.009241 -0.006962 -300122.000000 0 1 0
-2.239492 15.480595 14.399579 21.260574 -1.427129 0.826723 0.011322 -0.009446 -832709.000000 0 1 0
-1.489492 14.743095 15.500979 21.444295 -1.470108 0.762880 -0.003425 -0.007914 -713075.000000 0 1 0
-0.137192 14.669395 15.130279 21.074518 -1.561444 0.769955 -0.011019 -0.002318 -537462.000000 0 1 0
0.581108 13.972695 16.128479 21.347171 1.529231 0.714330 -0.007195 -0.000341 -199668.000000 0 1 0
1.610608 14.768395 16.940679 22.531892 1.462168 0.719928 -0.012127 0.001802 -443215.000000 0 1 0
1.036308 15.743295 17.809879 23.793215 1.505066 0.724957 -0.015783 0.000632 -183857.000000 0 1 0
1.919308 16.654195 18.476879 24.948768 1.456058 0.736844 -0.009221 -0.000318 -409582.000000 0 1 0
1.156308 17.812495 19.169279 26.193192 1.505972 0.749775 -0.000451 -0.004414 243473.000000 0 0 1
0.645608 18.873495 18.344979 26.328006 1.536603 0.799890 -0.000794 0.003552 -401442.000000 0 0 1
-0.444692 18.460295 17.593779 25.505319 -1.546712 0.809572 0.006451 0.004619 -1334930.000000 0 0 1
-1.113992 19.530595 16.721479 25.735053 -1.513820 0.863534 0.004273 0.008695 -370252.000000 0 0 1
-1.855992 20.410395 17.511679 26.957148 -1.480112 0.863723 0.004632 0.007979 61102.900000 0 0 1
-2.390192 21.431195 16.617179 27.223882 -1.459727 0.914244 0.020332 -0.000823 -416243.000000 0 0 1
-3.179592 22.590595 17.246279 28.598583 -1.430966 0.923481 0.021179 0.011432 -97254.600000 0 0 1
-4.393692 22.215295 17.855779 28.838389 -1.375538 0.903115 0.031974 0.012512 -6214.620000 0 0 1
-4.958292 23.248295 18.628779 30.200982 -1.360669 0.906091 0.042037 0.005059 54696.200000 0 0 1
-6.024092 22.766495 19.623979 30.654584 -1.312121 0.876084 0.039734 0.002154 469108.000000 0 0 1
-7.334092 22.624995 19.110179 30.510297 -1.257325 0.893932 0.029773 -0.000424 458491.000000 0 0 1
-8.299292 21.966795 19.930879 30.800297 -1.209564 0.867021 0.003394 0.002219 1671510.000000 0 0 1
-9.814792 22.013795 19.477479 30.988861 -1.151401 0.891132 0.008949 -0.004157 1164730.000000 0 0 1
-10.296792 23.325095 19.730379 32.239290 -1.155078 0.912212 0.014500 -0.001497 -296366.000000 0 0 1
-11.444192 23.580895 18.953679 32.346098 -1.118965 0.944726 -0.000148 -0.001847 -119191.000000 0 0 1
-11.807792 25.123395 19.016279 33.648593 -1.131442 0.970189 0.007413 -0.002179 -73514.300000 0 0 1
-12.468092 25.335995 20.235679 34.739727 -1.113481 0.949003 0.006557 -0.005813 -25354.800000 0 0 1
-12.873792 26.673895 20.456579 35.995872 -1.121136 0.966354 0.004852 -0.001591 -170544.000000 0 0 1
-13.568092 26.872395 21.839779 37.191325 -1.103230 0.943167 0.026365 -0.001793 153253.000000 0 0 1
-14.959892 26.569595 21.784479 37.474061 -1.057993 0.950444 0.020878 -0.009231 164857.000000 0 0 1
-15.581692 26.768995 22.992879 38.575131 -1.043658 0.932218 0.014460 -0.003363 -755245.000000 0 0 1
-17.097492 26.640495 22.969079 39.110341 -1.000217 0.943091 0.028789 -0.003946 -514673.000000 0 0 1
-17.472992 25.340695 22.824479 38.319879 -0.967137 0.932746 0.036061 -0.005353 -59216.100000 0 0 1
-18.880992 25.184895 22.878879 38.912901 -0.927490 0.942273 0.050730 -0.001373 258849.000000 0 0 1
27.053608 24.419595 23.510583 43.370057 0.734270 0.997871 0.033163 -0.006306 55338.000000 0 0 1
27.011908 23.692295 24.739983 43.623787 0.720021 0.967790 0.046642 -0.014988 178734.000000 0 0 1
27.248908 22.292495 24.750603 43.035458 0.685684 0.958044 0.043246 -0.010497 -605986.000000 0 0 1
27.028508 21.556595 26.106703 43.321900 0.673245 0.924014 0.075681 -0.019179 147957.000000 0 0 1
25.707808 21.775995 26.565343 42.904578 0.702783 0.903108 0.067349 -0.012323 141022.000000 0 0 1
25.522508 21.091595 27.791473 43.227535 0.690628 0.872503 0.070959 -0.017147 435664.000000 0 0 1
24.122008 21.282695 28.454803 42.947645 0.722946 0.846583 0.063883 -0.017776 319715.000000 0 0 1
23.841208 22.621195 28.863623 43.740489 0.759146 0.850133 0.061367 -0.021185 -371180.000000 0 0 1
22.582208 22.684695 29.461263 43.503075 0.787662 0.826815 0.065771 -0.024009 -556272.000000 0 0 1
22.285008 23.979795 30.256113 44.576726 0.822014 0.824748 0.066346 -0.030593 -340791.000000 0 0 1
21.838908 25.028195 29.475573 44.408984 0.853343 0.845002 0.066562 -0.029205 -121234.000000 0 0 1
21.509708 26.161795 30.279533 45.430796 0.882676 0.841295 0.059890 -0.030258 568521.000000 0 0 1
20.074708 26.352695 30.901353 45.302892 0.919804 0.820158 0.066697 -0.023759 384872.000000 0 0 1
19.152708 26.639795 29.845323 44.353672 0.947464 0.832682 0.066400 -0.025738 989823.000000 0 0 1
17.784408 26.968395 30.128863 44.173837 0.987804 0.820231 0.059807 -0.030593 1363540.000000 0 0 1
16.866708 25.883495 30.753793 43.591707 0.993269 0.787673 0.057043 -0.015564 -500827.000000 0 0 1
17.254008 25.494795 32.051423 44.440737 0.975834 0.765238 0.045572 -0.023533 -126273.000000 0 0 1
16.302208 24.714795 32.745665 44.145913 0.987693 0.735106 0.037352 -0.020491 8127.530000 0 0 1
16.807708 24.207695 34.136380 45.097716 0.963898 0.712175 0.037631 -0.019823 -120918.000000 0 0 1
16.841008 25.266095 -33.576621 45.270129 0.982877 2.406390 0.021835 -0.022272 211828.000000 0 0 1
17.464308 24.948595 -32.325871 44.411669 0.960063 2.386005 0.012326 -0.009246 -140432.000000 0 0 1
17.760208 26.303295 -31.594161 44.782578 0.976903 2.353926 0.002676 -0.003456 -607438.000000 0 0 1
16.641708 26.943195 -31.081101 44.372480 1.017493 2.346837 0.006714 -0.013170 -175139.000000 0 0 1
17.006208 28.210895 -30.645641 44.991343 1.028303 2.320122 0.009270 -0.012591 -13070.600000 0 0 1
16.316308 28.372795 -29.287251 43.920160 1.048910 2.300742 0.012809 -0.010241 -1030290.000000 0 0 1
16.923608 27.700195 -28.282141 43.053325 1.022360 2.287509 -0.004896 0.000874 -146023.000000 0 0 1
16.454208 28.119095 -26.987991 42.305745 1.041359 2.262600 -0.010270 0.009251 -86968.400000 0 0 1
17.208908 27.424695 -25.811811 41.406641 1.010404 2.243846 -0.012797 0.012910 1471600.000000 0 0 1
18.651908 27.598595 -25.810111 42.139505 0.976478 2.230006 0.001489 0.012796 1034860.000000 0 0 1
19.200908 26.849195 -24.725321 41.241916 0.949982 2.213697 0.009357 0.012761 -142497.000000 0 0 1
20.729608 26.927795 -24.704321 42.013405 0.914729 2.199393 0.017606 0.013058 -421573.000000 0 0 1
21.377208 26.369195 -23.609621 41.348925 0.889572 2.178502 0.022096 0.015352 -842791.000000 0 0 1
22.748408 26.216895 -23.793821 42.082794 0.856116 2.171720 0.029466 0.017356 -1012080.000000 0 0 1
23.420008 26.036695 -22.451421 41.598949 0.838258 2.140890 0.038979 0.013765 -295201.000000 0 0 1
23.007008 24.989895 -21.576621 40.241369 0.826687 2.136701 0.028195 0.011210 -87020.400000 0 0 1
23.765708 25.016395 -20.415121 40.092468 0.811031 2.105052 0.028035 0.009485 -339549.000000 0 0 1
23.300808 23.926795 -19.408121 38.627637 0.798652 2.097216 0.027937 0.002357 -535880.000000 0 0 1
23.764208 22.589895 -19.699721 38.250751 0.760070 2.111822 0.024292 0.009224 256372.000000 0 0 1
23.636208 21.724695 -18.586421 37.095656 0.743283 2.095597 0.035912 0.009010 -957315.000000 0 0 1
23.803008 20.269295 -19.192221 36.684722 0.705389 2.121359 0.044087 0.001913 383342.000000 0 0 1
22.889908 19.905095 -20.232321 36.462412 0.715764 2.159017 0.016224 -0.001253 112400.000000 0 0 1
21.529808 19.984095 -19.887221 35.473909 0.748182 2.165925 0.015309 -0.001024 -306477.000000 0 0 1
20.486808 19.781795 -21.053921 35.416045 0.767892 2.207408 0.014319 0.002973 513253.000000 0 0 1
20.455308 20.737695 -22.150921 36.594192 0.792253 2.220955 0.011244 0.005095 -68503.900000 0 0 1
20.489908 22.141995 -21.842721 37.245251 0.824131 2.197473 0.013215 0.010110 -302575.000000 0 0 1
19.978808 23.003195 -22.993621 38.170752 0.855646 2.217286 0.015121 0.002960 -861349.000000 0 0 1
18.617208 22.892195 -23.188021 37.527820 0.888025 2.236851 0.023342 0.008252 -1281570.000000 0 0 1
18.247408 23.325295 -24.460221 38.410150 0.906941 2.261159 0.018595 0.001911 -275862.000000 0 0 1
16.728608 23.221295 -24.641721 37.766245 0.946510 2.281649 0.012355 0.006581 -488526.000000 0 0 1
15.978508 24.147195 -23.949721 37.576440 0.986231 2.261864 0.008346 0.000035 -798675.000000 0 0 1
14.613808 24.065795 -24.225121 37.142729 1.025067 2.281302 0.005692 0.001129 -499819.000000 0 0 1
13.785008 25.136395 -23.549421 37.100404 1.069176 2.258479 0.010636 0.004857 -408822.000000 0 0 1
14.053408 26.399695 -24.118121 38.420384 1.081619 2.249446 -0.003668 0.011181 -311557.000000 0 0 1
13.324308 27.489695 -23.676221 38.649501 1.119462 2.230127 0.012280 0.009108 -423393.000000 0 0 1
13.622908 28.770395 -24.451321 40.139585 1.128569 2.225794 0.008340 -0.001207 -1311.590000 0 0 1
13.345908 28.619195 -25.860871 40.816127 1.134448 2.256987 0.009565 -0.014527 120025.000000 0 0 1
12.568708 29.677095 -26.438591 41.685746 1.170184 2.257816 0.038719 -0.024934 -282310.000000 0 0 1
13.201008 31.067595 -26.578681 42.963802 1.169000 2.237794 0.046620 -0.028390 -40995.300000 0 0 1
14.294008 31.137295 -27.475871 43.917801 1.140430 2.246723 0.021533 -0.002748 -182961.000000 0 0 1
14.964808 32.355995 -27.458991 44.998356 1.137592 2.227137 0.021629 -0.013211 -514184.000000 0 0 1
16.437408 32.275895 -27.842351 45.684989 1.099754 2.226153 0.003505 0.006225 -382230.000000 0 0 1
17.219508 31.568095 -26.905611 44.910666 1.071436 2.213163 -0.020627 0.013986 1197180.000000 0 0 1
18.573908 31.346395 -27.394011 45.585286 1.035882 2.215473 0.012851 0.008747 1445110.000000 0 0 1
19.550208 30.623495 -26.385731 44.902292 1.002615 2.198917 0.003339 0.021982 -282457.000000 0 0 1
20.010608 31.283295 -25.197381 44.877354 1.001726 2.166960 0.009256 0.020590 176277.000000 0 0 1
20.774808 32.461895 -25.382641 46.148084 1.001501 2.153192 0.012148 0.008951 5096.750000 0 0 1
22.255908 32.182295 -25.760441 46.846834 0.965759 2.153025 0.002402 0.011723 -326754.000000 0 0 1
22.376608 31.562595 -27.046381 47.206108 0.954082 2.180888 0.007525 0.017256 526692.000000 0 0 1
23.688008 31.657095 -27.630461 48.236249 0.928404 2.180733 0.008302 0.020082 579558.000000 0 0 1
23.648108 30.998195 -29.039321 48.614846 0.919099 2.210970 0.002777 0.011992 -154859.000000 0 0 1
22.805308 31.622795 -29.942161 49.159091 0.946005 2.225705 0.009768 0.008472 324726.000000 0 0 1
21.580908 30.893895 -30.175441 48.277588 0.961045 2.245980 0.005579 -0.000303 792062.000000 0 0 1
20.632608 31.706695 -31.137711 48.995673 0.993906 2.259478 -0.011872 0.002518 -530678.000000 0 0 1
19.975708 32.789395 -30.425671 48.988721 1.023630 2.240910 -0.005977 -0.002010 60515.700000 0 0 1
19.278908 33.622795 -31.355311 49.853025 1.050174 2.251005 0.000167 -0.006792 -1175690.000000 0 0 1
17.781908 33.421195 -31.283471 49.110366 1.081835 2.261401 0.004495 -0.014212 -1136200.000000 0 0 1
17.391808 32.047995 -31.502321 48.186566 1.073590 2.283336 0.014012 -0.022966 -54524.200000 0 0 1
17.659308 31.471595 -32.801651 48.767414 1.059457 2.308532 0.020605 -0.026951 -917573.000000 0 0 1
17.165808 32.198195 -34.122844 49.957554 1.080998 2.322709 0.040604 -0.034339 -273026.000000 0 0 1
17.728708 33.491495 34.311474 51.120100 1.083946 0.834979 0.026603 -0.021626 -11144.400000 0 0 1
17.456608 34.135795 33.053356 50.621241 1.098081 0.859318 0.025754 -0.026774 -643321.000000 0 0 1
16.022408 -34.068226 32.846705 49.962662 -1.131187 0.853400 0.035973 -0.029722 -297835.000000 0 0 1
15.082208 33.580695 32.576400 49.156464 1.148663 0.846367 0.050700 -0.035343 897200.000000 0 0 1
13.699908 33.895895 32.799859 49.116697 1.186695 0.839555 0.039243 -0.030394 1022310.000000 0 0 1
13.101508 -34.120126 31.519783 48.263125 -1.204175 0.859149 0.027136 -0.024115 -912948.000000 0 0 1
13.600108 -32.802026 31.269883 47.315341 -1.177757 0.848802 0.040780 -0.015249 318415.000000 0 0 1
13.085108 -32.262226 30.076303 46.007122 -1.185484 0.858291 0.032987 -0.014589 -148225.000000 0 0 1
13.795908 -30.935426 29.826513 45.132567 -1.151309 0.848826 0.026299 -0.010583 -150102.000000 0 0 1
13.425808 -29.919226 30.748933 44.954525 -1.148995 0.817563 0.021597 -0.002534 -169810.000000 0 0 1
14.060808 -28.740726 30.586633 44.263730 -1.115802 0.807912 0.033060 -0.012807 -978839.000000 0 0 1
13.370508 -27.666126 31.450953 43.969847 -1.120613 0.773765 0.040151 -0.015016 -622490.000000 0 0 1
12.020308 -27.401126 31.296403 43.298665 -1.157396 0.762946 0.037075 -0.013198 -878343.000000 0 0 1
11.703208 -26.410126 30.375333 41.918024 -1.153667 0.760289 0.028403 -0.015720 -312486.000000 0 0 1
11.930808 -24.899426 30.836833 41.391254 -1.123959 0.730249 0.033594 -0.014855 89911.700000 0 0 1
11.021108 -24.410626 31.828633 41.598142 -1.146706 0.699529 0.041438 -0.014739 255523.000000 0 0 1
11.374408 -23.160726 32.394283 41.414804 -1.114288 0.672622 0.045241 -0.015396 152257.000000 0 0 1
10.483908 -22.765526 33.630186 41.942472 -1.139231 0.640467 0.053330 -0.014765 -150065.000000 0 0 1
10.605608 -23.525026 -33.785051 42.512768 -1.147259 2.489315 0.069007 -0.009518 334177.000000 0 0 1
11.872508 -23.767126 -33.187441 42.511633 -1.107521 2.466529 0.056389 -0.007793 456581.000000 0 0 1
12.564508 -22.603626 -32.419891 41.470955 -1.063463 2.468262 0.061381 -0.015101 -181422.000000 0 0 1
12.737708 -21.462626 -33.205211 41.538892 -1.035182 2.497053 0.043348 -0.010249 -3054.550000 0 0 1
13.597808 -20.570526 -32.541781 40.829088 -0.986704 2.493149 0.049043 -0.022046 -286174.000000 0 0 1
13.858108 -19.279026 -33.410401 40.987594 -0.947552 2.523758 0.032211 -0.023840 -481436.000000 0 0 1
14.472408 -19.613526 33.990137 41.826671 -0.935098 0.622124 0.051354 -0.015542 206012.000000 0 0 1
14.321308 -18.649126 32.946551 40.476722 -0.915916 0.619855 0.015726 -0.012730 18520.500000 0 0 1
15.241708 -17.372126 32.851873 40.166479 -0.850628 0.613057 0.028730 -0.013668 -340275.000000 0 0 1
14.900808 -16.394926 33.772898 40.391043 -0.833104 0.580574 0.011768 -0.009056 283089.000000 0 0 1
15.443908 -15.124426 33.445868 39.823218 -0.774947 0.573774 0.041425 -0.018093 -73822.200000 0 0 1
16.910608 -14.922926 33.883249 40.703034 -0.723039 0.587281 0.051048 -0.015506 367473.000000 0 0 1
17.910108 -15.556726 33.090700 40.715822 -0.715194 0.621985 0.051908 -0.007382 899859.000000 0 0 1
19.233608 -15.535426 33.652435 41.758443 -0.679432 0.633630 0.058352 -0.001818 1118970.000000 0 0 1
20.252108 -16.041326 32.562974 41.567046 -0.669894 0.670704 0.060625 -0.004090 -62454.500000 0 0 1
20.428208 -15.313726 31.394613 40.465339 -0.643268 0.682752 0.043571 -0.003929 78572.100000 0 0 1
21.246808 -16.032626 30.525733 40.500523 -0.646432 0.717104 0.036193 0.000110 -305296.000000 0 0 1
21.692708 -15.242726 29.239383 39.469682 -0.612513 0.736527 0.033938 0.007979 630472.000000 0 0 1
22.550308 -14.078726 29.500413 39.711476 -0.558114 0.733451 0.024228 -0.001750 882497.000000 0 0 1
22.801608 -13.426726 28.270343 38.722121 -0.532181 0.752354 0.031574 -0.001032 134045.000000 0 0 1
23.346108 -11.991626 28.369773 38.648207 -0.474504 0.746527 0.026404 0.010511 -524521.000000 0 0 1
22.283908 -11.151926 28.555753 37.899460 -0.464006 0.717487 0.022335 0.006799 -570117.000000 0 0 1
22.695508 -9.813126 28.757423 37.925887 -0.408106 0.710167 0.040844 0.000178 -146446.000000 0 0 1
21.535508 -8.813626 28.655483 36.913342 -0.388464 0.682036 0.040342 0.001049 -380167.000000 0 0 1
20.712208 -8.831026 29.791103 37.342903 -0.403029 0.647206 0.037080 -0.001343 -553327.000000 0 0 1
19.858208 -7.727126 29.671883 36.530502 -0.371088 0.622798 0.027577 -0.010994 -145772.000000 0 0 1
18.645108 -7.666326 30.634713 36.672855 -0.390099 0.582025 0.027125 0.003516 -98557.100000 0 0 1
18.976408 -7.386526 31.972893 37.906869 -0.371203 0.567106 0.034196 -0.001586 249867.000000 0 0 1
19.609708 -8.391726 32.757546 39.089878 -0.404356 0.577178 0.039208 -0.015180 -628046.000000 0 0 1
19.724808 -8.153226 34.283247 40.384207 -0.391961 0.556844 0.050708 -0.020870 71064.300000 0 0 1
18.459508 -8.121026 -33.696821 39.270602 -0.414454 2.602291 0.038397 -0.027978 390768.000000 0 0 1
18.612108 -7.478126 -32.475411 38.170476 -0.382047 2.588301 0.042553 -0.033797 302185.000000 0 0 1
17.252808 -7.287926 -31.753431 36.865344 -0.399683 2.608689 0.037178 -0.029360 148255.000000 0 0 1
17.445108 -6.653126 -30.502771 35.763318 -0.364348 2.592324 0.033510 -0.024445 -77273.500000 0 0 1
16.272008 -6.222826 -29.869981 34.579149 -0.365264 2.613589 0.035405 -0.015276 -237602.000000 0 0 1
16.576708 -5.033126 -28.936051 33.725578 -0.294780 2.602131 0.025558 -0.012494 163125.000000 0 0 1
17.479308 -5.167026 -27.808981 33.250019 -0.287423 2.561405 0.019716 -0.004593 400770.000000 0 0 1
17.151708 -5.989126 -26.686081 32.283086 -0.335949 2.543884 0.018011 -0.013699 -768382.000000 0 0 1
15.797908 -5.765226 -25.999731 30.964459 -0.349918 2.567460 0.025836 -0.010352 -212369.000000 0 0 1
15.627608 -4.477226 -25.430041 30.182025 -0.279021 2.572807 -0.000866 -0.009181 307410.000000 0 0 1
14.397508 -4.492426 -24.693721 28.935272 -0.302455 2.593294 0.040997 -0.007983 546561.000000 0 0 1
14.082008 -3.246526 -23.818321 27.859563 -0.226585 2.596236 0.035973 -0.003250 40905.200000 0 0 1
14.099808 -2.014526 -24.513321 28.350763 -0.141916 2.615238 0.032373 -0.009049 145299.000000 0 0 1
13.678908 -1.022526 -23.563121 27.264973 -0.074613 2.614408 0.042026 -0.010578 84574.800000 0 0 1
13.965308 0.382474 -24.135521 27.887264 0.027381 2.616879 0.034861 -0.014488 -179116.000000 0 0 1
13.036208 0.760474 -25.123051 28.314108 0.058269 2.662249 0.048212 -0.017320 95275.600000 0 0 1
13.538308 1.949474 -25.751201 29.158370 0.143014 2.653331 0.049533 -0.006033 -34464.800000 0 0 1
12.736208 2.499474 -26.928051 29.892780 0.193787 2.692454 0.048560 -0.008572 355748.000000 0 0 1
11.571208 3.221474 -26.525071 29.117866 0.271528 2.716390 0.046426 -0.016463 32545.700000 0 0 1
10.635508 3.417474 -27.524621 29.705183 0.310906 2.756047 0.044884 -0.016597 -891243.000000 0 0 1
9.462708 4.255474 -27.092211 29.011029 0.422613 2.775852 0.037156 -0.018698 -480908.000000 0 0 1
9.839908 5.601474 -26.752601 29.049990 0.517510 2.741220 0.039368 -0.018576 -34283.000000 0 0 1
8.660708 6.322474 -26.517151 28.603161 0.630590 2.757318 0.045386 -0.019814 35247.500000 0 0 1
7.826208 5.581495 -30.537721 32.014918 0.619517 2.836633 0.034754 -0.006050 -412293.000000 0 0 1
7.695908 4.300995 -29.971151 31.240925 0.509626 2.855505 0.036957 -0.004316 288499.000000 0 0 1
8.020908 3.313395 -30.909211 32.104405 0.391744 2.867871 0.022623 -0.003781 -152495.000000 0 0 1
7.673308 1.952795 -30.302471 31.319847 0.249202 2.886012 0.022990 -0.008080 -505461.000000 0 0 1
8.545808 1.627295 -29.267911 30.533416 0.188167 2.852677 0.035427 -0.017252 -76144.700000 0 0 1
8.119708 0.520595 -28.614741 29.749018 0.064027 2.864562 0.038605 -0.023155 -585346.000000 0 0 1
9.036308 0.091095 -27.453321 28.902387 0.010081 2.823595 0.039934 -0.022701 -557317.000000 0 0 1
10.231108 -0.449605 -27.897451 29.717763 -0.043917 2.789771 0.057643 -0.011971 -329299.000000 0 0 1
11.082008 -0.922005 -26.837891 29.050531 -0.083007 2.748777 0.059079 -0.010759 180320.000000 0 0 1
12.059908 -1.971605 -27.383971 29.986838 -0.162051 2.721864 0.052433 -0.006064 -134836.000000 0 0 1
11.383408 -3.114505 -27.861841 30.258293 -0.267065 2.740923 0.057223 -0.011167 -221165.000000 0 0 1
12.246208 -4.167405 -28.115261 30.948421 -0.328009 2.710370 0.063548 -0.012161 -258510.000000 0 0 1
11.603308 -5.503605 -27.710841 30.542055 -0.442888 2.707617 0.052216 -0.003362 96784.200000 0 0 1
11.381208 -5.634705 -26.315581 29.219712 -0.459711 2.691969 0.046279 -0.003656 68378.900000 0 0 1
11.325808 -6.990705 -25.935051 29.150827 -0.552997 2.667451 0.053223 -0.008070 -39960.800000 0 0 1
11.088708 -7.168005 -24.442221 27.780603 -0.573857 2.646302 0.061349 -0.009682 270265.000000 0 0 1
12.157308 -6.784605 -23.593421 27.394899 -0.509016 2.608489 0.024526 -0.003027 17583.900000 0 0 1
11.683108 -6.909405 -22.255921 26.068389 -0.534073 2.593944 0.042737 -0.009127 576280.000000 0 0 1
12.661408 -6.618305 -21.058021 25.447072 -0.481654 2.545476 0.036613 -0.010083 89397.900000 0 0 1
13.283408 -5.412605 -21.035221 25.460278 -0.386930 2.543121 0.026077 -0.008999 -240391.000000 0 0 1
14.255908 -5.449405 -19.994521 25.153683 -0.365117 2.489630 0.015431 -0.011239 98962.500000 0 0 1
14.637908 -4.083405 -19.363121 24.614487 -0.272045 2.476169 0.022426 -0.010353 -625391.000000 0 1 0
15.415408 -3.402405 -20.263721 25.687147 -0.217232 2.479758 0.023259 -0.004897 -226285.000000 0 0 1
15.979308 -2.253405 -19.677021 25.448011 -0.140096 2.454706 0.028652 -0.008353 -458654.000000 0 0 1
17.130608 -1.615705 -20.440921 26.718897 -0.094039 2.441894 0.014294 -0.004378 25246.300000 0 0 1
18.340908 -2.367005 -20.397621 27.532790 -0.128347 2.405129 0.021293 -0.004340 78320.300000 0 0 1
19.117908 -1.968205 -21.490421 28.830651 -0.102589 2.411934 0.021453 -0.008081 173905.000000 0 0 1
20.484708 -2.703105 -21.624621 29.909100 -0.131199 2.378948 0.019938 -0.006189 -434385.000000 0 0 1
21.483708 -2.256705 -20.747921 29.951939 -0.104659 2.336032 0.029610 -0.014848 40836.700000 0 0 1
22.748008 -2.876305 -20.831821 30.979183 -0.125775 2.308305 0.032949 -0.014926 204385.000000 0 0 1
23.647708 -2.236905 -21.939521 32.335127 -0.094312 2.316521 0.039070 -0.015249 -1309140.000000 0 0 1
23.165108 -2.318105 -23.235921 32.892307 -0.099737 2.355230 0.035414 -0.014825 -321721.000000 0 0 1
23.844608 -1.536305 -24.146821 33.970495 -0.064341 2.361456 0.038572 -0.010147 286473.000000 0 0 1
25.143008 -2.187905 -24.722321 35.329179 -0.086800 2.345873 0.041727 -0.017244 -304753.000000 0 0 1
26.116108 -2.623805 -23.789821 35.424441 -0.100131 2.307115 0.043011 -0.016766 -613526.000000 0 0 1
27.216608 -3.309505 -24.247521 36.601077 -0.121005 2.294922 0.037541 -0.011039 -187749.000000 0 0 1
28.275408 -2.379105 -24.895121 37.748190 -0.083943 2.290956 0.044526 -0.020265 -1004340.000000 0 0 1
27.874008 -2.044805 -26.201101 38.309780 -0.073228 2.323929 0.039743 -0.020929 438309.000000 0 0 1
28.575408 -0.879105 -26.741671 39.146439 -0.030755 2.322821 0.039584 -0.024241 -88430.200000 0 0 1
28.080308 -0.478905 -28.156781 39.768547 -0.017053 2.357482 0.043634 -0.027244 74208.700000 0 0 1
26.759308 -0.015205 -28.325111 38.966302 -0.000568 2.384612 0.034057 -0.019723 26514.500000 0 0 1
26.413308 1.295295 -27.924701 38.459453 0.049000 2.383402 0.026941 -0.018347 -1108250.000000 0 0 1
24.952908 1.643595 -28.095571 37.612632 0.065773 2.414292 0.009754 -0.013763 -919708.000000 0 0 1
24.064208 1.101895 -27.136851 36.286484 0.045758 2.415614 0.009641 -0.011836 -1030100.000000 0 0 1
22.777608 1.403195 -27.546551 35.771509 0.061526 2.449747 0.001201 0.000116 -806696.000000 0 0 1
21.824908 1.127195 -26.326981 34.215597 0.051601 2.448766 0.002014 0.001536 -10515.000000 0 0 1
22.028908 1.994295 -25.190861 33.523566 0.090285 2.421034 0.006809 0.003162 195437.000000 0 0 1
21.043208 1.754795 -24.201921 32.118980 0.083198 2.424179 0.012634 -0.004157 -35889.200000 0 0 1
21.345308 2.311395 -22.782721 31.305224 0.107866 2.385848 0.026887 -0.011277 -294596.000000 0 0 1
21.088308 3.656895 -22.542121 31.084350 0.171701 2.382109 0.030828 -0.014161 373303.000000 0 0 1
21.479408 3.971995 -21.221221 30.454588 0.182855 2.341744 0.030578 -0.012421 -193832.000000 0 0 1
21.128608 5.430295 -20.856221 30.180923 0.251567 2.333723 0.040906 -0.009799 279607.000000 0 0 1
22.011308 6.380195 -21.489221 31.416416 0.282128 2.324045 0.035804 -0.011427 691086.000000 0 0 1
21.860608 7.689595 -20.905021 31.209549 0.338238 2.304773 0.025266 -0.009192 -307500.000000 0 0 1
22.246808 7.960595 -19.456621 30.608032 0.343634 2.259673 0.031038 -0.013971 240508.000000 0 0 1
23.649308 8.098095 -19.187021 31.512072 0.329910 2.225442 0.024740 -0.006240 1022070.000000 0 0 1
24.093208 8.413695 -17.885921 31.163746 0.335975 2.182098 0.039363 -0.014353 -74216.500000 0 0 1
23.833308 9.902695 -17.453121 31.156081 0.393795 2.165404 0.036373 -0.015900 604573.000000 0 0 1
22.492608 10.167995 -16.987521 29.964669 0.424565 2.173556 0.044264 -0.024906 817161.000000 0 0 1
22.239508 11.530195 -17.039621 30.296696 0.478303 2.168112 0.050321 -0.017694 -1432580.000000 0 0 1
20.830808 11.980095 -16.690121 29.257569 0.521920 2.177856 0.041110 -0.017754 -61396.200000 0 0 1
19.788608 11.748195 -17.639021 28.995588 0.535763 2.224757 0.045693 -0.024557 626852.000000 0 0 1
19.501208 10.362195 -17.876421 28.411945 0.488421 2.251303 0.049867 -0.020865 -1239100.000000 0 0 1
18.586308 10.072995 -19.052421 28.458932 0.496648 2.304292 0.061351 -0.012228 -88433.600000 0 0 1
19.277908 10.127095 -20.307321 29.775545 0.483699 2.321308 0.059654 -0.012837 438932.000000 0 0 1
18.482008 9.614395 -21.366321 29.841931 0.479679 2.368828 0.049326 -0.019490 -56820.100000 0 0 1
19.042908 9.824395 -22.806421 31.293512 0.476293 2.387351 0.057697 -0.025663 -280232.000000 0 0 1
19.168808 11.166295 -23.216021 32.110948 0.527471 2.378923 0.051246 -0.029434 166553.000000 0 0 1
19.631708 11.267095 -24.524721 33.373842 0.521025 2.396240 0.052651 -0.030350 -157216.000000 0 0 1
20.062908 12.737095 -24.775621 34.330529 0.565657 2.377021 0.040869 -0.021428 95208.300000 0 0 1
20.622608 12.943995 -26.081531 35.680319 0.560510 2.390550 0.037108 -0.020557 346684.000000 0 0 1
21.041608 14.312495 -26.226031 36.543145 0.597313 2.371251 0.031658 -0.019068 -17585.900000 0 0 1
19.966708 15.235895 -26.835141 36.754955 0.651810 2.389278 0.039665 -0.021359 360985.000000 0 0 1
18.781408 15.419995 -26.067861 35.637773 0.687430 2.391267 0.042825 -0.017015 54197.700000 0 0 1
17.745908 15.838995 -26.922041 35.924745 0.728680 2.417953 0.036636 -0.027153 478224.000000 0 0 1
16.297708 15.488595 -26.463361 34.724938 0.759949 2.437324 0.039454 -0.031400 138194.000000 0 0 1
16.056808 14.101595 -26.218251 33.824144 0.720657 2.457724 0.037766 -0.020759 1231850.000000 0 0 1
14.657008 13.728095 -26.149531 32.970994 0.752684 2.486690 0.042644 -0.026105 988617.000000 0 0 1
14.529608 12.157095 -25.989431 32.161389 0.696729 2.511706 0.044410 -0.026648 443234.000000 0 0 1
13.154608 11.787595 -25.872041 31.326564 0.730646 2.542561 0.039013 -0.025480 478281.000000 0 0 1
13.033308 10.408195 -25.569591 30.528701 0.673877 2.563596 0.054412 -0.021331 293535.000000 0 0 1
11.565608 9.938795 -25.425101 29.647574 0.709892 2.601338 0.055551 -0.022046 46768.400000 0 0 1
10.823308 10.326295 -24.321721 28.553852 0.761903 2.590178 0.057200 -0.023443 -605878.000000 0 0 1
9.661208 9.583795 -24.168121 27.736008 0.781376 2.628769 0.046316 -0.022106 -246169.000000 0 0 1
8.692508 9.984995 -23.011621 26.547966 0.854488 2.619533 0.037389 -0.024682 108172.000000 0 0 1
7.832308 11.038595 -23.351021 26.990105 0.953697 2.616285 0.036247 -0.029018 118837.000000 0 0 1
7.195908 11.840995 -22.304021 26.257562 1.024726 2.585705 0.040932 -0.023119 415987.000000 0 0 1
8.112908 12.895395 -21.656021 26.478174 1.009231 2.528517 0.057990 -0.025950 -110286.000000 0 0 1
9.123908 12.274895 -20.919721 25.914348 0.931598 2.510298 0.061809 -0.023813 -734218.000000 0 0 1
10.120008 13.190995 -20.556221 26.438137 0.916384 2.461511 0.069989 -0.021576 -259484.000000 0 0 1
11.153708 12.637795 -19.507621 25.781123 0.847696 2.428990 0.079624 -0.018035 -7580.680000 0 0 1
12.103908 11.737795 -19.989821 26.150972 0.770043 2.440908 0.082067 -0.026520 -221947.000000 0 0 1
11.606608 10.504495 -20.493121 25.788093 0.735595 2.489266 0.080420 -0.036154 -413278.000000 0 0 1
12.628208 9.767395 -21.409421 26.706496 0.658346 2.500857 0.066124 -0.037001 -296228.000000 0 0 1
13.640708 9.110195 -20.749921 26.450402 0.588834 2.472660 0.089633 -0.039538 -607365.000000 0 0 1
14.387008 8.419295 -21.706821 27.368898 0.529467 2.486711 0.081394 -0.031372 -175641.000000 0 0 1
15.140908 7.105495 -21.351521 27.122363 0.438780 2.477099 0.087852 -0.028125 -703056.000000 0 0 1
16.150408 7.256895 -20.453621 27.052704 0.422298 2.428077 0.081347 -0.030784 -601444.000000 0 0 1
16.344308 6.015895 -19.742221 26.326463 0.352684 2.418708 0.080196 -0.028442 -32271.200000 0 0 1
17.122608 6.030895 -18.385521 25.837623 0.338650 2.362540 0.058137 -0.033375 907816.000000 0 0 1
18.536508 6.229695 -18.619221 27.001604 0.324218 2.331677 0.053561 -0.042795 1339710.000000 0 0 1
19.245508 6.558695 -17.426521 26.778530 0.328447 2.279387 0.056728 -0.033858 596927.000000 0 0 1
20.107408 5.406895 -16.722821 26.705713 0.262687 2.247452 0.057514 -0.036859 815869.000000 0 0 1
21.340008 5.053995 -17.361421 27.970658 0.232547 2.240433 0.039657 -0.026221 688611.000000 0 0 1
21.924708 3.971295 -16.660221 27.821340 0.179190 2.212834 0.044915 -0.029077 -507215.000000 0 0 1
23.352308 3.719295 -17.147821 29.209779 0.157942 2.198216 0.028536 -0.010731 -64678.100000 0 0 1
24.169908 2.903795 -16.282021 29.286869 0.119568 2.160301 0.013978 -0.013185 32897.500000 0 0 1
25.304608 2.425995 -16.920721 30.537181 0.095580 2.158080 0.008592 -0.017024 -287021.000000 0 0 1
26.030708 1.318895 -16.088521 30.629687 0.050624 2.123816 0.019594 -0.028697 294309.000000 0 0 1
25.321408 0.060395 -16.157821 30.037519 0.002385 2.138766 0.028340 -0.023202 983267.000000 0 0 1
26.337908 -0.946505 -16.212721 30.942424 -0.035922 2.122295 0.033111 -0.016842 312038.000000 0 0 1
25.734008 -2.352705 -16.475521 30.646650 -0.091171 2.138380 0.026799 -0.021912 -44101.100000 0 0 1
25.162508 -2.966605 -15.310021 29.603197 -0.117356 2.114343 0.031724 -0.020305 496816.000000 0 0 1
24.914508 -4.381205 -15.447721 29.640509 -0.174070 2.119017 0.033543 -0.014224 -1047220.000000 0 0 1
24.463208 -5.170205 -14.158721 28.734108 -0.208281 2.086043 0.030897 -0.015043 253424.000000 0 0 1
23.138408 -4.978005 -13.697321 27.345622 -0.211910 2.095430 0.032581 -0.009041 677319.000000 0 0 1
22.153108 -5.499805 -14.592921 27.091722 -0.243344 2.139629 0.033058 -0.004321 -301471.000000 0 0 1
20.671608 -5.467605 -14.147721 25.639190 -0.258577 2.155318 0.044888 -0.008696 -29815.500000 0 0 1
20.353708 -6.451805 -13.213921 25.109897 -0.306965 2.124973 0.044101 -0.006064 265228.000000 0 0 1
20.492308 -6.165105 -11.844621 24.458909 -0.292236 2.076320 0.047329 -0.004642 -460543.000000 0 1 0
20.429708 -7.334105 -10.856221 24.269726 -0.344663 2.034558 0.050259 -0.006891 -77745.000000 0 1 0
19.222308 -8.069005 -10.758721 23.459668 -0.397435 2.047221 0.057740 -0.007948 547724.000000 0 1 0
19.000008 -8.941805 -11.840521 24.107138 -0.439870 2.084220 0.050842 -0.013070 544129.000000 0 1 0
17.533108 -9.536005 -11.906521 23.240278 -0.498137 2.108683 0.065289 -0.011702 1140280.000000 0 1 0
16.564408 -8.504305 -12.106121 22.209480 -0.474317 2.147290 0.056738 -0.012509 -276472.000000 0 1 0
15.287508 -9.080705 -12.255521 21.595483 -0.535992 2.174267 0.055336 -0.015497 -290821.000000 0 1 0
14.256708 -7.948705 -12.390021 20.492639 -0.508615 2.220070 0.044662 -0.017651 -629390.000000 0 1 0
14.311408 -7.070305 -13.515821 20.916095 -0.458862 2.273381 0.039798 -0.020092 72800.500000 0 1 0
15.332208 -6.105505 -13.475921 21.306202 -0.378966 2.255558 0.035550 -0.016434 -252594.000000 0 1 0
15.114208 -5.012405 -14.557521 21.575099 -0.320222 2.311405 0.030278 -0.015911 -129114.000000 0 1 0
14.000208 -4.223605 -14.213821 20.393071 -0.292999 2.341991 0.033688 -0.018998 -16646.800000 0 1 0
13.641608 -3.167005 -15.112221 20.603461 -0.228117 2.394224 0.021574 -0.025175 -269873.000000 0 1 0
14.648008 -1.997605 -15.264521 21.249945 -0.135538 2.372198 0.035833 -0.025387 -477766.000000 0 1 0
15.691508 -2.318005 -16.159321 22.643326 -0.146663 2.365486 0.028026 -0.016747 109909.000000 0 1 0
16.806308 -1.438705 -16.123421 23.334236 -0.085397 2.333636 0.043125 -0.017768 19070.000000 0 1 0
17.897008 -1.976305 -15.219421 23.576247 -0.109981 2.272527 0.043881 -0.014085 -1404710.000000 0 1 0
17.546508 -1.899105 -13.892121 22.460578 -0.107813 2.237643 0.037136 -0.008551 101285.000000 0 1 0
18.533208 -2.482805 -13.068821 22.813115 -0.133172 2.180793 0.027065 -0.006303 70362.100000 0 1 0
18.018008 -2.653305 -11.606221 21.596134 -0.146208 2.138173 0.022066 0.000354 -349853.000000 0 1 0
18.058208 -1.513905 -10.736221 21.063172 -0.083639 2.105650 0.033018 -0.006651 606169.000000 0 1 0
17.478408 -1.812105 -9.474021 19.963355 -0.103308 2.065272 0.029695 -0.006467 -1026390.000000 0 1 0
17.407808 -0.524905 -8.615121 19.430070 -0.030144 2.030175 0.021831 -0.005106 -569327.000000 0 1 0
18.534908 -0.109105 -7.875321 20.138903 -0.005886 1.972569 0.010829 -0.005027 929913.000000 0 1 0
19.653308 0.435895 -8.612521 21.462014 0.022176 1.983723 0.012639 -0.003359 177100.000000 0 1 0
19.471808 1.675695 -9.489421 21.725754 0.085846 2.022815 0.022382 -0.003743 -1049440.000000 0 1 0
19.181708 2.867495 -8.777021 21.288413 0.148392 1.995764 0.011905 0.005142 540672.000000 0 1 0
18.844608 3.910595 -9.675121 21.541123 0.204614 2.036606 0.020835 -0.001631 -78992.100000 0 1 0
18.401408 5.213795 -8.921421 21.104199 0.276100 2.007254 0.009239 0.000505 -185062.000000 0 1 0
17.942508 6.317995 -9.685921 21.346375 0.338566 2.041765 0.033952 -0.003601 809161.000000 0 1 0
18.658708 7.500195 -9.229821 22.126678 0.382201 2.001087 0.074128 -0.003840 267242.000000 0 1 0
-26.167352 -30.041265 6.237079 40.325043 0.854210 1.415503 0.058695 -0.016147 46124.600000 0 0 1
-26.435032 -28.689895 6.418479 39.536286 0.826280 1.407731 0.029594 -0.011881 -397100.000000 0 0 1
-25.326902 -27.861375 6.127979 38.147875 0.833013 1.409460 0.066415 -0.015683 -451089.000000 0 0 1
-25.348222 -26.569075 7.005379 37.383465 0.808909 1.382289 0.035538 0.003647 -8261.370000 0 0 1
-26.464222 -25.685205 6.894979 37.518336 0.770461 1.385970 0.022899 -0.004733 603675.000000 0 0 1
-27.683372 -26.187325 7.493279 38.836765 0.757634 1.376636 0.029582 -0.005163 585608.000000 0 0 1
-27.804572 -26.176345 9.053579 39.246179 0.755244 1.338013 0.024680 0.000385 446596.000000 0 0 1
-26.844452 -27.071865 9.688379 39.336690 0.789616 1.321942 0.019939 -0.003131 595726.000000 0 0 1
-27.267892 -27.219935 11.012879 40.071765 0.784518 1.292385 0.024671 -0.002574 3843.140000 0 0 1
-26.346012 -28.157825 11.878779 40.349484 0.818628 1.271972 0.025887 -0.011346 673317.000000 0 0 1
-25.139242 -27.558575 12.329779 39.287148 0.831276 1.251564 0.027092 -0.011721 32832.400000 0 0 1
-25.269342 -26.626895 13.389279 39.074339 0.811551 1.221048 0.028978 0.000533 -119768.000000 0 0 1
-23.934492 -26.215195 14.081379 38.188763 0.830845 1.193153 0.032722 -0.000136 397919.000000 0 0 1
-23.304892 -27.239375 14.811279 38.787570 0.863084 1.178992 0.035167 -0.008176 1124200.000000 0 0 1
-22.044592 -26.831555 15.438279 38.003117 0.883027 1.152464 0.049632 -0.010353 927979.000000 0 0 1
-21.288492 -28.028605 15.908679 38.624975 0.921226 1.146285 0.061056 -0.026564 -656394.000000 0 0 1
-22.018992 -28.707615 16.915779 39.938788 0.916498 1.133444 0.070469 -0.021236 409608.000000 0 0 1
-21.345592 -29.887765 17.340579 40.615373 0.950609 1.129683 0.077045 -0.016425 200338.000000 0 0 1
-22.211992 -30.688065 18.358879 42.097249 0.944276 1.119529 0.089976 -0.029035 -8419.120000 0 0 1
-23.338492 -31.280045 17.776379 42.885034 0.929787 1.143389 0.069389 -0.018864 -110640.000000 0 0 1
-23.858492 -32.347195 18.570879 44.276927 0.935295 1.137984 0.065757 -0.017656 433154.000000 0 0 1
-25.067042 -33.071515 17.865279 45.180194 0.922217 1.164268 0.059075 -0.018293 414227.000000 0 0 1
-24.624992 -33.698225 16.717879 44.960517 0.939729 1.189812 0.063187 -0.019098 -35431.200000 0 0 1
-25.618812 34.174152 16.231879 45.691029 -0.927516 1.207612 0.060565 -0.014764 -899579.000000 0 0 1
-25.153742 33.585841 14.900379 44.527978 -0.927975 1.229584 0.048334 -0.021935 155450.000000 0 0 1
-23.963992 32.820264 14.921179 43.290695 -0.940115 1.218905 0.040356 -0.019829 229590.000000 0 0 1
-22.851192 33.586181 14.509979 43.136389 -0.973363 1.227732 0.041871 -0.015027 -297235.000000 0 0 1
-21.499492 32.838937 14.498479 41.842919 -0.991128 1.216961 0.060523 -0.021080 48082.200000 0 0 1
-21.496092 31.768435 13.524079 40.672056 -0.975914 1.231827 0.049696 -0.015264 -150789.000000 0 0 1
-20.382492 30.928725 13.563479 39.446166 -0.988110 1.219785 0.043492 -0.015155 -260371.000000 0 0 1
-20.416092 30.048515 12.308379 38.356568 -0.974004 1.244123 0.040374 -0.015929 165410.000000 0 0 1
-20.003892 30.794905 11.169779 38.382885 -0.994713 1.275515 0.034180 -0.014624 -41471.300000 0 0 1
-19.809592 29.977005 10.055279 37.311519 -0.986848 1.297927 0.029426 -0.016147 23237.200000 0 0 1
-19.242592 30.766385 8.852179 37.352495 -1.011879 1.331530 0.014105 -0.011511 668696.000000 0 0 1
-17.803992 30.822485 8.852179 36.679269 -1.046988 1.327050 0.013010 -0.019908 399566.000000 0 0 1
-17.351492 31.460475 7.696079 36.743236 -1.066777 1.359778 0.013412 -0.018437 -109991.000000 0 0 1
-16.844092 30.555965 6.507879 35.492858 -1.066991 1.386396 0.004352 -0.017304 7318.070000 0 0 1
-17.753592 29.579295 5.945979 35.006848 -1.030227 1.400117 0.005643 -0.012677 225738.000000 0 0 1
-18.086992 28.420225 6.695479 34.346440 -1.004032 1.374601 -0.009242 -0.012208 -507054.000000 0 0 1
-19.047192 27.474155 6.021879 33.968923 -0.964597 1.392578 0.002444 -0.002399 -683768.000000 0 0 1
-18.487992 26.756965 4.965279 32.899772 -0.966163 1.419296 0.010068 -0.009928 145884.000000 0 0 1
-19.533992 26.085455 4.294379 32.870496 -0.928034 1.439776 0.034210 -0.015182 -549177.000000 0 0 1
-19.156292 25.330275 3.024279 31.901922 -0.923300 1.475854 0.045791 -0.022435 -1700710.000000 0 0 1
-18.646392 25.963145 1.861179 32.019320 -0.947968 1.512637 0.048854 -0.028377 893223.000000 0 0 1
-17.331092 26.532455 1.971879 31.752578 -0.992172 1.508655 0.032632 -0.029638 752215.000000 0 0 1
-16.167992 25.522585 2.365379 30.305137 -1.006124 1.492665 0.015375 -0.024501 -695275.000000 0 0 1
-15.930392 24.496735 1.412379 29.255123 -0.994206 1.522500 0.030221 -0.029173 46242.400000 0 0 1
-15.658892 24.848855 0.076379 29.371284 -1.008491 1.568196 0.036561 -0.026720 -165263.000000 0 0 1
-15.324792 23.641315 -0.842021 28.186345 -0.995673 1.600674 0.039701 -0.030483 840243.000000 0 0 1
-16.545292 22.919615 -1.125121 28.289951 -0.945534 1.610578 0.057939 -0.036185 758235.000000 0 0 1
-16.465192 21.703015 -1.904121 27.308407 -0.921776 1.640579 0.059575 -0.029627 -69606.400000 0 0 1
-15.514292 20.535715 -1.455321 25.778417 -0.923798 1.627281 0.048952 -0.029693 150830.000000 0 0 1
-15.985392 19.958215 -0.287321 25.572361 -0.895481 1.582032 0.065930 -0.032615 574911.000000 0 0 1
-15.087692 18.959615 0.289279 24.231986 -0.898634 1.558858 0.076352 -0.036418 310717.000000 0 1 0
-15.813492 17.832415 1.046979 23.857027 -0.845331 1.526897 0.068497 -0.025793 -47101.900000 0 1 0
-16.547392 17.003815 0.161179 23.727029 -0.799001 1.564003 0.067850 -0.010332 205270.000000 0 1 0
-16.983392 15.916815 0.971679 23.296454 -0.752991 1.529075 0.066725 -0.030515 2822.250000 0 1 0
-17.707292 14.763415 0.189179 23.055203 -0.694983 1.562591 0.075443 -0.020983 268960.000000 0 1 0
-19.023392 15.126615 -0.213621 24.305340 -0.671782 1.579585 0.102942 -0.022600 338806.000000 0 1 0
-19.690492 13.988415 -0.662321 24.162572 -0.617682 1.598211 0.101870 -0.012457 -241096.000000 0 1 0
-20.751692 14.156315 -1.770521 25.182707 -0.598663 1.641161 0.108376 -0.008428 307380.000000 0 0 1
-21.711392 13.101215 -2.075421 25.442754 -0.542935 1.652459 0.104403 -0.012062 1692730.000000 0 0 1
-22.708092 12.737215 -1.118321 26.060405 -0.511181 1.613722 0.091999 -0.010373 -243837.000000 0 0 1
-23.846892 13.727415 -0.878821 27.529775 -0.522321 1.602724 0.068451 -0.010886 -775759.000000 0 0 1
-23.375292 14.977315 -0.341621 27.764022 -0.569833 1.583101 0.063265 -0.018893 94859.100000 0 0 1
-24.460192 15.815015 -0.088521 29.127711 -0.573954 1.573835 0.060400 -0.017417 -250954.000000 0 0 1
-24.049892 16.879715 0.957379 29.397936 -0.611975 1.538224 0.060967 -0.022288 128710.000000 0 0 1
-23.659992 16.411915 2.223479 28.880617 -0.606456 1.493731 0.062584 -0.027844 26586.300000 0 0 1
-23.336192 17.426815 3.138879 29.293759 -0.641432 1.463438 0.049306 -0.025535 105835.000000 0 0 1
-24.332692 18.643515 3.457879 30.848298 -0.653784 1.458467 0.053934 -0.032506 -73146.000000 0 0 1
-25.370792 18.145215 4.313079 31.488547 -0.620855 1.433391 0.052898 -0.028441 204535.000000 0 0 1
-26.581682 18.813115 4.064179 32.818237 -0.615907 1.446639 0.054456 -0.037233 -259470.000000 0 0 1
-27.417642 18.459415 2.807079 33.171626 -0.592559 1.486072 0.066618 -0.032864 -931850.000000 0 0 1
-28.689112 19.017215 3.039679 34.553716 -0.585371 1.482713 0.069172 -0.031957 -432587.000000 0 0 1
-29.447482 18.980715 1.887279 35.085375 -0.572543 1.516979 0.069455 -0.031441 -591845.000000 0 0 1
-30.779092 19.741415 1.875079 36.614094 -0.570299 1.519562 0.080358 -0.036961 -1091710.000000 0 0 1
-31.832982 19.045415 2.452479 37.176353 -0.539163 1.504780 0.089272 -0.023922 -203270.000000 0 0 1
-33.010062 19.840915 2.271379 38.580892 -0.541196 1.511889 0.078381 -0.026396 230041.000000 0 0 1
-33.428132 20.635015 3.552779 39.444468 -0.553039 1.480604 0.065684 -0.018980 159930.000000 0 0 1
-32.349172 21.477115 4.017479 39.036848 -0.586095 1.467699 0.078226 -0.031027 852092.000000 0 0 1
-32.522112 21.777215 5.397179 39.510308 -0.590039 1.433766 0.079350 -0.018591 50396.500000 0 0 1
-31.448082 22.770115 5.930979 39.276412 -0.626688 1.419210 0.074123 -0.021516 65942.800000 0 0 1
-31.631352 24.031405 5.349579 40.083274 -0.649702 1.436935 0.064387 -0.018671 34188.200000 0 0 1
-30.732382 24.881435 5.944879 39.986331 -0.680577 1.421570 0.058462 -0.020064 -531484.000000 0 0 1
-31.099362 26.333365 5.553979 41.127401 -0.702604 1.435339 0.048587 -0.017037 -445505.000000 0 0 1
-32.189412 26.764075 6.301479 42.334178 -0.693629 1.421390 0.047388 -0.009053 -166808.000000 0 0 1
-32.311012 28.131015 6.059379 43.267443 -0.716351 1.430290 0.041025 -0.006118 -103506.000000 0 0 1
-33.369242 28.792445 6.931779 44.615701 -0.711903 1.414798 0.042311 -0.006700 -334596.000000 0 0 1
-32.834092 28.896965 8.251979 44.510755 -0.721706 1.384325 0.043957 -0.002259 961535.000000 0 0 1
-33.748542 29.508195 9.198479 45.763628 -0.718464 1.368418 0.054660 -0.001585 1027060.000000 0 0 1
-34.958994 28.687715 9.798979 46.272414 -0.687183 1.357414 0.053262 -0.000942 282245.000000 0 0 1
-34.575555 27.607045 10.573379 45.490815 -0.673799 1.336222 0.050985 -0.000343 -157292.000000 0 0 1
-35.676318 27.040515 11.219579 46.150494 -0.648563 1.325227 0.054766 -0.001960 -318474.000000 0 0 1
-35.317925 25.842985 12.141479 45.416200 -0.631702 1.300167 0.041097 0.002814 -400205.000000 0 0 1
-34.585285 26.202585 13.275579 45.375747 -0.648362 1.273883 0.045117 -0.002976 1532.490000 0 0 1
-34.068441 25.100335 14.034479 44.583092 -0.634975 1.250557 0.043809 0.003233 168850.000000 0 0 1
-32.725682 25.506915 14.675979 44.010878 -0.662063 1.230822 0.046395 0.001462 -100739.000000 0 0 1
-32.941672 26.346275 15.797979 45.042825 -0.674610 1.212443 0.046140 -0.009018 -206600.000000 0 0 1
-31.761282 26.708465 16.446679 44.638710 -0.699195 1.193466 0.074225 -0.010245 -356172.000000 0 0 1
-32.004572 27.922045 17.373879 45.888832 -0.717378 1.182504 0.070111 -0.025901 -290495.000000 0 0 1
-32.290722 29.110935 16.704579 46.574459 -0.733658 1.203960 0.084358 -0.028216 172417.000000 0 0 1
-32.614092 30.208235 17.508279 47.778199 -0.747121 1.195607 0.079755 -0.026049 -82140.000000 0 0 1
-32.104492 31.608075 17.030979 48.164542 -0.777607 1.209379 0.070660 -0.021652 -383961.000000 0 0 1
-30.710762 31.680725 16.997179 47.283436 -0.800943 1.203092 0.059159 -0.016356 -447539.000000 0 0 1
-30.212842 32.822109 16.310379 47.498791 -0.826769 1.220277 0.065131 -0.008168 176813.000000 0 0 1
-28.761082 32.601685 15.795779 46.255555 -0.847905 1.222295 0.074403 -0.012283 -158999.000000 0 0 1
-28.616232 31.869755 14.586279 45.247426 -0.839136 1.242567 0.059334 -0.008911 135136.000000 0 0 1
-28.550942 30.432515 14.723579 44.250176 -0.817287 1.231594 0.056494 -0.015267 -228112.000000 0 0 1
-29.787992 29.661735 14.228479 44.380093 -0.783274 1.244428 0.065796 -0.013751 -53972.100000 0 0 1
-29.862612 29.307815 12.858279 43.772811 -0.776022 1.272648 0.060997 -0.012877 -550619.000000 0 0 1
-30.841492 28.340725 12.660579 43.757109 -0.743168 1.277262 0.073251 -0.004160 -350605.000000 0 0 1
-30.992592 27.923935 11.184579 43.190065 -0.733360 1.308849 0.063708 0.002662 399932.000000 0 0 1
-29.820272 27.320595 10.626679 41.816143 -0.741680 1.313850 0.051306 0.006712 325961.000000 0 0 1
-29.650842 27.718945 9.291579 41.639474 -0.751736 1.345758 0.044013 -0.007214 514366.000000 0 0 1
-28.466562 27.007695 8.551079 40.160698 -0.759106 1.356232 0.042792 -0.008982 677393.000000 0 0 1
-28.066072 27.631405 7.302279 40.056488 -0.777594 1.387472 0.045502 -0.012948 247387.000000 0 0 1
-27.114882 26.812135 6.598279 38.699415 -0.779784 1.399458 0.043257 -0.012837 259576.000000 0 0 1
-26.842662 27.154765 5.094579 38.520962 -0.791178 1.438153 0.047182 -0.018476 -115678.000000 0 0 1
-25.987932 28.238465 4.809779 38.677093 -0.826877 1.446116 0.034886 -0.010720 215297.000000 0 0 1
-25.775742 28.504065 3.432879 38.583096 -0.835620 1.481705 0.035891 -0.014337 -260220.000000 0 0 1
-24.733692 29.589145 3.235379 38.700655 -0.874543 1.487099 0.038959 -0.017152 -454700.000000 0 0 1
-23.402892 29.361525 3.592579 37.718711 -0.897851 1.475405 0.037176 -0.020097 19332.700000 0 0 1
-22.482692 30.323105 3.043779 37.871186 -0.932798 1.490338 0.032885 -0.012955 1444940.000000 0 0 1
-20.997892 29.907225 3.377479 36.698242 -0.958662 1.478632 0.021812 -0.016253 1102170.000000 0 0 1
-20.013692 30.693185 2.736079 36.743783 -0.992977 1.496264 0.019998 -0.015090 -461732.000000 0 0 1
-18.715192 30.348985 3.155879 35.794956 -1.018212 1.482516 0.024116 -0.026536 761757.000000 0 0 1
-17.570692 31.255305 2.547079 35.945945 -1.058660 1.499878 0.026485 -0.024065 606542.000000 0 0 1
-17.553992 32.539295 3.112479 37.103044 -1.076073 1.486810 0.030020 -0.027691 684786.000000 0 0 1
-16.334592 33.262503 2.847479 37.166129 -1.114309 1.494106 0.044961 -0.025522 594934.000000 0 0 1
-16.046792 -34.234229 3.745779 37.993590 1.132472 1.472046 0.045790 -0.026943 -121218.000000 0 0 1
-16.655392 -33.019195 3.357779 37.134136 1.103623 1.480250 0.051073 -0.030525 65164.500000 0 0 1
-16.450492 -32.032945 4.315879 36.267824 1.096368 1.451513 0.057868 -0.032369 -383424.000000 0 0 1
-17.721492 -31.217915 4.551479 36.184603 1.054488 1.444677 0.047323 -0.026393 -318362.000000 0 0 1
-18.104092 -30.444375 3.437879 35.587036 1.034312 1.474041 0.058805 -0.030557 -158152.000000 0 0 1
-19.346992 -29.843105 3.684979 35.756064 0.995624 1.467554 0.056711 -0.029358 -683141.000000 0 0 1
-19.777192 -28.800225 2.658879 35.037979 0.969051 1.494838 0.056183 -0.039017 25215.900000 0 0 1
-18.919492 -27.653955 2.665179 33.612373 0.970786 1.491421 0.054621 -0.031209 4941.200000 0 0 1
-19.213592 -26.699085 1.628279 32.934094 0.947014 1.521336 0.051903 -0.024007 -130566.000000 0 0 1
-18.352492 -25.424785 1.553679 31.395025 0.945566 1.521288 0.044206 -0.017005 877641.000000 0 0 1
-16.996092 -25.633125 1.111979 30.775977 0.985300 1.534657 0.044344 -0.025687 143214.000000 0 0 1
-16.298192 -24.437105 1.165379 29.396620 0.982601 1.531143 0.036489 -0.020955 614701.000000 0 0 1
-14.830892 -24.586305 0.621479 28.719819 1.028014 1.549155 0.037642 -0.024425 509153.000000 0 0 1
-14.725392 -24.806805 -0.774121 28.858517 1.035094 1.597624 0.035274 -0.018877 33917.800000 0 0 1
-14.697492 -23.566905 -1.495021 27.814571 1.013169 1.624572 0.035607 -0.017313 -337840.000000 0 0 1
-14.793092 -23.716405 -3.062621 28.119088 1.013097 1.679929 0.039125 -0.004780 31065.600000 0 0 1
-13.586892 -24.075405 -3.695121 27.890548 1.057005 1.703673 0.034579 -0.000663 -106281.000000 0 0 1
-13.724092 -23.768405 -5.101521 27.916184 1.047153 1.754573 0.057185 0.003419 -117529.000000 0 0 1
-12.661992 -24.421105 -5.968721 28.148571 1.092470 1.784462 0.040171 -0.005295 -320719.000000 0 0 1
-12.853192 -25.845155 -6.134721 29.509514 1.109299 1.780213 0.022017 -0.005789 -283666.000000 0 0 1
-11.840192 -26.541595 -6.840321 29.856932 1.151191 1.801953 0.032403 -0.004835 196964.000000 0 0 1
23.364008 13.563895 28.390643 39.190365 0.525993 0.760590 0.011331 -0.000316 -445745.000000 0 0 1
23.873908 12.259095 28.184053 38.917731 0.474384 0.760929 0.003516 -0.000561 456933.000000 0 0 1
23.173808 11.194295 28.872183 38.677391 0.450002 0.728029 0.005930 -0.009619 -171605.000000 0 0 1
23.314908 11.119595 30.466663 39.943058 0.445022 0.703238 0.012181 0.001169 -260675.000000 0 0 1
22.716108 12.240395 31.055003 40.376504 0.494236 0.693309 0.017987 -0.004677 46023.100000 0 0 1
23.113708 12.476095 32.371833 41.687313 0.494955 0.681642 0.007201 -0.003387 -581624.000000 0 0 1
22.308508 13.541195 33.089311 42.141856 0.545548 0.667795 0.016422 0.003838 441662.000000 0 0 1
21.013308 13.074295 33.529649 41.674137 0.556577 0.635850 0.029689 0.002634 1079060.000000 0 0 1
20.294408 13.996595 -34.254994 42.203936 0.603764 2.517774 0.019591 0.004671 271392.000000 0 0 1
18.996408 13.380595 -33.679811 40.917398 0.613656 2.537675 0.027505 0.007731 -738493.000000 0 0 1
17.946108 13.260095 34.049194 40.709219 0.636349 0.580114 0.035257 0.007734 -1163380.000000 0 0 1
16.946008 12.693295 -33.787661 39.873461 0.642889 2.581813 0.032324 0.004580 -415346.000000 0 0 1
15.578208 12.470495 34.151069 39.553626 0.675051 0.528802 0.027306 0.011369 284776.000000 0 0 1
15.571908 11.287195 33.389559 38.532425 0.627206 0.522586 0.025010 0.015286 -205614.000000 0 0 1
14.281408 10.969695 32.927633 37.530279 0.654991 0.500460 0.034232 0.017174 131540.000000 0 0 1
14.361808 9.957895 31.734853 36.228747 0.606255 0.503379 0.036631 0.017704 180376.000000 0 0 1
14.774008 8.653395 32.175573 36.447498 0.529851 0.489023 0.029900 0.008956 -29262.300000 0 0 1
15.115408 7.831095 31.078373 35.435391 0.478012 0.501124 0.015384 -0.003026 317970.000000 0 0 1
15.533008 6.338495 31.426303 35.623916 0.387441 0.490349 0.024270 -0.009918 947026.000000 0 0 1
14.386808 5.541395 31.759533 35.303757 0.367659 0.451926 0.028883 -0.011178 687638.000000 0 0 1
14.863208 4.310695 32.326413 35.839839 0.282280 0.446489 0.035350 -0.021427 1078670.000000 0 0 1
13.636408 3.427595 32.775528 35.664202 0.246255 0.405251 0.021737 -0.012444 417189.000000 0 0 1
13.956908 2.113595 33.221382 36.096022 0.150295 0.401793 0.036897 -0.022294 -250978.000000 0 0 1
12.838608 1.290795 33.477937 35.878521 0.100203 0.367882 0.040393 -0.025712 -110888.000000 0 0 1
13.290908 -0.088905 33.996581 36.502379 -0.006689 0.372687 0.018467 -0.024367 -15289.400000 0 0 1
13.689208 -0.957805 32.982732 35.723556 -0.069854 0.394271 0.006033 -0.009287 90000.500000 0 0 1
14.154608 -2.223105 33.441029 36.381281 -0.155786 0.404797 0.044596 -0.013899 -193832.000000 0 0 1
14.264208 -3.370805 32.345483 35.511410 -0.232055 0.425463 0.038951 -0.015632 -1140960.000000 0 0 1
14.609408 -4.700905 32.727801 36.147508 -0.311310 0.438485 0.044017 -0.018880 -5479.200000 0 0 1
15.870008 -4.901905 33.321583 37.231892 -0.299582 0.462423 0.013773 -0.011274 739052.000000 0 0 1
17.131408 -4.637005 32.393933 36.937161 -0.264339 0.501211 0.026158 -0.016252 1855.300000 0 0 1
17.271908 -3.255105 32.199143 36.683775 -0.186278 0.499653 0.036322 -0.019827 36415.200000 0 0 1
18.493708 -2.915705 31.553083 36.689449 -0.156372 0.535518 0.057937 -0.027327 72563.600000 0 0 1
18.552208 -1.391405 31.452573 36.542917 -0.074859 0.534149 0.064586 -0.032623 -518165.000000 0 0 1
19.016608 -0.776405 32.653204 37.795052 -0.040805 0.527726 0.055468 -0.026740 270542.000000 0 0 1
18.622808 0.561995 32.622106 37.567628 0.030169 0.518917 0.054441 -0.021120 -227746.000000 0 0 1
19.678908 1.485595 32.001993 37.597792 0.075349 0.552592 0.061227 -0.022708 -325665.000000 0 0 1
19.709208 1.473395 30.591883 36.420971 0.074618 0.573601 0.052011 -0.023056 134377.000000 0 0 1
20.713008 2.277395 29.984593 36.514259 0.109510 0.607330 0.049881 -0.018748 191202.000000 0 0 1
20.408308 3.815595 29.989343 36.474903 0.184829 0.605546 0.046504 -0.010151 -290164.000000 0 0 1
20.524508 4.494795 31.200743 37.615755 0.215593 0.592657 0.046438 -0.015937 674903.000000 0 0 1
19.762708 5.726595 31.215613 37.386803 0.282043 0.582779 0.032532 -0.009674 -43831.200000 0 0 1
19.518408 6.197095 32.633934 38.527210 0.307434 0.560412 0.024416 -0.002339 -506402.000000 0 0 1
18.740908 5.300095 33.340785 38.612441 0.275611 0.528682 0.030705 -0.010651 -240465.000000 0 0 1
18.571508 5.817495 -33.990331 39.167419 0.303567 2.621597 0.031802 -0.006569 -4464.740000 0 0 1
17.429708 5.186995 -33.154851 37.814597 0.289249 2.639908 0.030333 -0.010849 -106915.000000 0 0 1
17.476908 3.743195 -33.279191 37.775102 0.210992 2.648730 0.032463 -0.016277 -412482.000000 0 0 1
16.296708 3.108295 -32.874621 36.823700 0.188468 2.674225 0.042062 -0.024091 -183169.000000 0 0 1
16.353908 1.579795 -33.121201 36.972422 0.096302 2.681104 0.048596 -0.025806 -441282.000000 0 0 1
17.306408 0.891695 -32.381651 36.727077 0.051478 2.650214 0.027934 -0.018086 -360906.000000 0 0 1
17.369408 -0.403805 -32.954741 37.254185 -0.023244 2.656414 0.040607 -0.019708 303353.000000 0 0 1
18.441508 -1.299005 -32.206041 37.134966 -0.070323 2.620488 0.044765 -0.022510 237641.000000 0 0 1
18.266508 -1.499905 -30.814671 35.853298 -0.081929 2.605019 0.039168 -0.021597 212381.000000 0 0 1
18.456908 -0.352005 -29.994261 35.219839 -0.019069 2.589883 0.035802 -0.015948 -386416.000000 0 0 1
18.074708 -0.648305 -28.512941 33.765414 -0.035853 2.576319 0.016936 -0.000238 -413134.000000 0 0 1
16.731608 -0.920305 -28.210761 32.812203 -0.054949 2.605604 0.029823 -0.008965 -336361.000000 0 0 1
16.411808 -0.807805 -26.825801 31.458283 -0.049181 2.592009 0.025814 -0.005151 -27497.100000 0 0 1
17.064408 -1.750205 -25.760541 30.949357 -0.102207 2.554121 0.018110 0.001013 -514998.000000 0 0 1
18.399708 -1.400305 -25.455701 31.440464 -0.075958 2.514348 0.019967 -0.001160 162865.000000 0 0 1
19.250708 -2.509505 -25.088711 31.722717 -0.129628 2.483034 0.010421 -0.004040 825249.000000 0 0 1
19.924408 -3.116005 -26.371041 33.198243 -0.155135 2.488734 0.013995 -0.009049 -123323.000000 0 0 1
20.963708 -2.296005 -26.897091 34.178973 -0.109088 2.476644 0.017001 -0.006139 -11855.600000 0 0 1
21.180708 -2.635605 -28.250351 35.406936 -0.123798 2.494560 0.022458 -0.009274 180842.000000 0 0 1
22.625408 -2.307605 -28.727011 36.639804 -0.101640 2.471942 0.017953 -0.011258 567174.000000 0 0 1
23.544208 -3.299705 -28.276891 36.943204 -0.139242 2.442483 0.020312 -0.018345 634000.000000 0 0 1
24.895408 -2.835605 -28.430921 37.896428 -0.113412 2.419202 0.025864 -0.022928 1210950.000000 0 0 1
26.056108 -3.780505 -27.995761 38.431440 -0.144085 2.386867 0.054967 -0.023241 126125.000000 0 0 1
26.205608 -4.920405 -28.837041 39.274918 -0.185601 2.395336 0.064211 -0.029931 72815.400000 0 0 1
27.378308 -5.644405 -28.528101 39.941001 -0.203315 2.366357 0.066722 -0.029034 -88936.200000 0 0 1
27.336308 -6.749405 -27.410461 39.295821 -0.242061 2.342757 0.056099 -0.019702 -245022.000000 0 0 1
27.376908 -6.293005 -26.079481 38.330619 -0.225941 2.319081 0.051959 -0.014910 270323.000000 0 0 1
27.258908 -7.395505 -25.205081 37.855484 -0.264929 2.299394 0.041756 -0.012265 -186225.000000 0 0 1
27.369508 -7.064705 -23.757421 36.924451 -0.252609 2.269736 0.034216 -0.008813 -131468.000000 0 0 1
28.670308 -6.689305 -23.370921 37.589005 -0.229218 2.241770 0.030784 -0.005272 101005.000000 0 0 1
28.707508 -6.150105 -22.064821 36.726028 -0.211043 2.215292 0.037050 -0.013872 -631470.000000 0 0 1
30.114708 -5.701605 -21.700321 37.554066 -0.187115 2.186879 0.045636 -0.013669 -247273.000000 0 0 1
30.663908 -4.598005 -22.528321 38.326781 -0.148840 2.199128 0.040913 -0.014145 33278.700000 0 0 1
31.864308 -4.092805 -22.012921 38.944240 -0.127745 2.171523 0.030724 -0.007033 -151739.000000 0 0 1
32.262108 -2.811005 -22.706221 39.551458 -0.086911 2.182292 0.051406 -0.019186 381008.000000 0 0 1
31.292008 -1.789605 -22.501721 38.583933 -0.057128 2.193445 0.043623 -0.024157 569137.000000 0 0 1
31.809008 -0.622605 -23.101721 39.317809 -0.019571 2.198841 0.037990 -0.023957 250932.000000 0 0 1
30.872908 0.578795 -22.849821 38.413354 0.018745 2.207864 0.040897 -0.020772 -265836.000000 0 0 1
29.651608 0.487295 -23.529221 37.856037 0.016433 2.241509 0.032142 -0.018463 -467412.000000 0 0 1
28.787808 1.491695 -23.055821 36.912517 0.051771 2.245425 0.022592 -0.009730 -194237.000000 0 0 1
27.477308 1.382795 -23.874221 36.426542 0.050283 2.285518 0.022706 -0.012047 -192471.000000 0 0 1
26.507908 2.352895 -23.558121 35.541389 0.088530 2.295397 0.013874 -0.002015 571831.000000 0 0 1
25.498908 2.453595 -24.613021 35.524854 0.095928 2.336216 0.013215 -0.005975 707779.000000 0 0 1
24.556108 3.660695 -24.381121 34.797158 0.147985 2.347124 0.017886 0.001200 21798.800000 0 0 1
25.195108 4.967595 -24.448921 35.457301 0.194668 2.331638 0.006452 0.005202 83502.000000 0 0 1
24.256208 5.903095 -24.048221 34.663051 0.238724 2.337508 0.024877 -0.009559 -358504.000000 0 0 1
24.839208 7.135795 -23.329221 34.816065 0.279746 2.305100 0.029470 -0.009659 -35645.800000 0 0 1
25.447008 8.167995 -24.088321 35.979349 0.310592 2.304337 0.026803 -0.006712 207193.000000 0 0 1
25.532008 9.413495 -23.405821 35.893311 0.353231 2.281140 0.028275 -0.010534 -198443.000000 0 0 1
26.341308 10.485395 -24.183221 37.264409 0.378832 2.277017 0.047315 -0.007480 198151.000000 0 0 1
25.775008 10.950595 -25.429911 37.827859 0.401746 2.308045 0.042724 -0.012733 185048.000000 0 0 1
24.469008 11.486495 -25.408521 37.098044 0.438894 2.325265 0.038001 -0.017869 37474.400000 0 0 1
23.939608 11.688695 -26.836891 37.814668 0.454210 2.359862 0.029508 -0.022817 -344342.000000 0 0 1
23.697908 10.484795 -27.581211 37.845012 0.416545 2.387355 0.023433 -0.012510 -153440.000000 0 0 1
24.738008 9.625695 -27.984471 38.571410 0.371079 2.382591 0.028554 -0.019924 -11176.700000 0 0 1
25.715008 10.022295 -29.152661 40.144559 0.371635 2.383563 0.019109 -0.010552 -18288.300000 0 0 1
26.741208 10.945195 -28.880731 40.853226 0.388498 2.355957 0.020620 -0.003029 891122.000000 0 0 1
27.552108 11.433795 -29.974161 42.288304 0.393360 2.358599 0.012713 0.009980 1220070.000000 0 0 1
28.661808 10.418795 -30.470871 43.110607 0.348658 2.355770 0.016427 0.010396 28742.300000 0 0 1
28.042708 9.585795 -31.428881 43.197864 0.329377 2.385550 0.009085 0.005596 336322.000000 0 0 1
28.828708 8.466495 -31.737211 43.703850 0.285651 2.383557 0.017418 0.003254 -476347.000000 0 0 1
28.201708 7.503895 -32.726981 43.848604 0.260054 2.413377 0.021688 -0.003454 -868558.000000 0 0 1
27.010308 6.960395 -32.302031 42.678156 0.252207 2.429315 0.025495 -0.009360 -802518.000000 0 0 1
26.611408 5.927895 -33.234391 42.986413 0.219179 2.454569 0.044076 -0.009465 142124.000000 0 0 1
25.347308 5.100095 -32.803191 41.767766 0.198557 2.474091 0.036547 -0.011136 1197850.000000 0 0 1
24.098408 5.811895 -32.837361 41.143695 0.236654 2.494955 0.032423 -0.008005 724587.000000 0 0 1
23.889908 6.653395 -31.724281 40.266926 0.271619 2.478106 0.022730 -0.002780 -293214.000000 0 0 1
22.385208 7.031995 -31.607021 39.364327 0.304374 2.503000 0.018377 -0.004172 337945.000000 0 0 1
21.970208 8.122395 -32.403181 39.982864 0.354116 2.515676 0.021411 -0.001123 702864.000000 0 0 1
20.557108 8.303095 -32.196351 39.091445 0.383867 2.538554 0.023637 0.001077 689940.000000 0 0 1
20.010208 9.411295 -33.091501 39.799853 0.439627 2.552505 0.018779 -0.000449 -266219.000000 0 0 1
20.034508 9.060695 34.200835 40.659253 0.424727 0.571376 0.012740 0.002769 -25481.500000 0 0 1
19.854208 10.157295 33.326657 40.100203 0.472880 0.589741 0.016117 0.005891 -131876.000000 0 0 1
18.733108 9.937495 32.294233 38.634190 0.487731 0.581030 0.024559 0.006026 3280.390000 0 0 1
18.985308 8.936395 31.288553 37.673262 0.439935 0.590748 0.022422 -0.000863 49176.400000 0 0 1
20.007308 9.223595 30.345053 37.499191 0.431973 0.627975 0.029567 -0.002253 -325963.000000 0 0 1
19.582108 10.210395 29.221773 36.628174 0.480632 0.647167 0.037577 -0.006305 121216.000000 0 0 1
18.631408 9.670795 28.305223 35.239740 0.478778 0.638117 0.030789 -0.002807 62241.400000 0 0 1
17.296308 10.010095 28.520263 34.824843 0.524642 0.611194 0.038555 -0.007571 -854785.000000 0 0 1
16.287308 9.216895 27.726573 33.451314 0.514964 0.593723 0.046625 -0.005729 -826841.000000 0 0 1
16.320308 9.531795 26.384483 32.455331 0.528605 0.621600 0.055450 -0.008529 333347.000000 0 0 1
15.092008 9.316995 25.693583 31.220752 0.553077 0.604186 0.058346 -0.010725 369870.000000 0 0 1
14.758408 7.833495 25.413373 30.414039 0.487969 0.581608 0.049484 0.000612 -262239.000000 0 0 1
14.530508 7.011895 26.538993 31.058340 0.449601 0.546231 0.036737 0.001637 39558.200000 0 0 1
14.052108 5.778395 26.006923 30.119954 0.390134 0.528737 0.039004 0.004954 -136682.000000 0 0 1
14.046108 4.654895 27.104473 30.880636 0.320010 0.499719 0.046359 0.005094 972883.000000 0 0 1
15.282408 3.936795 27.442143 31.656304 0.252122 0.521892 0.029198 0.004281 1381390.000000 0 0 1
15.264808 3.526995 28.793673 32.780020 0.227069 0.498311 0.014951 0.002462 636848.000000 0 0 1
16.549808 2.724795 29.208053 33.681316 0.163178 0.521268 0.041334 -0.003995 566438.000000 0 0 1
16.383708 1.302895 29.116203 33.434664 0.079357 0.513890 0.034005 -0.005634 131951.000000 0 0 1
15.572008 0.738895 30.165633 33.955837 0.047415 0.476995 0.023662 -0.010154 251785.000000 0 0 1
15.364008 -0.761505 30.088653 33.792894 -0.049524 0.472608 0.026719 -0.011616 -356588.000000 0 0 1
14.462208 -1.230005 29.068893 32.491059 -0.084845 0.463096 0.011806 -0.005000 303783.000000 0 0 1
14.877008 -1.177505 27.716903 31.479178 -0.078985 0.493915 0.014555 0.000620 -381915.000000 0 0 1
16.081608 -2.072905 27.249333 31.708693 -0.128192 0.536770 0.024133 -0.002863 304666.000000 0 0 1
17.342508 -1.987705 27.834763 32.855557 -0.114117 0.560130 0.033683 -0.010819 -333982.000000 0 0 1
18.016008 -0.806305 27.483923 32.872370 -0.044725 0.580698 0.039589 -0.006951 -304679.000000 0 0 1
19.557308 -0.728605 27.716013 33.929288 -0.037238 0.614823 0.071748 -0.009489 853084.000000 0 0 1
20.384508 -1.511105 26.873343 33.763711 -0.073995 0.650264 0.062311 -0.014267 -11901.600000 0 0 1
21.755308 -1.307105 27.155143 34.819589 -0.060010 0.676320 0.060587 -0.013775 308384.000000 0 0 1
22.726408 -2.135605 26.283263 34.811785 -0.093695 0.715126 0.068225 -0.011553 -303146.000000 0 0 1
22.865508 -1.536305 24.995673 33.911287 -0.067088 0.742042 0.067770 0.002909 39048.800000 0 0 1
21.955608 -2.101805 24.088403 32.660641 -0.095439 0.741382 0.070490 0.004194 -185423.000000 0 0 1
21.951608 -1.470805 22.709883 31.619222 -0.066902 0.769541 0.063079 -0.016488 -190140.000000 0 0 1
21.199508 -0.283105 22.639683 31.017004 -0.013354 0.752603 0.054898 -0.003418 -10479.300000 0 0 1
21.169808 0.365195 21.390183 30.097078 0.017249 0.780295 0.053264 -0.000500 -356653.000000 0 0 1
-30.512022 -27.232326 -10.213421 42.153256 0.728662 1.815524 -0.015286 0.025830 -141863.000000 0 0 1
-30.306202 -26.094526 -9.467821 41.097808 0.710862 1.803257 -0.002796 0.025392 -194684.000000 0 0 1
-30.735062 -26.317526 -8.154321 41.276496 0.708123 1.769658 0.005806 0.017802 -623839.000000 0 0 1
-30.747312 -25.101326 -7.246621 40.348324 0.684646 1.751378 0.031565 0.009533 9727.420000 0 0 1
-29.540802 -24.505526 -6.812521 38.981922 0.692500 1.746459 0.029120 0.001752 -483138.000000 0 0 1
-28.771242 -25.338726 -5.929121 38.794199 0.722047 1.724233 0.021551 0.003760 -133440.000000 0 0 1
-27.638332 -24.450026 -5.353021 37.287209 0.724265 1.714856 0.019655 0.000857 -597182.000000 0 0 1
-27.883882 -23.348526 -4.459121 36.640801 0.697103 1.692797 0.035618 -0.006546 -609262.000000 0 0 1
-28.678722 -22.291926 -4.923121 36.655643 0.660744 1.705511 0.049664 -0.010490 -279181.000000 0 0 1
-28.753672 -20.967126 -4.121921 35.824353 0.630055 1.686111 0.053449 -0.016306 433766.000000 0 0 1
-27.551102 -20.181826 -4.047621 34.391170 0.632222 1.688763 0.063670 -0.027577 721867.000000 0 0 1
-27.723672 -19.058326 -3.235121 33.797748 0.602246 1.666663 0.065264 -0.021230 201991.000000 0 0 1
-26.460242 -18.146126 -3.198721 32.243730 0.601124 1.670164 0.060115 -0.017920 358543.000000 0 0 1
-26.366492 -17.360026 -4.394421 31.872768 0.582266 1.709111 0.064219 -0.026758 -221439.000000 0 0 1
-25.341472 -16.404526 -4.351921 30.499801 0.574502 1.713972 0.066220 -0.026976 -214157.000000 0 0 1
-25.490882 -15.194726 -5.283721 30.142702 0.537536 1.746997 0.052037 -0.037238 8624.400000 0 0 1
-26.683312 -14.448426 -5.081721 30.766541 0.496277 1.736727 0.065725 -0.036668 126107.000000 0 0 1
-26.962542 -13.661126 -6.191921 30.853604 0.468970 1.772856 0.072793 -0.052092 214896.000000 0 0 1
-28.247552 -12.771326 -6.054021 31.586106 0.424617 1.763657 0.079690 -0.040985 1175760.000000 0 0 1
-29.393402 -13.582426 -6.396021 33.005506 0.432863 1.765817 0.079107 -0.037656 -36438.500000 0 0 1
-30.618682 -12.934426 -6.319821 33.834054 0.399697 1.758689 0.076213 -0.037292 -444536.000000 0 0 1
-31.629282 -13.617426 -7.277321 35.196664 0.406547 1.779060 0.059008 -0.036478 -287238.000000 0 0 1
-32.232292 -14.756226 -6.730221 36.082720 0.429329 1.758417 0.057070 -0.033303 162185.000000 0 0 1
-32.537352 -15.667126 -7.772921 36.939903 0.448748 1.782802 0.056239 -0.028266 -825522.000000 0 0 1
-33.407532 -16.870626 -7.347421 38.140081 0.467635 1.764651 0.041650 -0.023385 -498903.000000 0 0 1
-34.778169 -16.612526 -7.309321 39.229112 0.445625 1.758215 0.039706 -0.026411 -273905.000000 0 0 1
-35.263081 -15.885126 -6.147521 39.161385 0.423249 1.728427 0.028259 -0.030109 -806266.000000 0 0 1
35.117475 -15.898726 -5.944221 39.004363 -0.425122 1.723791 0.041616 -0.025996 -853279.000000 0 0 1
34.369335 -15.130626 -6.850021 38.172108 -0.414705 1.751225 0.042213 -0.032879 929814.000000 0 0 1
32.944325 -15.075626 -6.697921 36.843795 -0.429164 1.753605 0.051209 -0.026865 786006.000000 0 0 1
32.407175 -14.236826 -5.541321 35.827621 -0.413929 1.726086 0.071646 -0.030654 -824069.000000 0 0 1
32.398805 -14.954426 -4.341521 35.946714 -0.432437 1.691868 0.057179 -0.023264 652599.000000 0 0 1
31.844395 -14.248626 -3.208221 35.034005 -0.420727 1.662499 0.083542 -0.027432 -604673.000000 0 0 1
31.630415 -15.160826 -1.898621 35.127462 -0.446960 1.624872 0.079925 -0.019080 266649.000000 0 0 1
32.812665 -15.483526 -1.166121 36.301107 -0.440897 1.602925 0.086914 -0.011130 742189.000000 0 0 1
33.861175 -16.227026 -1.800721 37.591730 -0.446888 1.618717 0.066266 -0.009415 -212212.000000 0 0 1
33.614005 -17.669626 -2.363821 38.048714 -0.483966 1.632963 0.057884 -0.002213 -863915.000000 0 0 1
33.743305 -18.632226 -1.321321 38.568334 -0.504512 1.605062 0.060084 0.000013 267948.000000 0 0 1
33.394795 -19.969226 -1.660321 38.945333 -0.538929 1.613441 0.043071 0.002648 144939.000000 0 0 1
34.333275 -20.743526 -2.663121 40.201491 -0.543488 1.637089 0.038561 -0.001803 280454.000000 0 0 1
34.272535 -20.122126 -3.931121 39.936954 -0.530896 1.669389 0.032523 -0.009161 141738.000000 0 0 1
35.282315 -20.479126 -4.864521 41.084059 -0.525910 1.689479 0.032385 -0.018077 -204350.000000 0 0 1
35.314745 -19.594026 -6.131421 40.849130 -0.506551 1.721465 0.035654 -0.024977 -564852.000000 0 0 1
34.125455 -19.713526 -6.843221 39.999993 -0.523845 1.742723 0.031942 -0.026606 -154271.000000 0 0 1
34.130855 -18.932826 -8.033621 39.848541 -0.506454 1.773791 0.029910 -0.033681 -191155.000000 0 0 1
33.088625 -19.426626 -9.056521 39.424250 -0.530887 1.802586 0.044673 -0.037902 -373108.000000 0 0 1
33.394815 -20.620926 -9.653121 40.418053 -0.553180 1.811959 0.038239 -0.034106 31129.500000 0 0 1
32.400355 -21.107726 -10.509021 40.071918 -0.577405 1.836154 0.044306 -0.038570 -391857.000000 0 0 1
32.628035 -22.605826 -10.703921 41.111871 -0.605901 1.834192 0.032094 -0.029042 -376937.000000 0 0 1
31.936865 -23.415026 -9.794121 40.794014 -0.632640 1.813252 0.023365 -0.024350 -298849.000000 0 0 1
31.758895 -24.736026 -10.138621 41.512529 -0.661723 1.817522 0.007108 -0.009937 -299891.000000 0 0 1
30.750715 -25.407326 -9.194321 40.935000 -0.690535 1.797337 0.005920 -0.019997 168479.000000 0 0 1
29.428075 -24.896426 -9.226821 39.635563 -0.702173 1.805743 0.014230 -0.025486 -188461.000000 0 0 1
28.569905 -25.758926 -8.526121 39.401224 -0.733704 1.788914 0.001754 -0.019886 -628504.000000 0 0 1
27.132915 -25.265926 -8.552021 38.048642 -0.749783 1.797499 0.024289 -0.036535 -741413.000000 0 0 1
26.652715 -25.151926 -9.887021 37.957078 -0.756436 1.834315 0.029943 -0.036012 -199275.000000 0 0 1
25.405915 -24.505326 -9.858821 36.649255 -0.767356 1.843156 0.049143 -0.047722 -454030.000000 0 0 1
24.769115 -24.427726 -11.239521 36.558852 -0.778459 1.883294 0.082166 -0.049820 -417431.000000 0 0 1
24.194015 -25.595826 -11.722421 37.120235 -0.813545 1.892092 0.080120 -0.041244 424518.000000 0 0 1
23.324815 -25.265926 -12.823221 36.699441 -0.825325 1.927740 0.085792 -0.023965 96029.500000 0 0 1
22.773515 -26.620026 -13.274421 37.462902 -0.863116 1.932999 0.085830 -0.020412 -116699.000000 0 0 1
23.641115 -27.332026 -14.125221 38.800307 -0.857681 1.943408 0.064618 -0.015100 133697.000000 0 0 1
23.223515 -28.669826 -14.086621 39.493334 -0.889967 1.935512 0.092471 -0.018609 -7839.720000 0 0 1
24.147215 -29.659826 -14.843121 41.025742 -0.887493 1.940994 0.085060 -0.023908 -319456.000000 0 0 1
24.189315 -29.622126 -16.262121 41.557790 -0.886017 1.972855 0.068547 -0.023831 280526.000000 0 0 1
24.322215 -30.935726 -16.808921 42.791694 -0.904516 1.974479 0.066307 -0.029740 -902798.000000 0 0 1
24.158415 -31.016826 -18.369021 43.394624 -0.909066 2.007883 0.041665 -0.016804 -579227.000000 0 0 1
22.831815 -30.750026 -18.707621 42.624300 -0.932114 2.025166 0.050538 -0.017964 -437240.000000 0 0 1
22.791915 -30.809626 -20.078621 43.264945 -0.933877 2.053398 0.031991 -0.016154 -50656.700000 0 0 1
21.348215 -30.588526 -20.565821 42.595272 -0.961471 2.074668 0.024763 -0.008409 -172307.000000 0 0 1
21.221515 -30.565426 -21.989821 43.222103 -0.963907 2.104544 0.013615 -0.006512 541672.000000 0 0 1
19.869315 -30.303426 -22.378421 42.589682 -0.990439 2.124031 0.021229 -0.002965 245941.000000 0 0 1
19.691915 -30.449226 -23.933221 43.447968 -0.996735 2.154176 0.012457 -0.004416 -472783.000000 0 0 1
20.347415 -29.408226 -24.575821 43.391612 -0.965530 2.172894 0.020024 -0.001111 155844.000000 0 0 1
20.356115 -29.582026 -25.960771 44.310600 -0.968085 2.196764 0.010076 -0.012658 -459653.000000 0 0 1
20.796015 -28.283426 -26.661491 44.082440 -0.936788 2.220323 0.013261 -0.013058 530482.000000 0 0 1
19.814315 -27.217426 -26.646911 42.935454 -0.941524 2.240339 0.034468 -0.021561 274152.000000 0 0 1
18.866615 -27.466326 -27.661231 43.306950 -0.968917 2.263636 0.054595 -0.022910 -663565.000000 0 0 1
18.132815 -26.184426 -28.064081 42.450156 -0.965119 2.293089 0.065236 -0.026982 -426436.000000 0 0 1
17.212915 -25.799126 -27.058801 41.158936 -0.982432 2.288189 0.062578 -0.012988 -315390.000000 0 0 1
16.761715 -24.495426 -27.357431 40.365951 -0.970699 2.315475 0.057388 -0.000772 -610885.000000 0 0 1
15.619215 -24.098026 -26.435991 39.032504 -0.995720 2.314858 0.055924 -0.004212 -489635.000000 0 0 1
14.455415 -24.881726 -26.712451 39.263397 -1.044491 2.319022 0.069177 -0.019285 -710922.000000 0 0 1
13.311315 -24.478526 -26.047191 38.142437 -1.072729 2.322511 0.066275 -0.011015 -494028.000000 0 0 1
13.183915 -24.625626 -24.533821 37.177216 -1.079252 2.291503 0.054037 -0.004795 -711988.000000 0 0 1
13.964615 -23.703126 -23.762121 36.352263 -1.038396 2.283211 0.046506 -0.007127 -18151.600000 0 0 1
14.071015 -24.156826 -22.444421 35.851049 -1.043354 2.247269 0.054869 -0.014598 -56782.700000 0 0 1
15.360915 -23.641026 -21.748921 35.607181 -0.994592 2.227869 0.025214 -0.016115 295127.000000 0 0 1
15.254115 -22.242126 -21.398021 34.427830 -0.969650 2.241494 0.023435 -0.011014 833660.000000 0 0 1
16.456115 -21.764326 -20.752821 34.280741 -0.923399 2.221038 0.029322 -0.012614 368322.000000 0 0 1
16.410015 -20.272726 -20.369821 33.093830 -0.890312 2.233838 0.047483 -0.008194 116832.000000 0 0 1
15.788615 -19.970626 -19.126321 31.842148 -0.901818 2.215123 0.054642 -0.018491 103483.000000 0 0 1
14.381015 -19.906626 -19.215421 31.182042 -0.945179 2.234748 0.051159 -0.020436 -313076.000000 0 0 1
13.561115 -19.806626 -17.901021 29.944162 -0.970429 2.211567 0.055475 -0.016762 -13797.400000 0 0 1
13.582215 -18.571226 -17.180621 28.714817 -0.939333 2.212198 0.075773 -0.025756 57703.300000 0 0 1
13.161415 -18.729126 -15.828821 27.830820 -0.958244 2.175783 0.064547 -0.022506 -227807.000000 0 0 1
13.125715 -17.510226 -14.909921 26.480146 -0.927549 2.168881 0.066225 -0.012012 -362183.000000 0 0 1
11.952615 -16.726626 -15.053121 25.480217 -0.950348 2.202818 0.055503 -0.025668 248555.000000 0 0 1
12.015015 -15.520626 -14.252521 24.256644 -0.912029 2.198851 0.043984 -0.024518 255226.000000 0 1 0
10.648215 -14.795626 -14.079021 23.032886 -0.946980 2.228445 0.044001 -0.020919 130814.000000 0 1 0
10.070015 -14.254326 -15.213021 23.152257 -0.955752 2.287743 0.060900 -0.017397 -856611.000000 0 1 0
8.762515 -13.876226 -14.938521 22.192132 -1.007553 2.309250 0.050275 -0.011582 -973203.000000 0 1 0
8.153515 -13.221526 -16.158821 22.414193 -1.018199 2.375924 0.042255 -0.009003 -615905.000000 0 1 0
8.731815 -12.040526 -16.685821 22.352527 -0.943356 2.413560 0.043650 -0.006979 1052550.000000 0 1 0
9.948215 -12.220226 -17.474121 23.529679 -0.887530 2.407803 0.059336 -0.008984 1080450.000000 0 1 0
10.112715 -11.028826 -18.404721 23.719944 -0.828703 2.458965 0.052886 -0.007089 -4664.380000 0 1 0
9.150015 -10.989426 -19.434721 24.128792 -0.876479 2.507244 0.050826 -0.007857 216892.000000 0 1 0
9.287015 -9.839726 -20.177521 24.294057 -0.814287 2.550898 0.046939 -0.010901 124896.000000 0 1 0
8.909215 -9.996026 -21.653121 25.458835 -0.842822 2.587760 0.051998 -0.008608 467433.000000 0 0 1
9.987715 -10.653426 -22.308521 26.663084 -0.817639 2.561993 0.041711 0.001100 74287.000000 0 0 1
9.650515 -10.850426 -23.649221 27.751573 -0.843861 2.590926 0.045164 0.001830 -164641.000000 0 0 1
10.754215 -11.468326 -24.508521 29.117748 -0.817522 2.571227 0.055514 0.002095 -324077.000000 0 0 1
10.925015 -12.857926 -24.209721 29.509198 -0.866493 2.532929 0.050379 -0.002350 -19169.200000 0 0 1
12.043115 -13.479626 -24.820321 30.704808 -0.841622 2.512145 0.031035 -0.009167 -44840.000000 0 0 1
12.102515 -14.969826 -24.593321 31.231362 -0.890918 2.477467 0.033429 -0.016616 -243664.000000 0 0 1
11.170815 -15.670126 -25.380811 31.851617 -0.951483 2.492852 0.042122 -0.016527 -259456.000000 0 0 1
11.106715 -17.051726 -25.078421 32.296248 -0.993470 2.459907 0.043862 -0.021768 833740.000000 0 0 1
9.853315 -17.746826 -25.746431 32.785917 -1.063958 2.473960 0.048363 -0.021778 880099.000000 0 0 1
10.112115 -18.277426 -27.036741 34.165838 -1.065456 2.483791 0.057131 -0.036582 -146198.000000 0 0 1
8.947315 -18.924026 -27.496961 34.558010 -1.129143 2.490918 0.051477 -0.030696 -237399.000000 0 0 1
9.174315 -19.933226 -28.648261 36.086346 -1.139449 2.487961 0.053841 -0.027604 -610084.000000 0 0 1
9.587315 -21.183526 -28.181961 36.536027 -1.145796 2.451752 0.061085 -0.028618 32454.800000 0 0 1
9.408615 -22.197826 -29.158551 37.834992 -1.169898 2.450699 0.067156 -0.017811 91808.100000 0 0 1
9.824415 -23.600626 -28.631411 38.383152 -1.176337 2.412737 0.075313 -0.020580 112194.000000 0 0 1
9.699515 -24.715626 -29.513981 39.699091 -1.196820 2.408999 0.082984 -0.015578 150301.000000 0 0 1
10.360415 -25.937726 -29.102671 40.336947 -1.190778 2.376747 0.085614 -0.014189 428671.000000 0 0 1
9.951815 -26.625126 -27.762211 39.732560 -1.213100 2.344413 0.088313 -0.017746 51946.700000 0 0 1
10.568415 -25.982226 -26.685611 38.715491 -1.184480 2.331284 0.080380 -0.015370 -619723.000000 0 0 1
9.883115 -26.116526 -25.463291 37.790582 -1.209027 2.310136 0.078618 -0.014880 -584925.000000 0 0 1
9.018515 -24.976226 -25.103881 36.542445 -1.224281 2.328119 0.066501 -0.013622 -503495.000000 0 0 1
9.787415 -23.810026 -24.880921 35.801830 -1.180790 2.339164 0.066145 -0.015288 119798.000000 0 0 1
9.055015 -22.585926 -25.095911 34.956002 -1.189502 2.371618 0.054675 -0.011469 411369.000000 0 0 1
9.987915 -21.345526 -24.885121 34.273301 -1.133144 2.383398 0.065309 -0.022739 283581.000000 0 0 1
10.364115 -21.265226 -23.542221 33.374554 -1.117301 2.353776 0.058723 -0.020874 131494.000000 0 0 1
11.510515 -20.426026 -23.468821 33.173785 -1.057631 2.356681 0.060303 -0.023016 10750.500000 0 0 1
12.187015 -20.358326 -22.095721 32.422302 -1.031388 2.320603 0.049727 -0.021215 -6165.680000 0 0 1
11.437615 -19.755326 -21.016321 31.028659 -1.045988 2.314910 0.044165 -0.009735 120562.000000 0 0 1
10.991815 -18.411826 -21.073121 30.064792 -1.032587 2.347488 0.047732 -0.010726 110776.000000 0 0 1
12.079515 -17.293626 -21.132321 29.858988 -0.961081 2.357087 0.049131 -0.017722 382000.000000 0 0 1
12.918215 -17.377126 -22.249321 31.046369 -0.931530 2.369781 0.047991 -0.008906 -1024740.000000 0 0 1
14.223915 -16.999726 -21.955021 31.198291 -0.874066 2.351423 0.057473 -0.012739 -299764.000000 0 0 1
15.228215 -17.599926 -23.016821 32.732705 -0.857519 2.350649 0.042017 -0.004028 708261.000000 0 0 1
16.521315 -17.794726 -22.430321 33.056397 -0.822489 2.316579 0.047892 -0.000293 832504.000000 0 0 1
17.552915 -17.486326 -23.373021 34.061335 -0.783498 2.327054 0.037147 -0.005469 1396070.000000 0 0 1
18.992615 -17.615526 -22.707121 34.447634 -0.747799 2.290521 0.042771 -0.002099 1145320.000000 0 0 1
19.346615 -18.950526 -22.307221 35.085981 -0.775056 2.259824 0.046313 0.001177 -508275.000000 0 0 1
20.705415 -19.229226 -22.305921 36.000437 -0.748450 2.239031 0.045471 -0.002774 -586557.000000 0 0 1
21.135215 -20.575426 -21.663921 36.597417 -0.771978 2.204275 0.039542 0.002371 -187510.000000 0 0 1
20.864915 -20.669926 -20.297921 35.701486 -0.780704 2.175533 0.053397 -0.003541 560807.000000 0 0 1
21.444815 -21.871126 -19.683821 36.409876 -0.795240 2.141967 0.047501 0.019381 161688.000000 0 0 1
-16.257392 13.124395 28.573813 35.397957 -0.679169 0.631375 0.025600 -0.006788 132994.000000 0 0 1
-17.466092 13.749095 28.177833 35.890002 -0.666880 0.667912 0.029396 -0.012791 69310.300000 0 0 1
-17.695092 13.687295 26.801063 34.910676 -0.658377 0.695546 0.028280 -0.008920 -710303.000000 0 0 1
-18.963992 14.319295 26.293923 35.440734 -0.646743 0.734878 0.040159 -0.010778 -735139.000000 0 0 1
-18.965492 15.712595 26.549923 36.214278 -0.691869 0.747877 0.046431 -0.009995 177308.000000 0 0 1
-19.990192 16.439395 25.898483 36.614108 -0.688235 0.785074 0.050310 -0.011329 -453378.000000 0 0 1
-19.762092 17.941095 26.226193 37.419732 -0.737137 0.794186 0.061746 -0.007045 332110.000000 0 0 1
-18.615192 18.463895 25.569303 36.622808 -0.781318 0.797944 0.030614 -0.002624 150387.000000 0 0 1
-17.488392 18.471795 26.412623 36.669848 -0.812738 0.766588 0.027474 0.005378 -1110620.000000 0 0 1
-16.376492 19.388395 25.945593 36.294258 -0.869414 0.774361 0.035646 -0.001076 -313565.000000 0 0 1
-16.778192 20.740195 25.800723 37.112541 -0.890610 0.802095 0.042855 0.003981 696011.000000 0 0 1
-15.622792 21.450095 25.339703 36.691671 -0.941308 0.808462 0.048584 -0.004870 612655.000000 0 0 1
-15.846292 23.015395 25.296663 37.692632 -0.967825 0.835064 0.041677 -0.001864 8027.220000 0 0 1
-15.620992 23.633395 26.560133 38.832891 -0.986747 0.817620 0.046901 0.000662 111475.000000 0 0 1
-15.969192 25.016295 26.446893 39.752588 -1.002653 0.842918 0.045263 -0.004651 -222047.000000 0 0 1
-15.320292 25.919295 27.514163 40.786644 -1.036964 0.830390 0.044818 -0.004072 27564.500000 0 0 1
-13.915892 25.996895 27.404543 40.255429 -1.079316 0.821988 0.045257 -0.008322 -25917.100000 0 0 1
-13.350192 26.922395 28.327513 41.297590 -1.110453 0.814907 0.049975 -0.005003 875921.000000 0 0 1
-11.789992 26.960795 28.360693 40.868292 -1.158553 0.803831 0.065075 -0.008537 794359.000000 0 0 1
-11.084092 27.655095 27.381003 40.464561 -1.189603 0.827571 0.051409 -0.007125 115450.000000 0 0 1
-9.677092 27.527195 27.569103 40.142845 -1.232744 0.813753 0.042525 -0.002482 572954.000000 0 0 1
-8.863992 28.341395 26.504153 39.802954 -1.267677 0.842118 0.051124 -0.007766 -39661.300000 0 0 1
-7.466392 28.277095 26.708913 39.606908 -1.312644 0.830712 0.047859 -0.014779 46264.900000 0 0 1
-6.851292 28.528495 25.453273 38.841786 -1.335104 0.856208 0.065592 -0.015899 -405618.000000 0 0 1
-5.425892 27.980495 25.452883 38.212533 -1.379257 0.841846 0.052120 -0.023574 10718.400000 0 0 1
-4.477992 28.712195 26.319853 39.206852 -1.416081 0.834825 0.071659 -0.022480 491727.000000 0 0 1
-3.169992 28.262595 26.083743 38.589957 -1.459101 0.828583 0.067754 -0.016836 59244.900000 0 0 1
-2.395892 29.245795 25.137043 38.638423 -1.489056 0.862460 0.057112 -0.016897 -487805.000000 0 0 1
-2.888592 29.127995 23.812983 37.733834 -1.471951 0.887855 0.043329 -0.013259 91483.500000 0 0 1
-2.505492 30.180395 22.906283 37.971457 -1.487969 0.923226 0.037005 -0.016911 -190892.000000 0 0 1
-2.943992 29.752095 21.486183 36.817255 -1.472167 0.947654 0.030857 -0.005925 1786150.000000 0 0 1
-4.380092 29.763995 21.256183 36.836204 -1.424684 0.955689 0.022307 0.000500 1190950.000000 0 0 1
-5.036892 28.543495 21.613683 36.155949 -1.396131 0.930054 0.035767 0.001993 -877797.000000 0 0 1
-6.503892 28.590095 21.212583 36.189333 -1.347115 0.944491 0.027290 -0.004694 -659401.000000 0 0 1
-6.755692 28.791195 19.816983 35.598948 -1.340321 0.980420 0.015259 -0.002818 -43128.600000 0 0 1
-7.506892 27.769295 19.178083 34.572909 -1.306776 0.982777 0.011130 -0.000120 -1223850.000000 0 0 1
-6.796092 26.484195 18.888883 33.232354 -1.319607 0.966251 0.002709 0.002621 83873.200000 0 0 1
-5.773692 26.490195 17.893383 32.484444 -1.356197 0.987439 -0.000480 0.003963 352762.000000 0 0 1
-4.539392 27.068795 18.298583 32.987329 -1.404644 0.982775 0.026569 0.003635 -717415.000000 0 0 1
-3.598592 27.049895 17.102483 32.204683 -1.438538 1.010950 0.023460 0.000408 -254360.000000 0 0 1
-2.948692 25.822195 16.714583 30.900774 -1.457097 0.999276 0.023376 -0.002755 162729.000000 0 0 1
-2.290392 26.071095 15.474483 30.404071 -1.483170 1.036819 0.027480 -0.012165 -68299.100000 0 0 1
-1.645092 24.792695 14.921283 28.983249 -1.504540 1.029994 0.034788 -0.008185 242724.000000 0 0 1
-0.450792 24.425995 15.601083 28.986656 -1.552343 1.002477 0.031268 -0.004355 156189.000000 0 0 1
0.111508 23.242195 15.155183 27.746921 1.565999 0.992983 0.024463 -0.016693 -19542.900000 0 0 1
1.521408 22.850995 15.689083 27.760223 1.504315 0.970164 0.021354 -0.012673 1245760.000000 0 0 1
2.595208 23.754795 15.330283 28.390896 1.461978 1.000393 0.026784 -0.020469 733995.000000 0 0 1
3.806608 23.414095 15.973883 28.598515 1.409629 0.978152 0.041720 -0.024507 -162612.000000 0 0 1
4.969708 24.361495 15.641083 29.373864 1.369559 1.009265 0.044335 -0.018039 -371410.000000 0 0 1
6.164608 23.628295 15.684783 29.022597 1.315586 0.999844 0.039871 -0.017283 -258860.000000 0 0 1
7.267108 24.541095 15.879783 30.120486 1.282903 1.015484 0.041078 -0.018611 502344.000000 0 0 1
8.591108 23.710995 15.917483 29.822553 1.223183 1.007780 0.038468 -0.021487 182152.000000 0 0 1
8.920408 23.039795 14.698983 28.748320 1.201396 1.034101 0.038617 -0.019679 -37739.100000 0 0 1
9.681208 23.853195 13.813683 29.215040 1.185243 1.078299 0.036435 -0.019149 -201659.000000 0 0 1
10.099208 23.088495 12.572583 28.162785 1.158459 1.108030 0.033293 -0.014867 -979882.000000 0 0 1
11.079908 22.190395 12.817783 27.919054 1.107700 1.093809 0.035786 -0.015570 -1111000.000000 0 0 1
11.252608 21.319395 11.702383 26.797081 1.085148 1.118865 0.038430 -0.016610 -54192.700000 0 0 1
12.541408 20.503995 11.826583 26.787474 1.021850 1.113530 0.031323 -0.009420 -12212.200000 0 0 1
12.440708 19.594595 12.958283 26.582635 1.005106 1.061605 0.039173 -0.017626 221757.000000 0 0 1
13.713008 18.973895 13.132283 26.842357 0.944977 1.059581 0.039979 -0.017464 -89535.500000 0 0 1
13.937308 18.318995 14.531183 27.221121 0.920411 1.007684 0.048650 -0.023202 -475383.000000 0 0 1
15.205308 17.737495 14.691083 27.597972 0.862113 1.009452 0.043134 -0.016403 -173098.000000 0 0 1
15.542008 17.503695 16.041283 28.377035 0.844691 0.970010 0.043260 -0.022378 567112.000000 0 0 1
16.942508 16.823495 16.190383 28.847999 0.781874 0.974924 0.030887 -0.022871 472793.000000 0 0 1
17.358408 16.569795 17.507883 29.705192 0.762159 0.940495 0.032391 -0.024837 -773105.000000 0 0 1
18.616108 16.007095 17.528583 30.166833 0.710186 0.950772 0.034556 -0.022452 -719066.000000 0 0 1
19.200208 15.764195 18.954183 31.247702 0.687441 0.919047 0.029038 -0.021703 -33391.400000 0 0 1
19.740508 16.792295 19.733483 32.574210 0.704872 0.920024 0.035448 -0.014175 224202.000000 0 0 1
18.693408 17.572895 20.234683 32.675565 0.754511 0.902996 0.029604 -0.012856 -182851.000000 0 0 1
19.194608 18.783295 21.033483 34.112352 0.774568 0.906387 0.023892 -0.014244 346343.000000 0 0 1
18.161608 19.727995 21.380483 34.295231 0.826715 0.897682 0.043434 -0.030447 594709.000000 0 0 1
18.719808 20.700795 22.235283 35.684197 0.835608 0.898080 0.048544 -0.018855 -76446.100000 0 0 1
17.698508 21.723695 22.742883 36.088708 0.887150 0.888993 0.062881 -0.026579 74971.700000 0 0 1
16.755508 21.200095 23.657783 35.914924 0.901967 0.851684 0.067315 -0.030227 -4450.660000 0 0 1
15.832708 22.179795 24.054903 36.349090 0.950846 0.847613 0.076803 -0.038026 137554.000000 0 0 1
15.048308 21.971195 25.364003 36.776591 0.970269 0.809752 0.083438 -0.038152 34307.300000 0 0 1
14.283208 20.768195 25.275953 35.695963 0.968343 0.784007 0.075332 -0.039315 -64025.700000 0 0 1
13.451808 20.568095 26.392863 36.063567 0.991605 0.749774 0.068028 -0.029716 -224054.000000 0 0 1
12.520808 19.333595 26.276513 34.943006 0.996097 0.719733 0.063404 -0.026819 90519.500000 0 0 1
13.174808 18.048195 26.272153 34.489693 0.940232 0.704803 0.066529 -0.031884 896204.000000 0 0 1
14.055108 17.769895 25.135793 33.839671 0.901598 0.733567 0.077872 -0.033042 481387.000000 0 0 1
13.266608 17.581495 23.769023 32.404912 0.924372 0.747338 0.091782 -0.035191 -357256.000000 0 0 1
13.028608 18.802495 23.041183 32.468055 0.964838 0.781785 0.094471 -0.034181 133359.000000 0 0 1
14.039208 19.153795 22.107683 32.445599 0.938282 0.821154 0.085647 -0.036486 74267.200000 0 0 1
14.596608 18.166295 21.110083 31.443773 0.893925 0.834754 0.083339 -0.026770 -548956.000000 0 0 1
13.699708 17.889895 20.065783 30.172272 0.917273 0.843248 0.086477 -0.032766 -4806.580000 0 0 1
13.943508 16.617395 19.519483 29.181663 0.872670 0.838074 0.050968 -0.030174 131774.000000 0 0 1
12.700008 16.078295 18.761883 27.781469 0.902253 0.829373 0.058363 -0.018929 27843.200000 0 0 1
12.350708 16.778795 17.581183 27.261070 0.936257 0.869879 0.064574 -0.020384 -724937.000000 0 0 1
11.389608 16.046195 16.934783 25.961326 0.953523 0.860171 0.064565 -0.021057 -546597.000000 0 0 1
10.833708 16.794895 15.667183 25.394849 0.997902 0.905943 0.054285 -0.020429 -26107.600000 0 0 1
10.033308 17.952295 15.880583 25.983554 1.061156 0.913248 0.057610 -0.025044 156975.000000 0 0 1
9.826108 18.530095 14.626283 25.570393 1.083220 0.961853 0.040359 -0.015333 -496686.000000 0 0 1
8.913908 19.735495 14.743783 26.197837 1.146555 0.973044 0.040289 -0.016711 408392.000000 0 0 1
7.547108 19.428695 15.062583 25.716035 1.200285 0.945019 0.027717 -0.020410 947681.000000 0 0 1
6.639508 20.503995 14.730483 26.105249 1.257636 0.971244 0.033443 -0.023749 -212112.000000 0 0 1
5.297508 20.265995 15.384283 25.989427 1.315118 0.937328 0.026972 -0.024385 -946185.000000 0 0 1
4.436308 19.477595 14.606083 24.746620 1.346852 0.939458 0.024513 -0.027630 -453238.000000 0 1 0
3.289808 19.175095 15.379283 24.799787 1.400884 0.901878 0.010689 -0.017847 97936.000000 0 1 0
2.098608 18.602695 14.593183 23.736584 1.458459 0.908668 0.005332 -0.018353 -373879.000000 0 1 0
1.378108 19.598495 13.954683 24.098410 1.500595 0.953208 0.012788 -0.025998 -21759.800000 0 1 0
0.280808 18.992695 13.242883 23.155459 1.556012 0.961962 0.012282 -0.029669 205618.000000 0 1 0
-0.530592 20.005795 12.473583 23.581850 -1.544281 1.013435 0.019945 -0.030641 -285818.000000 0 1 0
-1.449292 20.793895 13.195383 24.669914 -1.501211 1.006433 0.025479 -0.018750 -339425.000000 0 1 0
-2.323592 21.432495 12.283583 24.812040 -1.462804 1.052886 0.023695 -0.012342 -16707.600000 0 1 0
-3.586592 21.847195 13.050283 25.699678 -1.408081 1.038168 0.019362 -0.016320 -308394.000000 0 0 1
-4.275392 20.880095 13.799683 25.390719 -1.368829 0.996203 0.024005 -0.017898 -524390.000000 0 0 1
-5.419892 21.495595 14.315583 26.388856 -1.323805 0.997403 0.033034 -0.011422 -468307.000000 0 0 1
-6.164892 20.625995 15.323483 26.424358 -1.280359 0.952190 0.023008 -0.011342 -487382.000000 0 0 1
-6.971592 19.522995 14.875283 25.515181 -1.227814 0.948383 0.024976 -0.014574 156994.000000 0 0 1
-7.521592 18.724395 15.872783 25.673382 -1.188825 0.904271 0.029580 -0.010499 551198.000000 0 0 1
-8.666992 19.409495 16.719183 27.043970 -1.150829 0.904317 0.024602 -0.004646 449521.000000 0 0 1
-9.924092 19.580095 16.061383 27.199922 -1.101687 0.939126 0.015991 -0.013330 96528.100000 0 0 1
-10.932992 19.684995 17.038183 28.237015 -1.063819 0.923040 0.009436 -0.007525 -612461.000000 0 0 1
-12.311492 19.384695 16.465683 28.256998 -1.004957 0.948735 0.018312 -0.019650 -789738.000000 0 0 1
-12.930192 20.511895 15.859983 28.973553 -1.008341 0.991548 0.010915 -0.009450 -175521.000000 0 0 1
-13.766692 20.099595 14.821783 28.516675 -0.970260 1.024228 0.012990 -0.012393 -469565.000000 0 0 1
-14.744492 21.200695 14.392583 29.563761 -0.963116 1.062337 0.009051 -0.024534 -550673.000000 0 0 1
-16.020992 21.170095 14.953883 30.470703 -0.922973 1.057831 0.005686 -0.016904 -160486.000000 0 0 1
-16.818492 22.278895 14.525583 31.467497 -0.924162 1.090992 0.027684 -0.024627 1197980.000000 0 0 1
-18.216292 22.448895 15.241483 32.681631 -0.889109 1.085622 0.090124 -0.027784 567446.000000 0 0 1
-19.112992 21.391295 14.932283 32.339868 -0.841587 1.090852 0.074038 -0.029788 1050110.000000 0 0 1
-20.269092 21.191595 15.806483 33.313131 -0.807645 1.076421 0.083474 -0.024275 2125780.000000 0 0 1
-21.358092 22.367995 15.780783 34.720720 -0.808490 1.098979 0.086664 -0.027617 -113479.000000 0 0 1
-22.227492 22.315595 14.677183 34.748624 -0.787376 1.134725 0.092136 -0.022387 518513.000000 0 0 1
-23.157692 23.417995 14.651783 36.046580 -0.790987 1.152211 0.087296 -0.025545 407443.000000 0 0 1
-22.663092 24.644595 13.829283 36.224589 -0.827259 1.179091 0.077345 -0.023048 596005.000000 0 0 1
-21.622992 25.349595 14.572983 36.366572 -0.864568 1.158489 0.070950 -0.028346 760284.000000 0 0 1
-21.101392 26.411995 13.816283 36.520568 -0.896707 1.182821 0.052098 -0.020838 204989.000000 0 0 1
-19.606492 26.737095 14.096983 36.027929 -0.938065 1.168775 0.054095 -0.022394 733918.000000 0 0 1
-18.672992 25.908695 13.400883 34.634156 -0.946297 1.173500 0.044917 -0.012014 592791.000000 0 0 1
-17.312792 26.224995 13.685583 34.275039 -0.987309 1.160057 0.024472 -0.006441 178458.000000 0 0 1
-16.419892 26.086195 12.454883 33.244947 -1.009005 1.186788 0.022709 -0.009516 559662.000000 0 0 1
-15.055492 26.423295 12.761483 32.980506 -1.052893 1.173485 0.015094 -0.004066 534857.000000 0 0 1
-14.154392 25.946295 11.790683 31.821019 -1.071394 1.191215 0.013830 -0.003723 -192595.000000 0 0 1
-12.721892 26.432095 12.113383 31.736985 -1.122216 1.179183 0.011029 0.003886 -179140.000000 0 0 1
-11.734692 25.696095 11.402883 30.463388 -1.142408 1.187139 0.013508 0.000911 967963.000000 0 0 1
-10.369092 26.110895 11.526783 30.367147 -1.192777 1.181453 0.031271 -0.003555 1075430.000000 0 0 1
-9.898492 27.585495 11.079583 31.332041 -1.226277 1.209360 0.030707 -0.010850 -933830.000000 0 0 1
-8.649592 27.993295 11.517583 31.481657 -1.271114 1.196250 0.049585 -0.014678 -485542.000000 0 0 1
-8.265092 29.227795 10.932983 32.281664 -1.295210 1.225288 0.050302 -0.015932 -794284.000000 0 0 1
-6.991192 29.810595 11.498983 32.707414 -1.340439 1.211547 0.040879 -0.010419 -497916.000000 0 0 1
-5.810392 29.149095 11.139983 31.741607 -1.374042 1.212202 0.051295 -0.012547 474663.000000 0 0 1
-4.626592 29.624395 11.813183 32.226719 -1.415873 1.195482 0.037116 -0.008743 1031740.000000 0 0 1
-3.305192 29.271395 11.087883 31.475069 -1.458357 1.210795 0.033384 -0.014376 16469.700000 0 0 1
-3.129692 29.972795 9.878083 31.713403 -1.466756 1.254046 0.055018 -0.022139 27965.800000 0 0 1
-2.005592 29.556295 9.129083 30.998986 -1.503044 1.271868 0.040112 -0.021430 168465.000000 0 0 1
-1.739492 30.433195 7.884483 31.486033 -1.513701 1.317690 0.040439 -0.028467 108105.000000 0 0 1
-2.508092 30.103095 6.738183 30.949797 -1.487672 1.351325 0.054709 -0.030138 222012.000000 0 0 1
-2.104692 30.890195 5.618883 31.467534 -1.502767 1.391272 0.061147 -0.026327 119696.000000 0 0 1
11.110908 34.170895 -26.783601 44.815885 1.256422 2.211346 0.090260 -0.031042 246997.000000 0 0 1
11.899108 34.246795 -25.576831 44.368975 1.236393 2.185183 0.079249 -0.026966 675834.000000 0 0 1
13.029808 -33.626926 -25.706901 44.287592 -1.201128 2.190082 0.076615 -0.019621 572550.000000 0 0 1
13.967608 -33.427826 -24.472621 43.719821 -1.175003 2.164893 0.070113 -0.004235 148546.000000 0 0 1
13.326908 -32.542426 -23.496321 42.292943 -1.182107 2.159834 0.070967 -0.002957 565587.000000 0 0 1
13.857308 -32.583326 -22.185521 41.783914 -1.168681 2.130528 0.056362 -0.003439 434744.000000 0 0 1
15.365508 -32.205926 -21.973621 41.906569 -1.125634 2.122745 0.031229 0.004589 586320.000000 0 0 1
16.206308 -33.257226 -22.431421 43.264953 -1.117359 2.115853 0.027492 -0.002100 -315307.000000 0 0 1
17.542408 -32.994426 -22.082821 43.405290 -1.082129 2.104539 0.015457 -0.008134 -578114.000000 0 0 1
18.500008 -34.182926 -22.218921 44.770561 -1.074730 2.090110 0.004532 0.000369 115451.000000 0 0 1
19.840108 -33.827826 -21.886421 44.910657 -1.040361 2.079829 0.000020 0.005473 592853.000000 0 0 1
20.596508 33.734995 -21.533821 45.010792 1.022664 2.069645 0.007060 0.013094 272277.000000 0 0 1
22.064308 34.084695 -21.152921 45.782597 0.996295 2.051079 0.019778 0.011772 -95496.600000 0 0 1
22.800308 -34.228526 -22.268921 46.769123 -0.983172 2.067063 0.014951 0.010005 -237534.000000 0 0 1
24.180208 -34.212626 -21.975021 47.308432 -0.955546 2.053872 0.017546 0.013831 -23567.400000 0 0 1
25.028208 -33.639126 -23.113721 47.877407 -0.931133 2.074610 0.031224 0.004611 -130507.000000 0 0 1
24.944708 -32.257426 -23.268421 46.948902 -0.912548 2.089335 0.025713 -0.002299 -760145.000000 0 0 1
23.824308 -31.848326 -23.973521 46.439673 -0.928541 2.113239 0.020851 -0.001942 -473026.000000 0 0 1
23.583408 -30.301226 -23.995221 45.278163 -0.909429 2.129339 0.012586 -0.014621 147389.000000 0 0 1
24.503708 -29.559426 -24.838121 45.728805 -0.878642 2.144994 0.019491 -0.012938 365179.000000 0 0 1
24.496608 -28.127526 -24.663521 44.716113 -0.854286 2.155027 0.022698 -0.006958 485011.000000 0 0 1
25.295808 -27.405126 -25.812201 45.356240 -0.825401 2.176206 0.015749 -0.000897 254956.000000 0 0 1
24.474208 -27.245226 -26.933721 45.461132 -0.838925 2.204900 0.020595 -0.007700 -262071.000000 0 0 1
25.135008 -26.428326 -27.849191 45.889023 -0.810475 2.222927 0.010031 -0.004661 -246834.000000 0 0 1
24.216008 -25.921926 -28.996351 45.816478 -0.819410 2.256064 0.015828 -0.007570 793492.000000 0 0 1
23.370708 -24.787426 -28.710521 44.552222 -0.814808 2.271066 0.030158 -0.008631 564868.000000 0 0 1
22.088508 -25.040526 -28.130991 43.660998 -0.847953 2.270910 0.024983 -0.009858 299315.000000 0 0 1
21.428608 -23.649526 -27.938731 42.415304 -0.834627 2.289879 0.031658 0.001706 -64081.300000 0 0 1
20.963908 -23.061126 -29.161271 42.681151 -0.832999 2.322981 0.042387 -0.005584 297755.000000 0 0 1
20.390508 -21.756726 -28.923611 41.541584 -0.817802 2.340966 0.041519 0.006857 -136333.000000 0 0 1
19.368308 -21.351026 -29.994011 41.600942 -0.834052 2.376031 0.062602 -0.011027 280714.000000 0 0 1
18.152608 -22.064726 -29.872631 41.336949 -0.882367 2.378442 0.066761 -0.013227 1071990.000000 0 0 1
16.963108 -21.513826 -30.463731 40.971095 -0.903123 2.409148 0.056505 -0.020498 1061480.000000 0 0 1
15.727108 -22.447826 -30.425971 40.951026 -0.959663 2.408315 0.057143 -0.026130 -254383.000000 0 0 1
15.791908 -23.476526 -31.390051 42.259519 -0.978650 2.408028 0.060873 -0.013258 329497.000000 0 0 1
15.079108 -24.651526 -30.915551 42.318418 -1.021825 2.389917 0.073758 -0.025199 80199.400000 0 0 1
15.486408 -26.012826 -31.454711 43.656555 -1.033812 2.375325 0.075414 -0.024797 -344324.000000 0 0 1
14.684008 -26.954026 -30.824591 43.500517 -1.071970 2.358312 0.089602 -0.019540 -371226.000000 0 0 1
14.989808 -28.331626 -31.065531 44.636785 -1.084153 2.340556 0.100496 -0.023106 -317970.000000 0 0 1
14.219908 -29.357826 -30.263561 44.496863 -1.119735 2.318733 0.100881 -0.026045 -299639.000000 0 0 1
14.547408 -29.512226 -28.881091 43.780315 -1.112822 2.291192 0.106863 -0.029199 -54759.500000 0 0 1
14.074808 -28.477126 -28.037081 42.368913 -1.111760 2.293930 0.100320 -0.023835 89613.200000 0 0 1
15.107108 -28.072326 -26.937611 41.736256 -1.077097 2.272375 0.071332 -0.017901 -19898.600000 0 0 1
15.421208 -29.086926 -25.995821 41.948130 -1.083300 2.239174 0.064742 -0.028159 -54128.300000 0 0 1
16.320008 -28.675826 -24.971921 41.379252 -1.053392 2.218666 0.074298 -0.024009 -553886.000000 0 0 1
15.738808 -27.774126 -23.788721 39.812252 -1.055244 2.211204 0.065631 -0.019117 764889.000000 0 0 1
14.790508 -28.403326 -22.922721 39.382219 -1.090701 2.192053 0.061727 -0.013366 286313.000000 0 0 1
13.543908 -28.762526 -23.484521 39.525220 -1.130709 2.207024 0.070143 -0.005302 165936.000000 0 0 1
12.276808 -28.506526 -22.586221 38.385927 -1.164136 2.199873 0.057064 0.001853 593002.000000 0 0 1
11.916808 -27.174026 -22.603121 37.300658 -1.157516 2.221782 0.045642 -0.005255 -559209.000000 0 0 1
10.780008 -26.862826 -21.871221 36.279061 -1.189171 2.217878 0.050644 -0.007578 -584516.000000 0 0 1
10.547008 -25.351926 -21.733821 35.018830 -1.176553 2.240345 0.056009 -0.014540 -326484.000000 0 0 1
11.089608 -24.776626 -20.585321 34.067815 -1.149954 2.219615 0.034998 -0.005011 163003.000000 0 0 1
10.963208 -23.354626 -20.631021 33.034368 -1.131908 2.245328 0.029716 -0.013820 -395446.000000 0 0 1
11.185308 -22.642426 -19.221321 31.737198 -1.111962 2.221366 0.041957 -0.009124 -153468.000000 0 0 1
10.249808 -22.906126 -18.204221 31.002303 -1.150048 2.198378 0.034454 -0.009312 83245.000000 0 0 1
10.515808 -22.200726 -16.994021 29.870574 -1.128434 2.175991 0.027384 -0.006411 -30081.500000 0 0 1
9.605808 -22.723926 -15.856821 29.327242 -1.170860 2.142048 0.019682 -0.001726 274126.000000 0 0 1
10.052708 -23.932126 -15.307821 30.135245 -1.173125 2.103624 0.025269 0.004926 243592.000000 0 0 1
9.234108 -24.123426 -14.164421 29.459111 -1.205217 2.072382 0.024040 0.007669 200254.000000 0 0 1
9.221108 -25.590226 -13.710721 30.460997 -1.224942 2.037682 0.026056 0.010507 -249160.000000 0 0 1
10.473008 -26.049726 -13.283221 31.059879 -1.188533 2.012704 0.010231 0.010886 -539194.000000 0 0 1
10.538808 -27.455426 -13.403821 32.319178 -1.204288 1.998445 0.014154 0.002200 -367570.000000 0 0 1
11.793908 -28.120426 -12.758421 33.054983 -1.173672 1.967062 0.023156 -0.004573 910242.000000 0 0 1
13.077408 -27.805226 -13.280321 33.474111 -1.131172 1.978753 0.028200 0.001951 363772.000000 0 0 1
13.265908 -28.179526 -14.658621 34.423032 -1.130810 2.010684 0.036933 0.000027 -413041.000000 0 0 1
14.597108 -27.688126 -15.332221 34.853764 -1.085628 2.026285 0.028355 0.000376 392464.000000 0 0 1
15.734208 -28.391526 -14.935221 35.731007 -1.064744 2.002028 0.080783 -0.010579 -856203.000000 0 0 1
16.885308 -27.963026 -15.582721 36.192066 -1.027555 2.015905 0.098606 -0.017473 -158001.000000 0 0 1
18.157408 -28.744926 -15.204221 37.244202 -1.007412 1.991311 0.082404 -0.023031 152308.000000 0 0 1
18.451108 -29.845726 -16.031121 38.577294 -1.017090 1.999353 0.073816 -0.011483 -181598.000000 0 0 1
19.781408 -30.282826 -15.871721 39.500192 -0.992159 1.984293 0.078620 -0.012552 211803.000000 0 0 1
20.313308 -31.292126 -16.897121 40.955345 -0.995018 1.996075 0.052969 -0.016804 -218340.000000 0 0 1
19.789708 -32.563726 -16.668921 41.591847 -1.024718 1.983158 0.055611 -0.004599 40477.900000 0 0 1
20.073008 -33.419626 -17.749721 42.835145 -1.029910 1.998050 0.037911 -0.008437 98889.000000 0 0 1
19.679508 33.843595 -17.300521 42.801635 1.044103 1.986903 0.014988 0.006568 -554659.000000 0 0 1
20.454208 33.357895 -16.250621 42.369876 1.020746 1.964425 0.041537 -0.002570 -163102.000000 0 0 1
20.272708 32.007095 -15.950121 41.107702 1.006192 1.969266 0.028068 -0.004448 -376378.000000 0 0 1
21.239208 31.470495 -14.865621 40.773554 0.977120 1.943989 0.034600 -0.006057 -133993.000000 0 0 1
22.539108 31.208195 -15.386721 41.457375 0.945314 1.951039 0.038457 -0.003620 403644.000000 0 0 1
23.512308 31.013595 -14.366721 41.485833 0.922113 1.924425 0.044735 -0.007037 256124.000000 0 0 1
23.425508 29.756095 -13.507021 40.207203 0.903878 1.913394 0.041541 0.002660 -1020610.000000 0 0 1
23.638108 28.565995 -14.222821 39.712276 0.879516 1.937078 0.038756 0.006242 34513.900000 0 0 1
23.360108 27.345295 -13.593421 38.447898 0.863832 1.932164 0.019321 0.010667 1927180.000000 0 0 1
21.845608 27.085595 -13.056921 37.166426 0.892080 1.929766 0.021572 0.006572 1949660.000000 0 0 1
20.953208 26.808995 -14.114421 36.837155 0.907392 1.964008 0.024079 -0.001517 628037.000000 0 0 1
19.543908 26.669395 -13.934721 35.880320 0.938380 1.969655 0.025832 -0.006762 802169.000000 0 0 1
18.758408 28.012995 -13.842421 36.444730 0.980743 1.960398 0.020601 -0.007486 -318725.000000 0 0 1
18.519808 28.723995 -15.061321 37.348287 0.998120 1.985880 0.017397 -0.005920 -91316.600000 0 0 1
17.747808 28.162095 -16.060721 36.959911 1.008465 2.020329 0.002372 0.001086 -782575.000000 0 0 1
18.005008 28.873695 -17.407921 38.221803 1.013220 2.043668 0.003483 0.011223 -14121.500000 0 0 1
17.461608 30.192495 -17.453621 39.001581 1.046454 2.034776 0.008863 0.004584 145886.000000 0 0 1
17.779408 30.856895 -18.663121 40.206559 1.048069 2.053506 -0.006802 0.013689 404134.000000 0 0 1
16.807208 32.100395 -19.008821 40.917635 1.088461 2.053937 -0.004779 0.016253 595759.000000 0 0 1
16.744208 33.143095 -18.052621 41.288380 1.102990 2.023315 0.016692 -0.010421 283120.000000 0 0 1
15.907108 34.195795 -18.598421 42.051037 1.135393 2.028938 0.022146 -0.006773 389018.000000 0 0 1
15.733208 -33.320526 -17.644521 40.854870 -1.129653 2.017376 0.028018 -0.001480 -432635.000000 0 0 1
14.660708 -32.529526 -18.009421 39.968058 -1.147369 2.038228 0.026659 -0.000777 -625401.000000 0 0 1
14.403908 -31.544726 -17.009021 38.624462 -1.142452 2.026806 0.035344 0.001780 714031.000000 0 0 1
13.175008 -30.603926 -17.368421 37.574501 -1.164276 2.051315 0.036368 -0.001008 850252.000000 0 0 1
11.990908 -31.389226 -17.498921 37.885058 -1.205897 2.050927 0.038143 -0.001917 -321800.000000 0 0 1
10.953308 -30.470826 -17.774221 36.937367 -1.225711 2.072818 0.023883 0.014138 490055.000000 0 0 1
9.595608 -31.180226 -18.109921 37.312885 -1.272248 2.077563 0.046350 0.000244 -489968.000000 0 0 1
8.921508 -31.803226 -16.991321 37.144898 -1.297304 2.045903 0.048121 -0.001514 245132.000000 0 0 1
7.851008 -32.637626 -17.405021 37.812534 -1.334731 2.049127 0.061805 0.003761 588248.000000 0 0 1
6.561108 -31.930226 -17.952021 37.213741 -1.368135 2.074192 0.057784 0.010156 -430707.000000 0 0 1
6.726808 -31.225026 -19.163021 37.248806 -1.358609 2.111174 0.054830 0.013327 -263104.000000 0 0 1
6.692008 -32.114026 -20.285321 38.569261 -1.365354 2.124622 0.060699 -0.001415 -817449.000000 0 0 1
7.019508 -31.439926 -21.669521 38.824098 -1.351132 2.162946 0.064621 0.008749 55101.800000 0 0 1
8.371708 -31.129026 -21.932321 38.988825 -1.308077 2.168237 0.076056 -0.001354 918008.000000 0 0 1
9.332408 -32.236126 -22.085221 40.174851 -1.288999 2.152834 0.080456 -0.007537 549020.000000 0 0 1
9.086408 -33.363026 -23.178821 41.628260 -1.304896 2.161331 0.083173 -0.009224 -551236.000000 0 0 1
8.116308 -34.307026 -22.812421 41.991106 -1.338489 2.145121 0.087846 -0.024688 -459590.000000 0 0 1
8.017408 33.444295 -23.839221 41.846244 1.335512 2.176920 0.083470 -0.036111 -1087890.000000 0 0 1
6.846608 32.496995 -23.666621 40.780383 1.363149 2.189946 0.085299 -0.040150 840968.000000 0 0 1
5.535208 33.101595 -23.825221 41.158173 1.405111 2.188138 0.085217 -0.040780 1060250.000000 0 0 1
5.088408 33.878595 -22.737621 41.117520 1.421715 2.156746 0.057871 -0.028575 -1493560.000000 0 0 1
3.714308 -34.269926 -22.989621 41.433640 -1.462834 2.158984 0.040645 -0.017953 -879148.000000 0 0 1
2.558708 33.652695 -22.983421 40.832444 1.494910 2.168652 0.031356 -0.030453 -530104.000000 0 0 1
1.471208 -34.265926 -23.345121 41.488707 -1.527888 2.168428 0.026497 -0.018255 -672311.000000 0 0 1
0.186308 33.723495 -22.899921 40.764141 1.565272 2.167316 0.016171 -0.022850 -409920.000000 0 0 1
-0.081492 33.762095 -21.483221 40.017677 -1.568383 2.137487 0.006043 -0.018269 173614.000000 0 0 1
-1.376592 33.281695 -21.151921 39.458458 -1.529458 2.136554 0.002365 -0.015901 219164.000000 0 0 1
-1.752892 33.486695 -19.695821 38.889030 -1.518498 2.101873 0.008553 -0.015616 -78124.800000 0 0 1
-1.040692 32.648195 -18.802421 37.689769 -1.538931 2.093095 0.004777 -0.021642 -37050.200000 0 0 1
-1.528392 32.672795 -17.459721 37.076803 -1.524052 2.061115 -0.011665 -0.010530 232270.000000 0 0 1
-0.701492 31.637795 -16.602921 35.736523 -1.548627 2.053971 -0.013738 -0.001585 871973.000000 0 0 1
0.636308 32.088295 -16.394521 36.039476 1.550969 2.043061 -0.008740 -0.003015 86691.600000 0 0 1
1.437608 31.185495 -15.672021 34.931562 1.524730 2.036050 0.016582 -0.000153 142126.000000 0 0 1
2.198108 31.873595 -14.526221 35.096564 1.501942 1.997523 0.028842 -0.002179 -273940.000000 0 0 1
3.320108 32.635495 -14.867421 36.015813 1.469412 1.996325 0.039931 -0.010456 -105035.000000 0 0 1
4.063708 33.017295 -13.715221 35.982812 1.448334 1.961847 0.047435 -0.014565 -30059.900000 0 0 1
5.491608 33.505195 -14.018821 36.732590 1.408338 1.962372 0.066780 -0.026544 35163.600000 0 0 1
6.337208 32.446195 -14.390321 36.055472 1.377910 1.981349 0.062582 -0.019191 -285585.000000 0 0 1
7.402008 32.721395 -15.286321 36.866665 1.348328 1.998341 0.050825 -0.005333 425989.000000 0 0 1
8.443708 31.566295 -15.281421 36.072829 1.309424 2.008242 0.041115 -0.014622 148574.000000 0 0 1
9.249008 31.499495 -14.107621 35.732160 1.285199 1.976664 0.030697 -0.019280 -227373.000000 0 0 1
10.209308 30.459095 -14.093421 35.080064 1.247384 1.984224 0.039570 -0.016547 277676.000000 0 0 1
9.623708 29.014895 -13.992421 33.619454 1.250533 2.000059 0.048704 -0.023583 -102085.000000 0 0 1
9.063708 28.418595 -15.188021 33.473023 1.262059 2.041753 0.061560 -0.027126 181749.000000 0 0 1
8.385308 27.261195 -14.756121 32.112758 1.272390 2.048239 0.047932 -0.017261 -186734.000000 0 0 1
7.656208 26.397895 -15.813021 31.709904 1.288510 2.092869 0.054347 -0.010500 375272.000000 0 0 1
8.500808 25.556695 -16.626521 31.652007 1.249683 2.123854 0.051113 -0.005714 485992.000000 0 0 1
7.732608 24.773695 -17.595521 31.354928 1.268249 2.166598 0.044744 -0.002015 496559.000000 0 0 1
8.545208 23.664895 -18.320521 31.123774 1.224274 2.200165 0.045701 0.003878 29306.100000 0 0 1
7.816108 22.862395 -19.245421 30.889591 1.241377 2.243418 0.062745 -0.008221 -334947.000000 0 0 1
8.633908 21.898795 -19.812021 30.767153 1.195244 2.270426 0.046455 -0.003682 -524697.000000 0 0 1
7.888608 20.927095 -20.726021 30.491660 1.210311 2.318187 0.043005 -0.012384 -336477.000000 0 0 1
7.087408 20.006495 -20.044521 29.193732 1.230336 2.327603 0.047756 -0.016064 155524.000000 0 0 1
6.482708 19.004295 -20.940421 29.011893 1.242056 2.377178 0.042381 -0.022166 279495.000000 0 0 1
24.592608 -12.615505 -9.800321 29.325648 -0.473977 1.911541 0.080244 -0.020388 -246958.000000 0 0 1
25.154508 -11.957605 -8.715421 29.183765 -0.443747 1.874063 0.088282 -0.025034 387299.000000 0 0 1
24.320508 -12.023805 -7.567421 28.166023 -0.459149 1.842810 0.078049 -0.015403 -610939.000000 0 0 1
24.947308 -11.409405 -6.241421 28.133575 -0.428941 1.794507 0.060227 -0.017410 -323051.000000 0 0 1
24.969808 -9.962305 -6.140821 27.576231 -0.379622 1.795364 0.062760 -0.014949 748382.000000 0 0 1
25.917808 -9.391605 -7.049521 28.454011 -0.347644 1.821155 0.050189 -0.017475 -676280.000000 0 0 1
26.524308 -8.052105 -6.517021 28.475373 -0.294733 1.801708 0.089510 -0.014117 -366334.000000 0 0 1
27.074508 -8.123405 -5.227121 28.746156 -0.291492 1.753651 0.092182 -0.026669 803873.000000 0 0 1
28.459708 -8.483105 -5.346421 30.174530 -0.289689 1.748920 0.095430 -0.026506 141825.000000 0 0 1
29.185008 -8.425805 -3.984721 30.637182 -0.281061 1.701227 0.103576 -0.034391 -504138.000000 0 0 1
29.326008 -7.138605 -3.494121 30.383932 -0.238778 1.686050 0.097039 -0.020916 253926.000000 0 0 1
29.673108 -7.199805 -2.138221 30.608864 -0.238037 1.640710 0.100323 -0.023436 -101581.000000 0 0 1
29.913608 -5.785705 -1.541221 30.506945 -0.191055 1.621338 0.093121 -0.027413 66065.500000 0 0 1
28.740008 -5.062605 -1.166221 29.205789 -0.174363 1.610738 0.088433 -0.015066 78929.800000 0 0 1
28.892508 -3.715905 -0.737021 29.139804 -0.127909 1.596092 0.095228 -0.014135 -39929.600000 0 0 1
29.746208 -3.382905 0.525679 29.942566 -0.113239 1.553239 0.090153 -0.021770 337510.000000 0 0 1
28.973908 -3.703405 1.660879 29.256813 -0.127129 1.513997 0.093600 -0.024787 947892.000000 0 0 1
29.746308 -3.280005 2.786879 30.056081 -0.109822 1.477940 0.083393 -0.017895 376393.000000 0 0 1
29.216708 -3.944505 4.136879 29.770605 -0.134197 1.431387 0.097228 -0.015719 6964.820000 0 0 1
29.530108 -5.355805 4.137379 30.295707 -0.179417 1.433802 0.097999 -0.022940 377289.000000 0 0 1
29.415708 -5.880505 5.436379 30.486365 -0.197309 1.391516 0.098889 -0.025875 -27178.000000 0 0 1
30.251108 -7.189205 5.428979 31.564031 -0.233323 1.397938 0.074719 -0.018914 -99770.800000 0 0 1
31.638608 -7.006605 5.438879 32.858415 -0.217940 1.404506 0.071567 -0.020157 -367818.000000 0 0 1
32.315508 -8.243905 5.335079 33.774504 -0.249779 1.412170 0.072980 -0.018222 -138287.000000 0 0 1
33.846708 -8.145505 5.386079 35.227245 -0.236168 1.417299 0.067173 -0.014506 -108871.000000 0 0 1
34.443108 -8.002205 4.098079 35.597152 -0.228281 1.455417 0.074597 -0.018760 -646292.000000 0 0 1
35.820008 -7.900105 4.245579 36.925731 -0.217075 1.455565 0.077071 -0.015241 -474234.000000 0 0 1
-35.262799 -7.596505 2.951379 36.192299 0.212183 1.489159 0.076654 -0.015778 -38139.700000 0 0 1
-35.187499 -8.680905 2.038379 36.299768 0.241874 1.514613 0.094662 -0.027302 52096.800000 0 0 1
-34.186399 -8.327305 1.122679 35.203896 0.238932 1.538900 0.120089 -0.036105 -383702.000000 0 0 1
-33.615899 -9.491205 0.317279 34.931537 0.275180 1.561713 0.115142 -0.034726 -52918.900000 0 0 1
-32.950699 -10.390805 1.210179 34.571403 0.305474 1.535784 0.110991 -0.029713 349063.000000 0 0 1
-33.082799 -11.695505 0.804679 35.098489 0.339809 1.547868 0.108792 -0.036647 -1349260.000000 0 0 1
-32.823899 -12.680905 1.947579 35.242116 0.368668 1.515505 0.096294 -0.043822 1252280.000000 0 0 1
-31.467899 -12.864905 2.416379 34.081862 0.388092 1.499838 0.094258 -0.037048 1293870.000000 0 0 1
-30.509599 -13.180605 1.407279 33.264762 0.407797 1.528478 0.099634 -0.019468 -460858.000000 0 0 1
-29.101199 -13.474905 1.976079 32.130324 0.433642 1.509255 0.089678 -0.017519 395582.000000 0 0 1
-28.338299 -12.427105 2.561579 31.049216 0.413272 1.488202 0.078003 -0.023758 1193260.000000 0 0 1
-27.024499 -12.820605 2.991879 30.060652 0.442964 1.471103 0.069644 -0.009495 969860.000000 0 0 1
-26.180799 -11.754505 3.740679 28.941239 0.422001 1.441183 0.061465 -0.003571 329983.000000 0 0 1
-24.958499 -12.233105 4.305379 28.126710 0.455727 1.417121 0.048067 0.008071 765382.000000 0 0 1
-24.235899 -11.265705 5.092879 27.207211 0.435122 1.382497 0.046008 0.012117 432569.000000 0 0 1
-22.939299 -11.845205 5.712679 26.441540 0.476659 1.353030 0.033138 0.023656 -35707.800000 0 0 1
-23.014999 -12.717305 6.848079 27.171975 0.504811 1.316022 0.039558 0.014113 -270102.000000 0 0 1
-21.771099 -13.253205 7.236879 26.495294 0.546830 1.294142 0.028239 0.017410 -190593.000000 0 0 1
-21.351299 -12.747205 8.641479 26.325736 0.538227 1.236344 0.042349 0.010680 -606255.000000 0 0 1
-21.054699 -11.385405 8.688279 25.463975 0.495717 1.222604 0.038684 0.004711 438075.000000 0 0 1
-22.098499 -10.452705 9.025179 26.058714 0.441820 1.217129 0.054220 0.003117 16618.800000 0 0 1
-22.748999 -10.513305 10.428379 27.144017 0.432907 1.176469 0.064896 0.000219 -174869.000000 0 0 1
-23.524799 -11.679505 10.689979 28.356704 0.460825 1.184260 0.061018 -0.008602 1125700.000000 0 0 1
-24.943199 -11.419005 10.632679 29.421263 0.429322 1.201033 0.068611 -0.010357 1339820.000000 0 0 1
-25.725599 -11.033405 11.957079 30.438696 0.405159 1.167095 0.067096 -0.011152 30964.200000 0 0 1
-25.940999 -12.115305 12.820079 31.369898 0.436928 1.149795 0.064196 -0.007277 -99073.500000 0 0 1
-26.929299 -11.820605 13.756179 32.467620 0.413627 1.133282 0.047405 -0.008990 -641625.000000 0 0 1
-26.975699 -12.824205 14.915779 33.386061 0.443773 1.107648 0.040688 -0.006392 -73380.400000 0 0 1
-27.328299 -14.179105 14.496279 34.029767 0.478608 1.130742 0.025985 -0.000083 534980.000000 0 0 1
-26.625299 -15.139205 15.295179 34.235137 0.517013 1.107646 -0.002028 0.019468 -187348.000000 0 0 1
-26.793699 -16.598405 14.928379 34.875004 0.554627 1.128458 0.013746 0.009339 -397627.000000 0 0 1
-27.820699 -17.210005 15.668979 36.272476 0.553987 1.124109 -0.000915 0.018618 -17364.300000 0 0 1
-27.467699 -18.617105 15.728479 36.721331 0.595658 1.128164 -0.001420 0.024668 8209.830000 0 0 1
-28.500599 -19.476305 16.483679 38.253396 0.599474 1.125298 -0.022264 0.027473 -20689.600000 0 0 1
-28.670599 -19.273705 17.906479 38.911707 0.591856 1.092596 -0.010818 0.024374 -266433.000000 0 0 1
-29.243499 -20.435005 18.542479 40.206905 0.609912 1.091476 -0.009951 0.019391 76425.900000 0 0 1
-28.377599 -21.723305 18.723179 40.345354 0.653353 1.088209 -0.013069 0.014524 832180.000000 0 0 1
-27.176899 -21.526705 19.514279 39.784293 0.669903 1.058130 -0.003894 0.019228 718125.000000 0 0 1
-26.478599 -22.717505 19.633279 40.033322 0.709096 1.058221 0.001369 0.011497 227753.000000 0 0 1
-25.032399 -22.459005 20.167879 39.214427 0.731265 1.030608 0.009829 0.009836 442852.000000 0 0 1
-24.028299 -22.159705 19.234279 37.925838 0.744964 1.038916 0.017495 0.009565 -196705.000000 0 0 1
-22.763399 -22.113605 19.852879 37.434218 0.770920 1.011794 0.022897 0.012904 -132091.000000 0 0 1
-21.642399 -21.644605 18.927179 35.987783 0.785449 1.016984 0.025174 0.011216 -197727.000000 0 0 1
-21.523999 -22.457105 17.752379 35.815515 0.806611 1.052200 0.022870 -0.004854 139016.000000 0 0 1
-20.195399 -22.349005 17.286379 34.729686 0.835975 1.049804 0.029572 0.001850 133788.000000 0 0 1
-19.921699 -23.442405 16.191079 34.764515 0.866410 1.086330 0.029776 0.000524 -797673.000000 0 0 1
-19.879099 -24.830905 16.634079 35.894917 0.895702 1.088956 0.042941 -0.011836 484223.000000 0 0 1
-18.747199 -25.361855 17.350179 35.995971 0.934250 1.067857 0.037858 -0.007502 139348.000000 0 0 1
-17.408699 -25.312535 16.613079 34.925373 0.968339 1.075067 0.017923 0.000464 -614525.000000 0 0 1
-16.842899 -24.025505 16.408979 33.617893 0.959371 1.060882 0.021180 0.001999 -151623.000000 0 0 1
-15.655999 -24.154005 15.649979 32.763518 0.995706 1.072802 0.027026 -0.003223 517028.000000 0 0 1
-14.752799 -22.826805 15.600079 31.338006 0.997032 1.049735 0.036355 -0.001840 327292.000000 0 0 1
-15.190499 -21.724105 14.815279 30.367425 0.960576 1.061151 0.026205 0.004291 282487.000000 0 0 1
-16.291299 -20.983205 15.370979 30.691503 0.910614 1.046248 0.038226 0.005616 268935.000000 0 0 1
-15.917699 -19.854205 16.346079 30.244949 0.895002 0.999817 0.039429 -0.000337 -591794.000000 0 0 1
-15.373299 -18.714105 15.680079 28.851706 0.883093 0.996229 0.033995 -0.002326 74978.900000 0 0 1
-15.381599 -17.537205 16.503779 28.574847 0.850787 0.955056 0.022401 -0.002436 -699639.000000 0 0 1
-14.620999 -16.330505 15.826779 27.036012 0.840574 0.945428 0.025027 -0.000684 15047.100000 0 0 1
-15.147799 -15.662505 14.690979 26.279170 0.802102 0.977575 0.022420 -0.006132 -108664.000000 0 0 1
-15.193199 -16.366205 13.431179 26.059212 0.822549 1.029310 0.028750 -0.007973 -316316.000000 0 0 1
-16.121399 -15.647305 12.450179 25.685495 0.770476 1.064757 0.023552 -0.006022 -417120.000000 0 0 1
-17.488599 -15.863905 12.690479 26.806023 0.736724 1.077628 0.019429 -0.004376 -491693.000000 0 0 1
-18.214699 -14.789805 12.187979 26.439751 0.681998 1.091706 0.027366 -0.008035 -735223.000000 0 0 1
-19.712199 -14.768805 12.510779 27.626219 0.643003 1.100827 0.035252 -0.008422 -21045.400000 0 0 1
-20.580099 -15.723405 11.938079 28.518129 0.652408 1.138878 0.045363 -0.002939 210572.000000 0 0 1
-20.862699 -15.612105 10.507579 28.096250 0.642429 1.187494 0.052251 0.000505 -162452.000000 0 0 1
-21.665599 -16.849405 9.956979 29.196611 0.660997 1.222782 0.055789 0.002709 65836.800000 0 0 1
-20.928699 -18.035505 9.723779 29.288936 0.711282 1.232379 0.048778 0.009599 -229253.000000 0 0 1
-21.708799 -19.112805 9.268679 30.372351 0.721890 1.260681 0.050370 0.012598 -305389.000000 0 0 1
-21.006899 -20.500305 9.388579 30.817166 0.773194 1.261221 0.049872 0.013856 -183067.000000 0 0 1
-19.921999 -20.554205 8.506279 29.861651 0.801016 1.281940 0.048389 0.003216 -735514.000000 0 0 1
-19.467799 -21.890305 8.644679 30.543594 0.843905 1.283847 0.038012 -0.004112 676429.000000 0 0 1
-18.267999 -22.339705 7.717679 29.872141 0.885333 1.309475 0.041494 -0.003837 1429080.000000 0 0 1
-16.984499 -21.882105 8.134479 28.869872 0.910748 1.285165 0.032579 -0.004251 596341.000000 0 0 1
-15.864399 -22.258605 7.363679 28.308098 0.951577 1.307643 0.045888 -0.005162 -161789.000000 0 0 1
-14.523599 -21.921005 7.968279 27.476515 0.985654 1.276566 0.001877 0.005100 -1666840.000000 0 0 1
-13.384499 -22.447205 7.437479 27.172375 1.033127 1.293543 0.019929 0.013245 -1425530.000000 0 0 1
-12.362499 -22.165305 8.327779 26.711122 1.062029 1.253739 0.023799 0.014774 -908521.000000 0 0 1
-10.964399 -22.633905 7.939479 26.373226 1.119687 1.265010 0.023159 0.014339 -399725.000000 0 0 1
-10.758699 -24.004405 7.952679 27.481015 1.149443 1.277209 0.022794 0.019239 -930792.000000 0 0 1
-9.526199 -24.354305 7.432279 27.186751 1.197942 1.293893 0.036719 0.014514 -656024.000000 0 0 1
-9.366199 -25.862535 7.301479 28.458883 1.223336 1.311332 0.022883 0.018362 -422358.000000 0 0 1
-10.135699 -26.513455 6.319679 29.079788 1.205654 1.351726 0.022091 0.006384 -296838.000000 0 0 1
-9.965399 -27.918865 6.255079 30.296835 1.227951 1.362841 0.033428 0.000207 288395.000000 0 0 1
-8.788199 -28.459065 5.391379 30.269090 1.271285 1.391726 0.042260 -0.002997 -1074970.000000 0 0 1
-7.534199 -28.212135 5.870679 29.785124 1.309831 1.372396 0.041749 0.000432 -2051750.000000 0 0 1
-6.585299 -29.135795 5.486779 30.370471 1.348510 1.389137 0.036416 0.008805 -246952.000000 0 0 1
-6.614299 -30.569205 6.126679 31.871013 1.357710 1.377359 0.033811 -0.002696 -509796.000000 0 0 1
-6.366299 -30.570665 7.471179 32.107847 1.365482 1.335953 0.036906 -0.001721 -102752.000000 0 0 1
-6.649299 -31.860555 7.997879 33.515284 1.365050 1.329838 0.045488 -0.011459 51531.500000 0 0 1
-7.041299 -31.794055 9.468679 33.913091 1.352848 1.287831 0.030723 -0.016352 -147380.000000 0 0 1
-5.934299 -31.374765 10.236379 33.531705 1.383862 1.260569 0.017856 -0.006241 74657.100000 0 0 1
-6.005299 -31.611425 11.634579 34.215629 1.383061 1.223840 0.003966 -0.003873 -97293.400000 0 0 1
-5.042299 -30.734065 12.471079 33.549000 1.408183 1.189927 0.012692 -0.010110 441943.000000 0 0 1
-5.635299 -29.459495 12.720979 32.579776 1.381790 1.169669 0.021427 -0.005051 266093.000000 0 0 1
-4.743299 -28.674725 13.500979 32.047078 1.406863 1.135934 0.013230 -0.012581 -242569.000000 0 0 1
-5.322299 -28.045535 14.774179 32.142733 1.383253 1.093203 0.020896 -0.014158 -268661.000000 0 0 1
-5.869299 -28.952235 15.707279 33.457424 1.370783 1.082105 0.026627 -0.015408 1432210.000000 0 0 1
-4.806299 -29.788055 16.284479 34.287214 1.410825 1.075897 0.019406 -0.019389 1472560.000000 0 0 1
-5.453299 -31.120435 16.814479 35.790316 1.397325 1.081726 0.012379 -0.018597 448791.000000 0 0 1
-6.216299 -31.842445 15.869379 36.116768 1.378001 1.115876 -0.001314 -0.009699 205796.000000 0 0 1
-6.555299 -33.170505 16.230079 37.505598 1.375686 1.123269 0.003470 -0.008632 -245740.000000 0 0 1
-5.778299 -34.281440 15.538079 38.079362 1.403811 1.150485 -0.000299 -0.003546 -233349.000000 0 0 1
-6.311299 33.991543 14.301179 37.413650 -1.387214 1.178572 -0.006703 -0.007531 178761.000000 0 0 1
-5.507299 32.930827 13.791179 36.124318 -1.405091 1.179086 0.005446 -0.009195 564622.000000 0 0 1
-4.251299 33.358414 12.969379 36.042505 -1.444037 1.202705 0.014332 -0.009371 15477.700000 0 0 1
-4.553299 33.826889 11.669879 36.071832 -1.436995 1.241351 0.011826 -0.011645 -127838.000000 0 0 1
-3.459299 -34.312094 10.993279 36.195839 1.470317 1.262205 0.020908 -0.019724 -700005.000000 0 0 1
-3.747299 -34.021395 9.504179 35.522205 1.461093 1.299941 0.019437 -0.020364 -535613.000000 0 0 1
-3.835299 33.478407 8.708979 34.804591 -1.456733 1.317884 0.042397 -0.029629 635972.000000 0 0 1
-4.797299 32.410225 8.909079 33.953033 -1.423845 1.305294 0.047618 -0.028775 888651.000000 0 0 1
-6.305299 32.732186 9.143579 34.565269 -1.380494 1.303079 0.047863 -0.022858 635287.000000 0 0 1
-7.046499 33.258374 8.021979 34.930284 -1.362012 1.339071 0.059958 -0.027040 225767.000000 0 0 1
-8.368999 33.593879 8.432079 35.632693 -1.326644 1.331891 0.050934 -0.024907 647956.000000 0 0 1
-9.341099 33.831793 7.240279 35.836685 -1.301404 1.367361 0.059375 -0.027487 113696.000000 0 0 1
-9.165599 -33.612255 6.639679 35.466565 1.304582 1.382476 0.049436 -0.020035 218759.000000 0 0 1
-9.904399 -33.594265 5.408279 35.438980 1.284095 1.417589 0.041530 -0.009458 -269671.000000 0 0 1
-9.948699 -32.208715 4.840679 34.055985 1.271211 1.428174 0.036134 -0.006966 -299308.000000 0 0 1
-10.847099 -31.306285 5.387079 33.567301 1.237258 1.409613 0.049310 -0.019069 -445346.000000 0 0 1
-12.164899 -31.441175 4.884979 34.064575 1.201625 1.426897 0.050354 -0.018700 -1031230.000000 0 0 1
-13.134699 -30.585245 5.573079 33.749619 1.165166 1.404906 0.054910 -0.024295 -1067610.000000 0 0 1
-13.477399 -30.992375 6.885479 34.490251 1.160602 1.369810 0.047657 -0.019678 326844.000000 0 0 1
-14.404599 -30.052825 7.461879 34.151785 1.123838 1.350528 0.040207 -0.014832 4052.510000 0 0 1
33.148185 -12.943005 -13.025221 37.894326 -0.372254 1.921677 0.026961 -0.032351 534177.000000 0 0 1
32.012795 -13.250705 -12.176921 36.724347 -0.392448 1.908770 0.052667 -0.031691 776457.000000 0 0 1
32.048225 -14.580205 -11.593021 37.068440 -0.426959 1.888879 0.057085 -0.040010 -370417.000000 0 0 1
33.087185 -14.989705 -10.536721 37.821628 -0.425376 1.853122 0.043202 -0.029639 -347427.000000 0 0 1
34.365565 -15.163405 -11.080421 39.162439 -0.415544 1.857649 0.047001 -0.033591 -820215.000000 0 0 1
35.235345 -15.667005 -10.103521 39.863087 -0.418387 1.827047 0.030446 -0.030728 624274.000000 0 0 1
-35.156094 -15.545405 -10.569521 39.866343 0.416334 1.839129 0.020071 -0.033420 587099.000000 0 0 1
-34.642990 -14.242305 -10.856521 38.998001 0.390053 1.852910 0.027781 -0.030617 -519352.000000 0 0 1
-33.262352 -14.340905 -10.954821 37.842486 0.407064 1.864485 0.042797 -0.035104 -719061.000000 0 0 1
-32.544582 -13.035505 -11.307321 36.836527 0.380974 1.882793 0.053169 -0.042374 -367036.000000 0 0 1
-32.669092 -12.068405 -10.268221 36.309122 0.353864 1.857508 0.067752 -0.039361 203700.000000 0 0 1
-32.124152 -10.841805 -10.548221 35.507335 0.325493 1.872421 0.074035 -0.032421 -286351.000000 0 0 1
-32.555462 -9.895805 -9.376621 35.294562 0.295093 1.839693 0.073516 -0.037916 55109.700000 0 0 1
-31.850892 -10.086305 -8.188421 34.398592 0.306682 1.811149 0.081523 -0.030903 -7417.320000 0 0 1
-32.441442 -9.280905 -7.225921 34.507916 0.278639 1.781757 0.091790 -0.034590 -550749.000000 0 0 1
-31.709102 -9.118505 -5.944821 33.525441 0.280012 1.749062 0.083878 -0.029610 -1305090.000000 0 0 1
-30.492762 -8.384705 -6.003921 32.189422 0.268342 1.758414 0.096594 -0.046863 384447.000000 0 0 1
-29.884712 -8.387305 -4.711821 31.394970 0.273616 1.721448 0.105776 -0.045435 -290559.000000 0 0 1
-29.219862 -9.739505 -4.286921 31.097202 0.321737 1.709092 0.097979 -0.040502 -540531.000000 0 0 1
-30.167692 -10.716605 -3.835221 32.243514 0.341330 1.690024 0.116718 -0.043451 585970.000000 0 0 1
-30.753522 -10.594905 -2.568421 32.628636 0.331776 1.649595 0.098580 -0.041829 -56726.000000 0 0 1
-31.559792 -11.887805 -2.298621 33.802722 0.360239 1.638850 0.098079 -0.028344 -2719.650000 0 0 1
-32.764952 -12.147205 -2.984221 35.071388 0.355029 1.655989 0.094225 -0.039867 332225.000000 0 0 1
-33.414982 -13.346405 -2.592821 36.075064 0.380001 1.642731 0.096805 -0.038478 -55647.100000 0 0 1
-34.949652 -13.239405 -2.640321 37.466402 0.362110 1.641326 0.077785 -0.028156 -224330.000000 0 0 1
-35.421665 -12.639505 -1.482921 37.638418 0.342746 1.610206 0.094259 -0.034177 -403897.000000 0 0 1
35.075565 -12.570405 -1.394321 37.286117 -0.344121 1.608200 0.095528 -0.033637 -624525.000000 0 0 1
34.594345 -11.685105 -0.257221 36.515429 -0.325743 1.577841 0.088391 -0.033791 -283142.000000 0 0 1
34.641945 -12.158905 1.073479 36.729494 -0.337555 1.541566 0.112289 -0.030541 198443.000000 0 0 1
34.683015 -11.021405 1.925279 36.442964 -0.307684 1.517942 0.098032 -0.028959 -333149.000000 0 0 1
35.087385 -11.561305 3.309079 37.090947 -0.318297 1.481462 0.097621 -0.031719 218545.000000 0 0 1
34.010675 -11.945405 4.155279 36.286155 -0.337766 1.456030 0.098864 -0.032830 203583.000000 0 0 1
34.529325 -12.409105 5.388579 37.084997 -0.345005 1.424977 0.099308 -0.028686 162155.000000 0 0 1
33.533725 -12.508705 6.594679 36.393244 -0.357032 1.388584 0.090702 -0.028483 265678.000000 0 0 1
33.003865 -11.233405 6.973779 35.553876 -0.328067 1.373369 0.086801 -0.022402 92389.500000 0 0 1
32.418655 -11.408705 8.250379 35.343974 -0.338382 1.335192 0.074181 -0.008328 -401546.000000 0 0 1
31.663555 -10.160805 8.765579 34.389796 -0.310518 1.313063 0.073738 -0.017811 -653093.000000 0 0 1
30.281925 -10.144805 8.591279 33.071470 -0.323261 1.308003 0.074836 -0.011993 -624681.000000 0 0 1
29.655855 -9.205105 9.436279 32.453768 -0.300968 1.275775 0.080968 -0.004862 -485924.000000 0 0 1
28.137435 -9.342405 9.337979 31.083656 -0.320575 1.265669 0.063300 -0.011368 -344498.000000 0 0 1
27.566205 -8.888705 8.105579 30.076655 -0.311923 1.297925 0.085875 -0.013704 163814.000000 0 0 1
27.012925 -9.942105 7.334579 29.704202 -0.352664 1.321295 0.087649 -0.024069 -227168.000000 0 0 1
25.953515 -9.375105 6.350479 28.316182 -0.346641 1.344602 0.095947 -0.026993 -252717.000000 0 0 1
24.783715 -8.833005 6.909979 27.202984 -0.342368 1.313967 0.084371 -0.018694 797020.000000 0 0 1
23.845015 -8.323405 5.920879 25.940714 -0.335840 1.340520 0.073922 -0.021166 516029.000000 0 0 1
24.229715 -6.928105 5.307479 25.753584 -0.278503 1.363222 0.079846 -0.018411 -587372.000000 0 0 1
25.219415 -7.002205 4.305779 26.525262 -0.270830 1.407747 0.082414 -0.020679 293891.000000 0 0 1
25.471515 -5.675405 3.787679 26.369581 -0.219233 1.426660 0.086599 -0.027879 121791.000000 0 0 1
26.210515 -5.585005 2.443779 26.910136 -0.209943 1.479858 0.101370 -0.032488 548662.000000 0 0 1
25.355815 -6.023605 1.369479 26.097445 -0.233240 1.518297 0.089708 -0.026676 630573.000000 0 0 1
26.058215 -5.766105 0.188979 26.689216 -0.217769 1.563716 0.085097 -0.028012 -412011.000000 0 0 1
25.275415 -6.229205 -1.035521 26.052292 -0.241638 1.610555 0.083078 -0.029332 1109720.000000 0 0 1
24.106315 -5.400605 -1.344821 24.740443 -0.220394 1.625180 0.069244 -0.017332 999986.000000 0 1 0
23.647615 -5.744105 -2.653121 24.479450 -0.238289 1.679391 0.059606 -0.012760 49853.500000 0 1 0
22.322415 -4.993105 -2.895821 23.056606 -0.220059 1.696725 0.029407 -0.007563 -94391.300000 0 1 0
22.599115 -3.578505 -2.988421 23.075016 -0.157043 1.700670 0.028187 -0.004352 500908.000000 0 1 0
23.311315 -3.069505 -4.109921 23.869033 -0.130921 1.743845 0.041246 -0.006031 -161923.000000 0 1 0
22.512415 -2.094405 -4.979121 23.151393 -0.092766 1.787558 0.032461 0.004368 -259240.000000 0 1 0
22.274615 -0.835905 -4.447221 22.729606 -0.037510 1.767724 0.039451 0.014021 414328.000000 0 1 0
21.696215 -0.037305 -5.465321 22.374022 -0.001719 1.817564 0.057275 0.017088 -417265.000000 0 1 0
21.120815 1.316495 -4.980021 21.739885 0.062251 1.801922 0.043554 0.021741 -462869.000000 0 1 0
21.972015 2.414495 -4.705721 22.599625 0.109450 1.780552 0.034129 0.016844 333478.000000 0 1 0
22.628315 2.317095 -3.431521 23.004019 0.102042 1.720526 0.061356 0.006074 46652.300000 0 1 0
23.783615 3.317195 -3.212521 24.227761 0.138580 1.703785 0.049129 0.007554 -163730.000000 0 1 0
23.401415 4.670095 -3.035121 24.055103 0.196977 1.697307 0.042111 0.007852 791523.000000 0 1 0
24.532915 5.521395 -2.901021 25.313349 0.221372 1.685653 0.039215 0.008809 239964.000000 0 0 1
24.087615 6.982995 -3.103121 25.270631 0.282165 1.693903 0.038470 0.004628 -55733.800000 0 0 1
23.151715 7.421295 -2.153221 24.407251 0.310202 1.659132 0.055963 -0.001665 310429.000000 0 1 0
22.612415 8.717295 -2.397321 24.352817 0.367952 1.669397 0.047525 0.000228 -108626.000000 0 1 0
21.501415 9.014495 -1.359921 23.354258 0.396991 1.629059 0.042934 0.002841 -128250.000000 0 1 0
21.976615 9.275195 -0.044021 23.853779 0.399368 1.572642 0.030544 -0.007520 1339910.000000 0 1 0
20.883415 9.744295 0.782379 23.058196 0.436576 1.536859 0.018578 -0.007899 476576.000000 0 1 0
21.392715 9.974595 2.252779 23.711090 0.436294 1.475643 0.040977 -0.009740 -145679.000000 0 1 0
22.349215 11.017195 2.409879 25.033448 0.457997 1.474381 0.051472 -0.018479 525742.000000 0 0 1
21.898115 12.318895 2.094779 25.212511 0.512431 1.487616 0.052984 -0.008297 -290722.000000 0 0 1
20.836815 13.025895 2.979079 24.753216 0.558699 1.450153 0.040928 -0.000084 470731.000000 0 1 0
19.476115 12.637095 2.748679 23.378846 0.575567 1.452953 0.082433 -0.008978 2380950.000000 0 1 0
18.452715 13.416695 3.537079 23.087254 0.628674 1.416986 0.060586 -0.009803 1594570.000000 0 1 0
18.435415 13.248895 5.028179 23.252534 0.623144 1.352832 0.039651 -0.003752 -592452.000000 0 1 0
17.854315 12.082595 5.570579 22.266500 0.594939 1.317933 0.023262 -0.004758 276256.000000 0 1 0
18.075015 12.158195 6.949979 22.865478 0.592135 1.261959 0.023011 -0.010783 -56113.600000 0 1 0
18.420315 10.788495 7.572579 22.650465 0.529827 1.229909 0.030442 -0.018065 -1096260.000000 0 1 0
19.479215 10.178295 6.971379 23.057269 0.481501 1.263639 0.022247 -0.022288 -638730.000000 0 1 0
19.608215 8.822995 7.369179 22.729543 0.422824 1.240618 0.042234 -0.022177 360624.000000 0 1 0
20.646915 7.954995 6.598979 23.089469 0.367759 1.280955 0.058310 -0.021890 123737.000000 0 1 0
20.051215 7.626095 5.363879 22.112886 0.363436 1.325784 0.037642 -0.027645 332708.000000 0 1 0
20.861515 6.901995 4.465879 22.422855 0.319512 1.370289 0.042429 -0.029125 -342339.000000 0 1 0
20.384115 6.648995 3.031579 21.654370 0.315303 1.430336 0.037561 -0.022928 227082.000000 0 1 0
21.440815 5.961695 2.339879 22.376894 0.271203 1.466038 0.035604 -0.020311 1106120.000000 0 1 0
21.048415 5.709595 0.967879 21.830530 0.264886 1.526446 0.038185 -0.011338 114892.000000 0 1 0
22.070615 4.736395 0.317179 22.575342 0.211396 1.556746 0.048555 -0.009052 262881.000000 0 1 0
22.105315 3.413595 0.763379 22.380356 0.153214 1.536680 0.056108 -0.004899 401674.000000 0 1 0
23.300815 2.838095 0.285879 23.474763 0.121205 1.558618 0.065797 -0.003893 77739.900000 0 1 0
23.223015 1.298795 0.290779 23.261123 0.055869 1.558295 0.080229 -0.008168 540810.000000 0 1 0
22.186115 0.802695 -0.600221 22.208743 0.036164 1.597826 0.047701 -0.005110 1347390.000000 0 1 0
22.281415 -0.583105 -0.922221 22.308114 -0.026164 1.612148 0.044295 -0.005239 -928370.000000 0 1 0
22.186215 -1.694905 0.179879 22.251589 -0.076246 1.562712 0.069245 -0.012233 453095.000000 0 1 0
23.245115 -1.863905 1.140079 23.347576 -0.080014 1.521946 0.080772 -0.010804 1359960.000000 0 1 0
24.517715 -2.305805 0.630879 24.633983 -0.093771 1.545183 0.089689 -0.011241 -213557.000000 0 1 0
25.601015 -2.085705 1.638179 25.738022 -0.081290 1.507105 0.103902 -0.011832 -909915.000000 0 0 1
25.693215 -0.716705 1.999379 25.780855 -0.027888 1.493166 0.101691 -0.016247 136699.000000 0 0 1
26.268615 -0.503005 3.226979 26.470862 -0.019146 1.448585 0.095267 -0.013694 -731337.000000 0 0 1
26.217415 0.979395 3.669379 26.491063 0.037339 1.431836 0.100595 -0.009422 277556.000000 0 0 1
26.782915 2.083595 2.893879 27.019261 0.077639 1.463486 0.123136 -0.010854 -147107.000000 0 0 1
28.108315 1.892395 2.493579 28.282087 0.067224 1.482514 0.128761 -0.021192 -620837.000000 0 0 1
28.489175 2.971895 1.443679 28.680123 0.103941 1.520438 0.139759 -0.025479 -271075.000000 0 0 1
27.625055 2.826795 0.333779 27.771313 0.101972 1.558777 0.131307 -0.016368 244694.000000 0 0 1
27.679645 3.804795 -0.693621 27.948530 0.136602 1.595617 0.106762 -0.011251 512970.000000 0 0 1
29.008265 3.765995 -1.547421 29.292604 0.129103 1.623647 0.093458 -0.009211 460963.000000 0 0 1
30.163165 4.007195 -0.799021 30.438669 0.132077 1.597050 0.112738 -0.024388 -192739.000000 0 0 1
31.349035 3.576995 -1.434921 31.585058 0.113611 1.616242 0.087340 -0.024748 -749479.000000 0 0 1
32.633425 3.851595 -0.723421 32.867895 0.117483 1.592808 0.045395 -0.027437 -1157270.000000 0 0 1
32.763005 3.101995 0.455579 32.912679 0.094398 1.556954 0.039030 -0.023987 250872.000000 0 0 1
32.387825 3.812195 1.595379 32.650410 0.117165 1.521914 0.047272 -0.006953 -217556.000000 0 0 1
32.431275 2.874895 2.842579 32.682302 0.088415 1.483710 0.047513 -0.003547 -541386.000000 0 0 1
31.364325 1.986095 3.004979 31.570482 0.063239 1.475469 0.065076 -0.011823 -331741.000000 0 0 1
31.527425 0.984595 3.950879 31.789266 0.031220 1.446191 0.053609 -0.011080 268664.000000 0 0 1
32.674755 -0.086605 3.665979 32.879880 -0.002651 1.459068 0.054079 -0.013295 41278.000000 0 0 1
33.888455 0.438495 4.100179 34.138411 0.012939 1.450401 0.047117 -0.015376 -1086200.000000 0 0 1
34.917355 -0.421205 3.742179 35.119838 -0.012062 1.464039 0.044594 -0.013350 -1286070.000000 0 0 1
-35.600658 0.154795 4.120479 35.838654 -0.004348 1.455568 0.048067 -0.027523 -349855.000000 0 0 1
-35.212410 1.348395 3.441379 35.405862 -0.038274 1.473445 0.041756 -0.026359 315116.000000 0 0 1
-34.911143 1.201595 2.047279 34.991757 -0.034405 1.512255 0.063462 -0.022298 -965536.000000 0 0 1
-35.028124 2.493795 1.292679 35.140567 -0.071074 1.534002 0.054633 -0.020379 461021.000000 0 0 1
-33.939432 3.402795 1.451179 34.140445 -0.099927 1.528277 0.068556 -0.022642 630467.000000 0 0 1
-32.763322 3.105995 0.727579 32.918260 -0.094518 1.548692 0.085958 -0.012471 -516668.000000 0 0 1
-31.522272 3.844895 1.242279 31.780184 -0.121374 1.531697 0.084251 -0.016020 -325370.000000 0 0 1
-31.294972 3.516195 2.569879 31.596569 -0.111887 1.489372 0.091851 -0.021306 -202202.000000 0 0 1
-30.273572 4.285095 3.128179 30.734943 -0.140612 1.468841 0.089376 -0.016326 -633849.000000 0 0 1
-30.249512 4.123495 4.681979 30.886196 -0.135481 1.418622 0.085804 -0.023512 263051.000000 0 0 1
-31.326272 4.662795 5.478179 32.141677 -0.147761 1.399522 0.075234 -0.009512 729600.000000 0 0 1
-32.575042 4.000395 5.434579 33.266667 -0.122194 1.406697 0.076312 -0.005305 -201363.000000 0 0 1
-32.695342 2.771595 6.372379 33.425654 -0.084568 1.378979 0.064123 -0.015518 -600958.000000 0 0 1
-32.682262 3.296995 7.744079 33.748647 -0.100540 1.339270 0.055580 -0.006596 329951.000000 0 0 1
-32.607832 2.265995 8.710179 33.827099 -0.069381 1.310371 0.052528 -0.008403 -57478.300000 0 0 1
-33.959772 1.566195 9.012679 35.170264 -0.046086 1.311647 0.042884 -0.001681 -88383.800000 0 0 1
-34.099954 0.442695 8.150479 35.063273 -0.012982 1.336200 0.047317 -0.011519 198995.000000 0 0 1
-35.125686 -0.493005 8.426579 36.125671 0.014035 1.335370 0.053928 -0.011761 -211801.000000 0 0 1
-34.871992 -1.435705 9.629979 36.205712 0.041147 1.301576 0.053615 0.002222 -704735.000000 0 0 1
-33.683532 -2.160805 9.572279 35.083870 0.064062 1.294453 0.050275 -0.008910 -278878.000000 0 0 1
-33.455662 -2.975705 10.694279 35.249167 0.088711 1.262547 0.038704 0.007166 896501.000000 0 0 1
-32.082562 -3.729605 10.462279 33.950847 0.115731 1.257538 0.047107 0.008314 882998.000000 0 0 1
-32.244872 -4.602205 9.371279 33.892963 0.141769 1.290650 0.046422 -0.002111 -410236.000000 0 0 1
-31.079782 -5.307005 9.101779 32.817062 0.169123 1.289763 0.050894 -0.016130 -436418.000000 0 0 1
-31.206622 -6.331405 7.952279 32.820401 0.200170 1.326064 0.057495 -0.004629 -159326.000000 0 0 1
-32.138812 -7.293305 8.323979 33.990942 0.223152 1.323392 0.064412 -0.003977 -329765.000000 0 0 1
-32.252002 -8.265605 7.349779 34.095911 0.250882 1.353529 0.065800 -0.013769 111257.000000 0 0 1
-33.225122 -9.367705 7.808179 35.392517 0.274813 1.348350 0.072467 -0.015806 1143630.000000 0 0 1
-34.557550 -8.924005 8.108479 36.600677 0.252715 1.347404 0.069121 -0.015324 99566.200000 0 0 1
-35.483780 -9.909205 8.314279 37.767952 0.272323 1.348837 0.074596 -0.018273 -297002.000000 0 0 1
7.646108 -23.835405 11.068979 27.369907 -1.260379 1.154450 0.067377 -0.011791 -77008.200000 0 0 1
6.995808 -24.308305 9.905579 27.165337 -1.290574 1.197550 0.058778 -0.009155 -1133120.000000 0 0 1
5.728008 -24.754405 10.198179 27.378706 -1.343405 1.189110 0.051726 -0.009824 -713827.000000 0 0 1
5.259508 -25.828385 9.180679 27.911517 -1.369910 1.235636 0.051344 -0.004824 -178463.000000 0 0 1
5.051908 -25.341315 7.856579 27.007960 -1.374021 1.275630 0.053662 -0.008023 -235561.000000 0 0 1
4.878308 -26.457585 7.003579 27.800213 -1.388462 1.316127 0.047155 -0.000781 -118254.000000 0 0 1
4.359408 -26.022105 5.584279 26.969216 -1.404811 1.362226 0.039687 -0.003748 -182348.000000 0 0 1
2.988808 -25.903895 5.358179 26.620572 -1.455924 1.368132 0.035090 -0.008230 -492871.000000 0 0 1
2.323208 -27.147105 5.034579 27.707573 -1.485426 1.388077 0.031180 -0.004723 -61953.000000 0 0 1
0.783108 -27.030615 4.979979 27.496684 -1.541833 1.388679 0.045842 -0.010863 -133229.000000 0 0 1
0.230608 -26.968635 6.297479 27.695103 -1.562246 1.341404 0.035803 -0.005424 -969500.000000 0 0 1
-1.136892 -26.726925 6.243479 27.470022 1.528285 1.341509 0.023195 -0.005465 -322586.000000 0 0 1
-1.973792 -28.018355 6.522979 28.835280 1.500466 1.342606 0.020469 -0.004772 -223664.000000 0 0 1
-1.687192 -28.750335 7.691279 29.809129 1.512179 1.309827 0.015119 -0.006580 -212138.000000 0 0 1
-2.510892 -29.888975 7.754779 30.980511 1.486986 1.317794 0.015437 -0.002235 74072.300000 0 0 1
-2.476292 -30.583835 9.126879 32.012543 1.490005 1.281682 0.012882 -0.006439 67420.300000 0 0 1
-1.210892 -31.145345 9.363779 32.545033 1.531937 1.278953 0.014110 -0.006831 -278170.000000 0 0 1
-1.025192 -31.250585 10.809579 33.083185 1.538003 1.237945 0.008140 -0.004920 293021.000000 0 0 1
0.447508 -31.492105 11.229679 33.437384 -1.556587 1.228297 0.012078 -0.002131 -27014.600000 0 0 1
0.976108 -32.724425 10.806479 34.476380 -1.540977 1.251977 0.012766 -0.003611 648710.000000 0 0 1
2.401408 -32.754965 10.988979 34.632531 -1.497613 1.247913 0.044081 -0.006286 774128.000000 0 0 1
2.907208 -33.389725 12.279379 35.694660 -1.483946 1.219610 0.046806 -0.009446 -297772.000000 0 0 1
2.412008 -32.777135 13.444179 35.509215 -1.497341 1.182501 0.030119 -0.003624 -41685.500000 0 0 1
3.157008 -33.287865 14.504479 36.447615 -1.476240 1.161511 0.038754 -0.006159 -345364.000000 0 0 1
2.849008 -32.549375 15.844079 36.312719 -1.483490 1.119288 0.041657 -0.012227 -47263.400000 0 0 1
3.338208 -31.214705 15.845579 35.165094 -1.464258 1.103353 0.037775 -0.016671 -875155.000000 0 0 1
4.689708 -31.084245 16.069779 35.305261 -1.421055 1.098237 0.047366 -0.011725 -1232850.000000 0 0 1
5.283008 -29.826815 15.462479 34.009372 -1.395492 1.098813 0.061219 -0.011416 -64992.000000 0 0 1
5.615008 -29.754145 14.093379 33.398515 -1.384276 1.135172 0.060866 -0.009768 513961.000000 0 0 1
4.437308 -29.742745 13.271379 32.870201 -1.422699 1.155183 0.047092 -0.004795 304735.000000 0 0 1
4.681808 -29.830995 11.750479 32.401873 -1.415122 1.199688 0.040962 -0.002227 45592.900000 0 0 1
5.068608 -31.120555 11.262879 33.481819 -1.409344 1.227718 0.049105 0.000331 17130.000000 0 0 1
6.468408 -31.355155 11.304079 33.952442 -1.367355 1.231378 0.061383 -0.006321 5987.420000 0 0 1
6.793108 -32.785275 10.781979 35.174873 -1.366487 1.259256 0.053350 -0.004707 -110976.000000 0 0 1
6.454208 -33.769595 11.687879 36.313206 -1.381949 1.243100 0.051012 -0.016845 -2830.920000 0 0 1
6.712608 33.659906 11.073779 36.064899 1.373954 1.258703 0.057311 -0.015710 138895.000000 0 0 1
6.346908 32.417235 12.001879 35.145490 1.377454 1.222293 0.053900 -0.019959 80385.100000 0 0 1
5.012108 32.448205 12.448979 35.113877 1.417543 1.208383 0.056930 -0.011582 -359570.000000 0 0 1
4.644608 31.244775 12.984679 34.152749 1.423225 1.180790 0.060914 -0.002415 255811.000000 0 0 1
3.399308 31.329715 13.897079 34.441765 1.462718 1.155463 0.064946 -0.012224 162132.000000 0 0 1
3.728108 31.938085 15.114179 35.529966 1.454593 1.131401 0.084073 -0.017846 525319.000000 0 0 1
2.702208 31.860045 16.111479 35.804248 1.486184 1.104045 0.057990 -0.009455 784016.000000 0 0 1
3.430308 32.149745 17.478679 36.754284 1.464501 1.075202 0.057970 -0.008761 390349.000000 0 0 1
3.765308 33.490508 17.720779 38.076472 1.458837 1.086710 0.064740 -0.008385 -87604.400000 0 0 1
4.537908 33.576662 18.875479 38.784901 1.436460 1.062522 0.062042 -0.012526 -166821.000000 0 0 1
4.643208 -33.653465 19.291279 39.067487 -1.433691 1.054349 0.054270 -0.013708 731581.000000 0 0 1
3.391908 -33.183475 19.835779 38.808584 -1.468933 1.034311 0.039780 -0.009369 517555.000000 0 0 1
3.545808 -32.207835 20.817079 38.513221 -1.461146 0.999744 0.035061 -0.008137 400488.000000 0 0 1
2.262808 -31.616745 21.487079 38.294040 -1.499348 0.975073 0.031978 -0.006400 142130.000000 0 0 1
1.479608 -32.502655 22.213279 39.395960 -1.525305 0.971760 0.040390 -0.005117 -1144770.000000 0 0 1
0.294608 -31.875195 22.535779 39.038138 -1.561554 0.955408 0.039139 -0.009704 -406789.000000 0 0 1
-0.774392 -32.824135 23.189279 40.196595 1.547209 0.955872 0.046843 -0.011991 -238626.000000 0 0 1
-1.678492 -33.336675 22.238379 40.108562 1.520489 0.983089 0.035395 -0.011740 -314649.000000 0 0 1
-2.387192 34.257942 22.702979 41.167105 -1.501226 0.986655 0.044787 -0.014968 543020.000000 0 0 1
-3.771992 -34.063871 23.323079 41.455293 1.460513 0.973259 0.055148 -0.011274 263248.000000 0 0 1
-4.712692 -33.497855 22.450479 40.599751 1.431027 0.984871 0.039411 -0.012875 -752353.000000 0 0 1
-5.922092 -33.207365 23.062879 40.861922 1.394315 0.971078 0.047083 -0.005440 -875956.000000 0 0 1
-7.123692 -32.931405 22.184079 40.340523 1.357760 0.988527 0.026173 -0.002761 -240784.000000 0 0 1
-7.598092 -34.047455 21.418579 40.935507 1.351232 1.020163 0.006333 0.004092 -307301.000000 0 0 1
-8.605892 -33.646165 20.561179 40.359484 1.320389 1.036250 0.000975 -0.007115 -286280.000000 0 0 1
-9.962192 34.353113 20.671479 41.312126 -1.288545 1.046767 0.019409 -0.002072 228129.000000 0 0 1
-10.650692 -34.271700 21.902679 42.044192 1.269486 1.022840 0.039278 -0.004445 -459267.000000 0 0 1
-11.773292 33.634760 22.044379 41.903009 -1.234092 1.016811 0.016128 0.001660 -358946.000000 0 0 1
-12.105792 33.489031 23.533079 42.683384 -1.223926 0.986826 0.019117 -0.000687 19061.400000 0 0 1
-12.437992 -34.022595 24.275979 43.606924 1.220309 0.980388 0.013888 0.002976 27342.400000 0 0 1
-11.365392 -33.128735 24.483779 42.733367 1.240311 0.960704 0.014998 0.004043 -134449.000000 0 0 1
-11.800192 -31.846825 25.224579 42.305369 1.215951 0.931974 0.011971 0.003680 -144519.000000 0 0 1
-12.195892 -31.958995 26.619979 43.344440 1.206243 0.909488 0.015248 0.007557 43492.600000 0 0 1
-12.834292 -30.752305 26.899079 42.825037 1.175428 0.891667 0.023259 -0.001534 -226575.000000 0 0 1
-13.549692 -30.684185 28.272579 43.868578 1.154962 0.870449 0.025973 -0.004926 242733.000000 0 0 1
-12.716892 -30.441205 29.443479 44.218829 1.175080 0.842153 0.014396 0.004777 366045.000000 0 0 1
-13.510792 -30.011865 30.547979 44.904706 1.147791 0.822645 0.023037 -0.001389 -49189.000000 0 0 1
-12.803292 -29.621325 31.881879 45.362996 1.162816 0.791447 0.028304 -0.000121 -374851.000000 0 0 1
-13.706492 -29.219385 32.909279 46.094046 1.132182 0.775659 0.032038 -0.004555 352078.000000 0 0 1
-13.204492 -28.986465 34.247179 46.770109 1.143345 0.749184 0.038925 -0.000983 -249677.000000 0 0 1
-12.295292 -29.983155 -33.598325 46.679880 1.181636 2.374253 0.038767 0.001159 99715.100000 0 0 1
-10.995392 -30.182725 -34.088725 46.839478 1.221444 2.385872 0.033948 -0.001692 -38966.400000 0 0 1
-10.451292 -31.474865 -33.649225 47.245814 1.250199 2.363446 0.034794 -0.004302 -162640.000000 0 0 1
-8.945392 -31.715515 -33.734725 47.158516 1.295887 2.367918 0.046645 -0.015970 -267055.000000 0 0 1
-8.212392 -30.752615 -33.004625 45.852720 1.309839 2.374305 0.064897 -0.016881 496551.000000 0 0 1
-6.834392 -31.159615 -32.937325 45.853003 1.354880 2.372187 0.063516 -0.022144 862617.000000 0 0 1
-5.958492 -30.321965 -32.001625 44.486281 1.376761 2.373676 0.057363 -0.009292 -27249.000000 0 0 1
-6.406392 -30.618335 -30.702725 43.831286 1.364538 2.346859 0.065980 -0.019655 95929.600000 0 0 1
-5.828192 -29.766365 -29.737025 42.476993 1.377444 2.346297 0.054041 -0.011100 -45415.400000 0 0 1
-6.387392 -29.970825 -28.313625 41.721823 1.360817 2.316690 0.054068 -0.023085 -153810.000000 0 0 1
-5.885992 -31.132585 -27.721225 42.099276 1.383940 2.289584 0.045721 -0.015579 -380895.000000 0 0 1
-6.807192 -31.760105 -26.887625 42.166177 1.359659 2.262251 0.050141 -0.018875 12712.100000 0 0 1
-6.142092 -33.018365 -26.203425 42.597620 1.386878 2.233358 0.043065 -0.018142 419610.000000 0 0 1
-5.148792 -32.559285 -25.313925 41.562145 1.413959 2.225674 0.016752 -0.018042 -144870.000000 0 0 1
-4.726592 -33.626255 -24.487725 41.865432 1.431149 2.195572 0.033089 -0.019099 -200513.000000 0 0 1
-3.922192 -33.197285 -23.219925 40.701453 1.453194 2.177903 0.032087 -0.029538 -164471.000000 0 0 1
-4.532692 -32.507255 -22.155825 39.599842 1.432253 2.164570 0.047490 -0.022628 -62651.700000 0 0 1
-4.972392 -31.160685 -22.482425 38.744966 1.412558 2.189853 0.027173 -0.011541 -40442.300000 0 0 1
-5.590292 -30.398045 -21.333425 37.555393 1.388925 2.174934 0.054494 -0.026389 -770990.000000 0 0 1
-6.967492 -30.612755 -21.172225 37.867530 1.347008 2.164112 0.074177 -0.030717 -469432.000000 0 0 1
-7.534392 -29.566765 -20.429625 36.719616 1.321280 2.160805 0.073934 -0.031078 90138.500000 0 0 1
-7.916492 -28.239095 -21.204925 36.190692 1.297474 2.196814 0.085428 -0.043496 -387914.000000 0 0 1
-6.765592 -27.506105 -21.563125 35.599542 1.329617 2.221459 0.074091 -0.029619 -96957.400000 0 0 1
-6.961592 -26.805265 -22.749925 35.840551 1.316700 2.258486 0.090751 -0.046700 -479939.000000 0 0 1
-6.106892 -27.323895 -23.924925 36.827862 1.350910 2.277910 0.080704 -0.038822 288936.000000 0 0 1
-4.746992 -26.967705 -23.989425 36.404444 1.396556 2.290244 0.084901 -0.031413 10570.800000 0 0 1
-3.826892 -27.505725 -23.062825 36.098531 1.432553 2.263845 0.053218 -0.021320 -442555.000000 0 0 1
-2.388592 -27.036775 -23.402725 35.838249 1.482679 2.282348 0.048907 -0.024776 1594.470000 0 0 1
-2.135192 -25.636345 -23.364125 34.751454 1.487700 2.308136 0.060874 -0.029068 -8381.270000 0 0 1
-2.205692 -24.941305 -22.133925 33.419222 1.482590 2.294696 0.071661 -0.031920 -921909.000000 0 0 1
-2.039392 -23.440405 -22.378725 32.471819 1.484012 2.331144 0.072270 -0.026717 230698.000000 0 0 1
-2.867292 -22.824705 -23.367025 32.790340 1.445829 2.364021 0.071792 -0.035270 276022.000000 0 0 1
-4.254092 -22.885905 -23.063425 32.768636 1.387011 2.351566 0.068745 -0.037214 62119.500000 0 0 1
-5.148592 -23.140005 -24.355625 33.987708 1.351865 2.369713 0.060824 -0.033346 367935.000000 0 0 1
-5.320492 -21.987105 -25.153925 33.829874 1.333378 2.409148 0.068425 -0.034656 -87241.600000 0 0 1
-5.888592 -22.249905 -26.414925 35.035440 1.312071 2.424849 0.067806 -0.033512 93997.400000 0 0 1
-6.057392 -20.992405 -27.243425 34.922446 1.289875 2.465641 0.076307 -0.022610 -125788.000000 0 0 1
-6.099692 -21.030305 -28.679625 36.083249 1.288499 2.489504 0.069017 -0.025245 -496216.000000 0 0 1
-4.919992 -21.327505 -29.382825 36.639039 1.344075 2.501355 0.060730 -0.031565 -374619.000000 0 0 1
-5.229692 -21.910205 -30.789425 38.149645 1.336493 2.509969 0.062333 -0.032997 -256066.000000 0 0 1
-5.634092 -20.970305 -31.748425 38.463738 1.308325 2.541728 0.076755 -0.039815 -451987.000000 0 0 1
-6.507892 -21.612705 -32.619725 39.667469 1.278318 2.536289 0.068759 -0.034289 -155885.000000 0 0 1
-6.751292 -20.853705 -33.946025 40.407791 1.257700 2.568238 0.059288 -0.024564 752878.000000 0 0 1
-5.501992 -20.860705 33.989779 40.258490 1.312920 0.565560 0.068651 -0.025403 289347.000000 0 0 1
-5.679492 -20.263305 32.724679 38.907105 1.297524 0.571487 0.063179 -0.016785 -764625.000000 0 0 1
-4.512992 -20.350605 31.813179 38.034098 1.352566 0.580044 0.058461 -0.014782 -1952140.000000 0 0 1
-4.440092 -21.607205 31.134979 38.157210 1.368126 0.616398 0.065101 -0.009116 627107.000000 0 0 1
-3.183392 -22.107005 30.675879 37.945530 1.427780 0.629336 0.053863 -0.014352 893459.000000 0 0 1
-1.843092 -21.950105 31.464679 38.408725 1.487025 0.610770 0.042608 -0.021088 8080.670000 0 0 1
-1.284692 -20.642705 31.199479 37.432329 1.508642 0.585402 0.042977 -0.025159 -27947.100000 0 0 1
-0.269392 -20.116605 32.025879 37.820726 1.557406 0.560892 0.052413 -0.023201 -130247.000000 0 0 1
-0.640192 -19.812005 33.537479 38.957514 1.538494 0.533813 0.038388 -0.019039 -181444.000000 0 0 1
-1.580792 -18.747405 33.463779 38.389955 1.486675 0.512175 0.042929 -0.025666 -34870.000000 0 0 1
-2.204192 -18.577405 -33.890625 38.711147 1.452699 2.637213 0.055628 -0.026318 615508.000000 0 0 1
-3.273792 -17.443305 -33.914625 38.277779 1.385273 2.659471 0.071036 -0.032737 561728.000000 0 0 1
-2.622992 -16.199105 -34.117925 37.859264 1.410268 2.693275 0.060196 -0.032836 120485.000000 0 0 1
-3.557792 -15.133005 -34.076225 37.454703 1.339888 2.713594 0.059453 -0.026239 100712.000000 0 0 1
-3.080392 -13.732105 34.125779 36.913796 1.350129 0.391147 0.050468 -0.029494 -61836.000000 0 0 1
-2.210392 -13.096505 -33.530625 36.065317 1.403595 2.764446 0.055151 -0.025196 427680.000000 0 0 1
-1.977292 -11.677405 -33.699325 35.719966 1.403061 2.803627 0.052071 -0.020454 -223512.000000 0 0 1
-1.300692 -11.285405 33.594279 35.463048 1.456048 0.326085 0.047069 -0.020329 -878260.000000 0 0 1
-2.115292 -11.246005 32.440979 34.400062 1.384876 0.339113 0.041580 -0.021838 -305061.000000 0 0 1
-1.377892 -10.974105 31.284079 33.181670 1.445891 0.339828 0.042508 -0.013917 -84731.000000 0 0 1
-0.626992 -12.218305 30.720979 33.067487 1.519526 0.378990 0.024446 -0.022007 -270287.000000 0 0 1
-1.439592 -13.302505 30.419979 33.232578 1.462996 0.414380 0.040005 -0.030305 -409612.000000 0 0 1
-0.625892 -14.381805 30.081579 33.348606 1.527304 0.446338 0.028617 -0.028467 -95487.200000 0 0 1
-1.080592 -15.803105 30.645379 34.497030 1.502524 0.477061 0.027419 -0.033833 -460313.000000 0 0 1
-1.970992 -16.349605 29.758579 34.011284 1.450822 0.505439 0.045638 -0.030987 -387243.000000 0 0 1
-2.271392 -17.655905 30.235279 35.086498 1.442851 0.532116 0.053623 -0.023115 -78475.600000 0 0 1
-2.881092 -18.634305 29.165579 34.729945 1.417399 0.573915 0.058158 -0.021909 152840.000000 0 0 1
-4.181292 -18.319305 28.689279 34.295115 1.346395 0.579856 0.056530 -0.019777 229987.000000 0 0 1
-4.692792 -19.400005 27.878279 34.286746 1.333459 0.621352 0.060236 -0.014030 252333.000000 0 0 1
-4.113292 -19.491005 26.413379 33.083003 1.362813 0.646168 0.056565 -0.015681 -223817.000000 0 0 1
-4.851692 -20.353405 25.543579 33.019305 1.336791 0.686301 0.076559 -0.009344 -169846.000000 0 0 1
-4.600692 -21.761805 25.768179 34.040294 1.362453 0.712101 0.076627 -0.014342 -103434.000000 0 0 1
-28.987792 -34.174426 -0.434021 44.814862 0.867330 1.580481 0.000278 0.002916 -133579.000000 0 0 1
-28.180092 -33.058726 -0.095321 43.439683 0.864896 1.572991 0.007142 0.006244 380922.000000 0 0 1
-28.781782 -32.466626 1.030579 43.399710 0.845488 1.547048 0.010857 0.007135 218029.000000 0 0 1
-28.117692 -31.056426 1.372679 41.916470 0.835020 1.538042 0.025333 -0.001425 507360.000000 0 0 1
-26.778932 -31.322526 1.775579 41.247600 0.863440 1.527736 0.022278 -0.002771 -57032.700000 0 0 1
-26.135902 -30.117626 2.148579 39.934611 0.856062 1.516968 0.040023 -0.020856 87968.400000 0 0 1
-24.598292 -30.180626 2.235979 38.999304 0.886954 1.513431 0.050056 -0.018752 51955.400000 0 0 1
-24.269092 -30.685126 3.499479 39.278647 0.901624 1.481584 0.046164 -0.015626 -335343.000000 0 0 1
-22.875392 -30.635026 3.700779 38.412031 0.929406 1.474302 0.045741 -0.017022 -392064.000000 0 0 1
-22.475392 -31.190926 5.105479 38.782509 0.946395 1.438769 0.044103 -0.016259 -88194.000000 0 0 1
-22.772092 -30.239026 6.113779 38.345080 0.925334 1.410672 0.038650 -0.015542 25187.800000 0 0 1
-22.308392 -30.797826 7.323079 38.727225 0.943915 1.380557 0.035555 -0.010793 -216983.000000 0 0 1
-22.626892 -29.963726 8.589879 38.517362 0.924012 1.345892 0.040089 -0.017653 -349019.000000 0 0 1
-21.879792 -28.839626 8.908679 37.280208 0.921769 1.329496 0.038492 -0.011774 -449892.000000 0 0 1
-22.357292 -28.359526 10.158179 37.513995 0.903198 1.296589 0.026864 -0.003716 266341.000000 0 0 1
-21.544192 -27.281026 10.948179 36.445428 0.902359 1.265685 0.030804 -0.009852 2325.850000 0 0 1
-20.344792 -27.728926 11.508479 36.266362 0.937807 1.247882 0.014518 -0.003760 -471124.000000 0 0 1
-19.722292 -26.790926 12.354479 35.487402 0.936215 1.215213 0.023951 -0.008051 -361937.000000 0 0 1
-18.418392 -27.178326 13.017179 35.317779 0.975203 1.193323 0.040650 -0.010177 -486332.000000 0 0 1
-18.705592 -28.225426 13.902479 36.603999 0.985530 1.181208 0.051650 -0.023481 -961821.000000 0 0 1
-17.592992 -28.652226 14.588179 36.650763 1.020133 1.161426 0.053644 -0.015627 -754822.000000 0 0 1
-17.695992 -29.942926 15.403879 38.039538 1.037028 1.153879 0.066347 -0.026627 62480.300000 0 0 1
-17.320692 -31.014926 14.565179 38.393703 1.061479 1.181688 0.077245 -0.022989 -156262.000000 0 0 1
-17.342992 -32.143826 15.383679 39.631585 1.076017 1.172154 0.091669 -0.022209 220458.000000 0 0 1
-16.966092 -33.497726 14.708279 40.327155 1.101974 1.197460 0.084102 -0.021554 88214.100000 0 0 1
-16.893992 34.200695 15.654079 41.232811 -1.111987 1.181377 0.096948 -0.005664 1499.440000 0 0 1
-16.965692 32.955095 14.976179 39.976980 -1.095369 1.186809 0.066395 -0.007932 -220182.000000 0 0 1
-16.838892 31.702095 15.864479 39.246054 -1.082532 1.154658 0.069083 -0.006476 504776.000000 0 0 1
-17.982492 31.434695 16.712579 39.885089 -1.051175 1.138433 0.083294 -0.011342 855044.000000 0 0 1
-17.781492 30.431595 17.718479 39.448801 -1.041993 1.104981 0.058694 -0.005808 -237212.000000 0 0 1
-18.669792 30.687295 18.928379 40.602398 -1.024232 1.085819 0.062632 -0.001081 -308862.000000 0 0 1
-18.178992 31.637495 19.822379 41.525095 -1.049261 1.073150 0.057952 0.006883 -287404.000000 0 0 1
-19.078492 31.894695 20.872279 42.625256 -1.031723 1.059086 0.058085 0.005388 -276199.000000 0 0 1
-18.712192 33.031995 21.897779 43.826608 -1.055383 1.047607 0.045969 0.010345 -138222.000000 0 0 1
-17.560092 32.690195 22.624279 43.461059 -1.077859 1.023285 0.027585 0.005027 -455055.000000 0 0 1
-17.366092 33.452595 23.803179 44.578566 -1.091966 1.007519 0.021607 0.000313 -272102.000000 0 0 1
-18.200992 33.072895 25.029979 45.294507 -1.067700 0.985310 0.018244 -0.008178 549346.000000 0 0 1
-19.594192 33.299295 24.758679 45.888643 -1.038930 1.000908 0.025595 -0.008520 468220.000000 0 0 1
-20.427592 32.518895 25.588979 46.147166 -1.009916 0.983025 0.033243 -0.012175 -795424.000000 0 0 1
-21.887792 32.813395 25.322779 46.872566 -0.982536 1.000065 0.056298 -0.018789 -981736.000000 0 0 1
-22.287792 32.327695 24.060479 46.051408 -0.967197 1.021051 0.063096 -0.008478 143643.000000 0 0 1
-23.630892 32.650595 23.755979 46.784901 -0.944307 1.038202 0.058039 -0.009847 73369.300000 0 0 1
-24.060392 32.238395 22.334079 46.011169 -0.929650 1.063969 0.039344 -0.014571 -314800.000000 0 0 1
-23.503892 32.975595 21.306979 45.758170 -0.951554 1.086435 0.047946 -0.016406 -188230.000000 0 0 1
-23.169092 32.216995 20.196979 44.527065 -0.947328 1.100008 0.033670 -0.002523 89577.500000 0 0 1
-22.499892 32.927695 19.000079 44.175573 -0.971358 1.126189 0.046497 -0.000255 -242934.000000 0 0 1
-21.317692 33.628695 19.264379 44.231769 -1.005813 1.120166 0.058398 0.002830 -313199.000000 0 0 1
-20.788192 34.256095 18.107279 43.971610 -1.025358 1.146374 0.077445 0.002163 -98684.700000 0 0 1
-19.406692 -33.833826 18.343579 43.102603 1.050024 1.131194 0.096966 -0.009486 -257738.000000 0 0 1
-19.471292 -32.695426 19.170379 42.610158 1.033666 1.104141 0.097523 -0.021701 3968.120000 0 0 1
-18.241592 -32.084026 19.492779 41.738577 1.053818 1.084878 0.077109 -0.022432 -572655.000000 0 0 1
-18.355292 -31.083226 20.621479 41.573178 1.037376 1.051777 0.081020 -0.021614 93290.800000 0 0 1
-19.199792 -29.988326 20.278479 40.977414 1.001311 1.053111 0.091193 -0.021997 535970.000000 0 0 1
-19.770992 -29.384226 21.446379 41.403769 0.978529 1.026307 0.081520 -0.024296 181025.000000 0 0 1
-20.705392 -28.148226 21.277879 40.911906 0.936585 1.023840 0.062979 -0.027833 -420784.000000 0 0 1
-20.111192 -26.940626 20.934279 39.604311 0.929539 1.013862 0.059778 -0.026694 465507.000000 0 0 1
-21.029492 -25.887626 20.564379 39.182935 0.888578 1.018281 0.041872 -0.014995 -128189.000000 0 0 1
-21.934492 -25.968826 19.301379 39.090218 0.869418 1.054382 0.031400 -0.015007 -690511.000000 0 0 1
-23.161892 -26.555226 19.592379 40.317671 0.853545 1.063346 0.031107 -0.017846 -538156.000000 0 0 1
-24.062492 -26.170626 18.562179 40.105607 0.827341 1.089608 0.025893 -0.008957 285317.000000 0 0 1
-25.570122 -26.332626 18.973079 41.318471 0.800088 1.093712 0.006784 -0.005888 645012.000000 0 0 1
-26.054052 -27.671726 19.157479 42.562273 0.815499 1.103914 0.010217 -0.015009 -5436.540000 0 0 1
-26.129722 -28.430026 17.980779 42.595037 0.827534 1.134999 0.026363 -0.019921 -1003460.000000 0 0 1
-26.775442 -29.760726 18.324579 44.027438 0.838152 1.141525 0.030627 -0.024614 656037.000000 0 0 1
-28.140452 -29.623926 18.749079 44.955422 0.811074 1.140589 0.024953 -0.019564 165801.000000 0 0 1
-29.010432 -29.937426 17.710879 45.293817 0.801123 1.169055 0.025266 -0.016858 -678180.000000 0 0 1
-30.481502 -29.585826 17.997879 46.134225 0.770488 1.170035 0.031688 -0.016791 18777.700000 0 0 1
-30.750852 -28.283626 17.504679 45.298920 0.743630 1.174043 0.039273 -0.014056 1103540.000000 0 0 1
-32.084022 -27.929426 17.977279 46.180297 0.716281 1.170942 0.029410 -0.000767 1134020.000000 0 0 1
-32.641232 -26.637326 17.317279 45.550909 0.684459 1.180812 0.019590 -0.000526 -202140.000000 0 0 1
-32.725782 -26.811226 15.922679 45.203433 0.686381 1.210828 0.042985 -0.018157 192421.000000 0 0 1
-33.430212 -25.740326 15.331979 44.891124 0.656161 1.222245 0.048014 -0.010197 242705.000000 0 0 1
-32.516382 -24.491126 15.012879 43.387981 0.645542 1.217476 0.028289 -0.004883 400045.000000 0 0 1
-31.929572 -23.835026 16.123579 42.983437 0.641249 1.186279 0.009593 -0.000990 182173.000000 0 0 1
-31.454812 -22.523526 15.752979 41.771650 0.621423 1.184110 -0.000397 0.008149 498697.000000 0 0 1
-32.461742 -21.318226 16.015779 42.008769 0.581084 1.179650 0.001650 0.002423 518293.000000 0 0 1
-32.675932 -20.902326 17.342879 42.489990 0.569090 1.150354 0.007015 0.003304 -126640.000000 0 0 1
-33.538782 -19.805526 17.420579 42.668318 0.533424 1.150228 0.009200 -0.001859 -307452.000000 0 0 1
-33.907282 -19.376826 18.853479 43.366102 0.519174 1.121034 0.003986 0.002827 -141167.000000 0 0 1
-34.695276 -20.336426 19.537079 44.710512 0.530169 1.118571 0.015180 0.004462 262460.000000 0 0 1
-34.838632 -19.895526 20.837979 45.208225 0.518881 1.091750 0.000845 0.014060 461807.000000 0 0 1
35.587095 -19.888026 21.437579 46.060229 -0.509616 1.086682 0.012291 0.010921 1007900.000000 0 0 1
34.808275 -21.059126 21.652179 46.086003 -0.544090 1.081708 0.035365 0.011002 525815.000000 0 0 1
35.459925 -22.078826 22.458679 47.426502 -0.556902 1.077483 0.016859 0.016447 -309336.000000 0 0 1
34.601475 -23.313826 22.698879 47.497744 -0.592912 1.072541 0.034158 0.016240 6268.350000 0 0 1
33.735515 -23.242626 23.832779 47.395211 -0.603282 1.043901 0.052809 0.001874 380066.000000 0 0 1
33.487955 -24.456426 24.501079 48.164954 -0.630777 1.037133 0.052119 -0.008706 -440705.000000 0 0 1
32.553165 -24.352326 25.713579 48.103352 -0.642270 1.006823 0.059759 -0.012916 691916.000000 0 0 1
31.169375 -24.273226 25.361479 46.945970 -0.661650 1.000090 0.064932 -0.012956 95926.600000 0 0 1
30.325405 -24.117226 26.431379 46.902970 -0.671857 0.972140 0.046618 -0.019120 -393561.000000 0 0 1
28.939745 -24.725926 26.193779 46.205999 -0.707039 0.968069 0.039789 -0.021665 -145092.000000 0 0 1
27.894865 -23.911826 25.699179 44.836890 -0.708666 0.960427 0.046322 -0.019737 -171140.000000 0 0 1
26.816615 -24.716726 25.276179 44.372656 -0.744673 0.964736 0.043657 -0.011908 318014.000000 0 0 1
25.563815 -23.909626 24.809379 42.903195 -0.751975 0.954197 0.038607 -0.008136 -51355.000000 0 0 1
25.557915 -23.240726 23.596579 41.834638 -0.737949 0.971521 0.047790 -0.008655 -42848.400000 0 0 1
26.582715 -22.276726 23.466479 41.875636 -0.697495 0.975946 0.049586 -0.005550 36060.400000 0 0 1
26.653015 -21.644026 22.061179 40.811061 -0.682055 0.999683 0.061632 -0.012668 464508.000000 0 0 1
25.714715 -20.558626 21.951079 39.569604 -0.674429 0.982739 0.048824 -0.014178 399438.000000 0 0 1
25.736715 -19.963426 20.693279 38.589230 -0.659734 1.004814 0.045327 -0.014259 115983.000000 0 0 1
24.864715 -18.675526 20.530179 37.262818 -0.644195 0.987287 0.042113 -0.006289 28390.700000 0 0 1
25.247715 -17.488226 21.178779 37.307182 -0.605787 0.967104 0.045009 -0.017078 -114344.000000 0 0 1
25.151315 -17.511126 22.573979 38.063273 -0.608192 0.935937 0.039934 -0.002087 -149281.000000 0 0 1
25.243015 -16.152726 23.270079 37.942285 -0.569234 0.910562 0.050845 0.002102 -993736.000000 0 0 1
24.185715 -15.302926 23.074579 36.763631 -0.564136 0.892269 0.030352 0.001929 -966452.000000 0 0 1
24.193315 -14.190026 23.960279 36.888593 -0.530454 0.863829 0.027307 0.007261 -94905.100000 0 0 1
22.817315 -13.525626 23.842879 35.665885 -0.535093 0.838597 0.019789 0.002072 -587143.000000 0 0 1
21.820615 -14.283026 24.412179 35.722522 -0.579578 0.818409 0.034822 0.005478 72384.400000 0 0 1
20.535615 -13.634526 24.310279 34.620824 -0.586116 0.792332 0.040393 0.000928 1839340.000000 0 0 1
19.306915 -14.397626 24.972279 34.693852 -0.640759 0.767297 0.032431 0.009995 626279.000000 0 0 1
19.020315 -15.552726 24.250479 34.521666 -0.685435 0.791932 0.035199 0.012940 -791196.000000 0 0 1
17.878715 -16.181126 24.678279 34.503547 -0.735598 0.773830 0.022556 0.021515 -672025.000000 0 0 1
17.209415 -17.251126 23.790879 34.055415 -0.786609 0.797367 0.024469 -0.002163 -249353.000000 0 0 1
17.926515 -18.409926 23.828579 35.044065 -0.798701 0.823088 0.015524 0.004500 -210756.000000 0 0 1
17.466715 -19.324026 22.850979 34.650705 -0.835838 0.850687 0.022435 -0.007578 -49196.000000 0 0 1
18.049615 -20.712126 23.115479 35.904125 -0.853980 0.871328 0.011139 -0.005408 -63248.000000 0 0 1
17.417015 -21.336026 24.264679 36.706309 -0.886183 0.848580 0.012258 -0.012375 350004.000000 0 0 1
17.771415 -22.719026 24.491479 37.839264 -0.906987 0.866825 0.020381 -0.015676 -597213.000000 0 0 1
17.256515 -23.710426 23.486579 37.571146 -0.941653 0.895507 0.015352 -0.002265 77733.800000 0 0 1
17.923415 -23.759326 22.204979 37.132405 -0.924502 0.929800 0.017435 0.001398 976546.000000 0 0 1
19.235015 -24.378826 22.307379 38.235221 -0.902796 0.947857 0.021582 -0.005241 736602.000000 0 0 1
19.920315 -24.477626 20.947779 37.878524 -0.887687 0.984805 0.030343 0.001780 -268525.000000 0 0 1
19.266215 -25.341126 20.021179 37.605948 -0.920752 1.009370 0.039074 -0.000666 377413.000000 0 0 1
20.005715 -25.544726 18.803379 37.501050 -0.906406 1.045569 0.037468 0.009240 422578.000000 0 0 1
19.143115 -26.338426 17.801379 37.108768 -0.942301 1.070474 0.030891 -0.000342 250848.000000 0 0 1
18.804115 -27.648726 18.226179 38.082022 -0.973546 1.071733 0.056107 -0.011118 50103.600000 0 0 1
17.984015 -28.357126 17.309879 37.778080 -1.005610 1.094828 0.056677 -0.012179 -440537.000000 0 0 1
17.280015 -29.480226 18.039579 38.640770 -1.040618 1.085067 0.052740 -0.008855 -660398.000000 0 0 1
16.330315 -29.019926 18.960879 38.319058 -1.058234 1.053173 0.051044 -0.012144 -492604.000000 0 0 1
15.782115 -30.121626 19.613979 39.256792 -1.088176 1.047622 0.062675 -0.019199 -741084.000000 0 0 1
14.527915 -29.781526 20.396979 38.910620 -1.116943 1.019020 0.049326 -0.010043 -683966.000000 0 0 1
13.524315 -29.231626 19.577479 37.691813 -1.137464 1.024637 0.041271 -0.003774 -646310.000000 0 0 1
12.322515 -29.127026 20.282479 37.571359 -1.170569 1.000551 0.011865 -0.001046 -129635.000000 0 0 1
11.170415 -28.509326 19.445579 36.272447 -1.197365 1.004989 0.029531 -0.003109 74589.500000 0 0 1
10.761615 -29.324726 18.351779 36.228990 -1.219075 1.039618 0.043616 -0.008871 114773.000000 0 0 1
10.446715 -28.532826 17.235079 34.932850 -1.219825 1.054828 0.043735 -0.004781 -27898.600000 0 0 1
10.523415 -29.298726 15.914379 34.963196 -1.225970 1.098227 0.056070 -0.007870 476267.000000 0 0 1
9.549015 -30.354726 15.804679 35.530001 -1.266017 1.109816 0.065925 -0.009741 548024.000000 0 0 1
9.727315 -31.002326 14.627379 35.633202 -1.266763 1.147796 0.059889 -0.012124 -550681.000000 0 0 1
8.603415 -31.976126 14.396179 36.107359 -1.307963 1.160692 0.063831 -0.015099 -659353.000000 0 0 1
8.438415 -32.965426 15.391479 37.347340 -1.320200 1.146020 0.053369 -0.013969 494775.000000 0 0 1
7.296415 -33.744626 14.974779 37.632187 -1.357850 1.161543 0.054208 -0.017413 600688.000000 0 0 1
7.188015 33.792295 16.014579 38.079568 1.361208 1.136739 0.066659 -0.025247 211770.000000 0 0 1
8.164315 32.770095 15.880579 37.319270 1.326628 1.131246 0.057508 -0.023169 -27147.900000 0 0 1
7.998415 31.903995 16.958179 37.005667 1.325156 1.094761 0.062477 -0.026735 -258202.000000 0 0 1
9.284015 31.138695 17.231879 36.779735 1.281037 1.083187 0.051584 -0.023240 -217901.000000 0 0 1
9.789915 30.223495 16.232779 35.676395 1.257544 1.098423 0.053632 -0.021512 190834.000000 0 0 1
10.850815 29.367195 16.629579 35.450179 1.216867 1.082528 0.043476 -0.016460 84304.300000 0 0 1
11.571115 28.641495 15.501679 34.561944 1.186848 1.105689 0.032499 -0.006879 74020.400000 0 0 1
10.759715 27.732595 14.738279 33.197668 1.200694 1.110788 0.039967 -0.010691 582863.000000 0 0 1
11.577815 26.934895 13.824679 32.413826 1.164830 1.130170 0.029054 -0.005480 595646.000000 0 0 1
-9.812592 -8.799905 19.136183 23.236153 0.731043 0.603151 0.071650 -0.022506 -20045.200000 0 1 0
-9.905292 -9.094205 17.759583 22.276045 0.742734 0.648070 0.065875 -0.024254 29.596800 0 1 0
-9.694092 -10.500005 17.589983 22.663474 0.825285 0.682278 0.058426 -0.022336 24517.000000 0 1 0
-9.968992 -10.926205 16.156183 21.903996 0.831176 0.741301 0.061566 -0.017464 -380819.000000 0 1 0
-11.334692 -10.741905 15.876183 22.269193 0.758553 0.777141 0.060356 -0.015323 -229875.000000 0 1 0
-11.769692 -11.209405 14.646583 21.879187 0.761021 0.837355 0.058737 -0.020033 31373.100000 0 1 0
-11.777492 -12.785605 14.447383 22.603272 0.826417 0.877375 0.044680 -0.021835 -80668.400000 0 1 0
-10.506392 -13.284705 14.009383 21.980230 0.901651 0.879725 0.052300 -0.019073 491627.000000 0 1 0
-10.367992 -14.691605 14.049583 22.819494 0.956249 0.907543 0.054964 -0.019061 197821.000000 0 1 0
-10.003092 -15.223405 15.484583 23.907870 0.989456 0.866264 0.061061 -0.020989 -414977.000000 0 1 0
-11.007192 -14.882305 16.387683 24.722408 0.933974 0.846154 0.064907 -0.011435 -493800.000000 0 1 0
-10.711792 -15.291505 17.703683 25.729225 0.959731 0.811961 0.084475 -0.013090 134427.000000 0 0 1
-11.962392 -15.162105 18.639083 26.840337 0.902819 0.803151 0.053537 -0.007531 261475.000000 0 0 1
-12.347292 -13.802005 18.824083 26.406383 0.840972 0.777227 0.054669 -0.010323 76817.500000 0 0 1
-13.315892 -13.348705 17.878383 25.983408 0.786629 0.811971 0.055162 -0.014274 1096710.000000 0 0 1
-14.788692 -13.488505 18.475383 27.239401 0.739450 0.825405 0.014012 -0.002227 874516.000000 0 0 1
-15.243092 -14.799405 18.754083 28.338841 0.770631 0.847606 0.022025 0.004968 -498518.000000 0 0 1
-16.184092 -14.849305 19.757683 29.543066 0.742413 0.838236 0.028613 -0.000879 -553926.000000 0 0 1
-16.602692 -16.277605 20.185083 30.790378 0.775512 0.855866 0.031280 -0.000762 -444392.000000 0 0 1
-17.475792 -16.903605 19.318883 31.054057 0.768756 0.899368 0.025690 0.008124 -419614.000000 0 0 1
-17.911492 -18.153105 19.853883 32.319243 0.792098 0.909291 0.025519 0.003395 764726.000000 0 0 1
-19.187492 -18.733205 19.118783 32.933580 0.773419 0.951422 0.024362 0.011008 598781.000000 0 0 1
-19.015992 -18.995805 17.739483 32.204625 0.784867 0.987430 0.028134 0.008366 2782.560000 0 0 1
-19.259292 -17.869305 16.895883 31.236249 0.747979 0.999282 0.021327 0.007400 -618082.000000 0 0 1
-18.830192 -18.064405 15.507283 30.354155 0.764645 1.034590 0.025301 -0.008322 -1164470.000000 0 0 1
-19.503492 -18.961705 14.719683 30.928976 0.771314 1.074788 0.028094 0.000382 -349718.000000 0 0 1
-19.219192 -18.728105 13.377183 29.984468 0.772458 1.108352 0.036675 -0.004142 9508.050000 0 0 1
-19.359792 -20.009305 12.602683 30.561438 0.801895 1.145740 0.038420 0.000844 214661.000000 0 0 1
-18.483992 -21.050005 13.072983 30.913809 0.850214 1.134170 0.034346 0.001974 247546.000000 0 0 1
-18.615992 -22.225205 12.313983 31.498398 0.873541 1.169144 0.022282 0.002226 -383536.000000 0 0 1
-17.590992 -23.317405 12.652083 31.831111 0.924476 1.162032 0.028795 -0.001573 -236103.000000 0 0 1
-17.698792 -24.389005 11.732283 32.337552 0.943038 1.199518 0.029433 -0.012033 152718.000000 0 0 1
-16.793792 -24.314105 10.647783 31.409910 0.966338 1.224949 0.024292 -0.008954 -184265.000000 0 0 1
-17.040292 -25.575605 9.725083 32.234460 0.983067 1.264323 0.035614 -0.011290 -294504.000000 0 0 1
-18.301392 -25.537115 9.104983 32.710639 0.948977 1.288721 0.037114 -0.009563 -412001.000000 0 0 1
-18.472292 -26.668065 8.270083 33.478434 0.965004 1.321185 0.050704 -0.014247 -61959.500000 0 0 1
-19.751792 -26.448565 7.476483 33.846088 0.929346 1.348063 0.043824 -0.020323 -232280.000000 0 0 1
-19.530092 -25.468385 6.483383 32.742899 0.916607 1.371470 0.052722 -0.020708 297160.000000 0 0 1
-20.460792 -25.536785 5.395783 33.164528 0.895307 1.407372 0.054730 -0.019440 348490.000000 0 0 1
-20.344592 -24.256705 4.515383 31.979351 0.872887 1.429126 0.054604 -0.019044 -43303.900000 0 0 1
-21.325892 -24.134105 3.517383 32.397850 0.847093 1.462013 0.056928 -0.019153 -152753.000000 0 0 1
-21.258792 -22.820805 2.878283 31.321078 0.820820 1.478770 0.054523 -0.011041 4652.980000 0 0 1
-21.803492 -22.777005 1.457883 31.564373 0.807232 1.524592 0.041731 -0.007818 -232996.000000 0 0 1
-21.044692 -23.538405 0.583383 31.579676 0.841274 1.552322 0.031436 -0.015742 -156692.000000 0 0 1
-21.582392 -23.476305 -0.713517 31.897424 0.827406 1.593167 0.045068 -0.020091 -347348.000000 0 0 1
-20.892292 -24.385705 -1.703317 32.156675 0.862400 1.623790 0.054419 -0.023311 -160891.000000 0 0 1
-19.569892 -23.986205 -2.051617 31.024633 0.886447 1.636973 0.058551 -0.021739 499350.000000 0 0 1
-19.007892 -24.668705 -3.210917 31.307427 0.914287 1.673538 0.055475 -0.013706 403980.000000 0 0 1
-18.753492 -26.197565 -3.126517 32.369445 0.949513 1.667536 0.068499 -0.018044 98715.500000 0 0 1
-19.979792 -26.929315 -2.997917 33.665526 0.932477 1.659964 0.086063 -0.021771 409525.000000 0 0 1
-19.718792 -28.211355 -3.573117 34.604602 0.960764 1.674236 0.090860 -0.005126 690461.000000 0 0 1
-20.935392 -28.988045 -4.217217 36.005310 0.945321 1.688193 0.096900 -0.006577 438517.000000 0 0 1
-21.397392 -28.402265 -5.400717 35.968108 0.925142 1.721519 0.082232 -0.004436 -40729.200000 0 0 1
-22.243992 -29.321145 -6.079317 37.302585 0.921793 1.734500 0.067933 -0.015704 -120466.000000 0 0 1
-22.740692 -28.698825 -7.404517 37.357576 0.900712 1.770324 0.064256 0.010007 75294.100000 0 0 1
-21.696092 -28.390865 -8.351717 36.694861 0.918274 1.800408 0.098531 0.009058 487844.000000 0 0 1
-22.122292 -28.107865 -9.701317 37.061617 0.904002 1.835644 0.086558 0.005375 -52311.000000 0 0 1
-22.819892 -26.766815 -9.965517 36.558465 0.864827 1.846882 0.064776 0.008387 66836.800000 0 0 1
-21.947092 -25.664865 -10.298517 35.304668 0.863325 1.866804 0.063276 0.010390 482620.000000 0 0 1
-21.704992 -24.819905 -9.199217 34.230980 0.852250 1.842880 0.049846 0.010073 -56451.700000 0 0 1
-21.447792 -23.416905 -9.745717 33.216535 0.829260 1.868577 0.044694 0.005423 569516.000000 0 0 1
-22.577992 -22.769305 -10.364517 33.699113 0.789617 1.883425 0.041652 0.010914 564349.000000 0 0 1
-22.309492 -21.435905 -10.676017 32.729021 0.765431 1.903071 0.031282 0.010354 647728.000000 0 0 1
-23.609692 -20.552605 -10.798417 33.112429 0.716285 1.902986 0.026805 0.013027 563583.000000 0 0 1
-24.469692 -20.963705 -11.894617 34.347120 0.708383 1.924427 0.005050 0.015865 336287.000000 0 0 1
-25.693762 -20.280805 -11.953617 34.847804 0.668200 1.920930 0.014806 0.013173 -315948.000000 0 0 1
-25.807052 -18.795505 -12.122017 34.149938 0.629474 1.933672 0.020994 0.002970 -1209750.000000 0 0 1
-25.115952 -18.273305 -13.258017 33.771286 0.628983 1.974234 0.011586 0.007121 489633.000000 0 0 1
-24.865692 -16.891605 -13.308417 32.874655 0.596707 1.987582 0.023498 -0.003273 468837.000000 0 0 1
-23.697592 -16.364005 -12.360217 31.338977 0.604345 1.976215 0.006010 0.001913 146506.000000 0 0 1
-24.055892 -16.342205 -10.989117 31.088813 0.596727 1.932080 0.009997 -0.005039 -93967.300000 0 0 1
-23.003592 -16.190705 -10.101817 29.888976 0.613294 1.915564 0.009325 -0.002452 -691016.000000 0 0 1
-23.458392 -16.472905 -8.681517 29.950317 0.612213 1.864881 0.006316 -0.012407 43360.000000 0 0 1
-23.673292 -17.840705 -8.416217 30.814740 0.645815 1.847434 0.008873 -0.002651 221461.000000 0 0 1
-24.700892 -18.045705 -7.476017 31.490830 0.630949 1.810488 0.027415 -0.005268 -394.749000 0 0 1
-24.928292 -19.504305 -6.966217 32.409348 0.663927 1.787432 0.046739 -0.003010 -3710.160000 0 0 1
-25.319042 -20.389305 -7.991317 33.475944 0.677961 1.811842 0.024037 -0.015029 182043.000000 0 0 1
-25.453692 -21.727205 -7.531317 34.302808 0.706579 1.792154 0.021836 0.003524 21455.000000 0 0 1
-25.656692 -22.777505 -8.592717 35.368282 0.726023 1.816202 0.007190 0.014151 142423.000000 0 0 1
-26.029792 -24.054105 -8.055817 36.346200 0.745971 1.794294 0.010052 0.016067 -275488.000000 0 0 1
-25.863612 -25.129335 -8.982117 37.162997 0.771000 1.814909 0.005649 0.029593 -85774.600000 0 0 1
-26.477002 -26.518915 -8.689317 38.468022 0.786189 1.798647 0.001396 0.021245 -114891.000000 0 0 1
-25.855382 -27.060205 -7.546617 38.179928 0.808163 1.769766 0.011624 0.012225 100156.000000 0 0 1
-26.558592 -28.143595 -6.945217 39.314842 0.814365 1.748385 -0.009118 0.007372 -68566.000000 0 0 1
-26.128102 -28.555095 -5.487817 39.092036 0.829752 1.711644 0.003619 -0.004873 -13621.700000 0 0 1
-26.657162 -27.684835 -4.502917 38.695357 0.804307 1.687429 -0.012020 -0.001822 112958.000000 0 0 1
-26.070812 -27.940075 -3.224917 38.350165 0.819993 1.654987 -0.000531 -0.011538 -156430.000000 0 0 1
-26.397952 -29.231235 -2.397917 39.459688 0.836286 1.631603 -0.012470 -0.000133 -722692.000000 0 0 1
-25.942272 -30.402685 -3.115817 40.087817 0.864396 1.648600 0.006478 -0.000236 -2178.180000 0 0 1
-25.857142 -31.574545 -2.327217 40.877373 0.884623 1.627759 0.011790 -0.002028 628906.000000 0 0 1
-24.625992 -31.741945 -1.359117 40.197485 0.910975 1.604614 0.033825 -0.015251 1276310.000000 0 0 1
-23.331892 -31.824725 -2.008017 39.512308 0.938175 1.621638 0.043193 -0.026699 581523.000000 0 0 1
-22.333492 -32.109075 -1.068217 39.126956 0.963063 1.598101 0.045375 -0.013837 -105673.000000 0 0 1
-21.347592 -30.977555 -0.680717 37.627011 0.967402 1.588888 0.069457 -0.018886 -298297.000000 0 0 1
-21.839892 -29.755545 -0.093317 36.910460 0.937629 1.573325 0.069923 -0.023467 -82144.500000 0 0 1
-22.347792 -28.848415 -1.071217 36.507566 0.911697 1.600143 0.075959 -0.027703 -228771.000000 0 0 1
-23.058192 -27.588375 -0.544717 35.959636 0.874608 1.585945 0.041509 -0.017374 19920.800000 0 0 1
-24.352892 -27.834585 -0.021617 36.984158 0.852015 1.571381 0.037400 -0.018558 27426.300000 0 0 1
-25.012592 -26.571195 0.284883 36.493004 0.815604 1.562990 0.044548 -0.029408 242491.000000 0 0 1
-24.514792 -25.581535 1.372983 35.458075 0.806689 1.532065 0.052271 -0.020680 -375246.000000 0 0 1
-24.774992 -26.062475 2.680983 36.058848 0.810718 1.496377 0.044252 -0.017584 -110288.000000 0 0 1
-24.346692 -25.176415 3.705383 35.218506 0.802151 1.465390 0.057417 -0.021496 -39049.900000 0 0 1
-25.347662 -24.036805 4.000283 35.160692 0.758860 1.456778 0.048370 -0.010330 -8633.190000 0 0 1
-25.436652 -23.086405 2.946683 34.477359 0.737000 1.485225 0.051374 -0.011087 151981.000000 0 0 1
-26.467802 -22.117605 3.120283 34.633353 0.696099 1.480579 0.032488 -0.011779 -7587.090000 0 0 1
-26.328922 -20.945205 2.110483 33.710056 0.672004 1.508148 0.031960 -0.011225 -415136.000000 0 0 1
-25.114482 -20.292305 2.238083 32.365474 0.679595 1.501591 0.034107 -0.002557 -698562.000000 0 0 1
-24.936292 -19.357905 1.223783 31.591847 0.660118 1.532049 0.028002 -0.007627 650080.000000 0 0 1
-23.596392 -18.541405 1.345383 30.039698 0.666005 1.525994 0.047877 0.000056 489182.000000 0 0 1
-22.476792 -19.335805 1.085783 29.669150 0.710418 1.534192 0.047590 0.001894 -233394.000000 0 0 1
-21.253692 -18.765405 1.493483 28.391730 0.723301 1.518169 0.039524 0.008026 286867.000000 0 0 1
-19.984992 -19.615205 1.268983 28.031527 0.776060 1.525511 0.034668 0.000434 -154840.000000 0 0 1
-19.731592 -19.728805 -0.098317 27.902888 0.785328 1.574320 0.021456 -0.002557 63289.300000 0 0 1
-18.630492 -20.585205 -0.314517 27.765893 0.835202 1.582124 0.032215 -0.001532 38302.100000 0 0 1
-18.395792 -20.866905 -1.806117 27.876423 0.848253 1.635632 0.042882 -0.008792 38509.900000 0 0 1
-17.829492 -19.862405 -2.647517 26.821918 0.839281 1.669665 0.038045 -0.005347 131575.000000 0 0 1
-17.490492 -20.407205 -3.936617 27.163731 0.862210 1.716230 0.044130 -0.005737 1002900.000000 0 0 1
-16.553592 -19.397505 -4.784217 25.945584 0.864339 1.756252 0.037565 0.001943 1046370.000000 0 0 1
-15.194792 -19.235305 -4.422417 24.908562 0.902218 1.749289 0.045043 -0.000359 2574.210000 0 1 0
-14.555292 -18.456505 -5.393117 24.116070 0.903029 1.796335 0.047633 -0.003689 -1166690.000000 0 1 0
-13.062592 -18.265305 -5.233717 23.057417 0.949969 1.799778 0.053546 -0.013973 -1126980.000000 0 1 0
-12.448292 -19.497905 -5.447317 23.765554 1.002589 1.802063 0.052397 -0.016060 289221.000000 0 1 0
-11.114492 -19.238605 -5.936617 22.997810 1.046922 1.831891 0.044959 -0.017037 846322.000000 0 1 0
-10.238992 -20.522005 -5.912817 23.684405 1.108007 1.823115 0.037055 -0.012792 49665.300000 0 1 0
-10.675192 -21.597705 -6.768117 25.024548 1.111740 1.844666 0.043683 -0.011595 185830.000000 0 0 1
-9.544692 -22.315305 -7.258317 25.332926 1.166624 1.861386 0.044416 -0.005679 359264.000000 0 0 1
-9.978892 -23.394405 -8.257717 26.740725 1.167613 1.884735 0.039641 -0.003543 -148987.000000 0 0 1
-10.364392 -22.905405 -9.524117 26.884698 1.145876 1.932917 0.048668 -0.002078 -107830.000000 0 0 1
-10.396892 -23.915705 -10.495517 28.110713 1.160713 1.953428 0.060308 -0.004025 -499122.000000 0 0 1
-11.146892 -23.585105 -11.714017 28.595954 1.129288 1.992855 0.095651 -0.012717 -800152.000000 0 0 1
-10.509692 -22.619105 -12.513017 27.904357 1.135836 2.035799 0.087336 -0.009565 -34835.800000 0 0 1
-11.358492 -22.138805 -13.539517 28.327735 1.096757 2.069127 0.091061 -0.013750 -473447.000000 0 0 1
-10.807092 -20.946705 -14.314217 27.576339 1.094484 2.116566 0.081326 -0.010008 -177386.000000 0 0 1
-10.528292 -19.874405 -13.475317 26.218716 1.083640 2.110589 0.091369 -0.017031 -98861.500000 0 0 1
-10.276892 -18.725005 -14.239117 25.670855 1.068850 2.158775 0.089785 -0.010364 242537.000000 0 0 1
-9.895292 -17.486205 -13.333617 24.113679 1.055834 2.156695 0.081200 -0.010897 880020.000000 0 1 0
-11.092492 -17.123205 -12.590617 23.974386 0.995966 2.123711 0.082372 -0.013991 1046670.000000 0 1 0
-10.909092 -16.099705 -11.623417 22.656403 0.975266 2.109507 0.072456 -0.016735 -10434.000000 0 1 0
-10.690992 -14.651505 -12.156317 21.834375 0.940424 2.161266 0.077782 -0.008568 739512.000000 0 1 0
-11.858892 -14.164305 -12.836917 22.495495 0.873758 2.178086 0.070698 0.006322 910629.000000 0 1 0
-11.516292 -14.043705 -14.215817 23.063826 0.883959 2.234919 0.068522 -0.009608 785936.000000 0 1 0
-12.702792 -13.257205 -14.871917 23.628126 0.806751 2.251598 0.057688 -0.002955 503216.000000 0 1 0
-12.768592 -11.928505 -14.384417 22.632667 0.751396 2.259530 0.032080 0.007254 -310288.000000 0 1 0
-13.937092 -11.303905 -14.838517 23.285240 0.681452 2.261721 0.020192 0.002322 -278538.000000 0 1 0
-14.266892 -9.902805 -14.177817 22.419194 0.606763 2.255439 0.017867 -0.006171 218788.000000 0 1 0
-13.371292 -8.828105 -14.476417 21.593831 0.583532 2.305539 0.024717 -0.002531 376700.000000 0 1 0
-13.292792 -8.458805 -15.828617 22.333715 0.566716 2.358495 0.020747 0.000544 -524707.000000 0 1 0
-12.357092 -7.269905 -16.016417 21.495926 0.531786 2.411467 0.024289 0.012345 182087.000000 0 1 0
-11.006692 -7.717605 -15.926217 20.841139 0.611513 2.440553 0.018740 0.002630 101253.000000 0 1 0
-10.077092 -6.686505 -15.864417 19.948355 0.585832 2.490256 0.011933 0.008289 37913.400000 0 1 0
11.802808 21.182895 16.125583 29.121397 1.062453 0.983951 0.043752 -0.018478 -384512.000000 0 0 1
12.755508 21.619495 17.062283 30.351722 1.037762 0.973811 0.063612 -0.024331 -261988.000000 0 0 1
13.393108 20.515395 17.646583 30.193686 0.992433 0.946599 0.061876 -0.029535 -486005.000000 0 0 1
14.331808 21.028595 18.724383 31.594383 0.972568 0.936452 0.072153 -0.038119 772195.000000 0 0 1
15.540808 21.617695 18.145083 32.219334 0.947503 0.972575 0.052748 -0.031923 967917.000000 0 0 1
16.646708 21.323195 18.980283 33.046069 0.907944 0.958976 0.047377 -0.033810 -168497.000000 0 0 1
17.991108 21.765395 18.404283 33.706528 0.880050 0.993196 0.029398 -0.027289 -1808590.000000 0 0 1
18.177908 23.195095 18.352283 34.716784 0.906076 1.013812 0.030756 -0.019384 45111.800000 0 0 1
19.414608 23.590195 17.770983 35.344478 0.882191 1.043969 0.032151 -0.017934 819520.000000 0 0 1
20.730008 23.167095 18.505183 36.178575 0.840859 1.033872 0.047516 -0.023675 -501419.000000 0 0 1
20.922508 21.796595 18.317683 35.332427 0.805857 1.025773 0.035823 -0.014610 -413075.000000 0 0 1
21.997208 21.275795 19.071783 36.059250 0.768728 1.013491 0.044266 -0.015466 -191638.000000 0 0 1
22.162408 19.717395 18.953783 35.202186 0.727083 1.002228 0.035476 -0.004691 -162173.000000 0 0 1
22.262208 19.273395 17.627783 34.319213 0.713564 1.031372 0.013639 -0.002880 148397.000000 0 0 1
22.091108 17.871695 17.395083 33.316714 0.680204 1.021470 0.009027 -0.003930 292011.000000 0 0 1
23.245208 16.982195 18.000783 33.952361 0.630948 1.011986 0.009248 0.003925 -51337.400000 0 0 1
24.446808 17.078495 17.306383 34.479448 0.609784 1.044964 0.024815 0.000006 -591788.000000 0 0 1
25.329408 16.074495 17.745483 34.854992 0.565486 1.036631 0.017485 -0.005554 -437161.000000 0 0 1
26.498108 15.902495 16.773683 35.162416 0.540520 1.073519 0.067997 -0.006677 -1310230.000000 0 0 1
27.332108 16.956895 16.513783 36.156403 0.555286 1.096478 0.058505 -0.003275 -89409.100000 0 0 1
28.657908 16.861695 17.010783 37.349153 0.531830 1.097915 0.060081 -0.010242 741774.000000 0 0 1
29.619208 15.824195 16.302183 37.329128 0.490674 1.118853 0.055170 -0.015068 -469965.000000 0 0 1
29.876908 16.276695 15.000783 37.183114 0.498836 1.155534 0.080415 -0.020365 3045.680000 0 0 1
30.142008 15.151395 14.168383 36.590279 0.465779 1.173185 0.094391 -0.028811 18722.400000 0 0 1
29.428908 15.247495 12.775083 35.521113 0.478033 1.202906 0.083775 -0.017133 29385.400000 0 0 1
30.051708 16.174595 11.866683 36.132269 0.493758 1.236162 0.089847 -0.018852 465337.000000 0 0 1
29.414108 16.323495 10.551483 35.255922 0.506639 1.266856 0.080197 -0.005716 840524.000000 0 0 1
28.005008 17.004695 10.475083 34.397202 0.545698 1.261348 0.067122 -0.000231 390691.000000 0 0 1
27.955908 18.451795 10.664883 35.153112 0.583395 1.262555 0.067588 0.004517 -86359.800000 0 0 1
28.140508 19.018895 11.959383 36.008796 0.594337 1.232242 0.064031 -0.001755 -515781.000000 0 0 1
27.373608 18.624195 13.224383 35.651919 0.597430 1.190786 0.058727 -0.010545 856231.000000 0 0 1
26.046908 19.214495 13.314483 34.998767 0.635575 1.180538 0.057200 -0.005171 956960.000000 0 0 1
25.509908 19.285495 14.629583 35.166894 0.647330 1.141749 0.063597 -0.010104 -359326.000000 0 0 1
26.244108 20.042995 15.774683 36.596659 0.652220 1.125150 0.048078 -0.001566 -216422.000000 0 0 1
26.275408 21.505295 15.835383 37.465106 0.685894 1.134407 0.034902 -0.004470 272866.000000 0 0 1
25.083008 21.947695 16.465283 37.174778 0.718831 1.111948 0.042977 -0.006430 240798.000000 0 0 1
24.789308 23.458195 16.253583 37.801794 0.757816 1.126338 0.029242 -0.007108 22587.900000 0 0 1
24.542408 23.817895 14.863983 37.290212 0.770418 1.160803 0.033606 -0.012725 165274.000000 0 0 1
24.870308 25.216595 14.647283 38.326907 0.792312 1.178656 0.044234 -0.012809 -262572.000000 0 0 1
24.453008 25.698995 13.231983 37.861238 0.810237 1.213774 0.041093 -0.020324 -210353.000000 0 0 1
23.066708 25.766495 12.992983 36.943239 0.840628 1.211408 0.038253 -0.013470 -181397.000000 0 0 1
22.790508 25.882195 11.611383 36.388453 0.848833 1.246022 0.028208 -0.019895 -69973.600000 0 0 1
22.107308 24.600595 11.036783 34.867362 0.838728 1.248721 0.031790 -0.014555 -422733.000000 0 0 1
20.738608 24.488095 11.420283 34.061408 0.868113 1.228888 0.039647 -0.011175 139082.000000 0 0 1
20.209908 23.193195 11.262083 32.759719 0.854025 1.219859 0.054247 -0.011625 18499.200000 0 0 1
20.179708 22.688195 9.780083 31.900232 0.843848 1.259195 0.037797 0.001216 -266512.000000 0 0 1
19.067208 23.183195 9.027483 31.345086 0.882511 1.278655 0.024681 0.013921 495913.000000 0 0 1
19.437108 23.290195 7.657983 31.287043 0.875333 1.323519 0.024742 -0.002439 421041.000000 0 0 1
18.301108 23.796195 6.712983 30.761235 0.915197 1.350797 0.021949 0.004721 -238701.000000 0 0 1
17.390508 22.824295 6.243383 29.365933 0.919704 1.356555 0.035582 0.015794 78426.200000 0 0 1
16.740408 23.150595 5.047383 29.011504 0.944729 1.395928 0.050016 0.005046 7774.310000 0 0 1
15.552408 24.133195 5.091383 29.158372 0.998339 1.395285 0.036299 0.015011 -609874.000000 0 0 1
15.927408 25.395595 5.518183 30.480632 1.010637 1.388754 0.042063 -0.002102 158331.000000 0 0 1
14.823808 26.196095 5.924383 30.677011 1.055844 1.376454 0.029393 -0.002671 96247.300000 0 0 1
14.777208 27.557995 5.269083 31.710758 1.078593 1.403861 0.032497 -0.005449 -243166.000000 0 0 1
14.203808 27.419695 3.985883 31.136395 1.092841 1.442430 0.035946 0.008127 121210.000000 0 0 1
13.645108 28.670895 3.596783 31.955376 1.126596 1.458001 0.035498 0.001259 -231233.000000 0 0 1
12.946008 28.604395 2.218983 31.475934 1.145792 1.500240 0.044824 0.002009 -32903.600000 0 0 1
13.776808 28.396895 1.068483 31.580464 1.119098 1.536956 0.076476 -0.004409 195954.000000 0 0 1
13.472308 27.140695 0.496383 30.304567 1.110043 1.554416 0.056295 0.008826 -298570.000000 0 0 1
14.537208 26.626695 -0.465817 30.340209 1.071057 1.586150 0.053337 0.002802 -178178.000000 0 0 1
14.677408 27.446295 -1.657417 31.168452 1.079722 1.623998 0.068234 0.005876 -1125020.000000 0 0 1
15.672408 26.911795 -2.396017 31.234756 1.043447 1.647582 0.067082 0.002045 -1006000.000000 0 0 1
15.814108 27.382695 -3.849517 31.854619 1.047069 1.691939 0.072456 -0.008744 -298825.000000 0 0 1
14.783908 26.862995 -4.647017 31.012565 1.067688 1.721206 0.094712 -0.014263 -327914.000000 0 0 1
14.978508 27.256495 -5.988517 31.672299 1.068307 1.761019 0.087186 -0.014807 342048.000000 0 0 1
13.759108 27.046995 -6.922917 31.125227 1.100204 1.795094 0.099134 -0.029841 306330.000000 0 0 1
13.385108 25.731995 -7.278917 29.904503 1.091140 1.816672 0.089107 -0.031061 -96708.400000 0 0 1
12.087308 25.799895 -7.850117 29.552697 1.132663 1.839655 0.061067 -0.030380 182360.000000 0 0 1
11.633308 24.427595 -8.195217 28.270175 1.126340 1.864907 0.066335 -0.018625 485406.000000 0 0 1
12.487108 23.840095 -9.213417 28.445826 1.088301 1.900638 0.054607 -0.021566 677193.000000 0 0 1
11.881408 22.635795 -9.569617 27.296971 1.087432 1.928981 0.056772 -0.007387 197060.000000 0 0 1
12.209808 22.220795 -11.061717 27.662334 1.068355 1.982186 0.045682 -0.004279 217.407000 0 0 1
11.724508 20.925395 -11.347317 26.534842 1.060079 2.012675 0.045920 -0.004506 -63403.100000 0 0 1
11.931408 20.483695 -12.631917 26.860856 1.043356 2.060396 0.040655 -0.002875 329553.000000 0 0 1
13.318908 19.822895 -12.888117 27.137502 0.979183 2.065668 0.031517 0.016890 918815.000000 0 0 1
14.445108 20.685595 -12.798117 28.290401 0.961201 2.040233 0.028116 0.009230 258327.000000 0 0 1
15.650108 20.130795 -13.296117 28.756938 0.909975 2.051454 0.024188 0.020428 427742.000000 0 0 1
16.808708 21.145695 -13.359917 30.135700 0.899173 2.030101 0.041522 0.013870 -218122.000000 0 0 1
16.856308 22.128295 -14.401217 31.323978 0.919815 2.048511 0.042189 0.004440 149916.000000 0 0 1
15.829708 23.121395 -14.429117 31.517899 0.970457 2.046323 0.035682 0.001578 293110.000000 0 0 1
16.419308 24.505995 -14.801417 33.003324 0.980481 2.035863 0.041532 -0.000616 93649.500000 0 0 1
16.746508 24.764595 -16.170717 33.988568 0.976204 2.066635 0.027627 0.001447 -316995.000000 0 0 1
15.637308 24.923395 -17.018717 33.990259 1.010462 2.095197 0.022670 0.005926 -274869.000000 0 0 1
15.876108 24.739395 -18.551717 34.759957 1.000254 2.133777 0.011598 0.012338 19094.400000 0 0 1
16.269808 23.457495 -18.966217 34.273577 0.964388 2.157210 0.015600 0.016748 -47761.800000 0 0 1
16.065908 23.375195 -20.354817 34.911770 0.968641 2.193257 0.018468 0.020672 -206841.000000 0 0 1
16.511908 22.106595 -21.092917 34.731193 0.929268 2.223478 0.026733 0.020726 65143.600000 0 0 1
15.602808 21.007495 -20.912217 33.497511 0.931967 2.245021 0.043836 0.018118 366783.000000 0 0 1
15.971708 19.948595 -21.782417 33.578498 0.895663 2.276673 0.039326 0.013687 233575.000000 0 0 1
14.927608 18.797195 -21.940417 32.519992 0.899639 2.311320 0.040039 0.001273 -408151.000000 0 0 1
14.878008 18.002295 -20.753617 31.243405 0.880134 2.297294 0.034214 0.003563 179543.000000 0 0 1
14.042108 16.863895 -20.842217 30.264992 0.876448 2.330432 0.042967 -0.007368 573371.000000 0 0 1
12.524408 16.925195 -21.207417 29.884403 0.933735 2.359795 0.054838 -0.015458 358785.000000 0 0 1
11.658408 17.268495 -20.122817 28.966310 0.976960 2.338795 0.040209 -0.003582 -623991.000000 0 0 1
10.348508 17.413695 -20.519917 28.833927 1.034598 2.362653 0.054030 -0.011413 -573963.000000 0 0 1
9.275708 17.305995 -19.401517 27.603533 1.078779 2.350211 0.055277 -0.018433 -72983.500000 0 0 1
9.256708 16.049695 -18.703517 26.326809 1.047646 2.360914 0.061947 -0.035842 1150350.000000 0 0 1
7.935508 15.443395 -18.542917 25.402962 1.096134 2.389047 0.071119 -0.027174 1603850.000000 0 0 1
7.363408 15.571495 -17.099317 24.270926 1.129081 2.352541 0.068293 -0.026553 275380.000000 0 1 0
7.265508 16.926395 -16.671417 24.844045 1.165339 2.306411 0.073069 -0.026949 -281843.000000 0 1 0
6.666708 17.012695 -15.395317 23.893358 1.197321 2.270949 0.064955 -0.030768 48555.300000 0 1 0
6.283208 18.487195 -15.018617 24.633593 1.243176 2.226454 0.062314 -0.031614 -214713.000000 0 1 0
7.343808 19.393495 -14.842817 25.501928 1.208809 2.192016 0.055429 -0.019819 -128439.000000 0 0 1
7.924308 19.971695 -16.040517 26.813456 1.193072 2.212082 0.067791 -0.015021 915161.000000 0 0 1
9.214408 20.842095 -15.739117 27.695090 1.154527 2.175235 0.046690 -0.002049 551164.000000 0 0 1
9.113308 22.144495 -15.140217 28.331205 1.180383 2.134595 0.053954 -0.012804 -284464.000000 0 0 1
8.690208 22.076795 -13.780817 27.437483 1.195789 2.097009 0.043478 -0.011194 -123898.000000 0 0 1
8.253708 23.394495 -13.123217 28.065012 1.231624 2.057371 0.050167 -0.019622 -345742.000000 0 0 1
6.983008 23.913595 -13.497517 28.333820 1.286686 2.067323 0.043344 -0.014515 -120251.000000 0 0 1
6.453108 24.871495 -12.659117 28.644146 1.316936 2.028561 0.033112 -0.019171 -94442.200000 0 0 1
5.796808 24.244495 -11.406717 27.413713 1.336104 1.999943 0.021418 -0.015284 -773092.000000 0 0 1
6.710908 23.696695 -10.474817 26.763621 1.294823 1.972930 0.014866 -0.015210 5209.210000 0 0 1
6.039708 22.983495 -9.409417 25.558877 1.313822 1.947811 0.014086 -0.013953 299782.000000 0 0 1
6.848908 22.857095 -8.103717 25.199693 1.279670 1.898194 -0.000612 -0.013790 -21730.500000 0 0 1
6.952008 24.101295 -7.389117 26.149605 1.289970 1.857269 -0.001465 -0.012026 -420636.000000 0 0 1
7.919908 24.067195 -6.405517 26.133990 1.252883 1.818422 0.018698 -0.008200 -415081.000000 0 0 1
8.139408 25.411495 -5.653017 27.275458 1.260817 1.779566 0.018027 -0.007741 109894.000000 0 0 1
8.741708 26.350895 -6.552717 28.525869 1.250478 1.802577 0.046291 -0.021713 211249.000000 0 0 1
8.985308 27.526695 -5.754317 29.522311 1.255279 1.766966 0.027161 -0.009788 148564.000000 0 0 1
9.194808 28.731195 -6.673617 30.896006 1.261067 1.788515 0.035437 -0.013514 -284222.000000 0 0 1
10.461808 28.728195 -7.267217 31.425643 1.221558 1.804160 0.056850 -0.021844 -513906.000000 0 0 1
10.759108 29.989295 -7.835217 32.810163 1.226335 1.811931 0.053600 -0.018163 -194024.000000 0 0 1
12.111608 30.147195 -8.510517 33.585314 1.188783 1.826990 0.059793 -0.019998 -100058.000000 0 0 1
13.291308 30.256595 -7.729017 33.939035 1.156888 1.800545 0.059000 -0.015453 176091.000000 0 0 1
14.313508 30.734395 -8.618817 34.982332 1.134950 1.819736 0.046390 -0.016257 666492.000000 0 0 1
15.589808 31.200695 -7.841217 35.749268 1.107419 1.791933 0.041432 -0.011257 462322.000000 0 0 1
16.329908 30.149395 -7.250517 35.045997 1.074400 1.779187 0.049370 -0.011084 -136605.000000 0 0 1
17.365008 30.655095 -6.425417 35.812907 1.055401 1.751189 0.044396 -0.000697 372189.000000 0 0 1
18.543908 29.673295 -6.213917 35.538623 1.012243 1.746549 0.042761 -0.000412 -60692.100000 0 0 1
18.308908 28.683995 -5.227417 34.428383 1.002692 1.723220 0.061454 -0.007466 348406.000000 0 0 1
19.440608 27.805095 -5.132717 34.313340 0.960625 1.720944 0.047606 0.000389 76186.300000 0 0 1
19.511008 26.655195 -6.166317 33.603605 0.938930 1.755344 0.041078 0.003899 -97249.900000 0 0 1
19.997708 27.097195 -7.445017 34.490500 0.935020 1.788366 0.028756 0.006386 278175.000000 0 0 1
19.905008 26.083695 -8.390417 33.866910 0.918951 1.821150 0.025812 -0.001322 -364560.000000 0 0 1
20.647308 26.418195 -9.763017 34.922039 0.907403 1.854138 0.022649 -0.000623 -326581.000000 0 0 1
22.019508 26.573895 -9.817517 35.880555 0.878850 1.847947 0.011317 0.006448 -456340.000000 0 0 1
22.756608 25.352695 -9.579317 35.389061 0.839308 1.844902 0.019092 0.007534 -805767.000000 0 0 1
24.267408 25.523295 -9.636817 36.513202 0.810616 1.837888 -0.000495 0.012884 -502454.000000 0 0 1
24.801408 25.837095 -10.903817 37.437395 0.805848 1.866334 0.010910 0.010015 312132.000000 0 0 1
26.222708 25.854995 -10.818517 38.381655 0.778337 1.856536 0.008053 0.023073 595649.000000 0 0 1
26.923008 26.052695 -12.219717 39.407014 0.768971 1.886084 0.009373 0.011971 258740.000000 0 0 1
26.722608 27.327195 -12.782417 40.302153 0.796583 1.893535 0.013805 0.018886 305385.000000 0 0 1
27.588108 27.404095 -13.916417 41.300784 0.782052 1.914475 0.008604 0.018335 363654.000000 0 0 1
27.218308 28.614895 -14.766617 42.162797 0.810406 1.928611 0.007648 0.004998 11176.400000 0 0 1
27.764308 29.871995 -14.341017 43.230286 0.821951 1.908939 0.021130 -0.003381 105440.000000 0 0 1
27.893508 30.821995 -15.428717 44.340596 0.835233 1.926190 0.034637 0.001486 -319994.000000 0 0 1
28.387108 32.225495 -15.067017 45.511816 0.848640 1.908220 0.040350 -0.014101 -1169240.000000 0 0 1
29.684908 32.318995 -14.640817 46.260833 0.827855 1.892817 0.029303 -0.012805 -1224140.000000 0 0 1
29.929808 33.597095 -14.117317 47.157786 0.843062 1.874822 0.028958 -0.026371 -73482.200000 0 0 1
15.756608 -32.539426 -29.169421 46.453633 -1.119843 2.249681 0.045648 -0.025468 -453571.000000 0 0 1
16.593508 -33.142626 -28.230401 46.591133 -1.106613 2.221715 0.024409 -0.016979 -131458.000000 0 0 1
16.853708 -32.292426 -27.156021 45.434543 -1.089776 2.211420 0.026579 -0.018073 -763096.000000 0 0 1
17.973208 -32.826326 -26.232811 45.703000 -1.069856 2.182160 -0.004374 -0.007712 174711.000000 0 0 1
19.296208 -32.698826 -26.708271 46.420778 -1.037674 2.183830 0.001049 -0.012290 -116348.000000 0 0 1
19.714908 -33.412526 -27.813441 47.735333 -1.037729 2.192793 0.007142 -0.006450 -651998.000000 0 0 1
21.256708 -33.200326 -27.856671 48.271144 -1.001302 2.185954 0.023355 0.000532 179550.000000 0 0 1
21.618208 -31.845226 -28.086351 47.647754 -0.974405 2.201184 0.024255 -0.012618 -894612.000000 0 0 1
22.990308 -31.654426 -28.093031 48.164046 -0.942643 2.193555 0.010046 -0.002352 -962672.000000 0 0 1
23.401408 -30.351426 -28.701141 47.881003 -0.913981 2.213581 0.004746 0.002890 -178699.000000 0 0 1
23.561008 -30.392126 -30.089011 48.827769 -0.911340 2.234740 -0.003853 0.001380 -180173.000000 0 0 1
24.189508 -29.218126 -30.522821 48.687511 -0.879277 2.248381 0.002679 -0.007022 71370.300000 0 0 1
24.500908 -29.315926 -32.029471 49.855842 -0.874631 2.268477 0.006925 -0.003918 221744.000000 0 0 1
25.520308 -30.219726 -32.404711 51.132996 -0.869509 2.257167 0.012363 -0.009033 -267969.000000 0 0 1
25.666208 -30.328726 -33.810961 52.170556 -0.868473 2.275864 0.008817 -0.013358 126427.000000 0 0 1
27.010708 -30.971426 -34.205459 53.467943 -0.853601 2.264953 -0.001132 -0.015667 -118726.000000 0 0 1
28.160308 -30.254526 -33.862571 53.432321 -0.821234 2.257184 0.020295 -0.023345 -1277740.000000 0 0 1
29.287108 -30.963626 -34.204185 54.648029 -0.813217 2.247081 0.025885 -0.025402 -1494110.000000 0 0 1
30.500008 -30.099526 -34.310043 54.894544 -0.778790 2.245950 0.038438 -0.029290 -1137990.000000 0 0 1
30.483408 -29.270326 33.142764 53.706918 -0.765100 0.905739 0.031940 -0.028518 -37271.700000 0 0 1
31.768808 -28.723326 32.982053 54.056475 -0.735096 0.914558 0.042981 -0.030086 -78769.200000 0 0 1
31.882208 -27.744526 31.778213 52.878056 -0.716116 0.926080 0.032892 -0.032827 -751871.000000 0 0 1
33.158108 -27.390326 31.357813 53.225958 -0.690426 0.940796 0.029409 -0.031348 -398069.000000 0 0 1
33.050208 -26.337426 30.363313 52.037554 -0.672843 0.947779 0.037933 -0.027930 -136371.000000 0 0 1
33.771308 -26.648426 29.005703 51.884205 -0.668050 0.977560 0.041854 -0.019676 271259.000000 0 0 1
33.205608 -27.653926 28.092613 51.541701 -0.694429 0.994352 0.041900 -0.029906 431204.000000 0 0 1
31.878808 -27.391326 27.680493 50.326463 -0.709830 0.988410 0.044700 -0.030018 -164402.000000 0 0 1
31.229808 -28.504326 26.819723 50.070901 -0.739803 1.005537 0.032553 -0.020641 105350.000000 0 0 1
29.925108 -28.154626 26.380193 48.827345 -0.754924 1.000032 0.030268 -0.012195 39213.800000 0 0 1
29.502608 -29.170126 25.514313 48.706060 -0.779732 1.019440 0.013649 0.000572 456120.000000 0 0 1
28.118108 -28.811926 24.886183 47.329454 -0.797585 1.017132 0.017541 0.002677 201763.000000 0 0 1
27.023108 -28.663726 25.741953 47.058535 -0.814851 0.991996 0.029456 -0.002396 -252914.000000 0 0 1
25.867908 -28.456726 24.936073 45.833849 -0.833017 0.995535 0.044088 0.013337 1141010.000000 0 0 1
24.594208 -28.171726 25.852873 45.463087 -0.853094 0.965925 0.046141 0.001147 676959.000000 0 0 1
24.565208 -26.894426 26.460113 45.021075 -0.830630 0.942549 0.038572 -0.006047 256470.000000 0 0 1
23.452208 -26.850426 27.339893 44.926843 -0.852851 0.916574 0.036042 -0.012655 62239.200000 0 0 1
23.536208 -25.647926 28.271543 44.844725 -0.828307 0.888687 0.031742 -0.004119 -467892.000000 0 0 1
22.435408 -25.595526 29.155183 44.816327 -0.851097 0.862490 0.035214 -0.001724 198405.000000 0 0 1
22.491608 -24.547126 30.130083 44.902737 -0.829069 0.835229 0.030212 -0.000789 -474972.000000 0 0 1
22.012408 -23.200226 29.612873 43.585765 -0.811664 0.823830 0.029205 -0.007436 -128428.000000 0 0 1
22.833508 -22.753626 28.519453 43.040165 -0.783646 0.846479 0.035899 -0.009850 522329.000000 0 0 1
22.510108 -21.381926 28.258193 41.981153 -0.759700 0.832382 0.038676 -0.005796 174316.000000 0 0 1
23.211408 -20.306526 29.125663 42.419674 -0.718746 0.813984 0.031662 0.000251 -20574.300000 0 0 1
22.714708 -20.343826 30.457243 43.098409 -0.730392 0.785986 0.040508 0.001661 255658.000000 0 0 1
23.370508 -19.338026 31.164693 43.489976 -0.691259 0.771888 0.034578 0.004003 -267766.000000 0 0 1
22.808908 -19.241626 32.599138 44.194912 -0.700768 0.741255 0.050081 0.001829 -40232.200000 0 0 1
23.091708 -20.343126 33.459692 45.460100 -0.722202 0.743619 0.036239 -0.002654 181698.000000 0 0 1
22.662108 -19.931526 -33.877321 45.370803 -0.721378 2.413848 0.049467 -0.009198 -305208.000000 0 0 1
22.689908 -21.084326 -32.907781 45.191844 -0.748736 2.386459 0.025100 -0.004852 -135401.000000 0 0 1
23.893208 -21.312226 -32.213231 45.417933 -0.728366 2.359248 0.020232 -0.003956 -234106.000000 0 0 1
23.702508 -22.275526 -31.200061 45.071629 -0.754372 2.335375 0.022372 -0.003923 -402814.000000 0 0 1
24.933708 -22.635726 -30.382991 45.356279 -0.737128 2.304835 0.020631 -0.002183 -845478.000000 0 0 1
25.932008 -23.335626 -31.052981 46.704476 -0.732747 2.298133 0.016960 0.000559 -601941.000000 0 0 1
26.914908 -23.628926 -30.047301 46.750173 -0.720477 2.268841 0.013243 -0.010746 -564156.000000 0 0 1
28.065408 -24.430226 -30.636501 48.198529 -0.716261 2.259623 -0.006002 -0.008116 -810048.000000 0 0 1
28.882908 -23.593826 -31.449041 48.784559 -0.684948 2.271364 0.000275 -0.004897 207151.000000 0 0 1
28.502408 -23.594726 -32.866621 49.490536 -0.691473 2.297085 0.007758 -0.006761 -272555.000000 0 0 1
28.702608 -24.886126 -33.719071 50.795026 -0.714300 2.296720 0.011900 -0.013384 -278639.000000 0 0 1
27.915908 -26.004726 -33.365861 50.683571 -0.749969 2.289377 0.025061 -0.017523 -7820.800000 0 0 1
27.898108 -27.096226 -34.235792 51.813119 -0.770818 2.292621 0.026756 -0.012931 -72418.900000 0 0 1
27.415808 -27.036326 32.917083 50.656923 -0.778429 0.863469 0.018285 -0.022770 -347479.000000 0 0 1
28.387008 -26.531326 32.062983 50.376268 -0.751621 0.880883 0.014790 -0.021189 -88145.800000 0 0 1
28.047008 -26.799526 30.699023 49.469984 -0.762657 0.901341 0.006698 -0.011111 -222099.000000 0 0 1
29.124408 -26.131726 29.819683 49.196664 -0.731291 0.919608 0.014560 -0.023417 -256546.000000 0 0 1
29.152008 -24.693526 29.822383 48.466322 -0.702785 0.908002 0.012325 -0.019107 68326.800000 0 0 1
29.647708 -24.093726 31.015503 49.208289 -0.682417 0.888869 0.013280 -0.012558 -1708780.000000 0 0 1
30.001208 -22.599626 30.809673 48.580362 -0.645604 0.883823 0.000753 -0.001361 1089270.000000 0 0 1
31.297308 -22.278126 30.242623 48.892256 -0.618616 0.903892 0.016303 -0.005919 1827490.000000 0 0 1
32.404808 -22.813826 31.037593 50.337605 -0.613423 0.906394 0.019213 -0.007512 770876.000000 0 0 1
33.790108 -22.166126 30.602083 50.691183 -0.580578 0.922667 0.023356 -0.007337 839799.000000 0 0 1
34.203608 -22.641326 29.329423 50.425505 -0.584735 0.950055 0.033952 -0.016428 470172.000000 0 0 1
35.437708 -22.018126 28.967363 50.791113 -0.555948 0.963897 0.017181 -0.007306 408610.000000 0 0 1
-35.891899 -22.502726 27.610443 50.566171 0.560006 0.993183 0.031246 -0.008136 -237787.000000 0 0 1
-35.434799 -23.833326 27.599023 50.846421 0.592097 0.997039 0.025102 -0.011850 228668.000000 0 0 1
-35.027699 -24.113626 26.257183 49.978459 0.602909 1.017646 0.016467 0.001267 -305369.000000 0 0 1
-34.893399 -25.569126 25.977923 50.459707 0.632388 1.029993 0.021218 -0.010462 -675988.000000 0 0 1
35.827208 -26.300026 26.167963 51.575600 -0.633234 1.038665 0.032788 -0.006754 -571967.000000 0 0 1
35.828408 -27.676926 25.742233 52.080223 -0.657737 1.053789 0.032240 -0.006725 -29472.500000 0 0 1
-35.367399 -28.659426 26.696373 52.772265 0.681011 1.040396 0.038133 -0.017813 -1102090.000000 0 0 1
-35.202999 -30.008126 26.244593 53.183808 0.705904 1.054722 0.046831 -0.019338 620022.000000 0 0 1
-33.990899 -30.557926 26.771263 52.970450 0.732264 1.040951 0.045845 -0.023667 377794.000000 0 0 1
-32.651399 -29.967226 26.365963 51.568522 0.742559 1.034123 0.053403 -0.019275 -1717670.000000 0 0 1
-32.253399 -30.143826 25.055213 50.761163 0.751602 1.054583 0.046683 -0.017103 240525.000000 0 0 1
-30.991099 -29.537326 24.809223 49.481304 0.761385 1.045597 0.028673 -0.013320 329851.000000 0 0 1
-30.455499 -29.422426 23.356983 48.360782 0.768147 1.066749 0.026068 -0.006390 -156927.000000 0 0 1
-30.097899 -30.703726 22.866483 48.697827 0.795362 1.082006 0.037166 -0.004905 265559.000000 0 0 1
-29.624699 -30.580826 21.571783 47.729986 0.801278 1.101841 0.028333 -0.008152 -438262.000000 0 0 1
-29.884199 -31.973726 20.854683 48.479917 0.819165 1.126113 0.040142 -0.015091 663740.000000 0 0 1
-28.934999 -33.002126 21.205583 48.744756 0.850969 1.120721 0.048806 -0.022497 1126350.000000 0 0 1
-27.596999 -32.880326 20.716883 47.664446 0.872537 1.121158 0.061086 -0.019991 640963.000000 0 0 1
-26.719999 -34.153126 20.914183 48.143509 0.906905 1.121409 0.053142 -0.014201 -169895.000000 0 0 1
-26.836899 33.510995 19.966283 47.348267 -0.895544 1.135488 0.045254 -0.013445 -86401.100000 0 0 1
-27.982099 32.674995 19.946983 47.418723 -0.862612 1.136628 0.049313 -0.019346 126122.000000 0 0 1
-28.091999 31.676695 21.134683 47.320695 -0.845303 1.107805 0.052246 -0.015506 -488684.000000 0 0 1
-27.064499 30.753395 21.156283 46.106905 -0.849114 1.094093 0.040067 -0.015242 -528832.000000 0 0 1
-27.198699 29.797095 22.178183 46.038113 -0.830956 1.068162 0.043659 -0.018999 -70090.800000 0 0 1
-26.302099 28.616295 21.783383 44.555679 -0.827512 1.059965 0.045974 -0.014725 324095.000000 0 0 1
-24.918199 28.884395 21.985883 44.029580 -0.858983 1.047955 0.049279 -0.009314 133714.000000 0 0 1
-24.136499 27.952995 21.263283 42.615346 -0.858536 1.048400 0.048193 -0.009762 -469148.000000 0 0 1
-22.643099 28.229695 21.430083 42.057984 -0.894775 1.036150 0.033247 0.002203 -504478.000000 0 0 1
-22.289599 28.227795 22.799183 42.584473 -0.902409 1.005830 0.027962 0.003411 808664.000000 0 0 1
-21.006199 28.861995 22.963483 42.445220 -0.941645 0.999153 0.043620 0.005667 483576.000000 0 0 1
-20.535099 29.028695 24.326623 43.082943 -0.955117 0.970792 0.032800 0.004622 -420993.000000 0 0 1
-20.064999 27.797395 24.895153 42.368243 -0.945569 0.942719 0.038370 -0.005492 289669.000000 0 0 1
-19.879799 27.833195 26.300523 43.146386 -0.950572 0.915285 0.047589 -0.013125 796005.000000 0 0 1
-18.483099 28.326795 26.844693 43.181823 -0.992669 0.899928 0.054389 -0.008176 197593.000000 0 0 1
-18.283699 29.695295 26.628773 43.877053 -1.018905 0.918648 0.036778 -0.006317 409792.000000 0 0 1
-16.989799 30.197995 26.967163 43.906720 -1.058321 0.909434 0.034834 -0.005028 403956.000000 0 0 1
-16.643799 30.288695 28.447313 44.762380 -1.068333 0.882117 0.026388 0.003683 -780133.000000 0 0 1
-16.478999 29.001595 29.002123 44.201505 -1.054080 0.855112 0.038529 0.001032 6885.730000 0 0 1
-16.656399 28.986395 30.402483 45.188026 -1.049242 0.832810 0.025306 0.004975 -218004.000000 0 0 1
-16.419699 27.596795 31.060283 44.675841 -1.034072 0.802047 0.032743 0.000715 -845982.000000 0 0 1
-15.088999 27.410395 31.400423 44.328255 -1.067581 0.783622 0.043574 0.006325 -652446.000000 0 0 1
-14.947399 26.448795 32.480873 44.474381 -1.056400 0.751995 0.051253 0.006353 -73429.500000 0 0 1
-15.362599 26.810795 33.919574 45.884264 -1.050466 0.738852 0.060357 0.002022 -309490.000000 0 0 1
-16.699499 26.469295 34.169593 46.336356 -1.007965 0.741546 0.058695 -0.005161 -541234.000000 0 0 1
-17.148599 27.178395 -33.318901 46.291346 -1.007920 2.374260 0.068396 -0.007342 -684290.000000 0 0 1
-18.404999 26.604695 -32.701931 45.999674 -0.965598 2.361597 0.046638 -0.009313 -390068.000000 0 0 1
-19.412099 26.585495 -33.722521 47.125646 -0.940104 2.368261 0.031061 -0.008373 1618690.000000 0 0 1
-20.645399 25.950995 -33.193891 46.920369 -0.898773 2.356682 0.041956 -0.013732 1055780.000000 0 0 1
-21.853199 25.908395 -34.108965 48.085639 -0.870100 2.359355 0.053500 -0.024348 -925378.000000 0 0 1
-21.802099 25.229995 33.237094 47.080660 -0.858154 0.787018 0.063076 -0.023884 -166337.000000 0 0 1
-21.730099 23.820195 33.264349 46.326189 -0.831251 0.769805 0.059186 -0.023698 -449745.000000 0 0 1
-22.240799 23.133295 31.981163 45.305599 -0.805065 0.787105 0.070014 -0.018725 466283.000000 0 0 1
-23.626999 23.410795 31.778393 46.001812 -0.780802 0.808191 0.070614 -0.022043 263758.000000 0 0 1
-23.927199 22.926595 30.467563 45.015686 -0.764046 0.827361 0.078359 -0.011948 -219357.000000 0 0 1
-25.363099 22.546295 30.103563 45.363495 -0.726671 0.845165 0.063747 -0.016896 -330725.000000 0 0 1
-25.733899 21.340895 30.703953 45.391630 -0.692348 0.827901 0.066875 -0.019646 -54132.400000 0 0 1
-27.012599 20.976495 30.229583 45.645608 -0.660275 0.846956 0.057725 -0.019103 -142219.000000 0 0 1
-27.416699 19.595495 30.824043 45.670345 -0.620543 0.829934 0.078367 -0.024692 -387964.000000 0 0 1
-28.152699 19.669995 32.052903 46.977354 -0.609846 0.819885 0.069683 -0.019647 256216.000000 0 0 1
-28.254999 18.407295 32.776187 47.026077 -0.577408 0.799620 0.068770 -0.012829 51371.600000 0 0 1
-29.071499 17.223695 32.147213 46.639587 -0.534857 0.810317 0.043102 -0.010293 -220383.000000 0 0 1
-30.457799 17.466995 32.141303 47.600807 -0.520693 0.829525 0.038057 -0.013091 -409466.000000 0 0 1
-31.094899 16.279995 31.744403 47.324815 -0.482316 0.835540 0.029750 -0.004218 628277.000000 0 0 1
-32.645599 16.484395 31.602703 48.334266 -0.467600 0.858153 0.018457 0.005365 776377.000000 0 0 1
-33.268599 16.640195 32.883670 49.649084 -0.463789 0.846883 0.025158 0.004856 198022.000000 0 0 1
-34.662799 16.827495 32.798483 50.600541 -0.451950 0.865599 0.033039 0.006763 -132815.000000 0 0 1
-35.265399 17.257995 34.162964 52.044163 -0.455111 0.854730 0.042306 0.007452 678071.000000 0 0 1
35.197408 17.440695 34.099972 52.017723 0.460050 0.855892 0.036607 0.001099 823513.000000 0 0 1
34.691408 17.938795 -33.285331 51.314787 0.477231 2.276605 0.032800 -0.004851 1265790.000000 0 0 1
33.115208 18.002795 -33.132781 50.184647 0.497948 2.291905 0.030106 -0.007532 1065440.000000 0 0 1
32.599308 16.730395 -33.053051 49.346987 0.474162 2.304748 0.032826 0.005997 181965.000000 0 0 1
31.370808 16.784995 -32.311791 48.061580 0.491294 2.308107 0.019692 0.005112 272548.000000 0 0 1
30.708708 15.382195 -32.319881 47.161545 0.464373 2.325814 0.009333 0.010768 -387805.000000 0 0 1
30.238108 15.137195 -33.580331 47.656232 0.464127 2.352707 0.022615 0.004452 -423621.000000 0 0 1
29.478908 13.979795 -33.757101 46.946592 0.442820 2.373235 0.008995 0.006796 -45662.600000 0 0 1
30.333908 12.674095 -33.797491 47.149221 0.395773 2.370027 0.013909 0.011874 94934.700000 0 0 1
30.812608 12.299695 -32.568701 46.491070 0.379797 2.346946 0.021625 0.015145 287927.000000 0 0 1
31.472708 10.995195 -32.675701 46.681121 0.336101 2.346161 0.029703 0.008055 16304.400000 0 0 1
17.748008 -21.436205 9.679779 29.465248 -0.879246 1.236065 0.040452 -0.020947 163293.000000 0 0 1
17.419908 -22.451405 10.610979 30.333343 -0.910928 1.213425 0.031044 -0.019523 -169018.000000 0 0 1
18.505708 -23.319805 10.818679 31.675201 -0.899993 1.222230 0.030715 -0.019398 -598470.000000 0 0 1
18.288408 -24.580605 11.647679 32.777133 -0.931135 1.207497 0.030770 -0.015154 -50042.000000 0 0 1
17.475008 -25.592185 11.084879 32.912162 -0.971690 1.227278 0.031030 -0.016285 -196338.000000 0 0 1
16.100808 -25.445295 11.338179 32.175354 -1.006635 1.210676 0.042032 -0.013637 -418681.000000 0 0 1
15.241508 -26.405955 10.490679 32.243331 -1.047311 1.239404 0.052569 -0.010676 -146125.000000 0 0 1
15.096908 -25.815765 9.250679 31.304080 -1.041633 1.270807 0.049701 -0.014758 311944.000000 0 0 1
14.321808 -26.659505 8.389479 31.404248 -1.077824 1.300367 0.055612 -0.006681 82732.400000 0 0 1
14.100008 -26.032815 6.977579 30.417171 -1.074406 1.339339 0.057724 -0.010093 -312602.000000 0 0 1
13.225408 -24.947205 7.017079 29.094912 -1.083332 1.327216 0.063120 -0.017601 33425.900000 0 0 1
12.696808 -24.509605 5.738479 28.193259 -1.092826 1.365823 0.058886 -0.009444 182103.000000 0 0 1
11.914108 -23.205105 5.932779 26.751089 -1.096466 1.347160 0.060423 -0.007730 -399878.000000 0 0 1
11.283108 -22.677505 4.813779 25.782751 -1.109114 1.382989 0.058506 -0.010291 -157803.000000 0 0 1
10.914508 -21.318805 5.048479 24.476623 -1.097622 1.363048 0.067402 -0.010751 110687.000000 0 1 0
10.214408 -20.687905 3.822979 23.386721 -1.112171 1.406591 0.051112 -0.014955 115411.000000 0 1 0
11.146008 -20.300005 2.855579 23.334053 -1.068672 1.448111 0.049100 -0.006009 -189201.000000 0 1 0
10.408708 -19.669605 1.848579 22.330513 -1.084080 1.487919 0.034952 0.007547 -14510.300000 0 1 0
11.225508 -19.318805 0.625479 22.352170 -1.044415 1.542810 0.032509 0.010805 25835.200000 0 1 0
12.033208 -18.147405 0.733079 21.786781 -0.985280 1.537142 0.038409 0.012146 -227131.000000 0 1 0
12.598308 -17.890305 -0.516321 21.887142 -0.957259 1.594389 0.043534 0.008974 -563080.000000 0 1 0
13.826408 -16.986805 -0.431021 21.906777 -0.887607 1.590473 0.045054 0.012186 -564960.000000 0 1 0
14.857708 -17.533105 0.317079 22.983947 -0.867809 1.557000 0.051271 0.006784 -149308.000000 0 1 0
16.065608 -16.770505 0.206479 23.224906 -0.806862 1.561906 0.045459 -0.002825 674065.000000 0 1 0
17.275008 -17.404005 0.928279 24.539499 -0.789118 1.532959 0.047664 -0.000894 36911.200000 0 1 0
17.800508 -18.474005 0.177379 25.654988 -0.803963 1.563882 0.050557 -0.003730 321347.000000 0 0 1
18.981408 -18.987205 0.802279 26.859849 -0.785551 1.540923 0.041912 0.002891 576161.000000 0 0 1
19.324008 -20.407605 0.332979 28.106912 -0.812664 1.558949 0.038731 0.004010 -503490.000000 0 0 1
18.425608 -21.378905 0.715579 28.232476 -0.859458 1.545448 0.045210 -0.000119 -502984.000000 0 0 1
18.704908 -22.678205 0.225079 29.397708 -0.881117 1.563140 0.047850 0.001209 37781.100000 0 0 1
17.600508 -23.695405 0.624979 29.523562 -0.931931 1.549626 0.043236 -0.004783 61411.900000 0 0 1
17.610408 -24.086205 1.949479 29.901041 -0.939475 1.505552 0.030604 -0.002529 157514.000000 0 0 1
16.451108 -24.881005 2.089079 29.900964 -0.986594 1.500873 0.024780 -0.004005 -127191.000000 0 0 1
16.649108 -25.877615 3.264579 30.943517 -0.999090 1.465098 0.034261 -0.004073 362363.000000 0 0 1
17.545908 -26.964055 3.090279 32.318246 -0.993919 1.475030 0.015485 -0.001948 -93579.800000 0 0 1
18.796208 -26.706305 3.678579 32.864208 -0.957517 1.458629 0.018469 0.000879 -182744.000000 0 0 1
19.788308 -27.893615 3.857579 34.416738 -0.953776 1.458476 0.030348 0.002824 155814.000000 0 0 1
20.306208 -28.294875 2.558279 34.921152 -0.948314 1.497472 0.028196 0.009367 120448.000000 0 0 1
21.184708 -29.415455 2.553779 36.339822 -0.946648 1.500463 0.047946 0.008522 138351.000000 0 0 1
20.584208 -30.827705 2.959179 37.186204 -0.982066 1.491135 0.050532 0.004546 -3096.320000 0 0 1
20.477408 -31.042695 4.384079 37.445872 -0.987665 1.453449 0.073477 -0.001811 -106953.000000 0 0 1
19.723608 -32.194225 4.637179 38.039352 -1.021131 1.448588 0.063195 -0.016082 -171660.000000 0 0 1
19.484908 -32.520055 6.116279 38.400840 -1.030990 1.410840 0.073652 -0.021623 341844.000000 0 0 1
20.632408 -33.210165 6.660079 39.660661 -1.014885 1.402070 0.064467 -0.036799 833541.000000 0 0 1
20.347908 -34.021945 7.790879 40.400841 -1.031788 1.376741 0.052281 -0.029275 -513708.000000 0 0 1
21.542908 33.864800 8.264879 40.978407 1.004223 1.367715 0.058448 -0.038083 -631540.000000 0 0 1
22.500808 -34.034285 8.836379 41.745665 -0.986642 1.357511 0.063907 -0.039165 -548125.000000 0 0 1
23.657708 33.959673 9.188779 42.395521 0.962328 1.352323 0.081545 -0.045969 -379864.000000 0 0 1
24.577908 -34.023415 10.140479 43.179806 -0.945206 1.333739 0.076902 -0.038525 -480727.000000 0 0 1
25.452508 -33.075675 9.518679 42.806959 -0.914917 1.346559 0.066175 -0.031162 322029.000000 0 0 1
26.067908 -32.235295 10.476279 42.759824 -0.890788 1.323274 0.046142 -0.025524 321279.000000 0 0 1
26.898108 -31.119585 9.768479 42.277181 -0.858032 1.337631 0.049959 -0.025093 -88649.300000 0 0 1
25.995408 -30.200545 9.188479 40.893304 -0.860089 1.344167 0.040790 -0.021612 301153.000000 0 0 1
26.561008 -29.556295 8.098179 40.554189 -0.838723 1.369757 0.043590 -0.017018 -189695.000000 0 0 1
25.987408 -28.144505 7.924279 39.118445 -0.825226 1.366813 0.044366 -0.020295 -319003.000000 0 0 1
26.648608 -27.269775 8.803279 39.131658 -0.796918 1.343889 0.033745 -0.018540 -189508.000000 0 0 1
26.082408 -26.001995 8.953979 37.902105 -0.783854 1.332302 0.034888 -0.009923 -461570.000000 0 0 1
26.764808 -25.161875 10.032879 38.080620 -0.754539 1.304185 0.046764 -0.020373 -400771.000000 0 0 1
28.071508 -24.857105 9.649879 38.716992 -0.724742 1.318899 0.040238 -0.010797 -1217500.000000 0 0 1
28.745708 -24.131205 10.609379 39.002433 -0.698350 1.295306 0.040186 -0.018124 -596848.000000 0 0 1
30.158208 -23.799105 10.144179 39.734359 -0.668085 1.312638 0.045182 -0.021209 -460940.000000 0 0 1
30.201208 -22.884305 9.071079 38.962660 -0.648429 1.335825 0.052222 -0.021079 -1244270.000000 0 0 1
31.419008 -22.676505 8.472279 39.663049 -0.625171 1.355531 0.044594 -0.021778 -892222.000000 0 0 1
31.223108 -21.865005 7.170879 38.786369 -0.610916 1.384845 0.047350 -0.004420 -514598.000000 0 0 1
30.933508 -20.520705 7.472979 37.865904 -0.585725 1.372138 0.057551 0.000515 -85902.700000 0 0 1
31.036208 -19.772505 6.296879 37.334286 -0.567238 1.401324 0.040928 0.000724 -358147.000000 0 0 1
30.605508 -18.242305 6.488579 36.215749 -0.537507 1.390659 0.057619 0.001314 -25817.800000 0 0 1
31.318008 -17.567005 7.540379 36.691615 -0.511191 1.363815 0.074761 -0.006361 186506.000000 0 0 1
31.134208 -16.194705 7.432579 35.872700 -0.479644 1.362091 0.076915 -0.002333 32632.400000 0 0 1
31.663408 -15.286005 8.590979 36.194451 -0.449765 1.331153 0.073712 -0.021071 -920349.000000 0 0 1
33.046108 -15.262205 8.608879 37.404451 -0.432661 1.338558 0.074871 -0.022092 -1056700.000000 0 0 1
33.564008 -14.645505 9.779179 37.903375 -0.411441 1.309842 0.072148 -0.027423 -326140.000000 0 0 1
35.082308 -14.782705 9.834979 39.319506 -0.398794 1.317982 0.067686 -0.033949 -452805.000000 0 0 1
35.756208 -14.014905 8.862679 39.414097 -0.373554 1.343996 0.073002 -0.023412 233412.000000 0 0 1
-34.808899 -14.501105 8.625579 38.682582 0.394727 1.345922 0.062665 -0.030423 655358.000000 0 0 1
-33.953599 -13.408205 7.921979 37.354847 0.376100 1.357100 0.064259 -0.029923 -186088.000000 0 0 1
-34.349099 -13.180105 6.563979 37.371936 0.366385 1.394241 0.082237 -0.034025 187719.000000 0 0 1
-33.265699 -12.690705 5.793979 36.072578 0.364453 1.409477 0.076564 -0.027593 493546.000000 0 0 1
-32.283999 -13.776005 5.230779 35.487969 0.403321 1.422861 0.057029 -0.021330 292942.000000 0 0 1
-31.457599 -14.293605 6.286379 35.119884 0.426488 1.390829 0.064961 -0.020305 -181874.000000 0 0 1
-30.526299 -15.179105 5.741079 34.571956 0.461443 1.403962 0.059272 -0.009372 -357598.000000 0 0 1
-29.841799 -16.038605 6.794679 34.553401 0.493160 1.372864 0.033346 -0.017201 -22850.600000 0 0 1
-30.731799 -16.915105 7.518579 35.876082 0.503158 1.359660 0.043956 -0.024742 222169.000000 0 0 1
-30.685099 -16.572905 8.920079 35.997282 0.495208 1.320389 0.017025 -0.015412 -50866.600000 0 0 1
-31.683099 -17.377105 9.777279 37.434980 0.501665 1.306552 -0.007954 -0.011647 61706.100000 0 0 1
-33.019899 -16.881405 9.714379 38.336207 0.472607 1.314603 0.026494 -0.018527 384618.000000 0 0 1
-33.961599 -17.560705 10.517779 39.653402 0.477214 1.302341 0.043330 -0.020487 -47845.700000 0 0 1
-34.400699 -19.026505 10.234079 40.622068 0.505209 1.316118 0.046745 -0.025051 -1926640.000000 0 0 1
-33.452899 -20.016005 10.265879 40.312842 0.539194 1.313305 0.041333 -0.017813 -1025050.000000 0 0 1
-32.920799 -20.406005 11.550479 40.417788 0.554888 1.280979 0.021891 -0.019181 -336318.000000 0 0 1
-33.877399 -21.177005 12.510279 41.864672 0.558676 1.267333 0.056346 -0.030453 93387.400000 0 0 1
-34.324799 -22.476205 12.218479 42.809612 0.579749 1.281358 0.044697 -0.033491 -56189.300000 0 0 1
-35.279699 -22.537005 11.181279 43.331222 0.568468 1.309801 0.057019 -0.031245 -461429.000000 0 0 1
-35.878399 -23.960305 11.128179 44.555495 0.588801 1.318364 0.049773 -0.026568 -371815.000000 0 0 1
35.534808 -24.362005 12.363179 44.822741 -0.600983 1.291350 0.087262 -0.023800 -137437.000000 0 0 1
35.075308 -25.698595 12.209579 45.163801 -0.632317 1.297050 0.047860 -0.012724 -117319.000000 0 0 1
34.190008 -26.156125 13.410479 45.088142 -0.653046 1.268799 0.051226 -0.028634 -383079.000000 0 0 1
32.927608 -25.569325 13.334779 43.770242 -0.660266 1.261221 0.048534 -0.021072 -617252.000000 0 0 1
32.220508 -25.427105 14.537079 43.543375 -0.668096 1.230408 0.050675 -0.005911 -315742.000000 0 0 1
32.140408 -23.899505 14.966679 42.757382 -0.639390 1.213185 0.069187 -0.013395 484456.000000 0 0 1
33.326108 -23.339605 15.532279 43.550182 -0.610954 1.206114 0.071301 -0.018182 287431.000000 0 0 1
34.313208 -22.831005 14.672979 43.748684 -0.587105 1.228775 0.074692 -0.020408 -285228.000000 0 0 1
35.461708 -22.119305 15.388679 44.537713 -0.557701 1.218003 0.069370 -0.019305 -481390.000000 0 0 1
35.251708 -20.851005 16.031879 43.982593 -0.534138 1.197695 0.065178 -0.015486 440000.000000 0 0 1
34.246508 -20.785405 17.064779 43.543807 -0.545503 1.168101 0.062309 -0.015529 511888.000000 0 0 1
34.172508 -19.420105 17.802479 43.148917 -0.516782 1.145509 0.058288 -0.009465 -329151.000000 0 0 1
33.796308 -18.369605 16.962579 42.040004 -0.497869 1.155472 0.067210 -0.020117 138944.000000 0 0 1
33.431608 -17.124805 17.533779 41.453164 -0.473387 1.134067 0.069267 -0.017198 136788.000000 0 0 1
34.604508 -16.206405 17.989679 42.234442 -0.437994 1.130787 0.035719 -0.015696 245322.000000 0 0 1
35.404508 -16.806405 19.013179 43.559562 -0.443201 1.119106 0.022402 0.006827 707025.000000 0 0 1
-35.418799 -15.927205 19.381279 43.402778 0.422590 1.107896 0.004723 0.001441 355501.000000 0 0 1
-34.997399 -15.861405 20.914579 43.747248 0.425526 1.072332 -0.007517 0.014889 26604.800000 0 0 1
-34.269899 -16.943205 21.497579 43.859367 0.459162 1.058537 -0.007310 0.017585 284270.000000 0 0 1
-33.901499 -16.793505 22.842979 44.194289 0.459930 1.027598 -0.006726 0.020300 -107082.000000 0 0 1
-33.061299 -17.959005 23.404779 44.309808 0.497610 1.014308 -0.001509 0.020585 -880199.000000 0 0 1
-33.669799 -19.266105 23.478079 45.343780 0.519733 1.026543 -0.005012 0.016982 273880.000000 0 0 1
-32.837299 -20.369705 23.899179 45.435491 0.555228 1.016903 -0.008169 0.015933 283711.000000 0 0 1
-31.633299 -20.705505 22.965779 44.235852 0.579566 1.024921 -0.015651 0.020999 -275368.000000 0 0 1
-30.569399 -19.798305 23.019479 43.085467 0.574722 1.007147 -0.012540 0.027408 -1217810.000000 0 0 1
-29.496999 -20.445105 22.424479 42.319411 0.606097 1.012330 -0.013324 0.017766 -690825.000000 0 0 1
-28.275399 -19.506305 22.351479 40.982713 0.603894 0.993944 -0.004571 0.020254 -20216.100000 0 0 1
-27.801099 -19.133005 23.660179 41.216224 0.602770 0.959353 -0.003519 0.017105 442416.000000 0 0 1
-26.695599 -18.241605 23.686579 40.080734 0.599443 0.938533 0.020410 0.003110 60104.100000 0 0 1
-26.401899 -17.736105 25.133079 40.537654 0.591530 0.902062 0.023119 -0.008744 -1206830.000000 0 0 1
-25.368899 -16.806705 25.156879 39.483097 0.585107 0.879994 0.024027 -0.008678 -144419.000000 0 0 1
-24.833899 -16.464005 26.445479 39.839044 0.585436 0.844897 0.015404 -0.011062 273351.000000 0 0 1
-23.968099 -17.524205 27.203879 40.269326 0.631326 0.829088 0.002744 -0.008746 -821054.000000 0 0 1
-24.564899 -18.697405 27.448679 41.309287 0.650595 0.844015 0.008931 -0.007264 -826581.000000 0 0 1
-23.645699 -19.561005 28.087479 41.601184 0.691140 0.829614 0.012497 -0.001931 -341720.000000 0 0 1
-24.152699 -20.862005 28.681179 42.909045 0.712425 0.838716 0.018441 0.000179 -459622.000000 0 0 1
-25.107799 -20.532405 29.683979 43.967259 0.685483 0.829644 0.021265 -0.004752 289257.000000 0 0 1
-25.658899 -21.692005 30.308479 45.249598 0.701817 0.836848 0.019114 -0.001286 -776659.000000 0 0 1
-26.755899 -21.377405 31.299479 46.395355 0.674118 0.830339 0.035557 0.001063 -1122390.000000 0 0 1
-26.405899 -20.602105 32.460579 46.641263 0.662556 0.801037 0.048686 -0.006838 -222315.000000 0 0 1
-27.377899 -20.547905 33.453079 47.863079 0.643840 0.796892 0.055093 -0.006863 445509.000000 0 0 1
-28.667699 -19.647005 33.260679 48.105245 0.600816 0.807351 0.050948 -0.011083 553996.000000 0 0 1
-29.454599 -20.064505 32.195579 48.028253 0.597998 0.836120 0.050835 -0.007792 -700650.000000 0 0 1
-30.815299 -19.940505 32.495279 49.021930 0.574332 0.846148 0.037555 -0.012883 -747743.000000 0 0 1
-31.661299 -20.479905 31.340079 49.031265 0.574153 0.877357 0.030837 0.006374 -555588.000000 0 0 1
-31.649199 -19.613205 30.177079 47.927088 0.554783 0.889699 0.017250 -0.007758 453660.000000 0 0 1
-32.527699 -20.287305 29.264979 48.229296 0.557659 0.918782 0.015757 -0.004238 183671.000000 0 0 1
-33.255499 -19.189805 28.448679 47.786025 0.523367 0.933114 0.012260 0.000192 52850.800000 0 0 1
-34.238499 -19.727405 27.552479 48.172445 0.522718 0.961909 -0.000803 0.005863 322849.000000 0 0 1
-34.899099 -18.593605 26.976979 47.868849 0.489528 0.972107 0.004608 0.011556 -486731.000000 0 0 1
-35.893999 -19.171505 25.963379 48.270310 0.490565 1.002882 -0.007055 0.017062 -152859.000000 0 0 1
34.800108 -19.560305 26.621579 47.982930 -0.512067 0.982657 0.012620 0.008682 26806.500000 0 0 1
33.813808 -20.093005 25.760179 47.017968 -0.536162 0.990969 0.055511 0.002231 180000.000000 0 0 1
32.596808 -20.589005 26.572379 46.824677 -0.563350 0.967346 0.052144 -0.006388 -171747.000000 0 0 1
31.594308 -19.655105 26.913879 45.922548 -0.556518 0.944595 0.040379 -0.004987 -40383.100000 0 0 1
30.660008 -20.301605 27.725579 46.053220 -0.584871 0.924751 0.030662 0.002608 -219981.000000 0 0 1
-29.839642 -5.638905 33.883047 45.500136 0.186771 0.730741 0.010244 0.019797 -339153.000000 0 0 1
-30.689142 -5.481905 32.798237 45.250404 0.176763 0.760028 0.013744 0.018453 2252.800000 0 0 1
-30.294602 -4.404105 31.965753 44.260235 0.144365 0.763786 0.029115 0.012559 -131797.000000 0 0 1
-31.047562 -4.300405 30.620653 43.818592 0.137635 0.797071 0.032892 -0.001630 -32071.500000 0 0 1
-30.732632 -5.328505 29.708303 43.075178 0.171676 0.809742 0.014808 -0.006230 1312230.000000 0 0 1
-29.382062 -5.265705 29.154003 41.725162 0.177332 0.797196 0.020893 -0.009053 1164200.000000 0 0 1
-29.010192 -6.289105 28.100663 40.875315 0.213486 0.812793 0.021725 -0.017655 -221967.000000 0 0 1
-29.604292 -6.004505 26.869423 40.428135 0.200111 0.843809 0.017987 -0.023141 -258119.000000 0 0 1
-29.017852 -6.795805 25.885843 39.475253 0.230048 0.855623 0.043401 -0.020579 225070.000000 0 0 1
-29.748902 -6.499405 24.506813 39.087381 0.215096 0.893132 0.037056 -0.022566 623230.000000 0 0 1
-29.280562 -5.289305 23.912433 38.172405 0.178715 0.893828 0.033928 -0.023303 206791.000000 0 0 1
-30.049852 -5.052905 22.742783 38.023146 0.166592 0.929631 0.035803 -0.020032 143699.000000 0 0 1
-29.642002 -3.748705 22.123283 37.177153 0.125798 0.933434 0.029725 -0.013898 501236.000000 0 0 1
-28.307572 -3.881905 21.630983 35.836954 0.136283 0.922795 0.034377 -0.011596 186729.000000 0 0 1
-27.981592 -2.672905 20.942783 35.053018 0.095235 0.930466 0.035410 -0.002306 -606148.000000 0 0 1
-26.558732 -2.857005 20.462383 33.648742 0.107161 0.917109 0.041641 0.000081 -700359.000000 0 0 1
-26.555202 -3.758005 19.380583 33.089400 0.140583 0.945048 0.049280 -0.000956 -27183.600000 0 0 1
-25.324162 -3.658105 18.696983 31.690252 0.143459 0.939748 0.058531 -0.001556 -423078.000000 0 0 1
-25.354492 -4.392105 17.342383 31.030616 0.171526 0.977762 0.057813 0.006121 -538211.000000 0 0 1
-26.192192 -3.794005 16.450083 31.161364 0.143852 1.014670 0.049647 0.005034 -500083.000000 0 0 1
-25.945912 -4.381505 15.193383 30.384648 0.167292 1.047157 0.060184 -0.002455 263146.000000 0 0 1
-27.123732 -4.409105 14.162983 30.914837 0.161146 1.094907 0.071503 -0.011942 357484.000000 0 0 1
-27.471212 -3.133605 13.619983 30.821923 0.113578 1.113089 0.063921 -0.007861 -947246.000000 0 0 1
-28.625292 -3.073305 12.891383 31.544259 0.106954 1.149793 0.059816 -0.013322 -1077560.000000 0 0 1
-28.767192 -1.693105 12.245283 31.310779 0.058788 1.168982 0.056769 -0.001936 -6577.940000 0 0 1
-27.991562 -1.553705 11.046683 30.132553 0.055449 1.195441 0.066705 -0.005927 276620.000000 0 0 1
-28.175642 -0.283505 10.386383 30.030387 0.010062 1.217639 0.066673 0.002301 -85632.000000 0 0 1
-29.482292 -0.131805 9.566983 30.995969 0.004471 1.257020 0.060939 0.004571 171871.000000 0 0 1
-29.528552 -1.124405 8.515383 30.752421 0.038060 1.290229 0.064858 -0.011655 46433.300000 0 0 1
-30.852982 -1.296705 8.054183 31.913286 0.042004 1.315660 0.063291 -0.014750 105935.000000 0 0 1
-30.846862 -2.139305 6.776783 31.654862 0.069242 1.355043 0.078492 -0.022112 -133444.000000 0 0 1
-30.432522 -1.429805 5.587283 30.974190 0.046948 1.389418 0.100275 -0.025152 92712.600000 0 0 1
-31.385332 -0.564905 5.032883 31.791321 0.017997 1.411818 0.081366 -0.024638 -363142.000000 0 0 1
-30.958442 0.002895 3.650283 31.172900 -0.000093 1.453429 0.082873 -0.018606 -111890.000000 0 0 1
-31.430292 -0.808505 2.633983 31.550829 0.025718 1.487215 0.079727 -0.025147 290426.000000 0 0 1
-30.919312 -0.340405 1.426983 30.954095 0.011009 1.524680 0.083833 -0.026270 40743.700000 0 0 1
-31.673262 -0.951905 0.186683 31.688113 0.030045 1.564905 0.084178 -0.024317 -636909.000000 0 0 1
-33.012692 -0.637305 0.107083 33.019016 0.019302 1.567553 0.076435 -0.027969 -716259.000000 0 0 1
-33.618182 -0.960705 -1.134817 33.651046 0.028569 1.604526 0.077871 -0.025751 367770.000000 0 0 1
-35.144548 -0.674705 -1.251117 35.173282 0.019196 1.606374 0.066251 -0.023594 403355.000000 0 0 1
-35.909466 -1.676705 -0.560717 35.952962 0.046659 1.586393 0.070937 -0.016964 701145.000000 0 0 1
34.597375 -1.316305 -0.564817 34.627013 -0.038028 1.587108 0.072392 -0.017815 130131.000000 0 0 1
33.736005 -2.447105 -0.012417 33.824644 -0.072410 1.571163 0.073117 -0.024625 -569766.000000 0 0 1
34.000505 -2.709405 1.364483 34.135569 -0.079519 1.530813 0.064906 -0.024685 533543.000000 0 0 1
33.376295 -3.952005 1.766983 33.655871 -0.117859 1.518271 0.067513 -0.016933 -99891.700000 0 0 1
33.644945 -4.401105 3.180883 34.080347 -0.130072 1.477325 0.063043 -0.011627 67973.200000 0 0 1
33.182725 -3.403905 4.092083 33.606918 -0.102223 1.448730 0.065972 -0.020409 305406.000000 0 0 1
33.100055 -3.903305 5.392183 33.762777 -0.117382 1.410402 0.071018 -0.016709 -73016.100000 0 0 1
32.630765 -2.800405 6.376583 33.365700 -0.085611 1.378501 0.075486 -0.010840 -26610.000000 0 0 1
31.237985 -2.592705 6.360783 31.984268 -0.082809 1.370589 0.090425 -0.013393 -137468.000000 0 0 1
30.906515 -1.467905 7.127983 31.751781 -0.047459 1.344376 0.079517 -0.010825 1098050.000000 0 0 1
29.380625 -1.455705 7.584883 30.378786 -0.049506 1.318450 0.084377 -0.009707 604142.000000 0 0 1
28.492225 -1.325405 6.519283 29.258582 -0.046485 1.346094 0.092487 -0.008422 59841.100000 0 0 1
27.166495 -1.164805 6.990283 28.075600 -0.042850 1.319169 0.086340 -0.000699 294582.000000 0 0 1
26.248215 -2.417405 7.113983 27.302407 -0.091839 1.307192 0.097192 -0.011428 -191363.000000 0 0 1
26.805815 -3.411905 8.000583 28.181593 -0.126602 1.282944 0.092103 -0.013389 1047920.000000 0 0 1
26.143315 -4.693605 7.776583 27.676309 -0.177641 1.285978 0.094711 -0.021666 231531.000000 0 0 1
26.442915 -5.703805 8.931283 28.487348 -0.212448 1.251901 0.076774 -0.013018 -130046.000000 0 0 1
25.648815 -5.449105 10.063283 28.086013 -0.209338 1.204347 0.075286 -0.006844 512124.000000 0 0 1
26.013915 -6.284305 11.176683 29.002319 -0.237033 1.175185 0.071526 -0.010072 620837.000000 0 0 1
24.835415 -6.383905 12.231983 28.410799 -0.251601 1.125705 0.055384 -0.013347 1000080.000000 0 0 1
23.719115 -7.157505 11.794783 27.439811 -0.293072 1.126479 0.056009 -0.022381 190573.000000 0 0 1
22.627815 -6.898605 12.670583 26.835656 -0.295921 1.079063 0.057414 -0.021462 63127.200000 0 0 1
21.755915 -8.162505 12.745783 26.502855 -0.358933 1.069091 0.058009 -0.018505 -183761.000000 0 0 1
22.298015 -9.186705 13.582183 27.678019 -0.390805 1.057879 0.048881 -0.024571 -27582.000000 0 0 1
21.470015 -10.307105 13.552183 27.401818 -0.447577 1.053454 0.076262 -0.033881 -461453.000000 0 0 1
21.718815 -11.390105 14.662183 28.573083 -0.483004 1.031949 0.054401 -0.032644 -270904.000000 0 0 1
21.325215 -11.020105 15.962683 28.827327 -0.476969 0.983954 0.045511 -0.024260 218951.000000 0 0 1
21.578815 -12.115505 16.813883 29.918847 -0.511594 0.974015 0.040331 -0.021625 -250938.000000 0 0 1
21.416515 -11.823405 18.339483 30.574445 -0.504431 0.927507 0.053265 -0.015942 1353780.000000 0 0 1
20.000015 -11.682405 18.638283 29.729864 -0.528661 0.893201 0.052479 -0.018112 1165010.000000 0 0 1
19.626115 -11.822505 20.020683 30.426695 -0.542172 0.852640 0.043699 -0.013265 188682.000000 0 0 1
20.134015 -10.829005 21.077183 31.094912 -0.493464 0.825984 0.054209 -0.008479 -75286.500000 0 0 1
19.471815 -9.537305 21.131083 30.275972 -0.455455 0.798267 0.045503 -0.003814 -42806.600000 0 0 1
19.813015 -8.546205 20.197483 29.555567 -0.407231 0.818423 0.057677 -0.006732 -1172200.000000 0 0 1
20.800815 -7.511205 20.750683 30.326275 -0.346530 0.817225 0.062439 -0.008701 1786390.000000 0 0 1
22.197815 -7.938705 20.804483 31.441892 -0.343460 0.847739 0.078269 -0.012641 1462750.000000 0 0 1
22.905115 -8.044005 19.599183 31.200614 -0.337733 0.891602 0.073528 -0.021427 -247656.000000 0 0 1
24.198215 -8.902005 19.789983 32.502965 -0.352513 0.916165 0.079712 -0.017262 396636.000000 0 0 1
24.016915 -10.212905 20.234983 33.023782 -0.402072 0.911274 0.063353 -0.012462 -341910.000000 0 0 1
25.244215 -10.864405 20.048183 34.018162 -0.406412 0.940558 0.064293 -0.016217 41295.200000 0 0 1
25.224015 -12.348005 20.352683 34.683655 -0.455240 0.943684 0.053121 -0.009256 103600.000000 0 0 1
24.541015 -13.102905 19.353283 33.889484 -0.490413 0.962987 0.060788 -0.016343 158874.000000 0 0 1
24.606115 -14.512005 19.632883 34.662794 -0.532865 0.968670 0.058732 -0.011785 -390476.000000 0 0 1
23.580315 -15.211105 18.747483 33.747254 -0.572906 0.981801 0.060734 -0.010599 -611816.000000 0 0 1
23.795815 -15.235505 17.341083 33.152294 -0.569498 1.020343 0.045644 -0.014457 120252.000000 0 0 1
22.758515 -15.775705 16.522083 32.245963 -0.606133 1.032846 0.023722 -0.014751 -131732.000000 0 0 1
22.432615 -17.275505 16.760683 32.902672 -0.656246 1.036307 0.024095 -0.016375 1063.850000 0 0 1
23.491815 -18.188505 16.460383 33.965149 -0.658840 1.064861 0.046373 -0.017259 451580.000000 0 0 1
23.080715 -19.557905 16.636583 34.525454 -0.702965 1.068015 0.045708 -0.012191 -65467.700000 0 0 1
24.234615 -20.506505 16.304783 35.688644 -0.702264 1.096332 0.048080 -0.008797 -68591.300000 0 0 1
24.688915 -20.634105 14.962583 35.485035 -0.696171 1.135522 0.044418 -0.017722 -281650.000000 0 0 1
25.566715 -21.707305 14.892983 36.696934 -0.703940 1.152902 0.047158 -0.019660 -597404.000000 0 0 1
26.264315 -21.863805 13.542183 36.759094 -0.694218 1.193505 0.043015 -0.025768 -116657.000000 0 0 1
25.345415 -21.939505 12.469883 35.766324 -0.713493 1.214667 0.029011 -0.014810 -50210.700000 0 0 1
25.922315 -21.558005 11.275483 35.550676 -0.693737 1.248056 0.028944 -0.012684 -25007.700000 0 0 1
24.914215 -21.362005 10.078883 34.331287 -0.708787 1.272830 0.017122 -0.006473 481444.000000 0 0 1
24.329215 -22.550605 9.572283 34.526354 -0.747477 1.289870 0.017592 -0.010017 305337.000000 0 0 1
22.920615 -22.592805 9.769183 33.633709 -0.778196 1.276091 0.010901 -0.002780 300158.000000 0 0 1
22.263315 -23.560805 8.765983 33.579893 -0.813705 1.306688 0.016156 -0.005553 -302544.000000 0 0 1
22.530715 -24.946405 9.035683 34.808043 -0.836235 1.308203 0.017374 -0.002133 95346.500000 0 0 1
22.182815 -25.824825 7.974583 34.965596 -0.861116 1.340702 0.025715 0.003792 388940.000000 0 0 1
20.703315 -26.326435 7.983383 34.430261 -0.904398 1.336796 0.035900 0.010559 317645.000000 0 0 1
19.825515 -25.362445 7.517783 33.057855 -0.907322 1.341376 0.034105 0.005300 -321803.000000 0 0 1
18.461015 -25.696905 7.743583 32.574578 -0.947819 1.330780 0.040994 -0.002817 741901.000000 0 0 1
17.494915 -24.479505 7.687383 31.055017 -0.950288 1.320655 0.042384 -0.012688 -183338.000000 0 0 1
17.264015 -23.950205 6.381983 30.205765 -0.946227 1.357908 0.049575 -0.010236 16859.700000 0 0 1
16.253415 -22.984505 6.559983 28.904920 -0.955290 1.341851 0.056105 -0.008000 -193561.000000 0 0 1
16.033715 -22.199805 5.273783 27.887706 -0.945296 1.380543 0.058657 -0.002477 -97216.300000 0 0 1
15.182615 -21.081905 5.399483 26.535127 -0.946659 1.365881 0.069520 -0.003657 -86805.400000 0 0 1
14.996015 -20.462905 4.119483 25.701772 -0.938369 1.409822 0.067117 -0.004767 110680.000000 0 0 1
14.103915 -19.234305 4.120183 24.204438 -0.938089 1.399739 0.068209 0.003179 -275879.000000 0 1 0
14.858615 -18.117905 4.496283 23.859034 -0.883915 1.381211 0.054738 0.000938 -39619.900000 0 1 0
14.245915 -16.887205 4.217483 22.492465 -0.870034 1.382173 0.028472 0.008454 -26304.400000 0 1 0
15.271215 -15.734105 4.221183 22.329140 -0.800326 1.380608 0.020569 0.001960 -614034.000000 0 1 0
15.632415 -15.278105 5.490483 22.537487 -0.773936 1.324704 0.029665 -0.010305 333019.000000 0 1 0
16.785815 -14.459905 5.397283 22.803138 -0.711096 1.331838 0.027889 -0.019648 936447.000000 0 1 0
18.206615 -15.140905 5.301883 24.265981 -0.693724 1.350529 0.033656 -0.015035 -1482.540000 0 1 0
19.183315 -14.145505 5.429983 24.445442 -0.635379 1.346801 0.041232 -0.015935 -1932280.000000 0 1 0
20.398515 -14.718705 5.294983 25.705574 -0.625048 1.363325 0.050308 -0.015800 -2132790.000000 0 0 1
21.549415 -13.746805 5.363183 26.117345 -0.567836 1.363976 0.046847 -0.022881 -819299.000000 0 0 1
21.680815 -13.148805 6.633383 26.209742 -0.545165 1.314925 0.050948 -0.024389 -6506.700000 0 0 1
22.678215 -12.168605 6.684483 26.590576 -0.492479 1.316685 0.058214 -0.022208 -377253.000000 0 0 1
22.948815 -11.469605 8.112083 26.907357 -0.463480 1.264550 0.060691 -0.024308 -350172.000000 0 0 1
23.455415 -12.295505 9.070183 27.992931 -0.482826 1.240824 0.053116 -0.023596 165376.000000 0 0 1
23.585515 -11.563405 10.258683 28.199813 -0.455838 1.198468 0.054285 -0.030338 66407.500000 0 0 1
24.003315 -12.392405 11.573783 29.388489 -0.476586 1.166012 0.043231 -0.026287 321767.000000 0 0 1
22.957815 -13.364305 11.738083 29.042185 -0.527172 1.154721 0.047658 -0.026944 1139610.000000 0 0 1
23.383415 -14.361105 12.696183 30.236047 -0.550765 1.137459 0.041142 -0.030104 497124.000000 0 0 1
22.293815 -15.466605 12.909283 30.047956 -0.606527 1.126721 0.039856 -0.029244 1553520.000000 0 0 1
21.064315 -14.953405 13.479983 29.137942 -0.617335 1.089841 0.043243 -0.030300 589241.000000 0 0 1
20.047215 -15.885405 13.710383 29.020881 -0.670089 1.078749 0.037938 -0.030648 -475893.000000 0 0 1
18.813915 -15.202905 14.283083 28.090892 -0.679641 1.037401 0.038366 -0.033252 -872812.000000 0 0 1
19.000415 -14.500305 15.492883 28.483400 -0.651869 0.995687 0.035752 -0.029719 -260137.000000 0 0 1
18.337615 -13.298305 15.631983 27.522208 -0.627435 0.966750 0.055969 -0.036787 559.710000 0 0 1
16.803015 -13.177905 15.865083 26.602620 -0.665068 0.931821 0.056483 -0.038613 349279.000000 0 0 1
16.043815 -13.431905 14.653383 25.544896 -0.697017 0.959863 0.052584 -0.041085 552033.000000 0 0 1
14.677815 -13.079205 14.878083 24.654842 -0.727869 0.922970 0.046509 -0.034868 522078.000000 0 1 0
14.259215 -11.652205 14.446383 23.405066 -0.685123 0.905575 0.040722 -0.030211 -380761.000000 0 1 0
14.769615 -10.669805 15.279483 23.779169 -0.625612 0.872965 0.033836 -0.023858 -191816.000000 0 1 0
14.453015 -9.403905 14.741683 22.685685 -0.576835 0.863445 0.029935 -0.025160 -517060.000000 0 1 0
15.015015 -8.236605 15.660383 23.206464 -0.501735 0.830064 0.032047 -0.020373 1476620.000000 0 1 0
16.445315 -8.260505 15.881183 24.308359 -0.465487 0.858832 0.031195 -0.024671 1258980.000000 0 1 0
17.046015 -9.254705 16.653883 25.564977 -0.497395 0.861324 0.040144 -0.018467 -745319.000000 0 0 1
18.574615 -9.357705 16.761183 26.711800 -0.466675 0.892481 0.046048 -0.016575 -131638.000000 0 0 1
19.113415 -8.129405 17.171783 26.949583 -0.402146 0.879960 0.038756 -0.029610 256142.000000 0 0 1
20.163715 -7.719605 16.287583 27.045389 -0.365632 0.924503 0.030328 -0.014814 203174.000000 0 0 1
20.573615 -6.254905 16.452683 27.075603 -0.295146 0.917689 0.025322 -0.004021 -226582.000000 0 0 1
21.336515 -5.939405 17.611883 28.296676 -0.271495 0.898990 0.060663 -0.007704 406818.000000 0 0 1
21.670615 -4.566105 17.821483 28.426575 -0.207667 0.893189 0.072316 -0.012590 11865.400000 0 0 1
-5.609392 -33.141426 -6.441221 34.224388 1.403129 1.760131 -0.003165 -0.009068 -191862.000000 0 0 1
-6.059992 -31.831526 -6.669221 33.082443 1.382670 1.773781 0.003817 -0.013619 -52160.900000 0 0 1
-5.675592 -30.901226 -5.651821 31.922424 1.389152 1.748783 0.009080 -0.015850 -718630.000000 0 0 1
-6.466992 -29.615326 -5.813421 30.865602 1.355805 1.760274 0.020379 -0.017515 306496.000000 0 0 1
-7.857392 -29.552026 -5.575821 31.082964 1.310925 1.751158 0.025253 -0.014669 9064.760000 0 0 1
-8.665292 -30.223526 -6.507521 32.107579 1.291579 1.774889 0.025034 -0.008481 236383.000000 0 0 1
-10.189792 -29.857226 -6.270321 32.165241 1.241907 1.766994 0.025499 0.002984 1284060.000000 0 0 1
-11.076892 -30.713526 -6.971921 33.386013 1.224664 1.781172 0.033036 -0.002804 -813594.000000 0 0 1
-12.401492 -30.464926 -6.601621 33.548325 1.184206 1.768868 0.041223 0.000273 136482.000000 0 0 1
-13.399792 -31.202926 -7.565321 34.790963 1.165171 1.789998 0.063249 -0.012995 337013.000000 0 0 1
-13.492992 -30.443226 -8.787421 34.439361 1.153596 1.828806 0.077893 -0.019702 106447.000000 0 0 1
-14.593492 -30.903326 -9.553421 35.485961 1.129610 1.843376 0.082870 -0.021484 316207.000000 0 0 1
-14.793692 -30.152826 -10.885021 35.306230 1.114678 1.884205 0.087135 -0.016579 -447974.000000 0 0 1
-15.122192 -28.778326 -10.744621 34.239153 1.086980 1.890000 0.092581 -0.021829 27886.100000 0 0 1
-14.038592 -27.890126 -10.545521 32.956778 1.104470 1.896505 0.083996 -0.022326 -468510.000000 0 0 1
-14.380992 -26.461026 -10.000021 31.733251 1.072974 1.891387 0.079664 -0.007951 -67338.300000 0 0 1
-14.798692 -25.557026 -11.013421 31.519173 1.045927 1.927748 0.094325 -0.019452 128197.000000 0 0 1
-15.097992 -24.359126 -10.395921 30.485924 1.015939 1.918784 0.092282 -0.007682 -175254.000000 0 0 1
-15.826092 -23.375626 -11.361721 30.429817 0.975651 1.953440 0.095569 -0.010029 -447117.000000 0 0 1
-17.135692 -23.796026 -11.602221 31.535604 0.946703 1.947555 0.102792 -0.015898 -604282.000000 0 0 1
-17.663492 -23.056426 -12.717521 31.706987 0.917072 1.983508 0.104646 -0.014882 2185070.000000 0 0 1
-19.201592 -23.477726 -13.068321 33.025532 0.885257 1.977630 0.092743 -0.010140 2292790.000000 0 0 1
-19.472292 -24.758126 -13.554021 34.290617 0.904341 1.977157 0.109854 -0.009441 -34830.800000 0 0 1
-19.383892 -25.707526 -12.490721 34.534479 0.924730 1.940875 0.126051 -0.017166 -1033140.000000 0 0 1
-19.593392 -27.200626 -12.841421 35.898150 0.946557 1.936620 0.115729 -0.017270 29329.900000 0 0 1
-18.707492 -27.827426 -13.746321 36.239443 0.978926 1.959857 0.102951 -0.027613 31913.700000 0 0 1
-17.346692 -27.832326 -13.374421 35.417809 1.013451 1.958019 0.110249 -0.029103 -513777.000000 0 0 1
-16.507692 -28.968826 -13.926521 36.133706 1.052846 1.966455 0.087498 -0.034037 -508208.000000 0 0 1
-16.361992 -28.924626 -15.326621 36.595820 1.055997 2.002929 0.079712 -0.043872 -313606.000000 0 0 1
-15.549692 -29.994726 -15.781921 37.290019 1.092526 2.007794 0.092339 -0.043057 -12197.100000 0 0 1
-16.050292 -31.467626 -15.647421 38.635025 1.099135 1.987782 0.079767 -0.049443 -219021.000000 0 0 1
-16.340892 -31.802926 -14.298921 38.508570 1.096156 1.951224 0.084251 -0.047331 -65699.100000 0 0 1
-16.433492 -33.180726 -14.041021 39.600132 1.110938 1.933251 0.054029 -0.041315 -1181680.000000 0 0 1
-16.896592 -33.373526 -12.538421 39.452491 1.102132 1.894216 0.077554 -0.038868 1101990.000000 0 0 1
-18.311892 -33.158126 -12.327921 39.834211 1.066220 1.885443 0.095678 -0.030088 1179470.000000 0 0 1
-18.866992 -31.859326 -12.475021 39.071808 1.036134 1.895771 0.104464 -0.029862 -429917.000000 0 0 1
-18.350192 -30.759426 -11.485421 37.613651 1.032902 1.881105 0.124581 -0.029172 -463941.000000 0 0 1
-18.886692 -30.909526 -10.163021 37.621708 1.022305 1.844332 0.128311 -0.019270 343587.000000 0 0 1
-18.521192 -29.816026 -9.301921 36.311922 1.014947 1.829851 0.134997 -0.015463 83140.500000 0 0 1
-18.762192 -30.106026 -7.814721 36.324406 1.013490 1.787628 0.125679 -0.011673 377627.000000 0 0 1
-17.741292 -30.924626 -7.237421 36.379475 1.049944 1.771075 0.136946 -0.019784 352093.000000 0 0 1
-18.045492 -31.285826 -5.933821 36.601269 1.047614 1.733636 0.117454 -0.020909 -197134.000000 0 0 1
-17.062192 -32.379626 -5.486621 37.008939 1.085828 1.719596 0.122146 -0.022531 1403580.000000 0 0 1
-15.755192 -31.937726 -5.021421 35.964692 1.112515 1.710875 0.117338 -0.021328 1307460.000000 0 0 1
-15.736192 -31.718226 -3.634521 35.593305 1.110254 1.673087 0.089469 -0.019753 -396837.000000 0 0 1
-14.418092 -31.149926 -3.102621 34.464845 1.137299 1.660941 0.068639 -0.011221 -96856.700000 0 0 1
-13.298592 -32.013126 -3.155121 34.808728 1.177076 1.661563 0.042696 -0.004679 -243647.000000 0 0 1
-12.152792 -31.221926 -2.864821 33.625975 1.199601 1.656096 0.025887 -0.000214 997717.000000 0 0 1
-10.802492 -32.027026 -3.007021 33.933264 1.245486 1.659528 0.028847 -0.006988 368901.000000 0 0 1
-10.658792 -33.163626 -2.187821 34.903044 1.259824 1.633520 0.029709 0.000937 1303570.000000 0 0 1
-9.271392 -33.582626 -1.984421 34.895407 1.301429 1.627695 0.011488 0.007125 1603200.000000 0 0 1
-8.396992 -32.783026 -1.029121 33.856984 1.320049 1.601197 0.015723 0.008403 -630181.000000 0 0 1
-8.859592 -32.771526 0.289379 33.949212 1.306764 1.562272 0.027563 0.002526 -262591.000000 0 0 1
-7.911392 -32.279726 1.220979 33.257505 1.330446 1.534075 0.028391 -0.000853 272842.000000 0 0 1
-6.999992 -33.380826 1.805179 34.154621 1.364091 1.517919 0.033301 -0.002298 179078.000000 0 0 1
-7.718992 -34.319526 2.634779 35.275413 1.349562 1.496035 0.046395 -0.014801 314017.000000 0 0 1
-6.889592 33.272895 3.014879 34.112190 -1.366619 1.482300 0.049387 -0.016089 49172.300000 0 0 1
-6.268492 33.502695 4.436479 34.371600 -1.385831 1.441361 0.055284 -0.022934 -163014.000000 0 0 1
-5.117792 34.297595 4.363579 34.950788 -1.422672 1.445620 0.048310 -0.014091 -388725.000000 0 0 1
-4.550492 -34.107926 5.644479 34.870012 1.438165 1.408209 0.036241 -0.013492 1212840.000000 0 0 1
-3.188592 -33.311326 5.486379 33.910351 1.475366 1.408291 0.037814 -0.007477 703891.000000 0 0 1
-3.391892 -31.993426 5.042179 32.565439 1.465172 1.415339 0.028549 -0.003324 8727.610000 0 0 1
-3.198392 -31.851726 3.630979 32.217172 1.470717 1.457853 0.039731 -0.020328 -147921.000000 0 0 1
-3.657892 -30.536126 2.940379 30.894676 1.451575 1.475478 0.020019 -0.022684 -1175.650000 0 0 1
-2.832792 -29.477726 3.329379 29.800097 1.474991 1.458839 0.021697 -0.014017 -154408.000000 0 0 1
-3.084592 -28.368626 2.452979 28.641068 1.462489 1.485046 0.025846 -0.017464 383048.000000 0 0 1
-2.506692 -26.970426 2.873679 27.238675 1.478120 1.465100 0.033125 -0.017755 64196.700000 0 0 1
-2.936192 -25.841326 2.074179 26.090182 1.457658 1.491212 0.042624 -0.024349 -188184.000000 0 0 1
-2.827492 -24.584226 2.677579 24.890727 1.456287 1.463014 0.035332 -0.017723 -479781.000000 0 1 0
-4.061292 -24.177526 3.468079 24.760340 1.404372 1.430268 0.032507 -0.007426 -521237.000000 0 1 0
-4.241992 -24.911726 4.630379 25.691030 1.402133 1.389573 0.045100 -0.008850 -224386.000000 0 0 1
-5.288392 -24.397126 5.409779 25.543151 1.357336 1.357390 0.032803 -0.002348 -366307.000000 0 0 1
-5.825192 -25.447026 6.395379 26.877218 1.345759 1.330544 0.035762 -0.002293 -405124.000000 0 0 1
-5.116692 -25.715926 7.601179 27.299584 1.374392 1.288631 0.037561 -0.005437 100886.000000 0 0 1
-5.866192 -26.602626 8.418979 28.512999 1.353758 1.271060 0.039803 -0.001298 -254501.000000 0 0 1
-5.120192 -27.252326 9.555479 29.329385 1.385080 1.238940 0.019876 0.000847 -231700.000000 0 0 1
-4.492192 -26.401726 10.499879 28.765924 1.402263 1.197152 0.017269 0.001196 516299.000000 0 0 1
-5.399092 -25.766326 11.429979 28.700142 1.364244 1.161182 0.026027 -0.006326 385703.000000 0 0 1
-4.678792 -24.810726 12.374379 28.117405 1.384406 1.115090 0.015430 -0.008703 -264752.000000 0 0 1
-3.930692 -25.307526 13.407879 28.908346 1.416710 1.088509 0.015319 -0.009799 -637599.000000 0 0 1
-3.494892 -24.249826 14.242779 28.339462 1.427662 1.044219 0.029468 -0.014462 -456393.000000 0 0 1
-2.422792 -24.759826 15.159079 29.132741 1.473255 1.023541 0.048668 -0.016203 -317255.000000 0 0 1
-2.998792 -25.593526 16.132679 30.402050 1.454158 1.011436 0.035030 -0.013163 -615832.000000 0 0 1
-1.968992 -26.277826 16.706779 31.201243 1.496006 1.005753 0.031445 -0.005089 -527036.000000 0 0 1
-2.382392 -26.866926 18.033379 32.445497 1.482354 0.981465 0.036035 -0.011102 -41296.600000 0 0 1
-2.328792 -25.858526 19.027679 32.189117 1.480980 0.938348 0.037978 -0.012516 -106728.000000 0 0 1
-2.685992 -26.367726 20.322979 33.399027 1.469280 0.916640 0.059335 -0.014360 138257.000000 0 0 1
-2.936692 -25.221426 21.327279 33.160177 1.454882 0.872179 0.067176 -0.022859 -145593.000000 0 0 1
-2.876492 -25.556426 22.712079 34.310985 1.458714 0.847382 0.079935 -0.026312 -105580.000000 0 0 1
-2.923692 -24.455826 23.572479 34.092480 1.451811 0.807333 0.071763 -0.020656 -367471.000000 0 0 1
-1.828292 -23.425626 23.479679 33.217434 1.492908 0.785764 0.065906 -0.016585 -545095.000000 0 0 1
-2.234492 -22.483226 22.527779 31.905944 1.471737 0.786866 0.071040 -0.009635 -484526.000000 0 0 1
-1.277192 -21.501726 22.307779 31.009554 1.511467 0.767881 0.065327 -0.013391 -630394.000000 0 0 1
-1.826892 -20.302426 21.484279 29.615879 1.481054 0.759136 0.056967 0.004299 -241650.000000 0 0 1
-2.616592 -19.312426 22.150279 29.503410 1.436129 0.721569 0.059718 -0.005094 -14053.800000 0 0 1
-3.918492 -19.710626 22.525379 30.187018 1.374554 0.728469 0.076864 -0.009430 -406601.000000 0 0 1
-4.955292 -19.561826 21.383579 29.401997 1.322701 0.756441 0.065515 -0.008808 -642057.000000 0 0 1
-4.981992 -20.412726 20.237579 29.172920 1.331413 0.804167 0.067280 -0.005106 -392583.000000 0 0 1
-5.236192 -21.769926 20.471979 30.338908 1.334756 0.830135 0.068360 -0.004616 -17770.700000 0 0 1
-5.488592 -22.510126 19.122479 30.041632 1.331635 0.880802 0.046768 0.001582 126007.000000 0 0 1
-5.795992 -23.901426 19.318079 31.273949 1.332893 0.904975 0.051248 -0.004922 -148847.000000 0 0 1
-5.808692 -24.574626 18.076279 31.054871 1.338687 0.949518 0.047942 -0.006822 -27224.800000 0 0 1
-6.500592 -25.934326 18.089779 32.281374 1.325200 0.975954 0.036159 -0.018684 -86536.100000 0 0 1
-7.902792 -25.873426 18.024079 32.507780 1.274356 0.983089 0.043815 -0.020371 -445958.000000 0 0 1
-8.454692 -27.119826 17.668479 33.453579 1.268592 1.014377 0.048844 -0.027819 363314.000000 0 0 1
-9.995692 -27.218926 17.746579 33.995954 1.218852 1.021578 0.062394 -0.025022 8509.450000 0 0 1
-10.747892 -26.374526 16.883079 33.108476 1.183832 1.035690 0.079315 -0.027127 928419.000000 0 0 1
-12.127292 -26.251926 17.282079 33.688353 1.138043 1.032122 0.060455 -0.024388 1000760.000000 0 0 1
-12.419692 -25.227826 18.395179 33.601705 1.113327 0.991485 0.053384 -0.025307 -595858.000000 0 0 1
-12.346192 -23.855326 17.964379 32.314454 1.093212 0.981322 0.047366 -0.016263 275929.000000 0 0 1
-12.818092 -22.861426 18.858179 32.288995 1.059786 0.947095 0.055160 -0.015132 382919.000000 0 0 1
-11.628392 -22.325826 19.709179 31.970514 1.090609 0.906532 0.051356 -0.018564 720188.000000 0 0 1
-10.957692 -23.189726 20.626979 32.913625 1.129370 0.893485 0.055763 -0.015832 704809.000000 0 0 1
-9.591492 -23.444526 20.301079 32.461921 1.182458 0.895176 0.069682 -0.020375 629971.000000 0 0 1
-8.934692 -24.526026 21.196479 33.625071 1.221444 0.888757 0.070827 -0.016088 163282.000000 0 0 1
-8.786992 -24.159526 22.578079 34.214962 1.221963 0.850125 0.071306 -0.015656 165021.000000 0 0 1
-7.644592 -24.703026 23.212579 34.749146 1.270684 0.839273 0.066874 -0.014760 118672.000000 0 0 1
-7.630892 -24.481226 24.719879 35.617880 1.268637 0.803725 0.072605 -0.015499 12512.800000 0 0 1
-6.633892 -25.104126 25.508779 36.399499 1.312447 0.794278 0.082259 -0.018220 -112275.000000 0 0 1
-6.613992 -24.655026 26.826379 37.030661 1.308706 0.760579 0.080614 -0.015437 169941.000000 0 0 1
-5.333092 -25.101826 27.592979 37.681773 1.361451 0.749157 0.082265 -0.016580 -227212.000000 0 0 1
-4.161692 -24.630326 27.024179 36.800529 1.403411 0.746099 0.080252 -0.017826 -943769.000000 0 0 1
-3.098392 -24.757026 27.939879 37.458607 1.446292 0.728931 0.068006 -0.015984 218144.000000 0 0 1
-1.743192 -24.265426 27.387279 36.632126 1.499081 0.726310 0.061519 -0.015899 -445727.000000 0 0 1
-1.949792 -22.884726 27.193879 35.595217 1.485801 0.701344 0.062564 -0.013876 588736.000000 0 0 1
-0.717892 -22.202326 26.915079 34.898140 1.538474 0.689999 0.069461 -0.022226 1117760.000000 0 0 1
0.228308 -21.958726 28.148779 35.701422 -1.560400 0.662512 0.067746 -0.024790 -133504.000000 0 0 1
0.749508 -23.136426 28.672779 36.850838 -1.538412 0.679198 0.072608 -0.018903 -155620.000000 0 0 1
1.797008 -22.751026 29.550879 37.337553 -1.491974 0.657616 0.064212 -0.029122 -287095.000000 0 0 1
2.587908 -23.873426 30.115279 38.517110 -1.462817 0.673141 0.067707 -0.038282 -1079980.000000 0 0 1
3.326908 -24.630626 29.113579 38.279715 -1.436537 0.706639 0.060585 -0.043565 567886.000000 0 0 1
4.063408 -25.633226 29.822879 39.534513 -1.413583 0.716132 0.048732 -0.032210 -184178.000000 0 0 1
5.357908 -25.196926 30.561579 39.970019 -1.361276 0.700356 0.041605 -0.032878 -376111.000000 0 0 1
6.489008 -24.775626 29.836379 39.321094 -1.314639 0.709346 0.044387 -0.029222 156333.000000 0 0 1
7.144408 -25.736626 29.024079 39.443804 -1.300017 0.743899 0.034338 -0.017950 -738467.000000 0 0 1
8.389708 -25.134826 28.392079 38.836283 -1.248636 0.750906 0.022910 -0.012882 -348439.000000 0 0 1
7.958508 -24.161826 27.488679 37.453427 -1.252605 0.746687 0.037640 -0.018944 -170494.000000 0 0 1
9.028808 -23.724826 26.705579 36.845281 -1.207157 0.760048 0.022381 -0.006858 -608001.000000 0 0 1
8.859408 -22.487426 25.857879 35.394962 -1.195498 0.751666 0.039349 -0.011045 -289870.000000 0 0 1
7.971308 -22.799626 24.815179 34.628858 -1.234456 0.771875 0.030928 -0.004919 -54739.500000 0 0 1
7.680008 -21.646726 24.049579 33.255760 -1.229862 0.762415 0.036732 0.005928 121094.000000 0 0 1
6.984008 -21.900626 22.678279 32.291147 -1.262096 0.792164 0.029426 0.009344 3484.010000 0 0 1
7.842208 -22.688726 21.920079 32.507974 -1.238008 0.830782 0.014723 0.019155 18860.900000 0 0 1
7.324708 -22.787526 20.619779 31.592689 -1.259792 0.859686 0.024730 0.017015 201703.000000 0 0 1
8.142808 -23.798226 19.778079 31.997395 -1.241123 0.904453 0.047635 0.003946 1003370.000000 0 0 1
9.415408 -23.273226 19.343679 31.693389 -1.186365 0.914309 0.035516 0.008297 404621.000000 0 0 1
9.907008 -24.178726 18.337579 31.922193 -1.181921 0.958869 0.046533 0.008149 80835.500000 0 0 1
11.224308 -23.603126 17.775079 31.607690 -1.126905 0.973552 0.038804 0.002254 4912.180000 0 0 1
11.121508 -22.511826 16.911779 30.273397 -1.111936 0.978057 0.044006 -0.000414 177120.000000 0 0 1
12.287208 -22.381126 16.099679 30.184267 -1.068722 1.008205 0.044739 -0.008036 222543.000000 0 0 1
-12.637592 22.383395 11.317579 28.085809 -1.056816 1.156043 0.030449 -0.013190 97144.400000 0 0 1
-13.547992 21.299795 11.398179 27.697434 -1.004282 1.146670 0.012433 -0.016043 257221.000000 0 0 1
-13.000792 20.212795 10.641779 26.283552 -0.999219 1.153945 0.043046 -0.020609 506646.000000 0 0 1
-13.889792 19.688395 9.432579 25.875331 -0.956401 1.197658 0.039769 -0.014435 -437548.000000 0 0 1
-14.013892 20.542895 8.336579 26.227814 -0.972132 1.247333 0.042755 -0.013794 327492.000000 0 0 1
-14.831792 20.036495 7.248379 25.961167 -0.933572 1.287835 0.037851 -0.011751 1567000.000000 0 0 1
-16.379192 20.003495 7.580679 26.942242 -0.884687 1.285577 0.021496 -0.005093 320294.000000 0 0 1
-16.814492 19.028695 8.506479 26.780189 -0.847094 1.247556 0.021005 -0.008076 -845189.000000 0 0 1
-18.174992 19.117295 8.730279 27.785231 -0.810661 1.251176 0.031315 -0.005655 -792353.000000 0 0 1
-18.834092 18.084695 9.673179 27.845100 -0.765102 1.216007 0.028949 -0.011015 -89155.000000 0 0 1
-18.879992 16.766395 9.083879 26.834361 -0.726174 1.225456 0.028237 -0.009010 291601.000000 0 0 1
-19.306492 15.691795 9.933879 26.789084 -0.682481 1.190906 0.043448 -0.019297 -396697.000000 0 0 1
-18.194892 15.113395 10.820979 26.010813 -0.693146 1.141734 0.045656 -0.018933 304521.000000 0 0 1
-17.160492 14.341195 10.209779 24.584384 -0.696139 1.142529 0.021272 -0.008002 495896.000000 0 1 0
-16.403892 13.493095 11.050379 23.942894 -0.688343 1.091076 0.030947 -0.017939 272655.000000 0 1 0
-17.229992 12.361395 11.745279 24.241045 -0.622332 1.064982 0.034347 -0.022000 -235785.000000 0 1 0
-18.011492 11.556195 10.913279 24.022055 -0.570448 1.099207 0.017725 -0.021563 8234.590000 0 1 0
-18.818092 10.726295 11.744079 24.639346 -0.518068 1.073969 0.029130 -0.024801 -178054.000000 0 1 0
-19.881392 9.919595 11.002079 24.793424 -0.462798 1.111018 0.026871 -0.025008 -570525.000000 0 1 0
-19.380592 8.814395 10.285479 23.645126 -0.426843 1.120765 0.022940 -0.023806 406873.000000 0 1 0
-18.769292 9.154095 9.002979 22.740655 -0.453773 1.163751 0.024243 -0.020280 -152078.000000 0 1 0
-19.751492 9.465495 7.849079 23.266394 -0.446893 1.226688 0.029486 -0.020348 26382.700000 0 1 0
-20.462892 8.346395 7.310179 23.277263 -0.387281 1.251342 0.031250 -0.021778 157324.000000 0 1 0
-21.242192 8.976095 6.333279 23.914670 -0.399802 1.302771 0.043553 -0.013149 -367175.000000 0 1 0
-21.719892 7.968595 5.258179 23.725527 -0.351633 1.347315 0.063041 -0.012593 -487585.000000 0 1 0
-22.384292 6.913895 5.961479 24.174319 -0.299577 1.321622 0.056226 -0.012385 192206.000000 0 1 0
-21.829492 5.641995 5.600979 23.232085 -0.252923 1.327309 0.037672 -0.001113 -140445.000000 0 1 0
-22.826692 4.458495 5.631879 23.930192 -0.192891 1.333222 0.049722 -0.003291 -578550.000000 0 1 0
-23.835692 4.500995 4.677779 24.703862 -0.186637 1.380292 0.062496 -0.005880 -189744.000000 0 1 0
-24.533092 3.268895 4.623479 25.178062 -0.132464 1.386117 0.076614 -0.010858 168665.000000 0 0 1
-25.621012 3.242595 3.493179 26.060564 -0.125891 1.436351 0.083685 -0.019564 351287.000000 0 0 1
-25.093462 3.165595 2.175879 25.385769 -0.125489 1.484978 0.083533 -0.012826 270620.000000 0 0 1
-26.127902 2.861595 1.278579 26.315219 -0.109088 1.522190 0.089026 -0.017987 -127818.000000 0 0 1
-25.764602 3.150295 -0.195121 25.957217 -0.121668 1.578313 0.100290 -0.015992 -238617.000000 0 0 1
-25.821262 4.514795 -0.569021 26.219167 -0.173098 1.592500 0.104963 -0.014537 306618.000000 0 0 1
-25.692802 4.687395 -1.962721 26.190533 -0.180455 1.645807 0.115734 -0.011066 690.584000 0 0 1
-27.057322 5.005395 -2.610721 27.639980 -0.182924 1.665392 0.112298 -0.019891 -165321.000000 0 0 1
-27.989502 3.975495 -2.563621 28.386421 -0.141091 1.661231 0.095682 -0.019896 236792.000000 0 0 1
-29.303132 4.543995 -2.547821 29.762608 -0.153843 1.656506 0.080180 -0.006467 739934.000000 0 0 1
-30.444312 3.472695 -2.619521 30.753498 -0.113576 1.656078 0.066228 -0.006317 -65241.100000 0 0 1
-30.446482 2.760695 -3.859021 30.813986 -0.090426 1.696362 0.068114 -0.011730 598368.000000 0 0 1
-31.518992 1.809195 -3.891421 31.809797 -0.057337 1.693438 0.085967 -0.022410 494984.000000 0 0 1
-31.784762 1.188195 -5.301221 32.245710 -0.037365 1.735947 0.087076 -0.025926 823718.000000 0 0 1
-30.575322 0.451295 -5.687021 31.102993 -0.014759 1.754676 0.100018 -0.029945 1625860.000000 0 0 1
-30.684122 -0.377605 -6.857221 31.443273 0.012306 1.790645 0.104662 -0.023582 -412272.000000 0 0 1
-30.816672 0.265195 -8.237921 31.899858 -0.008605 1.832000 0.096700 -0.027261 452012.000000 0 0 1
-32.187832 0.573495 -8.530321 33.303930 -0.017815 1.829819 0.081233 -0.024816 983594.000000 0 0 1
-32.438572 1.513695 -9.538721 33.845818 -0.046630 1.856496 0.090797 -0.028929 -546806.000000 0 0 1
-33.898462 1.935695 -9.707921 35.314251 -0.057041 1.849283 0.115186 -0.033106 -165029.000000 0 0 1
-34.337469 2.663595 -8.514021 35.477388 -0.077416 1.813146 0.091503 -0.031522 124377.000000 0 0 1
-35.733220 2.776195 -8.416421 36.815844 -0.077537 1.801445 0.098339 -0.032816 -290305.000000 0 0 1
35.590705 3.614395 -7.255721 36.502159 0.101207 1.770904 0.111815 -0.030516 -283092.000000 0 0 1
34.210315 3.449495 -7.046521 35.098406 0.100492 1.772935 0.110392 -0.032662 5644.300000 0 0 1
33.860105 4.172195 -5.902221 34.622971 0.122601 1.742104 0.111807 -0.036877 -438165.000000 0 0 1
32.378415 4.020595 -5.539521 33.094006 0.123543 1.738975 0.102141 -0.036991 -241886.000000 0 0 1
32.187465 2.954395 -4.628921 32.652538 0.091531 1.713038 0.110551 -0.037591 -577985.000000 0 0 1
30.975805 2.318495 -4.825821 31.435083 0.074709 1.724923 0.117022 -0.033886 -698789.000000 0 0 1
30.890265 1.003195 -4.000521 31.164387 0.032465 1.699520 0.120525 -0.018014 1828.350000 0 0 1
31.799935 0.063295 -4.555521 32.124642 0.001990 1.713084 0.104209 -0.029019 317347.000000 0 0 1
31.664345 -1.207805 -3.881621 31.924231 -0.038126 1.692686 0.100056 -0.022725 -693736.000000 0 0 1
32.929665 -2.031705 -3.944121 33.227199 -0.061620 1.689778 0.093160 -0.031327 -534558.000000 0 0 1
32.829785 -3.296205 -3.283421 33.157814 -0.100068 1.669983 0.075210 -0.019957 -407929.000000 0 0 1
34.000595 -4.018205 -3.507721 34.416428 -0.117635 1.672894 0.091184 -0.029846 -399711.000000 0 0 1
33.939005 -5.518805 -3.221821 34.535394 -0.161199 1.664223 0.085090 -0.027747 -70831.400000 0 0 1
34.061755 -5.807205 -1.809921 34.600616 -0.168867 1.623129 0.089341 -0.021871 -8581.800000 0 0 1
34.107925 -7.150805 -1.454921 34.879813 -0.206659 1.612521 0.096884 -0.030605 -325475.000000 0 0 1
33.633655 -7.535805 -0.092621 34.467662 -0.220415 1.573484 0.080748 -0.020574 -21124.100000 0 0 1
32.257535 -7.249305 0.140379 33.062376 -0.221059 1.566550 0.074823 -0.027730 437184.000000 0 0 1
31.743935 -7.484105 1.462479 32.647023 -0.231537 1.525985 0.065956 -0.016928 -235494.000000 0 0 1
31.493735 -8.993905 1.667379 32.795211 -0.278173 1.519932 0.087463 -0.021973 325225.000000 0 0 1
30.265645 -9.528505 1.131879 31.750320 -0.305005 1.535139 0.090537 -0.032315 1463380.000000 0 0 1
29.115255 -9.334805 1.973979 30.638754 -0.310261 1.506324 0.082245 -0.034600 485257.000000 0 0 1
28.059995 -10.519505 1.862379 30.024853 -0.358677 1.508729 0.081489 -0.031144 1346500.000000 0 0 1
26.762215 -10.321105 2.495279 28.791801 -0.368083 1.484021 0.098345 -0.033790 2525650.000000 0 0 1
25.837915 -9.378805 1.827379 27.548124 -0.348197 1.504414 0.096141 -0.033063 483340.000000 0 0 1
25.201915 -9.741105 0.499579 27.023605 -0.368834 1.552308 0.080104 -0.028559 -565360.000000 0 0 1
26.202915 -9.791705 -0.518121 27.977468 -0.357620 1.589317 0.087703 -0.034746 654832.000000 0 0 1
25.683015 -9.966905 -1.803021 27.608103 -0.370183 1.636150 0.082983 -0.022262 82694.000000 0 0 1
24.948015 -11.304405 -2.230121 27.480292 -0.425444 1.652039 0.076056 -0.015638 116229.000000 0 0 1
23.670515 -11.469305 -1.675321 26.356118 -0.451203 1.634404 0.057062 -0.002854 39856.800000 0 0 1
23.040215 -12.717105 -1.932621 26.387711 -0.504341 1.644101 0.042581 0.003509 -246626.000000 0 0 1
21.566615 -12.711305 -1.510121 25.079407 -0.532587 1.631046 0.036683 -0.000954 120499.000000 0 0 1
20.668015 -12.253505 -2.553421 24.162682 -0.535162 1.676670 0.035406 0.000229 378797.000000 0 1 0
19.338215 -12.561305 -2.216421 23.166041 -0.576065 1.666618 0.037902 -0.002964 -125984.000000 0 1 0
18.349915 -12.169805 -3.342621 22.270982 -0.585604 1.721454 0.030372 0.007883 -81667.300000 0 1 0
18.566215 -12.911205 -4.533921 23.064258 -0.607641 1.768663 0.038601 0.003824 337387.000000 0 1 0
17.851215 -12.364805 -5.620821 22.430959 -0.605782 1.824079 0.042795 0.006415 -217341.000000 0 1 0
17.991715 -13.149105 -6.922421 23.334967 -0.631127 1.871984 0.035944 0.004904 -79808.500000 0 1 0
16.946815 -14.114205 -6.970021 23.129776 -0.694455 1.876898 0.036584 -0.001223 710203.000000 0 1 0
17.068615 -14.796705 -8.237621 24.044511 -0.714221 1.920478 0.044500 -0.004573 -3796.260000 0 1 0
16.059915 -15.961505 -8.447821 24.167255 -0.782325 1.927894 0.049750 -0.006830 196624.000000 0 1 0
14.708015 -15.507205 -8.489621 22.997234 -0.811842 1.948900 0.056722 -0.004275 805339.000000 0 1 0
13.836015 -16.375505 -9.209521 23.332547 -0.869258 1.976545 0.054131 -0.004892 -1593.480000 0 1 0
13.902815 -16.189105 -10.786121 23.910579 -0.861229 2.038797 0.060016 -0.010947 -701243.000000 0 1 0
13.257615 -15.068105 -11.381621 23.072786 -0.849228 2.086667 0.059650 -0.010982 223272.000000 0 1 0
13.485515 -13.761205 -10.873321 22.123720 -0.795516 2.084582 0.051468 -0.005602 -246485.000000 0 1 0
13.492215 -12.711405 -11.990721 22.077071 -0.755609 2.144957 0.062057 -0.010170 270893.000000 0 1 0
14.685515 -12.583405 -12.758421 23.168594 -0.708462 2.153972 0.069811 -0.017781 496480.000000 0 1 0
14.330015 -12.299205 -14.098621 23.566733 -0.709283 2.212102 0.076953 -0.014364 -237618.000000 0 1 0
15.613315 -12.044905 -14.881321 24.704434 -0.657089 2.217269 0.070839 -0.023563 174562.000000 0 1 0
16.330515 -13.192505 -15.405021 26.039251 -0.679505 2.203848 0.074376 -0.022843 -391696.000000 0 0 1
17.373715 -12.760705 -16.189721 26.959018 -0.633496 2.214961 0.075793 -0.023608 -866410.000000 0 0 1
18.430715 -13.870605 -16.380021 28.291165 -0.645151 2.188274 0.073478 -0.023701 -457725.000000 0 0 1
19.297115 -13.926305 -15.285721 28.283810 -0.625127 2.141757 0.064475 -0.030661 305418.000000 0 0 1
20.394415 -14.835405 -15.458821 29.580341 -0.628896 2.120699 0.055403 -0.025247 -52791.200000 0 0 1
21.370715 -14.719605 -14.329521 29.643033 -0.603152 2.075334 0.043914 -0.028109 -778871.000000 0 0 1
22.091515 -13.533505 -14.308521 29.596023 -0.549641 2.075400 0.041288 -0.026474 -28289.900000 0 0 1
23.076015 -13.512205 -13.280521 29.857234 -0.529728 2.031748 0.044919 -0.023476 214154.000000 0 0 1
23.741015 -12.148805 -13.243021 29.775944 -0.472981 2.031698 0.068114 -0.023960 -293328.000000 0 0 1
22.871215 -11.147905 -12.713721 28.443048 -0.453534 2.034192 0.041596 -0.016265 422745.000000 0 0 1
23.351915 -9.809205 -12.837721 28.396118 -0.397679 2.039908 0.054768 -0.019699 158277.000000 0 0 1
24.535215 -9.325905 -11.954221 28.841856 -0.363237 1.998162 0.065298 -0.020969 -176888.000000 0 0 1
25.722615 -10.009505 -12.195221 30.175595 -0.371103 1.986837 0.066039 -0.020179 -79024.900000 0 0 1
26.704415 -9.665705 -11.210921 30.532546 -0.347282 1.946771 0.059592 -0.019073 171116.000000 0 0 1
28.021185 -10.480405 -11.333321 31.991716 -0.357909 1.932917 0.067795 -0.021507 -376684.000000 0 0 1
28.780585 -9.970005 -12.355221 32.869052 -0.333477 1.956156 0.051323 -0.020014 -239852.000000 0 0 1
29.918505 -10.823605 -12.541421 34.198752 -0.347121 1.946279 0.042247 -0.020279 -173680.000000 0 0 1
30.738895 -10.301105 -13.698621 35.194384 -0.323354 1.970589 0.030894 -0.021259 -787012.000000 0 0 1
30.186115 -10.516005 -14.968521 35.296523 -0.335224 2.008741 0.034452 -0.020700 34507.300000 0 0 1
31.129045 -10.357005 -16.005421 36.502856 -0.321191 2.024692 0.034557 -0.024537 -596300.000000 0 0 1
30.796275 -11.090405 -17.350821 37.046709 -0.345663 2.058219 0.010381 -0.007138 -385792.000000 0 0 1
29.687255 -10.782205 -18.162521 36.434410 -0.348379 2.092663 0.024634 -0.010500 137501.000000 0 0 1
29.672625 -9.467605 -18.760421 36.360055 -0.308858 2.112927 0.028446 -0.006587 -182113.000000 0 0 1
28.220045 -9.117105 -19.179221 35.317631 -0.312487 2.144861 -0.005858 -0.013902 339790.000000 0 0 1
27.801675 -9.514405 -20.484121 35.819774 -0.329731 2.179575 -0.000727 -0.006288 -37484.400000 0 0 1
26.416315 -9.373805 -20.641121 34.810139 -0.340988 2.205530 0.053028 -0.006333 -177790.000000 0 0 1
25.854615 -9.872905 -21.995621 35.351700 -0.364773 2.242339 0.076339 -0.015417 -125699.000000 0 0 1
25.717515 -11.253105 -22.246121 35.817773 -0.412466 2.240931 0.065490 -0.014892 47036.900000 0 0 1
24.938315 -11.518005 -23.377521 36.070659 -0.432673 2.275888 0.073517 -0.021004 -551479.000000 0 0 1
24.975715 -13.004805 -23.894521 36.930467 -0.480069 2.274458 0.062914 -0.009875 1096950.000000 0 0 1
26.208415 -13.375405 -24.554521 38.323713 -0.471891 2.266224 0.051850 -0.005151 1093120.000000 0 0 1
27.307205 -13.612805 -23.671421 38.617717 -0.462452 2.230608 0.030741 0.004713 520580.000000 0 0 1
28.578435 -14.211805 -24.353521 40.147183 -0.461478 2.222581 0.016688 0.014252 945532.000000 0 0 1
29.248235 -13.344205 -25.340811 40.935116 -0.428031 2.238327 0.013110 0.000754 136628.000000 0 0 1
30.531365 -13.781005 -25.670471 42.202529 -0.423994 2.224674 -0.010841 0.011748 -198443.000000 0 0 1
31.114685 -13.235205 -26.982891 43.259342 -0.402183 2.244324 0.002817 0.011174 83965.100000 0 0 1
30.707415 -14.051105 -28.033211 43.888948 -0.429140 2.263644 0.005142 -0.000349 197675.000000 0 0 1
31.276285 -13.567605 -29.224391 44.903796 -0.409299 2.279463 0.003718 0.001535 89715.200000 0 0 1
31.056055 -14.540105 -30.397101 45.824414 -0.437877 2.296068 0.010520 -0.011704 17123.700000 0 0 1
31.753285 -15.753905 -30.218721 46.579263 -0.460551 2.276749 0.012085 0.000742 -202370.000000 0 0 1
31.978255 -16.472005 -31.431551 47.769008 -0.475655 2.288943 -0.006510 0.000204 202589.000000 0 0 1
30.779705 -17.075305 -32.232571 47.727297 -0.506489 2.312234 -0.003599 0.001906 570159.000000 0 0 1
29.985265 -16.109405 -32.918741 47.352640 -0.492997 2.339470 0.014050 -0.010556 -278346.000000 0 0 1
28.934605 -16.692505 -33.614701 47.389864 -0.523264 2.359333 0.009520 -0.004949 86731.000000 0 0 1
28.183895 -15.736205 33.980183 46.868038 -0.509224 0.759735 0.024413 -0.000732 770781.000000 0 0 1
27.372505 -14.654205 -34.131198 46.140421 -0.491536 2.403457 0.034254 -0.009738 861223.000000 0 0 1
28.192045 -13.494805 -33.966721 46.158848 -0.446442 2.397741 0.040198 -0.010136 19749.300000 0 0 1
27.483785 -12.297705 -33.235521 44.846313 -0.420734 2.405501 0.054725 -0.011771 970599.000000 0 0 1
26.384915 -11.738005 -34.000631 44.609275 -0.418584 2.437482 0.070180 -0.011221 591267.000000 0 0 1
25.826615 -10.606805 -33.394191 43.528041 -0.389690 2.445242 0.057049 -0.021952 -71974.600000 0 0 1
20.650808 -29.887526 9.208679 37.476924 -0.966170 1.322538 0.049934 -0.016387 -358930.000000 0 0 1
21.259308 -29.363426 8.108879 37.147313 -0.944140 1.350735 0.059048 -0.015304 22537.900000 0 0 1
22.423508 -30.075626 7.726879 38.302241 -0.930136 1.367668 0.063065 -0.017778 152708.000000 0 0 1
22.899708 -29.659726 6.345679 38.004784 -0.913313 1.403040 0.059026 -0.017791 -126653.000000 0 0 1
23.236308 -28.275126 6.117779 37.105741 -0.882907 1.405166 0.049439 -0.009600 356124.000000 0 0 1
23.939808 -28.119726 4.887779 37.252165 -0.865517 1.439209 0.044127 -0.006539 27009.600000 0 0 1
23.986508 -26.625426 4.429079 36.109315 -0.837491 1.447829 0.041134 -0.005910 223158.000000 0 0 1
24.881708 -25.888826 5.256279 36.289932 -0.805232 1.425444 0.040858 -0.007108 303933.000000 0 0 1
24.832708 -24.525926 4.888079 35.243124 -0.779183 1.431652 0.032484 -0.001054 123095.000000 0 0 1
25.659808 -23.599126 5.825679 35.345198 -0.743589 1.405218 0.024952 -0.000401 139898.000000 0 0 1
27.054208 -23.630826 5.612779 36.357247 -0.717958 1.415798 0.023531 -0.003150 475972.000000 0 0 1
27.886808 -22.665626 6.341879 36.491425 -0.682481 1.396118 0.022230 -0.009082 232952.000000 0 0 1
27.571608 -21.150126 6.460179 35.344806 -0.654354 1.386987 0.022699 0.002160 -771137.000000 0 0 1
27.599808 -20.439526 5.228879 34.739960 -0.637437 1.419707 0.018291 0.016913 31702.400000 0 0 1
27.283608 -19.126026 5.538679 33.776872 -0.611402 1.406074 0.034507 0.014632 -388446.000000 0 0 1
27.118608 -18.313026 4.262179 32.999273 -0.593951 1.441275 0.032422 0.022773 58198.100000 0 0 1
28.364708 -17.855626 3.777179 33.729025 -0.561830 1.458575 0.050162 0.023327 100547.000000 0 0 1
28.307708 -17.141526 2.541679 33.190637 -0.544485 1.494143 0.040684 0.029193 -14276.500000 0 0 1
29.405608 -16.077626 2.440179 33.602594 -0.500347 1.498114 0.055235 0.007771 -11736.800000 0 0 1
29.078108 -15.031126 3.323179 32.901590 -0.477094 1.469620 0.058119 -0.001578 44202.200000 0 0 1
30.149708 -14.166226 3.627479 33.508886 -0.439248 1.462330 0.079519 -0.010571 3381.860000 0 0 1
29.818108 -13.052926 4.670379 32.883292 -0.412622 1.428285 0.086242 -0.018451 45576.900000 0 0 1
29.654608 -13.615226 5.929679 33.165212 -0.430418 1.391038 0.073473 -0.013611 105164.000000 0 0 1
29.271708 -12.545326 6.816179 32.568058 -0.404901 1.359947 0.064146 -0.020982 -502062.000000 0 0 1
28.864808 -13.015226 8.236479 32.717164 -0.423605 1.316310 0.061696 -0.007830 -540262.000000 0 0 1
27.535808 -13.474426 8.274579 31.752946 -0.455085 1.307160 0.041565 -0.001330 178338.000000 0 0 1
26.820908 -13.362526 9.548179 31.449737 -0.462217 1.262326 0.035928 -0.004172 291552.000000 0 0 1
27.148708 -14.376326 10.721279 32.537316 -0.486999 1.235015 0.042368 -0.002979 794904.000000 0 0 1
28.456508 -14.182126 11.316779 33.748704 -0.462350 1.228846 0.055248 -0.004398 990967.000000 0 0 1
28.789108 -15.458426 11.854279 34.760604 -0.492772 1.222788 0.045393 -0.005751 432862.000000 0 0 1
29.636208 -15.493826 13.190079 35.949154 -0.481721 1.195112 0.052920 -0.007429 -68341.200000 0 0 1
30.996108 -15.232426 13.135779 36.950429 -0.456768 1.207350 0.071529 -0.010276 -492244.000000 0 0 1
31.741708 -15.541126 14.314679 38.130994 -0.455303 1.185959 0.086419 -0.012176 314855.000000 0 0 1
33.240808 -15.269726 14.089879 39.200007 -0.430616 1.203133 0.071596 -0.017488 -177291.000000 0 0 1
33.739608 -13.961926 14.076879 39.133810 -0.392358 1.202838 0.070187 -0.017371 -258902.000000 0 0 1
35.073408 -13.908826 13.652479 40.124676 -0.377540 1.223612 0.068575 -0.022747 -406397.000000 0 0 1
35.672008 -12.487226 13.849179 40.251991 -0.336725 1.219557 0.056010 -0.020222 146845.000000 0 0 1
-35.230199 -12.264426 12.805079 39.440501 0.335001 1.240135 0.064057 -0.022478 863149.000000 0 0 1
-34.497999 -11.050626 12.912479 38.457254 0.309999 1.228382 0.059115 -0.016274 180371.000000 0 0 1
-33.471199 -10.858626 11.764379 37.102985 0.313705 1.248154 0.061043 -0.013149 988046.000000 0 0 1
-32.274599 -11.665726 11.791679 36.287499 0.346841 1.239836 0.035709 -0.010595 856072.000000 0 0 1
-32.380499 -12.963626 11.254279 36.649845 0.380811 1.258678 0.030764 -0.015086 -685685.000000 0 0 1
-31.434699 -13.991226 11.864179 36.395789 0.418762 1.238752 0.016647 -0.010030 1254100.000000 0 0 1
-30.100099 -13.838026 11.293379 35.000676 0.430919 1.242256 0.030559 -0.008181 503367.000000 0 0 1
-29.237099 -14.883826 11.572279 34.788703 0.470880 1.231690 0.018005 -0.002392 -165486.000000 0 0 1
-27.801299 -14.535626 11.103679 33.278947 0.481752 1.230618 0.039941 -0.007992 69953.500000 0 0 1
-27.575899 -14.657326 9.695279 32.699631 0.488550 1.269776 0.022238 0.001780 -427370.000000 0 0 1
-26.212699 -14.691326 9.403179 31.485877 0.510843 1.267521 0.026202 0.005665 -360280.000000 0 0 1
-25.993299 -14.471026 7.868579 30.772987 0.507989 1.312227 0.046575 0.008956 98916.900000 0 0 1
-26.365599 -15.586926 7.070979 31.433991 0.533912 1.343908 0.043743 0.009975 155262.000000 0 0 1
-26.128299 -15.190326 5.733579 30.762119 0.526612 1.383316 0.045962 0.012276 -313309.000000 0 0 1
-26.358399 -16.307226 4.691479 31.348059 0.554037 1.420574 0.040230 0.007813 -295373.000000 0 0 1
-27.720799 -16.629926 4.550479 32.645122 0.540352 1.430949 0.035179 -0.000880 -195116.000000 0 0 1
-27.911399 -17.470326 3.420979 33.105310 0.559261 1.467275 0.047524 -0.005093 -49843.800000 0 0 1
-29.283399 -18.161326 3.430479 34.628303 0.555134 1.471568 0.049062 -0.009112 -437604.000000 0 0 1
-30.358499 -17.370026 3.041879 35.108536 0.519700 1.484045 0.059619 -0.008114 235280.000000 0 0 1
-31.611499 -17.984726 3.403979 36.528404 0.517260 1.477474 0.062329 -0.011613 802980.000000 0 0 1
-32.825599 -17.150426 2.927179 37.151385 0.481462 1.491924 0.074770 -0.014699 70625.200000 0 0 1
-33.025299 -17.289626 1.561279 37.310041 0.482291 1.528938 0.075277 -0.009071 -108154.000000 0 0 1
-34.017799 -16.398026 1.089679 37.779535 0.449179 1.541949 0.088938 -0.011729 -78.879600 0 0 1
-34.719799 -16.761526 -0.219821 38.554656 0.449765 1.576498 0.074780 -0.008484 -356519.000000 0 0 1
-33.896499 -16.736026 -1.354121 37.827250 0.458626 1.606601 0.088878 -0.007584 156415.000000 0 0 1
-34.385299 -17.692926 -2.316621 38.739581 0.475219 1.630632 0.076026 -0.004003 89989.000000 0 0 1
-33.275699 -18.123926 -3.307621 38.035367 0.498734 1.657868 0.064301 -0.009074 92093.800000 0 0 1
-33.662199 -19.191326 -4.102221 38.965098 0.518155 1.676271 0.056820 -0.013394 -680659.000000 0 0 1
-32.594699 -19.713826 -4.794921 38.393236 0.543954 1.696013 0.052837 -0.013965 -846992.000000 0 0 1
-32.972599 -20.820926 -5.796721 39.424678 0.563232 1.718364 0.061464 -0.015416 -325994.000000 0 0 1
-33.387599 -22.031126 -5.179021 40.335152 0.583275 1.699551 0.070922 -0.017601 115953.000000 0 0 1
-33.735899 -23.084526 -6.042621 41.322143 0.600092 1.717555 0.052840 -0.012622 -108123.000000 0 0 1
-34.265899 -24.392326 -5.455921 42.413494 0.618638 1.699790 0.046016 -0.014843 117257.000000 0 0 1
-33.223699 -25.218426 -4.937721 42.001955 0.649268 1.688628 0.049455 -0.012039 67326.600000 0 0 1
-33.685499 -26.503326 -4.526021 43.100162 0.666632 1.676002 0.041851 -0.013065 174012.000000 0 0 1
-32.551999 -27.449326 -4.081821 42.775687 0.700560 1.666366 0.027847 -0.009671 -498321.000000 0 0 1
-31.595799 -27.886626 -5.050321 42.443659 0.723121 1.690068 0.034579 -0.007627 526284.000000 0 0 1
-30.818899 -28.995826 -4.647221 42.569462 0.754929 1.680182 0.009448 0.002046 54239.100000 0 0 1
-29.840099 -28.846226 -3.493721 41.650238 0.768464 1.654777 0.000942 0.000123 -984728.000000 0 0 1
-30.567099 -28.829026 -2.288221 42.079641 0.756144 1.625201 0.003966 0.000409 163525.000000 0 0 1
-29.633299 -28.538126 -1.305521 41.161407 0.766574 1.602519 0.009629 -0.003038 -644487.000000 0 0 1
-30.323999 -28.286026 0.029979 41.468603 0.750640 1.570073 0.021114 -0.005314 -121235.000000 0 0 1
-30.854599 -29.477626 0.516579 42.675562 0.762579 1.558691 0.011272 0.001271 -254631.000000 0 0 1
-31.576799 -29.186126 1.698279 43.032643 0.746074 1.531321 0.021516 -0.000442 -365642.000000 0 0 1
-32.130899 -30.508126 2.176279 44.360755 0.759497 1.521718 0.015458 0.004600 -575459.000000 0 0 1
-33.020799 -30.417126 3.278779 45.014721 0.744378 1.497894 0.020108 0.008896 178290.000000 0 0 1
-33.548499 -31.622226 3.727279 46.253211 0.755849 1.490125 0.016905 0.013578 431967.000000 0 0 1
-34.722999 -32.273926 2.901979 47.494362 0.748859 1.509657 0.004069 0.017562 354616.000000 0 0 1
-35.394099 -33.388326 3.453879 48.779625 0.756245 1.499931 0.014528 0.014604 48336.300000 0 0 1
35.460108 -33.845826 2.626379 49.090295 -0.762110 1.517270 0.009943 0.014113 -931074.000000 0 0 1
34.273208 34.075895 3.219479 48.437428 0.782511 1.504281 0.022572 0.004728 -457160.000000 0 0 1
33.456108 -33.908226 4.101079 47.811064 -0.792110 1.484914 0.017089 0.004699 402523.000000 0 0 1
32.755508 -32.728326 3.608679 46.444474 -0.784983 1.493019 0.009136 0.012646 70167.700000 0 0 1
31.774508 -32.904126 2.377079 45.803399 -0.802861 1.518876 0.031293 -0.001147 -629241.000000 0 0 1
32.365108 -33.381326 1.196579 46.510697 -0.800854 1.545067 0.035920 -0.001703 -485492.000000 0 0 1
31.570808 -33.208526 0.024679 45.820549 -0.810674 1.570258 0.045547 -0.004269 -700443.000000 0 0 1
32.049608 -34.074026 -1.203221 46.793850 -0.816004 1.596512 0.046476 -0.015056 1613020.000000 0 0 1
33.271108 -33.620426 -1.885021 47.337649 -0.790620 1.610628 0.032179 -0.005257 2274140.000000 0 0 1
34.472108 -33.693426 -1.045421 48.214791 -0.773975 1.592481 0.022474 0.009103 523167.000000 0 0 1
35.773108 -33.506226 -1.875721 49.049982 -0.752689 1.609047 0.021526 0.002693 -110294.000000 0 0 1
-35.776599 34.093095 -2.704321 49.493610 -0.761308 1.625463 0.011475 -0.003427 562654.000000 0 0 1
-34.826299 -34.116926 -3.671921 48.890886 0.775109 1.645972 0.012269 -0.000518 -162250.000000 0 0 1
-34.211799 33.458295 -4.506421 48.064670 -0.774264 1.664692 0.018768 -0.005569 -278433.000000 0 0 1
-33.211199 32.720195 -3.861221 46.781448 -0.777951 1.653428 0.016946 -0.001129 -191947.000000 0 0 1
-32.755299 31.618395 -4.602521 45.758231 -0.767739 1.671550 0.026769 -0.008449 146132.000000 0 0 1
-31.584199 30.915695 -3.859921 44.364860 -0.774702 1.657910 0.026724 -0.011788 -311539.000000 0 0 1
-30.384499 31.623495 -3.944421 44.032052 -0.805377 1.660497 0.014829 -0.006905 606832.000000 0 0 1
-29.176599 31.025795 -3.385521 42.723946 -0.816105 1.650121 0.019686 -0.023248 1533660.000000 0 0 1
-29.065099 30.931395 -1.823221 42.483588 -0.816495 1.613725 0.022414 -0.011288 -194242.000000 0 0 1
-30.117799 30.144395 -1.298521 42.631590 -0.785839 1.601260 0.032026 -0.010218 -124838.000000 0 0 1
-29.978299 30.010595 0.077279 42.418630 -0.785937 1.568974 0.029072 -0.007855 -486519.000000 0 0 1
-31.248799 29.487495 0.729679 42.971295 -0.756407 1.553815 0.028005 -0.004383 -352077.000000 0 0 1
-31.769099 28.190995 0.386579 42.475372 -0.725794 1.561695 0.046823 -0.015388 426178.000000 0 0 1
-32.554899 28.123995 -0.806721 43.028262 -0.712505 1.589546 0.051938 -0.014630 -7398.450000 0 0 1
-32.808899 26.691295 -1.212921 42.312176 -0.682942 1.599466 0.053421 -0.016448 460890.000000 0 0 1
-33.552399 25.908795 -0.238021 42.392048 -0.657552 1.576411 0.060713 -0.015400 395517.000000 0 0 1
-33.975399 24.656395 -0.808621 41.987134 -0.627775 1.590056 0.071727 -0.014905 -22953.700000 0 0 1
-33.985699 23.568995 0.343579 41.359924 -0.606348 1.562489 0.078047 -0.020616 195674.000000 0 0 1
-32.721399 23.117095 0.787079 40.071305 -0.615063 1.551153 0.089570 -0.029391 300819.000000 0 0 1
-32.152199 23.828095 1.897079 40.064210 -0.637783 1.523428 0.080446 -0.030809 -1221600.000000 0 0 1
-30.704299 23.433395 2.226279 38.688942 -0.651893 1.513221 0.077404 -0.040794 -547834.000000 0 0 1
-29.799299 24.159695 1.460679 38.390398 -0.681260 1.532739 0.081929 -0.035526 -389796.000000 0 0 1
-29.478799 25.392295 2.024179 38.959793 -0.711061 1.518817 0.050026 -0.027282 -848053.000000 0 0 1
-28.872999 26.378395 0.971979 39.120513 -0.740279 1.545948 0.048382 -0.025252 468653.000000 0 0 1
-27.551899 26.064895 0.572079 37.931690 -0.757671 1.555714 0.060371 -0.032047 90235.600000 0 0 1
-27.038499 26.972495 -0.448121 38.194197 -0.784176 1.582529 0.064737 -0.031628 45900.900000 0 0 1
-25.748799 26.496295 -1.117821 36.963547 -0.799705 1.601042 0.065279 -0.035436 -684833.000000 0 0 1
-25.947699 25.527795 -2.093221 36.460018 -0.777241 1.628239 0.085781 -0.045135 -102453.000000 0 0 1
-24.819899 24.996695 -2.789821 35.336174 -0.788947 1.649829 0.074136 -0.037658 -19058.500000 0 0 1
-23.922499 24.103095 -1.974721 34.016829 -0.789159 1.628880 0.056011 -0.033376 -493923.000000 0 0 1
-24.453799 22.855695 -1.676521 33.513904 -0.751631 1.620842 0.047305 -0.034242 767168.000000 0 0 1
-23.410399 22.048695 -1.015921 32.174894 -0.755453 1.602377 0.046512 -0.035795 383337.000000 0 0 1
-23.859799 20.613395 -0.523521 31.535315 -0.712531 1.587398 0.042534 -0.026730 -313543.000000 0 0 1
-24.733699 20.562495 0.620479 32.170748 -0.693570 1.551508 0.048236 -0.032431 732924.000000 0 0 1
-26.013699 21.167995 0.542079 33.542367 -0.683054 1.554635 0.030614 -0.031339 253217.000000 0 0 1
-26.980999 20.757095 -0.614821 34.047163 -0.655753 1.588855 0.039364 -0.038063 -689292.000000 0 0 1
-27.305199 19.359195 -0.553621 33.476242 -0.616736 1.587335 0.031035 -0.029095 -351468.000000 0 0 1
-28.229099 19.032895 -1.524221 34.080146 -0.593220 1.615536 0.049501 -0.024632 -491325.000000 0 0 1
-28.575399 17.532295 -1.500121 33.558682 -0.550320 1.615513 0.019202 -0.006030 -218889.000000 0 0 1
-29.578399 17.245795 -0.565521 34.243524 -0.527866 1.587312 0.042329 -0.014557 219389.000000 0 0 1
-30.109799 15.931295 -0.473221 34.068021 -0.486661 1.584687 0.044261 -0.018514 -141205.000000 0 0 1
-29.153399 14.869595 0.104879 32.726694 -0.471653 1.567592 0.064137 -0.015518 -525393.000000 0 0 1
-28.904199 15.181995 1.466479 32.681742 -0.483645 1.525910 0.070087 -0.015011 1180880.000000 0 0 1
-27.560499 14.926095 1.948879 31.403304 -0.496352 1.508697 0.081508 -0.018227 1082210.000000 0 0 1
-27.122699 13.406395 2.089979 30.327219 -0.459067 1.501827 0.093656 -0.017266 -298638.000000 0 0 1
-26.957499 12.724195 0.864179 29.822117 -0.441006 1.541814 0.082264 -0.021136 208422.000000 0 0 1
-26.530899 11.370295 0.988579 28.881646 -0.404889 1.536561 0.113266 -0.016095 -18733.700000 0 0 1
-26.323999 10.663895 -0.361221 28.404261 -0.384897 1.583514 0.100619 -0.009558 555406.000000 0 0 1
-27.557999 10.303895 -1.009521 29.438626 -0.357805 1.605095 0.088040 -0.006220 926844.000000 0 0 1
-27.296599 9.543495 -2.244221 29.003778 -0.336338 1.648251 0.087576 -0.013074 105731.000000 0 0 1
-28.599399 8.935295 -2.803121 30.093564 -0.302821 1.664078 0.083994 -0.014448 519.457000 0 0 1
-28.434799 8.298095 -4.062621 29.898178 -0.283944 1.707100 0.085732 -0.015772 -425275.000000 0 0 1
-29.670599 7.980295 -4.598221 31.067236 -0.262745 1.719351 0.077263 -0.020353 -615166.000000 0 0 1
-11.075292 17.964195 -19.496321 28.731183 -1.018318 2.316620 0.067806 -0.013640 139501.000000 0 0 1
-11.420992 17.110895 -20.548821 29.077066 -0.982238 2.355622 0.059201 -0.007851 -758493.000000 0 0 1
-10.544792 17.254395 -21.585621 29.577792 -1.022228 2.388813 0.053160 -0.002466 -582595.000000 0 0 1
-10.734592 16.166595 -22.680121 29.849256 -0.984643 2.433836 0.051349 0.002831 -56190.900000 0 0 1
-10.435392 14.811295 -22.337121 28.761412 -0.957019 2.460103 0.053443 -0.004149 -109811.000000 0 0 1
-10.429792 13.991695 -23.484721 29.258848 -0.930228 2.502527 0.040689 -0.005208 166533.000000 0 0 1
-9.576192 12.688495 -23.415721 28.301896 -0.924285 2.545179 0.029950 0.002011 1188310.000000 0 0 1
-8.141792 12.810295 -23.501621 27.977108 -1.004635 2.568136 0.029520 -0.004762 1100040.000000 0 0 1
-7.545392 11.820395 -22.614121 26.609267 -1.002664 2.586514 0.028977 -0.003054 400096.000000 0 0 1
-6.007092 11.872595 -22.607921 26.232837 -1.102390 2.609639 0.024324 -0.005350 570331.000000 0 0 1
-5.250292 11.352195 -23.745221 26.837909 -1.137603 2.656784 0.025275 -0.009451 -799738.000000 0 0 1
-3.903792 11.587195 -23.551721 26.536507 -1.245834 2.662734 0.029602 -0.004771 -838767.000000 0 0 1
-3.050992 11.177195 -24.757021 27.334014 -1.304322 2.703877 0.044780 -0.017966 -198485.000000 0 0 1
-2.968092 9.757995 -24.803221 26.818422 -1.275518 2.751457 0.038880 -0.020109 -131623.000000 0 0 1
-2.551692 9.285995 -26.053631 27.776474 -1.302626 2.787538 0.042174 -0.025626 -286711.000000 0 0 1
-2.250992 7.808395 -25.934451 27.177817 -1.290128 2.837940 0.044359 -0.020598 111801.000000 0 0 1
-0.900092 7.419095 -25.657851 26.724117 -1.450065 2.858159 0.049508 -0.010932 663965.000000 0 0 1
-0.901092 6.177895 -24.966821 25.735588 -1.425960 2.896555 0.053333 -0.014566 374543.000000 0 0 1
0.562708 5.694995 -24.729921 25.383431 1.472309 2.914186 0.027458 -0.008869 690584.000000 0 0 1
1.192508 6.329795 -23.603321 24.466408 1.384583 2.875188 0.028996 -0.011772 158233.000000 0 1 0
1.921708 5.375195 -22.846321 23.548674 1.227443 2.896746 0.027995 -0.011661 46774.200000 0 1 0
2.189908 5.924395 -21.401221 22.313816 1.216731 2.854608 0.028030 -0.016941 737484.000000 0 1 0
3.042208 7.085195 -21.265321 22.620099 1.165226 2.793741 0.032375 -0.017805 404565.000000 0 1 0
2.325608 8.144295 -20.624621 22.296030 1.292648 2.751925 0.011957 -0.011491 18240.400000 0 1 0
3.148708 9.415095 -20.537221 22.810870 1.248057 2.691314 0.017600 -0.015978 -982922.000000 0 1 0
2.510308 10.475095 -19.846121 22.580916 1.335587 2.644325 0.023878 -0.011377 -105557.000000 0 1 0
3.176908 11.727795 -19.630621 23.086688 1.306258 2.587352 0.027799 -0.015928 -29137.900000 0 1 0
4.425808 11.672895 -18.721121 22.501658 1.208390 2.553479 0.032294 -0.021800 408868.000000 0 1 0
5.585408 11.055095 -19.245321 22.886552 1.102970 2.569742 0.038269 -0.013818 37828.300000 0 1 0
6.642608 10.980195 -18.288221 22.341619 1.026736 2.529717 0.042630 -0.011868 804479.000000 0 1 0
7.775508 9.999095 -18.775421 22.648550 0.909851 2.548096 0.055495 -0.017221 282027.000000 0 1 0
7.436908 8.610695 -18.836021 22.005621 0.858412 2.598209 0.043694 -0.011645 71414.100000 0 1 0
6.602808 8.255495 -19.926621 22.557049 0.896173 2.653839 0.024495 -0.011696 -135921.000000 0 1 0
6.336508 6.726795 -19.939321 21.976751 0.815266 2.707594 0.029424 -0.017360 854264.000000 0 1 0
7.498108 5.915795 -20.274321 22.411299 0.667980 2.701348 0.028916 -0.009733 791346.000000 0 1 0
7.182608 4.604595 -20.548521 22.249356 0.570076 2.748048 0.025911 -0.009821 -89141.800000 0 1 0
7.234408 4.231595 -22.053521 23.592389 0.529262 2.778415 0.026639 -0.011978 -169471.000000 0 1 0
6.229108 4.863595 -22.814521 24.144537 0.662914 2.808129 0.025843 -0.009449 -105313.000000 0 1 0
6.324308 4.473395 -24.142621 25.354965 0.615631 2.831106 0.018098 -0.012299 133616.000000 0 0 1
5.172408 5.113695 -24.976121 26.013656 0.779690 2.858212 0.016456 -0.016671 230532.000000 0 0 1
5.348308 6.508095 -25.245971 26.614258 0.882907 2.819541 0.019196 -0.017026 169015.000000 0 0 1
5.011008 7.283895 -24.103821 25.674102 0.968199 2.790036 0.025243 -0.020143 -921261.000000 0 0 1
5.108508 8.825795 -24.431121 26.473971 1.046099 2.746174 0.026416 -0.017509 662170.000000 0 0 1
3.999108 9.337695 -25.189831 27.160872 1.166154 2.758280 0.031135 -0.015450 386931.000000 0 0 1
2.793008 9.421995 -24.474821 26.374073 1.282613 2.759772 0.027613 -0.021942 17484.900000 0 0 1
1.575608 9.907995 -25.351321 27.264269 1.413093 2.764765 0.036623 -0.010317 434979.000000 0 0 1
1.637208 11.234895 -25.694041 28.090693 1.426090 2.725516 0.052675 -0.025828 -184798.000000 0 0 1
0.564908 11.512595 -26.537241 28.932406 1.521767 2.731829 0.072567 -0.026870 -388234.000000 0 0 1
0.182608 12.974495 -26.844201 29.815800 1.556723 2.691334 0.068580 -0.030749 -85795.400000 0 0 1
-0.030192 13.718295 -25.661821 29.098480 -1.568595 2.650664 0.059547 -0.026368 154838.000000 0 0 1
-0.375492 15.052295 -25.851761 29.916987 -1.545856 2.614189 0.055785 -0.036859 -171937.000000 0 0 1
-0.844392 15.723895 -24.521821 29.142298 -1.517147 2.570760 0.062097 -0.028034 -82901.800000 0 0 1
-2.041292 15.138695 -24.066721 28.505333 -1.436765 2.576032 0.054511 -0.026496 -322715.000000 0 0 1
-2.466692 15.782695 -22.867021 27.894061 -1.415760 2.531825 0.050984 -0.027806 307711.000000 0 0 1
-3.774692 15.040995 -22.357621 27.209245 -1.324914 2.535170 0.044631 -0.017956 809787.000000 0 0 1
-4.980292 15.406695 -22.996421 28.124809 -1.258143 2.528124 0.043294 -0.015247 -231778.000000 0 0 1
-5.198492 15.180195 -24.391421 29.195959 -1.240861 2.559726 0.039086 -0.014833 -259575.000000 0 0 1
-6.642092 15.442695 -24.910321 30.051926 -1.164604 2.547951 0.028387 -0.014609 358720.000000 0 0 1
-7.168592 16.743895 -24.888621 30.841371 -1.166276 2.509831 0.026655 -0.017119 -28099.200000 0 0 1
-8.372492 16.743395 -25.626491 31.735735 -1.107111 2.510692 0.020837 -0.008531 -59318.700000 0 0 1
-9.028892 18.096495 -26.002921 32.941704 -1.108005 2.480565 0.018171 -0.004369 198240.000000 0 0 1
-9.549892 18.791895 -24.817221 32.561176 -1.100617 2.437458 0.021531 -0.010401 379603.000000 0 0 1
-10.594692 19.661895 -25.211361 33.681602 -1.076559 2.416624 0.031740 -0.004509 123478.000000 0 0 1
-10.966192 20.670695 -24.084821 33.579958 -1.083033 2.370627 0.032270 -0.004385 -111437.000000 0 0 1
-10.161292 21.830295 -23.965621 33.972998 -1.135154 2.353828 0.037513 0.000355 -66575.900000 0 0 1
-10.676192 23.002695 -24.526221 35.279463 -1.136256 2.339492 0.044519 -0.011752 -375492.000000 0 0 1
-10.268992 23.479495 -25.968051 36.483949 -1.158503 2.362806 0.040188 -0.010893 -669700.000000 0 0 1
-10.753892 22.604695 -26.955821 36.786338 -1.126747 2.393176 0.037005 -0.007205 145774.000000 0 0 1
-10.631592 23.232795 -28.161821 38.024750 -1.141631 2.404786 0.041435 -0.009986 -327743.000000 0 0 1
-11.215892 22.432795 -29.344361 38.602047 -1.107167 2.434381 0.037926 -0.012084 414322.000000 0 0 1
-10.412292 21.281995 -29.788891 38.062017 -1.115783 2.469693 0.009728 -0.005344 619660.000000 0 0 1
-10.508192 20.140395 -28.938431 36.789813 -1.089903 2.476060 0.013419 -0.000692 -260607.000000 0 0 1
-9.577192 19.055195 -29.483701 36.388345 -1.105069 2.515377 0.006496 -0.006892 1409030.000000 0 0 1
-8.174292 19.466995 -29.332301 36.140929 -1.173249 2.517697 0.004462 -0.009275 2218560.000000 0 0 1
-7.166192 18.632495 -29.970431 36.010427 -1.203630 2.553988 0.008867 -0.010242 843860.000000 0 0 1
-6.832492 17.254895 -29.267411 34.655384 -1.193765 2.576478 0.018377 -0.015997 -460659.000000 0 0 1
-7.865592 16.277695 -29.298271 34.427018 -1.120668 2.588731 0.007886 -0.014108 279746.000000 0 0 1
-7.509892 15.102995 -28.608701 33.210791 -1.109355 2.608871 -0.006387 -0.012150 -45722.600000 0 0 1
-8.738792 14.148695 -28.567971 33.055725 -1.017508 2.614427 0.005163 -0.004818 -473803.000000 0 0 1
-9.735892 14.769695 -27.844401 32.988515 -0.987995 2.575613 0.018984 -0.007232 -964148.000000 0 0 1
-10.939692 14.053595 -27.937931 33.131682 -0.909349 2.574077 0.049653 -0.012068 -40113.600000 0 0 1
-12.077092 14.601895 -27.054711 33.030726 -0.879754 2.530597 0.047904 -0.004243 107704.000000 0 0 1
-12.608992 15.847595 -27.411071 34.080782 -0.898719 2.505288 0.044593 -0.002681 -589536.000000 0 0 1
-13.603092 16.246595 -26.524511 33.949162 -0.873728 2.467544 0.034787 0.000746 -332943.000000 0 0 1
-14.338592 17.572595 -26.773261 35.088442 -0.886397 2.438772 0.018975 0.001619 -190826.000000 0 0 1
-13.611892 18.766895 -26.651831 35.324213 -0.943282 2.425676 0.017709 0.001621 -391207.000000 0 0 1
-14.431792 19.832995 -27.000231 36.477894 -0.941743 2.404135 0.018143 -0.001458 -201076.000000 0 0 1
-13.884992 21.228895 -26.732241 36.852024 -0.991572 2.382403 0.018459 0.001372 -655008.000000 0 0 1
-14.813692 22.134895 -27.201761 38.070130 -0.981010 2.366730 0.026671 -0.016437 -276697.000000 0 0 1
-14.367192 23.453595 -27.357721 38.793455 -1.021178 2.353522 0.036056 -0.012998 -252431.000000 0 0 1
-13.974692 24.340895 -26.144981 38.357935 -1.049621 2.320751 0.021206 -0.002826 3153.030000 0 0 1
-13.588692 25.674895 -26.519351 39.333557 -1.084016 2.310700 0.039770 -0.016733 55848.800000 0 0 1
-13.350692 26.435895 -25.367271 38.994819 -1.103140 2.279077 0.057935 -0.023308 -151877.000000 0 0 1
-13.447792 27.983995 -25.661261 40.279615 -1.122827 2.261498 0.086676 -0.030712 -589143.000000 0 0 1
-14.682192 28.462695 -26.078811 41.301285 -1.094557 2.254190 0.094872 -0.031040 -831930.000000 0 0 1
-15.366292 29.073595 -25.029221 41.326247 -1.084585 2.221378 0.083423 -0.029614 339819.000000 0 0 1
-16.872892 29.403995 -25.249011 42.270580 -1.049842 2.210950 0.074846 -0.022549 1370710.000000 0 0 1
-17.731792 28.228695 -25.445301 41.937322 -1.009937 2.222757 0.062330 -0.017018 133068.000000 0 0 1
-19.093892 28.559895 -25.436071 42.746204 -0.981487 2.208122 0.048872 -0.010119 -274307.000000 0 0 1
-20.007392 27.350895 -25.298951 42.289527 -0.939236 2.212089 0.019257 -0.006728 -229509.000000 0 0 1
-20.395392 27.168395 -23.931021 41.554632 -0.926846 2.184492 0.028797 -0.010859 54120.100000 0 0 1
-21.495592 26.272995 -23.815221 41.466799 -0.885078 2.182570 0.043188 -0.009133 55678.900000 0 0 1
-22.087492 26.415095 -22.434921 41.096717 -0.874387 2.148266 0.023246 -0.001426 -196366.000000 0 0 1
-22.796592 27.649995 -22.295021 42.205151 -0.881312 2.127339 0.019057 0.008448 -159032.000000 0 0 1
-23.214992 27.858195 -20.994321 41.901985 -0.876062 2.095590 0.009702 0.011791 -496823.000000 0 0 1
-24.533392 28.620395 -20.942421 43.123071 -0.862137 2.077895 0.001036 0.020676 -217032.000000 0 0 1
-25.679132 27.836695 -21.225921 43.414733 -0.825693 2.081637 -0.011489 0.012647 -204467.000000 0 0 1
-26.811832 28.671995 -21.260921 44.642853 -0.818912 2.067175 0.004090 0.011286 -415244.000000 0 0 1
-28.096052 28.004295 -21.721621 45.226734 -0.783763 2.071773 0.002116 0.005733 -637780.000000 0 0 1
-28.131772 27.559395 -23.056321 45.634534 -0.775121 2.100455 -0.005467 0.011177 -717809.000000 0 0 1
-29.358942 27.041895 -23.452521 46.295056 -0.744339 2.102019 -0.014378 0.008895 -497392.000000 0 0 1
-29.381892 26.656795 -24.887621 46.832403 -0.736808 2.131071 -0.012011 0.021168 -254362.000000 0 0 1
-28.635792 25.487495 -25.180601 45.865931 -0.727295 2.151969 -0.000462 0.022140 -82793.500000 0 0 1
-28.840692 25.194695 -26.524591 46.584461 -0.718026 2.176556 0.018374 0.009510 -416926.000000 0 0 1
-28.798722 23.688695 -26.829131 45.938251 -0.688347 2.194476 0.024304 0.003715 -218215.000000 0 0 1
-27.642442 22.956895 -26.475821 44.632865 -0.693061 2.205813 0.016183 -0.001478 -33637.900000 0 0 1
-27.786472 21.642295 -26.992471 44.374209 -0.661729 2.224703 0.046106 -0.011648 148543.000000 0 0 1
-26.640432 20.603695 -26.774511 43.024403 -0.658309 2.242486 0.051036 -0.011573 101217.000000 0 0 1
-26.570212 20.016495 -25.448561 41.883952 -0.645637 2.223828 0.055991 -0.003889 146964.000000 0 0 1
-26.010212 18.734795 -25.431281 40.917889 -0.624211 2.241478 0.047281 -0.008547 -337018.000000 0 0 1
-27.067992 17.629895 -25.303291 41.033473 -0.577302 2.235277 0.048177 -0.005867 10637.000000 0 0 1
-27.950662 17.561295 -26.429151 42.286387 -0.560966 2.245933 0.046085 -0.008501 234691.000000 0 0 1
-28.696002 16.371295 -26.322911 42.241868 -0.518452 2.243557 0.030298 -0.016642 -304500.000000 0 0 1
-29.433342 16.006095 -27.641031 43.434356 -0.498077 2.260601 0.023333 -0.016513 313703.000000 0 0 1
-30.580892 16.849995 -27.775151 44.615830 -0.503609 2.242781 0.024707 -0.016963 56060.600000 0 0 1
-31.286092 16.419595 -28.897221 45.645065 -0.483307 2.256329 0.036361 -0.013062 -421402.000000 0 0 1
-32.563652 17.181895 -29.262321 47.030759 -0.485515 2.242340 0.042025 -0.008341 -656683.000000 0 0 1
-33.629132 16.949795 -28.376241 47.153209 -0.466859 2.216534 0.030220 -0.006754 -612104.000000 0 0 1
-34.816799 17.134695 -29.101031 48.504404 -0.457339 2.214256 0.026248 -0.004446 -692831.000000 0 0 1
35.862269 16.791095 -28.232401 48.632413 0.437894 2.190171 0.025267 -0.003635 -585803.000000 0 0 1
35.489255 17.802495 -27.377291 48.227918 0.464951 2.174463 0.031003 -0.013611 115711.000000 0 0 1
34.470935 17.329995 -26.495261 46.803557 0.465839 2.172557 0.045784 -0.012340 237754.000000 0 0 1
34.020165 18.425195 -25.474021 46.322620 0.496368 2.153072 0.050108 -0.010467 -98284.900000 0 0 1
33.145955 19.294695 -26.132611 46.409621 0.527164 2.168912 0.052202 -0.022556 -239644.000000 0 0 1
32.909905 20.437695 -25.374151 46.309920 0.555732 2.150673 0.056796 -0.017064 -368294.000000 0 0 1
32.302735 21.546195 -26.297081 46.896073 0.588239 2.166090 0.068836 -0.022400 650111.000000 0 0 1
30.960425 21.429995 -26.755991 46.191727 0.605454 2.188590 0.054682 -0.024199 655213.000000 0 0 1
29.955645 21.763495 -25.797321 45.127510 0.628306 2.179317 0.053378 -0.012108 124154.000000 0 0 1
28.510005 21.489195 -26.246801 44.311403 0.645892 2.204739 0.012768 -0.015178 128622.000000 0 0 1
28.037935 20.145395 -26.290451 43.395282 0.623038 2.221613 0.015057 -0.024455 -42271.200000 0 0 1
26.700915 20.124295 -26.754401 42.822004 0.645860 2.245648 0.011681 -0.025190 -236767.000000 0 0 1
26.244915 18.635995 -26.775941 41.869402 0.617459 2.264658 0.025547 -0.016788 -253084.000000 0 0 1
27.000505 17.740695 -27.594081 42.487561 0.581316 2.277674 0.029053 -0.021798 949236.000000 0 0 1
28.216345 17.255395 -26.982391 42.684425 0.548861 2.255104 0.028766 -0.016863 337402.000000 0 0 1
28.830935 16.134795 -27.809881 43.184996 0.510210 2.270474 0.012195 -0.002219 -401937.000000 0 0 1
28.026695 15.002595 -28.060671 42.402532 0.491485 2.293972 0.020491 -0.004118 305249.000000 0 0 1
27.422325 14.315095 -26.969591 41.039794 0.481111 2.287837 0.039721 -0.013032 132200.000000 0 0 1
28.430035 13.421995 -26.190031 40.918633 0.441085 2.265362 0.041514 -0.009702 814027.000000 0 0 1
29.243735 14.074995 -25.179111 41.076625 0.448576 2.230622 0.042912 -0.019031 838946.000000 0 0 1
30.249995 13.265895 -24.557521 41.159664 0.413285 2.210105 0.035469 -0.010732 366313.000000 0 0 1
-14.256392 -31.777526 -24.279221 42.456288 1.149081 2.179573 0.072624 -0.013603 33193.900000 0 0 1
-13.629192 -30.576826 -24.640521 41.567444 1.151494 2.205308 0.061105 -0.011041 82118.800000 0 0 1
-13.931992 -30.222626 -26.010641 42.238146 1.138850 2.234209 0.047736 -0.004575 -4823.970000 0 0 1
-13.169692 -28.950526 -26.442381 41.361494 1.143872 2.264383 0.049700 -0.008734 -244834.000000 0 0 1
-13.676992 -27.746026 -25.918541 40.356819 1.112817 2.268206 0.050040 -0.002740 25170.000000 0 0 1
-13.081892 -26.659826 -26.562681 39.842919 1.114619 2.300549 0.043949 -0.006219 -467614.000000 0 0 1
-13.621792 -25.304526 -26.103891 38.823773 1.076969 2.308201 0.026943 -0.004904 -416898.000000 0 0 1
-13.272092 -24.788926 -24.843221 37.520993 1.079228 2.294434 0.021444 -0.015712 125930.000000 0 0 1
-13.866392 -23.533126 -24.497121 36.690513 1.038335 2.301870 0.015963 -0.012284 4632.480000 0 0 1
-13.349292 -22.959226 -23.113821 35.207646 1.044140 2.286966 0.020708 -0.004148 526712.000000 0 0 1
-11.953192 -22.687026 -23.126721 34.531509 1.085882 2.304639 0.020711 -0.019073 81242.000000 0 0 1
-11.586492 -21.937326 -21.977921 33.143960 1.084873 2.295755 0.015398 -0.008708 487036.000000 0 0 1
-10.088692 -21.540626 -21.874421 32.315175 1.132782 2.314351 0.025761 -0.012467 274845.000000 0 0 1
-9.507292 -20.823326 -22.936021 32.404638 1.142493 2.357176 0.032821 -0.016591 -683528.000000 0 0 1
-8.188092 -20.548326 -22.568621 31.600968 1.191601 2.366241 0.052373 -0.017029 -520507.000000 0 0 1
-7.529792 -19.431026 -23.362821 31.306292 1.201100 2.413231 0.044211 -0.008827 -83420.600000 0 0 1
-7.940792 -18.144626 -22.837021 30.229342 1.158269 2.427150 0.038882 -0.008165 33401.500000 0 0 1
-8.089592 -17.063026 -23.750521 30.342636 1.128082 2.469859 0.022122 -0.006407 -421281.000000 0 0 1
-6.908392 -16.631726 -24.657321 30.533975 1.177107 2.510761 0.037419 -0.015858 -115674.000000 0 0 1
-6.815492 -17.474926 -25.817741 31.912062 1.198927 2.513292 0.021370 -0.018538 786511.000000 0 0 1
-5.790492 -16.996226 -26.751651 32.218819 1.242437 2.550462 0.033131 -0.014280 797156.000000 0 0 1
-5.724992 -17.610426 -28.151771 33.696065 1.256482 2.559769 0.046075 -0.008794 -130649.000000 0 0 1
-6.858092 -17.322226 -28.938231 34.416771 1.193818 2.569588 0.041984 -0.008063 -97904.400000 0 0 1
-6.823592 -18.029026 -30.156991 35.791776 1.208980 2.572829 0.053813 -0.019441 563746.000000 0 0 1
-7.878392 -17.526726 -31.238311 36.675431 1.148352 2.590113 0.053945 -0.018151 586889.000000 0 0 1
-7.466992 -16.541626 -32.136391 36.907031 1.146774 2.627499 0.050081 -0.015937 -245538.000000 0 0 1
-7.094792 -15.293426 -31.518391 35.744005 1.136434 2.650422 0.037272 -0.015236 165006.000000 0 0 1
-7.572792 -14.101826 -32.353051 36.096102 1.077983 2.682158 0.033403 -0.013990 259732.000000 0 0 1
-6.743392 -13.988426 -33.524131 36.946133 1.121596 2.707801 0.054104 -0.024064 486049.000000 0 0 1
-7.359892 -13.185726 34.063524 37.260637 1.061701 0.417277 0.057461 -0.017109 -96061.500000 0 0 1
-7.437192 -11.658226 34.290534 36.973867 1.002949 0.383325 0.047465 -0.014819 46679.400000 0 0 1
-6.279292 -10.853826 -34.284520 36.505662 1.046311 2.790962 0.037202 -0.016734 -375287.000000 0 0 1
-5.831692 -10.461226 33.064400 35.166752 1.062245 0.347528 0.031827 -0.017383 -56796.600000 0 0 1
-4.664292 -9.458326 33.068547 34.709428 1.112651 0.308714 0.021951 -0.018359 -238606.000000 0 0 1
-4.538792 -8.730126 31.852943 33.338052 1.091356 0.299605 0.022869 -0.014468 -731660.000000 0 0 1
-3.479392 -7.845526 31.902743 33.037002 1.153371 0.262797 0.021076 -0.018225 -1263690.000000 0 0 1
-3.664792 -6.745626 30.816963 31.758769 1.073124 0.244142 0.027102 -0.015891 307750.000000 0 0 1
-4.807392 -5.916626 30.873913 31.801195 0.888466 0.242081 0.026513 -0.013307 904118.000000 0 0 1
-6.071392 -6.563126 30.582503 31.862610 0.824298 0.284421 0.026559 -0.012697 390356.000000 0 0 1
-7.283392 -5.616226 30.494823 31.851594 0.656869 0.292925 0.020137 -0.008042 271736.000000 0 0 1
-8.426192 -6.333526 30.033003 31.829162 0.644555 0.337550 0.023903 -0.001447 -221256.000000 0 0 1
-9.509192 -5.426126 29.939983 31.878993 0.518536 0.350573 0.020352 -0.006541 6580.500000 0 0 1
-10.715192 -5.935526 29.145023 31.614525 0.505860 0.397873 0.024402 -0.009684 -191465.000000 0 0 1
-10.491092 -5.771526 27.720583 30.196097 0.502948 0.407741 0.012130 -0.003570 588817.000000 0 0 1
-11.584192 -6.289326 26.975393 30.023674 0.497394 0.454522 0.018020 -0.005378 118733.000000 0 0 1
-11.312492 -6.021126 25.443313 28.488395 0.489117 0.466581 0.017045 -0.008242 1050170.000000 0 0 1
-10.088392 -6.680626 25.006703 27.780238 0.584910 0.450656 0.021024 -0.006443 1143310.000000 0 0 1
-9.581292 -6.150326 23.765823 26.352268 0.570667 0.446761 0.019567 -0.005981 86866.800000 0 0 1
-10.420092 -6.338426 22.449983 25.549084 0.546492 0.497664 0.028558 -0.015809 -139570.000000 0 0 1
-11.656192 -5.682526 22.463483 25.937733 0.453607 0.523541 0.018881 -0.010519 -565034.000000 0 0 1
-12.341192 -5.926426 21.262283 25.288579 0.447695 0.572063 0.024108 -0.011209 -271626.000000 0 0 1
-13.539292 -4.976126 21.140183 25.592608 0.352208 0.598775 0.025134 -0.008828 -258915.000000 0 0 1
-13.172192 -3.729526 20.654283 24.779335 0.275915 0.585332 0.019259 -0.010580 84831.800000 0 1 0
-14.227192 -2.775526 20.725083 25.291216 0.192666 0.610332 0.020571 -0.010210 299657.000000 0 0 1
-13.833392 -1.405526 20.177383 24.504388 0.101256 0.603386 0.023709 -0.011320 -50825.200000 0 1 0
-12.730992 -0.735526 20.742683 24.349088 0.057710 0.551218 0.019288 -0.015619 4466.100000 0 1 0
-12.916492 0.707474 20.697383 24.407334 -0.054718 0.558599 0.028050 -0.021243 -588966.000000 0 1 0
-12.682792 1.523474 19.361383 23.195632 -0.119549 0.583209 0.043405 -0.024311 202437.000000 0 1 0
-13.623092 1.325474 18.328183 22.875048 -0.096991 0.641448 0.051165 -0.011202 24990.100000 0 1 0
-14.981492 1.601474 18.589483 23.928617 -0.106492 0.681113 0.047323 -0.004340 -71346.600000 0 1 0
-15.914692 0.805474 17.607483 23.747625 -0.050569 0.735580 0.057560 -0.003889 129672.000000 0 1 0
-16.100092 -0.510526 18.101783 24.231140 0.031699 0.727189 0.026323 -0.005202 452588.000000 0 1 0
-17.126492 -1.138526 17.336583 24.396108 0.066380 0.780404 0.026778 -0.001590 256349.000000 0 1 0
-17.178192 -2.727526 17.479083 24.658630 0.157464 0.782941 0.029735 0.002414 -152808.000000 0 1 0
-17.563692 -3.078526 18.760983 25.883104 0.173515 0.760001 0.026357 0.003925 -56823.500000 0 0 1
-17.408992 -4.451826 19.018783 26.164974 0.250355 0.757029 0.029234 0.001570 410952.000000 0 0 1
-18.255992 -4.838626 20.305483 27.730961 0.259086 0.749204 0.017928 0.004982 317078.000000 0 0 1
-17.555492 -4.389226 21.470783 28.079443 0.244998 0.700307 0.019472 0.002914 657036.000000 0 0 1
-18.322992 -4.532326 22.688983 29.513793 0.242490 0.693898 0.022605 -0.002742 -232586.000000 0 0 1
-18.369792 -5.948626 23.319283 30.275805 0.313170 0.691597 0.029051 0.000919 102582.000000 0 0 1
-17.170892 -6.369026 23.956923 30.155235 0.355189 0.652690 0.002261 -0.007697 -164265.000000 0 0 1
-16.234992 -6.835426 23.037283 29.000249 0.398504 0.652806 0.015563 -0.010364 -1287600.000000 0 0 1
-15.092092 -7.443526 23.830073 29.172756 0.458198 0.614849 0.023226 -0.011433 -582029.000000 0 0 1
-15.448592 -8.746326 24.140073 29.964985 0.515163 0.634093 0.017595 -0.015016 322851.000000 0 0 1
-14.774292 -9.167326 25.347503 30.737851 0.555351 0.601240 0.032392 -0.007704 160303.000000 0 0 1
-15.527392 -10.199426 26.264583 32.170740 0.581187 0.615626 0.028883 -0.008366 11528.700000 0 0 1
-15.549592 -11.558826 25.894083 32.340374 0.639233 0.642378 0.024613 -0.008736 346253.000000 0 0 1
-14.560292 -12.301326 26.635493 32.753232 0.701499 0.621137 0.039488 -0.005480 470791.000000 0 0 1
-14.745692 -13.843426 26.475053 33.316727 0.753849 0.652370 0.024544 -0.004769 895333.000000 0 0 1
-15.903192 -14.248126 27.265623 34.631414 0.730561 0.664364 0.011362 -0.004864 1020090.000000 0 0 1
-16.227592 -15.638926 27.069453 35.223090 0.766927 0.694280 0.025768 0.001437 -178060.000000 0 0 1
-15.387192 -16.634726 27.874043 35.922724 0.824337 0.682585 0.026135 0.001006 733773.000000 0 0 1
-14.041692 -16.768426 27.385303 35.047169 0.873669 0.673916 0.049266 -0.004666 683884.000000 0 0 1
-13.236992 -17.609226 28.181973 35.770469 0.926203 0.663477 0.056666 -0.005489 -684095.000000 0 0 1
-11.890192 -17.823026 27.521473 34.877907 0.982476 0.661486 0.061419 -0.010666 -670019.000000 0 0 1
-10.976192 -18.435426 28.413323 35.604195 1.033776 0.646772 0.067430 -0.020332 843080.000000 0 0 1
-9.700492 -18.687726 27.797433 34.871592 1.091999 0.648258 0.071806 -0.015301 938259.000000 0 0 1
-8.624792 -19.379926 28.672513 35.666253 1.152077 0.636953 0.083426 -0.023513 126320.000000 0 0 1
-8.890392 -20.754826 28.947723 36.712022 1.166089 0.662417 0.078693 -0.015849 477675.000000 0 0 1
-7.951692 -21.320126 29.898023 37.572184 1.213810 0.650553 0.084306 -0.021196 598799.000000 0 0 1
-8.380992 -22.711126 30.549673 38.978440 1.217274 0.670102 0.081490 -0.016740 164771.000000 0 0 1
-8.357892 -23.796926 29.632663 38.913273 1.233037 0.705164 0.088756 -0.013073 139717.000000 0 0 1
-8.685592 -25.037726 30.253423 40.219359 1.236886 0.719386 0.073727 -0.008358 -229965.000000 0 0 1
-8.754592 -26.230926 29.295593 40.285682 1.248670 0.756568 0.067352 -0.002505 -264351.000000 0 0 1
-9.888992 -26.176526 28.456053 39.909268 1.209590 0.777002 0.065935 -0.002621 64156.400000 0 0 1
-10.068592 -27.358326 27.739753 40.241129 1.218153 0.810221 0.053212 -0.000816 -169120.000000 0 0 1
-11.492292 -27.389326 27.148663 40.240500 1.173517 0.830292 0.036924 -0.003461 -99014.200000 0 0 1
-11.663692 -26.793426 25.868923 39.027306 1.160218 0.846189 0.046246 -0.007417 73230.600000 0 0 1
-11.904892 -25.412526 25.801203 38.121189 1.132693 0.827361 0.045535 0.002968 -183122.000000 0 0 1
-12.103892 -24.925226 24.373503 36.903100 1.118728 0.849348 0.064714 -0.022240 368344.000000 0 0 1
-13.288392 -25.408526 23.748023 37.230944 1.088927 0.879084 0.045988 -0.014221 247483.000000 0 0 1
-13.303892 -24.891326 22.396483 36.030183 1.079947 0.900008 0.061356 -0.021668 -396781.000000 0 0 1
-14.580492 -25.137426 21.607283 36.212645 1.045189 0.931441 0.042626 -0.019029 -601502.000000 0 0 1
-14.937092 -26.469126 21.334283 37.133314 1.057024 0.958764 0.050468 -0.017309 -350699.000000 0 0 1
-16.085292 -26.521726 20.549583 37.207848 1.025615 0.985686 0.047681 -0.016931 -397058.000000 0 0 1
-16.202792 -27.929026 19.922083 37.940089 1.045107 1.017972 0.047569 -0.025187 -160799.000000 0 0 1
-15.283392 -28.203626 18.909383 37.236962 1.074197 1.038153 0.029624 -0.017662 -181194.000000 0 0 1
-15.128392 -29.588326 18.627683 38.096297 1.098153 1.059896 0.046448 -0.009469 -138288.000000 0 0 1
-14.048292 -29.810426 17.548383 37.335797 1.130409 1.081489 0.029939 -0.016515 -215362.000000 0 0 1
-14.424792 -29.512626 16.226783 36.638480 1.116176 1.111978 0.042684 -0.025866 186080.000000 0 0 1
-13.268292 -29.100226 15.491483 35.536696 1.143004 1.119726 0.033629 -0.025466 313404.000000 0 0 1
-13.544292 -28.788926 14.037483 34.775006 1.131052 1.155276 0.024870 -0.018257 61188.700000 0 0 1
-13.985992 -27.459426 13.775083 33.754718 1.099710 1.150431 0.016602 -0.007828 65630.100000 0 0 1
-14.596392 -27.294626 12.474383 33.371567 1.079720 1.187691 0.023799 -0.008917 -100648.000000 0 0 1
-13.612092 -27.257726 11.309783 32.498983 1.107641 1.215355 0.011803 0.002244 -207354.000000 0 0 1
-14.162692 -26.674426 10.160483 31.864436 1.082699 1.246264 0.002602 -0.000070 -113190.000000 0 0 1
-13.292292 -26.799326 9.024183 31.246196 1.110359 1.277814 0.011815 -0.007191 106694.000000 0 0 1
-13.658892 -26.057026 7.754283 30.424708 1.087983 1.313085 0.031325 -0.003404 631694.000000 0 0 1
-14.847792 -26.582526 7.129283 31.271621 1.061409 1.340794 0.014590 -0.006156 601519.000000 0 0 1
-15.261292 -25.745326 6.023583 30.528878 1.035703 1.372185 0.037997 -0.010991 86445.000000 0 0 1
-15.913892 -26.574026 4.870183 31.355215 1.031222 1.414842 0.037471 -0.019514 -71092.300000 0 0 1
-15.059492 -27.401426 4.146783 31.540803 1.068270 1.438941 0.056058 -0.024177 -434096.000000 0 0 1
-15.730192 -28.055526 3.104383 32.313908 1.059790 1.474578 0.050777 -0.022531 -7734.450000 0 0 1
-14.872092 -29.227726 2.562383 32.893843 1.100106 1.492819 0.059080 -0.026068 242746.000000 0 0 1
-13.626892 -28.970926 1.949283 32.075013 1.131137 1.509986 0.039206 -0.014543 -179582.000000 0 0 1
-13.165792 -30.044326 1.162583 32.823028 1.157788 1.535369 0.038227 -0.013614 387055.000000 0 0 1
-11.764992 -29.768126 0.545183 32.013334 1.194416 1.553766 0.033531 -0.007924 250630.000000 0 0 1
-11.743692 -28.730426 -0.463817 31.041372 1.182766 1.585739 0.029839 -0.010019 -98559.200000 0 0 1
-12.066492 -27.339526 -0.143917 29.884287 1.155153 1.575612 0.033683 -0.013973 -210293.000000 0 0 1
-11.808592 -26.460626 -1.386617 29.009141 1.151048 1.618614 0.033302 -0.011441 117838.000000 0 0 1
-10.479592 -26.620826 -1.836117 28.668128 1.195766 1.634888 0.039895 -0.013657 -435448.000000 0 0 1
-10.257292 -26.002226 -3.089517 28.122463 1.195060 1.680878 0.049653 -0.014607 135288.000000 0 0 1
-8.841092 -26.384926 -3.537817 28.050764 1.247474 1.697255 0.045016 -0.018616 39379.400000 0 0 1
-8.321392 -25.644226 -4.656417 27.359717 1.257022 1.741821 0.045290 -0.019043 429729.000000 0 0 1
-7.014492 -26.150126 -4.990017 27.530573 1.308726 1.753057 0.045622 -0.013154 586647.000000 0 0 1
-6.233792 -25.133526 -5.764917 26.529013 1.327676 1.789850 0.036554 -0.010192 -506666.000000 0 0 1
-6.560792 -25.094026 -7.163817 26.908631 1.315072 1.840273 0.043893 -0.000413 112809.000000 0 0 1
-5.968292 -23.917526 -7.725617 25.833190 1.326254 1.874501 0.030054 -0.000064 -29653.600000 0 0 1
-6.232592 -23.718726 -9.266017 26.216068 1.313835 1.932051 0.040317 -0.006798 -263672.000000 0 0 1
-5.340792 -24.483326 -10.023017 26.989223 1.356021 1.951282 0.016925 -0.009900 -202029.000000 0 0 1
-5.492692 -24.400426 -11.459717 27.511371 1.349381 2.000438 0.009076 -0.003185 -73854.800000 0 0 1
-6.784292 -25.047026 -12.020317 28.598394 1.306281 2.004588 0.018004 -0.001511 101016.000000 0 0 1
-7.048892 -25.089226 -13.411817 29.309264 1.296904 2.046087 0.021216 -0.000867 315480.000000 0 0 1
-8.129692 -25.970026 -13.735217 30.482623 1.267418 2.038224 0.051969 -0.002979 -334569.000000 0 0 1
-8.432792 -25.892626 -15.236617 31.204079 1.255947 2.080925 0.051462 -0.012313 119921.000000 0 0 1
-7.512492 -26.699726 -15.936117 31.988634 1.296518 2.092295 0.039633 -0.013205 118481.000000 0 0 1
-6.244992 -26.100526 -16.101717 31.297007 1.335945 2.111199 0.034592 -0.011163 -1110680.000000 0 0 1
-5.304792 -26.926926 -16.921417 32.241813 1.376280 2.123310 0.033562 -0.005799 -961945.000000 0 0 1
-5.428892 -26.719326 -18.342317 32.860856 1.370343 2.162989 0.066618 -0.011235 -163734.000000 0 0 1
-4.544192 -27.517026 -19.064817 33.783186 1.407132 2.170416 0.055455 -0.015627 -260424.000000 0 0 1
-24.450892 14.747095 -6.543921 29.294126 -0.542719 1.796084 0.030040 -0.006050 -44635.300000 0 0 1
-24.723592 13.775595 -5.591021 28.849307 -0.508342 1.765831 0.025097 -0.007785 719987.000000 0 0 1
-23.505292 13.054995 -5.399321 27.424155 -0.506985 1.768973 0.042278 -0.016663 -239629.000000 0 0 1
-23.539792 11.712095 -4.643421 26.699369 -0.461681 1.745600 0.044730 -0.012029 -709315.000000 0 0 1
-24.133692 10.620495 -5.349921 26.904491 -0.414565 1.770979 0.043535 -0.006269 -297804.000000 0 0 1
-25.526912 10.658195 -5.384021 28.181697 -0.395525 1.763025 0.051678 -0.005411 -862738.000000 0 0 1
-26.135102 9.955795 -6.637921 28.744102 -0.363964 1.803831 0.055406 -0.003074 -158054.000000 0 0 1
-25.909132 10.562295 -7.906821 29.075127 -0.387098 1.846209 0.072000 -0.008837 -213318.000000 0 0 1
-26.419542 9.846095 -9.004721 29.597682 -0.356737 1.879934 0.069279 -0.012912 -487802.000000 0 0 1
-26.732062 10.629295 -10.302421 30.556913 -0.378456 1.914690 0.034218 -0.014341 -281643.000000 0 0 1
-25.664092 11.382895 -10.787221 30.076237 -0.417464 1.937631 0.040996 -0.012603 120721.000000 0 0 1
-26.180162 12.087595 -11.933621 31.207725 -0.432548 1.963181 0.033241 -0.014671 166734.000000 0 0 1
-25.116192 12.970995 -12.612721 30.954006 -0.476713 1.990474 0.036284 -0.017650 -209349.000000 0 0 1
-24.975292 14.134195 -11.861321 31.052079 -0.514989 1.962736 0.030666 -0.019787 -89145.800000 0 0 1
-24.089692 14.961495 -12.525021 31.000576 -0.555772 1.986709 0.027742 -0.021795 -524435.000000 0 0 1
-24.079892 16.391895 -11.885221 31.460990 -0.597675 1.958190 0.036302 -0.016991 -493551.000000 0 0 1
-23.538992 16.499195 -10.662921 30.659508 -0.611350 1.926004 0.050756 -0.011370 -208156.000000 0 0 1
-23.313492 17.830495 -10.343421 31.119637 -0.652915 1.909618 0.031621 -0.007172 -83124.500000 0 0 1
-22.401192 18.047195 -9.085421 30.167192 -0.678168 1.876715 0.038846 -0.004704 -348719.000000 0 0 1
-22.871792 17.591495 -7.838821 29.900278 -0.655635 1.836062 0.050187 -0.010003 174588.000000 0 0 1
-23.640192 18.618995 -7.242021 30.951131 -0.667134 1.806968 0.029878 -0.005989 -47610.200000 0 0 1
-24.127792 18.193895 -5.826721 30.775296 -0.646097 1.761277 0.019314 -0.000838 -3246.290000 0 0 1
-23.065092 18.138895 -4.902621 29.749851 -0.666407 1.736346 0.052444 -0.009326 75837.400000 0 0 1
-23.494592 17.700195 -3.661221 29.642828 -0.645656 1.694624 0.041439 -0.006219 -716641.000000 0 0 1
-22.362692 17.375095 -2.716421 28.449303 -0.660538 1.666425 0.054203 -0.016412 -827038.000000 0 0 1
-21.762892 18.554695 -2.244821 28.686920 -0.705992 1.649129 0.067782 -0.019777 35394.900000 0 0 1
-20.785092 18.262095 -1.271321 27.697299 -0.720874 1.616713 0.099984 -0.028533 187223.000000 0 0 1
-19.807192 19.448795 -0.923121 27.774676 -0.776269 1.604039 0.085719 -0.033222 240247.000000 0 0 1
-20.371292 20.470995 -0.119021 28.880189 -0.787839 1.574918 0.067910 -0.022448 -75460.000000 0 0 1
-19.489192 21.539295 0.159479 29.048154 -0.835324 1.565306 0.069426 -0.038288 -315704.000000 0 0 1
-20.083392 22.599795 1.072879 30.253007 -0.844285 1.535325 0.065074 -0.023746 -130926.000000 0 0 1
-20.189792 22.240495 2.437879 30.136532 -0.833692 1.489813 0.043918 -0.016997 496398.000000 0 0 1
-21.503592 22.145895 3.019979 31.015567 -0.800112 1.473272 0.034437 -0.027108 570682.000000 0 0 1
-21.572392 21.833195 4.570379 31.031353 -0.791407 1.422976 0.038339 -0.015236 -69462.300000 0 0 1
-21.274992 22.957995 5.387579 31.760365 -0.823428 1.400340 0.041612 -0.020738 5239.070000 0 0 1
-20.610992 22.571795 6.605379 31.271871 -0.830774 1.357969 0.040130 -0.006395 -385980.000000 0 0 1
-21.389192 22.271195 7.857279 31.862839 -0.805597 1.321629 0.018741 0.003118 -761187.000000 0 0 1
-22.326592 21.200495 7.656379 31.726295 -0.759533 1.327064 0.034909 0.002493 760571.000000 0 0 1
-22.739292 20.536895 8.874279 31.899722 -0.734550 1.288884 0.058501 -0.006485 -59144.900000 0 0 1
-23.203992 21.316895 10.116179 33.093388 -0.743037 1.260138 0.062815 -0.010572 -660545.000000 0 0 1
-24.358392 22.104095 9.939679 34.361599 -0.736918 1.277335 0.073422 -0.011496 364938.000000 0 0 1
-24.837292 22.779995 11.098879 35.482451 -0.742220 1.252658 0.082661 -0.010821 -485768.000000 0 0 1
-26.033172 23.657695 10.806679 36.799414 -0.737629 1.272738 0.077648 -0.019374 -478524.000000 0 0 1
-26.692662 24.051895 11.998179 37.880709 -0.733405 1.248510 0.070605 -0.017683 163953.000000 0 0 1
-27.311292 25.344395 11.900879 39.113628 -0.748062 1.261630 0.061090 -0.015068 139060.000000 0 0 1
-28.032922 25.587395 13.221079 40.191497 -0.739822 1.235603 0.058648 -0.009933 -407721.000000 0 0 1
-27.047742 26.006495 14.116179 40.089707 -0.765775 1.210967 0.059812 -0.018229 -72017.000000 0 0 1
-27.439762 26.282395 15.478079 41.027744 -0.763858 1.183962 0.046531 -0.016786 -377265.000000 0 0 1
-26.275012 26.350395 16.463379 40.691061 -0.786831 1.154261 0.047746 -0.021591 -247958.000000 0 0 1
-25.649942 25.137695 16.849579 39.670285 -0.775312 1.132121 0.057310 -0.023944 56439.500000 0 0 1
-24.655592 25.479195 17.788479 39.667588 -0.801824 1.105779 0.066531 -0.022869 -110017.000000 0 0 1
-24.045592 24.208795 18.442979 38.786592 -0.788780 1.075265 0.076367 -0.015547 -693130.000000 0 0 1
-22.964892 24.318195 19.288179 38.610811 -0.814012 1.047713 0.071713 -0.021273 -318516.000000 0 0 1
-22.635692 23.034495 19.827179 37.895640 -0.794130 1.020189 0.078878 -0.019560 64741.300000 0 0 1
-21.141992 22.826595 20.189979 37.090059 -0.823693 0.995182 0.070476 -0.017207 174441.000000 0 0 1
-20.292892 22.830795 19.034879 35.991294 -0.844182 1.013522 0.072682 -0.025640 1617000.000000 0 0 1
-18.889592 22.500795 19.200479 35.096451 -0.872425 0.991927 0.057797 -0.027984 1321550.000000 0 0 1
-18.530392 21.005895 19.363679 34.052535 -0.847930 0.965943 0.059742 -0.024674 -527409.000000 0 0 1
-19.001492 20.476695 20.619479 34.720522 -0.822748 0.934936 0.071487 -0.024536 389394.000000 0 0 1
-18.209392 20.738095 21.796079 35.167024 -0.850233 0.902325 0.055612 -0.013386 -176137.000000 0 0 1
-18.974092 20.461895 23.100079 36.225943 -0.823107 0.879331 0.043292 -0.008641 856915.000000 0 0 1
-20.108592 21.375595 23.219979 37.422439 -0.815930 0.901438 0.045626 -0.009038 1033290.000000 0 0 1
-20.658692 21.441595 24.521779 38.572545 -0.803992 0.881841 0.056629 -0.006115 101434.000000 0 0 1
-21.798792 22.452795 24.714079 39.876071 -0.800176 0.902344 0.053502 -0.006210 -752180.000000 0 0 1
-21.373092 23.762995 24.967579 40.556985 -0.838298 0.907627 0.054508 -0.007040 542288.000000 0 0 1
-22.364792 24.743295 25.399279 41.923000 -0.835846 0.919956 0.043447 -0.002867 550588.000000 0 0 1
-23.328892 25.158595 24.252679 42.016479 -0.823116 0.955478 0.044850 -0.013072 -184794.000000 0 0 1
-24.194492 24.140095 23.826879 41.663387 -0.784273 0.961988 0.038957 -0.017175 -403137.000000 0 0 1
-24.770892 24.382795 22.576579 41.446588 -0.777503 0.994747 0.040414 -0.022244 904636.000000 0 0 1
-25.949982 23.328395 22.317379 41.420780 -0.732249 1.001788 0.034508 -0.015668 1498410.000000 0 0 1
-27.207072 23.489095 22.981279 42.662648 -0.712191 1.001933 0.016338 -0.022251 629618.000000 0 0 1
-28.020682 22.345195 22.766979 42.459412 -0.673186 1.004861 0.027126 -0.022127 223591.000000 0 0 1
-29.510832 22.587495 23.118679 43.767082 -0.653282 1.014293 0.031408 -0.015580 -63326.600000 0 0 1
-30.088612 23.493095 22.208679 44.164188 -0.662922 1.043885 0.026872 -0.016725 497752.000000 0 0 1
-31.492392 23.726395 22.313979 45.305918 -0.645674 1.055816 0.028468 -0.020781 721888.000000 0 0 1
-32.442172 22.851595 21.457379 45.112183 -0.613659 1.075099 0.024202 -0.029701 -765837.000000 0 0 1
-32.404172 21.512295 21.891579 44.632392 -0.586067 1.058149 0.022592 -0.023849 415888.000000 0 0 1
-33.006772 20.696395 20.887779 44.205057 -0.560061 1.078648 0.012702 -0.013781 555854.000000 0 0 1
-34.549327 20.720095 20.642679 45.266969 -0.540217 1.097277 0.007350 -0.022325 149406.000000 0 0 1
-34.963679 19.664595 19.847279 44.755666 -0.512336 1.111343 0.012529 -0.009452 409042.000000 0 0 1
35.534355 19.829595 19.533179 45.138103 0.508995 1.123264 0.030672 -0.018398 822698.000000 0 0 1
35.102205 18.975495 18.297679 43.898055 0.495581 1.140850 0.034552 -0.021723 -269802.000000 0 0 1
35.042575 17.568295 18.431879 43.316985 0.464720 1.131269 0.049036 -0.023745 303518.000000 0 0 1
34.628215 16.954995 17.236579 42.233693 0.455317 1.150398 0.056180 -0.025517 -48032.700000 0 0 1
34.581675 15.429895 17.408879 41.677848 0.419679 1.139883 0.067246 -0.029428 -165245.000000 0 0 1
34.052395 14.732995 16.353179 40.546926 0.408338 1.155660 0.078583 -0.035623 225016.000000 0 0 1
34.511065 13.371695 16.476579 40.512881 0.369650 1.151958 0.079972 -0.033335 136316.000000 0 0 1
33.711395 12.402295 15.581579 39.154319 0.352528 1.161512 0.077818 -0.036282 -34747.200000 0 0 1
33.740965 12.813295 14.234879 38.797745 0.362933 1.195122 0.070320 -0.035059 -126282.000000 0 0 1
32.847675 12.039995 13.532079 37.510644 0.351333 1.201721 0.081350 -0.028425 -686988.000000 0 0 1
32.958645 12.363995 12.033979 37.201577 0.358890 1.241391 0.100067 -0.031135 -345414.000000 0 0 1
34.152435 12.013295 11.384179 37.951385 0.338238 1.266138 0.095192 -0.029543 -8.290540 0 0 1
34.194795 12.405095 10.054679 37.739462 0.348012 1.301116 0.085580 -0.016107 -1537760.000000 0 0 1
35.575045 12.338195 9.476679 38.828113 0.333840 1.324238 0.065519 -0.006632 -1334070.000000 0 0 1
-35.638375 11.104995 9.479179 38.513238 -0.302067 1.322113 0.074928 -0.008176 -1058740.000000 0 0 1
-34.304412 11.292095 9.217179 37.272785 -0.318002 1.320914 0.056358 -0.002160 -1303920.000000 0 0 1
-33.844012 11.170995 7.744579 36.471726 -0.318813 1.356823 0.068145 -0.013020 -599428.000000 0 0 1
-34.391007 12.037095 6.787679 37.063535 -0.336681 1.386621 0.048542 -0.005300 26657.400000 0 0 1
-33.893352 11.705995 5.485079 36.275001 -0.332551 1.419006 0.045815 -0.011938 -39502.800000 0 0 1
-34.641978 12.481695 4.337179 37.076549 -0.345826 1.453549 0.067597 -0.002292 122188.000000 0 0 1
35.908865 12.058295 4.107579 38.101460 0.323971 1.462780 0.075171 -0.009166 643097.000000 0 0 1
34.906405 13.049195 4.339579 37.517603 0.357748 1.454869 0.044087 -0.005437 396051.000000 0 0 1
34.599125 13.451295 5.805179 37.573087 0.370793 1.415671 0.069042 -0.003568 -1472780.000000 0 0 1
33.763955 14.589195 5.830579 37.240367 0.407864 1.413583 0.079702 -0.000143 171940.000000 0 0 1
33.135545 14.886795 7.063879 37.006478 0.422246 1.378735 0.052675 -0.000396 -93922.800000 0 0 1
31.922325 14.018695 7.373179 35.635971 0.413795 1.362388 0.088627 -0.025237 -975227.000000 0 0 1
32.309085 12.758995 7.896279 35.623309 0.376106 1.347279 0.113341 -0.009912 98914.800000 0 0 1
31.254685 11.807795 7.778379 34.304264 0.361217 1.342060 0.119051 0.002672 88799.200000 0 0 1
31.215615 11.066595 6.416379 33.735057 0.340697 1.379431 0.124596 -0.009252 -186085.000000 0 0 1
30.801455 11.858795 5.341479 33.434893 0.367515 1.410351 0.121131 -0.012869 142455.000000 0 0 1
31.130805 11.199495 4.110079 33.338393 0.345340 1.447198 0.130889 -0.019870 309924.000000 0 0 1
30.228115 11.646395 2.879679 32.521839 0.367756 1.482134 0.099156 -0.030189 419371.000000 0 0 1
28.930645 11.098995 2.937679 31.125550 0.366325 1.476274 0.096080 -0.019884 83479.400000 0 0 1
28.122335 11.551695 1.872779 30.460051 0.389753 1.509274 0.090562 -0.018460 -232073.000000 0 0 1
26.687115 11.027995 1.806479 28.932372 0.391862 1.508318 0.113723 -0.007259 -209140.000000 0 0 1
26.628115 9.708295 1.254779 28.370442 0.349611 1.526553 0.075536 -0.017134 278184.000000 0 0 1
25.313415 9.161795 1.286179 26.951099 0.347267 1.523055 0.075998 -0.020658 -10583.200000 0 0 1
25.329515 7.613695 1.068579 26.470635 0.291994 1.530417 0.085180 -0.021570 316125.000000 0 0 1
25.887615 6.979895 2.210979 26.903085 0.263360 1.488520 0.091739 -0.015460 930483.000000 0 0 1
27.307255 7.048995 2.401679 28.304462 0.252622 1.485843 0.126387 -0.025336 268421.000000 0 0 1
27.818255 6.167395 3.616079 28.722258 0.218174 1.444563 0.119649 -0.033268 -737790.000000 0 0 1
29.182765 6.196095 3.869979 30.083253 0.209213 1.441797 0.139480 -0.030722 -467253.000000 0 0 1
29.443295 5.459595 5.054679 30.368809 0.183345 1.403575 0.111491 -0.018951 -293160.000000 0 0 1
30.922865 5.506395 5.444379 31.877660 0.176222 1.399165 0.113343 -0.019915 -253725.000000 0 0 1
31.431615 6.725295 5.981879 32.694937 0.210788 1.386799 0.122707 -0.027309 -1051870.000000 0 0 1
32.655015 6.477995 6.551479 33.929873 0.195834 1.376487 0.087925 -0.018221 -991565.000000 0 0 1
33.126495 7.646095 7.452879 34.804782 0.226842 1.354991 0.094606 -0.028342 152800.000000 0 0 1
32.369365 7.773495 8.666079 34.399185 0.235687 1.316125 0.115549 -0.026900 356083.000000 0 0 1
32.879815 8.831395 9.476479 35.339488 0.262403 1.299318 0.106096 -0.024963 238574.000000 0 0 1
32.091125 8.954695 10.841479 35.036617 0.272118 1.256200 0.100304 -0.022289 -837534.000000 0 0 1
30.786685 9.416295 10.768979 33.947864 0.296821 1.247999 0.102334 -0.028194 -481481.000000 0 0 1
30.169485 9.222795 12.028179 33.762922 0.296677 1.206540 0.081423 -0.026313 90680.900000 0 0 1
28.780155 9.861395 12.293079 32.812562 0.330108 1.186782 0.080055 -0.029906 -125980.000000 0 0 1
28.802795 11.305795 12.396879 33.333236 0.374045 1.189733 0.079524 -0.031650 76607.200000 0 0 1
28.799345 12.030495 11.140479 33.139785 0.395701 1.227953 0.099870 -0.036411 -75184.200000 0 0 1
27.519425 12.101795 10.247479 31.761345 0.414301 1.242279 0.082458 -0.030461 82995.600000 0 0 1
27.543185 13.034895 9.162879 31.819709 0.442022 1.278698 0.077609 -0.017866 -327097.000000 0 0 1
26.280715 13.046395 8.565879 30.565646 0.460783 1.286747 0.071745 -0.013619 -435620.000000 0 0 1
26.018515 14.114695 7.512979 30.539034 0.497056 1.322232 0.060510 -0.016232 -136351.000000 0 0 1
25.940015 15.446095 8.064479 31.249033 0.537070 1.309771 0.066507 -0.005598 319292.000000 0 0 1
25.864715 16.452695 7.091979 31.463802 0.566546 1.343441 0.046932 0.000727 -805562.000000 0 0 1
25.548215 17.848095 7.629879 32.085524 0.609789 1.330698 0.069548 -0.005645 52315.500000 0 0 1
24.233115 18.303595 7.858679 31.369161 0.646893 1.317576 0.065716 -0.006225 121252.000000 0 0 1
23.414515 17.534895 8.758879 30.535717 0.642790 1.279869 0.059232 -0.007031 -393104.000000 0 0 1
22.088915 18.286095 8.975479 30.047640 0.691488 1.267457 0.044845 -0.002813 -369585.000000 0 0 1
21.379015 18.327295 7.755379 29.207840 0.708692 1.302049 0.039877 -0.001934 98214.600000 0 0 1
20.212515 19.124495 7.871079 28.917917 0.757746 1.295131 0.042261 -0.001680 377135.000000 0 0 1
19.558915 19.596895 6.513579 28.443209 0.786368 1.339743 0.037691 0.001007 745596.000000 0 0 1
20.478215 20.401595 5.734379 29.469738 0.783524 1.374962 0.035614 0.007489 653999.000000 0 0 1
19.897915 20.688695 4.461879 29.049225 0.804879 1.416589 0.026988 -0.000494 -29527.200000 0 0 1
18.448908 17.465895 32.497113 41.249025 0.758034 0.663523 0.041649 -0.012262 -245128.000000 0 0 1
17.433408 18.198095 31.862033 40.623682 0.806856 0.669194 0.055078 -0.014829 -112554.000000 0 0 1
16.758708 17.374195 30.972423 39.268409 0.803428 0.662046 0.065737 -0.014691 -90595.100000 0 0 1
16.172108 18.007495 29.709593 38.320580 0.839045 0.683621 0.068051 -0.019429 -29674.100000 0 0 1
17.126708 18.248295 28.712403 38.088404 0.817093 0.716916 0.075296 -0.020922 -39150.800000 0 0 1
16.507308 18.802095 27.559533 37.222814 0.850298 0.737141 0.080353 -0.033478 470942.000000 0 0 1
17.619708 19.016795 26.447383 37.034534 0.823513 0.775419 0.079671 -0.026032 734043.000000 0 0 1
18.456708 20.089595 26.870043 38.291528 0.827735 0.792983 0.083763 -0.020975 -358305.000000 0 0 1
19.447508 20.289195 25.912993 38.227480 0.806577 0.825944 0.067290 -0.019511 -722337.000000 0 0 1
20.301208 21.490995 26.225373 39.519263 0.813860 0.845162 0.070185 -0.015295 -307070.000000 0 0 1
19.574308 22.649695 26.114253 39.725514 0.858105 0.853477 0.080864 -0.018586 765654.000000 0 0 1
20.550808 23.680395 26.323753 40.939428 0.856036 0.872397 0.086934 -0.021045 768564.000000 0 0 1
19.839808 25.053795 26.329583 41.407216 0.901021 0.881662 0.097435 -0.027107 272340.000000 0 0 1
19.500708 25.469095 25.003573 40.671010 0.917347 0.908694 0.094527 -0.028969 65018.600000 0 0 1
18.468008 26.414195 24.943013 40.754520 0.960628 0.912171 0.090796 -0.029120 -110242.000000 0 0 1
18.400408 27.290195 23.649483 40.529345 0.977562 0.947746 0.078692 -0.032459 -1076860.000000 0 0 1
19.566508 27.981295 23.485883 41.441378 0.960560 0.968270 0.080119 -0.031237 -1030720.000000 0 0 1
19.324908 29.182295 22.815883 41.780653 0.985883 0.993110 0.072011 -0.023003 -1307630.000000 0 0 1
20.532508 29.997895 22.626783 42.818558 0.970573 1.014041 0.075300 -0.018747 -1616480.000000 0 0 1
21.340508 29.505195 21.619383 42.348218 0.944617 1.035013 0.061778 -0.025930 -734013.000000 0 0 1
22.540408 30.220295 21.535083 43.417693 0.929944 1.051813 0.043911 -0.021455 -195852.000000 0 0 1
23.111108 30.363795 20.125883 43.140868 0.920203 1.085449 0.037315 -0.017676 638589.000000 0 0 1
22.161408 31.130995 19.341683 42.829517 0.952144 1.102242 0.043679 -0.013992 766309.000000 0 0 1
22.496208 31.142895 17.975083 42.415361 0.945224 1.133174 0.050122 -0.006790 -332505.000000 0 0 1
21.866208 32.192495 17.059183 42.491217 0.974144 1.157669 0.052930 -0.016209 -397074.000000 0 0 1
22.504808 33.470195 17.172183 43.836106 0.978846 1.168279 0.052750 -0.008133 308476.000000 0 0 1
22.365808 34.305095 16.079583 43.995703 0.993039 1.196647 0.049238 -0.016325 -244544.000000 0 0 1
23.386908 33.979595 14.978383 43.885217 0.967991 1.222488 0.027236 -0.015497 -106213.000000 0 0 1
22.977108 32.876195 14.165383 42.537628 0.960810 1.231304 0.048703 -0.020693 781660.000000 0 0 1
21.977708 33.188295 13.152083 41.922069 0.985884 1.251681 0.035387 -0.024676 469530.000000 0 0 1
21.518008 32.041895 12.257383 40.496310 0.979415 1.263294 0.036240 -0.026326 -613157.000000 0 0 1
22.573908 31.610995 11.443383 40.494288 0.950659 1.284301 0.050514 -0.042855 -358896.000000 0 0 1
22.173108 30.475995 10.710183 39.180875 0.941812 1.293920 0.035602 -0.041859 -1059060.000000 0 0 1
23.261808 29.796895 9.794583 39.049975 0.907948 1.317267 0.034851 -0.038111 1167030.000000 0 0 1
24.389808 29.172395 10.446583 39.433773 0.874452 1.302681 0.040292 -0.031814 603601.000000 0 0 1
25.131108 30.045395 11.238183 40.750400 0.874229 1.291394 0.028898 -0.031863 -1477250.000000 0 0 1
26.607608 29.646695 11.536483 41.472663 0.839370 1.288907 0.035936 -0.024286 585969.000000 0 0 1
26.690308 28.439095 12.245483 40.879170 0.817109 1.266572 0.039150 -0.019296 -489166.000000 0 0 1
27.954408 28.305895 12.837183 41.802702 0.791646 1.258663 0.029560 0.001209 -226739.000000 0 0 1
28.142608 26.993895 13.626283 41.308018 0.764567 1.234630 0.018359 -0.013797 -197227.000000 0 0 1
29.144308 27.142995 14.600283 42.418170 0.749858 1.219411 0.001113 -0.005898 -89386.600000 0 0 1
29.521708 25.907695 15.162083 42.102597 0.720290 1.202397 0.012998 -0.005988 32256.400000 0 0 1
30.551208 25.962895 16.331283 43.291558 0.704387 1.183983 0.014680 -0.010475 -919086.000000 0 0 1
31.833708 26.184995 15.906183 44.181960 0.688344 1.202512 0.032818 -0.004603 -850515.000000 0 0 1
32.759508 26.201695 17.006283 45.265084 0.674631 1.185640 0.010609 -0.006852 -338766.000000 0 0 1
34.196308 26.456395 16.643183 46.328435 0.658474 1.203339 0.028270 -0.017761 -940779.000000 0 0 1
34.387808 27.810995 16.347883 47.151098 0.680051 1.216732 0.049605 -0.016232 527810.000000 0 0 1
35.778808 28.072195 16.131883 48.253589 0.665282 1.229918 0.063810 -0.014506 806785.000000 0 0 1
-35.868499 29.171195 15.061883 48.624769 -0.682787 1.255858 0.059012 -0.018015 -23705.900000 0 0 1
35.392508 30.361895 15.423383 49.115731 0.709041 1.251371 0.066487 -0.020298 -100654.000000 0 0 1
35.446208 31.337595 14.363983 49.444944 0.723954 1.276042 0.048238 0.004689 256574.000000 0 0 1
34.502308 32.569795 14.491483 49.610522 0.756594 1.274369 0.018458 0.004955 -753968.000000 0 0 1
34.420208 33.352195 13.329683 49.747362 0.769641 1.299534 -0.002038 0.007788 766330.000000 0 0 1
33.292308 34.254495 13.250683 49.571451 0.799642 1.300201 -0.014713 0.016374 713382.000000 0 0 1
31.901608 33.657395 12.996083 48.160471 0.812174 1.297560 0.000278 0.012334 -472650.000000 0 0 1
31.529808 32.814595 14.084683 47.637220 0.805363 1.270644 0.012544 -0.002624 423685.000000 0 0 1
30.576308 31.775095 13.685983 46.172215 0.804622 1.269863 0.023849 -0.001399 460690.000000 0 0 1
30.257808 30.655495 14.766283 45.533915 0.791927 1.240533 0.033299 -0.002583 -242438.000000 0 0 1
29.485408 31.185595 15.786683 45.729093 0.813414 1.218321 0.016165 -0.002392 -316171.000000 0 0 1
29.045808 30.225295 16.678983 45.115584 0.805295 1.192116 0.011330 0.003357 99468.000000 0 0 1
28.222308 30.938895 17.818183 45.510455 0.831284 1.168515 0.003507 0.009411 103698.000000 0 0 1
27.793208 30.118195 18.883183 45.123638 0.825524 1.139029 -0.015886 0.011849 151153.000000 0 0 1
28.755508 30.098595 19.931083 46.152494 0.808215 1.124250 -0.016266 0.007034 77283.500000 0 0 1
28.612108 28.982895 20.954083 45.801032 0.791836 1.095612 -0.008074 0.000072 439374.000000 0 0 1
27.365808 28.968095 21.669683 45.360921 0.813833 1.072742 0.003265 -0.006035 588993.000000 0 0 1
27.272908 28.048195 22.704283 45.232701 0.799412 1.044951 -0.001434 -0.005998 -413753.000000 0 0 1
25.879008 28.114995 23.319683 44.765876 0.826786 1.022862 0.015032 -0.011953 -213951.000000 0 0 1
24.861508 27.437795 22.564183 43.359769 0.834619 1.023484 0.044737 -0.018036 402139.000000 0 0 1
23.627108 27.307395 23.243483 42.944075 0.857528 0.998873 0.058345 -0.021680 78049.400000 0 0 1
23.516008 26.220895 24.353233 42.820765 0.839729 0.965842 0.053235 -0.020686 -842438.000000 0 0 1
24.340808 26.424095 25.468213 44.037911 0.826413 0.954123 0.033149 -0.017084 -30299.500000 0 0 1
24.084308 25.508395 26.520813 43.978241 0.814106 0.923485 0.043364 -0.019200 285796.000000 0 0 1
25.351308 25.370295 27.448583 45.163762 0.785772 0.917564 0.045323 -0.015453 700619.000000 0 0 1
25.638808 26.539895 28.208313 46.448072 0.802666 0.918128 0.030414 -0.019959 15730.400000 0 0 1
26.559808 27.370695 27.566733 47.058507 0.800433 0.944933 0.011899 -0.003460 -737752.000000 0 0 1
27.019708 28.639095 28.329713 48.506031 0.814485 0.947093 0.001618 -0.009812 263714.000000 0 0 1
27.893608 28.377495 29.466663 49.513835 0.793997 0.933382 0.002208 -0.006997 562153.000000 0 0 1
28.173108 29.591995 30.208733 50.813165 0.809956 0.934145 -0.002939 -0.012564 955219.000000 0 0 1
29.725208 29.830595 30.280063 51.868436 0.787168 0.947412 0.002040 -0.009836 791932.000000 0 0 1
30.330708 29.855695 29.018183 51.510866 0.777506 0.972372 -0.013310 -0.006540 -531852.000000 0 0 1
31.725808 30.021695 29.032503 52.447262 0.757807 0.984168 0.014726 -0.012598 -708653.000000 0 0 1
32.092508 30.488595 27.626733 52.179688 0.759774 1.012840 0.000129 -0.011906 -960681.000000 0 0 1
31.931008 31.870595 27.487393 52.828788 0.784451 1.023581 -0.017041 -0.006638 177378.000000 0 0 1
32.371208 32.362595 26.256203 52.769507 0.785265 1.050008 -0.006587 -0.009114 -333846.000000 0 0 1
31.890108 33.843995 26.162163 53.355916 0.815114 1.058325 -0.005266 -0.008741 -145074.000000 0 0 1
32.601308 -33.921126 26.971013 54.230283 -0.805236 1.050264 0.016541 -0.015382 172834.000000 0 0 1
32.318108 -32.591526 26.527033 53.012745 -0.789610 1.046747 0.017390 -0.011119 -320822.000000 0 0 1
33.278008 -31.563326 27.152143 53.300171 -0.758960 1.036286 0.037965 -0.018605 -122093.000000 0 0 1
33.181508 -31.376626 28.535783 53.849755 -0.757448 1.012296 0.038510 -0.025906 573299.000000 0 0 1
34.393808 -30.827026 29.046213 54.561177 -0.730765 1.009410 0.045154 -0.030293 86240.400000 0 0 1
34.253908 -30.377626 30.502043 55.013680 -0.725495 0.983101 0.043990 -0.029844 -218851.000000 0 0 1
34.187708 -31.331026 31.515823 56.068527 -0.741825 0.973880 0.059411 -0.031612 498544.000000 0 0 1
32.930508 -32.004126 31.561793 55.720995 -0.771133 0.968634 0.051559 -0.033403 -62579.700000 0 0 1
32.699508 -33.078126 32.587326 56.792201 -0.791154 0.959659 0.065102 -0.035109 -280110.000000 0 0 1
32.588108 -32.490826 33.880027 57.144508 -0.783903 0.936162 0.062680 -0.039524 10856.900000 0 0 1
33.016108 -33.311926 -33.662701 57.731492 -0.789858 2.193324 0.064581 -0.041428 33056.600000 0 0 1
32.177208 34.134095 -33.312701 57.534730 0.814900 2.188300 0.043381 -0.033151 29866.200000 0 0 1
32.315008 33.113695 -34.289579 57.589510 0.797605 2.208577 0.055023 -0.032982 35610.100000 0 0 1
31.473408 32.044995 -33.910921 56.279727 0.794397 2.217479 0.060451 -0.024684 113108.000000 0 0 1
31.498608 31.008595 33.546615 55.489374 0.777559 0.921584 0.037899 -0.021305 -507823.000000 0 0 1
32.713108 30.336995 33.519166 55.803361 0.747730 0.926463 0.050923 -0.026331 -603653.000000 0 0 1
32.841508 29.448895 32.453833 54.763613 0.730987 0.936493 0.041061 -0.024563 833241.000000 0 0 1
34.296608 28.858195 32.237953 55.211759 0.699498 0.947276 0.034030 -0.018411 907809.000000 0 0 1
34.695608 27.912895 33.225851 55.559627 0.677484 0.929766 0.031760 -0.014705 28439.400000 0 0 1
-35.858499 27.537495 32.994949 55.971531 -0.654890 0.940363 0.015782 -0.014248 -142365.000000 0 0 1
-35.394099 26.400295 33.926077 55.683898 -0.640869 0.915667 0.027688 -0.015346 25662.600000 0 0 1
-35.875999 25.163295 33.366022 55.077855 -0.611662 0.920029 0.012674 -0.009886 228145.000000 0 0 1
-35.809899 24.097795 34.288331 55.124788 -0.592331 0.899485 0.026565 -0.013302 -30856.800000 0 0 1
35.552608 22.747895 33.719174 54.022564 0.569198 0.896730 0.019322 -0.016959 -502692.000000 0 0 1
-35.406899 22.050295 32.967152 53.166692 -0.556993 0.901962 0.023024 -0.010907 -249101.000000 0 0 1
35.940808 20.939995 32.284713 52.654798 0.527545 0.910768 0.024068 -0.009684 308591.000000 0 0 1
-34.829299 20.238495 31.460953 51.112311 -0.526389 0.907743 0.012968 -0.009479 198380.000000 0 0 1
-34.187299 20.980195 30.492113 50.385603 -0.550420 0.920810 0.004025 -0.010314 -199282.000000 0 0 1
-33.211999 20.241595 29.769063 48.979140 -0.547351 0.917521 0.004050 -0.006670 30229.800000 0 0 1
-33.699599 19.278595 28.632163 48.240315 -0.519631 0.935356 0.018258 -0.005901 -171708.000000 0 0 1
-34.498799 18.191995 29.087993 48.654159 -0.485266 0.929977 0.016059 -0.002312 341033.000000 0 0 1
-34.994599 17.366395 28.032863 48.083833 -0.460651 0.948380 0.027679 -0.018072 -91565.600000 0 0 1
-35.607699 16.035495 28.479983 48.333785 -0.423135 0.940684 0.025027 -0.018059 -359508.000000 0 0 1
-34.665399 15.238295 29.125693 47.772393 -0.414157 0.915144 0.033832 -0.008612 -94243.900000 0 0 1
-35.101899 13.906295 29.232313 47.749937 -0.377200 0.911962 0.011435 -0.007183 -221174.000000 0 0 1
-34.027799 12.899195 29.679543 46.959084 -0.362341 0.886627 0.013760 0.004736 -1068750.000000 0 0 1
-33.814299 12.940695 31.050243 47.696813 -0.365503 0.861906 0.021188 0.009748 232778.000000 0 0 1
-32.968899 11.917395 31.532553 47.151612 -0.346860 0.838273 0.028989 0.006806 134651.000000 0 0 1
-31.442799 12.130895 31.403693 46.065173 -0.368213 0.820681 0.030742 0.002532 -1063530.000000 0 0 1
-31.018599 12.317595 30.057543 44.914725 -0.378007 0.837646 0.035242 -0.001767 880375.000000 0 0 1
-29.642899 12.722095 29.904143 43.986486 -0.405405 0.823240 0.039985 0.003619 1404890.000000 0 0 1
-28.545599 11.645195 30.192953 43.151781 -0.387342 0.795830 0.034317 0.004613 -246867.000000 0 0 1
-28.366599 10.633795 29.153413 42.043585 -0.358657 0.804586 0.028943 0.000098 1020130.000000 0 0 1
-27.144999 9.899795 29.442683 41.252012 -0.349711 0.775991 0.032251 -0.003965 1050460.000000 0 0 1
-26.974699 8.737295 28.387443 40.122583 -0.313243 0.784817 0.033018 -0.005931 66127.700000 0 0 1
-27.661299 7.522095 28.661263 40.536371 -0.265515 0.785478 0.039460 -0.009654 -106407.000000 0 0 1
-28.918099 7.513295 28.012273 40.955995 -0.254193 0.817619 0.042285 0.000157 103471.000000 0 0 1
-29.650399 6.124395 28.137793 41.332672 -0.203689 0.821991 0.039340 -0.008037 189640.000000 0 0 1
-30.126599 5.887595 29.487873 42.565366 -0.192996 0.805478 0.038887 -0.006679 236801.000000 0 0 1
-30.947499 4.732595 29.470703 42.996133 -0.151748 0.815607 0.047628 -0.007965 641857.000000 0 0 1
-31.797399 4.426295 30.809873 44.496235 -0.138314 0.805965 0.031597 -0.003061 432308.000000 0 0 1
-32.742899 5.417595 31.104803 45.485784 -0.163973 0.817790 0.038875 -0.004041 -126037.000000 0 0 1
-33.551899 4.990295 32.199283 46.769935 -0.147651 0.811431 0.044222 -0.009918 -320709.000000 0 0 1
-34.843699 5.674895 32.578992 48.038303 -0.161450 0.825502 0.040426 -0.004179 -676460.000000 0 0 1
-34.804599 7.072495 32.873860 48.394948 -0.200476 0.824011 0.040194 -0.015206 -755299.000000 0 0 1
35.909808 7.735895 32.538723 49.072670 0.212183 0.845881 0.030638 -0.012957 -509637.000000 0 0 1
35.770308 9.158695 33.109605 49.594784 0.250657 0.839812 0.021930 0.009191 -148579.000000 0 0 1
35.667808 9.100895 -34.139481 50.204810 0.249826 2.318565 0.028337 0.001963 278214.000000 0 0 1
35.460608 10.266395 -33.418981 49.796404 0.281810 2.306504 0.036540 0.004912 -209895.000000 0 0 1
35.396808 10.057995 -31.922841 48.715142 0.276853 2.285371 0.044038 -0.004614 266024.000000 0 0 1
34.154008 9.516595 -31.461061 47.401057 0.271745 2.296578 0.042574 -0.005947 639416.000000 0 0 1
34.107008 9.597295 -30.051261 46.459384 0.274295 2.274215 0.041432 0.000899 -226613.000000 0 0 1
32.798908 8.964895 -29.585711 45.071632 0.266812 2.286854 0.039153 0.000760 -384986.000000 0 0 1
32.854908 7.528395 -29.673061 44.906706 0.225252 2.292642 0.031801 -0.003745 828714.000000 0 0 1
31.605308 6.921495 -29.298031 43.648335 0.215594 2.306662 0.029877 0.000917 480414.000000 0 0 1
34.970635 6.004595 -19.192721 40.340563 0.170046 2.066633 0.020262 -0.014390 -715257.000000 0 0 1
34.645695 7.120295 -18.391621 39.865706 0.202695 2.050301 0.013516 0.008722 484698.000000 0 0 1
35.079865 8.407795 -18.964521 40.754644 0.235238 2.054808 -0.001390 -0.001018 1103310.000000 0 0 1
-35.234891 8.663695 -18.844521 40.886099 -0.241101 2.049809 0.015335 -0.002275 1354810.000000 0 0 1
-34.544191 7.685095 -19.615721 40.461566 -0.218906 2.076929 0.015443 -0.015687 -329188.000000 0 0 1
-34.035590 8.195795 -20.796821 40.719776 -0.236302 2.106830 0.011648 -0.009369 -436922.000000 0 0 1
-33.309972 7.238595 -21.746921 40.433650 -0.213983 2.138672 0.010922 0.001061 360154.000000 0 0 1
-34.192327 6.197595 -22.230221 41.251765 -0.179310 2.139917 0.015394 0.000624 507245.000000 0 0 1
-34.914846 6.488095 -23.367921 42.511193 -0.183731 2.152788 0.016541 0.000884 -191872.000000 0 0 1
-34.753961 5.335795 -24.381621 42.787521 -0.152341 2.177096 0.035966 -0.000093 60981.700000 0 0 1
-33.477992 5.340495 -24.983621 42.112684 -0.158190 2.205894 0.048376 0.000931 74210.300000 0 0 1
-33.238112 4.077595 -25.665931 42.191692 -0.122068 2.224735 0.067618 -0.009387 -505684.000000 0 0 1
-31.972292 4.013495 -26.509621 41.726437 -0.124877 2.259219 0.084802 -0.014753 357908.000000 0 0 1
-30.792792 3.973295 -25.694211 40.301061 -0.128324 2.262119 0.072918 -0.012210 650617.000000 0 0 1
-29.594872 3.749895 -26.419091 39.848294 -0.126036 2.295604 0.078585 -0.009222 204174.000000 0 0 1
-28.278122 4.006395 -25.690541 38.414935 -0.140742 2.303342 0.053365 -0.005555 -323980.000000 0 0 1
-28.045462 5.389795 -25.342461 38.181646 -0.189866 2.296596 0.023743 0.008902 711161.000000 0 0 1
-26.682312 5.680995 -25.019221 37.015954 -0.209780 2.312987 0.025973 0.007382 546360.000000 0 0 1
-26.227972 7.115795 -25.217891 37.074021 -0.264928 2.318837 0.012129 0.006993 -83706.600000 0 0 1
-26.964342 8.105995 -24.480121 37.310309 -0.292025 2.286465 0.010035 0.009111 132630.000000 0 0 1
-26.669122 9.479195 -24.833821 37.653895 -0.341510 2.290988 -0.005390 0.002102 -440232.000000 0 0 1
-25.372082 10.067795 -24.287921 36.537735 -0.377750 2.297936 0.031267 -0.000883 -521401.000000 0 0 1
-25.469692 10.364995 -22.942021 35.811655 -0.386487 2.266115 0.015931 0.001816 -4905.850000 0 0 1
-24.212292 10.658095 -22.381621 34.652085 -0.414669 2.272992 0.057630 -0.004522 -442447.000000 0 0 1
-24.137492 10.995395 -20.841921 33.732816 -0.427445 2.236806 0.073178 -0.018610 -920028.000000 0 0 1
-24.492792 12.342495 -20.553721 34.273743 -0.466782 2.213914 0.059918 -0.018963 485345.000000 0 0 1
-25.864612 12.696995 -20.553921 35.392873 -0.456343 2.190429 0.051728 -0.008194 68230.400000 0 0 1
-26.878502 11.950695 -19.642121 35.370692 -0.418370 2.159546 0.031979 -0.005499 -558770.000000 0 0 1
-26.481252 12.025795 -18.322421 34.374228 -0.426279 2.132971 0.033979 -0.018018 273855.000000 0 0 1
-27.460272 11.450495 -17.489421 34.511740 -0.395061 2.102227 0.017597 -0.014083 -481941.000000 0 0 1
-26.879862 11.062695 -16.063621 33.210692 -0.390433 2.075660 0.032725 -0.014544 -79622.700000 0 0 1
-26.090052 9.908795 -16.073621 32.206153 -0.362965 2.093339 0.048294 -0.017555 997359.000000 0 0 1
-24.720892 10.237095 -16.397921 31.381721 -0.392608 2.120613 0.055729 -0.018630 -197865.000000 0 0 1
-23.860192 8.975195 -16.304721 30.260647 -0.359785 2.139819 0.048722 -0.015390 -692127.000000 0 0 1
-22.494992 9.270395 -16.212321 29.237035 -0.390902 2.158574 0.058977 -0.020443 -399006.000000 0 0 1
-21.753492 8.153195 -15.896921 28.149619 -0.358595 2.170902 0.053102 -0.018501 -202148.000000 0 0 1
-20.226792 8.285295 -15.715221 26.920947 -0.388772 2.194141 0.075559 -0.021486 318041.000000 0 0 1
-19.571292 8.739995 -16.900121 27.295367 -0.420000 2.238465 0.089211 -0.037163 -94369.600000 0 0 1
-18.176492 8.781795 -16.783521 26.252454 -0.450069 2.264400 0.081194 -0.033695 -387675.000000 0 0 1
-17.397392 9.408895 -18.008921 26.749164 -0.495770 2.309394 0.067117 -0.025860 88812.900000 0 0 1
-17.175592 8.657395 -19.197221 27.175075 -0.466884 2.355234 0.089817 -0.036121 293612.000000 0 0 1
-16.218092 7.621895 -19.038021 26.145095 -0.439330 2.386442 0.088295 -0.032077 -227862.000000 0 0 1
-15.794492 6.808695 -20.331221 26.630487 -0.407009 2.439445 0.075960 -0.033525 858066.000000 0 0 1
-16.750392 5.813795 -20.817621 27.345002 -0.334075 2.436105 0.070530 -0.025924 1024080.000000 0 0 1
-17.729192 6.420495 -21.697421 28.745870 -0.347451 2.426147 0.081607 -0.032357 283669.000000 0 0 1
-18.778892 5.450395 -22.229321 29.605680 -0.282479 2.420139 0.083345 -0.025129 -326341.000000 0 0 1
-19.577192 4.781795 -21.275321 29.304799 -0.239563 2.383286 0.094978 -0.023805 237030.000000 0 0 1
-20.120092 3.631395 -21.894321 29.956074 -0.178564 2.390408 0.065831 -0.006484 -58864.300000 0 0 1
-21.169392 2.935295 -20.972321 29.943235 -0.137779 2.346758 0.069295 -0.006391 43752.200000 0 0 1
-21.872692 1.839495 -21.477921 30.709924 -0.083903 2.345327 0.063340 -0.004224 405846.000000 0 0 1
-22.629292 1.249995 -20.419221 30.505604 -0.055182 2.304143 0.064404 -0.006605 -260788.000000 0 0 1
-23.278792 -0.099605 -20.758221 31.189995 0.004279 2.299015 0.062724 0.003618 9689.650000 0 0 1
-22.350692 -1.173805 -20.709221 30.492672 0.052469 2.317406 0.058034 -0.006307 291932.000000 0 0 1
-22.896892 -2.402805 -21.191421 31.290852 0.104558 2.314801 0.071510 -0.014504 -301026.000000 0 0 1
-23.173192 -2.476805 -22.800121 32.603326 0.106478 2.345240 0.072192 -0.024594 199737.000000 0 0 1
-22.091592 -2.454305 -23.718721 32.505996 0.110643 2.388639 0.043966 -0.021876 -105250.000000 0 0 1
-21.250492 -3.577205 -23.775421 32.088166 0.166772 2.405266 0.031426 -0.030546 593787.000000 0 0 1
-20.165192 -3.414205 -24.941021 32.254399 0.167721 2.454762 0.042273 -0.026689 751112.000000 0 0 1
-20.754692 -3.544905 -26.227131 33.633108 0.169168 2.465144 0.037662 -0.028300 804430.000000 0 0 1
-19.766492 -3.718205 -27.256791 33.874354 0.185934 2.505872 0.042141 -0.030192 271349.000000 0 0 1
-20.443792 -3.736205 -28.659101 35.401298 0.180760 2.514181 0.038444 -0.028638 159489.000000 0 0 1
-21.407892 -4.766705 -28.633581 36.068009 0.219087 2.487956 0.045650 -0.021562 68644.100000 0 0 1
-22.164892 -4.858505 -29.808571 37.462493 0.215785 2.490944 0.025234 -0.021078 -196789.000000 0 0 1
-21.950692 -6.273405 -30.383261 38.004355 0.278375 2.497205 0.038043 -0.017508 171122.000000 0 0 1
-20.648192 -6.297605 -30.947991 37.733086 0.296033 2.532525 0.024107 -0.020574 189789.000000 0 0 1
-20.250892 -7.550605 -31.504541 38.205318 0.356887 2.540311 0.014920 -0.013253 62630.700000 0 0 1
-18.819392 -7.402205 -32.080121 37.922240 0.374742 2.579131 0.028072 -0.018087 -151660.000000 0 0 1
-18.776092 -6.805905 -33.413211 38.926914 0.347747 2.602856 0.030994 -0.022895 280819.000000 0 0 1
-19.147692 -7.799305 34.236836 39.995303 0.386804 0.543273 0.025090 -0.015027 -699644.000000 0 0 1
-19.181592 -7.203005 32.830391 38.699501 0.359223 0.557951 0.030107 -0.015873 609714.000000 0 0 1
-17.906292 -6.956505 32.223923 37.515457 0.370549 0.537580 0.026814 -0.016727 795349.000000 0 0 1
-17.095992 -5.917705 32.805926 37.463595 0.333237 0.503965 0.024062 -0.018750 -74419.000000 0 0 1
-15.693192 -5.907005 32.169423 36.277276 0.360002 0.480497 0.017904 -0.021921 -6050.430000 0 0 1
-15.873992 -5.608805 30.756593 35.062948 0.339641 0.500834 0.011589 -0.015133 140729.000000 0 0 1
-14.635292 -5.410905 30.121263 33.922856 0.354130 0.477962 0.008688 -0.016189 -133423.000000 0 0 1
-14.805692 -5.327705 28.563183 32.610557 0.345415 0.503524 0.008537 -0.000607 651976.000000 0 0 1
-15.720092 -4.254705 28.165233 32.534661 0.264321 0.524251 -0.001802 -0.005261 708072.000000 0 0 1
-16.294992 -4.282805 26.850053 31.698494 0.257017 0.560395 0.011860 -0.006176 104981.000000 0 0 1
-15.415792 -3.977605 25.597003 30.144229 0.252514 0.556421 0.018186 -0.008742 18315.200000 0 0 1
-15.105892 -2.632905 25.445313 29.708318 0.172563 0.542337 0.017463 0.000038 -236238.000000 0 0 1
-14.237392 -2.386505 24.378313 28.331977 0.166078 0.534640 0.016335 0.000044 -362571.000000 0 0 1
-13.884592 -0.874305 24.212713 27.924931 0.062886 0.521517 0.022574 -0.011505 -507290.000000 0 0 1
-14.938692 -0.061405 23.769923 28.074500 0.004110 0.561095 0.025825 -0.017135 -60629.800000 0 0 1
-14.883192 1.245295 24.294803 28.518374 -0.083477 0.551194 0.019305 -0.006974 -426861.000000 0 0 1
-15.781192 2.211995 23.495383 28.389646 -0.139259 0.595971 0.023382 -0.013911 -540318.000000 0 0 1
-15.223792 2.824795 22.393283 27.225033 -0.183465 0.604959 0.022727 -0.012187 -212119.000000 0 0 1
-16.135892 3.654295 21.743383 27.322072 -0.222713 0.650440 0.026386 -0.007877 -359794.000000 0 0 1
-15.473792 4.565695 20.702783 26.246696 -0.286918 0.661980 0.026513 -0.004265 -128991.000000 0 0 1
-14.528192 5.480995 21.212783 26.288626 -0.360756 0.631880 0.042020 -0.010307 -247471.000000 0 0 1
-13.537692 5.575095 20.236583 24.977392 -0.390654 0.626310 0.046996 -0.008551 447083.000000 0 1 0
-12.318792 6.546195 20.592683 24.872955 -0.488450 0.595417 0.035212 -0.011461 827585.000000 0 1 0
-12.626092 7.927795 20.528683 25.371144 -0.560675 0.628118 0.044676 -0.017329 -242915.000000 0 0 1
-11.504692 8.739395 20.560683 25.129199 -0.649641 0.612525 0.044013 -0.021596 -427436.000000 0 0 1
-11.985892 10.204495 20.541883 25.879766 -0.705292 0.653858 0.040891 -0.019196 94152.900000 0 0 1
-12.382892 10.650695 19.262883 25.255336 -0.710336 0.703280 0.043975 -0.020538 300835.000000 0 0 1
-12.993192 11.938495 19.313083 26.160005 -0.743120 0.740298 0.026008 -0.014126 -266297.000000 0 0 1
-13.230092 12.544195 17.931983 25.572410 -0.758793 0.793684 0.032836 -0.019384 -102207.000000 0 0 1
-12.151792 13.245095 17.321283 24.962481 -0.828420 0.803915 0.035877 -0.023636 290051.000000 0 1 0
-12.008592 14.532395 17.844583 25.958157 -0.880204 0.812843 0.038176 -0.033124 43317.800000 0 0 1
-13.113792 15.607695 17.465883 26.844529 -0.872011 0.862381 0.038973 -0.021539 318330.000000 0 0 1
-13.051792 16.187895 16.124283 26.313299 -0.892245 0.911222 0.026622 -0.029284 112266.000000 0 0 1
-13.561292 15.345995 15.078983 25.431947 -0.847059 0.936122 0.036588 -0.036930 -60217.000000 0 0 1
-14.080292 16.045995 13.782083 25.410124 -0.850555 0.997522 0.028273 -0.034591 555491.000000 0 0 1
-15.182092 16.941795 13.946783 26.683948 -0.840122 1.020822 0.029732 -0.026938 84481.700000 0 0 1
-15.581692 17.506895 12.683483 26.648663 -0.843516 1.074750 0.022736 -0.019339 128455.000000 0 0 1
-16.829192 18.406195 12.865683 28.063063 -0.830125 1.094539 0.037970 -0.015591 -662609.000000 0 0 1
-17.975792 17.721695 13.207783 28.489175 -0.778280 1.088734 0.052187 -0.015055 -1729550.000000 0 0 1
-18.991192 18.601795 13.427683 29.782458 -0.775040 1.103069 0.056503 -0.014464 -681350.000000 0 0 1
-20.376292 17.965895 13.661983 30.407506 -0.722615 1.104819 0.070958 -0.012508 251299.000000 0 0 1
-20.844592 17.241595 12.539683 29.816325 -0.691078 1.136729 0.062839 -0.012624 -780989.000000 0 0 1
-22.152692 16.800595 12.698983 30.565764 -0.648855 1.142343 0.073440 -0.014820 -445759.000000 0 0 1
-22.783292 16.192695 11.399983 30.186775 -0.617889 1.183541 0.064838 -0.013187 -187308.000000 0 0 1
-22.330192 14.918195 11.080283 29.051036 -0.588975 1.179478 0.052628 -0.012835 12628.000000 0 0 1
-22.913392 14.364295 9.883983 28.793222 -0.559961 1.220395 0.050004 -0.011984 -173050.000000 0 0 1
-22.190692 13.173295 9.231683 27.407781 -0.535730 1.227251 0.073353 -0.015813 -650795.000000 0 0 1
-22.245492 11.999795 9.959083 27.166898 -0.494689 1.195456 0.062014 -0.021003 1120510.000000 0 0 1
-23.527292 11.325495 10.065183 27.984071 -0.448638 1.202876 0.064114 -0.016676 1055780.000000 0 0 1
-24.139092 10.695795 8.780083 27.824192 -0.417093 1.249754 0.074012 -0.013809 -164121.000000 0 0 1
-24.419092 11.644995 7.803983 28.156706 -0.444982 1.289957 0.074221 -0.015183 -970863.000000 0 0 1
-25.671962 11.435495 7.271383 29.029178 -0.419061 1.317615 0.098918 -0.016630 -1127130.000000 0 0 1
-26.137882 12.704195 6.465083 29.772181 -0.452422 1.351901 0.078086 -0.009357 -683085.000000 0 0 1
-25.610672 13.063595 5.237683 29.223233 -0.471682 1.390592 0.083275 -0.017801 1082710.000000 0 0 1
-24.253392 13.580295 5.253083 28.288625 -0.510438 1.384016 0.078657 -0.020331 919149.000000 0 0 1
-24.008692 14.990495 5.905483 28.913785 -0.558152 1.365104 0.071000 -0.017160 246061.000000 0 0 1
-22.636092 15.436295 5.893583 28.025099 -0.598497 1.358918 0.050659 -0.012666 1079210.000000 0 0 1
-22.502392 16.688395 6.506683 28.761034 -0.638121 1.342588 0.051210 -0.009156 -535682.000000 0 0 1
-21.122992 17.315995 6.376883 28.047978 -0.686680 1.341434 0.036002 -0.003826 -583623.000000 0 0 1
-20.648092 17.693495 5.084183 27.663195 -0.708490 1.385957 0.043598 -0.018823 752444.000000 0 0 1
-19.420492 18.412995 5.181583 27.258809 -0.758775 1.379544 0.042947 -0.006118 27213.600000 0 0 1
-18.731192 18.878395 3.914683 26.880775 -0.789312 1.424645 0.044986 -0.018837 -1083770.000000 0 0 1
-17.431192 19.236595 4.233183 26.302336 -0.834595 1.409150 0.029502 -0.015838 -593279.000000 0 0 1
-16.855392 20.222895 3.391083 26.543721 -0.875971 1.442692 0.043227 -0.018547 -19928.000000 0 0 1
-17.282992 21.654795 3.738583 27.957270 -0.897207 1.436670 0.042161 -0.024131 -309154.000000 0 0 1
-16.664792 22.111495 4.928583 28.123378 -0.924950 1.394638 0.035250 -0.020981 87004.900000 0 0 1
-16.834792 23.506495 5.191383 29.375431 -0.949296 1.393138 0.020789 -0.019305 -324081.000000 0 0 1
-16.100492 23.925195 6.480883 29.557446 -0.978455 1.349736 0.012556 -0.001437 -409771.000000 0 0 1
-16.631092 23.358895 7.653483 29.678393 -0.952075 1.309968 0.014387 0.003605 508137.000000 0 0 1
-15.840592 23.633695 8.828983 29.789710 -0.980314 1.269899 0.017971 -0.006013 212734.000000 0 0 1
-16.524892 23.036595 10.043283 30.076973 -0.948532 1.230338 0.015180 0.004277 151472.000000 0 0 1
-17.800292 23.567695 10.321483 31.286093 -0.923922 1.234592 0.017478 -0.006305 -90169.300000 0 0 1
-18.572992 22.722295 11.141183 31.390837 -0.885541 1.207970 0.024420 -0.005574 468107.000000 0 0 1
-19.913492 23.340295 11.652383 32.819119 -0.864459 1.207830 0.038045 -0.011719 753640.000000 0 0 1
-20.834592 23.815795 10.652983 33.387997 -0.852067 1.246052 0.048815 -0.002569 365076.000000 0 0 1
-20.531192 25.100095 10.138983 33.975632 -0.885192 1.267760 0.022185 -0.003780 31744.900000 0 0 1
-21.764592 25.974695 9.707583 35.250807 -0.873360 1.291805 0.027337 -0.012348 244468.000000 0 0 1
-22.545792 26.342195 10.799683 36.316072 -0.862898 1.268849 0.048742 -0.025744 155856.000000 0 0 1
-23.493492 27.359195 10.461083 37.548688 -0.861270 1.288460 0.046122 -0.018712 146355.000000 0 0 1
-24.420592 27.746895 11.629683 38.749258 -0.849074 1.265971 0.048683 -0.024543 21014.800000 0 0 1
-23.697492 28.248495 12.745183 39.012668 -0.872785 1.237993 0.041850 -0.018213 548399.000000 0 0 1
-24.635092 28.714695 13.684783 40.233006 -0.861719 1.223732 0.039242 -0.012049 87437.500000 0 0 1
8.888208 -33.247026 28.259573 44.530534 -1.309567 0.883291 0.027066 -0.008876 564632.000000 0 0 1
10.238308 -32.950126 27.891763 44.367603 -1.269533 0.890978 0.005771 -0.012401 850520.000000 0 0 1
10.298208 -32.810226 26.513263 43.422542 -1.266662 0.913994 0.011678 -0.009025 -410433.000000 0 0 1
11.732308 -33.008626 26.011543 43.632750 -1.229291 0.932103 -0.005754 -0.000209 -517709.000000 0 0 1
12.197708 -34.312226 26.150843 44.832795 -1.229238 0.948014 0.004962 -0.021376 881262.000000 0 0 1
13.634308 -34.320426 26.061733 45.199557 -1.192650 0.956244 0.013197 -0.015036 695209.000000 0 0 1
14.371208 33.082395 25.789803 44.340618 1.160985 0.950066 0.030729 -0.012754 -172627.000000 0 0 1
14.339608 32.700695 24.421063 43.259081 1.157538 0.970932 0.033533 -0.020697 1031380.000000 0 0 1
15.389808 31.736795 24.135983 42.738929 1.119285 0.970689 0.039095 -0.023711 -46940.700000 0 0 1
15.551608 31.227595 22.668283 41.603681 1.108743 0.994571 0.049838 -0.032409 -520417.000000 0 0 1
14.587608 30.355995 22.153783 40.312217 1.122829 0.988965 0.043039 -0.020222 -351345.000000 0 0 1
14.803108 28.945595 22.303683 39.426308 1.098061 0.969508 0.052392 -0.021465 -98201.500000 0 0 1
14.374408 28.370895 23.651653 39.634984 1.101835 0.931368 0.056075 -0.024344 47027.000000 0 0 1
15.247708 28.686195 24.738083 40.833358 1.082240 0.919987 0.062880 -0.026310 607502.000000 0 0 1
14.688608 28.168295 25.962733 41.027693 1.090129 0.885619 0.061472 -0.023486 319244.000000 0 0 1
15.531008 28.489995 27.247303 42.371070 1.071693 0.872304 0.064794 -0.029946 186307.000000 0 0 1
15.420808 29.825095 27.602773 43.465512 1.093609 0.882723 0.054713 -0.024785 168940.000000 0 0 1
16.299508 30.110195 28.670933 44.657812 1.074635 0.873674 0.067453 -0.030302 16379.000000 0 0 1
16.187508 31.512995 29.327643 45.991466 1.096267 0.879319 0.065363 -0.034706 -296504.000000 0 0 1
16.579408 32.567895 28.507963 46.349202 1.099917 0.908323 0.062572 -0.030421 5021.950000 0 0 1
16.160908 33.783895 29.112753 47.434997 1.124609 0.910007 0.043538 -0.015971 160806.000000 0 0 1
16.810208 -33.692726 28.380473 47.151184 -1.108008 0.924913 0.036993 -0.019434 -234271.000000 0 0 1
16.542608 -33.543026 27.015483 46.137066 -1.112623 0.945240 0.051316 -0.016228 -252106.000000 0 0 1
16.895508 -32.276426 26.499643 45.049495 -1.088555 0.941923 0.033135 -0.015630 -263570.000000 0 0 1
18.365908 -31.827526 26.328213 45.204788 -1.047427 0.949093 0.049466 -0.008912 -135699.000000 0 0 1
18.951708 -31.366426 27.555673 45.851227 -1.027292 0.926070 0.039438 -0.006341 135155.000000 0 0 1
19.945708 -30.440826 27.102443 45.376399 -0.990754 0.930690 0.041980 -0.001219 314785.000000 0 0 1
20.413508 -29.455826 28.238803 45.626604 -0.964770 0.903441 0.037576 -0.005586 171099.000000 0 0 1
19.309408 -28.647026 28.605513 44.852879 -0.977702 0.879206 0.043466 -0.008872 343215.000000 0 0 1
19.658908 -27.608326 29.486193 44.923579 -0.952019 0.854808 0.046895 -0.004267 -570411.000000 0 0 1
18.452008 -26.797926 29.899493 44.188066 -0.967789 0.827604 0.044692 -0.009137 -650658.000000 0 0 1
17.843408 -26.135326 28.845873 42.819702 -0.971754 0.831648 0.049059 -0.013696 631011.000000 0 0 1
16.533408 -25.762126 29.309823 42.380496 -1.000227 0.807112 0.033844 -0.012489 418187.000000 0 0 1
15.644508 -24.951526 28.383563 40.901784 -1.010763 0.803844 0.029688 -0.013673 -741863.000000 0 0 1
15.114008 -25.638526 27.297163 40.384432 -1.038130 0.828567 0.026817 -0.010207 120536.000000 0 0 1
14.319308 -24.977526 26.365633 39.039288 -1.050250 0.829342 0.023744 -0.005264 255909.000000 0 0 1
12.862908 -24.489726 26.783133 38.503731 -1.087164 0.801544 0.001695 -0.004469 984455.000000 0 0 1
11.935908 -25.520226 27.074543 39.074016 -1.133318 0.805287 0.006444 -0.000279 254516.000000 0 0 1
11.592808 -26.361926 25.975103 38.782088 -1.156494 0.836896 -0.006106 -0.003429 -821752.000000 0 0 1
11.016908 -27.798226 26.339373 39.848165 -1.193469 0.848655 0.006025 -0.007660 -532320.000000 0 0 1
9.747708 -27.735126 26.900643 39.848458 -1.232824 0.829732 0.000401 -0.010262 -841021.000000 0 0 1
9.217808 -29.028726 27.038243 40.727160 -1.263326 0.844791 0.010615 -0.008929 -532841.000000 0 0 1
7.730808 -29.038026 27.438513 40.692068 -1.310601 0.830785 0.006466 -0.004946 -201395.000000 0 0 1
6.770508 -28.636326 26.474343 39.582443 -1.338629 0.838148 0.009562 -0.008875 29191.500000 0 0 1
6.907808 -27.413026 25.736413 38.230286 -1.323946 0.832276 0.037435 -0.017356 -919614.000000 0 0 1
5.727208 -27.009726 24.786823 37.104081 -1.361849 0.839231 0.026594 -0.020097 -308801.000000 0 0 1
5.602708 -27.862026 23.620853 36.954398 -1.372355 0.877353 0.012510 -0.012903 -3545.460000 0 0 1
4.847308 -29.076526 23.757183 37.859537 -1.405607 0.892447 0.015953 -0.007142 267298.000000 0 0 1
3.335108 -28.885026 24.077763 37.751905 -1.455844 0.879172 0.040933 -0.016608 -762599.000000 0 0 1
2.571808 -28.552926 22.905083 36.695049 -1.480967 0.896688 0.042430 -0.011424 -285864.000000 0 0 1
1.243208 -28.267226 23.201983 36.591169 -1.526844 0.883969 0.061003 -0.018341 -453062.000000 0 0 1
0.976508 -26.856226 23.838163 35.923091 -1.534452 0.845190 0.057266 -0.020258 -471215.000000 0 0 1
1.742108 -26.673026 25.022633 36.614443 -1.505575 0.818374 0.048283 -0.024462 46537.000000 0 0 1
1.474208 -25.372126 25.584353 36.062130 -1.512758 0.782076 0.055765 -0.019737 -248671.000000 0 0 1
2.705108 -24.702226 26.226653 36.129696 -1.461722 0.758450 0.069667 -0.022401 -502686.000000 0 0 1
3.634308 -24.314326 25.254933 35.244947 -1.422423 0.771946 0.058671 -0.019939 -107245.000000 0 0 1
4.837308 -23.746026 25.731383 35.346533 -1.369836 0.755433 0.056693 -0.027000 180468.000000 0 0 1
4.704108 -22.267826 26.178013 34.688227 -1.362606 0.715652 0.058201 -0.011375 -509911.000000 0 0 1
4.387608 -21.347726 25.140753 33.272120 -1.368089 0.714211 0.053135 -0.011125 169784.000000 0 0 1
3.775608 -20.173626 25.622853 32.829271 -1.385781 0.675350 0.066192 -0.017660 74365.200000 0 0 1
3.454008 -19.009826 24.607773 31.286517 -1.391061 0.665627 0.067323 -0.011011 1194440.000000 0 0 1
4.637708 -18.218026 24.245873 30.680078 -1.321524 0.659529 0.071818 -0.007369 1190830.000000 0 0 1
4.699108 -18.296726 22.831483 29.633232 -1.319402 0.691220 0.077785 -0.011999 -420337.000000 0 0 1
5.847308 -17.490226 22.242383 28.893297 -1.248159 0.692251 0.064379 -0.007823 -774333.000000 0 0 1
7.067508 -17.898626 22.737983 29.788024 -1.194726 0.702350 0.055026 -0.015906 -878463.000000 0 0 1
8.154208 -17.126026 22.246883 29.235521 -1.126427 0.706014 0.031900 -0.009697 760502.000000 0 0 1
9.507108 -17.461226 22.960383 30.372006 -1.072209 0.713659 0.032765 -0.008160 444219.000000 0 0 1
9.575108 -16.803326 24.190053 30.970843 -1.052853 0.674437 0.049388 -0.010247 -519176.000000 0 0 1
10.611408 -17.275126 24.978583 32.170819 -1.019958 0.681806 0.043496 -0.001053 -433618.000000 0 0 1
10.777808 -16.356926 26.203573 32.716012 -0.988180 0.641932 0.059432 -0.006969 -333969.000000 0 0 1
11.056408 -15.012026 25.972793 31.971723 -0.935989 0.622595 0.066853 -0.004853 173030.000000 0 0 1
10.829908 -14.207926 27.140263 32.492245 -0.919505 0.582147 0.061962 -0.007379 -164896.000000 0 0 1
11.109108 -12.717826 27.018633 31.861606 -0.852813 0.558597 0.052099 -0.002081 239052.000000 0 0 1
10.128008 -12.009326 26.260423 30.600822 -0.870178 0.539120 0.055321 -0.002348 394260.000000 0 0 1
10.404008 -10.616626 26.209363 30.131161 -0.795513 0.515913 0.051658 0.004607 -49458.400000 0 0 1
9.384608 -9.970726 25.270273 28.741485 -0.815671 0.496560 0.051878 0.005693 111533.000000 0 0 1
8.139908 -9.692526 25.887533 28.816099 -0.872246 0.454751 0.055066 -0.001859 -269987.000000 0 0 1
7.243508 -9.189626 24.935393 27.544355 -0.903276 0.438755 0.057954 0.001147 -553398.000000 0 0 1
5.806408 -9.153026 25.448003 27.660317 -1.005487 0.402669 0.046084 -0.000421 -1326030.000000 0 0 1
5.462908 -8.144326 26.382193 28.145933 -0.979964 0.355892 0.050960 -0.000557 1021050.000000 0 0 1
4.081508 -8.159226 26.814583 28.324081 -1.106963 0.327945 0.043309 0.001881 1601880.000000 0 0 1
2.955608 -8.006126 25.759803 27.136712 -1.217148 0.319921 0.036518 0.002791 -590363.000000 0 0 1
2.842608 -6.780726 25.065273 26.121382 -1.173833 0.285329 0.044750 -0.002638 -709975.000000 0 0 1
1.639008 -6.694426 24.383543 25.338881 -1.330688 0.275470 0.050046 -0.014555 -435457.000000 0 0 1
1.515708 -5.431426 23.518183 24.184762 -1.298657 0.235327 0.036580 -0.022474 -218315.000000 0 1 0
1.572708 -4.160226 24.183133 24.588714 -1.209368 0.181880 0.043221 -0.017622 -69289.000000 0 1 0
1.798408 -3.013526 23.371083 23.633094 -1.032749 0.149045 0.041304 -0.024437 -657229.000000 0 1 0
0.673908 -2.436526 22.462883 22.604689 -1.300957 0.112070 0.016545 -0.026359 -185121.000000 0 1 0
-0.300192 -1.698526 23.104183 23.168479 1.395866 0.074517 0.019994 -0.021720 -680742.000000 0 1 0
-1.337292 -2.401526 23.722153 23.880876 1.062709 0.115359 0.028008 -0.022672 -568418.000000 0 1 0
-2.298192 -1.411526 24.394743 24.543382 0.550788 0.110112 0.029262 -0.020344 13992.400000 0 1 0
-1.608692 -0.798526 25.484803 25.548009 0.460749 0.070356 0.033906 -0.022459 639631.000000 0 0 1
-2.139392 0.540474 25.678563 25.773198 -0.247452 0.085721 0.035708 -0.017907 -107156.000000 0 0 1
-1.544292 1.201474 26.943213 27.014165 -0.661188 0.072493 0.052009 -0.024117 -299742.000000 0 0 1
-1.728692 0.454474 28.138553 28.195268 -0.257083 0.063437 0.056431 -0.030055 153043.000000 0 0 1
-0.927592 -0.721526 28.307403 28.331786 0.661087 0.041491 0.064064 -0.025689 -860753.000000 0 0 1
0.454408 -0.479526 28.938523 28.946063 -0.812286 0.022825 0.068107 -0.023011 -909951.000000 0 0 1
1.347208 0.266474 28.184353 28.217791 0.195277 0.048687 0.064041 -0.023671 -555931.000000 0 0 1
1.957808 -0.383526 27.125763 27.199028 -0.193446 0.073415 0.056068 -0.019685 -197636.000000 0 0 1
3.138908 -1.373526 27.439083 27.652172 -0.412478 0.124225 0.058168 -0.021043 223272.000000 0 0 1
2.637508 -2.473526 28.191373 28.422321 -0.753325 0.127566 0.065319 -0.023872 606371.000000 0 0 1
3.699108 -3.378526 28.551433 28.987621 -0.740134 0.173697 0.053733 -0.012757 953947.000000 0 0 1
4.354008 -4.364426 27.485833 28.168717 -0.786593 0.220641 0.062506 -0.016850 28099.700000 0 0 1
5.263108 -3.690526 26.694163 27.457215 -0.611535 0.236306 0.056907 -0.013794 -672093.000000 0 0 1
5.807508 -4.544226 25.708373 26.745048 -0.663963 0.279336 0.056251 -0.013383 13552.700000 0 0 1
6.894408 -3.713526 24.882413 26.085583 -0.494071 0.304903 0.061414 -0.014485 676992.000000 0 0 1
8.180808 -3.501526 25.460573 26.970857 -0.404423 0.336236 0.059300 -0.010099 915303.000000 0 0 1
8.963808 -4.719826 25.753553 27.674395 -0.484655 0.374771 0.047778 -0.004975 -252923.000000 0 0 1
9.526908 -5.439426 24.519363 26.861655 -0.518788 0.420704 0.037448 -0.010561 -1025360.000000 0 0 1
8.594708 -6.033626 23.673003 25.897582 -0.612078 0.417511 0.036100 -0.014320 -576911.000000 0 0 1
8.999108 -6.018626 22.303383 24.792110 -0.589480 0.451907 0.033770 -0.018877 114177.000000 0 1 0
9.156608 -4.661026 21.542983 23.867735 -0.470849 0.445028 0.038605 -0.022324 -81315.700000 0 1 0
7.904808 -4.075726 21.314083 23.095188 -0.476050 0.395303 0.037070 -0.023848 -592555.000000 0 1 0
7.897608 -2.943526 20.456683 22.124928 -0.356762 0.390815 0.032052 -0.025274 -717000.000000 0 1 0
6.571508 -2.285526 20.129683 21.298181 -0.334708 0.332785 0.034903 -0.026388 -636025.000000 0 1 0
6.108608 -1.605526 21.300783 22.217475 -0.257017 0.288260 0.038142 -0.023136 -987224.000000 0 1 0
4.957608 -0.924526 21.022983 21.619400 -0.184368 0.235435 0.030103 -0.025626 -1146480.000000 0 1 0
4.489808 -0.225526 22.338883 22.786728 -0.050188 0.198587 0.033568 -0.024019 -170203.000000 0 1 0
3.167608 0.244474 22.242983 22.468730 0.077027 0.141873 0.034309 -0.025284 -179652.000000 0 1 0
2.720808 0.725474 23.460783 23.629166 0.260577 0.119453 0.042838 -0.024805 -210796.000000 0 1 0
1.245008 1.155474 23.438483 23.499950 0.748117 0.072343 0.048090 -0.029431 -284982.000000 0 1 0
1.008708 2.272474 22.659383 22.795379 1.153043 0.109287 0.046829 -0.035843 -42941.400000 0 1 0
-0.361892 2.570474 22.630183 22.778576 -1.430928 0.114207 0.031082 -0.032877 -391460.000000 0 1 0
-0.776592 4.003474 22.350383 22.719387 -1.379196 0.180477 0.023351 -0.017202 -298034.000000 0 1 0
-0.460192 4.855474 23.412283 23.914900 -1.476301 0.205382 0.034265 -0.010016 -318635.000000 0 1 0
-1.352692 5.917474 23.442183 24.215331 -1.346065 0.253375 0.025825 -0.004057 -842229.000000 0 1 0
-0.988492 7.170474 24.195473 25.254975 -1.433804 0.290685 0.039455 -0.003376 -665946.000000 0 0 1
0.006108 8.012474 23.718453 25.035271 1.570034 0.325780 0.036163 -0.007345 -308424.000000 0 0 1
-0.002492 9.254474 24.292513 25.995605 -1.570527 0.363986 0.039726 -0.001031 -504641.000000 0 0 1
0.811608 10.315474 23.498083 25.675429 1.492279 0.414799 0.034313 -0.011160 1088220.000000 0 0 1
2.245908 10.325474 23.605723 25.862902 1.356621 0.420891 0.025918 -0.010154 685442.000000 0 0 1
2.661508 10.874474 24.890933 27.292790 1.330767 0.422671 0.032243 -0.015464 -134787.000000 0 0 1
4.055008 11.585474 24.842313 27.709328 1.234114 0.458918 0.022056 -0.022036 727059.000000 0 0 1
5.219108 10.871474 24.441733 27.254841 1.123217 0.458347 0.014524 -0.016376 357583.000000 0 0 1
5.231408 10.353474 23.135283 25.880560 1.102933 0.464769 0.015567 -0.018887 -902333.000000 0 0 1
6.615808 9.921474 22.555483 25.513808 0.982690 0.486339 0.003790 -0.017621 249110.000000 0 0 1
7.295308 11.136474 22.231883 25.913302 0.990857 0.539563 0.010177 -0.015046 31330.300000 0 0 1
8.554508 10.720474 21.711083 25.680329 0.897301 0.563415 0.012837 -0.011880 -90655.300000 0 0 1
9.266308 11.878474 21.050283 25.885846 0.908313 0.621172 0.016217 -0.025475 -594696.000000 0 0 1
8.621708 12.306474 19.856283 24.900907 0.959679 0.647802 0.016627 -0.022335 366948.000000 0 1 0
9.408408 13.209474 19.095483 25.052861 0.951898 0.704080 0.036694 -0.022210 558920.000000 0 0 1
10.778208 12.746474 18.484583 24.906268 0.868872 0.734500 0.043186 -0.028977 703533.000000 0 1 0
11.813508 12.715474 19.463183 26.077917 0.822153 0.728239 0.047857 -0.031557 -717627.000000 0 0 1
13.034808 12.369474 18.909983 26.086349 0.759214 0.759908 0.042924 -0.031291 -1071820.000000 0 0 1
14.086308 12.133474 19.954083 27.272893 0.711056 0.750064 0.054228 -0.021929 -509243.000000 0 0 1
14.584708 13.345474 20.505883 28.483445 0.741058 0.767105 0.052931 -0.020913 -387556.000000 0 0 1
15.794608 13.154474 21.179383 29.513999 0.694451 0.770439 0.053818 -0.017999 -315302.000000 0 0 1
16.348008 14.463474 21.699783 30.778727 0.724311 0.788337 0.049400 -0.013024 -179952.000000 0 0 1
15.708008 15.070474 22.798083 31.521632 0.764687 0.762297 0.068669 -0.018895 -165681.000000 0 0 1
16.565008 16.042474 23.288183 32.773464 0.769375 0.780473 0.064873 -0.014047 -617021.000000 0 0 1
-20.831192 12.760595 -25.316861 35.181170 -0.549612 2.374042 0.038769 -0.005760 174829.000000 0 0 1
-20.878592 12.592395 -26.755261 36.198453 -0.542714 2.402570 0.047982 -0.018512 -158348.000000 0 0 1
-21.482692 13.686595 -27.379971 37.396413 -0.567252 2.392277 0.043929 -0.012899 -149299.000000 0 0 1
-21.270792 13.670695 -28.892701 38.394305 -0.571225 2.422685 0.047274 -0.015819 -292057.000000 0 0 1
-19.923692 13.930395 -29.178071 37.978536 -0.610180 2.446943 0.049696 -0.017076 -480078.000000 0 0 1
-19.784692 14.441495 -30.488681 39.109467 -0.630534 2.464780 0.054664 -0.030748 430102.000000 0 0 1
-18.336292 14.950895 -30.767111 38.811905 -0.684044 2.486060 0.046751 -0.028900 441837.000000 0 0 1
-17.375592 13.929695 -30.900951 38.089583 -0.675766 2.517118 0.041887 -0.030021 -771347.000000 0 0 1
-16.070992 14.409895 -30.869551 37.667639 -0.730956 2.531377 0.025510 -0.021371 122256.000000 0 0 1
-15.124692 13.933595 -29.713581 36.135830 -0.744431 2.536193 0.047282 -0.012325 188375.000000 0 0 1
-15.557492 14.353895 -28.431011 35.445623 -0.745181 2.501603 0.042127 -0.009040 389847.000000 0 0 1
-16.573292 13.476895 -27.895781 35.135100 -0.682720 2.488087 0.064323 -0.006006 443732.000000 0 0 1
-17.180192 13.933095 -26.513481 34.529042 -0.681411 2.446291 0.056961 -0.015332 -42469.500000 0 0 1
-16.288392 13.951995 -25.412681 33.253183 -0.708291 2.440624 0.062508 -0.011885 -249932.000000 0 0 1
-16.907692 14.428295 -24.295821 32.929206 -0.706440 2.400631 0.050048 -0.009714 -559949.000000 0 0 1
-15.977992 15.188195 -23.372621 32.128755 -0.760062 2.385420 0.050742 -0.003354 -149570.000000 0 0 1
-15.409392 16.401995 -23.808321 32.761424 -0.816591 2.384329 0.035341 -0.004625 -177293.000000 0 0 1
-14.701792 16.995795 -22.755921 31.981739 -0.857644 2.362468 0.038629 -0.002559 -732313.000000 0 0 1
-14.651792 18.552095 -22.797021 32.841428 -0.902328 2.338041 0.033426 -0.003310 1232080.000000 0 0 1
-15.909792 19.288795 -22.716421 33.781871 -0.881103 2.308302 0.015939 -0.000669 1493160.000000 0 0 1
-16.820192 19.072395 -23.791321 34.823871 -0.848064 2.322918 0.004971 0.002354 -119495.000000 0 0 1
-18.084492 19.954695 -23.828621 35.958891 -0.834524 2.295165 0.016004 -0.008318 -187063.000000 0 0 1
-17.820592 21.339695 -23.958621 36.701111 -0.875021 2.282076 0.016071 -0.008129 9392.040000 0 0 1
-19.012792 22.073495 -24.101021 37.809848 -0.859755 2.261951 0.042804 -0.026085 -60532.000000 0 0 1
-18.596892 23.496695 -24.492921 38.701966 -0.901279 2.256038 0.036072 -0.022552 335037.000000 0 0 1
-18.014492 24.187295 -23.380021 38.159828 -0.930637 2.230252 0.039609 -0.016312 -159904.000000 0 0 1
-17.249592 25.277095 -23.849821 38.798117 -0.971967 2.232822 0.036765 -0.011243 -323227.000000 0 0 1
-16.201592 25.710895 -22.793821 37.988155 -1.008506 2.214328 0.027172 -0.014477 685269.000000 0 0 1
-15.072192 24.818095 -22.596121 36.792573 -1.025022 2.232103 0.039798 -0.026985 683692.000000 0 0 1
-15.346292 23.531195 -22.067321 35.723836 -0.992899 2.236636 0.036691 -0.010589 -726642.000000 0 0 1
-14.063892 22.684595 -21.866321 34.503911 -1.015818 2.257168 0.050889 -0.010915 397168.000000 0 0 1
-13.378892 23.003395 -20.652521 33.684975 -1.044012 2.230785 0.054877 -0.011808 133488.000000 0 0 1
-12.447992 21.989295 -20.306821 32.416794 -1.055681 2.247760 0.050383 -0.006870 -35440.800000 0 0 1
-11.765492 22.182895 -18.894521 31.424680 -1.083137 2.215878 0.053813 -0.009462 -274280.000000 0 0 1
-12.449992 21.953095 -17.726321 30.840932 -1.054906 2.183115 0.060032 -0.007970 -821573.000000 0 0 1
-13.541292 22.806495 -17.540121 31.798720 -1.034987 2.155076 0.053826 -0.015098 -184467.000000 0 0 1
-14.198492 22.812195 -16.143921 31.346763 -1.014063 2.111817 0.063633 -0.016850 -258226.000000 0 0 1
-13.340892 23.380995 -15.234421 30.931180 -1.052285 2.085787 0.076651 -0.034405 -221910.000000 0 0 1
-13.864692 23.379495 -13.926821 30.541558 -1.035519 2.044287 0.072087 -0.026002 83826.300000 0 0 1
-12.774992 23.842795 -12.930821 29.981417 -1.078920 2.016723 0.087225 -0.022424 -170776.000000 0 0 1
-12.511392 25.224195 -12.840021 30.946099 -1.110348 1.998646 0.079477 -0.023774 504346.000000 0 0 1
-11.674292 25.544295 -11.703521 30.426509 -1.142119 1.965624 0.055038 -0.020221 -42134.900000 0 0 1
-11.273792 27.041695 -11.897621 31.621275 -1.175803 1.956546 0.076234 -0.019678 198163.000000 0 0 1
-10.484592 27.175695 -13.098421 31.937653 -1.202584 1.993387 0.080821 -0.026398 253672.000000 0 0 1
-10.539192 28.466695 -13.647721 33.281940 -1.216215 1.993320 0.067088 -0.006615 -757530.000000 0 0 1
-9.802692 28.690595 -15.049221 33.848516 -1.241562 2.031530 0.093512 -0.029945 18721.700000 0 0 1
-8.410792 28.774995 -15.018521 33.530549 -1.286423 2.035218 0.063924 -0.030480 -781151.000000 0 0 1
-7.715492 27.642795 -14.600721 32.199906 -1.298609 2.041417 0.066970 -0.023732 -625224.000000 0 0 1
-6.219892 27.698395 -15.014421 32.114186 -1.349903 2.057293 0.051624 -0.019650 681901.000000 0 0 1
-5.427992 28.682395 -14.379921 32.541127 -1.383763 2.028512 0.035144 -0.015851 -202347.000000 0 0 1
-4.148992 28.797295 -14.965121 32.717780 -1.427705 2.045866 0.041834 -0.015800 999016.000000 0 0 1
-3.067392 29.809995 -14.368421 33.233961 -1.468259 2.017884 0.010714 -0.011178 673839.000000 0 0 1
-3.154192 31.218395 -14.569321 34.594829 -1.470102 2.005500 0.004713 -0.007816 346005.000000 0 0 1
-4.333792 31.804495 -13.991221 35.015166 -1.435367 1.981851 -0.003945 -0.008354 530881.000000 0 0 1
-4.445292 33.322595 -14.362921 36.557481 -1.438178 1.974564 0.004733 -0.001647 213715.000000 0 0 1
-3.638292 34.106295 -13.474121 36.851437 -1.464523 1.945110 -0.027331 0.001840 61397.000000 0 0 1
-3.516392 -33.246326 -13.797621 36.167078 1.465420 1.962211 -0.020616 -0.000376 441509.000000 0 0 1
-2.571492 -32.433726 -12.846821 34.979994 1.491677 1.946860 -0.017805 0.004254 -15304.200000 0 0 1
-3.086392 -32.404026 -11.545421 34.537566 1.475836 1.911644 -0.014037 0.004489 273520.000000 0 0 1
-2.071092 -31.929826 -10.673521 33.730213 1.506023 1.892768 -0.021475 0.001233 -29897.800000 0 0 1
-2.454692 -31.939026 -9.200121 33.328203 1.494092 1.850474 -0.026667 -0.004587 209669.000000 0 0 1
-1.415092 -31.444526 -8.341721 32.562939 1.525824 1.829857 -0.024061 -0.012710 195442.000000 0 0 1
-1.879892 -31.334926 -7.021521 32.166960 1.510875 1.790852 -0.025703 -0.015077 -257042.000000 0 0 1
-0.844692 -30.827626 -6.031521 31.423483 1.543403 1.763938 -0.000891 -0.018561 -229214.000000 0 0 1
-1.264192 -30.804126 -4.681021 31.183398 1.529780 1.721478 0.008519 -0.020133 -517948.000000 0 0 1
-0.304092 -30.150626 -3.927721 30.406902 1.560711 1.700330 0.019491 -0.024706 -500379.000000 0 0 1
-0.526192 -30.282126 -2.414721 30.382806 1.553422 1.650357 0.026645 -0.019970 -372431.000000 0 0 1
-0.362092 -31.547726 -1.861721 31.604685 1.559319 1.629737 0.028711 -0.015004 129906.000000 0 0 1
0.817808 -32.293126 -2.118621 32.372880 -1.545477 1.636287 0.021676 -0.016812 10405.800000 0 0 1
2.107408 -31.849826 -1.408221 31.950519 -1.504726 1.614886 0.055292 -0.023202 -1112250.000000 0 0 1
2.369008 -32.118126 -0.027321 32.205387 -1.497170 1.571645 0.047521 -0.021626 840727.000000 0 0 1
3.783908 -32.193526 0.209979 32.415817 -1.453797 1.564319 0.059120 -0.020100 825055.000000 0 0 1
4.614008 -30.914126 0.279379 31.257804 -1.422638 1.561858 0.041492 -0.021913 -933541.000000 0 0 1
4.720308 -30.220826 -0.937121 30.601598 -1.415854 1.601424 0.048889 -0.034233 -42266.300000 0 0 1
4.580908 -28.856726 -0.729721 29.227176 -1.413363 1.595766 0.046269 -0.023136 -355216.000000 0 0 1
4.063308 -28.131226 -1.999621 28.493417 -1.427347 1.641032 0.039430 -0.018013 -574244.000000 0 0 1
2.742408 -28.461926 -2.341921 28.689486 -1.474739 1.652517 0.030847 -0.015699 -278927.000000 0 0 1
2.213508 -27.408626 -3.171221 27.680120 -1.490212 1.685615 0.023991 -0.011785 -134494.000000 0 0 1
2.751008 -27.299926 -4.573921 27.816807 -1.470366 1.735977 0.023800 -0.013943 -290501.000000 0 0 1
2.136808 -28.238726 -5.455821 28.840208 -1.495271 1.761117 0.020887 -0.014772 461527.000000 0 0 1
2.787408 -28.182926 -6.757721 29.115524 -1.472213 1.805033 0.031319 -0.016586 426317.000000 0 0 1
1.991308 -28.986126 -7.847621 30.095614 -1.502205 1.834602 0.019569 -0.015808 175071.000000 0 0 1
0.753008 -28.361326 -8.111921 29.508221 -1.544252 1.849286 0.008026 -0.011738 -442196.000000 0 0 1
0.419808 -28.372326 -9.476621 29.916074 -1.556001 1.893122 0.007891 -0.006574 202402.000000 0 0 1
-1.020792 -27.871426 -9.754521 29.546727 1.534188 1.907247 -0.012436 -0.002837 -296889.000000 0 0 1
-1.218592 -26.490226 -9.406421 28.137125 1.524827 1.911666 -0.001140 0.002421 30670.700000 0 0 1
-2.565792 -26.128126 -9.142121 27.800011 1.472910 1.905885 0.013277 -0.011203 527725.000000 0 0 1
-3.375592 -26.834426 -8.023621 28.210982 1.445660 1.859192 0.024088 -0.004351 -473829.000000 0 0 1
-2.931592 -26.627226 -6.679621 27.608345 1.461140 1.815163 0.033701 -0.010939 -149148.000000 0 0 1
-1.699292 -27.245726 -6.350421 28.027576 1.508508 1.799359 0.012474 -0.016577 194082.000000 0 0 1
-1.246192 -26.856026 -4.896321 27.327149 1.524427 1.750943 0.028514 -0.014940 117385.000000 0 0 1
-2.139392 -27.243126 -3.854221 27.597462 1.492428 1.710913 0.034884 -0.020290 223422.000000 0 0 1
-1.779592 -26.573126 -2.631621 26.762350 1.503927 1.669288 0.037535 -0.023308 561328.000000 0 0 1
-2.845392 -26.936626 -1.481321 27.126968 1.465554 1.625430 0.025745 -0.017021 1176090.000000 0 0 1
-4.008492 -26.168126 -1.777321 26.532955 1.418796 1.637832 0.030808 -0.012259 -94897.100000 0 0 1
-4.896492 -26.074226 -0.688721 26.538938 1.385168 1.596751 0.040813 -0.021319 -335879.000000 0 0 1
-6.105892 -25.171026 -0.851821 25.915016 1.332817 1.603672 0.045968 -0.013386 -464885.000000 0 0 1
-5.884092 -23.803426 -0.633521 24.528085 1.328459 1.596628 0.037517 -0.012769 -836645.000000 0 1 0
-6.711292 -23.228326 0.293979 24.180219 1.289529 1.558638 0.040383 -0.004049 -459603.000000 0 1 0
-6.230992 -21.795826 0.733279 22.680851 1.292343 1.538460 0.029913 -0.005608 620997.000000 0 1 0
-4.940892 -21.844626 1.330679 22.435927 1.348356 1.511451 0.025311 -0.010748 292795.000000 0 1 0
-4.308392 -20.582726 1.509779 21.082938 1.364455 1.499124 0.009209 -0.001532 -102316.000000 0 1 0
-3.327292 -20.605526 2.671679 21.042729 1.410703 1.443488 0.012485 0.004212 -395167.000000 0 1 0
-3.996392 -20.428426 3.892879 21.176549 1.377607 1.385915 0.013692 0.007512 -450975.000000 0 1 0
-3.238992 -20.108426 5.013379 20.975553 1.411092 1.329450 0.036201 -0.003306 36722.600000 0 1 0
-2.304592 -21.220026 5.660179 22.082533 1.462616 1.311584 0.032348 -0.010404 1593220.000000 0 1 0
-1.173692 -21.526926 4.802379 22.087303 1.516328 1.351619 0.036991 -0.012467 460811.000000 0 1 0
-0.456192 -22.660326 5.213879 23.256892 1.550667 1.344688 0.045868 -0.017856 -524540.000000 0 1 0
0.358708 -23.314926 4.055979 23.667814 -1.555412 1.398575 0.044789 -0.020201 442144.000000 0 1 0
1.551608 -22.663326 3.661879 23.009633 -1.502440 1.410971 0.030646 -0.021600 357267.000000 0 1 0
2.631608 -22.925926 4.550979 23.520945 -1.456509 1.376082 0.040571 -0.022530 444.670000 0 1 0
3.877808 -22.004226 4.447479 22.781647 -1.396357 1.374312 0.041888 -0.021992 237520.000000 0 1 0
4.579708 -21.905626 3.256079 22.614867 -1.364699 1.426315 0.027429 -0.011836 -1085570.000000 0 1 0
5.710408 -21.157926 3.524179 22.196541 -1.307183 1.411350 0.039019 -0.010839 -411387.000000 0 1 0
6.674708 -20.867326 2.392679 22.039100 -1.261217 1.462017 0.050604 -0.002732 -360219.000000 0 1 0
7.397208 -21.856926 1.781479 23.143413 -1.244459 1.493744 0.045147 -0.003213 -393682.000000 0 1 0
6.871108 -22.100326 0.530479 23.149902 -1.269365 1.547879 0.040159 -0.002425 -108466.000000 0 1 0
7.820908 -22.976526 -0.287721 24.272827 -1.242711 1.582650 0.042910 0.003314 230469.000000 0 1 0
9.052508 -22.319226 -0.530621 24.091021 -1.185478 1.592824 0.041045 0.003493 -792480.000000 0 1 0
9.959208 -23.097926 -1.207221 25.182482 -1.163709 1.618754 0.038481 -0.001755 664768.000000 0 0 1
11.263408 -22.278326 -1.630021 25.016897 -1.102697 1.635999 0.041169 -0.003755 1176080.000000 0 0 1
11.096508 -21.295326 -2.606521 24.154034 -1.090430 1.678919 0.042970 0.000700 -195645.000000 0 1 0
12.377008 -21.044826 -3.152521 24.617340 -1.039154 1.699210 0.045996 -0.007448 148611.000000 0 1 0
12.424808 -19.896126 -4.170521 23.824880 -1.012568 1.746752 0.040918 -0.008685 -73581.300000 0 1 0
12.420208 -18.564726 -3.605921 22.625501 -0.981165 1.730853 0.050022 -0.008472 16877.000000 0 1 0
12.643408 -17.675226 -4.679621 22.229895 -0.949864 1.782893 0.050883 -0.003832 -427852.000000 0 1 0
13.182808 -16.318426 -4.195921 21.393532 -0.891288 1.768206 0.062637 0.000723 65997.800000 0 1 0
14.454308 -16.224026 -3.599221 22.024996 -0.843021 1.734948 0.052385 0.002057 149376.000000 0 1 0
15.481108 -16.052926 -4.573521 22.765725 -0.803530 1.773068 0.050420 0.000738 -311174.000000 0 1 0
16.873308 -15.747726 -4.029321 23.429358 -0.750907 1.743633 0.045857 -0.001309 -102733.000000 0 1 0
17.576308 -16.818026 -3.408721 24.564038 -0.763355 1.710014 0.056534 -0.005052 619366.000000 0 1 0
18.955808 -16.523826 -3.319121 25.364859 -0.716959 1.702028 0.045211 0.004919 374464.000000 0 0 1
19.948608 -17.404726 -2.522921 26.593920 -0.717400 1.665808 0.054476 -0.004435 -394527.000000 0 0 1
21.271608 -17.007226 -2.610621 27.359503 -0.674452 1.666361 0.036391 0.002289 -430445.000000 0 0 1
22.089608 -17.802226 -1.751521 28.424248 -0.678334 1.632456 0.031868 0.006159 985969.000000 0 0 1
23.641708 -17.576826 -1.815621 29.515617 -0.639307 1.632349 0.033461 0.000855 733887.000000 0 0 1
24.037208 -16.265426 -1.416621 29.057844 -0.594901 1.619567 0.035593 -0.009077 355439.000000 0 0 1
25.336408 -16.358226 -0.847521 30.170241 -0.573305 1.598891 0.051854 -0.001426 318978.000000 0 0 1
25.885008 -15.006426 -0.303921 29.921879 -0.525385 1.580954 0.051552 0.003288 -104124.000000 0 0 1
25.030608 -14.422126 0.647479 28.895472 -0.522720 1.548387 0.036334 0.004429 589794.000000 0 0 1
25.719708 -13.454626 1.507979 29.065518 -0.481976 1.518891 0.024468 0.003181 784204.000000 0 0 1
24.839608 -13.002226 2.755579 28.171923 -0.482229 1.472827 0.033097 -0.010935 457584.000000 0 0 1
24.482708 -13.939326 3.795679 28.427363 -0.517581 1.436874 0.043792 -0.007835 133835.000000 0 0 1
25.593108 -14.503926 4.460879 29.753496 -0.515583 1.420301 0.053451 0.004150 23026.600000 0 0 1
25.226108 -15.114626 5.798679 29.973874 -0.539806 1.376111 0.043914 0.004734 733979.000000 0 0 1
24.365308 -16.312926 5.616979 29.855155 -0.589972 1.381527 0.046536 0.000733 656881.000000 0 0 1
23.749108 -16.636126 6.837379 29.791451 -0.611058 1.339224 0.039974 -0.001746 -181522.000000 0 0 1
23.121508 -18.049826 6.789379 30.108072 -0.662831 1.343340 0.036332 0.001698 240100.000000 0 0 1
24.060408 -19.087326 6.483379 31.388907 -0.670647 1.362749 0.032910 0.001441 198805.000000 0 0 1
23.448408 -20.371626 6.551079 31.745041 -0.715299 1.362937 0.023849 0.003598 38137.700000 0 0 1
1.946208 23.372795 -2.914321 23.634054 1.487720 1.694421 0.009862 -0.005591 91954.500000 0 1 0
2.719708 24.501495 -2.580221 24.786641 1.460247 1.675082 0.016716 -0.001679 -143015.000000 0 1 0
3.119508 25.225695 -3.732521 25.690440 1.447757 1.716601 0.026052 -0.001318 142641.000000 0 0 1
4.247908 26.218495 -3.349721 26.770783 1.410173 1.696251 0.014241 0.008021 749970.000000 0 0 1
5.404108 25.636495 -2.708021 26.339469 1.363040 1.673791 0.001894 0.005688 285581.000000 0 0 1
6.144608 26.577595 -2.017121 27.353126 1.343593 1.644607 0.004432 0.009218 -915251.000000 0 0 1
7.236208 25.904895 -1.218421 26.924168 1.298402 1.616066 -0.011371 -0.004554 -661994.000000 0 0 1
8.242008 25.339995 -2.026121 26.723607 1.256332 1.646687 -0.005799 -0.002035 -619333.000000 0 0 1
9.196108 24.737295 -1.200821 26.418632 1.214877 1.616266 -0.010267 0.004128 -464074.000000 0 0 1
10.436808 24.301095 -1.999821 26.522998 1.165138 1.646267 0.027834 0.000906 -910632.000000 0 0 1
11.317708 25.401195 -2.226821 27.897490 1.151642 1.650703 0.037285 0.007441 277286.000000 0 0 1
12.164808 25.296595 -3.366221 28.270686 1.122556 1.690151 0.057173 -0.003782 4270.730000 0 0 1
13.184008 24.162095 -3.417821 27.736373 1.071300 1.694336 0.060925 -0.000755 -1251730.000000 0 0 1
12.724208 22.836095 -3.703721 26.402845 1.062444 1.711538 0.062071 -0.008803 -132510.000000 0 0 1
12.639808 22.559295 -5.092821 26.355708 1.060085 1.765254 0.071934 -0.016477 -243012.000000 0 0 1
11.833808 21.251195 -5.259021 24.885931 1.062706 1.783727 0.063466 -0.020430 695318.000000 0 1 0
10.455308 21.478195 -4.967021 24.398721 1.117775 1.775806 0.045989 -0.016627 701166.000000 0 1 0
9.588408 20.327195 -4.928421 23.009166 1.130041 1.786663 0.019674 -0.008697 499967.000000 0 1 0
8.098508 20.689295 -4.824421 22.735606 1.197696 1.784619 0.006552 -0.001465 61832.400000 0 1 0
7.610808 21.015595 -3.492321 22.622465 1.223338 1.725790 0.002428 -0.006013 924356.000000 0 1 0
6.302508 21.608495 -3.609021 22.796352 1.287001 1.729781 0.001446 0.009046 850991.000000 0 1 0
5.888908 22.316795 -2.258121 23.190896 1.312799 1.668322 0.002123 0.004803 167943.000000 0 1 0
5.409308 21.387295 -1.265021 22.096997 1.323070 1.628076 0.000994 -0.003821 189445.000000 0 1 0
4.712108 22.089995 -0.252821 22.588398 1.360632 1.581989 0.006833 0.001044 -17802.800000 0 1 0
4.065608 21.179295 0.780579 21.580106 1.381142 1.534617 0.004658 -0.003731 -110174.000000 0 1 0
3.446408 21.913895 1.844479 22.259798 1.414804 1.487840 0.009827 0.000548 169187.000000 0 1 0
3.120908 21.035495 2.864779 21.457844 1.423507 1.436889 0.015414 -0.006894 413.888000 0 1 0
2.169408 21.619695 3.938479 22.082327 1.470787 1.391483 0.019516 -0.005603 1411980.000000 0 1 0
0.762508 21.671895 3.589579 21.980389 1.535627 1.406753 0.021650 -0.009814 985601.000000 0 1 0
-0.077192 22.081495 4.654079 22.566764 -1.567301 1.363070 0.021120 -0.017176 236502.000000 0 1 0
-1.493592 22.251895 4.045179 22.665858 -1.503775 1.391365 0.018036 -0.017105 123195.000000 0 1 0
-2.469592 22.545495 5.046779 23.235064 -1.461693 1.351846 0.031036 -0.024862 478856.000000 0 1 0
-3.757892 22.589695 4.410879 23.321062 -1.405952 1.380513 0.039040 -0.027633 618135.000000 0 1 0
-4.908592 22.900895 5.380179 24.031054 -1.359651 1.344998 0.060179 -0.036756 -466161.000000 0 1 0
-4.968192 24.215295 5.844579 25.401231 -1.368437 1.338626 0.071752 -0.032760 451515.000000 0 0 1
-6.204692 24.526395 6.501279 26.121043 -1.323015 1.319262 0.084093 -0.033351 753161.000000 0 0 1
-6.443192 26.048695 6.795879 27.680917 -1.328312 1.322753 0.088575 -0.034194 -178824.000000 0 0 1
-5.474192 26.526595 7.692979 28.156863 -1.367287 1.294059 0.078467 -0.040307 -13127.100000 0 0 1
-5.895992 27.695395 8.337679 29.518037 -1.361041 1.284438 0.083655 -0.027188 7786.710000 0 0 1
-6.034692 29.028395 7.470279 30.575648 -1.365827 1.323977 0.086943 -0.035799 707232.000000 0 0 1
-7.215092 29.010295 6.651979 30.625211 -1.327034 1.351845 0.088858 -0.038019 172529.000000 0 0 1
-7.371492 30.267895 5.996679 31.724509 -1.331905 1.380629 0.084314 -0.037344 810881.000000 0 0 1
-8.801792 30.460395 5.331979 32.151784 -1.289500 1.404189 0.070945 -0.038161 1713380.000000 0 0 1
-9.893192 30.872895 6.149779 32.997434 -1.260686 1.383329 0.070133 -0.025629 177674.000000 0 0 1
-10.441292 29.823295 6.902879 32.343457 -1.234028 1.355718 0.054714 -0.021535 -832045.000000 0 0 1
-11.373892 30.209195 8.021779 33.261236 -1.210707 1.327220 0.029949 -0.020101 -158983.000000 0 0 1
-10.666792 30.666795 9.184079 33.742852 -1.236057 1.295140 0.035746 -0.015252 -94699.000000 0 0 1
-11.541692 31.258395 10.089979 34.815307 -1.217089 1.276763 0.036270 -0.009592 -327785.000000 0 0 1
-10.875292 31.616595 11.418279 35.330697 -1.239500 1.241705 0.027598 -0.010165 -378105.000000 0 0 1
-10.386692 32.942995 11.518079 36.411405 -1.265369 1.248936 0.022558 -0.010218 -404361.000000 0 0 1
-9.504592 33.052295 12.560679 36.613688 -1.290789 1.220624 0.014271 -0.011538 -639001.000000 0 0 1
-9.009592 -34.195626 12.835579 37.620017 1.313179 1.222614 0.003277 -0.014110 -416140.000000 0 0 1
-9.946792 -33.190726 13.148079 37.059883 1.279628 1.208118 0.010128 -0.006412 -584777.000000 0 0 1
-9.374992 -31.930726 13.291279 35.834618 1.285218 1.190812 0.019136 -0.006242 -8425.550000 0 0 1
-10.346092 -30.817526 13.778179 35.307220 1.246898 1.169907 0.008465 -0.006202 -108639.000000 0 0 1
-10.737292 -30.950226 15.117179 36.079565 1.236867 1.138457 -0.002738 -0.012481 -164502.000000 0 0 1
-9.689492 -30.752026 16.062879 36.022069 1.265558 1.108597 0.014972 -0.021063 161015.000000 0 0 1
-9.971292 -31.137826 17.558079 37.111683 1.260884 1.077974 0.020886 -0.024498 182008.000000 0 0 1
-10.748792 -30.202726 18.320379 36.923942 1.228886 1.051620 0.022284 -0.019214 454290.000000 0 0 1
-11.268492 -30.826826 19.496379 38.175659 1.220343 1.034795 0.014171 -0.016373 -3980.850000 0 0 1
-11.572392 -29.928326 20.742979 38.208587 1.201834 0.996924 0.023602 -0.018703 330738.000000 0 0 1
-10.334192 -29.533226 21.312079 37.857782 1.234195 0.972844 0.021844 -0.019365 344698.000000 0 0 1
-10.553792 -28.733126 22.458179 37.965048 1.218790 0.937818 0.017239 -0.014899 -10737.000000 0 0 1
-9.452992 -28.687526 23.535879 38.291916 1.252486 0.908862 0.040656 -0.021353 -12307.800000 0 0 1
-9.209892 -29.930626 24.163479 39.554244 1.272283 0.913606 0.037072 -0.008028 59175.600000 0 0 1
-8.188992 -29.956326 25.150679 39.962454 1.303951 0.890070 0.049596 -0.012730 199156.000000 0 0 1
-8.274392 -31.078026 26.239279 41.506735 1.310587 0.886447 0.048937 -0.012185 -91962.100000 0 0 1
-7.816292 -32.293226 25.662979 41.982560 1.333322 0.913123 0.065150 -0.008745 236767.000000 0 0 1
-8.131792 -33.418326 26.474279 43.402742 1.332102 0.914776 0.076906 -0.005382 -168986.000000 0 0 1
-7.978692 33.919795 25.781179 43.346063 -1.339774 0.933810 0.077424 -0.009293 -385699.000000 0 0 1
-6.664392 33.572595 25.424079 42.637038 -1.374837 0.931924 0.068690 -0.008214 -164061.000000 0 0 1
-6.422792 32.303095 24.791379 41.223230 -1.374527 0.925552 0.069987 -0.009625 209670.000000 0 0 1
-7.254692 31.958295 23.483879 40.316941 -1.347574 0.949018 0.060383 -0.009146 -49367.300000 0 0 1
-8.440292 31.273395 23.716879 40.146657 -1.307190 0.938801 0.053985 -0.007993 -196683.000000 0 0 1
-9.258892 31.109995 22.549679 39.522739 -1.281526 0.963622 0.032820 -0.003356 167628.000000 0 0 1
-10.154892 29.864995 22.749979 38.892175 -1.243034 0.945978 0.039648 -0.011609 -111651.000000 0 0 1
-9.483192 28.657195 22.644979 37.735405 -1.251221 0.927171 0.038593 -0.014345 148336.000000 0 0 1
-10.261492 27.604795 23.238779 37.514847 -1.214897 0.902747 0.026459 -0.007312 -61089.100000 0 0 1
-9.731692 26.248295 22.766579 36.083181 -1.215752 0.888023 0.015666 -0.010249 649792.000000 0 0 1
-8.384092 26.053895 23.225079 35.895720 -1.259463 0.867133 0.023264 -0.013420 492799.000000 0 0 1
-7.904592 24.809395 22.956379 34.712879 -1.262352 0.848217 0.033972 -0.010403 -787579.000000 0 0 1
-6.527492 24.661495 23.567779 34.730933 -1.312046 0.824966 0.045090 -0.009653 -667846.000000 0 0 1
-5.465892 25.207095 22.818079 34.437456 -1.357263 0.846518 0.035175 -0.004642 40626.300000 0 0 1
-4.259792 25.029695 23.558479 34.635724 -1.402222 0.822790 0.064206 -0.003138 -135898.000000 0 0 1
-3.017492 25.597295 22.897979 34.476720 -1.453455 0.844430 0.052640 -0.000070 -602354.000000 0 0 1
-2.547692 24.838395 21.814279 33.155684 -1.468583 0.852723 0.051437 -0.001165 -238519.000000 0 0 1
-1.630792 25.674695 21.125979 33.288984 -1.507364 0.883275 0.050917 -0.001008 141525.000000 0 0 1
-1.025892 24.737695 20.017579 31.838805 -1.529349 0.890895 0.042604 0.001976 446407.000000 0 0 1
-0.050692 23.755995 20.458279 31.351093 -1.568662 0.859846 0.039415 0.001081 507740.000000 0 0 1
0.116708 22.869195 19.370179 29.970278 1.565693 0.868054 0.022109 0.005793 19024.400000 0 0 1
1.257308 21.829895 19.564779 29.341195 1.513264 0.840887 0.020726 0.011256 203788.000000 0 0 1
2.545708 22.281295 19.217179 29.533654 1.457036 0.862307 0.026687 -0.006531 -511078.000000 0 0 1
3.498308 21.300495 19.510679 29.096664 1.408014 0.835851 0.027084 -0.000546 -1227580.000000 0 0 1
4.844008 21.736195 19.043779 29.301742 1.351525 0.863318 0.022102 -0.012874 -1114520.000000 0 0 1
5.908008 20.813495 19.224279 28.942685 1.294217 0.844348 0.034191 -0.011480 -111629.000000 0 0 1
7.065208 21.378995 18.641679 29.231674 1.251621 0.879259 0.045935 -0.017771 -505370.000000 0 0 1
8.078608 20.287095 18.309679 28.496921 1.191830 0.873021 0.054592 -0.018289 -328695.000000 0 0 1
8.641208 19.709695 19.517479 29.052961 1.157610 0.834174 0.051959 -0.026115 480135.000000 0 0 1
9.575108 18.659095 19.198279 28.432700 1.096676 0.829536 0.055745 -0.028295 378890.000000 0 0 1
10.126008 17.963495 20.440779 29.035300 1.057496 0.789786 0.065568 -0.032152 -11539.700000 0 0 1
9.191108 17.048495 21.014879 28.578887 1.076348 0.744645 0.051883 -0.031499 589911.000000 0 0 1
9.746008 16.373295 22.185179 29.244686 1.033886 0.709626 0.046423 -0.033638 82092.600000 0 0 1
8.723408 15.378795 22.714179 28.784355 1.054816 0.661429 0.028478 -0.030007 -732056.000000 0 0 1
7.589708 15.995295 23.232279 29.209449 1.127759 0.651181 0.031191 -0.020224 412480.000000 0 0 1
6.458708 15.166595 23.657179 28.834054 1.168205 0.608582 0.026105 -0.016115 1176930.000000 0 0 1
6.699408 13.935895 24.548179 29.012141 1.122683 0.562106 0.026243 -0.014821 -1001910.000000 0 0 1
7.008808 14.271795 25.857479 30.354847 1.114298 0.551308 0.036643 -0.020449 -97474.600000 0 0 1
7.441808 13.149695 26.614679 30.604512 1.055805 0.516339 0.039642 -0.024481 -409983.000000 0 0 1
8.475108 13.692495 27.655979 32.002579 1.016552 0.527278 0.032562 -0.013072 -1253110.000000 0 0 1
9.709308 13.866695 27.114179 31.964584 0.959943 0.558111 0.061654 -0.012796 -1317780.000000 0 0 1
9.921608 15.198895 26.618179 32.217576 0.992466 0.598466 0.052264 -0.015569 -383780.000000 0 0 1
11.279408 15.262295 25.859179 32.075845 0.934348 0.633115 0.073960 -0.020357 183631.000000 0 0 1
11.288708 14.436195 24.676879 30.737388 0.907145 0.638770 0.059392 -0.023725 842415.000000 0 0 1
12.615608 13.965495 24.342279 30.769062 0.836138 0.658145 0.078711 -0.028159 518374.000000 0 0 1
12.667808 12.630395 23.594679 29.609274 0.783919 0.648703 0.056861 -0.032295 150280.000000 0 0 1
12.228908 11.456995 24.330879 29.543199 0.752820 0.603121 0.052190 -0.022769 -221500.000000 0 0 1
10.853308 11.389595 24.569879 29.175266 0.809504 0.569543 0.047971 -0.018789 -726424.000000 0 0 1
10.401608 10.063895 25.228179 29.084987 0.768898 0.520853 0.037755 -0.004119 -113599.000000 0 0 1
10.488708 9.016695 24.254679 27.921376 0.710074 0.518269 0.035932 -0.006122 193513.000000 0 0 1
10.187808 7.791595 24.875379 27.987227 0.652903 0.476050 0.032719 -0.003240 -70822.600000 0 0 1
10.257008 6.592695 23.885179 26.817376 0.571262 0.472000 0.031060 -0.000564 -446263.000000 0 0 1
11.548708 6.272195 23.439179 26.872071 0.497536 0.511011 0.031301 -0.003573 -188695.000000 0 0 1
11.648108 5.188795 22.542279 25.898965 0.419074 0.514796 0.036579 -0.008043 29852.600000 0 0 1
11.524508 3.775895 23.120079 26.107657 0.316618 0.483083 0.034138 -0.001038 -218314.000000 0 0 1
12.617008 3.550295 23.959079 27.309906 0.274297 0.500582 0.038787 0.005917 -204165.000000 0 0 1
12.504508 2.211895 24.384979 27.493316 0.175077 0.480114 0.028889 0.006012 -413560.000000 0 0 1
13.725808 1.622695 25.090079 28.645122 0.117676 0.503512 0.014623 0.008383 -612295.000000 0 0 1
14.611008 1.133295 24.130079 28.231660 0.077409 0.545791 0.035625 0.000319 24682.700000 0 0 1
15.929808 0.997095 24.643079 29.360421 0.062511 0.574747 0.033245 -0.001801 -138044.000000 0 0 1
16.920908 0.376695 23.698579 29.121842 0.022258 0.620181 0.031745 -0.006237 -439321.000000 0 0 1
16.855908 -1.023905 23.890779 29.256441 -0.060670 0.615302 0.024171 -0.006714 181263.000000 0 0 1
17.970308 -1.600705 23.250979 29.429616 -0.088841 0.659900 0.036499 -0.000817 60101.200000 0 0 1
18.190508 -3.115605 23.564479 29.931359 -0.169630 0.664405 0.025644 0.002954 -34168.100000 0 0 1
17.213608 -3.930805 22.952079 28.957857 -0.224505 0.655730 0.010690 0.006563 92014.000000 0 0 1
17.445808 -5.299805 23.267979 29.560836 -0.294927 0.664668 0.025808 0.001115 -169785.000000 0 0 1
16.421808 -6.293005 22.729379 28.738518 -0.365949 0.658513 0.018180 -0.000836 -442190.000000 0 0 1
16.583808 -6.576905 21.334379 27.810684 -0.377560 0.696443 0.022373 -0.002346 -7955.050000 0 0 1
15.845308 -7.648405 20.787079 27.233703 -0.449706 0.702414 0.033800 -0.012551 -255209.000000 0 0 1
16.250708 -9.052605 21.260179 28.249432 -0.508247 0.718813 0.027149 -0.006716 -243845.000000 0 0 1
15.815108 -9.549805 22.488179 29.103860 -0.543239 0.687733 0.017377 0.005261 -52101.800000 0 0 1
16.669108 -10.619505 22.883579 30.237250 -0.567237 0.712391 0.008620 0.004692 182426.000000 0 0 1
16.027808 -11.498605 23.997779 31.064481 -0.622319 0.688004 0.026168 -0.003959 250881.000000 0 0 1
15.204908 -12.527405 23.428479 30.610762 -0.689148 0.699184 0.020159 -0.006501 -29259.000000 0 0 1
14.608608 -13.227005 24.478779 31.425718 -0.735805 0.677821 0.044910 -0.000457 -135236.000000 0 0 1
13.585008 -14.245505 23.953379 31.004052 -0.809127 0.687888 0.049916 -0.012528 -196074.000000 0 0 1
14.184908 -15.191905 23.087379 31.064975 -0.819663 0.732961 0.044674 -0.014288 268228.000000 0 0 1
13.212308 -16.066105 22.508179 30.648050 -0.882562 0.746002 0.053373 0.001338 -119982.000000 0 0 1
13.561708 -16.809505 21.252379 30.300875 -0.891930 0.793467 0.029856 -0.009798 -976295.000000 0 0 1
14.660408 -17.637205 21.457679 31.407493 -0.877306 0.818657 0.037972 -0.011101 -396326.000000 0 0 1
14.961308 -18.354105 20.294279 31.186082 -0.886887 0.862227 0.028746 -0.009464 -86111.600000 0 0 1
-23.629892 -32.414926 26.972043 48.338291 0.940883 0.978841 0.050761 -0.017822 -465361.000000 0 0 1
-23.890192 -33.800726 26.907683 49.368550 0.955524 0.994363 0.056861 -0.016829 663549.000000 0 0 1
-25.194132 -34.142126 26.401403 49.974625 0.935072 1.014204 0.050848 -0.020632 506683.000000 0 0 1
-26.039952 33.993795 27.534343 50.909697 -0.917121 0.999353 0.051680 -0.019064 -243014.000000 0 0 1
-26.676832 -33.758326 28.383123 51.544928 0.902041 0.987656 0.063819 -0.019290 516329.000000 0 0 1
-25.953332 -33.658826 29.592823 51.790223 0.913946 0.962588 0.050012 -0.012358 514921.000000 0 0 1
-26.853702 -32.955826 30.701133 52.438224 0.887072 0.945334 0.029786 -0.019243 597366.000000 0 0 1
-27.129242 -31.600826 30.381113 51.552110 0.861389 0.940569 0.022652 -0.015963 367221.000000 0 0 1
-28.023022 -31.021526 31.320943 52.236255 0.836138 0.927793 0.008425 0.001218 9017.400000 0 0 1
-28.468762 -29.584226 31.008433 51.451140 0.804610 0.923944 0.009059 -0.001987 -532104.000000 0 0 1
-29.206092 -29.441426 29.858463 51.101088 0.789411 0.946777 0.013262 -0.001648 17980.500000 0 0 1
-29.746502 -28.107626 29.837323 50.647398 0.757078 0.940829 0.007875 0.006915 -195181.000000 0 0 1
-30.442012 -27.700526 28.533503 50.081893 0.738282 0.964611 0.011665 -0.009568 -559954.000000 0 0 1
-29.649542 -27.515926 27.366533 48.837984 0.748092 0.975984 0.003336 -0.005634 169876.000000 0 0 1
-28.948152 -26.273026 27.296303 47.679719 0.736992 0.961253 -0.013049 -0.002416 563589.000000 0 0 1
-27.898552 -26.291126 26.105683 46.379513 0.755744 0.972941 -0.006184 0.003043 558365.000000 0 0 1
-28.528532 -26.396626 24.825113 46.118817 0.746603 1.002394 -0.013888 0.000024 200068.000000 0 0 1
-27.565922 -25.988726 23.877083 44.781794 0.755956 1.008433 -0.004875 0.007987 -68663.500000 0 0 1
-27.837492 -26.463026 22.441283 44.484030 0.760091 1.042017 -0.007189 0.005545 -421383.000000 0 0 1
-28.821512 -25.726926 21.780383 44.350190 0.728728 1.057444 -0.011226 0.000606 -202563.000000 0 0 1
-29.068272 -26.158926 20.468783 44.138701 0.732767 1.088587 -0.004643 0.011194 -273290.000000 0 0 1
-29.831412 -25.070826 19.715983 43.671266 0.698904 1.102391 -0.006384 0.008402 189165.000000 0 0 1
-31.204832 -24.920226 20.059783 44.689530 0.673888 1.105296 0.006605 0.002035 456546.000000 0 0 1
-31.666532 -23.711626 19.447583 44.081957 0.642727 1.113896 0.009124 0.006279 484829.000000 0 0 1
-33.206642 -23.466226 19.538483 45.112051 0.615190 1.122856 0.014998 0.013388 549298.000000 0 0 1
-34.088359 -24.374026 18.930383 45.983353 0.620739 1.146501 0.014217 0.010265 -250668.000000 0 0 1
-35.395252 -23.846126 18.873783 46.665633 0.592863 1.154422 0.019334 0.010942 -143210.000000 0 0 1
35.555555 -24.796126 18.131983 46.987383 -0.608973 1.174623 0.041323 -0.001586 -259482.000000 0 0 1
35.227005 -25.927726 18.857683 47.631933 -0.634493 1.163744 0.036818 -0.003273 -88901.100000 0 0 1
34.392545 -26.793426 18.106783 47.207949 -0.661834 1.177155 0.037487 0.005776 198543.000000 0 0 1
33.920585 -28.087426 18.865583 47.910540 -0.691603 1.166070 0.028836 0.011528 145668.000000 0 0 1
32.973525 -28.073026 19.931283 47.671839 -0.705295 1.139451 0.031510 0.005557 331142.000000 0 0 1
33.404425 -27.283326 21.052083 47.994017 -0.684876 1.116712 0.039736 0.002556 -734277.000000 0 0 1
32.249125 -27.073826 21.987483 47.502079 -0.698379 1.089561 0.033883 -0.001157 -321966.000000 0 0 1
31.143685 -26.363526 21.448383 46.097698 -0.702466 1.086844 0.039397 0.001873 -103638.000000 0 0 1
30.305945 -25.883526 22.493983 45.764468 -0.706855 1.056966 0.051160 -0.004905 -142922.000000 0 0 1
29.208235 -25.023526 21.826983 44.223467 -0.708387 1.054617 0.064583 0.001319 -263586.000000 0 0 1
29.639925 -23.850326 21.137483 43.521907 -0.677581 1.063662 0.067728 0.002882 116747.000000 0 0 1
30.347025 -22.886026 21.921083 43.877625 -0.646148 1.047664 0.077615 -0.003955 130430.000000 0 0 1
31.262615 -21.929926 21.142383 43.649434 -0.611715 1.065156 0.068589 -0.007329 190515.000000 0 0 1
30.578155 -20.791226 20.651583 42.353117 -0.597134 1.061452 0.077168 -0.010209 527.263000 0 0 1
31.559255 -19.867326 20.326883 42.472102 -0.561846 1.071744 0.069456 -0.011135 -440566.000000 0 0 1
30.988715 -18.453026 20.492683 41.482101 -0.537086 1.054097 0.064091 -0.001616 115577.000000 0 0 1
30.743455 -18.035426 21.849183 41.806978 -0.530540 1.020875 0.045469 -0.000676 -615633.000000 0 0 1
29.559755 -18.510426 22.387783 41.444274 -0.559464 1.000133 0.068646 -0.008074 -908650.000000 0 0 1
29.350315 -18.150426 23.867453 41.958721 -0.553844 0.965712 0.052377 -0.001116 113361.000000 0 0 1
28.901985 -16.830126 24.169503 41.264304 -0.527316 0.945023 0.048534 0.004055 146612.000000 0 0 1
29.108815 -16.585826 25.535533 42.124532 -0.517908 0.919533 0.042491 0.003827 -79382.100000 0 0 1
28.876335 -15.148726 26.027083 41.722125 -0.483139 0.897176 0.038423 0.001301 1091190.000000 0 0 1
27.483945 -14.728126 26.030383 40.618540 -0.491939 0.875192 0.048049 0.000055 1324480.000000 0 0 1
27.307395 -13.483126 26.721683 40.515884 -0.458638 0.850595 0.039938 -0.001452 25187.800000 0 0 1
27.919045 -12.272426 26.023263 40.091093 -0.414148 0.864391 0.053619 -0.012476 -254952.000000 0 0 1
27.263155 -12.098026 24.769243 38.770572 -0.417644 0.877772 0.051002 -0.003299 290979.000000 0 0 1
27.730895 -11.028126 23.937063 38.257092 -0.378508 0.894781 0.050823 -0.002701 244067.000000 0 0 1
28.840485 -11.382226 22.855383 38.518790 -0.375896 0.935574 0.053805 -0.009392 257634.000000 0 0 1
28.469195 -12.360226 21.926683 38.000654 -0.409605 0.955736 0.051945 -0.008897 -55578.000000 0 0 1
28.648085 -13.735426 22.382483 38.863225 -0.447076 0.957055 0.050906 -0.012342 -265102.000000 0 0 1
28.088535 -14.829326 21.473883 38.340610 -0.485756 0.976312 0.059998 -0.008781 -371099.000000 0 0 1
28.583735 -14.903626 20.157383 38.019312 -0.480623 1.011974 0.056281 -0.007459 -123663.000000 0 0 1
28.109475 -16.061126 19.482883 37.784721 -0.519108 1.029055 0.057618 -0.016250 -150846.000000 0 0 1
28.439075 -16.000726 17.986283 37.260040 -0.512490 1.067035 0.057189 -0.021126 -211081.000000 0 0 1
28.079295 -17.176026 17.234383 37.154901 -0.548976 1.088458 0.061407 -0.024768 2497400.000000 0 0 1
26.643415 -17.205826 16.810583 35.895790 -0.573404 1.083412 0.048019 -0.027172 2283490.000000 0 0 1
26.331615 -16.162626 15.647683 34.632852 -0.550513 1.101996 0.042014 -0.019942 -773557.000000 0 0 1
26.552815 -16.555426 14.301683 34.404538 -0.557513 1.142093 0.045916 -0.023273 509142.000000 0 0 1
25.636515 -17.609126 13.963183 34.092268 -0.601864 1.148813 0.024625 -0.022280 150979.000000 0 0 1
25.677615 -18.197026 12.536983 33.876948 -0.616523 1.191707 0.038749 -0.007099 -398035.000000 0 0 1
25.281015 -17.273926 11.569883 32.731948 -0.599414 1.209514 0.034540 -0.015066 -211302.000000 0 0 1
25.258815 -17.786026 10.235783 32.544150 -0.613507 1.250845 0.035671 -0.017597 -498531.000000 0 0 1
26.592715 -17.898226 9.501983 33.433616 -0.592409 1.282620 0.040480 -0.005722 139353.000000 0 0 1
27.471415 -18.839526 10.137583 34.819204 -0.601123 1.275368 0.037450 0.003461 -374949.000000 0 0 1
28.828375 -18.699726 9.808983 35.734733 -0.575430 1.292732 0.044468 0.012430 -618033.000000 0 0 1
29.640785 -19.531726 10.706783 37.076943 -0.582640 1.277852 0.074131 -0.006801 -796754.000000 0 0 1
29.503295 -19.035126 12.061083 37.124792 -0.572984 1.239912 0.079331 -0.018463 207192.000000 0 0 1
30.226015 -19.832326 12.972483 38.408573 -0.580675 1.226271 0.054548 -0.015977 3628.640000 0 0 1
30.020565 -19.285826 14.407083 38.480404 -0.571028 1.187046 0.074960 -0.012778 250471.000000 0 0 1
29.661255 -20.355126 15.269283 39.080330 -0.601440 1.169388 0.082968 -0.019754 -33987.300000 0 0 1
29.318175 -19.966026 16.535983 39.136126 -0.597868 1.134567 0.093078 -0.025786 -77864.500000 0 0 1
29.027985 -21.143526 17.496583 39.947504 -0.629523 1.117435 0.077738 -0.020696 574221.000000 0 0 1
27.723135 -21.705126 17.342583 39.248566 -0.664242 1.113119 0.050523 -0.012847 392501.000000 0 0 1
27.582065 -22.724326 18.332983 40.165453 -0.689134 1.096810 0.064668 -0.013023 196221.000000 0 0 1
26.245015 -23.501926 18.292983 39.696027 -0.730313 1.091870 0.064852 -0.005324 189856.000000 0 0 1
25.128915 -22.697326 18.567483 38.618421 -0.734600 1.069237 0.068552 -0.005084 -313150.000000 0 0 1
23.906915 -23.377926 18.539683 38.233335 -0.774211 1.064537 0.065944 -0.000676 142487.000000 0 0 1
22.747215 -22.724326 19.330183 37.516487 -0.784895 1.029503 0.039138 0.007179 56967.100000 0 0 1
22.137315 -21.567126 18.810583 36.180654 -0.772352 1.024054 0.030587 -0.002030 387099.000000 0 0 1
21.040515 -20.957426 19.508483 35.531647 -0.783420 0.989575 0.022605 0.001420 629974.000000 0 0 1
21.279115 -20.385926 20.959383 36.161893 -0.763964 0.952560 0.014067 0.002712 -293639.000000 0 0 1
21.469715 -21.478826 21.893183 37.437950 -0.785610 0.946180 0.024822 0.001636 -84055.300000 0 0 1
21.923715 -21.039726 23.176983 38.216383 -0.764826 0.919186 0.028881 -0.004019 102268.000000 0 0 1
22.177015 -22.213126 24.213603 39.642673 -0.786212 0.913730 0.033836 -0.008298 123227.000000 0 0 1
21.042215 -22.931726 24.674103 39.717128 -0.828341 0.900465 0.025463 -0.007184 -215251.000000 0 0 1
21.455115 -24.018626 25.494693 41.075488 -0.841712 0.901188 0.024561 -0.001545 -197630.000000 0 0 1
20.413715 -24.850826 26.310543 41.551510 -0.883112 0.885112 0.042408 -0.004715 -151882.000000 0 0 1
19.751915 -25.695026 25.351433 41.146904 -0.915431 0.906989 0.045993 -0.001030 -18371.200000 0 0 1
18.674015 -26.317726 26.018533 41.452450 -0.953683 0.892237 0.036540 -0.000312 -82426.700000 0 0 1
17.942615 -27.344426 25.105143 41.230126 -0.990095 0.916120 0.044771 -0.007102 -33598.200000 0 0 1
17.238615 -26.748326 24.039643 39.881666 -0.998315 0.923823 0.044518 -0.011576 77363.500000 0 0 1
16.640615 -27.657226 23.154783 39.723749 -1.029147 0.948509 0.046430 -0.011561 130200.000000 0 0 1
15.533015 -26.923926 22.325383 38.270029 -1.047519 0.947931 0.039988 -0.009509 812863.000000 0 0 1
14.257915 -26.679526 22.928483 37.957879 -1.079998 0.922222 0.020657 -0.012721 303015.000000 0 0 1
13.573515 -25.814626 22.046683 36.560792 -1.086717 0.923522 -0.001660 -0.005206 -61331.500000 0 0 1
12.205415 -25.336126 22.574983 36.062741 -1.121863 0.894394 0.006500 0.001408 455493.000000 0 0 1
11.203915 -26.354126 22.615783 36.490291 -1.168816 0.902340 0.006199 -0.004085 230552.000000 0 0 1
9.908015 -25.773026 22.692083 35.740010 -1.203781 0.882890 0.009663 0.008170 -35917.900000 0 0 1
8.787815 -26.783426 22.588283 36.122128 -1.253757 0.895241 0.012446 -0.000883 -582690.000000 0 0 1
8.658415 -27.315326 21.292683 35.699770 -1.263835 0.931741 0.023969 0.006185 -204555.000000 0 0 1
7.446615 -28.019726 21.294083 35.972144 -1.311038 0.937307 0.022315 0.006152 -533610.000000 0 0 1
7.211115 -28.971526 20.085483 35.982998 -1.326850 0.978589 0.040954 0.003796 17509.600000 0 0 1
7.679115 -30.353526 20.197283 37.259034 -1.323006 0.997889 0.042061 -0.004649 336013.000000 0 0 1
7.644315 -30.971526 18.922983 37.091108 -1.328815 1.035407 0.038807 -0.008972 -221579.000000 0 0 1
8.407115 -32.308426 18.951083 38.388247 -1.316228 1.054493 0.039636 -0.019409 31506.400000 0 0 1
7.860315 -33.341126 19.749683 39.540678 -1.339270 1.047801 0.045306 -0.021034 61447.300000 0 0 1
8.793915 34.325795 19.702083 40.543374 1.320001 1.063346 0.045497 -0.026113 42572.400000 0 0 1
8.398815 33.114295 20.579483 39.882474 1.322403 1.028618 0.051797 -0.032664 -669337.000000 0 0 1
7.361015 32.273195 20.159383 38.757507 1.346548 1.023780 0.055107 -0.032282 -315929.000000 0 0 1
7.199315 31.371895 21.194483 38.538708 1.345219 0.988488 0.046111 -0.035057 -8555.870000 0 0 1
6.162415 30.257895 20.925683 37.301471 1.369881 0.975217 0.041745 -0.031020 -1292890.000000 0 0 1
4.864115 30.672195 20.905083 37.436154 1.413522 0.978317 0.050717 -0.030895 -1984030.000000 0 0 1
4.084015 29.591695 20.574083 36.271759 1.433650 0.967669 0.060763 -0.026183 -727049.000000 0 0 1
2.722215 29.561795 21.252683 36.510090 1.478970 0.949482 0.058363 -0.020761 -630100.000000 0 0 1
2.658815 28.904995 22.511083 36.733049 1.479070 0.911160 0.050750 -0.021709 1223710.000000 0 0 1
1.294415 28.818995 23.008283 36.899743 1.525911 0.897540 0.047860 -0.015366 1156350.000000 0 0 1
1.229415 28.231395 24.479893 37.387007 1.527276 0.856918 0.052307 -0.017309 -343252.000000 0 0 1
1.702415 29.243595 25.380113 38.758692 1.512647 0.856847 0.057173 -0.017204 297410.000000 0 0 1
1.648415 28.908095 26.766093 39.431193 1.513835 0.824662 0.048745 -0.010053 480786.000000 0 0 1
2.906615 28.085395 27.254163 39.243181 1.467671 0.803080 0.025404 -0.008198 183260.000000 0 0 1
3.033915 26.873495 26.639043 37.960874 1.458376 0.792945 0.031194 -0.014893 314729.000000 0 0 1
3.990515 26.098695 27.359893 38.021439 1.419070 0.767583 0.001684 0.006183 62008.000000 0 0 1
4.340515 24.723795 26.801513 36.720937 1.397007 0.752664 -0.001372 0.009195 -782016.000000 0 0 1
3.219015 23.879795 26.654953 35.931785 1.436803 0.735015 0.020119 0.006884 -114197.000000 0 0 1
3.676115 22.513795 26.659053 35.086891 1.408942 0.707789 0.006811 0.013209 223721.000000 0 0 1
2.561415 21.450895 26.465993 34.163585 1.451951 0.684581 0.016800 0.019217 36344.500000 0 0 1
3.039915 20.080495 26.551953 33.428634 1.420551 0.652962 0.015276 0.016766 282147.000000 0 0 1
3.718015 19.593095 25.396943 32.291140 1.383265 0.665677 0.014944 0.014689 -352899.000000 0 0 1
4.212615 18.162095 25.618683 31.684772 1.342881 0.629115 0.023096 0.001938 -141826.000000 0 0 1
5.342615 18.007895 26.463523 32.452209 1.282387 0.617270 0.015854 0.000986 369127.000000 0 0 1
6.521915 17.983995 25.642093 31.991818 1.222896 0.640963 0.024553 -0.005129 -503161.000000 0 0 1
7.786515 17.887495 26.532483 32.932734 1.160230 0.634013 0.020741 -0.011384 -278566.000000 0 0 1
8.222415 19.040395 27.230053 34.228943 1.163146 0.650919 0.007196 -0.003264 151649.000000 0 0 1
8.471115 20.197495 26.419673 34.317601 1.173666 0.692178 0.000984 -0.005484 -257140.000000 0 0 1
9.010815 21.462795 27.309943 35.884249 1.173309 0.705856 -0.008414 0.000435 546368.000000 0 0 1
10.252215 21.232495 27.970523 36.582467 1.120959 0.700394 0.016397 -0.020719 369248.000000 0 0 1
10.386615 22.106995 29.066183 37.966354 1.131572 0.698858 0.020826 -0.021399 -790397.000000 0 0 1
11.457815 21.746795 30.050393 38.823070 1.085882 0.685608 0.043843 -0.023913 -749617.000000 0 0 1
12.724515 21.757095 29.452013 38.764746 1.041595 0.707848 0.057884 -0.031498 -887349.000000 0 0 1
13.739615 21.838995 30.393053 39.867987 1.009231 0.703872 0.060242 -0.020501 -75750.600000 0 0 1
15.186215 21.747795 29.848333 39.931325 0.961221 0.726518 0.060767 -0.025606 241508.000000 0 0 1
15.591615 22.949395 29.281143 40.338053 0.974036 0.758463 0.054598 -0.027983 -195774.000000 0 0 1
16.728115 22.765895 28.463283 40.103295 0.937102 0.781654 0.098115 -0.022358 29008.500000 0 0 1
-8.581092 16.815195 4.453179 19.396307 -1.098929 1.339141 0.010091 -0.013747 -173496.000000 0 1 0
-8.393292 18.183295 4.773579 20.588021 -1.138343 1.336805 0.014413 -0.015740 407129.000000 0 1 0
-7.047092 18.449995 5.143079 20.408701 -1.205941 1.316046 0.010581 -0.011442 52146.200000 0 1 0
-6.918292 19.847195 5.779679 21.798591 -1.235389 1.302447 0.017096 -0.011927 -225619.000000 0 1 0
-7.201392 21.043495 5.033079 22.803960 -1.241074 1.348253 0.022812 -0.017279 -521060.000000 0 1 0
-8.506992 21.246695 4.560279 23.336390 -1.189953 1.374116 0.019878 -0.021536 -251407.000000 0 1 0
-8.674292 22.396295 3.500579 24.271205 -1.201278 1.426064 0.037779 -0.029460 124438.000000 0 1 0
-8.029292 22.201395 2.236479 23.714411 -1.223775 1.476347 0.021069 -0.028602 -10279.900000 0 1 0
-8.474492 21.110495 1.415879 22.791988 -1.189053 1.508634 0.032273 -0.024747 -936091.000000 0 1 0
-8.018992 21.191395 -0.044721 22.657922 -1.209041 1.572770 0.023585 -0.009413 957987.000000 0 1 0
-6.658292 20.808395 -0.300421 21.849769 -1.261111 1.584546 0.011581 -0.003673 695071.000000 0 1 0
-5.695092 21.771095 0.057879 22.503733 -1.314940 1.568224 0.017983 -0.007666 85475.000000 0 1 0
-4.223392 21.499895 -0.390621 21.914267 -1.376828 1.588622 0.024054 -0.003803 588435.000000 0 1 0
-4.111192 21.514595 -1.835421 21.980638 -1.381984 1.654395 0.024746 -0.012072 -548271.000000 0 1 0
-2.782092 21.726095 -2.183121 22.012025 -1.443436 1.670138 0.024096 -0.000019 -676522.000000 0 1 0
-2.620092 22.069995 -3.651821 22.522996 -1.452632 1.733653 0.030970 0.004665 817045.000000 0 1 0
-1.332892 22.561195 -4.085821 22.966890 -1.511786 1.749649 0.033113 0.011222 946922.000000 0 1 0
-1.303592 22.572695 -5.511221 23.272289 -1.513110 1.809882 0.037704 -0.002892 -13473.300000 0 1 0
-0.022792 23.156795 -6.148621 23.959198 -1.569812 1.830329 0.025962 -0.005117 -230716.000000 0 1 0
1.040908 22.253295 -6.087921 23.094488 1.524055 1.837558 0.019245 0.006681 -581720.000000 0 1 0
2.203308 22.782295 -6.681621 23.843900 1.474385 1.854823 0.021673 0.002840 151806.000000 0 1 0
3.260608 21.653495 -6.842721 22.941844 1.421338 1.873669 0.026008 0.001735 141463.000000 0 1 0
2.867508 20.765295 -7.888621 22.397553 1.433573 1.930727 0.027550 -0.002165 570373.000000 0 1 0
3.882408 19.762195 -8.052421 21.690065 1.376810 1.951150 0.021643 0.000976 736806.000000 0 1 0
3.622208 18.871695 -9.271221 21.335810 1.381164 2.020322 0.023147 0.000406 10983.200000 0 1 0
4.062508 19.408995 -10.481821 22.429481 1.364465 2.057057 0.036314 -0.007439 -141222.000000 0 1 0
3.098908 19.108895 -11.453521 22.493026 1.410025 2.105055 0.037862 -0.009170 -49919.100000 0 1 0
3.437308 19.582795 -12.881921 23.690606 1.397039 2.145703 0.045867 -0.010606 39907.500000 0 1 0
3.572308 20.990595 -13.025221 24.960425 1.402225 2.119797 0.068909 -0.018111 -150008.000000 0 1 0
3.830208 21.366095 -14.363321 26.028551 1.393415 2.155353 0.080646 -0.019261 -70308.900000 0 0 1
4.117008 22.896295 -14.664321 27.499679 1.392886 2.133239 0.072606 -0.020155 330845.000000 0 0 1
2.969908 23.738395 -14.778021 28.119773 1.446333 2.124144 0.079818 -0.021704 245950.000000 0 0 1
3.361408 25.023695 -15.170821 29.455698 1.437267 2.111849 0.076279 -0.018157 -111442.000000 0 0 1
2.112408 25.866595 -15.432521 30.194464 1.489312 2.107265 0.073733 -0.011946 -259894.000000 0 0 1
1.266108 25.987495 -14.335121 29.706036 1.522115 2.074378 0.069395 -0.018715 -248772.000000 0 0 1
1.092708 27.329595 -13.952421 30.704573 1.530835 2.042504 0.047476 -0.010882 -737890.000000 0 0 1
0.188708 27.474895 -12.728421 30.280656 1.563928 2.004625 0.047290 -0.018833 -755514.000000 0 0 1
-1.196492 27.522095 -12.875121 30.408321 -1.527350 2.008000 0.024646 -0.018447 -388894.000000 0 0 1
-1.876392 26.325195 -13.223121 29.519276 -1.499639 2.035266 0.024701 -0.013635 -368641.000000 0 0 1
-1.659592 25.058595 -12.307721 27.967256 -1.504664 2.026480 0.040912 -0.022551 -303967.000000 0 0 1
-2.294692 25.240495 -11.014721 27.634620 -1.480132 1.980769 0.031449 -0.018169 234121.000000 0 0 1
-2.334892 23.988895 -10.302821 26.211961 -1.473770 1.974751 0.052337 -0.020994 651823.000000 0 0 1
-3.484592 23.928795 -9.201721 25.872790 -1.426189 1.934408 0.036785 -0.015565 529772.000000 0 0 1
-3.085192 24.450295 -7.970421 25.901022 -1.445277 1.883599 0.042778 -0.020215 -1167.010000 0 0 1
-2.929592 25.871895 -7.864321 27.198989 -1.458042 1.864125 0.036884 -0.022687 -487867.000000 0 0 1
-2.596992 26.355995 -6.457821 27.259609 -1.472578 1.809971 0.028103 -0.020968 -202757.000000 0 0 1
-1.363892 25.930095 -5.931621 26.634829 -1.518246 1.795381 0.039588 -0.020733 -189088.000000 0 0 1
-0.985192 26.423995 -4.679621 26.853248 -1.533530 1.745957 0.045442 -0.019714 -216092.000000 0 0 1
-1.790792 25.845395 -3.490921 26.141497 -1.501618 1.704736 0.050663 -0.018104 280012.000000 0 0 1
-3.039792 26.469995 -3.221821 26.838053 -1.456458 1.691133 0.035996 -0.014400 651779.000000 0 0 1
-3.840492 25.952295 -2.160021 26.323690 -1.423880 1.652945 0.028390 -0.006348 170332.000000 0 0 1
-4.879892 24.870195 -2.510721 25.468483 -1.377043 1.669538 0.028331 -0.007777 -479767.000000 0 0 1
-5.925192 25.419195 -3.270221 26.304709 -1.341787 1.695440 0.017254 -0.006328 -31999.700000 0 0 1
-6.963792 24.497895 -3.583021 25.719239 -1.293841 1.710564 -0.003492 -0.005856 434207.000000 0 0 1
-8.268992 25.134995 -4.095521 26.775315 -1.252966 1.724358 0.004412 0.001656 203486.000000 0 0 1
-9.032192 25.646295 -3.006021 27.355970 -1.232178 1.680904 0.015012 -0.002146 281350.000000 0 0 1
-10.306292 26.207695 -3.306621 28.354835 -1.196119 1.687678 0.023283 -0.001386 662361.000000 0 0 1
-11.099092 26.715595 -2.084621 29.004456 -1.177039 1.642731 0.023352 -0.001699 -331631.000000 0 0 1
-11.510792 25.730095 -1.132821 28.210271 -1.150134 1.610963 0.014310 -0.008300 89387.300000 0 0 1
-10.548892 25.070195 -0.322521 27.201062 -1.172510 1.582654 0.032273 -0.017267 -643252.000000 0 0 1
-10.942092 23.593895 -0.101221 26.007912 -1.136552 1.574688 0.027404 -0.020042 446833.000000 0 0 1
-11.967192 23.456795 0.905479 26.348715 -1.099038 1.536424 0.037494 -0.028150 406346.000000 0 0 1
-12.187492 22.118595 0.991979 25.273528 -1.067181 1.531536 0.035538 -0.026664 -7842.710000 0 0 1
-13.304992 21.781595 2.017079 25.603306 -1.022447 1.491933 0.046294 -0.026125 232200.000000 0 0 1
-12.860392 21.838995 3.398579 25.571111 -1.038599 1.437495 0.055893 -0.027990 230607.000000 0 0 1
-12.955892 23.093595 4.055579 26.788374 -1.059534 1.418819 0.040474 -0.027621 -80965.100000 0 0 1
-12.804292 22.911895 5.589179 26.835494 -1.061185 1.360985 0.044664 -0.031337 -333512.000000 0 0 1
-11.492392 22.583595 5.977879 26.035147 -1.100068 1.339121 0.038931 -0.024151 -62108.100000 0 0 1
-11.497192 22.516895 7.374579 26.335914 -1.098702 1.286982 0.035706 -0.019465 -265529.000000 0 0 1
-10.184492 22.001895 7.964079 25.519283 -1.137274 1.253414 0.042684 -0.018180 -515055.000000 0 0 1
-9.189992 22.999395 8.138379 26.070315 -1.190656 1.253320 0.050112 -0.023062 578783.000000 0 0 1
-8.142392 22.474895 9.005479 25.544434 -1.223216 1.210510 0.059449 -0.025606 361050.000000 0 0 1
-8.393992 22.491795 10.510379 26.207022 -1.213603 1.158131 0.040781 -0.018886 -281946.000000 0 0 1
-9.350592 21.504895 10.842479 25.835120 -1.160644 1.137704 0.044853 -0.024394 -116343.000000 0 0 1
-9.112992 21.109695 12.160979 26.010676 -1.163267 1.084293 0.038257 -0.023095 299557.000000 0 0 1
-9.980592 19.979495 12.855679 25.769379 -1.107515 1.048497 0.044107 -0.019730 191734.000000 0 0 1
-9.789992 18.757995 12.177779 24.413206 -1.089774 1.048560 0.046364 -0.025072 -182963.000000 0 1 0
-10.408992 17.643795 12.755679 24.132094 -1.037798 1.013872 0.044221 -0.023791 -145180.000000 0 1 0
-10.426692 16.442595 11.859179 22.797258 -1.005661 1.023709 0.035743 -0.029302 -302192.000000 0 1 0
-11.006192 15.257295 12.369579 22.515057 -0.945870 0.989161 0.034967 -0.032183 72125.500000 0 1 0
-11.183192 14.271995 11.398279 21.416685 -0.906151 1.009582 0.027708 -0.025882 37840.600000 0 1 0
-11.486092 12.885695 12.042479 21.047393 -0.842762 0.961659 0.015355 -0.030414 169858.000000 0 1 0
-12.530492 12.899095 13.005579 22.193354 -0.799892 0.944667 0.016615 -0.024073 167871.000000 0 1 0
-13.041092 11.624295 13.212979 21.903815 -0.728021 0.923255 0.027209 -0.021914 192118.000000 0 1 0
-14.062192 11.420995 14.378579 23.128508 -0.682122 0.899908 0.044861 -0.031579 123084.000000 0 1 0
-15.149392 12.294395 14.276779 24.176076 -0.681740 0.939077 0.051274 -0.031603 -656543.000000 0 1 0
-15.887692 12.367495 15.442779 25.374261 -0.661451 0.916501 0.046680 -0.025852 -952647.000000 0 0 1
-16.930392 13.450795 15.427679 26.562668 -0.671364 0.951081 0.060270 -0.029502 -417868.000000 0 0 1
-18.018092 13.095195 14.570379 26.616381 -0.628474 0.991516 0.048477 -0.027785 -45824.700000 0 0 1
-18.899292 14.191795 14.554579 27.756550 -0.644088 1.018826 0.074200 -0.023254 156884.000000 0 0 1
-20.243992 13.917695 13.820379 28.187308 -0.602286 1.058357 0.060329 -0.016220 277103.000000 0 0 1
-21.133692 13.025295 14.461279 28.730121 -0.552339 1.043326 0.046075 -0.009077 -484761.000000 0 0 1
-22.335092 12.975395 13.773079 29.273109 -0.526288 1.080936 0.028866 -0.007975 -294773.000000 0 0 1
-23.367392 11.969395 14.395179 29.941987 -0.473381 1.069265 0.028334 -0.006274 -36628.100000 0 0 1
-23.829592 12.414995 15.638679 31.089385 -0.480299 1.043703 0.027639 -0.000364 -105383.000000 0 0 1
-24.686592 11.485695 16.217879 31.691775 -0.435472 1.033590 0.020350 -0.001795 -442056.000000 0 0 1
-25.470742 12.047795 17.430679 33.132109 -0.441820 1.016793 0.025406 -0.002834 -21086.100000 0 0 1
-26.458942 12.978895 17.018379 34.031640 -0.456043 1.047111 0.026741 0.003386 97976.900000 0 0 1
-27.029382 13.598095 18.135079 35.275725 -0.466113 1.030844 0.010973 0.008875 745298.000000 0 0 1
-28.206422 14.614695 17.754379 36.392438 -0.478049 1.061161 0.010912 0.005429 683086.000000 0 0 1
-27.833742 15.884595 17.295479 36.416633 -0.518593 1.075908 0.023960 0.006420 -82155.500000 0 0 1
-28.974792 16.732295 17.165479 37.605344 -0.523694 1.096780 0.022016 0.005634 256038.000000 0 0 1
-28.639472 18.246195 17.000979 37.975996 -0.567253 1.106631 0.039338 0.004526 -297199.000000 0 0 1
-28.221142 18.933995 18.147479 38.526095 -0.590938 1.080323 0.035918 -0.001109 -346640.000000 0 0 1
-29.124112 19.055295 19.228579 39.762500 -0.579377 1.066050 0.022718 -0.011225 -957336.000000 0 0 1
-28.511182 19.333295 20.618179 40.146894 -0.595873 1.031458 0.020323 -0.018150 391917.000000 0 0 1
-27.885632 18.208695 21.321479 39.544538 -0.578466 1.001338 0.022966 -0.016035 549486.000000 0 0 1
-26.691532 17.709995 20.700879 38.139326 -0.585811 0.997065 0.042049 -0.011167 -232629.000000 0 0 1
-26.133792 16.543595 21.513979 37.676477 -0.564356 0.963050 0.033346 -0.005701 -376810.000000 0 0 1
-27.021292 15.476495 21.729379 37.971542 -0.520143 0.961544 0.008514 0.002601 -112853.000000 0 0 1
-26.365702 14.326895 22.065579 37.246476 -0.497755 0.936736 0.005075 0.012296 -352285.000000 0 0 1
-27.474372 13.294295 22.280079 37.788640 -0.450669 0.940236 0.020821 -0.002968 215939.000000 0 0 1
-28.294442 13.075195 21.145079 37.664978 -0.432880 0.974721 0.030502 -0.008151 49223.500000 0 0 1
-29.222322 12.034595 21.403579 38.169212 -0.390662 0.975499 0.065465 -0.008637 130279.000000 0 0 1
-30.191722 11.856195 20.184779 38.203858 -0.374195 1.014147 0.076476 -0.012418 185145.000000 0 0 1
-29.627962 11.339895 18.934979 36.945132 -0.365542 1.032684 0.089526 -0.019004 477651.000000 0 0 1
-29.126982 10.001795 19.002479 36.187169 -0.330770 1.017944 0.100578 -0.022526 -223256.000000 0 0 1
-28.492932 9.421895 17.718879 34.850796 -0.319356 1.037446 0.093929 -0.024876 -62491.400000 0 0 1
-29.309002 8.971395 16.618579 34.866613 -0.297041 1.073976 0.090936 -0.015163 627242.000000 0 0 1
-30.037282 9.970195 15.908179 35.421932 -0.320485 1.105033 0.081706 -0.012275 -235192.000000 0 0 1
-29.155042 10.986295 15.167679 34.652181 -0.360368 1.117744 0.074982 -0.011026 -75399.900000 0 0 1
-28.525852 10.467095 14.006079 33.458251 -0.351680 1.138878 0.064285 -0.016799 385039.000000 0 0 1
-27.449462 11.291895 13.599879 32.648684 -0.390270 1.141147 0.036923 -0.000356 -32506.600000 0 0 1
-27.204512 11.363095 12.058679 31.853055 -0.395664 1.182543 0.059143 -0.007104 -107110.000000 0 0 1
-26.546812 10.176395 11.508079 30.671291 -0.366060 1.186176 0.065891 -0.005859 166561.000000 0 0 1
-27.263852 9.014495 11.406379 30.897965 -0.319324 1.192688 0.061854 -0.001537 -766918.000000 0 0 1
-26.474532 7.853495 10.760779 29.637351 -0.288374 1.199223 0.062849 -0.006284 -172745.000000 0 0 1
-26.300842 8.139995 9.357679 29.078514 -0.300145 1.243159 0.073123 -0.008811 135165.000000 0 0 1
-25.936262 7.026195 8.598579 28.213342 -0.264553 1.261099 0.085490 -0.015615 183836.000000 0 0 1
-25.164052 7.346995 7.279379 27.206565 -0.284068 1.299937 0.087576 -0.009697 248082.000000 0 0 1
-26.073412 7.949595 6.394479 27.998361 -0.295940 1.340375 0.090923 -0.008320 896490.000000 0 0 1
-25.307582 8.176095 5.165779 27.092573 -0.312484 1.378950 0.089180 -0.012051 787213.000000 0 0 1
-26.215692 8.795095 4.025579 27.943183 -0.323690 1.426230 0.070830 -0.010499 1051030.000000 0 0 1
-27.125472 8.001895 3.209879 28.462693 -0.286859 1.457781 0.091329 -0.010355 836027.000000 0 0 1
-26.517642 6.917195 2.524479 27.521008 -0.255166 1.478938 0.101392 -0.012194 -403132.000000 0 0 1
-25.633992 7.230495 1.309179 26.666375 -0.274924 1.521682 0.111804 -0.008622 154368.000000 0 0 1
-24.436092 7.891795 1.685679 25.734112 -0.312383 1.505246 0.096330 -0.009577 -305679.000000 0 0 1
-23.366592 7.469695 0.890079 24.547631 -0.309407 1.534529 0.094726 -0.005177 57424.700000 0 1 0
-22.097892 8.284995 1.376079 23.640041 -0.358703 1.512554 0.071953 -0.008321 279318.000000 0 1 0
-22.157292 9.682395 1.154279 24.207989 -0.411978 1.523096 0.059551 -0.011085 -98702.800000 0 1 0
-21.133792 10.334795 1.820179 23.595724 -0.454823 1.493579 0.069754 -0.012961 -542722.000000 0 1 0
-21.519092 11.816895 2.177279 24.646518 -0.502179 1.482341 0.067233 -0.014838 -504007.000000 0 1 0
-20.491892 12.454995 2.869379 24.151146 -0.546136 1.451706 0.075472 -0.016151 -314157.000000 0 1 0
-20.800792 13.718595 3.430579 25.152369 -0.583040 1.433978 0.067559 -0.025890 -217530.000000 0 0 1
-19.650792 14.246595 4.327479 24.654536 -0.627301 1.394358 0.032795 -0.015767 42178.100000 0 1 0
-19.346092 13.416095 5.434479 24.161880 -0.606336 1.343936 0.040598 -0.025905 165638.000000 0 1 0
-18.554692 14.107695 6.398779 24.171223 -0.650080 1.302875 0.033805 -0.021668 -343595.000000 0 1 0
-18.030692 13.183195 7.409379 23.532985 -0.631330 1.250497 0.017636 -0.027364 1166660.000000 0 1 0
-16.797292 12.519095 6.925679 22.064491 -0.640489 1.251516 0.016494 -0.012656 1700420.000000 0 1 0
-16.287892 11.681995 7.936679 21.558184 -0.622189 1.193776 0.010563 -0.019994 -269835.000000 0 1 0
9.962708 -33.658526 -14.238221 37.879795 -1.283019 1.956142 0.032413 -0.003770 -584621.000000 0 0 1
11.005408 -33.304526 -13.386221 37.543326 -1.251645 1.935373 0.029826 -0.008320 -359410.000000 0 0 1
11.561908 -32.075026 -13.848721 36.800436 -1.224830 1.956617 0.031773 -0.014208 -932277.000000 0 0 1
12.812908 -31.729126 -13.089021 36.636464 -1.187000 1.936137 0.023250 -0.014218 -2055900.000000 0 0 1
13.929408 -32.256726 -13.648721 37.693665 -1.163155 1.941312 0.036342 -0.013330 -1823760.000000 0 0 1
15.048308 -31.663626 -13.077021 37.417179 -1.127140 1.927826 0.031394 -0.012707 -812654.000000 0 0 1
16.376208 -32.173026 -13.630721 38.588604 -1.099971 1.931820 0.052818 -0.012391 -250204.000000 0 0 1
16.830108 -33.395226 -13.133721 39.635694 -1.103980 1.908542 0.055459 -0.019599 82739.300000 0 0 1
17.887308 -33.998926 -13.885921 40.849744 -1.086476 1.917635 0.056040 -0.005185 577161.000000 0 0 1
17.934108 33.209595 -13.538021 40.097224 1.075641 1.915194 0.039255 -0.009175 -217665.000000 0 0 1
18.452108 32.914295 -12.279821 39.681546 1.059843 1.885421 0.036700 -0.011046 -121425.000000 0 0 1
18.413908 31.555695 -11.898821 38.424157 1.042570 1.885643 0.020779 -0.005884 -14431.400000 0 0 1
19.126608 31.235495 -10.569821 38.120918 1.021356 1.851749 0.019005 -0.009418 -246232.000000 0 0 1
20.512008 31.110295 -10.710321 38.772463 0.987889 1.850671 0.022480 -0.011188 -112757.000000 0 0 1
21.194008 30.830995 -9.477521 38.594813 0.968560 1.818898 0.022104 -0.006697 286889.000000 0 0 1
22.436808 29.927595 -9.520421 38.596757 0.927485 1.820032 0.022244 0.010317 424056.000000 0 0 1
23.610308 30.499995 -10.113721 39.874599 0.912043 1.827236 0.031418 -0.003007 -251637.000000 0 0 1
24.661008 29.653595 -9.847721 39.805510 0.877060 1.820788 0.022941 0.010375 -1141100.000000 0 0 1
25.897308 29.927995 -10.688821 40.995199 0.857475 1.834578 0.015739 0.008617 -591050.000000 0 0 1
26.456308 31.194595 -10.453021 42.217350 0.867403 1.820999 0.029890 -0.003614 -269545.000000 0 0 1
27.427608 31.448895 -11.434321 43.267197 0.853593 1.838246 0.034102 0.000320 -62097.000000 0 0 1
28.079708 32.826895 -11.171321 44.619205 0.863183 1.823859 0.038515 -0.013060 292507.000000 0 0 1
27.266008 33.936795 -11.674121 45.071347 0.893964 1.832798 0.041100 -0.014152 519599.000000 0 0 1
27.776808 -33.575426 -11.204821 44.993425 -0.879632 1.822477 0.049152 -0.021948 320488.000000 0 0 1
26.834208 -32.398126 -11.621521 43.643706 -0.879057 1.840330 0.051479 -0.020018 827372.000000 0 0 1
25.528108 -32.435426 -11.049521 42.729768 -0.904005 1.832359 0.059744 -0.023460 490000.000000 0 0 1
24.607808 -31.376926 -11.295821 41.444557 -0.905724 1.846841 0.064620 -0.021261 463224.000000 0 0 1
25.090708 -29.959426 -10.951521 40.583822 -0.873610 1.844033 0.042130 -0.024099 -435629.000000 0 0 1
25.916508 -29.321326 -11.928521 40.910820 -0.846960 1.866668 0.036796 -0.017741 118990.000000 0 0 1
26.504908 -28.162926 -11.338821 40.301730 -0.815718 1.855995 0.037081 -0.013157 -25017.800000 0 0 1
27.582308 -27.503126 -12.233821 40.827344 -0.783961 1.875120 0.020410 -0.005648 -176291.000000 0 0 1
28.730808 -28.263126 -12.491521 42.193622 -0.777193 1.871353 0.009123 -0.009315 -75650.200000 0 0 1
28.576408 -29.143226 -13.587121 43.018003 -0.795218 1.892146 0.009893 -0.013573 -561671.000000 0 0 1
29.959008 -29.629026 -14.033121 44.411145 -0.779860 1.892288 0.013675 -0.011564 -121480.000000 0 0 1
30.431908 -30.681926 -13.225721 45.192934 -0.789489 1.867794 0.021645 -0.019507 -197998.000000 0 0 1
31.723208 -31.082726 -13.608221 46.450850 -0.775201 1.868117 0.027965 -0.022265 -77540.400000 0 0 1
32.291708 -32.229626 -12.735221 47.367595 -0.784436 1.843005 0.012366 -0.014930 702341.000000 0 0 1
33.472708 -32.939526 -13.167821 48.773210 -0.777370 1.844169 0.010323 -0.020829 843809.000000 0 0 1
34.137208 -33.636526 -12.105821 49.429907 -0.778011 1.818222 0.017801 -0.016667 42407.300000 0 0 1
33.374708 33.816795 -11.524721 48.890346 0.791978 1.808762 0.022818 -0.015840 576710.000000 0 0 1
32.312108 34.208095 -10.632621 48.242291 0.813893 1.793021 0.037010 -0.018987 387964.000000 0 0 1
31.685308 33.080995 -10.044121 46.895579 0.806944 1.786649 0.045055 -0.011437 -37295.600000 0 0 1
31.008308 33.320795 -8.715421 46.343814 0.821330 1.759983 0.039631 -0.013045 310558.000000 0 0 1
29.892808 34.197095 -8.645321 46.235947 0.852458 1.758886 0.031693 -0.015394 183902.000000 0 0 1
29.307908 -34.295626 -7.333021 45.704667 -0.863657 1.731936 0.047018 -0.019813 1369680.000000 0 0 1
28.206608 -33.134726 -7.378821 44.135811 -0.865565 1.738770 0.044342 -0.021909 537539.000000 0 0 1
28.763008 -31.874526 -7.735321 43.624892 -0.836667 1.749053 0.025752 -0.025957 -398141.000000 0 0 1
27.879308 -30.887826 -8.132921 42.396439 -0.836547 1.763823 0.023997 -0.021158 75421.400000 0 0 1
26.795708 -30.290726 -7.175621 41.073441 -0.846545 1.746400 0.019956 -0.015838 529979.000000 0 0 1
26.097208 -29.235026 -7.786121 39.954658 -0.842046 1.766925 0.032106 -0.028011 -181637.000000 0 0 1
25.167808 -28.602526 -6.914121 38.721159 -0.849189 1.750321 0.031403 -0.027072 -72875.200000 0 0 1
24.211008 -27.775426 -7.779921 37.658656 -0.853855 1.778885 0.068237 -0.034359 -357546.000000 0 0 1
23.226508 -28.505826 -8.513421 37.742961 -0.887097 1.798317 0.077314 -0.030244 -53195.800000 0 0 1
22.556408 -27.613226 -9.288921 36.845160 -0.885853 1.825653 0.098835 -0.035514 645451.000000 0 0 1
21.144708 -28.175326 -9.786821 36.561312 -0.926995 1.841783 0.099106 -0.027553 973174.000000 0 0 1
21.224408 -29.161226 -10.780221 37.643934 -0.941636 1.861236 0.102524 -0.029337 -996671.000000 0 0 1
20.091608 -29.888826 -11.027821 37.664671 -0.978965 1.867939 0.098771 -0.030252 -784494.000000 0 0 1
19.835608 -31.125026 -10.141821 38.276300 -1.003409 1.838962 0.093304 -0.036741 76059.700000 0 0 1
20.870708 -32.089726 -10.259521 39.630730 -0.994150 1.832657 0.075104 -0.026434 80964.900000 0 0 1
20.442908 -33.388226 -9.993521 40.404908 -1.021397 1.820724 0.063706 -0.021182 399741.000000 0 0 1
21.666008 -34.341626 -10.209821 41.868886 -1.007968 1.817132 0.051034 -0.012161 611404.000000 0 0 1
22.642908 -34.131426 -9.203521 41.980475 -0.985056 1.791825 0.050522 -0.006561 -312153.000000 0 0 1
23.705108 33.686895 -9.444521 42.260360 0.957599 1.796184 0.042831 -0.006601 513613.000000 0 0 1
25.056208 34.095195 -8.714521 43.199985 0.937036 1.773915 0.044262 -0.006780 605154.000000 0 0 1
25.231508 33.681195 -7.379221 42.725926 0.927854 1.744377 0.035703 -0.018889 143155.000000 0 0 1
25.635208 32.329995 -7.291521 41.899388 0.900385 1.745711 0.028338 -0.002812 -472427.000000 0 0 1
25.536908 31.802095 -5.808621 41.197657 0.894232 1.712262 0.025028 -0.002798 -557154.000000 0 0 1
26.451008 32.481695 -4.994421 42.186023 0.887375 1.689465 0.025807 -0.010044 190384.000000 0 0 1
27.563508 31.664095 -4.620921 42.234048 0.854522 1.680428 0.035819 -0.011332 332209.000000 0 0 1
27.328108 30.627295 -3.506021 41.196466 0.842263 1.656004 0.030329 0.009557 -796686.000000 0 0 1
26.807308 31.107195 -2.329421 41.130470 0.859508 1.627462 0.031437 -0.009185 -62182.600000 0 0 1
26.679208 30.120395 -1.317421 40.258588 0.845909 1.603526 0.017579 0.001808 -692613.000000 0 0 1
25.471908 29.172795 -1.392621 38.753186 0.853021 1.606740 0.010645 0.005235 -724920.000000 0 0 1
24.310908 29.787695 -0.928321 38.460223 0.886292 1.594936 0.006972 -0.000857 -1512130.000000 0 0 1
23.183708 29.107095 -1.320021 37.235061 0.898195 1.606255 0.012250 0.006034 -740721.000000 0 0 1
21.920808 29.734395 -0.698721 36.947859 0.935524 1.589708 0.042125 -0.000642 -131258.000000 0 0 1
21.758608 29.469895 0.686479 36.638545 0.934804 1.552059 0.049636 -0.010403 656667.000000 0 0 1
20.536108 30.111795 1.096779 36.464432 0.972256 1.540714 0.040490 -0.013236 499836.000000 0 0 1
19.820008 29.539895 2.333379 35.649443 0.979829 1.505296 0.034004 -0.018311 -245999.000000 0 0 1
19.221908 28.305495 1.970879 34.271959 0.974244 1.513258 0.047364 -0.008617 289288.000000 0 0 1
18.516208 27.654595 3.019679 33.417735 0.980798 1.480311 0.051014 -0.007225 -72367.500000 0 0 1
17.990008 26.274495 2.537679 31.944159 0.970416 1.491271 0.058314 0.006443 402851.000000 0 0 1
18.960208 25.358495 1.977679 31.724659 0.928777 1.508417 0.052211 -0.004279 586650.000000 0 0 1
19.657008 24.593895 2.954879 31.622602 0.896504 1.477218 0.046614 0.000200 -75500.300000 0 0 1
20.825408 23.735195 2.391279 31.666628 0.850605 1.495210 0.036104 -0.000839 -457054.000000 0 0 1
20.520508 22.602595 1.606079 30.570378 0.833643 1.518235 0.041643 0.000289 455537.000000 0 0 1
21.672608 21.874895 1.197179 30.816330 0.790043 1.531938 0.017819 -0.003835 67491.300000 0 0 1
21.358408 20.941795 0.010579 29.912213 0.775550 1.570443 0.039902 -0.009271 -242302.000000 0 0 1
21.229908 21.647895 -1.248021 30.346300 0.795146 1.611934 0.017898 -0.004520 362826.000000 0 0 1
21.333308 20.644295 -2.215121 29.769174 0.768986 1.645275 0.048421 -0.018416 -75463.000000 0 0 1
21.175808 21.271095 -3.589321 30.228423 0.787643 1.689817 0.030031 -0.008010 133661.000000 0 0 1
22.189508 22.188395 -3.987521 31.632253 0.785373 1.697191 0.025271 0.000539 448564.000000 0 0 1
21.717308 22.927295 -5.070921 31.984630 0.812494 1.730011 0.021314 0.000043 -287352.000000 0 0 1
22.731508 23.999295 -5.558321 33.519883 0.812521 1.737387 0.014102 0.019700 74086.300000 0 0 1
22.892408 25.199895 -4.809021 34.383480 0.833342 1.711121 0.004205 0.023200 193276.000000 0 0 1
23.390708 25.082795 -3.470421 34.471954 0.820291 1.671641 0.010344 0.013342 155253.000000 0 0 1
22.274808 24.803895 -2.398721 33.423856 0.839067 1.642625 0.010662 0.004482 -1556290.000000 0 0 1
21.417908 25.888195 -2.092421 33.664575 0.879615 1.632991 0.028804 0.010999 1263200.000000 0 0 1
20.311308 25.532495 -1.205521 32.648289 0.898800 1.607729 0.046299 0.007977 1293220.000000 0 0 1
19.405308 24.370895 -1.820321 31.206090 0.898347 1.629162 0.069566 -0.003331 -1897140.000000 0 0 1
18.769608 24.810795 -2.994221 31.254425 0.923142 1.666745 0.051506 0.000718 -254058.000000 0 0 1
18.058208 23.743395 -3.467521 30.031173 0.920573 1.686518 0.062836 -0.007187 -393510.000000 0 0 1
17.372408 23.993495 -4.813921 30.011034 0.944113 1.731897 0.062535 -0.010515 -66905.100000 0 0 1
16.541008 23.048395 -5.445221 28.887434 0.948313 1.760429 0.068194 -0.018061 260439.000000 0 0 1
16.202308 23.469795 -6.762421 29.310005 0.966578 1.803614 0.070698 -0.020203 495354.000000 0 0 1
15.360408 22.443495 -7.641721 28.249752 0.970615 1.844715 0.080109 -0.024902 313760.000000 0 0 1
16.110408 21.288295 -7.955721 27.857319 0.922975 1.860416 0.058199 -0.018755 520796.000000 0 0 1
15.377308 20.450595 -8.827621 27.066867 0.926065 1.903015 0.051635 -0.013909 -67977.000000 0 0 1
16.072408 19.088795 -8.933721 26.505014 0.870976 1.914586 0.046042 -0.007617 551560.000000 0 0 1
17.399408 19.230595 -9.450521 27.601948 0.835348 1.920252 0.056531 -0.009855 540767.000000 0 0 1
17.869908 18.029895 -9.976221 27.275185 0.789855 1.945248 0.056670 -0.005401 283728.000000 0 0 1
19.286008 18.193395 -10.616121 28.559617 0.756254 1.951655 0.049726 -0.007049 247862.000000 0 0 1
19.288408 18.586295 -11.964421 29.336673 0.766862 1.990874 0.052721 -0.006040 -148333.000000 0 0 1
20.548208 19.077595 -12.326021 30.628651 0.748303 1.984971 0.044552 0.001067 -346924.000000 0 0 1
20.727008 19.384595 -13.830921 31.570013 0.751944 2.024284 0.042052 -0.000879 -62571.900000 0 0 1
20.929508 18.185295 -14.581421 31.326779 0.715355 2.054953 0.038025 0.003897 211249.000000 0 0 1
21.216408 18.552895 -15.882921 32.351399 0.718524 2.083976 0.030659 0.004736 20568.300000 0 0 1
21.236708 17.354595 -16.875221 32.201751 0.685140 2.122392 0.024417 0.002764 73255.100000 0 0 1
22.317608 16.430695 -16.734521 32.374180 0.634624 2.114033 0.037047 -0.003696 318120.000000 0 0 1
22.399908 15.516195 -17.833321 32.565864 0.605803 2.150299 0.036824 -0.012992 -699371.000000 0 0 1
23.110508 16.120195 -19.038721 34.006310 0.609064 2.165011 0.032720 -0.008507 -681343.000000 0 0 1
24.480708 16.353195 -18.796621 34.929142 0.588927 2.139020 0.043550 -0.012668 -20598.800000 0 0 1
25.164308 16.855195 -19.929621 36.256444 0.590173 2.152783 0.052523 -0.017378 696844.000000 0 0 1
26.669108 17.038595 -19.500921 37.173121 0.568524 2.123038 0.038051 -0.013878 659006.000000 0 0 1
26.841208 18.083595 -18.557621 37.307534 0.592873 2.091422 0.030204 -0.007402 -911672.000000 0 0 1
28.174108 18.307795 -18.298921 38.259720 0.576241 2.069493 0.024206 -0.015438 -1087880.000000 0 0 1
28.280408 19.550095 -17.379621 38.523225 0.604860 2.038846 0.026744 -0.011449 160116.000000 0 0 1
27.654808 19.344895 -16.108321 37.396408 0.610399 2.016115 0.022005 -0.013753 962993.000000 0 0 1
26.268908 19.725595 -16.076221 36.573207 0.644083 2.025908 0.018893 -0.007052 617080.000000 0 0 1
25.488508 19.047395 -14.921421 35.144218 0.641767 2.009291 0.023613 -0.002272 -159093.000000 0 0 1
25.716308 19.667595 -13.654721 35.136792 0.652900 1.969925 0.021167 -0.008893 634562.000000 0 0 1
24.867208 19.203795 -12.580021 33.844064 0.657592 1.951642 0.030264 -0.013368 269978.000000 0 0 1
25.410408 19.721295 -11.280521 34.086191 0.660004 1.908097 0.028313 -0.011833 -271118.000000 0 0 1
25.098708 21.107195 -11.157121 34.640152 0.699227 1.898729 0.025158 -0.001599 294681.000000 0 0 1
25.693108 21.717995 -10.009121 35.099709 0.701750 1.859972 0.023224 -0.000758 370458.000000 0 0 1
24.884908 21.468695 -8.676221 33.991768 0.711832 1.828897 0.031752 -0.001744 -644837.000000 0 0 1
25.085908 20.278895 -7.988021 33.231684 0.679829 1.813547 0.041305 -0.012594 680694.000000 0 0 1
24.128208 20.063295 -6.914421 32.132778 0.693672 1.787675 0.038244 -0.011383 1105340.000000 0 0 1
22.645608 19.810195 -7.315521 30.964241 0.718712 1.809308 0.040331 -0.015941 -114086.000000 0 0 1
21.954608 20.888995 -7.902921 31.317903 0.760531 1.825899 0.035339 -0.005642 -271816.000000 0 0 1
20.615808 20.569695 -8.217621 30.259762 0.784279 1.845820 0.038677 -0.009079 36187.800000 0 0 1
19.798408 21.894795 -8.092321 30.607918 0.835637 1.838364 0.041924 -0.017481 -459010.000000 0 0 1
20.186308 22.961395 -8.970321 31.861879 0.849626 1.856193 0.042438 -0.012561 113236.000000 0 0 1
19.749808 22.910895 -10.332221 31.964336 0.859361 1.899950 0.051679 0.003551 246058.000000 0 0 1
18.214308 23.022795 -10.591921 31.208955 0.901480 1.917062 0.046209 -0.013087 187999.000000 0 0 1
17.727908 24.312795 -10.298821 31.803403 0.940767 1.900569 0.048746 -0.019266 227368.000000 0 0 1
16.443108 24.607395 -10.825121 31.513218 0.981720 1.921449 0.051996 -0.021249 268206.000000 0 0 1
16.056208 25.995495 -10.300421 32.243856 1.017497 1.895949 0.057707 -0.021360 87779.900000 0 0 1
16.933508 27.003095 -10.806521 33.655485 1.010692 1.897679 0.072181 -0.016549 383501.000000 0 0 1
16.833208 28.231795 -10.133521 34.395921 1.033139 1.869848 0.079212 -0.025066 -164156.000000 0 0 1
19.771808 29.024595 33.523865 48.551014 0.972794 0.808634 0.004428 -0.001936 520920.000000 0 0 1
18.414808 29.441995 33.574174 48.302809 1.011866 0.802269 0.016205 -0.020157 -237845.000000 0 0 1
17.540108 28.356395 33.676961 47.390698 1.016842 0.780412 0.021207 -0.018912 491889.000000 0 0 1
16.050308 28.813595 33.849487 47.261225 1.062565 0.772424 0.045252 -0.032284 722273.000000 0 0 1
15.479408 29.153895 32.559344 46.364561 1.082692 0.792248 0.051454 -0.033037 -276911.000000 0 0 1
14.217408 29.768295 32.681398 46.436622 1.125227 0.790085 0.034803 -0.032768 -324154.000000 0 0 1
13.568808 29.696795 31.279063 45.214953 1.142210 0.806837 0.033933 -0.032095 -364832.000000 0 0 1
13.152908 28.439195 30.777423 43.920799 1.137603 0.794351 0.036171 -0.026768 -53837.700000 0 0 1
11.917908 27.941395 31.222853 43.561734 1.167628 0.771667 0.031488 -0.020441 -490340.000000 0 0 1
11.769908 26.416595 31.146873 42.502881 1.151649 0.748342 0.017536 -0.012538 -70052.400000 0 0 1
11.721908 25.866695 29.849803 41.200726 1.145313 0.760492 0.016735 -0.011652 1513250.000000 0 0 1
13.027608 25.718895 29.210553 41.041888 1.101932 0.778845 0.031667 -0.014551 1074580.000000 0 0 1
12.931808 24.917495 27.885863 39.569364 1.092076 0.788749 0.053494 -0.016177 -459596.000000 0 0 1
12.213008 25.558595 26.882413 39.052061 1.125031 0.811552 0.055824 -0.016312 91354.000000 0 0 1
12.417908 24.888595 25.626213 37.819960 1.107997 0.826323 0.061247 -0.024281 -411290.000000 0 0 1
11.601308 23.645795 25.406733 36.595301 1.114674 0.803402 0.048208 -0.021578 -846800.000000 0 0 1
11.809408 23.108395 24.155223 35.453277 1.098353 0.821224 0.056639 -0.034718 518918.000000 0 0 1
10.825308 22.104695 23.853233 34.275087 1.115399 0.801075 0.050198 -0.035183 430115.000000 0 0 1
10.846108 21.571595 22.390783 32.928998 1.104915 0.823072 0.067473 -0.034863 -1644.720000 0 0 1
10.704808 22.679095 21.520683 33.046544 1.129789 0.861601 0.058733 -0.037937 140325.000000 0 0 1
10.637508 22.288495 20.172183 31.888094 1.125502 0.885900 0.057752 -0.026397 -708887.000000 0 0 1
10.467008 23.469195 19.186983 32.070262 1.151283 0.929444 0.044382 -0.025404 -266647.000000 0 0 1
9.219408 24.063095 18.978783 32.003503 1.204913 0.935989 0.048823 -0.026954 -472708.000000 0 0 1
8.503508 24.616695 20.038883 32.861043 1.238193 0.914980 0.045062 -0.026218 -624305.000000 0 0 1
7.188608 25.299895 19.695783 32.858555 1.293957 0.928031 0.047206 -0.023548 -463191.000000 0 0 1
7.368008 26.422395 18.819183 33.265480 1.298850 0.969482 0.048216 -0.025656 -519063.000000 0 0 1
6.187708 27.114495 18.545283 33.427699 1.346432 0.982688 0.046142 -0.028527 -445071.000000 0 0 1
6.379108 28.199095 17.497183 33.793984 1.348324 1.026565 0.057758 -0.023674 159582.000000 0 0 1
6.717908 27.555095 16.250683 32.687891 1.331662 1.050489 0.052565 -0.018971 -332552.000000 0 0 1
7.122608 28.464195 15.307183 33.094588 1.325601 1.089952 0.052391 -0.014022 146392.000000 0 0 1
7.587508 27.774995 14.046683 32.036384 1.304125 1.116912 0.051991 -0.008597 838676.000000 0 0 1
6.408108 27.630495 13.232183 31.298542 1.342904 1.134293 0.042242 -0.009725 844721.000000 0 0 1
6.582808 26.535795 12.329683 29.991713 1.327632 1.147133 0.030242 -0.016546 670369.000000 0 0 1
5.685508 26.658895 11.003683 29.395624 1.360676 1.187121 0.026049 -0.015363 347851.000000 0 0 1
6.130208 27.559295 10.029383 29.961353 1.351923 1.229463 0.028950 -0.014854 -16294.400000 0 0 1
6.268308 28.903895 10.399983 31.351020 1.357236 1.232663 0.030882 -0.010391 -91227.500000 0 0 1
6.867408 29.801895 9.282683 31.960639 1.344315 1.276109 0.031772 -0.005963 -179275.000000 0 0 1
6.078108 29.992295 8.122383 31.661558 1.370849 1.311358 0.024394 -0.005775 -121128.000000 0 0 1
6.068808 28.907695 7.237983 30.411735 1.363864 1.330490 0.015241 0.001898 -503466.000000 0 0 1
4.676208 28.438995 6.842983 29.622116 1.407825 1.337681 0.007883 0.004699 -581901.000000 0 0 1
4.042308 29.265695 5.906283 30.128148 1.433540 1.373480 0.003510 -0.000663 -603093.000000 0 0 1
2.679508 28.968695 5.774383 29.659881 1.478562 1.374858 0.033825 -0.013193 -263490.000000 0 0 1
1.844508 29.980395 4.989383 30.448649 1.509350 1.406192 0.047253 -0.021176 -848952.000000 0 0 1
2.097808 30.159195 3.608183 30.446622 1.501350 1.452009 0.038632 -0.018596 -40673.800000 0 0 1
1.136508 30.947695 2.908083 31.104797 1.534089 1.477167 0.046326 -0.027723 78153.900000 0 0 1
-0.088292 30.061295 2.601383 30.173770 -1.567859 1.484476 0.062777 -0.026704 -692222.000000 0 0 1
-0.041192 29.359595 1.374383 29.391775 -1.569393 1.524018 0.057366 -0.022103 -122207.000000 0 0 1
-1.048892 28.369895 1.401083 28.423830 -1.533841 1.521484 0.060639 -0.024419 383280.000000 0 0 1
-1.629492 27.955295 -0.003517 28.002745 -1.512573 1.570922 0.059735 -0.027766 424173.000000 0 0 1
-2.414292 28.962995 -0.696217 29.071783 -1.487631 1.594747 0.057351 -0.031546 398137.000000 0 0 1
-1.659992 29.717695 -1.606417 29.807340 -1.514996 1.624716 0.050221 -0.020419 -625392.000000 0 0 1
-2.577492 30.755895 -2.186517 30.941063 -1.487187 1.641522 0.041901 -0.017474 278296.000000 0 0 1
-3.762992 30.341995 -2.865117 30.708397 -1.447407 1.664233 0.011136 -0.010944 500847.000000 0 0 1
-3.503992 29.659595 -4.057417 30.140208 -1.453201 1.705824 0.008763 -0.011819 -585146.000000 0 0 1
-4.822092 29.233795 -4.718817 30.002242 -1.407319 1.728734 0.011527 -0.002041 -44491.600000 0 0 1
-5.402992 30.299495 -5.420317 31.251104 -1.394332 1.745122 0.006850 -0.003196 74483.300000 0 0 1
-6.349992 29.882195 -6.413817 31.215461 -1.361410 1.777739 0.003656 0.000134 189044.000000 0 0 1
-7.007292 31.002995 -7.216817 32.594022 -1.348511 1.794062 0.013986 0.003595 -579487.000000 0 0 1
-7.833692 31.812295 -6.430817 33.387785 -1.329353 1.764617 0.009923 0.002417 -212880.000000 0 0 1
-8.095292 32.947495 -7.236417 34.690588 -1.329866 1.780938 0.020056 -0.001924 -249935.000000 0 0 1
-9.231492 33.795195 -6.669817 35.662615 -1.304142 1.758930 0.021144 -0.005201 1579000.000000 0 0 1
-10.617992 33.334295 -6.819617 35.643009 -1.262427 1.763314 0.034455 -0.004709 1065450.000000 0 0 1
-11.479592 34.222095 -6.199217 36.624624 -1.247147 1.740879 0.041847 -0.014092 354991.000000 0 0 1
-12.972392 33.792995 -6.413117 36.761087 -1.204265 1.746148 0.067893 -0.013055 664658.000000 0 0 1
-13.495192 33.976995 -7.704317 37.361917 -1.192718 1.778494 0.077263 -0.016498 574314.000000 0 0 1
-14.881992 33.615895 -7.759517 37.572758 -1.154024 1.778813 0.097315 -0.019376 454043.000000 0 0 1
-15.509392 33.718695 -9.162617 38.228852 -1.139687 1.812831 0.099844 -0.026209 -75208.100000 0 0 1
-16.891792 33.558895 -9.282817 38.700164 -1.104474 1.813023 0.115441 -0.026337 -91894.300000 0 0 1
-17.738792 -34.046726 -9.013617 39.434624 1.090480 1.801406 0.132344 -0.025138 -516943.000000 0 0 1
-19.235592 34.331495 -9.109217 40.393531 -1.060087 1.798265 0.121670 -0.019822 -39563.300000 0 0 1
-19.856392 33.391595 -8.215617 39.708579 -1.034318 1.779199 0.088459 -0.015839 105910.000000 0 0 1
-19.773392 33.723395 -6.860817 39.690366 -1.040481 1.744527 0.071086 -0.015089 -791058.000000 0 0 1
-20.771692 33.050095 -5.916517 39.481351 -1.009690 1.721219 0.067287 -0.008063 -655364.000000 0 0 1
-20.638392 33.368495 -4.523217 39.495052 -1.016885 1.685574 0.082895 -0.021822 1487920.000000 0 0 1
-21.831292 32.966995 -3.775017 39.720005 -0.985881 1.665981 0.082094 -0.017976 1961820.000000 0 0 1
-23.124392 33.869995 -3.842017 41.190716 -0.971749 1.664206 0.056697 -0.011222 505475.000000 0 0 1
-23.751292 33.944495 -5.117417 41.743748 -0.960265 1.693697 0.032065 -0.018348 127422.000000 0 0 1
-24.445692 -33.516926 -5.110817 41.798285 0.940640 1.693376 0.026305 -0.014502 212693.000000 0 0 1
-25.025092 -33.226826 -6.552517 42.109532 0.925276 1.727038 0.057125 0.007972 322620.000000 0 0 1
-23.950692 -32.984826 -7.489017 41.445383 0.942759 1.752490 0.090563 0.009166 694887.000000 0 0 1
-24.235892 -33.309426 -8.860917 42.135640 0.941787 1.782673 0.032921 0.016049 115914.000000 0 0 1
-25.287492 -32.378826 -9.512717 42.170338 0.907756 1.798333 0.028806 0.024139 -257683.000000 0 0 1
-26.630652 -32.592026 -9.164717 43.074631 0.885721 1.785199 0.038485 0.024276 -128593.000000 0 0 1
-27.630232 -31.753226 -9.748217 43.205611 0.854717 1.798380 -0.024728 0.026364 631989.000000 0 0 1
-27.419702 -30.183126 -9.643217 41.902897 0.833335 1.803010 -0.023994 0.031548 -382302.000000 0 0 1
-26.438372 -29.558226 -10.470617 41.015973 0.841056 1.828935 -0.004372 0.036541 112921.000000 0 0 1
-26.817982 -29.405426 -11.830617 41.519233 0.831386 1.859743 0.003188 0.029409 -380779.000000 0 0 1
-25.730812 -28.703526 -12.651517 40.571270 0.839955 1.887919 0.034040 0.018713 149764.000000 0 0 1
-24.595892 -29.565826 -12.711817 40.505385 0.876903 1.890021 0.043427 0.012600 751457.000000 0 0 1
-23.489292 -28.935226 -13.400117 39.605016 0.888908 1.915953 0.051955 0.006166 1495670.000000 0 0 1
-22.176492 -29.784726 -13.598217 39.545394 0.930786 1.921825 0.069103 -0.013324 678601.000000 0 0 1
-22.306992 -30.897626 -14.471517 40.763832 0.945481 1.933720 0.067679 -0.015672 -195568.000000 0 0 1
-22.898292 -31.978426 -13.812217 41.686075 0.949377 1.908519 0.057356 -0.010294 -76026.000000 0 0 1
-23.047992 -33.241626 -14.670217 43.028257 0.964549 1.918717 0.044809 -0.012122 88149.900000 0 0 1
-23.469492 -34.335026 -13.858417 43.837960 0.971200 1.892442 0.044610 -0.017957 29652.700000 0 0 1
-23.414792 33.184395 -14.624817 43.166443 -0.956324 1.916438 0.040468 -0.023638 -124795.000000 0 0 1
-23.772892 31.936195 -13.767717 42.126250 -0.930897 1.903734 0.024974 -0.019831 361830.000000 0 0 1
-22.805392 31.479495 -12.807917 40.927829 -0.943847 1.889082 0.012794 -0.019584 424946.000000 0 0 1
-22.688392 32.398895 -11.682117 41.242252 -0.959881 1.857984 0.032400 -0.011285 29921.100000 0 0 1
-21.938992 31.850195 -10.448917 40.061629 -0.967614 1.834669 0.034494 -0.004516 151136.000000 0 0 1
-22.747492 30.965495 -9.653617 39.616948 -0.937219 1.816948 0.024576 -0.010856 416036.000000 0 0 1
-22.076992 30.417095 -8.496717 38.532939 -0.942958 1.793129 0.033005 -0.003089 -668252.000000 0 0 1
-22.867092 29.520095 -7.612417 38.108907 -0.911719 1.771903 0.026107 -0.016016 -680876.000000 0 0 1
-23.139792 28.283595 -8.346417 37.484322 -0.885095 1.795343 0.034415 -0.011412 202713.000000 0 0 1
-23.592292 27.169195 -7.541417 36.764580 -0.855747 1.777390 0.052503 -0.024344 -322139.000000 0 0 1
-22.620292 26.598595 -6.504817 35.517256 -0.866052 1.754981 0.053579 -0.019780 -309412.000000 0 0 1
-22.586592 27.324395 -5.300717 35.845143 -0.880040 1.719219 0.047946 -0.017224 750966.000000 0 0 1
-21.459992 26.886495 -4.512317 34.695473 -0.897172 1.701221 0.037427 -0.013596 855184.000000 0 0 1
-20.203792 27.808295 -4.566417 34.674870 -0.942481 1.702872 0.041753 -0.015427 92497.600000 0 0 1
-19.515592 27.612895 -5.747217 34.298116 -0.955550 1.739157 0.040135 -0.014191 -153557.000000 0 0 1
-18.212892 28.165395 -5.818717 34.041979 -0.996786 1.742567 0.028367 -0.010553 295813.000000 0 0 1
-17.382492 27.873895 -7.082317 33.604527 -1.013196 1.783143 0.036801 -0.011693 -74805.000000 0 0 1
-17.851192 28.390495 -8.359917 34.562602 -1.009488 1.815097 0.039460 -0.008737 132303.000000 0 0 1
-17.991592 29.798295 -8.447717 35.818985 -1.027603 1.808884 0.056646 -0.009818 -75521.200000 0 0 1
-17.973392 30.391295 -9.847517 36.655793 -1.036725 1.842786 0.057106 -0.012201 -334803.000000 0 0 1
-16.706192 30.410995 -10.443817 36.235325 -1.068455 1.863166 0.049970 -0.015352 -499093.000000 0 0 1
-16.720392 31.157795 -11.645817 37.229084 -1.078271 1.888952 0.056920 -0.019441 18165.100000 0 0 1
-15.341992 31.405395 -12.325817 37.062127 -1.116379 1.909826 0.062919 -0.024120 277234.000000 0 0 1
-15.336992 32.076795 -13.572517 38.057289 -1.124794 1.935459 0.069047 -0.023479 -139783.000000 0 0 1
-15.797792 31.275795 -14.686117 37.992467 -1.103067 1.967688 0.058543 -0.023661 -40360.100000 0 0 1
-15.439492 31.957695 -16.026917 38.942704 -1.120741 1.994952 0.106378 -0.035676 1143170.000000 0 0 1
-14.021592 31.782295 -16.238017 38.345697 -1.155304 2.008062 0.100532 -0.035700 773944.000000 0 0 1
-13.594292 32.350295 -17.482517 39.204397 -1.172980 2.033012 0.069402 -0.041993 848319.000000 0 0 1
-12.037892 32.263195 -17.692317 38.714889 -1.213679 2.045405 0.099014 -0.043379 590197.000000 0 0 1
-11.508792 30.965495 -17.668317 37.463096 -1.214953 2.061922 0.109889 -0.049125 614286.000000 0 0 1
-10.164992 30.775095 -18.143817 37.143392 -1.251779 2.081144 0.111899 -0.044029 979171.000000 0 0 1
-10.021392 30.940895 -19.682017 38.015116 -1.257570 2.115006 0.126763 -0.046219 -393574.000000 0 0 1
-10.750092 29.937795 -20.386417 37.781503 -1.226055 2.140743 0.105181 -0.045536 241396.000000 0 0 1
-10.289992 29.753995 -21.725117 38.251337 -1.237836 2.174818 0.111860 -0.046243 -713311.000000 0 0 1
-11.485192 29.352595 -22.621217 38.796957 -1.197827 2.193295 0.107128 -0.041804 445095.000000 0 0 1
-12.371892 30.452595 -22.858217 40.036512 -1.184899 2.178440 0.112465 -0.045334 92694.900000 0 0 1
-13.329392 30.637195 -21.843717 39.918145 -1.160425 2.149827 0.111185 -0.042940 -973342.000000 0 0 1
-14.191092 31.900495 -22.009717 41.272948 -1.152229 2.133260 0.125309 -0.047742 435418.000000 0 0 1
-15.323092 31.777495 -22.873617 42.045317 -1.121490 2.146021 0.101941 -0.045101 299935.000000 0 0 1
-15.882892 33.071595 -23.108017 43.358702 -1.123067 2.132879 0.080878 -0.033983 276937.000000 0 0 1
-16.147392 33.308795 -24.593117 44.441371 -1.119400 2.157217 0.059158 -0.024373 381727.000000 0 0 1
-14.894592 33.404595 -25.268717 44.454739 -1.151370 2.175374 0.081460 -0.029809 390022.000000 0 0 1
-15.018892 33.198395 -26.665117 45.152286 -1.145950 2.202548 0.083672 -0.018895 36704.800000 0 0 1
-15.445692 -34.243126 -27.395617 46.493880 1.147062 2.200903 0.064956 -0.009950 345521.000000 0 0 1
-16.750892 -33.779426 -27.084017 46.423980 1.110442 2.193712 0.052948 -0.002370 52042.200000 0 0 1
-17.064592 -32.607426 -27.824117 46.137035 1.088656 2.218147 0.045123 0.001583 511900.000000 0 0 1
-18.497392 -32.055626 -27.481617 46.097244 1.047430 2.209514 0.044749 -0.003210 423698.000000 0 0 1
-19.444092 -32.974126 -27.955917 47.401466 1.038002 2.201569 0.027425 -0.001916 -168165.000000 0 0 1
-20.735192 -32.595226 -27.441317 47.385892 1.004225 2.188424 0.033368 -0.007610 473813.000000 0 0 1
-21.873892 -33.527426 -27.778017 48.725493 0.992723 2.177414 0.017568 -0.000118 -357313.000000 0 0 1
-21.753092 33.941195 -27.174017 48.617166 -1.000841 2.163902 0.034352 -0.002382 263437.000000 0 0 1
-23.047792 33.341995 -27.058417 48.734456 -0.965964 2.159426 0.016731 0.005651 637449.000000 0 0 1
-23.078092 31.793195 -27.093317 47.722671 -0.942911 2.174535 0.023319 0.008907 235967.000000 0 0 1
-22.535792 31.167695 -25.928817 46.385242 -0.944768 2.163962 0.025127 0.001021 -143348.000000 0 0 1
-22.895492 29.807695 -25.955117 45.676802 -0.915807 2.175155 0.017528 -0.000759 74739.400000 0 0 1
30.367085 9.840695 -26.816611 41.690883 0.313380 2.269499 0.032072 -0.000447 127254.000000 0 0 1
30.269205 8.473095 -26.428071 41.066544 0.272939 2.269914 0.016369 0.003098 -124046.000000 0 0 1
28.916025 8.104195 -26.424281 40.000713 0.273256 2.292408 0.023835 -0.003794 -197201.000000 0 0 1
28.732555 6.638795 -26.062261 39.355746 0.227070 2.294577 0.012349 -0.004740 -16832.000000 0 0 1
29.176015 6.294595 -24.777121 38.791333 0.212489 2.263641 0.011028 0.003243 314398.000000 0 0 1
28.682005 4.999495 -24.444521 38.015615 0.172574 2.269222 0.019192 -0.000646 51915.400000 0 0 1
28.854905 4.767895 -22.912521 37.152684 0.163757 2.235356 0.014068 0.002087 -356783.000000 0 0 1
30.123175 4.321995 -22.522521 37.859599 0.142505 2.207932 0.012991 0.004045 -224484.000000 0 0 1
30.243535 4.494795 -21.113121 37.156944 0.147540 2.175131 0.001280 0.004951 41470.800000 0 0 1
31.612885 4.117495 -20.486021 37.894661 0.129518 2.141952 0.005631 -0.000754 33964.300000 0 0 1
32.053165 2.781095 -20.464221 38.130358 0.086548 2.137307 0.026587 -0.005688 416381.000000 0 0 1
33.091045 2.530795 -19.515921 38.500563 0.076331 2.102381 0.040227 -0.015025 198474.000000 0 0 1
33.464515 1.041095 -19.517021 38.753990 0.031100 2.098572 0.060176 -0.013291 365803.000000 0 0 1
32.341955 0.344995 -18.971421 37.497145 0.010667 2.101271 0.065196 -0.018008 444595.000000 0 0 1
32.509415 -1.055705 -19.076521 37.707960 -0.032462 2.101223 0.066109 -0.016508 40774.700000 0 0 1
31.414705 -1.913105 -18.392221 36.452948 -0.060823 2.099653 0.059004 -0.016392 209459.000000 0 0 1
31.453785 -1.991605 -16.964021 35.792249 -0.063234 2.064577 0.068245 -0.016236 406184.000000 0 0 1
30.099355 -1.775105 -16.572721 34.406064 -0.058907 2.073367 0.056694 -0.019192 397788.000000 0 0 1
29.731635 -2.118805 -15.101621 33.414344 -0.071144 2.039747 0.060411 -0.021246 -233111.000000 0 0 1
29.461155 -3.477405 -14.925321 33.208692 -0.117490 2.036935 0.048762 -0.017710 379778.000000 0 0 1
28.710935 -3.716405 -13.744521 32.047485 -0.128726 2.014049 0.042971 -0.019219 -152413.000000 0 0 1
28.527515 -5.221505 -13.553021 32.011992 -0.181030 2.007962 0.046981 -0.016289 -434706.000000 0 0 1
27.869695 -5.971605 -14.491521 31.974742 -0.211077 2.041168 0.029924 -0.012056 96727.300000 0 0 1
27.895145 -7.331605 -14.111921 32.109778 -0.257014 2.025827 0.031144 -0.016545 -346060.000000 0 0 1
27.324465 -8.283705 -15.141621 32.318955 -0.294354 2.058395 0.022445 -0.011098 848214.000000 0 0 1
25.935015 -7.984205 -15.380721 31.191972 -0.298647 2.086444 0.042088 -0.015158 880994.000000 0 0 1
25.233015 -8.833305 -16.217121 31.268632 -0.336737 2.116054 0.036886 -0.013424 -136597.000000 0 0 1
23.831715 -8.365105 -16.645521 30.248950 -0.337572 2.153501 0.048907 -0.016885 -353534.000000 0 0 1
23.745415 -7.219905 -17.431421 30.328637 -0.295173 2.183096 0.049191 -0.019194 768379.000000 0 0 1
22.482515 -7.157105 -18.135721 29.758898 -0.308197 2.226127 0.074196 -0.024549 934348.000000 0 0 1
22.466315 -7.869605 -19.525121 30.787925 -0.336928 2.257745 0.058995 -0.018343 -565353.000000 0 0 1
23.228415 -7.245105 -20.456621 31.788742 -0.302345 2.269882 0.054036 -0.016207 -216935.000000 0 0 1
22.836215 -7.670205 -21.698721 32.421586 -0.324040 2.304019 0.068201 -0.026768 -113537.000000 0 0 1
23.113415 -6.464405 -22.631721 32.988078 -0.272714 2.326853 0.059941 -0.028118 25275.900000 0 0 1
22.918315 -6.828505 -23.951821 33.846231 -0.289575 2.356985 0.065980 -0.033236 -47909.400000 0 0 1
23.373315 -5.750405 -24.734821 34.513626 -0.241233 2.369810 0.053646 -0.027084 -124872.000000 0 0 1
23.274515 -6.049905 -26.228601 35.584321 -0.254309 2.399540 0.058012 -0.028970 181771.000000 0 0 1
21.952215 -6.261405 -26.696731 35.125779 -0.277851 2.434159 0.057728 -0.028096 -67427.100000 0 0 1
21.835015 -6.425805 -28.074831 36.142149 -0.286209 2.460348 0.051858 -0.029556 115977.000000 0 0 1
20.472415 -7.023805 -28.482701 35.773144 -0.330502 2.491790 0.054972 -0.029353 45437.800000 0 0 1
20.304915 -8.390005 -28.111781 35.678481 -0.391834 2.478220 0.067906 -0.028283 -191435.000000 0 0 1
19.438515 -9.075105 -28.954191 36.035518 -0.436788 2.503932 0.051820 -0.029588 -464228.000000 0 0 1
19.363315 -10.566605 -28.806681 36.282447 -0.499538 2.488085 0.072079 -0.028463 177219.000000 0 0 1
18.531215 -10.961905 -27.680811 35.068456 -0.534174 2.480524 0.074408 -0.023645 507811.000000 0 0 1
18.617615 -12.309905 -27.184721 35.173262 -0.584206 2.454164 0.080029 -0.025849 -260509.000000 0 0 1
18.528415 -13.552005 -28.192311 36.356092 -0.631502 2.458223 0.066753 -0.012106 780071.000000 0 0 1
17.338315 -13.579705 -29.025901 36.435264 -0.664425 2.492517 0.060602 -0.010935 1113630.000000 0 0 1
17.438615 -14.637105 -29.987121 37.650731 -0.698279 2.492207 0.043266 -0.013046 -922299.000000 0 0 1
16.247815 -14.807905 -30.899261 37.921364 -0.739066 2.523223 0.031461 -0.017832 -1654570.000000 0 0 1
15.220715 -15.442805 -30.263631 37.229528 -0.792641 2.519899 0.022413 -0.020519 -1021850.000000 0 0 1
14.310215 -15.946305 -31.204391 37.852092 -0.839420 2.539897 0.022815 -0.024931 324803.000000 0 0 1
13.080515 -16.624605 -30.489091 37.108786 -0.904146 2.535033 0.035589 -0.027784 504832.000000 0 0 1
13.460215 -17.960305 -30.115831 37.559462 -0.927652 2.501127 0.041321 -0.027202 577097.000000 0 0 1
12.471215 -18.596505 -29.296921 36.873714 -0.980061 2.489014 0.042653 -0.025672 -145004.000000 0 0 1
12.901315 -19.934605 -28.636091 37.200243 -0.996405 2.449296 0.057380 -0.026837 -129499.000000 0 0 1
13.950315 -19.737505 -27.707801 36.768228 -0.955526 2.424288 0.051643 -0.023677 4848.270000 0 0 1
13.854415 -20.730005 -26.677901 36.515590 -0.981645 2.389981 0.055481 -0.021168 257742.000000 0 0 1
14.927715 -20.556305 -25.561331 36.038590 -0.942711 2.359268 0.050751 -0.013769 586425.000000 0 0 1
16.269915 -20.870205 -25.921841 37.043453 -0.908634 2.345870 0.052956 -0.005303 954574.000000 0 0 1
17.097215 -20.940205 -24.732621 36.640271 -0.886088 2.311777 0.047830 0.007707 -562503.000000 0 0 1
18.565915 -21.235305 -24.932321 37.646408 -0.852366 2.294649 0.036474 0.011478 -832975.000000 0 0 1
19.038215 -22.561705 -25.104391 38.751963 -0.869896 2.275519 0.036709 0.010384 246061.000000 0 0 1
18.794415 -23.480805 -24.053721 38.511813 -0.895802 2.245390 0.030963 0.001716 -744488.000000 0 0 1
19.423315 -24.859605 -24.143821 39.726430 -0.907550 2.224023 0.027406 0.002234 -590848.000000 0 0 1
20.786915 -24.850905 -23.816021 40.210274 -0.874213 2.204691 0.038618 0.003457 -289605.000000 0 0 1
21.243815 -26.116825 -23.347121 40.969211 -0.887929 2.177144 0.040584 -0.008064 -77649.800000 0 0 1
21.020315 -26.527765 -21.887621 40.306872 -0.900713 2.144831 0.042272 -0.005489 140587.000000 0 0 1
19.670515 -26.830605 -21.480521 39.600799 -0.938175 2.144119 0.034151 -0.002719 855389.000000 0 0 1
19.605215 -26.938605 -20.064821 38.892801 -0.941672 2.112855 0.042687 -0.006318 468778.000000 0 0 1
18.259615 -27.554395 -19.562421 38.410240 -0.985562 2.105170 0.037833 -0.008619 -562627.000000 0 0 1
18.116515 -28.894255 -20.118821 39.596124 -1.010765 2.103775 0.044862 -0.010861 291691.000000 0 0 1
17.117615 -29.726165 -19.503121 39.459211 -1.048328 2.087780 0.047039 0.006310 111513.000000 0 0 1
15.687515 -29.221655 -19.712021 38.581952 -1.078109 2.107043 0.047752 -0.001345 -1218200.000000 0 0 1
15.226615 -28.193245 -18.848121 37.174730 -1.075601 2.102514 0.053547 -0.002867 191989.000000 0 0 1
14.138315 -27.504395 -19.479721 36.549189 -1.095981 2.132906 0.047598 0.006667 712826.000000 0 0 1
13.220815 -26.603555 -18.562221 35.029918 -1.109586 2.129274 0.032266 0.004621 764956.000000 0 0 1
12.013615 -27.287565 -18.210121 34.936323 -1.156072 2.119097 0.019870 0.007259 356421.000000 0 0 1
11.203115 -26.404615 -17.442921 33.570359 -1.169530 2.117171 0.022996 0.007200 227643.000000 0 0 1
9.669315 -26.572845 -17.518421 33.264197 -1.221811 2.125445 0.029703 0.005281 -534164.000000 0 0 1
9.060215 -27.591305 -16.713821 33.507006 -1.253518 2.093028 0.038989 0.014463 537464.000000 0 0 1
7.644415 -27.434335 -16.825121 33.078158 -1.299045 2.104409 0.037776 0.020134 784428.000000 0 0 1
6.917715 -27.980135 -18.077721 34.022739 -1.328420 2.130981 0.049391 0.013558 -570537.000000 0 0 1
7.094115 -27.170845 -19.209721 34.023443 -1.315405 2.170748 0.066839 0.006925 -75414.200000 0 0 1
6.477215 -27.798085 -20.322921 35.038678 -1.341872 2.189542 0.078010 0.007881 -31391.100000 0 0 1
6.571715 -26.934905 -21.628921 35.163714 -1.331487 2.233299 0.065859 0.002147 -652567.000000 0 0 1
5.584115 -25.982415 -21.799821 34.372961 -1.359098 2.257788 0.072494 -0.003629 -237818.000000 0 0 1
5.800215 -25.230115 -22.970421 34.609846 -1.344830 2.296546 0.062866 -0.009635 -109529.000000 0 0 1
4.435415 -24.617705 -23.317221 34.196449 -1.392537 2.321100 0.045522 -0.005504 1041500.000000 0 0 1
3.409415 -25.548625 -23.778721 35.068275 -1.438132 2.315929 0.035078 0.007417 838615.000000 0 0 1
2.307115 -24.987005 -24.455321 35.039063 -1.478725 2.343320 0.037381 -0.002809 44676.400000 0 0 1
1.367315 -26.043325 -25.017121 36.138355 -1.518343 2.335412 0.017427 -0.009354 -147105.000000 0 0 1
1.996615 -26.855265 -26.009311 37.438963 -1.496586 2.338816 0.011787 -0.001772 -983.309000 0 0 1
1.086715 -27.742165 -26.599051 38.448904 -1.531644 2.334779 0.011481 -0.013166 -191938.000000 0 0 1
1.773215 -28.649705 -27.622281 39.836419 -1.508982 2.336983 0.006296 -0.009037 -457533.000000 0 0 1
2.271715 -27.907515 -28.729821 40.117237 -1.489574 2.369062 0.006795 -0.011718 295577.000000 0 0 1
2.860415 -28.733615 -29.741201 41.452885 -1.471574 2.370960 0.021316 -0.016239 516774.000000 0 0 1
4.265615 -29.383735 -29.544971 41.886808 -1.426634 2.353717 0.020331 -0.017295 -94912.800000 0 0 1
4.386715 -30.384545 -28.535961 41.913780 -1.427414 2.319685 0.013169 -0.018599 -161761.000000 0 0 1
5.546715 -31.159765 -28.759991 42.764870 -1.394633 2.308397 0.037977 -0.019480 148005.000000 0 0 1
5.909915 -32.052415 -27.513241 42.652817 -1.388461 2.271886 0.058267 -0.031591 -429486.000000 0 0 1
5.009515 -33.094805 -27.305881 43.196904 -1.420568 2.255090 0.052213 -0.040824 -211266.000000 0 0 1
5.561315 -34.282247 -26.832061 43.888041 -1.409976 2.228594 0.065866 -0.040500 -129842.000000 0 0 1
4.374515 33.460086 -26.665681 43.008979 1.440795 2.239542 0.068815 -0.038612 9300.840000 0 0 1
3.774115 33.082511 -27.866151 43.419107 1.457206 2.267633 0.052509 -0.041681 -266297.000000 0 0 1
2.432215 32.749272 -27.621221 42.911098 1.496665 2.270100 0.019391 -0.039966 83018.800000 0 0 1
1.501815 33.036441 -28.871951 43.900472 1.525368 2.288516 0.015131 -0.029825 58962.300000 0 0 1
1.262315 31.914355 -29.660111 43.587173 1.531264 2.319211 0.027683 -0.029270 -68703.800000 0 0 1
0.446415 32.388115 -30.694581 44.624506 1.557014 2.329307 0.026421 -0.027356 -87199.600000 0 0 1
0.153515 31.296055 -31.749911 44.581649 1.565891 2.363387 0.030831 -0.027424 -87413.200000 0 0 1
1.288115 30.942695 -32.500221 44.892917 1.529191 2.380307 0.035780 -0.025598 -22305.800000 0 0 1
0.948315 29.934425 -33.445861 44.895375 1.539127 2.411291 0.048363 -0.025194 90964.800000 0 0 1
2.209115 29.351195 -34.165155 45.095794 1.495673 2.430444 0.041633 -0.016527 399755.000000 0 0 1
2.828815 30.450985 33.771504 45.560720 1.478165 0.735878 0.052195 -0.023920 -278596.000000 0 0 1
3.790115 29.978365 32.840856 44.627225 1.445035 0.743812 0.027214 -0.020581 -413525.000000 0 0 1
3.343915 29.125595 31.590353 43.097941 1.456487 0.748089 0.030103 -0.007908 -166287.000000 0 0 1
3.007715 27.764065 31.830553 42.344702 1.462886 0.720159 0.026406 -0.008412 -720170.000000 0 0 1
4.068915 26.945715 31.525823 41.671395 1.420924 0.712800 0.028437 -0.009468 -795476.000000 0 0 1
3.973815 25.484835 31.910053 41.030715 1.416113 0.679779 0.045966 -0.012676 -294431.000000 0 0 1
3.052415 24.770425 31.109133 39.883197 1.448186 0.676121 0.042044 -0.000638 259874.000000 0 0 1
3.371515 23.414415 31.068193 39.049131 1.427786 0.650769 0.038009 0.006537 -239895.000000 0 0 1
2.342515 22.748115 30.083863 37.788926 1.468182 0.649969 0.033171 0.013342 644429.000000 0 0 1
1.023015 22.575915 30.561223 38.009300 1.525513 0.636727 0.037421 0.007678 -292774.000000 0 0 1
0.276115 21.892315 29.600173 36.817387 1.558185 0.636850 0.043456 0.008654 -597118.000000 0 0 1
-1.035385 21.409715 30.210063 37.041812 -1.522473 0.617089 0.034284 0.008573 -829864.000000 0 0 1
-2.012885 22.402015 30.380163 37.800216 -1.481184 0.637303 0.040631 0.001090 -20324.500000 0 0 1
-3.259485 21.711715 30.339533 37.450102 -1.421784 0.626419 0.021251 -0.005556 -132959.000000 0 0 1
-4.502085 22.596715 30.391013 38.137829 -1.374135 0.648695 -0.000767 -0.013372 -491116.000000 0 0 1
-4.808685 23.253915 31.601033 39.528386 -1.366880 0.644414 -0.002791 -0.010241 -160261.000000 0 0 1
-4.123085 24.454865 31.803063 40.329581 -1.403767 0.662301 0.022022 -0.010522 -329731.000000 0 0 1
-4.260785 25.017805 33.241366 41.821446 -1.402105 0.652052 0.016227 -0.008044 -39282.700000 0 0 1
-5.519085 25.537705 33.610614 42.571212 -1.357955 0.660778 0.016566 -0.006368 -34225.800000 0 0 1
-5.551485 25.930725 -33.632921 42.829836 -1.359891 2.473926 0.025412 -0.007658 -91842.400000 0 0 1
-6.982285 26.389865 -33.255231 43.024268 -1.312141 2.454260 0.023569 0.001420 -57161.800000 0 0 1
-7.310085 27.697615 -33.685761 44.219065 -1.312756 2.436872 0.048492 -0.002117 968686.000000 0 0 1
-8.598785 28.129475 -33.178041 44.339473 -1.274131 2.416252 0.063977 -0.007079 1013230.000000 0 0 1
-8.677885 28.493555 -31.673751 43.478901 -1.275165 2.386905 0.079240 -0.017690 -382808.000000 0 0 1
-8.229585 29.760225 -31.315411 43.977858 -1.301009 2.363242 0.073228 -0.015559 -58547.400000 0 0 1
-8.341585 29.975165 -29.914601 43.162204 -1.299380 2.336541 0.078120 -0.020311 -148356.000000 0 0 1
-7.968585 31.414015 -29.498031 43.823196 -1.322373 2.309209 0.060170 -0.018183 -301409.000000 0 0 1
-6.587285 31.629955 -29.400531 43.683379 -1.365470 2.309104 0.022688 -0.016192 -507367.000000 0 0 1
-6.180585 32.945810 -29.341001 44.547956 -1.385353 2.289804 0.024172 -0.010674 -155963.000000 0 0 1
-4.654085 33.158685 -29.272561 44.475181 -1.431349 2.289192 0.020401 -0.012616 -117870.000000 0 0 1
-4.280385 -34.228475 -28.922381 45.015712 1.446389 2.268546 0.022258 -0.014849 -206940.000000 0 0 1
-4.128385 -33.266415 -29.951411 44.953142 1.447327 2.300006 0.026508 -0.014788 164202.000000 0 0 1
-3.026985 -33.341715 -31.067721 45.673142 1.480258 2.318857 0.032836 -0.026785 21984.800000 0 0 1
-3.147985 34.271014 -32.029271 47.013683 -1.479198 2.320300 0.029947 -0.015759 405971.000000 0 0 1
-4.063685 -34.206686 -33.119271 47.785950 1.452553 2.336543 0.048950 -0.022269 568853.000000 0 0 1
-3.531985 -33.192035 -34.234168 47.813851 1.464785 2.368835 0.043078 -0.030026 46549.000000 0 0 1
-3.718185 -31.829445 -33.799291 46.576073 1.454507 2.382817 0.025630 -0.020628 -375701.000000 0 0 1
-2.857485 -30.964975 34.191302 46.217314 1.478776 0.738032 0.017690 -0.030468 -319473.000000 0 0 1
32.039975 19.399695 12.368483 39.444740 0.544442 1.251851 0.055824 -0.004350 -227166.000000 0 0 1
33.107405 18.782395 13.017083 40.228386 0.516041 1.241286 0.034340 -0.003160 -237520.000000 0 0 1
32.791655 17.370295 13.076583 39.344845 0.487138 1.231993 0.047039 -0.006762 378780.000000 0 0 1
33.898825 16.376795 13.596883 40.027553 0.450043 1.224211 0.050885 -0.019066 357864.000000 0 0 1
35.088785 16.216295 12.867183 40.740096 0.432912 1.249459 0.036761 -0.009856 -603176.000000 0 0 1
35.915853 15.339195 13.486783 41.317463 0.403637 1.238284 0.033975 -0.013364 -1164490.000000 0 0 1
-34.759398 14.982895 12.637783 39.905093 -0.406980 1.248552 0.036582 -0.017715 -540071.000000 0 0 1
-34.061120 13.829895 13.091083 39.023100 -0.385695 1.228692 0.040823 -0.016345 -222973.000000 0 0 1
-34.740133 12.575795 13.191583 39.230668 -0.347322 1.227857 0.049503 -0.018193 -211796.000000 0 0 1
-34.071030 11.589595 14.206283 38.690726 -0.327882 1.194826 0.050951 -0.024621 21395.300000 0 0 1
-34.224238 12.153695 15.482483 39.480603 -0.341228 1.167824 0.054634 -0.025737 237417.000000 0 0 1
-33.737392 11.352495 16.539383 39.251012 -0.324594 1.135836 0.058582 -0.029454 -295470.000000 0 0 1
-33.537912 12.050595 17.859383 39.861836 -0.344947 1.106233 0.070308 -0.021917 -38265.400000 0 0 1
-34.690635 12.337495 18.629083 41.263745 -0.341693 1.102391 0.078398 -0.018985 129081.000000 0 0 1
-34.379256 13.205295 19.749783 41.789556 -0.366730 1.078557 0.078641 -0.026588 602584.000000 0 0 1
-35.670840 13.755795 20.466683 43.364915 -0.368059 1.079279 0.085661 -0.026763 884607.000000 0 0 1
35.484445 12.752495 21.172783 43.244176 0.345009 1.059154 0.077549 -0.005115 -118234.000000 0 0 1
34.609485 13.274995 22.118683 43.165705 0.366259 1.032804 0.077183 -0.010149 -284858.000000 0 0 1
34.055515 12.129995 22.985083 42.839572 0.342172 1.004466 0.065306 -0.003229 -831025.000000 0 0 1
35.011275 11.472495 23.722093 43.819462 0.316654 0.998743 0.061193 0.000097 -571080.000000 0 0 1
34.864315 11.818095 25.054343 44.529855 0.326818 0.973219 0.053234 -0.000960 -252086.000000 0 0 1
-35.699994 11.678995 25.901233 45.626334 -0.316169 0.967109 0.047123 -0.003475 1416860.000000 0 0 1
-34.711427 12.685495 25.579963 44.945962 -0.350377 0.965352 0.063411 -0.011193 561002.000000 0 0 1
-33.956962 12.468395 24.371863 43.617930 -0.351899 0.977909 0.064827 -0.008273 -472111.000000 0 0 1
-33.009862 13.682495 24.045553 43.070295 -0.392941 0.978478 0.066867 -0.008938 418218.000000 0 0 1
-32.011922 13.806595 25.047283 42.927283 -0.407191 0.947787 0.046628 -0.017149 70377.900000 0 0 1
-32.472482 14.482295 26.236993 44.187993 -0.419511 0.935075 0.037389 -0.018778 -526226.000000 0 0 1
-31.376362 14.740495 27.307853 44.130229 -0.439194 0.903580 0.023118 -0.012667 -120330.000000 0 0 1
-30.713952 15.960595 27.063893 43.937931 -0.479246 0.907196 0.029822 -0.022227 -137074.000000 0 0 1
-30.327432 16.586295 28.287943 44.666162 -0.500466 0.884961 0.031974 -0.019307 -184367.000000 0 0 1
-29.639662 17.937295 28.202593 44.672613 -0.544219 0.887546 0.034907 -0.025089 -475791.000000 0 0 1
-30.409872 18.896995 27.574683 45.190927 -0.556013 0.914506 0.018954 -0.024480 -72096.000000 0 0 1
-29.640652 20.002795 27.220073 44.940098 -0.593642 0.920155 0.024912 -0.023253 -164002.000000 0 0 1
-30.465402 20.828095 26.216673 45.268799 -0.599678 0.953131 0.022666 -0.019199 659601.000000 0 0 1
-31.508442 21.601495 26.861193 46.700430 -0.600981 0.957971 0.019202 -0.024767 830353.000000 0 0 1
-32.348842 22.252695 25.956453 47.067690 -0.602557 0.986670 0.025359 -0.020987 -512570.000000 0 0 1
-32.567942 23.703795 26.397013 48.159558 -0.629158 0.990687 0.024472 -0.018266 -635712.000000 0 0 1
-33.441802 24.247695 25.446503 48.516279 -0.627355 1.018675 0.033308 -0.021525 -126346.000000 0 0 1
-33.505452 25.661595 25.555313 49.337681 -0.653595 1.026323 0.030890 -0.018704 39198.400000 0 0 1
-34.636338 26.241595 24.690033 49.978945 -0.648368 1.054102 0.040862 -0.012086 -113213.000000 0 0 1
-34.372083 26.231395 23.263683 49.099136 -0.651870 1.077184 0.051535 -0.016272 -69135.400000 0 0 1
-35.362462 26.810995 22.413683 49.716258 -0.648714 1.103099 0.065766 -0.023026 -39846.500000 0 0 1
-35.051807 26.923095 20.918383 48.898476 -0.654981 1.128748 0.076247 -0.030864 -215141.000000 0 0 1
-35.060458 25.598395 20.390283 47.961205 -0.630657 1.131678 0.057981 -0.028742 172171.000000 0 0 1
-34.715745 25.606495 18.973783 47.126213 -0.635521 1.156423 0.057984 -0.034913 -39671.800000 0 0 1
-34.709545 24.225095 18.338383 46.129210 -0.609340 1.161958 0.046792 -0.021254 396883.000000 0 0 1
-35.902586 23.817295 17.681483 46.571387 -0.585728 1.181363 0.038357 -0.021475 101619.000000 0 0 1
-35.656438 22.588395 16.993183 45.501488 -0.564689 1.188056 0.029141 -0.016541 323525.000000 0 0 1
35.122175 22.119695 16.004283 44.485786 0.562038 1.202784 0.024089 -0.005151 574560.000000 0 0 1
34.122825 21.298595 16.603183 43.516239 0.558005 1.179335 0.032082 -0.015326 458966.000000 0 0 1
33.038035 20.984495 15.738983 42.185025 0.565873 1.188455 0.029800 -0.007005 255535.000000 0 0 1
31.867175 20.114995 16.347883 41.077770 0.563055 1.161489 0.041217 -0.001690 526343.000000 0 0 1
30.951405 20.717395 17.201683 41.025575 0.589860 1.138131 0.026895 -0.001648 196041.000000 0 0 1
30.081285 21.682495 16.571483 40.615617 0.624548 1.150526 0.026478 -0.003332 -238881.000000 0 0 1
29.122725 22.259995 17.616983 40.669381 0.652623 1.122783 0.023781 -0.001933 48774.200000 0 0 1
29.810115 23.218095 18.444583 42.046707 0.661721 1.116679 -0.007393 0.010532 -112672.000000 0 0 1
28.949455 24.003595 19.221683 42.234069 0.692267 1.098286 -0.002311 0.012592 -142088.000000 0 0 1
29.611705 24.914295 20.310083 43.704401 0.699460 1.087484 -0.013088 -0.000377 -454067.000000 0 0 1
30.528905 25.844395 19.913583 44.682184 0.702491 1.108872 -0.013540 0.001250 -349825.000000 0 0 1
31.272315 26.324095 21.049183 45.978079 0.699697 1.095267 -0.009114 0.001628 419229.000000 0 0 1
32.576125 27.105795 20.667683 47.149562 0.693995 1.117042 0.011330 -0.006768 553955.000000 0 0 1
33.294665 27.720695 21.735783 48.470774 0.694297 1.105787 0.021814 -0.009526 444764.000000 0 0 1
32.560725 28.753895 22.354583 48.854014 0.723391 1.095526 0.004002 -0.001885 -305434.000000 0 0 1
33.194075 29.128095 23.723713 50.130900 0.720249 1.077837 0.000977 -0.003857 965706.000000 0 0 1
34.446875 29.806295 23.502783 51.258006 0.713300 1.094468 0.042763 -0.010110 1075060.000000 0 0 1
35.187865 30.008795 24.755143 52.455035 0.706127 1.079317 0.040856 -0.010264 786038.000000 0 0 1
-35.373162 30.795095 24.668773 52.991950 -0.716320 1.086575 0.060489 -0.013226 161184.000000 0 0 1
-34.243913 30.106795 24.192473 51.617249 -0.721196 1.082989 0.068770 -0.017008 -737343.000000 0 0 1
-33.171192 30.980495 24.230373 51.451239 -0.751263 1.080442 0.076743 -0.014845 -644457.000000 0 0 1
-31.787502 30.457895 23.825133 50.057623 -0.764041 1.074748 0.083910 -0.023413 -267986.000000 0 0 1
-31.563152 30.116195 22.495583 49.084305 -0.761943 1.094709 0.070667 -0.021010 142550.000000 0 0 1
-31.968992 28.809095 21.977383 48.321690 -0.733454 1.098633 0.076046 -0.020604 -263320.000000 0 0 1
-31.350802 27.588695 22.722683 47.542919 -0.721655 1.072488 0.057127 -0.019056 -897582.000000 0 0 1
-29.950262 27.646695 22.630483 46.620775 -0.745425 1.063957 0.032676 -0.017586 -536563.000000 0 0 1
-29.362332 26.600795 23.366183 45.997036 -0.736092 1.037943 0.030831 -0.016130 -79098.200000 0 0 1
-29.043202 27.069995 24.777143 46.799562 -0.750248 1.012867 0.039864 -0.014595 -200376.000000 0 0 1
-30.212272 27.319695 25.570923 48.093858 -0.735163 1.010204 0.035818 -0.010787 315956.000000 0 0 1
-29.832212 27.859095 26.808113 48.834055 -0.751210 0.989673 0.049548 -0.016653 -331069.000000 0 0 1
-30.982002 28.309695 27.744743 50.309979 -0.740358 0.986664 0.037443 -0.020534 -473942.000000 0 0 1
-31.686712 27.217095 28.212253 50.405845 -0.709663 0.976770 0.021165 -0.010806 -363146.000000 0 0 1
-32.313892 27.521495 29.416193 51.642354 -0.705476 0.964761 0.017883 0.001027 -219204.000000 0 0 1
-33.153772 26.367995 29.992833 51.903890 -0.671883 0.954700 0.006124 -0.006128 -462543.000000 0 0 1
-32.479942 25.518795 30.891023 51.579171 -0.665947 0.928663 0.011226 -0.011940 -168158.000000 0 0 1
-33.201022 24.384695 31.297213 51.734290 -0.633479 0.921080 0.003569 -0.014684 -880239.000000 0 0 1
-32.384372 23.467695 32.144213 51.310142 -0.627086 0.893782 0.023476 -0.020842 -886857.000000 0 0 1
-31.206522 22.939695 31.571983 49.968658 -0.633892 0.886877 0.019376 -0.013168 -21345.600000 0 0 1
-30.617762 21.938295 32.376363 49.668552 -0.621729 0.860777 0.031971 -0.020948 412348.000000 0 0 1
-29.689942 22.462295 33.528594 50.102035 -0.647688 0.837656 0.037170 -0.024524 -482607.000000 0 0 1
-30.442662 23.061595 -34.062201 51.174469 -0.648311 2.299106 0.055274 -0.026927 291077.000000 0 0 1
-29.992762 22.689395 -32.761411 49.876692 -0.647645 2.287427 0.042681 -0.020416 74305.400000 0 0 1
-28.586602 23.181095 -32.310371 48.974657 -0.681357 2.291264 0.054993 -0.022374 -46783.600000 0 0 1
-28.417622 24.569895 -32.097611 49.411512 -0.712910 2.277852 0.043137 -0.021042 413640.000000 0 0 1
-27.419522 24.847495 -31.119141 48.349034 -0.736228 2.270035 0.060896 -0.010062 -229514.000000 0 0 1
-27.878982 25.956495 -30.123261 48.563238 -0.749703 2.239908 0.022835 -0.007555 -159641.000000 0 0 1
-27.935342 27.279895 -30.582241 49.596869 -0.773528 2.235234 0.022506 -0.014942 191606.000000 0 0 1
-28.836902 27.583795 -31.612791 50.909735 -0.763192 2.240760 0.013885 -0.013784 -413197.000000 0 0 1
-28.459502 29.024895 -32.081921 51.784528 -0.795233 2.238936 0.014728 -0.012834 45581.900000 0 0 1
-28.811622 30.109595 -31.213261 52.066927 -0.807424 2.213652 0.013507 -0.021732 252475.000000 0 0 1
-28.467452 31.347895 -31.781751 52.944933 -0.833517 2.214647 0.025467 -0.033221 -447621.000000 0 0 1
-28.834462 32.425195 -30.780661 53.200268 -0.843946 2.187784 0.033586 -0.022852 -169831.000000 0 0 1
-27.981682 32.570795 -29.661671 52.188561 -0.861041 2.175302 0.022688 -0.011682 201434.000000 0 0 1
-28.405792 33.678095 -28.897701 52.689469 -0.870117 2.151309 0.021608 -0.014242 -595869.000000 0 0 1
-27.661042 33.715095 -27.553501 51.585233 -0.883719 2.134281 0.017261 -0.013054 -25495.500000 0 0 1
-26.337032 34.192095 -27.650951 51.257328 -0.914450 2.140584 0.026738 -0.007967 20508.200000 0 0 1
-26.028602 -33.116926 -27.888521 50.517210 0.904675 2.155629 0.031021 0.000599 -636005.000000 0 0 1
-26.446382 -32.186626 -26.780491 49.523577 0.882988 2.142140 0.037597 -0.000308 309494.000000 0 0 1
-27.827262 -31.839926 -26.762221 50.043519 0.852548 2.135042 0.029344 -0.011857 304995.000000 0 0 1
-28.249552 -31.268926 -25.521051 49.265677 0.836085 2.115341 0.033537 -0.006000 561977.000000 0 0 1
-29.785872 -31.017226 -25.474841 49.982337 0.805647 2.105605 0.023145 -0.008847 442144.000000 0 0 1
-30.247932 -30.021626 -26.378271 50.120341 0.781643 2.125038 0.027499 -0.010845 -302028.000000 0 0 1
-31.640672 -29.891926 -26.314691 50.863762 0.756986 2.114555 0.019893 -0.010376 -773520.000000 0 0 1
-32.181502 -29.199526 -27.506681 51.428386 0.736855 2.135131 0.023544 -0.008314 804787.000000 0 0 1
-33.625402 -29.145526 -27.452041 52.285217 0.714150 2.123563 0.017223 -0.011072 1071860.000000 0 0 1
-34.172648 -28.204026 -28.375141 52.615450 0.690002 2.140394 0.028634 -0.013539 1003490.000000 0 0 1
-35.714292 -28.390726 -28.618161 53.856690 0.671648 2.131021 0.024779 -0.015627 1345700.000000 0 0 1
35.378265 -27.966526 -27.496131 52.818419 -0.668921 2.118325 -0.002854 -0.009059 1647690.000000 0 0 1
33.962375 -27.783126 -27.811351 51.950132 -0.685654 2.135715 -0.002713 -0.008439 1710180.000000 0 0 1
33.129665 -27.360926 -26.574791 50.521426 -0.690320 2.124699 0.004191 -0.007517 -198751.000000 0 0 1
32.849455 -28.350926 -25.628151 50.395077 -0.712025 2.104290 0.001256 0.002762 551436.000000 0 0 1
31.916115 -27.847126 -24.657821 49.011314 -0.717418 2.097984 -0.002105 0.006561 1964.500000 0 0 1
31.886995 -28.698326 -23.319921 48.828199 -0.732816 2.068707 -0.007522 0.009777 -213982.000000 0 0 1
31.418245 -30.053926 -23.508721 49.426759 -0.763208 2.066473 0.001550 0.003972 -57859.500000 0 0 1
31.153185 -30.762326 -22.343821 49.153718 -0.779085 2.042686 0.009319 -0.013331 84198.300000 0 0 1
32.296445 -30.937726 -21.307021 49.539806 -0.763914 2.015399 0.003929 0.000012 -667577.000000 0 0 1
33.537285 -31.406426 -21.754221 50.836593 -0.752599 2.012991 0.004233 -0.001122 -212093.000000 0 0 1
34.579945 -31.184026 -20.831521 51.011453 -0.733806 1.991463 0.012689 -0.003773 463963.000000 0 0 1
35.256135 -29.775526 -20.961021 50.684725 -0.701321 1.997154 0.002685 -0.000992 -310469.000000 0 0 1
34.315795 -28.748326 -20.640721 49.295835 -0.697344 2.002822 0.003056 0.004932 -218874.000000 0 0 1
34.794815 -27.440126 -20.755821 48.933054 -0.667768 2.008839 -0.002578 0.005630 -546105.000000 0 0 1
33.837955 -26.290226 -20.497221 47.500729 -0.660524 2.016967 0.007042 0.011424 331378.000000 0 0 1
32.778175 -26.168926 -21.468721 47.118228 -0.673743 2.043882 0.011628 0.006897 45954.100000 0 0 1
31.689935 -25.473226 -20.975921 45.750699 -0.677070 2.047084 0.009092 0.004096 -1192600.000000 0 0 1
30.466615 -25.438626 -21.844021 45.304520 -0.695702 2.073915 0.012969 0.000033 -819872.000000 0 0 1
29.735535 -26.626126 -21.813421 45.486019 -0.730285 2.070953 0.017006 -0.001606 130320.000000 0 0 1
28.770805 -26.660526 -22.882721 45.411031 -0.747346 2.098907 0.016073 0.000944 273134.000000 0 0 1
28.260805 -28.071626 -23.177321 46.085545 -0.782040 2.097770 0.014558 0.002326 -402687.000000 0 0 1
27.589795 -28.644126 -22.093121 45.494931 -0.804145 2.077865 0.019874 -0.006337 -67868.000000 0 0 1
27.212685 -30.027326 -22.258721 46.234415 -0.834531 2.073084 0.019824 -0.011966 -334243.000000 0 0 1
26.512115 -30.614426 -21.022021 45.629603 -0.857086 2.049591 0.022967 -0.012124 -306056.000000 0 0 1
27.272465 -30.914726 -19.842621 45.751910 -0.847912 2.019392 0.030348 -0.014732 227449.000000 0 0 1
28.065905 -32.099526 -19.872121 47.042276 -0.852340 2.006922 0.031332 -0.010608 223369.000000 0 0 1
29.146945 -32.250426 -18.790521 47.357344 -0.835903 1.978804 0.027642 -0.014689 -509689.000000 0 0 1
28.757035 -32.728426 -17.521921 46.958861 -0.849899 1.953180 0.039800 -0.022085 -178617.000000 0 0 1
27.939245 -31.840926 -16.784121 45.564819 -0.850573 1.948037 0.021715 -0.026082 22713.000000 0 0 1
27.172945 -32.463126 -15.565121 45.105393 -0.873874 1.923124 0.030453 -0.023400 -270372.000000 0 0 1
26.093015 -33.283426 -15.959321 45.203228 -0.905910 1.931633 0.040196 -0.017098 -208565.000000 0 0 1
25.595315 -33.938826 -14.812321 45.015207 -0.924638 1.906095 0.053032 -0.016770 110563.000000 0 0 1
24.065015 -34.232026 -14.744021 44.366008 -0.958062 1.909566 0.067108 -0.019681 265128.000000 0 0 1
23.431515 -33.027526 -14.555221 43.031475 -0.953753 1.915849 0.068250 -0.018113 160534.000000 0 0 1
22.081215 -33.138526 -14.097521 42.243130 -0.983026 1.911047 0.072293 -0.020876 621067.000000 0 0 1
-0.753292 -7.296405 -29.105281 30.015368 1.467919 2.894711 0.040076 -0.012418 228740.000000 0 0 1
-0.215692 -8.591905 -29.003181 30.249824 1.545698 2.853503 0.044672 -0.014841 -83959.600000 0 0 1
-0.521292 -9.311405 -30.168131 31.576734 1.514870 2.841778 0.035301 -0.009355 -279243.000000 0 0 1
-0.230192 -10.814205 -30.056731 31.943811 1.549513 2.796148 0.045625 -0.008063 -172649.000000 0 0 1
1.122108 -11.118905 -29.833721 31.858124 -1.470218 2.783182 0.026619 -0.013321 -327617.000000 0 0 1
1.302408 -12.490905 -29.588321 32.143237 -1.466903 2.740192 0.037802 -0.015968 97112.000000 0 0 1
2.738308 -12.828805 -29.131471 31.948696 -1.360502 2.718492 0.037850 -0.017430 -324694.000000 0 0 1
3.659008 -12.856805 -30.203581 33.029412 -1.293530 2.724931 0.047695 -0.016355 1366930.000000 0 0 1
5.062508 -12.959905 -29.819701 32.905967 -1.198395 2.705028 0.047793 -0.015647 1712150.000000 0 0 1
5.548708 -14.323205 -29.321231 33.101011 -1.201205 2.659035 0.054001 -0.019962 -971045.000000 0 0 1
5.162808 -14.734205 -28.027461 32.082549 -1.233769 2.633357 0.059934 -0.019709 -322628.000000 0 0 1
5.956808 -15.749905 -27.490611 32.237816 -1.209212 2.592013 0.060680 -0.019030 -478813.000000 0 0 1
5.568808 -17.191405 -27.762581 33.125774 -1.257533 2.564580 0.053709 -0.022015 -665505.000000 0 0 1
5.777308 -17.613005 -29.101091 34.503170 -1.253841 2.574437 0.059926 -0.037670 236018.000000 0 0 1
5.287708 -18.935005 -29.221841 35.219458 -1.298478 2.549379 0.049906 -0.033748 -437768.000000 0 0 1
5.403608 -19.543205 -30.649411 36.749452 -1.301040 2.557132 0.058949 -0.040087 949725.000000 0 0 1
6.819208 -19.624105 -30.941621 37.269169 -1.236358 2.550299 0.045251 -0.034651 1198000.000000 0 0 1
6.982808 -20.355205 -32.139621 38.678795 -1.240328 2.551585 0.052727 -0.032412 -149918.000000 0 0 1
8.446608 -20.459205 -32.621601 39.421987 -1.179261 2.545432 0.060296 -0.025724 -135674.000000 0 0 1
8.914708 -19.172005 -32.814231 39.036029 -1.135550 2.569212 0.046353 -0.028219 -376460.000000 0 0 1
10.086208 -19.150105 -33.583431 39.953785 -1.086024 2.569107 0.050136 -0.029544 -528879.000000 0 0 1
10.380208 -17.731205 -34.040771 39.760765 -1.041166 2.598549 0.034195 -0.020060 -924262.000000 0 0 1
9.483108 -17.214905 33.682504 38.997351 -1.067288 0.528206 0.044890 -0.022711 -592883.000000 0 0 1
9.760708 -15.927605 33.285630 38.169271 -1.021006 0.511415 0.039181 -0.019344 -477507.000000 0 0 1
8.841708 -15.379805 32.212293 36.774258 -1.049044 0.503401 0.057409 -0.025878 -304715.000000 0 0 1
8.923508 -16.086905 30.990863 36.039577 -1.064347 0.535699 0.058601 -0.025993 -363122.000000 0 0 1
8.164108 -15.561805 29.958133 34.732006 -1.087644 0.530506 0.062859 -0.018851 -598790.000000 0 0 1
8.128108 -16.423005 28.659933 34.017246 -1.111219 0.568867 0.054961 -0.017017 -719232.000000 0 0 1
7.558108 -17.684705 28.766943 34.603625 -1.166911 0.589304 0.068672 -0.019566 279255.000000 0 0 1
7.673708 -18.485205 27.596693 34.090557 -1.177318 0.627477 0.056987 -0.017035 -36411.800000 0 0 1
7.228008 -19.907105 27.933823 35.054749 -1.222511 0.648712 0.060093 -0.018685 53763.700000 0 0 1
8.191108 -20.535605 28.765913 36.280616 -1.191261 0.655287 0.063538 -0.019718 540714.000000 0 0 1
7.601308 -21.600605 29.461133 37.313864 -1.232428 0.660722 0.051401 -0.018490 -221771.000000 0 0 1
8.072608 -21.720205 30.888783 38.614133 -1.214954 0.643610 0.060558 -0.025337 -298518.000000 0 0 1
7.371008 -20.914905 31.855923 38.814493 -1.231960 0.608122 0.075973 -0.027289 383892.000000 0 0 1
7.372508 -19.492405 31.747803 37.976713 -1.209202 0.580879 0.059168 -0.025568 -390773.000000 0 0 1
6.567308 -18.756505 32.812791 38.361639 -1.234001 0.544562 0.060672 -0.025295 -40946.100000 0 0 1
5.173008 -18.966605 32.786219 38.228632 -1.304530 0.540143 0.073139 -0.034365 -138307.000000 0 0 1
4.489008 -18.075105 33.657428 38.466649 -1.327368 0.505408 0.069428 -0.033720 611848.000000 0 0 1
2.955208 -18.389605 33.718647 38.520878 -1.411459 0.504669 0.073728 -0.032901 476521.000000 0 0 1
2.522808 -19.448405 -34.124731 39.358637 -1.441799 2.619987 0.065295 -0.038386 -78142.400000 0 0 1
2.324408 -19.073705 -32.807781 38.020515 -1.449530 2.611770 0.058386 -0.042036 -465561.000000 0 0 1
1.839508 -20.145705 -31.796281 37.686028 -1.479739 2.574964 0.048595 -0.028119 -293062.000000 0 0 1
0.706508 -20.925405 -32.243931 38.445322 -1.537046 2.565680 0.027965 -0.023277 795544.000000 0 0 1
-0.080092 -21.439705 -31.191271 37.849211 1.567061 2.539396 0.027461 -0.025144 350571.000000 0 0 1
-0.769792 -20.402005 -30.220821 36.470980 1.533083 2.547446 0.034887 -0.022534 282304.000000 0 0 1
-1.972792 -19.810605 -30.816531 36.688016 1.471541 2.568009 0.044274 -0.024781 883433.000000 0 0 1
-2.469192 -18.736705 -30.033591 35.484893 1.439768 2.579941 0.065391 -0.016560 301435.000000 0 0 1
-1.879692 -17.276005 -30.281041 34.913250 1.462419 2.620594 0.057307 -0.015678 171599.000000 0 0 1
-2.765292 -16.374105 -29.679831 34.009565 1.403493 2.631482 0.057668 -0.010070 23109.200000 0 0 1
-2.479592 -15.029505 -30.049231 33.689623 1.407288 2.672421 0.060425 -0.014166 401819.000000 0 0 1
-3.503592 -14.060305 -29.393741 32.771319 1.326587 2.683584 0.065428 -0.010072 340951.000000 0 0 1
-3.148792 -13.709605 -28.100591 31.424693 1.345034 2.677482 0.051836 -0.011029 177091.000000 0 0 1
-4.185092 -12.954405 -27.482411 30.669439 1.258317 2.681665 0.045010 -0.009277 150317.000000 0 0 1
-4.174592 -12.927905 -25.963811 29.303198 1.258453 2.659529 0.033020 -0.013212 -525970.000000 0 0 1
-4.674292 -14.051205 -25.322601 29.334612 1.249651 2.612435 0.030335 -0.009598 32225.100000 0 0 1
-4.590692 -14.102705 -23.913221 28.138992 1.256096 2.586450 0.017128 -0.008964 -253200.000000 0 0 1
-5.381092 -13.022805 -23.148021 27.099455 1.178958 2.594783 0.019752 -0.017512 206907.000000 0 0 1
-6.785392 -12.954105 -23.349621 27.550956 1.088289 2.582067 0.023973 -0.021275 -73934.200000 0 0 1
-7.335592 -11.839705 -22.765021 26.687744 1.016107 2.592530 0.008871 -0.024140 681692.000000 0 0 1
-8.859992 -11.617105 -23.073521 27.310144 0.919237 2.577118 0.032319 -0.021414 1291660.000000 0 0 1
-9.803692 -12.587705 -22.593521 27.659173 0.909097 2.526733 0.040099 -0.020376 271157.000000 0 0 1
-10.147992 -13.532305 -23.548521 28.993755 0.927354 2.518697 0.031693 -0.022154 135681.000000 0 0 1
-11.121592 -14.608505 -22.958721 29.397297 0.920096 2.467031 0.037979 -0.030651 275438.000000 0 0 1
-10.461492 -15.509605 -22.073921 28.935249 0.977379 2.438541 0.047606 -0.026571 -151534.000000 0 0 1
-11.231892 -16.642405 -21.680521 29.549450 0.977118 2.394552 0.042074 -0.016128 -63362.600000 0 0 1
-11.518492 -17.664405 -22.775221 31.038968 0.992965 2.394639 0.036036 -0.005384 -566475.000000 0 0 1
-12.761592 -17.336205 -23.310721 31.729985 0.936235 2.395960 0.028594 -0.009465 -768345.000000 0 0 1
-13.139492 -18.282505 -24.279521 33.111801 0.947635 2.393899 0.029802 -0.009088 -59733.900000 0 0 1
-14.416192 -17.960005 -25.059421 34.034731 0.894422 2.398367 0.018186 -0.015783 782241.000000 0 0 1
-15.646092 -17.804305 -24.305421 33.949182 0.849829 2.368759 0.031636 -0.009489 601343.000000 0 0 1
-16.744392 -17.768105 -25.172101 35.067291 0.815052 2.371466 0.038564 -0.023509 -157207.000000 0 0 1
-17.528592 -16.430905 -25.115681 34.756634 0.753086 2.378375 0.031433 -0.013417 198314.000000 0 0 1
-18.395392 -16.323005 -23.979921 34.349200 0.725778 2.343567 0.039245 -0.013940 327733.000000 0 0 1
-19.098892 -15.096705 -23.870521 34.095160 0.668890 2.346354 0.040082 -0.017153 113433.000000 0 0 1
-19.759992 -14.966005 -22.512921 33.485373 0.648213 2.308136 0.033290 -0.028209 148102.000000 0 0 1
-18.788892 -15.048805 -21.441021 32.236724 0.675315 2.298440 0.037717 -0.021801 432989.000000 0 0 1
-19.220192 -14.954305 -20.067721 31.555672 0.661214 2.260031 0.034339 -0.016613 -369702.000000 0 0 1
-19.916792 -13.701805 -19.478621 31.045688 0.602595 2.249029 0.031567 -0.018418 482564.000000 0 0 1
-21.241592 -13.543005 -19.989221 32.158780 0.567588 2.241553 0.032549 -0.024159 287220.000000 0 0 1
-21.921292 -12.548205 -19.306321 31.792051 0.519894 2.223415 0.036830 -0.020191 -364255.000000 0 0 1
-23.421092 -12.345805 -19.541121 32.906258 0.485110 2.206622 0.053279 -0.010494 -187940.000000 0 0 1
-23.740892 -11.655605 -20.696421 33.583104 0.456382 2.234800 0.060105 -0.028181 -834489.000000 0 0 1
-25.061492 -11.251905 -20.636021 34.358828 0.421999 2.215052 0.061784 -0.022974 -922233.000000 0 0 1
-25.512382 -10.154005 -21.644421 34.963787 0.378784 2.238332 0.076939 -0.013920 -51654.600000 0 0 1
-25.493902 -10.506105 -23.016721 35.917777 0.390896 2.266358 0.059633 -0.017752 575906.000000 0 0 1
-26.083972 -9.384805 -23.775321 36.520050 0.345371 2.279725 0.056043 -0.014967 -153502.000000 0 0 1
-26.226752 -9.622705 -25.325151 37.706793 0.351654 2.307208 0.053558 -0.007178 144422.000000 0 0 1
-25.034622 -9.499905 -26.091241 37.386272 0.362684 2.343234 0.038946 -0.015938 -179115.000000 0 0 1
-24.284992 -10.676305 -25.939441 37.102546 0.414193 2.344974 0.037211 -0.003732 -723812.000000 0 0 1
-23.291092 -10.823105 -27.109611 37.343615 0.435002 2.383212 0.038778 -0.003407 -14634.700000 0 0 1
-23.790292 -11.419305 -28.285991 38.684309 0.447519 2.390877 0.044330 0.006752 143530.000000 0 0 1
-22.790192 -11.397405 -29.275771 38.811911 0.463729 2.425381 0.037857 0.001734 515204.000000 0 0 1
-23.459092 -11.683905 -30.660811 40.335195 0.462090 2.434341 0.035738 0.002167 486396.000000 0 0 1
-24.259192 -10.709705 -31.328621 41.044959 0.415738 2.439165 0.027797 0.009342 167078.000000 0 0 1
-23.580892 -9.871005 -32.250691 41.153399 0.396439 2.471349 0.027413 0.002421 -1146080.000000 0 0 1
-24.449292 -8.764705 -32.801321 41.839151 0.344214 2.471858 0.021742 0.011337 -878322.000000 0 0 1
-25.336542 -9.258605 -33.814891 43.256317 0.350350 2.468236 0.034870 0.010061 714683.000000 0 0 1
-26.594062 -9.731105 -33.369411 43.765924 0.350780 2.437890 0.033664 0.014638 -409807.000000 0 0 1
-27.586552 -8.651105 -32.859701 43.767789 0.303885 2.420029 0.027359 0.027541 -1158990.000000 0 0 1
-28.924512 -9.061205 -32.918551 44.747780 0.303587 2.397417 0.016071 0.028604 41912.300000 0 0 1
-29.651642 -8.640605 -31.741291 44.287577 0.283552 2.369868 0.025061 0.026812 858648.000000 0 0 1
-31.159352 -9.052005 -31.779621 45.417929 0.282725 2.345795 0.023186 0.014901 468924.000000 0 0 1
-31.362552 -10.457505 -31.822941 45.887565 0.321846 2.337130 0.020031 0.007577 -183056.000000 0 0 1
-32.665492 -10.903505 -31.566141 46.715544 0.322164 2.312723 0.002957 0.008834 -540907.000000 0 0 1
-32.767112 -12.424105 -31.831051 47.341924 0.362416 2.308195 -0.002496 0.005153 -276302.000000 0 0 1
-34.064226 -12.934305 -31.533621 48.187519 0.362888 2.284177 -0.018655 0.006165 364757.000000 0 0 1
-34.088244 -14.287805 -31.820641 48.771948 0.396898 2.281592 -0.013376 -0.000196 786637.000000 0 0 1
-35.318642 -15.049105 -31.200561 49.470769 0.402798 2.253234 -0.025229 0.000227 674096.000000 0 0 1
-35.288822 -14.970205 -29.765031 48.532103 0.401209 2.231036 -0.017738 0.005793 993713.000000 0 0 1
35.427795 -15.612605 -29.172881 48.476170 -0.415083 2.216547 -0.021607 0.008093 1166660.000000 0 0 1
35.492045 -15.559005 -27.642291 47.601094 -0.413149 2.190393 -0.012483 0.014760 361326.000000 0 0 1
-35.372543 -16.375405 -27.042711 47.441320 0.433564 2.177332 -0.012582 0.002284 648008.000000 0 0 1
-35.312949 -16.248505 -25.630661 46.561240 0.431245 2.153726 -0.009806 0.001695 -66039.200000 0 0 1
-33.950292 -15.580905 -25.303881 45.118436 0.430258 2.166187 0.015976 -0.003194 951813.000000 0 0 1
-32.818822 -16.471805 -25.399121 44.648749 0.465167 2.175922 0.005185 -0.001367 -86661.500000 0 0 1
-31.639572 -15.975105 -24.894921 43.313088 0.467567 2.183115 0.017912 0.004359 246316.000000 0 0 1
-30.343252 -16.873305 -24.993621 42.779697 0.507500 2.194740 0.039987 -0.005091 776408.000000 0 0 1
-30.246322 -18.036005 -24.189021 42.722900 0.537697 2.172665 0.050564 -0.012306 -169425.000000 0 0 1
-30.941692 -19.154505 -24.678521 43.969452 0.554310 2.166710 0.034744 -0.012124 -484750.000000 0 0 1
-30.607262 -20.439505 -23.926021 43.897976 0.588786 2.147230 0.040136 -0.018391 572683.000000 0 0 1
-29.376622 -21.068005 -24.354421 43.588812 0.622156 2.163651 0.045111 -0.018325 758346.000000 0 0 1
-29.327432 -22.364905 -23.742821 43.863524 0.651512 2.142765 0.035866 -0.012040 -61576.300000 0 0 1
-27.959552 -23.146205 -23.912521 43.465987 0.691491 2.153332 0.050749 -0.018925 1167230.000000 0 0 1
-26.755152 -22.699305 -23.314421 42.126700 0.703570 2.157280 0.044375 -0.016978 282567.000000 0 0 1
-26.852122 -22.356205 -21.972521 41.275029 0.694286 2.132164 0.042408 -0.015657 -972139.000000 0 0 1
-26.778302 -23.530105 -20.969921 41.357960 0.720922 2.102537 0.033311 -0.016674 -244339.000000 0 0 1
-26.646142 -23.199505 -19.596521 40.401207 0.716362 2.077214 0.020895 -0.015809 14908.800000 0 0 1
-26.672032 -24.316505 -18.737221 40.666610 0.739234 2.049639 0.021382 0.005890 2220.000000 0 0 1
-26.368972 -23.933105 -17.311021 39.595298 0.737011 2.023278 0.008166 0.003385 52164.700000 0 0 1
-27.482292 -23.260705 -16.755521 39.712520 0.702394 2.006359 0.015534 -0.000894 -66511.600000 0 0 1
-27.113902 -22.135705 -15.958721 38.468609 0.684659 1.998575 0.005899 -0.000042 -722062.000000 0 0 1
-28.227732 -21.454805 -15.192121 38.573489 0.649909 1.975611 0.002463 0.008570 411801.000000 0 0 1
-29.334772 -21.022505 -16.031321 39.490224 0.621807 1.988822 0.003098 0.009012 1162510.000000 0 0 1
-30.377232 -20.504305 -15.182321 39.669959 0.593742 1.963530 0.007922 0.006732 435167.000000 0 0 1
-31.556852 -19.891705 -15.962121 40.574674 0.562434 1.975124 0.023147 -0.011452 18746.700000 0 0 1
-32.391092 -20.782405 -16.671421 41.940761 0.570454 1.979586 0.008230 -0.004987 -253032.000000 0 0 1
-33.084622 -20.043505 -17.647721 42.517953 0.544692 1.998811 0.011394 -0.012294 -106109.000000 0 0 1
-33.794352 -20.940105 -18.733021 43.948519 0.554731 2.011139 0.008341 -0.010923 963993.000000 0 0 1
-34.985017 -21.603505 -18.277421 44.996966 0.553193 1.989080 0.010612 -0.004635 506869.000000 0 0 1
-34.743603 -22.663705 -17.388921 44.979285 0.578000 1.967737 0.013915 -0.007996 121094.000000 0 0 1
-35.801190 -23.833505 -17.491121 46.429522 0.587346 1.957054 0.009649 0.005244 244114.000000 0 0 1
34.761085 -23.557905 -17.120121 45.347618 -0.595608 1.957925 0.008982 -0.000799 -256120.000000 0 0 1
34.019605 -24.775205 -17.100821 45.426671 -0.629443 1.956757 -0.008302 0.007913 747032.000000 0 0 1
32.552295 -24.528905 -16.606521 44.012449 -0.645752 1.957691 -0.012494 0.005050 455925.000000 0 0 1
31.650385 -24.172105 -17.609421 43.544566 -0.652226 1.987119 -0.009317 0.007506 -557842.000000 0 0 1
30.344375 -24.480205 -17.205521 42.615625 -0.678841 1.986395 -0.001692 0.002220 -28388.000000 0 0 1
29.184975 -24.289805 -18.194221 42.104478 -0.694111 2.017639 0.008377 0.008715 122753.000000 0 0 1
28.814795 -22.894405 -18.346521 41.122269 -0.671401 2.033250 0.017694 0.010564 1413920.000000 0 0 1
27.498455 -22.763705 -18.948621 40.415363 -0.691474 2.058781 0.015294 0.001898 1015150.000000 0 0 1
34.055555 29.739795 -17.955721 48.648167 0.717851 1.948830 0.024713 -0.018097 -303934.000000 0 0 1
33.357135 30.040595 -19.155921 48.806609 0.733133 1.974129 0.020660 -0.016214 -163361.000000 0 0 1
33.909945 29.397795 -20.279921 49.248247 0.714245 1.995213 0.032507 -0.016506 -415673.000000 0 0 1
33.144405 29.533895 -21.579321 49.360608 0.727858 2.023254 0.033273 -0.008594 -888546.000000 0 0 1
31.999945 28.723695 -21.654921 48.145433 0.731497 2.037317 0.029300 -0.005179 -40864.700000 0 0 1
31.430285 28.695995 -22.968721 48.362021 0.739954 2.065684 0.042036 0.003356 -161086.000000 0 0 1
30.332715 29.749395 -23.167721 48.392596 0.775690 2.070021 0.036927 0.016635 -691653.000000 0 0 1
30.695075 31.118395 -22.954021 49.370327 0.792246 2.054358 0.039845 0.003672 -406598.000000 0 0 1
29.539365 31.904095 -22.920221 49.150604 0.823865 2.055930 0.046607 0.009726 -659641.000000 0 0 1
29.801515 33.378095 -22.630721 50.143564 0.841948 2.039039 0.044372 0.006591 171722.000000 0 0 1
30.408255 33.763595 -21.407121 50.228549 0.837637 2.011078 0.038943 -0.002049 602566.000000 0 0 1
31.796455 33.440795 -21.301621 50.823817 0.810598 2.003280 0.028350 -0.004829 257970.000000 0 0 1
32.309505 33.285595 -19.855221 50.458544 0.800278 1.975227 0.029412 -0.011387 -232615.000000 0 0 1
32.160015 -34.213726 -19.174821 50.720009 -0.816330 1.958488 0.030132 -0.014655 156155.000000 0 0 1
32.044415 34.188895 -17.797921 50.124755 0.817765 1.933788 0.023569 -0.025401 -483163.000000 0 0 1
31.998645 -33.170626 -17.023421 49.132480 -0.803380 1.924612 0.021321 -0.026521 374491.000000 0 0 1
33.224365 -32.439026 -17.117021 49.488799 -0.773439 1.923969 0.021574 -0.018099 497639.000000 0 0 1
34.343885 -32.890626 -16.351521 50.285862 -0.763787 1.901989 0.017885 -0.024015 -307153.000000 0 0 1
35.465515 -31.893526 -16.540321 50.483482 -0.732419 1.904599 0.003469 -0.004075 -471085.000000 0 0 1
-35.647962 -32.112126 -17.712221 51.143803 0.733264 1.924444 -0.002862 -0.004231 -703348.000000 0 0 1
-34.556273 -31.247826 -17.763021 49.860681 0.735163 1.935051 -0.008015 0.003504 -213001.000000 0 0 1
-33.361352 -31.822126 -18.552721 49.697394 0.761789 1.953375 0.002695 -0.000543 -571195.000000 0 0 1
-32.677862 -32.836526 -17.810821 49.631698 0.787820 1.937842 0.003942 -0.006593 512746.000000 0 0 1
-31.852312 -33.736026 -18.571521 49.975900 0.814111 1.951538 0.015283 -0.002219 845846.000000 0 0 1
-30.505772 -33.213526 -19.167421 49.001331 0.827868 1.972689 0.010149 -0.002270 -567086.000000 0 0 1
-30.714472 -32.151126 -20.153421 48.818378 0.808247 1.996349 0.004835 -0.002193 752538.000000 0 0 1
-29.514512 -31.496126 -20.675021 47.859888 0.817867 2.017495 0.024000 -0.003950 1441870.000000 0 0 1
-28.614062 -32.495326 -21.545521 48.362384 0.848826 2.032531 0.026754 0.003414 385820.000000 0 0 1
-29.335442 -33.134626 -22.598521 49.690690 0.846139 2.042926 0.018059 0.008601 472181.000000 0 0 1
-28.455272 -34.071826 -23.250921 50.111846 0.874984 2.053280 0.012618 0.003649 626814.000000 0 0 1
-29.169672 33.829395 -24.373421 50.885767 -0.859229 2.070292 0.002571 -0.004018 -546139.000000 0 0 1
-30.237162 33.050295 -23.971721 50.806017 -0.829819 2.062160 -0.010972 -0.006342 248026.000000 0 0 1
-31.145712 32.479595 -24.959421 51.458256 -0.806360 2.077208 -0.001303 -0.007489 1268980.000000 0 0 1
-32.009102 33.450495 -25.862941 53.032159 -0.807414 2.080231 0.003664 -0.015920 -384123.000000 0 0 1
-31.352032 33.980295 -26.989901 53.535643 -0.825606 2.099192 -0.001083 -0.021260 -54826.800000 0 0 1
-32.073182 -33.612926 -27.511331 53.994362 0.808835 2.105426 -0.000866 -0.024136 209365.000000 0 0 1
-31.312752 -32.898126 -28.657591 53.703190 0.810083 2.133682 0.003309 -0.018621 26000.000000 0 0 1
-31.110732 -33.592926 -29.911821 54.690761 0.823742 2.149485 0.009146 -0.017075 152428.000000 0 0 1
-32.319892 -33.754426 -30.631731 55.877004 0.807106 2.151006 0.017213 -0.021688 15251.000000 0 0 1
-32.210012 33.968395 -31.808741 56.596225 -0.811962 2.167634 0.034646 -0.020865 16882.900000 0 0 1
-31.407632 -34.296226 -32.899521 56.965331 0.829334 2.186503 0.038571 -0.023239 256967.000000 0 0 1
-31.623642 33.547395 -34.009641 57.289947 -0.814908 2.206372 0.039081 -0.026983 -649920.000000 0 0 1
-30.843592 34.084395 33.387752 56.813864 -0.835271 0.942621 0.042547 -0.028490 1693040.000000 0 0 1
-29.444842 33.685095 33.257707 55.747282 -0.852464 0.931564 0.027795 -0.018458 1392550.000000 0 0 1
-29.135592 32.360195 32.916123 54.585127 -0.837786 0.923510 0.038283 -0.027061 62426.800000 0 0 1
-27.611622 32.076795 33.038977 53.692611 -0.860067 0.907985 0.038029 -0.028019 129756.000000 0 0 1
-27.152272 31.793995 -34.271963 54.061737 -0.863981 2.257435 0.044834 -0.027744 -133684.000000 0 0 1
-25.791562 31.434595 -34.201018 53.132363 -0.883690 2.270113 0.058150 -0.028844 -401777.000000 0 0 1
-25.233952 30.079995 33.946982 51.903333 -0.872785 0.857880 0.066054 -0.032067 -434605.000000 0 0 1
-25.604762 29.068095 -33.802121 51.411490 -0.848660 2.288268 0.053068 -0.028230 103838.000000 0 0 1
-25.231062 27.764595 -34.212994 50.774089 -0.833168 2.310173 0.044112 -0.027697 -157479.000000 0 0 1
-25.241362 26.780095 -33.022061 49.444477 -0.814968 2.302128 0.053002 -0.031773 -1068500.000000 0 0 1
-24.227092 26.893795 -32.092291 48.375027 -0.837516 2.296158 0.050938 -0.025080 -538604.000000 0 0 1
-24.344892 28.005695 -31.141661 48.443738 -0.855213 2.268999 0.037741 -0.012205 284679.000000 0 0 1
-23.080492 28.087195 -30.248881 47.292646 -0.882937 2.264788 0.036612 -0.007486 1336630.000000 0 0 1
-21.813392 28.357695 -30.882731 47.262310 -0.915106 2.282906 0.036412 -0.011629 969292.000000 0 0 1
-20.646592 28.172595 -30.111711 46.116070 -0.938355 2.282276 0.029250 -0.007647 315503.000000 0 0 1
-20.140492 29.255495 -29.096221 45.914196 -0.967875 2.257134 0.032578 0.001748 -327336.000000 0 0 1
-19.756892 30.455495 -29.722641 46.918091 -0.995326 2.256865 0.029497 0.007889 325251.000000 0 0 1
-19.299592 31.424795 -28.749931 46.760565 -1.020036 2.232970 0.032385 0.005994 -7624.350000 0 0 1
-18.958192 32.775195 -29.422301 47.950998 -1.046387 2.231397 0.027517 0.007903 -108788.000000 0 0 1
-17.815092 32.730395 -30.228751 47.983680 -1.072341 2.252324 0.037308 0.000534 -559647.000000 0 0 1
-17.588992 33.874195 -30.997241 49.169733 -1.091872 2.252882 0.035308 0.009213 -224361.000000 0 0 1
-16.161592 34.133695 -31.481001 49.166651 -1.128590 2.265674 0.037599 0.005764 -429955.000000 0 0 1
-15.266792 -34.016626 -30.530951 48.190712 1.148938 2.256922 0.055589 -0.002987 1055830.000000 0 0 1
-13.873692 -33.969326 -30.910631 47.977719 1.183054 2.270865 0.063933 -0.000468 1403720.000000 0 0 1
-13.114592 33.411095 -30.832161 47.317184 -1.196753 2.280496 0.077776 -0.013287 -730653.000000 0 0 1
-12.976992 32.846595 -29.548711 46.048099 -1.194540 2.267499 0.097975 -0.027327 -210709.000000 0 0 1
-12.402192 31.572495 -29.609091 45.025937 -1.196498 2.288426 0.102440 -0.027015 -17046.800000 0 0 1
-12.143692 30.964195 -28.221221 43.619811 -1.197045 2.274416 0.090677 -0.038541 -458884.000000 0 0 1
-10.902592 31.357495 -27.743851 43.265231 -1.236184 2.266923 0.091016 -0.030652 -696009.000000 0 0 1
-10.920992 31.102895 -26.351521 42.202615 -1.233120 2.245166 0.078065 -0.029181 717626.000000 0 0 1
-9.547792 31.376395 -25.655181 41.639245 -1.275401 2.234616 0.074365 -0.026996 262691.000000 0 0 1
-8.475892 30.647595 -26.142861 41.165094 -1.300981 2.258900 0.083568 -0.019618 -1152640.000000 0 0 1
-7.243592 31.145195 -25.715141 41.033660 -1.342284 2.248087 0.080491 -0.023216 -492263.000000 0 0 1
-6.123692 30.341595 -26.370031 40.663134 -1.371647 2.276408 0.035273 -0.015614 -618721.000000 0 0 1
-5.939292 29.151295 -25.705351 39.317149 -1.369807 2.283385 0.042389 -0.022010 -613385.000000 0 0 1
-4.746492 28.530395 -26.047641 38.922900 -1.405940 2.303943 0.031588 -0.023216 -606758.000000 0 0 1
-4.428492 27.318995 -25.156961 37.400691 -1.410091 2.308558 0.039673 -0.022200 757726.000000 0 0 1
-5.422192 26.227295 -25.154591 36.742681 -1.366930 2.324872 0.048102 -0.023309 910126.000000 0 0 1
-4.985692 25.111095 -24.371721 35.346923 -1.374800 2.331595 0.049092 -0.032286 24611.100000 0 0 1
-5.898092 23.820795 -24.420821 34.620720 -1.328075 2.353758 0.045806 -0.028320 234223.000000 0 0 1
-6.103192 23.263195 -25.686491 35.188364 -1.314225 2.389076 0.043320 -0.026890 364025.000000 0 0 1
-7.017592 22.168195 -25.761951 34.703797 -1.264216 2.407350 0.034943 -0.028436 -460300.000000 0 0 1
-6.756792 21.088895 -26.932251 34.867490 -1.260734 2.453435 0.023923 -0.018692 505275.000000 0 0 1
-5.490192 20.424995 -26.878471 34.201971 -1.308205 2.474906 0.043881 -0.026459 320531.000000 0 0 1
-5.511292 19.355295 -25.963891 32.850044 -1.293395 2.482219 0.042282 -0.020715 50405.100000 0 0 1
-4.300392 18.385995 -26.127411 32.236311 -1.341032 2.515795 0.053241 -0.034954 338398.000000 0 0 1
-4.280392 17.749095 -27.386671 32.914766 -1.334154 2.553586 0.044775 -0.038023 -309754.000000 0 0 1
-3.204192 16.861195 -27.516951 32.430684 -1.383002 2.583912 0.053197 -0.040447 -368460.000000 0 0 1
-2.874792 16.479095 -29.020931 33.496857 -1.398084 2.618699 0.056379 -0.036527 161606.000000 0 0 1
-2.086092 17.485295 -29.681631 34.512121 -1.452052 2.606135 0.061884 -0.044329 347060.000000 0 0 1
-1.975292 17.273795 -31.045101 35.582075 -1.456939 2.631077 0.055836 -0.047789 -14215.200000 0 0 1
-1.113592 18.340795 -31.804281 36.730602 -1.510154 2.617702 0.063681 -0.024121 -72355.800000 0 0 1
0.196208 18.367495 -31.281981 36.276241 1.560114 2.610644 0.088568 -0.036146 -440593.000000 0 0 1
1.006208 19.335995 -31.861681 37.283506 1.518805 2.595535 0.094915 -0.010097 -105311.000000 0 0 1
0.875608 20.787295 -31.314061 37.595860 1.528699 2.555146 0.085929 -0.015963 -106122.000000 0 0 1
1.524708 20.951595 -30.037131 36.654103 1.498151 2.531291 0.100329 -0.034440 84894.400000 0 0 1
1.255308 22.266695 -29.521241 36.998448 1.514480 2.494608 0.094688 -0.027101 158531.000000 0 0 1
2.133208 22.585795 -28.274601 36.250817 1.476627 2.465416 0.093765 -0.028275 -193887.000000 0 0 1
3.483208 22.536195 -28.596521 36.575590 1.417449 2.468419 0.084584 -0.026451 -565863.000000 0 0 1
4.461408 22.727895 -27.587141 36.020989 1.376964 2.443179 0.072043 -0.029293 544575.000000 0 0 1
4.981208 24.159095 -27.263761 36.766655 1.367462 2.406152 0.082098 -0.029936 -40705.800000 0 0 1
5.698608 24.691695 -28.389091 38.053835 1.343977 2.412868 0.072147 -0.033792 350961.000000 0 0 1
5.911808 26.067295 -28.166001 38.830103 1.347779 2.382361 0.066731 -0.037977 154621.000000 0 0 1
6.829708 26.826795 -29.210401 40.243873 1.321507 2.383043 0.079084 -0.036035 -131113.000000 0 0 1
8.143008 26.357095 -29.221871 40.186101 1.271149 2.384977 0.067098 -0.033379 -602690.000000 0 0 1
8.930208 27.141095 -30.077901 41.485753 1.252925 2.381856 0.062020 -0.037870 -703521.000000 0 0 1
10.389108 27.146695 -29.633401 41.509216 1.205290 2.365847 0.045632 -0.034566 -901188.000000 0 0 1
11.138308 28.042195 -30.394381 42.828086 1.192708 2.359845 0.042940 -0.034947 -877422.000000 0 0 1
12.382608 28.195295 -29.770181 42.831849 1.156983 2.339283 0.028366 -0.037003 -587246.000000 0 0 1
13.224708 29.261995 -30.494431 44.283942 1.146329 2.330369 0.043658 -0.035425 -804273.000000 0 0 1
12.659908 30.573395 -30.511311 45.010508 1.178209 2.315659 0.048818 -0.035084 692423.000000 0 0 1
13.588708 31.453095 -31.184761 46.329682 1.162986 2.309196 0.078811 -0.043943 648709.000000 0 0 1
13.031808 32.889595 -31.461311 47.343083 1.193545 2.297673 0.087558 -0.050641 30870.300000 0 0 1
12.142308 32.983995 -32.547361 47.903134 1.218065 2.317797 0.069605 -0.052417 392088.000000 0 0 1
11.120608 33.950895 -32.232251 48.117036 1.254260 2.304833 0.081403 -0.042676 207033.000000 0 0 1
10.030508 34.141495 -33.270551 48.715319 1.285044 2.322602 0.059546 -0.036550 -156188.000000 0 0 1
10.458008 -33.889526 34.199292 49.269275 -1.271476 0.803585 0.056649 -0.022923 635718.000000 0 0 1
9.315008 -33.610126 33.363273 48.265080 -1.300433 0.807578 0.048088 -0.024359 797542.000000 0 0 1
9.611008 -32.682526 32.109553 46.813912 -1.284787 0.814960 0.050947 -0.016994 -29424.500000 0 0 1
9.286008 -31.323026 32.235023 45.896172 -1.282591 0.792108 0.046012 -0.023329 -204876.000000 0 0 1
9.611708 -30.599226 31.079083 44.661023 -1.266440 0.801140 0.057422 -0.014296 -634265.000000 0 0 1
9.256908 -29.117326 31.294453 43.736162 -1.262984 0.773417 0.043248 -0.026392 780452.000000 0 0 1
7.847208 -28.843626 31.243153 43.239659 -1.305165 0.763301 0.036672 -0.026796 512080.000000 0 0 1
7.180308 -29.151926 32.437933 44.199673 -1.329297 0.746757 0.042847 -0.022433 -1492050.000000 0 0 1
5.678108 -28.968026 32.262663 43.729474 -1.377237 0.741023 0.045233 -0.026449 -762825.000000 0 0 1
4.949108 -30.068826 31.727633 43.991712 -1.407666 0.765237 0.050922 -0.030149 -45810.300000 0 0 1
5.121008 -30.299026 30.330713 43.176474 -1.403363 0.791917 0.047149 -0.029011 -635865.000000 0 0 1
4.469308 -29.339326 29.323183 41.720736 -1.419627 0.791408 0.027341 -0.026560 -360413.000000 0 0 1
3.116608 -29.563026 29.020023 41.543321 -1.465762 0.797429 0.051037 -0.034576 25661.500000 0 0 1
2.602408 -28.614826 28.067153 40.166477 -1.480100 0.797119 0.063068 -0.040479 -246806.000000 0 0 1
1.192608 -28.952726 27.574963 40.000766 -1.529628 0.810190 0.062894 -0.042055 -406385.000000 0 0 1
1.145908 -30.143126 26.804163 40.353244 -1.532799 0.844322 0.068109 -0.038184 122524.000000 0 0 1
0.666408 -31.248626 27.569793 41.677503 -1.549474 0.847975 0.095908 -0.044090 -379072.000000 0 0 1
0.823608 -32.648526 26.903073 42.312881 -1.545575 0.881735 0.097152 -0.044145 832182.000000 0 0 1
2.136608 -33.224026 26.811313 42.746316 -1.506576 0.892819 0.076108 -0.033458 743563.000000 0 0 1
2.938208 -32.785026 25.744823 41.788598 -1.481415 0.907049 0.070367 -0.031986 -195285.000000 0 0 1
4.444408 -33.080526 25.844313 42.213771 -1.437245 0.911925 0.059467 -0.021047 283622.000000 0 0 1
5.190608 -32.559026 24.740973 41.220727 -1.412705 0.927036 0.049856 -0.022737 939220.000000 0 0 1
6.587008 -32.400926 25.025633 41.466746 -1.370233 0.922899 0.035847 -0.022192 815337.000000 0 0 1
7.495008 -32.044326 23.796023 40.611140 -1.341032 0.944747 0.030544 -0.021587 -705944.000000 0 0 1
8.752808 -31.624726 24.199233 40.771778 -1.300784 0.935360 0.017706 -0.011329 -730720.000000 0 0 1
9.380008 -31.084426 23.063483 39.826503 -1.277726 0.953173 0.007848 -0.005427 458314.000000 0 0 1
10.643108 -30.170926 23.285483 39.569866 -1.231664 0.941637 -0.004414 0.001939 711409.000000 0 0 1
11.720808 -30.881526 23.838063 40.734497 -1.208050 0.945663 0.000752 -0.007052 303650.000000 0 0 1
12.978408 -30.223526 23.760343 40.576527 -1.165193 0.945215 0.011903 -0.010724 686473.000000 0 0 1
14.050908 -30.690426 24.789023 41.878705 -1.141452 0.937352 0.036131 -0.014247 -251379.000000 0 0 1
13.871708 -30.097926 26.079643 42.171759 -1.138927 0.904072 0.022226 -0.016495 114459.000000 0 0 1
14.561908 -28.910426 26.334353 41.729607 -1.104201 0.887863 0.024713 -0.015290 -478503.000000 0 0 1
-10.917992 -13.556905 25.728193 31.063357 0.892804 0.594821 0.070610 -0.016670 1058220.000000 0 0 1
-9.498892 -13.731005 25.510783 30.488843 0.965606 0.579521 0.071217 -0.017539 842056.000000 0 0 1
-8.848992 -14.250905 26.688733 31.522713 1.015120 0.561136 0.070127 -0.019088 602660.000000 0 0 1
-7.302492 -14.243905 26.484533 30.945852 1.097060 0.543634 0.080567 -0.016311 321074.000000 0 0 1
-6.684792 -15.277405 25.747853 30.676335 1.158335 0.574730 0.082995 -0.019693 132868.000000 0 0 1
-7.008792 -15.198405 24.338913 29.538067 1.138706 0.602388 0.087142 -0.015680 -320274.000000 0 0 1
-6.404792 -16.321905 23.437983 29.270549 1.196855 0.642273 0.085021 -0.013288 395947.000000 0 0 1
-7.108592 -17.600905 23.458283 30.176398 1.186953 0.680319 0.091155 -0.012057 -13678.600000 0 0 1
-7.203992 -18.248805 24.725503 31.563696 1.194811 0.670755 0.096048 -0.014105 -312242.000000 0 0 1
-7.846092 -19.621405 24.656863 32.473399 1.190398 0.708568 0.091615 -0.010143 -15197.700000 0 0 1
-9.127892 -19.589205 24.055653 32.337746 1.134745 0.731927 0.076232 -0.009354 -239243.000000 0 0 1
-9.665092 -20.911705 24.003843 33.270075 1.137855 0.764853 0.064596 -0.014684 -605388.000000 0 0 1
-11.176592 -20.997905 23.866813 33.696484 1.081666 0.783726 0.057730 -0.014452 -471992.000000 0 0 1
-11.762992 -20.743405 25.139113 34.650135 1.054941 0.759017 0.059595 -0.011819 873747.000000 0 0 1
-13.202692 -20.724705 25.120343 35.140520 1.003578 0.774381 0.054719 -0.008321 1127350.000000 0 0 1
-13.924892 -20.762505 26.499313 36.430727 0.980024 0.756287 0.055825 -0.010436 -262491.000000 0 0 1
-13.731092 -21.896805 27.242213 37.551979 1.010701 0.759103 0.045551 -0.008002 715477.000000 0 0 1
-12.525492 -21.827505 28.035533 37.673851 1.049834 0.731513 0.057387 -0.004870 944261.000000 0 0 1
-11.969692 -23.136905 28.635123 38.711241 1.093372 0.738156 0.055903 -0.000277 564335.000000 0 0 1
-12.895592 -23.631405 29.640433 40.041165 1.071263 0.737356 0.052407 0.001579 549699.000000 0 0 1
-12.386692 -24.708905 30.411193 41.095022 1.106105 0.737694 0.051798 0.007033 -283562.000000 0 0 1
-13.417192 -25.410145 31.322333 42.506295 1.084981 0.742343 0.046984 -0.006539 38901.000000 0 0 1
-13.578392 -24.857505 32.561920 43.157235 1.070837 0.715912 0.066287 -0.011788 59544.100000 0 0 1
-14.581992 -25.518095 33.317145 44.427918 1.051644 0.722863 0.057156 -0.013966 27737.800000 0 0 1
-14.554492 -25.088055 -33.795321 44.535014 1.045111 2.432339 0.055217 -0.017226 76975.800000 0 0 1
-14.594792 -23.690105 -33.512811 43.558438 1.018643 2.448660 0.058495 -0.025116 183282.000000 0 0 1
-15.774292 -23.028605 -33.944811 43.947641 0.970218 2.453395 0.044487 -0.022359 -414810.000000 0 0 1
-15.802092 -21.506405 -33.743531 43.021593 0.937119 2.472427 0.037041 -0.020522 -151633.000000 0 0 1
-15.743092 -21.115405 -32.348731 41.715053 0.930134 2.458254 0.036799 -0.023091 256791.000000 0 0 1
-15.827192 -19.697105 -32.241641 40.963390 0.893907 2.476864 0.027241 -0.022054 -278987.000000 0 0 1
-15.930892 -19.226605 -30.760841 39.619250 0.878866 2.459748 0.036067 -0.015450 609311.000000 0 0 1
-17.150792 -19.666105 -30.130531 39.859180 0.853612 2.427861 0.032993 -0.016283 634218.000000 0 0 1
-17.200092 -19.438205 -28.738091 38.724215 0.846409 2.407027 0.033644 -0.014515 -255178.000000 0 0 1
-16.426692 -20.413905 -27.854591 38.241887 0.893207 2.386750 0.029926 -0.013308 862890.000000 0 0 1
-15.009592 -20.225705 -28.075671 37.717506 0.932367 2.410383 0.023723 -0.011371 861703.000000 0 0 1
-14.288192 -21.151505 -27.269811 37.352124 0.976692 2.389226 0.019069 -0.015675 703691.000000 0 0 1
-12.732192 -21.157605 -27.376661 36.867798 1.029070 2.407685 0.020878 -0.018356 246168.000000 0 0 1
-12.158292 -20.090305 -26.617691 35.495716 1.026575 2.418684 0.016758 -0.018383 358181.000000 0 0 1
-10.737992 -20.038105 -26.689381 35.059281 1.078859 2.436057 -0.000379 -0.018468 644218.000000 0 0 1
-9.914292 -21.049005 -25.847221 34.776898 1.130609 2.408681 0.022765 -0.024108 -609800.000000 0 0 1
-9.916492 -22.380605 -26.383991 35.990878 1.153708 2.393628 0.027253 -0.029159 101153.000000 0 0 1
-9.667492 -23.412405 -25.380501 35.857648 1.179200 2.357193 0.043966 -0.029623 -24660.700000 0 0 1
-9.779192 -24.857105 -25.898011 37.205043 1.195978 2.340732 0.048688 -0.025857 73722.200000 0 0 1
-8.782892 -25.250805 -26.838791 37.882226 1.236059 2.358138 0.059586 -0.025703 217884.000000 0 0 1
-9.125092 -26.468995 -27.431721 39.196611 1.238809 2.345983 0.058769 -0.024199 -76739.700000 0 0 1
-8.808692 -27.798805 -26.695171 39.534779 1.263932 2.312076 0.073685 -0.025135 -156250.000000 0 0 1
-9.732792 -28.062045 -25.641071 39.238631 1.236947 2.282949 0.067128 -0.027872 -100392.000000 0 0 1
-9.530492 -29.198615 -24.864821 39.517701 1.255297 2.251329 0.095086 -0.024124 -338448.000000 0 0 1
-10.683992 -29.560985 -23.883421 39.476795 1.223982 2.220561 0.090372 -0.025414 35104.500000 0 0 1
-10.763892 -28.583965 -22.893121 38.170662 1.210649 2.213994 0.079308 -0.029265 -57774.500000 0 0 1
-11.525492 -27.430025 -23.227821 37.746191 1.173017 2.233650 0.054804 -0.026267 -458744.000000 0 0 1
-11.389792 -26.251815 -22.253721 36.250700 1.161439 2.231768 0.057311 -0.017293 -5484.990000 0 0 1
-11.913192 -26.555115 -20.954521 35.863494 1.149089 2.194796 0.037800 -0.018918 339444.000000 0 0 1
-11.886492 -25.418815 -20.109621 34.522481 1.133382 2.192607 0.037651 -0.011354 -654473.000000 0 0 1
-12.404892 -25.768515 -18.703321 34.171800 1.122141 2.149969 0.061942 -0.014243 -399483.000000 0 0 1
-13.769892 -26.061505 -18.642021 34.876022 1.084718 2.134739 0.081591 -0.016243 -507987.000000 0 0 1
-14.046992 -26.397285 -17.317521 34.554756 1.081770 2.095737 0.087191 -0.013447 83857.300000 0 0 1
-15.578792 -26.535875 -17.142421 35.223771 1.039928 2.079072 0.074669 -0.019627 -514592.000000 0 0 1
-16.279392 -25.309565 -17.250821 34.686936 0.999208 2.091314 0.067436 -0.011850 600596.000000 0 0 1
-17.672192 -25.323235 -16.929621 35.216256 0.961505 2.072287 0.073378 -0.014774 780063.000000 0 0 1
-18.651292 -26.040725 -17.879821 36.683485 0.949257 2.079915 0.057097 -0.012431 -849268.000000 0 0 1
-18.529692 -27.462005 -18.072721 37.737706 0.977226 2.070202 0.052943 -0.022359 -183522.000000 0 0 1
-18.855992 -28.301745 -16.965721 38.004906 0.983083 2.033544 0.058707 -0.032460 68091.900000 0 0 1
-20.355892 -28.758495 -16.888021 39.071967 0.954840 2.017759 0.053529 -0.024202 831010.000000 0 0 1
-20.714692 -29.897575 -17.744921 40.470306 0.964882 2.024689 0.032751 -0.025406 83957.800000 0 0 1
-21.967392 -30.461785 -17.400421 41.391561 0.946019 2.004667 0.035797 -0.019670 49041.300000 0 0 1
-22.507592 -31.375585 -18.479521 42.807847 0.948514 2.017157 0.021180 -0.020641 -211792.000000 0 0 1
-21.828792 -32.591225 -18.663821 43.439870 0.980645 2.014898 0.018354 -0.027397 14853.700000 0 0 1
-22.505292 -33.378875 -19.636821 44.791095 0.977571 2.024624 0.018269 -0.007408 145950.000000 0 0 1
-22.041292 33.909959 -19.585721 44.936670 -0.994425 2.021781 0.007187 -0.008035 -67878.600000 0 0 1
-22.355992 33.188112 -18.429721 44.055599 -0.977999 2.002401 0.019353 -0.010099 99295.000000 0 0 1
-21.522692 32.041995 -18.244821 42.694135 -0.979315 2.012343 0.010700 -0.010356 -89070.300000 0 0 1
-22.326692 30.748135 -18.046421 42.066641 -0.942757 2.014177 0.016928 -0.010403 147936.000000 0 0 1
-23.074492 30.648605 -16.828621 41.892382 -0.925459 1.984181 0.013252 -0.015143 67071.300000 0 0 1
-23.812192 29.439855 -16.778121 41.415346 -0.890687 1.987905 0.022496 -0.009952 -427466.000000 0 0 1
-23.070892 28.120875 -16.619221 39.990601 -0.883728 1.999375 0.019432 -0.012560 -462671.000000 0 0 1
-22.332992 27.722975 -17.756321 39.782066 -0.892664 2.033467 0.008853 -0.008490 70321.600000 0 0 1
-21.668492 26.495505 -17.466621 38.426790 -0.885285 2.042655 0.017250 -0.005293 372707.000000 0 0 1
-20.732892 25.999215 -18.628921 38.116252 -0.897616 2.081441 0.025982 -0.004729 -708159.000000 0 0 1
-20.521592 24.628045 -18.403121 36.964188 -0.876101 2.091930 0.036819 -0.014978 68991.100000 0 0 1
-19.924492 23.917595 -19.491721 36.728244 -0.876227 2.130224 0.039421 -0.009501 -142066.000000 0 0 1
-18.481392 24.337485 -19.791221 36.408343 -0.921319 2.145505 0.031753 -0.011339 -1068810.000000 0 0 1
-17.447192 23.865375 -18.902221 35.089237 -0.939523 2.139678 0.044550 -0.010368 -199241.000000 0 0 1
-16.474292 24.846145 -18.889821 35.292471 -0.985300 2.135584 0.059096 -0.015691 -966005.000000 0 0 1
-16.594892 26.064015 -17.979721 35.749037 -1.003830 2.097796 0.048858 -0.023008 -672885.000000 0 0 1
-17.486592 27.067655 -18.381221 37.098627 -0.997215 2.089171 0.028173 -0.014390 -360200.000000 0 0 1
-17.386692 28.207965 -17.516921 37.481047 -1.018423 2.057092 0.031931 -0.020106 -253733.000000 0 0 1
-18.407792 29.326175 -17.771221 38.918988 -1.010264 2.044990 0.011767 -0.013715 -115668.000000 0 0 1
-18.275092 30.116925 -18.950021 40.001393 -1.025388 2.064322 0.004958 -0.019200 110549.000000 0 0 1
-18.801292 29.452215 -20.129821 40.325317 -1.002643 2.093455 0.007910 -0.011612 1706.550000 0 0 1
-18.932492 30.468935 -21.268921 41.703264 -1.014811 2.105988 0.021359 -0.011824 566769.000000 0 0 1
-20.219192 31.075285 -21.436621 42.825434 -0.993963 2.095040 0.013321 -0.001934 445453.000000 0 0 1
-20.506392 31.042405 -22.836821 43.653905 -0.987010 2.121320 0.019137 -0.003324 -239727.000000 0 0 1
-20.988892 32.393805 -23.306321 45.089653 -0.995878 2.114009 0.015080 -0.004292 -532075.000000 0 0 1
-20.009392 33.388311 -23.233421 45.331522 -1.030897 2.108916 -0.007470 -0.000912 -30632.000000 0 0 1
-20.374192 -34.171996 -23.995321 46.460827 1.033157 2.113512 0.005427 -0.001303 421269.000000 0 0 1
-19.189892 -33.137765 -23.878521 45.128120 1.045890 2.128368 0.011330 -0.005027 540541.000000 0 0 1
-19.158192 -32.341055 -22.698121 43.911102 1.035999 2.114035 0.007712 -0.013822 -33067.300000 0 0 1
-18.612692 -33.044125 -21.634021 43.662082 1.057824 2.089192 0.009983 -0.024652 -548863.000000 0 0 1
-18.525292 -32.098715 -20.338921 42.275119 1.047359 2.072715 0.029925 -0.033053 -443946.000000 0 0 1
-17.632392 -31.041705 -20.553621 41.193932 1.054222 2.093181 0.043132 -0.031462 -4560.220000 0 0 1
-17.321892 -30.192515 -19.413321 39.856153 1.049928 2.079545 0.042304 -0.031891 -811128.000000 0 0 1
-16.115592 -29.323205 -19.628521 38.792287 1.068272 2.101326 0.060389 -0.030779 -118124.000000 0 0 1
-14.889592 -30.048715 -19.744221 38.916057 1.110743 2.102908 0.066242 -0.036760 -278686.000000 0 0 1
-13.835192 -29.193085 -20.066921 38.030646 1.128229 2.126630 0.052831 -0.037000 -72908.700000 0 0 1
-12.547892 -30.060685 -20.347221 38.407080 1.175365 2.129135 0.097247 -0.037901 758016.000000 0 0 1
-11.843292 -30.727575 -19.287021 38.163289 1.202914 2.100620 0.093142 -0.035900 360244.000000 0 0 1
-11.115192 -29.848155 -18.438421 36.802652 1.214315 2.095559 0.066350 -0.026322 -388674.000000 0 0 1
-10.433392 -30.617235 -17.278221 36.671619 1.242369 2.061402 0.060877 -0.014459 51590.500000 0 0 1
-11.276292 -31.254785 -16.320121 37.018410 1.224545 2.027358 0.089658 -0.029145 -59941.300000 0 0 1
-11.758792 -32.534375 -16.669921 38.401055 1.223978 2.019836 0.099708 -0.026994 64614.100000 0 0 1
-12.657792 -33.135595 -15.598621 38.749250 1.205903 1.985100 0.101083 -0.035213 446550.000000 0 0 1
-11.848892 -33.592895 -14.478921 38.451502 1.231700 1.956866 0.104874 -0.037474 319453.000000 0 0 1
-12.738692 -33.905345 -13.429021 38.628815 1.211400 1.925852 0.104082 -0.037095 -180862.000000 0 0 1
-12.168392 -34.220260 -12.059221 38.269058 1.229150 1.891376 0.091743 -0.027101 67698.500000 0 0 1
-11.587792 -33.036965 -11.391721 36.816970 1.233451 1.885374 0.079371 -0.019479 272361.000000 0 0 1
-11.384892 -33.444935 -10.080821 36.739657 1.242693 1.848747 0.082300 -0.019114 -1020620.000000 0 0 1
-10.102392 -32.831345 -9.598321 35.666277 1.272285 1.843270 0.061248 -0.019881 -1201230.000000 0 0 1
-8.988792 -33.500825 -10.089421 36.123401 1.308655 1.853866 0.035137 -0.013510 -433338.000000 0 0 1
-7.791992 -32.729645 -9.874921 35.063640 1.337076 1.856287 0.020837 -0.016962 1150940.000000 0 0 1
-6.581092 -33.483895 -10.551321 35.718516 1.376725 1.870673 0.006277 -0.018605 548321.000000 0 0 1
-6.240892 34.056873 -9.847221 35.997043 -1.389558 1.847885 -0.002322 -0.002983 -168403.000000 0 0 1
-5.019492 33.546332 -10.347721 35.463037 -1.422270 1.866893 -0.006872 0.005031 154359.000000 0 0 1
-4.491892 32.430415 -9.420821 34.068472 -1.433163 1.850974 -0.012542 0.001069 -387527.000000 0 0 1
-4.002992 33.038066 -8.230621 34.282370 -1.450221 1.813248 -0.003718 0.000312 -11761.100000 0 0 1
-3.425292 32.102975 -7.344721 33.110098 -1.464501 1.794484 0.000839 -0.009932 -181152.000000 0 0 1
-3.078292 32.779261 -5.967121 33.459862 -1.477161 1.750092 0.005972 -0.007581 -48276.000000 0 0 1
-2.090092 33.806100 -6.046821 34.406176 -1.509049 1.747462 0.000852 -0.005200 70322.600000 0 0 1
-1.813792 -34.349440 -4.794121 34.729778 1.518041 1.709279 0.008506 -0.011867 234138.000000 0 0 1
-0.794792 33.591556 -3.884421 33.824741 -1.547140 1.685890 0.023734 -0.016688 -394985.000000 0 0 1
0.555708 33.733792 -4.221621 34.001465 1.554324 1.695278 0.029525 -0.022439 -686657.000000 0 0 1
1.306508 32.802554 -3.473621 33.011825 1.530988 1.676215 0.033028 -0.021509 709059.000000 0 0 1
2.810108 32.847441 -3.935221 33.201462 1.485454 1.689601 0.050311 -0.017621 984802.000000 0 0 1
3.522708 33.974219 -3.345521 34.319813 1.467478 1.668432 0.050442 -0.015691 1269480.000000 0 0 1
4.879908 33.967681 -3.881221 34.535210 1.428109 1.683419 0.061754 -0.007337 1369240.000000 0 0 1
5.613008 -33.440725 -3.497121 34.088383 -1.404497 1.673567 0.067935 -0.009019 74996.800000 0 0 1
5.303308 -32.340955 -4.355421 33.061037 -1.408262 1.702919 0.065001 -0.012836 -77861.000000 0 0 1
5.716108 -31.087695 -3.850421 31.842494 -1.388957 1.692014 0.071465 -0.016561 21153.500000 0 0 1
5.636008 -29.945205 -4.837121 30.852514 -1.384762 1.728228 0.053400 -0.018097 -202382.000000 0 0 1
6.696708 -29.888585 -5.774821 31.169247 -1.350381 1.757146 0.072119 -0.017714 -39568.100000 0 0 1
6.732608 -28.693935 -6.569621 30.196521 -1.340330 1.790112 0.055491 -0.010525 245257.000000 0 0 1
7.316108 -27.418355 -5.917721 28.988119 -1.310039 1.776384 0.060011 -0.014554 653448.000000 0 0 1
6.377508 -26.928635 -4.957321 28.114036 -1.338251 1.748052 0.054561 -0.021834 417612.000000 0 0 1
6.963908 -25.725875 -4.461621 27.022634 -1.306435 1.736663 0.044498 -0.016804 158012.000000 0 0 1
6.177108 -25.022205 -3.359021 25.991353 -1.328770 1.700395 0.040590 -0.022749 274361.000000 0 0 1
4.932708 -24.435305 -3.696421 25.200779 -1.371605 1.718006 0.033119 -0.024203 58924.100000 0 0 1
4.207608 -23.987405 -2.564521 24.488290 -1.397154 1.675713 0.029303 -0.019820 179309.000000 0 1 0
2.908608 -23.244605 -2.993521 23.616368 -1.446313 1.697894 0.022883 -0.017242 61878.000000 0 1 0
1.873308 -24.193305 -3.044921 24.456019 -1.493520 1.695626 0.024516 -0.010451 -630455.000000 0 1 0
0.712608 -23.606905 -3.622721 23.893888 -1.540619 1.723000 0.016429 -0.010350 335870.000000 0 1 0
-15.205992 22.716495 18.048383 32.756762 -0.980917 0.987256 0.003940 -0.010656 -280027.000000 0 0 1
-15.530392 22.385995 19.310483 33.394919 -0.964274 0.954219 0.023598 -0.015254 69589.000000 0 0 1
-15.166692 23.449895 20.199283 34.466464 -0.996695 0.944613 0.019590 -0.010988 -706274.000000 0 0 1
-15.280492 23.044795 21.720483 35.161561 -0.985282 0.904939 0.018813 -0.013554 25167.700000 0 0 1
-14.362492 22.088895 22.282483 34.506659 -0.994271 0.868798 0.006676 -0.010167 -222630.000000 0 0 1
-12.993992 22.285095 22.352483 34.133602 -1.042911 0.856809 0.009071 -0.013566 -622917.000000 0 0 1
-12.478692 23.448995 23.210683 35.274763 -1.081750 0.852641 0.015197 -0.003040 -755296.000000 0 0 1
-12.495492 23.188795 24.596623 36.039581 -1.076547 0.819633 0.014921 -0.001222 -18323.500000 0 0 1
-11.993992 24.240895 25.394423 37.099239 -1.111331 0.816879 0.036644 -0.001490 18499.600000 0 0 1
-11.473292 23.740295 26.794273 37.592168 -1.120611 0.777368 0.032483 -0.004961 417419.000000 0 0 1
-10.114092 23.336595 26.686373 36.865350 -1.161832 0.761376 0.010664 -0.009264 102323.000000 0 0 1
-9.679392 22.644895 27.852393 37.178457 -1.166859 0.724012 0.008612 -0.006612 -301983.000000 0 0 1
-8.177492 22.283595 27.863053 36.603001 -1.219081 0.705599 0.002249 -0.013302 355181.000000 0 0 1
-7.157592 23.178895 28.238863 37.228023 -1.271288 0.709730 0.006841 -0.011858 126139.000000 0 0 1
-7.065592 24.393595 27.482173 37.419780 -1.288862 0.745971 0.012907 -0.011189 -283035.000000 0 0 1
-5.996692 25.320095 28.181593 38.357134 -1.338246 0.745549 0.027066 -0.019014 1465190.000000 0 0 1
-4.645892 24.884595 27.900803 37.673362 -1.386224 0.736837 0.027212 -0.017708 -77768.600000 0 0 1
-3.726792 25.665995 28.563203 38.580939 -1.426601 0.737213 0.038547 -0.014248 -671622.000000 0 0 1
-2.344692 25.028595 28.384073 37.915482 -1.477388 0.724827 0.038569 -0.015100 -562893.000000 0 0 1
-1.766692 25.130995 27.120063 37.016023 -1.500612 0.748578 0.044564 -0.014218 709309.000000 0 0 1
-0.360392 24.821995 27.184913 36.814139 -1.556278 0.740047 0.052446 -0.006289 1161690.000000 0 0 1
0.278108 24.502695 25.831483 35.605125 1.559447 0.759037 0.043972 -0.015552 -221877.000000 0 0 1
-0.218492 23.291595 25.267823 34.365812 -1.561416 0.744745 0.046654 -0.005079 197944.000000 0 0 1
0.279708 23.128295 23.910963 33.267558 1.558703 0.768798 0.041111 0.002843 122445.000000 0 0 1
-0.188592 21.814495 23.248383 31.880952 -1.562151 0.753608 0.026061 0.006662 202658.000000 0 0 1
0.550508 20.616495 23.552243 31.305768 1.544100 0.719206 0.035338 0.008931 -39297.000000 0 0 1
0.079808 19.493795 22.870983 30.051560 1.566702 0.705854 0.023796 0.013255 44113.300000 0 0 1
1.050708 18.269095 22.981183 29.376838 1.513347 0.672464 0.025412 0.008505 284521.000000 0 0 1
2.268908 18.543295 22.314583 29.102274 1.449044 0.697011 0.018865 0.007439 -145764.000000 0 0 1
3.059008 17.359895 22.157183 28.313676 1.396376 0.672027 0.004434 0.003457 -749650.000000 0 0 1
4.398708 17.730295 21.571383 28.267235 1.327616 0.702664 0.013075 -0.000072 -1299970.000000 0 0 1
5.184408 18.468295 22.440683 29.521861 1.297121 0.707271 0.012511 -0.000792 -910744.000000 0 0 1
6.319308 18.899395 21.718883 29.475934 1.248117 0.742420 0.040228 -0.016700 -676724.000000 0 0 1
7.329708 19.651195 22.541483 30.789812 1.213789 0.749384 0.039532 -0.020422 -800948.000000 0 0 1
6.875508 20.800595 23.278283 31.965854 1.251558 0.755070 0.015341 -0.008961 -29559.400000 0 0 1
6.746608 21.975395 22.542883 32.196526 1.272923 0.795168 0.032731 -0.017739 -544249.000000 0 0 1
5.607308 22.855695 23.011383 32.914259 1.330213 0.796615 0.011228 -0.008932 -416300.000000 0 0 1
5.576208 24.128795 22.435083 33.415951 1.343682 0.834716 0.009045 -0.016948 -382349.000000 0 0 1
4.466908 24.786195 22.948783 34.072795 1.392493 0.831833 0.007049 -0.002168 -678262.000000 0 0 1
4.365108 26.141395 22.195983 34.570050 1.405342 0.873616 0.019283 -0.008929 -42535.400000 0 0 1
4.072008 26.200795 20.798083 33.699008 1.416614 0.905653 0.028936 -0.010053 455303.000000 0 0 1
2.941208 25.413595 20.369283 32.701823 1.455575 0.898379 0.037368 -0.008490 132220.000000 0 0 1
2.419208 25.920795 19.028583 32.246351 1.477735 0.939613 0.040988 -0.015513 -336255.000000 0 0 1
1.553808 27.036995 19.096983 33.137715 1.513390 0.956613 0.044631 -0.022946 306737.000000 0 0 1
1.061008 27.442795 17.809883 32.732624 1.532153 0.995478 0.047713 -0.012160 465459.000000 0 0 1
-0.016092 28.544295 17.921783 33.704115 -1.570233 1.010144 0.033035 -0.002913 569800.000000 0 0 1
0.664708 29.728995 18.357183 34.946261 1.548441 1.017732 0.040419 -0.003230 527999.000000 0 0 1
-0.330192 30.696495 18.596283 35.891581 -1.560040 1.026140 0.026964 -0.001755 -107112.000000 0 0 1
0.104508 32.066795 19.125883 37.337510 1.567537 1.033002 0.023361 0.004491 -357890.000000 0 0 1
0.541308 31.846495 20.424683 37.837282 1.553801 1.000593 0.033800 -0.005765 -262920.000000 0 0 1
0.895208 33.053795 21.057183 39.201527 1.543720 1.003739 0.032564 -0.006794 -324384.000000 0 0 1
1.341008 32.881295 22.452583 39.838378 1.530036 0.972069 0.043034 -0.018902 248527.000000 0 0 1
0.401108 32.317495 23.387983 39.894600 1.558385 0.944381 0.050270 -0.014249 669984.000000 0 0 1
0.952708 32.595495 24.656383 40.881673 1.541576 0.923395 0.059319 -0.019537 128344.000000 0 0 1
-0.044792 32.069395 25.698733 41.095900 -1.569400 0.895235 0.066674 -0.023044 73311.900000 0 0 1
-1.132292 32.957595 25.907273 41.936523 -1.536454 0.904888 0.066257 -0.019137 487534.000000 0 0 1
-2.026892 32.634795 26.986433 42.395822 -1.508768 0.880799 0.077365 -0.022344 478042.000000 0 0 1
-1.492392 33.081695 28.413043 43.634010 -1.525715 0.861675 0.093159 -0.026615 -407302.000000 0 0 1
-0.366592 32.327795 28.780243 43.284213 -1.559457 0.843419 0.090276 -0.019917 203884.000000 0 0 1
0.323008 33.097495 29.797043 44.535517 1.561037 0.837850 0.086622 -0.023175 -100497.000000 0 0 1
1.412308 32.291095 30.617263 44.521076 1.527087 0.812476 0.065784 -0.012648 520595.000000 0 0 1
2.730808 32.247395 30.134903 44.220631 1.486315 0.821031 0.044283 -0.011402 -104215.000000 0 0 1
2.962708 31.803095 28.855693 43.044924 1.477907 0.836099 0.036648 -0.011531 -763977.000000 0 0 1
4.450608 31.547395 28.527973 42.765539 1.430644 0.840516 0.006681 -0.007182 406517.000000 0 0 1
5.141108 30.548095 29.273413 42.621002 1.404063 0.813677 0.009154 -0.008696 547077.000000 0 0 1
6.522508 30.382295 28.975563 42.487765 1.359325 0.820338 -0.000562 -0.010798 461613.000000 0 0 1
7.185608 29.265495 29.779173 42.366276 1.330027 0.791333 -0.016012 -0.003362 -135476.000000 0 0 1
7.409508 29.563695 31.166823 43.592244 1.325226 0.774226 -0.005559 -0.007421 92732.300000 0 0 1
7.873908 28.444195 31.911613 43.467479 1.300739 0.746384 -0.009072 -0.002983 -122288.000000 0 0 1
7.807608 28.665695 33.427578 44.722296 1.304879 0.726585 0.010992 -0.032262 -12255.100000 0 0 1
6.445508 28.785295 33.872776 44.916620 1.350513 0.716475 0.028661 -0.029766 505660.000000 0 0 1
6.321208 28.550695 -33.379671 44.376821 1.352908 2.422171 0.047403 -0.033895 -139806.000000 0 0 1
6.301508 27.054195 -33.006521 43.140107 1.341955 2.441994 0.048173 -0.028027 -179915.000000 0 0 1
7.511908 26.387095 -33.317241 43.159542 1.293452 2.452708 0.029068 -0.027339 10618.900000 0 0 1
7.509808 24.990695 -33.101061 42.149878 1.278877 2.474006 0.042589 -0.025527 144343.000000 0 0 1
8.836008 24.227995 -33.381611 42.182967 1.221084 2.483815 0.031401 -0.017868 -157428.000000 0 0 1
9.148608 24.218695 33.832858 42.601696 1.209617 0.653161 0.005379 -0.001703 -377514.000000 0 0 1
10.426608 23.724295 33.597698 42.430668 1.156716 0.657004 0.012607 -0.017412 -757058.000000 0 0 1
10.575908 22.171895 33.770716 41.760077 1.125721 0.628884 0.022009 -0.018763 -1119620.000000 0 0 1
9.895308 21.345795 32.862187 40.416376 1.136714 0.621354 0.013358 -0.011493 48131.000000 0 0 1
9.506608 20.071395 33.295935 40.023191 1.128459 0.588245 0.013416 -0.010440 620580.000000 0 0 1
8.356108 19.966695 -34.248973 40.515251 1.174442 2.577989 0.033432 -0.015869 174845.000000 0 0 1
8.751308 20.556795 -33.059341 39.900967 1.168321 2.547282 0.046293 -0.018090 220541.000000 0 0 1
7.656608 20.623795 -32.140811 38.948636 1.215316 2.541371 0.051480 -0.020257 213857.000000 0 0 1
7.894908 21.276295 -30.723701 38.196283 1.215479 2.505400 0.062024 -0.033707 -647243.000000 0 0 1
8.226808 22.656395 -30.848811 39.148968 1.222489 2.478326 0.074206 -0.027998 92667.600000 0 0 1
8.442608 23.238095 -29.560131 38.536839 1.222315 2.445045 0.055488 -0.024185 185788.000000 0 0 1
9.931608 23.157595 -29.130831 38.516442 1.165652 2.428469 0.048827 -0.026384 5757.070000 0 0 1
10.289308 21.860895 -28.738881 37.545863 1.130885 2.442512 0.041566 -0.022881 39479.900000 0 0 1
11.678508 21.897495 -28.405911 37.719804 1.080845 2.423523 0.037148 -0.022646 540749.000000 0 0 1
12.176908 20.430895 -28.341331 36.999048 1.033320 2.443394 0.045503 -0.027034 -218770.000000 0 0 1
12.226708 19.703695 -29.607741 37.607795 1.015419 2.477176 0.038477 -0.035739 1002090.000000 0 0 1
10.938608 19.359295 -30.170301 37.479094 1.056486 2.506455 0.052848 -0.028380 373275.000000 0 0 1
11.116808 18.659795 -31.542381 38.297430 1.033498 2.538554 0.049846 -0.029384 -429816.000000 0 0 1
11.595708 17.352295 -31.339591 37.652789 0.981697 2.554097 0.052495 -0.026322 140902.000000 0 0 1
11.474808 16.524995 -32.507931 38.229729 0.963845 2.587411 0.049646 -0.017535 -214134.000000 0 0 1
12.643008 16.614695 -33.518531 39.489057 0.920322 2.584518 0.043257 -0.002459 -175879.000000 0 0 1
12.647108 17.853495 -34.217658 40.614587 0.954466 2.572698 0.051620 -0.005513 -104124.000000 0 0 1
13.278608 17.887795 33.148036 39.938540 0.932224 0.591731 0.058963 -0.010439 -137862.000000 0 0 1
12.574208 17.204095 31.955283 38.408745 0.939642 0.588130 0.069271 -0.018736 -722432.000000 0 0 1
13.003608 17.794495 30.738253 37.822984 0.939719 0.622047 0.053071 -0.012263 -175773.000000 0 0 1
12.275408 17.428195 29.611633 36.486661 0.957162 0.623955 0.045983 -0.011072 1424240.000000 0 0 1
10.757808 17.953395 29.512473 36.180670 1.030960 0.616863 0.028513 -0.009889 1714600.000000 0 0 1
9.946108 17.297595 30.479963 36.430207 1.048962 0.579626 0.035861 -0.008249 -393362.000000 0 0 1
8.638308 17.815695 30.602873 36.449351 1.119325 0.574250 0.029968 -0.010874 110534.000000 0 0 1
7.860608 16.922495 31.601043 36.698582 1.135945 0.533373 0.038476 -0.004498 -117261.000000 0 0 1
8.236308 16.958095 32.961282 37.971830 1.118665 0.519544 0.052657 0.001368 -137352.000000 0 0 1
7.471608 16.014095 33.608194 37.970869 1.134253 0.484077 0.064287 -0.006562 -321450.000000 0 0 1
7.640408 16.067995 -33.458631 37.895069 1.126936 2.652859 0.065749 -0.015962 -87919.800000 0 0 1
6.728808 16.994695 -32.892451 37.629906 1.193798 2.634384 0.071407 -0.022239 221822.000000 0 0 1
6.723008 16.976995 -31.476151 36.389081 1.193737 2.615925 0.069095 -0.032197 153433.000000 0 0 1
5.569808 17.808295 -30.821031 36.029072 1.267670 2.597213 0.075699 -0.038485 -459038.000000 0 0 1
5.804008 18.080395 -29.426331 35.021366 1.260176 2.568521 0.067785 -0.042750 543092.000000 0 0 1
4.926508 19.108995 -28.927701 35.017653 1.318480 2.542928 0.074950 -0.041893 1181680.000000 0 0 1
3.397008 18.773895 -28.860121 34.596320 1.391790 2.557470 0.088211 -0.048175 -810051.000000 0 0 1
2.975808 17.814195 -27.856021 33.198778 1.405278 2.566363 0.092853 -0.044490 210670.000000 0 0 1
1.618508 17.482995 -28.033791 33.078212 1.478483 2.582054 0.084527 -0.045555 -244670.000000 0 0 1
0.494208 18.476895 -27.810871 33.392879 1.544055 2.555012 0.084164 -0.047413 -1302390.000000 0 0 1
0.242208 18.886095 -26.490531 32.534465 1.557972 2.522198 0.080136 -0.043828 -453047.000000 0 0 1
-0.515792 20.036795 -26.471381 33.203511 -1.545060 2.493516 0.087905 -0.038772 -669815.000000 0 0 1
-0.878492 20.574595 -25.076321 32.448537 -1.528124 2.454042 0.075986 -0.039132 76285.200000 0 0 1
-1.900392 19.905495 -24.373421 31.526240 -1.475614 2.454535 0.070392 -0.034263 -5133.720000 0 0 1
-2.316692 20.631895 -23.203621 31.135994 -1.458978 2.411683 0.077560 -0.025848 -179747.000000 0 0 1
-3.283692 19.789695 -22.362721 30.041736 -1.406365 2.410415 0.067280 -0.031861 -1023200.000000 0 0 1
-4.546792 19.792695 -22.912321 30.616964 -1.344993 2.416373 0.052734 -0.022466 -1047080.000000 0 0 1
-5.334392 18.709995 -22.435021 29.695956 -1.293056 2.427199 0.032142 -0.022503 -484770.000000 0 0 1
-6.855092 18.883695 -22.372321 30.068371 -1.222573 2.409906 0.058936 -0.014799 -200132.000000 0 0 1
-7.336492 19.827295 -21.454621 30.120532 -1.216399 2.363555 0.028832 -0.009610 91169.100000 0 0 1
-7.194892 21.174495 -22.000221 31.370932 -1.243246 2.348006 0.025487 -0.009251 -476236.000000 0 0 1
-7.677492 22.183995 -20.955721 31.467693 -1.237616 2.299555 0.041066 -0.026046 110493.000000 0 0 1
-6.868392 22.242095 -19.793221 30.555804 -1.271284 2.275454 0.043328 -0.021997 171184.000000 0 0 1
-7.316792 23.293195 -18.950621 30.906866 -1.266439 2.230841 0.053696 -0.023253 260366.000000 0 0 1
-6.449192 23.394095 -17.647921 30.005413 -1.301802 2.199576 0.050754 -0.024181 -315340.000000 0 0 1
-5.178192 23.924495 -17.808421 30.271025 -1.357645 2.199750 0.045718 -0.020398 -919164.000000 0 0 1
-4.551492 23.955295 -16.516721 29.451219 -1.383035 2.166168 0.055121 -0.016411 280345.000000 0 0 1
-3.049992 24.306495 -16.459821 29.513282 -1.445968 2.162419 0.052446 -0.018316 208904.000000 0 0 1
-2.787992 25.709895 -16.656621 30.760601 -1.462778 2.143007 0.030788 -0.017993 178166.000000 0 0 1
-1.641092 25.898695 -17.490121 31.294407 -1.507515 2.163843 0.029790 -0.016288 436906.000000 0 0 1
-1.065392 27.335695 -17.377321 32.409050 -1.531842 2.136710 0.016085 -0.026201 -278470.000000 0 0 1
-1.970592 28.362895 -17.641021 33.459567 -1.501430 2.126138 0.028578 -0.024742 -175853.000000 0 0 1
-1.614992 28.928595 -18.904821 34.595723 -1.515027 2.148915 0.034979 -0.034487 141549.000000 0 0 1
-2.829092 29.461195 -19.738721 35.575031 -1.475062 2.158976 0.059991 -0.029942 548054.000000 0 0 1
-3.472792 30.611295 -19.156821 36.278029 -1.457831 2.127106 0.046645 -0.022101 444555.000000 0 0 1
-4.728292 30.231695 -18.565721 35.791034 -1.415651 2.116156 0.036083 -0.024875 374739.000000 0 0 1
-5.330192 31.323595 -17.702721 36.372584 -1.402245 2.079110 0.065592 -0.018610 -241686.000000 0 0 1
-5.893592 32.357895 -18.478821 37.725781 -1.390634 2.082679 0.096476 -0.025800 -11743.800000 0 0 1
-5.952592 33.629795 -17.774221 38.500901 -1.395607 2.050659 0.088222 -0.037341 46121.900000 0 0 1
-6.623092 -33.916026 -18.591221 39.240230 1.377944 2.064374 0.089551 -0.028431 149391.000000 0 0 1
-8.026792 -33.950726 -18.493221 39.485192 1.338635 2.058228 0.102406 -0.034305 -274202.000000 0 0 1
-8.633592 -33.062126 -19.388721 39.288237 1.315368 2.086905 0.140438 -0.044938 -139360.000000 0 0 1
29.363708 -20.497705 -26.670351 44.650766 -0.609424 2.210939 0.028199 -0.007206 59853.900000 0 0 1
28.901608 -21.690105 -26.049431 44.545892 -0.643809 2.195402 0.031081 -0.013037 -800131.000000 0 0 1
27.565608 -21.860005 -26.405711 43.988455 -0.670469 2.214657 0.023180 -0.008979 -465084.000000 0 0 1
26.990008 -23.275005 -25.982171 44.105097 -0.711624 2.200737 0.014471 0.001086 124738.000000 0 0 1
27.479708 -24.400805 -26.661771 45.402463 -0.726122 2.198431 0.003775 0.009453 89319.100000 0 0 1
28.850408 -24.658105 -26.359991 46.208412 -0.707210 2.177861 0.005634 0.007654 61362.500000 0 0 1
29.350708 -26.022895 -26.863311 47.542535 -0.725373 2.171275 0.008791 0.004036 -164611.000000 0 0 1
28.759308 -27.072785 -26.160871 47.375359 -0.755200 2.155802 0.018756 -0.002849 -419607.000000 0 0 1
29.089108 -28.322865 -26.747881 48.619030 -0.772053 2.153343 0.010761 -0.000554 -340418.000000 0 0 1
27.967008 -28.977735 -27.554741 48.796787 -0.803146 2.170846 0.015992 -0.005925 -611134.000000 0 0 1
27.618608 -28.397195 -28.815351 48.984821 -0.799297 2.199690 0.011915 -0.008216 -432615.000000 0 0 1
28.493408 -28.519415 -29.895651 50.189454 -0.785854 2.208878 0.004313 -0.007993 -807338.000000 0 0 1
28.537808 -29.937825 -30.632101 51.468490 -0.809335 2.208264 0.021037 -0.002399 -47475.200000 0 0 1
29.179508 -30.936595 -29.783931 51.919160 -0.814618 2.181763 0.021299 -0.007347 851718.000000 0 0 1
30.553308 -30.842145 -29.392191 52.427506 -0.790103 2.165937 0.016517 -0.011351 1239110.000000 0 0 1
31.692708 -30.668065 -30.473131 53.605687 -0.768969 2.175439 0.016921 -0.010223 264999.000000 0 0 1
31.673708 -29.385745 -31.103421 53.236910 -0.747945 2.194746 0.010628 -0.015237 785784.000000 0 0 1
32.936808 -29.145065 -31.781041 54.261429 -0.724397 2.196543 0.026079 -0.013165 940001.000000 0 0 1
33.015708 -27.740615 -32.255261 53.851468 -0.698792 2.213007 0.010907 -0.007597 -104984.000000 0 0 1
32.952508 -26.744465 -31.252421 52.705294 -0.681778 2.205533 -0.011796 0.004012 690262.000000 0 0 1
31.657108 -26.499825 -30.642241 51.413618 -0.696951 2.209300 0.000604 0.001544 775222.000000 0 0 1
31.518108 -25.038405 -29.993451 50.198804 -0.671325 2.211168 -0.010340 0.002631 -458259.000000 0 0 1
32.305508 -24.851205 -28.829921 49.923868 -0.655711 2.186432 -0.002714 0.005538 271942.000000 0 0 1
32.296208 -23.501505 -28.425711 49.024349 -0.629067 2.189314 -0.007829 0.007007 -563799.000000 0 0 1
33.110008 -23.374405 -27.174521 48.796414 -0.614716 2.161440 -0.008040 0.002764 -540412.000000 0 0 1
32.495508 -23.968905 -26.045431 48.050296 -0.635522 2.143665 -0.007443 -0.000167 233211.000000 0 0 1
31.729208 -23.156005 -25.165261 46.650119 -0.630448 2.140576 0.007370 0.000692 -397136.000000 0 0 1
32.483908 -22.043305 -24.382021 46.212493 -0.596213 2.126577 0.021459 0.007235 -74419.100000 0 0 1
32.756508 -20.838605 -25.066721 46.212301 -0.566589 2.144118 0.015457 -0.003376 13613.900000 0 0 1
32.995708 -19.856605 -24.100021 45.429203 -0.541737 2.129982 0.007236 -0.010729 10153.800000 0 0 1
33.068808 -18.526305 -24.803421 45.298783 -0.510667 2.150232 -0.004819 -0.014982 -766781.000000 0 0 1
31.795908 -18.175205 -25.219451 44.467275 -0.519291 2.173833 0.011321 -0.007179 -651329.000000 0 0 1
31.766508 -17.074005 -26.162951 44.554828 -0.493184 2.198401 0.010373 0.004086 -633078.000000 0 0 1
30.831108 -17.172905 -27.342551 44.643936 -0.508201 2.229963 0.001256 0.010359 -415148.000000 0 0 1
29.469108 -17.064905 -26.974281 43.442504 -0.524893 2.240711 0.012632 0.000874 -211766.000000 0 0 1
28.634908 -17.145005 -28.110641 43.636192 -0.539496 2.270779 0.009223 -0.010462 748789.000000 0 0 1
27.217308 -16.551205 -27.696121 42.211365 -0.546364 2.286475 0.011052 -0.006553 1001190.000000 0 0 1
26.371808 -17.435705 -26.993061 41.570439 -0.584173 2.277503 0.023626 -0.002276 28297.200000 0 0 1
26.660708 -17.451605 -25.597701 40.872903 -0.579589 2.247563 0.026904 0.001690 -248639.000000 0 0 1
25.653008 -18.267905 -24.742421 40.049726 -0.618811 2.236729 0.022424 0.007372 -65161.300000 0 0 1
25.768208 -17.918705 -23.362021 39.126264 -0.607619 2.210669 0.024634 0.014662 37030.400000 0 0 1
24.917008 -18.737505 -22.581421 38.495090 -0.644778 2.197657 0.029811 0.016272 86659.000000 0 0 1
24.747508 -18.291505 -21.109721 37.318074 -0.636505 2.172042 0.025853 0.014863 109809.000000 0 0 1
24.106808 -17.007205 -20.854921 36.129087 -0.614404 2.186133 0.024882 0.003022 374653.000000 0 0 1
24.777808 -15.858305 -21.387621 36.371087 -0.569328 2.199429 0.034033 0.004484 406940.000000 0 0 1
26.094208 -15.449505 -20.672121 36.700565 -0.534566 2.169128 0.035591 -0.000185 120872.000000 0 0 1
25.895708 -14.682805 -19.460321 35.565103 -0.515799 2.149781 0.040210 -0.011281 405683.000000 0 0 1
27.077608 -13.968205 -19.142021 35.982281 -0.476254 2.131739 0.037413 -0.010214 -140387.000000 0 0 1
26.899108 -12.937505 -17.999021 34.855499 -0.448303 2.113426 0.046941 -0.019092 -117195.000000 0 0 1
26.974108 -13.455605 -16.727921 34.474326 -0.462714 2.077421 0.033503 -0.006159 255726.000000 0 0 1
27.052608 -12.478605 -15.754421 33.701053 -0.432188 2.057229 0.022080 -0.011782 -141980.000000 0 0 1
27.639208 -12.914205 -14.422921 33.744972 -0.437100 2.012422 0.037587 -0.016322 24348.600000 0 0 1
26.830108 -13.872805 -13.717621 33.173522 -0.477203 1.997103 0.060983 -0.025074 777870.000000 0 0 1
27.462408 -14.209205 -12.483521 33.345519 -0.477475 1.954512 0.076672 -0.026491 333067.000000 0 0 1
26.883008 -15.554905 -11.932521 33.272154 -0.524547 1.937600 0.075736 -0.038433 -31395.200000 0 0 1
25.534808 -15.563605 -11.543621 32.054757 -0.547380 1.939195 0.071533 -0.041811 -186647.000000 0 0 1
25.066208 -16.863405 -11.430021 32.300690 -0.592205 1.932495 0.056045 -0.037383 -706594.000000 0 0 1
23.581108 -16.854605 -11.084321 31.032379 -0.620557 1.936049 0.066792 -0.043957 -734617.000000 0 0 1
23.387908 -16.266405 -9.841921 30.140564 -0.607703 1.903431 0.063145 -0.033434 -312527.000000 0 0 1
22.031608 -16.053005 -9.592521 28.898221 -0.629687 1.909157 0.060555 -0.028575 -692635.000000 0 0 1
21.705608 -15.666905 -8.176221 27.989926 -0.625201 1.867232 0.051195 -0.023044 -417091.000000 0 0 1
21.897608 -14.316305 -7.823721 27.307004 -0.579031 1.861378 0.058884 -0.015145 322760.000000 0 0 1
21.607708 -13.881505 -6.474121 26.485911 -0.571037 1.817735 0.046488 -0.002067 -507251.000000 0 0 1
22.436008 -14.560205 -5.320121 27.270455 -0.575648 1.767143 0.047402 -0.002436 250920.000000 0 0 1
23.818308 -14.263805 -5.302821 28.264604 -0.539580 1.759528 0.074561 -0.008022 534613.000000 0 0 1
24.548508 -15.144105 -4.422221 29.180973 -0.552757 1.722927 0.065452 -0.012628 904287.000000 0 0 1
26.090108 -14.964405 -4.679821 30.438921 -0.520756 1.725153 0.076819 -0.015205 598790.000000 0 0 1
26.631908 -13.831705 -4.039321 30.280203 -0.479020 1.704593 0.081431 -0.016622 -110015.000000 0 0 1
27.960608 -13.567805 -4.400921 31.388677 -0.451776 1.711467 0.088279 -0.027646 -106223.000000 0 0 1
28.532108 -12.323505 -3.620821 31.289940 -0.407715 1.686775 0.096719 -0.035114 -767383.000000 0 0 1
28.936008 -12.632105 -2.289821 31.656057 -0.411615 1.643194 0.102341 -0.033145 429525.000000 0 0 1
29.549908 -11.535705 -1.640421 31.764139 -0.372186 1.622463 0.098087 -0.036496 1455390.000000 0 0 1
31.041408 -11.123605 -2.047721 33.037808 -0.344092 1.632817 0.093190 -0.029758 688234.000000 0 0 1
31.137108 -10.677105 -3.386721 33.090632 -0.330341 1.673323 0.092169 -0.032652 -978711.000000 0 0 1
32.415808 -10.746405 -3.876221 34.369971 -0.320115 1.683816 0.096528 -0.035539 -1224680.000000 0 0 1
32.379508 -10.416605 -5.386321 34.437634 -0.311248 1.727849 0.097724 -0.037846 -462218.000000 0 0 1
31.604108 -11.255505 -6.181921 34.113373 -0.342135 1.753020 0.075744 -0.040509 -32109.200000 0 0 1
31.598608 -11.020005 -7.569721 34.310541 -0.335561 1.793250 0.069131 -0.039973 153063.000000 0 0 1
30.358308 -11.657805 -8.257721 33.551770 -0.366644 1.819470 0.088081 -0.032985 233895.000000 0 0 1
30.368008 -13.066905 -8.227821 34.068416 -0.406339 1.814717 0.068407 -0.031665 330098.000000 0 0 1
29.071408 -13.630405 -8.322621 33.169274 -0.438426 1.824420 0.070113 -0.030835 324209.000000 0 0 1
29.175308 -15.155905 -8.132421 33.867925 -0.479108 1.813287 0.078406 -0.030976 26884.400000 0 0 1
29.424308 -15.776105 -9.392121 34.682666 -0.492155 1.845022 0.088293 -0.039670 222640.000000 0 0 1
29.743608 -17.130805 -9.219921 35.540873 -0.522547 1.833215 0.080692 -0.038894 -113409.000000 0 0 1
29.756208 -17.935705 -10.554721 36.311480 -0.542443 1.865725 0.073977 -0.039025 -32756.600000 0 0 1
30.826608 -17.473605 -11.358921 37.210640 -0.515677 1.881008 0.071400 -0.034984 212200.000000 0 0 1
30.884708 -18.173505 -12.581521 37.979418 -0.531869 1.908448 0.048891 -0.018326 -51046.400000 0 0 1
30.329108 -17.424405 -13.787521 37.597346 -0.521467 1.946272 0.045097 -0.024892 519643.000000 0 0 1
31.207808 -16.370805 -14.229621 38.005429 -0.483113 1.954557 0.041222 -0.026669 1088040.000000 0 0 1
30.475108 -15.642305 -15.266521 37.503074 -0.474216 1.990044 0.044636 -0.029170 -55028.200000 0 0 1
31.191008 -14.488705 -15.995121 37.929480 -0.434859 2.006123 0.027479 -0.014815 -323570.000000 0 0 1
32.274208 -14.800405 -16.832021 39.293682 -0.429969 2.013478 0.008706 -0.018844 637792.000000 0 0 1
33.528408 -14.766505 -16.120621 40.025970 -0.414857 1.985320 0.015804 -0.026308 -60840.700000 0 0 1
34.614108 -15.282005 -17.078321 41.513193 -0.415760 1.994780 0.021673 -0.021591 -713441.000000 0 0 1
35.911808 -15.278605 -16.542821 42.388190 -0.402250 1.971721 0.020352 -0.022662 -353468.000000 0 0 1
-35.109499 -15.970605 -17.397421 42.313206 0.426905 1.994521 0.025577 -0.024113 -275162.000000 0 0 1
-33.633699 -16.013705 -16.948221 40.925623 0.444362 1.997775 0.029321 -0.022176 -58042.000000 0 0 1
-33.337699 -16.969405 -15.959321 40.670171 0.470834 1.974045 0.034658 -0.021811 217315.000000 0 0 1
-33.553599 -16.434105 -14.661321 40.135746 0.455444 1.944744 0.034044 -0.022944 -389418.000000 0 0 1
-32.928399 -17.272905 -13.519221 39.565162 0.483102 1.919516 0.034156 -0.021199 -229382.000000 0 0 1
-31.533899 -17.096805 -13.399521 38.291444 0.496814 1.928298 0.020458 -0.016461 -347624.000000 0 0 1
-31.185599 -17.584005 -12.136821 37.802662 0.513415 1.897642 0.025060 -0.008776 -449705.000000 0 0 1
-29.667699 -17.533705 -11.957721 36.477257 0.533778 1.904784 0.049592 -0.012211 -539045.000000 0 0 1
-29.185899 -16.270705 -11.647321 35.386616 0.508572 1.906194 0.058130 -0.024395 677949.000000 0 0 1
-27.910499 -16.162105 -10.993021 34.074273 0.524887 1.899292 0.044345 -0.020822 587682.000000 0 0 1
-27.980399 -16.086705 -9.474521 33.637053 0.521780 1.856330 0.058332 -0.018238 -96532.900000 0 0 1
-28.412999 -17.317805 -8.925621 34.451003 0.547378 1.832868 0.056025 -0.014721 -47521.800000 0 0 1
-28.783099 -17.082705 -7.582421 34.318781 0.535625 1.793575 0.062676 -0.017328 -517152.000000 0 0 1
-29.437799 -18.208405 -6.768721 35.269613 0.553939 1.763908 0.047756 -0.018635 263308.000000 0 0 1
-30.661899 -18.703605 -7.292621 36.649137 0.547736 1.771118 0.040065 -0.016313 100211.000000 0 0 1
-30.549399 -19.357605 -8.607721 37.176276 0.564795 1.804455 0.036705 -0.011334 -420774.000000 0 0 1
-31.824399 -20.088405 -9.142121 38.728733 0.563064 1.809101 0.031225 -0.010441 -170216.000000 0 0 1
-32.749899 -19.256905 -9.748921 39.222771 0.531548 1.821982 0.034708 -0.004690 -491286.000000 0 0 1
-33.854599 -20.056005 -10.096021 40.623969 0.534824 1.821952 0.030543 -0.016546 -120200.000000 0 0 1
-35.149599 -19.293405 -10.457621 41.437804 0.501994 1.825924 0.020302 -0.029124 -232290.000000 0 0 1
-35.173999 -18.898105 -11.798421 41.635938 0.493021 1.858104 0.014145 -0.026335 1107290.000000 0 0 1
35.348108 -18.770005 -12.254121 41.856485 -0.488142 1.867914 0.028577 -0.027392 1009160.000000 0 0 1
35.202308 -18.594605 -13.764021 42.123748 -0.485969 1.903661 0.030149 -0.026774 -146672.000000 0 0 1
35.498108 -19.818705 -14.473321 43.155229 -0.509196 1.912803 0.025462 -0.019630 13768.100000 0 0 1
35.025208 -19.854305 -15.793821 43.248161 -0.515694 1.944634 0.026581 -0.016849 228835.000000 0 0 1
33.719008 -20.691505 -15.870521 42.626087 -0.550392 1.952303 0.021640 -0.013247 550725.000000 0 0 1
32.662908 -20.210105 -15.020821 41.242441 -0.554091 1.943578 0.025972 -0.016517 930629.000000 0 0 1
31.482608 -21.016505 -14.996821 40.715510 -0.588620 1.948010 0.026511 -0.013600 975969.000000 0 0 1
30.372108 -20.835205 -16.057821 40.179900 -0.601267 1.981929 0.021928 -0.007419 -105019.000000 0 0 1
29.685008 -19.620205 -16.013221 39.020192 -0.584032 1.993670 0.023919 -0.005007 491590.000000 0 0 1
28.735708 -19.416405 -17.078221 38.657513 -0.594223 2.028381 0.022775 -0.003333 722706.000000 0 0 1
27.927008 -18.078705 -16.942521 37.333716 -0.574514 2.041836 0.028658 -0.006962 290635.000000 0 0 1
26.977808 -17.976005 -15.894721 36.105139 -0.587766 2.026656 0.040753 -0.012555 290476.000000 0 0 1
26.407008 -16.672305 -15.843921 35.018933 -0.563159 2.040294 0.030320 -0.014816 831898.000000 0 0 1
24.922808 -16.741205 -15.215921 33.659153 -0.591494 2.039869 0.039267 -0.024526 2095720.000000 0 0 1
23.958108 -17.268705 -16.167621 33.668844 -0.624542 2.071674 0.046125 -0.023178 856644.000000 0 0 1
23.560108 -16.377205 -17.218121 33.462744 -0.607446 2.111274 0.037506 -0.012829 -359960.000000 0 0 1
22.517908 -17.038705 -18.167021 33.576991 -0.647759 2.142488 0.041126 -0.011857 697743.000000 0 0 1
21.183108 -17.231105 -17.692221 32.536898 -0.682880 2.145706 0.055247 -0.012402 713119.000000 0 0 1
20.376508 -17.663305 -18.813721 32.880853 -0.714193 2.179956 0.061589 -0.016044 132162.000000 0 0 1
18.905408 -17.905605 -18.482421 31.931568 -0.758244 2.188069 0.062955 -0.016382 -242602.000000 0 0 1
18.032608 -16.839605 -18.181821 30.648424 -0.751201 2.205872 0.070885 -0.019901 -332570.000000 0 0 1
16.751308 -17.367105 -17.967221 30.083944 -0.803445 2.210847 0.075496 -0.020000 -877774.000000 0 0 1
15.761108 -16.268705 -17.679621 28.734166 -0.801244 2.233540 0.075937 -0.014285 -665388.000000 0 0 1
15.103008 -15.577005 -18.728721 28.661977 -0.800847 2.282909 0.073360 -0.009172 228153.000000 0 0 1
14.041808 -14.817505 -18.174921 27.332372 -0.812270 2.298236 0.070942 -0.011507 -76033.500000 0 0 1
13.159508 -14.254805 -19.288321 27.357110 -0.825330 2.353300 0.063798 -0.010736 -59796.500000 0 0 1
13.641908 -13.086005 -19.972721 27.500087 -0.764603 2.383689 0.063572 -0.015222 -31052.500000 0 0 1
12.723908 -12.778405 -20.970621 27.657773 -0.787535 2.431372 0.057748 -0.006254 -70797.600000 0 0 1
12.987508 -11.396105 -21.488221 27.573360 -0.720225 2.464362 0.052442 0.001949 468595.000000 0 0 1
14.280008 -11.191005 -22.075121 28.573907 -0.664712 2.453663 0.039578 0.005981 322297.000000 0 0 1
14.427808 -9.864505 -22.532921 28.516708 -0.599712 2.481875 0.037204 0.008896 -510744.000000 0 0 1
15.741808 -9.558605 -23.223521 29.639557 -0.545705 2.471125 0.022888 0.008658 -599737.000000 0 0 1
15.745008 -10.021905 -24.584221 30.866289 -0.566836 2.492239 0.042499 0.007002 -282909.000000 0 0 1
16.953208 -9.694705 -25.195061 31.877730 -0.519464 2.482202 0.041620 -0.005551 -1052940.000000 0 0 1
21.984908 4.758195 -6.805821 23.500974 0.213143 1.864602 0.053930 0.016584 -7754.790000 0 1 0
22.042908 6.168095 -7.047321 23.949946 0.272844 1.869469 0.043606 0.019856 650736.000000 0 1 0
21.471508 6.802895 -5.930221 23.291040 0.306828 1.828245 0.038749 0.016238 -337883.000000 0 1 0
21.482008 8.319995 -6.019521 23.810368 0.369511 1.826381 0.039164 0.012381 384645.000000 0 1 0
20.371208 8.843995 -6.799221 23.225670 0.409588 1.867894 0.042314 0.007560 1150330.000000 0 1 0
20.160308 10.251595 -6.797421 23.616480 0.470428 1.862752 0.052793 0.011140 -134047.000000 0 1 0
19.580108 10.875895 -5.523021 23.068799 0.507023 1.812560 0.058347 0.008759 -375013.000000 0 1 0
20.477208 11.080795 -4.448321 23.704169 0.496006 1.759575 0.058857 0.011951 -81340.000000 0 1 0
20.101408 12.180295 -3.685921 23.791011 0.544777 1.726352 0.081285 0.002128 -254279.000000 0 1 0
21.072208 12.693195 -2.621821 24.739222 0.542158 1.676974 0.068848 -0.003766 9419.520000 0 1 0
22.310308 13.273895 -3.049621 26.138981 0.536710 1.687732 0.064846 -0.008849 648067.000000 0 0 1
23.201808 13.555595 -2.023421 26.947584 0.528756 1.645954 0.066909 -0.011172 -320359.000000 0 0 1
24.176808 12.423795 -1.706321 27.235643 0.474684 1.633488 0.051279 -0.007363 -782325.000000 0 0 1
25.133608 12.026295 -2.684021 27.991677 0.446296 1.666830 0.035951 -0.004480 374000.000000 0 0 1
25.844808 10.944795 -2.118321 28.146579 0.400584 1.646128 0.051580 -0.009188 308812.000000 0 0 1
27.350908 10.887295 -2.504621 29.544517 0.378833 1.655673 0.046863 -0.004640 -100715.000000 0 0 1
28.152408 11.938695 -2.176221 30.656589 0.401086 1.641843 0.043085 -0.008154 706508.000000 0 0 1
29.541408 11.576995 -2.095421 31.797993 0.373496 1.636742 0.040883 -0.013170 793791.000000 0 0 1
30.548608 12.700095 -1.855821 33.135388 0.393996 1.626833 0.030866 -0.012318 -1063240.000000 0 0 1
30.659408 13.123595 -0.481021 33.353552 0.404447 1.585219 0.049099 -0.007378 804855.000000 0 0 1
31.722008 14.038195 -0.185421 34.689928 0.416631 1.576141 0.038896 -0.011764 194775.000000 0 0 1
33.160708 13.555595 -0.448621 35.827196 0.388056 1.583318 0.046108 -0.020626 -913988.000000 0 0 1
34.138308 14.577595 -0.396621 37.122603 0.403577 1.581481 0.046820 -0.019957 449214.000000 0 0 1
34.656608 15.188895 -1.597521 37.872616 0.413055 1.612990 0.050787 -0.020432 -253375.000000 0 0 1
33.745108 16.296695 -2.164521 37.536645 0.449903 1.628493 0.026929 -0.005450 -222908.000000 0 0 1
32.624808 15.715895 -2.768521 36.318482 0.448914 1.647099 0.027033 -0.010528 -748286.000000 0 0 1
31.760908 16.671695 -3.291921 36.021347 0.483378 1.662312 0.019796 0.000293 699842.000000 0 0 1
30.429508 16.047295 -3.876521 34.619330 0.485295 1.683007 0.033324 -0.013169 326313.000000 0 0 1
30.698608 15.348995 -5.018621 34.686924 0.463640 1.715989 0.021347 -0.010171 966681.000000 0 0 1
29.499708 15.064795 -5.754821 33.619916 0.472152 1.742816 0.018895 -0.024098 954379.000000 0 0 1
28.428808 14.062395 -5.185221 32.137744 0.459361 1.732848 0.024424 -0.015061 -145049.000000 0 0 1
27.315508 14.043795 -6.042421 31.302971 0.474890 1.765046 0.031520 -0.016765 -3626.120000 0 0 1
26.251808 13.321095 -5.445421 29.937628 0.469578 1.753707 0.033796 -0.005310 -31908.600000 0 0 1
25.211408 12.861595 -6.492721 29.037754 0.471734 1.796298 0.030678 -0.006657 -384492.000000 0 0 1
25.714608 12.021295 -7.555321 29.374061 0.437302 1.830931 0.020802 0.001142 75805.600000 0 0 1
24.843408 11.901395 -8.643921 28.871361 0.446753 1.874854 0.025633 0.010022 -461551.000000 0 0 1
24.459808 13.175795 -9.497421 29.361280 0.494104 1.900188 0.048495 0.005859 -113917.000000 0 0 1
23.491208 13.948395 -8.834421 28.713090 0.535827 1.883549 0.059748 -0.006567 71949.900000 0 0 1
23.412808 15.317095 -9.229821 29.461204 0.579335 1.889449 0.052412 -0.012381 -650986.000000 0 0 1
22.379308 16.182295 -8.456521 28.882743 0.626056 1.867938 0.052111 -0.002115 932798.000000 0 0 1
20.966908 16.154395 -8.664721 27.850549 0.656474 1.887162 0.063510 -0.001278 936275.000000 0 0 1
20.445008 14.910095 -8.195821 26.598510 0.630107 1.884024 0.057421 -0.011070 -1466580.000000 0 0 1
18.955908 14.654995 -8.340221 25.370349 0.658128 1.905764 0.062032 -0.002223 -747414.000000 0 0 1
18.201508 15.534995 -7.519921 25.083464 0.706523 1.875275 0.083417 -0.016180 478305.000000 0 0 1
16.824808 15.160195 -7.562921 23.876839 0.733402 1.893094 0.082508 -0.015854 -25258.700000 0 1 0
16.118608 15.337495 -6.279521 23.118837 0.760571 1.845871 0.079998 -0.010960 -499771.000000 0 1 0
16.322408 14.262495 -5.362221 22.329200 0.718149 1.813310 0.063387 -0.015235 411525.000000 0 1 0
15.976508 14.726795 -4.060821 22.104695 0.744718 1.755554 0.066388 -0.008565 -216352.000000 0 1 0
15.766308 13.672595 -2.998421 21.083331 0.714397 1.713498 0.053095 -0.001371 -155983.000000 0 1 0
16.930608 12.975495 -2.545821 21.482322 0.653910 1.689583 0.054809 -0.000922 673236.000000 0 1 0
16.746108 12.224995 -1.347721 20.777367 0.630591 1.635707 0.048706 -0.000652 -87380.300000 0 1 0
16.780208 13.141395 -0.038921 21.313685 0.664381 1.572622 0.053577 -0.002277 -170146.000000 0 1 0
15.790108 14.144695 -0.079221 21.199202 0.730487 1.574533 0.052620 -0.006635 236297.000000 0 1 0
15.901408 15.019095 1.023679 21.896938 0.756871 1.524029 0.050872 -0.003420 515994.000000 0 1 0
14.594208 15.873895 1.217779 21.597556 0.827374 1.514381 0.048633 -0.000780 390440.000000 0 1 0
14.552708 17.059795 0.488479 22.428921 0.864539 1.549016 0.060173 0.001367 -95579.200000 0 1 0
13.541408 17.897095 0.951679 22.462890 0.923068 1.528417 0.041827 -0.004897 -449830.000000 0 1 0
13.366108 19.216795 0.242779 23.409335 0.963068 1.560425 0.034154 -0.004792 -303620.000000 0 1 0
12.944208 19.259395 -1.116021 23.231924 0.979043 1.618853 0.043645 -0.012581 218140.000000 0 1 0
12.265308 20.455695 -1.396921 23.891936 1.030668 1.629298 0.036371 -0.013133 546199.000000 0 1 0
10.718008 20.504695 -1.201921 23.168142 1.089146 1.622698 0.027737 -0.012811 469655.000000 0 1 0
10.242608 20.469095 0.125979 22.889096 1.106834 1.565292 0.018532 -0.020106 58991.500000 0 1 0
8.835408 20.648995 0.149079 22.460357 1.166484 1.564159 0.014538 -0.010062 283248.000000 0 1 0
8.131208 20.454695 1.477579 22.061150 1.192427 1.503770 0.007476 -0.009459 -276730.000000 0 1 0
8.081008 21.609095 2.287479 23.183792 1.212935 1.471968 0.003887 0.000940 65804.400000 0 1 0
7.343508 21.300695 3.443479 22.792636 1.238802 1.419137 0.006297 -0.003867 8072.590000 0 1 0
6.751408 22.579395 4.093779 23.920067 1.280250 1.398805 -0.000817 0.007854 710144.000000 0 1 0
7.736408 23.262595 4.943579 25.008784 1.249734 1.371812 0.007293 0.008264 1042640.000000 0 0 1
7.303808 24.526995 5.462179 26.167814 1.281371 1.360513 0.002427 0.011610 -312749.000000 0 0 1
7.865808 24.881695 6.802579 26.967476 1.264609 1.315790 0.001661 0.005233 -154447.000000 0 0 1
7.430308 23.855095 7.700079 26.145100 1.268844 1.271850 0.022190 -0.016439 257189.000000 0 0 1
7.731608 24.146895 9.038279 26.917295 1.260921 1.228364 0.015532 -0.020914 -107940.000000 0 0 1
7.317908 23.044195 10.022479 26.173207 1.263309 1.177831 0.018986 -0.024722 -104474.000000 0 0 1
6.372008 23.470295 10.971479 26.680153 1.305694 1.147002 0.019653 -0.025385 -58474.500000 0 0 1
5.752008 22.404595 11.678879 25.912308 1.319490 1.103238 0.015310 -0.018358 617841.000000 0 0 1
4.363708 22.805295 12.283979 26.268223 1.381735 1.084181 0.029051 -0.025844 638985.000000 0 0 1
3.401108 23.075695 11.296579 25.916557 1.424461 1.119777 0.023859 -0.025175 -134592.000000 0 0 1
2.147808 23.459495 11.797179 26.346431 1.479497 1.106525 0.021685 -0.024569 499470.000000 0 0 1
0.990308 23.801195 10.798079 26.154848 1.529213 1.145213 0.024806 -0.016201 -72161.400000 0 0 1
1.133708 24.920095 9.951279 26.857483 1.525334 1.191226 0.031718 -0.013631 -123510.000000 0 0 1
0.188008 24.980595 8.914879 26.524338 1.563270 1.228021 0.020422 -0.016504 325875.000000 0 0 1
-1.228892 25.517195 9.258379 27.172688 -1.522674 1.223110 0.032485 -0.020174 19568.300000 0 0 1
-2.031792 24.735995 10.102779 26.796712 -1.488841 1.184224 0.033317 -0.021665 -770249.000000 0 0 1
-3.313292 25.278195 10.023979 27.394255 -1.440466 1.196180 0.046664 -0.024282 -514742.000000 0 0 1
-4.555292 24.454595 10.480979 26.993125 -1.386632 1.172028 0.062463 -0.024759 396000.000000 0 0 1
-4.841492 24.642195 11.852379 27.769708 -1.376796 1.129834 0.044356 -0.009369 146764.000000 0 0 1
-5.551792 25.834095 12.168279 29.091062 -1.359114 1.139243 0.056346 -0.008399 -227434.000000 0 0 1
-6.001592 25.883995 13.689179 29.889696 -1.342957 1.095064 0.028536 0.002629 671686.000000 0 0 1
-7.014192 24.891995 13.989579 29.402697 -1.296133 1.074932 0.032326 -0.007369 663787.000000 0 0 1
-7.264292 24.827295 15.380379 30.095192 -1.286149 1.034381 0.021546 0.005730 -250703.000000 0 0 1
-8.363592 23.825995 15.741579 29.756092 -1.233206 1.013351 0.027290 -0.003330 652331.000000 0 0 1
-9.684192 24.263195 15.390879 30.321038 -1.191039 1.038402 0.010943 0.007680 557018.000000 0 0 1
-10.639692 23.215295 15.347379 29.794211 -1.141057 1.029657 0.012885 -0.000084 683729.000000 0 0 1
-12.083492 23.750295 15.115179 30.635860 -1.100156 1.054823 0.014732 -0.004492 254515.000000 0 0 1
-12.679592 24.619795 16.068079 32.017019 -1.095208 1.045048 0.010210 -0.005230 326186.000000 0 0 1
-13.732992 25.338795 15.425379 32.689324 -1.074135 1.079376 0.006241 -0.002346 -120071.000000 0 0 1
-14.426192 26.392495 16.257679 34.190509 -1.070566 1.075261 0.020000 -0.007180 -527950.000000 0 0 1
-15.504092 25.909695 16.993379 34.647714 -1.031562 1.058177 0.016434 -0.014352 -460512.000000 0 0 1
-15.862792 26.777795 18.069179 35.988522 -1.035994 1.044792 0.031109 -0.002002 -318498.000000 0 0 1
-17.112892 26.376195 18.854779 36.661389 -0.995265 1.030611 0.035775 -0.018091 -684398.000000 0 0 1
-18.265692 26.673095 18.150079 37.074450 -0.970346 1.059214 0.040044 -0.014425 -1331600.000000 0 0 1
-19.434492 26.318895 18.807579 37.737365 -0.934745 1.049066 0.032440 -0.010088 -486668.000000 0 0 1
-20.682692 26.589395 17.952179 38.171329 -0.909705 1.081160 0.050148 -0.016849 -519775.000000 0 0 1
-21.003092 27.907395 17.840779 39.220479 -0.925634 1.098554 0.042361 -0.016777 21211.900000 0 0 1
-22.040692 27.928495 16.891379 39.384154 -0.902686 1.127535 0.051718 -0.022992 76332.600000 0 0 1
-23.016592 29.167495 16.851079 40.797857 -0.902726 1.145009 0.049017 -0.025870 -399366.000000 0 0 1
-24.082892 29.086895 17.717379 41.712572 -0.879235 1.132112 0.042146 -0.026096 -170424.000000 0 0 1
-25.089302 30.020495 17.280779 42.770650 -0.874640 1.154874 0.035607 -0.021242 -261964.000000 0 0 1
-26.332972 30.000195 18.138979 43.845863 -0.850405 1.144283 0.032975 -0.020199 -762453.000000 0 0 1
-27.045752 28.782795 18.037179 43.419602 -0.816502 1.142397 0.040500 -0.018769 -445839.000000 0 0 1
-28.397762 28.963395 18.341479 44.516525 -0.795259 1.146132 0.066897 -0.036725 -450457.000000 0 0 1
-28.916642 27.880695 19.277279 44.554672 -0.767161 1.123349 0.059650 -0.030473 -587585.000000 0 0 1
-28.969582 26.562195 18.717179 43.532972 -0.742074 1.126354 0.055533 -0.024444 235338.000000 0 0 1
-29.336122 25.551295 19.704379 43.608936 -0.716551 1.101966 0.044404 -0.014032 -7735.520000 0 0 1
-29.578052 24.204295 19.046879 42.702373 -0.685812 1.108463 0.036537 -0.009367 -37833.000000 0 0 1
-30.788032 24.089995 18.326679 43.175200 -0.663946 1.132417 0.058744 -0.013453 134476.000000 0 0 1
-30.585042 23.336995 17.184279 42.135016 -0.651782 1.150711 0.048844 -0.009799 -28194.500000 0 0 1
-30.712102 21.818295 17.209279 41.417756 -0.617681 1.142299 0.030227 -0.004300 479666.000000 0 0 1
-32.059282 21.435795 16.915779 42.112165 -0.589361 1.157441 0.024369 -0.003272 481963.000000 0 0 1
-32.232182 20.063795 16.653779 41.458627 -0.556783 1.157428 0.007965 0.000235 -586928.000000 0 0 1
-33.620842 19.609495 16.247079 42.176544 -0.528015 1.175354 0.014300 -0.015208 -741798.000000 0 0 1
-33.784002 19.886695 14.893779 41.936429 -0.532026 1.207720 0.005346 -0.008815 -140362.000000 0 0 1
-35.022919 19.470995 14.367779 42.569444 -0.507400 1.226522 0.010859 -0.008122 -89141.400000 0 0 1
-35.136510 19.776795 12.867279 42.323313 -0.512660 1.261883 0.019699 0.001272 71302.400000 0 0 1
-35.615569 21.131995 12.677579 43.309941 -0.535505 1.273729 0.002281 0.000527 11801.400000 0 0 1
-35.832092 21.443995 11.275579 43.254161 -0.539285 1.307068 0.020967 -0.000972 -197918.000000 0 0 1
-34.676971 21.335995 10.252179 41.986000 -0.551578 1.324121 0.030213 -0.005424 -124240.000000 0 0 1
-34.427886 19.947595 10.002879 41.027350 -0.525136 1.324504 0.040851 0.005112 136847.000000 0 0 1
-33.198072 19.759295 9.321079 39.741971 -0.536878 1.334051 0.064779 0.000050 164445.000000 0 0 1
-32.361402 18.616395 9.940179 38.634669 -0.522034 1.310583 0.048776 -0.005769 -291585.000000 0 0 1
-32.093442 19.024195 11.280579 38.976409 -0.535090 1.277175 0.043306 -0.001076 -80873.900000 0 0 1
-31.712622 17.985595 12.080879 38.407286 -0.515910 1.250817 0.050934 -0.011683 -217421.000000 0 0 1
-31.144142 18.427095 13.475179 38.614710 -0.534273 1.214330 0.024117 -0.001443 -249518.000000 0 0 1
-29.929842 19.106095 13.490279 37.984549 -0.568151 1.207720 0.046231 0.003427 -353046.000000 0 0 1
-30.212952 20.510495 13.289079 38.860037 -0.596400 1.221781 0.046189 0.006351 411825.000000 0 0 1
-28.989372 21.470495 13.451679 38.500825 -0.637479 1.213880 0.055832 -0.007646 434018.000000 0 0 1
-28.494152 21.449295 14.782079 38.606979 -0.645266 1.177878 0.043695 0.002713 58858.100000 0 0 1
-27.300772 22.237295 14.810679 38.199288 -0.683538 1.172638 0.068561 -0.009099 203010.000000 0 0 1
-26.793232 22.198795 16.287579 38.418082 -0.691892 1.132987 0.065335 -0.013572 -322560.000000 0 0 1
-26.007612 21.043695 16.517479 37.310321 -0.680287 1.112183 0.092674 -0.009830 40857.800000 0 0 1
-25.594192 20.991495 17.861579 37.613050 -0.686917 1.075972 0.081855 -0.008819 -376655.000000 0 0 1
-24.781092 19.740395 18.076579 36.476683 -0.672659 1.052311 0.086597 -0.014153 -161082.000000 0 0 1
-24.246692 19.647295 19.400079 36.746174 -0.680995 1.014613 0.071935 -0.017190 -330162.000000 0 0 1
-23.188992 18.743695 19.448279 35.599031 -0.679782 0.992838 0.054787 -0.012473 -224888.000000 0 0 1
-22.458092 18.757495 20.823879 35.914391 -0.695852 0.952289 0.049936 -0.017280 250528.000000 0 0 1
-23.232192 18.121295 21.849879 36.681512 -0.662431 0.932703 0.055674 -0.008551 195847.000000 0 0 1
-22.658592 18.252295 23.124379 37.165777 -0.678107 0.899252 0.075860 -0.012797 55503.700000 0 0 1
-23.473092 17.510295 24.250079 38.021873 -0.640919 0.879167 0.049451 -0.009762 9991.940000 0 0 1
-23.412792 16.089795 24.250679 37.351516 -0.602099 0.864191 0.056703 -0.021074 127015.000000 0 0 1
-23.954592 15.584095 25.516479 38.311580 -0.576775 0.841929 0.052389 -0.021834 119417.000000 0 0 1
20.564808 24.754995 -34.270713 47.012794 0.877594 2.387606 0.029924 -0.017715 -343059.000000 0 0 1
21.404408 23.935495 33.572823 46.456335 0.841165 0.763132 0.035686 -0.019775 -63880.300000 0 0 1
21.238008 22.538695 33.705625 45.772425 0.815101 0.743101 0.034176 -0.021295 -143329.000000 0 0 1
20.059708 21.919795 32.922297 44.348021 0.829679 0.734207 0.040518 -0.021297 -119824.000000 0 0 1
20.411108 21.568795 31.613083 43.372956 0.812968 0.754132 0.044437 -0.014407 385436.000000 0 0 1
19.445808 20.696695 31.003393 42.044061 0.816549 0.741580 0.068498 -0.017256 -1048.590000 0 0 1
19.966008 20.046695 29.756603 41.060527 0.787415 0.760196 0.066035 -0.012132 -70179.200000 0 0 1
21.095808 19.204595 29.890823 41.319619 0.738505 0.762075 0.054794 -0.014814 -150513.000000 0 0 1
21.478608 18.662695 28.639513 40.371382 0.715363 0.782148 0.057439 -0.016424 603918.000000 0 0 1
22.586708 17.527995 28.631363 40.461648 0.659954 0.784676 0.047885 -0.016508 1564180.000000 0 0 1
23.933808 18.028695 28.746033 41.523432 0.645593 0.806146 0.047303 -0.018881 800602.000000 0 0 1
24.700308 17.107695 29.529913 42.128307 0.605749 0.794065 0.037430 -0.010510 1645740.000000 0 0 1
26.186108 17.562995 29.924193 43.469856 0.590789 0.811530 0.038434 -0.020653 1401590.000000 0 0 1
26.998508 17.659995 28.786853 43.237458 0.579259 0.842251 0.045525 -0.009112 790958.000000 0 0 1
28.317008 18.136995 29.158563 44.508711 0.569667 0.856454 0.052546 -0.008714 1060600.000000 0 0 1
29.442208 18.024995 28.127843 44.529986 0.549354 0.887103 0.049804 0.005880 -255521.000000 0 0 1
29.344808 18.911695 26.994163 44.129976 0.572474 0.912593 0.053172 -0.006884 122089.000000 0 0 1
30.315408 18.605195 26.002903 44.060506 0.550447 0.939535 0.042690 -0.007081 189494.000000 0 0 1
30.900308 19.884395 25.215883 44.565222 0.571793 0.969369 0.047531 -0.009911 344584.000000 0 0 1
29.919208 20.536795 24.382073 43.719612 0.601546 0.979194 0.054256 -0.015156 421263.000000 0 0 1
30.393808 21.509795 23.454383 44.006397 0.615877 1.008682 0.041851 -0.021721 -414662.000000 0 0 1
31.107808 20.921795 22.238783 43.588768 0.592070 1.035385 0.034231 -0.010951 393053.000000 0 0 1
30.077008 20.216795 21.532983 42.154651 0.591801 1.034671 0.052333 -0.004931 791446.000000 0 0 1
30.426008 19.897695 20.231883 41.605160 0.579161 1.062965 0.047481 -0.005268 -494275.000000 0 0 1
31.338408 18.723695 19.956083 41.604301 0.538556 1.070525 0.051247 -0.020095 -332122.000000 0 0 1
30.784608 17.446795 20.241883 40.765385 0.515603 1.051181 0.059804 -0.017070 457116.000000 0 0 1
31.781808 16.433695 20.232483 41.103565 0.477217 1.056144 0.043873 -0.011776 78280.000000 0 0 1
31.115508 15.045195 20.546683 40.208195 0.450383 1.034440 0.046442 -0.007726 257543.000000 0 0 1
30.786508 14.957295 21.915583 40.642620 0.452255 1.001278 0.039541 -0.005601 1924890.000000 0 0 1
29.397608 15.329695 22.229083 39.916802 0.480668 0.980165 0.047171 -0.003319 1553350.000000 0 0 1
28.793608 14.459395 23.383283 39.811103 0.465385 0.943008 0.027681 -0.007369 78677.000000 0 0 1
28.340208 13.187795 22.990583 38.802735 0.435536 0.936639 0.024400 -0.006559 -91908.100000 0 0 1
27.780008 12.478095 24.022943 38.788317 0.422168 0.902902 0.023376 -0.003380 59601.800000 0 0 1
27.124308 11.080595 23.605143 37.625928 0.387822 0.892633 0.026250 -0.001279 462482.000000 0 0 1
25.997408 11.122195 22.736183 36.283639 0.404256 0.893583 0.045278 -0.002319 228808.000000 0 0 1
25.779008 9.772695 22.332783 35.479798 0.362356 0.889950 0.042961 0.005474 -28870.300000 0 0 1
24.437008 9.729095 21.559183 34.009132 0.378893 0.884181 0.046398 -0.001615 1277090.000000 0 0 1
23.238008 9.682695 22.414583 33.707168 0.394798 0.843330 0.043794 -0.003556 1536640.000000 0 0 1
22.265408 8.909695 21.712183 32.350425 0.380643 0.835029 0.045474 -0.000158 1252470.000000 0 0 1
20.753808 9.117395 22.171983 31.708741 0.413930 0.796464 0.026401 -0.002870 1350540.000000 0 0 1
20.392708 8.493795 23.385183 32.169456 0.394659 0.756945 0.037161 -0.001934 705212.000000 0 0 1
18.998308 8.520895 23.689323 31.539268 0.421613 0.721061 0.049749 -0.002723 511046.000000 0 0 1
18.646708 7.710695 24.992983 32.121702 0.392103 0.679206 0.047441 0.003559 -388942.000000 0 0 1
18.560208 6.323195 24.759003 31.582786 0.328353 0.669810 0.049639 0.000552 278897.000000 0 0 1
18.259408 5.639295 26.004753 32.271579 0.299550 0.633755 0.044887 -0.005950 -37990.900000 0 0 1
18.556608 4.124495 26.033143 32.234822 0.218710 0.630709 0.048309 -0.006037 123023.000000 0 0 1
19.917508 3.899395 25.731623 32.772379 0.193332 0.667839 0.054423 -0.001749 1553.380000 0 0 1
20.090808 2.481695 25.729313 32.738310 0.122901 0.666632 0.051117 -0.003267 359939.000000 0 0 1
21.571308 2.155495 25.368933 33.369901 0.099594 0.707123 0.057107 -0.003541 383311.000000 0 0 1
22.449508 2.572695 26.391373 34.743399 0.114101 0.708086 0.063742 -0.009471 800250.000000 0 0 1
23.793608 2.774195 25.900393 35.279772 0.116070 0.746393 0.071079 -0.005117 1161150.000000 0 0 1
24.774408 3.124795 27.048103 36.812166 0.125467 0.745484 0.057011 -0.011109 -1038550.000000 0 0 1
24.733308 2.132595 28.065643 37.469519 0.086011 0.724206 0.063583 -0.016619 326899.000000 0 0 1
25.483608 2.532295 29.219733 38.853824 0.099044 0.719641 0.059036 -0.007719 1027700.000000 0 0 1
27.030008 2.713395 29.039723 39.765430 0.100049 0.752071 0.054039 -0.009014 -728287.000000 0 0 1
27.370408 3.901895 28.358333 39.605039 0.141605 0.772700 0.049035 0.004413 20225.300000 0 0 1
28.769008 4.033695 28.167623 40.464077 0.139302 0.800825 0.035901 0.008801 215348.000000 0 0 1
29.430608 3.107695 27.142773 40.156551 0.105204 0.828579 0.043588 0.006532 -831937.000000 0 0 1
28.999008 3.271395 25.806763 38.956816 0.112336 0.846718 0.035848 0.013886 209843.000000 0 0 1
29.566708 2.230795 24.967743 38.762803 0.075307 0.870929 0.039778 0.027877 -197219.000000 0 0 1
29.214508 2.309495 23.444983 37.529835 0.078889 0.896046 0.043375 0.006981 67247.100000 0 0 1
29.707508 3.323995 22.615583 37.483991 0.111427 0.923114 0.037559 0.011083 30014.600000 0 0 1
31.134708 3.286095 22.572683 38.596561 0.105155 0.946118 0.034112 0.013078 466458.000000 0 0 1
31.709808 4.526695 21.837683 38.767091 0.141796 0.972416 0.020572 0.014662 -690193.000000 0 0 1
31.373008 4.491595 20.475283 37.731648 0.142201 0.997201 0.018220 0.004186 -186867.000000 0 0 1
31.795408 5.533695 19.682083 37.801510 0.172315 1.023162 0.023764 0.016055 -63610.600000 0 0 1
33.328608 5.700895 19.528783 39.047019 0.169412 1.047042 0.020275 0.007391 11682.900000 0 0 1
34.182308 6.054295 20.623483 40.378370 0.175300 1.034733 0.024868 0.011067 497838.000000 0 0 1
33.944008 7.306895 21.199183 40.681590 0.212028 1.022657 0.027166 0.011293 -586771.000000 0 0 1
34.631808 7.303695 22.577083 41.981315 0.207850 1.002984 0.038593 0.003578 -193618.000000 0 0 1
33.933008 6.511595 23.491283 41.781459 0.189591 0.973702 0.037618 0.012634 45791.800000 0 0 1
34.656208 6.280395 24.674463 43.003782 0.179274 0.959690 0.035718 0.014651 188761.000000 0 0 1
33.965308 5.178495 25.583413 42.836550 0.151299 0.930749 0.042419 0.017989 331804.000000 0 0 1
34.110408 3.855695 25.169873 42.566523 0.112558 0.938118 0.045040 0.008810 -107883.000000 0 0 1
33.313808 3.017095 25.972723 42.349676 0.090319 0.910574 0.038571 0.014951 -117525.000000 0 0 1
33.461208 1.459095 25.783053 42.267567 0.043578 0.914741 0.042462 0.012985 -207414.000000 0 0 1
32.887608 1.050795 24.558963 41.059002 0.031940 0.929620 0.043727 0.005596 -57233.200000 0 0 1
33.071408 -0.318405 24.332423 41.059545 -0.009628 0.936497 0.050998 0.005242 -197425.000000 0 0 1
32.049708 -0.894005 23.342683 39.659348 -0.027887 0.941496 0.057956 0.005852 -950766.000000 0 0 1
30.776908 -0.991405 23.872163 38.962561 -0.032202 0.911330 0.058045 0.011448 -1241070.000000 0 0 1
29.995308 -1.633105 22.893683 37.769118 -0.054392 0.919588 0.059707 -0.009771 -246219.000000 0 0 1
28.551608 -2.000405 23.289783 36.899999 -0.069948 0.887749 0.062837 0.008793 -37365.300000 0 0 1
27.774208 -0.832305 23.295483 36.259880 -0.029958 0.873094 0.049416 0.007497 -413982.000000 0 0 1
26.404008 -1.152305 23.123883 35.117139 -0.043614 0.852001 0.055694 0.007906 310164.000000 0 0 1
25.483708 0.073495 23.338783 34.556093 0.002884 0.829305 0.060168 0.003357 -157582.000000 0 0 1
25.578108 1.076595 22.321883 33.965647 0.042066 0.853712 0.052908 0.000790 -2199.790000 0 0 1
24.653808 2.141595 22.426283 33.396630 0.086649 0.834547 0.055178 0.001616 42382.000000 0 0 1
24.525908 3.095595 21.165183 32.543323 0.125553 0.862726 0.047268 -0.002785 -40207.700000 0 0 1
24.033008 2.437895 19.986383 31.352581 0.101094 0.879584 0.057026 -0.005432 391208.000000 0 0 1
23.694908 3.397695 19.003383 30.563403 0.142423 0.899797 0.057010 -0.004114 -30029.400000 0 0 1
23.426008 2.862295 17.597883 29.439023 0.121582 0.930075 0.059607 -0.005933 63754.900000 0 0 1
24.631408 2.657595 16.888283 29.983048 0.107479 0.972469 0.051489 -0.017172 138178.000000 0 0 1
24.520008 2.950095 15.480783 29.147702 0.119738 1.010880 0.057077 -0.011925 -322573.000000 0 0 1
23.832208 1.884195 14.613383 28.019195 0.078897 1.022131 0.058732 0.009272 -725956.000000 0 0 1
22.444808 1.869095 14.659383 26.873043 0.083083 0.993805 0.065831 0.007192 -320504.000000 0 0 1
21.897508 0.871495 13.781283 25.887915 0.039778 1.009429 0.068330 -0.000448 -893349.000000 0 0 1
20.377908 0.879295 13.776883 24.613712 0.043123 0.976744 0.060576 -0.017798 -755161.000000 0 1 0
19.691208 1.583695 12.721383 23.496497 0.080254 0.998676 0.083808 -0.019522 730612.000000 0 1 0
19.769808 1.120095 11.351783 22.824612 0.056596 1.050257 0.094556 -0.019459 -1035930.000000 0 1 0
19.500308 -0.382705 11.057183 22.420299 -0.019623 1.055058 0.090311 -0.015294 621426.000000 0 1 0
20.600408 -1.315905 11.258183 23.512871 -0.063791 1.071498 0.082232 -0.020506 1652500.000000 0 1 0
21.775208 -1.097105 10.465983 24.184709 -0.050341 1.123253 0.097087 -0.017555 -54079.600000 0 1 0
22.993208 -1.941005 10.868683 25.506536 -0.084217 1.130604 0.096900 -0.020970 -286145.000000 0 0 1
23.454008 -1.559205 12.122383 26.447567 -0.066382 1.094653 0.088711 -0.028429 -137296.000000 0 0 1
24.269108 -2.544105 12.656083 27.488880 -0.104447 1.092342 0.073144 -0.025817 -273292.000000 0 0 1
24.704208 -2.414205 14.154983 28.574286 -0.097415 1.052530 0.071786 -0.018882 453212.000000 0 0 1
25.816908 -1.576105 14.459083 29.632110 -0.060974 1.061053 0.059912 -0.016244 360429.000000 0 0 1
25.815708 -1.226205 15.794383 30.288891 -0.047463 1.022238 0.063206 -0.022324 466979.000000 0 0 1
27.052608 -0.335305 16.163183 31.515148 -0.012394 1.032271 0.061887 -0.016343 719315.000000 0 0 1
28.288708 -1.025505 16.064183 32.547821 -0.036236 1.054622 0.067008 -0.022187 447036.000000 0 0 1
29.386408 -0.114905 16.228783 33.570040 -0.003910 1.066227 0.057089 -0.014480 381330.000000 0 0 1
30.757108 -0.818305 16.099283 34.725441 -0.026599 1.088724 0.060871 -0.009467 -30512.800000 0 0 1
31.209108 -1.101505 14.806583 34.560912 -0.035280 1.128053 0.071481 -0.006014 -420249.000000 0 0 1
32.474208 -1.678605 14.862583 35.753158 -0.051644 1.142084 0.059809 -0.006225 -545083.000000 0 0 1
32.898908 -2.382605 13.516483 35.647024 -0.072296 1.181891 0.064489 -0.004437 -53420.300000 0 0 1
33.257408 -1.406105 12.554583 35.575974 -0.042254 1.210133 0.059206 -0.006066 226143.000000 0 0 1
33.593008 -2.030005 11.322883 35.508010 -0.060356 1.246246 0.064184 -0.003414 -150278.000000 0 0 1
33.031708 -1.324705 10.034983 34.547785 -0.040083 1.276082 0.080849 -0.004539 -157734.000000 0 0 1
33.654208 -0.065705 9.837283 35.062547 -0.001952 1.286415 0.068467 -0.005767 409937.000000 0 0 1
32.748708 0.807895 9.203583 34.026997 0.024665 1.296906 0.070600 -0.009564 -252283.000000 0 0 1
33.294508 2.211495 8.806383 34.510395 0.066325 1.312762 0.069794 -0.007747 -260751.000000 0 0 1
34.019708 2.106395 7.634183 34.929331 0.061838 1.350457 0.057622 -0.012441 108137.000000 0 0 1
34.578908 3.330295 7.177983 35.472739 0.096014 1.367037 0.056776 -0.009922 -151769.000000 0 0 1
35.071408 3.275095 5.748883 35.690049 0.093114 1.409013 0.044674 -0.009360 -308882.000000 0 0 1
35.484508 4.602395 5.403883 36.187488 0.128981 1.420906 0.044389 0.001074 327749.000000 0 0 1
35.860008 4.592195 4.046783 36.378632 0.127366 1.459325 0.040295 -0.008891 -102267.000000 0 0 1
-35.568699 5.949195 3.516383 36.233827 -0.165725 1.473596 0.040442 -0.014420 349337.000000 0 0 1
35.153008 6.749995 3.488183 35.964758 0.189708 1.473655 0.060219 -0.018888 391387.000000 0 0 1
35.456608 7.987895 2.901483 36.460885 0.221587 1.491134 0.052261 -0.018562 -598364.000000 0 0 1
34.345008 9.100795 3.032983 35.659543 0.259029 1.485640 0.081352 -0.020648 1143690.000000 0 0 1
33.182608 8.942995 2.209683 34.437557 0.263254 1.506587 0.087412 -0.029805 650939.000000 0 0 1
32.361508 7.794295 2.502183 33.380820 0.236349 1.495767 0.103517 -0.030026 -614532.000000 0 0 1
31.055608 7.842795 1.672783 32.074264 0.247368 1.518619 0.117775 -0.029678 -199897.000000 0 0 1
31.248308 7.772695 0.253183 32.201485 0.243792 1.562934 0.110586 -0.029127 268905.000000 0 0 1
30.109608 7.306995 -0.442517 30.986715 0.238077 1.585078 0.122210 -0.035408 -74464.700000 0 0 1
30.431608 7.305795 -1.942217 31.356492 0.235614 1.632776 0.093824 -0.021877 121031.000000 0 0 1
29.321008 6.936195 -2.762017 30.256587 0.232290 1.662210 0.084858 -0.013099 998641.000000 0 0 1
29.785108 6.830995 -4.048717 30.825432 0.225444 1.702520 0.091622 -0.010571 -74228.600000 0 0 1
28.718008 6.241495 -5.026417 29.815183 0.214009 1.740191 0.083589 -0.003118 -23011.800000 0 0 1
28.543008 4.855795 -4.858517 29.357916 0.168509 1.737054 0.090508 -0.008861 1022490.000000 0 0 1
27.286508 4.448895 -5.399317 28.169111 0.161622 1.763665 0.062956 0.000164 155668.000000 0 0 1
27.005708 2.940395 -5.629717 27.742529 0.108453 1.775143 0.076569 -0.003562 -250253.000000 0 0 1
26.883308 2.134295 -4.444417 27.331672 0.079225 1.734132 0.076072 -0.004431 571038.000000 0 0 1
26.584008 0.756095 -4.741417 27.014111 0.028434 1.747227 0.065070 0.001871 -94705.600000 0 0 1
26.678708 -0.063205 -3.437017 26.899267 -0.002369 1.698920 0.061927 0.004171 -151552.000000 0 0 1
27.982408 -0.084205 -2.914617 28.133916 -0.003009 1.674581 0.090756 -0.012475 115873.000000 0 0 1
27.915008 -0.517405 -1.552817 27.962951 -0.018533 1.626356 0.094450 -0.012829 -131623.000000 0 0 1
29.050408 0.071695 -0.708917 29.059145 0.002468 1.595194 0.102305 -0.019486 -708703.000000 0 0 1
30.340008 -0.409305 -0.913017 30.356502 -0.013490 1.600877 0.101569 -0.020218 -256981.000000 0 0 1
31.195708 0.180295 0.069483 31.196307 0.005779 1.568569 0.077819 -0.018185 -186068.000000 0 0 1
-2.234392 -21.441605 -8.441021 23.151367 1.466963 1.944001 0.003657 0.009922 119859.000000 0 1 0
-2.791992 -21.922705 -7.272721 23.265698 1.444122 1.888719 0.010440 0.005106 233114.000000 0 1 0
-2.078792 -23.093305 -6.847221 24.176570 1.481021 1.857943 0.017144 0.005286 726576.000000 0 1 0
-2.923092 -23.619105 -5.635321 24.457380 1.447663 1.803299 0.012082 0.004686 4099.570000 0 1 0
-3.024292 -22.682005 -4.547421 23.330211 1.438244 1.766968 0.014801 -0.003139 -87176.900000 0 1 0
-3.456892 -23.372705 -3.341321 23.862059 1.423958 1.711284 0.015820 -0.011392 -135849.000000 0 1 0
-3.003892 -22.711105 -2.016521 22.997479 1.439294 1.658593 0.017337 -0.014161 -1141840.000000 0 1 0
-1.670392 -22.874705 -1.750921 23.002349 1.497902 1.646989 0.022673 -0.011625 -1832600.000000 0 1 0
-1.452192 -22.450405 -0.468921 22.502210 1.506202 1.591637 0.026341 -0.017768 143194.000000 0 1 0
0.057308 -22.510405 -0.168621 22.511110 -1.568250 1.578287 0.030298 -0.019122 177305.000000 0 1 0
0.822808 -21.430605 -0.626021 21.455530 -1.532421 1.599978 0.012541 -0.015433 -1080440.000000 0 1 0
1.976308 -21.159805 0.064979 21.251997 -1.477667 1.567739 0.017408 -0.014930 -206802.000000 0 1 0
2.954808 -20.101905 -0.561821 20.325677 -1.424850 1.598441 0.025553 -0.011289 637456.000000 0 1 0
3.639308 -20.550605 -1.705121 20.939899 -1.395523 1.652316 0.020294 -0.005042 -23651.100000 0 1 0
4.641508 -19.592805 -2.084021 20.242647 -1.338186 1.673931 0.027149 -0.005292 839991.000000 0 1 0
5.552408 -20.094405 -3.288521 21.105183 -1.301207 1.727250 0.025061 -0.003094 -340026.000000 0 1 0
6.429208 -21.098505 -2.821521 22.236066 -1.275012 1.698029 0.032494 -0.009690 -93989.700000 0 1 0
7.280708 -21.788205 -3.710521 23.270208 -1.248304 1.730934 0.030194 -0.008590 -146573.000000 0 1 0
8.389008 -21.014905 -4.372421 23.046036 -1.190986 1.761679 0.038633 -0.007044 -1249770.000000 0 1 0
7.967108 -20.232205 -5.471421 22.422163 -1.195660 1.817304 0.025327 0.005030 47120.600000 0 1 0
9.050908 -19.471805 -5.971621 22.287449 -1.135686 1.842047 0.031349 -0.001446 60390.100000 0 1 0
8.610308 -18.256305 -6.846021 21.314270 -1.130097 1.897787 0.020864 0.005321 -309775.000000 0 1 0
9.670108 -17.989305 -7.743621 21.842384 -1.077564 1.933200 0.026876 0.009624 364953.000000 0 1 0
9.433508 -16.861405 -8.573721 21.137804 -1.060709 1.988443 0.021844 0.014273 -175668.000000 0 1 0
10.180908 -16.720005 -9.922821 21.947023 -1.023854 2.039944 0.029308 0.010930 -146834.000000 0 1 0
9.570608 -17.476305 -10.990121 22.755231 -1.069772 2.074841 0.025330 0.015027 201999.000000 0 1 0
8.436608 -16.797805 -11.473821 22.022515 -1.105355 2.118823 0.005493 0.004622 -305705.000000 0 1 0
7.915208 -17.348905 -12.805921 22.970125 -1.142768 2.162172 0.016354 -0.002410 -137435.000000 0 1 0
6.993208 -18.419905 -12.737821 23.461670 -1.207951 2.144707 0.000661 0.012518 31463.700000 0 1 0
6.621708 -18.894905 -14.011021 24.437127 -1.233721 2.181385 -0.001527 0.014162 293747.000000 0 1 0
5.490108 -19.965305 -13.853521 24.913345 -1.302446 2.160444 -0.005253 0.028873 335176.000000 0 1 0
5.983108 -21.187505 -13.299721 25.721402 -1.295574 2.114219 0.006539 0.019627 -353924.000000 0 0 1
4.936908 -21.976205 -12.833621 25.923512 -1.349817 2.088697 0.029806 0.013765 -163482.000000 0 0 1
5.299808 -23.437005 -12.500421 27.085821 -1.348407 2.050495 0.011245 0.008181 -231400.000000 0 0 1
5.721608 -24.127105 -13.648821 28.304493 -1.337953 2.073976 0.029062 0.005131 -108796.000000 0 0 1
5.349208 -25.503985 -13.703221 29.442241 -1.364053 2.054914 0.029180 0.004401 1017780.000000 0 0 1
3.843408 -25.802665 -14.091521 29.649963 -1.422930 2.066059 0.038912 -0.007097 1018210.000000 0 0 1
2.915008 -25.394435 -13.123521 28.733281 -1.456507 2.045119 0.036852 -0.003442 832760.000000 0 0 1
1.504108 -25.449865 -13.443821 28.821768 -1.511764 2.056066 0.028064 -0.013084 1534470.000000 0 0 1
0.720108 -26.732755 -13.124121 29.789282 -1.543866 2.027024 0.020293 -0.005793 -912443.000000 0 0 1
1.223208 -27.839715 -13.781221 31.088069 -1.526887 2.030069 0.029840 -0.005664 -79198.300000 0 0 1
0.532008 -29.007895 -13.409021 31.961584 -1.552458 2.003730 0.010649 0.000915 779500.000000 0 0 1
-0.942992 -29.163505 -13.917621 32.327998 1.538473 2.015857 -0.011943 0.005894 604552.000000 0 0 1
-1.905092 -28.305875 -13.349321 31.353729 1.503594 2.010604 -0.003910 -0.001008 -758659.000000 0 0 1
-3.203492 -28.679895 -13.688821 31.940297 1.459559 2.013712 0.006642 0.010364 105311.000000 0 0 1
-4.341792 -27.842365 -12.952021 31.012954 1.416100 2.001635 -0.004560 0.004858 663420.000000 0 0 1
-4.656592 -28.089645 -11.602021 30.746039 1.406514 1.957729 -0.004650 -0.009048 -18102.200000 0 0 1
-4.896892 -29.479965 -11.208821 31.916854 1.406190 1.929636 -0.013275 -0.003082 -758299.000000 0 0 1
-5.408692 -29.730325 -9.778421 31.761041 1.390839 1.883755 -0.004349 -0.006867 596976.000000 0 0 1
-6.719592 -29.249935 -9.430621 31.458675 1.344984 1.875256 0.015576 -0.007982 614134.000000 0 0 1
-6.888392 -27.840135 -9.458521 30.199117 1.328241 1.889362 0.021744 -0.006597 -473538.000000 0 0 1
-8.358892 -27.416975 -9.143321 30.085909 1.274868 1.879587 0.024462 -0.005933 1473080.000000 0 0 1
-9.399292 -27.713745 -10.118521 30.964219 1.243814 1.903692 0.033583 -0.011409 775275.000000 0 0 1
-9.719792 -29.126235 -10.228621 32.364126 1.248704 1.892358 0.047191 -0.020548 -1129120.000000 0 0 1
-10.866092 -29.333965 -11.183021 33.220678 1.216041 1.914130 0.061582 -0.022688 -786983.000000 0 0 1
-10.568492 -28.864455 -12.519121 33.190031 1.219814 1.957562 0.074216 -0.023878 39535.100000 0 0 1
-11.513292 -29.421425 -13.395921 34.316568 1.197792 1.971822 0.077775 -0.026594 -6874.600000 0 0 1
-11.840392 -28.547165 -14.652221 34.202677 1.177626 2.013511 0.079392 -0.022851 572086.000000 0 0 1
-12.847192 -27.516515 -14.593021 33.692213 1.133986 2.018756 0.072506 -0.036944 452644.000000 0 0 1
-12.424692 -26.411915 -13.788021 32.281136 1.131092 2.012105 0.080128 -0.020191 -235097.000000 0 0 1
-13.283392 -25.173885 -13.849421 31.654059 1.085262 2.023640 0.107269 -0.016729 -575086.000000 0 0 1
-13.172692 -24.457405 -15.042221 31.590392 1.076750 2.067084 0.102015 -0.015336 240312.000000 0 0 1
-14.244792 -23.530905 -15.047521 31.353556 1.026441 2.071372 0.117488 -0.015877 -162451.000000 0 0 1
-14.202692 -22.653905 -16.379121 31.355884 1.010802 2.120415 0.100002 -0.015749 -200752.000000 0 0 1
-13.617992 -21.395005 -16.292021 30.143422 1.003968 2.141808 0.089857 -0.011695 83601.600000 0 0 1
-13.872792 -20.557805 -17.399221 30.295389 0.977171 2.182568 0.081454 -0.003970 -294389.000000 0 0 1
-13.646892 -19.066505 -17.353721 29.170549 0.949577 2.207944 0.069353 -0.012608 309756.000000 0 0 1
-12.325892 -18.525005 -17.412621 28.254253 0.983695 2.234811 0.087580 -0.006946 399188.000000 0 0 1
-12.296992 -17.110905 -17.338321 27.287661 0.947654 2.259310 0.074150 -0.009633 -602468.000000 0 0 1
-10.982792 -16.463305 -17.726421 26.568555 0.982489 2.301234 0.077446 -0.017370 -409184.000000 0 0 1
-10.073392 -16.443505 -16.630721 25.464543 1.021159 2.282458 0.077662 -0.003672 -28890.200000 0 0 1
-8.851292 -15.885905 -17.084421 24.951649 1.062458 2.324990 0.058002 -0.007031 -168481.000000 0 1 0
-8.124092 -15.052405 -15.934321 23.376876 1.075879 2.320781 0.046920 -0.000557 137290.000000 0 1 0
-7.728392 -15.819905 -14.838521 23.025619 1.116372 2.271081 0.048716 -0.000754 208018.000000 0 1 0
-6.471692 -16.466305 -15.020321 23.208448 1.196316 2.274691 0.036471 -0.001999 -25942.600000 0 1 0
-6.068192 -17.431005 -13.880721 23.094097 1.235792 2.215611 0.038802 0.001359 -423870.000000 0 1 0
-5.673792 -16.743905 -12.678821 21.755523 1.244083 2.192950 0.030706 -0.001574 299857.000000 0 1 0
-5.484992 -17.661105 -11.547621 21.802461 1.269672 2.128981 0.025873 0.000040 168683.000000 0 1 0
-4.260092 -18.606205 -11.551221 22.310759 1.345715 2.115006 0.018462 -0.003689 -769702.000000 0 1 0
-2.990492 -18.071405 -11.683621 21.726153 1.406801 2.138583 0.012723 0.000424 -1296510.000000 0 1 0
-2.059892 -19.106905 -11.561021 22.427086 1.463402 2.112380 0.002553 0.009196 -256375.000000 0 1 0
-0.649392 -18.633105 -11.915721 22.126878 1.535959 2.139474 -0.005744 0.014782 -991575.000000 0 1 0
-0.507592 -18.434505 -13.308521 22.742149 1.543268 2.195913 0.001850 0.013155 -831856.000000 0 1 0
0.737408 -18.050105 -13.797521 22.731512 -1.529966 2.223048 0.000236 0.019094 51903.700000 0 1 0
1.930708 -19.049905 -13.805221 23.605310 -1.469791 2.195473 0.003121 0.012688 -140134.000000 0 1 0
1.796208 -20.037905 -14.882221 25.024478 -1.481395 2.207697 0.010360 0.020143 354812.000000 0 0 1
0.965308 -21.189305 -14.603521 25.752307 -1.525271 2.173748 0.006104 0.012914 -407243.000000 0 0 1
0.979208 -22.167705 -15.778221 27.227160 -1.526652 2.188915 0.019403 0.003856 107327.000000 0 0 1
2.200908 -22.780905 -16.136121 28.003358 -1.474483 2.184894 0.041789 -0.002897 324641.000000 0 0 1
3.214208 -21.885605 -16.654121 27.688817 -1.424975 2.216142 0.041518 -0.005059 565417.000000 0 0 1
4.585808 -22.607605 -16.863321 28.574552 -1.370668 2.202043 0.039758 -0.003232 416436.000000 0 0 1
4.741108 -23.306105 -18.080421 29.875647 -1.370107 2.220800 0.057481 -0.005409 653378.000000 0 0 1
6.045508 -23.855305 -18.322621 30.681300 -1.322598 2.210792 0.059708 -0.004347 850156.000000 0 0 1
6.596008 -23.682805 -19.771021 31.547993 -1.299166 2.248103 0.068098 -0.004621 161249.000000 0 0 1
6.750608 -22.334305 -20.092321 30.791123 -1.277274 2.281723 0.070621 -0.012144 -10436.700000 0 0 1
7.365108 -22.244305 -21.370821 31.713813 -1.251056 2.310223 0.054528 -0.011479 4284.730000 0 0 1
7.348608 -20.821305 -21.963621 31.143690 -1.231507 2.353551 0.055953 -0.022559 35885.400000 0 0 1
6.073108 -20.274105 -22.190621 30.665056 -1.279752 2.379866 0.063729 -0.019425 -214046.000000 0 0 1
6.207108 -18.857505 -22.436621 29.958899 -1.252808 2.417217 0.065512 -0.020208 780685.000000 0 0 1
4.871608 -18.170205 -22.895621 29.632725 -1.308847 2.453796 0.056336 -0.016429 -336342.000000 0 0 1
4.265508 -18.640305 -24.069721 30.740966 -1.345837 2.470247 0.058264 -0.013058 454502.000000 0 0 1
3.441508 -17.597905 -24.693221 30.516969 -1.377670 2.513524 0.054554 -0.006441 1528380.000000 0 0 1
2.038008 -17.394205 -24.016221 29.723572 -1.454162 2.511522 0.045989 -0.001204 67100.100000 0 0 1
2.311108 -16.546405 -22.860821 28.315047 -1.432020 2.510484 0.037278 -0.001631 -388291.000000 0 0 1
1.147808 -15.925105 -22.370621 27.484016 -1.498845 2.521716 0.022768 -0.000226 34959.600000 0 0 1
1.374108 -15.157805 -21.060021 25.984066 -1.480390 2.515797 0.013153 0.003166 133755.000000 0 0 1
2.032808 -13.900705 -21.224821 25.452994 -1.425588 2.556902 0.017091 0.006972 -144842.000000 0 0 1
2.090708 -13.221905 -19.966421 24.038465 -1.413970 2.550986 0.017416 -0.001848 800416.000000 0 1 0
3.361008 -12.312905 -19.777921 23.538695 -1.304322 2.568504 0.022160 -0.012356 929716.000000 0 1 0
4.612508 -12.911405 -19.474021 23.816320 -1.227684 2.528158 0.027562 -0.015076 781566.000000 0 1 0
5.763608 -12.063205 -19.339221 23.510541 -1.125079 2.536724 0.034818 -0.014896 951200.000000 0 1 0
5.800108 -11.080005 -18.088521 21.990961 -1.088545 2.536665 0.040565 -0.020948 -617802.000000 0 1 0
4.989208 -9.919605 -18.109421 21.242455 -1.104780 2.591566 0.017782 -0.011524 -22500.400000 0 1 0
5.301008 -8.828105 -19.023721 21.631876 -1.030032 2.645460 0.031168 -0.016781 -222593.000000 0 1 0
4.773908 -8.998705 -20.504321 22.895285 -1.083039 2.680506 0.042992 -0.017218 487449.000000 0 1 0
3.356408 -8.926805 -20.627921 22.725854 -1.211156 2.708531 0.030981 -0.019265 225009.000000 0 1 0
3.021108 -9.108905 -22.002421 24.004286 -1.250548 2.730298 0.036469 -0.020758 1034230.000000 0 1 0
1.500908 -8.903405 -22.357721 24.112051 -1.403790 2.757777 0.043138 -0.016327 1022100.000000 0 1 0
1.036008 -7.592105 -21.975721 23.273282 -1.435175 2.806095 0.041770 -0.018896 -359632.000000 0 1 0
-0.364692 -7.501405 -22.050821 23.294694 1.522218 2.813326 0.032730 -0.014651 -21489.100000 0 1 0
-0.910292 -6.596605 -23.167721 24.105748 1.433668 2.861707 0.044726 -0.006135 -62842.800000 0 1 0
-0.807792 -7.148305 -24.488821 25.523580 1.458269 2.855872 0.047772 -0.007017 -228956.000000 0 0 1
-1.385392 -6.382405 -25.562761 26.383880 1.357048 2.891453 0.054295 -0.018047 6235.600000 0 0 1
-0.811492 -4.952305 -25.923641 26.404905 1.408378 2.950376 0.056881 -0.014206 -230735.000000 0 0 1
-1.191392 -4.276105 -27.103411 27.464511 1.299071 2.979255 0.051924 -0.012428 -270165.000000 0 0 1
-0.687992 -2.974705 -27.270461 27.440850 1.343512 3.030096 0.049547 -0.009400 -763851.000000 0 0 1
-1.365992 -1.887805 -26.399331 26.501970 0.944415 3.053554 0.050119 -0.011147 -154383.000000 0 0 1
-2.765692 -1.869505 -26.474791 26.684427 0.594411 3.016162 0.033194 -0.005360 -539091.000000 0 0 1
-3.317592 -1.133005 -27.518811 27.741216 0.329095 3.014881 0.040883 -0.002324 -1437120.000000 0 0 1
-4.819392 -1.125605 -27.450691 27.893260 0.229445 2.963219 0.030384 -0.000002 -1136260.000000 0 0 1
-5.274592 -0.307505 -26.416921 26.940111 0.058233 2.944191 0.033018 -0.004114 493245.000000 0 0 1
-6.653592 -0.628905 -26.188771 27.028087 0.094241 2.891730 0.024869 -0.015083 466540.000000 0 0 1
-7.523492 0.439895 -25.534931 26.623845 -0.058403 2.854602 0.027902 -0.006462 -593978.000000 0 0 1
-7.798492 1.676395 -26.214981 27.401678 -0.211742 2.846216 0.042936 -0.009109 412961.000000 0 0 1
-8.666592 1.779695 -27.342291 28.738093 -0.202536 2.828645 0.028175 -0.005656 323376.000000 0 0 1
-10.087192 1.166495 -27.212271 29.045134 -0.115130 2.784440 0.027110 -0.010246 23671.100000 0 0 1
-11.065392 1.899195 -28.008321 30.174755 -0.169978 2.760352 0.028189 -0.020156 -220468.000000 0 0 1
-12.298392 1.353495 -27.679871 30.319262 -0.109613 2.721244 0.008009 -0.014717 -1377050.000000 0 0 1
-13.393892 2.233395 -28.249021 31.343126 -0.165227 2.693518 -0.000264 -0.008809 -1920510.000000 0 0 1
-14.633492 1.591295 -28.320521 31.917443 -0.108318 2.662265 0.000353 -0.006976 81747.300000 0 0 1
-15.656092 2.388195 -28.926101 32.977810 -0.151374 2.640667 0.007022 -0.002615 358392.000000 0 0 1
-16.055592 3.764695 -28.385811 32.828481 -0.230318 2.615290 0.010980 0.000127 -867066.000000 0 0 1
-15.204392 4.914595 -28.583931 32.747028 -0.312635 2.631852 0.031447 -0.003319 109858.000000 0 0 1
-15.112292 5.535395 -29.879211 33.938020 -0.351108 2.647512 0.026616 -0.006441 383394.000000 0 0 1
-16.463692 6.020895 -30.551631 35.223663 -0.350599 2.620671 0.025503 0.001622 773843.000000 0 0 1
-17.040692 7.145695 -29.979551 35.216751 -0.397059 2.589229 0.035495 0.003640 612883.000000 0 0 1
-18.066392 7.747595 -30.819621 36.555010 -0.405119 2.573823 0.031108 -0.003118 522833.000000 0 0 1
-18.867492 8.816495 -30.029091 36.543934 -0.437135 2.535229 0.032146 -0.006436 126187.000000 0 0 1
-18.070792 9.927295 -29.563501 36.043103 -0.502349 2.532603 0.040498 -0.004977 512494.000000 0 0 1
-18.912092 10.857995 -28.947551 36.242571 -0.521180 2.495956 0.055678 -0.009450 -145946.000000 0 0 1
-8.010692 24.609895 31.238043 40.566408 -1.256106 0.691881 0.019180 -0.005257 -1102530.000000 0 0 1
-8.871592 25.627395 30.935003 41.139311 -1.237532 0.719770 0.036261 -0.010414 -716207.000000 0 0 1
-8.793792 26.859895 31.646073 42.429455 -1.254400 0.728984 0.039829 -0.008173 344990.000000 0 0 1
-7.466292 27.661995 31.472773 42.561331 -1.307167 0.738516 0.039605 -0.011288 469316.000000 0 0 1
-7.505992 28.356995 30.255663 42.141004 -1.312034 0.769925 0.057880 -0.002612 -420665.000000 0 0 1
-6.223692 28.694795 29.846583 41.868175 -1.357212 0.777214 0.061246 -0.007351 -624011.000000 0 0 1
-6.181192 30.037095 29.044853 42.237870 -1.367844 0.812550 0.081198 -0.009251 -104128.000000 0 0 1
-6.431392 31.221795 29.795043 43.633793 -1.367647 0.819149 0.081009 -0.010575 381982.000000 0 0 1
-6.146592 32.320195 28.957263 43.828058 -1.382863 0.849043 0.080395 -0.010487 29489.600000 0 0 1
-6.519792 33.714395 29.608533 45.341298 -1.379771 0.859238 0.080319 -0.015031 -36859.100000 0 0 1
-5.636892 34.019395 30.673443 46.151423 -1.406592 0.843803 0.087317 -0.021367 221430.000000 0 0 1
-6.266992 -33.889426 31.670353 46.805765 1.387937 0.827615 0.074712 -0.025461 382513.000000 0 0 1
-7.483792 34.248395 32.453533 47.772288 -1.355663 0.823936 0.038229 -0.021153 126423.000000 0 0 1
-7.199092 33.356195 33.501869 47.820893 -1.358232 0.794601 0.045074 -0.015301 -108956.000000 0 0 1
-7.151692 31.943895 33.237511 46.650737 -1.350545 0.777776 0.067869 -0.010025 12270.800000 0 0 1
-6.808292 31.101095 -34.073951 46.633304 -1.355287 2.390112 0.061060 -0.008710 333811.000000 0 0 1
-5.462992 31.342595 -33.654031 46.311945 -1.398231 2.384275 0.060757 -0.007101 465489.000000 0 0 1
-5.307492 30.809395 -32.380041 45.009502 -1.400202 2.373741 0.043091 -0.006265 -169079.000000 0 0 1
-3.857792 30.574195 -31.871401 44.333397 -1.445282 2.373019 0.014791 -0.002001 504789.000000 0 0 1
-3.173492 29.353295 -32.113111 43.622687 -1.463101 2.398170 0.021266 0.002596 206170.000000 0 0 1
-3.048892 28.870595 -33.444151 44.286772 -1.465581 2.426713 0.022955 0.002230 -511433.000000 0 0 1
-2.300292 27.533195 -33.628421 43.522854 -1.487444 2.453819 0.025396 -0.003665 335978.000000 0 0 1
-0.905592 27.596495 -33.263321 43.230026 -1.537993 2.448775 0.043855 0.007090 932186.000000 0 0 1
-0.233992 26.342195 -33.203701 42.384569 -1.561914 2.470900 0.043631 0.006928 162686.000000 0 0 1
0.291508 25.755595 34.077815 42.716895 1.559479 0.647226 0.045936 0.006975 185550.000000 0 0 1
-0.760492 25.444895 33.132018 41.782193 -1.540917 0.655128 0.044575 0.007408 706613.000000 0 0 1
-0.304892 25.329195 31.782013 40.641819 -1.558760 0.672924 0.050525 0.003078 -49917.700000 0 0 1
-0.039492 26.638695 30.969463 40.850083 -1.569314 0.710364 0.053544 -0.001394 39510.600000 0 0 1
-1.238492 27.336795 30.737793 41.153932 -1.525522 0.727412 0.049501 -0.007176 -31013.200000 0 0 1
-0.952792 28.551295 30.085603 41.487682 -1.537437 0.759516 0.063095 -0.009887 711978.000000 0 0 1
-2.024292 29.712495 30.259313 42.456521 -1.502772 0.777438 0.068617 -0.012383 589750.000000 0 0 1
-1.884392 30.293995 31.525103 43.761961 -1.508673 0.766451 0.076434 -0.015028 -89816.400000 0 0 1
-2.735892 31.390195 31.714643 44.706241 -1.483858 0.782149 0.078511 -0.010941 -194675.000000 0 0 1
-2.325292 32.153795 32.942908 46.092393 -1.498604 0.774580 0.079895 -0.011303 145234.000000 0 0 1
-1.196892 32.971195 32.706814 46.457162 -1.534511 0.789753 0.075364 -0.018565 -264404.000000 0 0 1
-0.585692 33.345795 33.912839 47.564333 -1.553234 0.777045 0.056482 -0.019829 -459590.000000 0 0 1
0.736208 34.056795 33.588877 47.839523 1.549183 0.792432 0.070096 -0.026035 -338074.000000 0 0 1
0.654308 -33.321326 33.079452 46.957311 -1.551163 0.789137 0.076797 -0.031746 1130740.000000 0 0 1
1.991508 -32.826326 32.812895 46.456645 -1.510203 0.786521 0.058098 -0.035446 1157160.000000 0 0 1
1.947808 -31.311326 32.414053 45.109466 -1.508669 0.769061 0.053656 -0.024617 -93119.500000 0 0 1
1.750408 -30.474026 33.550085 45.357892 -1.513420 0.738209 0.039626 -0.015919 -7774.100000 0 0 1
2.198108 -29.167526 33.387734 44.388254 -1.495577 0.719440 0.040092 -0.034672 -439743.000000 0 0 1
1.868008 -28.268926 -34.021121 44.272545 -1.504812 2.447208 0.040865 -0.034950 155839.000000 0 0 1
0.458808 -28.207226 -33.904881 44.106678 -1.554532 2.447605 0.019870 -0.028779 32377.000000 0 0 1
0.070508 -27.321326 -32.854951 42.730640 -1.568216 2.447892 0.020605 -0.019305 487119.000000 0 0 1
-1.486192 -27.212626 -32.786121 42.634088 1.516236 2.448090 0.025411 -0.013096 579123.000000 0 0 1
-1.892292 -26.947026 -31.445461 41.455277 1.500689 2.431865 0.031831 -0.014032 136767.000000 0 0 1
-2.875292 -25.927526 -31.453231 40.863304 1.460350 2.449196 0.049658 -0.025052 -19658.500000 0 0 1
-3.307292 -25.510226 -30.033811 39.544147 1.441870 2.433342 0.049403 -0.024061 10249.100000 0 0 1
-3.880692 -26.574826 -29.260811 39.717454 1.425792 2.399009 0.038064 -0.019205 138894.000000 0 0 1
-4.422792 -26.070126 -28.044341 38.544748 1.402747 2.385582 0.047005 -0.018965 254781.000000 0 0 1
-3.425392 -25.575426 -26.928851 37.296095 1.437656 2.377526 0.051150 -0.022165 79200.700000 0 0 1
-2.897692 -24.320226 -27.228871 36.623509 1.452208 2.409056 0.053040 -0.024637 -673706.000000 0 0 1
-1.791392 -24.124726 -26.422131 35.823742 1.496677 2.400245 0.050242 -0.026110 -1452190.000000 0 0 1
-0.830392 -23.038226 -27.030891 35.526306 1.534768 2.435449 0.047958 -0.025436 168374.000000 0 0 1
-0.248892 -23.335926 -28.272391 36.659998 1.560131 2.451529 0.026996 -0.028111 -31184.200000 0 0 1
0.586308 -24.484926 -28.216551 37.363473 -1.546855 2.426741 0.024670 -0.021976 -1064840.000000 0 0 1
1.220308 -24.840326 -29.564571 38.634114 -1.521710 2.442218 0.019069 -0.020509 -550690.000000 0 0 1
2.255308 -23.989126 -29.881961 38.386145 -1.477058 2.463000 0.019841 -0.020681 -255473.000000 0 0 1
3.074008 -24.559626 -30.908571 39.597531 -1.446279 2.466371 0.015025 -0.017318 -377540.000000 0 0 1
4.146208 -23.599626 -31.479941 39.561598 -1.396882 2.490991 0.026154 -0.018984 -101804.000000 0 0 1
5.281308 -23.470726 -30.620601 38.940832 -1.349466 2.475653 0.040030 -0.012952 1021730.000000 0 0 1
6.315908 -24.457426 -30.690851 39.749021 -1.318077 2.452960 0.048257 -0.005472 -90148.400000 0 0 1
7.127708 -24.638126 -31.983571 40.997442 -1.289189 2.465679 0.068173 -0.006159 -705712.000000 0 0 1
6.618808 -25.468626 -33.052821 42.248651 -1.316540 2.469211 0.032080 -0.009227 151832.000000 0 0 1
7.182008 -25.167626 34.283297 43.131602 -1.292818 0.652031 0.049107 -0.009062 146774.000000 0 0 1
6.609208 -23.829026 33.697723 41.797616 -1.300238 0.633076 0.053029 -0.008171 72622.900000 0 0 1
5.198408 -23.792626 33.727773 41.601385 -1.355688 0.625387 0.047282 -0.014732 -110094.000000 0 0 1
4.740208 -22.520126 33.313224 40.489462 -1.363337 0.604541 0.071438 -0.019461 -518383.000000 0 0 1
3.273408 -22.354626 33.716323 40.586143 -1.425399 0.590370 0.053538 -0.019565 -362192.000000 0 0 1
2.413708 -23.170926 32.942727 40.347752 -1.467001 0.615526 0.044471 -0.028505 322328.000000 0 0 1
1.523108 -23.932926 33.795485 41.439590 -1.507241 0.617141 0.037117 -0.021432 347981.000000 0 0 1
0.289308 -24.496626 33.069484 41.155306 -1.558987 0.637596 0.032532 -0.027163 -106243.000000 0 0 1
0.459708 -25.688526 32.303843 41.275295 -1.552903 0.671895 0.043341 -0.022768 753887.000000 0 0 1
-0.817892 -26.010926 31.720473 41.029570 1.539363 0.687063 0.045761 -0.038177 877749.000000 0 0 1
-0.851192 -27.293026 30.919543 41.251084 1.539619 0.723422 0.053132 -0.035766 -605017.000000 0 0 1
-2.063792 -27.453026 30.274673 40.920456 1.495762 0.737961 0.061416 -0.035013 -598635.000000 0 0 1
-2.087992 -28.683426 29.478183 41.183272 1.498130 0.773055 0.065366 -0.032206 -46512.500000 0 0 1
-3.398792 -28.790626 28.639103 40.751076 1.453288 0.791496 0.075987 -0.022517 -34288.300000 0 0 1
-4.430792 -29.066826 29.544523 41.682024 1.419526 0.782990 0.085192 -0.024111 -911000.000000 0 0 1
-5.653592 -29.134226 28.875973 41.407585 1.379125 0.799090 0.071404 -0.018653 -43140.600000 0 0 1
-6.805092 -29.593326 29.835063 42.570004 1.344772 0.794212 0.058035 -0.009580 1016800.000000 0 0 1
-8.102392 -29.778026 29.211593 42.493491 1.305135 0.812842 0.055411 0.000983 1141600.000000 0 0 1
-9.170992 -30.065526 30.096773 43.518487 1.274728 0.807114 0.047231 0.003791 111528.000000 0 0 1
-9.088992 -31.315326 31.073223 45.042254 1.288317 0.809489 0.036627 0.000175 -814577.000000 0 0 1
-9.308792 -32.618626 30.554333 45.652992 1.292803 0.837566 0.054015 -0.002626 1132020.000000 0 0 1
-10.703992 -32.926526 30.307353 46.013772 1.256486 0.851762 0.032106 0.004453 939548.000000 0 0 1
-10.780692 34.354095 29.750973 46.707040 -1.266718 0.880235 0.057045 0.004757 -281541.000000 0 0 1
-10.555992 33.319895 30.660083 46.493925 -1.263992 0.850719 0.048493 0.002983 208897.000000 0 0 1
-10.245792 32.104895 29.944063 45.081564 -1.261878 0.844347 0.057867 -0.001684 39335.300000 0 0 1
-10.601792 30.825595 30.766763 44.824201 -1.239541 0.814287 0.067482 0.007532 250184.000000 0 0 1
-11.990692 30.525895 30.731513 44.944776 -1.196509 0.817891 0.053412 0.013804 181075.000000 0 0 1
-12.278092 29.315195 31.432063 44.700188 -1.174163 0.790943 0.060983 0.003493 89679.100000 0 0 1
-12.262792 29.443495 32.950775 45.859013 -1.176159 0.769119 0.061418 -0.004894 -133662.000000 0 0 1
-13.273692 30.341995 33.418244 47.048981 -1.158412 0.780892 0.054950 0.000548 445118.000000 0 0 1
-13.527992 30.071395 -33.832161 47.243099 -1.148057 2.369037 0.066771 -0.008256 -471898.000000 0 0 1
-14.876792 30.484595 -33.254621 47.502623 -1.116787 2.346276 0.066906 -0.009672 -438845.000000 0 0 1
-14.991192 29.935295 -31.956771 46.282749 -1.106520 2.332933 0.072900 -0.018407 144092.000000 0 0 1
-16.175492 30.247395 -31.221251 46.382302 -1.079719 2.309227 0.070392 -0.015678 398556.000000 0 0 1
-16.210692 29.511395 -29.816291 44.974661 -1.068489 2.295559 0.087487 -0.019462 -60314.700000 0 0 1
-16.533292 28.132195 -29.941061 44.285858 -1.039470 2.313234 0.089798 -0.026645 137681.000000 0 0 1
-16.599292 27.518295 -28.676781 43.071461 -1.028020 2.299356 0.083319 -0.018161 -197947.000000 0 0 1
-17.176492 26.101395 -28.631821 42.380371 -0.988770 2.312563 0.053780 -0.024120 380160.000000 0 0 1
-18.592692 26.065795 -28.796971 43.062505 -0.951201 2.303289 0.059796 -0.020554 180273.000000 0 0 1
-18.995692 24.814495 -28.375401 42.210885 -0.917444 2.308012 0.035962 -0.021563 15368.800000 0 0 1
-20.525692 24.634195 -28.470981 42.880582 -0.876125 2.296898 0.042605 -0.016578 131877.000000 0 0 1
-21.419492 25.301495 -27.586901 43.127686 -0.868297 2.264847 0.029194 -0.011182 61513.600000 0 0 1
-22.724192 24.876395 -27.846651 43.711095 -0.830581 2.261476 0.022315 -0.017845 -288183.000000 0 0 1
-23.802692 24.956095 -26.767131 43.656089 -0.809049 2.230821 0.030402 -0.021028 -173218.000000 0 0 1
-24.241592 26.226195 -26.519441 44.483129 -0.824702 2.209517 0.012887 0.002890 -522518.000000 0 0 1
-25.402262 26.285495 -25.731781 44.702647 -0.802484 2.184160 0.015183 0.006552 -322618.000000 0 0 1
-25.297832 26.033195 -24.220221 43.638591 -0.799723 2.159181 0.021158 0.016559 -711989.000000 0 0 1
-25.050862 24.678095 -23.801921 42.462754 -0.777902 2.165830 0.010739 0.001982 130070.000000 0 0 1
-26.245902 23.933695 -23.583521 42.636270 -0.739352 2.156916 0.011383 0.002868 14558.900000 0 0 1
-26.825372 24.189295 -22.145821 42.369328 -0.733771 2.120794 0.010584 0.006157 -94367.700000 0 0 1
-26.157582 23.565395 -21.051021 41.020634 -0.733313 2.109684 0.009916 0.003790 922173.000000 0 0 1
-24.865192 24.097295 -20.727921 40.355967 -0.769716 2.110203 0.022855 0.005231 427896.000000 0 0 1
-24.109092 23.466195 -19.517421 38.895248 -0.771886 2.096468 0.030866 0.003452 -23883.700000 0 0 1
-24.641492 23.709495 -18.209521 38.741836 -0.766125 2.060112 0.034787 -0.000840 234842.000000 0 0 1
-23.712492 23.408395 -17.183421 37.490067 -0.778945 2.046930 0.037392 -0.006340 225616.000000 0 0 1
-24.360992 23.536895 -15.758921 37.360232 -0.768195 2.006237 0.027780 -0.007352 83924.300000 0 0 1
-24.783092 24.824595 -15.371321 38.298037 -0.786235 1.983798 0.032685 -0.015469 746.128000 0 0 1
-25.060122 24.856195 -14.004221 37.973126 -0.781313 1.948506 0.015417 -0.018687 105102.000000 0 0 1
-25.236762 26.251595 -13.418221 38.808363 -0.805106 1.923841 0.019498 -0.019326 9324.670000 0 0 1
-24.026292 26.959795 -13.481721 38.546725 -0.842870 1.928101 0.013504 -0.016017 -152104.000000 0 0 1
-23.938492 28.002795 -12.511921 38.907018 -0.863487 1.898199 0.018852 -0.012743 376735.000000 0 0 1
-22.474892 28.233995 -12.023821 38.037501 -0.898485 1.892417 0.016068 -0.013223 174513.000000 0 0 1
-21.928192 27.258895 -11.202021 36.733884 -0.893353 1.880683 0.018812 -0.012881 -813121.000000 0 0 1
-20.739692 27.699495 -10.661921 36.208747 -0.928103 1.869684 0.002058 -0.004395 -807550.000000 0 0 1
-19.818392 26.577795 -10.089721 34.654730 -0.930069 1.866225 0.033893 -0.007026 -77039.800000 0 0 1
-19.240992 25.857695 -11.139121 34.101556 -0.931075 1.903549 0.030681 -0.006809 -247165.000000 0 0 1
-18.655692 24.689595 -10.599421 32.710222 -0.923715 1.900793 0.039973 0.002704 -753193.000000 0 0 1
-17.961092 23.833495 -11.563021 32.005308 -0.924991 1.940441 0.039767 -0.001153 -556867.000000 0 0 1
-17.688892 22.615995 -10.985921 30.742000 -0.907040 1.936235 0.026645 0.004331 121228.000000 0 0 1
-17.056492 21.683295 -11.877021 30.035859 -0.904268 1.977330 0.040490 0.003003 231874.000000 0 0 1
-16.964292 20.263695 -11.362921 28.766656 -0.873794 1.976868 0.028359 0.003786 964462.000000 0 0 1
-18.242792 19.596495 -11.222721 29.030527 -0.821158 1.967720 0.025417 0.009499 981775.000000 0 0 1
-18.077092 18.279495 -10.831121 27.896852 -0.790965 1.969535 0.045783 0.000753 367233.000000 0 0 1
-19.371892 17.410395 -11.049621 28.292864 -0.732121 1.972019 0.053275 -0.005722 453451.000000 0 0 1
-19.710892 16.967895 -12.337121 28.785990 -0.710753 2.013718 0.037231 0.005221 10863.300000 0 0 1
-20.235392 17.898695 -13.241121 30.085904 -0.724199 2.026518 0.035229 0.015171 -279328.000000 0 0 1
-20.783592 17.144795 -14.516521 30.604428 -0.689752 2.064996 0.028026 0.011450 42406.100000 0 0 1
-19.773792 16.825895 -15.438521 30.206978 -0.705027 2.107250 0.028273 0.015098 112759.000000 0 0 1
-20.334692 16.456195 -16.720221 31.046285 -0.680366 2.139521 0.033083 0.009395 -106176.000000 0 0 1
-19.293692 16.184595 -17.813021 30.846253 -0.697988 2.186432 0.039912 0.003269 -477469.000000 0 0 1
-18.931692 17.466195 -18.290821 31.591629 -0.745157 2.188270 0.030802 -0.000576 234191.000000 0 0 1
-18.093792 17.329795 -19.436021 31.709084 -0.763834 2.230583 0.032312 0.004873 -92876.300000 0 0 1
-17.441192 18.657795 -19.989921 32.433091 -0.819087 2.234887 0.020001 0.004646 20253.900000 0 0 1
-16.583192 19.164495 -18.973321 31.658601 -0.857482 2.213435 0.017346 0.009684 210700.000000 0 0 1
-16.284792 20.507995 -19.295421 32.528227 -0.899681 2.205812 0.025248 -0.003007 -95612.800000 0 0 1
32.801985 30.746695 2.091879 45.007837 0.753067 1.524301 0.047156 -0.017938 -190298.000000 0 0 1
34.059795 30.872995 1.481279 45.993539 0.736359 1.538585 0.058309 -0.013538 -114521.000000 0 0 1
34.044615 31.391995 0.124579 46.308840 0.744883 1.568106 0.049116 -0.009173 -533469.000000 0 0 1
35.421805 31.302495 -0.534421 47.274053 0.723740 1.582101 0.032206 -0.003563 -835754.000000 0 0 1
-35.529084 32.073295 0.115779 47.864657 -0.734323 1.568377 0.020993 -0.001071 -161060.000000 0 0 1
-34.326339 32.026095 -0.642321 46.950834 -0.750745 1.584477 0.023230 0.001520 334711.000000 0 0 1
-33.184832 33.022495 -0.294921 46.816719 -0.782946 1.577096 0.001804 0.005934 93125.900000 0 0 1
-32.660002 32.759395 0.985979 46.269059 -0.786917 1.549485 0.010258 0.005670 -25120.000000 0 0 1
-32.108632 33.997395 1.446379 46.785458 -0.813962 1.539876 -0.000482 0.002286 -472048.000000 0 0 1
-31.363262 33.742895 2.735479 46.148889 -0.821932 1.511486 0.009186 0.006258 -348683.000000 0 0 1
-30.991652 -33.749426 3.328079 45.941075 0.827969 1.498290 0.014880 0.005629 -147107.000000 0 0 1
-30.318462 -33.881726 4.553479 45.693705 0.840844 1.470978 0.032658 -0.003861 -456630.000000 0 0 1
-30.228912 -32.579326 5.430379 44.773749 0.822803 1.449212 0.038697 -0.002441 1197170.000000 0 0 1
-31.399742 -32.085326 6.179279 45.316613 0.796197 1.434012 0.041939 -0.002138 1197210.000000 0 0 1
-31.961002 -32.988426 7.093979 46.476515 0.801216 1.417562 0.047323 -0.011781 -547363.000000 0 0 1
-33.141272 -32.512326 7.984679 47.107859 0.775819 1.400476 0.064309 -0.002797 411599.000000 0 0 1
-34.415184 -32.220026 7.483779 47.734075 0.752467 1.413366 0.040554 0.009232 169255.000000 0 0 1
-35.116967 -33.359226 6.911079 48.926499 0.759734 1.429068 0.023132 0.003284 -1012040.000000 0 0 1
35.262865 -33.203626 6.840679 48.915696 -0.755331 1.430490 0.016662 0.014065 -437468.000000 0 0 1
34.604005 -33.185626 8.110279 48.626120 -0.764478 1.403225 0.015892 0.018802 264278.000000 0 0 1
33.201745 -33.205326 7.942779 47.623915 -0.785452 1.403232 -0.012682 0.026476 169905.000000 0 0 1
32.411495 -32.780226 9.221079 47.011451 -0.791054 1.373371 -0.026063 0.014963 -279083.000000 0 0 1
31.014115 -32.855926 9.253379 46.119543 -0.814227 1.368786 -0.018466 0.011028 -48837.600000 0 0 1
30.359635 -32.603126 10.491279 45.768310 -0.821015 1.339514 -0.006930 0.010817 -85117.800000 0 0 1
30.494675 -31.281926 11.294479 45.122604 -0.798141 1.317800 -0.014489 0.008219 -630530.000000 0 0 1
29.879975 -30.093726 10.860579 43.776677 -0.788962 1.320088 -0.014474 -0.003790 87334.000000 0 0 1
30.454915 -29.575026 9.669179 43.539374 -0.770742 1.346850 -0.007674 -0.006499 -152548.000000 0 0 1
29.929405 -28.166326 9.235379 42.123668 -0.755060 1.349756 0.002493 -0.009615 86590.900000 0 0 1
30.440675 -27.739626 7.990579 41.952007 -0.739006 1.379156 0.004470 -0.012197 -71487.400000 0 0 1
29.639515 -26.651726 7.600579 40.578124 -0.732371 1.382376 0.007319 -0.010569 -121855.000000 0 0 1
29.745585 -26.180126 6.139779 40.098575 -0.721731 1.417074 0.000224 -0.004626 826028.000000 0 0 1
31.045455 -25.615526 5.911979 40.680793 -0.689858 1.424954 0.012219 -0.008389 341210.000000 0 0 1
31.086805 -24.966426 4.663479 40.142993 -0.676640 1.454362 0.010904 -0.008599 -381295.000000 0 0 1
32.497235 -24.565426 4.243279 40.957733 -0.647281 1.467009 0.020910 -0.009791 -298970.000000 0 0 1
33.207985 -25.642926 3.720279 42.120902 -0.657553 1.482357 0.012638 -0.002507 455712.000000 0 0 1
34.617925 -25.451226 3.523679 43.111274 -0.633964 1.488971 0.015586 -0.010530 1311410.000000 0 0 1
35.352335 -26.817826 3.316479 44.496993 -0.648974 1.496194 0.015521 -0.001187 130193.000000 0 0 1
35.201955 -27.550526 4.511779 44.928446 -0.664067 1.470205 0.000588 -0.002826 -348880.000000 0 0 1
-35.917343 -28.739426 4.538479 46.223456 0.674835 1.472452 0.001435 0.002172 -940617.000000 0 0 1
35.603405 -29.650026 5.723879 46.685001 -0.694415 1.447881 0.007515 0.012838 -317972.000000 0 0 1
34.287145 -30.077726 5.759279 45.972244 -0.720092 1.445189 -0.011609 0.023853 -212683.000000 0 0 1
33.248255 -29.106626 5.948979 44.587358 -0.719075 1.436974 -0.013244 0.012180 775667.000000 0 0 1
31.789005 -29.509726 5.466779 43.717850 -0.748232 1.445421 -0.005370 0.007173 343031.000000 0 0 1
31.764895 -29.774526 4.078779 43.728336 -0.753066 1.477385 0.003232 0.003417 396074.000000 0 0 1
30.701025 -29.152726 3.318479 42.467007 -0.759536 1.492574 0.014638 0.000813 -383910.000000 0 0 1
29.335325 -29.711826 3.652479 41.912940 -0.791774 1.483541 0.010130 -0.001389 -1358160.000000 0 0 1
29.312935 -31.081426 3.308179 42.851456 -0.814672 1.493518 0.016024 -0.008610 3440.360000 0 0 1
28.013995 -31.667726 3.380079 42.415253 -0.846542 1.491022 0.042694 -0.007502 259639.000000 0 0 1
27.920695 -33.142526 2.925179 43.434421 -0.870706 1.503398 0.040580 -0.007711 -383382.000000 0 0 1
27.932845 -33.190026 1.524579 43.406751 -0.871197 1.535666 0.046381 -0.019179 104641.000000 0 0 1
28.029325 34.189995 1.121979 44.225079 0.884092 1.545424 0.036954 -0.017243 139397.000000 0 0 1
27.513425 33.945495 -0.331921 43.696628 0.889675 1.578392 0.039916 -0.019380 -490812.000000 0 0 1
28.432025 -34.203626 -1.215721 44.494337 -0.877284 1.598123 0.052874 -0.016474 84053.000000 0 0 1
27.971585 -34.086626 -2.548021 44.167862 -0.883618 1.628518 0.047790 -0.011488 -19116.700000 0 0 1
29.138875 -33.618426 -3.507021 44.627030 -0.856656 1.649463 0.057835 -0.015822 637551.000000 0 0 1
29.506255 -32.273026 -3.336421 43.855433 -0.830153 1.646948 0.038135 -0.019998 392693.000000 0 0 1
30.463395 -31.876026 -4.348621 44.305868 -0.808055 1.669105 0.060208 -0.030640 492757.000000 0 0 1
30.817705 -30.406926 -4.186121 43.495238 -0.778689 1.667189 0.045718 -0.024439 94700.200000 0 0 1
29.771855 -29.542826 -4.652621 42.199393 -0.781537 1.681274 0.034667 -0.030145 461694.000000 0 0 1
30.106375 -28.155526 -4.689321 41.486349 -0.751927 1.684071 0.028902 -0.031591 -17055.600000 0 0 1
31.054575 -27.707126 -5.800921 42.020497 -0.728493 1.709288 0.035486 -0.029485 -70375.300000 0 0 1
32.385945 -28.163926 -5.733421 43.300442 -0.715783 1.703597 0.042420 -0.021994 -311444.000000 0 0 1
33.274615 -27.540026 -6.632421 43.699451 -0.691380 1.723159 0.042613 -0.022180 57814.200000 0 0 1
33.371855 -28.169826 -8.044821 44.406519 -0.701070 1.752965 0.035569 -0.021884 -234703.000000 0 0 1
32.083235 -28.262326 -8.642021 43.620839 -0.722165 1.770233 0.028237 -0.021941 29560.100000 0 0 1
31.947205 -29.242926 -9.696721 44.382418 -0.741232 1.791054 0.025894 -0.015628 176692.000000 0 0 1
31.956405 -30.758526 -9.315921 45.322016 -0.766300 1.777822 0.027550 -0.010923 486200.000000 0 0 1
33.178355 -31.139826 -8.688921 46.324824 -0.753714 1.759479 0.034232 -0.010931 -175778.000000 0 0 1
32.950965 -32.312926 -7.948121 46.830160 -0.775622 1.741344 0.037378 -0.018306 262653.000000 0 0 1
34.266155 -33.058226 -7.615421 48.218361 -0.767458 1.729397 0.030058 -0.011093 177416.000000 0 0 1
34.164965 -34.295026 -6.955521 48.905755 -0.787298 1.713503 0.029410 -0.013924 -217420.000000 0 0 1
33.741075 -34.281626 -5.598421 48.425534 -0.793345 1.686664 0.030165 -0.013685 -167285.000000 0 0 1
33.546295 33.008095 -4.962321 47.323492 0.777312 1.675849 0.033014 -0.013444 171990.000000 0 0 1
32.364865 32.292995 -5.307221 46.027042 0.784287 1.686360 0.057366 -0.021734 287198.000000 0 0 1
32.395635 30.969495 -4.813321 45.074991 0.762895 1.677785 0.044405 -0.008650 263873.000000 0 0 1
31.235805 30.100195 -5.376721 43.710483 0.766886 1.694116 0.059887 -0.015044 258745.000000 0 0 1
31.189305 29.892495 -6.746821 43.724748 0.764171 1.725717 0.042806 -0.005444 -1397180.000000 0 0 1
29.949665 29.564295 -7.210621 42.696873 0.778923 1.740489 0.023400 0.006732 -1049300.000000 0 0 1
29.831065 29.203695 -8.676621 42.638386 0.774771 1.775721 0.021378 0.010799 -214213.000000 0 0 1
30.374215 27.928095 -8.981521 42.228416 0.743467 1.785122 0.018068 0.011826 -39680.700000 0 0 1
30.612035 27.647595 -10.348821 42.527453 0.734559 1.816609 0.012031 0.016617 79956.600000 0 0 1
31.783665 28.430995 -11.035021 44.048774 0.729777 1.824012 0.023102 0.009333 -311698.000000 0 0 1
32.988685 27.954995 -10.470021 44.489958 0.702989 1.808359 0.015637 0.002781 98128.600000 0 0 1
34.202285 28.550295 -10.896321 45.865515 0.695573 1.810661 0.023144 -0.002336 356256.000000 0 0 1
34.459995 30.028695 -10.454921 46.888369 0.716792 1.795661 0.033486 -0.012555 -862453.000000 0 0 1
35.217615 29.962595 -9.261821 47.157383 0.704949 1.768484 0.037861 -0.006470 237676.000000 0 0 1
35.122585 31.256895 -8.620421 47.800639 0.727228 1.752130 0.029774 -0.013458 -148484.000000 0 0 1
-35.674450 31.460195 -7.516021 48.154966 -0.722707 1.727517 0.029224 -0.009832 1019370.000000 0 0 1
-34.334452 31.611395 -7.983421 47.348388 -0.744129 1.740216 0.039478 -0.008710 408507.000000 0 0 1
-33.614562 30.418895 -8.178721 46.066684 -0.735533 1.749283 0.044693 -0.007823 -431214.000000 0 0 1
-32.177512 30.677295 -8.690121 45.299082 -0.761535 1.763832 0.059097 -0.010348 3426.900000 0 0 1
-31.269382 31.094795 -7.690021 44.763790 -0.782599 1.743444 0.050067 -0.004401 1244350.000000 0 0 1
-29.891572 31.355595 -8.047221 44.061742 -0.809297 1.754462 0.046363 -0.017067 1226540.000000 0 0 1
-29.597652 32.684995 -8.831021 44.970177 -0.834927 1.768456 0.005300 -0.003892 -533202.000000 0 0 1
-29.524872 33.912895 -8.129121 45.693381 -0.854459 1.749654 -0.018336 0.012266 -188092.000000 0 0 1
-28.613632 34.053895 -7.068421 45.037431 -0.871993 1.728393 -0.018803 0.012534 -313519.000000 0 0 1
-28.674352 -33.255426 -6.403521 44.375071 0.859236 1.715606 -0.026539 0.022217 -745163.000000 0 0 1
-29.732182 -32.942526 -5.557521 44.722463 0.836576 1.695385 -0.023148 0.013215 -530309.000000 0 0 1
-29.571232 -33.455226 -4.221421 44.850087 0.846945 1.665059 -0.031386 0.008664 67814.400000 0 0 1
-30.910922 -33.467326 -3.451421 45.688722 0.825086 1.646410 -0.008922 0.008391 -142881.000000 0 0 1
-31.418072 -32.186026 -3.070321 45.082839 0.797472 1.638953 -0.008518 0.009295 35924.100000 0 0 1
-32.372902 -32.257126 -2.035821 45.745727 0.783607 1.615314 -0.004952 0.007130 -102144.000000 0 0 1
-33.133152 -30.871626 -1.878521 45.325400 0.750079 1.612253 0.014092 0.005285 18033.100000 0 0 1
-34.048944 -30.806626 -0.831421 45.924613 0.735447 1.588901 0.014717 0.007446 -495975.000000 0 0 1
-34.616725 -29.525026 -0.720821 45.503455 0.706182 1.586638 0.026168 0.000945 70141.700000 0 0 1
-35.749806 -29.447726 0.343679 46.317764 0.689036 1.563376 0.025159 0.003460 -984165.000000 0 0 1
35.060975 -30.308326 -0.001821 46.345082 -0.712821 1.570836 0.009804 -0.003702 537458.000000 0 0 1
34.010405 -30.169426 0.985079 45.473864 -0.725622 1.549132 0.006042 -0.003978 788025.000000 0 0 1
33.270345 -28.766626 1.080879 43.995488 -0.712928 1.546226 0.009800 0.000593 -1368370.000000 0 0 1
32.160655 -28.665526 0.192379 43.081981 -0.728000 1.566331 0.018985 -0.004623 4245.280000 0 0 1
31.785415 -27.311426 0.056779 41.907396 -0.709836 1.569441 0.016616 -0.000558 -700336.000000 0 0 1
30.601895 -27.363926 -0.924121 41.062324 -0.729596 1.593304 0.012708 -0.001231 -552394.000000 0 0 1
29.415125 -27.746626 -0.271621 40.437589 -0.756217 1.577513 0.014519 -0.002446 -113688.000000 0 0 1
29.009745 -29.067026 0.063479 41.066548 -0.786384 1.569251 0.024375 -0.007805 -436966.000000 0 0 1
28.453845 -29.837526 -1.189321 41.246985 -0.809131 1.599634 0.038747 -0.014848 231938.000000 0 0 1
27.168835 -29.398926 -1.636921 40.063973 -0.824801 1.611665 0.044679 -0.006360 453008.000000 0 0 1
26.818315 -30.036626 -2.829221 40.366142 -0.841943 1.640943 0.040714 -0.012779 -204881.000000 0 0 1
25.308515 -30.194726 -3.020421 39.514116 -0.873206 1.647310 0.025711 -0.011977 -10987.000000 0 0 1
24.588215 -29.074526 -3.512521 38.239328 -0.868806 1.662782 0.036937 0.001575 -129565.000000 0 0 1
23.200815 -29.315326 -3.552821 37.553811 -0.901307 1.665544 0.033377 -0.001644 -49655.800000 0 0 1
22.452015 -27.965626 -3.636321 36.047081 -0.894324 1.671845 0.031214 -0.001283 -137972.000000 0 0 1
22.352715 -27.470426 -4.952521 35.760252 -0.887757 1.709735 0.032230 -0.000928 204780.000000 0 0 1
21.681715 -26.220826 -4.981221 34.386640 -0.879873 1.716167 0.032439 -0.011976 -134911.000000 0 0 1
20.992315 -25.810726 -6.270721 33.855469 -0.887988 1.757092 0.042253 -0.037214 801565.000000 0 0 1
19.705915 -26.431526 -6.497121 33.602994 -0.930152 1.765371 0.044263 -0.027238 584503.000000 0 0 1
19.084115 -25.829726 -7.631721 33.009413 -0.934474 1.804106 0.067887 -0.031795 -1320970.000000 0 0 1
17.601715 -25.904526 -7.649021 32.239298 -0.973972 1.810338 0.061212 -0.025487 -1337040.000000 0 0 1
16.967615 -25.129626 -6.633021 31.038605 -0.976907 1.786160 0.049225 -0.017006 -376603.000000 0 0 1
15.595515 -25.373426 -6.561721 30.497328 -1.019682 1.787649 0.045898 -0.012734 -754604.000000 0 0 1
14.865115 -24.637326 -5.513721 29.297962 -1.027912 1.760120 0.034155 -0.007320 -426355.000000 0 0 1
15.240215 -25.090626 -4.217021 29.657831 -1.024948 1.713469 0.030759 -0.010738 413030.000000 0 0 1
14.610815 -24.335726 -3.166521 28.560993 -1.030093 1.681893 0.031563 -0.011175 105332.000000 0 0 1
14.663615 -24.966126 -1.771021 29.008026 -1.039737 1.631887 0.034293 -0.012578 -16114.100000 0 0 1
14.189315 -26.312226 -1.801921 29.948570 -1.076231 1.631000 0.037035 -0.013728 385860.000000 0 0 1
14.662515 -27.083926 -0.710221 30.806376 -1.074600 1.593853 0.032984 -0.014290 -385739.000000 0 0 1
14.277815 -28.551826 -0.887221 31.935089 -1.107095 1.598582 0.037017 -0.017053 -697536.000000 0 0 1
12.951715 -28.797626 -0.543621 31.580781 -1.148151 1.588011 0.046236 -0.022101 -684839.000000 0 0 1
12.401015 -29.901126 -1.240721 32.394473 -1.177653 1.609106 0.052988 -0.020564 79656.500000 0 0 1
12.992015 -31.333326 -0.935621 33.932951 -1.177734 1.598372 0.041251 -0.014246 39824.000000 0 0 1
14.323415 -31.485726 -1.397021 34.618822 -1.143860 1.611162 0.030811 -0.012947 -214117.000000 0 0 1
14.861315 -32.758426 -1.205921 35.992046 -1.144900 1.604308 0.034665 -0.013768 -821326.000000 0 0 1
16.247815 -32.831626 -1.824521 36.677459 -1.111251 1.620562 0.027052 -0.008146 -1007920.000000 0 0 1
17.072015 -31.963526 -1.089921 36.253395 -1.080235 1.600865 0.026073 0.001631 -664813.000000 0 0 1
18.238515 -31.746926 -1.846321 36.659510 -1.049340 1.621182 0.018927 0.002478 -576254.000000 0 0 1
19.096015 -30.613526 -1.231321 36.102104 -1.013077 1.604910 0.015574 0.002174 -198574.000000 0 0 1
18.617415 -29.293126 -1.448521 34.738935 -1.004642 1.612506 0.013107 -0.000209 264497.000000 0 0 1
19.117115 -28.416126 -0.460421 34.251311 -0.978590 1.584239 0.012779 0.004615 -224072.000000 0 0 1
18.441815 -27.047726 -0.584721 32.741746 -0.972373 1.588656 0.012289 0.000857 -495823.000000 0 0 1
18.894315 -26.235926 -1.643721 32.373149 -0.946662 1.621592 0.013573 -0.005182 269908.000000 0 0 1
18.231215 -26.370426 -2.919921 32.191653 -0.965899 1.661625 0.026090 -0.005095 -23593.500000 0 0 1
32.292245 -29.263026 13.722379 45.688264 -0.736226 1.265739 -0.013884 -0.009874 89671.700000 0 0 1
33.122675 -29.658326 14.792279 46.856584 -0.730273 1.249610 0.001954 -0.004939 306396.000000 0 0 1
32.292245 -30.332726 15.734779 47.015387 -0.754119 1.229538 -0.017438 0.008959 427471.000000 0 0 1
33.080895 -31.019226 16.912879 48.400243 -0.753246 1.213825 -0.003319 0.007048 -613516.000000 0 0 1
32.278705 -31.195526 18.018579 48.370909 -0.768335 1.189086 -0.008954 0.007868 54023.500000 0 0 1
32.981825 -31.513026 19.250879 49.512301 -0.762628 1.171457 -0.009672 0.013924 44684.900000 0 0 1
33.587245 -32.933626 19.269979 50.833639 -0.775573 1.181995 -0.010116 0.014200 -289192.000000 0 0 1
34.579855 -33.198326 18.307379 51.313306 -0.765018 1.205981 0.001718 0.015810 73753.700000 0 0 1
35.225035 34.229195 18.486479 52.480385 0.771061 1.210817 0.024650 -0.001942 -145553.000000 0 0 1
-35.593549 34.066995 17.415779 52.256772 -0.763487 1.231023 0.048619 -0.004240 88237.800000 0 0 1
-34.484628 -33.760326 17.571679 51.358671 0.774785 1.221607 0.056161 -0.008985 690238.000000 0 0 1
-33.540572 -33.713126 16.501779 50.337397 0.787964 1.236798 0.067845 -0.010861 410066.000000 0 0 1
-32.268842 -32.908626 16.924579 49.098851 0.795214 1.218873 0.050664 -0.015068 880831.000000 0 0 1
-31.108932 -32.990526 16.089279 48.114503 0.814744 1.229832 0.072174 -0.019854 704660.000000 0 0 1
-31.255642 -32.074326 15.000679 47.230265 0.798325 1.247591 0.083600 -0.016086 -442190.000000 0 0 1
-29.986372 -32.109726 14.129179 46.150306 0.819579 1.259644 0.071536 -0.017664 -46009.000000 0 0 1
-28.914282 -31.515826 14.841179 45.271885 0.828422 1.236798 0.068029 -0.026938 -615287.000000 0 0 1
-27.796242 -31.539526 14.008079 44.312516 0.848401 1.249159 0.065511 -0.024160 -265045.000000 0 0 1
-26.497752 -30.952826 14.578079 43.275035 0.862789 1.227205 0.066986 -0.028733 486491.000000 0 0 1
-25.368192 -31.070926 13.735579 42.398275 0.886099 1.240878 0.060448 -0.020290 213585.000000 0 0 1
-24.174992 -30.595226 14.345779 41.548760 0.902087 1.218264 0.042930 -0.019545 855764.000000 0 0 1
-23.010992 -30.222526 13.343179 40.260989 0.920048 1.232991 0.054741 -0.020384 868997.000000 0 0 1
-22.354592 -31.449726 12.934579 40.695410 0.952856 1.247347 0.058623 -0.013748 99733.000000 0 0 1
-21.136892 -31.236926 12.258179 39.658249 0.975905 1.256555 0.036729 -0.015658 348604.000000 0 0 1
-20.374892 -32.578826 11.952879 40.241613 1.011907 1.269218 0.042420 -0.013839 299093.000000 0 0 1
-21.075892 -33.322026 10.962679 40.923477 1.006828 1.299602 0.043418 -0.012294 237951.000000 0 0 1
-20.711892 34.049495 10.972779 41.337059 -1.024305 1.302129 0.036275 -0.005032 -61757.300000 0 0 1
-21.715092 33.243995 10.130279 40.979641 -0.992172 1.321004 0.026275 -0.000908 -129825.000000 0 0 1
-21.560892 33.465595 8.751379 40.760333 -0.998459 1.354408 0.013817 -0.002960 -230972.000000 0 0 1
-22.834992 33.438095 8.158079 41.304931 -0.971637 1.371981 0.014975 -0.007149 -410372.000000 0 0 1
-22.919192 33.920595 6.684279 41.479823 -0.976585 1.408945 0.024037 -0.012283 -196866.000000 0 0 1
-22.351792 33.081095 5.662079 40.323945 -0.976589 1.429916 0.011887 -0.016697 41187.400000 0 0 1
-20.974692 32.789695 5.662179 39.333981 -1.001715 1.426343 0.015099 -0.011000 -139432.000000 0 0 1
-19.982692 33.851995 5.115979 39.641377 -1.037543 1.441379 0.023125 -0.018146 -150947.000000 0 0 1
-19.859492 -33.649026 5.888679 39.513705 1.037617 1.421210 0.020605 -0.018446 -33782.800000 0 0 1
-19.187892 -33.790226 7.110079 39.503263 1.054350 1.389823 0.017324 -0.014335 -551061.000000 0 0 1
-19.119692 -32.469026 7.930579 38.505770 1.038609 1.363354 0.012992 -0.012118 606765.000000 0 0 1
-17.987892 -31.594626 7.638279 37.150073 1.053231 1.363713 0.030097 -0.023143 815136.000000 0 0 1
-18.019392 -30.367626 8.340479 36.282982 1.035262 1.338849 0.028375 -0.023218 -54643.600000 0 0 1
-17.594492 -30.409326 9.847279 36.486465 1.046269 1.297519 0.012241 -0.014272 -395438.000000 0 0 1
-16.222692 -30.655926 9.856979 36.057199 1.084073 1.293901 0.025061 -0.022120 -943101.000000 0 0 1
-15.660792 -30.826926 11.116479 36.319910 1.100751 1.259733 0.026954 -0.017795 69613.300000 0 0 1
-14.276292 -31.480826 11.036479 36.285793 1.145043 1.261746 0.029784 -0.016350 406137.000000 0 0 1
-13.143792 -30.744426 10.596379 35.075094 1.166795 1.263896 0.006686 -0.009005 154089.000000 0 0 1
-12.132192 -31.564026 10.057679 35.279381 1.203838 1.281700 0.012058 -0.004876 784624.000000 0 0 1
-10.857592 -30.752826 9.569579 33.988240 1.231398 1.285381 0.020271 0.001455 538686.000000 0 0 1
-10.115992 -30.347826 10.667479 33.721194 1.249044 1.248924 0.008203 -0.005884 -373444.000000 0 0 1
-9.393592 -29.140326 10.376579 32.327567 1.258957 1.244030 0.025773 -0.005645 186039.000000 0 0 1
-8.591192 -28.539026 11.530079 31.956647 1.278392 1.201667 0.027538 -0.003293 -564591.000000 0 0 1
-9.335092 -27.894626 12.497079 31.959836 1.247856 1.169052 0.026359 -0.012373 -734786.000000 0 0 1
-8.591292 -27.325626 13.568479 31.695485 1.266178 1.128419 0.021560 0.001722 -533680.000000 0 0 1
-9.190892 -26.080026 14.207779 31.088603 1.231975 1.096166 0.029077 -0.003557 -163151.000000 0 0 1
-9.041592 -24.918126 13.428579 29.715150 1.222718 1.101891 0.024546 -0.001274 336832.000000 0 0 1
-9.851092 -24.750426 12.237179 29.315118 1.192001 1.140175 0.026991 -0.001649 254658.000000 0 0 1
-9.522692 -23.394226 11.505479 27.755135 1.184225 1.143364 0.017611 0.006069 353006.000000 0 0 1
-8.244692 -23.299726 10.899179 27.011929 1.230693 1.155463 0.018122 0.009359 92821.900000 0 0 1
-7.978792 -22.016526 10.400879 25.623560 1.223118 1.152821 0.006701 0.012277 646900.000000 0 0 1
-6.715492 -22.022826 9.463179 24.892860 1.274820 1.180831 0.014792 0.009444 401282.000000 0 1 0
-5.487292 -22.390026 10.007279 25.131042 1.330456 1.161238 0.029541 0.001369 -792552.000000 0 0 1
-4.488892 -22.378726 9.045879 24.551690 1.372836 1.193464 0.030910 -0.004182 104844.000000 0 1 0
-3.110392 -22.955326 9.455479 25.020544 1.436119 1.183260 0.046062 -0.010341 607789.000000 0 0 1
-2.331992 -22.242226 10.396679 24.662639 1.466333 1.135636 0.044794 -0.015250 -473417.000000 0 1 0
-1.184492 -22.904126 10.790079 25.346160 1.519127 1.131051 0.050075 -0.019028 134183.000000 0 0 1
-0.202892 -22.379526 11.892279 25.343849 1.561731 1.082369 0.045717 -0.023987 352471.000000 0 0 1
-0.729892 -22.506126 13.245979 26.124977 1.538377 1.039068 0.050672 -0.011253 -25744.000000 0 0 1
0.123108 -22.175626 14.333879 26.405182 -1.565245 0.996977 0.048502 -0.007188 -72346.500000 0 0 1
0.795508 -20.749526 14.332579 25.230904 -1.532476 0.966654 0.042616 -0.016514 -290445.000000 0 0 1
1.954408 -20.732726 13.555979 24.848143 -1.476807 0.993747 0.041443 -0.018309 -601130.000000 0 1 0
2.274008 -19.418026 13.133179 23.552309 -1.454219 0.979283 0.038639 -0.019985 598484.000000 0 1 0
3.753808 -19.293326 12.643379 23.370463 -1.378632 0.999173 0.044085 -0.019747 581778.000000 0 1 0
3.884708 -19.905626 11.400479 23.265765 -1.378062 1.058694 0.042409 -0.013180 636655.000000 0 1 0
5.277308 -19.960326 11.028879 23.407280 -1.312321 1.080176 0.043590 -0.016292 1015040.000000 0 1 0
5.523708 -21.001726 9.894879 23.864042 -1.313609 1.143254 0.034199 -0.020178 -502745.000000 0 1 0
5.359808 -20.491226 8.597379 22.858977 -1.314962 1.185207 0.030575 -0.020658 -281651.000000 0 1 0
5.647208 -21.454826 7.583779 23.445985 -1.313420 1.241415 0.029950 -0.018906 1427960.000000 0 1 0
7.173908 -21.947326 7.441179 24.259456 -1.254875 1.259038 0.033213 -0.008316 1313650.000000 0 1 0
8.162508 -21.110726 6.908679 23.664724 -1.201849 1.274542 0.038747 -0.020569 -161152.000000 0 1 0
8.522708 -19.936726 7.627379 22.984484 -1.166820 1.232533 0.043254 -0.013821 -328406.000000 0 1 0
9.406808 -20.119326 8.880679 23.919485 -1.133443 1.190416 0.043280 -0.011095 -330944.000000 0 1 0
8.752208 -20.368226 10.091879 24.357993 -1.164952 1.143606 0.049483 -0.011673 -610309.000000 0 1 0
9.489108 -19.888226 11.181279 24.710437 -1.125618 1.101238 0.049049 -0.007983 301618.000000 0 1 0
8.701008 -20.089526 12.539679 25.229747 -1.162075 1.050636 0.053085 -0.000937 255199.000000 0 0 1
8.613808 -21.402726 13.046079 26.504237 -1.188168 1.056151 0.046389 -0.009567 -30922.700000 0 0 1
7.852008 -21.614926 14.257079 27.057778 -1.222351 1.015833 0.057401 -0.006598 381731.000000 0 0 1
8.051108 -22.973126 14.960679 28.572833 -1.233714 1.019728 0.053298 -0.002186 119374.000000 0 0 1
7.681508 -24.050526 14.157179 28.945796 -1.261646 1.059747 0.057705 -0.004115 -227189.000000 0 0 1
7.466508 -25.219426 14.919679 30.238469 -1.282956 1.054801 0.062669 -0.001724 256137.000000 0 0 1
7.520408 -26.424026 13.959779 30.816572 -1.293523 1.100673 0.065591 -0.013130 -651076.000000 0 0 1
8.794508 -26.816526 13.616579 31.334975 -1.253898 1.121259 0.067399 -0.001036 -897475.000000 0 0 1
8.724308 -27.868626 12.668679 31.831891 -1.267409 1.161475 0.074907 -0.010967 321845.000000 0 0 1
10.071908 -28.106726 11.948079 32.158793 -1.226707 1.190136 0.063592 -0.007462 1145560.000000 0 0 1
11.082608 -28.964126 12.569879 33.462616 -1.205351 1.185710 0.055018 -0.008073 1179840.000000 0 0 1
12.264208 -29.069226 11.769579 33.674229 -1.171557 1.213745 0.067958 -0.011191 180774.000000 0 0 1
13.320108 -29.854826 12.552779 35.018683 -1.151138 1.204179 0.049033 -0.010025 -850722.000000 0 0 1
13.796008 -29.142126 13.734379 35.046063 -1.128651 1.168106 0.038376 -0.007658 468997.000000 0 0 1
14.624908 -29.904926 14.629779 36.362384 -1.115950 1.156733 0.027682 -0.006093 1550590.000000 0 0 1
16.085308 -30.188826 14.081179 36.991647 -1.081236 1.180288 0.029728 -0.007812 596243.000000 0 0 1
16.857008 -29.034826 13.799979 36.299026 -1.044779 1.180811 0.025020 -0.011140 -463932.000000 0 0 1
18.142108 -29.370526 13.407579 37.034134 -1.017465 1.200348 0.027250 -0.011571 -516913.000000 0 0 1
18.983608 -28.173326 12.875479 36.330313 -0.977861 1.208523 0.028564 -0.011721 1198510.000000 0 0 1
20.363808 -28.450726 12.561479 37.174175 -0.949573 1.226102 0.028177 -0.015325 1082100.000000 0 0 1
21.091508 -27.286826 12.200179 36.582331 -0.912765 1.230783 0.027369 -0.015209 783809.000000 0 0 1
22.514608 -27.570126 11.628179 37.446415 -0.885997 1.255047 0.037199 -0.014242 835305.000000 0 0 1
23.521308 -28.107826 12.485579 38.719395 -0.874001 1.242466 0.049067 -0.018373 -397845.000000 0 0 1
24.540708 -28.689326 11.787079 39.550715 -0.863178 1.268174 0.035301 -0.023758 -1346000.000000 0 0 1
25.626808 -29.233926 12.734179 40.908618 -0.851054 1.254253 0.037354 -0.022702 -284659.000000 0 0 1
26.633208 -28.398126 13.239579 41.122595 -0.817458 1.243004 0.028745 -0.018667 140325.000000 0 0 1
27.714208 -28.259026 12.313779 41.452130 -0.795131 1.269184 0.004243 -0.014527 -650510.000000 0 0 1
28.881408 -27.483026 12.932679 41.913084 -0.760594 1.257118 0.021133 -0.019246 -456546.000000 0 0 1
28.611808 -26.118126 13.225079 40.935251 -0.739866 1.241821 0.043896 -0.019616 22827.400000 0 0 1
27.796008 -25.868626 14.356379 40.594452 -0.749498 1.209322 0.053602 -0.018625 -489285.000000 0 0 1
28.527608 -25.467226 15.650079 41.319838 -0.728780 1.182346 0.048958 -0.009855 -18443.000000 0 0 1
29.390708 -26.531026 16.090879 42.739039 -0.734305 1.184790 0.064296 -0.012380 450687.000000 0 0 1
29.947608 -26.277826 17.362579 43.460816 -0.720222 1.159825 0.069195 0.002156 -206462.000000 0 0 1
30.193208 -27.590126 18.132379 44.739558 -0.740380 1.153503 0.033764 0.017812 95846.100000 0 0 1
29.052108 -28.344626 18.559779 44.630799 -0.773073 1.141918 0.030306 0.011291 207340.000000 0 0 1
29.353608 -29.318126 19.560679 45.867276 -0.784793 1.130218 0.020548 0.005258 -31021.900000 0 0 1
28.162008 -30.164526 20.062379 45.885688 -0.819718 1.118285 0.018562 0.024764 -1174470.000000 0 0 1
27.187608 -29.400026 20.738679 45.095680 -0.824475 1.092934 0.023180 0.020058 1078880.000000 0 0 1
26.041908 -30.141126 21.272479 45.157356 -0.858231 1.080288 0.035929 0.018703 1215800.000000 0 0 1
25.127408 -30.761926 20.197179 44.560170 -0.885874 1.100381 0.056641 0.016600 -1345040.000000 0 0 1
25.671108 -31.827326 19.414679 45.264934 -0.892059 1.127508 0.037552 0.022267 -151383.000000 0 0 1
25.015508 -32.164226 18.186579 44.621349 -0.909775 1.150999 0.056108 0.011163 -113668.000000 0 0 1
25.395108 -31.259126 16.966179 43.702354 -0.888536 1.172096 0.060230 0.011742 952015.000000 0 0 1
26.786208 -31.442726 16.617579 44.522914 -0.865197 1.188301 0.039427 0.008285 970666.000000 0 0 1
27.242708 -30.375826 15.798379 43.754368 -0.839722 1.201382 0.043358 -0.011675 326198.000000 0 0 1
28.677908 -30.682826 15.261379 44.685209 -0.819160 1.222251 0.035685 -0.008942 53956.700000 0 0 1
28.754208 -31.721326 14.356479 45.157010 -0.834422 1.247258 0.061702 -0.003691 382950.000000 0 0 1
29.042208 -33.017826 14.899279 46.428603 -0.849372 1.244109 0.068200 -0.011148 716443.000000 0 0 1
27.961008 -34.058226 14.335479 46.338825 -0.883395 1.256274 0.050275 -0.016135 861691.000000 0 0 1
28.240308 34.290695 12.998979 46.285421 0.881856 1.286123 0.053737 -0.015689 -300961.000000 0 0 1
27.402208 33.342595 12.491079 44.929241 0.882881 1.289068 0.032279 -0.021826 -753894.000000 0 0 1
27.663008 33.103095 10.947979 44.507473 0.874685 1.322265 0.039782 -0.027203 -380140.000000 0 0 1
28.935908 32.552495 10.694579 44.847806 0.844148 1.330013 0.036911 -0.020280 173516.000000 0 0 1
29.088608 32.041995 9.404579 44.286371 0.833673 1.356809 0.039703 -0.028745 227917.000000 0 0 1
30.511308 31.442595 9.209679 44.770469 0.800429 1.363608 0.029380 -0.014082 325257.000000 0 0 1
30.852808 30.423795 10.136679 44.500060 0.778397 1.340989 0.027028 -0.006548 -365042.000000 0 0 1
32.174808 30.011595 9.982779 45.117291 0.750626 1.347687 0.043389 -0.005615 -436298.000000 0 0 1
32.806308 29.339095 11.246279 45.425930 0.729664 1.320621 0.042596 -0.015873 -47982.900000 0 0 1
32.301408 28.070295 11.500179 44.312262 0.715428 1.308265 0.030935 -0.010750 100806.000000 0 0 1
32.570208 27.588395 12.794679 44.560541 0.702775 1.279567 0.041520 -0.009753 -133758.000000 0 0 1
32.390708 26.030295 12.867879 43.500765 0.676953 1.270495 0.024485 0.002439 -474950.000000 0 0 1
33.480808 25.231095 12.489279 43.744197 0.645800 1.281261 0.028321 0.014251 -687797.000000 0 0 1
33.365908 23.819095 12.591079 42.885526 0.619978 1.272808 0.032157 0.007336 -602556.000000 0 0 1
32.546208 23.168495 11.500979 41.572916 0.618645 1.290494 0.014990 -0.005954 40191.100000 0 0 1
31.221508 22.885495 11.916879 40.503586 0.632535 1.272159 0.039323 -0.015119 -24942.100000 0 0 1
30.289508 22.926195 10.854279 39.507975 0.647904 1.292481 0.048721 -0.016085 1679.010000 0 0 1
28.874408 22.516695 11.335279 38.330426 0.662311 1.270582 0.051794 -0.013359 128130.000000 0 0 1
28.258808 23.554795 12.097379 38.726414 0.694859 1.253098 0.043998 -0.011325 633407.000000 0 0 1
27.123708 23.039495 12.825879 37.828786 0.704159 1.224889 0.054998 0.003908 524980.000000 0 0 1
24.289808 9.090895 25.903163 36.655327 0.358129 0.786018 0.025697 -0.002953 -97103.400000 0 0 1
23.721808 7.918495 26.441053 36.394451 0.322176 0.757562 0.018464 -0.005392 -504684.000000 0 0 1
22.358408 7.997895 26.690973 35.724960 0.343530 0.727072 0.025298 -0.002601 -647046.000000 0 0 1
21.809808 6.844595 27.576903 35.819015 0.304097 0.692119 0.032941 -0.004637 -181048.000000 0 0 1
22.087308 6.951895 28.923003 37.050211 0.304930 0.675102 0.042319 -0.007981 347085.000000 0 0 1
23.304808 6.356095 29.350743 38.012895 0.266262 0.688616 0.038212 -0.009090 80530.200000 0 0 1
23.418308 6.200095 30.868943 39.239648 0.258816 0.665388 0.034881 -0.006496 -459401.000000 0 0 1
23.461208 7.506095 31.434753 39.936368 0.309645 0.664669 0.031715 -0.003269 282622.000000 0 0 1
23.493708 7.418495 32.862421 41.072218 0.305857 0.643313 0.024091 0.000615 -155851.000000 0 0 1
23.577408 8.785095 33.572664 41.954688 0.356671 0.643147 0.025292 0.000960 -103366.000000 0 0 1
24.828408 9.430695 33.487229 42.740874 0.363003 0.670527 0.017350 0.002592 -299873.000000 0 0 1
25.296608 9.874395 -33.917441 43.448991 0.372155 2.466464 0.024643 0.002123 -459227.000000 0 0 1
26.375308 10.926995 -34.160194 44.519377 0.392763 2.445433 0.005948 0.010265 -587629.000000 0 0 1
26.049308 12.211395 33.949351 44.499922 0.438361 0.702997 0.004983 0.002685 60052.000000 0 0 1
25.782708 13.176795 -33.677451 44.413361 0.472465 2.431456 0.000023 0.004604 -634399.000000 0 0 1
25.469408 14.573495 -34.279558 45.123891 0.519724 2.433612 -0.002112 0.000680 -1265840.000000 0 0 1
26.431808 15.229195 33.600945 45.382732 0.522713 0.737145 -0.006335 -0.003988 -461314.000000 0 0 1
26.040608 16.560295 33.355855 45.441938 0.566428 0.746556 0.000712 -0.013412 -143617.000000 0 0 1
26.465108 17.674695 -34.268724 46.766892 0.588821 2.393160 -0.006970 -0.017728 -257891.000000 0 0 1
26.000508 17.435495 -32.939651 45.442749 0.590709 2.381628 -0.006494 -0.025775 184014.000000 0 0 1
27.044508 16.907995 -32.151281 45.287863 0.558737 2.360197 -0.001647 -0.016312 -392735.000000 0 0 1
26.569108 16.320295 -30.798051 43.826812 0.550838 2.350012 -0.004391 -0.011154 -258778.000000 0 0 1
25.882308 15.120495 -31.013991 43.132248 0.528722 2.373222 -0.006800 -0.003433 -362368.000000 0 0 1
25.038308 14.848795 -29.955521 41.770047 0.535288 2.370505 0.010344 -0.015584 -312306.000000 0 0 1
24.302908 13.504195 -30.233801 41.074047 0.507180 2.398058 0.020714 -0.012822 -54015.800000 0 0 1
23.287708 13.501395 -31.255651 41.249493 0.525408 2.430612 0.013753 -0.014128 589423.000000 0 0 1
22.630108 12.263195 -31.349071 40.561952 0.496601 2.454146 0.013438 0.000391 342011.000000 0 0 1
21.639008 11.746695 -30.257311 39.009439 0.497336 2.458526 0.016518 -0.001133 98287.800000 0 0 1
20.432708 12.480495 -30.062651 38.432034 0.548330 2.469032 0.031275 -0.001160 165023.000000 0 0 1
19.616608 11.770395 -29.214581 37.105865 0.540436 2.477263 0.034778 0.002511 90503.900000 0 0 1
18.201308 12.351095 -28.880951 36.303532 0.596207 2.490696 0.031047 -0.007242 -101461.000000 0 0 1
17.304408 12.275895 -29.917801 36.677172 0.617013 2.524745 0.024965 0.003674 -171027.000000 0 0 1
16.151008 13.014595 -29.516961 36.076110 0.678272 2.529045 0.030703 -0.008298 -482596.000000 0 0 1
15.376508 13.659995 -30.702991 36.955461 0.726351 2.551359 0.032659 -0.005651 455411.000000 0 0 1
14.488708 12.792495 -31.441731 36.907357 0.723303 2.590417 0.033514 -0.003297 1041120.000000 0 0 1
13.298208 12.396095 -30.726781 35.702108 0.750303 2.607328 0.036632 -0.002524 141563.000000 0 0 1
12.316608 11.701195 -31.695971 35.961804 0.759781 2.649569 0.042310 0.000951 129781.000000 0 0 1
11.799708 12.530495 -32.734471 36.983672 0.815425 2.657518 0.045610 -0.001143 648103.000000 0 0 1
10.753608 11.905295 -33.515361 37.157173 0.836182 2.695151 0.057281 0.003042 623546.000000 0 0 1
10.279908 12.837395 33.981760 37.752288 0.895581 0.450741 0.065821 0.003815 130081.000000 0 0 1
11.241208 13.086495 32.967829 37.208855 0.861104 0.482105 0.056710 0.015649 263120.000000 0 0 1
10.617708 13.713395 31.904013 36.313345 0.911950 0.497925 0.067203 0.001537 -371829.000000 0 0 1
11.366608 13.516695 30.603573 35.333830 0.871591 0.523396 0.070478 -0.002052 -252513.000000 0 0 1
11.648408 12.179395 30.366333 34.729487 0.807679 0.506666 0.056660 -0.001300 131014.000000 0 0 1
11.815808 11.908195 29.008163 33.509580 0.789292 0.524314 0.064296 -0.001955 -87733.300000 0 0 1
12.551208 10.603295 28.727413 33.094213 0.701469 0.519536 0.055346 0.000713 -237143.000000 0 0 1
11.701408 9.496795 28.958653 32.645301 0.681771 0.479838 0.042307 -0.003236 263206.000000 0 0 1
12.155308 8.365295 28.265073 31.884856 0.602763 0.481128 0.033166 -0.005932 -422713.000000 0 0 1
11.405508 7.073895 28.579803 31.574210 0.555153 0.439034 0.021874 -0.001528 -645458.000000 0 0 1
10.115108 7.007195 28.061583 30.640964 0.605840 0.413253 0.013007 -0.012743 -600213.000000 0 0 1
9.353208 5.827295 28.222293 30.297487 0.557179 0.372264 0.006591 -0.011939 -333143.000000 0 0 1
9.955608 4.523695 27.648883 29.732788 0.426496 0.376622 0.003056 -0.001323 -119479.000000 0 0 1
10.700508 3.728295 28.590153 30.753828 0.335269 0.377347 0.004522 -0.001646 378580.000000 0 0 1
11.078608 2.505295 28.002893 30.218771 0.222397 0.385336 -0.015468 0.006579 -149420.000000 0 0 1
11.488708 1.473895 29.115823 31.335187 0.127594 0.378626 -0.014313 0.004402 -187117.000000 0 0 1
10.388408 1.281595 29.943223 31.719996 0.122748 0.336289 -0.003568 -0.008051 -352823.000000 0 0 1
10.526008 0.060695 30.659173 32.415821 0.005766 0.330720 -0.000727 -0.010912 -160200.000000 0 0 1
9.358608 -0.061905 31.629633 32.985165 -0.006615 0.287680 0.012654 -0.006005 -366020.000000 0 0 1
9.547208 0.797895 32.713314 34.087340 0.083380 0.284896 0.013828 -0.011392 -1134910.000000 0 0 1
8.379908 1.065195 33.362374 34.415193 0.126435 0.247988 0.015776 -0.018688 -1469980.000000 0 0 1
8.526908 2.328295 34.261013 35.382851 0.266555 0.252486 0.009705 -0.021432 -304182.000000 0 0 1
8.624308 3.512795 33.500083 34.770303 0.386795 0.271132 0.023535 -0.020593 462283.000000 0 0 1
9.853008 3.673495 32.789727 34.434613 0.356867 0.310334 0.011734 -0.013898 -177931.000000 0 0 1
9.956308 5.056495 32.159933 34.043465 0.469923 0.334201 0.011458 -0.012435 63945.100000 0 0 1
10.368708 6.094895 33.070548 35.189757 0.531413 0.348817 0.013882 -0.009650 126870.000000 0 0 1
10.563408 7.271795 32.321573 34.772815 0.602895 0.377723 0.019783 -0.014664 -236339.000000 0 0 1
10.658208 8.613595 33.090448 35.815767 0.679700 0.392627 0.063422 -0.011310 444398.000000 0 0 1
9.392208 9.089095 33.520933 35.978857 0.768999 0.371774 0.059581 -0.010721 346180.000000 0 0 1
8.777008 8.363195 -34.021371 36.116929 0.761260 2.799273 0.048383 -0.013639 -291594.000000 0 0 1
7.470708 8.998995 -33.521451 35.503254 0.877927 2.805892 0.049815 -0.011506 157729.000000 0 0 1
6.814608 8.146495 -32.579921 34.267411 0.874187 2.826460 0.043755 -0.007654 299401.000000 0 0 1
5.516608 8.547695 -32.165721 33.736177 0.997668 2.835270 0.040915 -0.013838 533580.000000 0 0 1
4.956908 7.702095 -30.982171 32.307709 0.998948 2.854148 0.039066 -0.007609 -253596.000000 0 0 1
5.592008 8.063695 -29.742391 31.319379 0.964460 2.822907 0.034876 -0.006019 435134.000000 0 0 1
4.902808 7.582295 -28.597571 29.989161 0.996806 2.835761 0.024764 -0.005936 407498.000000 0 0 1
3.541908 8.278795 -28.272001 29.671359 1.166532 2.833251 0.028881 -0.014656 270691.000000 0 0 1
2.495908 7.815195 -29.096531 30.231026 1.261669 2.866767 0.029866 -0.011280 15331.800000 0 0 1
1.218408 8.012695 -28.477981 29.608836 1.419893 2.864325 0.045374 0.004903 74763.100000 0 0 1
0.157608 7.352995 -29.334411 30.242338 1.549365 2.895938 0.056934 -0.005406 -740073.000000 0 0 1
0.077108 7.887095 -30.606691 31.606672 1.561020 2.889376 0.062862 -0.008106 131578.000000 0 0 1
-0.238592 6.925795 -31.608541 32.359286 -1.536360 2.925766 0.070909 -0.011076 -307613.000000 0 0 1
-0.088392 7.394595 -33.067161 33.883993 -1.558843 2.921574 0.076093 -0.018493 -907280.000000 0 0 1
1.180308 7.787095 -33.446621 34.361438 1.420369 2.910325 0.059298 -0.018853 -813884.000000 0 0 1
2.030108 6.777595 -33.972631 34.701538 1.279769 2.936269 0.063970 -0.021600 -128068.000000 0 0 1
1.757508 6.285295 33.217481 33.852545 1.298138 0.194003 0.064876 -0.022368 -543414.000000 0 0 1
0.549808 5.631795 32.919273 33.402065 1.473479 0.170229 0.076810 -0.025928 -365687.000000 0 0 1
0.327708 5.566195 31.498133 31.987847 1.511989 0.175206 0.085564 -0.021281 68435.000000 0 0 1
1.115708 4.515795 30.680363 31.030983 1.328579 0.150468 0.084124 -0.018615 -43957.100000 0 0 1
1.014108 4.719995 29.294033 29.689176 1.359160 0.163334 0.076683 -0.019349 85056.400000 0 0 1
1.859808 3.835795 28.602333 28.918259 1.119337 0.147951 0.061591 -0.011736 -243870.000000 0 0 1
1.748608 4.024895 27.070533 27.423916 1.160950 0.160709 0.061889 -0.011751 54791.000000 0 0 1
2.081508 5.340395 26.665273 27.274334 1.199143 0.211729 0.050900 -0.007420 80815.000000 0 0 1
2.163008 5.469995 25.283533 25.958746 1.194235 0.228581 0.048704 -0.003633 -783285.000000 0 0 1
2.891608 6.731295 24.862823 25.919717 1.165055 0.286551 0.047738 -0.002031 -827817.000000 0 0 1
4.272608 6.636395 25.031163 26.246067 0.998782 0.305452 0.025791 0.008858 -604280.000000 0 0 1
4.910508 6.543495 23.757283 25.126459 0.927013 0.331643 0.018112 -0.005169 -267683.000000 0 0 1
6.445608 6.454695 23.833473 25.519471 0.786103 0.365534 0.015151 -0.006040 -70644.600000 0 0 1
7.127908 5.311895 24.425443 25.992799 0.640438 0.349043 0.014959 -0.003223 381984.000000 0 0 1
6.860008 3.904795 24.045053 25.307543 0.517473 0.317195 0.026556 -0.004066 -769343.000000 0 0 1
7.005008 3.519395 22.549883 23.873699 0.465575 0.334577 0.024721 -0.007605 -34094.000000 0 1 0
6.074008 4.066895 21.640683 22.841900 0.590001 0.325748 0.028403 -0.022110 -386952.000000 0 1 0
4.823408 3.423495 21.717083 22.508161 0.617251 0.265910 0.031912 -0.026909 -865067.000000 0 1 0
3.875508 3.748895 20.596983 21.291066 0.768793 0.256041 0.029269 -0.037670 -362124.000000 0 1 0
3.357408 5.078995 20.808083 21.680515 0.986701 0.284651 0.025835 -0.036720 -433291.000000 0 1 0
2.115508 5.354595 20.256783 21.059068 1.194536 0.276916 0.019795 -0.029042 -793189.000000 0 1 0
1.646908 6.822395 20.589283 21.752608 1.333930 0.328522 0.023087 -0.016722 -47400.900000 0 1 0
2.435108 7.786695 19.957983 21.561156 1.267705 0.388059 0.012138 -0.009806 -60379.800000 0 1 0
2.064808 9.067395 20.440583 22.456592 1.346896 0.426966 0.020464 0.001772 99215.400000 0 1 0
3.084908 10.108595 19.963783 22.588780 1.274597 0.486890 0.023192 -0.003918 -904247.000000 0 1 0
2.924308 10.486995 18.593483 21.546375 1.298853 0.529714 0.001291 0.005926 108573.000000 0 1 0
3.909208 11.410095 18.146683 21.789316 1.240720 0.586605 -0.001695 0.004234 730353.000000 0 1 0
5.389008 10.924395 18.186483 21.889084 1.112523 0.590168 0.001923 -0.004359 -384179.000000 0 1 0
5.652608 9.804495 17.396283 20.753572 1.047811 0.576766 0.005239 -0.002770 -338037.000000 0 1 0
7.022208 9.501095 17.385283 21.019759 0.934311 0.596882 0.006299 -0.005413 -117170.000000 0 1 0
7.296508 8.066695 17.933283 20.974109 0.835488 0.545207 0.014954 -0.003047 -218138.000000 0 1 0
6.982508 7.966095 19.292783 22.009670 0.851101 0.502130 0.011228 -0.003110 -128095.000000 0 1 0
6.905508 6.628295 19.829483 22.018827 0.764918 0.449719 0.017617 -0.011551 867304.000000 0 1 0
8.284408 5.868895 20.022183 22.449124 0.616359 0.469286 0.023799 -0.007085 350992.000000 0 1 0
8.935208 5.648395 18.820783 21.586204 0.563725 0.511749 0.020255 -0.011881 -295062.000000 0 1 0
10.166008 4.958895 19.001183 22.112967 0.453833 0.536940 0.022721 -0.012314 140674.000000 0 1 0
10.142608 3.428395 19.075683 21.874828 0.325962 0.511445 0.023791 -0.011996 -505191.000000 0 1 0
9.617208 2.860895 20.232183 22.583548 0.289140 0.460385 0.036148 -0.010861 183581.000000 0 1 0
10.022808 1.505795 20.307283 22.696032 0.149122 0.462924 0.044876 -0.017620 384456.000000 0 1 0
9.087308 0.626995 21.245183 23.115582 0.068888 0.405044 0.043020 -0.022033 401332.000000 0 1 0
9.208908 0.925795 22.610383 24.431343 0.100196 0.388532 0.038933 -0.012966 449117.000000 0 1 0
8.580408 -0.132505 23.369583 24.895349 -0.015442 0.351919 0.035085 -0.015346 -138149.000000 0 1 0
9.172708 -0.113805 24.829273 26.469687 -0.012406 0.353905 0.023288 0.004053 773501.000000 0 0 1
10.570608 -0.391605 24.950123 27.099811 -0.037030 0.400990 0.018198 -0.003255 590335.000000 0 0 1
10.866308 -1.758205 24.868363 27.195651 -0.160413 0.416713 0.010412 -0.006620 -200097.000000 0 0 1
12.317008 -2.234005 25.147513 28.090869 -0.179425 0.461871 0.001504 -0.003693 190442.000000 0 0 1
12.355608 -3.629505 25.066623 28.181021 -0.285716 0.474577 0.013069 0.000236 -341846.000000 0 0 1
13.633208 -4.183305 25.200853 28.955957 -0.297726 0.514951 0.009724 0.005892 -383844.000000 0 0 1
13.585908 -5.700605 25.431293 29.390891 -0.397285 0.525092 0.008238 0.002138 -362611.000000 0 0 1
13.173908 -6.359605 24.293193 28.357639 -0.449747 0.542013 0.028513 -0.011185 107106.000000 0 0 1
12.869708 -7.685805 24.574153 28.785239 -0.538359 0.547734 0.037372 -0.017751 43246.400000 0 0 1
12.694708 -8.384405 23.221583 27.761409 -0.583697 0.579987 0.056587 -0.016350 24710.300000 0 0 1
12.139508 -9.652705 23.324083 28.009913 -0.671775 0.586816 0.058233 -0.007078 -438126.000000 0 0 1
12.290208 -10.328405 22.092883 27.309718 -0.698881 0.628390 0.045510 -0.011824 160479.000000 0 0 1
11.670308 -11.743405 22.125083 27.633729 -0.788520 0.642409 0.057214 -0.008394 -605418.000000 0 0 1
10.340508 -11.769105 22.489383 27.408216 -0.849923 0.608451 0.056619 -0.004291 -1304450.000000 0 0 1
9.844308 -13.059405 22.669883 27.953212 -0.924861 0.624947 0.052701 -0.002074 311815.000000 0 0 1
8.402808 -13.189705 23.260883 28.029346 -1.003562 0.591911 0.039674 0.006559 573372.000000 0 0 1
7.541108 -12.491305 22.368283 26.706575 -1.027654 0.578000 0.034815 -0.000588 -685387.000000 0 0 1
6.237608 -12.420105 22.876983 26.767950 -1.105375 0.545938 0.022373 0.006705 296199.000000 0 0 1
5.360208 -11.400005 22.048783 25.393716 -1.131277 0.519078 0.017115 0.018128 344987.000000 0 0 1
5.593508 -10.071205 22.391783 25.181511 -1.063820 0.475169 0.021857 0.012516 -383404.000000 0 0 1
4.719508 -9.177905 21.755083 24.078857 -1.095834 0.442945 0.018528 0.013741 -13806.700000 0 1 0
5.044908 -7.723005 22.155983 23.999656 -0.992153 0.394525 0.017897 -0.006572 57003.300000 0 1 0
4.225508 -6.712905 21.630383 23.038913 -1.008996 0.351483 -0.000390 -0.003027 2682.320000 0 1 0
4.820608 -5.468105 21.993383 23.169967 -0.848248 0.320051 0.035741 -0.022647 214771.000000 0 1 0
-7.621092 -15.323405 -20.585321 26.770193 1.109271 2.448016 0.034575 -0.007902 222995.000000 0 0 1
-7.069292 -14.865805 -19.348621 25.403468 1.126907 2.436656 0.022033 -0.016050 -333516.000000 0 0 1
-6.597392 -13.580205 -19.434521 24.609920 1.118565 2.481121 0.021899 -0.024305 191380.000000 0 1 0
-5.840292 -13.141305 -18.108221 23.123810 1.152590 2.470429 0.013062 -0.028364 301409.000000 0 1 0
-4.714892 -13.977405 -17.930221 23.218331 1.245460 2.453162 0.003866 -0.013074 -50925.600000 0 1 0
-3.955092 -13.538305 -16.780021 21.920254 1.286565 2.442619 0.004318 -0.017316 161382.000000 0 1 0
-3.105992 -14.728305 -16.319921 22.201576 1.362956 2.396580 0.005999 0.000167 71272.800000 0 1 0
-2.068092 -15.056605 -17.252621 22.991983 1.434296 2.419426 -0.000236 0.005826 -105816.000000 0 1 0
-1.094192 -15.799705 -16.550621 22.907444 1.501653 2.378207 0.001846 0.009900 266414.000000 0 1 0
0.245808 -15.996905 -17.372121 23.616773 -1.555432 2.397325 -0.000609 0.015297 712758.000000 0 1 0
0.201208 -16.625605 -18.623021 24.965339 -1.558695 2.412764 0.005597 0.006480 -267031.000000 0 1 0
0.253708 -18.034305 -18.459121 25.807744 -1.556729 2.367785 0.008839 0.013574 -105520.000000 0 0 1
-0.168292 -18.691705 -19.825821 27.248327 1.561793 2.385610 0.023947 0.005355 902734.000000 0 0 1
-1.550592 -18.471505 -20.161921 27.388025 1.487048 2.398173 0.027938 -0.000638 698597.000000 0 0 1
-1.885492 -18.538705 -21.519821 28.466495 1.469439 2.427931 0.040436 -0.010855 324000.000000 0 0 1
-3.049592 -17.576005 -21.871421 28.223661 1.398998 2.457404 0.029604 -0.006750 430434.000000 0 0 1
-2.580192 -16.211505 -21.660821 27.178327 1.412962 2.493089 0.028204 0.006969 293824.000000 0 0 1
-2.946492 -15.564005 -20.419621 25.843393 1.383696 2.481816 0.013857 -0.003275 -66199.300000 0 0 1
-2.194592 -14.258305 -20.191621 24.815661 1.418078 2.521224 0.020345 -0.011914 -131804.000000 0 1 0
-2.471692 -13.357905 -21.230721 25.204888 1.387830 2.572380 0.014549 -0.018392 -508482.000000 0 0 1
-1.512092 -12.381105 -21.252421 24.642313 1.449269 2.610859 0.005150 -0.007649 -600113.000000 0 1 0
-1.557292 -11.616205 -22.586421 25.446174 1.437529 2.662938 0.024670 -0.001392 132860.000000 0 0 1
-2.784392 -10.924005 -22.672821 25.320812 1.321223 2.680175 0.023756 -0.010038 112564.000000 0 0 1
-2.847592 -10.315205 -23.977421 26.256979 1.301447 2.721823 0.029481 -0.015006 -217026.000000 0 0 1
-3.843392 -9.160805 -24.012621 25.986496 1.173553 2.749319 0.026989 -0.011263 -137553.000000 0 0 1
-5.214492 -9.533805 -23.983221 26.330196 1.070300 2.716168 0.026759 -0.019260 438530.000000 0 0 1
-5.859492 -8.256905 -24.100021 26.140412 0.953625 2.743869 0.028436 -0.023149 -960131.000000 0 0 1
-7.340492 -8.129705 -23.754921 26.158578 0.836369 2.709549 0.010535 -0.031746 -78013.500000 0 0 1
-8.302892 -8.535305 -24.714121 27.433141 0.799200 2.692602 0.021846 -0.027173 133793.000000 0 0 1
-8.479692 -7.680505 -25.838441 28.258102 0.735984 2.724752 0.017075 -0.031497 16698.900000 0 0 1
-9.536192 -8.175805 -26.894981 29.683711 0.708743 2.704655 0.012768 -0.026508 619697.000000 0 0 1
-10.023492 -7.101605 -27.709601 30.310479 0.616405 2.724306 0.016509 -0.030082 -75413.500000 0 0 1
-10.616792 -7.539805 -28.888731 31.687911 0.617524 2.718112 0.026064 -0.024968 -370677.000000 0 0 1
-11.328692 -6.424505 -29.698281 32.428404 0.515877 2.728318 0.031379 -0.026809 -1087.930000 0 0 1
-10.514992 -5.427905 -30.306031 32.534331 0.476528 2.769337 0.000789 -0.017007 -161097.000000 0 0 1
-11.247592 -4.729905 -31.321351 33.614094 0.398075 2.770116 0.018739 -0.026802 -3059.000000 0 0 1
-10.533892 -3.649005 -32.186911 34.062814 0.333470 2.808171 -0.000232 -0.023215 -143397.000000 0 0 1
-9.556792 -4.249805 -33.019851 34.636738 0.418429 2.834838 0.004251 -0.006245 -39371.700000 0 0 1
-8.940192 -3.314405 -33.870651 35.187118 0.355023 2.867188 0.008060 -0.003747 -438196.000000 0 0 1
-7.791692 -3.814905 33.869714 34.963145 0.455303 0.250752 0.014239 -0.003289 -584742.000000 0 0 1
-6.609192 -3.931405 -34.032221 34.890248 0.536616 2.919360 0.009481 -0.007667 -537539.000000 0 0 1
-5.542092 -4.291705 33.709069 34.430145 0.658925 0.205020 0.016689 -0.008033 501072.000000 0 0 1
-4.172192 -3.717205 34.136526 34.590855 0.727791 0.162254 0.030360 -0.012592 69502.500000 0 0 1
-4.063392 -2.289405 33.881553 34.201055 0.513090 0.136795 0.042560 -0.025495 962769.000000 0 0 1
-2.733792 -1.830705 34.222568 34.380362 0.590071 0.095845 0.050068 -0.018959 993275.000000 0 0 1
-2.727992 -0.483105 -33.799971 33.913321 0.175275 3.059810 0.054624 -0.025315 -221705.000000 0 0 1
-3.182092 -0.515105 -32.489831 32.649351 0.160484 3.042700 0.047775 -0.018902 271862.000000 0 0 1
-3.935692 0.647895 -32.146111 32.392620 -0.163157 3.018144 0.057917 -0.015552 -469989.000000 0 0 1
-4.542292 0.589395 -30.740821 31.080184 -0.129036 2.993681 0.038869 -0.017637 -16461.400000 0 0 1
-5.504392 -0.413305 -30.528371 31.023387 0.074946 2.962714 0.030223 -0.016627 -239902.000000 0 0 1
-6.808292 0.047195 -30.839601 31.582211 -0.006932 2.924308 0.035986 -0.016289 -192629.000000 0 0 1
-7.813192 -1.110005 -30.521831 31.525549 0.141124 2.888576 0.029705 -0.013687 2531.100000 0 0 1
-8.009392 -1.445205 -29.170271 30.284380 0.178518 2.869504 0.021516 -0.011288 -31518.300000 0 0 1
-8.972792 -2.461805 -29.063661 30.516681 0.267774 2.831765 0.001377 -0.012341 -230525.000000 0 0 1
-9.219392 -3.094005 -27.692301 29.350189 0.323787 2.803876 -0.006265 -0.017552 -253483.000000 0 0 1
-9.996292 -2.206705 -26.925711 28.806063 0.217268 2.778277 -0.004132 -0.018162 264975.000000 0 0 1
-10.475692 -2.875305 -25.721541 27.921410 0.267877 2.741981 -0.001250 -0.015149 -77158.500000 0 0 1
-11.402392 -2.026805 -24.866421 27.431029 0.175915 2.705732 -0.005395 -0.018793 -297633.000000 0 0 1
-10.738592 -1.009605 -24.178621 26.475316 0.093741 2.721991 0.009173 -0.017178 -417464.000000 0 0 1
-11.584392 -0.203505 -23.429821 26.138019 0.017565 2.682350 0.008546 -0.018021 -293653.000000 0 0 1
-10.892592 1.074895 -22.874921 25.358745 -0.098363 2.695298 0.018916 -0.020314 231206.000000 0 0 1
-10.608092 2.032795 -23.935621 26.259813 -0.189332 2.717694 0.009355 -0.017803 -36840.400000 0 0 1
-9.759892 3.029995 -23.421921 25.554309 -0.301020 2.730175 0.024074 -0.013862 -662577.000000 0 0 1
-9.571692 4.273595 -24.275821 26.442321 -0.419925 2.733973 0.033490 -0.016651 -652671.000000 0 0 1
-10.633692 5.169995 -24.453321 27.161906 -0.452539 2.691209 0.034797 -0.015207 -566608.000000 0 0 1
-11.305192 4.770395 -25.634531 28.419943 -0.399297 2.695155 0.024992 -0.016681 576910.000000 0 0 1
-12.765792 5.275395 -25.931561 29.380964 -0.391872 2.652155 0.029560 -0.010722 900263.000000 0 0 1
-12.797192 6.655895 -26.165701 29.878302 -0.479603 2.637768 0.029869 -0.008435 -18580.300000 0 0 1
-14.080592 6.971595 -26.655421 30.941520 -0.459737 2.608968 0.043068 -0.018727 -119952.000000 0 0 1
-14.301992 8.475095 -26.941111 31.657505 -0.534947 2.588717 0.054689 -0.009328 -177198.000000 0 0 1
-14.381492 9.220295 -25.778751 30.925477 -0.570109 2.556347 0.071265 -0.011854 217497.000000 0 0 1
-14.709292 10.587795 -25.990791 31.685736 -0.623893 2.532675 0.056072 -0.009610 -166992.000000 0 0 1
-14.329092 11.398495 -24.756021 30.791380 -0.671978 2.504775 0.046808 -0.003758 -366741.000000 0 0 1
-15.006792 11.067195 -23.590921 30.070220 -0.635439 2.472730 0.067967 -0.004568 -268558.000000 0 0 1
-14.595492 11.787995 -22.462421 29.266799 -0.679386 2.445737 0.059631 -0.003623 -370307.000000 0 0 1
-15.444292 11.519795 -21.243321 28.679444 -0.640868 2.404932 0.062354 -0.006784 61694.700000 0 0 1
-16.772792 12.005995 -21.181621 29.565715 -0.621253 2.369461 0.052457 -0.007664 133999.000000 0 0 1
-17.243192 12.345595 -19.907721 29.087088 -0.621363 2.324601 0.048282 -0.008328 -51967.600000 0 0 1
-18.685892 12.884495 -19.979321 30.238155 -0.603665 2.292590 0.051327 -0.013423 -107882.000000 0 0 1
-18.856692 14.044995 -20.732221 31.347435 -0.640183 2.293439 0.044735 -0.008932 -9374.000000 0 0 1
-20.231392 14.232595 -20.978321 32.434024 -0.613065 2.274177 0.022734 -0.004852 13148.000000 0 0 1
-20.550492 15.594095 -21.672521 33.692679 -0.649121 2.269520 0.024097 -0.002993 -47292.200000 0 0 1
-20.147492 15.731795 -23.036121 34.410371 -0.662943 2.304268 0.041763 -0.009967 246144.000000 0 0 1
-20.454792 17.070395 -23.408721 35.464984 -0.695452 2.291684 0.038295 -0.006695 15915.100000 0 0 1
-20.633292 17.314695 -24.944021 36.711518 -0.698169 2.317823 0.036605 -0.004097 -50614.500000 0 0 1
-19.424292 17.366295 -25.668981 36.575782 -0.729518 2.348721 0.033377 -0.009966 60022.400000 0 0 1
-19.470692 16.687595 -26.940521 37.193754 -0.708580 2.380857 0.031009 -0.017111 -173413.000000 0 0 1
-18.480392 17.367195 -27.925811 37.722609 -0.754355 2.404303 0.017050 -0.007706 260966.000000 0 0 1
-18.992992 18.666395 -28.304251 38.862561 -0.776726 2.386658 0.010864 -0.025350 648199.000000 0 0 1
-18.322792 19.730395 -27.608881 38.565055 -0.822372 2.368714 0.005343 -0.035751 -1240620.000000 0 0 1
-18.926492 21.111295 -27.767571 39.685474 -0.839913 2.345761 0.031775 -0.021666 379504.000000 0 0 1
-20.105492 21.471795 -27.045511 39.959084 -0.818248 2.314244 0.042491 -0.005689 723752.000000 0 0 1
-21.266892 20.701695 -27.366121 40.370105 -0.771932 2.315673 0.068582 -0.023283 -493311.000000 0 0 1
-22.413492 21.208095 -26.449691 40.641531 -0.757772 2.279440 0.059361 -0.001825 84631.700000 0 0 1
-22.111392 20.862995 -25.092181 39.418216 -0.756357 2.260830 0.029260 0.003686 436018.000000 0 0 1
-23.129192 21.432295 -24.273721 39.793420 -0.747337 2.226848 0.028900 -0.018518 281497.000000 0 0 1
-22.996192 21.041495 -22.801821 38.619844 -0.741040 2.202372 0.035934 -0.003692 778277.000000 0 0 1
-21.794392 21.516195 -22.177221 37.812316 -0.778975 2.197537 0.035436 -0.006766 605187.000000 0 0 1
-20.849792 20.646095 -21.576021 36.421144 -0.780489 2.204836 0.031947 0.000255 -50949.600000 0 0 1
-21.165192 20.017095 -20.205221 35.452791 -0.757527 2.177204 0.032361 -0.002440 -501633.000000 0 0 1
-22.042292 18.881195 -20.188521 35.354469 -0.708307 2.178558 0.048771 -0.002927 491602.000000 0 0 1
-22.583492 18.663195 -18.890321 34.859334 -0.690638 2.143494 0.035628 -0.001646 227101.000000 0 0 1
-23.682992 19.612895 -18.302421 35.784471 -0.691667 2.107682 0.038787 -0.003796 -995380.000000 0 0 1
-24.873692 19.418495 -18.977721 36.822987 -0.662851 2.112244 0.041547 -0.009585 -617164.000000 0 0 1
-25.825272 20.339695 -18.459821 37.701629 -0.667127 2.082461 0.041191 -0.010428 -872810.000000 0 0 1
-27.277282 20.223295 -18.950121 38.886229 -0.637972 2.079817 0.013002 0.008061 -248273.000000 0 0 1
-28.045432 19.141895 -18.526721 38.680716 -0.598906 2.070272 0.017112 -0.000184 159521.000000 0 0 1
-28.315982 19.083595 -17.138421 38.206071 -0.593029 2.035970 0.017068 -0.006098 -1093570.000000 0 0 1
-29.225092 17.927595 -16.675421 38.125769 -0.550237 2.023479 0.011482 -0.006485 -246960.000000 0 0 1
-28.741662 16.699095 -17.052421 37.359442 -0.526337 2.044789 0.023446 -0.011110 112758.000000 0 0 1
-29.597442 15.700895 -16.570921 37.378096 -0.487734 2.030109 0.017167 -0.011223 97162.500000 0 0 1
-28.767852 14.604095 -15.871021 35.954946 -0.469751 2.027970 0.034610 -0.011477 135472.000000 0 0 1
-27.978822 15.010995 -14.773121 35.019845 -0.492429 2.006281 0.023574 -0.012326 303446.000000 0 0 1
-28.730002 15.200695 -13.595021 35.232069 -0.486646 1.966948 0.001220 -0.006554 171844.000000 0 0 1
-27.870382 16.049495 -12.624021 34.550114 -0.522482 1.944840 -0.005163 -0.007437 -49458.200000 0 0 1
-27.834822 17.490395 -12.756221 35.262053 -0.561015 1.940946 0.005493 -0.001770 357620.000000 0 0 1
-28.964652 18.209095 -12.254121 36.341239 -0.561231 1.914733 -0.001374 -0.002029 -184968.000000 0 0 1
-28.840582 19.723895 -12.284021 37.036581 -0.599834 1.908872 0.044995 -0.017993 201297.000000 0 0 1
-27.897402 20.222895 -11.327421 36.270387 -0.627244 1.888415 -0.002421 -0.022830 547774.000000 0 0 1
-26.757412 20.840295 -11.890221 35.939593 -0.661718 1.907989 0.008926 -0.023690 27764.800000 0 0 1
-25.881792 21.623495 -10.932721 35.453731 -0.695999 1.884271 0.030843 -0.016175 129240.000000 0 0 1
-26.446852 22.896695 -10.619321 36.557688 -0.713574 1.865526 0.048773 -0.029968 -13653.300000 0 0 1
-25.435372 23.763395 -10.199221 36.272320 -0.751427 1.855825 0.060307 -0.027896 -21835.700000 0 0 1
-26.014552 24.944995 -9.454721 37.261259 -0.764413 1.827343 0.080909 -0.019148 -95967.100000 0 0 1
-25.950382 24.888395 -8.052821 36.847014 -0.764512 1.791122 0.074949 -0.027078 66953.500000 0 0 1
-27.191452 25.234495 -7.464621 37.840129 -0.748087 1.769366 0.083736 -0.031233 41520.600000 0 0 1
-27.419712 24.674895 -6.036621 37.378226 -0.732758 1.733008 0.085855 -0.027714 -262231.000000 0 0 1
-27.664852 23.309795 -5.970521 36.665211 -0.700169 1.734364 0.078483 -0.035034 -283883.000000 0 0 1
-27.402172 22.710995 -4.727821 35.902933 -0.692059 1.702863 0.069986 -0.030393 -44605.600000 0 0 1
-27.627352 21.109195 -4.848221 35.105184 -0.652444 1.709345 0.053010 -0.022304 571663.000000 0 0 1
-26.663132 20.388395 -5.658121 34.038560 -0.652822 1.737798 0.043404 -0.025874 564812.000000 0 0 1
-26.824622 20.612595 -7.065321 34.559487 -0.655186 1.776687 0.037006 -0.024349 -250843.000000 0 0 1
-27.999572 19.847095 -7.718121 35.177444 -0.616631 1.792001 0.016903 -0.022595 -225713.000000 0 0 1
-27.845382 18.426995 -7.755621 34.279280 -0.584599 1.799020 0.005754 -0.016238 249726.000000 0 0 1
-27.501042 18.025295 -9.075921 34.111448 -0.580190 1.840107 -0.003215 -0.012383 -340570.000000 0 0 1
-27.034432 16.574595 -9.232721 33.027577 -0.549990 1.854117 0.002965 -0.009263 -183390.000000 0 0 1
-27.939032 15.602795 -8.780421 33.183316 -0.509314 1.838589 -0.017961 -0.010481 -417369.000000 0 0 1
-27.347842 14.341795 -8.848921 32.123121 -0.482993 1.849874 -0.006878 -0.015663 -280540.000000 0 0 1
-27.862272 13.250895 -7.960121 31.863081 -0.443926 1.823293 0.000872 -0.016017 -1501620.000000 0 0 1
-29.097352 12.782395 -8.275521 32.840977 -0.413918 1.825530 0.016463 -0.010888 -1578050.000000 0 0 1
-29.560292 11.952395 -7.233021 32.695369 -0.384242 1.793866 0.034414 -0.010655 2850.590000 0 0 1
-30.369552 10.729695 -7.732421 33.124407 -0.339616 1.806406 0.031050 -0.010185 -318093.000000 0 0 1
-29.595852 9.795895 -8.425121 32.293291 -0.319639 1.834744 0.035816 -0.008066 -322100.000000 0 0 1
-30.256822 8.562895 -8.668621 32.618145 -0.275795 1.839789 0.030881 -0.006483 -759555.000000 0 0 1
-29.354722 7.397795 -9.051221 31.596703 -0.246873 1.861327 0.054445 -0.010258 -570512.000000 0 0 1
-28.807142 7.519495 -10.326221 31.512300 -0.255332 1.904652 0.050592 -0.017623 231629.000000 0 0 1
-27.551272 6.848695 -10.326621 30.209540 -0.243642 1.919663 0.061568 -0.031013 63703.400000 0 0 1
-26.858142 6.828295 -11.705821 30.083411 -0.248961 1.970464 0.046557 -0.027120 -176092.000000 0 0 1
-26.239372 8.076295 -11.980621 29.954406 -0.298591 1.982272 0.056910 -0.028305 816256.000000 0 0 1
-25.427312 8.052795 -13.183821 29.752459 -0.306705 2.029869 0.048512 -0.019349 128250.000000 0 0 1
-31.523652 25.976195 -33.792851 53.013772 -0.689218 2.261961 0.014156 -0.011174 -50076.400000 0 0 1
-31.924162 27.386495 -33.828191 53.977020 -0.709040 2.248126 0.021185 -0.025233 400915.000000 0 0 1
-31.907352 27.924095 33.498611 54.036942 -0.718922 0.902155 0.021334 -0.033216 -226315.000000 0 0 1
-32.342822 29.378495 33.232948 54.896110 -0.737407 0.920554 0.035315 -0.034331 -98862.000000 0 0 1
-32.264482 29.725595 31.857283 54.217103 -0.744465 0.942722 0.053009 -0.032720 193935.000000 0 0 1
-32.624212 31.078095 31.672583 55.075763 -0.761132 0.958103 0.073456 -0.035999 -71852.000000 0 0 1
-32.633262 31.373695 30.160573 54.395760 -0.765722 0.983076 0.070224 -0.033318 1036660.000000 0 0 1
-31.311412 31.371895 29.561193 53.277241 -0.786363 0.982607 0.049928 -0.029340 1242760.000000 0 0 1
-31.411692 32.089695 28.333243 53.096286 -0.796075 1.007921 0.080298 -0.029019 612398.000000 0 0 1
-30.046272 32.246195 27.584523 51.995206 -0.820700 1.011582 0.072529 -0.024119 359434.000000 0 0 1
-29.607662 31.067495 26.943933 50.673251 -0.809453 1.010167 0.069239 -0.026738 483775.000000 0 0 1
-28.329682 31.109395 26.315173 49.627146 -0.832130 1.011892 0.053832 -0.018913 219985.000000 0 0 1
-28.205522 31.866795 24.961783 49.336951 -0.846271 1.040319 0.068989 -0.025312 -432533.000000 0 0 1
-28.093082 33.283095 25.108733 50.273593 -0.869758 1.047842 0.058742 -0.018029 803148.000000 0 0 1
-28.997872 34.080395 24.276433 50.908694 -0.865799 1.073715 0.064278 -0.010540 617626.000000 0 0 1
-29.036982 -33.247526 24.902663 50.682215 0.852897 1.057158 0.067968 -0.012253 -248558.000000 0 0 1
-29.767932 -33.314826 26.084213 51.733873 0.841565 1.042341 0.062796 -0.018302 34157.300000 0 0 1
-29.674862 -32.165826 26.881273 51.359913 0.825657 1.019972 0.050470 -0.019797 -215458.000000 0 0 1
-30.089802 -32.487026 28.300273 52.551960 0.823688 1.002117 0.067300 -0.027407 1036940.000000 0 0 1
-31.506642 -32.697126 28.496253 53.607900 0.803938 1.010345 0.063779 -0.031271 941765.000000 0 0 1
-31.734992 -33.192326 29.802663 54.745219 0.807840 0.995136 0.048734 -0.024637 11518.300000 0 0 1
-33.206762 -33.411926 30.187503 55.949363 0.788478 1.000893 0.065101 -0.034703 8912.690000 0 0 1
-33.316892 -34.017026 31.476163 57.078211 0.795796 0.986687 0.066233 -0.034052 1291140.000000 0 0 1
-34.725307 -34.061326 31.868443 58.151686 0.775746 0.990798 0.066690 -0.037579 1519880.000000 0 0 1
-35.118065 34.297595 33.309729 59.322353 -0.773579 0.974594 0.057603 -0.036003 17907.500000 0 0 1
-34.774571 32.953795 33.702351 58.575352 -0.758521 0.957743 0.039534 -0.032939 145869.000000 0 0 1
-35.512756 32.571095 -33.762201 58.838068 -0.742219 2.181954 0.054813 -0.027994 266526.000000 0 0 1
-35.090852 31.183095 -33.295821 57.553149 -0.726503 2.187713 0.031542 -0.030307 41515.100000 0 0 1
-33.988132 31.189795 -32.431351 56.389617 -0.742491 2.183559 0.034776 -0.032244 -496007.000000 0 0 1
-33.522042 29.927195 -32.094621 55.221635 -0.728802 2.190995 0.025513 -0.030612 311800.000000 0 0 1
-32.613642 29.968195 -30.852341 53.977859 -0.743152 2.179219 0.019821 -0.024523 330823.000000 0 0 1
-33.421762 30.066195 -29.685461 53.872227 -0.732594 2.154400 0.020836 -0.025982 72395.300000 0 0 1
-33.699162 31.426695 -29.371051 54.643657 -0.750519 2.138268 0.011562 -0.018486 571696.000000 0 0 1
-34.756645 31.529295 -28.192911 54.744506 -0.736748 2.111793 0.010659 -0.010920 830417.000000 0 0 1
-34.263584 31.337595 -26.878321 53.651488 -0.740825 2.095527 -0.011347 -0.014652 196996.000000 0 0 1
-35.403612 31.341695 -26.038941 53.979107 -0.724616 2.074177 0.014366 -0.010583 209306.000000 0 0 1
-35.026979 30.991695 -24.602621 52.845656 -0.724351 2.055059 0.014651 -0.007202 254993.000000 0 0 1
-34.278067 32.071295 -23.993421 52.718479 -0.752151 2.043307 0.015073 -0.006084 116118.000000 0 0 1
-34.003312 31.876595 -22.623821 51.809070 -0.753128 2.022698 0.004020 -0.012315 -33097.100000 0 0 1
-35.235797 31.675895 -21.677221 52.103988 -0.732245 1.999880 0.008203 -0.015266 35091.800000 0 0 1
35.896475 32.833995 -21.416321 53.153428 0.740870 1.985496 0.011500 -0.021506 -230542.000000 0 0 1
-35.574465 33.877995 -20.488421 53.226276 -0.760977 1.965929 0.014937 -0.019159 -179555.000000 0 0 1
-35.603803 33.446095 -19.008621 52.417551 -0.754160 1.941894 0.017359 -0.022122 216319.000000 0 0 1
-34.506340 32.593395 -18.720021 51.024073 -0.756897 1.946456 0.024635 -0.028742 64621.700000 0 0 1
-34.417201 32.134095 -17.401721 50.199239 -0.751106 1.924797 0.033793 -0.029103 -13184.500000 0 0 1
-33.088652 31.373295 -17.231021 48.744749 -0.758794 1.932101 0.031037 -0.018689 14796.800000 0 0 1
-33.036502 31.035095 -15.850821 48.019122 -0.754171 1.907199 0.036718 -0.018290 -143896.000000 0 0 1
-31.872882 30.273595 -15.654421 46.662962 -0.759670 1.912909 0.044852 -0.015379 -330935.000000 0 0 1
-31.679862 29.995995 -14.195721 45.879100 -0.758103 1.885375 0.058159 -0.018704 136013.000000 0 0 1
-32.694402 29.093495 -13.766621 45.878919 -0.727185 1.875556 0.054711 -0.017821 442338.000000 0 0 1
-32.328852 28.648995 -12.508421 44.970881 -0.725124 1.852659 0.074689 -0.026105 -57652.100000 0 0 1
-33.405962 27.893395 -11.694121 45.063868 -0.695711 1.833302 0.067704 -0.024413 45544.000000 0 0 1
-32.871332 27.570495 -10.439821 44.154801 -0.697921 1.809493 0.079784 -0.021655 179810.000000 0 0 1
-33.697372 26.591095 -9.856121 44.042506 -0.668068 1.796494 0.078206 -0.018899 -413265.000000 0 0 1
-33.177582 25.813295 -8.564321 42.900183 -0.661203 1.771780 0.070678 -0.021532 58352.900000 0 0 1
-32.789812 26.634695 -7.491521 42.903398 -0.682187 1.746310 0.082849 -0.026650 1301790.000000 0 0 1
-31.530172 27.349095 -7.652321 42.434452 -0.714506 1.752121 0.077824 -0.029119 544038.000000 0 0 1
-30.872752 27.850395 -6.363421 42.062625 -0.733976 1.722664 0.088992 -0.025501 -152833.000000 0 0 1
-30.376942 26.818495 -5.483321 40.890794 -0.723263 1.705298 0.107603 -0.038230 217637.000000 0 0 1
-30.064112 27.408195 -4.262421 40.905112 -0.739219 1.675188 0.107676 -0.037366 -271766.000000 0 0 1
-29.229862 26.499795 -3.358721 39.596779 -0.736450 1.655721 0.105401 -0.039031 125787.000000 0 0 1
-30.023582 25.405195 -2.880921 39.435252 -0.702269 1.643916 0.097397 -0.026943 359632.000000 0 0 1
-29.258502 24.543195 -2.060221 38.244906 -0.697979 1.624692 0.081184 -0.028007 92272.200000 0 0 1
-30.032852 23.281095 -1.622721 38.034389 -0.659427 1.613474 0.084216 -0.030550 128076.000000 0 0 1
-30.175582 22.393295 -2.675021 37.672020 -0.638426 1.641864 0.061447 -0.025692 165516.000000 0 0 1
-31.361892 21.666995 -2.391121 38.193512 -0.604572 1.633443 0.065061 -0.024053 93074.200000 0 0 1
-31.596092 20.793595 -3.618921 37.997147 -0.582053 1.666183 0.048762 -0.017843 -441401.000000 0 0 1
-30.705582 19.732195 -3.733821 36.689694 -0.571174 1.672740 0.044242 -0.016436 -208581.000000 0 0 1
-30.889032 18.958195 -4.905721 36.573372 -0.550470 1.705336 0.043221 -0.014551 -145317.000000 0 0 1
-29.772092 17.906895 -5.179521 35.126368 -0.541497 1.718790 0.037772 -0.006208 -42685.900000 0 0 1
-29.702512 16.774795 -4.257621 34.376740 -0.514105 1.694967 0.038317 -0.014939 252481.000000 0 0 1
-28.921482 15.841495 -4.985221 33.350525 -0.501108 1.720838 0.012417 -0.008862 -122227.000000 0 0 1
-28.659012 14.501395 -4.214121 32.394262 -0.468434 1.701255 0.017014 -0.013234 302507.000000 0 0 1
-29.840852 13.728995 -3.982221 33.088061 -0.431200 1.691441 0.046336 -0.009540 610180.000000 0 0 1
-29.646462 12.612495 -3.214721 32.377803 -0.402235 1.670248 0.040586 -0.010759 -38727.000000 0 0 1
-30.961752 11.913095 -2.785221 33.291280 -0.367307 1.654556 0.056036 -0.012279 286329.000000 0 0 1
-31.678362 11.217695 -3.827421 33.823135 -0.340334 1.684199 0.051593 -0.003398 204555.000000 0 0 1
-32.835152 10.581995 -3.403321 34.665666 -0.311767 1.669130 0.051552 -0.007074 -450047.000000 0 0 1
-33.734662 9.984495 -4.521621 35.470588 -0.287757 1.698619 0.054447 -0.011431 201650.000000 0 0 1
-33.179132 8.856195 -5.177521 34.728860 -0.260839 1.720438 0.050020 -0.014616 1011510.000000 0 0 1
-34.182423 8.342895 -6.071121 35.705748 -0.239389 1.741658 0.067526 -0.006970 693884.000000 0 0 1
-33.515242 7.532695 -7.238021 35.105582 -0.221081 1.778464 0.061177 -0.010909 -173247.000000 0 0 1
-32.891912 6.369095 -6.765821 34.179227 -0.191270 1.770064 0.055661 -0.010859 250620.000000 0 0 1
-32.481332 5.528195 -7.800221 33.859139 -0.168581 1.803257 0.052929 -0.019822 -277154.000000 0 0 1
-31.502322 4.391295 -7.352921 32.645753 -0.138503 1.797979 0.063482 -0.024092 -228159.000000 0 0 1
-30.280902 4.908695 -6.907321 31.444226 -0.160707 1.792271 0.054592 -0.013605 -871858.000000 0 0 1
-29.421922 3.874395 -6.653221 30.412592 -0.130931 1.791345 0.052777 -0.017245 214317.000000 0 0 1
-27.946772 4.394295 -6.443221 29.014599 -0.155961 1.794731 0.072323 -0.015067 681541.000000 0 0 1
-27.206902 4.836895 -7.557021 28.648204 -0.175944 1.837742 0.068342 -0.017606 -238907.000000 0 0 1
-25.855992 4.703895 -7.212821 27.252224 -0.179959 1.838657 0.093419 -0.022092 -563436.000000 0 0 1
-24.823892 5.088995 -8.266821 26.654527 -0.202202 1.886144 0.088675 -0.025161 -288991.000000 0 0 1
-24.851092 4.163595 -9.313421 26.863583 -0.166000 1.924840 0.085273 -0.036248 130511.000000 0 0 1
-23.954592 4.483995 -10.332921 26.470699 -0.185046 1.971811 0.083240 -0.037723 -527926.000000 0 0 1
-24.194092 3.685495 -11.607621 27.086414 -0.151168 2.013673 0.081452 -0.044416 -3119.760000 0 0 1
-25.381212 3.997795 -12.312221 28.491737 -0.156226 2.017653 0.072380 -0.022802 161523.000000 0 0 1
-25.594552 3.262595 -13.502621 29.121236 -0.126788 2.052928 0.075201 -0.026146 244705.000000 0 0 1
-26.624632 3.958495 -14.423221 30.538009 -0.147597 2.062699 0.055281 -0.017188 16893.900000 0 0 1
-26.033352 5.163395 -14.948921 30.460898 -0.195797 2.083756 0.044831 -0.014559 567611.000000 0 0 1
-26.854422 5.923095 -15.815921 31.723593 -0.217087 2.092726 0.068338 -0.020664 -312873.000000 0 0 1
-27.434202 5.371995 -17.132921 32.787661 -0.193367 2.120626 0.035336 0.008669 284062.000000 0 0 1
-28.745892 4.878395 -16.882421 33.691856 -0.168106 2.095646 0.036012 -0.008960 232667.000000 0 0 1
-29.339972 4.334895 -18.021521 34.704473 -0.146686 2.116811 0.041290 0.000947 -85505.200000 0 0 1
-30.807142 3.874395 -17.820721 35.800405 -0.125106 2.091833 0.038710 -0.005641 161155.000000 0 0 1
-31.039522 2.693895 -17.066021 35.524049 -0.086572 2.071916 0.043088 -0.016268 209467.000000 0 0 1
-30.479172 1.563995 -17.680621 35.270814 -0.051269 2.095876 0.064724 -0.018955 -276667.000000 0 0 1
-30.683202 0.351195 -16.777021 34.972141 -0.011445 2.071138 0.060198 -0.013477 -190844.000000 0 0 1
-30.195232 -0.898405 -17.212121 34.768035 0.029744 2.088695 0.062883 -0.011120 340075.000000 0 0 1
-30.670492 -1.907005 -16.345921 34.806678 0.062097 2.059657 0.069172 -0.022919 -91053.500000 0 0 1
-30.364052 -3.270605 -16.967221 34.936501 0.107299 2.077913 0.059121 -0.013924 -78444.700000 0 0 1
-31.303772 -3.626405 -17.971121 36.277240 0.115332 2.089072 0.055155 -0.012586 340094.000000 0 0 1
-31.006732 -4.868005 -18.604821 36.486357 0.155727 2.105878 0.047955 -0.008656 -146877.000000 0 0 1
-32.121702 -5.149405 -19.614921 37.987698 0.158957 2.113379 0.046218 -0.005442 -627907.000000 0 0 1
-32.006672 -6.380905 -20.261721 38.414585 0.196782 2.126391 0.042197 -0.002107 -360594.000000 0 0 1
-33.041812 -6.535205 -21.159621 39.776875 0.195266 2.131707 0.056395 -0.002579 -781122.000000 0 0 1
-32.726322 -7.699105 -22.131121 40.250154 0.231056 2.152968 0.043613 0.000058 391808.000000 0 0 1
-31.582732 -7.408605 -22.938421 39.730687 0.230412 2.186273 0.033579 -0.005162 374506.000000 0 0 1
-31.383432 -8.397405 -23.917321 40.341969 0.261450 2.205408 0.030490 0.005789 -490745.000000 0 0 1
-29.983582 -8.311705 -24.519121 39.614226 0.270418 2.238198 0.041597 0.001312 -726349.000000 0 0 1
-29.626822 -7.114405 -25.186591 39.531351 0.235672 2.261565 0.051290 -0.008374 -48860.900000 0 0 1
-29.908222 -7.057105 -26.595371 40.640106 0.231720 2.284201 0.057998 0.000504 782167.000000 0 0 1
-31.391992 -6.929105 -27.122961 42.060963 0.217245 2.271622 0.047344 0.000495 1200800.000000 0 0 1
-32.268532 -8.020105 -26.804361 42.708945 0.243607 2.249270 0.018991 0.007145 -266559.000000 0 0 1
-33.461822 -8.035505 -27.513921 44.059944 0.235677 2.245243 0.031099 0.015609 -283883.000000 0 0 1
-34.310673 -9.297605 -27.256341 44.794819 0.264628 2.224929 0.021431 0.012990 -631200.000000 0 0 1
-33.800002 -10.464205 -27.855981 45.032159 0.300233 2.237730 0.012090 0.016343 162676.000000 0 0 1
-34.679006 -11.605105 -27.942851 46.022981 0.322929 2.223265 -0.007428 0.020484 -59382.100000 0 0 1
-35.761084 -11.378805 -29.012041 47.434490 0.308060 2.228907 -0.012980 0.012195 -538789.000000 0 0 1
35.066665 -10.617305 -28.528481 46.435680 -0.294001 2.232378 -0.019807 0.026183 -1125730.000000 0 0 1
34.209855 -10.096105 -29.435341 46.245917 -0.286976 2.260743 -0.015503 0.011896 -755726.000000 0 0 1
33.185575 -9.161605 -28.765331 44.862698 -0.269362 2.266839 -0.001593 0.017389 201907.000000 0 0 1
32.223195 -9.776705 -27.907161 43.734745 -0.294578 2.262825 -0.010226 0.018738 379393.000000 0 0 1
31.295405 -8.849605 -27.364581 42.503390 -0.275581 2.270278 -0.001562 0.013508 410657.000000 0 0 1
30.393755 -9.416505 -26.231091 41.237374 -0.300439 2.260230 -0.006283 0.018932 88561.900000 0 0 1
31.047825 -9.606005 -24.998021 41.001754 -0.300053 2.226455 -0.020572 0.024889 343515.000000 0 0 1
30.150315 -10.251105 -24.098521 39.935765 -0.327738 2.218594 -0.000365 0.020837 331526.000000 0 0 1
30.644315 -10.210805 -22.611421 39.428555 -0.321634 2.181542 -0.003872 0.013281 -330158.000000 0 0 1
31.644735 -11.089505 -22.256021 40.245457 -0.337065 2.156765 -0.020192 0.018560 -368806.000000 0 0 1
32.004485 -10.882305 -20.915821 39.751518 -0.327760 2.124880 -0.006871 0.009396 -599443.000000 0 0 1
32.889185 -11.935605 -20.276521 40.438774 -0.348124 2.096027 -0.009125 0.005701 -279024.000000 0 0 1
34.214765 -12.025105 -20.752121 41.784014 -0.337974 2.090534 -0.008068 0.011533 247030.000000 0 0 1
34.965745 -12.993305 -19.990421 42.320754 -0.355787 2.062757 -0.000666 0.003745 -117934.000000 0 0 1
-35.550242 -13.338005 -20.591721 43.194225 0.358935 2.067720 -0.000142 0.006007 -778208.000000 0 0 1
-34.535907 -12.361205 -20.469821 42.006450 0.343716 2.079794 0.004621 0.001959 205910.000000 0 0 1
-34.628910 -11.147105 -21.199121 42.104894 0.311427 2.098422 -0.007276 0.021840 -1238900.000000 0 0 1
-34.404641 -11.247505 -22.690821 42.720710 0.315966 2.130746 -0.008367 0.018875 -73084.900000 0 0 1
-35.133204 -12.123305 -23.540121 43.993793 0.332273 2.135397 -0.007280 0.018840 -131960.000000 0 0 1
35.370185 -11.857005 -23.589821 44.137492 -0.323453 2.134668 -0.014839 0.022863 -322525.000000 0 0 1
34.709395 -12.806405 -24.661621 44.462812 -0.353466 2.158747 -0.020449 0.022407 -282.693000 0 0 1
34.741625 -14.191905 -24.442421 44.786411 -0.387811 2.148087 -0.007996 0.010283 766300.000000 0 0 1
33.832545 -14.638605 -23.385621 43.655665 -0.408356 2.136113 -0.012448 0.005494 455259.000000 0 0 1
-29.467162 8.593095 -19.386221 36.304000 -0.283747 2.134117 0.013563 0.019541 -29207.900000 0 0 1
-28.398762 7.675595 -19.491221 35.288980 -0.263972 2.155955 0.014623 0.019640 -128268.000000 0 0 1
-27.852992 7.958295 -20.753421 35.634647 -0.278310 2.192467 0.027162 -0.001754 -191292.000000 0 0 1
-26.608502 7.103995 -21.095821 34.691681 -0.260897 2.224454 0.032995 -0.002977 8878.370000 0 0 1
-25.476372 7.425495 -20.318921 33.422179 -0.283609 2.224269 0.039092 0.001096 -588744.000000 0 0 1
-24.471892 6.493495 -20.484721 32.567818 -0.259368 2.251045 0.066963 -0.012855 -485325.000000 0 0 1
-23.130092 6.956795 -19.893821 31.291568 -0.292161 2.259785 0.051216 -0.021211 80390.000000 0 0 1
-22.502892 8.035995 -20.575121 31.532411 -0.342994 2.281684 0.054445 -0.017028 1167120.000000 0 0 1
-21.189192 8.330195 -20.006521 30.308990 -0.374574 2.291729 0.051694 -0.018195 1655870.000000 0 0 1
-20.403892 9.431495 -20.791521 30.619589 -0.432986 2.317232 0.062544 -0.015486 67140.500000 0 0 1
-19.795692 9.053795 -22.003821 30.951716 -0.428959 2.361585 0.081861 -0.024046 -478867.000000 0 0 1
-19.064292 10.101795 -22.514721 31.183427 -0.487265 2.377498 0.077218 -0.016638 -490510.000000 0 0 1
-18.079392 9.587495 -23.556221 31.203846 -0.487592 2.426319 0.090419 -0.016296 -499117.000000 0 0 1
-18.753192 8.963095 -24.604421 32.208644 -0.445853 2.440143 0.085473 -0.017485 102856.000000 0 0 1
-17.883092 8.348595 -25.554481 32.288318 -0.436772 2.483968 0.070500 -0.011535 31154.500000 0 0 1
-18.659992 7.366295 -26.461581 33.206518 -0.375985 2.492908 0.047782 -0.004477 -72781.200000 0 0 1
-18.940192 6.130795 -25.773741 32.566904 -0.313049 2.483907 0.061370 -0.003205 281417.000000 0 0 1
-19.704692 5.197195 -26.516351 33.442526 -0.257881 2.486339 0.045695 -0.006743 -627787.000000 0 0 1
-19.823492 3.795195 -25.829701 32.780295 -0.189160 2.478292 0.044178 0.007463 901149.000000 0 0 1
-18.653492 2.911495 -25.831961 31.995621 -0.154834 2.510459 0.041479 0.003514 998639.000000 0 0 1
-17.628392 3.362695 -24.987421 30.764250 -0.188490 2.518749 0.039347 -0.004845 -449178.000000 0 0 1
-16.682392 2.241795 -24.436021 29.672326 -0.133581 2.538400 0.036990 -0.010460 94775.900000 0 0 1
-17.247892 1.325995 -23.511021 29.189315 -0.076728 2.507259 0.033845 -0.012014 67271.700000 0 0 1
-18.354292 0.574795 -23.982121 30.205174 -0.031306 2.488114 0.030427 -0.010799 -143950.000000 0 0 1
-19.058192 -0.205605 -22.880221 29.778540 0.010788 2.447049 0.054873 -0.009047 -171587.000000 0 0 1
-18.337592 -1.318705 -22.436221 29.006728 0.071789 2.455115 0.041773 -0.008474 321829.000000 0 0 1
-19.047292 -1.862805 -21.328521 28.656154 0.097489 2.410269 0.049121 -0.008307 -42210.100000 0 0 1
-18.512392 -3.226605 -20.906521 28.110536 0.172561 2.409422 0.034239 -0.015890 -130304.000000 0 0 1
-18.580692 -4.254605 -21.896021 29.030665 0.225099 2.425289 0.041787 -0.021363 281566.000000 0 0 1
-18.673592 -5.545905 -21.353621 28.903931 0.288695 2.402053 0.047548 -0.009147 -127444.000000 0 0 1
-18.648092 -6.669605 -22.437421 29.927793 0.343479 2.418433 0.025809 -0.009262 140582.000000 0 0 1
-17.411392 -6.709005 -23.132121 29.719729 0.367790 2.462817 0.016390 -0.000104 208149.000000 0 0 1
-17.475892 -7.747405 -24.138421 30.791110 0.417285 2.471785 0.030716 -0.010602 319783.000000 0 0 1
-16.270192 -7.648405 -25.108141 30.880997 0.439432 2.520187 0.024158 -0.008976 -652913.000000 0 0 1
-16.334192 -8.420605 -26.271331 32.060805 0.475987 2.531198 0.030554 -0.031006 269404.000000 0 0 1
-15.054592 -8.776905 -26.794021 31.962389 0.527830 2.564951 0.040837 -0.033490 658240.000000 0 0 1
-14.104392 -9.662105 -25.933761 31.062036 0.600617 2.558751 0.049207 -0.035510 -570952.000000 0 0 1
-13.425292 -9.026805 -24.867121 29.666401 0.591943 2.564817 0.043193 -0.027856 470780.000000 0 0 1
-12.563292 -9.943605 -24.171621 28.999635 0.669525 2.556235 0.028247 -0.027297 392878.000000 0 0 1
-11.691692 -9.261205 -23.070221 27.471816 0.669917 2.567670 0.036819 -0.023141 -207932.000000 0 0 1
-12.368092 -8.777505 -21.956721 26.685424 0.617199 2.537114 0.031860 -0.014029 -302052.000000 0 0 1
-11.485192 -8.196005 -21.033821 25.327964 0.619805 2.550726 0.023365 -0.012801 -654842.000000 0 0 1
-12.034892 -7.864205 -19.605321 24.311580 0.578797 2.508868 0.016280 -0.005335 -89985.700000 0 1 0
-12.817392 -6.686105 -19.405921 24.198746 0.480812 2.501330 0.008277 0.001727 651536.000000 0 1 0
-14.211392 -6.864805 -19.611321 25.173262 0.449995 2.463951 0.012679 -0.008849 -189162.000000 0 0 1
-14.959592 -5.614705 -19.193821 24.974328 0.359055 2.447356 0.011306 -0.007915 -491271.000000 0 1 0
-14.860592 -5.334705 -17.811421 23.802163 0.344655 2.416309 0.003895 -0.000920 266946.000000 0 1 0
-14.987292 -3.941105 -17.608221 23.456356 0.257142 2.419887 0.007723 -0.006614 -459214.000000 0 1 0
-14.780492 -3.528105 -16.143921 22.170626 0.234316 2.386440 0.015527 -0.015310 983626.000000 0 1 0
-16.016692 -3.498105 -15.389221 22.485535 0.215027 2.324584 0.029485 -0.016327 805183.000000 0 1 0
-16.712592 -2.267505 -15.596321 22.971668 0.134853 2.317110 0.014363 -0.012317 -416070.000000 0 1 0
-18.036392 -2.179105 -14.841321 23.459001 0.120234 2.255766 0.035804 -0.014959 -363502.000000 0 1 0
-17.750592 -2.404305 -13.513421 22.438287 0.134630 2.217111 0.044912 -0.022445 820157.000000 0 1 0
-18.599092 -1.632205 -12.663121 22.559808 0.087533 2.166768 0.043827 -0.024834 332767.000000 0 1 0
-17.785692 -0.452905 -11.987621 21.453182 0.025459 2.163711 0.023941 -0.020078 242906.000000 0 1 0
-17.268792 0.380895 -12.947821 21.587087 -0.022053 2.214041 0.030819 -0.021876 -190985.000000 0 1 0
-16.336292 1.279795 -12.483021 20.599469 -0.078181 2.221803 0.026667 -0.012979 -828890.000000 0 1 0
-15.970992 2.353695 -13.588021 21.100871 -0.146320 2.270453 0.039326 -0.008769 142230.000000 0 1 0
-15.418392 1.895095 -14.808621 21.461907 -0.122298 2.332279 0.040285 -0.018629 614926.000000 0 1 0
-14.070292 1.462895 -14.637821 20.356300 -0.103598 2.373275 0.030112 -0.012453 -72805.500000 0 1 0
-13.569692 0.434495 -15.690021 20.748544 -0.032009 2.428280 0.025836 -0.009720 -34573.100000 0 1 0
-13.186492 0.998795 -16.919521 21.474434 -0.075599 2.478174 0.026697 -0.013472 121720.000000 0 1 0
-12.811992 -0.012205 -17.818521 21.946457 0.000953 2.518211 0.008439 -0.011512 -277606.000000 0 1 0
-12.057192 0.645195 -18.971621 22.488098 -0.053460 2.574804 0.009044 -0.017136 -797391.000000 0 1 0
-10.827692 1.163995 -18.582321 21.538255 -0.107090 2.611497 -0.001307 -0.011000 -932846.000000 0 1 0
-10.533492 2.346095 -19.295121 22.107924 -0.219150 2.631644 0.003865 -0.017977 -296917.000000 0 1 0
-9.125992 2.769995 -18.858821 21.133190 -0.294690 2.673387 0.005101 -0.020298 -378851.000000 0 1 0
-8.169992 1.837395 -19.398621 21.128920 -0.221215 2.734075 0.005191 -0.006763 -762441.000000 0 1 0
-6.827692 2.134795 -19.290121 20.573854 -0.303037 2.786469 0.006848 -0.002559 -613967.000000 0 1 0
-6.345792 3.224795 -20.225521 21.441550 -0.470169 2.803190 0.010220 0.003446 -918656.000000 0 1 0
-6.323092 2.872595 -21.616121 22.704404 -0.426426 2.830721 0.010842 0.008744 205474.000000 0 1 0
-5.924692 3.971595 -22.424921 23.531948 -0.590546 2.833641 0.016993 0.005031 -245134.000000 0 1 0
-5.412592 3.500995 -23.810921 24.668057 -0.574139 2.877207 0.029314 -0.001086 567319.000000 0 1 0
-4.136492 2.860195 -23.734221 24.261173 -0.604967 2.932791 0.035964 -0.008218 293501.000000 0 1 0
-3.619792 2.398895 -24.987721 25.362251 -0.585263 2.969525 0.051877 -0.008593 512152.000000 0 0 1
-2.258492 1.643295 -24.938121 25.094044 -0.629015 3.030058 0.045730 -0.011163 -6674.050000 0 0 1
-1.179792 2.543095 -24.740121 24.898450 -1.136427 3.028759 0.043147 -0.013619 1419440.000000 0 1 0
0.167908 2.006295 -24.894421 24.975700 1.487300 3.060894 0.037639 -0.011689 1528720.000000 0 1 0
0.632408 1.029495 -23.781621 23.812293 1.019936 3.090831 0.035824 -0.011504 -1273750.000000 0 1 0
0.120408 -0.287405 -23.881721 23.883753 -1.174062 3.128545 0.037757 -0.014889 117109.000000 0 1 0
0.671108 -1.004105 -22.806421 22.838376 -0.981619 3.088686 0.036937 -0.014351 -660058.000000 0 1 0
0.360108 -2.500805 -22.923621 23.062439 -1.427783 3.031818 0.041684 -0.016450 465975.000000 0 1 0
-0.872692 -2.907305 -22.359621 22.564721 1.279182 3.006661 0.033198 -0.006618 870118.000000 0 1 0
-2.124792 -2.759505 -23.045021 23.306707 0.914624 2.991599 0.041220 -0.012495 989259.000000 0 1 0
-2.903692 -1.415705 -22.974921 23.200919 0.453641 3.001902 0.042760 -0.012513 -1061840.000000 0 1 0
-3.358392 -1.114005 -21.681821 21.968640 0.320287 2.979825 0.033500 -0.011596 391367.000000 0 1 0
-4.277492 -0.013905 -21.583721 22.003503 0.003251 2.945945 0.023479 -0.010517 1674030.000000 0 1 0
-5.724092 -0.266505 -22.183921 22.912062 0.046525 2.888810 0.025463 -0.012619 524315.000000 0 1 0
-6.442692 -1.275705 -21.462421 22.444848 0.195480 2.844629 0.028455 -0.014807 290506.000000 0 1 0
-7.809392 -1.184005 -21.853621 23.237237 0.150467 2.794768 0.007964 -0.004211 102890.000000 0 1 0
-8.594892 -2.412805 -21.504021 23.283400 0.273681 2.748105 0.006414 -0.013525 -621277.000000 0 1 0
-8.731492 -3.403105 -22.516021 24.388343 0.371640 2.747197 0.037087 -0.014652 -42047.600000 0 1 0
-9.254392 -4.604805 -21.982921 24.291908 0.461710 2.702054 0.016006 -0.012581 -662353.000000 0 1 0
-10.160292 -5.380305 -22.954121 25.672376 0.487001 2.677253 0.013266 -0.020088 -2279960.000000 0 0 1
-11.374092 -4.832205 -22.941021 26.057832 0.401738 2.647477 0.001809 -0.019862 -2613750.000000 0 0 1
-12.127792 -5.506305 -23.888621 27.350849 0.426195 2.632966 0.001322 -0.027052 -163814.000000 0 0 1
-13.666592 -5.373105 -23.723221 27.900487 0.374593 2.587313 0.007165 -0.020200 228294.000000 0 0 1
-14.065292 -4.038705 -24.008921 28.117109 0.279617 2.594211 0.004158 -0.025849 133892.000000 0 0 1
-15.465892 -3.838305 -24.106621 28.897328 0.243264 2.557506 0.011507 -0.022301 520418.000000 0 0 1
-15.911292 -2.456305 -24.716221 29.497359 0.153166 2.564245 0.009158 -0.025114 -223316.000000 0 0 1
-15.488792 -2.275805 -26.019281 30.365851 0.145889 2.599944 0.009882 -0.025564 55392.300000 0 0 1
-15.873692 -1.068205 -26.633321 31.023361 0.067193 2.603119 0.006716 -0.024834 823016.000000 0 0 1
-17.367292 -0.928505 -27.155651 32.247702 0.053412 2.571954 0.023831 -0.011443 806046.000000 0 0 1
-17.664392 -1.646105 -28.384031 33.472281 0.092919 2.582970 0.026205 -0.024205 -52320.000000 0 0 1
-17.168992 -0.981205 -29.513901 34.158562 0.057088 2.614010 0.024841 -0.019727 -272656.000000 0 0 1
-17.320492 -1.824705 -30.805151 35.387657 0.104962 2.627025 0.036943 -0.021408 -820158.000000 0 0 1
-18.624392 -2.128005 -31.141061 36.347793 0.113766 2.599736 0.033250 -0.024700 -1008720.000000 0 0 1
-18.667192 -2.807805 -32.385641 37.485698 0.149295 2.613851 0.037636 -0.025825 -613612.000000 0 0 1
-20.046992 -3.431305 -32.744621 38.546931 0.169520 2.585784 0.018834 -0.020232 322102.000000 0 0 1
-21.128092 -2.569405 -32.992741 39.262183 0.121017 2.568667 0.018357 -0.016050 158745.000000 0 0 1
-21.564092 -1.778305 -31.908161 38.552602 0.082280 2.545708 0.008422 -0.006730 -639581.000000 0 0 1
-22.797992 -0.842905 -32.172751 39.440396 0.036956 2.524788 0.003546 -0.003830 525432.000000 0 0 1
-22.532992 0.303495 -32.980571 39.944285 -0.013468 2.542175 -0.006753 -0.004671 456909.000000 0 0 1
-23.737992 1.037895 -33.093901 40.740345 -0.043695 2.518903 -0.011870 -0.009470 -63894.500000 0 0 1
-23.428492 2.353095 -33.866191 41.247426 -0.100102 2.534044 -0.007522 -0.007902 2679.080000 0 0 1
-22.683492 3.335095 -33.103501 40.267920 -0.145981 2.535853 -0.010700 -0.000763 655038.000000 0 0 1
-23.359192 4.141895 -32.088851 39.906158 -0.175489 2.504969 -0.019884 -0.000815 50833.700000 0 0 1
-24.502092 5.103795 -32.602821 41.101644 -0.205364 2.486882 -0.021195 -0.007189 -599134.000000 0 0 1
-25.626722 4.444195 -33.028931 42.040338 -0.171713 2.474540 0.005751 -0.022880 -1057240.000000 0 0 1
-26.391632 5.267095 -33.886061 43.272689 -0.196986 2.470402 0.019420 -0.027397 -10115.100000 0 0 1
-27.626552 4.471295 34.245852 44.226658 -0.160456 0.685147 0.036494 -0.026798 -184897.000000 0 0 1
-27.251652 3.294995 33.516939 43.323143 -0.120326 0.686215 0.044477 -0.031614 159551.000000 0 0 1
-28.230322 2.881595 32.596310 43.217752 -0.101722 0.716309 0.048198 -0.028324 -142441.000000 0 0 1
-28.313542 1.364095 32.530373 43.147915 -0.048141 0.716777 0.046966 -0.012616 -363195.000000 0 0 1
-28.634372 0.653995 33.645478 44.185667 -0.022836 0.705239 0.060178 -0.008877 95552.600000 0 0 1
-28.731622 -0.729005 33.383525 44.051076 0.025367 0.710805 0.043093 0.000729 -433880.000000 0 0 1
-28.609922 -1.628605 -33.939981 44.419616 0.056863 2.440405 0.011057 0.014606 846584.000000 0 0 1
-27.245422 -1.708705 -33.465891 43.187944 0.062633 2.457337 0.027698 -0.001995 1244760.000000 0 0 1
-26.831942 -0.582705 -32.693561 42.298482 0.021713 2.454235 0.037452 -0.004856 -865525.000000 0 0 1
-27.146372 -0.680005 -31.196781 41.359727 0.025044 2.425352 0.056572 -0.003677 -569920.000000 0 0 1
-26.303792 -1.463305 -30.404611 40.230226 0.055574 2.427618 0.042586 -0.006573 79603.700000 0 0 1
-26.236872 -0.992505 -29.073951 39.174649 0.037811 2.407087 0.051065 -0.015166 56989.000000 0 0 1
-25.097712 -1.631505 -28.232501 37.810462 0.064915 2.413861 0.051258 -0.011266 70745.100000 0 0 1
-25.423992 -2.924405 -27.797591 37.784091 0.114522 2.397489 0.047076 -0.013816 -81723.600000 0 0 1
-24.540992 -3.429205 -26.828151 36.520808 0.138835 2.395872 0.057589 -0.019732 -220189.000000 0 0 1
-24.952292 -4.761705 -26.205661 36.496950 0.188565 2.371754 0.061958 -0.024936 287669.000000 0 0 1
-26.147392 -4.651805 -25.444201 36.779515 0.176065 2.334780 0.065137 -0.020526 205670.000000 0 0 1
-26.492282 -5.831805 -24.767921 36.732831 0.216676 2.310775 0.054105 -0.017930 -129645.000000 0 0 1
-27.300222 -5.556505 -23.526221 36.464502 0.200791 2.272057 0.072947 -0.018046 -222702.000000 0 0 1
-27.445362 -6.639005 -22.636721 36.190405 0.237340 2.246555 0.068687 -0.015924 280145.000000 0 0 1
-28.481742 -6.259805 -21.721221 36.362153 0.216343 2.210999 0.053500 -0.010508 363579.000000 0 0 1
-28.820292 -7.396005 -20.731921 36.264620 0.251204 2.179354 0.057664 -0.016450 -109591.000000 0 0 1
-27.830412 -7.668505 -19.762921 34.984437 0.268872 2.171116 0.055944 -0.013665 144047.000000 0 0 1
-28.207702 -8.770805 -19.000421 35.122891 0.301460 2.142386 0.069296 -0.010427 212873.000000 0 0 1
-28.867842 -8.339705 -17.646021 34.846593 0.281236 2.101791 0.064506 -0.021738 91833.600000 0 0 1
-27.937602 -7.752105 -16.760721 33.489200 0.270670 2.094951 0.076970 -0.023767 239380.000000 0 0 1
-28.542112 -7.204805 -15.590721 33.311138 0.247262 2.057860 0.067753 -0.021291 12009.000000 0 0 1
-27.729452 -6.047505 -14.955321 32.080468 0.214727 2.055766 0.087382 -0.025220 30333.100000 0 0 1
-27.934342 -4.841605 -15.621921 32.369940 0.171616 2.074424 0.069625 -0.021945 252937.000000 0 0 1
-27.290802 -3.826805 -14.856421 31.307276 0.139315 2.065233 0.087150 -0.024837 81654.400000 0 0 1
-14.176392 21.484795 -5.276421 26.275599 -0.987539 1.772982 0.034304 -0.004835 15865.100000 0 0 1
-14.006692 20.742795 -6.447921 25.846211 -0.976871 1.822932 0.044292 -0.003115 237088.000000 0 0 1
-14.937092 19.674295 -6.488721 25.540127 -0.921421 1.827672 0.053797 -0.007990 -187083.000000 0 0 1
-15.001192 19.047795 -7.875121 25.492582 -0.903690 1.884852 0.051956 -0.016938 -1164800.000000 0 0 1
-13.886892 18.326595 -8.227321 24.421274 -0.922357 1.914410 0.050474 -0.018045 -659515.000000 0 1 0
-14.049492 17.442495 -9.344021 24.268077 -0.892726 1.966040 0.045020 -0.021059 -411269.000000 0 1 0
-14.635792 16.076295 -9.009721 23.533566 -0.832267 1.963671 0.053349 -0.023234 1339490.000000 0 1 0
-16.033192 16.180695 -8.584921 24.342945 -0.789977 1.931215 0.063531 -0.013164 1582510.000000 0 1 0
-16.357992 15.031495 -7.819121 23.551399 -0.743164 1.909222 0.078752 -0.013656 -827482.000000 0 1 0
-17.755092 15.164295 -7.250621 24.449348 -0.706859 1.871882 0.096823 -0.010233 -121181.000000 0 1 0
-18.753292 14.774895 -8.227021 25.252076 -0.667292 1.902650 0.081192 -0.013997 -396787.000000 0 0 1
-20.038292 14.964795 -7.768121 26.188202 -0.641456 1.871955 0.068198 -0.018053 -989610.000000 0 0 1
-21.139992 14.465295 -8.690321 27.049319 -0.600085 1.897874 0.065640 -0.006264 -581753.000000 0 0 1
-21.548592 13.156395 -8.420321 26.614551 -0.548137 1.892708 0.082481 -0.006924 -210219.000000 0 0 1
-22.420292 12.607195 -9.360221 27.371967 -0.512246 1.919802 0.069162 -0.011688 -313563.000000 0 0 1
-22.914692 11.272195 -8.917021 27.049191 -0.457163 1.906739 0.053457 -0.014792 -949359.000000 0 0 1
-21.879692 10.407595 -8.590721 25.706797 -0.443998 1.911532 0.069948 -0.019043 -423390.000000 0 0 1
-22.257392 9.373595 -7.652621 25.334134 -0.398601 1.877657 0.073655 -0.019531 -392872.000000 0 0 1
-21.099492 8.432795 -7.312221 23.869838 -0.380220 1.882139 0.073750 -0.012475 -415628.000000 0 1 0
-20.886492 7.479595 -8.262221 23.673913 -0.343879 1.927301 0.056954 -0.018218 125241.000000 0 1 0
-19.805092 6.693095 -7.834121 22.325157 -0.325898 1.929339 0.055316 -0.011498 -375077.000000 0 1 0
-19.625892 5.453295 -8.823721 22.198471 -0.271025 1.979579 0.048700 -0.012074 -278001.000000 0 1 0
-20.519492 4.372195 -8.654321 22.694997 -0.209936 1.962033 0.051713 -0.015991 429171.000000 0 1 0
-20.150992 3.287195 -9.480521 22.511073 -0.161704 2.005508 0.039083 -0.022257 349713.000000 0 1 0
-21.237292 2.156095 -9.411421 23.329084 -0.101177 1.986048 0.046800 -0.020352 324304.000000 0 1 0
-21.032092 1.387795 -8.306221 22.655422 -0.065889 1.946184 0.052849 -0.020834 614537.000000 0 1 0
-22.003192 0.348695 -8.134721 23.461367 -0.015846 1.924877 0.070058 -0.022026 -243860.000000 0 1 0
-21.709392 -0.882705 -9.051221 23.537236 0.040638 1.965516 0.044537 -0.026717 -440877.000000 0 1 0
-20.628392 -1.616805 -8.579221 22.399724 0.078218 1.963844 0.038159 -0.019468 -412456.000000 0 1 0
-20.416092 -2.942205 -9.059521 22.528832 0.143127 1.984638 0.013242 -0.016242 -620317.000000 0 1 0
-21.324792 -4.065105 -8.598621 23.349692 0.188368 1.947927 0.011803 -0.010346 -340015.000000 0 1 0
-21.192092 -4.404205 -7.224921 22.818879 0.204906 1.892961 0.014563 -0.009871 654897.000000 0 1 0
-22.302492 -5.187205 -6.748421 23.871519 0.228521 1.857402 0.034670 -0.010079 80345.200000 0 1 0
-22.161592 -6.708505 -7.061721 24.207604 0.293940 1.866816 0.022938 -0.019600 -571795.000000 0 1 0
-21.209592 -7.412505 -6.326121 23.341204 0.336219 1.845257 0.014117 -0.017627 306388.000000 0 1 0
-21.190092 -8.747805 -6.828321 23.920076 0.391514 1.860287 0.008092 -0.015536 -386248.000000 0 1 0
-20.320192 -9.784205 -6.035721 23.346751 0.448740 1.832291 0.017898 -0.008355 -1326720.000000 0 1 0
-18.981492 -9.576105 -6.256721 22.161800 0.467239 1.857008 0.011654 -0.012889 -1000520.000000 0 1 0
-18.299392 -10.602505 -5.568721 21.869877 0.525128 1.828261 0.029916 -0.009146 93793.700000 0 1 0
-17.393492 -11.542005 -6.450621 21.848614 0.585864 1.870505 0.014606 -0.004167 -176430.000000 0 1 0
-16.224392 -11.089705 -7.067721 20.884567 0.599580 1.916032 0.009007 -0.017969 282219.000000 0 1 0
-16.475992 -10.341305 -8.275321 21.139580 0.560509 1.973015 0.003055 -0.023856 -775050.000000 0 1 0
-15.540392 -10.715505 -9.391221 21.083663 0.603662 2.032447 0.015216 -0.015982 -361905.000000 0 1 0
-15.823492 -11.916805 -10.088421 22.229921 0.645488 2.041846 0.029916 -0.016156 -83934.700000 0 1 0
-14.746292 -12.342405 -10.873021 22.090964 0.696889 2.085404 0.028203 -0.009280 -135942.000000 0 1 0
-15.034992 -13.717305 -11.587521 23.419780 0.739601 2.088372 0.053197 -0.008516 -67208.400000 0 1 0
-15.743192 -13.646605 -12.775921 24.439764 0.714182 2.120872 0.036310 -0.006021 -216497.000000 0 1 0
-15.750092 -14.965905 -13.358521 25.504780 0.759873 2.122061 0.026610 -0.009680 83097.500000 0 0 1
-16.464692 -14.983905 -14.739521 26.699381 0.738347 2.155623 0.049571 -0.007470 -50684.400000 0 0 1
-16.556292 -16.187305 -15.367221 27.790126 0.774130 2.156726 0.050723 -0.001884 269779.000000 0 0 1
-17.183992 -16.167205 -16.627021 28.863921 0.754920 2.184683 0.052575 -0.003009 -748944.000000 0 0 1
-17.058692 -17.476505 -17.377721 29.973528 0.797496 2.189241 0.044345 -0.011953 -905937.000000 0 0 1
-18.068592 -18.394905 -17.151421 30.968012 0.794347 2.157769 0.015074 -0.003233 -395078.000000 0 0 1
-18.932192 -18.496505 -18.287321 32.171023 0.773758 2.175406 0.015485 -0.006509 767816.000000 0 0 1
-20.431492 -18.235005 -17.925821 32.730663 0.728653 2.150381 0.000499 -0.015959 381152.000000 0 0 1
-20.670992 -16.897805 -17.485921 31.915249 0.685300 2.150632 0.000940 -0.004424 170198.000000 0 0 1
-20.789292 -16.761405 -16.028321 31.145568 0.678541 2.111368 -0.004583 -0.002094 -397701.000000 0 0 1
-20.706392 -15.286605 -15.586421 30.089391 0.635942 2.115312 0.006597 -0.006595 558910.000000 0 0 1
-21.914392 -14.528305 -15.808321 30.679231 0.585430 2.112128 0.010476 -0.004876 887091.000000 0 0 1
-21.863192 -13.318105 -15.112721 29.728192 0.547125 2.104079 0.021430 -0.004949 -927522.000000 0 0 1
-23.150292 -12.593705 -14.802521 30.226678 0.498223 2.082562 0.044089 -0.016786 -625630.000000 0 0 1
-23.914092 -13.112205 -13.702421 30.521632 0.501541 2.036376 0.041198 -0.013666 208855.000000 0 0 1
-24.978792 -12.309305 -13.313421 30.865939 0.457863 2.016763 0.067467 -0.019909 -691967.000000 0 0 1
-25.636122 -12.909105 -12.067121 31.136332 0.466485 1.968777 0.069182 -0.023137 -435244.000000 0 0 1
-26.601772 -12.050905 -11.519521 31.393916 0.425355 1.946508 0.062867 -0.034642 -1208.330000 0 0 1
-27.145082 -12.563105 -10.321321 31.642009 0.433458 1.903067 0.055633 -0.030225 271724.000000 0 0 1
-28.087622 -11.500305 -9.697521 31.862414 0.388621 1.880059 0.069983 -0.031424 278993.000000 0 0 1
-27.281602 -10.603505 -8.948821 30.607213 0.370700 1.867507 0.073959 -0.040537 286716.000000 0 0 1
-28.049962 -9.575005 -8.329021 30.787232 0.328953 1.844745 0.100479 -0.040037 -146834.000000 0 0 1
-27.292952 -8.378705 -7.726021 29.577007 0.297859 1.835079 0.084352 -0.035047 -20818.300000 0 0 1
-26.642212 -8.724605 -6.487221 28.775167 0.316467 1.798196 0.059008 -0.042243 909363.000000 0 0 1
-25.821112 -7.695305 -5.819521 27.564730 0.289643 1.783519 0.050100 -0.037879 597656.000000 0 0 1
-26.645752 -6.563905 -5.201221 27.930873 0.241531 1.758107 0.064494 -0.036175 -261805.000000 0 0 1
-27.367732 -6.743105 -3.974721 28.465077 0.241577 1.710889 0.067051 -0.036495 128290.000000 0 0 1
-26.635532 -6.999405 -2.802921 27.682117 0.256974 1.672224 0.082751 -0.034476 -718095.000000 0 0 1
-26.150742 -5.737105 -2.099821 26.854886 0.215965 1.649068 0.084045 -0.029407 45259.400000 0 0 1
-27.152042 -4.839405 -1.596321 27.626101 0.176381 1.628612 0.095094 -0.027908 355417.000000 0 0 1
-26.588932 -3.738005 -0.930621 26.866523 0.139670 1.605442 0.077817 -0.026271 -795089.000000 0 0 1
-27.594032 -2.771805 -0.310821 27.734637 0.100114 1.582004 0.097799 -0.026922 -48371.400000 0 0 1
-28.537472 -3.354205 0.593279 28.740041 0.117000 1.550152 0.097574 -0.023043 509001.000000 0 0 1
-28.020052 -3.446705 1.883879 28.294029 0.122394 1.504165 0.088333 -0.017578 -229880.000000 0 0 1
-29.123622 -3.752605 2.910179 29.508245 0.128145 1.472013 0.072986 -0.017340 132446.000000 0 0 1
-29.625852 -5.075305 2.858079 30.193020 0.169666 1.475994 0.084123 -0.019676 -659077.000000 0 0 1
-30.839842 -5.230205 3.486179 31.473868 0.167994 1.459804 0.087987 -0.018926 -1136910.000000 0 0 1
-31.459162 -6.641705 3.352679 32.326948 0.208066 1.466898 0.087806 -0.020378 -299265.000000 0 0 1
-30.795202 -7.757205 3.953879 32.002373 0.246763 1.446930 0.085089 -0.012817 203245.000000 0 0 1
-31.373782 -9.003305 3.621079 32.840309 0.279459 1.460308 0.097837 -0.021179 209339.000000 0 0 1
-30.433872 -10.228205 3.964579 32.350497 0.324220 1.447937 0.088444 -0.014658 349446.000000 0 0 1
-30.347262 -10.397805 5.381979 32.527471 0.330092 1.404572 0.066514 -0.007811 21235.600000 0 0 1
-29.309502 -11.275805 5.686979 31.914455 0.367261 1.391645 0.052927 0.002495 -551506.000000 0 0 1
-29.317492 -11.757505 7.148079 32.385943 0.381403 1.348248 0.054583 -0.013916 -99370.600000 0 0 1
-29.205152 -10.676605 8.042479 32.118722 0.350480 1.317704 0.076532 -0.013493 323226.000000 0 0 1
-29.169992 -11.077205 9.370679 32.579173 0.362926 1.279047 0.074787 -0.017016 -40003.900000 0 0 1
-29.326432 -9.940105 10.386279 32.660681 0.326794 1.247171 0.057175 -0.011585 74715.600000 0 0 1
-28.173612 -9.127705 10.447379 31.404063 0.313310 1.231656 0.068440 -0.005452 273362.000000 0 0 1
-28.467802 -8.037105 11.351379 31.683823 0.275161 1.204382 0.063532 -0.004841 484999.000000 0 0 1
-27.503602 -6.786005 11.312079 30.503461 0.241900 1.190877 0.070027 -0.004955 267180.000000 0 0 1
-27.561082 -6.126505 10.057279 29.971589 0.218732 1.228596 0.067679 -0.004573 50943.700000 0 0 1
-26.897202 -4.908905 10.205679 29.184117 0.180519 1.213546 0.069506 -0.008901 -397815.000000 0 0 1
-27.022482 -3.922105 9.014679 28.755206 0.144136 1.251923 0.069578 -0.012175 432068.000000 0 0 1
-26.257302 -4.398805 7.868579 27.761663 0.165986 1.283424 0.063180 -0.009986 807931.000000 0 0 1
-26.626692 -3.565705 6.711179 27.689978 0.133123 1.325990 0.068988 -0.022171 182509.000000 0 0 1
-25.813582 -3.992205 5.435379 26.679994 0.153440 1.365635 0.056473 -0.008523 -657107.000000 0 0 1
-24.503192 -3.558305 5.603079 25.386265 0.144210 1.348251 0.074901 -0.027753 -464846.000000 0 0 1
-23.731492 -4.064105 4.521679 24.497882 0.169608 1.385158 0.073998 -0.014849 -130836.000000 0 1 0
-22.240692 -3.687105 4.667079 23.022266 0.164288 1.366661 0.065133 -0.014614 -34198.700000 0 1 0
-22.091192 -2.275505 4.461379 22.651768 0.102643 1.372545 0.037935 -0.013911 -474042.000000 0 1 0
-20.830092 -1.836705 4.820879 21.459429 0.087948 1.344212 0.035018 -0.013557 -1098390.000000 0 1 0
-20.778392 -0.329405 5.097979 21.397184 0.015852 1.330228 0.032015 -0.012095 -425143.000000 0 1 0
-20.682292 0.477495 3.954979 21.062456 -0.023083 1.381901 0.024297 -0.010459 931044.000000 0 1 0
-21.954292 0.911095 3.489379 22.248523 -0.041476 1.413310 0.025220 -0.017923 -74799.300000 0 1 0
-21.740392 1.929195 2.354879 21.952492 -0.088506 1.463318 0.032400 -0.010260 -497028.000000 0 1 0
-21.252492 3.099295 2.966979 21.681259 -0.144811 1.433520 0.017449 -0.010903 46503.400000 0 1 0
-21.456492 4.238495 2.131779 21.974767 -0.195028 1.473633 0.042189 -0.008592 -102036.000000 0 1 0
-20.424892 4.537295 1.006579 20.946991 -0.218596 1.522724 0.027938 -0.006557 -635984.000000 0 1 0
-20.838592 5.198495 -0.205221 21.478207 -0.244475 1.580351 0.054704 0.003427 245428.000000 0 1 0
-21.764192 4.528795 -1.038621 22.254635 -0.205157 1.617483 0.072479 -0.007453 -194476.000000 0 1 0
-21.215492 3.368295 -1.888221 21.564041 -0.157452 1.658472 0.060107 -0.008367 -417256.000000 0 1 0
-20.810492 2.254595 -1.087621 20.960503 -0.107918 1.622709 0.014242 -0.006489 522560.000000 0 1 0
-20.470792 1.097495 -1.871321 20.585423 -0.053561 1.661827 0.017259 -0.004804 245615.000000 0 1 0
-19.536192 0.145395 -1.051621 19.565016 -0.007442 1.624572 0.007920 -0.001627 78375.000000 0 1 0
-20.381492 -0.370805 -0.069321 20.384983 0.018191 1.574197 0.015787 -0.006498 805169.000000 0 1 0
-19.712192 -1.140305 0.938479 19.767437 0.057783 1.523302 0.013774 -0.006579 -363874.000000 0 1 0
-19.127092 -2.514605 0.478779 19.297619 0.130719 1.545983 0.016935 -0.003204 -24178.600000 0 1 0
-18.296592 -3.106505 1.450379 18.615028 0.168182 1.492803 0.012466 -0.002802 353482.000000 0 1 0
-17.646192 -4.326305 0.983879 18.195412 0.240427 1.516697 0.007046 -0.001851 159748.000000 0 1 0
-18.569692 -5.545205 0.742179 19.394164 0.290187 1.532519 0.003142 0.001014 -165944.000000 0 1 0
-19.130492 -6.082405 1.908779 20.164692 0.307836 1.475995 0.020644 -0.003820 289436.000000 0 1 0
-20.203992 -6.951805 1.610579 21.427152 0.331392 1.495560 0.015666 -0.004106 -482848.000000 0 1 0
-20.881092 -7.459105 2.858879 22.356910 0.343091 1.442571 0.022740 -0.000409 14033.800000 0 1 0
-20.115192 -8.395405 3.709079 22.110202 0.395387 1.402245 0.021725 -0.001528 759903.000000 0 1 0
-20.783692 -8.652005 4.881279 23.035753 0.394469 1.357277 0.024893 -0.002710 -164808.000000 0 1 0
-19.889392 -9.502405 5.828779 22.800401 0.445700 1.312283 0.015535 0.003236 38100.500000 0 1 0
-19.590592 -10.788205 5.314479 22.987396 0.503367 1.337495 0.023348 0.005440 -49345.400000 0 1 0
-18.709192 -11.467105 6.148079 22.788753 0.549860 1.297626 0.032403 0.000900 -635222.000000 0 1 0
-18.097492 -12.644405 5.413679 22.731215 0.609841 1.330325 0.016687 0.000225 310421.000000 0 1 0
-19.007992 -13.771105 5.252979 24.052877 0.626974 1.350629 0.030331 0.006611 689372.000000 0 1 0
-18.293892 -14.914905 4.804079 24.087342 0.683997 1.370006 0.013261 0.012937 -394828.000000 0 1 0
-19.070992 -16.247705 4.778479 25.505382 0.705630 1.382331 0.025139 0.017389 -372580.000000 0 0 1
-18.246292 -17.402605 4.744379 25.657104 0.761736 1.384811 0.022308 0.009564 386104.000000 0 0 1
-18.953792 -18.559105 5.196579 27.031298 0.774877 1.377349 0.024824 0.011923 -312254.000000 0 0 1
-18.134592 -19.787105 5.031579 27.307687 0.828948 1.385482 0.031448 -0.000323 -789862.000000 0 0 1
-17.934092 -20.091405 3.660279 27.178923 0.842071 1.435712 0.028355 -0.000761 178478.000000 0 0 1
-17.102392 -21.204805 3.460079 27.461022 0.892084 1.444461 0.023642 -0.002991 -240230.000000 0 0 1
-15.590192 -21.184205 3.683479 26.559229 0.936358 1.431659 0.029409 -0.000696 -481984.000000 0 0 1
-14.973292 -22.432305 3.754279 27.230542 0.982225 1.432486 0.028062 -0.006387 534873.000000 0 0 1
-13.590192 -22.337305 4.135279 26.471665 1.024218 1.413939 0.033842 -0.004778 715640.000000 0 0 1
-12.947392 -23.723705 4.338379 27.372809 1.071216 1.411633 0.040147 -0.004201 -451828.000000 0 0 1
-12.712292 -24.472505 3.145679 27.756102 1.091708 1.457219 0.047265 -0.016928 -20731.400000 0 0 1
-12.027692 -25.670505 3.313279 28.541514 1.132631 1.454448 0.049631 -0.020305 -330018.000000 0 0 1
18.857808 19.716595 -24.639021 36.761969 0.807658 2.305317 0.038550 0.001308 -631251.000000 0 0 1
17.964108 20.074095 -25.613901 37.171903 0.840812 2.330996 0.021828 -0.015881 -462359.000000 0 0 1
18.273208 19.437395 -26.811051 37.822677 0.816260 2.358680 0.033407 -0.014679 -505714.000000 0 0 1
17.179208 19.464695 -27.854471 38.077172 0.847688 2.391355 0.021680 -0.011739 -387958.000000 0 0 1
17.049708 20.775295 -28.371751 39.080195 0.883577 2.383266 0.014880 -0.002434 38429.600000 0 0 1
15.903008 20.842995 -29.181571 39.228818 0.919033 2.409655 0.010669 -0.002967 -243274.000000 0 0 1
15.705908 22.257195 -29.746161 40.334753 0.956285 2.400131 0.004399 -0.003604 -485458.000000 0 0 1
15.235208 23.181295 -28.741811 39.944657 0.989362 2.373937 0.007161 -0.005868 508214.000000 0 0 1
14.972208 24.533995 -29.228751 40.992728 1.022864 2.364596 0.002013 -0.005671 -175804.000000 0 0 1
14.208708 25.351495 -28.152821 40.461920 1.059952 2.340309 -0.001613 -0.008510 -753599.000000 0 0 1
12.878008 25.000095 -27.975861 39.667324 1.095127 2.353589 0.014163 -0.014726 -992551.000000 0 0 1
12.396308 25.744495 -26.947231 39.275956 1.122047 2.326911 0.018990 -0.002594 -749713.000000 0 0 1
10.971408 25.370195 -26.498431 38.290800 1.162630 2.335095 0.039546 -0.010691 248729.000000 0 0 1
10.333708 26.181995 -25.497851 37.979241 1.194878 2.306842 0.036114 -0.006373 24588.200000 0 0 1
9.805108 27.384095 -25.986981 39.004512 1.226961 2.299973 0.042245 -0.020153 -481757.000000 0 0 1
9.259808 28.302195 -24.823121 38.767842 1.254597 2.265687 0.058633 -0.025555 -823111.000000 0 0 1
10.234608 28.846695 -24.013921 38.904336 1.229858 2.236046 0.047382 -0.017047 -781118.000000 0 0 1
9.730208 29.596695 -22.920121 38.677813 1.253167 2.205068 0.068441 -0.025156 -411823.000000 0 0 1
10.747008 30.152595 -21.920021 38.796449 1.228413 2.171230 0.048497 -0.018849 217917.000000 0 0 1
11.578808 31.249995 -22.377721 40.142164 1.215957 2.162122 0.037669 -0.024626 438404.000000 0 0 1
12.326208 31.841995 -21.350121 40.270034 1.201455 2.129602 0.026906 -0.009898 96934.700000 0 0 1
13.659608 32.459095 -21.862021 41.450279 1.172467 2.126366 0.014962 0.012533 49092.500000 0 0 1
14.633308 31.498895 -22.156421 41.197343 1.135896 2.138636 0.002177 0.007407 -895608.000000 0 0 1
15.730308 32.112595 -22.723921 42.367887 1.115303 2.136900 0.008366 0.011577 -634557.000000 0 0 1
16.898408 31.244895 -23.229521 42.443024 1.075015 2.149944 -0.012904 0.015234 -59304.700000 0 0 1
17.632208 30.721595 -22.155021 41.779852 1.049763 2.129727 -0.010198 0.016414 -46138.900000 0 0 1
18.883308 30.292595 -22.698321 42.301706 1.013374 2.137177 -0.001480 0.018408 -139705.000000 0 0 1
19.820208 29.701095 -21.670321 41.768391 0.982340 2.116268 0.009100 0.020624 -596910.000000 0 0 1
20.363108 30.567495 -20.727121 42.173942 0.983139 2.084570 0.007030 0.028363 95211.700000 0 0 1
21.456508 29.987795 -20.058021 41.975871 0.949738 2.068998 0.015767 0.015183 163942.000000 0 0 1
22.173908 30.803995 -18.938721 42.417490 0.946879 2.033628 0.025922 0.003978 -31886.900000 0 0 1
22.896208 31.941095 -19.373921 43.815735 0.948867 2.028811 0.031093 0.001067 200964.000000 0 0 1
23.468808 32.563895 -18.224621 44.083205 0.946312 1.996997 0.034277 0.002812 -160018.000000 0 0 1
24.803208 33.319895 -18.424721 45.441004 0.930891 1.988283 0.035680 -0.005038 -595299.000000 0 0 1
25.770608 32.446795 -18.853321 45.523251 0.899576 1.997802 0.036516 -0.004813 -1241730.000000 0 0 1
27.026308 33.046095 -18.678621 46.597817 0.885274 1.983238 0.034312 -0.015691 -210287.000000 0 0 1
28.183008 32.295995 -19.353121 47.030378 0.853300 1.994898 0.038881 -0.016244 -36333.200000 0 0 1
28.449508 31.014695 -18.791021 46.091086 0.828510 1.990723 0.023714 -0.004361 1194670.000000 0 0 1
29.859408 30.743695 -19.046221 46.899014 0.799989 1.988991 0.023726 0.001209 1400620.000000 0 0 1
30.352208 29.477795 -18.262721 46.083879 0.770784 1.978272 0.014835 -0.010015 -429977.000000 0 0 1
30.484208 29.799395 -16.918521 45.864226 0.774039 1.948603 0.015563 -0.003592 11375.300000 0 0 1
30.868908 28.700795 -16.053521 45.103665 0.749018 1.934700 0.013912 -0.004491 -432481.000000 0 0 1
31.268308 29.124995 -14.620221 45.163295 0.749924 1.900454 0.023690 -0.008985 -129463.000000 0 0 1
32.560008 29.658695 -14.427421 46.345903 0.738801 1.887356 0.018629 -0.006035 -129300.000000 0 0 1
32.617208 31.033395 -14.739721 47.373127 0.760520 1.887190 0.023377 -0.012641 -935468.000000 0 0 1
34.023208 31.593095 -14.795721 48.730028 0.748380 1.879293 0.026697 -0.021994 -576687.000000 0 0 1
34.721708 31.582995 -13.569621 48.859156 0.738096 1.852226 0.014846 -0.018304 -1306820.000000 0 0 1
-35.820299 31.724495 -13.841721 49.810949 -0.724834 1.852388 0.031659 -0.025134 -903485.000000 0 0 1
-35.046399 31.806095 -12.524321 48.956474 -0.736967 1.829498 0.036995 -0.017912 -471567.000000 0 0 1
-35.358699 33.000895 -11.883021 49.804646 -0.750921 1.811713 0.031390 -0.015002 -25586.000000 0 0 1
-34.377099 33.367195 -10.929521 49.138671 -0.770492 1.795094 0.025657 -0.005346 -264812.000000 0 0 1
-34.683699 -34.085526 -9.986821 49.643918 0.776700 1.773348 0.027369 -0.001910 105430.000000 0 0 1
-33.530199 -33.451326 -9.432721 48.293288 0.784221 1.767382 0.015674 0.005269 92983.300000 0 0 1
-33.110199 -34.111826 -8.297621 48.257149 0.800297 1.743601 0.020487 -0.004542 369237.000000 0 0 1
-32.478699 -33.118526 -7.266421 46.952141 0.795152 1.726183 0.039390 0.006698 180339.000000 0 0 1
-33.563799 -32.273726 -6.977921 47.083047 0.765806 1.719549 0.039851 0.000185 57610.800000 0 0 1
-33.376299 -31.554326 -5.810221 46.296992 0.757345 1.696627 0.028249 0.001010 -319929.000000 0 0 1
-34.625099 -30.697026 -5.613221 46.612371 0.725337 1.691513 0.026320 -0.003771 -1090360.000000 0 0 1
-35.764599 -31.449026 -5.451221 47.936036 0.721279 1.684761 0.027913 -0.009217 -956538.000000 0 0 1
34.935808 -30.735226 -5.233721 46.824744 -0.721521 1.682803 0.025932 -0.005019 -53750.000000 0 0 1
34.675308 -30.161826 -3.809121 46.115314 -0.715898 1.653490 0.021491 -0.001954 -616612.000000 0 0 1
35.236008 -28.918126 -3.597121 45.724977 -0.687235 1.649546 0.025281 -0.010592 487146.000000 0 0 1
34.290808 -28.207026 -2.793821 44.489339 -0.688360 1.633635 0.029203 -0.016598 156059.000000 0 0 1
34.408708 -26.681526 -2.767221 43.629354 -0.659578 1.634265 0.047563 -0.013525 -356445.000000 0 0 1
34.255108 -26.082226 -4.082521 43.247681 -0.650764 1.665336 0.039111 -0.022496 367091.000000 0 0 1
33.912008 -24.721826 -3.849621 42.142764 -0.629925 1.662271 0.037229 -0.027376 -74653.700000 0 0 1
33.429008 -24.018326 -5.130621 41.481343 -0.623026 1.694799 0.040696 -0.033552 32139.600000 0 0 1
34.498508 -23.856526 -6.064321 42.379911 -0.605014 1.714383 0.036161 -0.027305 356389.000000 0 0 1
34.088108 -23.369026 -7.321121 41.972721 -0.600960 1.746119 0.014473 -0.021254 -618095.000000 0 0 1
35.244808 -23.095026 -8.279821 42.943360 -0.580074 1.764819 0.008208 -0.012836 -576322.000000 0 0 1
35.813308 -24.307126 -8.767721 44.162227 -0.596299 1.770659 0.016367 -0.008220 17100.200000 0 0 1
-35.173799 -24.005526 -9.820621 43.702471 0.598873 1.797447 0.018649 0.001651 -41142.000000 0 0 1
-34.732199 -25.301526 -10.548221 44.246557 0.629582 1.811511 0.016876 -0.005123 -403462.000000 0 0 1
-33.990099 -26.241126 -9.833921 44.052577 0.657447 1.795925 0.023363 0.002289 237262.000000 0 0 1
-34.795899 -27.161226 -9.099321 45.069773 0.662791 1.774088 0.013848 -0.007134 109832.000000 0 0 1
-33.915299 -28.278326 -8.502621 44.968942 0.695009 1.761019 0.020313 -0.006968 35036.500000 0 0 1
-33.335299 -29.056626 -9.531021 45.236821 0.716928 1.783079 0.004697 -0.002403 -89731.700000 0 0 1
-32.503099 -30.060026 -9.041521 45.186344 0.746368 1.772250 -0.002228 0.004930 -243616.000000 0 0 1
-31.923899 -30.960026 -10.168821 45.618674 0.770072 1.795594 -0.005586 0.013995 396672.000000 0 0 1
-30.936699 -30.380026 -11.048721 44.744827 0.776320 1.820304 -0.024148 0.024679 618855.000000 0 0 1
-30.654599 -31.223626 -12.134921 45.407880 0.794594 1.841327 -0.010859 0.027778 -197740.000000 0 0 1
-30.668299 -30.510926 -13.466821 45.308017 0.782826 1.872585 -0.011330 0.021859 -209311.000000 0 0 1
-29.702199 -29.479026 -13.634421 44.012851 0.781627 1.885761 -0.001640 0.027160 -17261.400000 0 0 1
-29.961399 -28.743126 -14.824621 44.086530 0.764649 1.913741 -0.008418 0.019202 516961.000000 0 0 1
-28.739799 -27.855526 -15.267521 42.836941 0.769775 1.935219 0.002574 0.016838 501656.000000 0 0 1
-27.724999 -28.615426 -15.867321 42.886945 0.801201 1.949784 0.011550 0.011935 -740933.000000 0 0 1
-26.657299 -27.824526 -16.276621 41.829944 0.806819 1.970466 0.031127 0.012269 581413.000000 0 0 1
-25.357699 -28.631026 -16.706521 41.735553 0.845954 1.982635 0.043906 0.002818 523101.000000 0 0 1
-25.504399 -29.468826 -17.847521 42.865138 0.857389 2.000239 0.042453 -0.003125 -150660.000000 0 0 1
-25.672399 -28.830426 -19.143521 43.089905 0.843276 2.031155 0.030821 0.003193 1035830.000000 0 0 1
-24.439399 -27.953726 -19.685221 42.026217 0.852374 2.058279 0.033019 -0.002290 1123150.000000 0 0 1
-24.232899 -26.817226 -18.879721 40.777946 0.835978 2.052160 0.032200 -0.001569 -183689.000000 0 0 1
-22.905299 -26.343826 -18.939221 39.715790 0.855104 2.067885 0.028480 -0.010137 93722.500000 0 0 1
-22.650799 -25.191926 -17.971421 38.349234 0.838462 2.058530 0.024765 -0.001916 -128855.000000 0 0 1
-22.833299 -25.500826 -16.600621 38.042506 0.840532 2.022357 0.040580 -0.000865 92315.400000 0 0 1
-22.332099 -24.509926 -15.763121 36.714235 0.831858 2.014565 0.058511 -0.005019 -133093.000000 0 0 1
-22.905499 -24.643826 -14.335321 36.571593 0.821940 1.973579 0.042230 0.003398 642039.000000 0 0 1
-24.311899 -24.369326 -14.340821 37.290637 0.786578 1.965537 0.006006 0.016298 497681.000000 0 0 1
-24.694799 -24.208426 -12.969821 36.933687 0.775453 1.929611 0.002462 0.020105 892522.000000 0 0 1
-26.235399 -24.305126 -12.679821 37.944870 0.747224 1.911515 0.001116 0.028768 233674.000000 0 0 1
-26.853599 -25.574626 -12.709821 39.200980 0.761008 1.900986 0.015110 0.020952 299596.000000 0 0 1
-28.175599 -25.565426 -12.213921 39.957918 0.736867 1.881438 0.013563 0.023227 175077.000000 0 0 1
-29.349299 -24.874426 -12.975621 40.601541 0.703059 1.896087 0.012429 0.013292 -594943.000000 0 0 1
-29.549799 -23.478326 -12.698021 39.820373 0.671399 1.895347 0.015932 0.021468 345889.000000 0 0 1
-30.061999 -23.075926 -11.412521 39.578628 0.654677 1.863300 0.024381 0.012978 -222612.000000 0 0 1
-31.494199 -23.521226 -10.987121 40.814819 0.641478 1.843353 0.026709 0.010709 664665.000000 0 0 1
-32.662399 -22.826126 -11.461721 41.463663 0.609954 1.850872 0.023155 -0.002481 758873.000000 0 0 1
-32.819799 -22.679426 -12.852921 41.912923 0.604680 1.882476 0.020580 0.005166 -1439400.000000 0 0 1
-34.233499 -22.435726 -13.368921 43.058359 0.580143 1.886498 0.008765 -0.005670 -378846.000000 0 0 1
-35.052599 -23.584926 -13.216021 44.267331 0.592267 1.873970 0.012922 0.000827 64142.300000 0 0 1
35.526508 -23.340226 -13.681821 44.655248 -0.581267 1.882192 0.007220 -0.007195 -368796.000000 0 0 1
34.551808 -24.433026 -13.303221 44.359620 -0.615503 1.875379 -0.009162 0.003031 -429932.000000 0 0 1
34.860908 -25.662126 -13.976721 45.488200 -0.634564 1.883109 -0.013773 0.013168 -122799.000000 0 0 1
34.003008 -26.672426 -13.557921 45.292826 -0.665165 1.874796 -0.017647 0.007025 31954.400000 0 0 1
34.026408 -27.904126 -14.539421 46.344702 -0.686861 1.889908 -0.009777 0.001001 447070.000000 0 0 1
33.172408 -27.629226 -15.646721 45.919524 -0.694481 1.918503 -0.003100 -0.009227 -147032.000000 0 0 1
33.087308 -28.771426 -16.508021 46.851677 -0.715741 1.930873 0.000830 -0.006710 623546.000000 0 0 1
32.089208 -28.601726 -17.729121 46.498363 -0.727998 1.961982 0.005058 -0.005724 215249.000000 0 0 1
30.719008 -28.580026 -17.463821 45.447336 -0.749343 1.965208 0.001587 -0.003558 -697372.000000 0 0 1
30.034808 -28.280626 -18.664121 45.279498 -0.755326 1.995662 0.012023 -0.002849 421374.000000 0 0 1
28.488008 -28.261026 -18.488221 44.182197 -0.781398 2.002539 0.012005 -0.005816 296144.000000 0 0 1
28.167208 -27.316926 -17.528821 42.975174 -0.770075 1.990930 0.008868 -0.007114 -213287.000000 0 0 1
26.820208 -27.564826 -17.174721 42.120235 -0.799089 1.990790 0.025419 -0.012610 84568.900000 0 0 1
26.306008 -26.814326 -15.956621 40.812105 -0.794967 1.972490 0.028024 -0.016633 -295973.000000 0 0 1
26.445808 -25.433826 -16.130321 40.080513 -0.765894 1.984986 0.021300 -0.012589 95010.000000 0 0 1
26.309308 -24.674326 -14.926821 39.036035 -0.753340 1.963173 0.037989 -0.010142 -298661.000000 0 0 1
26.197808 -23.209426 -15.359221 38.221830 -0.724987 1.984326 0.043127 -0.018923 554211.000000 0 0 1
24.861208 -22.781426 -15.629121 37.166416 -0.741772 2.004812 0.052497 -0.014982 508687.000000 0 0 1
24.863008 -21.382026 -15.883021 36.436665 -0.710267 2.021843 0.047946 -0.026615 111323.000000 0 0 1
23.480108 -20.809326 -16.281621 35.347344 -0.725168 2.049488 0.058885 -0.019424 -50497.400000 0 0 1
22.611508 -20.636126 -15.211921 34.183805 -0.739754 2.031975 0.068810 -0.027422 -105329.000000 0 0 1
21.332508 -20.158026 -15.578321 33.228090 -0.757098 2.058762 0.062431 -0.029248 155015.000000 0 0 1
20.970508 -18.918326 -14.756121 31.865473 -0.733996 2.052258 0.054757 -0.025063 -127619.000000 0 0 1
20.533108 -19.253726 -13.437621 31.191091 -0.753253 2.016193 0.049875 -0.027645 107699.000000 0 0 1
20.273608 -18.091026 -12.678421 29.984108 -0.728569 2.007371 0.049047 -0.031070 197260.000000 0 0 1
19.353708 -18.251826 -11.402721 28.943345 -0.756105 1.975740 0.055828 -0.021653 199290.000000 0 0 1
19.993108 -18.797826 -10.265321 29.299478 -0.754594 1.928750 0.060361 -0.031269 -289704.000000 0 0 1
19.152108 -18.794426 -9.160521 28.353991 -0.775972 1.899775 0.056748 -0.027093 -653871.000000 0 0 1
19.645708 -19.623426 -8.017421 28.901760 -0.784831 1.851886 0.067097 -0.028431 -586210.000000 0 0 1
20.639408 -18.928726 -7.325921 28.947382 -0.742191 1.826656 0.067694 -0.033145 -451547.000000 0 0 1
21.159608 -19.712926 -6.280321 29.593427 -0.750018 1.784643 0.061551 -0.025461 -18297.100000 0 0 1
22.467508 -19.091626 -5.704621 30.030348 -0.704345 1.761920 0.052828 -0.019794 618483.000000 0 0 1
23.544008 -19.158826 -6.642021 31.072454 -0.683066 1.786218 0.048355 -0.025430 405568.000000 0 0 1
24.384208 -18.047026 -6.634621 31.053228 -0.637142 1.786109 0.055800 -0.026508 -253898.000000 0 0 1
25.489208 -17.990826 -7.733321 32.143021 -0.614622 1.813771 0.061858 -0.039019 535446.000000 0 0 1
26.531608 -18.949726 -7.573621 33.472049 -0.620214 1.799040 0.064270 -0.048126 540229.000000 0 0 1
26.306108 -20.076526 -8.376021 34.135552 -0.651889 1.818703 0.063033 -0.054395 615605.000000 0 0 1
27.348008 -21.274426 -8.093621 35.581195 -0.661129 1.800274 0.055777 -0.056924 1477100.000000 0 0 1
28.672108 -21.009226 -8.551121 36.559527 -0.632363 1.806879 0.053657 -0.043126 195667.000000 0 0 1
29.583008 -22.030526 -8.324021 37.812534 -0.640102 1.792753 0.046172 -0.040637 -403964.000000 0 0 1
-29.313402 30.184095 4.106279 42.275485 -0.800031 1.473511 0.036351 -0.006320 51970.100000 0 0 1
-28.656092 31.054495 3.262379 42.381557 -0.825544 1.493744 0.027524 0.001331 -515583.000000 0 0 1
-27.731422 31.877095 3.957679 42.436354 -0.854835 1.477399 0.028751 0.002656 77557.900000 0 0 1
-27.207392 32.829995 2.874679 42.735401 -0.878777 1.503479 0.030141 0.006737 -490921.000000 0 0 1
-26.328882 32.275995 1.893879 41.695763 -0.886530 1.525359 0.034179 0.002892 223149.000000 0 0 1
-25.935912 33.319895 1.012279 42.236378 -0.909371 1.546827 0.029194 -0.009584 -627338.000000 0 0 1
-24.736692 34.176495 1.427579 42.213442 -0.944280 1.536972 0.049870 -0.010067 -248035.000000 0 0 1
-23.539792 33.406695 1.468779 40.893598 -0.956961 1.534871 0.045019 -0.015046 -218738.000000 0 0 1
-22.517892 34.075995 2.159279 40.900994 -0.986857 1.517979 0.047144 -0.019083 614069.000000 0 0 1
-21.066292 33.631495 1.789079 39.724890 -1.011201 1.525744 0.042269 -0.020624 494337.000000 0 0 1
-20.569892 34.272495 0.669579 39.977152 -1.030240 1.554046 0.055434 -0.023863 142746.000000 0 0 1
-19.233192 33.837495 0.418479 38.923859 -1.053937 1.560045 0.057970 -0.027034 -99680.600000 0 0 1
-18.731492 -34.184226 -0.882821 38.989864 1.069523 1.593441 0.069548 -0.026713 -70424.900000 0 0 1
-18.588492 -32.766026 -0.830321 37.680684 1.054761 1.592834 0.082626 -0.031664 886749.000000 0 0 1
-17.604092 -32.348926 0.164979 36.829123 1.072422 1.566317 0.074969 -0.028095 240517.000000 0 0 1
-17.488392 -30.823426 0.387379 35.441184 1.054713 1.559866 0.070738 -0.029464 -514793.000000 0 0 1
-16.782892 -30.237026 -0.644521 34.588417 1.064089 1.589431 0.067827 -0.015867 -122966.000000 0 0 1
-16.975292 -28.826726 -0.609921 33.459119 1.038598 1.589026 0.047215 -0.020679 -282518.000000 0 0 1
-15.914892 -28.075026 -1.410521 32.302948 1.055093 1.614476 0.037191 -0.011996 -333922.000000 0 0 1
-16.009592 -28.302926 -2.808221 32.638149 1.056016 1.656944 0.054404 -0.005427 -102052.000000 0 0 1
-15.089692 -27.543526 -3.548521 31.605959 1.069606 1.683307 0.053070 0.007538 -143576.000000 0 0 1
-15.487892 -27.534326 -5.034121 31.989940 1.058411 1.728819 0.074890 -0.003675 -1182000.000000 0 0 1
-16.613892 -26.854226 -5.344021 32.027011 1.016762 1.738440 0.087835 -0.005251 -1478130.000000 0 0 1
-16.733692 -26.776926 -6.725221 32.283878 1.012248 1.780648 0.099350 -0.011277 107143.000000 0 0 1
-17.495392 -25.532126 -7.082921 31.751314 0.970052 1.795764 0.085597 -0.011821 -412519.000000 0 0 1
-16.709792 -24.467626 -6.782321 30.395423 0.971616 1.795827 0.058869 -0.000336 -313567.000000 0 0 1
-17.326692 -23.249226 -7.237521 29.885155 0.930336 1.815406 0.041737 -0.002350 188109.000000 0 0 1
-16.347592 -22.071926 -7.208221 28.396692 0.933306 1.827445 0.059332 -0.003515 -927738.000000 0 0 1
-15.251992 -22.282926 -8.015221 28.167283 0.970569 1.859341 0.081146 -0.009555 -1304770.000000 0 0 1
-14.295092 -21.344826 -7.564721 26.780146 0.980682 1.857169 0.062242 -0.014168 -68794.900000 0 0 1
-13.357792 -20.927826 -8.734921 26.319258 1.002705 1.909096 0.058419 -0.011542 -152754.000000 0 0 1
-13.982392 -20.266226 -9.785721 26.495047 0.966857 1.949097 0.078396 -0.011320 -383369.000000 0 0 1
-13.095192 -20.038026 -10.860721 26.286152 0.991953 1.996732 0.072943 -0.007708 81224.600000 0 0 1
-13.708992 -19.245326 -12.008521 26.505162 0.951844 2.040995 0.093850 -0.009658 659064.000000 0 0 1
-14.874792 -19.806826 -12.644121 27.810854 0.926660 2.042772 0.080723 0.005656 376153.000000 0 0 1
-15.287092 -19.025926 -13.732921 28.004895 0.893933 2.083317 0.084069 -0.011353 -517174.000000 0 0 1
-16.515692 -19.629026 -14.383321 29.409975 0.871321 2.081811 0.094377 -0.011306 -873007.000000 0 0 1
-17.696392 -19.370826 -13.684021 29.591276 0.830540 2.051535 0.085382 -0.011280 456640.000000 0 0 1
-18.818492 -19.827526 -14.485321 30.936886 0.811502 2.058073 0.066706 -0.005616 1085780.000000 0 0 1
-20.255992 -19.437126 -14.010221 31.375043 0.764771 2.033691 0.037793 0.005491 664231.000000 0 0 1
-21.204692 -20.235026 -14.704921 32.792223 0.762003 2.035801 0.029977 -0.003723 -855314.000000 0 0 1
-22.497692 -19.959926 -14.279321 33.293299 0.725697 2.014065 0.005271 0.004300 -1332770.000000 0 0 1
-23.483392 -20.611826 -15.222221 34.756770 0.720368 2.024129 0.008836 -0.000093 -829567.000000 0 0 1
-23.442892 -20.057426 -16.563121 35.017231 0.707728 2.063488 0.014096 -0.015567 232252.000000 0 0 1
-23.983292 -21.041826 -17.411921 36.347376 0.720161 2.070359 0.022189 -0.017400 -803427.000000 0 0 1
-24.129292 -20.484926 -18.868821 36.849522 0.703893 2.108367 0.024878 -0.016057 468652.000000 0 0 1
-22.918292 -19.958226 -19.424821 36.068027 0.716471 2.139524 0.024192 -0.019517 468987.000000 0 0 1
-23.189492 -19.511026 -20.768021 36.738853 0.699465 2.171578 0.031687 -0.028109 -634788.000000 0 0 1
-22.084792 -18.779826 -21.520821 36.104925 0.704698 2.209386 0.027117 -0.018609 -594608.000000 0 0 1
-20.980592 -19.641326 -21.741621 36.036995 0.752441 2.218446 0.020237 -0.018806 -732490.000000 0 0 1
-20.034892 -18.875026 -22.416821 35.498977 0.755598 2.254254 0.024890 -0.020099 -546250.000000 0 0 1
-18.710192 -19.627426 -22.635221 35.322236 0.809319 2.266363 0.028892 -0.015950 -481097.000000 0 0 1
-18.833392 -20.851326 -23.367321 36.544577 0.836204 2.264540 0.022852 -0.012875 -28959.100000 0 0 1
-17.559892 -21.442526 -23.416221 36.282931 0.884620 2.272315 0.011961 -0.005664 -114346.000000 0 0 1
-17.726592 -22.878626 -24.030821 37.618399 0.911605 2.263740 0.021467 -0.005283 -208412.000000 0 0 1
-17.608392 -22.790226 -25.401381 38.401562 0.912969 2.293570 0.027169 -0.007946 154961.000000 0 0 1
-17.694592 -24.074626 -25.966051 39.584365 0.936972 2.286260 0.019773 -0.012513 -248383.000000 0 0 1
-17.576292 -24.048426 -27.491831 40.534597 0.939651 2.316149 0.014634 -0.006397 -756710.000000 0 0 1
-16.340092 -23.649226 -28.001031 40.129069 0.966180 2.343082 0.023989 -0.011938 -478138.000000 0 0 1
-16.329892 -23.768526 -29.412531 41.191081 0.968822 2.366064 0.036489 -0.011090 -285829.000000 0 0 1
-14.924092 -23.690326 -30.029051 41.057325 1.008634 2.391159 0.017236 -0.016610 -347219.000000 0 0 1
-14.072492 -24.745826 -29.647791 41.102097 1.053724 2.376504 0.024743 -0.017999 231446.000000 0 0 1
-12.808492 -24.446326 -30.246701 40.945613 1.088178 2.401942 0.051205 -0.021079 389011.000000 0 0 1
-11.783092 -25.587426 -30.104071 41.228785 1.139242 2.389369 0.057897 -0.016348 -819280.000000 0 0 1
-12.135292 -26.781126 -30.816531 42.592870 1.145344 2.379675 0.050976 -0.009556 788393.000000 0 0 1
-11.228892 -27.884226 -30.532061 42.846526 1.187967 2.363981 0.053840 -0.009190 498221.000000 0 0 1
-9.839592 -27.829426 -31.191671 42.944322 1.230947 2.383761 0.064683 -0.015722 -519168.000000 0 0 1
-9.053292 -26.811526 -30.621211 41.695066 1.245153 2.395591 0.064515 -0.021427 -1032250.000000 0 0 1
-7.970892 -26.553226 -31.444521 41.920959 1.279169 2.418996 0.063736 -0.019048 -819373.000000 0 0 1
-7.041692 -25.454226 -30.936311 40.676263 1.300905 2.434955 0.067325 -0.017908 -395492.000000 0 0 1
-7.580792 -24.156226 -30.910941 39.955950 1.266706 2.455339 0.074197 -0.019451 244082.000000 0 0 1
-8.316092 -23.807926 -29.714241 38.973206 1.234746 2.437853 0.073113 -0.018772 102270.000000 0 0 1
-8.684792 -22.314826 -29.609731 38.080352 1.199640 2.461571 0.064749 -0.033606 -1068600.000000 0 0 1
-9.659292 -21.927226 -30.511331 38.794928 1.155857 2.475881 0.047920 -0.034490 -483274.000000 0 0 1
-9.973792 -20.567926 -30.408461 38.041958 1.119286 2.496992 0.039508 -0.030761 150184.000000 0 0 1
-10.990592 -20.156726 -31.505011 38.982719 1.071602 2.511850 0.027414 -0.026901 45706.900000 0 0 1
-11.264092 -18.783126 -31.650761 38.489690 1.030603 2.536269 0.031203 -0.022547 298600.000000 0 0 1
-11.927592 -18.694926 -32.958081 39.724083 1.002895 2.549322 0.041792 -0.015640 24262.500000 0 0 1
-12.928992 -17.506126 -33.024511 39.550494 0.934669 2.558922 0.034508 -0.012093 -8983.750000 0 0 1
-12.430992 -16.143426 -33.149921 38.910885 0.914596 2.590484 0.046856 -0.012073 -101212.000000 0 0 1
-11.681992 -15.619126 -32.059341 37.526355 0.928622 2.595028 0.031456 -0.006542 130741.000000 0 0 1
-11.339092 -14.121226 -32.342751 37.068012 0.894240 2.631142 0.030712 -0.012068 -66386.000000 0 0 1
-10.529392 -13.733526 -33.478511 37.686715 0.916697 2.664508 0.039850 -0.010906 213481.000000 0 0 1
-11.182992 -13.701026 33.875977 38.214647 0.886246 0.481145 0.047784 -0.010131 -265484.000000 0 0 1
-11.724992 -12.331726 33.474006 37.550712 0.810614 0.470295 0.044345 -0.007641 -264668.000000 0 0 1
-12.903192 -12.002126 34.152863 38.431256 0.749234 0.476351 0.035122 -0.002140 -190501.000000 0 0 1
-13.801092 -11.339826 33.222741 37.720185 0.687810 0.493314 0.024674 -0.012937 363798.000000 0 0 1
-14.935192 -10.576326 33.873790 38.501329 0.616174 0.495337 0.030460 -0.013018 -471427.000000 0 0 1
-14.461492 -9.462826 -34.067021 38.200022 0.579425 2.672118 0.047870 -0.014877 -350042.000000 0 0 1
-15.290792 -8.963626 -33.064291 37.515360 0.530219 2.649516 0.037785 -0.020526 -289640.000000 0 0 1
-14.546892 -7.971826 -32.158191 36.184407 0.501313 2.665365 0.039080 -0.031269 -305395.000000 0 0 1
-14.363292 -6.694426 -32.659931 36.301385 0.436144 2.689851 0.026007 -0.038906 563460.000000 0 0 1
-15.442192 -5.736926 -32.564601 36.494203 0.355707 2.673261 0.027764 -0.031922 417029.000000 0 0 1
-15.522892 -5.049226 -31.157581 35.174560 0.314482 2.659009 0.026490 -0.038000 -107254.000000 0 0 1
-16.091192 -5.951726 -30.233101 34.761903 0.354270 2.625430 0.026160 -0.038226 -202642.000000 0 0 1
-16.258592 -5.416026 -28.927311 33.622380 0.321557 2.606770 0.026473 -0.040041 190271.000000 0 0 1
-15.031692 -4.885826 -28.119501 32.257237 0.314264 2.629512 0.018124 -0.038518 473761.000000 0 0 1
-14.493292 -3.674526 -28.657211 32.323264 0.248301 2.660698 0.021489 -0.034146 26215.000000 0 0 1
-13.185092 -3.281526 -28.295421 31.388627 0.243926 2.693914 0.007208 -0.027628 66205.800000 0 0 1
-12.902892 -1.962526 -29.076521 31.871306 0.150943 2.719687 -0.013787 -0.007978 -104301.000000 0 0 1
-12.774492 -2.045526 -30.493321 33.124227 0.158778 2.740345 -0.006314 -0.012362 91459.400000 0 0 1
-12.868892 -0.760526 -31.062311 33.631145 0.059029 2.748209 -0.001093 -0.012515 -75679.400000 0 0 1
-13.087092 -0.940526 -32.564511 35.108459 0.071743 2.758573 -0.002454 -0.013660 -610109.000000 0 0 1
-14.350292 -1.483526 -32.805721 35.837788 0.103014 2.727284 0.004320 -0.020089 -247543.000000 0 0 1
-14.371692 -1.544526 -34.195098 37.124598 0.107059 2.741667 -0.002505 -0.012440 -586476.000000 0 0 1
-15.669092 -2.001526 33.789234 37.299315 0.127049 0.437310 0.006080 -0.016440 -681209.000000 0 0 1
-15.591892 -1.826526 32.414573 36.015939 0.116614 0.451012 0.000527 -0.016846 -51159.100000 0 0 1
-16.790492 -2.024526 31.701053 35.930156 0.119996 0.490077 0.010116 -0.011484 -47592.100000 0 0 1
-16.726992 -1.848526 30.167423 34.543925 0.110065 0.508848 0.010598 -0.001828 19915.500000 0 0 1
-16.379392 -0.543526 29.732113 33.949646 0.033171 0.503766 0.002465 0.010891 11828.500000 0 0 1
-16.759792 -0.407526 28.377273 32.959465 0.024311 0.533613 0.009788 -0.000520 -95575.600000 0 0 1
-16.205392 0.881474 27.725873 32.126559 -0.054340 0.529578 0.011131 -0.000358 -452384.000000 0 0 1
-16.579992 2.158474 28.141583 32.733834 -0.129457 0.536096 0.017499 0.004255 -761997.000000 0 0 1
-17.930492 2.406474 27.897753 33.250238 -0.133414 0.575309 0.034331 -0.008792 -491268.000000 0 0 1
-18.286792 2.912474 26.478873 32.311298 -0.157940 0.610271 0.042101 -0.018463 -651189.000000 0 0 1
-17.857092 4.242474 26.281023 32.055678 -0.233255 0.609638 0.038198 -0.011429 266248.000000 0 0 1
-18.301592 4.711474 24.981473 31.324436 -0.251964 0.647644 0.042922 -0.009174 -394355.000000 0 0 1
-18.212892 6.252474 24.873953 31.456580 -0.330693 0.658781 0.038707 -0.004422 -208799.000000 0 0 1
-16.916692 6.757474 24.981903 30.918173 -0.380037 0.630046 0.025268 0.006815 -471080.000000 0 0 1
-16.150992 6.721474 23.805103 29.541762 -0.394363 0.633751 0.030060 -0.007719 -352332.000000 0 0 1
-14.992992 7.728474 23.688903 29.080634 -0.475949 0.618768 0.027915 -0.008846 -170875.000000 0 0 1
-13.880092 7.336474 24.463703 29.068085 -0.486234 0.570557 0.020775 -0.005457 -727169.000000 0 0 1
-12.801492 8.044474 23.942653 28.316822 -0.561041 0.563244 0.033803 -0.016494 -806745.000000 0 0 1
-11.551292 8.025474 24.828903 28.536205 -0.607206 0.515423 0.036273 -0.000015 212750.000000 0 0 1
-10.443092 8.650474 24.148603 27.695558 -0.691787 0.511665 0.037444 -0.011507 1040030.000000 0 0 1
-9.259592 8.762474 24.958653 28.025977 -0.757821 0.472234 0.039198 -0.011891 498502.000000 0 0 1
-9.119792 10.122474 25.679113 29.069777 -0.837459 0.487810 0.041146 -0.016893 -656980.000000 0 0 1
-10.085792 10.366474 26.677593 30.346021 -0.799121 0.496798 0.034499 -0.012954 158632.000000 0 0 1
-10.080892 11.732474 27.032203 31.145069 -0.860968 0.519747 0.037551 -0.013193 -122874.000000 0 0 1
-10.880492 12.714474 26.119383 31.020399 -0.862970 0.569804 0.039747 -0.018206 893345.000000 0 0 1
-12.310192 12.572474 26.043383 31.430332 -0.795939 0.594182 0.035491 -0.013492 941994.000000 0 0 1
-12.771792 11.672474 25.055863 30.449329 -0.740456 0.604351 0.032126 -0.016946 -76841.900000 0 0 1
-14.287092 11.767474 24.768713 30.920602 -0.688993 0.641762 0.013608 -0.006155 87801.100000 0 0 1
-14.594392 13.034474 24.153473 31.085110 -0.728998 0.680893 0.028135 -0.013622 -324760.000000 0 0 1
-15.898092 13.191474 23.652363 31.403799 -0.692621 0.717930 0.034180 -0.006725 -92695.600000 0 0 1
-16.197292 12.518474 22.265583 30.246002 -0.657981 0.743433 0.036160 -0.003990 -244112.000000 0 0 1
-16.280892 11.094474 22.213283 29.691493 -0.598162 0.725547 0.033038 -0.000688 34013.400000 0 0 1
-16.335592 10.646474 20.834683 28.535644 -0.577594 0.752287 0.023953 0.002692 -61023.500000 0 0 1
-16.654092 9.145474 20.579983 28.009537 -0.502185 0.745500 0.031123 -0.007541 128997.000000 0 0 1
-18.016792 8.795474 20.661283 28.789821 -0.454149 0.770361 0.023728 0.001869 -267561.000000 0 0 1
-18.193392 7.400474 20.731583 28.558100 -0.386326 0.758390 0.017840 0.003715 -49818.400000 0 0 1
-19.656692 7.012474 21.007283 29.611928 -0.342673 0.782122 0.026619 0.006076 4195.940000 0 0 1
-20.027092 7.389474 22.337183 30.897225 -0.353477 0.762732 0.027839 0.001602 433414.000000 0 0 1
-21.427592 7.432474 22.608383 32.023778 -0.333879 0.786980 0.019435 0.001716 343253.000000 0 0 1
-21.692492 8.339474 23.802063 33.266338 -0.367022 0.773457 0.025001 0.002196 -785034.000000 0 0 1
-21.476092 9.801474 23.680523 33.437383 -0.428155 0.783844 0.022454 -0.000866 467984.000000 0 0 1
-20.143492 10.290474 23.544293 32.649470 -0.472297 0.765374 0.028345 0.000148 325307.000000 0 0 1
-19.105692 9.913474 24.597433 32.685443 -0.478634 0.718870 0.031372 -0.007642 -881842.000000 0 0 1
-19.339192 10.496474 25.864413 33.958036 -0.497265 0.704928 0.039312 -0.000082 18927.500000 0 0 1
-18.701292 9.790474 26.883443 34.180568 -0.482285 0.665655 0.036657 0.001547 -67454.900000 0 0 1
-31.523192 -14.600405 20.659183 40.418873 0.433747 1.034301 0.032404 -0.007341 -182034.000000 0 0 1
-30.573062 -15.638905 20.911883 40.206894 0.472826 1.023820 0.021575 0.002268 323317.000000 0 0 1
-30.719602 -16.767205 20.099283 40.358572 0.499624 1.049485 0.005629 0.016416 -119496.000000 0 0 1
-30.269902 -16.634705 18.616183 39.237006 0.502495 1.076452 0.001119 0.013083 -394676.000000 0 0 1
-30.917892 -15.645405 17.882483 38.993307 0.468461 1.094373 0.012519 -0.003672 -55511.800000 0 0 1
-30.095062 -15.358505 16.764983 37.718180 0.471880 1.110202 0.017414 -0.003256 -915808.000000 0 0 1
-30.737832 -14.400505 15.783383 37.433996 0.438127 1.135552 0.015719 -0.002305 1536410.000000 0 0 1
-32.032442 -14.767105 15.167883 38.395435 0.431968 1.164681 0.037514 -0.006833 2273880.000000 0 0 1
-33.191802 -14.707505 15.998083 39.672977 0.417107 1.155732 0.037836 -0.011508 -15960.600000 0 0 1
-33.756662 -13.316105 16.470583 39.851110 0.375733 1.144718 0.026680 -0.010183 -685308.000000 0 0 1
-34.923693 -13.461605 17.225283 41.201815 0.367907 1.139476 0.021897 -0.012869 -113802.000000 0 0 1
-35.532447 -12.216705 17.535583 41.464435 0.331157 1.134146 0.019570 -0.001892 359963.000000 0 0 1
35.236455 -12.298905 18.626683 41.711200 -0.335819 1.107876 0.013732 0.020147 286592.000000 0 0 1
35.624585 -12.639805 19.962183 42.747684 -0.340950 1.084927 0.011307 0.013426 -167650.000000 0 0 1
34.840375 -11.869205 20.818283 42.286294 -0.328342 1.056046 0.006816 0.012245 -990040.000000 0 0 1
35.106065 -12.249605 22.325683 43.369630 -0.335722 1.030049 0.001505 0.005583 1192730.000000 0 0 1
-35.486935 -11.817105 22.841483 43.825790 0.321449 1.022554 0.003321 0.006234 706203.000000 0 0 1
-34.484320 -12.699305 22.437883 43.056931 0.352851 1.022632 -0.002889 0.003019 -455080.000000 0 0 1
-33.066842 -12.066305 22.640483 41.852159 0.349892 0.999214 0.017606 0.001830 463383.000000 0 0 1
-33.007852 -10.917805 21.788383 41.029872 0.319436 1.010972 0.028663 -0.000799 -382985.000000 0 0 1
-31.741192 -10.317105 21.822883 39.877113 0.314267 0.991717 0.043594 -0.015245 -950115.000000 0 0 1
-31.608182 -8.897105 21.167683 39.067972 0.274382 0.998199 0.040329 -0.001618 -5434.540000 0 0 1
-31.665742 -8.857505 19.748983 38.356185 0.272748 1.029924 0.038278 -0.003702 162567.000000 0 0 1
-32.930632 -9.206605 19.226083 39.227929 0.272615 1.058578 0.037468 -0.008253 -260164.000000 0 0 1
-33.117382 -8.883505 17.731283 38.601503 0.262073 1.093542 0.044075 -0.010551 -482899.000000 0 0 1
-34.478066 -8.907005 17.414783 39.640213 0.252811 1.115953 0.031986 -0.006973 -283058.000000 0 0 1
-34.697962 -8.547505 16.087183 39.189359 0.241531 1.147795 0.044245 -0.003608 693202.000000 0 0 1
35.685575 -8.314505 15.709183 39.866900 -0.228910 1.165772 0.039104 -0.003160 901122.000000 0 0 1
34.910375 -9.504205 15.798383 39.479781 -0.265804 1.159101 0.040598 0.005850 260634.000000 0 0 1
33.522205 -9.209805 15.785783 38.180489 -0.268122 1.144555 0.040730 0.000598 98385.400000 0 0 1
32.615005 -10.427705 15.721183 37.677994 -0.309450 1.140378 0.047567 -0.004243 -394623.000000 0 0 1
32.523745 -11.094405 16.944483 38.314427 -0.328740 1.112693 0.044008 -0.001936 311541.000000 0 0 1
31.485665 -12.065405 16.796083 37.670008 -0.365943 1.108646 0.041114 -0.003496 231263.000000 0 0 1
31.079465 -12.749505 18.095083 38.156455 -0.389288 1.076703 0.031513 0.000727 -287979.000000 0 0 1
31.922615 -13.719705 18.688583 39.453096 -0.405912 1.077319 0.038390 0.001357 -273739.000000 0 0 1
31.776465 -13.875505 20.085683 40.071287 -0.411705 1.045755 0.029425 0.006653 -302626.000000 0 0 1
32.648585 -14.994505 20.656983 41.442445 -0.430536 1.048987 0.020243 0.015757 -135416.000000 0 0 1
32.659225 -15.036505 22.037183 42.170593 -0.431474 1.020931 0.021522 0.015099 -329736.000000 0 0 1
33.322575 -16.152705 22.546483 43.354905 -0.451363 1.023893 0.009962 0.022141 -154602.000000 0 0 1
33.685785 -16.079605 24.008553 44.381263 -0.445357 0.999216 0.019780 0.007968 631526.000000 0 0 1
34.761845 -15.179105 24.340543 45.069426 -0.411705 1.000279 0.010855 0.011526 550632.000000 0 0 1
34.972095 -15.126705 25.744493 45.985254 -0.408237 0.976601 0.014160 0.008834 -649868.000000 0 0 1
-35.744826 -14.253405 26.125013 46.512025 0.379432 0.974378 0.016190 0.000013 -517275.000000 0 0 1
-34.492393 -14.824105 25.785463 45.545246 0.405912 0.968968 0.001844 0.005234 583580.000000 0 0 1
-33.420672 -13.910605 26.087203 44.620493 0.394417 0.946352 0.015020 -0.005829 512555.000000 0 0 1
-32.011192 -14.457005 25.824453 43.596144 0.424203 0.936816 0.005980 -0.003087 -765161.000000 0 0 1
-31.705452 -14.765305 24.447393 42.672297 0.435835 0.960744 -0.003940 0.000927 -140215.000000 0 0 1
-30.356212 -15.141805 24.333363 41.747892 0.462690 0.948547 0.013904 -0.010747 -97851.100000 0 0 1
-29.966892 -16.567905 24.892843 42.333955 0.505047 0.942198 0.019704 -0.004768 -899568.000000 0 0 1
-30.026632 -16.734005 26.287403 43.274162 0.508435 0.917935 0.018224 -0.004788 73973.200000 0 0 1
-29.762492 -18.140305 26.564803 43.824256 0.547377 0.919564 0.018005 -0.007089 -300401.000000 0 0 1
-29.340022 -18.365005 28.033173 44.541768 0.559273 0.890056 0.032511 -0.016951 -212838.000000 0 0 1
-28.158862 -17.660605 28.329433 43.673508 0.560164 0.864969 0.041108 -0.018640 -268164.000000 0 0 1
-27.695872 -18.047405 29.617583 44.384360 0.577519 0.840222 0.056408 -0.021822 622382.000000 0 0 1
-26.421032 -17.225105 30.020713 43.543294 0.577743 0.810074 0.038742 -0.018146 361190.000000 0 0 1
-26.625222 -15.871205 30.440233 43.444279 0.537544 0.794456 0.061789 -0.022378 80209.300000 0 0 1
-25.502012 -15.062805 30.123423 42.245252 0.533517 0.776942 0.042702 -0.017977 -164766.000000 0 0 1
-25.434502 -13.735305 30.922133 42.329078 0.495154 0.751717 0.052843 -0.008531 -78722.100000 0 0 1
-24.738892 -13.903505 32.129533 42.867554 0.512017 0.723479 0.055258 -0.008467 195238.000000 0 0 1
-24.632092 -12.695505 32.788716 42.930359 0.475896 0.701670 0.046790 0.001757 -384314.000000 0 0 1
-24.083392 -12.779205 34.248310 43.775160 0.487845 0.672336 0.051371 0.004064 489690.000000 0 0 1
-22.662992 -12.825705 -34.215783 42.998020 0.514993 2.491045 0.023232 0.009058 703896.000000 0 0 1
-22.069192 -14.105005 34.204203 43.080482 0.568693 0.653500 0.032159 0.001621 -330043.000000 0 0 1
-22.015492 -15.003305 -33.173711 42.547340 0.598194 2.464966 0.045199 -0.006897 -167232.000000 0 0 1
-21.036792 -14.631405 -32.219041 41.166627 0.607710 2.469707 0.015596 0.003421 103700.000000 0 0 1
-21.026092 -15.598305 -31.138611 40.681897 0.638268 2.442485 0.041491 -0.003518 -384593.000000 0 0 1
-19.813192 -15.459705 -30.228301 39.310498 0.662596 2.448013 0.043331 -0.001791 -343969.000000 0 0 1
-19.559292 -14.344405 -29.401691 38.115447 0.632780 2.451811 0.028099 0.000901 -38997.500000 0 0 1
-20.140992 -14.471705 -28.147011 37.514584 0.623048 2.419305 0.036792 -0.003275 -142657.000000 0 0 1
-19.924892 -13.250705 -27.226771 36.247476 0.586871 2.420577 0.037397 -0.001075 1155340.000000 0 0 1
-18.582392 -13.167005 -26.676641 35.075896 0.616457 2.434942 0.035835 -0.007397 1107730.000000 0 0 1
-18.398492 -11.946105 -25.948201 33.978273 0.575882 2.439776 0.031548 -0.011182 -953127.000000 0 0 1
-17.058292 -11.723505 -25.335021 32.715274 0.602125 2.456578 0.044484 -0.012909 -1557450.000000 0 0 1
-17.035092 -12.467605 -24.126621 32.058218 0.631802 2.422779 0.060226 -0.020168 238745.000000 0 0 1
-15.783492 -12.529305 -23.473021 30.936787 0.670963 2.432175 0.057944 -0.023198 111778.000000 0 0 1
-14.701992 -13.470405 -24.034021 31.228745 0.741710 2.449030 0.037704 -0.020403 38406.200000 0 0 1
-13.842992 -12.909805 -25.047621 31.395458 0.750530 2.494451 0.045831 -0.025132 295511.000000 0 0 1
-13.309292 -13.839805 -25.927291 32.263011 0.804936 2.504154 0.033591 -0.019095 -47944.200000 0 0 1
-12.409492 -13.152505 -26.990011 32.487606 0.814457 2.551302 0.031607 -0.016881 229731.000000 0 0 1
-13.178992 -12.367305 -27.898061 33.240605 0.753636 2.566748 0.044982 -0.018340 180668.000000 0 0 1
-12.322592 -11.745605 -28.807221 33.461343 0.761430 2.607853 0.051848 -0.019371 -495656.000000 0 0 1
-13.070292 -10.784505 -29.707701 34.200666 0.689869 2.623225 0.028033 -0.016041 -301307.000000 0 0 1
-12.360392 -9.851405 -30.525101 34.374573 0.672918 2.663804 0.020849 -0.007385 72518.500000 0 0 1
-11.706792 -10.443305 -31.644711 35.319956 0.728418 2.681349 0.039632 -0.004591 -297222.000000 0 0 1
-10.894392 -9.542905 -32.515731 35.595330 0.719366 2.722560 0.040691 -0.008322 -276157.000000 0 0 1
-9.592292 -9.251105 -32.072631 34.731090 0.767294 2.747788 0.029896 -0.007985 -16772.700000 0 0 1
-9.064492 -7.968405 -32.534271 34.700710 0.721136 2.786367 0.020999 -0.007380 412181.000000 0 0 1
-7.542292 -7.714505 -32.363501 34.114453 0.796685 2.819813 0.034591 -0.006096 411921.000000 0 0 1
-6.987192 -7.569705 -31.048211 32.712577 0.825393 2.821231 0.019266 -0.006745 77595.600000 0 0 1
-7.418092 -6.408405 -30.291461 31.838158 0.712502 2.828612 0.006187 -0.001456 -724371.000000 0 0 1
-6.804192 -5.056305 -30.711601 31.860095 0.639081 2.872272 0.003710 -0.006420 -648162.000000 0 0 1
-5.444592 -4.929605 -30.465911 31.338735 0.735798 2.905027 0.005042 -0.001377 -621224.000000 0 0 1
-4.957692 -3.631705 -30.830141 31.436691 0.632232 2.944835 0.025218 -0.004140 832355.000000 0 0 1
-3.437392 -3.388505 -30.527771 30.906996 0.778236 2.984780 0.033219 -0.001652 511571.000000 0 0 1
-2.557692 -4.221105 -31.251441 31.638775 1.026028 2.984956 0.025732 -0.004881 216835.000000 0 0 1
-1.178792 -4.027605 -31.022881 31.305435 1.286070 3.007136 0.039415 -0.004667 606259.000000 0 0 1
-0.344892 -2.725905 -31.290051 31.410456 1.444941 3.054005 0.034554 -0.006026 -148637.000000 0 0 1
-0.383892 -1.706105 -30.261311 30.311798 1.349472 3.083868 0.022349 -0.010635 64309.700000 0 0 1
0.275108 -0.591405 -30.831971 30.838869 -1.135393 3.120440 0.029083 0.003176 149312.000000 0 0 1
0.476608 0.520495 -29.831641 29.839987 0.829384 3.117940 0.035992 -0.003265 34868.700000 0 0 1
-0.635292 1.341595 -29.615001 29.652179 -1.128544 3.091511 0.042683 -0.004766 -173693.000000 0 0 1
-0.247492 2.159695 -28.575331 28.657897 -1.456698 3.065665 0.053515 -0.012149 -111253.000000 0 0 1
-1.349592 3.110295 -28.167741 28.371058 -1.161402 3.021802 0.054418 -0.006590 -840227.000000 0 0 1
-1.475292 4.211795 -29.037381 29.378311 -1.233875 2.989098 0.039495 0.005027 -219811.000000 0 0 1
-2.697492 4.839995 -28.760401 29.289292 -1.062340 2.951266 0.061343 -0.005670 158853.000000 0 0 1
-3.847292 4.377595 -29.712071 30.278245 -0.849784 2.947904 0.061737 -0.015172 -224741.000000 0 0 1
-3.734292 5.004695 -30.981261 31.604278 -0.929759 2.942705 0.069156 -0.017772 680885.000000 0 0 1
-4.910592 4.826295 -31.794841 32.531814 -0.776741 2.928332 0.078615 -0.019088 161040.000000 0 0 1
-4.746492 5.369695 -33.189881 33.954837 -0.846925 2.928925 0.078783 -0.021747 -248732.000000 0 0 1
-4.092892 4.666395 -34.197848 34.756579 -0.850779 2.962044 0.086582 -0.024321 -242826.000000 0 0 1
-2.769792 4.229295 -34.003871 34.377637 -0.990980 2.993998 0.074218 -0.023718 -590726.000000 0 0 1
-2.304992 3.401195 33.411044 33.662724 -0.975194 0.122359 0.068971 -0.026187 163482.000000 0 0 1
-3.077892 2.226995 33.014170 33.232038 -0.626354 0.114570 0.062119 -0.032086 486980.000000 0 0 1
-2.577192 1.676495 31.755303 31.903790 -0.576735 0.096518 0.073791 -0.029063 85930.600000 0 0 1
-2.502292 2.623395 30.543083 30.757497 -0.809020 0.118146 0.073683 -0.024673 299886.000000 0 0 1
-3.740792 3.245095 30.219243 30.622326 -0.714560 0.162432 0.060046 -0.023461 144870.000000 0 0 1
-3.515792 4.340195 29.349413 29.876180 -0.889955 0.188062 0.060468 -0.024186 93938.800000 0 0 1
-4.712992 5.252395 28.988183 29.834790 -0.839473 0.238796 0.068693 -0.016095 110291.000000 0 0 1
-4.639192 5.863995 27.710733 28.701799 -0.901486 0.263554 0.059055 -0.002674 599393.000000 0 0 1
-5.853192 6.626795 27.520123 28.905561 -0.847306 0.310862 0.048582 -0.000178 690853.000000 0 0 1
-5.818492 7.445995 26.164503 27.818679 -0.907484 0.346588 0.050716 -0.004645 -98440.600000 0 0 1
-4.860292 8.471295 26.113493 27.880097 -1.049912 0.357897 0.043293 -0.002328 -47578.700000 0 0 1
-5.042092 9.224395 24.920583 27.047137 -1.070564 0.399190 0.052002 -0.008529 205959.000000 0 0 1
-4.589892 10.698095 25.126103 27.691829 -1.165510 0.433866 0.059875 -0.014261 -317641.000000 0 0 1
-4.580592 11.442695 23.920203 26.908980 -1.190025 0.475792 0.065353 -0.024302 216787.000000 0 0 1
-4.071492 12.794495 23.968063 27.472608 -1.262707 0.510634 0.048291 -0.015816 -527879.000000 0 0 1
-2.510792 12.888595 23.870043 27.243328 -1.378399 0.502919 0.034408 -0.014277 599384.000000 0 0 1
-1.792492 12.358995 24.999793 27.945437 -1.426765 0.463277 0.036052 -0.005582 423844.000000 0 0 1
-2.112292 13.095695 26.176083 29.345295 -1.410877 0.469040 0.050462 -0.001510 -1350780.000000 0 0 1
-1.308792 12.572495 27.402433 30.177374 -1.467070 0.432202 0.046181 -0.000420 954277.000000 0 0 1
0.093708 12.871095 27.420763 30.291453 1.563516 0.438873 0.036532 0.002186 479917.000000 0 0 1
0.691208 12.668695 28.677393 31.358675 1.516290 0.416535 0.037578 -0.003358 -134186.000000 0 0 1
2.209608 12.828195 28.718183 31.530604 1.400224 0.425570 0.034832 -0.002805 15338.700000 0 0 1
2.735408 14.169995 28.471713 31.920364 1.380100 0.469133 0.027977 -0.004737 -479946.000000 0 0 1
4.119408 14.142895 28.324213 31.925727 1.287367 0.479576 0.033237 -0.006609 -547263.000000 0 0 1
4.831308 15.520895 28.489593 32.800863 1.269025 0.518502 0.032785 -0.004437 -128077.000000 0 0 1
4.807908 15.965395 29.849973 34.191091 1.278289 0.509407 0.046928 0.002838 439326.000000 0 0 1
3.704108 16.808095 30.147073 34.714241 1.353887 0.518759 0.027302 0.005751 123232.000000 0 0 1
3.865508 18.279195 29.610163 35.011896 1.362396 0.562889 0.032495 0.002676 -169626.000000 0 0 1
4.916908 19.053295 30.124703 35.981965 1.318246 0.578623 0.058746 0.006183 4481.470000 0 0 1
5.236408 20.137995 29.266523 35.909444 1.316404 0.618051 0.034378 0.004011 -124936.000000 0 0 1
6.280908 21.058695 29.904393 37.110526 1.280939 0.633738 0.035216 0.013237 -681526.000000 0 0 1
5.817008 21.767895 30.973473 38.301891 1.309669 0.628914 0.024214 0.001604 239489.000000 0 0 1
6.826808 22.457395 31.774143 39.503621 1.275684 0.636241 0.009072 -0.000843 312500.000000 0 0 1
7.158908 23.881895 31.278153 39.998972 1.279557 0.672970 -0.007318 0.010136 -370716.000000 0 0 1
7.623508 23.956295 29.929763 39.087244 1.262704 0.698641 -0.023223 0.011251 239749.000000 0 0 1
7.782308 25.243495 29.450283 39.561566 1.271752 0.731136 -0.027535 0.005941 60982.900000 0 0 1
8.273908 25.179595 27.990823 38.548096 1.253316 0.758124 -0.019632 -0.000330 -377458.000000 0 0 1
7.306808 24.588995 27.164903 37.362281 1.281949 0.756755 -0.022898 -0.000018 -256251.000000 0 0 1
7.737408 24.419795 25.828963 36.377592 1.263954 0.781264 -0.008899 -0.005023 -585030.000000 0 0 1
28.587375 2.381595 6.783079 29.477452 0.083117 1.338605 0.082102 -0.000681 -71876.200000 0 0 1
29.135035 3.114895 7.837979 30.331284 0.106508 1.309418 0.078878 -0.011719 179403.000000 0 0 1
28.341335 3.089895 9.021479 29.902605 0.108595 1.264326 0.069137 -0.000459 -171706.000000 0 0 1
28.707355 4.124495 10.085279 30.705644 0.142697 1.236134 0.065960 -0.002381 -157896.000000 0 0 1
28.455575 5.503895 9.842079 30.608481 0.191061 1.243433 0.066465 -0.005674 63953.400000 0 0 1
29.358065 6.124495 8.934379 31.292628 0.205664 1.281257 0.083890 -0.020255 -117042.000000 0 0 1
29.092735 7.614195 8.611979 31.281454 0.255980 1.291888 0.096374 -0.027131 -279389.000000 0 0 1
28.020035 7.771995 7.720479 30.085413 0.270571 1.311274 0.082378 -0.017769 -182765.000000 0 0 1
27.998725 9.088195 7.193179 30.302900 0.313864 1.331133 0.101905 -0.033189 -57247.100000 0 0 1
27.029925 9.180595 6.004179 29.171053 0.327421 1.363488 0.089792 -0.028814 928473.000000 0 0 1
25.681515 9.546095 6.348179 28.124145 0.355884 1.343114 0.072813 -0.029078 793642.000000 0 0 1
24.849315 9.700495 5.204879 27.178647 0.372180 1.378100 0.098800 -0.030715 -223496.000000 0 0 1
23.460215 10.215195 5.542979 26.181224 0.410669 1.357466 0.045753 -0.031745 -615616.000000 0 0 1
23.459015 11.602895 5.855679 26.818679 0.459321 1.350680 0.047842 -0.023106 160479.000000 0 0 1
22.137715 11.968595 6.195379 25.917338 0.495631 1.329415 0.042551 -0.011280 -170378.000000 0 0 1
22.036015 13.437995 6.669379 26.657950 0.547609 1.317927 0.015937 0.011210 -219880.000000 0 0 1
22.026515 14.354395 5.587479 26.878168 0.577560 1.361387 0.018510 0.010163 330814.000000 0 0 1
21.821315 15.658095 6.039479 27.528549 0.622414 1.349607 0.030476 0.003948 -262350.000000 0 0 1
21.610315 16.662195 4.851879 27.715973 0.656825 1.394833 0.044430 -0.001795 106813.000000 0 0 1
20.410015 16.385895 4.134779 26.498352 0.676468 1.414117 0.050936 0.000622 587866.000000 0 0 1
20.138815 17.273095 3.076679 26.709504 0.708948 1.455350 0.052434 -0.003184 132158.000000 0 0 1
18.626415 17.547295 2.861279 25.749521 0.755575 1.459447 0.044816 0.007478 158473.000000 0 0 1
17.974315 18.394195 3.835579 26.002578 0.796943 1.422748 0.043795 0.001400 -71914.200000 0 0 1
16.619215 18.027295 3.638579 24.787515 0.826017 1.423473 0.039940 -0.009955 -250625.000000 0 1 0
15.700415 19.019695 4.438379 25.058951 0.880710 1.392739 0.041185 -0.013736 -763839.000000 0 0 1
14.354015 18.792995 4.235279 24.023988 0.918524 1.393576 0.042609 -0.019319 -482977.000000 0 1 0
13.532815 19.968595 4.371679 24.515167 0.975191 1.391512 0.033453 -0.020342 -114429.000000 0 1 0
12.078315 19.634095 4.089279 23.411655 1.019297 1.395227 0.031994 -0.015059 -612707.000000 0 1 0
11.398115 18.790295 4.999179 22.538500 1.025541 1.347130 0.020665 -0.032705 222453.000000 0 1 0
10.004415 18.933695 4.767379 21.938574 1.084694 1.351743 0.025484 -0.022276 -225621.000000 0 1 0
9.228915 18.416795 5.941379 21.439477 1.106258 1.289997 0.020623 -0.022817 -1077060.000000 0 1 0
9.090015 19.413395 6.967079 22.539930 1.132883 1.256550 0.028064 -0.020688 211566.000000 0 1 0
8.595415 18.832195 8.223179 22.274501 1.142615 1.192676 0.031117 -0.018711 -268976.000000 0 1 0
7.591615 19.694495 8.994879 22.943705 1.202879 1.167947 0.028348 -0.023269 2106590.000000 0 1 0
6.225215 19.845895 8.456879 22.452876 1.266839 1.184619 0.030312 -0.029706 1779820.000000 0 1 0
6.240615 20.884995 7.453879 23.036679 1.280433 1.241301 0.027762 -0.022910 -369514.000000 0 1 0
4.841815 21.075795 6.798279 22.668235 1.344981 1.266205 0.007652 -0.011687 323737.000000 0 1 0
3.821315 21.484995 7.701379 23.141277 1.394777 1.231527 0.011486 -0.002189 -91384.300000 0 1 0
3.769215 22.777395 8.345779 24.549312 1.406802 1.223922 0.017311 -0.014783 -790596.000000 0 1 0
3.758015 23.899795 7.382579 25.294769 1.414833 1.274623 0.016775 -0.013516 452966.000000 0 0 1
2.552315 24.126195 6.637679 25.152462 1.465398 1.303735 0.016695 -0.015567 684667.000000 0 0 1
2.791615 25.142695 5.681279 25.927305 1.460218 1.349880 0.031125 -0.006287 197851.000000 0 0 1
1.606415 25.339495 4.690579 25.819994 1.507485 1.388117 0.039488 -0.014678 230731.000000 0 0 1
0.457215 25.840595 5.342779 26.391110 1.553104 1.366941 0.051383 -0.024654 -1203430.000000 0 0 1
-0.598485 25.899195 4.492979 26.292838 -1.547692 1.399071 0.057828 -0.029680 -741236.000000 0 0 1
-1.848085 26.546095 5.154179 27.104910 -1.501291 1.379475 0.062227 -0.029144 -32369.400000 0 0 1
-2.875885 26.825095 4.260379 27.313133 -1.463996 1.414174 0.086124 -0.034547 -774297.000000 0 0 1
-3.843585 27.646695 4.816379 28.325084 -1.432657 1.399927 0.072275 -0.032315 -200753.000000 0 0 1
-4.906885 28.072495 3.752579 28.744118 -1.397751 1.439871 0.069308 -0.034311 227825.000000 0 0 1
-4.322485 29.031195 2.892679 29.493418 -1.422991 1.472560 0.064400 -0.028443 -178562.000000 0 0 1
-5.206785 29.588595 1.974179 30.108021 -1.396607 1.505179 0.059448 -0.028648 -572795.000000 0 0 1
-4.582785 30.500795 0.866279 30.855321 -1.421661 1.542717 0.056871 -0.026251 -368162.000000 0 0 1
-4.457485 31.855295 1.373679 32.194968 -1.431770 1.528116 0.054793 -0.018239 -945297.000000 0 0 1
-3.181985 32.086995 1.824779 32.295976 -1.471952 1.514264 0.052283 -0.022856 -1612670.000000 0 0 1
-2.665585 33.500495 1.736179 33.651193 -1.491395 1.519180 0.044541 -0.023067 -932475.000000 0 0 1
-1.971085 33.519095 0.538979 33.581325 -1.512059 1.554746 0.036883 -0.023724 -403519.000000 0 0 1
-1.035685 -34.174026 0.394879 34.191996 1.540499 1.559247 0.038599 -0.023207 808939.000000 0 0 1
0.329415 -34.207026 1.199979 34.229652 -1.561167 1.535732 0.048726 -0.018878 200717.000000 0 0 1
0.199215 -33.944826 2.606779 34.045355 -1.564928 1.494153 0.039620 -0.022926 404658.000000 0 0 1
1.414615 -34.237026 3.301579 34.424926 -1.529502 1.474742 0.036450 -0.019669 521477.000000 0 0 1
1.295115 -34.101226 4.803079 34.462161 -1.532836 1.430969 0.028445 -0.025404 677866.000000 0 0 1
0.270815 33.782695 5.389679 34.210999 1.562780 1.412595 0.036052 -0.028947 479526.000000 0 0 1
-0.157685 34.111495 6.739279 34.771207 -1.566174 1.375744 0.030105 -0.020506 709732.000000 0 0 1
0.912115 33.767295 7.879079 34.686338 1.543791 1.341644 0.021086 -0.016296 720693.000000 0 0 1
1.287715 32.401695 7.933479 33.383650 1.531075 1.330855 0.021190 -0.017157 30741.800000 0 0 1
2.102015 32.282595 9.106079 33.608110 1.505775 1.296418 0.039420 -0.015767 45494.300000 0 0 1
2.638215 30.826595 9.310279 32.309757 1.485422 1.278495 0.034767 -0.014932 69809.900000 0 0 1
1.715315 29.900695 9.799179 31.512184 1.513492 1.254588 0.035080 -0.014495 476730.000000 0 0 1
2.396615 28.625595 9.719679 30.325577 1.487268 1.244527 0.042160 -0.008237 549849.000000 0 0 1
1.930615 27.804195 10.928679 29.937210 1.501471 1.197106 0.029419 -0.012525 -36620.500000 0 0 1
2.413415 28.440195 12.100679 31.001543 1.486140 1.169812 0.043680 -0.002997 -63857.600000 0 0 1
2.462715 27.705995 13.285079 30.824997 1.482142 1.125213 0.039287 -0.008405 -271368.000000 0 0 1
1.147215 27.260095 13.995879 30.664532 1.528737 1.096830 0.028393 -0.006709 518331.000000 0 0 1
0.287115 28.180395 14.649379 31.761949 1.560608 1.091422 0.028314 -0.003980 227444.000000 0 0 1
-0.351585 29.103995 13.811279 32.216728 -1.558717 1.127744 0.031580 -0.003037 -686847.000000 0 0 1
-0.983885 30.275295 14.592379 33.622894 -1.538310 1.121867 0.014976 -0.000622 -352659.000000 0 0 1
-2.202285 29.947695 15.170279 33.643006 -1.497391 1.103001 0.005060 0.005903 -577569.000000 0 0 1
-2.831285 31.037395 15.856379 34.967997 -1.479826 1.100159 -0.004824 0.003778 -442053.000000 0 0 1
-4.117485 30.586595 16.535179 35.012935 -1.436983 1.078944 -0.001739 0.005925 -495415.000000 0 0 1
-5.034585 30.112895 15.568279 34.271049 -1.405138 1.099245 0.003238 0.006124 -495229.000000 0 0 1
-6.160485 29.624195 16.239379 34.340383 -1.365764 1.078223 0.009380 0.006440 -971866.000000 0 0 1
-7.185685 29.008495 15.281279 33.565523 -1.327974 1.098124 0.003870 0.003184 -677846.000000 0 0 1
-8.335085 28.648595 15.965479 33.839506 -1.287670 1.079465 0.009096 0.002916 -577004.000000 0 0 1
-9.286585 27.944195 15.176979 33.127924 -1.249953 1.094903 0.018041 0.001895 222388.000000 0 0 1
-10.432485 27.391595 16.070579 33.427529 -1.206894 1.069276 0.014522 0.005260 522886.000000 0 0 1
-11.315385 28.450595 16.559979 34.809585 -1.192257 1.075002 0.005364 0.001576 753596.000000 0 0 1
-10.873685 29.082295 17.755779 35.767088 -1.212996 1.051317 0.006357 -0.000483 -206567.000000 0 0 1
-11.770485 30.299395 18.130779 37.219925 -1.200267 1.062001 0.005163 0.003706 -287003.000000 0 0 1
-12.730785 30.062095 19.115179 37.831105 -1.170211 1.041094 0.004078 0.007665 -110478.000000 0 0 1
-13.612485 31.183595 19.219679 39.078285 -1.159203 1.056612 0.013034 0.001469 111614.000000 0 0 1
-14.821985 30.883595 20.103979 39.719739 -1.123333 1.040086 0.028332 0.002006 -483931.000000 0 0 1
-14.442285 30.724895 21.448179 40.157479 -1.131393 1.007351 0.023927 0.002459 -267194.000000 0 0 1
-15.475485 30.386595 22.335579 40.764125 -1.099747 0.990918 0.017739 0.011200 -127356.000000 0 0 1
-14.939085 30.247695 23.821879 41.298683 -1.112047 0.955967 0.022592 0.007294 -382795.000000 0 0 1
-13.966285 29.237495 24.059379 40.357675 -1.125160 0.932094 0.013513 0.003984 519473.000000 0 0 1
-13.401085 29.185295 25.357979 40.919404 -1.140341 0.902429 0.032004 0.001244 72677.200000 0 0 1
-12.826285 30.455695 26.019079 42.060140 -1.172195 0.903816 0.030389 0.004511 -1083200.000000 0 0 1
-13.772485 31.344995 26.470679 43.276863 -1.156806 0.912641 0.017448 0.007879 -332789.000000 0 0 1
-13.126685 32.462395 27.019279 44.228479 -1.186532 0.913597 0.016969 0.011812 29489.200000 0 0 1
-14.107085 33.536695 27.562079 45.644145 -1.172619 0.922478 0.016181 0.007932 101124.000000 0 0 1
-14.950285 33.111595 28.611679 46.244101 -1.146686 0.903697 -0.000015 0.002422 442089.000000 0 0 1
-14.287985 33.067595 29.920579 46.827913 -1.162941 0.877667 0.021672 0.006809 -332870.000000 0 0 1
-15.093785 32.463495 31.069379 47.402607 -1.135583 0.856036 0.016594 0.005316 -295525.000000 0 0 1
-16.233485 33.160095 31.499979 48.532119 -1.115545 0.864456 0.015047 0.004954 -160351.000000 0 0 1
-16.782785 32.509695 32.668779 49.048866 -1.094242 0.841902 0.015267 0.005503 1582770.000000 0 0 1
-18.290585 32.946195 32.954479 50.059914 -1.063996 0.852237 0.023811 0.002877 1324640.000000 0 0 1
-18.407985 34.262595 33.269879 51.182655 -1.077785 0.863182 0.033068 0.006119 -1266880.000000 0 0 1
-19.711985 -34.069426 33.123479 51.443688 1.046274 0.871240 0.023439 0.007827 -1298390.000000 0 0 1
-19.970885 -32.612626 33.580279 50.892581 1.021333 0.850208 0.024546 0.003864 -67567.000000 0 0 1
-19.519685 -32.235126 -33.739025 50.581056 1.026313 2.301010 0.030842 0.002045 -53264.200000 0 0 1
-20.423185 -32.561826 -32.723325 50.479649 1.010608 2.276077 0.025191 0.003908 17622.800000 0 0 1
-20.029785 -31.834626 -31.385025 48.986278 1.009195 2.266193 0.031819 -0.000380 26514.400000 0 0 1
-20.056085 -30.414926 -31.580725 48.214691 0.987830 2.284982 0.042401 -0.002979 73237.600000 0 0 1
-19.652185 -29.692526 -30.414825 46.828581 0.986131 2.277713 0.036097 -0.003313 -153380.000000 0 0 1
-20.000785 -28.242326 -30.557325 46.167201 0.954598 2.294125 0.029910 -0.011928 536239.000000 0 0 1
-21.382985 -27.907926 -30.411525 46.485968 0.917009 2.283932 0.028853 -0.007003 483587.000000 0 0 1
-21.449385 -26.512126 -30.081825 45.474005 0.890567 2.293636 0.026678 -0.008984 -42078.900000 0 0 1
-22.647185 -26.125926 -29.196125 45.253427 0.856603 2.272041 0.045621 -0.010591 -190283.000000 0 0 1
-22.572285 -26.381226 -27.833225 44.499051 0.863049 2.246542 0.043176 -0.017048 441183.000000 0 0 1
-21.799785 -25.354426 -27.161525 43.079298 0.860639 2.252994 0.033822 -0.025480 116872.000000 0 0 1
-21.619685 -25.683926 -25.687825 42.272203 0.871106 2.223928 0.036843 -0.018965 -60172.300000 0 0 1
-22.786185 -25.515726 -24.913525 42.319572 0.841848 2.200246 0.041731 -0.017220 91549.200000 0 0 1
-22.603385 -25.950726 -23.565625 41.709613 0.854230 2.171221 0.033304 -0.008945 -506944.000000 0 0 1
-23.895385 -25.754926 -22.705425 41.831112 0.822833 2.144549 0.029259 -0.010592 716438.000000 0 0 1
-25.055085 -26.479026 -23.071925 43.141741 0.813022 2.135060 0.047801 -0.009267 -20777.700000 0 0 1
-24.931285 -27.893026 -23.088725 43.962246 0.841407 2.123740 0.040253 -0.008688 -879877.000000 0 0 1
-26.312485 -28.614526 -23.207425 45.273861 0.827285 2.109008 0.037156 -0.011912 630936.000000 0 0 1
-27.169285 -28.317226 -22.118125 45.047162 0.806084 2.084033 0.039824 0.000885 87940.300000 0 0 1
-28.196185 -27.390226 -22.472525 45.279837 0.770900 2.090132 0.038208 0.001068 -158204.000000 0 0 1
-28.910285 -26.866826 -21.256925 44.827310 0.748778 2.064847 0.037557 0.003945 -457130.000000 0 0 1
-29.640285 -27.861826 -20.603225 45.599569 0.754479 2.039611 0.030295 0.002252 -71107.600000 0 0 1
-30.112985 -27.455226 -19.338225 45.105967 0.739264 2.013881 0.019546 0.006835 -841848.000000 0 0 1
-31.047185 -28.444826 -18.635325 46.046836 0.741683 1.987451 0.010704 0.010473 269752.000000 0 0 1
-32.347085 -28.684526 -19.224525 47.315096 0.725459 1.989207 0.007103 0.006554 1148060.000000 0 0 1
-33.283385 -27.642826 -19.080225 47.285986 0.693081 1.986143 0.007722 0.012889 -532430.000000 0 0 1
-33.802585 -27.316926 -17.663725 46.913072 0.679679 1.956834 0.009976 0.013407 -385305.000000 0 0 1
-32.978885 -26.265826 -17.090625 45.492746 0.672569 1.955925 0.007921 0.013032 701544.000000 0 0 1
-33.467485 -25.788926 -15.867425 45.132210 0.656534 1.930051 0.003158 0.012744 -346828.000000 0 0 1
-33.146285 -26.548926 -14.528025 44.884130 0.675327 1.900411 0.014602 0.015448 -281504.000000 0 0 1
-33.722385 -27.792526 -14.362325 45.998914 0.689298 1.888338 0.000699 0.014686 -21256.300000 0 0 1
-33.586085 -28.279326 -13.058425 45.806854 0.699829 1.859882 -0.011203 0.013999 -107407.000000 0 0 1
-34.352485 -29.629326 -12.827925 47.143884 0.711711 1.846373 -0.006617 0.012085 -38234.900000 0 0 1
-33.880685 -30.730926 -13.602025 47.721124 0.736688 1.859836 -0.001709 0.007013 242259.000000 0 0 1
-34.464785 -31.988826 -13.194225 48.838447 0.748157 1.844356 0.000906 -0.000790 -33581.200000 0 0 1
-33.951685 -33.162726 -14.079025 49.504568 0.773643 1.859175 -0.005662 0.007345 -175216.000000 0 0 1
-32.558885 -33.343626 -13.990125 48.658010 0.797305 1.862432 -0.008035 0.010298 -83734.900000 0 0 1
-32.121485 -34.150726 -15.068925 49.245653 0.816008 1.881780 0.005612 -0.008918 -488605.000000 0 0 1
-30.759985 33.904795 -14.969225 48.164193 -0.833992 1.886826 0.014275 -0.000906 -478437.000000 0 0 1
-30.432185 33.019095 -16.020125 47.676230 -0.826146 1.913483 0.028786 -0.003924 -2000100.000000 0 0 1
-29.089385 32.827095 -16.045725 46.704130 -0.845692 1.921503 0.032850 -0.003191 -1775370.000000 0 0 1
9.148208 19.971195 -8.988921 23.734764 1.141252 1.959213 0.021560 -0.008095 -803485.000000 0 1 0
7.855708 19.695795 -9.414721 23.200721 1.191280 1.988644 0.027100 -0.020620 -730834.000000 0 1 0
7.734008 19.865095 -10.809121 23.901338 1.199525 2.040071 0.038539 -0.014700 200710.000000 0 1 0
7.886708 18.568595 -11.600921 23.271747 1.169151 2.092662 0.037301 -0.007818 -475184.000000 0 1 0
9.192508 18.112195 -11.797121 23.488845 1.101142 2.096988 0.044956 -0.017633 -536017.000000 0 1 0
9.221108 16.904695 -12.511221 22.963627 1.071433 2.146980 0.046418 -0.026893 -820737.000000 0 1 0
10.540208 16.435195 -13.067121 23.493856 1.000548 2.160594 0.064114 -0.018895 -596266.000000 0 1 0
10.260408 15.391195 -14.001121 23.199057 0.982811 2.218706 0.071954 -0.023797 439110.000000 0 1 0
11.456408 14.972895 -14.632721 23.865317 0.917674 2.230822 0.077733 -0.027283 -278107.000000 0 1 0
11.191708 13.834695 -15.575921 23.648729 0.890616 2.289802 0.064845 -0.026272 -408109.000000 0 1 0
11.088108 12.628095 -14.834421 22.415953 0.850241 2.293986 0.075636 -0.029390 1528360.000000 0 1 0
12.372708 12.010795 -14.495721 22.527073 0.770557 2.269832 0.092729 -0.020996 403804.000000 0 1 0
13.208708 11.388395 -15.597221 23.397410 0.711528 2.300464 0.092906 -0.024625 -598632.000000 0 1 0
13.905508 12.392695 -16.298621 24.750496 0.727936 2.289643 0.077299 -0.015261 -353040.000000 0 1 0
14.780208 11.798295 -17.197221 25.561665 0.673673 2.308748 0.073461 -0.016067 -172863.000000 0 0 1
15.379408 12.758695 -18.274321 27.078797 0.692529 2.311567 0.057208 -0.011084 303808.000000 0 0 1
16.327908 13.653895 -17.698421 27.681465 0.696446 2.264462 0.036828 -0.003483 5536.510000 0 0 1
17.283208 13.967595 -18.710321 29.049597 0.679697 2.270619 0.035398 -0.001163 844135.000000 0 0 1
18.357908 14.993595 -18.113321 29.831410 0.684864 2.223315 0.018402 0.010308 566115.000000 0 0 1
17.731108 16.214195 -17.719421 29.854148 0.740741 2.206238 0.018489 0.009013 416520.000000 0 0 1
17.311808 17.054895 -18.760621 30.700635 0.777923 2.228224 0.020968 0.017309 -244529.000000 0 0 1
17.074008 18.557495 -18.460421 31.252032 0.827008 2.202716 0.020899 0.011908 412353.000000 0 0 1
18.234308 19.341695 -18.131621 32.176805 0.814860 2.169412 0.019152 0.017589 519341.000000 0 0 1
17.868708 20.552195 -17.501121 32.372406 0.855129 2.141968 0.015242 0.016056 363892.000000 0 0 1
18.907308 21.735595 -17.577521 33.747468 0.854875 2.118648 0.023515 0.008673 600919.000000 0 0 1
19.965908 21.773295 -16.642321 33.906941 0.828673 2.083831 0.025465 0.006468 -25942.000000 0 0 1
19.858008 22.983395 -15.924021 34.295063 0.858222 2.053668 0.029312 0.001966 590724.000000 0 0 1
21.182808 23.268995 -15.141321 34.920153 0.832295 2.019279 0.029397 -0.001817 -232322.000000 0 0 1
21.413908 22.540695 -13.950221 34.077075 0.811028 1.992563 0.036221 0.000949 652925.000000 0 0 1
22.499908 23.044695 -13.123621 34.778344 0.797359 1.957730 0.030588 0.001877 363736.000000 0 0 1
23.909008 22.785395 -13.623321 35.726877 0.761340 1.962019 0.023375 0.000408 -1175310.000000 0 0 1
24.263308 23.503495 -14.774821 36.870282 0.769493 1.983104 0.028132 0.005167 -442055.000000 0 0 1
25.611608 23.376995 -15.123221 37.830545 0.739815 1.982054 0.016190 0.011223 -710201.000000 0 0 1
26.039808 24.240695 -16.275121 39.122403 0.749632 1.999844 0.016710 0.009802 -528965.000000 0 0 1
26.618008 23.300595 -17.198621 39.334827 0.719039 2.023320 0.016032 -0.001783 170617.000000 0 0 1
26.776208 23.898295 -18.436521 40.348471 0.728667 2.045340 0.017373 0.007578 -950381.000000 0 0 1
27.156208 22.959595 -19.643921 40.626177 0.701855 2.075478 0.017200 -0.000813 851929.000000 0 0 1
28.484508 22.389695 -19.577821 41.181995 0.666165 2.066212 0.013823 0.008860 718304.000000 0 0 1
28.794908 21.826395 -20.847121 41.714993 0.648598 2.094108 0.020856 -0.001418 -156676.000000 0 0 1
30.267208 21.997895 -21.223621 43.016896 0.628480 2.086766 0.052189 -0.013369 -430933.000000 0 0 1
30.607308 23.243395 -21.716521 44.143742 0.649494 2.085125 0.044659 -0.003170 -540852.000000 0 0 1
31.989408 23.426595 -21.590421 45.147246 0.632092 2.069426 0.059046 -0.004948 -287206.000000 0 0 1
32.377708 24.845395 -22.002621 46.365126 0.654520 2.065250 0.055660 -0.002417 -249353.000000 0 0 1
32.490808 25.076295 -23.422721 47.255656 0.657306 2.089390 0.052237 -0.000228 80413.300000 0 0 1
31.281808 25.106795 -24.158521 46.824532 0.676325 2.112898 0.051327 -0.005767 -358270.000000 0 0 1
31.455808 25.317695 -25.668401 47.846842 0.677701 2.137045 0.058682 -0.013220 -133277.000000 0 0 1
31.460108 26.674395 -26.036811 48.776810 0.703262 2.133878 0.056230 -0.014754 1996510.000000 0 0 1
30.088808 27.166895 -26.345711 48.347420 0.734410 2.147096 0.050885 -0.008001 2295940.000000 0 0 1
29.564308 26.900695 -27.805031 48.691020 0.738260 2.178581 0.054471 -0.006388 66474.800000 0 0 1
29.034008 25.604495 -28.090801 47.829456 0.722713 2.198530 0.046829 -0.018917 183790.000000 0 0 1
28.790308 25.291295 -29.469611 48.342418 0.720789 2.226354 0.048712 -0.027212 -425810.000000 0 0 1
28.124608 23.933695 -29.654941 47.362758 0.705067 2.247368 0.034181 -0.026705 -683509.000000 0 0 1
26.799908 23.947995 -29.238611 46.331823 0.729260 2.253728 0.031664 -0.025085 -670265.000000 0 0 1
26.182308 22.706095 -29.456671 45.483793 0.714413 2.275266 0.033650 -0.033748 523569.000000 0 0 1
24.700708 22.597795 -28.975341 44.275904 0.740967 2.284221 0.029702 -0.025114 438941.000000 0 0 1
24.663208 22.389195 -27.566901 43.237529 0.737106 2.262135 0.019189 -0.008332 108182.000000 0 0 1
23.375908 22.431895 -26.986361 42.164993 0.764793 2.265318 0.013287 -0.017805 -120020.000000 0 0 1
23.406708 22.792595 -25.485151 41.435121 0.772106 2.233260 0.023572 -0.012691 -159812.000000 0 0 1
23.822508 21.650895 -24.783321 40.626175 0.737679 2.226899 0.019257 -0.014671 99432.000000 0 0 1
24.056408 22.062695 -23.448821 40.191049 0.742195 2.193747 0.022476 -0.005387 -303454.000000 0 0 1
24.657808 20.976595 -22.542221 39.448406 0.704905 2.179050 0.021364 -0.004360 928472.000000 0 0 1
25.991008 20.617695 -22.976321 40.355088 0.670619 2.176516 0.008996 -0.000633 874221.000000 0 0 1
26.220008 19.298495 -22.562221 39.610283 0.634495 2.176822 0.027975 -0.004086 139826.000000 0 0 1
27.403608 18.529995 -23.227321 40.420624 0.594565 2.182961 0.042610 -0.013957 885647.000000 0 0 1
28.646208 18.794495 -22.545521 41.013885 0.580645 2.152807 0.058642 -0.028325 367625.000000 0 0 1
29.675208 18.097195 -23.236121 41.809613 0.547625 2.160073 0.051337 -0.013468 -167215.000000 0 0 1
30.930908 17.945095 -22.382121 42.186572 0.525709 2.130047 0.053590 -0.012969 -264876.000000 0 0 1
31.684608 19.145495 -22.187521 43.159592 0.543540 2.110732 0.047776 -0.012827 -121775.000000 0 0 1
32.884908 18.819195 -21.529421 43.578610 0.519784 2.087523 0.050582 -0.009319 -47567.100000 0 0 1
33.267408 19.852795 -20.438821 43.801818 0.538037 2.056262 0.035423 -0.011987 148940.000000 0 0 1
32.502408 19.682895 -19.259021 42.599680 0.544514 2.039907 0.034946 -0.011231 189947.000000 0 0 1
32.943108 20.606995 -18.346321 42.970735 0.558982 2.011913 0.021312 -0.009144 -129087.000000 0 0 1
32.169208 20.592195 -17.012221 41.812822 0.569399 1.989817 0.033635 -0.011893 -177999.000000 0 0 1
32.654608 19.618495 -16.122221 41.365865 0.540999 1.971153 0.037166 -0.019974 346484.000000 0 0 1
32.293308 19.815195 -14.725121 40.648848 0.550360 1.941479 0.037666 -0.020974 -188016.000000 0 0 1
32.876908 18.717995 -13.815021 40.275417 0.517567 1.920920 0.033717 -0.020190 -384049.000000 0 0 1
34.280508 18.564995 -13.830121 41.365257 0.496341 1.911703 0.035269 -0.020348 116209.000000 0 0 1
34.762908 17.383695 -13.232821 41.058010 0.463699 1.898950 0.043859 -0.014227 54513.000000 0 0 1
34.743008 17.375495 -11.680221 40.563678 0.463739 1.862879 0.048781 -0.023075 -347836.000000 0 0 1
35.719008 18.285795 -11.212221 41.664514 0.473150 1.843262 0.039001 -0.016445 241587.000000 0 0 1
35.491708 18.680095 -9.867921 41.303549 0.484483 1.812042 0.038971 -0.020058 -440968.000000 0 0 1
34.438008 19.765595 -9.663021 40.865990 0.521043 1.809513 0.041386 -0.026012 -128104.000000 0 0 1
33.097508 19.345495 -9.891621 39.592138 0.528944 1.823309 0.064409 -0.032772 163991.000000 0 0 1
32.212808 20.448495 -9.710621 39.371336 0.565611 1.820010 0.045570 -0.020662 512324.000000 0 0 1
30.735808 20.082595 -10.031921 38.061003 0.578758 1.837522 0.025110 -0.017780 290073.000000 0 0 1
30.510308 19.573795 -11.312521 37.973484 0.570410 1.873294 0.035959 -0.021883 70132.800000 0 0 1
29.169608 19.195595 -11.578221 36.788478 0.582026 1.890962 0.029902 -0.019802 88685.300000 0 0 1
29.032908 18.616095 -12.980921 36.850686 0.570169 1.930778 0.042155 -0.013643 11949.100000 0 0 1
29.735408 17.354095 -13.146621 36.853666 0.528286 1.935556 0.038067 -0.015202 695647.000000 0 0 1
29.291508 16.806695 -14.407521 36.715584 0.520912 1.974045 0.033228 -0.010218 928703.000000 0 0 1
30.524408 16.189395 -15.206821 37.750277 0.487652 1.985399 0.033183 -0.016612 1065480.000000 0 0 1
31.135308 15.041995 -14.605821 37.536636 0.450050 1.970460 0.019528 -0.017136 -787957.000000 0 0 1
32.353708 14.850095 -15.183521 38.701770 0.430307 1.973950 0.021642 -0.019799 -1157530.000000 0 0 1
33.297308 13.751695 -14.631521 38.883174 0.391660 1.956590 0.028488 -0.018875 83336.200000 0 0 1
34.005008 14.208595 -13.478621 39.241533 0.395789 1.921414 0.042044 -0.010312 107980.000000 0 0 1
34.748708 13.178595 -12.874221 39.330569 0.362495 1.904277 0.047837 -0.008524 -20773.800000 0 0 1
35.790808 13.653695 -11.825421 40.090471 0.364445 1.870219 0.071962 -0.008205 -1081290.000000 0 0 1
-34.996099 14.188795 -12.424021 39.754309 -0.385187 1.888641 0.049455 -0.010838 -905001.000000 0 0 1
-34.096299 14.415295 -11.310821 38.707790 -0.399990 1.867334 0.038015 -0.008475 -25567.100000 0 0 1
-32.673299 14.916295 -11.696421 37.773622 -0.428270 1.885616 0.040249 -0.012597 33456.100000 0 0 1
-31.675999 14.038395 -12.102221 36.700261 -0.417174 1.906844 0.028748 -0.009218 101846.000000 0 0 1
-31.301799 13.018195 -11.192121 35.700694 -0.394132 1.889672 0.053767 -0.004507 -504143.000000 0 0 1
-30.173499 12.018095 -11.605921 34.490173 -0.379040 1.913993 0.063038 -0.010267 2687.470000 0 0 1
-30.495999 11.233895 -12.713421 34.897527 -0.352948 1.943685 0.052878 -0.014858 437810.000000 0 0 1
-29.702299 10.043595 -12.831521 33.878434 -0.326072 1.959244 0.062085 -0.016605 -84520.400000 0 0 1
-29.812799 9.303495 -14.185521 34.301414 -0.302487 1.997151 0.058056 -0.022305 353071.000000 0 0 1
-31.108099 8.762795 -14.431121 35.394316 -0.274574 1.990757 0.047666 -0.025032 616625.000000 0 0 1
-30.978199 7.882395 -15.543121 35.543910 -0.249162 2.023383 0.048398 -0.020936 -722237.000000 0 0 1
-32.244499 7.616795 -16.339921 36.942066 -0.231968 2.028971 0.053912 -0.020073 -701307.000000 0 0 1
-33.136299 6.849895 -15.563821 37.244703 -0.203847 2.001907 0.069308 -0.030697 -398005.000000 0 0 1
-33.867099 5.972295 -16.343321 38.075620 -0.174550 2.014440 0.044362 -0.030885 -475472.000000 0 0 1
-35.017799 5.425495 -15.474621 38.667119 -0.153713 1.982533 0.043278 -0.027877 -271918.000000 0 0 1
-35.868499 4.478395 -16.065921 39.556530 -0.124213 1.989034 0.046648 -0.026046 1097960.000000 0 0 1
34.920408 4.089495 -15.187021 38.298883 0.116578 1.978541 0.057702 -0.027663 1433150.000000 0 0 1
33.950908 2.963395 -15.675021 37.512027 0.087064 2.001892 0.055447 -0.027405 358809.000000 0 0 1
34.621308 1.682995 -15.765921 38.079282 0.048573 1.997672 0.060652 -0.026609 240775.000000 0 0 1
33.766008 0.573195 -15.632421 37.213498 0.016974 2.004323 0.061042 -0.022267 -32077.300000 0 0 1
33.207108 0.396495 -14.163521 36.103664 0.011939 1.973929 0.070453 -0.029147 -268502.000000 0 0 1
34.213908 0.043695 -13.259621 36.693473 0.001277 1.940524 0.087467 -0.034255 5701.240000 0 0 1
33.781608 -0.055405 -11.896321 35.815116 -0.001640 1.909388 0.091046 -0.025287 -208431.000000 0 0 1
33.912108 1.343995 -11.158121 35.725916 0.039611 1.888437 0.094326 -0.038511 -419630.000000 0 0 1
33.012208 2.246895 -11.704021 35.097557 0.067958 1.910779 0.075586 -0.030882 161822.000000 0 0 1
33.290108 3.507895 -11.195421 35.296941 0.104986 1.893549 0.084819 -0.032242 -159828.000000 0 0 1
32.177908 4.520295 -11.524321 34.476960 0.139565 1.911618 0.078690 -0.028420 -145130.000000 0 0 1
32.262408 4.940195 -12.864221 35.082142 0.151945 1.946243 0.067296 -0.022841 618336.000000 0 0 1
31.040508 5.531495 -13.291821 34.216707 0.176351 1.969756 0.068206 -0.023384 157379.000000 0 0 1
31.121908 6.219595 -14.678021 34.967139 0.197248 2.003984 0.027437 -0.013595 -492613.000000 0 0 1
31.168508 5.270195 -15.722621 35.305122 0.167503 2.032345 0.014152 -0.007359 203893.000000 0 0 1
31.643308 5.828095 -16.942721 36.363738 0.182140 2.055474 0.005185 -0.001788 -299765.000000 0 0 1
30.675608 6.761295 -17.741521 36.075887 0.216944 2.084933 0.008711 0.000166 1131360.000000 0 0 1
29.494608 6.280095 -18.408221 35.330356 0.209791 2.118855 0.003381 -0.001808 1896280.000000 0 0 1
28.390508 5.784295 -17.593021 33.896805 0.200990 2.116497 0.008615 -0.000454 654974.000000 0 0 1
27.084808 5.773895 -18.430621 33.265785 0.210034 2.158007 0.011596 -0.008444 -8316.370000 0 0 1
27.142608 4.807395 -19.451021 33.736841 0.175298 2.185298 0.011976 0.001951 -331796.000000 0 0 1
25.978808 4.932495 -20.191521 33.270490 0.187633 2.222938 0.017358 0.004053 -679636.000000 0 0 1
25.621808 3.645395 -20.859621 33.239882 0.141328 2.249196 0.018439 0.002272 -447127.000000 0 0 1
24.976108 2.769095 -19.985221 32.107365 0.110419 2.242665 0.027770 -0.003124 52001.700000 0 0 1
24.769908 1.467995 -20.552321 32.219578 0.059196 2.262543 0.015701 -0.006934 -467180.000000 0 0 1
23.781308 0.683795 -19.667921 30.868192 0.028746 2.261602 0.013691 -0.010073 445238.000000 0 0 1
22.492108 1.308395 -19.671021 29.909127 0.058106 2.288548 0.024290 -0.017081 222860.000000 0 0 1
21.576008 0.564495 -18.926321 28.706243 0.026157 2.290697 0.032019 -0.018460 -93077.600000 0 0 1
20.266408 1.341495 -18.655121 27.577897 0.066097 2.313731 0.039506 -0.024057 -893822.000000 0 0 1
19.397908 1.459995 -19.752821 27.723354 0.075124 2.363847 0.046302 -0.028036 312167.000000 0 0 1
18.353108 2.416095 -19.668821 27.009935 0.130892 2.386498 0.037821 -0.020703 762290.000000 0 0 1
17.191208 2.062095 -18.670021 25.462905 0.119380 2.393848 0.066909 -0.030182 -779634.000000 0 0 1
17.496908 2.256995 -17.326921 24.727677 0.128286 2.347188 0.068301 -0.029838 100641.000000 0 1 0
16.381708 2.163395 -16.462921 23.325274 0.131302 2.354345 0.052317 -0.019908 563105.000000 0 1 0
15.418008 3.416695 -16.367521 22.743889 0.218080 2.374087 0.064950 -0.019250 373588.000000 0 1 0
14.797308 3.600795 -17.626721 23.294363 0.238702 2.429039 0.061683 -0.018935 -140695.000000 0 1 0
13.726108 4.506695 -17.547921 22.729845 0.317241 2.452811 0.067155 -0.021274 -397627.000000 0 1 0
-20.587392 -21.863705 -17.971721 34.997786 0.815455 2.110067 0.039649 -0.010229 -379512.000000 0 0 1
-20.018292 -22.675405 -18.956521 35.696718 0.847555 2.130628 0.045975 -0.014894 740467.000000 0 0 1
-20.898292 -22.572505 -20.086721 36.738712 0.823893 2.149269 0.046535 -0.015084 435756.000000 0 0 1
-20.357992 -23.408505 -21.265221 37.611375 0.854985 2.171706 0.035641 -0.011034 34117.600000 0 0 1
-20.556892 -24.785305 -21.072221 38.482927 0.878385 2.150258 0.024888 -0.012986 372364.000000 0 0 1
-19.549092 -25.522125 -21.761721 38.821622 0.917155 2.165854 0.020804 -0.021038 -117700.000000 0 0 1
-19.463692 -27.006285 -21.338821 39.541371 0.946306 2.140827 0.019109 0.003017 -263258.000000 0 0 1
-20.704692 -27.647835 -21.480021 40.675279 0.928017 2.127141 0.021483 0.011246 -142276.000000 0 0 1
-20.500392 -29.027005 -21.331821 41.447312 0.955886 2.111423 0.036315 -0.018581 179790.000000 0 0 1
-21.772392 -29.861535 -21.673221 42.842465 0.940798 2.101200 0.033941 -0.015167 309127.000000 0 0 1
-22.336492 -29.677205 -22.961721 43.668020 0.925603 2.124481 0.030712 -0.010478 5391.410000 0 0 1
-21.571492 -30.277355 -23.984521 44.241437 0.951755 2.143764 0.024947 -0.013030 -634529.000000 0 0 1
-21.897092 -29.664035 -25.374521 44.758283 0.934910 2.173563 0.027637 -0.006884 -1222680.000000 0 0 1
-23.180592 -29.990765 -25.721861 45.808296 0.912784 2.167007 0.035108 -0.004890 -965805.000000 0 0 1
-23.680392 -29.222735 -26.808661 46.189106 0.889781 2.190030 0.038701 -0.004666 -197950.000000 0 0 1
-23.197492 -29.454455 -28.256491 46.948033 0.903680 2.216634 0.033593 -0.015513 -587036.000000 0 0 1
-23.682292 -30.635755 -28.848601 48.287081 0.912720 2.211100 0.037626 -0.004200 82822.000000 0 0 1
-23.373892 -30.705115 -30.204761 49.004801 0.920142 2.234912 0.044515 -0.004127 -262191.000000 0 0 1
-24.149492 -31.842445 -30.893551 50.512877 0.921937 2.228875 0.035158 -0.000646 90303.400000 0 0 1
-23.655292 -33.141465 -30.536721 50.896177 0.950890 2.214273 0.031680 -0.006352 168645.000000 0 0 1
-24.601892 -34.115239 -30.944761 52.217630 0.946022 2.205093 0.037192 -0.005570 -79746.600000 0 0 1
-24.128692 33.124485 -30.956161 51.358633 -0.941247 2.217733 0.039451 -0.010728 365196.000000 0 0 1
-23.145292 32.798601 -31.941331 51.300111 -0.956269 2.242904 0.043653 -0.014545 52566.900000 0 0 1
-22.737092 31.465455 -31.750691 50.151337 -0.945060 2.256345 0.042760 -0.002908 -793016.000000 0 0 1
-21.553692 31.060625 -32.587071 49.912336 -0.964160 2.282185 0.036152 0.000680 -884209.000000 0 0 1
-21.659192 30.792255 -33.961861 50.701988 -0.957794 2.304780 0.039175 -0.002281 -232625.000000 0 0 1
-20.804592 29.787155 34.177293 49.881791 -0.961117 0.815965 0.031062 -0.003777 -185540.000000 0 0 1
-20.844292 29.500675 32.672008 48.705590 -0.955675 0.835501 0.035369 -0.009831 -124679.000000 0 0 1
-20.247992 30.567565 31.967383 48.644330 -0.985753 0.853744 0.033202 -0.005830 308754.000000 0 0 1
-20.175892 30.386925 30.592923 47.606289 -0.984666 0.872879 0.046916 -0.007744 -193747.000000 0 0 1
-19.623192 31.605005 29.809973 47.671590 -1.015159 0.895255 0.038514 -0.013808 -926122.000000 0 0 1
-20.580692 32.535565 29.498313 48.500293 -1.006779 0.916994 0.040759 -0.014731 -529531.000000 0 0 1
-20.011592 33.799619 29.180013 48.932109 -1.036231 0.931866 0.021873 -0.019482 15295.600000 0 0 1
-21.001892 -33.736825 29.297613 49.372087 1.013981 0.935514 0.020154 -0.022093 -90415.900000 0 0 1
-21.287592 -33.214485 30.613873 49.935687 1.000836 0.910861 0.016370 -0.011023 444179.000000 0 0 1
-22.294992 -32.196255 30.797823 49.821396 0.965141 0.904391 0.034257 -0.016113 317669.000000 0 0 1
-21.907692 -30.797795 30.337483 48.464565 0.952500 0.894418 0.023782 -0.014052 -518683.000000 0 0 1
-21.552692 -30.672555 28.935723 47.356101 0.958281 0.913443 0.026124 -0.015004 -79748.300000 0 0 1
-21.602392 -29.337555 28.555853 46.290304 0.936096 0.906016 0.024160 -0.015525 413360.000000 0 0 1
-22.961792 -28.607605 28.216123 46.279462 0.894444 0.915127 0.025028 -0.013443 106147.000000 0 0 1
-23.951792 -28.458485 29.232053 47.308421 0.871176 0.904722 0.024074 -0.008048 627288.000000 0 0 1
-24.955292 -29.470115 29.100213 48.353663 0.868163 0.925018 0.028501 -0.008254 350287.000000 0 0 1
-26.071592 -29.368975 27.983043 48.221524 0.844804 0.951697 0.016950 -0.009322 -235614.000000 0 0 1
-25.610622 -29.478925 26.648083 47.276118 0.855502 0.971975 0.024118 -0.007309 -251426.000000 0 0 1
-26.623532 -29.526105 25.666763 47.322152 0.837046 0.997525 0.018510 -0.008649 -164895.000000 0 0 1
-26.140002 -29.937575 24.238913 46.551939 0.853015 1.023143 0.025473 -0.016827 -313075.000000 0 0 1
-25.567292 -28.917425 23.462783 45.170855 0.846808 1.024621 0.011544 -0.014035 -29135.800000 0 0 1
-25.265302 -29.223405 22.121083 44.516123 0.857912 1.050747 0.038462 -0.014282 -277463.000000 0 0 1
-24.033792 -30.092995 21.841383 44.274796 0.896879 1.054901 0.037542 -0.016000 -627025.000000 0 0 1
-24.035592 -31.428465 22.429983 45.481450 0.917908 1.055069 0.043473 -0.032902 -421815.000000 0 0 1
-22.855592 -32.008765 21.990983 45.061541 0.950708 1.060975 0.061185 -0.011460 -575085.000000 0 0 1
-21.864292 -32.480935 23.059983 45.440304 0.978324 1.038540 0.070664 -0.015247 -131520.000000 0 0 1
-21.230992 -31.450585 23.819083 44.802266 0.977006 1.010250 0.069584 -0.029638 55430.500000 0 0 1
-20.718992 -32.188095 24.936943 45.685898 0.998873 0.993411 0.052810 -0.027888 -499858.000000 0 0 1
-19.606992 -31.467145 25.736933 45.133193 1.013569 0.963993 0.042580 -0.011153 -995960.000000 0 0 1
-18.371492 -31.678995 25.094713 44.393863 1.045267 0.970030 0.049852 -0.017464 -426367.000000 0 0 1
-17.326192 -31.008305 25.752673 43.873820 1.061253 0.943484 0.060786 -0.014263 -183953.000000 0 0 1
-16.682592 -31.870915 26.896943 44.916697 1.088571 0.928771 0.030668 -0.018054 -987654.000000 0 0 1
-17.519992 -32.061375 28.026453 46.047410 1.070681 0.916447 0.022427 -0.012402 -19636.000000 0 0 1
-16.923492 -32.734245 29.072833 46.937885 1.093644 0.902831 0.017295 -0.009252 -441994.000000 0 0 1
-17.384192 -32.179505 30.390463 47.553243 1.075488 0.877491 0.027967 -0.008576 19621.100000 0 0 1
-16.961492 -30.812975 30.368343 46.469000 1.067595 0.858573 0.030565 -0.006547 358187.000000 0 0 1
-17.357592 -30.143165 31.574043 46.976767 1.048332 0.833728 0.038025 -0.003591 -70199.500000 0 0 1
-17.209392 -28.618465 31.486413 45.897429 1.029393 0.814796 0.041682 -0.009414 148109.000000 0 0 1
-18.152792 -27.869475 30.716173 45.273776 0.993472 0.825140 0.043624 -0.006724 402271.000000 0 0 1
-18.045592 -28.098245 29.295283 44.422611 0.999901 0.850686 0.042431 -0.001299 19313.000000 0 0 1
-16.793892 -27.519975 28.567093 43.075082 1.022879 0.845719 0.040001 0.000611 279133.000000 0 0 1
-16.784492 -26.093145 28.473723 42.110858 0.999179 0.828257 0.034993 0.003976 419073.000000 0 0 1
-15.606892 -25.730785 27.753283 40.937674 1.025578 0.825840 0.036397 0.006639 376449.000000 0 0 1
-15.698792 -24.365205 27.035093 39.635988 0.998430 0.820187 0.034644 0.009595 -803430.000000 0 0 1
-16.416692 -24.612005 25.885753 39.310696 0.982549 0.851984 0.048155 -0.004705 -174091.000000 0 0 1
-16.504692 -23.482905 24.987493 38.055572 0.958168 0.854487 0.039191 -0.003536 -218426.000000 0 0 1
-17.215492 -22.238705 25.495513 37.959905 0.912034 0.834372 0.032928 -0.005157 -1017380.000000 0 0 1
-17.070992 -21.125205 24.658053 36.683957 0.891144 0.833653 0.037910 -0.002941 26470.800000 0 0 1
-17.516892 -19.895805 25.160923 36.548005 0.848898 0.811467 0.024840 0.001209 -411132.000000 0 0 1
-17.140492 -18.680305 24.259353 35.089407 0.828358 0.807429 0.032272 -0.005998 -264274.000000 0 0 1
-15.771692 -18.388505 24.343343 34.343584 0.861853 0.782975 0.043143 -0.011013 -505149.000000 0 0 1
-15.469392 -17.134905 23.774073 33.137798 0.836436 0.770689 0.037589 -0.004237 -240967.000000 0 0 1
-14.023092 -16.736605 24.083093 32.507791 0.873387 0.736475 0.054144 -0.005187 -412296.000000 0 0 1
-13.051292 -17.544205 23.465483 32.074355 0.931205 0.750136 0.043739 -0.007036 168219.000000 0 0 1
-11.721492 -17.061005 23.619133 31.405967 0.968825 0.719616 0.052187 -0.009367 350357.000000 0 0 1
-11.177892 -16.163205 22.430983 29.821863 0.965755 0.719454 0.059330 -0.004019 -251269.000000 0 0 1
-10.742992 -16.960005 21.332283 29.293685 1.006157 0.755073 0.083085 -0.004185 -85197.200000 0 0 1
-9.379292 -17.310505 21.417683 29.091956 1.074250 0.743349 0.082576 -0.005908 -445151.000000 0 0 1
-9.013092 -18.463705 20.451683 28.989922 1.116672 0.787702 0.074670 -0.002793 183551.000000 0 0 1
-9.189392 -18.030805 19.093183 27.822734 1.099459 0.814484 0.065954 -0.005369 309099.000000 0 0 1
-8.460292 -18.982905 18.291783 27.686036 1.151541 0.849064 0.057082 0.001123 441725.000000 0 0 1
-8.314492 -18.524505 16.816183 26.364220 1.148910 0.879104 0.042172 -0.002448 -662043.000000 0 0 1
-7.232192 -17.693705 16.634883 25.339518 1.182775 0.854654 0.062395 -0.007051 -828288.000000 0 0 1
-7.003692 -17.441105 15.308483 24.240328 1.188944 0.887272 0.074330 -0.021487 -289601.000000 0 1 0
-5.833992 -16.455405 15.264383 23.190887 1.230089 0.852363 0.049775 -0.014094 -67304.800000 0 1 0
-6.225192 -15.158305 15.722483 22.709551 1.181118 0.806084 0.059337 -0.024779 -671473.000000 0 1 0
-5.160192 -14.291505 15.764983 21.895420 1.224296 0.766976 0.039711 -0.015847 -1085280.000000 0 1 0
-5.378392 -13.145305 16.774183 21.979522 1.182428 0.702587 0.025217 -0.006344 -31353.200000 0 1 0
-5.175092 -13.516005 18.165883 23.226349 1.205130 0.672729 0.034410 -0.004338 268021.000000 0 1 0
-6.020292 -14.498105 18.806683 24.497557 1.177216 0.695558 0.066837 -0.008157 575848.000000 0 1 0
-7.320892 -14.091605 19.550083 25.186793 1.091654 0.682174 0.094895 -0.012886 339329.000000 0 0 1
-7.089492 -13.426705 20.726483 25.692887 1.084989 0.632248 0.077801 -0.005830 -354680.000000 0 0 1
-8.246992 -12.764005 21.147983 26.041696 0.997158 0.623086 0.086454 -0.006183 -117940.000000 0 0 1
-7.974692 -11.890005 22.368783 26.558057 0.980003 0.569335 0.077515 0.003020 -141558.000000 0 0 1
-7.473592 -10.613905 21.975183 25.522897 0.957302 0.533566 0.054960 0.003814 124490.000000 0 0 1
-7.159392 -9.801505 23.091483 26.087219 0.939933 0.483949 0.053106 0.003221 866781.000000 0 0 1
-5.733492 -9.974805 23.746443 26.386801 1.049114 0.451173 0.055704 0.003536 730307.000000 0 0 1
-5.548292 -11.247005 24.370943 27.408421 1.112513 0.475253 0.068942 0.003452 -34887.600000 0 0 1
-4.236592 -11.438805 24.863603 27.694652 1.216091 0.456102 0.054100 0.002298 -71949.200000 0 0 1
-4.006992 -12.786205 25.631613 28.922701 1.267106 0.481695 0.055939 -0.002263 225313.000000 0 0 1
-2.689192 -13.038505 26.136773 29.331984 1.367398 0.471105 0.042603 0.001339 688592.000000 0 0 1
-2.700592 -14.131505 27.068283 30.654276 1.381969 0.488542 0.052083 -0.006906 -95790.700000 0 0 1
-2.714892 -15.480805 26.365743 30.694925 1.397190 0.537559 0.052335 -0.016960 587576.000000 0 0 1
-1.467592 -15.858705 25.755723 30.282167 1.478517 0.553815 0.043606 -0.016257 714162.000000 0 0 1
-1.651092 -17.124905 25.133193 30.457608 1.474679 0.600265 0.051385 -0.016068 -584466.000000 0 0 1
-0.324092 -17.899105 24.948393 30.706764 1.552692 0.622416 0.056164 -0.016914 240936.000000 0 0 1
0.266608 -18.474205 26.102793 31.980043 -1.556366 0.615956 0.072314 -0.021987 -36839.000000 0 0 1
0.961808 -17.495805 26.804553 32.023622 -1.515878 0.578974 0.066059 -0.022738 -1189930.000000 0 0 1
1.281008 -17.849505 28.293663 33.478011 -1.499152 0.563966 0.066105 -0.022425 -309634.000000 0 0 1
2.259208 -18.897905 28.308323 34.111523 -1.451813 0.591912 0.062542 -0.029829 292544.000000 0 0 1
2.941908 -19.065505 29.516173 35.261208 -1.417699 0.578887 0.062083 -0.038699 666109.000000 0 0 1
3.990308 -17.923905 29.884653 35.075368 -1.351744 0.550979 0.078794 -0.033051 -193524.000000 0 0 1
3.456208 -16.672605 30.225823 34.691808 -1.366393 0.513019 0.061246 -0.036122 -28767.500000 0 0 1
4.494608 -15.742605 30.419623 34.545399 -1.292689 0.493734 0.068117 -0.041778 -120756.000000 0 0 1
3.941608 -14.504105 31.144523 34.581595 -1.305447 0.449626 0.081331 -0.037066 -67825.300000 0 0 1
3.397908 -14.916105 32.326063 35.763254 -1.346817 0.442018 0.040501 -0.038401 -661886.000000 0 0 1
2.357408 -14.078405 32.726934 35.704497 -1.404887 0.411291 0.049509 -0.029980 -590278.000000 0 0 1
1.411008 -14.787105 33.664873 36.796374 -1.475663 0.415545 0.036775 -0.025109 -299402.000000 0 0 1
2.029508 -14.913105 -33.698271 36.906545 -1.435538 2.721547 0.059389 -0.026826 -112160.000000 0 0 1
1.249208 -15.572605 -32.746041 36.281810 -1.490749 2.696445 0.063614 -0.029858 -193274.000000 0 0 1
1.991408 -15.586505 -31.436531 35.144848 -1.443720 2.678074 0.059234 -0.019904 134567.000000 0 0 1
1.518008 -16.559505 -30.475421 34.717039 -1.479382 2.642095 0.076424 -0.022517 612826.000000 0 0 1
2.352008 -16.492705 -29.288151 33.694763 -1.429142 2.624418 0.048592 -0.020466 421076.000000 0 0 1
1.796508 -17.507505 -28.234301 33.270346 -1.468541 2.584191 0.073716 -0.023885 1945.990000 0 0 1
2.154008 -18.828605 -28.563111 34.278381 -1.456891 2.555791 0.071793 -0.022086 207677.000000 0 0 1
1.651408 -19.713105 -27.542991 33.910913 -1.487219 2.518737 0.064907 -0.019189 -602394.000000 0 0 1
2.329908 -21.120605 -27.594191 34.827400 -1.460926 2.485387 0.064413 -0.026379 -432815.000000 0 0 1
3.696908 -21.277605 -27.354661 34.852275 -1.398767 2.473290 0.046049 -0.024934 -535975.000000 0 0 1
4.097608 -21.076605 -26.007061 33.725078 -1.378777 2.451440 0.054344 -0.030777 -720472.000000 0 0 1
5.549308 -21.559305 -25.825281 34.096093 -1.318868 2.430159 0.047766 -0.031606 -355908.000000 0 0 1
5.771408 -22.991505 -25.989871 35.176581 -1.324855 2.402144 0.055433 -0.028399 -24193.100000 0 0 1
5.609608 -23.514105 -27.281301 36.450655 -1.336610 2.416510 0.037948 -0.021395 -549057.000000 0 0 1
4.976108 -24.917505 -27.252881 37.260746 -1.373686 2.391184 0.044865 -0.010436 221293.000000 0 0 1
5.755808 -25.820485 -26.451431 37.409958 -1.351466 2.356141 0.053427 -0.007555 161549.000000 0 0 1
5.200008 -27.122265 -26.475311 38.257018 -1.381370 2.335105 0.045753 -0.002824 -147300.000000 0 0 1
5.866908 -28.111035 -25.515021 38.414414 -1.365045 2.297225 0.049161 -0.002406 -488873.000000 0 0 1
7.224808 -28.373795 -25.679151 38.944690 -1.321465 2.290783 0.072905 -0.007239 -658428.000000 0 0 1
7.546608 -29.553805 -24.997221 39.436528 -1.320787 2.257329 0.074089 -0.008291 -345257.000000 0 0 1
8.999308 -29.954275 -25.253031 40.199026 -1.278941 2.250034 0.085156 -0.014030 -277194.000000 0 0 1
9.201508 -30.255745 -26.665221 41.365588 -1.275560 2.271327 0.086309 -0.020356 805734.000000 0 0 1
10.599608 -30.433945 -26.967461 42.021669 -1.235652 2.267576 0.099531 -0.017898 1084420.000000 0 0 1
10.834508 -30.401625 -28.495211 43.053715 -1.228450 2.294084 0.108073 -0.029705 -89521.200000 0 0 1
10.210608 -31.414555 -29.243271 44.116887 -1.256539 2.295427 0.103837 -0.032939 113097.000000 0 0 1
10.728108 -31.409945 -30.564021 45.120243 -1.241668 2.315006 0.097858 -0.022918 163469.000000 0 0 1
-34.793165 -4.683105 -5.717221 35.569403 0.133794 1.732231 0.119004 -0.037400 -175036.000000 0 0 1
-34.398056 -3.987905 -4.540021 34.924797 0.115419 1.701159 0.121998 -0.044497 823493.000000 0 0 1
-33.400942 -2.970005 -4.760121 33.868903 0.088687 1.711809 0.113463 -0.041474 195163.000000 0 0 1
-33.866682 -1.644105 -5.390221 34.332342 0.048508 1.728450 0.133246 -0.035692 -649750.000000 0 0 1
-34.795827 -0.950005 -4.590921 35.110235 0.027295 1.701929 0.096350 -0.030129 62667.500000 0 0 1
-35.392719 0.038595 -5.375021 35.798560 -0.001090 1.721513 0.088517 -0.036860 -314454.000000 0 0 1
35.604765 0.904395 -4.461021 35.894539 0.025395 1.695400 0.104884 -0.032274 105481.000000 0 0 1
-35.550196 1.768995 -3.610321 35.776811 -0.049719 1.671881 0.090075 -0.029177 792765.000000 0 0 1
35.392705 2.673195 -3.027721 35.622418 0.075386 1.655894 0.083677 -0.030620 144236.000000 0 0 1
-35.844848 3.978495 -2.445821 36.147802 -0.110540 1.638510 0.067074 -0.031556 77698.600000 0 0 1
-35.397682 4.903995 -3.463621 35.903227 -0.137664 1.667418 0.086393 -0.029664 1209130.000000 0 0 1
-34.075099 4.657695 -3.988221 34.622426 -0.135847 1.686244 0.063988 -0.019912 438252.000000 0 0 1
-33.044162 5.747295 -3.604121 33.733332 -0.172205 1.677842 0.038264 -0.017930 -512288.000000 0 0 1
-32.752942 5.724195 -2.241221 33.324836 -0.173021 1.638101 0.047381 -0.022410 300965.000000 0 0 1
-32.598252 7.117695 -1.834521 33.416659 -0.214972 1.625722 0.058721 -0.030253 -112910.000000 0 0 1
-31.912802 7.298695 -0.432621 32.739655 -0.224840 1.584011 0.054994 -0.029166 -699683.000000 0 0 1
-30.515852 7.183295 -0.489321 31.353730 -0.231187 1.586403 0.068516 -0.020000 89633.400000 0 0 1
-29.898692 7.502795 0.787579 30.835758 -0.245864 1.545252 0.075154 -0.025145 105542.000000 0 0 1
-29.829032 9.025495 1.109279 31.184310 -0.293817 1.535217 0.078274 -0.029677 -603882.000000 0 0 1
-31.129762 9.534395 1.301179 32.583122 -0.297207 1.530852 0.053396 -0.029657 -44142.200000 0 0 1
-31.107402 10.941395 1.536979 33.011314 -0.338215 1.524220 0.056109 -0.017308 3510.170000 0 0 1
-32.439372 11.707795 1.383479 34.515204 -0.346364 1.530702 0.051881 -0.019338 -480228.000000 0 0 1
-32.859002 11.876295 0.022379 34.939389 -0.346823 1.570156 0.042167 -0.016387 582063.000000 0 0 1
-34.051081 12.617995 -0.181521 36.314224 -0.354873 1.575795 0.039718 -0.012646 1032080.000000 0 0 1
-35.440453 11.968595 0.170379 37.407245 -0.325684 1.566242 0.046433 -0.022340 184759.000000 0 0 1
-35.758363 10.856295 -0.642121 37.375553 -0.294758 1.587977 0.052920 -0.015909 -195368.000000 0 0 1
34.846625 10.359095 -0.389121 36.355873 0.288957 1.581500 0.069807 -0.021523 -133000.000000 0 0 1
34.423035 9.108795 -1.227821 35.628963 0.258684 1.605264 0.065542 -0.030744 134714.000000 0 0 1
34.165195 9.457795 -2.565521 35.542824 0.270062 1.643040 0.075645 -0.024469 165183.000000 0 0 1
33.623745 8.409095 -3.331621 34.819087 0.245067 1.666627 0.063640 -0.026898 -247072.000000 0 0 1
33.089145 8.816595 -4.733721 34.569234 0.260400 1.708162 0.067061 -0.016671 -1203880.000000 0 0 1
31.840625 9.364095 -4.609121 33.507546 0.286028 1.708789 0.084232 -0.018614 -1102230.000000 0 0 1
31.466575 9.827995 -5.873221 33.484766 0.302731 1.747108 0.067229 -0.011495 -139777.000000 0 0 1
30.039945 10.433995 -5.833221 32.330991 0.334301 1.752212 0.066615 -0.008269 -258588.000000 0 0 1
29.053695 9.446195 -5.774221 31.091629 0.314348 1.757597 0.051640 -0.002091 1526980.000000 0 0 1
27.755875 10.027195 -6.158921 30.147397 0.346674 1.776538 0.038675 0.006911 1557420.000000 0 0 1
26.551215 9.051795 -6.230121 28.735282 0.328561 1.789343 0.048371 0.015530 71714.500000 0 0 1
26.718615 8.147895 -7.340321 28.881705 0.295994 1.827766 0.045961 0.007685 945643.000000 0 0 1
25.611615 7.236595 -7.496621 27.649999 0.275373 1.845358 0.044055 0.002912 506039.000000 0 0 1
25.739915 6.383095 -8.746221 27.924604 0.243081 1.889366 0.042359 -0.007636 6853.840000 0 0 1
26.514515 5.183695 -8.518721 28.327704 0.193069 1.876244 0.063592 -0.015848 771407.000000 0 0 1
26.391215 4.343695 -9.667321 28.439779 0.163126 1.917631 0.044002 -0.016944 -427365.000000 0 0 1
27.302815 3.114095 -9.692221 29.138985 0.113567 1.909877 0.070929 -0.019712 136459.000000 0 0 1
28.686335 3.277895 -10.004721 30.557239 0.113773 1.904357 0.112314 -0.013115 905897.000000 0 0 1
29.623435 2.974095 -8.997421 31.102198 0.100061 1.864277 0.081455 -0.026645 39515.900000 0 0 1
29.856605 1.419995 -8.684621 31.126450 0.047525 1.853560 0.095213 -0.029820 -587506.000000 0 0 1
28.875035 0.854895 -7.822921 29.928190 0.029598 1.835258 0.101624 -0.028589 629049.000000 0 0 1
29.191355 -0.490205 -7.333021 30.102304 -0.016791 1.816876 0.095128 -0.021888 -316842.000000 0 0 1
29.247835 -1.624405 -8.360621 30.462674 -0.055482 1.848819 0.081229 -0.019476 -585614.000000 0 0 1
30.310685 -1.634305 -9.268121 31.738095 -0.053866 1.867133 0.094683 -0.028734 -101388.000000 0 0 1
30.187935 -2.823805 -10.030821 31.935915 -0.093269 1.890297 0.070042 -0.026280 -61422.300000 0 0 1
31.258395 -3.010905 -11.138521 33.319956 -0.096027 1.911648 0.066887 -0.023617 -638722.000000 0 0 1
32.521435 -3.320205 -10.664421 34.386005 -0.101740 1.886135 0.084647 -0.026918 -424071.000000 0 0 1
33.395255 -3.769105 -11.661021 35.572864 -0.112388 1.904777 0.070230 -0.027738 755012.000000 0 0 1
34.874415 -4.183805 -11.355221 36.914362 -0.119397 1.883476 0.083033 -0.027258 715220.000000 0 0 1
34.918165 -5.447805 -10.723221 36.931616 -0.154769 1.865392 0.072479 -0.024957 500130.000000 0 0 1
-35.625105 -5.807505 -10.468121 37.582666 0.161596 1.853066 0.082001 -0.021076 49176.800000 0 0 1
-35.496470 -7.057005 -9.578221 37.437187 0.196250 1.829521 0.081920 -0.025648 -251441.000000 0 0 1
35.812335 -6.871105 -8.312121 37.400893 -0.189561 1.794912 0.076115 -0.027234 546658.000000 0 0 1
35.494485 -8.138105 -7.725021 37.225840 -0.225383 1.779833 0.070712 -0.027302 -250719.000000 0 0 1
35.178735 -8.093305 -6.222421 36.630090 -0.226128 1.741496 0.075233 -0.026384 -98701.800000 0 0 1
-35.596039 -7.789805 -5.367321 36.831606 0.215443 1.717043 0.081534 -0.032062 826981.000000 0 0 1
-35.625088 -8.467905 -4.083821 36.844673 0.233364 1.681863 0.096114 -0.037366 -656339.000000 0 0 1
-35.232627 -9.962405 -4.144121 36.847812 0.275567 1.683501 0.099958 -0.043238 -720442.000000 0 0 1
35.844095 -10.650805 -5.013821 37.727672 -0.288833 1.704086 0.081153 -0.035374 61752.800000 0 0 1
-35.310247 -11.607805 -5.759421 37.612838 0.317609 1.724525 0.067896 -0.030416 -35837.100000 0 0 1
35.767255 -12.062005 -6.970621 38.384607 -0.325259 1.753409 0.054361 -0.027111 -77060.600000 0 0 1
35.706795 -11.217805 -8.066021 38.286748 -0.304401 1.783061 0.072910 -0.029825 153521.000000 0 0 1
35.304765 -11.954905 -9.185921 38.389157 -0.326501 1.812425 0.057124 -0.025142 -133288.000000 0 0 1
35.484165 -11.098605 -10.454921 38.621372 -0.303137 1.844920 0.038161 -0.032917 -142919.000000 0 0 1
34.673035 -9.955405 -10.562121 37.588400 -0.279601 1.855626 0.039756 -0.026176 268851.000000 0 0 1
34.585385 -9.487505 -11.931921 37.795930 -0.267735 1.891984 0.046952 -0.028948 -292909.000000 0 0 1
33.818995 -8.201305 -12.210421 36.879265 -0.237913 1.908257 0.052336 -0.026949 -332640.000000 0 0 1
33.975275 -7.834405 -13.567521 37.413565 -0.226630 1.941892 0.055435 -0.019686 871603.000000 0 0 1
32.994975 -6.845105 -13.946921 36.469720 -0.204557 1.963215 0.054690 -0.024344 368773.000000 0 0 1
33.305135 -6.005505 -15.177321 37.089745 -0.178401 1.992379 0.046766 -0.023080 156508.000000 0 0 1
34.325555 -5.026005 -14.923121 37.765116 -0.145389 1.977034 0.046565 -0.011822 532214.000000 0 0 1
34.064645 -3.694005 -15.453721 37.588073 -0.108019 1.994494 0.069905 -0.022289 -433910.000000 0 0 1
35.275835 -2.765505 -15.475221 38.620137 -0.078237 1.983081 0.067077 -0.030840 -558422.000000 0 0 1
-35.755787 -3.033205 -16.586421 39.532088 0.084629 2.003766 0.069367 -0.023954 831964.000000 0 0 1
-34.510317 -2.315405 -16.664321 38.393003 0.066993 2.019775 0.067003 -0.019901 613247.000000 0 0 1
-34.497485 -0.774005 -16.526221 38.259528 0.022433 2.017451 0.065053 -0.016605 -802129.000000 0 0 1
-34.891576 -0.111605 -17.735921 39.140738 0.003199 2.041072 0.049700 -0.014573 387556.000000 0 0 1
-34.554098 1.298095 -17.555921 38.779906 -0.037549 2.040595 0.053112 -0.025341 -70793.900000 0 0 1
-34.905546 2.293995 -18.696121 39.663642 -0.065626 2.061636 0.041682 -0.019482 -47746.500000 0 0 1
-34.126327 2.133495 -19.889621 39.556984 -0.062436 2.097642 0.044805 -0.016184 506036.000000 0 0 1
-34.130157 3.332795 -20.638621 40.024090 -0.097341 2.112568 0.033000 -0.014070 -322988.000000 0 0 1
-33.120842 3.252995 -21.798121 39.783542 -0.097902 2.150670 0.030942 -0.002949 -682701.000000 0 0 1
-31.763192 3.306895 -21.483721 38.488780 -0.103737 2.162989 0.038130 -0.007443 -166020.000000 0 0 1
-31.063832 4.073595 -22.465021 38.551692 -0.130392 2.192874 0.042190 0.003444 260593.000000 0 0 1
-29.586632 4.338695 -22.090121 37.177500 -0.145606 2.207042 0.052054 0.005443 499547.000000 0 0 1
-28.742862 3.221695 -21.790721 36.212801 -0.111621 2.216475 0.057792 0.009508 228637.000000 0 0 1
-27.416512 3.554195 -21.473421 35.005788 -0.128918 2.231186 0.036169 0.021782 1560.070000 0 0 1
-26.677872 2.429895 -20.728421 33.871532 -0.090832 2.229348 0.046476 0.010319 -141418.000000 0 0 1
-26.785322 2.451095 -19.332421 33.124067 -0.091255 2.193996 0.045293 0.006847 557190.000000 0 0 1
-25.812432 1.604395 -18.703021 31.916433 -0.062076 2.196910 0.044204 0.005956 -186237.000000 0 0 1
-25.047822 2.207495 -17.570821 30.675726 -0.087904 2.180705 0.047160 -0.004439 -498801.000000 0 0 1
-24.149092 3.234395 -17.890221 30.227470 -0.133142 2.204152 0.048175 0.001490 -38080.400000 0 0 1
-23.456492 3.632095 -16.699521 29.021942 -0.153624 2.183902 0.057330 -0.009127 649708.000000 0 0 1
-22.353892 4.728695 -17.034221 28.499504 -0.208465 2.211428 0.068867 -0.017119 630116.000000 0 0 1
-21.249992 4.233395 -17.746821 28.007739 -0.196644 2.257045 0.089203 -0.021898 615932.000000 0 0 1
-20.071192 5.048695 -17.610421 27.174786 -0.246427 2.275808 0.081097 -0.018036 1290400.000000 0 0 1
-18.752692 4.433095 -18.193921 26.501595 -0.232136 2.327491 0.084785 -0.019714 423941.000000 0 0 1
-18.342892 3.286995 -17.499121 25.563357 -0.177315 2.324768 0.100580 -0.025622 424843.000000 0 0 1
-17.381792 2.503595 -18.234421 25.315781 -0.143052 2.375000 0.073043 -0.022701 -383308.000000 0 0 1
-17.162592 1.045295 -17.827421 24.768208 -0.060830 2.374268 0.065751 -0.026624 370760.000000 0 1 0
-18.107992 0.051395 -18.251021 25.709955 -0.002838 2.360126 0.054898 -0.026845 275214.000000 0 0 1
-19.403492 0.266795 -17.746321 26.296360 -0.013749 2.311569 0.065066 -0.033177 -105992.000000 0 0 1
-20.487092 -0.815305 -18.120421 27.363028 0.039775 2.294578 0.065151 -0.025703 337308.000000 0 0 1
-20.280792 -2.070605 -17.478721 26.853372 0.101744 2.279559 0.045798 -0.022424 -342939.000000 0 0 1
-21.432092 -2.769605 -17.735521 27.956287 0.128515 2.258031 0.059894 -0.008461 -706553.000000 0 0 1
-21.571992 -3.964605 -16.746121 27.595316 0.181757 2.222883 0.063596 -0.014722 -3607.120000 0 0 1
-21.782992 -3.533905 -15.423321 26.923336 0.160831 2.180788 0.058847 -0.020464 169589.000000 0 0 1
-22.166292 -4.602005 -14.613021 26.945562 0.204705 2.143988 0.057260 -0.023542 14520.200000 0 0 1
-22.514692 -4.163505 -13.184621 26.421210 0.182858 2.093260 0.061234 -0.022104 336625.000000 0 0 1
-23.648092 -3.306805 -13.055621 27.214269 0.138933 2.071148 0.061375 -0.028449 595274.000000 0 0 1
-23.833892 -2.877905 -11.720221 26.715170 0.120167 2.024959 0.062814 -0.031802 65965.900000 0 0 1
-24.859092 -1.699005 -11.570021 27.472285 0.068239 2.005512 0.088610 -0.031940 102514.000000 0 0 1
-25.026192 -1.278505 -10.250621 27.074344 0.051042 1.959090 0.085826 -0.038348 411168.000000 0 0 1
-25.715212 -0.059305 -10.216121 27.670287 0.002306 1.948954 0.097777 -0.041348 -356000.000000 0 0 1
-26.183382 0.349495 -8.774221 27.616636 -0.013347 1.894115 0.108235 -0.038097 -437327.000000 0 0 1
-25.143812 0.742595 -7.925521 26.373786 -0.029525 1.876021 0.093123 -0.028481 124824.000000 0 0 1
-25.601762 0.952395 -6.603721 26.456878 -0.037183 1.823067 0.091070 -0.034151 64931.600000 0 0 1
-24.410892 1.279895 -5.672421 25.093946 -0.052383 1.798814 0.065351 -0.023498 18390.800000 0 0 1
-23.978692 2.646995 -5.686121 24.785403 -0.109944 1.802272 0.076887 -0.026862 299061.000000 0 1 0
-22.600092 2.725695 -5.387221 23.392642 -0.120026 1.803178 0.063491 -0.017548 -149566.000000 0 1 0
-22.104092 4.183995 -5.357921 23.125830 -0.187073 1.804606 0.064272 -0.018808 -355042.000000 0 1 0
-22.700792 4.972895 -4.367921 23.646022 -0.215656 1.756584 0.071690 -0.016123 478042.000000 0 1 0
-22.498792 6.323095 -4.667721 23.832012 -0.273974 1.767930 0.081499 -0.015447 -258427.000000 0 1 0
-22.996692 7.375795 -3.625621 24.421206 -0.310368 1.719809 0.076829 -0.017906 187765.000000 0 1 0
-22.237692 7.372195 -2.391021 23.549547 -0.320116 1.672503 0.062060 -0.010117 350177.000000 0 1 0
-21.009192 8.036495 -2.321921 22.613330 -0.365350 1.673657 0.078415 -0.009155 -569425.000000 0 1 0
-20.901492 9.587395 -2.575421 23.139215 -0.430061 1.682329 0.094774 -0.004394 -513349.000000 0 1 0
-20.593392 9.908795 -3.899221 23.183527 -0.448465 1.739789 0.071343 -0.005923 540548.000000 0 1 0
-20.085892 11.208095 -4.161521 23.374830 -0.508971 1.749785 0.085268 0.003191 -598940.000000 0 1 0
-19.853692 11.563895 -5.634121 23.656628 -0.527419 1.811270 0.080429 -0.006853 -676812.000000 0 1 0
-18.687192 11.048995 -6.198621 22.576854 -0.533968 1.848925 0.051697 -0.005209 -159196.000000 0 1 0
-18.611192 11.532495 -7.536321 23.155367 -0.554746 1.902302 0.057150 -0.005882 1039.780000 0 1 0
-17.337692 11.099795 -8.292421 22.193811 -0.569463 1.953723 0.052627 -0.004964 -150708.000000 0 1 0
-17.263692 9.767095 -8.774521 21.689246 -0.514862 1.987290 0.062925 -0.009121 3206.250000 0 1 0
-18.274492 9.278295 -9.627621 22.643650 -0.469803 2.009957 0.071752 -0.005538 -415739.000000 0 1 0
-18.373892 9.842395 -11.068321 23.600431 -0.491777 2.058941 0.094424 -0.013719 197287.000000 0 1 0
-17.264292 9.577295 -11.939521 23.072332 -0.506480 2.114702 0.082346 -0.011780 297377.000000 0 1 0
-17.191292 10.322895 -13.131021 23.969280 -0.540767 2.150561 0.074929 -0.014029 -32256.300000 0 1 0
-15.925992 9.835295 -13.856421 23.288852 -0.553233 2.208038 0.047222 -0.011754 -78315.300000 0 1 0
-16.063192 8.568795 -14.443021 23.239002 -0.490043 2.241451 0.056546 -0.022438 164932.000000 0 1 0
-15.567492 7.503995 -13.631121 22.010547 -0.449168 2.238647 0.038678 -0.015646 -201641.000000 0 1 0
-15.607492 6.167495 -14.410921 22.120272 -0.376329 2.280330 0.044536 -0.016972 -60206.900000 0 1 0
-14.782892 6.096395 -15.565921 22.315864 -0.391146 2.342737 0.064687 -0.012566 481079.000000 0 1 0
-14.930792 4.874495 -16.269321 22.613713 -0.315563 2.373799 0.060495 -0.012077 26111.000000 0 1 0
31.806055 -15.926605 28.357003 45.490675 -0.464240 0.897766 0.025455 0.003185 -85687.300000 0 0 1
30.931525 -14.815605 28.542343 44.619803 -0.446691 0.876716 0.039121 0.003078 6452.920000 0 0 1
29.967345 -14.977905 29.558953 44.677860 -0.463494 0.847843 0.046370 0.005651 58305.200000 0 0 1
30.460945 -14.854105 31.030743 45.950198 -0.453714 0.829408 0.042305 -0.009551 -74491.600000 0 0 1
30.964815 -13.555805 31.327683 46.086911 -0.412646 0.823371 0.039508 -0.016103 -27039.400000 0 0 1
31.106845 -13.539705 32.721541 47.134475 -0.410533 0.803465 0.034856 -0.021570 -434568.000000 0 0 1
31.805085 -12.250505 33.254676 47.618398 -0.367661 0.797696 0.034516 -0.022638 23577.000000 0 0 1
31.850925 -12.221005 -33.986681 48.155258 -0.366371 2.354310 0.015378 -0.029907 156591.000000 0 0 1
32.019995 -10.890605 -33.546751 47.636854 -0.327845 2.352118 0.041745 -0.016612 -304357.000000 0 0 1
31.628055 -10.651805 -32.071141 46.285558 -0.324852 2.336296 0.033591 -0.007126 -782982.000000 0 0 1
30.260725 -10.567105 -31.868911 45.199587 -0.335964 2.353319 0.076548 -0.016291 -628891.000000 0 0 1
29.910895 -10.105605 -30.549701 43.932552 -0.325816 2.339741 0.048959 -0.002063 -1065370.000000 0 0 1
28.474655 -10.313705 -30.153801 42.736755 -0.347508 2.354024 0.064499 0.004634 -990432.000000 0 0 1
28.138665 -10.106005 -28.808021 41.518886 -0.344803 2.337623 0.059692 -0.000294 174476.000000 0 0 1
27.046645 -10.965105 -28.502811 40.794176 -0.385165 2.344372 0.073145 -0.006287 -555547.000000 0 0 1
26.672315 -10.837405 -26.991941 39.464245 -0.385940 2.323973 0.080208 -0.008592 -1223020.000000 0 0 1
25.817215 -9.774705 -26.645211 38.367183 -0.361934 2.338492 0.070010 -0.016072 326882.000000 0 0 1
24.527415 -9.599205 -27.214671 37.873172 -0.373042 2.372546 0.066526 -0.023224 -100243.000000 0 0 1
23.580915 -10.742205 -26.897301 37.348619 -0.427457 2.374842 0.070163 -0.010128 -1591610.000000 0 0 1
23.944715 -11.924505 -27.582761 38.423325 -0.462048 2.371527 0.068089 -0.013622 -1069770.000000 0 0 1
23.114315 -12.978005 -27.417711 38.137004 -0.511607 2.373053 0.072576 -0.022208 -687654.000000 0 0 1
23.688515 -14.168505 -28.160011 39.431948 -0.539034 2.366194 0.066699 -0.006266 3590.080000 0 0 1
23.736015 -14.016605 -29.550011 40.411221 -0.533420 2.390924 0.067940 -0.016187 523879.000000 0 0 1
24.806415 -14.785105 -30.123391 41.729800 -0.537487 2.377294 0.058704 -0.012272 265347.000000 0 0 1
24.929615 -14.751705 -31.691181 42.935177 -0.534320 2.401071 0.071084 -0.016328 110169.000000 0 0 1
23.898915 -15.435305 -32.417511 43.131216 -0.573458 2.421284 0.067396 -0.014048 316633.000000 0 0 1
24.038015 -15.432405 -33.863351 44.302503 -0.570731 2.440855 0.063016 -0.003556 -31608.000000 0 0 1
24.059415 -14.120505 33.985259 43.968648 -0.530733 0.687330 0.041091 -0.013736 410574.000000 0 0 1
22.848815 -13.371805 34.090701 43.163057 -0.529488 0.660294 0.057706 -0.012993 192542.000000 0 0 1
22.918915 -12.180605 33.364930 42.271295 -0.488502 0.661121 0.043447 -0.009616 -441263.000000 0 0 1
21.706015 -11.213605 33.568985 41.518343 -0.476849 0.629140 0.046483 -0.013513 490968.000000 0 0 1
20.423915 -11.728205 33.243346 40.740731 -0.521262 0.616386 0.042859 -0.021191 360927.000000 0 0 1
20.273415 -11.868905 31.788483 39.527079 -0.529646 0.636434 0.027975 -0.002702 1154110.000000 0 0 1
18.776715 -12.382205 31.380033 38.608167 -0.582986 0.621884 0.033757 -0.003903 2538580.000000 0 0 1
17.697615 -11.487805 31.473213 37.891139 -0.575754 0.590573 0.035066 -0.003105 135780.000000 0 0 1
17.168315 -11.422305 32.802516 38.745647 -0.587065 0.561210 0.018249 -0.002622 -404595.000000 0 0 1
16.349615 -10.156805 33.139364 38.323466 -0.555881 0.526188 0.017430 -0.002732 -442073.000000 0 0 1
15.306815 -10.015605 32.179573 37.015347 -0.579408 0.516895 0.026394 0.001739 165707.000000 0 0 1
14.528515 -8.829305 32.364153 36.557801 -0.546078 0.483685 0.033969 -0.002945 289643.000000 0 0 1
13.414315 -8.889805 33.426516 37.098578 -0.585259 0.448684 0.045583 -0.002820 -1608530.000000 0 0 1
12.519115 -9.918105 33.118337 36.768483 -0.669989 0.449358 0.044242 0.005098 -704868.000000 0 0 1
11.366315 -9.887705 33.902499 37.099047 -0.715942 0.418161 0.039762 0.003481 -631889.000000 0 0 1
10.234115 -9.094305 33.262821 35.970249 -0.726496 0.390467 0.056361 0.002411 -1046870.000000 0 0 1
10.574415 -7.715705 33.329036 35.807472 -0.630355 0.374244 0.061502 -0.002571 551991.000000 0 0 1
9.605715 -6.975405 32.585330 34.680395 -0.628076 0.349368 0.054551 0.005354 391945.000000 0 0 1
10.125815 -5.565705 32.327583 34.330480 -0.502578 0.343272 0.045592 0.007743 213056.000000 0 0 1
9.772215 -4.763805 33.451125 35.173396 -0.453585 0.314229 0.021699 0.000312 240411.000000 0 0 1
10.304815 -3.496605 33.250219 34.985605 -0.327127 0.316286 0.011326 0.000293 -306274.000000 0 0 1
10.152315 -2.619805 -34.166860 35.739434 -0.252541 2.843842 0.015416 -0.009926 400823.000000 0 0 1
8.791815 -2.306705 -33.858131 35.056952 -0.256586 2.879321 0.007172 -0.000232 444550.000000 0 0 1
8.539215 -1.621505 -32.624341 33.762332 -0.187655 2.881220 0.000781 -0.005512 -723979.000000 0 0 1
7.048215 -1.454205 -32.440181 33.228863 -0.203467 2.923284 0.002770 -0.004832 -739522.000000 0 0 1
6.505515 -0.318005 -33.139961 33.773952 -0.048844 2.947528 0.020242 -0.002890 -50318.100000 0 0 1
5.174815 -0.057905 -32.759211 33.165463 -0.011189 2.984912 0.028869 0.001290 -53848.600000 0 0 1
4.580015 1.068795 -33.653211 33.980251 0.229258 3.002741 0.032034 -0.008144 -169423.000000 0 0 1
5.293215 2.293395 -33.497711 33.990799 0.408855 2.971054 0.023626 -0.009170 272577.000000 0 0 1
4.750715 3.198395 34.165321 34.642001 0.592543 0.166083 0.033255 -0.008518 37806.400000 0 0 1
5.546615 4.496895 34.105306 34.844783 0.681259 0.206386 0.028714 -0.009335 -217983.000000 0 0 1
5.112915 5.431395 33.172516 34.000850 0.815593 0.221186 0.042996 -0.023718 -403408.000000 0 0 1
6.105615 6.382095 33.004498 34.165869 0.807535 0.261482 0.045891 -0.026520 -492566.000000 0 0 1
5.684515 7.482195 32.038063 33.387639 0.921091 0.285295 0.064093 -0.023884 1070140.000000 0 0 1
4.480015 8.210895 32.459933 33.780713 1.071323 0.280557 0.064902 -0.021844 1182590.000000 0 0 1
4.246215 9.486495 31.926703 33.575859 1.149935 0.314721 0.064545 -0.023560 -169643.000000 0 0 1
3.950315 9.531795 30.403403 32.106495 1.177908 0.327172 0.058692 -0.023395 -137419.000000 0 0 1
2.769515 8.853095 30.021663 31.422091 1.267611 0.299677 0.074360 -0.019386 -206469.000000 0 0 1
2.542915 8.812295 28.612203 30.046317 1.289864 0.310209 0.057373 -0.007582 116795.000000 0 0 1
1.224115 8.177495 28.163633 29.352344 1.422206 0.285567 0.057776 -0.003388 1571140.000000 0 0 1
-0.042885 8.753395 28.620313 29.929018 -1.565897 0.296814 0.060100 -0.004289 1269570.000000 0 0 1
-1.165485 8.324395 27.857073 29.097602 -1.431692 0.293052 0.062403 0.001260 1189860.000000 0 0 1
-2.522985 8.724995 28.528693 29.939561 -1.289307 0.308216 0.058680 0.001014 597578.000000 0 0 1
-2.687485 10.140395 28.744463 30.598927 -1.311725 0.349937 0.062844 -0.000016 919679.000000 0 0 1
-4.067485 10.388395 29.111893 31.176361 -1.197603 0.365959 0.051727 0.003266 915822.000000 0 0 1
-4.439085 11.686295 29.798653 32.314621 -1.207777 0.397216 0.039681 -0.000632 -100179.000000 0 0 1
-4.494985 12.872995 29.102113 32.138013 -1.234853 0.438156 0.039107 -0.000363 727089.000000 0 0 1
-5.620885 12.972195 28.202553 31.547681 -1.161914 0.464678 0.036241 -0.005580 517738.000000 0 0 1
-5.751485 14.360495 27.543593 31.590393 -1.189853 0.511732 0.017974 -0.002726 -116782.000000 0 0 1
-4.674585 14.636695 26.694593 30.800745 -1.261661 0.522275 0.015550 -0.001445 -475599.000000 0 0 1
-4.785185 15.972895 26.316983 31.154694 -1.279723 0.564755 0.017872 -0.002506 -220647.000000 0 0 1
-3.643385 16.560895 25.485773 30.611471 -1.354247 0.587090 0.026543 -0.001892 -412134.000000 0 0 1
-3.609985 16.048395 24.213043 29.272076 -1.349535 0.596740 0.024545 -0.002661 -232323.000000 0 0 1
-2.665385 16.772395 23.468683 28.968890 -1.413199 0.626416 0.024948 0.001402 -88506.600000 0 0 1
-2.615585 16.369495 21.995283 27.542588 -1.412352 0.645845 0.032245 0.006104 -257562.000000 0 0 1
-1.959585 15.154995 21.824683 26.642647 -1.442207 0.610845 0.022938 -0.000087 -252043.000000 0 0 1
-1.711485 15.107395 20.460383 25.490976 -1.457989 0.639068 0.018964 -0.002310 -562795.000000 0 0 1
-0.792885 13.997995 20.072283 24.484058 -1.514214 0.609717 0.020906 -0.006487 -760483.000000 0 1 0
-1.313585 12.708195 20.336283 24.016414 -1.467797 0.560920 0.027419 -0.005769 172191.000000 0 1 0
-0.739085 11.752195 19.446483 22.733808 -1.507990 0.544475 0.026216 -0.008435 -301417.000000 0 1 0
-1.656685 10.557095 19.180783 21.956760 -1.415140 0.508305 0.012570 -0.011987 -824856.000000 0 1 0
-1.659485 9.587095 20.228683 22.446958 -1.399399 0.448319 0.019406 -0.021439 238031.000000 0 1 0
-2.438185 9.815595 21.404583 23.673758 -1.327325 0.441415 0.031544 -0.016051 40889.800000 0 1 0
-3.951785 10.099595 21.241483 23.849927 -1.197828 0.472066 0.030288 -0.014450 -276570.000000 0 1 0
-4.775585 8.967295 21.088783 23.408447 -1.081445 0.448946 0.032354 -0.016808 246979.000000 0 1 0
-6.141385 9.365195 21.021983 23.819053 -0.990378 0.489496 0.039844 -0.012745 544808.000000 0 1 0
-7.188085 8.221595 21.083683 23.744155 -0.852367 0.477922 0.038246 -0.012427 49923.200000 0 1 0
-7.066685 7.400595 22.221783 24.464556 -0.808474 0.431533 0.038882 -0.023751 -39855.800000 0 1 0
-7.906085 6.260195 22.210383 24.392567 -0.669733 0.426210 0.040793 -0.020138 67553.000000 0 1 0
-7.876485 5.276195 23.347183 25.198576 -0.590215 0.385720 0.034806 -0.022180 -178881.000000 0 0 1
-8.410385 5.837195 24.490933 26.544552 -0.606719 0.395938 0.026890 -0.019551 -272715.000000 0 0 1
-8.566085 4.837695 25.462713 27.297085 -0.514097 0.368692 0.027975 -0.006148 -249839.000000 0 0 1
-9.498485 5.330695 26.567763 28.713822 -0.511413 0.389075 0.027092 0.000276 -243907.000000 0 0 1
-9.038085 6.493695 27.244783 29.430142 -0.623022 0.387797 0.025844 0.006705 187214.000000 0 0 1
-10.048585 7.019695 28.104083 30.660882 -0.609769 0.411279 0.030868 0.009588 354530.000000 0 0 1
-9.469385 8.201195 28.916183 31.513085 -0.713753 0.408814 0.035060 0.002019 396598.000000 0 0 1
-8.525185 7.612995 29.823283 31.938452 -0.728935 0.365980 0.037973 -0.000666 1828.520000 0 0 1
-7.950285 8.703795 30.507033 32.705384 -0.830612 0.368737 0.043122 -0.003945 132686.000000 0 0 1
-7.086185 8.395695 31.780653 33.626056 -0.869781 0.332835 0.060520 -0.006612 418932.000000 0 0 1
-5.752785 8.035695 31.466363 32.981797 -0.949476 0.304315 0.059536 -0.005461 -244800.000000 0 0 1
-5.076585 7.671395 32.677018 33.947158 -0.986202 0.274412 0.079165 -0.009007 546679.000000 0 0 1
-3.539585 7.488895 32.493983 33.533135 -1.129272 0.249600 0.056948 -0.001871 425717.000000 0 0 1
-2.984585 8.774695 32.370643 33.671376 -1.242936 0.278860 0.050013 -0.004803 -972033.000000 0 0 1
-1.590585 8.695995 32.260463 33.449780 -1.389886 0.267462 0.055920 -0.009166 -290357.000000 0 0 1
-1.078185 10.111195 31.884533 33.466733 -1.464565 0.308720 0.053025 -0.005556 -93336.400000 0 0 1
-1.134585 11.043495 32.974004 34.792686 -1.468418 0.324758 0.058939 -0.022898 -60903.800000 0 0 1
-1.129585 12.388595 32.422603 34.727200 -1.479868 0.366361 0.060366 -0.020597 -442974.000000 0 0 1
-1.377885 13.466395 33.514637 36.145169 -1.468831 0.383868 0.052164 -0.025052 -103137.000000 0 0 1
-0.191885 13.902095 34.137079 36.859805 -1.556995 0.386768 0.074083 -0.028070 -300501.000000 0 0 1
-0.430785 14.994595 -33.572391 36.771305 -1.542075 2.721387 0.074034 -0.031102 265202.000000 0 0 1
0.957615 15.452095 -33.067901 36.512605 1.508902 2.703723 0.072397 -0.031009 16287.000000 0 0 1
1.659515 16.170795 -34.056671 37.737321 1.468530 2.696258 0.075653 -0.028121 1059520.000000 0 0 1
3.024715 16.396895 -33.642201 37.547366 1.388378 2.681460 0.074443 -0.027204 687628.000000 0 0 1
3.788415 17.292895 34.054108 38.380706 1.355130 0.479401 0.080262 -0.013739 -342198.000000 0 0 1
3.393515 18.642995 34.242013 39.135568 1.390741 0.505445 0.068921 -0.008358 14456.400000 0 0 1
4.195115 19.451695 33.468117 38.936901 1.358381 0.536413 0.050562 0.008516 -180606.000000 0 0 1
3.716915 20.900895 33.611301 39.754024 1.394801 0.563330 0.058507 -0.000242 23131.800000 0 0 1
3.891015 21.429295 -33.678971 40.107702 1.391179 2.567551 0.064974 -0.018229 290040.000000 0 0 1
3.533015 22.801795 -33.603691 40.762876 1.417074 2.539885 0.060725 -0.013473 106737.000000 0 0 1
3.862615 23.280295 -32.137771 39.871396 1.406376 2.508220 0.071360 -0.018713 -27488.600000 0 0 1
3.632115 24.686795 -32.046261 40.615181 1.424717 2.480011 0.080244 -0.026152 260830.000000 0 0 1
3.377915 25.155995 -30.739041 39.863805 1.437316 2.451366 0.074501 -0.020549 -411326.000000 0 0 1
2.755415 26.552095 -30.708201 40.689060 1.467393 2.425999 0.065241 -0.024510 -284173.000000 0 0 1
3.614915 27.658595 -30.863581 41.600794 1.440835 2.406694 0.063083 -0.028933 187984.000000 0 0 1
2.971115 28.860295 -30.503551 42.097633 1.468210 2.381237 0.057675 -0.033007 -163074.000000 0 0 1
4.020015 29.984295 -30.392561 42.882703 1.437520 2.358503 0.060070 -0.044431 282545.000000 0 0 1
5.004215 29.769895 -29.403421 42.140835 1.404257 2.343037 0.069310 -0.054624 48909.000000 0 0 1
5.768415 30.901295 -29.078141 42.821757 1.386248 2.317265 0.082369 -0.062502 -399759.000000 0 0 1
6.810115 30.671395 -27.963731 42.060461 1.352306 2.298084 0.086115 -0.060556 39158.900000 0 0 1
8.023315 30.044395 -28.391511 42.108397 1.309837 2.310743 0.078932 -0.057784 127159.000000 0 0 1
9.221415 30.738195 -28.350681 42.820932 1.279341 2.294381 0.080658 -0.060276 -342030.000000 0 0 1
9.269815 32.042495 -29.235621 44.355072 1.289187 2.290453 0.093443 -0.062959 -1307530.000000 0 0 1
8.563815 33.104995 -28.656631 44.614819 1.317659 2.268307 0.093336 -0.058034 -39599.000000 0 0 1
8.402315 34.297195 -29.402891 45.950260 1.330543 2.265145 0.094947 -0.051569 -248646.000000 0 0 1
7.109615 -34.319226 -30.233961 46.286588 -1.366524 2.282587 0.068254 -0.032264 -228261.000000 0 0 1
7.119815 33.493195 -31.303611 46.393985 1.361339 2.311401 0.058784 -0.035162 294681.000000 0 0 1
5.839015 33.236695 -31.857661 46.407785 1.396891 2.327423 0.037303 -0.026765 -3985.570000 0 0 1
5.935015 32.518195 -33.264691 46.895597 1.390270 2.359351 0.038469 -0.044376 -88497.900000 0 0 1
6.436515 33.260895 34.286065 48.200105 1.379643 0.779411 0.044965 -0.038133 115854.000000 0 0 1
6.560815 32.443095 33.131772 46.832820 1.371262 0.784916 0.035041 -0.026924 -25796.600000 0 0 1
5.769615 33.021495 31.901023 46.275078 1.397819 0.810166 0.031259 -0.015463 468118.000000 0 0 1
6.373715 34.245795 31.490713 46.958106 1.386785 0.835762 0.036009 -0.017637 252768.000000 0 0 1
5.619315 -33.911026 30.462763 45.929450 -1.406581 0.845642 0.026845 -0.018022 -24822.200000 0 0 1
17.889608 -22.201905 29.336073 40.909264 -0.892548 0.771162 0.042523 -0.004129 -387251.000000 0 0 1
17.298808 -20.952205 29.766203 40.302240 -0.880620 0.739843 0.031363 -0.006470 799178.000000 0 0 1
15.899408 -21.098005 30.022103 39.990545 -0.924997 0.721630 0.022171 -0.001930 600931.000000 0 0 1
15.404508 -21.734405 31.321313 41.118219 -0.954214 0.704805 0.027412 -0.017125 -525341.000000 0 0 1
15.822808 -23.085505 31.474453 42.118203 -0.969936 0.726824 0.048249 -0.016568 68108.300000 0 0 1
15.511008 -23.569605 32.766747 43.240923 -0.988752 0.710905 0.057583 -0.016158 -635720.000000 0 0 1
16.486708 -24.530905 33.370073 44.577334 -0.979056 0.724866 0.054503 -0.018792 -720554.000000 0 0 1
16.356908 -25.865715 32.897590 44.931449 -1.006909 0.749290 0.059611 -0.021102 -85384.000000 0 0 1
17.096608 -26.677475 33.758513 46.299233 -1.000871 0.753735 0.060198 -0.017316 -204208.000000 0 0 1
16.758308 -28.188215 33.599819 46.950657 -1.034420 0.773255 0.043279 -0.011600 -382273.000000 0 0 1
17.299208 -28.863295 32.537563 46.808605 -1.030855 0.802211 0.037511 -0.013998 -97785.900000 0 0 1
16.693108 -30.097775 32.259893 47.172414 -1.064406 0.817740 0.035213 -0.011166 -523565.000000 0 0 1
17.532008 -30.784855 31.170693 47.187824 -1.053104 0.849223 0.042541 -0.013136 672910.000000 0 0 1
18.702908 -31.470915 31.643203 48.389148 -1.034585 0.858026 0.025003 -0.011113 721094.000000 0 0 1
19.414808 -32.123875 30.577603 48.413510 -1.027167 0.887191 0.016718 -0.010009 405354.000000 0 0 1
20.880208 -32.454665 30.978923 49.487191 -0.999099 0.894385 0.017912 -0.010573 465194.000000 0 0 1
21.857208 -31.439945 30.804863 49.144148 -0.963296 0.893323 0.027288 -0.005382 -697366.000000 0 0 1
23.067308 -31.846715 31.297933 50.258080 -0.943932 0.898551 0.011543 -0.005060 -1521150.000000 0 0 1
24.184508 -30.826205 31.213023 50.093894 -0.905551 0.898109 0.014272 -0.007137 -358869.000000 0 0 1
24.996208 -31.007725 30.057123 49.897095 -0.892330 0.924314 0.018969 -0.009531 -533937.000000 0 0 1
25.583608 -29.781345 29.740003 49.253602 -0.861073 0.922519 0.018036 -0.011595 -524517.000000 0 0 1
26.770908 -29.931255 28.786523 49.408759 -0.841076 0.948848 0.012250 -0.011989 -446412.000000 0 0 1
27.784908 -30.668655 29.421313 50.775794 -0.834692 0.952760 0.000628 -0.010916 -1148520.000000 0 0 1
28.889608 -30.835265 28.624653 51.037181 -0.817964 0.975374 0.004926 -0.016537 -800833.000000 0 0 1
29.852908 -31.815855 29.291833 52.549560 -0.817218 0.979529 -0.015805 -0.021994 -600160.000000 0 0 1
29.217908 -33.038435 29.433753 53.024242 -0.846689 0.982313 -0.023753 -0.020283 105645.000000 0 0 1
30.071608 -34.059267 29.959843 54.423593 -0.847498 0.987841 -0.016100 -0.011443 -553458.000000 0 0 1
29.274108 33.451717 30.542883 53.933835 0.851901 0.968783 -0.024712 -0.011174 57174.500000 0 0 1
28.436208 33.704228 31.677863 54.296224 0.869972 0.947855 -0.010454 -0.004447 196061.000000 0 0 1
27.473408 -33.993345 31.725063 54.007549 -0.891076 0.942930 -0.021944 0.008739 -332780.000000 0 0 1
26.257008 -34.278793 30.775633 53.024577 -0.917144 0.951573 -0.006672 0.001664 -422248.000000 0 0 1
25.575408 33.286039 31.257153 52.336140 0.915653 0.930743 0.002360 -0.006014 -36855.800000 0 0 1
24.548108 32.908009 30.351353 51.056355 0.929885 0.934193 -0.010510 -0.003857 449754.000000 0 0 1
23.973108 31.481835 30.628683 50.039306 0.919982 0.912092 -0.001478 -0.014172 86301.800000 0 0 1
24.445308 30.577165 29.698813 49.138128 0.896383 0.921791 -0.004745 -0.008850 123792.000000 0 0 1
23.615408 29.446135 29.784553 48.082034 0.894845 0.902751 0.020757 -0.022192 -134123.000000 0 0 1
23.108408 29.095295 28.386673 46.758293 0.899583 0.918398 0.028513 -0.023766 -64095.400000 0 0 1
22.066008 29.964365 27.948583 46.539179 0.936051 0.926622 0.048958 -0.027391 233171.000000 0 0 1
21.447608 29.455925 26.794613 45.228340 0.941443 0.936725 0.051548 -0.024306 -387558.000000 0 0 1
20.052508 29.962175 26.444793 44.711991 0.981000 0.937944 0.074931 -0.027278 -402043.000000 0 0 1
19.982808 31.328145 26.043253 45.376385 1.003006 0.959489 0.068849 -0.033043 -253692.000000 0 0 1
18.706808 31.718635 25.583313 44.838849 1.037930 0.963607 0.069129 -0.028334 -522804.000000 0 0 1
18.615008 33.130232 24.922973 45.445411 1.058883 0.990328 0.075341 -0.025617 -651105.000000 0 0 1
19.251008 33.345459 23.744073 45.236070 1.047220 1.018208 0.070198 -0.019663 -19395.900000 0 0 1
20.610108 33.740651 23.848373 46.173077 1.022445 1.028038 0.063011 -0.007609 118063.000000 0 0 1
21.437208 33.750319 22.561883 45.909438 1.004917 1.057050 0.065397 -0.012817 -197983.000000 0 0 1
21.033408 -33.974795 21.645883 45.444859 -1.016459 1.074342 0.071173 0.000398 444980.000000 0 0 1
21.526708 -34.232783 20.277083 45.237625 -1.009445 1.106007 0.075722 -0.003192 233588.000000 0 0 1
21.062908 -33.112285 19.317183 43.740406 -1.004251 1.113379 0.058255 0.003705 -81739.900000 0 0 1
21.432808 -31.841805 19.743083 43.163123 -0.978351 1.095720 0.060138 0.011537 -22102.000000 0 0 1
20.676508 -30.787355 19.202783 41.762736 -0.979392 1.093019 0.062546 -0.006139 -310812.000000 0 0 1
21.306108 -30.004625 18.026883 40.977998 -0.953328 1.115291 0.056632 -0.014384 -263450.000000 0 0 1
21.531308 -30.777705 16.858783 41.171385 -0.960356 1.148914 0.052978 -0.004329 335339.000000 0 0 1
22.167408 -29.995745 15.864783 40.531840 -0.934361 1.168627 0.051414 -0.006991 -304047.000000 0 0 1
21.921808 -30.464285 14.398083 40.198796 -0.947043 1.204487 0.048658 -0.025214 -360699.000000 0 0 1
22.666508 -31.593835 14.000083 41.327271 -0.948465 1.225196 0.065759 -0.019090 58980.700000 0 0 1
22.533608 -31.965465 12.584783 41.084440 -0.956765 1.259477 0.066164 -0.030531 -262859.000000 0 0 1
21.133108 -32.147395 11.963883 40.288929 -0.989249 1.269297 0.065472 -0.025964 161215.000000 0 0 1
20.326708 -33.154225 12.594283 40.877790 -1.020803 1.257605 0.065903 -0.034957 -196604.000000 0 0 1
19.102108 -33.381235 11.936883 40.270170 -1.051038 1.269854 0.058971 -0.027885 -224394.000000 0 0 1
18.062308 -33.993765 12.886483 40.594144 -1.082391 1.247760 0.039181 -0.017544 -335225.000000 0 0 1
17.716408 -33.252325 14.064383 40.216851 -1.081264 1.213531 0.036584 -0.011384 472433.000000 0 0 1
18.636008 -33.576175 15.110583 41.267300 -1.064094 1.195913 0.032811 -0.010087 -540915.000000 0 0 1
18.578208 -32.470485 16.231683 40.779281 -1.051101 1.161420 0.038873 -0.007787 581315.000000 0 0 1
17.277708 -32.262225 16.783183 40.262211 -1.079123 1.140822 0.035895 -0.014630 523317.000000 0 0 1
16.434708 -33.295495 17.279583 40.954531 -1.112281 1.135233 0.028916 -0.014125 -794047.000000 0 0 1
16.825408 -34.143274 18.514983 42.328030 -1.112935 1.118072 0.024912 -0.020064 293020.000000 0 0 1
17.686308 33.412187 18.291783 41.997251 1.083955 1.120150 0.023171 -0.017322 632209.000000 0 0 1
17.981308 32.754437 19.554383 42.172912 1.068742 1.088662 0.026591 -0.013663 145667.000000 0 0 1
18.708408 31.409105 19.412683 41.393100 1.033591 1.082657 0.049894 -0.017724 490124.000000 0 0 1
17.842408 30.280615 19.283583 40.088948 1.038330 1.068979 0.042650 -0.021007 284653.000000 0 0 1
18.687308 29.172915 19.108883 39.565438 1.001079 1.066754 0.051547 -0.020405 507695.000000 0 0 1
17.823608 27.908455 18.864883 38.110979 1.002445 1.052963 0.062758 -0.029287 399312.000000 0 0 1
17.248208 27.302605 20.024583 37.998906 1.007363 1.015756 0.077880 -0.034477 43061.700000 0 0 1
17.024208 25.939995 19.752583 36.781402 0.990011 1.003888 0.053597 -0.036813 -735233.000000 0 0 1
16.904608 25.105595 21.121783 36.907810 0.978188 0.961507 0.054259 -0.035081 701787.000000 0 0 1
15.635008 25.114765 21.794083 36.744891 1.013966 0.935869 0.065066 -0.034402 368558.000000 0 0 1
14.642208 24.311005 21.208483 35.429070 1.028697 0.929021 0.060139 -0.027276 -163947.000000 0 0 1
13.283608 24.591485 21.914683 35.516880 1.075531 0.905844 0.064349 -0.039509 -292556.000000 0 0 1
12.721608 25.771575 21.453783 35.864721 1.112258 0.929560 0.057537 -0.035560 -376000.000000 0 0 1
11.554708 26.109865 22.171883 36.150087 1.154162 0.910528 0.035718 -0.033885 37904.200000 0 0 1
10.692308 27.211665 21.496683 36.289221 1.196399 0.936798 0.015745 -0.029832 -217874.000000 0 0 1
11.158308 28.517365 21.677783 37.518985 1.197829 0.954788 0.017932 -0.031349 -106623.000000 0 0 1
10.764408 29.350525 20.578883 37.427480 1.219275 0.988631 0.017417 -0.027773 -117175.000000 0 0 1
11.274108 30.801965 20.611483 38.738867 1.219922 1.009762 0.017090 -0.024701 -425086.000000 0 0 1
10.791708 31.685605 21.614683 39.845114 1.242532 0.997425 0.026981 -0.026210 -828586.000000 0 0 1
11.388908 31.643295 22.866083 40.667716 1.225316 0.973673 0.011996 -0.024506 -323770.000000 0 0 1
10.727008 32.557255 23.956573 41.820581 1.252517 0.960828 -0.001453 -0.019237 7756.530000 0 0 1
9.365908 32.249925 24.144263 41.360892 1.288155 0.947461 0.012379 -0.023160 -342468.000000 0 0 1
9.117808 32.658545 25.481293 42.414753 1.298543 0.926339 0.005031 -0.005489 -532973.000000 0 0 1
7.787808 32.214895 26.122613 42.200004 1.333602 0.903303 0.047099 -0.014772 286408.000000 0 0 1
6.607908 32.874499 25.645723 42.214930 1.372436 0.917882 0.041519 -0.014465 702682.000000 0 0 1
6.049508 32.451815 24.393923 41.046076 1.386497 0.934394 0.038764 -0.029019 -249376.000000 0 0 1
5.094908 31.242825 24.434683 39.989073 1.409145 0.913430 0.037266 -0.030095 -479251.000000 0 0 1
5.750908 30.132185 24.963683 39.550057 1.382208 0.887707 0.012522 -0.014979 -476124.000000 0 0 1
5.251608 28.865675 24.562303 38.263734 1.390832 0.873795 0.012413 -0.016186 -453671.000000 0 0 1
6.320208 27.734045 24.870063 37.784155 1.346736 0.852352 -0.003719 -0.014107 725853.000000 0 0 1
7.397308 27.652725 23.924213 37.306318 1.309409 0.874616 -0.007498 -0.011472 546639.000000 0 0 1
8.359508 28.688825 23.962453 38.303123 1.287261 0.894895 0.006500 -0.013305 -460225.000000 0 0 1
9.579408 28.457505 24.897093 39.005896 1.246089 0.878521 0.002925 -0.020506 -545983.000000 0 0 1
9.151808 28.182615 26.228063 39.571792 1.256806 0.846248 -0.002664 -0.014709 594857.000000 0 0 1
10.235508 28.047195 27.163813 40.364385 1.220876 0.832586 0.011300 -0.004238 419006.000000 0 0 1
11.203608 29.230105 27.360053 41.575142 1.204778 0.852521 0.011717 -0.005579 -143420.000000 0 0 1
10.611208 30.303455 28.090463 42.661121 1.233975 0.852031 0.001134 -0.009664 929403.000000 0 0 1
11.580608 31.365775 28.197663 43.738205 1.217110 0.870176 -0.008712 -0.001529 319286.000000 0 0 1
11.135708 32.343995 29.202303 44.976800 1.239218 0.864166 -0.005715 -0.007121 -192394.000000 0 0 1
11.287508 32.001475 30.598203 45.691928 1.231702 0.837041 0.004069 -0.026423 1046650.000000 0 0 1
10.062508 31.472375 31.166183 45.421311 1.261343 0.814602 0.013729 -0.014614 639994.000000 0 0 1
10.156408 31.465795 32.707646 46.508483 1.258577 0.790821 0.041610 -0.025458 -333913.000000 0 0 1
10.439408 30.232555 33.318406 46.185548 1.238312 0.764970 0.026411 -0.029044 -142868.000000 0 0 1
10.786608 30.446445 -33.953231 46.863192 1.230312 2.381131 0.055847 -0.033876 -251477.000000 0 0 1
11.002808 29.083165 -33.267631 45.537101 1.209116 2.389940 0.049018 -0.034921 -406563.000000 0 0 1
12.170108 28.463495 -33.744151 45.792464 1.166752 2.399259 0.047794 -0.020811 -129319.000000 0 0 1
12.041808 27.054175 -33.549511 44.749337 1.152025 2.418436 0.042858 -0.028001 115923.000000 0 0 1
13.329908 26.278105 -33.925841 44.935375 1.101355 2.426438 0.054597 -0.023377 41283.800000 0 0 1
13.252008 24.879325 -33.859151 44.057220 1.081370 2.447332 0.026655 -0.015653 -250194.000000 0 0 1
13.307508 24.407545 -32.547111 42.803416 1.071630 2.434703 0.019479 -0.014100 -296174.000000 0 0 1
13.286008 22.877315 -32.351041 41.790901 1.044651 2.456115 0.016019 -0.029673 582750.000000 0 0 1
14.438108 22.198515 -32.908991 42.240202 0.994134 2.464012 0.003973 -0.013072 806331.000000 0 0 1
14.330608 20.786815 -32.803451 41.394739 0.967214 2.485619 0.004741 -0.004578 76087.300000 0 0 1
15.634808 20.170915 -33.351061 41.995313 0.911414 2.488423 0.019541 -0.008288 359806.000000 0 0 1
16.784508 20.374115 -32.552481 41.910479 0.881702 2.460229 0.027961 -0.017840 -452631.000000 0 0 1
17.926808 19.782015 -33.055901 42.489895 0.834557 2.462226 0.040110 -0.019757 -160089.000000 0 0 1
19.185908 20.023815 -32.151131 42.458773 0.806765 2.429861 0.027908 -0.017584 179128.000000 0 0 1
19.692308 21.318315 -32.353801 43.462926 0.825026 2.410432 0.016473 -0.018393 -399258.000000 0 0 1
20.712508 21.673115 -31.472571 43.465557 0.808058 2.380497 0.012645 -0.010373 -222714.000000 0 0 1
20.199708 22.026515 -30.077511 42.401087 0.828634 2.359382 0.010276 -0.014198 -91667.800000 0 0 1
19.446808 23.203515 -30.141621 42.721175 0.873253 2.353985 0.004857 -0.005040 -292293.000000 0 0 1
18.865708 23.673605 -28.946911 41.884104 0.897943 2.333833 0.009598 -0.002007 -606208.000000 0 0 1
19.787808 24.121315 -27.772621 41.769770 0.883772 2.298153 0.011565 -0.002354 155197.000000 0 0 1
20.580208 25.291675 -28.085721 43.035119 0.887749 2.281838 0.016862 -0.001261 230841.000000 0 0 1
19.867508 26.480235 -28.408991 43.623291 0.927118 2.280006 0.014722 0.003996 -997241.000000 0 0 1
20.746508 27.451615 -29.194051 45.125396 0.923627 2.274379 0.012611 0.003144 -424808.000000 0 0 1
21.056908 27.221635 -30.551231 46.019436 0.912402 2.296787 0.010721 -0.002620 268137.000000 0 0 1
21.805508 26.032205 -30.889471 45.905504 0.873524 2.308908 0.011954 -0.007781 221468.000000 0 0 1
23.280408 25.907655 -30.442961 46.259678 0.838760 2.289073 0.023899 -0.009570 -311393.000000 0 0 1
24.109908 26.946635 -30.885521 47.553383 0.840902 2.277712 0.023171 -0.011316 138388.000000 0 0 1
25.468308 26.669135 -30.567451 47.898294 0.808426 2.262921 0.029358 -0.022140 -294650.000000 0 0 1
26.457108 27.718425 -30.986061 49.279059 0.808676 2.250789 0.032958 -0.014368 -766070.000000 0 0 1
26.522608 28.845645 -30.200291 49.472998 0.827330 2.227412 0.030782 -0.006974 195456.000000 0 0 1
27.391408 29.815885 -30.797981 50.870344 0.827753 2.221091 0.027299 -0.004700 333848.000000 0 0 1
27.678408 31.026795 -29.880441 51.201533 0.842374 2.193933 0.024194 0.005520 13635.900000 0 0 1
28.346108 30.785435 -28.678571 50.731699 0.826627 2.171592 0.045396 -0.005619 659051.000000 0 0 1
27.571208 31.372365 -27.581291 50.051218 0.849797 2.154432 0.034981 0.006104 512425.000000 0 0 1
28.159708 31.030445 -26.185471 49.411907 0.833860 2.129329 0.053187 0.006840 -282272.000000 0 0 1
28.083408 29.654395 -25.773411 48.294199 0.812600 2.133737 0.047241 0.019578 12027.100000 0 0 1
26.818008 29.109545 -25.466411 47.064947 0.826349 2.142530 0.041634 0.018921 -122460.000000 0 0 1
26.355008 29.377615 -23.999021 46.190732 0.839579 2.117136 0.043190 0.020285 -117802.000000 0 0 1
26.136908 30.782995 -23.724721 46.835810 0.866843 2.101976 0.043382 0.021576 210866.000000 0 0 1
25.455108 30.883035 -22.490921 45.908233 0.881447 2.082783 0.045326 0.023962 152571.000000 0 0 1
3.244608 -26.252115 -19.370621 32.786003 -1.447826 2.202871 0.053750 0.006032 -216785.000000 0 0 1
2.984608 -27.548165 -18.724621 33.442798 -1.462876 2.165061 0.044280 0.010474 98549.900000 0 0 1
2.851408 -27.418135 -17.318421 32.554760 -1.467172 2.131731 0.044462 0.005170 -142809.000000 0 0 1
2.818008 -28.739205 -16.483421 33.250357 -1.473054 2.089479 0.034476 0.010545 -323408.000000 0 0 1
4.084708 -29.187045 -16.095721 33.580362 -1.431750 2.070675 0.033594 0.004196 -560453.000000 0 0 1
4.138408 -29.939915 -14.868921 33.683969 -1.433443 2.027982 0.030240 0.001002 692870.000000 0 0 1
5.528708 -30.531835 -14.446621 34.226663 -1.391657 2.006542 0.047015 -0.002021 840994.000000 0 0 1
6.538508 -29.616595 -14.043221 33.423148 -1.353510 2.004423 0.039921 0.008113 498558.000000 0 0 1
7.827508 -30.182605 -13.804021 34.100008 -1.317048 1.987567 0.043408 0.007516 637234.000000 0 0 1
7.942908 -30.884615 -12.399421 34.215419 -1.319071 1.941630 0.043170 -0.005632 -802862.000000 0 0 1
8.165708 -29.991065 -11.302321 33.073936 -1.304969 1.919552 0.035436 -0.007638 -19737.300000 0 0 1
8.403608 -30.733425 -10.074521 33.416463 -1.303885 1.877045 0.047981 -0.004982 451353.000000 0 0 1
9.622908 -31.680125 -9.850021 34.543503 -1.275901 1.859957 0.052668 -0.008966 254319.000000 0 0 1
10.871208 -31.050715 -9.694421 34.297403 -1.234022 1.857360 0.043070 -0.004617 370542.000000 0 0 1
11.901308 -32.010195 -9.382421 35.416431 -1.214836 1.838914 0.040947 -0.005661 1005530.000000 0 0 1
13.124908 -31.427045 -8.603321 35.127475 -1.175184 1.818231 0.043289 -0.010025 650721.000000 0 0 1
13.986808 -30.496585 -9.283421 34.811699 -1.140785 1.840738 0.036656 -0.014660 707441.000000 0 0 1
15.126908 -30.209975 -8.482221 34.834093 -1.106568 1.816773 0.035390 -0.015330 830032.000000 0 0 1
16.270308 -29.432445 -9.261921 34.882301 -1.065805 1.839539 0.058808 -0.028628 616565.000000 0 0 1
16.037408 -28.046845 -9.453321 33.662877 -1.051364 1.855448 0.055495 -0.022101 385040.000000 0 0 1
15.281308 -27.751085 -10.658221 33.425122 -1.067449 1.895332 0.044521 -0.013991 308736.000000 0 0 1
15.001708 -26.248135 -10.966821 32.160333 -1.051571 1.918782 0.038091 -0.004719 366337.000000 0 0 1
13.912708 -25.745315 -10.137421 30.970179 -1.075355 1.904271 0.020327 -0.000600 1059320.000000 0 0 1
13.357408 -24.483105 -10.523221 29.809075 -1.071356 1.931594 0.017803 0.011030 497288.000000 0 0 1
12.754208 -24.245205 -11.966621 29.894813 -1.086526 1.982631 0.000833 0.015341 497678.000000 0 0 1
13.793508 -24.255005 -12.964821 30.767722 -1.053719 2.005760 0.008690 0.010461 368537.000000 0 0 1
13.217108 -24.017805 -14.228521 30.886854 -1.067719 2.049542 0.013374 0.007910 176151.000000 0 0 1
14.174808 -23.272105 -15.201421 31.202552 -1.023720 2.079660 0.029114 0.003071 499641.000000 0 0 1
15.116508 -24.132005 -15.846221 32.587808 -1.011184 2.078603 0.039349 -0.003250 272700.000000 0 0 1
15.749108 -23.541005 -16.988221 33.027458 -0.981175 2.111065 0.050453 -0.012046 -835147.000000 0 0 1
16.762108 -24.483405 -17.632821 34.515529 -0.970459 2.106989 0.054105 -0.013854 -108420.000000 0 0 1
18.008608 -24.711305 -17.028421 34.998938 -0.941028 2.078923 0.074950 -0.012941 -63130.300000 0 0 1
18.921808 -23.638905 -17.202421 34.824646 -0.895780 2.087449 0.078546 -0.015508 -654260.000000 0 0 1
20.373408 -23.935505 -16.761121 35.621894 -0.865618 2.060686 0.065849 -0.010825 223832.000000 0 0 1
21.024308 -24.865005 -17.613121 37.020427 -0.868898 2.066633 0.075354 -0.007000 536865.000000 0 0 1
22.345108 -25.153135 -17.130221 37.754848 -0.844448 2.041734 0.084334 0.001229 936246.000000 0 0 1
23.079308 -26.340725 -17.816521 39.292705 -0.851296 2.041407 0.052312 -0.001772 -330093.000000 0 0 1
23.636908 -25.978795 -19.017721 39.940893 -0.832564 2.067064 0.044299 0.000895 -375848.000000 0 0 1
23.758708 -27.052005 -19.907221 41.141034 -0.850123 2.075876 0.034795 -0.011914 -1012060.000000 0 0 1
24.816608 -26.875335 -20.971921 42.165971 -0.825204 2.091356 0.025595 -0.003142 -454330.000000 0 0 1
24.588708 -25.722795 -21.752621 41.706633 -0.807936 2.119478 0.029165 -0.002746 66031.600000 0 0 1
25.274908 -24.580105 -21.211421 41.145193 -0.771463 2.112418 0.029699 0.003210 39487.600000 0 0 1
24.537208 -23.186705 -21.432621 39.988187 -0.757107 2.136457 0.046107 0.008609 39066.000000 0 0 1
24.631308 -22.500605 -22.677121 40.338944 -0.740222 2.167797 0.038664 0.014767 788728.000000 0 0 1
23.825508 -23.142105 -23.756221 40.835890 -0.770849 2.191673 0.026853 0.008665 865194.000000 0 0 1
23.022808 -22.085505 -24.613721 40.294596 -0.764622 2.227923 0.032092 0.010832 114614.000000 0 0 1
23.775008 -21.487005 -25.629261 41.034149 -0.734891 2.245395 0.020445 0.011696 109002.000000 0 0 1
23.078008 -20.389205 -26.228191 40.450366 -0.723619 2.276283 0.020985 0.018370 -44701.100000 0 0 1
23.630008 -19.927905 -27.628361 41.458714 -0.700609 2.300175 0.022707 0.011877 -153948.000000 0 0 1
22.839008 -19.026705 -28.355461 41.081236 -0.694588 2.332602 0.029089 0.007246 -343751.000000 0 0 1
23.436808 -18.654805 -29.534231 42.066097 -0.672274 2.349126 0.036899 -0.001275 -336319.000000 0 0 1
22.623208 -17.694705 -30.447271 41.856283 -0.663761 2.385357 0.065749 -0.005775 367872.000000 0 0 1
21.289808 -18.142305 -30.690731 41.524934 -0.705746 2.402517 0.060142 -0.007422 1033180.000000 0 0 1
20.455908 -17.165305 -31.357331 41.187062 -0.698154 2.436173 0.065237 -0.010955 239821.000000 0 0 1
19.194408 -17.776505 -31.942861 41.288931 -0.747065 2.455366 0.044680 -0.009477 -463510.000000 0 0 1
19.519408 -18.514705 -33.125551 42.674392 -0.758988 2.459475 0.046552 -0.009437 -450093.000000 0 0 1
18.439408 -18.951505 -33.853371 42.956048 -0.799093 2.478502 0.047472 -0.016110 -1007710.000000 0 0 1
18.793308 -19.696505 33.475891 43.148303 -0.808860 0.682762 0.051019 -0.014054 -9334.450000 0 0 1
19.577508 -20.844505 33.786753 44.264172 -0.816732 0.702394 0.051366 -0.012197 78361.100000 0 0 1
19.717908 -21.739005 32.712759 43.948889 -0.834111 0.731256 0.047701 -0.016350 46687.700000 0 0 1
20.355908 -23.138605 33.039778 45.181689 -0.849289 0.750622 0.038342 -0.008205 -44781.400000 0 0 1
19.689708 -23.941905 33.994248 46.005525 -0.882548 0.739335 0.043427 -0.012337 -128703.000000 0 0 1
19.804008 -23.559805 -33.287631 45.335742 -0.871794 2.395353 0.046543 -0.015187 -380441.000000 0 0 1
18.874908 -24.368005 -32.375251 44.701439 -0.911750 2.380750 0.051382 -0.016612 -484142.000000 0 0 1
19.088008 -25.735535 -32.212341 45.434620 -0.932629 2.358850 0.041703 -0.019737 -136226.000000 0 0 1
20.225108 -26.003275 -31.421551 45.525149 -0.909745 2.332565 0.035378 -0.020019 -1231.700000 0 0 1
20.548008 -27.533875 -31.280761 46.463113 -0.929680 2.309376 0.022337 -0.020446 142799.000000 0 0 1
19.561508 -28.227135 -30.532021 45.952454 -0.964781 2.297522 0.012937 -0.025069 93742.400000 0 0 1
19.830908 -29.601915 -30.533691 46.923817 -0.980545 2.279312 0.010075 -0.013565 623852.000000 0 0 1
18.553108 -30.460705 -30.140751 46.696223 -1.023725 2.272428 0.026243 -0.015046 628818.000000 0 0 1
17.447208 -30.522775 -30.980731 46.859903 -1.051511 2.293127 0.030079 -0.024316 -516521.000000 0 0 1
17.671608 -31.141725 -32.216831 48.166554 -1.054649 2.303475 0.030108 -0.024535 -1053030.000000 0 0 1
16.452008 -31.812605 -32.826531 48.582832 -1.093520 2.312685 0.051641 -0.038045 -269776.000000 0 0 1
15.407308 -30.934865 -33.207931 47.928256 -1.108705 2.336255 0.066991 -0.029676 -172336.000000 0 0 1
14.316508 -31.724625 -33.620921 48.391947 -1.146883 2.338886 0.062767 -0.025184 451900.000000 0 0 1
13.088308 -30.980005 -34.270639 48.016052 -1.171065 2.365610 0.070246 -0.013641 297403.000000 0 0 1
12.474708 -30.180415 -33.372491 46.692601 -1.178845 2.367031 0.085426 -0.020056 -384648.000000 0 0 1
11.584308 -29.308235 -34.093009 46.427385 -1.194385 2.395475 0.072498 -0.011159 64847.200000 0 0 1
10.622808 -28.528005 -33.200811 45.044256 -1.214338 2.399522 0.084188 -0.019824 64208.800000 0 0 1
9.551108 -29.359055 -32.758011 45.014054 -1.256274 2.385801 0.082844 -0.007234 341397.000000 0 0 1
8.550908 -28.514345 -32.163921 43.825834 -1.279449 2.394847 0.061813 -0.007426 860235.000000 0 0 1
7.416008 -29.349345 -31.469271 43.665733 -1.323296 2.375587 0.040895 -0.008068 646713.000000 0 0 1
6.431208 -30.035745 -32.279041 44.558309 -1.359863 2.380993 0.032636 -0.007102 272088.000000 0 0 1
6.643108 -31.351125 -32.790721 45.850358 -1.361991 2.367661 0.036501 -0.004122 -624265.000000 0 0 1
5.356108 -32.035305 -33.248541 46.480255 -1.405135 2.367887 0.057912 -0.027818 -313297.000000 0 0 1
4.570508 -32.302285 -32.105771 45.772346 -1.430238 2.348188 0.067140 -0.039186 -138405.000000 0 0 1
3.344808 -32.897705 -32.479231 46.350266 -1.469472 2.347223 0.062581 -0.059871 -582511.000000 0 0 1
2.345808 -33.057405 -31.310691 45.592260 -1.499953 2.327811 0.052850 -0.057159 424370.000000 0 0 1
1.518608 -31.978455 -30.836461 44.450141 -1.523343 2.337453 0.020290 -0.044877 -177583.000000 0 0 1
0.423208 -31.736195 -31.650871 44.823463 -1.557462 2.354804 0.007132 -0.007386 -843348.000000 0 0 1
-0.409192 -30.554775 -31.058871 43.570806 1.557405 2.364331 -0.000412 0.001514 -262390.000000 0 0 1
-1.084592 -30.855855 -29.892031 42.974337 1.535661 2.340021 -0.008607 -0.006680 -308581.000000 0 0 1
-1.860092 -29.783695 -29.426081 41.909697 1.508424 2.349182 0.014620 -0.007142 -59646.400000 0 0 1
-2.389692 -29.927555 -27.978121 41.038329 1.491116 2.320956 0.023710 -0.007420 353056.000000 0 0 1
-1.392192 -30.046415 -26.944761 40.382489 1.524495 2.301292 0.013131 -0.000538 409133.000000 0 0 1
-2.033792 -30.225405 -25.676591 39.711443 1.503610 2.273888 0.021602 -0.009774 271202.000000 0 0 1
-1.015392 -30.468755 -24.559721 39.147873 1.537483 2.248952 0.011643 -0.003673 -344515.000000 0 0 1
-1.569892 -30.457705 -23.270521 38.362136 1.519299 2.222575 0.033448 -0.010669 492324.000000 0 0 1
-0.607692 -30.995255 -22.330121 38.206144 1.551193 2.195016 0.024295 -0.002025 930156.000000 0 0 1
-1.256892 -30.987505 -20.874221 37.383664 1.530257 2.163226 -0.008366 0.007986 448804.000000 0 0 1
-1.505192 -29.644985 -20.305321 35.963826 1.520066 2.170750 -0.004117 0.009704 37610.500000 0 0 1
-0.305192 -29.103535 -19.803021 35.203246 1.560310 2.168244 0.017264 0.003982 -465938.000000 0 0 1
-0.368092 -27.620835 -19.303921 33.699961 1.557471 2.180735 0.027360 -0.008147 284713.000000 0 0 1
-1.259192 -27.499095 -18.173821 32.985960 1.525038 2.154306 0.022476 -0.011049 462215.000000 0 0 1
-1.056992 -26.223025 -17.635021 31.618954 1.530510 2.162452 0.025903 -0.006275 85171.900000 0 0 1
-1.879992 -25.955025 -16.353321 30.734814 1.498490 2.131849 0.016757 -0.007925 -275215.000000 0 0 1
-1.844892 -24.735105 -15.699721 29.354902 1.496348 2.135096 0.018011 -0.004303 -117368.000000 0 0 1
-2.720092 -24.753405 -14.599421 28.866469 1.461348 2.101056 0.011015 -0.003628 -205838.000000 0 0 1
-2.436792 -23.710305 -13.542121 27.413602 1.468382 2.087472 0.015186 -0.005271 -19669.000000 0 0 1
-1.219592 -23.832205 -12.825021 27.091374 1.519667 2.063942 0.012145 -0.002685 -15051.600000 0 0 1
-1.196892 -22.842005 -11.855721 25.763305 1.518445 2.048993 0.013279 -0.000237 1063410.000000 0 0 1
0.185308 -22.884105 -11.080721 25.426344 -1.562699 2.021720 0.013445 0.000564 1060840.000000 0 0 1
0.441508 -21.540905 -10.728121 24.068612 -1.550303 2.032787 0.004054 0.008294 160508.000000 0 1 0
1.647308 -21.376005 -9.972021 23.645051 -1.493885 2.006158 -0.003154 0.004110 626367.000000 0 1 0
1.950408 -19.900105 -9.672521 22.212067 -1.473098 2.021348 -0.004607 0.002268 -1948480.000000 0 1 0
2.509508 -19.197005 -10.760821 22.149896 -1.440809 2.078095 -0.012257 0.012083 -383766.000000 0 1 0
3.417408 -18.202105 -10.410221 21.245423 -1.385209 2.082884 -0.010203 0.011562 401495.000000 0 1 0
4.748408 -18.709905 -9.768421 21.634001 -1.322253 2.039277 0.003083 0.001006 -645595.000000 0 1 0
4.493008 -19.282105 -8.513521 21.551490 -1.341867 1.976899 -0.002011 0.005492 -994211.000000 0 1 0
5.621308 -19.947705 -8.069321 22.240144 -1.296117 1.942096 0.013116 0.000641 -746139.000000 0 1 0
5.195608 -21.038905 -7.059721 22.791874 -1.328688 1.885724 0.017830 -0.002210 250501.000000 0 1 0
4.514808 -22.089005 -7.785021 23.851922 -1.369182 1.903278 0.010808 -0.005645 204167.000000 0 1 0
4.163708 -23.090705 -6.865821 24.447017 -1.392394 1.855471 0.026395 -0.010736 -304026.000000 0 1 0
3.345408 -24.250605 -7.363021 25.563601 -1.433710 1.862963 0.024687 -0.003019 122807.000000 0 0 1
4.046108 -25.043505 -8.335221 26.702510 -1.410617 1.888253 0.030444 -0.002505 664565.000000 0 0 1
3.125808 -25.398215 -9.372521 27.252232 -1.448340 1.921882 0.024997 0.001745 556242.000000 0 0 1
3.809408 -26.287035 -10.417021 28.531283 -1.426882 1.944546 0.016696 0.002932 20259.100000 0 0 1
4.243008 -27.541185 -9.922621 29.580034 -1.417938 1.912879 0.034216 -0.002581 -50.237900 0 0 1
4.762108 -28.342565 -10.994721 30.771132 -1.404332 1.936179 0.051561 0.001348 258801.000000 0 0 1
4.612508 -29.882925 -10.773121 32.098670 -1.417652 1.913065 0.048507 -0.006326 981193.000000 0 0 1
3.279508 -30.350675 -11.086521 32.478140 -1.463160 1.919153 0.045809 -0.006439 967212.000000 0 0 1
3.097808 -31.677645 -10.656221 33.565230 -1.473315 1.893865 0.042531 -0.006823 141533.000000 0 0 1
1.820208 -32.335105 -11.237921 34.280651 -1.514564 1.904793 0.026077 -0.006025 15498.600000 0 0 1
1.858008 -32.485895 -12.632121 34.904958 -1.513664 1.941102 0.030367 -0.006163 202549.000000 0 0 1
0.895908 -33.400855 -13.106021 35.891330 -1.543980 1.944599 0.020703 -0.005141 -440373.000000 0 0 1
0.684708 -33.242485 -14.658721 36.337443 -1.550202 1.986032 0.016717 0.001632 575549.000000 0 0 1
-0.312192 -32.255365 -15.030121 35.586663 1.561118 2.006836 0.016049 0.003313 451283.000000 0 0 1
-0.688492 -32.438715 -16.375321 36.344125 1.549575 2.038192 -0.004800 0.004736 203731.000000 0 0 1
-1.751392 -31.460435 -16.978321 35.792314 1.515184 2.065029 -0.008525 0.004586 831748.000000 0 0 1
-3.074992 -31.749215 -16.558221 35.939434 1.474245 2.049609 0.001830 -0.003310 -104764.000000 0 0 1
-4.078192 -31.089095 -17.291821 35.807409 1.440364 2.074773 0.009209 -0.001425 956177.000000 0 0 1
-5.420392 -30.986925 -16.463621 35.505225 1.397623 2.052958 0.017670 -0.002428 263360.000000 0 0 1
-5.527092 -30.156565 -15.328521 34.277262 1.389528 2.034420 0.007025 -0.000774 841009.000000 0 0 1
-6.877492 -29.927125 -14.847621 34.108424 1.344910 2.021175 0.014728 -0.001353 1302460.000000 0 0 1
-7.490692 -31.124115 -14.049421 34.960081 1.334616 1.984355 0.021352 -0.011197 -20086.900000 0 0 1
-7.671792 -32.307795 -14.765621 36.341073 1.337655 1.989205 0.032541 -0.011925 -527925.000000 0 0 1
-8.663892 -33.063835 -14.140921 36.989808 1.314523 1.963072 0.046244 -0.010528 -303677.000000 0 0 1
-8.799292 34.210649 -14.638421 38.237147 -1.319044 1.963657 0.075652 -0.017172 -772650.000000 0 0 1
-7.704692 33.386722 -14.519921 37.213755 -1.343996 1.971619 0.062680 -0.015392 -779067.000000 0 0 1
-8.070992 32.142755 -15.074721 36.408032 -1.324784 1.997694 0.082358 -0.025782 8596.310000 0 0 1
-7.488892 -21.784005 -3.328321 23.274538 1.239674 1.714291 0.052675 -0.014592 277278.000000 0 1 0
-7.360892 -20.933305 -4.456021 22.632767 1.232665 1.768975 0.036437 -0.003049 -133573.000000 0 1 0
-6.038792 -21.127605 -4.913221 22.516271 1.292395 1.790774 0.022727 -0.000404 210365.000000 0 1 0
-5.829192 -20.128605 -6.043621 21.809759 1.288910 1.851577 0.015239 -0.000990 -65329.500000 0 1 0
-6.793092 -20.393305 -7.009721 22.609051 1.249252 1.886032 0.024699 -0.003071 -429441.000000 0 1 0
-6.888692 -19.314305 -7.915121 21.980573 1.228198 1.939167 0.018508 -0.006785 -223846.000000 0 1 0
-7.817992 -19.512605 -9.106021 22.908129 1.189718 1.979589 0.030831 -0.013636 -32340.200000 0 1 0
-7.304392 -20.422205 -10.086021 23.919624 1.227306 2.006075 0.043262 -0.004217 -214588.000000 0 1 0
-8.201692 -20.607505 -11.147521 24.823462 1.192019 2.036523 0.067233 -0.006535 207054.000000 0 1 0
-7.496992 -21.312405 -12.383321 25.763737 1.232549 2.072191 0.056580 -0.010972 -76087.800000 0 0 1
-6.531092 -20.646205 -13.114121 25.316025 1.264423 2.115327 0.054297 -0.008363 -537896.000000 0 0 1
-6.159192 -21.414205 -14.263321 26.456495 1.290734 2.140192 0.036879 -0.011501 -946208.000000 0 0 1
-5.069392 -20.858605 -15.090021 26.239071 1.332383 2.183519 0.026245 -0.003234 -223938.000000 0 0 1
-3.775892 -20.877005 -14.424521 25.654892 1.391867 2.167903 0.013419 -0.001629 1217800.000000 0 0 1
-2.732492 -20.217505 -15.140221 25.405517 1.436456 2.209235 0.020635 -0.000712 245052.000000 0 0 1
-2.818392 -18.665905 -15.264721 24.276965 1.420937 2.250772 0.017253 -0.000284 -1199100.000000 0 1 0
-3.806392 -18.159005 -16.127921 24.583489 1.364173 2.286365 0.025236 0.001741 -57622.600000 0 1 0
-3.498292 -18.272405 -17.513821 25.550983 1.381633 2.326012 0.045107 -0.007757 -318224.000000 0 0 1
-4.773492 -18.018405 -18.373021 26.172830 1.311822 2.348982 0.036543 0.005777 73844.000000 0 0 1
-5.681392 -19.024105 -18.048621 26.831837 1.280586 2.308590 0.019771 0.004922 521929.000000 0 0 1
-6.967592 -18.829205 -18.690421 27.430241 1.216380 2.320443 0.023765 0.003888 1099810.000000 0 0 1
-8.179492 -19.549705 -18.091921 27.864182 1.174534 2.277446 0.068994 -0.005558 -74693.200000 0 0 1
-8.036592 -20.938505 -18.101221 28.821208 1.204317 2.249844 0.057601 -0.005042 -117809.000000 0 0 1
-9.167492 -21.616405 -17.605621 29.347398 1.169689 2.214177 0.067474 -0.012380 17288.600000 0 0 1
-9.072292 -23.164705 -17.937121 30.670024 1.197515 2.195482 0.053654 -0.012749 -577345.000000 0 0 1
-9.240192 -23.310305 -19.349721 31.672751 1.193398 2.228027 0.032870 -0.013135 131537.000000 0 0 1
-8.600692 -24.434005 -19.951921 32.696661 1.232344 2.227125 0.058487 -0.025236 -52863.200000 0 0 1
-7.052192 -24.597205 -19.780121 32.342064 1.291579 2.228867 0.071810 -0.027244 362979.000000 0 0 1
-6.275592 -23.674605 -20.601521 32.004572 1.311679 2.270127 0.072929 -0.024373 396346.000000 0 0 1
-6.065292 -22.375805 -20.136421 30.707326 1.306092 2.285976 0.053752 -0.023923 -266373.000000 0 0 1
-5.013992 -22.236205 -18.945321 29.639739 1.349018 2.264236 0.061399 -0.013174 1499480.000000 0 0 1
-3.663392 -22.322905 -19.503321 29.868245 1.408137 2.282307 0.050536 -0.020371 930219.000000 0 0 1
-2.777992 -21.951505 -18.461021 28.816577 1.444914 2.266126 0.014000 -0.009850 196182.000000 0 0 1
-1.398492 -22.644805 -18.563921 29.314879 1.509117 2.256554 0.039334 -0.009957 306772.000000 0 0 1
-0.512792 -22.156005 -19.551821 29.553768 1.547656 2.293704 0.052723 -0.009827 559558.000000 0 0 1
0.793308 -22.767105 -19.477521 29.972391 -1.535966 2.278182 0.037963 -0.012311 1303210.000000 0 0 1
1.840508 -22.137505 -20.436621 30.184633 -1.487847 2.314548 0.052261 -0.014225 357009.000000 0 0 1
1.513208 -22.314605 -21.800821 31.233110 -1.503088 2.343402 0.059141 -0.027957 -230348.000000 0 0 1
1.244508 -21.147105 -22.538121 30.930822 -1.512014 2.387163 0.066896 -0.020111 -96331.900000 0 0 1
0.856108 -21.475805 -23.949321 32.179389 -1.530954 2.410199 0.074916 -0.025976 177561.000000 0 0 1
0.345308 -20.480705 -24.853321 32.206615 -1.553938 2.452281 0.056755 -0.024091 1122200.000000 0 0 1
-1.073392 -20.200705 -24.702621 31.928673 1.517710 2.455428 0.065546 -0.027041 1211890.000000 0 0 1
-1.536792 -19.147105 -25.725951 32.106042 1.490706 2.500229 0.064980 -0.011907 -284692.000000 0 0 1
-1.031492 -17.881005 -25.410671 31.088527 1.513174 2.527619 0.059699 -0.017284 85794.000000 0 0 1
-1.603592 -16.792405 -26.127961 31.100269 1.475590 2.568301 0.059211 -0.014349 81900.100000 0 0 1
-1.176992 -15.440505 -25.457691 29.797458 1.494716 2.595110 0.052970 -0.011564 675517.000000 0 0 1
0.230408 -15.192905 -25.519961 29.700940 -1.555632 2.604560 0.055422 -0.021176 157053.000000 0 0 1
0.779108 -13.986505 -25.113101 28.755820 -1.515150 2.632778 0.049472 -0.016824 38384.300000 0 0 1
0.386308 -12.688105 -25.846891 28.795816 -1.540359 2.685072 0.044600 -0.011766 -109751.000000 0 0 1
1.062408 -11.485205 -25.469731 27.959718 -1.478556 2.716362 0.034600 -0.009583 5396.400000 0 0 1
0.720408 -10.419905 -26.315891 28.312886 -1.501768 2.763761 0.032198 -0.013091 -512206.000000 0 0 1
1.479608 -9.071105 -26.114921 27.685073 -1.409108 2.803187 0.040360 -0.016842 2111780.000000 0 0 1
2.902608 -9.134105 -26.498171 28.178184 -1.263111 2.794539 0.050963 -0.012343 1707640.000000 0 0 1
3.174908 -9.271305 -27.919301 29.589263 -1.240868 2.804022 0.050436 -0.013061 -250862.000000 0 0 1
4.583108 -8.827705 -28.376951 30.069662 -1.091928 2.804460 0.045304 -0.009854 -491922.000000 0 0 1
4.773908 -7.421205 -28.440191 29.777658 -0.999160 2.840742 0.041369 -0.012520 -99530.400000 0 0 1
6.055208 -7.018805 -28.847851 30.300621 -0.858968 2.830680 0.035947 -0.007646 -451055.000000 0 0 1
7.226808 -7.030505 -27.803121 29.574791 -0.771630 2.793706 0.049959 -0.012922 287762.000000 0 0 1
7.603008 -8.366205 -27.398321 29.638946 -0.833154 2.750263 0.036769 -0.011806 199436.000000 0 0 1
8.256608 -9.120905 -28.412211 30.961528 -0.835094 2.732952 0.035717 -0.017098 -879470.000000 0 0 1
8.793708 -10.486305 -27.914901 31.089123 -0.872964 2.685770 0.046147 -0.010888 50129.900000 0 0 1
7.802408 -11.459805 -27.632981 30.915794 -0.973039 2.676577 0.044967 -0.017611 190340.000000 0 0 1
8.307308 -12.500405 -26.819201 30.733386 -0.984251 2.631380 0.045076 -0.015832 203090.000000 0 0 1
9.371808 -13.495805 -27.376941 31.929053 -0.963823 2.601052 0.044168 -0.027559 276125.000000 0 0 1
8.831008 -14.332705 -28.355761 32.976693 -1.018591 2.605817 0.054468 -0.035409 -88534.000000 0 0 1
9.806408 -15.188805 -28.884741 34.076292 -0.997497 2.582335 0.033040 -0.042879 -91630.100000 0 0 1
9.105708 -16.057805 -29.915361 35.152466 -1.054951 2.588716 0.046426 -0.036992 3511.570000 0 0 1
8.391108 -15.334805 -30.895681 35.498029 -1.070110 2.626707 0.041115 -0.036238 78850.100000 0 0 1
7.931208 -16.185205 -31.927001 36.663310 -1.115158 2.627656 0.058086 -0.036311 -552011.000000 0 0 1
6.746308 -15.575105 -32.697581 36.840580 -1.162045 2.662780 0.057377 -0.027006 -206955.000000 0 0 1
6.975608 -14.320605 -33.315461 36.927751 -1.117520 2.695592 0.070009 -0.024487 -362848.000000 0 0 1
5.799708 -13.915005 -33.949711 37.146290 -1.175896 2.723700 0.042506 -0.028025 -279393.000000 0 0 1
5.840208 -12.591505 33.927172 36.656610 -1.136508 0.388336 0.077500 -0.020814 521307.000000 0 0 1
6.633408 -12.704205 32.692518 35.695934 -1.089592 0.413149 0.078482 -0.014052 616677.000000 0 0 1
6.613008 -11.484905 31.947713 34.587445 -1.048361 0.393221 0.078023 -0.020556 259221.000000 0 0 1
7.313408 -11.584205 30.554833 33.485483 -1.007661 0.421491 0.063475 -0.010710 663353.000000 0 0 1
6.352408 -12.169305 29.686313 32.706609 -1.089702 0.433134 0.064922 -0.008463 998563.000000 0 0 1
6.896708 -12.159505 28.336693 31.597252 -1.054854 0.458294 0.055336 -0.005675 779571.000000 0 0 1
5.953808 -12.943805 27.331233 30.821847 -1.139679 0.480533 0.046786 -0.022576 221704.000000 0 0 1
5.999708 -14.321805 27.477193 31.561159 -1.174086 0.514373 0.047284 -0.015341 66263.300000 0 0 1
5.586108 -14.998505 26.297573 30.785096 -1.214268 0.546727 0.023429 -0.013497 565340.000000 0 0 1
4.055108 -15.129005 26.013433 30.364937 -1.308917 0.541972 0.035377 -0.020904 503279.000000 0 0 1
3.287808 -13.968505 25.684223 29.421220 -1.339631 0.509511 0.025875 -0.018997 609801.000000 0 0 1
2.077408 -14.388005 25.035443 28.950022 -1.427403 0.526081 0.023838 -0.011350 820267.000000 0 0 1
1.091708 -13.214605 24.735023 28.064907 -1.488370 0.492083 0.027060 -0.005759 -660061.000000 0 0 1
1.442108 -12.376805 23.689713 26.766911 -1.454802 0.484222 0.009333 -0.003889 -23372.500000 0 0 1
0.552808 -11.275205 23.442483 26.018952 -1.521807 0.448780 0.018140 0.005311 -68745.400000 0 0 1
-0.851192 -11.686205 23.017783 25.828478 1.498087 0.470860 0.023600 0.003422 -1268090.000000 0 0 1
-0.946292 -12.284705 21.776383 25.020398 1.493918 0.514893 0.020879 0.000446 262905.000000 0 0 1
-2.171992 -13.018305 21.648383 25.354414 1.405478 0.547495 0.032164 0.000042 673334.000000 0 0 1
-2.287892 -13.696605 20.216383 24.526182 1.405284 0.601871 0.047818 -0.003867 -365794.000000 0 1 0
-1.308692 -14.668005 19.976783 24.818036 1.481811 0.635239 0.054658 -0.007783 -788333.000000 0 1 0
-1.489892 -15.512505 18.878683 24.479834 1.475045 0.690083 0.061523 -0.006932 -310179.000000 0 1 0
-2.653892 -16.507205 18.959783 25.278536 1.411389 0.722682 0.045810 -0.010321 -5685.480000 0 0 1
-2.480492 -17.481705 17.953483 25.181152 1.429846 0.777067 0.035398 -0.010266 -82415.400000 0 0 1
-3.488892 -18.477305 17.965983 26.006917 1.384173 0.808180 0.047055 0.000186 205459.000000 0 0 1
-3.034592 -19.732105 17.193183 26.347112 1.418202 0.859833 0.044522 -0.006651 1050130.000000 0 0 1
-1.967292 -20.424605 17.897783 27.228026 1.474773 0.853527 0.044131 -0.009118 379602.000000 0 0 1
-2.098992 -21.781605 17.574583 28.066173 1.474728 0.894147 0.048685 -0.014800 79279.300000 0 0 1
-0.979892 -22.690405 18.114783 29.050991 1.527638 0.897519 0.058212 -0.012559 1310380.000000 0 0 1
0.288208 -22.708805 17.418383 28.621198 -1.558106 0.916522 0.064167 -0.018715 252529.000000 0 0 1
1.188508 -23.634305 17.935883 29.693246 -1.520551 0.922237 0.057963 -0.006664 364147.000000 0 0 1
2.572608 -23.485505 17.221683 29.236512 -1.461691 0.940917 0.052558 -0.012968 416504.000000 0 0 1
3.107908 -22.189205 17.453883 28.401725 -1.431638 0.908999 0.052226 -0.009673 -171516.000000 0 0 1
4.333708 -21.904605 16.820883 27.955945 -1.375474 0.925178 0.047179 -0.011141 120897.000000 0 0 1
4.938508 -20.536605 17.117583 27.187363 -1.334804 0.889738 0.045635 -0.005391 -482659.000000 0 0 1
5.465308 -20.532605 18.473983 28.155737 -1.310651 0.855110 0.039668 0.003621 16763.300000 0 0 1
5.967308 -19.297405 19.024983 27.747948 -1.270895 0.815320 0.042278 0.008692 1236050.000000 0 0 1
7.214608 -18.674105 18.259483 27.095784 -1.202118 0.831340 0.054146 -0.000013 453754.000000 0 0 1
6.825008 -18.292105 16.967983 25.866858 -1.213682 0.855324 0.042667 0.001135 323591.000000 0 0 1
7.923108 -17.743105 16.231683 25.319182 -1.150819 0.874888 0.052031 -0.000959 607693.000000 0 0 1
7.370208 -16.795105 15.118383 23.768909 -1.157270 0.881419 0.041240 0.009098 -48490.800000 0 1 0
6.679808 -17.410805 14.082583 23.368251 -1.204456 0.923994 0.036214 0.007065 -68692.400000 0 1 0
6.079608 -16.371805 13.327483 21.968602 -1.215233 0.918943 0.027365 0.005266 -23050.200000 0 1 0
6.251308 -16.545805 11.844983 21.287230 -1.209557 0.980706 0.029607 -0.001641 143543.000000 0 1 0
7.566608 -16.197605 11.457783 21.234330 -1.133778 1.000849 0.030883 0.001450 89568.500000 0 1 0
7.905308 -16.499805 10.097983 20.897530 -1.123996 1.066474 0.025403 -0.002054 -153215.000000 0 1 0
9.323008 -15.982805 9.877083 20.974397 -1.042736 1.080473 0.020913 -0.002187 -84193.900000 0 1 0
10.037608 -16.510705 8.740983 21.207587 -1.024555 1.145969 0.029337 -0.001122 1361860.000000 0 1 0
11.402508 -15.997705 8.748183 21.505220 -0.951559 1.151855 0.028703 -0.001112 1667430.000000 0 1 0
12.452408 -16.864205 8.006883 22.440456 -0.934765 1.205950 0.045316 -0.008077 220784.000000 0 1 0
12.649708 -18.164805 8.585483 23.742068 -0.962500 1.200797 0.054526 -0.013502 -87355.800000 0 1 0
13.516308 -18.959805 7.815883 24.561206 -0.951470 1.246944 0.060919 -0.017420 -24933.800000 0 1 0
13.833608 -20.297005 8.575883 26.016974 -0.972554 1.234888 0.060391 -0.023541 -554335.000000 0 0 1
12.759308 -21.146905 8.774483 26.210363 -1.027906 1.229434 0.062696 -0.021359 -714901.000000 0 0 1
13.146108 -22.336305 9.301583 27.536342 -1.038836 1.226225 0.037971 -0.018956 -338589.000000 0 0 1
12.042108 -22.925405 10.153183 27.814991 -1.087135 1.197136 0.048314 -0.024797 -209652.000000 0 0 1
12.097608 -22.439205 11.476683 27.956830 -1.076338 1.147778 0.068031 -0.027315 -749088.000000 0 0 1
11.232708 -23.057105 12.372183 28.475863 -1.117466 1.121336 0.071948 -0.021581 -667922.000000 0 0 1
11.457608 -24.542405 12.844683 29.976530 -1.134019 1.127974 0.065541 -0.015683 236802.000000 0 0 1
12.625308 -24.748105 13.632383 30.946874 -1.099060 1.114631 0.036230 -0.011665 207643.000000 0 0 1
12.605508 -25.999505 14.328483 32.251799 -1.119353 1.110438 0.038666 -0.007970 -597332.000000 0 0 1
13.894808 -26.203825 15.081883 33.274155 -1.083236 1.100376 0.033311 -0.008212 -641793.000000 0 0 1
13.900508 -25.553965 16.318683 33.354590 -1.072597 1.059568 0.026550 -0.003282 437440.000000 0 0 1
14.994108 -26.026715 17.095383 34.561038 -1.048132 1.053372 0.036206 -0.002321 2609.800000 0 0 1
14.716408 -25.886445 18.589283 35.103307 -1.053862 1.012715 0.032360 0.000814 1245.270000 0 0 1
14.758708 -24.500905 19.020583 34.349620 -1.028633 0.983953 0.007481 -0.001067 -584801.000000 0 0 1
16.006808 -24.023905 19.414483 34.789195 -0.983057 0.978749 0.005733 -0.003915 -519880.000000 0 0 1
16.164308 -22.467805 19.477683 33.844753 -0.947140 0.957580 -0.009904 -0.014369 29032.700000 0 0 1
16.401908 -21.861505 18.272583 32.876060 -0.927126 0.981469 -0.011479 -0.005594 -374600.000000 0 0 1
15.291908 -21.121005 17.876583 31.615053 -0.944135 0.969823 0.007256 -0.000484 -1037540.000000 0 0 1
15.542608 -20.093405 16.743783 30.424856 -0.912413 0.988034 0.001514 -0.006925 191542.000000 0 0 1
16.331108 -18.958505 17.115083 30.315938 -0.859713 0.970900 -0.001349 -0.003256 292791.000000 0 0 1
17.731208 -19.163005 17.139583 31.231104 -0.824187 0.989870 0.001847 -0.003160 -202042.000000 0 0 1
18.480008 -17.940505 17.703283 31.253459 -0.770586 0.968614 0.019202 -0.004882 -462439.000000 0 0 1
18.744308 -17.837905 19.089383 32.155008 -0.760626 0.935188 0.015243 -0.004203 87107.100000 0 0 1
19.109008 -16.527005 19.352483 31.824750 -0.713070 0.917137 0.030504 -0.008781 -283005.000000 0 0 1
19.677408 -16.324405 20.781483 32.947787 -0.692532 0.888290 0.027862 -0.004285 -474336.000000 0 0 1
20.917908 -16.951505 20.855683 34.056893 -0.681040 0.911732 0.029103 0.001389 -815568.000000 0 0 1
21.312208 -16.844805 22.178783 35.069305 -0.668849 0.886114 0.026800 0.009161 -124374.000000 0 0 1
32.948725 -0.513105 -8.081221 33.929160 -0.015572 1.811287 0.105525 -0.032601 -1109110.000000 0 0 1
34.327195 -0.359505 -8.237121 35.303480 -0.010473 1.806290 0.088600 -0.034350 -363758.000000 0 0 1
34.929555 -1.628305 -8.352721 35.951261 -0.046583 1.805274 0.095041 -0.035196 2013860.000000 0 0 1
-35.386660 -1.507305 -8.692721 36.469865 0.042570 1.811466 0.075427 -0.030975 2371800.000000 0 0 1
-34.602481 -2.722105 -8.669021 35.775599 0.078506 1.815549 0.093486 -0.027503 -160567.000000 0 0 1
-33.288162 -2.551905 -9.051421 34.591070 0.076511 1.835548 0.151052 -0.033111 -361126.000000 0 0 1
-32.236232 -3.699505 -8.901521 33.646665 0.114262 1.838543 0.146213 -0.027431 368364.000000 0 0 1
-31.833972 -3.857605 -7.575021 32.949413 0.120591 1.802770 0.128343 -0.029755 656270.000000 0 0 1
-30.705842 -4.730405 -7.401221 31.937494 0.152854 1.804663 0.117612 -0.033706 447657.000000 0 0 1
-30.063182 -4.815505 -6.036521 31.039065 0.158830 1.766525 0.111297 -0.042578 -267887.000000 0 0 1
-29.395022 -3.638605 -5.654221 30.154220 0.123157 1.759423 0.110904 -0.039098 355241.000000 0 0 1
-29.204962 -3.604205 -4.277421 29.735777 0.122790 1.715145 0.112918 -0.039639 -290247.000000 0 0 1
-29.106562 -2.170005 -3.728821 29.424564 0.074416 1.697863 0.121464 -0.034665 568095.000000 0 0 1
-27.817872 -1.531505 -3.825121 28.121363 0.054999 1.707241 0.108780 -0.032429 1019670.000000 0 0 1
-27.790522 -0.217505 -3.242021 27.979834 0.007826 1.686927 0.111514 -0.038299 150663.000000 0 0 1
-26.374982 0.235295 -2.775321 26.521641 -0.008921 1.675632 0.118551 -0.023829 218835.000000 0 0 1
-25.902252 -0.478705 -1.627421 25.957741 0.018479 1.633532 0.100582 -0.022564 -106298.000000 0 0 1
-24.623192 0.005095 -1.348221 24.660075 -0.000207 1.625496 0.084883 -0.018627 -546753.000000 0 1 0
-23.902192 -0.628505 -0.153921 23.910949 0.026289 1.577234 0.056953 -0.017418 -208740.000000 0 1 0
-23.743392 -2.021805 -0.261721 23.830754 0.084947 1.581779 0.051110 -0.017211 364451.000000 0 1 0
-23.160292 -2.638705 0.855279 23.325809 0.113443 1.534121 0.035846 -0.016818 -444639.000000 0 1 0
-23.233092 -4.195805 0.798179 23.622414 0.178670 1.537001 0.033726 -0.009883 -465418.000000 0 1 0
-24.316492 -4.785305 1.457679 24.825708 0.194310 1.512046 0.039840 -0.011102 122716.000000 0 1 0
-24.233292 -6.173305 1.282879 25.040126 0.249439 1.519541 0.025757 -0.006107 -492214.000000 0 0 1
-25.524802 -6.870505 1.700779 26.487960 0.262938 1.506543 0.049752 -0.005579 -444938.000000 0 0 1
-25.681052 -6.893005 3.118379 26.772266 0.262228 1.454053 0.055505 -0.004870 -991613.000000 0 0 1
-26.756252 -7.633405 3.460979 28.038264 0.277911 1.447043 0.067149 -0.001559 -1081420.000000 0 0 1
-27.067672 -7.760405 4.978379 28.594877 0.279214 1.395804 0.065057 -0.009237 23010.400000 0 0 1
-26.145412 -8.604805 5.641879 28.097260 0.317948 1.368624 0.071210 0.007916 -49164.900000 0 0 1
-26.311552 -8.755205 7.056379 28.613701 0.321227 1.321617 0.056451 -0.002694 -120094.000000 0 0 1
-25.669442 -7.631605 7.911179 27.923975 0.288981 1.283551 0.068887 -0.004711 759717.000000 0 0 1
-24.241092 -7.653105 7.761679 26.579019 0.305805 1.274455 0.073392 -0.012923 681602.000000 0 0 1
-23.631892 -6.414505 8.098779 25.791518 0.265048 1.251383 0.063217 -0.013222 -209443.000000 0 0 1
-22.269092 -6.275105 7.404779 24.292389 0.274664 1.261048 0.054381 -0.017725 310731.000000 0 1 0
-21.223792 -6.795905 8.242479 23.760727 0.309886 1.216538 0.051196 -0.029328 1408050.000000 0 1 0
-19.896992 -6.449505 7.775179 22.314565 0.313458 1.214895 0.037691 -0.026997 979697.000000 0 1 0
-18.704692 -6.901505 8.606879 21.715770 0.353475 1.163267 0.034292 -0.026955 -277892.000000 0 1 0
-18.629392 -6.216405 9.803679 21.950172 0.322070 1.107797 0.029128 -0.015270 660909.000000 0 1 0
-17.490592 -6.480505 10.649879 21.478773 0.354832 1.052003 0.017258 -0.018313 413483.000000 0 1 0
-17.314092 -5.268105 11.616779 21.505355 0.295367 1.000144 0.008657 -0.008068 -287156.000000 0 1 0
-18.454892 -5.098205 12.402879 22.812412 0.269530 0.995969 0.034933 -0.012273 -223876.000000 0 1 0
-18.517992 -3.704705 12.784979 22.805626 0.197453 0.975678 0.036522 -0.010023 69478.500000 0 1 0
-19.691492 -3.481605 13.750779 24.268506 0.174999 0.968410 0.036114 -0.016520 99978.800000 0 1 0
-19.506592 -4.196605 14.987179 24.954642 0.211908 0.926574 0.043999 -0.011104 781179.000000 0 1 0
-20.624892 -3.909705 15.860479 26.310203 0.187340 0.923758 0.046087 -0.001754 664769.000000 0 0 1
-20.728092 -4.809005 17.079479 27.285325 0.227971 0.894436 0.040202 0.005261 137031.000000 0 0 1
-21.727892 -4.410205 18.021679 28.571527 0.200254 0.888268 0.033126 0.001874 633730.000000 0 0 1
-21.582892 -5.204005 19.227179 29.369837 0.236601 0.857067 0.035376 0.001858 -608362.000000 0 0 1
-22.598392 -4.936405 20.365579 30.819024 0.215062 0.848896 0.036832 -0.004177 -424225.000000 0 0 1
-22.316992 -3.600705 20.885779 30.777085 0.159965 0.824922 0.044867 -0.007700 342257.000000 0 0 1
-22.820992 -3.397405 22.222679 32.034162 0.147787 0.804158 0.046729 -0.014187 71001.000000 0 0 1
-22.979992 -1.919605 22.636479 32.313699 0.083340 0.794667 0.039177 -0.002791 335045.000000 0 0 1
-24.028292 -1.225005 21.956379 32.572105 0.050938 0.831071 0.045318 -0.007853 166222.000000 0 0 1
-23.885492 0.164895 22.077579 32.526350 -0.006903 0.824724 0.041638 -0.011272 -652583.000000 0 0 1
-25.147222 0.918795 21.699679 33.228046 -0.036520 0.859187 0.045170 -0.011466 -808522.000000 0 0 1
-26.175002 0.582295 22.569179 34.566424 -0.022243 0.859360 0.039145 -0.010441 -145726.000000 0 0 1
-27.387532 1.257295 22.220079 35.290078 -0.045875 0.889705 0.025268 -0.008312 852630.000000 0 0 1
-28.500372 1.273795 23.319079 36.846617 -0.044664 0.885543 0.022983 -0.006325 29667.200000 0 0 1
-28.059972 2.016595 24.441979 37.267131 -0.071744 0.855476 0.029856 -0.010708 -34392.100000 0 0 1
-28.906472 1.859695 25.541279 38.618642 -0.064246 0.848150 0.031078 -0.009987 -655973.000000 0 0 1
-28.641262 2.799695 26.770779 39.304387 -0.097441 0.821513 0.049567 -0.017092 285446.000000 0 0 1
-27.421232 2.481695 27.426579 38.862579 -0.090257 0.787340 0.030235 -0.026279 535109.000000 0 0 1
-26.996622 3.306395 28.519579 39.409596 -0.121867 0.761690 0.033678 -0.022201 -362295.000000 0 0 1
-25.771982 2.785495 29.250779 39.084039 -0.107664 0.725139 0.055915 -0.026871 -398114.000000 0 0 1
-26.030012 1.778095 30.186379 39.899131 -0.068203 0.712749 0.051710 -0.022807 -386713.000000 0 0 1
-24.810492 1.392795 30.727879 39.518388 -0.056078 0.680022 0.045542 -0.029771 -543420.000000 0 0 1
-24.910392 0.085595 31.574879 40.218254 -0.003436 0.667958 0.042750 -0.037280 4635.860000 0 0 1
-25.330982 -0.995105 30.710179 39.821652 0.039264 0.690083 0.042078 -0.027003 -215120.000000 0 0 1
-25.752362 -2.080005 31.469479 40.716565 0.080595 0.687411 0.035656 -0.010494 -440670.000000 0 0 1
-26.578412 -3.068905 30.568079 40.623117 0.114957 0.718977 0.032384 -0.003308 -27080.900000 0 0 1
-27.908532 -2.670005 30.350379 41.317800 0.095380 0.745779 0.039450 -0.010745 -191651.000000 0 0 1
-28.028272 -1.729905 29.279379 40.569184 0.061642 0.764520 0.042461 -0.012762 -534871.000000 0 0 1
-29.466172 -1.214705 29.055079 41.399619 0.041200 0.792847 0.035177 -0.020307 253707.000000 0 0 1
-30.014522 -0.609905 30.221079 42.597619 0.020318 0.782072 0.038993 -0.005757 -795881.000000 0 0 1
-31.364042 -0.324005 29.986479 43.393514 0.010330 0.807875 0.027045 -0.008104 -26143.200000 0 0 1
-32.084762 -0.044305 31.364379 44.868232 0.001381 0.796752 0.034982 0.005345 127550.000000 0 0 1
-32.225922 -1.104005 32.228079 45.589231 0.034245 0.785658 0.045125 0.008195 58808.500000 0 0 1
-33.173812 -0.842005 33.249479 46.975937 0.025376 0.784420 0.063775 -0.002237 233917.000000 0 0 1
-33.452232 -2.050205 34.168479 47.861677 0.061211 0.775744 0.059890 0.001322 209940.000000 0 0 1
-34.253159 -3.125705 33.673179 48.134519 0.091001 0.796009 0.044423 0.005983 279972.000000 0 0 1
-34.148406 -4.253405 -34.120725 48.460591 0.123918 2.351940 0.038858 0.008583 -45263.400000 0 0 1
-35.151330 -5.248305 33.899979 49.115876 0.148211 0.809025 0.042970 0.003757 588975.000000 0 0 1
35.397995 -4.899605 34.236979 49.489342 -0.137541 0.806810 0.043014 -0.004719 272763.000000 0 0 1
34.404095 -5.678005 33.570779 48.403293 -0.163564 0.804372 0.038287 -0.010269 -300509.000000 0 0 1
33.001595 -5.136805 33.915079 47.599629 -0.154414 0.777731 0.052108 -0.007028 -388391.000000 0 0 1
32.527025 -5.481205 -33.408825 46.948914 -0.166944 2.362569 0.057565 -0.016535 249018.000000 0 0 1
32.130555 -6.876305 -33.227425 46.730267 -0.210831 2.361783 0.059155 -0.016786 -664794.000000 0 0 1
30.721555 -7.232305 -33.704125 46.174541 -0.231205 2.389014 0.063430 -0.016868 -889096.000000 0 0 1
29.696975 -6.995505 -32.810325 44.803625 -0.231345 2.392510 0.066065 -0.019460 -674119.000000 0 0 1
28.448485 -7.150905 -33.426525 44.472287 -0.246261 2.421320 0.070766 -0.021528 629427.000000 0 0 1
27.211525 -6.907105 -32.455825 42.913352 -0.248580 2.428452 0.079226 -0.022599 914085.000000 0 0 1
25.934515 -7.219905 -32.990825 42.580754 -0.271515 2.457167 0.076639 -0.022719 32219.800000 0 0 1
24.973415 -6.736005 -32.085925 41.213490 -0.263457 2.463116 0.077699 -0.023812 256098.000000 0 0 1
23.513315 -7.172805 -32.466025 40.723063 -0.296086 2.493504 0.074179 -0.031383 620844.000000 0 0 1
23.147415 -8.574305 -32.309725 40.660052 -0.354751 2.489195 0.092561 -0.036916 316961.000000 0 0 1
23.091415 -9.097605 -30.987725 39.701624 -0.375308 2.466286 0.090519 -0.041314 -368222.000000 0 0 1
22.979915 -10.656705 -30.852325 39.918765 -0.434221 2.454160 0.092737 -0.033090 111842.000000 0 0 1
21.745215 -11.204505 -31.293325 39.719863 -0.475783 2.478108 0.094415 -0.035132 415738.000000 0 0 1
21.557915 -12.571605 -31.190525 39.945435 -0.527941 2.466787 0.078085 -0.027681 -258319.000000 0 0 1
20.555115 -13.222805 -32.202925 40.427511 -0.571640 2.492379 0.061494 -0.021718 1943540.000000 0 0 1
19.123315 -12.994005 -32.164225 39.611648 -0.596824 2.518348 0.053099 -0.025669 1364410.000000 0 0 1
18.681315 -11.686405 -32.468925 39.240217 -0.559007 2.545330 0.048468 -0.026820 -1488010.000000 0 0 1
17.336415 -11.307705 -31.936225 38.057035 -0.577956 2.566547 0.041533 -0.027168 -412339.000000 0 0 1
16.237015 -11.935405 -32.621525 38.343949 -0.633880 2.588227 0.018447 -0.018563 174323.000000 0 0 1
15.014015 -11.530405 -32.046525 37.220299 -0.654907 2.608021 0.025306 -0.018573 381762.000000 0 0 1
13.758915 -11.806505 -32.926725 37.588170 -0.709177 2.638273 0.025723 -0.017021 -602211.000000 0 0 1
13.608315 -13.255305 -32.992325 38.070761 -0.772258 2.619155 0.040401 -0.018978 -15808.800000 0 0 1
12.420115 -13.611805 -33.661825 38.375239 -0.831144 2.640745 0.029501 -0.017533 972059.000000 0 0 1
11.138015 -13.640105 -32.709325 37.148456 -0.886037 2.647718 0.022713 -0.017204 600538.000000 0 0 1
10.836615 -12.315005 -32.246325 36.178958 -0.849168 2.671002 0.069387 -0.015030 -186174.000000 0 0 1
9.753915 -12.313705 -31.314325 35.033600 -0.900880 2.676627 0.063296 -0.020114 865393.000000 0 0 1
8.517515 -11.506505 -31.806925 34.880197 -0.933574 2.718663 0.041558 -0.012155 289533.000000 0 0 1
8.865915 -10.111905 -31.865925 34.587458 -0.850959 2.742244 0.047378 -0.006935 -195146.000000 0 0 1
7.738615 -9.358505 -32.175025 34.390405 -0.879863 2.780698 0.045051 -0.002986 -543948.000000 0 0 1
7.922115 -7.909405 -32.518425 34.391373 -0.784595 2.810046 0.051831 -0.001089 -249726.000000 0 0 1
8.291615 -7.041505 -31.450125 33.278281 -0.704048 2.808588 0.041110 -0.004766 231080.000000 0 0 1
8.612515 -5.793805 -31.988725 33.630672 -0.592181 2.827824 0.033492 -0.002595 -135870.000000 0 0 1
8.819615 -4.746305 -30.952125 32.532246 -0.493702 2.828641 0.031396 -0.007893 248505.000000 0 0 1
7.647515 -4.365305 -30.248725 31.504376 -0.518682 2.858312 0.028654 -0.006323 96297.300000 0 0 1
8.013615 -3.545205 -29.197625 30.484222 -0.416514 2.850026 0.032297 -0.005650 -30731.700000 0 0 1
6.813615 -2.892105 -28.507025 29.452336 -0.401413 2.887547 0.031609 -0.008898 -105706.000000 0 0 1
6.028315 -2.139505 -29.467025 30.153335 -0.341042 2.927829 0.021339 0.000604 969684.000000 0 0 1
4.760615 -1.632105 -29.044925 29.477701 -0.330278 2.970026 0.032648 -0.007382 629957.000000 0 0 1
3.581715 -2.620805 -29.038925 29.376120 -0.631698 2.989931 0.030465 -0.009813 -546518.000000 0 0 1
3.645315 -3.658905 -28.119525 28.589921 -0.787259 2.959942 0.039944 -0.016968 -449103.000000 0 0 1
2.516915 -4.470505 -28.029025 28.494675 -1.058024 2.960560 0.046839 -0.021091 -456827.000000 0 0 1
2.746115 -5.541705 -26.994025 27.693483 -1.110726 2.916363 0.048853 -0.025585 -109445.000000 0 0 1
2.822115 -5.061905 -25.668925 26.315032 -1.062198 2.919539 0.057734 -0.025600 111114.000000 0 0 1
3.278815 -6.098705 -24.804725 25.753042 -1.077504 2.869373 0.059038 -0.026730 -25521.300000 0 0 1
3.223515 -5.638505 -23.359225 24.245353 -1.051448 2.870398 0.057436 -0.025507 -134732.000000 0 1 0
4.113815 -4.595005 -23.058125 23.868696 -0.840595 2.880236 0.054812 -0.026375 -22332.400000 0 1 0
3.858515 -4.198805 -21.712525 22.448871 -0.827607 2.884758 0.042706 -0.024017 334111.000000 0 1 0
4.694615 -2.932105 -21.335825 22.042097 -0.558288 2.887764 0.042202 -0.023430 -21777.800000 0 1 0
6.060415 -3.146605 -21.141025 22.216496 -0.478894 2.829169 0.041573 -0.019338 -726036.000000 0 1 0
6.732315 -2.020805 -20.656125 21.819331 -0.291608 2.813595 0.040133 -0.014257 500632.000000 0 1 0
8.215715 -2.284005 -20.254825 21.976637 -0.271157 2.743115 0.046919 -0.019423 -169678.000000 0 1 0
9.031215 -2.577205 -21.425525 23.393545 -0.277978 2.728474 0.056428 -0.027522 616734.000000 0 1 0
10.283415 -3.208305 -21.229725 23.806366 -0.302419 2.672031 0.049148 -0.023757 699884.000000 0 1 0
11.333015 -2.475905 -20.344725 23.419546 -0.215089 2.623382 0.039736 -0.023742 -963880.000000 0 1 0
10.978215 -2.312605 -18.957625 22.028638 -0.207619 2.607223 0.034967 -0.019695 -25870.800000 0 1 0
12.022215 -1.745205 -18.195425 21.878137 -0.144158 2.552908 0.028005 -0.027614 -241883.000000 0 1 0
12.261715 -0.204905 -18.384425 22.099292 -0.016709 2.553321 0.018894 -0.021306 6687.950000 0 1 0
12.900315 0.188695 -19.579425 23.447976 0.014626 2.558957 0.029894 -0.026554 171708.000000 0 1 0
12.998015 1.592995 -19.509225 23.496720 0.121949 2.550434 0.048487 -0.034969 -47743.500000 0 1 0
13.369915 2.374695 -20.794725 24.835748 0.175782 2.563104 0.055162 -0.028916 -1073620.000000 0 1 0
14.687515 2.427395 -21.209525 25.912531 0.163789 2.529599 0.052838 -0.027992 -795802.000000 0 0 1
14.859315 3.464195 -22.213225 26.948604 0.229042 2.539728 0.063092 -0.028013 476572.000000 0 0 1
16.343115 3.558295 -22.733525 28.223607 0.214379 2.507280 0.051010 -0.024232 978961.000000 0 0 1
16.759215 2.506895 -23.622625 29.072052 0.148482 2.519318 0.041421 -0.020042 48956.400000 0 0 1
17.228615 1.414595 -22.884625 28.679824 0.081924 2.494657 0.028006 -0.016196 -712867.000000 0 0 1
9.187608 27.289095 3.673679 29.027620 1.246040 1.443898 -0.017422 0.018604 -50064.500000 0 0 1
9.182908 27.445495 5.098979 29.386741 1.247918 1.396401 -0.009267 0.016071 -1094730.000000 0 0 1
10.348308 28.008495 5.497579 30.360939 1.216882 1.388718 0.001996 0.021202 -1316210.000000 0 0 1
10.307208 28.489695 6.945679 31.082852 1.223659 1.345437 0.006385 0.008620 36010.700000 0 0 1
10.279108 27.413095 7.934279 30.332995 1.212051 1.306145 0.004995 -0.002760 38495.700000 0 0 1
10.356508 27.984595 9.240579 31.237527 1.216347 1.270486 0.024974 -0.005990 -352214.000000 0 0 1
10.229708 26.901395 10.270079 30.558248 1.207416 1.228042 0.028458 -0.004604 -441033.000000 0 0 1
11.314208 26.124895 10.647479 30.395563 1.162101 1.212908 0.022247 0.005411 -568007.000000 0 0 1
11.947708 25.285495 9.692579 29.598143 1.129380 1.237169 0.021397 0.002032 -293511.000000 0 0 1
13.261608 24.704295 10.226479 29.845491 1.078133 1.221063 0.022369 -0.000794 -516846.000000 0 0 1
14.287508 25.661295 10.365079 31.145944 1.062768 1.231535 0.021406 0.003151 -357045.000000 0 0 1
15.390108 24.947395 10.884679 31.268261 1.018041 1.215246 0.022958 0.003592 56812.200000 0 0 1
16.607908 25.829195 11.249279 32.703458 0.999365 1.219646 0.028607 -0.004468 -396000.000000 0 0 1
17.160908 26.569095 10.200279 33.233406 0.997311 1.258832 0.031271 -0.007567 48532.200000 0 0 1
18.562508 26.590395 10.047879 33.949605 0.961353 1.270331 0.027769 -0.014760 262329.000000 0 0 1
19.360808 27.426795 11.096379 35.358162 0.956116 1.251574 0.034350 -0.019284 -553648.000000 0 0 1
19.392708 28.861895 10.922779 36.447129 0.979170 1.266430 0.039146 -0.036463 904447.000000 0 0 1
18.133408 29.458495 11.322279 36.398041 1.019016 1.254479 0.033024 -0.022712 872537.000000 0 0 1
18.246108 30.920495 11.623779 37.737378 1.037690 1.257688 0.030863 -0.019609 -919498.000000 0 0 1
18.690708 31.863395 10.660679 38.448258 1.040296 1.289841 0.045365 -0.031318 378240.000000 0 0 1
17.823008 32.192295 9.531079 38.011116 1.065161 1.317347 0.049701 -0.036378 1387800.000000 0 0 1
16.412408 32.817295 9.884679 38.000643 1.107057 1.307651 0.049662 -0.026689 748077.000000 0 0 1
16.478808 34.155395 10.417879 39.327780 1.121274 1.302697 0.047549 -0.025015 -666550.000000 0 0 1
15.217808 -33.996726 10.237679 38.628605 -1.149919 1.302563 0.053659 -0.014801 -427164.000000 0 0 1
15.215108 -32.474526 10.358279 37.328117 -1.132645 1.289613 0.051534 -0.006570 -413931.000000 0 0 1
15.854308 -31.928526 9.252279 36.829262 -1.109908 1.316855 0.062400 -0.013411 -54566.800000 0 0 1
15.996608 -30.559626 9.326779 35.731933 -1.088561 1.306717 0.063718 -0.015046 -378383.000000 0 0 1
16.834408 -29.876626 8.281079 35.278695 -1.057675 1.333852 0.051894 -0.010407 -119222.000000 0 0 1
16.156708 -29.810226 7.023079 34.626759 -1.074127 1.366557 0.042265 -0.007792 368506.000000 0 0 1
17.096008 -29.449726 6.037579 34.583410 -1.044827 1.395317 0.033693 -0.003371 119527.000000 0 0 1
16.555208 -29.464126 4.564279 34.103406 -1.058880 1.436557 0.035008 -0.008520 -225137.000000 0 0 1
16.494808 -30.823926 4.044779 35.193087 -1.079441 1.455611 0.038006 -0.011983 28298.300000 0 0 1
16.206708 -30.843326 2.668779 34.944106 -1.086995 1.494349 0.037538 -0.007380 -62299.600000 0 0 1
16.287808 -32.294126 2.191479 36.235423 -1.103668 1.510280 0.022487 -0.012023 687693.000000 0 0 1
17.593808 -32.882426 2.364179 37.368240 -1.079502 1.507487 0.036204 -0.007142 772848.000000 0 0 1
17.647408 -34.166626 1.806979 38.497461 -1.094028 1.523841 0.045154 -0.013162 -1007870.000000 0 0 1
18.970408 33.822195 1.779179 38.819875 1.059633 1.524949 0.049911 -0.015955 -528565.000000 0 0 1
19.590508 33.535195 3.033179 38.956353 1.042092 1.492856 0.052493 -0.034079 1053350.000000 0 0 1
20.982608 33.180495 2.863579 39.362611 1.006909 1.497983 0.052769 -0.029359 1128250.000000 0 0 1
21.665608 33.126195 4.274679 39.812262 0.991592 1.463218 0.055630 -0.036012 -195990.000000 0 0 1
21.167408 32.155495 5.197879 38.846531 0.988620 1.436588 0.064974 -0.038859 -41955.200000 0 0 1
21.922308 30.963595 5.138679 38.284955 0.954720 1.436168 0.040671 -0.045482 -95075.500000 0 0 1
21.479808 29.880095 6.179579 37.314735 0.947520 1.404423 0.040529 -0.037911 656002.000000 0 0 1
20.184408 29.355795 5.861479 36.104431 0.968456 1.407727 0.039652 -0.027567 411043.000000 0 0 1
19.469008 29.017595 7.038379 35.645503 0.979842 1.372035 0.032079 -0.032377 249408.000000 0 0 1
17.920708 29.172795 6.968779 34.939485 1.019932 1.369997 0.056427 -0.020799 394082.000000 0 0 1
17.372308 30.503095 6.764679 35.749081 1.053086 1.380422 0.047210 -0.024796 206709.000000 0 0 1
17.661308 31.063995 5.507379 36.155564 1.053826 1.417876 0.059979 -0.027104 -583194.000000 0 0 1
17.584508 32.615095 5.485779 37.457350 1.076319 1.423814 0.068566 -0.025658 40758.300000 0 0 1
16.277308 33.128595 5.537679 37.324529 1.114103 1.421881 0.062621 -0.022035 -182555.000000 0 0 1
16.379708 -34.159026 5.534079 38.285244 -1.123672 1.425740 0.058087 -0.024184 -173335.000000 0 0 1
14.998808 -33.492126 5.672879 37.133116 -1.149748 1.417424 0.047727 -0.018209 727191.000000 0 0 1
14.046508 -33.750826 4.612079 36.846898 -1.176418 1.445298 0.038552 -0.012961 -224303.000000 0 0 1
12.884208 -33.008826 4.715179 35.746585 -1.198657 1.438505 0.029762 -0.007709 -582907.000000 0 0 1
12.178908 -32.929226 3.358879 35.269559 -1.216547 1.475417 0.024350 -0.004315 -120368.000000 0 0 1
11.083808 -32.025526 3.382879 34.057730 -1.237606 1.471304 0.033114 -0.011325 131136.000000 0 0 1
10.726108 -31.698526 2.022779 33.525178 -1.244512 1.510424 0.039823 -0.010067 -333324.000000 0 0 1
9.692108 -30.546526 2.014879 32.110543 -1.263554 1.508007 0.057555 -0.011857 101690.000000 0 0 1
9.121108 -30.146226 0.766879 31.505200 -1.276991 1.546453 0.063255 -0.012488 525148.000000 0 0 1
8.182808 -31.051326 0.152179 32.111779 -1.313129 1.566057 0.058517 -0.012826 -432656.000000 0 0 1
8.599908 -31.442626 -1.225321 32.620524 -1.303815 1.608368 0.077800 -0.021550 -451976.000000 0 0 1
9.733108 -32.242126 -1.070621 33.696206 -1.277620 1.602574 0.065020 -0.014346 -511605.000000 0 0 1
9.775608 -33.220926 -2.086421 34.692155 -1.284613 1.630974 0.074421 -0.012856 172651.000000 0 0 1
10.934908 -34.255326 -2.024321 36.015239 -1.261803 1.627033 0.045125 -0.007478 180850.000000 0 0 1
10.788808 33.652495 -0.922021 35.351646 1.260554 1.596881 0.035901 0.000855 -139231.000000 0 0 1
11.880708 32.781295 -0.863621 34.878508 1.223097 1.595560 0.033092 -0.000722 -509471.000000 0 0 1
12.031608 32.096495 0.523179 34.281457 1.212151 1.555534 0.025899 -0.001438 -783663.000000 0 0 1
12.446808 32.864495 1.664079 35.181916 1.208759 1.523479 0.021745 -0.004201 38906.500000 0 0 1
13.760908 33.369595 1.588679 36.130546 1.179664 1.526812 0.034952 -0.004281 52978.000000 0 0 1
14.884708 32.282595 1.761079 35.592441 1.138770 1.521297 0.049530 -0.011314 -863595.000000 0 0 1
15.421908 31.766795 0.607579 35.317611 1.118838 1.553592 0.048141 -0.012902 360753.000000 0 0 1
16.167708 30.518395 0.737579 34.544337 1.083618 1.549443 0.067903 -0.010871 780799.000000 0 0 1
17.055208 30.127995 -0.515821 34.624301 1.055683 1.585695 0.065892 -0.008423 244925.000000 0 0 1
18.027308 31.066495 -0.883021 35.928967 1.045002 1.595376 0.055969 -0.002056 -42936.400000 0 0 1
17.617508 31.996195 -1.881121 36.574194 1.067483 1.622252 0.061258 -0.012202 -312939.000000 0 0 1
18.831908 32.734395 -2.433321 37.843129 1.048741 1.635141 0.051899 -0.007468 -229721.000000 0 0 1
19.553908 33.552095 -1.540021 38.864766 1.043126 1.610432 0.036398 -0.004249 -41313.200000 0 0 1
20.582708 34.189995 -2.267921 39.971828 1.028900 1.627565 0.033185 -0.003511 -249698.000000 0 0 1
21.642808 -33.779626 -1.356421 40.141178 -1.000982 1.604594 0.035563 -0.006600 -58558.500000 0 0 1
22.549308 34.074495 -0.612021 40.864619 0.986195 1.585774 0.032510 -0.007473 1104940.000000 0 0 1
23.563308 33.346495 -1.303421 40.852382 0.955641 1.602707 0.037193 -0.003200 437285.000000 0 0 1
24.510508 34.119495 -2.279021 42.072543 0.947846 1.624992 0.025021 -0.009222 -1500990.000000 0 0 1
23.733808 -34.086126 -3.337421 41.668885 -0.962565 1.650976 0.032450 -0.013011 -476157.000000 0 0 1
24.440408 -33.523526 -4.383921 41.717851 -0.940837 1.676076 0.033433 -0.009699 -159204.000000 0 0 1
23.552208 -33.099926 -5.642221 41.013976 -0.952362 1.708802 0.030407 -0.016200 287221.000000 0 0 1
22.703908 -31.977326 -5.528921 39.605376 -0.953390 1.710854 0.032066 -0.013054 313784.000000 0 0 1
22.050908 -31.666626 -6.754021 39.174412 -0.962527 1.744071 0.032015 -0.019361 -165748.000000 0 0 1
21.105708 -30.471326 -6.617521 37.652944 -0.965026 1.747464 0.041511 -0.019097 -32839.000000 0 0 1
19.952208 -30.705826 -5.840521 37.081667 -0.994572 1.728959 0.042826 -0.013964 -299626.000000 0 0 1
19.220008 -29.519526 -5.675521 35.679443 -0.993652 1.730545 0.047614 -0.020602 416353.000000 0 0 1
17.955308 -29.612826 -4.789621 34.960735 -1.025731 1.708229 0.030997 -0.010888 -357725.000000 0 0 1
16.893608 -30.367426 -5.216021 35.139457 -1.063124 1.719785 0.029026 -0.016231 -753665.000000 0 0 1
15.844408 -30.245026 -4.250621 34.407479 -1.088237 1.694650 0.017818 -0.007376 866038.000000 0 0 1
14.508308 -30.973426 -4.622021 34.513870 -1.132737 1.705118 0.020564 -0.011792 336631.000000 0 0 1
14.699508 -32.373926 -4.788321 35.875822 -1.144576 1.704665 0.024646 0.000822 -339216.000000 0 0 1
13.544608 -33.026426 -5.235821 36.077902 -1.181601 1.716436 0.050711 0.001502 -278759.000000 0 0 1
13.652208 34.120795 -5.233821 37.121480 1.190192 1.712259 0.046289 -0.005663 30773.500000 0 0 1
13.934708 33.501295 -3.975121 36.500882 1.176620 1.679918 0.043333 -0.010175 201200.000000 0 0 1
14.305408 32.069195 -3.993821 35.341598 1.151208 1.684044 0.050204 -0.010315 310672.000000 0 0 1
13.248608 31.075395 -4.613221 34.095272 1.167793 1.706516 0.056371 -0.015465 576946.000000 0 0 1
12.167508 30.649995 -3.818121 33.197115 1.192894 1.686065 0.045983 -0.008447 154510.000000 0 0 1
12.593108 29.691995 -2.871021 32.379680 1.169667 1.659580 0.053810 -0.004753 -273720.000000 0 0 1
11.381308 28.963695 -2.255621 31.201244 1.196382 1.643152 0.036182 0.003113 -145533.000000 0 0 1
10.686108 29.732295 -1.336221 31.622583 1.225762 1.613064 0.011170 0.001594 -601939.000000 0 0 1
9.738908 28.843095 -0.793221 30.453237 1.245165 1.596846 -0.002337 0.015331 -440654.000000 0 0 1
8.851308 29.455095 0.279179 30.757539 1.278879 1.561719 -0.013142 0.025748 -264039.000000 0 0 1
7.899508 28.569195 0.815179 29.652414 1.301032 1.543302 -0.014676 0.019944 -719329.000000 0 0 1
6.748408 29.304995 1.052679 30.090395 1.344460 1.535805 0.010952 0.020040 -976185.000000 0 0 1
5.616708 28.575495 1.764579 29.175676 1.376714 1.510278 0.015828 0.010956 -354907.000000 0 0 1
5.210408 27.467595 1.017979 27.975943 1.383331 1.534401 0.024383 0.002253 273981.000000 0 0 1
4.167308 26.788595 1.731579 27.166038 1.416471 1.507012 0.024628 -0.006891 314456.000000 0 0 1
3.446508 25.744695 0.854379 25.988414 1.437715 1.537915 0.026670 -0.004641 222157.000000 0 0 1
2.256608 25.357495 1.548879 25.504781 1.482038 1.510030 0.044996 -0.013268 386873.000000 0 0 1
1.493108 24.612295 0.602879 24.664912 1.510205 1.546351 0.033148 -0.010788 580734.000000 0 1 0
0.130508 23.994795 1.047679 24.018011 1.565357 1.527162 0.035701 -0.010889 614781.000000 0 1 0
-0.973792 24.848395 0.992079 24.887250 -1.531627 1.530923 0.042046 -0.015518 121253.000000 0 1 0
-2.224292 24.232395 1.261679 24.366950 -1.479263 1.518995 0.032022 -0.012299 11441.900000 0 1 0
-3.380792 25.170595 1.605379 25.447315 -1.437280 1.507668 0.048199 -0.025545 554102.000000 0 0 1
-4.639192 24.483995 1.358579 24.956639 -1.383538 1.516332 0.037773 -0.021634 706650.000000 0 1 0
-5.677392 24.973295 2.175579 25.702750 -1.347257 1.486051 0.033028 -0.027159 -200461.000000 0 0 1
-6.911892 25.311695 1.331379 26.272204 -1.304224 1.520098 0.036177 -0.021194 -502072.000000 0 0 1
-6.743792 26.602895 0.804779 27.456154 -1.322528 1.541481 0.045930 -0.022034 240617.000000 0 0 1
-7.502292 26.693895 -0.397321 27.730962 -1.296815 1.585125 0.034799 -0.013560 -564755.000000 0 0 1
-7.250792 27.960295 -1.263521 28.912775 -1.317061 1.614511 0.025220 -0.006276 -44822.200000 0 0 1
-7.620892 29.167795 -0.699121 30.155049 -1.315232 1.593983 0.031389 -0.016707 -174203.000000 0 0 1
-7.426892 30.143895 -1.716321 31.092746 -1.329226 1.626024 0.026039 -0.013308 45129.600000 0 0 1
-7.584792 31.663595 -1.318021 32.586032 -1.335684 1.611255 0.014705 -0.012007 -608944.000000 0 0 1
-7.659292 32.571195 -2.427021 33.547547 -1.339837 1.643205 0.006928 0.003693 -145134.000000 0 0 1
-6.599892 32.733595 -3.370321 33.561970 -1.371839 1.671387 0.001710 0.002376 726960.000000 0 0 1
-5.257992 33.269995 -2.747921 33.794823 -1.414053 1.652198 0.014327 -0.009334 -91142.600000 0 0 1
-5.250892 -34.086626 -2.496121 34.578903 1.417952 1.643045 0.012651 -0.001935 141701.000000 0 0 1
-4.208392 -33.654726 -1.634121 33.956170 1.446396 1.618939 0.020476 -0.006350 41575.300000 0 0 1
-4.081292 -32.180226 -1.870821 32.491904 1.444644 1.628406 0.024111 -0.013130 568851.000000 0 0 1
-5.329692 -31.506226 -1.666121 31.997248 1.403220 1.622891 0.021839 -0.008057 214598.000000 0 0 1
-5.427092 -30.173826 -2.053821 30.726719 1.392838 1.637688 0.032877 -0.005221 -116688.000000 0 0 1
-6.789892 -29.506826 -1.815921 30.332375 1.344621 1.630700 0.053496 -0.003780 4908.140000 0 0 1
-6.925592 -29.167226 -0.444721 29.981472 1.337669 1.585630 0.039442 -0.003229 -236640.000000 0 0 1
-8.145492 -28.481026 -0.268221 29.624143 1.292235 1.579851 0.035190 -0.003660 -19115.800000 0 0 1
-8.217892 -27.835226 1.111079 29.044243 1.283718 1.532532 0.036883 0.000562 388788.000000 0 0 1
-7.210492 -26.855926 1.391579 27.841847 1.308494 1.520794 0.059474 -0.012674 -63876.600000 0 0 1
-7.212492 -26.553726 2.754879 27.653386 1.305576 1.471009 0.055098 -0.000913 310605.000000 0 0 1
-8.365792 -25.624826 3.247579 27.150782 1.255234 1.450897 0.048114 -0.002599 217742.000000 0 0 1
-8.132792 -24.208126 3.069279 25.721511 1.246690 1.451184 0.045433 -0.007929 -217952.000000 0 0 1
-9.154192 -23.442026 3.689779 25.435060 1.198503 1.425216 0.047789 -0.006887 -35948.200000 0 0 1
-8.756992 -21.978626 3.797579 23.961772 1.191642 1.411640 0.028765 0.009811 432557.000000 0 1 0
-7.655592 -21.899826 4.705379 23.671735 1.234502 1.370687 0.025195 0.003151 150963.000000 0 1 0
-7.019792 -20.645926 4.916879 22.354137 1.243050 1.349029 0.011197 -0.000464 -77802.000000 0 1 0
-7.852992 -19.618026 5.677779 21.880896 1.190036 1.308307 0.011741 -0.001846 -107498.000000 0 1 0
-7.902492 -19.899126 7.066579 22.546865 1.192769 1.252007 0.002754 0.002039 -65513.900000 0 1 0
-9.019492 -19.263226 7.620679 22.594200 1.132892 1.226765 0.005448 0.007108 -450410.000000 0 1 0
-27.076592 28.893495 -5.690621 40.004487 -0.817849 1.713530 0.068464 -0.019895 -551389.000000 0 0 1
-26.432352 29.420995 -4.629021 39.820748 -0.838856 1.687306 0.047504 -0.030806 -304295.000000 0 0 1
-25.306752 28.694595 -4.146021 38.483775 -0.848052 1.678740 0.047226 -0.030285 238939.000000 0 0 1
-24.380792 29.563595 -3.301421 38.462040 -0.881181 1.656738 0.033410 -0.021308 -420172.000000 0 0 1
-24.950892 29.831195 -2.026421 38.942953 -0.874249 1.622855 0.029174 -0.023559 424354.000000 0 0 1
-24.323592 30.909095 -1.283621 39.352979 -0.904070 1.603420 0.035441 -0.025099 648624.000000 0 0 1
-22.930992 30.657695 -0.631721 38.289995 -0.928597 1.587295 0.036721 -0.022097 467487.000000 0 0 1
-21.841792 30.409695 -1.482921 37.470154 -0.947926 1.610383 0.044523 -0.030928 -269108.000000 0 0 1
-20.627492 30.702895 -0.830221 36.997979 -0.979219 1.593238 0.039715 -0.028309 -538730.000000 0 0 1
-19.412692 30.348095 -1.670821 36.064541 -1.001719 1.617142 0.052535 -0.028950 -1078960.000000 0 0 1
-18.213092 30.514095 -0.993921 35.550170 -1.032678 1.598758 0.052590 -0.025166 -284594.000000 0 0 1
-17.179692 29.816495 -1.708721 34.454098 -1.048075 1.620411 0.044461 -0.025096 1095420.000000 0 0 1
-15.709792 30.012195 -1.193621 33.896226 -1.088568 1.606018 0.044160 -0.022067 743236.000000 0 0 1
-15.473192 29.290195 0.007479 33.126051 -1.084788 1.570571 0.032630 -0.025797 -92584.500000 0 0 1
-14.289292 29.849995 0.550479 33.098475 -1.124331 1.554164 0.029870 -0.027646 58026.600000 0 0 1
-13.809692 29.081095 1.711779 32.238918 -1.127455 1.517675 0.023022 -0.027109 -43873.200000 0 0 1
-14.809592 29.044895 2.761179 32.719322 -1.099271 1.486306 0.015788 -0.023879 313980.000000 0 0 1
-14.445292 28.350795 3.956179 32.063770 -1.099562 1.447096 0.020952 -0.030701 -142863.000000 0 0 1
-13.365292 28.937395 4.874179 32.245332 -1.138116 1.419055 0.030664 -0.027260 -236929.000000 0 0 1
-13.626492 30.176395 5.586879 33.578405 -1.146645 1.403636 0.020467 -0.027306 -380715.000000 0 0 1
-13.427592 31.319995 4.773779 34.409755 -1.165777 1.431614 0.027341 -0.022334 -17156.100000 0 0 1
-13.064992 32.611095 5.587579 35.572441 -1.189747 1.413067 0.029890 -0.022245 725346.000000 0 0 1
-14.172092 33.176195 6.336179 36.628612 -1.167084 1.396937 0.029677 -0.016659 866360.000000 0 0 1
-13.732292 34.263695 7.171879 37.603357 -1.189615 1.378896 0.046785 -0.027010 439716.000000 0 0 1
-14.955892 -33.917926 7.968379 37.915689 1.155499 1.359057 0.032277 -0.020320 589232.000000 0 0 1
-15.397892 33.781095 8.933879 38.184704 -1.143118 1.334643 0.017970 -0.021777 -133733.000000 0 0 1
-16.344992 34.167895 9.877579 39.142948 -1.124600 1.315692 0.036402 -0.021858 -791046.000000 0 0 1
-16.401692 33.247695 11.125279 38.706544 -1.112508 1.279258 0.040536 -0.018212 -26708.000000 0 0 1
-15.589392 33.638295 12.177679 39.023837 -1.136821 1.253438 0.039235 -0.011097 525363.000000 0 0 1
-14.177992 33.407895 12.035679 38.235591 -1.169442 1.250575 0.031463 -0.004759 471846.000000 0 0 1
-13.390592 33.622695 13.374879 38.583428 -1.191790 1.216801 0.039685 -0.002731 -272712.000000 0 0 1
-13.775692 32.828395 14.454079 38.423867 -1.173485 1.185132 0.038738 -0.001436 -49459.900000 0 0 1
-13.091492 31.568995 14.599379 37.163564 -1.177687 1.167077 0.019676 0.005453 -303642.000000 0 0 1
-13.823592 30.257595 14.173579 36.159426 -1.142249 1.168019 0.021994 -0.001890 -199803.000000 0 0 1
-13.873892 30.046095 12.772279 35.473706 -1.138211 1.202476 0.022457 0.000087 57046.900000 0 0 1
-15.167892 29.695595 12.357779 35.561327 -1.098563 1.215886 0.017430 -0.008944 -295617.000000 0 0 1
-15.325992 29.763495 10.867879 35.197478 -1.095279 1.256898 0.015623 -0.007061 -364540.000000 0 0 1
-14.609192 28.792395 10.207979 33.861975 -1.101248 1.264574 0.018866 -0.004724 -53812.500000 0 0 1
-14.902792 28.753995 8.783279 33.556391 -1.092627 1.305965 0.011112 -0.008209 -345881.000000 0 0 1
-14.404392 27.416095 8.208179 32.039085 -1.087036 1.311715 0.010705 -0.007304 -1104020.000000 0 0 1
-13.047892 27.433895 8.007579 31.416355 -1.126849 1.313067 0.031224 -0.011162 -1297540.000000 0 0 1
-12.479992 26.159995 8.006379 30.069879 -1.125665 1.301286 0.025292 -0.016374 -866815.000000 0 0 1
-11.141292 26.191795 7.319279 29.388949 -1.168609 1.319098 0.047381 -0.024531 -905968.000000 0 0 1
-11.282992 26.372495 5.908179 29.286874 -1.166530 1.367668 0.050484 -0.027991 -133096.000000 0 0 1
-10.057692 26.348995 5.236279 28.685280 -1.206155 1.387225 0.067471 -0.030758 -454483.000000 0 0 1
-10.174592 26.573995 3.713579 28.696519 -1.205137 1.441024 0.045671 -0.023806 4194.300000 0 0 1
-10.289192 27.937395 3.337579 29.958387 -1.217917 1.459157 0.051644 -0.022505 -19380.800000 0 0 1
-10.233992 28.117695 1.922579 29.983923 -1.221731 1.506632 0.041486 -0.023801 -208499.000000 0 0 1
-9.893692 29.574995 1.579579 31.225959 -1.247970 1.520189 0.050056 -0.022043 203702.000000 0 0 1
-10.688092 30.592195 2.188079 32.479307 -1.234680 1.503377 0.036029 -0.029107 168697.000000 0 0 1
-10.132492 31.858495 1.773379 33.477992 -1.262866 1.517800 0.024137 -0.022531 11074.100000 0 0 1
-10.580892 33.156995 2.544079 34.897190 -1.261896 1.497829 0.017511 -0.016616 236943.000000 0 0 1
-11.916492 33.564695 2.240679 35.687703 -1.229647 1.507969 0.038024 -0.024067 128088.000000 0 0 1
-11.996292 -34.293826 1.111279 36.348486 1.234292 1.540219 0.030810 -0.012754 513723.000000 0 0 1
-13.480892 -34.112126 0.654579 36.685148 1.194440 1.552952 0.043794 -0.017296 966677.000000 0 0 1
-14.135492 33.470795 0.042979 36.333291 -1.171195 1.569613 0.042318 -0.016898 87209.800000 0 0 1
-14.585492 33.645595 -1.284221 36.693485 -1.161745 1.605802 0.055180 -0.015460 669591.000000 0 0 1
-13.456192 33.520795 -2.413321 36.201338 -1.189059 1.637510 0.041583 -0.010644 798131.000000 0 0 1
-13.116692 32.169795 -2.538921 34.833740 -1.183641 1.643748 0.036516 -0.006941 -628849.000000 0 0 1
-11.749492 32.158595 -2.835621 34.355007 -1.220503 1.653429 0.029057 0.000770 -219257.000000 0 0 1
-11.123192 30.730295 -2.900221 32.809872 -1.223505 1.659307 0.014747 -0.010432 30346.500000 0 0 1
-11.468792 30.144695 -4.103321 32.512660 -1.207249 1.697341 0.021334 0.001160 -199662.000000 0 0 1
-10.356792 30.022395 -4.966821 32.144620 -1.238611 1.725933 0.018726 -0.004310 20736.400000 0 0 1
-10.653592 29.243595 -6.306821 31.756304 -1.221435 1.770726 0.028289 0.001406 -73562.800000 0 0 1
-10.898992 27.876395 -6.138821 30.554321 -1.198094 1.773088 0.019195 0.009795 -26395.000000 0 0 1
-10.927892 27.156695 -7.344321 30.180191 -1.188221 1.816614 0.016442 0.012679 80103.800000 0 0 1
-11.445592 25.681295 -7.235421 29.032426 -1.151542 1.822670 0.034117 0.005474 211841.000000 0 0 1
-10.687692 24.859495 -6.377621 27.800994 -1.164762 1.802260 0.013120 0.011620 109230.000000 0 0 1
-11.037392 23.515395 -6.707121 26.828777 -1.131953 1.823474 0.024781 0.002588 71596.300000 0 0 1
-10.418692 22.491295 -5.714521 25.437437 -1.136993 1.797380 0.022294 -0.001011 182217.000000 0 0 1
-9.059692 22.126795 -5.939021 24.636254 -1.182175 1.814263 0.026795 -0.007297 387206.000000 0 1 0
-8.615792 20.914295 -5.310621 23.234506 -1.180025 1.801401 0.034596 -0.010670 -468636.000000 0 1 0
-8.517492 20.864595 -3.761921 22.847998 -1.183218 1.736199 0.025134 -0.018735 -200228.000000 0 1 0
-9.698292 20.768095 -2.994721 23.115773 -1.133912 1.700715 0.028300 -0.017773 -272099.000000 0 1 0
-10.422092 19.585795 -3.132421 22.406147 -1.081780 1.711058 0.035012 -0.020060 50984.900000 0 1 0
-11.760392 19.479095 -2.341421 22.874094 -1.027628 1.673337 0.035137 -0.019653 180657.000000 0 1 0
-11.589092 19.546995 -0.886221 22.741535 -1.035626 1.609775 0.038117 -0.023029 215515.000000 0 1 0
-11.200792 18.266095 -0.316921 21.429148 -1.020727 1.585586 0.031582 -0.019185 27214.700000 0 1 0
-10.893892 18.384895 1.187479 21.403068 -1.035876 1.515286 0.026323 -0.019500 -269994.000000 0 1 0
-12.096892 18.416595 1.888679 22.114992 -0.989623 1.485289 0.043685 -0.022624 -94379.800000 0 1 0
-11.764992 18.587095 3.275479 22.240141 -1.006489 1.422981 0.037134 -0.015869 -597877.000000 0 1 0
-12.971892 18.537995 4.145379 23.002421 -0.960241 1.389591 0.040834 -0.015300 -356068.000000 0 1 0
-13.639092 17.262695 4.355979 22.427662 -0.902127 1.375330 0.029935 -0.015967 865249.000000 0 1 0
-14.927192 17.419795 4.941179 23.466690 -0.862304 1.358647 0.035394 -0.013005 437491.000000 0 1 0
-15.555392 16.123595 5.570579 23.086184 -0.803333 1.327096 0.031486 -0.008562 32622.800000 0 1 0
-14.759192 15.580895 6.606079 22.455251 -0.812475 1.272190 0.030546 -0.009672 172684.000000 0 1 0
-15.216992 16.072995 7.879979 23.494512 -0.812748 1.228770 0.025012 -0.007907 -826973.000000 0 1 0
-14.167592 15.810295 8.990379 23.054566 -0.840141 1.170207 0.017434 -0.008534 1630950.000000 0 1 0
-12.982392 16.665795 8.977079 22.953849 -0.909002 1.168978 0.024304 -0.013118 1203030.000000 0 1 0
-12.137092 16.505695 7.850279 21.940233 -0.936752 1.204882 0.024453 -0.014213 -1019460.000000 0 1 0
-11.001392 17.515195 7.672179 22.060712 -1.009967 1.215599 0.037379 -0.016852 502200.000000 0 1 0
-9.898092 17.422095 8.564479 21.791097 -1.054137 1.166876 0.038054 -0.017531 24209.800000 0 1 0
-9.078192 18.548495 8.592279 22.367107 -1.115640 1.176511 0.037599 -0.021829 62003.800000 0 1 0
-7.820392 18.410895 9.480479 22.135922 -1.169121 1.128202 0.035221 -0.024882 -170681.000000 0 1 0
-6.796992 17.567795 8.916379 20.840545 -1.201633 1.128697 0.023524 -0.020058 78713.600000 0 1 0
-5.578892 17.699795 9.621979 20.904288 -1.265458 1.092477 0.020319 -0.021654 249597.000000 0 1 0
-4.705592 18.793995 8.971479 21.350510 -1.325462 1.137131 0.015630 -0.023659 -1399930.000000 0 1 0
-5.221592 20.061795 9.270579 22.708683 -1.316170 1.150272 0.030867 -0.030591 -30294.400000 0 1 0
-4.685292 21.028095 8.354679 23.106999 -1.351566 1.200851 0.037324 -0.031050 785228.000000 0 1 0
-3.264392 21.633295 8.695979 23.543062 -1.421030 1.192471 0.032924 -0.023988 764866.000000 0 1 0
-2.209892 20.707395 8.515079 22.498586 -1.464479 1.182652 0.019662 -0.011652 146952.000000 0 1 0
-0.991592 21.459395 8.477979 23.094697 -1.524621 1.194911 0.016024 -0.009987 710556.000000 0 1 0
0.324608 20.690095 8.246879 22.275466 1.555109 1.191548 0.015065 0.000501 433609.000000 0 1 0
0.753808 19.866595 9.304679 21.950555 1.532871 1.133057 0.018443 -0.014026 -839779.000000 0 1 0
2.075308 19.418895 9.198879 21.587491 1.464330 1.130596 0.007292 -0.015904 -198958.000000 0 1 0
2.549508 18.469695 10.340779 21.320444 1.433626 1.064414 -0.001364 -0.045510 -121704.000000 0 1 0
3.957608 18.389795 10.379979 21.484673 1.358823 1.066565 0.020747 -0.019424 -354494.000000 0 1 0
4.317108 18.141895 11.718079 22.024512 1.337178 1.009780 0.009540 -0.022124 500389.000000 0 1 0
5.866208 18.201095 11.895179 22.520825 1.259009 1.014334 0.029378 -0.025007 604176.000000 0 1 0
6.648208 17.233795 11.209179 21.606667 1.202621 1.025369 0.020168 -0.026541 -87895.400000 0 1 0
7.571208 16.699895 12.106479 21.972176 1.145145 0.987245 0.027316 -0.019493 -80396.100000 0 1 0
8.879608 16.010495 11.630779 21.690053 1.064419 1.004836 0.030430 -0.018245 157428.000000 0 1 0
9.851308 16.869795 11.158079 22.497577 1.042253 1.051847 0.041249 -0.029349 -725301.000000 0 1 0
11.023708 16.239095 10.710579 22.359491 0.974415 1.071262 0.036644 -0.024819 -120246.000000 0 1 0
11.915808 17.312495 10.039679 23.291718 0.967981 1.125150 0.040668 -0.023746 -299253.000000 0 1 0
12.943008 16.686395 9.321379 23.083443 0.911073 1.155116 0.035576 -0.020125 3347.940000 0 1 0
13.709608 17.638695 8.543279 23.917870 0.910084 1.205536 0.036181 -0.008961 717978.000000 0 1 0
14.802808 16.984895 7.658479 23.796262 0.853936 1.243129 0.026645 -0.013074 -303696.000000 0 1 0
15.931108 16.411795 8.216879 24.303586 0.800259 1.225906 0.041200 -0.015881 -510119.000000 0 1 0
16.911708 16.131695 7.240779 24.467659 0.761797 1.270365 0.060430 -0.010068 -40341.500000 0 1 0
18.302208 16.045595 7.931079 25.599491 0.719794 1.255799 0.036665 -0.008334 -215706.000000 0 0 1
18.424308 14.966795 8.844379 25.331465 0.682220 1.214137 0.036774 -0.001514 235930.000000 0 0 1
19.573608 15.281095 9.613079 26.627979 0.662861 1.201441 0.035135 0.000457 -45144.000000 0 0 1
19.958708 14.119295 10.557979 26.630348 0.615692 1.163134 0.038951 -0.003374 -120053.000000 0 0 1
20.550108 13.114795 9.768879 26.262821 0.568025 1.189670 0.047465 -0.011474 146130.000000 0 0 1
20.864008 12.050395 10.629179 26.334356 0.523762 1.155322 0.060391 -0.018847 -553495.000000 0 0 1
21.636208 10.925395 9.958879 26.204370 0.467607 1.180950 0.053052 -0.015546 11312.900000 0 0 1
23.025808 11.305795 9.994879 27.530101 0.456426 1.199254 0.048350 -0.010770 1375860.000000 0 0 1
23.904308 10.477095 9.230479 27.683699 0.413076 1.230861 0.063252 -0.016679 81718.100000 0 0 1
24.280508 9.069195 9.765379 27.697581 0.357470 1.210479 0.081276 -0.023430 -927948.000000 0 0 1
23.232908 8.164595 9.670379 26.456471 0.337943 1.196605 0.081131 -0.017270 166716.000000 0 0 1
23.687008 6.787895 9.899779 26.554764 0.279087 1.188765 0.082843 -0.023526 656810.000000 0 0 1
24.718308 6.082795 8.951579 26.983809 0.241290 1.232650 0.087333 -0.024059 679507.000000 0 0 1
24.157608 5.759695 7.679779 25.995060 0.234052 1.270888 0.098477 -0.014171 -161541.000000 0 0 1
25.116708 5.418295 6.766179 26.570437 0.212469 1.313310 0.102678 -0.016668 -640603.000000 0 0 1
24.405908 5.257595 5.431979 25.549893 0.212180 1.356558 0.097664 -0.028356 601838.000000 0 0 1
23.508008 4.105495 5.360479 24.458460 0.172899 1.349836 0.102253 -0.027863 960402.000000 0 1 0
23.098108 3.797195 4.049079 23.755764 0.162937 1.399514 0.095739 -0.030402 -229817.000000 0 1 0
22.119308 2.610495 4.001479 22.629413 0.117475 1.393035 0.085579 -0.020830 -301840.000000 0 1 0
22.734508 1.377195 4.318679 23.182008 0.060503 1.383407 0.099210 -0.018313 769026.000000 0 1 0
21.912608 0.267695 3.868279 22.253037 0.012216 1.396077 0.072824 -0.013520 168501.000000 0 1 0
22.443008 -1.162005 4.152179 22.853434 -0.051730 1.388094 0.074579 -0.012107 -622792.000000 0 1 0
22.358908 -1.502005 5.524479 23.080222 -0.067076 1.329090 0.072777 -0.014757 691996.000000 0 1 0
22.470108 -2.926305 5.676079 23.359942 -0.129502 1.325356 0.057761 -0.012581 -551434.000000 0 1 0
22.132308 -3.413205 7.091579 23.489988 -0.153013 1.264113 0.061947 -0.012875 -189501.000000 0 1 0
22.241908 -4.794405 7.264079 23.884213 -0.212309 1.261764 0.054437 -0.013009 599143.000000 0 1 0
22.001808 -5.123505 8.600179 24.172152 -0.228790 1.207038 0.066439 -0.012565 -83667.400000 0 1 0
21.878108 -6.640805 8.986879 24.566561 -0.294698 1.196285 0.058456 -0.018305 -311030.000000 0 1 0
20.659008 -7.234705 8.657179 23.538954 -0.336850 1.194175 0.050804 -0.015256 -139815.000000 0 1 0
20.524308 -8.549105 9.118679 24.030912 -0.394679 1.181588 0.060347 -0.010550 -192781.000000 0 1 0
-25.987572 -33.120026 5.006979 42.395281 0.905487 1.452418 0.034660 -0.019720 237832.000000 0 0 1
-26.897602 -34.036426 5.618479 43.743875 0.902023 1.442000 0.032658 -0.019382 293338.000000 0 0 1
-26.991792 -33.764626 7.027379 43.794873 0.896415 1.409638 0.034665 -0.002812 151172.000000 0 0 1
-27.724032 33.817695 7.823079 44.423631 -0.884093 1.393771 0.036746 0.007607 516726.000000 0 0 1
-29.097272 33.553895 7.594379 45.057626 -0.856412 1.401440 0.044331 0.000954 -41050.700000 0 0 1
-29.454272 32.224795 7.899679 44.366614 -0.830286 1.391787 0.051541 0.000555 -717432.000000 0 0 1
-30.936272 31.927095 7.869979 45.147856 -0.801158 1.395586 0.069346 0.000040 -879341.000000 0 0 1
-31.513612 32.213895 6.637179 45.551014 -0.796386 1.424567 0.043443 -0.004301 125860.000000 0 0 1
-32.925222 32.269795 6.798879 46.600801 -0.775345 1.424378 0.027794 0.003023 113284.000000 0 0 1
-33.754332 32.335295 5.535279 47.069794 -0.763930 1.452926 0.020755 0.004292 -420269.000000 0 0 1
-33.588532 31.186295 4.720079 46.076606 -0.748329 1.468176 0.026216 -0.000096 170630.000000 0 0 1
-34.495891 31.073895 3.647079 46.570963 -0.733257 1.492404 0.041126 0.000350 -211464.000000 0 0 1
-34.234500 29.887695 2.785479 45.530585 -0.717712 1.509580 0.043839 -0.006030 -254819.000000 0 0 1
-34.643831 28.717195 3.375479 45.125006 -0.692132 1.495924 0.069753 -0.016344 240519.000000 0 0 1
-34.265944 27.597595 2.579779 44.073092 -0.678021 1.512229 0.060103 -0.011089 -344639.000000 0 0 1
-34.547312 26.294795 3.288379 43.540170 -0.650583 1.495199 0.067363 -0.018148 330247.000000 0 0 1
35.931281 26.087695 3.203679 44.518404 0.627992 1.498771 0.077209 -0.023570 97421.000000 0 0 1
35.570665 25.209995 4.199979 43.800181 0.616561 1.474759 0.073165 -0.013788 411543.000000 0 0 1
34.042355 24.857095 4.127479 42.353196 0.630696 1.473188 0.082693 -0.021448 311551.000000 0 0 1
33.690265 24.186995 2.968479 41.579521 0.622653 1.499343 0.063023 -0.027618 1797.320000 0 0 1
33.988495 22.788595 2.980179 41.029493 0.590638 1.498097 0.048247 -0.017347 -891267.000000 0 0 1
33.316885 21.915295 1.842479 39.921043 0.581827 1.524627 0.047571 -0.018727 435458.000000 0 0 1
31.974125 21.512295 2.108279 38.594926 0.592239 1.516143 0.044015 -0.024173 739172.000000 0 0 1
31.695205 20.734595 3.330279 38.021049 0.579313 1.483094 0.030059 -0.007643 -770783.000000 0 0 1
32.136355 19.226495 3.170379 37.582639 0.539153 1.486338 0.039184 -0.017543 -173758.000000 0 0 1
31.434155 18.501895 2.151879 36.538429 0.531989 1.511869 0.027011 -0.020919 384383.000000 0 0 1
31.733575 17.097695 2.086679 36.106858 0.494195 1.512972 0.025030 -0.019108 -444802.000000 0 0 1
31.248445 16.213095 3.318979 35.360223 0.478610 1.476796 0.049185 -0.022280 -70364.200000 0 0 1
29.850745 16.044895 3.270479 34.047051 0.493199 1.474590 0.055939 -0.016931 10346.200000 0 0 1
29.453905 14.966895 4.098379 33.291698 0.470143 1.447378 0.073096 -0.023368 239631.000000 0 0 1
27.907825 14.862995 4.212979 31.898346 0.489366 1.438334 0.067415 -0.013066 200191.000000 0 0 1
27.261915 14.441695 3.033679 30.999641 0.487155 1.472778 0.070915 -0.016294 283332.000000 0 0 1
25.891515 14.825095 3.045079 29.990440 0.520017 1.469086 0.048380 -0.008784 470571.000000 0 0 1
25.098015 14.302195 1.796179 28.942864 0.517958 1.508697 0.037478 -0.014773 -116218.000000 0 0 1
25.479915 14.868895 0.555679 29.506252 0.528239 1.551963 0.039161 -0.012535 577875.000000 0 0 1
26.765715 14.464495 0.087379 30.424213 0.495452 1.567924 0.053133 -0.009998 -298412.000000 0 0 1
27.220845 15.312595 -1.139621 31.252979 0.512414 1.607269 0.055125 -0.012144 5878.770000 0 0 1
27.525295 16.692595 -0.899621 32.203942 0.545145 1.598735 0.039249 -0.019370 68019.400000 0 0 1
28.454045 16.955795 0.111579 33.123166 0.537400 1.567428 0.032717 -0.019569 -649861.000000 0 0 1
29.093725 18.365995 -0.040621 34.405759 0.563095 1.571977 0.042146 -0.021648 61165.000000 0 0 1
30.004165 18.581795 -1.117321 35.309792 0.554495 1.602445 0.024882 -0.017741 373935.000000 0 0 1
30.672675 19.819095 -1.007721 36.532520 0.573663 1.598384 0.018796 -0.010109 232016.000000 0 0 1
30.278245 20.812595 -2.154121 36.804571 0.602204 1.629358 0.025313 -0.014690 -585176.000000 0 0 1
31.369555 21.593495 -2.447621 38.161746 0.602870 1.634978 -0.013419 -0.009800 -441895.000000 0 0 1
31.016625 22.549395 -3.427921 38.500089 0.628624 1.659951 0.008935 -0.010590 528804.000000 0 0 1
31.944775 23.864895 -3.468921 40.025433 0.641621 1.657573 -0.004043 -0.000079 385958.000000 0 0 1
31.873765 24.717195 -2.338521 40.402293 0.659605 1.628710 0.005144 -0.000953 87313.800000 0 0 1
32.558305 24.222795 -1.208121 40.598603 0.639638 1.600558 0.022005 0.003991 -530447.000000 0 0 1
32.418255 25.084995 0.045479 40.990271 0.658555 1.569687 0.027428 -0.018990 -155677.000000 0 0 1
33.048275 26.325695 -0.073421 42.252054 0.672654 1.572534 0.036746 -0.013650 -29011.600000 0 0 1
34.399055 26.345195 0.357579 43.330037 0.653581 1.562544 0.059286 -0.014787 116510.000000 0 0 1
35.106835 27.639995 -0.107421 44.681883 0.666956 1.573200 0.048922 -0.016498 -250761.000000 0 0 1
35.506565 27.784695 -1.472221 45.109565 0.663993 1.603439 0.037397 -0.015478 -564146.000000 0 0 1
34.487385 27.960295 -2.372121 44.461048 0.681255 1.624174 0.028576 -0.011297 -710400.000000 0 0 1
34.868415 27.599295 -3.835421 44.634492 0.669553 1.656832 0.036946 -0.009646 893086.000000 0 0 1
35.942569 28.379095 -4.438821 46.010264 0.668347 1.667421 0.020265 -0.003466 948488.000000 0 0 1
-35.474986 27.915395 -5.700721 45.499913 -0.666704 1.696417 0.022362 -0.003028 207184.000000 0 0 1
35.352585 27.820195 -6.841821 45.503615 0.666724 1.721726 0.012044 0.002218 184253.000000 0 0 1
34.456185 26.761395 -6.651321 44.132086 0.660358 1.722087 0.015833 0.008776 -1034430.000000 0 0 1
33.316065 26.872995 -7.424921 43.442462 0.678757 1.742553 0.006741 0.007733 -373851.000000 0 0 1
32.283285 25.767695 -7.028621 41.899715 0.673627 1.739342 -0.001578 0.008915 -67611.800000 0 0 1
32.566185 24.398895 -7.366521 41.353695 0.642995 1.749887 -0.001141 0.011474 89207.500000 0 0 1
33.688825 23.815995 -6.715921 41.800025 0.615369 1.732164 -0.000113 0.006030 181146.000000 0 0 1
33.815185 22.298695 -6.805121 41.073205 0.582975 1.737247 0.001898 0.004176 -274828.000000 0 0 1
32.923125 21.703795 -5.907721 39.873400 0.582834 1.719506 0.017734 -0.007294 -185260.000000 0 0 1
32.766785 20.331395 -6.141821 39.048044 0.555348 1.728741 0.021106 -0.021640 40416.800000 0 0 1
31.570495 19.571695 -5.491121 37.548632 0.554950 1.717563 0.029681 -0.018397 262618.000000 0 0 1
30.409595 19.659295 -6.278621 36.751223 0.573899 1.742480 0.026970 -0.020456 -161641.000000 0 0 1
29.289285 18.980795 -5.734121 35.369661 0.575000 1.733635 0.054209 -0.028240 614854.000000 0 0 1
28.103855 18.868695 -6.753921 34.517673 0.591267 1.767732 0.037778 -0.027700 359945.000000 0 0 1
28.334335 17.918595 -7.746321 34.408081 0.563902 1.797874 0.031291 -0.026576 -371779.000000 0 0 1
27.218235 17.753595 -8.573421 33.608421 0.577968 1.828745 0.037822 -0.025779 -407618.000000 0 0 1
27.197005 16.459895 -9.532321 33.188407 0.544241 1.862118 0.033788 -0.027543 -485128.000000 0 0 1
26.356815 16.628295 -10.627121 32.925941 0.562825 1.899439 0.037969 -0.020757 -252884.000000 0 0 1
26.549415 15.638695 -11.593721 32.921947 0.532322 1.930672 0.036469 -0.014687 -294601.000000 0 0 1
25.615215 15.750195 -12.790021 32.677094 0.551286 1.972956 0.037918 -0.007822 -220767.000000 0 0 1
24.272115 15.361595 -12.560721 31.351011 0.564253 1.983020 0.043670 -0.009047 160499.000000 0 0 1
23.534115 15.214695 -13.754021 31.217216 0.573908 2.027053 0.043818 -0.007082 -358457.000000 0 0 1
23.653915 13.843695 -14.470921 30.992953 0.529511 2.056590 0.039651 -0.013270 -162042.000000 0 0 1
24.900415 13.545495 -15.102321 32.118393 0.498215 2.060323 0.042135 -0.019716 487215.000000 0 0 1
25.177915 14.277595 -16.296421 33.216719 0.515853 2.083585 0.041058 -0.020962 214734.000000 0 0 1
26.643515 14.046995 -16.846021 34.510627 0.485186 2.080754 0.044403 -0.020368 981325.000000 0 0 1
26.888785 12.785095 -17.377121 34.473609 0.443840 2.099101 0.038760 -0.024508 81358.500000 0 0 1
28.240265 12.375395 -17.451621 35.429113 0.413013 2.085847 0.039059 -0.010255 223168.000000 0 0 1
28.354415 10.929095 -18.016621 35.327278 0.367897 2.105972 0.013047 -0.001338 -422594.000000 0 0 1
27.851895 10.829895 -19.332521 35.591586 0.370848 2.145012 0.026661 -0.008374 -46839.100000 0 0 1
27.803695 9.495295 -19.914621 35.493636 0.329093 2.166481 0.014520 0.009762 125843.000000 0 0 1
29.070345 8.938095 -20.645721 36.758948 0.298291 2.167177 0.018565 0.008425 -181839.000000 0 0 1
29.390895 9.660395 -21.884121 37.895418 0.317563 2.186444 0.020510 0.000906 671368.000000 0 0 1
30.114635 8.862295 -22.852221 38.828540 0.286206 2.200050 0.016338 -0.000525 735730.000000 0 0 1
31.613315 8.515995 -22.567521 39.764517 0.263134 2.174298 0.013669 0.005622 308391.000000 0 0 1
32.471705 9.643395 -22.667821 40.758273 0.288682 2.160546 0.015374 0.008192 -200944.000000 0 0 1
33.816985 9.235695 -22.631721 41.726266 0.266607 2.144070 -0.008593 0.006007 -697645.000000 0 0 1
34.732965 10.394195 -22.435021 42.635059 0.290778 2.124934 0.014384 0.005828 -702354.000000 0 0 1
34.629075 11.006295 -21.220321 42.078657 0.307737 2.099369 0.003314 0.002361 89062.300000 0 0 1
35.703445 11.890295 -21.027021 43.107432 0.321477 2.080343 -0.001703 0.003924 -224224.000000 0 0 1
35.596885 12.687195 -19.673021 42.604353 0.342377 2.050776 -0.012651 -0.003524 -231389.000000 0 0 1
35.916256 11.847095 -18.624821 42.157028 0.318615 2.028396 -0.004957 -0.004242 164990.000000 0 0 1
35.568005 12.479095 -17.455721 41.539294 0.337433 2.004486 0.007360 -0.006152 -267951.000000 0 0 1
-35.897466 11.645295 -16.307121 41.111594 -0.313693 1.978666 0.006255 -0.009332 -293804.000000 0 0 1
35.205065 10.471795 -16.323221 40.193316 0.289117 1.988998 0.005083 -0.009064 148918.000000 0 0 1
35.668925 9.587695 -15.306221 39.980952 0.262590 1.963663 -0.005899 -0.018754 140781.000000 0 0 1
34.792575 8.308595 -15.098321 38.826734 0.234413 1.970195 0.046310 -0.009691 -345250.000000 0 0 1
33.674945 8.461495 -14.271221 37.540199 0.246173 1.960764 0.052552 -0.012805 8134.930000 0 0 1
33.954585 8.258495 -12.848021 37.231549 0.238589 1.923125 0.058458 -0.017144 -384803.000000 0 0 1
32.930475 8.876195 -11.872121 36.113021 0.263286 1.905775 0.069000 -0.012635 -228352.000000 0 0 1
32.955705 10.301595 -11.948121 36.537090 0.302966 1.903938 0.066274 -0.017337 984722.000000 0 0 1
31.996375 10.978795 -11.063421 35.590746 0.330538 1.886885 0.045840 -0.007646 328755.000000 0 0 1
32.181145 10.696695 -9.524921 35.224558 0.320901 1.844611 0.053826 -0.006368 832272.000000 0 0 1
33.436675 11.233295 -9.004721 36.404438 0.324110 1.820743 0.062553 -0.006173 1328910.000000 0 0 1
33.505335 12.616395 -8.710021 36.846239 0.360128 1.809443 0.068140 -0.013963 -425801.000000 0 0 1
33.228035 12.877795 -7.195221 36.355345 0.369735 1.770025 0.060893 -0.022506 254157.000000 0 0 1
34.318785 12.500595 -6.343921 37.071407 0.349312 1.742770 0.076910 -0.021057 926765.000000 0 0 1
34.061325 12.870795 -5.014021 36.755566 0.361286 1.707638 0.062960 -0.017761 887490.000000 0 0 1
35.429435 12.682095 -4.240721 37.869039 0.343743 1.683016 0.070658 -0.016824 826824.000000 0 0 1
-35.614010 13.801895 -4.378321 38.445022 -0.369720 1.684929 0.066933 -0.014674 -26878.900000 0 0 1
-34.411135 13.633595 -3.649521 37.193012 -0.377224 1.669078 0.054592 -0.016438 91068.100000 0 0 1
-33.520852 14.890795 -3.738021 36.869446 -0.418041 1.672356 0.051779 -0.017640 51871.600000 0 0 1
-34.073989 15.867895 -2.869821 37.696985 -0.435824 1.646999 0.066006 -0.016902 254804.000000 0 0 1
-33.245922 16.991595 -2.729721 37.436039 -0.472479 1.643778 0.070138 -0.021827 -209924.000000 0 0 1
-33.789342 17.928495 -1.663621 38.287311 -0.487824 1.614261 0.067292 -0.017428 106314.000000 0 0 1
-34.993666 18.617095 -1.929021 39.684682 -0.488929 1.619424 0.049575 -0.018852 181405.000000 0 0 1
-35.315357 19.344095 -0.732021 40.272873 -0.501116 1.588974 0.033486 -0.016482 -139146.000000 0 0 1
35.339065 20.270595 -0.694721 40.745910 0.520784 1.587847 0.031013 -0.013027 -43585.100000 0 0 1
35.425435 21.463295 -1.420521 41.444570 0.544726 1.605078 0.047734 -0.009919 -14403.800000 0 0 1
35.178795 21.370995 -2.816521 41.257724 0.545913 1.639116 0.026079 -0.003477 -203874.000000 0 0 1
35.625815 22.594895 -3.575521 42.338072 0.565208 1.655349 0.042081 -0.023917 -948210.000000 0 0 1
-34.900703 22.714695 -3.784221 41.813117 -0.576964 1.661424 0.051081 -0.013476 -621802.000000 0 0 1
-34.526485 23.925595 -4.542621 42.251008 -0.605988 1.678520 0.058950 -0.018951 281921.000000 0 0 1
-33.021222 24.152395 -4.816821 41.193944 -0.631504 1.687995 0.065710 -0.029044 107072.000000 0 0 1
-32.551692 23.260795 -5.799221 40.426577 -0.620444 1.714744 0.043324 -0.017948 -861710.000000 0 0 1
-31.302012 23.730695 -6.201721 39.767111 -0.648678 1.727386 0.050934 -0.012492 -483588.000000 0 0 1
-30.639372 22.861895 -7.338121 38.926666 -0.641039 1.760442 0.035533 -0.028025 -313737.000000 0 0 1
-31.410482 22.690795 -8.489021 39.668048 -0.625599 1.786466 0.045282 -0.038711 -349711.000000 0 0 1
-30.636412 22.299195 -9.614721 39.093307 -0.629184 1.819289 0.025056 -0.041197 2022.660000 0 0 1
-31.399862 22.195895 -10.950121 39.981423 -0.615328 1.848222 0.032997 -0.018865 -105501.000000 0 0 1
-32.038762 23.413495 -11.399721 41.287136 -0.631091 1.850539 0.049218 -0.022640 286470.000000 0 0 1
-32.435442 23.263595 -12.752821 41.903307 -0.622195 1.880041 0.030881 -0.017696 -64217.900000 0 0 1
-32.939672 24.634095 -13.426721 43.268203 -0.642127 1.886319 0.051988 -0.016261 564446.000000 0 0 1
-31.885292 25.574195 -13.388721 43.011267 -0.676001 1.887340 0.053363 -0.025834 4276.330000 0 0 1
-30.995472 25.655395 -14.469721 42.758524 -0.691413 1.916018 0.047550 -0.027364 -455938.000000 0 0 1
-29.702002 26.438695 -14.218121 42.229947 -0.727336 1.914189 0.046445 -0.022296 -213575.000000 0 0 1
-28.733072 25.798195 -13.377321 40.866722 -0.731630 1.904284 0.059091 -0.025212 325736.000000 0 0 1
-29.076052 25.494395 -12.013621 40.493308 -0.719859 1.872012 0.058905 -0.028781 -621737.000000 0 0 1
-29.145592 26.705995 -11.073821 41.052469 -0.741746 1.843928 0.077232 -0.020021 133299.000000 0 0 1
-27.866972 27.251695 -10.843921 40.457553 -0.774236 1.842146 0.067371 -0.021527 -160028.000000 0 0 1
-27.995312 28.425795 -10.048721 41.142922 -0.793028 1.817532 0.064289 -0.026018 846681.000000 0 0 1
-26.631632 29.159395 -9.814921 40.692097 -0.830675 1.814398 0.064035 -0.021729 677569.000000 0 0 1
-26.914572 30.272795 -9.015821 41.498449 -0.844054 1.789800 0.030671 -0.016096 -446224.000000 0 0 1
-25.862032 31.170295 -8.922321 41.473362 -0.878205 1.787625 0.025568 -0.014402 -873867.000000 0 0 1
34.312415 -25.223715 33.752362 54.339669 -0.633909 0.900604 0.011197 0.003794 -15304.400000 0 0 1
33.698965 -23.937605 33.883160 53.448085 -0.617630 0.884152 0.004137 0.000152 -313249.000000 0 0 1
32.711075 -23.926405 -33.783911 52.762107 -0.631521 2.265693 -0.003816 -0.000640 -481667.000000 0 0 1
32.240535 -22.489305 -33.436721 51.606543 -0.609078 2.275642 -0.008875 -0.007399 257249.000000 0 0 1
31.623295 -21.808105 34.062344 51.340720 -0.603727 0.845367 -0.009557 -0.001129 312113.000000 0 0 1
31.452205 -20.486905 -34.144502 50.742502 -0.577335 2.308915 -0.014966 0.003788 150025.000000 0 0 1
31.104965 -19.529305 33.283391 49.565076 -0.560647 0.834553 -0.009797 0.006198 -130314.000000 0 0 1
32.250545 -19.193605 32.570437 49.692309 -0.536839 0.856028 0.006183 -0.004041 -42523.500000 0 0 1
31.868545 -18.744005 31.313563 48.450812 -0.531673 0.868076 0.012128 0.007166 -366797.000000 0 0 1
33.102145 -18.550605 30.454873 48.655691 -0.510797 0.894478 0.010623 0.003571 64101.700000 0 0 1
33.926055 -17.390105 30.791543 49.005225 -0.473668 0.891389 0.006515 -0.005624 627879.000000 0 0 1
34.974345 -17.295005 29.863113 49.133772 -0.459242 0.917519 0.021555 -0.010210 60211.200000 0 0 1
-35.852648 -16.155905 30.089923 49.515948 0.423369 0.917658 0.021928 -0.020597 493734.000000 0 0 1
-34.731955 -16.205005 29.203873 48.184822 0.436551 0.919673 0.028190 -0.011819 420617.000000 0 0 1
-33.735862 -15.279605 29.491883 47.342855 0.425279 0.898298 0.026891 -0.017599 -321363.000000 0 0 1
-32.592532 -15.782805 30.383483 47.270775 0.450965 0.872708 0.042258 -0.024662 -1167300.000000 0 0 1
-31.624002 -14.829505 30.627793 46.454854 0.438486 0.850906 0.035551 -0.018512 -634299.000000 0 0 1
-30.495272 -15.533405 31.084513 46.233054 0.471116 0.833426 0.039908 -0.020635 47886.500000 0 0 1
-29.411482 -14.682205 31.811873 45.744920 0.463007 0.801794 0.046129 -0.020062 195201.000000 0 0 1
-29.901682 -14.088805 33.031202 46.729705 0.440320 0.785752 0.047835 -0.019933 129192.000000 0 0 1
-28.924842 -13.279305 33.621905 46.297072 0.430393 0.757988 0.048727 -0.016300 -256118.000000 0 0 1
-29.246562 -12.795805 -33.549351 46.310398 0.412423 2.381026 0.036869 -0.005368 -226746.000000 0 0 1
-29.189002 -13.704205 -32.468001 45.759962 0.438950 2.359625 0.063062 -0.004791 317128.000000 0 0 1
-29.398852 -13.042705 -31.251181 44.844631 0.417558 2.341830 0.070116 0.004196 -733367.000000 0 0 1
-29.623552 -13.921505 -29.997531 44.398367 0.439318 2.312635 0.067661 0.003472 621653.000000 0 0 1
-30.916802 -14.539505 -30.005841 45.470829 0.439589 2.291471 0.046687 0.005212 390740.000000 0 0 1
-31.087762 -15.312405 -28.843981 45.087625 0.457673 2.264945 0.029105 0.007714 -7745.160000 0 0 1
-32.151732 -16.388405 -28.941471 46.259295 0.471394 2.246743 0.011904 0.004373 -154461.000000 0 0 1
-31.756952 -17.493405 -29.669371 46.848637 0.503498 2.256610 0.017892 -0.000973 -358465.000000 0 0 1
-32.856432 -18.330705 -29.740511 47.958918 0.508891 2.239698 0.000861 -0.001237 -172319.000000 0 0 1
-32.441602 -19.728905 -30.251131 48.547071 0.546380 2.243534 0.003902 -0.002901 -116958.000000 0 0 1
-33.630612 -20.433105 -30.481731 49.776156 0.545970 2.229859 -0.011544 -0.001677 -37785.000000 0 0 1
-33.363252 -21.683905 -30.987831 50.433560 0.576329 2.232458 -0.004651 -0.005287 -343815.000000 0 0 1
-34.615438 -22.406505 -31.511911 51.896826 0.574473 2.223332 -0.006609 0.000279 504397.000000 0 0 1
-35.535174 -22.755205 -30.414181 52.015097 0.569567 2.195329 -0.009810 0.002842 738840.000000 0 0 1
35.286505 -23.576605 -30.842391 52.461861 -0.589027 2.199258 -0.005368 0.002791 -97577.300000 0 0 1
35.596405 -25.144195 -30.817141 53.376313 -0.614988 2.186283 0.002773 0.001853 23945.400000 0 0 1
-35.488724 -25.501805 -31.956241 54.138645 0.623093 2.202186 0.021986 0.002788 231119.000000 0 0 1
-34.986192 -26.841075 -31.784031 54.357167 0.654413 2.195338 0.025496 0.003289 381243.000000 0 0 1
-34.677812 -27.649285 -33.109521 55.346851 0.673104 2.212073 0.032924 -0.004149 659010.000000 0 0 1
-35.926619 -28.106375 -33.638431 56.676576 0.663872 2.206216 0.048772 -0.009049 163939.000000 0 0 1
35.923837 -29.292905 34.196496 57.602055 -0.684071 0.935187 0.032871 -0.010285 -29413.800000 0 0 1
-35.520590 -30.624095 -33.853101 57.840988 0.711506 2.196020 0.031718 -0.013952 325623.000000 0 0 1
35.702685 -30.955685 -32.641081 57.431492 -0.714304 2.175293 0.048508 -0.020767 90752.300000 0 0 1
-35.311085 -31.764395 -31.879651 57.202812 0.732571 2.161938 0.039828 -0.023074 54350.000000 0 0 1
35.931441 -32.305145 -30.598211 57.192144 -0.732305 2.135313 0.030316 -0.026373 257623.000000 0 0 1
35.052095 -33.420425 -30.864921 57.430110 -0.761573 2.138188 0.048748 -0.026917 388430.000000 0 0 1
34.650315 -33.979665 -29.633871 56.863242 -0.775627 2.118986 0.032326 -0.022628 -420808.000000 0 0 1
33.400535 33.859124 -29.693021 56.068810 0.792216 2.128904 0.033959 -0.019836 -772934.000000 0 0 1
32.211895 -34.255846 -30.084591 55.822503 -0.816140 2.139966 0.039855 -0.023639 -936221.000000 0 0 1
31.156985 33.591235 -29.751761 54.628711 0.822976 2.146729 0.050593 -0.022063 1145420.000000 0 0 1
29.734895 34.173395 -30.189661 54.437125 0.854738 2.158653 0.032596 -0.012325 1110820.000000 0 0 1
29.536725 33.775748 -31.564461 54.859224 0.852252 2.183855 0.037409 -0.018780 -35164.100000 0 0 1
28.174535 34.006509 -31.867101 54.458784 0.878915 2.195874 0.034226 -0.013393 -28063.800000 0 0 1
27.811635 33.429503 -33.256591 54.745041 0.876876 2.223682 0.022741 -0.014748 -68409.500000 0 0 1
27.601025 32.038255 -33.319511 53.837312 0.859662 2.238128 0.006983 -0.010951 1654.530000 0 0 1
27.509345 31.637535 33.954003 53.949718 0.855081 0.890062 0.008717 -0.006872 -53340.300000 0 0 1
27.435675 30.080615 33.844716 52.943597 0.831352 0.877261 0.009156 -0.014910 574453.000000 0 0 1
28.660805 29.440885 34.247928 53.489514 0.798823 0.875942 0.021159 -0.013488 435974.000000 0 0 1
28.451935 28.088315 -33.978971 52.469386 0.778967 2.275222 0.019109 -0.019998 360169.000000 0 0 1
29.829875 27.453695 -33.671831 52.700275 0.743941 2.263904 0.044890 -0.028304 380340.000000 0 0 1
30.378625 27.767125 -32.416421 52.389869 0.740515 2.237951 0.048419 -0.026063 -101700.000000 0 0 1
31.446815 26.897065 -32.083721 52.361431 0.707574 2.230314 0.053308 -0.022905 68035.700000 0 0 1
32.244195 27.263585 -30.799551 52.264744 0.701896 2.200987 0.062461 -0.026655 152181.000000 0 0 1
33.355775 28.130815 -30.984421 53.516211 0.700625 2.188264 0.053008 -0.019013 46394.100000 0 0 1
33.056455 29.502375 -31.369251 54.287653 0.728647 2.186869 0.065598 -0.018761 -121538.000000 0 0 1
32.144105 30.255045 -30.363461 53.577523 0.755134 2.173316 0.058734 -0.007458 -19303.500000 0 0 1
32.722725 30.419025 -29.138371 53.339839 0.748930 2.148710 0.062318 -0.006790 -93740.300000 0 0 1
31.740835 30.544185 -28.097901 52.248635 0.766188 2.138590 0.052077 -0.008315 374632.000000 0 0 1
32.335605 30.964655 -26.718491 52.137117 0.763744 2.108850 0.050349 -0.006001 -46390.100000 0 0 1
32.747435 32.286405 -26.694771 53.173464 0.778309 2.096743 0.037384 -0.011199 -37861.400000 0 0 1
32.899845 32.701391 -25.339981 52.857312 0.782373 2.070771 0.021202 -0.003540 -127073.000000 0 0 1
33.365505 34.145513 -25.150001 53.960129 0.796951 2.055657 0.021212 -0.004636 574523.000000 0 0 1
32.335795 -33.679265 -25.632741 53.262876 -0.805746 2.072876 0.027484 0.009046 618797.000000 0 0 1
32.555525 -32.333515 -25.317021 52.404866 -0.781977 2.074993 0.016117 -0.003037 -191814.000000 0 0 1
33.217395 -31.508995 -26.522591 52.911813 -0.759010 2.095851 0.009577 -0.006746 1194280.000000 0 0 1
34.579325 -31.773775 -26.868671 54.103863 -0.743141 2.090488 0.017462 -0.010090 651742.000000 0 0 1
35.565325 -31.168635 -26.042831 53.987084 -0.719609 2.074177 0.022665 -0.007098 -489494.000000 0 0 1
-34.932271 -31.761625 -26.190261 53.990686 0.737894 2.077261 0.010556 -0.008031 -1141790.000000 0 0 1
-34.809786 -33.094455 -25.724741 54.486021 0.760143 2.062507 0.008738 -0.008893 -263234.000000 0 0 1
-34.877800 -33.365145 -24.327921 54.051286 0.763236 2.037662 0.012087 -0.010989 -566545.000000 0 0 1
-33.669812 -32.925045 -23.499521 52.630241 0.774215 2.033649 0.000414 -0.005569 -210219.000000 0 0 1
-33.611672 -31.534775 -23.576921 51.769274 0.753529 2.043644 -0.020069 -0.007344 -441535.000000 0 0 1
-32.919542 -30.973585 -22.498821 50.490159 0.754951 2.032650 0.010436 -0.015169 -321071.000000 0 0 1
-32.677102 -29.422955 -22.536321 49.410414 0.733044 2.044409 0.017645 -0.009011 154792.000000 0 0 1
-33.862342 -28.654135 -22.606321 49.787181 0.702281 2.042112 0.005276 -0.000416 -333731.000000 0 0 1
-34.277703 -28.402155 -23.909421 50.530226 0.691932 2.063683 0.010914 -0.006293 -421413.000000 0 0 1
-35.469179 -27.480535 -24.122321 50.942407 0.659168 2.064081 0.005250 -0.002307 -136312.000000 0 0 1
-35.257000 -26.171465 -23.554221 49.827733 0.638558 2.063163 0.000713 -0.000827 123067.000000 0 0 1
35.692725 -25.287505 -24.178521 49.980290 -0.616393 2.075743 -0.008260 0.001653 214227.000000 0 0 1
-35.855090 -24.657805 -25.554781 50.464261 0.602428 2.101794 -0.002000 0.004523 275390.000000 0 0 1
-34.722471 -23.767905 -25.594081 49.250586 0.600255 2.117262 -0.001458 -0.002861 535057.000000 0 0 1
-34.622797 -23.138605 -26.811611 49.527725 0.589136 2.142833 -0.001922 -0.008746 -975362.000000 0 0 1
-33.338502 -22.379605 -26.942971 48.355208 0.591192 2.161793 0.007889 -0.014871 -1265550.000000 0 0 1
-33.172162 -21.237105 -26.093591 47.247036 0.569461 2.155893 0.004964 -0.007356 314129.000000 0 0 1
-34.037038 -20.090305 -26.330991 47.491698 0.533218 2.158478 -0.010746 -0.004528 -26975.700000 0 0 1
-35.243613 -20.052405 -25.383111 47.838410 0.517287 2.130106 -0.000105 -0.007561 -369762.000000 0 0 1
-34.996920 -19.642605 -24.004321 46.763487 0.511452 2.109837 0.002178 -0.011679 227689.000000 0 0 1
-34.179927 -20.497905 -23.170621 46.101076 0.540203 2.097405 -0.004974 -0.011950 -186144.000000 0 0 1
-34.897649 -21.723205 -22.501021 46.861919 0.556788 2.071629 0.016601 -0.007510 -127151.000000 0 0 1
35.819215 -21.338305 -21.849121 47.071472 -0.537268 2.053493 0.010048 -0.006197 -470374.000000 0 0 1
35.278295 -22.456405 -21.150521 46.863555 -0.566862 2.039042 0.015439 -0.000762 554881.000000 0 0 1
34.071965 -21.993905 -20.260821 45.333559 -0.573215 2.034124 0.014331 -0.000143 65141.400000 0 0 1
32.984145 -21.381405 -20.890421 44.514357 -0.575132 2.059290 0.025323 0.005510 -495623.000000 0 0 1
31.817755 -21.737405 -20.162621 43.490408 -0.599351 2.052862 0.022107 0.006669 -1221750.000000 0 0 1
30.640685 -21.160305 -20.828721 42.666681 -0.604386 2.080791 0.020044 0.015474 -2349450.000000 0 0 1
30.086145 -21.966205 -21.769521 43.146290 -0.630650 2.099659 0.015881 0.017431 969946.000000 0 0 1
28.799345 -21.451405 -22.224021 42.231175 -0.640202 2.124977 0.016400 0.018283 1197760.000000 0 0 1
28.803805 -20.122905 -23.068021 42.032417 -0.609799 2.151742 0.037288 0.003040 -539909.000000 0 0 1
29.225945 -19.016505 -22.258221 41.366795 -0.576848 2.138942 0.030070 0.009450 -138257.000000 0 0 1
29.527085 -17.940905 -23.110221 41.566899 -0.545995 2.160334 0.029667 0.006433 124642.000000 0 0 1
30.242285 -16.734005 -22.355221 41.162831 -0.505397 2.144912 0.024235 -0.002409 39690.700000 0 0 1
29.390675 -16.298305 -21.322121 39.800495 -0.506322 2.136162 0.018668 -0.006608 522062.000000 0 0 1
30.116495 -15.625705 -20.278021 39.526751 -0.478607 2.109496 0.006933 -0.009524 207779.000000 0 0 1
31.041155 -16.455505 -19.325921 40.097733 -0.487451 2.073698 0.025751 -0.016223 -578791.000000 0 0 1
32.151965 -16.904405 -19.989421 41.461846 -0.484047 2.073865 0.020488 -0.017010 -756082.000000 0 0 1
32.970155 -17.673005 -19.108321 42.005882 -0.492055 2.043052 0.020878 -0.011205 333392.000000 0 0 1
34.265615 -18.306305 -19.684221 43.551369 -0.490668 2.039777 0.008068 -0.015608 178794.000000 0 0 1
35.248795 -17.373905 -20.046921 44.115861 -0.457946 2.042512 -0.004915 -0.017224 -110445.000000 0 0 1
-35.679094 -18.023305 -20.862221 45.089572 0.467759 2.051817 -0.004120 -0.017340 195657.000000 0 0 1
-34.728704 -17.023205 -21.593221 44.296045 0.455758 2.079992 -0.002986 -0.014557 146202.000000 0 0 1
-33.903692 -16.311005 -20.674921 42.929728 0.448412 2.073275 0.007827 -0.024749 -242426.000000 0 0 1
-33.099612 -15.473205 -21.463721 42.375650 0.437290 2.101929 0.016941 -0.016172 -1186720.000000 0 0 1
-31.808352 -15.115005 -20.735221 40.867885 0.443603 2.102929 0.026727 -0.008334 -385849.000000 0 0 1
-30.694492 -15.971605 -20.695521 40.318092 0.479788 2.109829 0.030111 -0.017896 318440.000000 0 0 1
-30.889592 -17.126905 -19.884921 40.532800 0.506258 2.083561 0.024850 -0.018429 -744034.000000 0 0 1
-29.885152 -18.219105 -20.170021 40.396631 0.547476 2.093586 0.021297 -0.024306 -465089.000000 0 0 1
-30.104572 -19.339605 -19.391521 40.698116 0.571024 2.067434 0.025347 -0.025802 -232672.000000 0 0 1
-29.049442 -20.242205 -19.389521 40.367939 0.608588 2.071816 0.023098 -0.024695 -492363.000000 0 0 1
-29.520852 -21.697205 -19.189821 41.358175 0.633818 2.053292 0.016787 -0.009535 -326259.000000 0 0 1
-30.435392 -22.119305 -20.185821 42.697121 0.628463 2.063225 0.024585 -0.015833 174823.000000 0 0 1
-30.777252 -23.418905 -19.872921 43.481230 0.650451 2.045467 0.025076 -0.009567 -540904.000000 0 0 1
-31.741252 -24.038905 -20.854021 44.947372 0.648182 2.053263 0.009412 -0.006907 -393814.000000 0 0 1
-31.129042 -24.350405 -22.052321 45.257754 0.663818 2.079746 0.015304 -0.010847 -148567.000000 0 0 1
-32.062572 -25.062005 -22.787521 46.641009 0.663457 2.081249 0.019647 -0.007133 -214526.000000 0 0 1
-31.670462 -25.203475 -24.266821 47.192287 0.672177 2.110884 0.026445 -0.006533 -33671.700000 0 0 1
-30.554022 -26.012625 -24.553421 47.043335 0.705286 2.119911 0.035522 -0.010994 -128664.000000 0 0 1
-30.331442 -26.045465 -25.969781 47.673810 0.709521 2.146874 0.043957 -0.009584 -489328.000000 0 0 1
-28.908232 -26.460935 -26.318941 47.207559 0.741227 2.162186 0.056961 -0.011421 -691317.000000 0 0 1
-27.999232 -25.407795 -26.288081 46.049715 0.736914 2.178353 0.060132 -0.017952 -546678.000000 0 0 1
-26.677082 -25.869965 -26.388641 45.577211 0.770039 2.188283 0.055553 -0.014652 -7884.920000 0 0 1
-25.627492 -24.756405 -26.556871 44.440019 0.768111 2.211287 0.061881 -0.016612 -187542.000000 0 0 1
-25.672832 -24.100405 -27.823671 44.878508 0.753817 2.239511 0.072168 -0.018155 -105044.000000 0 0 1
-24.690392 -23.113105 -27.826631 43.796717 0.752415 2.259269 0.095687 -0.017527 -375006.000000 0 0 1
-24.598992 -22.478605 -29.209581 44.312500 0.740388 2.290514 0.064744 -0.014584 -194769.000000 0 0 1
-24.174492 -23.426905 -30.135471 45.181551 0.769694 2.300953 0.052889 -0.004162 223865.000000 0 0 1
-23.692692 -22.848605 -31.326671 45.439660 0.767264 2.331474 0.054456 0.000258 -232868.000000 0 0 1
-23.327592 -23.924805 -32.346191 46.506439 0.798036 2.339941 0.043914 -0.005082 -562104.000000 0 0 1
-24.428592 -24.424305 -33.019001 47.786580 0.785310 2.333624 0.030557 -0.006094 -394196.000000 0 0 1
-24.111592 -25.648125 -33.703111 48.734945 0.816267 2.334442 0.022497 -0.001078 238746.000000 0 0 1
-19.894092 -14.791205 -12.063921 27.569781 0.639326 2.023699 0.006385 0.017997 33503.200000 0 0 1
-19.858592 -14.104805 -10.848421 26.664535 0.617580 1.989798 0.008370 0.011251 44740.800000 0 0 1
-19.104792 -14.883105 -9.965921 26.188155 0.661820 1.961188 0.009405 0.002468 -230027.000000 0 0 1
-19.159992 -14.186905 -8.590421 25.341052 0.637357 1.916642 0.020696 -0.007397 556447.000000 0 0 1
-20.442892 -14.432205 -7.992521 26.269388 0.614726 1.879950 0.035951 -0.013931 882989.000000 0 0 1
-20.589592 -13.908805 -6.727821 25.741984 0.594111 1.835223 0.024870 -0.021457 129892.000000 0 0 1
-21.902592 -14.356305 -6.026721 26.872819 0.580205 1.796988 0.034326 -0.024299 -257672.000000 0 0 1
-21.940492 -15.691305 -5.596621 27.548583 0.620839 1.775375 0.027136 -0.019015 301039.000000 0 0 1
-21.033692 -16.069005 -4.587721 26.864034 0.652379 1.742413 0.034154 -0.017758 -280072.000000 0 0 1
-21.024192 -17.639405 -4.539621 27.816783 0.698076 1.734727 0.027397 -0.014786 296893.000000 0 0 1
-22.144392 -18.194305 -3.845821 28.917074 0.687786 1.704186 0.044148 -0.013582 564256.000000 0 0 1
-21.774492 -19.089605 -2.763721 29.089168 0.719790 1.665948 0.034084 -0.006858 30624.900000 0 0 1
-22.947792 -19.952705 -2.246021 30.491904 0.715697 1.644523 0.045838 -0.020355 225151.000000 0 0 1
-23.381792 -20.991605 -3.153921 31.580103 0.731585 1.670834 0.014731 -0.016239 275905.000000 0 0 1
-24.463492 -21.774105 -2.650221 32.857233 0.727299 1.651543 0.016832 -0.013021 329449.000000 0 0 1
-24.793892 -22.918305 -3.676121 33.963210 0.746108 1.679247 0.027137 -0.017221 -28324.700000 0 0 1
-23.706792 -23.839005 -3.852721 33.840118 0.788179 1.684894 0.031004 -0.016560 -102515.000000 0 0 1
-23.808092 -24.610605 -5.012121 34.606769 0.801971 1.716138 0.029438 -0.012319 -680330.000000 0 0 1
-22.396992 -24.816205 -5.593921 33.893381 0.836594 1.736600 0.049961 -0.009661 291019.000000 0 0 1
-21.811792 -23.711505 -6.298721 32.827788 0.827105 1.763865 0.033757 -0.003946 205092.000000 0 0 1
-21.534792 -22.606805 -5.441321 31.692631 0.809679 1.743342 0.027632 -0.006973 -1173990.000000 0 0 1
-21.580692 -21.215405 -6.056621 30.862637 0.776863 1.768323 0.041235 -0.001794 435328.000000 0 0 1
-20.337692 -20.919905 -6.702821 29.936465 0.799509 1.796612 0.024859 0.004957 620516.000000 0 0 1
-20.424292 -19.714205 -7.434521 29.344057 0.767709 1.826945 0.016067 -0.004360 -71903.200000 0 0 1
-19.112292 -19.345405 -8.131621 28.383933 0.791460 1.861354 0.036089 -0.004878 -448206.000000 0 0 1
-18.809192 -20.210405 -9.215321 29.106156 0.821293 1.892951 0.033641 -0.002619 764180.000000 0 0 1
-17.521492 -20.005005 -9.834321 28.353426 0.851482 1.925004 0.055434 0.004581 749973.000000 0 0 1
-17.528692 -18.628805 -10.655521 27.709701 0.815814 1.965507 0.055177 0.004043 -374443.000000 0 0 1
-17.173692 -17.458005 -9.960221 26.437164 0.793608 1.957082 0.049668 -0.002045 179346.000000 0 0 1
-15.816392 -17.344805 -9.573421 25.350560 0.831456 1.958044 0.071136 -0.002631 -236475.000000 0 0 1
-15.457192 -16.212405 -8.654221 24.013796 0.809240 1.939477 0.044729 0.002499 -285520.000000 0 1 0
-15.897492 -16.410605 -7.370321 24.007496 0.801279 1.882836 0.014902 0.002236 58828.000000 0 1 0
-15.996292 -15.173105 -6.660221 23.031783 0.758994 1.864161 0.017844 0.000151 -129583.000000 0 1 0
-16.546292 -15.456405 -5.246421 23.242314 0.751355 1.798486 0.010465 -0.002226 -93476.400000 0 1 0
-17.168292 -14.352005 -4.648121 22.854657 0.696286 1.775603 0.011412 0.000841 196916.000000 0 1 0
-17.489992 -14.566005 -3.323621 23.002495 0.694435 1.715793 0.006988 -0.000310 -18683.400000 0 1 0
-18.302792 -13.340405 -2.790221 22.819815 0.629842 1.693375 0.006703 -0.000028 999388.000000 0 1 0
-19.657392 -13.269505 -3.293321 23.944494 0.593776 1.708773 0.024748 -0.014788 766299.000000 0 1 0
-20.287692 -12.293005 -2.545721 23.857685 0.544771 1.677704 0.019103 -0.005449 -1209840.000000 0 1 0
-21.788092 -12.357805 -2.743921 25.198520 0.515939 1.679905 0.026399 -0.008652 -801644.000000 0 0 1
-22.286692 -11.695505 -3.896221 25.468844 0.483271 1.724379 0.030990 -0.026759 194453.000000 0 0 1
-23.665492 -11.797405 -4.150221 26.766744 0.462452 1.726476 0.030241 -0.024393 -496316.000000 0 0 1
-24.070992 -11.007805 -5.365721 27.006951 0.428913 1.770806 0.030371 -0.032394 -311390.000000 0 0 1
-23.669592 -11.517205 -6.616821 27.141811 0.452856 1.817065 0.036169 -0.036559 426508.000000 0 0 1
-24.290892 -10.777005 -7.646821 27.652579 0.417573 1.850980 0.039144 -0.037823 -337312.000000 0 0 1
-23.680992 -11.191605 -9.004621 27.697014 0.441487 1.901926 0.062830 -0.040267 -101864.000000 0 0 1
-22.433092 -10.581105 -9.156021 26.439291 0.440731 1.924424 0.045045 -0.030902 -64574.300000 0 0 1
-21.494592 -11.211905 -10.013921 26.229810 0.480790 1.962514 0.029819 -0.020985 -743793.000000 0 0 1
-20.194392 -10.463305 -10.032221 24.858392 0.478046 1.986217 0.020851 -0.017613 -1083900.000000 0 1 0
-20.345292 -9.118805 -10.507621 24.647385 0.421358 2.011215 0.024312 -0.020762 745533.000000 0 1 0
-19.194792 -8.349305 -10.152321 23.264147 0.410291 2.022383 0.017006 -0.012720 239178.000000 0 1 0
-19.124592 -6.996605 -10.935421 23.114626 0.350719 2.063597 -0.000712 -0.009738 -161129.000000 0 1 0
-18.857292 -7.180005 -12.321421 23.642490 0.363806 2.119001 0.026050 -0.008302 336734.000000 0 1 0
-18.538792 -5.935305 -12.918321 23.362313 0.309844 2.156704 0.030248 -0.013756 -209974.000000 0 1 0
-17.900392 -6.174605 -14.309621 23.734258 0.332162 2.217940 0.024685 -0.004408 -142431.000000 0 1 0
-18.789392 -6.390305 -15.390421 25.114583 0.327830 2.230406 0.038073 -0.011154 391698.000000 0 0 1
-18.110092 -6.347505 -16.632321 25.394888 0.337116 2.284910 0.032072 -0.007453 2020.410000 0 0 1
-18.712092 -7.396105 -17.604721 26.735200 0.376412 2.289600 0.035698 -0.006382 -347923.000000 0 0 1
-19.988892 -7.012605 -18.028021 27.816218 0.337410 2.275899 0.060170 -0.013893 -18656.400000 0 0 1
-20.517992 -7.944805 -18.951821 29.039274 0.369434 2.281843 0.073688 -0.013602 -70322.000000 0 0 1
-21.978992 -7.667605 -19.374521 30.285975 0.335659 2.264929 0.067663 -0.012072 -823070.000000 0 0 1
-22.027092 -6.558505 -20.248621 30.630269 0.289389 2.293035 0.071921 -0.016777 150554.000000 0 0 1
-23.175992 -6.406305 -21.052921 31.959237 0.269686 2.289943 0.062945 -0.022495 491937.000000 0 0 1
-24.515792 -6.160705 -20.294421 32.416691 0.246197 2.247272 0.083372 -0.022661 -229073.000000 0 0 1
-24.537792 -4.838005 -19.804621 31.901920 0.194669 2.240555 0.078237 -0.017146 209882.000000 0 0 1
-25.678182 -4.647105 -18.979421 32.267368 0.179037 2.199618 0.090744 -0.011686 -68847.500000 0 0 1
-25.901242 -3.225005 -18.440621 31.958277 0.123874 2.185874 0.065610 -0.007801 66516.900000 0 0 1
-26.296482 -2.123705 -19.223521 32.642899 0.080585 2.200498 0.073816 -0.007983 1387190.000000 0 0 1
-27.593832 -2.286905 -19.881321 34.086895 0.082688 2.193525 0.078610 -0.007662 1126550.000000 0 0 1
-27.940252 -1.079005 -20.854521 34.881699 0.038599 2.211630 0.076688 -0.011598 -302598.000000 0 0 1
-27.181442 -0.887305 -22.039521 35.005122 0.032632 2.251845 0.082755 -0.010380 241054.000000 0 0 1
-27.491902 -1.908605 -22.994221 35.891247 0.069313 2.266159 0.095415 -0.009571 179711.000000 0 0 1
-26.655682 -1.716905 -24.305321 36.114010 0.064322 2.309076 0.110718 -0.012015 -352885.000000 0 0 1
-27.043322 -0.748705 -25.280211 37.026894 0.027678 2.322320 0.086187 -0.010279 79500.500000 0 0 1
-26.852452 0.645395 -24.897221 36.624340 -0.024030 2.318286 0.077153 0.004027 980349.000000 0 0 1
-25.376522 1.050295 -24.504421 35.292175 -0.041365 2.338285 0.070498 -0.001063 1412950.000000 0 0 1
-24.300192 0.748995 -25.399371 35.159470 -0.030813 2.378070 0.057421 -0.002926 545156.000000 0 0 1
-23.033992 0.696195 -24.766821 33.829645 -0.030215 2.392202 0.054048 -0.005030 -122943.000000 0 0 1
-21.999492 0.029495 -25.653281 33.794516 -0.001341 2.432720 0.040259 -0.001689 -796927.000000 0 0 1
-21.658392 0.839395 -26.747001 34.426626 -0.038737 2.460568 0.021737 -0.000937 449964.000000 0 0 1
-20.807192 0.136395 -27.675391 34.624920 -0.006555 2.496911 0.014792 -0.010293 128276.000000 0 0 1
-20.816492 0.758595 -29.068251 35.761222 -0.036426 2.519812 0.007353 0.010024 -204197.000000 0 0 1
-20.282992 2.070095 -29.144741 35.568258 -0.101708 2.531165 0.013198 0.009897 217844.000000 0 0 1
-20.390892 2.687295 -30.420391 36.720705 -0.131034 2.547088 0.001926 0.011990 -608719.000000 0 0 1
-19.649892 2.098295 -31.579691 37.253160 -0.106381 2.582440 0.000775 0.012389 -1408580.000000 0 0 1
-18.297292 2.357195 -31.506921 36.510729 -0.128122 2.611875 -0.001206 0.014899 -1457770.000000 0 0 1
-17.624092 1.741195 -32.510571 37.021312 -0.098477 2.642795 -0.001675 0.010024 142053.000000 0 0 1
-16.072492 1.904295 -32.476621 36.286116 -0.117932 2.679261 0.009023 -0.003790 440836.000000 0 0 1
-15.592892 3.227895 -32.576091 36.259609 -0.204127 2.686938 0.020357 0.002935 1235310.000000 0 0 1
-14.187992 3.080995 -32.959181 36.015264 -0.213835 2.726663 0.018790 0.003343 1106890.000000 0 0 1
-13.563092 4.330195 -33.410841 36.317934 -0.309034 2.738760 0.031428 0.006769 -493793.000000 0 0 1
-13.266792 5.229695 -32.335691 35.340548 -0.375492 2.726240 0.045509 -0.011972 328613.000000 0 0 1
-12.585892 6.408795 -32.788851 35.701345 -0.470984 2.734866 0.054792 -0.008858 -15394.000000 0 0 1
-12.177792 7.397595 -31.650441 34.709846 -0.545891 2.718583 0.054680 -0.018778 29018.200000 0 0 1
-11.016992 7.024795 -30.913761 33.561622 -0.567632 2.741704 0.058126 -0.027167 318447.000000 0 0 1
-11.265792 6.106795 -29.881181 32.513012 -0.496731 2.736467 0.057106 -0.024928 210196.000000 0 0 1
-9.977192 5.323895 -29.437271 31.534760 -0.490170 2.774811 0.055260 -0.019550 166923.000000 0 0 1
-9.471792 4.412895 -30.397101 32.142996 -0.435996 2.810487 0.044033 -0.020800 -216581.000000 0 0 1
-10.278292 3.354895 -30.810871 32.652846 -0.315503 2.804104 0.047979 -0.014433 -721695.000000 0 0 1
-9.846292 2.730595 -32.133511 33.718958 -0.270524 2.833721 0.042510 -0.015104 -149826.000000 0 0 1
-10.355792 1.413395 -32.367601 34.013257 -0.135645 2.829253 0.036334 -0.010326 157842.000000 0 0 1
-10.075592 0.918995 -33.632151 35.120986 -0.090958 2.849378 0.032119 -0.010905 -408066.000000 0 0 1
-10.597592 1.647195 33.747617 35.410788 -0.154197 0.307702 0.041944 -0.014820 -439789.000000 0 0 1
-11.956192 1.433395 33.505197 35.603418 -0.119318 0.345025 0.007552 0.001765 -695088.000000 0 0 1
-12.256492 1.512795 32.120693 34.412920 -0.122807 0.367049 0.007146 0.008722 740948.000000 0 0 1
-13.712792 1.211295 31.608893 34.476514 -0.088105 0.410744 0.016155 0.010578 681139.000000 0 0 1
-14.614092 2.243095 31.920193 35.178145 -0.152300 0.433772 0.017922 0.020347 -328021.000000 0 0 1
-15.912192 1.922195 31.514253 35.355917 -0.120218 0.470497 0.007879 0.024235 -93207.600000 0 0 1
-17.008992 2.995395 31.479883 35.906284 -0.174319 0.501789 0.020537 0.020626 -147759.000000 0 0 1
-17.419592 3.651495 32.662939 37.197355 -0.206628 0.498923 0.022073 0.011494 197246.000000 0 0 1
-16.730892 4.847295 32.977611 37.295333 -0.282000 0.485956 0.031028 0.012168 -227835.000000 0 0 1
-17.422492 5.475495 34.187684 38.759799 -0.304503 0.490622 0.034594 0.010618 877624.000000 0 0 1
-18.745692 5.942595 33.890768 39.182899 -0.306989 0.525770 0.017145 0.010115 -4202.780000 0 0 1
-19.694392 5.469995 -33.834211 39.529024 -0.270915 2.598150 0.007443 0.016129 226414.000000 0 0 1
-21.021492 6.303595 -33.834591 40.328872 -0.291332 2.566178 0.001902 0.009473 18339.400000 0 0 1
-20.953392 7.651495 -33.476721 40.227861 -0.350123 2.553819 0.012076 -0.000633 -65397.800000 0 0 1
-20.374692 8.435995 34.135800 40.639229 -0.392553 0.573565 0.006271 -0.005116 -431579.000000 0 0 1
-20.182692 9.934295 -34.060801 40.818738 -0.457403 2.557913 0.019519 -0.008771 -95036.000000 0 0 1
-19.047192 10.168495 -33.231091 39.629524 -0.490366 2.565401 0.027831 -0.011804 418726.000000 0 0 1
-18.872592 11.583895 -32.883621 39.644594 -0.550501 2.548937 0.036143 -0.024973 273943.000000 0 0 1
-18.154392 12.480095 -33.962591 40.481999 -0.602248 2.566157 0.021201 -0.030399 178572.000000 0 0 1
-18.933792 12.600695 33.479949 40.474349 -0.587204 0.596709 0.032726 -0.022246 318502.000000 0 0 1
-18.057892 12.721595 32.396223 39.210225 -0.613733 0.598434 0.031056 -0.016374 6047.830000 0 0 1
-18.712492 12.113595 31.168693 38.319499 -0.574512 0.620840 0.033617 -0.012462 -166739.000000 0 0 1
-18.907692 10.708095 31.268093 38.076998 -0.515298 0.607320 0.023060 -0.003230 372386.000000 0 0 1
-17.758792 9.873595 31.079523 37.132187 -0.507425 0.579025 0.024259 0.002918 382428.000000 0 0 1
-18.089692 8.371095 31.095333 36.935511 -0.433410 0.570036 0.026794 0.002751 -33759.100000 0 0 1
-18.627192 7.831395 29.906833 36.093236 -0.397992 0.594195 0.036518 0.000019 114632.000000 0 0 1
-18.689192 6.396995 30.072433 35.979976 -0.329784 0.581189 0.029497 0.003366 4842.850000 0 0 1
-19.405792 5.713695 28.881063 35.261124 -0.286341 0.611021 0.044857 -0.006545 913055.000000 0 0 1
-20.800692 5.982295 28.653213 35.909097 -0.280043 0.646931 0.060966 -0.015777 691791.000000 0 0 1
-21.219592 5.362695 27.460533 35.115673 -0.247541 0.672925 0.054770 -0.012921 -438188.000000 0 0 1
-22.727992 5.216795 27.264273 35.876415 -0.225624 0.707560 0.050793 -0.018758 -333493.000000 0 0 1
-23.292192 6.166095 26.392833 35.736936 -0.258792 0.739907 0.051866 -0.019455 441691.000000 0 0 1
-24.696592 6.274295 26.592623 36.830097 -0.248792 0.764057 0.049059 -0.015628 4643.890000 0 0 1
-25.425512 7.004495 25.473423 36.666264 -0.268822 0.802742 0.042788 -0.012014 -338841.000000 0 0 1
-25.625772 6.441995 24.141673 35.791059 -0.246284 0.830486 0.033221 -0.008125 484531.000000 0 0 1
-26.412472 5.251095 24.036413 36.096286 -0.196252 0.842101 0.029320 -0.005774 -94667.700000 0 0 1
-26.385132 4.671195 22.613283 35.062171 -0.175223 0.869841 0.029085 -0.002365 -75094.500000 0 0 1
-27.067732 5.513595 21.713583 35.136043 -0.200947 0.904618 0.016937 0.002734 -23006.400000 0 0 1
-27.174422 4.958095 20.393883 34.335730 -0.180469 0.934830 0.039325 0.004385 171836.000000 0 0 1
-28.081132 5.735195 19.397183 34.607704 -0.201466 0.975822 0.048773 -0.002023 2131460.000000 0 0 1
-29.528852 5.563195 19.522683 35.833468 -0.186216 0.994625 0.059936 -0.003303 1882400.000000 0 0 1
-30.318502 6.141695 18.486683 36.037334 -0.199868 1.032135 0.074959 -0.001146 -122857.000000 0 0 1
-31.802522 6.222295 18.842683 37.485518 -0.193213 1.044117 0.079169 -0.000022 -374619.000000 0 0 1
-32.078572 7.196095 19.801383 38.378553 -0.220674 1.028681 0.077948 -0.015902 -731451.000000 0 0 1
-33.313502 6.960895 20.384883 39.670984 -0.205987 1.031131 0.073590 -0.009131 -548161.000000 0 0 1
-33.654522 8.078895 21.347183 40.664452 -0.235596 1.018129 0.071258 -0.013642 -172531.000000 0 0 1
-33.034982 7.955995 22.571683 40.793244 -0.236335 0.984453 0.059942 -0.009223 99651.600000 0 0 1
-33.525532 9.056995 23.346483 41.845534 -0.263854 0.978918 0.071688 -0.001830 361444.000000 0 0 1
-0.290192 32.841795 11.904779 34.934102 -1.561961 1.223052 0.017127 -0.006676 -179448.000000 0 0 1
-0.539692 33.108595 13.222479 35.655354 -1.554497 1.190882 0.008744 -0.004223 -36220.600000 0 0 1
-0.703792 -34.217026 13.432879 36.766050 1.550231 1.196776 0.010005 -0.007768 -351386.000000 0 0 1
-0.666692 -33.792826 14.934579 36.951877 1.551070 1.154733 0.001405 0.001642 95304.400000 0 0 1
-1.694092 -34.338426 15.743179 37.813293 1.521501 1.141380 -0.004578 0.008799 62553.100000 0 0 1
-1.354692 -34.015126 17.057479 38.076523 1.530991 1.106293 -0.000385 -0.001250 -63958.000000 0 0 1
-2.579392 -33.837926 17.950279 38.391028 1.494716 1.084263 0.015740 0.000390 -319008.000000 0 0 1
-3.321492 33.719595 18.256279 38.488116 -1.472610 1.076587 0.008575 0.005054 -453903.000000 0 0 1
-4.141992 33.948595 19.350879 39.295289 -1.449389 1.055896 0.008451 0.002502 -439810.000000 0 0 1
-5.119592 32.804695 19.615779 38.563415 -1.415982 1.037165 0.000177 0.001465 -270093.000000 0 0 1
-6.080692 32.653995 18.590479 38.063948 -1.386689 1.060540 -0.002359 0.002248 -435858.000000 0 0 1
-7.154892 31.961395 19.180679 37.955522 -1.350567 1.041013 0.002832 -0.012557 -126598.000000 0 0 1
-8.280392 31.763495 18.112579 37.490666 -1.315783 1.066579 -0.013008 -0.009555 -183146.000000 0 0 1
-9.076592 32.901395 17.882779 38.531547 -1.301619 1.088170 -0.008365 -0.003165 -210890.000000 0 0 1
-9.777892 32.824295 16.650279 38.082454 -1.281280 1.118295 -0.008613 0.010030 -155277.000000 0 0 1
-10.656492 34.038295 16.327679 39.227024 -1.267389 1.141495 0.016475 -0.003052 -144251.000000 0 0 1
-11.779592 34.031995 17.169879 39.896619 -1.237571 1.125906 0.014966 -0.000179 46622.600000 0 0 1
-12.808792 -33.752126 16.798079 39.817667 1.208090 1.135284 -0.000189 -0.009313 333275.000000 0 0 1
-14.064792 -33.954026 17.644479 40.767903 1.178083 1.123196 0.036557 -0.003007 -63050.900000 0 0 1
-13.822192 -33.490826 18.948679 40.886928 1.179376 1.088922 0.018927 0.005472 -623769.000000 0 0 1
-15.032892 -33.531426 19.604379 41.649442 1.149338 1.080713 0.011309 -0.003877 -922827.000000 0 0 1
-15.020892 -33.159426 21.151479 42.101779 1.145459 1.044437 0.017057 -0.014173 -247150.000000 0 0 1
-14.666592 -31.857526 21.370579 41.069606 1.139343 1.023535 0.046308 -0.008682 26418.600000 0 0 1
-14.785092 -31.558726 22.748779 41.618014 1.132669 0.992487 0.021855 -0.006054 97589.900000 0 0 1
-14.567992 -30.009526 23.021479 40.531303 1.118860 0.966732 0.048703 -0.017368 -218317.000000 0 0 1
-14.844292 -29.689026 24.365479 41.176059 1.107155 0.937582 0.039904 -0.017880 -338704.000000 0 0 1
-14.952792 -28.335926 24.701979 40.456130 1.085237 0.913995 0.035483 -0.007136 561074.000000 0 0 1
-16.200192 -27.519226 24.185179 40.058419 1.038737 0.922602 0.047914 -0.008505 1626720.000000 0 0 1
-17.425292 -27.760126 24.911079 41.168280 1.010251 0.920900 0.053933 -0.006459 1279890.000000 0 0 1
-18.550292 -26.962526 24.577679 40.928639 0.968168 0.926669 0.053978 -0.007327 74498.600000 0 0 1
-19.568992 -26.592826 25.705279 41.843580 0.936397 0.909275 0.044543 -0.007886 84612.800000 0 0 1
-20.486792 -27.544626 26.125779 43.138978 0.931296 0.920253 0.048228 -0.012667 -62000.800000 0 0 1
-21.361392 -28.138926 25.195679 43.392747 0.921471 0.951279 0.053343 -0.017903 -342924.000000 0 0 1
-22.674692 -27.413526 24.798879 43.366202 0.879727 0.962039 0.045953 -0.014951 -77066.000000 0 0 1
-22.463692 -26.345426 24.001379 42.127961 0.864760 0.964624 0.040155 -0.016740 142444.000000 0 0 1
-23.619892 -26.007726 23.252979 42.130774 0.833476 0.986127 0.029158 -0.012769 -134981.000000 0 0 1
-23.753792 -24.508226 22.998079 41.155892 0.801029 0.977853 0.014538 0.002764 -294112.000000 0 0 1
-24.332792 -23.911526 24.119279 41.780204 0.776666 0.955391 0.006070 0.005401 96359.500000 0 0 1
-24.630192 -22.561326 23.891379 41.066505 0.741586 0.949890 0.002161 0.006255 -171635.000000 0 0 1
-25.277372 -21.878526 25.089679 41.798414 0.713446 0.926977 0.002018 0.007495 -650663.000000 0 0 1
-26.538722 -22.310326 25.478979 43.025955 0.699053 0.937039 -0.005045 0.013697 -397515.000000 0 0 1
-26.877532 -21.588226 26.610779 43.549820 0.676693 0.913420 -0.004537 0.006205 250883.000000 0 0 1
-28.084352 -22.183426 27.481379 45.122737 0.668543 0.915951 -0.003369 0.010420 2290740.000000 0 0 1
-29.451972 -21.993526 27.029779 45.626120 0.641424 0.936738 0.000314 0.015495 1508650.000000 0 0 1
-29.858152 -22.746726 25.916679 45.613562 0.651027 0.966505 -0.004806 0.013490 -459408.000000 0 0 1
-31.281972 -23.331426 26.099979 46.948122 0.640835 0.981312 -0.003592 0.010370 -151585.000000 0 0 1
-31.850832 -23.847326 24.914179 46.945573 0.642681 1.011366 -0.011288 0.011847 136050.000000 0 0 1
-31.239952 -25.023626 24.370579 46.861942 0.675359 1.023886 -0.009722 0.007883 -898897.000000 0 0 1
-31.813782 -25.482526 23.024179 46.814407 0.675344 1.056620 -0.000660 0.007494 -286992.000000 0 0 1
-33.111262 -26.022626 23.102079 48.033726 0.666093 1.069052 0.011741 0.006733 -211017.000000 0 0 1
-33.585352 -26.349126 21.820279 47.941390 0.665244 1.098261 0.013319 0.007391 -576599.000000 0 0 1
-34.885553 -27.124426 21.870679 49.305810 0.660886 1.111216 0.024594 0.003105 -937426.000000 0 0 1
-34.797603 -28.333726 22.651579 50.266960 0.683366 1.103330 0.031188 -0.005404 108097.000000 0 0 1
-33.960372 -29.400926 22.209679 50.109791 0.713563 1.111608 0.023833 -0.000749 -258978.000000 0 0 1
-34.513149 -30.416026 21.118679 50.619074 0.722380 1.140425 0.040604 -0.004555 -58489.700000 0 0 1
-34.554444 -29.875326 19.800679 49.785657 0.712902 1.161767 0.027789 0.001366 76381.100000 0 0 1
-35.139621 -30.772826 18.968879 50.414067 0.719243 1.185038 0.032587 -0.000443 -834986.000000 0 0 1
-35.338092 -30.247526 17.532379 49.709938 0.707936 1.210348 0.031006 0.001906 -160888.000000 0 0 1
-34.180468 -30.087526 16.695979 48.500715 0.721799 1.219365 0.053547 -0.003798 451486.000000 0 0 1
-34.467084 -29.385026 15.455179 47.857311 0.705975 1.241959 0.046981 0.001884 87969.800000 0 0 1
-35.373508 -30.189226 14.500479 48.712815 0.706489 1.268542 0.057536 0.009956 372867.000000 0 0 1
-34.647978 -31.317726 13.970479 48.748914 0.734956 1.280141 0.060932 0.003189 365241.000000 0 0 1
-35.291087 -32.033226 12.915479 49.380138 0.737045 1.306166 0.055588 -0.000267 9117.510000 0 0 1
-35.517165 -31.296826 11.521679 48.720729 0.722316 1.332051 0.058599 0.007694 -60668.500000 0 0 1
35.435875 -30.260026 11.523779 48.001749 -0.706776 1.328358 0.041492 0.006401 -84733.400000 0 0 1
35.555805 -29.562126 10.293979 47.371939 -0.693613 1.351748 0.023853 0.010612 407859.000000 0 0 1
34.385535 -28.558826 10.038479 45.812036 -0.693092 1.349881 0.049306 0.011738 362618.000000 0 0 1
34.791185 -27.526326 9.123179 45.291915 -0.669344 1.367978 0.046870 -0.029681 66447.000000 0 0 1
33.719835 -26.682026 8.777879 43.886319 -0.669405 1.369424 0.023726 -0.021718 -243103.000000 0 0 1
33.972965 -25.576226 7.715779 43.218502 -0.645317 1.391305 0.017783 -0.025333 270405.000000 0 0 1
34.926515 -24.602926 8.150679 43.492517 -0.613686 1.382277 0.037983 -0.031415 312841.000000 0 0 1
35.164645 -23.704526 7.101879 42.998762 -0.593132 1.404871 0.039434 -0.037282 -57762.200000 0 0 1
35.540215 -22.266926 7.447979 42.595719 -0.559697 1.395040 0.049466 -0.047841 -336071.000000 0 0 1
34.450515 -21.503326 7.940879 41.379809 -0.558010 1.377696 0.043962 -0.036639 -52481.900000 0 0 1
34.743935 -20.123426 7.892479 40.919244 -0.524979 1.376701 0.060895 -0.037366 -162703.000000 0 0 1
33.887905 -19.305926 8.812079 39.984517 -0.517842 1.348585 0.077847 -0.023926 -520112.000000 0 0 1
34.491155 -19.264826 10.024779 40.758674 -0.509379 1.322292 0.067439 -0.034749 -500057.000000 0 0 1
33.719415 -18.519426 10.949279 39.998185 -0.502245 1.293512 0.076694 -0.022405 -45873.400000 0 0 1
34.214385 -18.698626 12.387179 40.910940 -0.500163 1.263184 0.069269 -0.031987 611573.000000 0 0 1
35.492685 -18.100726 12.656679 41.803810 -0.471603 1.263205 0.029567 -0.021692 581415.000000 0 0 1
35.839885 -18.434226 13.983279 42.659702 -0.475061 1.236837 0.042604 -0.016549 -579315.000000 0 0 1
-34.801989 -17.656426 14.406379 41.598937 0.469502 1.217155 0.047634 -0.016340 -639727.000000 0 0 1
-33.657052 -18.127326 13.766179 40.631328 0.494040 1.225148 0.027575 -0.011222 -542913.000000 0 0 1
-32.485702 -17.982826 14.516179 39.867560 0.505573 1.198119 0.006416 -0.010935 -150101.000000 0 0 1
-31.163392 -17.807426 13.742379 38.433246 0.519141 1.205137 0.036340 -0.006707 -150049.000000 0 0 1
-30.652532 -19.072826 13.430879 38.519332 0.556603 1.214635 0.025411 -0.004149 569558.000000 0 0 1
-29.493862 -18.934726 12.580979 37.238324 0.570723 1.226164 -0.021707 0.011242 742672.000000 0 0 1
-28.794992 -20.260926 12.111679 37.233714 0.613156 1.239480 -0.030552 0.005801 -688106.000000 0 0 1
-29.606512 -21.062026 11.345779 38.064172 0.618335 1.268126 -0.010255 0.007401 -485031.000000 0 0 1
-28.753752 -21.837426 10.531979 37.610823 0.649530 1.286976 -0.008843 0.013620 55922.000000 0 0 1
-29.498062 -22.754726 9.480879 38.442168 0.657055 1.321598 0.001214 0.007789 336803.000000 0 0 1
-30.130682 -23.909326 9.965579 39.734451 0.670778 1.317285 0.007376 0.003145 -383701.000000 0 0 1
-31.420972 -23.646126 10.453079 40.690092 0.645137 1.310988 0.034791 -0.010855 -324660.000000 0 0 1
-32.308912 -24.960526 10.458879 42.145958 0.657783 1.320017 0.066617 -0.012030 141786.000000 0 0 1
-32.607552 -25.500526 9.202979 42.405472 0.663696 1.352032 0.059156 -0.010761 -182278.000000 0 0 1
-33.369502 -26.675426 9.345179 43.731389 0.674372 1.355441 0.074219 -0.003528 175513.000000 0 0 1
-33.598612 -27.415226 8.047079 44.104612 0.684399 1.387314 0.062068 -0.006916 857248.000000 0 0 1
-32.356932 -27.882926 7.492079 43.365422 0.711264 1.397159 0.054360 -0.004856 464297.000000 0 0 1
-32.517352 -28.382426 6.219979 43.607665 0.717605 1.427673 0.037678 -0.005575 635454.000000 0 0 1
-31.131392 -28.779226 5.593179 42.763198 0.746157 1.439626 0.040399 -0.002011 959729.000000 0 0 1
-30.400132 -27.716126 5.031479 41.444752 0.739248 1.449094 0.037663 0.002959 -107282.000000 0 0 1
-29.206662 -28.102726 4.360579 40.765267 0.766138 1.463623 0.038864 -0.005867 322936.000000 0 0 1
-28.508542 -26.912326 3.697879 39.378732 0.756604 1.476752 0.031913 -0.004678 -131326.000000 0 0 1
-29.112642 -26.418426 2.555779 39.395573 0.736919 1.505876 0.037065 -0.005556 -384857.000000 0 0 1
-28.599382 -25.136726 2.321679 38.146688 0.721049 1.509897 0.032342 -0.015009 -50087.700000 0 0 1
-28.898052 -24.515126 0.918579 37.906894 0.703525 1.546561 0.039566 -0.012323 -162318.000000 0 0 1
-28.368612 -25.386926 -0.042721 38.069357 0.729987 1.571919 0.038416 -0.015964 -127418.000000 0 0 1
-28.304942 -24.921426 -1.404821 37.738849 0.721915 1.608030 0.047151 -0.024496 -309224.000000 0 0 1
-29.608872 -24.731626 -2.217921 38.642694 0.695885 1.628223 0.052773 -0.018432 -253333.000000 0 0 1
-30.372532 -23.674226 -1.700321 38.546735 0.662092 1.614921 0.045000 -0.013220 -1054360.000000 0 0 1
-31.536142 -23.616626 -2.458121 39.475507 0.642781 1.633106 0.068212 -0.012815 -223908.000000 0 0 1
-32.445472 -22.391126 -2.052821 39.475122 0.604061 1.622823 0.056404 -0.008714 370750.000000 0 0 1
-33.195632 -22.478026 -0.828821 40.098611 0.595217 1.591467 0.063414 -0.018804 307549.000000 0 0 1
-33.976342 -21.310726 -0.700321 40.112707 0.560196 1.588256 0.058152 -0.000610 -231606.000000 0 0 1
-34.222891 -20.792826 0.709179 40.050603 0.545968 1.553088 0.067818 -0.011367 201516.000000 0 0 1
-34.923808 -21.647426 1.673779 41.122803 0.554885 1.530083 0.056886 -0.017026 604618.000000 0 0 1
-34.823574 -21.176726 3.000279 40.867306 0.546365 1.497315 0.060113 -0.018421 -298359.000000 0 0 1
-35.771140 -22.022526 3.905779 42.187927 0.551848 1.478083 0.065800 -0.010450 1852690.000000 0 0 1
34.674265 -21.940826 3.803879 41.208907 -0.564167 1.478358 0.050310 -0.002458 1306770.000000 0 0 1
34.080425 -20.693926 4.127779 40.084318 -0.545703 1.467636 0.047188 -0.009858 185038.000000 0 0 1
32.946375 -20.298226 3.077179 38.819462 -0.552173 1.491444 0.034364 0.002807 1333510.000000 0 0 1
31.845405 -21.214326 3.216379 38.399512 -0.587656 1.486937 0.028932 0.000640 31778.900000 0 0 1
30.637225 -20.713926 2.682079 37.079642 -0.594507 1.498400 0.024990 0.002525 681122.000000 0 0 1
29.435635 -21.656026 3.048979 36.670647 -0.634291 1.487555 0.020879 0.014106 145525.000000 0 0 1
29.366775 -22.773526 2.188579 37.226749 -0.659614 1.511972 0.010545 0.003717 -409555.000000 0 0 1
28.334885 -23.647026 2.545679 36.993622 -0.695459 1.501928 0.013676 0.000774 -274928.000000 0 0 1
28.076155 -24.739226 1.555579 37.452899 -0.722301 1.529250 0.011881 0.001616 -100870.000000 0 0 1
27.445825 -24.310826 0.368879 36.666410 -0.724900 1.560736 0.015218 -0.006112 554.600000 0 0 1
27.099305 -25.418526 -0.411021 37.157001 -0.753405 1.581858 0.016174 -0.012121 -392116.000000 0 0 1
26.097315 -25.036126 -1.520621 36.196543 -0.764648 1.612819 0.022578 -0.020702 -322400.000000 0 0 1
26.565515 -24.268626 -2.640221 36.078575 -0.740245 1.644042 0.020317 -0.029443 373262.000000 0 0 1
27.210345 -25.063926 -3.688421 37.178054 -0.744360 1.670169 0.015799 -0.032718 -202810.000000 0 0 1
26.206015 -25.699626 -4.701721 37.004489 -0.775643 1.698199 0.022154 -0.034177 699713.000000 0 0 1
25.579715 -24.848626 -5.739621 36.120898 -0.770902 1.730373 0.028797 -0.048688 612239.000000 0 0 1
24.790815 -23.823826 -5.226021 34.777442 -0.765510 1.721638 0.038664 -0.048158 -1027640.000000 0 0 1
24.277015 -22.892026 -6.351221 33.966989 -0.756044 1.758886 0.048776 -0.051431 -136849.000000 0 0 1
23.553715 -23.499326 -7.403421 34.085282 -0.784242 1.789744 0.061451 -0.052749 602544.000000 0 0 1
22.410215 -22.859826 -7.945021 32.983522 -0.795330 1.814067 0.058061 -0.051144 123087.000000 0 0 1
22.587615 -21.582426 -8.819021 32.461925 -0.762645 1.845927 0.058359 -0.049849 -742420.000000 0 0 1
23.076515 -21.832626 -10.118121 33.340148 -0.757707 1.879141 0.066483 -0.053308 295480.000000 0 0 1
22.766615 -20.638726 -10.822021 32.579010 -0.736414 1.909408 0.061707 -0.047018 -553531.000000 0 0 1
23.571015 -20.578526 -12.083621 33.542248 -0.717721 1.939333 0.058740 -0.039312 768548.000000 0 0 1
24.950415 -20.265326 -11.763821 34.228557 -0.682150 1.921634 0.066634 -0.039364 883196.000000 0 0 1
25.750815 -20.087826 -12.898121 35.113911 -0.662479 1.946925 0.051172 -0.040225 -261802.000000 0 0 1
27.182925 -20.574926 -12.614221 36.350482 -0.647906 1.925184 0.042082 -0.032490 -394239.000000 0 0 1
27.404595 -21.950726 -12.756221 37.357293 -0.675343 1.919272 0.021955 -0.030095 1650700.000000 0 0 1
28.663745 -22.248426 -12.040021 38.230418 -0.660051 1.891182 0.020398 -0.035069 1549190.000000 0 0 1
29.115945 -23.727926 -12.252721 39.507998 -0.683788 1.886129 0.004356 -0.024127 -340764.000000 0 0 1
29.482885 -24.051526 -13.606221 40.408485 -0.684289 1.914224 0.007718 -0.024059 221793.000000 0 0 1
29.990515 -25.338626 -13.630321 41.560349 -0.701519 1.904944 0.007469 -0.014476 -289431.000000 0 0 1
-4.663192 -9.092705 -27.545831 29.380188 1.096922 2.786358 0.051819 -0.009915 -174490.000000 0 0 1
-4.067392 -7.849705 -27.303931 28.699585 1.092728 2.828450 0.025182 -0.010154 180897.000000 0 0 1
-4.674492 -6.769205 -28.033101 29.215197 0.966439 2.856154 0.017437 -0.009419 -225429.000000 0 0 1
-4.515792 -5.453205 -27.256211 28.160803 0.879155 2.887444 0.015174 -0.014610 -288124.000000 0 0 1
-5.167992 -5.511205 -26.014651 27.089547 0.817526 2.858946 0.013458 -0.017143 122889.000000 0 0 1
-5.090692 -4.256905 -25.295161 26.151129 0.696436 2.885032 0.025657 -0.016083 168630.000000 0 0 1
-5.905692 -4.207405 -23.977421 25.049873 0.619021 2.847920 0.024941 -0.013561 23620.000000 0 0 1
-5.235292 -5.020905 -23.025321 24.140902 0.764498 2.836399 0.029445 -0.024697 205621.000000 0 1 0
-5.590692 -4.863605 -21.692621 22.923357 0.715961 2.812422 0.021727 -0.015896 -829766.000000 0 1 0
-4.878492 -5.838505 -20.811821 22.158964 0.874738 2.791105 0.017334 -0.014579 -736587.000000 0 1 0
-5.234692 -7.200505 -20.953021 22.765727 0.942185 2.739836 0.007594 -0.014205 -145576.000000 0 1 0
-4.478292 -8.035005 -20.162521 22.161761 1.062329 2.713571 0.015732 -0.022425 -1033760.000000 0 1 0
-5.050492 -9.499705 -20.099121 22.797511 1.082153 2.650115 0.017916 -0.022732 627056.000000 0 1 0
-6.229092 -9.659805 -19.319621 22.480239 0.998052 2.604900 0.020716 -0.017757 1387380.000000 0 1 0
-7.472492 -9.098305 -19.844021 23.073848 0.883198 2.606109 0.015508 -0.014169 304838.000000 0 1 0
-8.596092 -9.161405 -18.809121 22.618735 0.817223 2.552729 0.007966 -0.007871 -745018.000000 0 1 0
-8.933692 -10.532805 -18.693721 23.242333 0.867361 2.505287 0.023976 -0.011100 155895.000000 0 1 0
-9.738892 -10.758905 -17.545621 22.769472 0.835119 2.450542 0.023322 -0.006379 -156709.000000 0 1 0
-10.352092 -12.173505 -17.463421 23.671314 0.866082 2.400522 0.054860 -0.012637 -86622.900000 0 1 0
-11.549692 -12.386205 -18.184521 24.849351 0.820332 2.391742 0.048410 -0.027808 26171.800000 0 1 0
-11.427592 -12.451705 -19.568721 25.856714 0.828259 2.429221 0.054322 -0.019810 -421263.000000 0 0 1
-12.756192 -12.076605 -20.332921 26.869918 0.758039 2.429073 0.037440 -0.020105 1437510.000000 0 0 1
-13.872692 -12.962505 -20.360221 27.839122 0.751494 2.391100 0.036799 -0.010025 481428.000000 0 0 1
-14.377892 -13.383505 -19.096121 27.395325 0.749594 2.342082 0.031320 -0.000374 -520827.000000 0 0 1
-15.623792 -14.328805 -19.100221 28.534820 0.742191 2.304151 0.030158 -0.003508 31661.800000 0 0 1
-15.429192 -15.677405 -19.450921 29.362890 0.793377 2.294857 0.047918 -0.015908 -106114.000000 0 0 1
-15.587692 -15.940305 -20.811021 30.498657 0.796582 2.321781 0.058799 -0.011159 -12971.300000 0 0 1
-15.158592 -17.373605 -21.087521 31.245937 0.853380 2.311610 0.029322 -0.004981 304229.000000 0 0 1
-16.005992 -18.285805 -20.390521 31.722796 0.851783 2.268907 0.038541 0.005894 473998.000000 0 0 1
-15.575992 -19.581405 -20.803021 32.539340 0.898837 2.264409 0.033230 0.004640 -143190.000000 0 0 1
-16.293592 -20.725105 -20.101321 33.152288 0.904541 2.222237 0.032985 -0.002186 -275873.000000 0 0 1
-15.823892 -21.947705 -20.639521 34.030679 0.946127 2.222444 0.027067 -0.001674 291062.000000 0 0 1
-16.538192 -23.036505 -20.068221 34.740838 0.948150 2.186649 0.034617 0.000881 309911.000000 0 0 1
-15.927092 -24.435005 -20.499621 35.650753 0.993147 2.183415 0.029366 0.008457 162088.000000 0 0 1
-16.237992 -24.885905 -21.852321 36.885018 0.992667 2.204886 0.013608 -0.002743 233493.000000 0 0 1
-15.570792 -26.116825 -22.062221 37.567003 1.033177 2.198486 0.017882 -0.002770 -126151.000000 0 0 1
-15.839492 -26.638425 -23.470221 38.876040 1.034349 2.218955 0.020420 -0.006205 -172684.000000 0 0 1
-17.068692 -27.298385 -23.678021 39.964869 1.012007 2.204919 0.023843 -0.005149 -146040.000000 0 0 1
-16.968492 -28.724015 -23.688021 40.916025 1.037212 2.188227 0.023492 0.000438 -88258.900000 0 0 1
-18.127292 -29.321245 -24.503621 42.293753 1.017080 2.188749 0.025184 -0.008234 -399939.000000 0 0 1
-17.873092 -29.379925 -25.907001 43.055779 1.024264 2.216434 0.025245 -0.003314 140782.000000 0 0 1
-17.972492 -28.131505 -26.602161 42.685677 1.002282 2.243638 0.037630 -0.013769 -242957.000000 0 0 1
-16.758592 -27.784085 -27.475301 42.517031 1.028047 2.273415 0.046615 -0.018807 -421516.000000 0 0 1
-16.860692 -28.195575 -28.788721 43.681390 1.031856 2.290366 0.046332 -0.010265 -96183.700000 0 0 1
-15.867392 -27.654475 -29.618301 43.517673 1.049885 2.319383 0.034774 -0.008511 -253719.000000 0 0 1
-16.103692 -27.855495 -31.112411 44.757565 1.046624 2.339400 0.041666 -0.006964 -175289.000000 0 0 1
-15.870092 -29.175395 -31.511001 45.782165 1.072606 2.329913 0.035064 -0.006433 252317.000000 0 0 1
-16.515092 -29.501235 -32.741871 47.064862 1.060453 2.340156 0.036762 -0.003211 -201246.000000 0 0 1
-16.458092 -30.931495 -33.254201 48.305984 1.081814 2.330087 0.029820 -0.001518 -820188.000000 0 0 1
-15.252992 -31.367815 -33.747371 48.533273 1.118199 2.339696 0.033122 -0.005213 -1035670.000000 0 0 1
-15.454092 -32.638905 34.310200 49.812819 1.128583 0.810988 0.022606 0.000612 590811.000000 0 0 1
-14.204892 -33.108475 33.486000 49.185997 1.165508 0.821937 0.015428 -0.006202 751912.000000 0 0 1
-13.305992 -33.902715 34.259383 50.001489 1.196793 0.815963 0.035876 -0.003605 130761.000000 0 0 1
-12.367192 34.146103 33.414548 49.350135 -1.223308 0.826993 0.037661 -0.004750 57487.700000 0 0 1
-11.491492 33.173620 34.213253 49.021324 -1.237328 0.798299 0.055152 -0.007592 264473.000000 0 0 1
-10.551892 33.842397 -33.547201 48.806403 -1.268554 2.328634 0.062795 -0.011612 94798.600000 0 0 1
-9.873192 32.959407 -32.684601 47.456143 -1.279747 2.330536 0.057895 -0.020412 -483325.000000 0 0 1
-8.905592 33.809493 -31.899431 47.328269 -1.313241 2.310412 0.044658 -0.028126 -239540.000000 0 0 1
-9.604992 -34.131586 -30.890481 47.025981 1.296480 2.287471 0.056750 -0.025777 362005.000000 0 0 1
-8.800592 -33.119205 -30.322041 45.757604 1.311074 2.295170 0.047054 -0.022524 -111647.000000 0 0 1
-9.703992 -32.093785 -29.559411 44.698292 1.277173 2.293360 0.067634 -0.017705 549405.000000 0 0 1
-10.014392 -32.284255 -28.172021 44.002545 1.270013 2.265602 0.089624 -0.014989 45128.100000 0 0 1
-10.701292 -33.506465 -27.898941 44.894897 1.261656 2.241360 0.092120 -0.022238 -217034.000000 0 0 1
-10.938692 -33.511915 -26.353371 44.013675 1.255288 2.212741 0.100748 -0.027805 -541188.000000 0 0 1
-9.765992 -33.573565 -25.629281 43.352265 1.287724 2.203326 0.091843 -0.029068 -860502.000000 0 0 1
-10.032992 -33.454485 -24.259121 42.524916 1.279432 2.177872 0.101822 -0.037322 -71159.700000 0 0 1
-8.812892 -33.577185 -23.343621 41.833229 1.314119 2.162790 0.099962 -0.043565 -131670.000000 0 0 1
-8.271192 33.835526 -23.216221 41.859866 -1.331045 2.158700 0.084166 -0.030883 -40340.600000 0 0 1
-7.386592 33.802464 -22.105521 41.058767 -1.355656 2.139319 0.094021 -0.023647 59301.200000 0 0 1
-6.693592 32.409675 -21.892621 39.679693 -1.367129 2.155238 0.076610 -0.021191 913103.000000 0 0 1
-5.440692 32.242455 -22.581321 39.737804 -1.403628 2.175183 0.045996 -0.031555 661902.000000 0 0 1
-4.830192 30.970055 -22.394921 38.522818 -1.416079 2.191173 0.030636 -0.018046 664516.000000 0 0 1
-3.425692 31.045345 -23.115121 38.856886 -1.460896 2.207911 0.027957 -0.027027 620711.000000 0 0 1
-3.491292 31.143595 -24.526821 39.795447 -1.459159 2.234860 0.025819 -0.027151 -44386.700000 0 0 1
-2.377092 31.896575 -24.970321 40.577814 -1.496409 2.233650 0.014434 -0.031308 -144812.000000 0 0 1
-2.309492 32.210625 -26.501401 41.775380 -1.499219 2.258001 0.009927 -0.012234 -246705.000000 0 0 1
-1.228092 33.013591 -26.881711 42.591452 -1.533614 2.253835 0.019703 -0.023495 111111.000000 0 0 1
-1.705592 -34.309845 -26.903151 43.633176 1.521126 2.235182 0.023937 -0.018534 -65869.200000 0 0 1
-0.693292 -33.282985 -27.384111 43.106001 1.549969 2.259159 -0.001894 -0.006974 317891.000000 0 0 1
0.435608 -33.136405 -26.501351 42.432684 -1.557651 2.245352 0.015519 -0.012786 358293.000000 0 0 1
1.371408 -32.199375 -26.980151 42.031049 -1.528231 2.267783 0.009823 -0.002671 -107160.000000 0 0 1
2.401208 -31.843455 -25.882071 41.105389 -1.495532 2.251901 0.011521 0.001003 -645969.000000 0 0 1
2.061408 -31.088985 -24.734321 39.781416 -1.504587 2.241779 0.009645 0.004379 -839775.000000 0 0 1
3.150208 -30.447825 -24.167221 39.000621 -1.467701 2.239109 0.003651 0.009348 -836031.000000 0 0 1
2.935108 -29.732395 -22.802621 37.584434 -1.472398 2.222704 0.018442 0.009088 -399658.000000 0 0 1
2.968808 -30.722055 -21.793621 37.783864 -1.474461 2.185599 0.025113 0.011992 503555.000000 0 0 1
2.983108 -30.101035 -20.493721 36.537157 -1.472016 2.166270 0.028957 0.012640 -737089.000000 0 0 1
2.869608 -31.177865 -19.354921 36.809060 -1.479015 2.124475 0.030402 0.017633 -421199.000000 0 0 1
1.585508 -31.697635 -19.118621 37.050986 -1.520818 2.112981 0.022936 0.011930 -234464.000000 0 0 1
1.362108 -33.061805 -19.487321 38.401744 -1.529621 2.103030 0.034019 0.016391 -404123.000000 0 0 1
2.077808 -34.213832 -18.712021 39.051803 -1.510141 2.070493 0.015321 -0.005574 816299.000000 0 0 1
3.506308 -34.267298 -18.823421 39.253829 -1.468829 2.070916 0.023446 0.002826 733447.000000 0 0 1
4.068508 33.498120 -17.900421 38.198192 1.449933 2.058524 0.043872 -0.014650 -141607.000000 0 0 1
5.182008 32.684270 -18.524821 37.924711 1.413558 2.081124 0.061118 -0.019576 -326383.000000 0 0 1
6.342308 33.437586 -18.836021 38.898492 1.383347 2.076285 0.067276 -0.017374 -679655.000000 0 0 1
7.289108 32.512465 -19.270521 38.490836 1.350249 2.095148 0.069450 -0.030126 -521396.000000 0 0 1
8.694008 33.088627 -19.483621 39.370731 1.313855 2.088488 0.069612 -0.027204 -465284.000000 0 0 1
9.421408 33.245942 -18.317321 39.109843 1.294651 2.058225 0.058977 -0.018936 -921350.000000 0 0 1
10.621108 33.901528 -18.570521 40.087227 1.267189 2.052458 0.053223 -0.006442 -377689.000000 0 0 1
11.495608 34.012480 -17.285921 39.847219 1.244868 2.019508 0.035920 -0.008568 147077.000000 0 0 1
12.402108 32.953631 -17.016521 39.106471 1.210842 2.020982 0.029100 -0.012096 -240138.000000 0 0 1
13.269408 33.263705 -15.997221 39.223237 1.191225 1.990895 0.015040 -0.021788 -981200.000000 0 0 1
14.374208 32.283375 -15.723521 38.678977 1.151899 1.989431 0.021265 -0.019272 -383996.000000 0 0 1
14.049908 31.158625 -14.924021 37.295928 1.147181 1.982478 0.024951 -0.015920 -309413.000000 0 0 1
15.193608 30.346695 -14.773521 37.013843 1.106615 1.981370 0.025877 -0.011754 -89863.400000 0 0 1
14.997708 29.158315 -13.889121 35.609637 1.095731 1.971469 0.027448 -0.015008 -380011.000000 0 0 1
14.988708 29.366045 -12.484221 35.254528 1.098856 1.932766 0.030249 -0.019765 968315.000000 0 0 1
13.657708 29.543725 -11.928121 34.664748 1.137771 1.922076 0.040516 -0.023746 1135420.000000 0 0 1
12.916208 28.220505 -11.587421 33.128442 1.141567 1.928125 0.039023 -0.018698 -644142.000000 0 0 1
12.238908 27.698405 -12.701721 32.837878 1.154729 1.967956 0.025838 -0.021976 -140497.000000 0 0 1
11.860608 26.308535 -12.606121 31.491702 1.147255 1.982640 0.055077 -0.029887 426798.000000 0 0 1
10.852908 25.921495 -11.473121 30.353616 1.174288 1.958412 0.057030 -0.028116 -151815.000000 0 0 1
9.574908 26.520065 -11.515721 30.456601 1.224317 1.958542 0.051587 -0.025499 112577.000000 0 0 1
9.113808 26.595425 -10.171021 29.896953 1.240655 1.917929 0.041828 -0.013595 -760208.000000 0 0 1
8.013708 27.612435 -10.093121 30.471908 1.288335 1.908400 0.044746 -0.010944 -707813.000000 0 0 1
8.472008 28.975925 -10.188221 31.861874 1.286344 1.896275 0.053448 -0.020643 -576062.000000 0 0 1
7.527108 29.912695 -10.558921 32.602415 1.324279 1.900613 0.037464 -0.014349 -476823.000000 0 0 1
8.196508 31.232415 -10.949421 34.095987 1.314148 1.897724 0.063591 -0.023639 -318289.000000 0 0 1
8.867308 31.959685 -9.941121 34.624796 1.300151 1.862005 0.057453 -0.021508 -201640.000000 0 0 1
9.482408 33.128415 -10.404021 35.995161 1.292018 1.864020 0.064895 -0.024156 539845.000000 0 0 1
10.735908 33.047568 -11.348221 36.553845 1.256689 1.886465 0.036969 -0.027669 -58304.200000 0 0 1
11.964508 32.909050 -10.640621 36.597511 1.222090 1.865804 0.030411 -0.021046 -530995.000000 0 0 1
12.899608 33.332535 -11.570521 37.567735 1.201549 1.883877 0.044494 -0.020914 -1326350.000000 0 0 1
14.349108 33.396058 -11.159621 38.022766 1.164981 1.868681 0.040882 -0.024601 -574817.000000 0 0 1
14.697808 -34.309229 -10.213221 38.697011 -1.166056 1.837889 0.047123 -0.020147 -562880.000000 0 0 1
16.080908 -34.154062 -10.110421 39.080893 -1.130752 1.832478 0.038110 -0.020549 -368874.000000 0 0 1
16.555608 -33.317155 -8.929821 38.260459 -1.109624 1.806365 0.052454 -0.024536 -234538.000000 0 0 1
16.639808 -34.124586 -7.785921 38.755531 -1.117102 1.773071 0.047547 -0.028920 11079.100000 0 0 1
17.212008 -33.311555 -6.826221 38.111812 -1.093880 1.750878 0.039817 -0.022821 -1373140.000000 0 0 1
17.557308 -34.010565 -5.495621 38.667551 -1.094248 1.713404 0.033585 -0.011813 294356.000000 0 0 1
18.546208 33.679961 -5.665021 38.863789 1.067447 1.717084 0.022598 -0.016965 27446.100000 0 0 1
19.835408 34.248499 -5.814421 40.002632 1.045840 1.716664 0.029966 -0.012171 -1548610.000000 0 0 1
20.632408 33.333209 -6.771021 39.782481 1.016542 1.741830 0.024197 -0.005511 -187849.000000 0 0 1
20.904708 32.027805 -6.310221 38.763462 0.992522 1.734312 0.032344 0.004434 218497.000000 0 0 1
21.730108 31.960495 -5.123121 38.986116 0.973684 1.702586 0.030130 0.000693 -205870.000000 0 0 1
21.823708 30.516595 -4.597821 37.797841 0.949980 1.692741 0.012800 0.000944 -99049.000000 0 0 1
22.686608 29.764785 -5.431321 37.816979 0.919535 1.714916 0.016118 0.010841 92855.800000 0 0 1
22.986808 28.495775 -4.904721 36.938582 0.891999 1.703970 0.006610 0.023219 -356670.000000 0 0 1
23.883008 27.816175 -5.963821 37.144378 0.861330 1.732052 -0.003818 0.030971 -275587.000000 0 0 1
25.158008 28.431715 -6.064521 38.445627 0.846411 1.729201 0.016773 0.024145 47382.300000 0 0 1
26.084408 27.620425 -6.771821 38.589400 0.813991 1.747194 0.000355 0.024184 273961.000000 0 0 1
26.906908 26.673915 -5.851121 38.336863 0.781050 1.724019 0.004918 0.024573 -707906.000000 0 0 1
27.872308 27.393795 -5.110921 39.413286 0.776740 1.700838 0.006868 0.017051 -221516.000000 0 0 1
28.558008 26.354145 -4.415621 39.110082 0.745285 1.683940 0.004096 0.015641 -249981.000000 0 0 1
29.603408 26.898785 -3.461221 40.148306 0.737567 1.657114 0.008107 0.008927 -290448.000000 0 0 1
29.028208 27.443155 -2.313621 40.013953 0.757337 1.628649 0.013177 0.000331 441584.000000 0 0 1
30.083808 27.729425 -1.380421 40.937295 0.744697 1.604523 0.015227 -0.000003 574705.000000 0 0 1
30.113408 29.214975 -0.941521 41.966875 0.770256 1.593233 0.047796 -0.019667 -419646.000000 0 0 1
30.751808 30.009625 -1.885021 43.009355 0.773184 1.614639 0.034274 -0.007180 -136310.000000 0 0 1
30.617508 31.375595 -1.554321 43.866567 0.797626 1.606237 0.056374 -0.016322 -56645.800000 0 0 1
32.957365 22.982595 19.511583 44.666424 0.608941 1.118726 0.033696 -0.001770 3649.630000 0 0 1
33.313325 22.608995 20.812383 45.322175 0.596272 1.093691 0.031771 -0.015327 -188414.000000 0 0 1
34.207855 23.528595 21.366583 46.693715 0.602500 1.095513 0.035684 -0.013049 -159527.000000 0 0 1
34.101335 23.452095 22.833283 47.267966 0.602435 1.066650 0.025580 -0.010929 119990.000000 0 0 1
32.855135 23.988295 23.241383 46.851468 0.630658 1.051735 0.015879 -0.006267 270354.000000 0 0 1
32.822745 24.098695 24.622183 47.584993 0.633317 1.026945 0.013821 -0.010395 -325413.000000 0 0 1
31.473135 24.610995 25.140333 47.204827 0.663649 1.009151 0.021160 -0.009012 -140099.000000 0 0 1
31.301235 26.011595 24.917053 47.720330 0.693365 1.021429 0.000790 -0.003783 -461188.000000 0 0 1
30.118835 26.374995 25.572513 47.505137 0.719225 1.002365 0.000867 -0.006941 -298937.000000 0 0 1
30.069155 27.831395 26.011773 48.531979 0.746769 1.005138 -0.013300 -0.004534 -309213.000000 0 0 1
29.748615 28.702195 24.914013 48.264937 0.767497 1.028397 -0.015709 0.004279 345283.000000 0 0 1
29.442335 30.001895 25.388413 49.107396 0.794811 1.027456 -0.024836 0.000396 -326796.000000 0 0 1
29.230545 30.968195 24.242553 49.001584 0.814255 1.053272 -0.018589 0.000392 -14974.000000 0 0 1
30.466545 31.191495 23.591833 49.575138 0.797155 1.074832 -0.024644 -0.002359 65438.300000 0 0 1
30.359525 32.248495 22.674383 49.757350 0.815560 1.097639 -0.020761 0.001861 -121966.000000 0 0 1
31.709825 32.659095 22.073283 50.590111 0.800144 1.119296 -0.010424 -0.010265 -116127.000000 0 0 1
32.474785 33.472395 22.910783 51.960724 0.800524 1.114167 -0.011350 0.003972 393932.000000 0 0 1
33.813665 33.620195 22.436983 52.698194 0.782529 1.130990 -0.006460 0.010890 583877.000000 0 0 1
34.652025 -33.920726 22.976083 53.658913 -0.774734 1.128310 0.014395 0.015521 -184849.000000 0 0 1
34.117635 -32.662926 22.681683 52.395978 -0.763618 1.123100 0.003403 0.012589 -57680.600000 0 0 1
34.602625 -31.707926 23.565773 52.517425 -0.741772 1.105461 0.006068 0.010552 -825115.000000 0 0 1
33.889375 -30.328026 23.377483 51.134975 -0.729997 1.095983 0.009091 0.009992 702027.000000 0 0 1
32.524055 -30.308026 23.803033 50.427919 -0.750144 1.079215 0.003594 0.008138 712058.000000 0 0 1
31.616205 -30.722326 22.791483 49.627588 -0.771060 1.093645 -0.002878 0.019301 -297405.000000 0 0 1
30.890315 -32.099926 23.071183 50.168679 -0.804599 1.092945 -0.011342 0.019210 -633042.000000 0 0 1
29.810515 -32.071426 23.946803 49.906839 -0.821918 1.070335 0.000547 0.010709 -398553.000000 0 0 1
29.359335 -33.360726 24.224393 50.613534 -0.849109 1.071720 -0.011631 0.010821 36724.300000 0 0 1
28.310265 -33.288626 25.388933 50.539110 -0.866042 1.044468 -0.010119 0.003742 221928.000000 0 0 1
28.041545 34.155595 25.929133 51.237221 0.883384 1.040185 -0.015759 -0.004435 -249276.000000 0 0 1
27.145135 34.091095 26.976843 51.252426 0.898344 1.016491 -0.014531 -0.009212 -873443.000000 0 0 1
26.929095 32.648595 27.385403 50.408999 0.881106 0.996476 -0.003335 -0.007397 54.009400 0 0 1
26.308715 31.776595 26.467253 49.014446 0.879257 1.000372 -0.004600 -0.011499 488430.000000 0 0 1
24.890315 31.918895 26.362293 48.304390 0.908495 0.993508 0.005551 -0.010234 79908.700000 0 0 1
24.412215 31.473995 25.025173 47.040705 0.911092 1.009848 0.022239 -0.012671 -250621.000000 0 0 1
24.607915 32.393295 23.964513 47.214118 0.921141 1.038433 0.027742 -0.017250 -499968.000000 0 0 1
25.709915 31.920895 23.280683 47.137389 0.892756 1.054239 0.005313 -0.008808 -881309.000000 0 0 1
25.803415 32.593595 21.879483 46.977340 0.901155 1.086319 0.022765 0.006450 294862.000000 0 0 1
27.064765 33.211595 21.627883 47.992467 0.887024 1.103301 0.009409 0.013078 556849.000000 0 0 1
27.065375 33.890595 20.331183 47.900563 0.896903 1.132447 0.014511 0.003630 -196923.000000 0 0 1
28.433915 -34.323826 19.861083 48.796262 -0.878976 1.151606 0.008708 0.002456 666831.000000 0 0 1
29.378565 33.470195 19.259783 48.521060 0.850409 1.162620 0.002327 0.002336 1225390.000000 0 0 1
30.491585 34.031795 18.546183 49.313900 0.840210 1.185230 -0.000136 0.000357 317725.000000 0 0 1
31.373465 33.054295 17.795783 48.924131 0.811481 1.198514 -0.012575 0.010674 -342537.000000 0 0 1
32.176335 32.236695 18.623083 49.207116 0.786335 1.182661 -0.011724 0.000483 42819.200000 0 0 1
32.953555 31.327895 17.860083 48.850346 0.760114 1.196510 0.015857 -0.005891 -213797.000000 0 0 1
33.942675 30.596395 18.748583 49.393865 0.733596 1.181461 0.031611 -0.020953 137361.000000 0 0 1
34.920645 31.404995 19.412683 50.819065 0.732442 1.178841 0.033279 -0.021096 655277.000000 0 0 1
35.888716 30.669395 20.148083 51.327936 0.707141 1.167409 0.053646 -0.026583 897456.000000 0 0 1
-34.831170 31.500695 20.801583 51.363509 -0.735231 1.153831 0.087466 -0.029132 366677.000000 0 0 1
-33.943612 31.988795 19.792683 50.667564 -0.755758 1.169472 0.091895 -0.030523 789933.000000 0 0 1
-32.720412 32.548995 20.315983 50.426199 -0.782772 1.156129 0.083313 -0.027777 867876.000000 0 0 1
-32.859422 33.869895 21.179383 51.725020 -0.800540 1.148933 0.070860 -0.019712 -509397.000000 0 0 1
-33.090842 33.670995 22.532983 52.311328 -0.794088 1.125475 0.071362 -0.015165 159760.000000 0 0 1
-33.251582 -33.820226 23.218483 52.806944 0.793876 1.115547 0.050434 -0.006513 -84187.800000 0 0 1
-33.309502 -34.117026 24.721523 53.708920 0.797374 1.092478 0.060619 -0.005937 611398.000000 0 0 1
-34.639146 34.289995 25.144253 54.844395 -0.780333 1.094529 0.047613 -0.003754 323216.000000 0 0 1
-34.669995 34.172895 26.554753 55.452233 -0.778177 1.071422 0.050581 -0.005000 126139.000000 0 0 1
35.821235 33.958895 27.159163 56.338154 0.758716 1.067776 0.029060 -0.012852 -161553.000000 0 0 1
35.852335 33.561695 28.540693 56.800955 0.752410 1.044345 0.048381 -0.020657 -906157.000000 0 0 1
34.589685 33.467595 29.106023 56.246660 0.768912 1.026903 0.055005 -0.034974 -895187.000000 0 0 1
34.416805 32.404995 30.273493 56.134522 0.755300 1.001188 0.049914 -0.021498 -183142.000000 0 0 1
34.503315 30.983995 29.925993 55.191048 0.731709 0.997713 0.024789 -0.023080 709040.000000 0 0 1
35.736265 30.566795 29.295283 55.404180 0.707588 1.013662 0.024571 -0.019394 315141.000000 0 0 1
35.685505 29.090895 28.822853 54.318434 0.683942 1.011456 0.024907 -0.016282 -167116.000000 0 0 1
34.657315 28.846095 27.857053 53.002284 0.694142 1.017397 0.022694 -0.011382 156488.000000 0 0 1
34.443685 27.535395 27.384503 51.908346 0.674395 1.015077 0.028027 -0.015725 -162864.000000 0 0 1
34.298335 26.387195 28.414113 51.768926 0.655766 0.989791 0.025600 -0.016800 69953.400000 0 0 1
35.519545 26.057495 29.087583 52.789380 0.632929 0.987220 0.018881 -0.011294 456217.000000 0 0 1
35.423605 24.773895 29.673193 52.431632 0.610297 0.969223 0.017277 -0.012658 -327315.000000 0 0 1
-35.910316 23.654195 28.822673 51.766961 -0.582468 0.980295 0.031395 -0.016986 -442648.000000 0 0 1
35.221015 23.412195 27.645523 50.526485 0.586655 0.991842 0.013586 -0.012436 -206024.000000 0 0 1
35.829875 22.687095 26.635313 50.079179 0.564467 1.009996 0.013750 -0.016117 -927119.000000 0 0 1
35.729375 21.193495 26.765113 49.417849 0.535380 0.998447 0.010556 -0.018979 -818548.000000 0 0 1
34.439595 20.724295 26.531263 48.161084 0.541711 0.987371 0.051174 -0.013254 -228606.000000 0 0 1
34.029125 19.444195 27.039603 47.615105 0.519124 0.966870 0.053658 -0.009715 -511190.000000 0 0 1
33.652925 19.368995 28.545923 48.192811 0.522249 0.936852 0.048399 -0.005361 231906.000000 0 0 1
32.492615 20.084795 28.998433 47.959130 0.553647 0.921471 0.040758 -0.005731 623021.000000 0 0 1
32.440175 21.497995 28.991843 48.528916 0.585249 0.930524 0.036951 -0.020907 -899473.000000 0 0 1
31.597595 22.142995 30.073903 48.919933 0.611250 0.908718 0.050058 -0.026845 1603380.000000 0 0 1
30.140315 21.994495 30.043513 47.904166 0.630406 0.892896 0.062247 -0.034624 2309750.000000 0 0 1
29.325885 22.637795 29.043003 47.074126 0.657395 0.905918 0.051556 -0.039141 154556.000000 0 0 1
29.080755 24.112895 29.203293 47.748868 0.692276 0.912713 0.045479 -0.029643 421443.000000 0 0 1
30.286365 24.891795 28.958943 48.738955 0.687941 0.934570 0.032824 -0.017728 967266.000000 0 0 1
30.362325 26.136195 29.608593 49.816064 0.710736 0.934329 0.015896 -0.011753 -68647.900000 0 0 1
30.591585 26.017595 31.147473 50.822489 0.704774 0.911111 0.027528 -0.018353 1255150.000000 0 0 1
31.882985 25.345195 31.375183 51.413089 0.671651 0.914412 0.043242 -0.021932 1586500.000000 0 0 1
32.250175 25.330195 32.704725 52.452756 0.665792 0.897574 0.051777 -0.015786 35525.200000 0 0 1
31.673605 24.078995 33.465092 51.989687 0.650012 0.871490 0.064051 -0.016008 -244005.000000 0 0 1
32.088675 24.040095 -33.812481 52.448957 0.642974 2.271393 0.043866 -0.028216 373761.000000 0 0 1
31.543625 22.918695 -33.162871 51.186354 0.628337 2.275601 0.029150 -0.030106 -270856.000000 0 0 1
32.065395 22.675195 -31.694511 50.466781 0.615512 2.249812 0.023652 -0.029052 -91638.400000 0 0 1
31.778885 23.711295 -30.710201 50.152163 0.641022 2.229814 0.014032 -0.031692 338547.000000 0 0 1
32.329095 23.302895 -29.486141 49.574467 0.624551 2.207794 0.050263 -0.043362 774894.000000 0 0 1
33.647285 24.076895 -29.047191 50.552704 0.621098 2.182902 0.049106 -0.014227 929547.000000 0 0 1
34.310755 23.412895 -28.001741 50.094800 0.598801 2.163945 0.050661 -0.020084 93995.700000 0 0 1
35.211765 24.271995 -27.288271 50.731133 0.603519 2.138740 0.061680 -0.013961 502441.000000 0 0 1
35.926729 23.683795 -26.033551 50.293118 0.582833 2.114883 0.052063 -0.012064 -716779.000000 0 0 1
-34.984450 22.714695 -26.297151 49.309322 -0.575869 2.133305 0.043971 -0.015006 -102198.000000 0 0 1
-35.385636 21.337595 -26.546221 49.113522 -0.542624 2.141836 0.025124 -0.002350 89432.500000 0 0 1
-34.166715 20.468495 -27.010461 48.123681 -0.539741 2.166718 0.032757 0.003557 463618.000000 0 0 1
-33.159732 20.341795 -26.037031 46.811146 -0.550250 2.160620 0.034291 0.001612 356881.000000 0 0 1
-32.112382 19.426695 -26.427111 45.902001 -0.544058 2.184292 0.014166 0.002675 1021250.000000 0 0 1
-30.787132 19.555495 -25.620291 44.572011 -0.565889 2.183164 0.016727 0.002249 212221.000000 0 0 1
-31.011452 19.444995 -24.244521 43.904610 -0.560055 2.155808 0.011090 0.001145 -71388.400000 0 0 1
-29.760122 19.480195 -23.612221 42.692854 -0.579584 2.156843 0.013088 0.006181 -76451.900000 0 0 1
-29.904162 19.867895 -22.074221 42.145739 -0.586422 2.122054 0.006242 0.007041 220153.000000 0 0 1
-30.784592 18.961895 -21.433821 42.031574 -0.552068 2.105918 0.002454 0.003759 303422.000000 0 0 1
-31.403102 19.566495 -20.291421 42.198866 -0.557214 2.072423 0.014973 0.003360 -542658.000000 0 0 1
-32.299832 18.527495 -19.528321 42.046433 -0.520789 2.053806 0.010336 0.003585 393615.000000 0 0 1
-33.070182 19.031695 -18.452721 42.383313 -0.522206 2.021253 0.016574 -0.004327 115266.000000 0 0 1
-34.060710 19.964795 -18.778321 43.718992 -0.530176 2.014761 0.015357 0.002238 -999139.000000 0 0 1
-35.138222 20.111595 -17.679521 44.178460 -0.519845 1.982514 0.019826 -0.005109 -151206.000000 0 0 1
-34.731061 20.913495 -16.557621 43.792415 -0.542003 1.958532 0.018900 -0.014248 488827.000000 0 0 1
-35.665073 20.762995 -15.493821 44.081264 -0.527203 1.929951 0.020991 -0.006392 -259511.000000 0 0 1
-35.343652 21.726295 -14.323321 43.890353 -0.551170 1.903229 0.021039 -0.008607 -429379.000000 0 0 1
-35.792710 23.038095 -14.354021 44.921151 -0.571901 1.896038 0.033896 -0.011771 604688.000000 0 0 1
34.688895 23.267995 -14.407721 44.184855 0.590833 1.902948 0.033866 -0.005525 476117.000000 0 0 1
34.250475 24.738695 -14.845221 44.782571 0.625528 1.908685 0.043801 -0.010679 45605.700000 0 0 1
34.462095 25.634795 -13.744421 45.096428 0.639557 1.880502 0.038008 -0.009362 -58079.600000 0 0 1
34.379435 27.001095 -14.070621 45.923709 0.665766 1.882196 0.022926 -0.001630 -141165.000000 0 0 1
35.567125 27.651495 -14.814721 47.424693 0.660836 1.888498 0.059161 -0.009615 19268.900000 0 0 1
35.872304 27.304595 -16.150521 47.887393 0.650606 1.914802 0.065036 -0.009875 602087.000000 0 0 1
-34.827729 27.966395 -16.614921 47.656537 -0.676563 1.926915 0.062898 -0.017453 -66099.400000 0 0 1
-34.409414 27.766295 -18.110321 47.780316 -0.678958 1.959548 0.047739 -0.014652 57873.600000 0 0 1
-33.917892 26.454195 -18.383521 46.778217 -0.662394 1.974681 0.043859 -0.013633 371928.000000 0 0 1
-32.659262 26.096495 -17.837221 45.451302 -0.674163 1.974087 0.041204 -0.008590 -279082.000000 0 0 1
-32.087412 24.844495 -18.485321 44.593250 -0.658857 1.998225 0.036555 -0.003511 -155069.000000 0 0 1
-31.744452 25.121895 -19.850921 45.087458 -0.669462 2.026702 0.020971 0.004263 274068.000000 0 0 1
-31.362052 23.883695 -20.501821 44.433476 -0.650851 2.050374 0.017722 0.008576 -81122.700000 0 0 1
-30.956882 23.947695 -21.972321 44.884334 -0.658424 2.082349 0.010201 0.013528 -142612.000000 0 0 1
-32.101362 24.256295 -22.716721 46.205137 -0.647086 2.084779 0.026287 0.005040 82677.000000 0 0 1
-31.826002 24.067395 -24.096321 46.612944 -0.647469 2.114074 0.030640 0.012686 -359877.000000 0 0 1
-32.824762 24.656295 -25.072121 48.104148 -0.644236 2.119059 0.012957 0.007896 -985189.000000 0 0 1
-32.520722 26.026295 -25.293691 48.731265 -0.674923 2.116529 0.000136 0.012153 406939.000000 0 0 1
-33.297022 26.574595 -26.408041 50.122703 -0.673586 2.125708 0.015837 0.000713 230636.000000 0 0 1
-32.953142 28.055495 -26.728011 50.866560 -0.705292 2.124044 -0.000044 0.001612 428566.000000 0 0 1
-31.622132 28.133595 -27.229661 50.328052 -0.727084 2.142474 -0.016662 0.001473 -302279.000000 0 0 1
-31.228572 29.442295 -27.199401 50.812201 -0.755965 2.135651 -0.006243 -0.004685 -536708.000000 0 0 1
-29.815962 29.505095 -27.764191 50.303007 -0.780158 2.155484 -0.001106 -0.002214 -1081180.000000 0 0 1
-28.853782 28.747895 -27.012671 48.873986 -0.783560 2.156397 -0.023855 0.001679 979834.000000 0 0 1
-27.586142 28.820595 -27.732731 48.587305 -0.807280 2.178254 -0.003514 0.005399 1229240.000000 0 0 1
-26.735522 30.080595 -27.441201 48.709853 -0.844206 2.169244 -0.006455 0.001128 -1188400.000000 0 0 1
-26.232412 30.148495 -26.143911 47.755368 -0.854744 2.150116 -0.004578 0.007212 -386822.000000 0 0 1
-27.105132 30.538695 -25.112761 47.936946 -0.844893 2.122185 -0.009709 0.013833 -310138.000000 0 0 1
-26.377102 31.190895 -23.930621 47.342349 -0.868823 2.100735 -0.028804 0.012769 200270.000000 0 0 1
-25.857912 32.495995 -24.208321 48.069367 -0.898667 2.098571 0.000164 0.008921 432988.000000 0 0 1
-24.908692 32.938195 -23.236621 47.384682 -0.923323 2.083325 0.016324 0.014596 222047.000000 0 0 1
-24.378292 -34.333326 -23.351121 48.149281 0.953359 2.077129 0.020417 0.017125 -572383.000000 0 0 1
-25.222092 -33.339826 -22.872221 47.653294 0.923138 2.071418 0.002811 0.000488 -273108.000000 0 0 1
-24.684792 -32.012526 -22.811221 46.416512 0.913929 2.084546 0.016562 -0.001019 -231859.000000 0 0 1
16.720208 7.994395 -24.751321 30.920925 0.445997 2.498878 0.047139 -0.015625 -1928230.000000 0 0 1
15.365208 7.962295 -24.825721 30.262256 0.478104 2.532824 0.052508 -0.013668 -1465760.000000 0 0 1
14.977508 6.764895 -25.482701 30.322559 0.424242 2.568794 0.066579 -0.019707 272682.000000 0 0 1
13.472608 6.419295 -25.341291 29.409174 0.444647 2.609367 0.058744 -0.020778 249223.000000 0 0 1
13.155808 5.942195 -24.030721 28.033203 0.424249 2.600650 0.066610 -0.031291 -138613.000000 0 0 1
11.851508 5.418495 -24.102921 27.400166 0.428824 2.645950 0.063225 -0.032549 -129877.000000 0 0 1
11.070008 5.527795 -22.750621 25.897728 0.463126 2.643467 0.062092 -0.032393 158654.000000 0 0 1
11.656208 4.743295 -21.669621 25.058701 0.386469 2.615457 0.061386 -0.029177 48333.700000 0 0 1
11.131808 5.031395 -20.376321 23.757662 0.424502 2.601524 0.067000 -0.027162 -278072.000000 0 1 0
11.627208 6.334795 -19.744121 23.772923 0.498861 2.550854 0.075622 -0.037884 -226025.000000 0 1 0
11.015608 6.637395 -18.489821 22.522702 0.542288 2.533854 0.049157 -0.024004 -377022.000000 0 1 0
11.284808 7.987095 -18.025421 22.716874 0.615924 2.487305 0.057589 -0.022891 1320200.000000 0 1 0
12.783008 8.205995 -17.550021 23.210921 0.570692 2.428146 0.057744 -0.026794 1194050.000000 0 1 0
13.218008 7.593595 -16.309621 22.324474 0.521450 2.389955 0.064079 -0.030737 955932.000000 0 1 0
14.613808 7.757595 -16.058721 23.057020 0.488014 2.341275 0.062085 -0.033749 491238.000000 0 1 0
15.207408 7.464495 -14.629521 22.383181 0.456298 2.283120 0.064712 -0.028157 -35976.800000 0 1 0
16.622708 7.538295 -14.689921 23.429342 0.425756 2.248477 0.072468 -0.029227 604121.000000 0 1 0
17.201708 7.794895 -13.394621 23.153294 0.425468 2.187708 0.073745 -0.024479 -22582.400000 0 1 0
17.372108 9.339595 -13.082221 23.667756 0.493289 2.156450 0.068703 -0.021986 -865963.000000 0 1 0
16.198008 10.119995 -13.084421 23.151497 0.558432 2.171430 0.054447 -0.018670 -50151.400000 0 1 0
16.510908 11.521495 -12.956321 23.942038 0.609255 2.142605 0.062761 -0.020795 -245694.000000 0 1 0
15.295608 12.437195 -12.761921 23.484166 0.682691 2.145310 0.051621 -0.019582 -458148.000000 0 1 0
14.758508 12.545395 -11.415721 22.483753 0.704520 2.103346 0.053859 -0.015634 283546.000000 0 1 0
15.314708 13.552095 -10.572421 23.021200 0.724414 2.047944 0.053653 -0.005423 -34315.200000 0 1 0
14.797308 15.057495 -10.756021 23.693469 0.794113 2.042007 0.039011 0.001773 996653.000000 0 1 0
13.494508 15.323095 -10.192421 22.820701 0.848767 2.033792 0.050286 -0.011882 869606.000000 0 1 0
13.205308 16.707695 -10.232421 23.626884 0.901953 2.018708 0.048907 -0.010010 671901.000000 0 1 0
11.998508 17.033695 -9.264821 22.802365 0.957124 1.989208 0.045093 -0.009007 506878.000000 0 1 0
12.315008 16.836995 -7.904521 22.307516 0.939289 1.933008 0.040538 -0.019508 257620.000000 0 1 0
11.361608 17.299895 -6.954721 21.834391 0.989695 1.894966 0.038008 -0.014075 -124451.000000 0 1 0
11.856208 17.172195 -5.513421 21.583599 0.966522 1.829104 0.038053 -0.006212 249912.000000 0 1 0
12.917808 18.112095 -5.359621 22.883253 0.951257 1.807208 0.051914 -0.009462 392280.000000 0 1 0
13.646908 17.758995 -4.200621 22.787391 0.915591 1.756196 0.064808 -0.006434 -364299.000000 0 1 0
14.729208 18.725495 -3.701921 24.110121 0.904288 1.724948 0.063741 -0.011180 2600.000000 0 1 0
15.781108 18.811395 -4.663521 24.993206 0.872775 1.758488 0.062978 -0.019133 -69251.800000 0 1 0
16.605308 19.917495 -4.443221 26.309410 0.875839 1.740493 0.049624 -0.018954 -512406.000000 0 0 1
17.838708 19.848295 -5.357621 27.219082 0.838671 1.768923 0.056325 -0.015313 -331027.000000 0 0 1
18.833208 19.012395 -4.798221 27.187935 0.790133 1.748209 0.050908 -0.025456 -6741.570000 0 0 1
19.238908 18.041095 -5.770721 26.998480 0.753279 1.786201 0.064854 -0.023267 -384213.000000 0 0 1
20.200608 16.984295 -5.242921 26.907602 0.699118 1.766900 0.071184 -0.022669 551286.000000 0 0 1
21.498108 17.566895 -4.962421 28.202660 0.685103 1.747673 0.055050 -0.025716 778721.000000 0 0 1
22.291708 16.635595 -4.275921 28.141549 0.641109 1.723330 0.059725 -0.024502 687408.000000 0 0 1
23.845408 16.752695 -4.467221 29.482407 0.612438 1.722904 0.054580 -0.024663 689266.000000 0 0 1
24.430908 17.914195 -3.992321 30.556935 0.632701 1.701823 0.051640 -0.030451 -1168680.000000 0 0 1
25.806408 17.785195 -4.006321 31.596431 0.603426 1.697935 0.045216 -0.031329 -1108100.000000 0 0 1
26.417108 19.019395 -3.253021 32.713653 0.624000 1.670400 0.049803 -0.026900 -277193.000000 0 0 1
26.343308 20.190495 -4.019821 33.433290 0.653938 1.691322 0.044003 -0.022368 58911.300000 0 0 1
26.545408 21.402495 -3.331121 34.261083 0.678546 1.668178 0.050952 -0.003975 -262770.000000 0 0 1
26.238608 22.712195 -4.149321 34.950325 0.713482 1.689798 0.025863 0.001070 536490.000000 0 0 1
27.235608 23.178295 -5.102521 36.125440 0.705091 1.712515 0.026397 0.009349 691303.000000 0 0 1
27.553008 22.270995 -6.158721 35.959634 0.679779 1.742912 0.030759 0.004882 250513.000000 0 0 1
28.621608 22.892895 -7.111321 37.334327 0.674647 1.762444 0.025200 0.008035 410133.000000 0 0 1
28.009408 23.799995 -7.992621 37.614474 0.704328 1.784917 0.017412 0.013931 510323.000000 0 0 1
28.970308 24.659195 -8.600721 39.004192 0.705184 1.793131 0.002198 0.019097 471405.000000 0 0 1
29.910708 24.139395 -9.730421 39.648984 0.679024 1.818743 0.005780 0.004950 321704.000000 0 0 1
29.281008 23.941195 -10.955521 39.377426 0.685402 1.852735 0.008698 0.010322 -54523.000000 0 0 1
30.249008 23.381195 -11.799621 40.011421 0.658033 1.870154 -0.000451 0.004266 215392.000000 0 0 1
29.589908 22.784895 -13.057021 39.562607 0.656193 1.907136 0.012072 0.003396 158845.000000 0 0 1
29.766608 23.646095 -14.117621 40.552385 0.671307 1.926375 0.007076 0.004539 70993.200000 0 0 1
29.480208 23.103095 -15.401421 40.497400 0.664711 1.960924 0.010409 -0.003669 -357822.000000 0 0 1
29.666208 24.126595 -16.576821 41.676941 0.682779 1.979855 0.009120 0.000823 -318974.000000 0 0 1
30.982308 24.636495 -16.799121 43.000822 0.671795 1.972155 0.011575 0.003597 334597.000000 0 0 1
31.118008 25.320895 -17.999821 43.971260 0.683042 1.992542 0.019633 0.000390 34976.700000 0 0 1
32.609608 25.653095 -18.185821 45.301124 0.666562 1.983888 0.019369 -0.003176 -179531.000000 0 0 1
33.432608 24.562795 -18.443621 45.400851 0.633634 1.989131 0.029910 -0.002054 -921507.000000 0 0 1
34.790708 24.886095 -18.421521 46.573206 0.620927 1.977451 0.043951 -0.006677 -346710.000000 0 0 1
35.639308 23.565995 -18.408321 46.522926 0.584234 1.977608 0.039243 -0.011249 -25498.100000 0 0 1
35.782308 22.822895 -19.646121 46.767811 0.567770 2.004327 0.036384 -0.005851 468694.000000 0 0 1
-35.062899 23.315795 -20.488821 46.827609 -0.586827 2.023654 0.040039 0.001949 -50952.300000 0 0 1
-34.957899 22.665195 -21.850221 47.044637 -0.575219 2.053818 0.044507 -0.002541 -129326.000000 0 0 1
-34.644299 21.302495 -21.723721 46.107958 -0.551297 2.061389 0.033016 -0.001213 228263.000000 0 0 1
-34.317699 20.779595 -23.015721 46.251696 -0.544459 2.091648 0.032528 -0.006160 -49615.400000 0 0 1
-34.224599 19.228795 -22.979121 45.487467 -0.511889 2.100381 0.016955 -0.004218 -249501.000000 0 0 1
-35.354499 18.536195 -22.509521 45.828044 -0.482894 2.084233 0.023515 -0.007047 -159728.000000 0 0 1
-35.087799 17.144895 -22.446721 45.043937 -0.454509 2.092467 0.008332 -0.009703 -40439.400000 0 0 1
35.591708 16.272295 -22.014821 44.902222 0.428820 2.083211 0.010049 -0.014160 -15357.900000 0 0 1
34.678408 16.186195 -23.094021 44.698084 0.436697 2.113750 0.048291 -0.010853 440120.000000 0 0 1
33.579308 15.295895 -22.881321 43.417613 0.427431 2.125869 0.058863 -0.000232 131801.000000 0 0 1
33.896208 13.947295 -23.483521 43.531089 0.390356 2.140599 0.028807 -0.008907 -460075.000000 0 0 1
33.606008 13.805395 -24.837421 44.009660 0.389783 2.170458 0.042893 0.000168 267203.000000 0 0 1
34.031508 12.522195 -25.294601 44.212733 0.352583 2.179874 0.030003 0.001950 -109161.000000 0 0 1
34.008408 12.398595 -26.855971 45.072609 0.349599 2.209105 0.046376 0.004911 157952.000000 0 0 1
32.698808 12.448195 -27.392051 44.435279 0.363752 2.235020 0.039322 0.003888 300730.000000 0 0 1
32.179208 13.656095 -27.909281 44.731625 0.401342 2.244554 0.040769 0.000591 -20827.700000 0 0 1
32.657008 13.981095 -29.368821 46.092069 0.404510 2.261627 0.037363 0.001639 427326.000000 0 0 1
34.073108 14.026295 -29.536441 47.224093 0.390511 2.246508 0.043299 0.001413 582791.000000 0 0 1
34.501808 13.812495 -30.901341 48.332728 0.380800 2.264444 0.041105 -0.002067 -388710.000000 0 0 1
-35.916599 14.221595 -31.150411 49.624630 -0.377020 2.249418 0.056402 -0.007688 460500.000000 0 0 1
-34.873599 13.342095 -30.746581 48.368705 -0.365403 2.259674 0.051142 -0.004094 355826.000000 0 0 1
-34.770999 13.159195 -29.353061 47.368649 -0.361795 2.239122 0.044190 0.000115 -298194.000000 0 0 1
-33.670899 12.078695 -29.039121 46.074883 -0.344429 2.252683 0.049671 -0.000343 414967.000000 0 0 1
-34.130399 10.812895 -29.482001 46.378779 -0.306808 2.259684 0.051563 -0.011704 86999.300000 0 0 1
-33.196699 9.755295 -29.484691 45.459142 -0.285817 2.276537 0.054734 -0.013186 -521585.000000 0 0 1
-33.688099 8.401795 -30.042271 45.913137 -0.244413 2.284091 0.057272 -0.020279 -605007.000000 0 0 1
-33.543099 8.297695 -31.459621 46.730065 -0.242506 2.309351 0.053908 -0.021854 74338.700000 0 0 1
-33.759299 7.031295 -32.067691 47.089979 -0.205342 2.319907 0.053923 -0.024022 -160744.000000 0 0 1
-35.107299 6.299395 -31.842331 47.813584 -0.177543 2.299587 0.054677 -0.012000 -183622.000000 0 0 1
-35.327499 5.771795 -30.589631 47.085786 -0.161949 2.277930 0.060175 -0.020940 466223.000000 0 0 1
35.279608 5.187895 -30.408171 46.863865 0.146004 2.276884 0.054369 -0.009756 -2869.870000 0 0 1
35.185708 4.509595 -29.053411 45.852712 0.127471 2.257026 0.068562 -0.017821 -298783.000000 0 0 1
-35.751399 3.507895 -28.881841 46.093693 -0.097806 2.247966 0.074704 -0.022302 243366.000000 0 0 1
35.691108 2.585195 -27.906471 45.379616 0.072306 2.233127 0.078549 -0.019248 240932.000000 0 0 1
-35.285299 1.308495 -27.810961 44.946791 -0.037066 2.237951 0.107676 -0.023076 -269225.000000 0 0 1
-34.039499 1.439895 -27.201421 43.596767 -0.042275 2.244561 0.110797 -0.021462 -494532.000000 0 0 1
-33.553199 0.111195 -27.002611 43.069368 -0.003314 2.248436 0.121559 -0.027284 296785.000000 0 0 1
-32.135099 0.144595 -26.353781 41.559683 -0.004500 2.257665 0.100628 -0.021886 382140.000000 0 0 1
-32.246399 0.271595 -24.940321 40.766697 -0.008422 2.229107 0.090403 -0.020532 289862.000000 0 0 1
-30.956699 0.337795 -24.382721 39.407466 -0.010911 2.237926 0.098101 -0.011038 27996.500000 0 0 1
-31.105499 0.073495 -22.824321 38.581175 -0.002363 2.203829 0.075876 -0.002684 -305800.000000 0 0 1
-31.385299 -1.261005 -22.409221 38.584975 0.040157 2.190478 0.077968 -0.020378 294361.000000 0 0 1
-31.611099 -1.411805 -21.019621 37.987882 0.044632 2.157146 0.070108 -0.012905 -1296250.000000 0 0 1
-33.067899 -1.190905 -20.701221 39.031330 0.035998 2.129839 0.060266 -0.010621 -1825540.000000 0 0 1
-33.847299 -2.293205 -20.933421 39.863599 0.067648 2.123660 0.052460 -0.013052 -424327.000000 0 0 1
-35.075299 -2.052605 -20.262221 40.559183 0.058453 2.093901 0.041228 -0.010315 62078.000000 0 0 1
35.890208 -3.282105 -20.228121 41.328636 -0.091195 2.082250 0.055592 -0.009234 69727.900000 0 0 1
35.300708 -3.832505 -21.417321 41.467212 -0.108144 2.113541 0.050180 -0.009271 246708.000000 0 0 1
-35.625899 -4.420505 -22.238821 42.229263 0.123450 2.125417 0.021271 -0.009111 -628575.000000 0 0 1
35.667808 -5.258505 -23.380021 42.970569 -0.146376 2.146105 0.019604 -0.000435 -592977.000000 0 0 1
35.394408 -6.658505 -23.049421 42.759509 -0.185950 2.140103 0.015729 0.008920 216009.000000 0 0 1
34.832208 -7.430805 -24.101621 43.004508 -0.210181 2.165718 0.004354 0.012995 -312122.000000 0 0 1
33.384008 -7.170005 -24.501121 42.026252 -0.211560 2.193207 -0.004900 0.017390 -805352.000000 0 0 1
33.105908 -5.854405 -25.003621 41.898165 -0.175029 2.210268 0.019146 0.003588 -330329.000000 0 0 1
31.702708 -5.785905 -25.132041 40.867565 -0.180518 2.233135 0.022614 0.002342 38420.800000 0 0 1
31.212208 -4.630805 -26.068541 40.929392 -0.147291 2.261286 0.047415 -0.027217 -29136.400000 0 0 1
31.500608 -4.893605 -27.432501 42.056840 -0.154118 2.281374 0.039284 -0.020208 347005.000000 0 0 1
31.125908 -3.817405 -28.264881 42.217274 -0.122035 2.304345 0.059294 -0.029763 -156982.000000 0 0 1
30.893108 -4.303405 -29.734281 43.093281 -0.138409 2.332283 0.066152 -0.024570 -35626.600000 0 0 1
30.232308 -3.301405 -30.444951 43.032392 -0.108770 2.356735 0.059276 -0.032203 -5339.490000 0 0 1
29.747908 -3.684405 -31.691771 43.622027 -0.123227 2.384023 0.066452 -0.033430 -527950.000000 0 0 1
29.263108 -2.489305 -32.573161 43.858146 -0.084862 2.407880 0.073604 -0.028097 -352870.000000 0 0 1
28.200008 -1.705505 -32.064721 42.735179 -0.060405 2.419330 0.057290 -0.027232 418694.000000 0 0 1
26.904908 -2.261205 -31.902721 41.794386 -0.083847 2.439242 0.062715 -0.029559 173119.000000 0 0 1
26.155108 -2.574005 -33.255331 42.386698 -0.098097 2.472799 0.064653 -0.027681 -935215.000000 0 0 1
26.707208 -3.629705 -33.940961 43.340957 -0.135080 2.470456 0.077091 -0.030839 89954.600000 0 0 1
26.073808 -3.676805 33.404499 42.534962 -0.140092 0.667548 0.067090 -0.026529 -87664.300000 0 0 1
26.535308 -4.894105 32.532523 42.266298 -0.182388 0.692420 0.068857 -0.027875 419195.000000 0 0 1
27.867608 -4.865805 32.022683 42.728584 -0.172862 0.723574 0.069770 -0.019367 389752.000000 0 0 1
28.075708 -4.132805 30.791403 41.874049 -0.146153 0.744637 0.071985 -0.019123 -299057.000000 0 0 1
28.706308 -2.772005 31.162163 42.459587 -0.096266 0.746713 0.055644 -0.018012 -803137.000000 0 0 1
30.013208 -2.837405 31.649333 43.709539 -0.094258 0.761092 0.058075 -0.017433 -470221.000000 0 0 1
30.444808 -1.508405 31.917343 44.134776 -0.049505 0.762402 0.053101 -0.012474 -243884.000000 0 0 1
31.852308 -1.433305 32.522653 45.544998 -0.044968 0.775491 0.047830 -0.014202 -348656.000000 0 0 1
32.861908 -1.710005 31.584773 45.611698 -0.051989 0.805888 0.050073 -0.006707 -737600.000000 0 0 1
34.121408 -1.586105 32.160893 46.915981 -0.046451 0.815506 0.047652 -0.000397 -524879.000000 0 0 1
35.251908 -2.309405 31.415453 47.275375 -0.065418 0.843944 0.039865 0.005991 -72054.600000 0 0 1
35.584308 -1.753505 30.149283 46.672230 -0.049238 0.868491 0.031999 0.008266 -113986.000000 0 0 1
-35.316499 -2.540705 29.535963 46.109472 0.071817 0.875567 0.033320 0.005476 -52752.000000 0 0 1
-34.989999 -1.940305 28.138833 44.942839 0.055396 0.894251 0.030022 0.006496 307309.000000 0 0 1
35.888108 -2.036805 27.134153 45.037397 -0.056694 0.924191 0.037079 -0.003822 99138.700000 0 0 1
-35.430699 -1.544805 25.995763 43.971588 0.043573 0.938257 0.038238 -0.003301 50919.500000 0 0 1
-27.059612 15.039195 12.075579 33.229800 -0.507270 1.198886 0.068936 -0.004925 726348.000000 0 0 1
-28.238632 14.423995 12.639479 34.135442 -0.472242 1.191492 0.022617 0.004772 646252.000000 0 0 1
-28.849612 15.289395 13.525479 35.341255 -0.487334 1.178068 0.034860 -0.002700 -572411.000000 0 0 1
-29.997512 14.549395 14.207779 36.240814 -0.451592 1.167950 0.040326 -0.008056 -711283.000000 0 0 1
-30.824482 15.408195 14.868279 37.531678 -0.463543 1.163473 0.034664 -0.017056 -816749.000000 0 0 1
-31.930432 14.759995 15.445479 38.418391 -0.432998 1.157060 0.035057 -0.000085 274728.000000 0 0 1
-32.885952 15.708495 16.266979 39.910616 -0.445621 1.150988 0.039014 -0.012371 331336.000000 0 0 1
-32.284892 16.286095 17.406779 40.131622 -0.467201 1.122154 0.027819 -0.003514 699553.000000 0 0 1
-33.270382 16.481195 18.467479 41.468010 -0.459938 1.109239 0.028784 -0.016627 662273.000000 0 0 1
-32.632012 16.857695 19.795679 41.724082 -0.476839 1.076466 0.036999 -0.015851 367737.000000 0 0 1
-31.902402 15.700095 20.324479 40.955350 -0.457331 1.051511 0.044848 -0.012912 554390.000000 0 0 1
-30.709792 15.993295 21.045179 40.518840 -0.480139 1.024656 0.029756 -0.014154 487332.000000 0 0 1
-30.832532 16.648695 22.451479 41.616018 -0.495111 1.000964 0.049486 -0.024750 -476095.000000 0 0 1
-31.301552 17.989895 22.381679 42.477795 -0.521630 1.015844 0.038767 -0.021117 91531.400000 0 0 1
-31.618052 18.668195 23.629679 43.664224 -0.533352 0.998971 0.029386 -0.026108 455006.000000 0 0 1
-32.626002 17.899995 24.657979 44.641704 -0.501800 0.985612 0.030933 -0.023261 840505.000000 0 0 1
-33.893052 17.565595 24.159179 45.176930 -0.478153 1.006563 0.054287 -0.031944 2950.250000 0 0 1
-34.865302 18.575195 23.954679 46.200149 -0.489519 1.025703 0.037529 -0.030496 554965.000000 0 0 1
35.647735 17.927295 23.540679 46.328312 0.465966 1.037787 0.014608 -0.036079 604119.000000 0 0 1
34.956935 17.328695 24.580379 46.113621 0.460214 1.008607 0.027425 -0.029068 -206187.000000 0 0 1
34.048785 16.317795 24.179579 44.835725 0.446908 1.001199 0.029398 -0.019395 156210.000000 0 0 1
33.506185 15.552695 25.365579 44.810304 0.434578 0.969071 0.036190 -0.011839 -364884.000000 0 0 1
32.544855 16.303195 26.119179 44.801488 0.464404 0.948382 0.036909 -0.012980 469009.000000 0 0 1
32.113295 15.630495 27.305479 44.957372 0.452975 0.918058 0.037567 -0.010023 -386776.000000 0 0 1
31.434275 14.255095 27.247379 43.974323 0.425752 0.902538 0.032475 -0.014541 -574526.000000 0 0 1
32.113675 13.076995 26.842179 43.849726 0.386706 0.912032 0.026393 -0.004468 -544599.000000 0 0 1
31.256395 12.045495 27.106279 43.090678 0.367837 0.890463 0.026058 -0.002756 -530711.000000 0 0 1
31.820885 10.707495 26.643879 42.861585 0.324591 0.899979 0.026891 0.004812 -169701.000000 0 0 1
32.785895 10.208295 27.548579 44.023271 0.301848 0.894674 0.026777 0.007110 -73030.600000 0 0 1
33.252845 8.946295 27.169079 43.862818 0.262815 0.902805 0.027126 0.008614 -359433.000000 0 0 1
34.311845 8.331495 28.060379 45.101013 0.238207 0.899288 0.021615 0.008814 -131862.000000 0 0 1
35.607675 8.889795 28.053579 46.194570 0.244658 0.918149 0.023038 0.007952 157861.000000 0 0 1
-35.454580 8.294295 29.081779 46.600134 -0.229809 0.896855 0.031644 0.005480 -75230.500000 0 0 1
-34.163132 9.092195 29.119279 45.800874 -0.260111 0.881778 0.034913 0.003492 -363546.000000 0 0 1
-33.417892 9.147495 27.882979 44.473506 -0.267186 0.893155 0.038359 0.003789 -305027.000000 0 0 1
-32.300432 9.938895 28.123779 43.966425 -0.298507 0.876734 0.046542 0.002158 -288583.000000 0 0 1
-31.596662 10.398395 26.799979 42.716678 -0.317934 0.892600 0.046494 0.001813 494971.000000 0 0 1
-30.797412 9.410095 26.112779 41.459712 -0.296539 0.889456 0.044332 -0.000114 326854.000000 0 0 1
-30.029612 10.003595 25.091879 40.391236 -0.321562 0.900497 0.042485 0.000079 -123545.000000 0 0 1
-28.980752 8.977695 24.584179 39.049518 -0.300406 0.889804 0.035996 -0.004673 205028.000000 0 0 1
-28.228732 9.593795 23.515879 37.972342 -0.327612 0.902959 0.034250 -0.009275 286085.000000 0 0 1
-27.452122 8.593595 22.823379 36.720233 -0.303376 0.900079 0.011171 -0.003159 11741.900000 0 0 1
-26.421392 9.136295 21.836979 35.474153 -0.332921 0.907682 0.015584 0.001516 -438160.000000 0 0 1
-25.291322 9.741795 22.438079 35.185522 -0.367668 0.879278 0.009952 -0.003864 613938.000000 0 0 1
-24.320792 10.420795 21.650579 34.188324 -0.404808 0.885020 -0.004081 0.006903 850071.000000 0 0 1
-23.584092 9.691795 20.478779 32.703527 -0.389907 0.894133 -0.006092 0.010014 -820417.000000 0 0 1
-24.413292 9.619395 19.359379 32.608697 -0.375343 0.935163 -0.005837 0.005608 -31213.100000 0 0 1
-24.071592 8.651895 18.367679 31.490768 -0.345045 0.948045 -0.003908 0.003169 -516067.000000 0 0 1
-24.143392 7.142295 18.725879 31.377927 -0.287625 0.931308 -0.000651 0.006670 -360219.000000 0 0 1
-23.040192 6.732695 19.516379 30.936527 -0.284300 0.888145 0.003018 0.003402 492732.000000 0 0 1
-23.034092 5.393195 20.009379 30.984370 -0.229996 0.868740 0.025057 -0.004845 -310788.000000 0 0 1
-23.014592 4.225895 18.989979 30.135510 -0.181595 0.889046 0.020136 -0.001810 -833524.000000 0 0 1
-24.249892 4.205295 18.334779 30.690485 -0.171707 0.930530 0.034604 -0.000261 156468.000000 0 0 1
-24.271792 3.315995 17.222279 29.945327 -0.135779 0.958040 0.047390 0.000248 -71883.800000 0 0 1
-24.291492 1.803595 17.485379 29.984463 -0.074112 0.948198 0.047850 0.004902 -274499.000000 0 0 1
-23.080192 1.361895 18.035979 29.323140 -0.058939 0.908313 0.031520 0.004515 276821.000000 0 0 1
-23.297392 0.027595 18.344979 29.653120 -0.001184 0.903770 0.048025 -0.000755 -108910.000000 0 0 1
-22.035392 -0.824005 18.564979 28.825266 0.037377 0.871013 0.039519 0.003298 89538.300000 0 0 1
-21.140592 -0.412305 19.632279 28.853440 0.019501 0.822469 0.033764 0.002460 -124242.000000 0 0 1
-20.175792 -1.392405 19.741279 28.261626 0.068904 0.797471 0.036218 0.000752 -417273.000000 0 0 1
-19.008292 -0.974405 20.690579 28.113426 0.051217 0.743701 0.026330 -0.000168 349431.000000 0 0 1
-19.356092 -0.884205 22.089379 29.383342 0.045649 0.720061 0.030659 -0.005940 -314406.000000 0 0 1
-18.236092 -0.651505 22.906079 29.285969 0.035711 0.672684 0.030432 -0.016069 -424332.000000 0 0 1
-18.498192 -0.882305 24.422979 30.650342 0.047661 0.648773 0.037623 -0.012890 290467.000000 0 0 1
-19.223592 0.164395 25.060679 31.584983 -0.008552 0.654362 0.036630 -0.020168 977517.000000 0 0 1
-20.659292 0.034195 24.988979 32.423088 -0.001655 0.690833 0.089153 -0.028119 557568.000000 0 0 1
-21.400692 1.083095 25.813279 33.548295 -0.050567 0.692838 0.078541 -0.032847 -372862.000000 0 0 1
-21.282392 2.379995 25.302779 33.148684 -0.111367 0.702372 0.067680 -0.029494 -873486.000000 0 0 1
-22.458592 2.767495 24.706379 33.503023 -0.122608 0.741528 0.055342 -0.021896 -1591250.000000 0 0 1
-22.324992 3.946595 23.733879 32.821912 -0.174971 0.762501 0.050318 -0.013868 241745.000000 0 0 1
-21.723492 3.700295 22.431379 31.444698 -0.168717 0.776516 0.050305 -0.013629 852616.000000 0 0 1
-20.427292 3.111795 22.407979 30.480733 -0.151173 0.744905 0.041659 -0.013565 -327945.000000 0 0 1
-19.997092 2.527295 21.066479 29.155916 -0.125717 0.763319 0.034995 -0.013360 -206344.000000 0 0 1
-19.568892 3.491795 20.116479 28.280858 -0.176578 0.779435 0.024551 -0.008033 286313.000000 0 0 1
-19.447192 2.854595 18.847879 27.232050 -0.145746 0.806373 0.035151 -0.009543 -89258.800000 0 0 1
-18.721592 3.622195 17.739579 26.044404 -0.191116 0.821494 0.017475 -0.005715 -1837540.000000 0 0 1
-17.398692 3.903595 17.782679 25.182856 -0.220707 0.786761 0.030941 -0.018201 -1447040.000000 0 0 1
-16.991992 4.643195 16.604579 24.207418 -0.266746 0.814916 0.034365 -0.013391 -865095.000000 0 1 0
-15.536892 5.028295 16.488079 23.206368 -0.312998 0.780591 0.047129 -0.014644 -935118.000000 0 1 0
-15.048792 6.023595 17.443679 23.812429 -0.380740 0.748743 0.051871 -0.019641 196088.000000 0 1 0
-15.559692 7.333495 17.350279 24.431872 -0.440436 0.781086 0.042375 -0.027061 -817790.000000 0 1 0
-15.211192 8.235595 16.065679 23.607444 -0.496230 0.822305 0.041263 -0.026749 -77491.600000 0 1 0
-15.749892 7.872195 14.820579 23.014780 -0.463508 0.871134 0.048390 -0.023196 344515.000000 0 1 0
-17.175392 7.947595 14.843479 24.051761 -0.433391 0.905684 0.024652 -0.018028 90705.800000 0 1 0
-17.707092 7.449995 13.513479 23.487393 -0.398253 0.957764 0.033850 -0.013336 -193004.000000 0 1 0
-17.344492 6.094495 13.286379 22.682640 -0.337903 0.944990 0.025190 -0.013724 69842.600000 0 1 0
-18.043292 5.473695 12.244679 22.482302 -0.294541 0.994841 0.040569 -0.015539 -60303.500000 0 1 0
-17.702192 4.028095 12.151979 21.846367 -0.223738 0.980933 0.025244 -0.011668 -59192.200000 0 1 0
-18.130392 3.313495 13.328979 22.745374 -0.180764 0.944672 0.016136 -0.005472 265080.000000 0 1 0
-17.657492 1.955495 13.385879 22.243937 -0.110296 0.925073 0.011460 -0.007339 -410214.000000 0 1 0
-18.417992 1.108495 14.386379 23.396989 -0.060113 0.908560 0.010873 -0.012521 -102299.000000 0 1 0
-19.785592 0.957295 14.095879 24.312134 -0.048346 0.952328 0.031893 -0.002170 -333693.000000 0 1 0
-20.527692 0.366995 15.115979 25.495365 -0.017876 0.936152 0.033609 -0.004979 -1313570.000000 0 0 1
-21.930192 0.104095 14.674279 26.387092 -0.004747 0.981091 0.033579 -0.007011 -1457640.000000 0 0 1
-22.086992 -0.873305 13.659679 25.984317 0.039519 1.017271 0.056815 -0.011878 497915.000000 0 0 1
-23.441592 -1.255005 13.475179 27.067762 0.053486 1.049700 0.071900 -0.016189 262651.000000 0 0 1
-23.522092 -2.339005 12.392879 26.689759 0.099113 1.087917 0.081731 -0.028054 -27501.500000 0 0 1
-23.125192 -3.675005 12.819779 26.695073 0.157600 1.069879 0.071766 -0.022224 438844.000000 0 0 1
-23.470092 -4.606705 11.822779 26.680425 0.193816 1.111714 0.090243 -0.027520 -180956.000000 0 0 1
-23.234492 -5.992405 12.309979 26.968243 0.252409 1.096782 0.077049 -0.023517 -509281.000000 0 0 1
-24.164492 -6.484105 13.197879 28.286928 0.262156 1.085386 0.072434 -0.021909 -302389.000000 0 0 1
-24.059992 -7.884505 13.498979 28.692701 0.316674 1.080976 0.076743 -0.023132 361043.000000 0 0 1
-25.033292 -8.076005 14.743679 30.153999 0.312069 1.059915 0.074023 -0.009158 253717.000000 0 0 1
-26.367282 -7.946505 14.356079 31.056038 0.292720 1.090250 0.073885 -0.013042 -492518.000000 0 0 1
-27.270172 -8.226105 15.407679 32.384065 0.292972 1.074946 0.062199 -0.006926 735272.000000 0 0 1
-28.751052 -7.728605 15.157879 33.408317 0.262603 1.099866 0.059102 -0.015232 1302140.000000 0 0 1
-29.563802 -8.466605 14.208379 33.875948 0.278919 1.137986 0.048697 -0.009341 720010.000000 0 0 1
-29.752962 -9.921605 14.255079 34.451187 0.321870 1.144198 0.054235 -0.012188 -845602.000000 0 0 1
-30.241792 -10.581805 15.585379 35.629267 0.336592 1.118055 0.052801 -0.013996 -830833.000000 0 0 1
-29.317402 -10.556705 16.604779 35.308254 0.345629 1.081188 0.060387 -0.013447 -300946.000000 0 0 1
-29.786312 -11.226405 17.761179 36.451558 0.360434 1.061853 0.060266 -0.003136 340274.000000 0 0 1
-28.688392 -11.208705 18.893379 36.133346 0.372468 1.020571 0.063504 0.002867 480852.000000 0 0 1
-27.592202 -11.990105 18.515579 35.325896 0.409929 1.019096 0.061144 0.007982 -632333.000000 0 0 1
-26.523712 -11.915705 19.415279 34.963472 0.422228 0.982071 0.055334 -0.000422 420331.000000 0 0 1
-25.292572 -12.789005 18.975479 34.107795 0.468152 0.980823 0.051486 0.005301 477554.000000 0 0 1
-24.741792 -12.417405 17.737079 32.877838 0.465150 1.000972 0.050022 0.013733 -77093.400000 0 0 1
-23.650292 -13.188505 17.305979 32.136738 0.508695 1.002128 0.040608 0.002617 21824.600000 0 0 1
-23.166392 -13.003405 15.853479 30.937083 0.511481 1.032769 0.052510 -0.002429 -362639.000000 0 0 1
-22.402192 -11.879905 15.595779 29.769425 0.487594 1.019390 0.054968 0.000918 -523505.000000 0 0 1
-22.018792 -12.034705 14.240179 28.852106 0.500202 1.054621 0.065760 0.003522 308437.000000 0 0 1
-20.741092 -11.214805 13.938979 27.390873 0.495679 1.036900 0.055240 -0.007788 -249577.000000 0 0 1
-21.065992 -9.877305 13.875479 27.089963 0.438439 1.033052 0.049743 -0.012734 1068540.000000 0 0 1
-20.017892 -8.965605 13.367379 25.686279 0.421089 1.023466 0.047602 -0.021186 828567.000000 0 0 1
-19.476992 -9.117505 11.924179 24.590001 0.437817 1.064525 0.049271 -0.014635 -625437.000000 0 1 0
-18.662792 -10.225905 11.703579 24.286678 0.501253 1.067983 0.030671 -0.018550 -22555.600000 0 1 0
-18.457892 -10.313305 10.350179 23.541118 0.509535 1.115572 0.040582 -0.013672 -357680.000000 0 1 0
-17.613192 -11.513205 9.793779 23.209837 0.578950 1.135183 0.003609 -0.014025 -45167.200000 0 1 0
-16.251392 -11.498905 10.110279 22.328240 0.615785 1.100890 0.014084 -0.015557 -226873.000000 0 1 0
-15.890792 -11.967805 11.378779 22.917728 0.645500 1.051228 0.034550 -0.010644 -1513170.000000 0 1 0
-14.395192 -12.139105 11.292879 21.956971 0.700577 1.030583 0.040995 -0.014606 -1009200.000000 0 1 0
-14.043392 -13.502005 11.143179 22.443071 0.765746 1.051224 0.040452 -0.014299 507703.000000 0 1 0
-12.674692 -13.754105 10.831579 21.613568 0.826218 1.045872 0.043901 -0.020198 509390.000000 0 1 0
-12.446592 -15.311205 10.808579 22.498357 0.888234 1.069667 0.051682 -0.015658 -135007.000000 0 1 0
-12.771792 -15.858105 9.567479 22.497441 0.892784 1.131536 0.037879 -0.015636 145668.000000 0 1 0
-12.683792 -17.292205 9.616079 23.502509 0.937941 1.149273 0.024886 -0.005613 14082.400000 0 1 0
-13.120092 -17.953205 8.308779 23.737949 0.939701 1.213203 0.015864 -0.004630 51804.100000 0 1 0
-12.191492 -17.795105 7.226179 22.748976 0.970138 1.247548 0.025372 -0.011981 156184.000000 0 1 0
-12.585592 -18.478805 6.089479 23.172077 0.972880 1.304880 0.016385 -0.005416 -319487.000000 0 1 0
-11.676292 -18.353005 4.863479 22.289505 1.004179 1.350831 0.020542 -0.001769 -336255.000000 0 1 0
-12.106092 -19.145205 3.776279 22.964247 1.006943 1.405604 0.035610 -0.001272 -273511.000000 0 1 0
-11.224692 -19.095605 2.717279 22.316350 1.039384 1.448732 0.040117 -0.010098 -335965.000000 0 1 0
-11.545492 -20.041805 1.517779 23.179215 1.048158 1.505269 0.044041 -0.006557 -35236.000000 0 1 0
-11.374192 -21.416505 1.880979 24.322357 1.082584 1.493384 0.043476 -0.014889 -188725.000000 0 1 0
-11.690592 -22.351505 0.838279 25.238115 1.088892 1.537575 0.047272 -0.015045 -312927.000000 0 0 1
-10.717692 -22.380805 -0.342021 24.817058 1.124188 1.584578 0.053404 -0.009949 -339070.000000 0 1 0
-10.712892 -21.330905 -1.268821 23.903629 1.105371 1.623902 0.048429 -0.018891 -321526.000000 0 1 0
-11.557592 -21.463005 -2.377821 24.492704 1.076834 1.668032 0.054752 -0.009347 -1013050.000000 0 1 0
-12.668892 -20.476305 -2.415721 24.199496 1.016733 1.670788 0.049677 -0.005049 -869540.000000 0 1 0
-13.507092 -20.534505 -1.291521 24.612506 0.988975 1.623295 0.045695 -0.003134 -314833.000000 0 1 0
-14.525392 -19.578505 -1.323221 24.414254 0.932496 1.625022 0.051219 0.008334 -151673.000000 0 1 0
26.445508 -20.179105 -4.554921 33.575415 -0.651798 1.706878 0.050281 -0.012572 -165603.000000 0 0 1
25.390808 -20.047005 -3.620521 32.552784 -0.668329 1.682247 0.064574 -0.018289 198843.000000 0 0 1
25.365008 -21.195305 -2.783521 33.171865 -0.696082 1.654807 0.043713 -0.019498 -920011.000000 0 0 1
24.033708 -21.537105 -2.155821 32.343679 -0.730668 1.637499 0.036799 -0.016528 -663659.000000 0 0 1
23.110808 -22.173105 -3.013121 32.168851 -0.764694 1.664600 0.041084 -0.024476 355626.000000 0 0 1
21.952408 -22.571505 -2.292721 31.569568 -0.799302 1.643485 0.050433 -0.015705 753790.000000 0 0 1
20.722808 -23.212705 -2.997821 31.261020 -0.842009 1.666840 0.044642 -0.025190 635268.000000 0 0 1
19.923008 -22.344805 -3.789421 30.175757 -0.842632 1.696707 0.053753 -0.028584 -265338.000000 0 0 1
18.969008 -23.031305 -4.559321 30.183633 -0.881819 1.722429 0.061512 -0.023114 -597667.000000 0 0 1
18.016908 -22.112505 -5.301121 29.011614 -0.887106 1.754553 0.055349 -0.014283 -863835.000000 0 0 1
16.987708 -21.493005 -4.594021 27.778346 -0.901947 1.736941 0.049822 -0.008578 -262947.000000 0 0 1
17.311608 -20.704205 -3.447321 27.207350 -0.874404 1.697843 0.047455 -0.012732 -1216550.000000 0 0 1
16.188608 -20.254105 -2.519121 26.050831 -0.896497 1.667648 0.053171 -0.001913 -525869.000000 0 0 1
15.645708 -21.257705 -1.701921 26.449476 -0.936314 1.635187 0.049273 -0.010907 65432.700000 0 0 1
14.963308 -20.630205 -0.628321 25.493151 -0.943285 1.595445 0.056473 -0.002039 -224751.000000 0 0 1
14.812208 -21.509505 0.639079 26.124103 -0.967738 1.546331 0.044500 -0.004148 -492327.000000 0 0 1
13.877508 -22.524905 0.518579 26.461775 -1.018625 1.551198 0.051186 -0.010104 -537695.000000 0 0 1
13.302008 -22.777805 1.792179 26.438301 -1.042232 1.502957 0.046344 -0.007123 279247.000000 0 0 1
12.234708 -23.902705 1.709679 26.906327 -1.097710 1.507212 0.048459 -0.013626 201916.000000 0 0 1
12.841708 -25.143685 1.705479 28.284679 -1.098599 1.510463 0.040794 -0.012172 457422.000000 0 0 1
11.824508 -26.144475 1.627579 28.740244 -1.146052 1.514135 0.040626 -0.014136 334576.000000 0 0 1
12.278008 -27.530335 2.127779 30.219138 -1.151290 1.500326 0.041214 -0.011664 -112600.000000 0 0 1
12.508908 -27.582365 3.516479 30.489757 -1.145026 1.455206 0.049703 -0.014253 144510.000000 0 0 1
12.313408 -28.886335 4.023579 31.658010 -1.167850 1.443357 0.052231 -0.018346 -46148.900000 0 0 1
12.365108 -28.839905 5.561879 31.868018 -1.165754 1.395369 0.062614 -0.010859 54226.400000 0 0 1
12.305108 -30.085355 6.146279 33.080524 -1.182550 1.383913 0.045855 -0.015944 -145307.000000 0 0 1
12.528508 -30.101595 7.539679 33.465151 -1.176397 1.343546 0.060738 -0.005824 89178.300000 0 0 1
12.264908 -31.491405 8.159879 34.766654 -1.199402 1.333882 0.040787 -0.007345 8007.670000 0 0 1
12.107708 -31.496435 9.527879 35.062837 -1.203797 1.295599 0.044146 -0.001044 -207069.000000 0 0 1
11.376208 -32.665085 9.786179 35.947117 -1.235665 1.295078 0.044203 -0.003319 -100143.000000 0 0 1
11.115408 -32.895405 11.283179 36.509863 -1.244940 1.256608 0.047469 -0.008819 -250691.000000 0 0 1
12.262508 -33.273905 12.022579 37.444149 -1.217708 1.243926 0.040341 -0.010812 -237603.000000 0 0 1
12.158108 -33.673185 13.368679 38.215502 -1.224301 1.213414 0.048063 -0.010661 695401.000000 0 0 1
10.970008 34.054130 13.802979 38.347713 1.259158 1.202590 0.053437 -0.016934 730990.000000 0 0 1
11.007408 32.850970 13.065579 37.027809 1.247483 1.210172 0.055321 -0.017587 140098.000000 0 0 1
9.952408 31.921875 13.317979 35.992015 1.268573 1.191759 0.053832 -0.007415 76192.700000 0 0 1
10.014508 30.611975 12.414179 34.518042 1.254627 1.202911 0.052578 -0.004558 -63202.200000 0 0 1
9.781508 30.820555 11.003679 34.156485 1.263481 1.242791 0.046682 -0.006826 452200.000000 0 0 1
10.842708 31.485335 10.318879 34.862156 1.239143 1.270304 0.037453 -0.008603 173276.000000 0 0 1
10.366708 31.983455 8.946579 34.791541 1.257354 1.310726 0.033506 -0.010260 12610.500000 0 0 1
9.258908 32.849203 9.011479 35.298786 1.296063 1.312647 0.043974 -0.012633 -483299.000000 0 0 1
8.485208 32.842785 7.882779 34.825070 1.317967 1.342464 0.030606 -0.006600 -458763.000000 0 0 1
8.841008 33.922500 6.849479 35.718550 1.315844 1.377839 0.029258 -0.003624 -39355.800000 0 0 1
8.218108 -33.530635 7.203279 35.266529 -1.330442 1.365096 0.043144 -0.009051 323854.000000 0 0 1
8.827208 -32.451875 6.538179 34.260642 -1.305213 1.378782 0.056139 -0.004544 149346.000000 0 0 1
8.145608 -31.096655 6.932879 32.884916 -1.314607 1.358380 0.053361 -0.000413 216741.000000 0 0 1
8.461208 -30.725065 8.282679 32.927564 -1.302073 1.316523 0.055183 -0.005059 52759.700000 0 0 1
8.017208 -29.426265 8.630479 31.696465 -1.304802 1.295029 0.069609 -0.002555 248100.000000 0 0 1
9.043008 -28.317645 8.259379 30.852591 -1.261691 1.299786 0.064515 -0.007172 193027.000000 0 0 1
8.674008 -27.174625 9.001979 29.912110 -1.261824 1.265110 0.054077 -0.000138 310492.000000 0 0 1
9.496908 -26.034955 8.760479 29.064689 -1.221020 1.264622 0.074931 -0.012941 159555.000000 0 0 1
8.976008 -25.086975 7.606379 27.708881 -1.227194 1.292716 0.039098 -0.012726 37682.900000 0 0 1
9.114708 -25.640405 6.350479 27.943459 -1.229246 1.341531 0.046265 -0.010445 -13564.900000 0 0 1
8.518108 -24.781105 5.380979 26.751005 -1.239715 1.368264 0.047110 -0.009805 65368.300000 0 0 1
8.660308 -25.332835 3.957279 27.063140 -1.241391 1.424046 0.040915 -0.012170 469062.000000 0 0 1
7.827808 -26.465035 3.598179 27.831988 -1.283216 1.441151 0.061624 -0.014101 418001.000000 0 0 1
8.254808 -27.672905 4.208179 29.182877 -1.280901 1.426092 0.063641 -0.011037 -328933.000000 0 0 1
7.247508 -28.724165 3.830979 29.871064 -1.323641 1.442192 0.052266 -0.009310 -960888.000000 0 0 1
6.074808 -28.654395 4.584779 29.647898 -1.361887 1.415532 0.045256 -0.001731 -552928.000000 0 0 1
4.930908 -29.213895 3.983379 29.893692 -1.403586 1.437147 0.039259 -0.002485 75040.700000 0 0 1
4.774608 -30.773815 4.146179 31.416801 -1.416872 1.438437 0.047059 -0.008264 -231575.000000 0 0 1
5.951908 -31.439345 3.740979 32.215719 -1.383697 1.454411 0.053995 -0.011080 -161722.000000 0 0 1
5.972408 -32.861735 3.996179 33.638263 -1.391015 1.451716 0.049909 -0.010306 -15511.800000 0 0 1
7.119708 -33.626715 3.308979 34.531081 -1.362150 1.474823 0.043627 -0.006952 53381.500000 0 0 1
6.888308 -33.930445 1.951679 34.677557 -1.370506 1.514486 0.052700 -0.006441 -64695.500000 0 0 1
7.974508 34.091320 1.361179 35.038032 1.341012 1.531938 0.033626 -0.003863 -362195.000000 0 0 1
7.613708 33.322755 0.057679 34.181543 1.346168 1.569109 0.042209 0.002065 612452.000000 0 0 1
6.491208 32.436155 0.139379 33.079591 1.373283 1.566583 0.034457 -0.002032 291520.000000 0 0 1
5.232108 33.098574 0.030879 33.509574 1.414017 1.569875 0.049120 -0.011742 457828.000000 0 0 1
4.076708 32.070705 0.355679 32.330731 1.444358 1.559795 0.051307 -0.012473 434813.000000 0 0 1
4.003708 31.084385 -0.668721 31.348299 1.442700 1.592130 0.055586 -0.007543 355411.000000 0 0 1
2.879808 30.244465 -0.391121 30.383778 1.475865 1.583669 0.049750 -0.015699 435496.000000 0 0 1
2.615408 29.194885 -1.442921 29.347295 1.481450 1.619983 0.047814 -0.011662 -70527.700000 0 0 1
2.075708 29.758575 -2.595921 29.943616 1.501158 1.657599 0.047172 -0.021658 -68252.200000 0 0 1
1.653908 28.704535 -3.464921 28.960170 1.513242 1.690728 0.047222 -0.022571 -236297.000000 0 0 1
1.440308 29.112895 -4.915421 29.560049 1.521363 1.737858 0.042140 -0.027910 -581667.000000 0 0 1
0.291508 29.884665 -5.051921 30.310066 1.561042 1.738253 0.044689 -0.026291 -445325.000000 0 0 1
0.222108 30.568495 -6.298021 31.211333 1.563531 1.773978 0.027144 -0.011722 -80529.400000 0 0 1
-0.037292 29.800455 -7.558121 30.744003 -1.569545 1.819183 0.024596 -0.008731 -593203.000000 0 0 1
-1.382292 29.428955 -7.764921 30.467493 -1.523860 1.828498 0.022285 -0.006119 81.324900 0 0 1
-1.795792 28.960945 -9.047021 30.394240 -1.508868 1.873032 0.022819 -0.008846 89045.800000 0 0 1
-1.669392 30.032295 -10.147121 31.744128 -1.515267 1.896160 0.012136 -0.015649 -797894.000000 0 0 1
-0.356192 30.429085 -10.419721 32.165613 -1.559091 1.900687 0.013945 -0.028464 -467021.000000 0 0 1
-0.316292 31.658405 -11.193821 33.580594 -1.560806 1.910642 -0.003720 -0.018455 235465.000000 0 0 1
-0.700392 32.938108 -10.405221 34.549647 -1.549536 1.876713 -0.005936 0.001014 473971.000000 0 0 1
0.390908 33.336650 -9.571721 34.685774 1.559071 1.850380 -0.002233 -0.007855 366427.000000 0 0 1
-0.069192 34.173792 -8.567321 35.231404 -1.568772 1.816432 0.000599 -0.000560 -398538.000000 0 0 1
1.021608 -34.244798 -7.550121 35.082107 -1.540973 1.787706 0.023571 -0.012297 -319466.000000 0 0 1
2.012508 -33.349695 -7.936921 34.340167 -1.510524 1.804032 0.034808 -0.011396 -547361.000000 0 0 1
2.844608 -32.916005 -6.885621 33.748585 -1.484590 1.776266 0.042709 -0.022588 -305122.000000 0 0 1
4.076208 -32.090045 -7.423221 33.188713 -1.444449 1.796372 0.037028 -0.019240 688555.000000 0 0 1
5.008008 -32.823985 -8.213821 34.204693 -1.419392 1.813304 0.040375 -0.013658 491122.000000 0 0 1
5.832608 -33.639895 -7.355121 34.925058 -1.399119 1.782982 0.064561 -0.005411 -1030270.000000 0 0 1
6.271608 33.724660 -8.022421 35.228469 1.386932 1.800537 0.060201 -0.006375 898987.000000 0 0 1
5.239308 32.699741 -8.221921 34.122183 1.411922 1.814146 0.048373 -0.009738 378919.000000 0 0 1
4.305308 33.050378 -9.213421 34.579623 1.441261 1.840495 0.043601 -0.011427 -164922.000000 0 0 1
3.373708 31.853275 -9.528321 33.418587 1.465276 1.859928 0.036361 -0.017617 -158436.000000 0 0 1
3.983108 30.728355 -10.121121 32.596534 1.441892 1.886512 0.045446 -0.017998 -226766.000000 0 0 1
3.130808 29.642085 -10.224221 31.511742 1.465566 1.901234 0.032387 -0.014877 -5817.380000 0 0 1
3.986708 28.667515 -11.018621 30.969828 1.432615 1.934551 0.031929 -0.015626 151296.000000 0 0 1
3.816208 28.921195 -12.377921 31.689302 1.439602 1.972082 0.042433 -0.014011 -150586.000000 0 0 1
4.896608 28.589825 -13.216721 31.875329 1.401171 1.998341 0.051843 -0.021880 -283677.000000 0 0 1
4.859908 29.143615 -14.723821 33.011512 1.405560 2.033111 0.059704 -0.018554 -257094.000000 0 0 1
3.950708 28.628555 -15.663321 32.871597 1.433664 2.067466 0.049986 -0.012838 -44672.800000 0 0 1
4.331408 29.028125 -16.948821 33.891823 1.422675 2.094494 0.071559 -0.016058 196546.000000 0 0 1
3.294508 28.559485 -17.995721 33.916721 1.455948 2.130088 0.055737 -0.010669 158343.000000 0 0 1
3.559908 27.234575 -18.376521 33.046808 1.440820 2.160453 0.070491 -0.007515 109504.000000 0 0 1
2.874608 26.785165 -19.547421 33.283781 1.463885 2.198510 0.070422 -0.013637 169691.000000 0 0 1
3.540808 25.509245 -20.079121 32.656240 1.432873 2.233009 0.075044 -0.013743 189413.000000 0 0 1
3.514708 24.384645 -19.162221 31.211453 1.427646 2.231849 0.076584 -0.020687 491317.000000 0 0 1
4.467208 23.340115 -19.485321 30.731005 1.381687 2.257589 0.072011 -0.019103 643681.000000 0 0 1
4.595108 22.245215 -18.402121 29.233588 1.367095 2.251687 0.077993 -0.014578 308684.000000 0 0 1
3.663108 21.204115 -18.558521 28.415692 1.399730 2.282478 0.091769 -0.014343 109733.000000 0 0 1
4.248208 20.135115 -17.821421 27.222659 1.362861 2.284521 0.083701 -0.010841 135762.000000 0 0 1
3.286008 18.985315 -17.614821 26.105975 1.399413 2.311413 0.080217 -0.021683 -239627.000000 0 0 1
2.346508 19.115115 -16.566021 25.403283 1.448651 2.281175 0.076785 -0.024394 -151040.000000 0 0 1
1.559908 17.971715 -16.316921 24.324016 1.484215 2.306104 0.054785 -0.018496 136899.000000 0 1 0
2.279308 16.824715 -15.544021 23.019185 1.436142 2.312119 0.049980 -0.016842 1412280.000000 0 1 0
3.356808 16.071415 -16.227121 23.084150 1.364888 2.350340 0.060988 -0.021550 1106340.000000 0 1 0
2.857908 15.057415 -17.081721 22.949479 1.383227 2.410310 0.059014 -0.022279 -99261.300000 0 1 0
2.952608 15.413415 -18.622721 24.353583 1.381528 2.441342 0.048608 -0.020048 -1257710.000000 0 1 0
4.236408 15.491015 -19.088521 24.945748 1.303848 2.442150 0.060849 -0.022159 -1175690.000000 0 1 0
4.165708 15.957115 -20.430721 26.256370 1.315439 2.462470 0.054961 -0.014238 -235543.000000 0 0 1
4.452408 14.916115 -21.533121 26.570467 1.280719 2.515657 0.046805 -0.033404 478054.000000 0 0 1
3.444708 13.907115 -21.725621 26.024536 1.327989 2.558589 0.042282 -0.025525 438080.000000 0 0 1
2.244708 14.312415 -22.350121 26.634786 1.415227 2.566483 0.044248 -0.020990 -426099.000000 0 0 1
1.472208 13.117215 -22.818321 26.361041 1.459029 2.617159 0.045828 -0.020615 -543470.000000 0 0 1
0.867208 12.382315 -21.802721 25.088491 1.500874 2.624040 0.041133 -0.019845 349293.000000 0 0 1
0.005108 11.352815 -22.355321 25.072830 1.570346 2.671697 0.034279 -0.011460 244976.000000 0 0 1
-0.610192 10.443615 -21.264121 23.698191 -1.512435 2.684385 0.024831 -0.015801 556530.000000 0 1 0
-1.791192 11.096315 -20.685421 23.541946 -1.410755 2.643850 0.026431 -0.012221 893032.000000 0 1 0
-2.339292 10.431815 -19.577021 22.305936 -1.350200 2.641754 0.018455 -0.006942 220936.000000 0 1 0
-3.285892 9.250515 -19.934821 22.220850 -1.229486 2.684008 0.028629 -0.009709 -440113.000000 0 1 0
-2.633492 8.136015 -20.547721 22.256209 -1.257756 2.747214 0.022888 -0.012813 -914690.000000 0 1 0
-3.549392 7.254015 -21.094221 22.587276 -1.115745 2.775962 0.023524 0.002412 -360294.000000 0 1 0
-2.857792 6.137215 -21.884321 22.907551 -1.135005 2.841578 0.020105 -0.005066 404054.000000 0 1 0
-2.145392 5.185615 -21.041321 21.776834 -1.178519 2.880952 0.024770 -0.004044 170759.000000 0 1 0
-2.007992 3.948615 -21.680921 22.128848 -1.100348 2.940046 0.026870 -0.014380 -176172.000000 0 1 0
-1.264492 2.817615 -20.909221 21.136069 -1.148957 2.994950 0.024394 -0.014900 -395588.000000 0 1 0
0.117108 2.973015 -21.021221 21.230738 1.531426 3.000988 0.020793 -0.007756 -762300.000000 0 1 0
0.841608 2.226615 -20.069921 20.210587 1.209419 3.023541 0.020569 -0.008534 -1194690.000000 0 1 0
2.315008 2.313515 -20.312621 20.574600 0.785076 2.981841 0.012479 -0.005843 -1348910.000000 0 1 0
2.736108 1.814215 -21.552521 21.801119 0.585504 2.990432 0.026768 0.001371 -11270.800000 0 1 0
4.156008 1.833915 -21.463921 21.939360 0.415569 2.933029 0.033361 0.002274 -170846.000000 0 1 0
4.852908 1.097715 -22.557821 23.100021 0.222454 2.924502 0.025434 -0.000795 -706508.000000 0 1 0
6.243608 1.154515 -22.401021 23.283498 0.182846 2.865392 0.025965 -0.008695 -638201.000000 0 1 0
6.950408 0.520415 -23.401121 24.417032 0.074736 2.852116 0.029325 -0.013045 -222884.000000 0 1 0
8.477308 0.564015 -23.192321 24.699526 0.066434 2.790444 0.036394 -0.022921 46894.000000 0 1 0
8.953408 1.886215 -23.296821 25.029246 0.207634 2.767348 0.033077 -0.030846 -843337.000000 0 0 1
10.333808 1.993715 -23.270721 25.539948 0.190590 2.716862 0.040853 -0.022470 -829627.000000 0 0 1
14.046308 -20.953805 22.389983 33.729395 -0.980251 0.844892 0.045387 -0.002271 -420751.000000 0 0 1
13.106508 -22.033905 22.444283 34.073735 -1.034184 0.851710 0.030111 0.009340 1253330.000000 0 0 1
11.730708 -21.594805 22.358383 33.224124 -1.073174 0.832598 0.018980 0.008803 1308900.000000 0 0 1
11.165108 -21.178005 21.010383 31.852845 -1.085624 0.850500 0.034834 -0.002154 -587061.000000 0 0 1
11.551108 -19.876905 20.649683 30.901924 -1.044366 0.838965 0.033013 -0.007174 12154.400000 0 0 1
10.980708 -19.629705 19.402383 29.704440 -1.060771 0.859018 0.051868 -0.002718 88591.900000 0 0 1
11.265508 -18.183605 18.944283 28.573433 -1.016131 0.845973 0.053691 -0.015537 -365148.000000 0 0 1
10.354808 -17.318005 19.548983 28.094450 -1.031907 0.801220 0.068016 -0.018451 -195181.000000 0 0 1
10.545608 -15.968205 19.071283 27.016796 -0.987136 0.787097 0.068247 -0.020239 -65096.800000 0 0 1
9.432608 -14.982305 19.450583 26.301497 -1.008908 0.738434 0.062251 -0.024201 539558.000000 0 0 1
8.180808 -15.202405 18.795683 25.520903 -1.077115 0.742942 0.056605 -0.020618 -186685.000000 0 0 1
7.194808 -14.308105 19.177983 24.985640 -1.104873 0.695770 0.038270 -0.011248 -962719.000000 0 1 0
5.843308 -14.712605 18.635983 24.452094 -1.192738 0.704180 0.011478 -0.001517 -1091700.000000 0 1 0
5.771708 -14.893505 17.209783 23.479901 -1.201084 0.748136 0.002559 0.002670 -367540.000000 0 1 0
4.439008 -14.979805 16.779883 22.927360 -1.282707 0.749732 -0.008124 0.000148 -302820.000000 0 1 0
3.662808 -16.294305 17.028383 23.851339 -1.349681 0.775690 -0.010644 0.009002 361370.000000 0 1 0
2.338108 -16.152505 16.473983 23.189703 -1.427043 0.780729 -0.008247 0.004954 411213.000000 0 1 0
1.727208 -17.415605 16.557483 24.092256 -1.471944 0.813095 0.001692 -0.005658 -765031.000000 0 1 0
0.276308 -17.405405 16.142783 23.740555 -1.554923 0.823079 0.023605 -0.001700 -790375.000000 0 1 0
0.075708 -17.436205 14.729683 22.825218 -1.566454 0.869348 0.021118 0.001308 310700.000000 0 1 0
-1.338292 -17.475105 14.552483 22.780367 1.494363 0.877837 0.021859 0.001373 342361.000000 0 1 0
-1.752092 -18.106905 13.183283 22.466170 1.474333 0.943688 0.020324 -0.007694 978978.000000 0 1 0
-3.192892 -18.150005 13.114383 22.618672 1.396661 0.952309 0.017439 -0.014831 751894.000000 0 1 0
-3.600592 -19.328105 12.450083 23.271109 1.386620 1.006287 0.038104 -0.021332 188623.000000 0 1 0
-5.129092 -19.567405 12.504283 23.781254 1.314440 1.017136 0.035189 -0.017458 142777.000000 0 1 0
-5.694592 -19.954005 13.749583 24.892604 1.292800 0.985608 0.033357 -0.018625 20680.700000 0 1 0
-5.952192 -21.340905 13.707683 26.053088 1.298799 1.016736 0.006220 -0.004506 -71798.600000 0 0 1
-6.779592 -21.861005 14.909083 27.315695 1.270079 0.993445 0.015821 -0.002405 504688.000000 0 0 1
-8.154192 -21.508005 14.954683 27.435883 1.208415 0.994315 0.025616 0.004033 94544.900000 0 0 1
-8.873392 -22.386205 15.764483 28.781908 1.193417 0.991157 0.033640 -0.003861 286291.000000 0 0 1
-10.378592 -21.987205 15.847083 29.022102 1.129775 0.993172 0.046182 -0.003444 373855.000000 0 0 1
-10.627792 -20.827105 16.561483 28.653115 1.098953 0.954521 0.035112 0.001500 -176313.000000 0 0 1
-11.923292 -20.375405 16.200183 28.631591 1.041345 0.969375 0.040158 -0.005357 89593.600000 0 0 1
-12.281992 -19.185405 17.099683 28.483790 1.001360 0.926882 0.048151 0.000310 -600199.000000 0 0 1
-12.695792 -19.659605 18.355783 29.742528 0.997393 0.905673 0.054322 0.000950 -143690.000000 0 0 1
-12.965192 -18.628705 19.325883 29.809640 0.962774 0.865434 0.048622 -0.003603 16054.700000 0 0 1
-13.485692 -19.168005 20.661083 31.243506 0.957690 0.848256 0.046826 -0.010129 -431539.000000 0 0 1
-14.701292 -19.832305 20.531983 32.109355 0.932899 0.877028 0.038559 -0.008147 -448782.000000 0 0 1
-15.101592 -20.500005 21.723083 33.469399 0.935886 0.864470 0.042696 0.003335 326986.000000 0 0 1
-16.460192 -21.237805 21.538883 34.436983 0.911460 0.895078 0.049195 -0.006505 -218501.000000 0 0 1
-16.350192 -22.481605 20.873083 34.762580 0.942002 0.926736 0.051114 -0.003465 592874.000000 0 0 1
-17.520192 -22.957005 20.181583 35.231769 0.918917 0.960850 0.037798 0.004837 900626.000000 0 0 1
-18.614992 -23.535505 21.154583 36.714498 0.901609 0.956735 0.033746 -0.006945 -221632.000000 0 0 1
-19.430392 -22.573705 21.786883 36.902311 0.860092 0.939250 0.054103 -0.006206 103911.000000 0 0 1
-20.015992 -22.967705 22.999083 38.172153 0.853961 0.924155 0.029945 -0.012769 -86326.500000 0 0 1
-20.483292 -21.732205 23.829713 38.206141 0.814974 0.897311 0.020748 0.001663 162055.000000 0 0 1
-21.711992 -21.117405 23.444683 38.301548 0.771516 0.912073 0.019068 0.008333 503865.000000 0 0 1
-21.881292 -19.975405 24.284263 38.308396 0.739896 0.884192 0.020825 0.000201 173786.000000 0 0 1
-22.763892 -18.784505 23.796343 37.911982 0.689912 0.892235 0.020655 -0.000609 -144072.000000 0 0 1
-22.231892 -18.083805 22.713883 36.567766 0.682869 0.900594 0.029571 0.002567 332425.000000 0 0 1
-23.208092 -17.315505 21.952883 36.336914 0.640999 0.922100 0.023410 0.006283 401868.000000 0 0 1
-22.676492 -16.762405 20.613083 34.929940 0.636552 0.939581 0.028894 0.014973 -635354.000000 0 0 1
-21.630792 -15.877505 20.764183 33.928419 0.633197 0.912210 0.034190 0.012334 -848670.000000 0 0 1
-21.224992 -15.424005 19.502083 32.691459 0.628416 0.931601 0.035617 0.011199 301892.000000 0 0 1
-20.142392 -14.311105 19.385783 31.405928 0.617736 0.905535 0.033118 0.001015 204890.000000 0 0 1
-19.862892 -14.143105 18.013183 30.315618 0.618759 0.934540 0.032434 -0.001396 -439085.000000 0 0 1
-19.152692 -13.017105 17.702583 29.148792 0.596937 0.918116 0.030923 -0.010039 -866353.000000 0 0 1
-18.523292 -13.160405 16.299283 27.963820 0.617724 0.948540 0.022775 -0.014118 -27152.100000 0 0 1
-18.140992 -11.954205 15.640383 26.769763 0.582649 0.946834 0.019460 -0.011161 114243.000000 0 0 1
-16.910592 -11.433705 16.113083 26.006330 0.594523 0.902585 0.021098 -0.024038 -57742.300000 0 0 1
-16.377092 -10.192005 15.306383 24.624611 0.556679 0.900027 0.016814 -0.020805 273069.000000 0 1 0
-17.138392 -9.045205 15.634683 24.899469 0.485619 0.891928 0.030211 -0.017076 216936.000000 0 1 0
-16.796392 -7.943405 14.802683 23.755755 0.441753 0.898071 0.029905 -0.013026 -586562.000000 0 1 0
-17.022392 -6.580305 15.484383 23.933833 0.368873 0.867197 0.036481 -0.005360 301200.000000 0 1 0
-16.155892 -6.255205 16.542283 23.953864 0.369404 0.808493 0.031243 -0.003889 -40676.900000 0 1 0
-14.774092 -6.107705 16.283583 22.819574 0.392010 0.776202 0.031954 -0.009801 -330652.000000 0 1 0
-13.956392 -6.108905 17.587683 23.268567 0.412590 0.713836 0.029674 -0.007285 -90255.500000 0 1 0
-14.036192 -7.282705 18.391083 24.254575 0.478615 0.710168 0.030600 -0.011711 7204.190000 0 1 0
-13.550992 -8.482005 17.801883 23.926572 0.559270 0.731727 0.049062 -0.008729 -419438.000000 0 1 0
-13.447792 -9.592405 18.802383 25.027724 0.619601 0.720824 0.038506 -0.011176 227611.000000 0 0 1
-14.623592 -10.262805 19.258283 26.268919 0.611932 0.747897 0.032718 -0.011076 200821.000000 0 0 1
-15.293192 -9.660705 20.351883 27.228847 0.563403 0.726599 0.016186 -0.010776 -470535.000000 0 0 1
-16.702992 -10.232505 20.731583 28.521793 0.549644 0.757046 0.005123 -0.007003 480547.000000 0 0 1
-17.697192 -10.060305 19.763783 28.372654 0.516912 0.800179 0.014891 -0.007210 -127358.000000 0 0 1
-18.089592 -8.752005 19.435983 27.956902 0.450616 0.802081 0.009080 -0.007867 -255799.000000 0 0 1
-19.198592 -8.674505 18.314383 27.915043 0.424375 0.855189 0.034213 -0.017840 358453.000000 0 0 1
-20.477192 -9.129105 18.623983 29.146333 0.419371 0.877622 0.033598 -0.016911 -414993.000000 0 0 1
-21.291192 -9.201205 17.458583 29.030659 0.407920 0.925564 0.061544 -0.009724 1766030.000000 0 0 1
-22.837592 -9.471905 17.755083 30.438718 0.393157 0.948004 0.057256 -0.004951 1503160.000000 0 0 1
-23.461592 -8.437605 18.493683 31.042806 0.345232 0.932600 0.056791 -0.003487 47801.100000 0 0 1
-24.786192 -8.779605 18.821683 32.337170 0.340424 0.949555 0.066472 -0.003346 -469909.000000 0 0 1
-25.607702 -7.701505 19.466983 33.076140 0.292144 0.941531 0.069174 -0.004201 -421471.000000 0 0 1
-25.265082 -7.406805 20.816283 33.563414 0.285173 0.901789 0.061282 -0.011429 278669.000000 0 0 1
-26.070032 -6.388105 21.443083 34.354916 0.240302 0.896736 0.059795 -0.010508 -399730.000000 0 0 1
-25.905682 -6.457405 22.952283 35.208092 0.244288 0.860704 0.061628 -0.015641 991278.000000 0 0 1
-24.702392 -6.034105 23.644233 34.722736 0.239580 0.821746 0.045149 -0.017528 504894.000000 0 0 1
-23.601292 -6.874505 23.424283 33.955513 0.283435 0.809512 0.052266 -0.017239 -641493.000000 0 0 1
-22.554692 -6.775705 24.555893 34.023759 0.291835 0.764501 0.049684 -0.011210 -37693.600000 0 0 1
-21.966392 -5.498205 24.634163 33.460344 0.245262 0.743329 0.042804 -0.010057 69495.400000 0 0 1
-21.103592 -5.299005 25.732213 33.698484 0.246009 0.701924 0.046847 -0.012157 -38947.300000 0 0 1
-20.601892 -3.837305 25.701433 33.162125 0.184150 0.684044 0.052029 -0.015133 945370.000000 0 0 1
-19.551392 -3.457505 26.659543 33.240676 0.175032 0.640134 0.047259 -0.008204 998258.000000 0 0 1
-19.990992 -3.508405 28.033293 34.609453 0.173730 0.626662 0.055038 -0.019007 35802.400000 0 0 1
-20.844992 -2.303505 28.441113 35.337187 0.110060 0.635375 0.066821 -0.025034 -325527.000000 0 0 1
-21.998892 -2.119605 27.714753 35.447871 0.096054 0.673176 0.066111 -0.031762 -1102750.000000 0 0 1
-23.039292 -1.446505 28.366663 36.572790 0.062702 0.683096 0.070356 -0.030463 540564.000000 0 0 1
-24.365192 -1.296605 27.579103 36.823236 0.053165 0.724306 0.055663 -0.033203 -224563.000000 0 0 1
-24.258192 -0.235905 26.603723 36.003800 0.009724 0.739339 0.053290 -0.034555 -170369.000000 0 0 1
-25.458982 0.098095 25.961073 36.361335 -0.003853 0.775638 0.045308 -0.024044 -304613.000000 0 0 1
-26.223002 -0.983305 25.139103 36.339885 0.037480 0.806849 0.037966 -0.026768 -297418.000000 0 0 1
-27.254232 -1.585205 25.921183 37.645900 0.058098 0.811305 0.034820 -0.026050 505477.000000 0 0 1
-27.748172 -2.840605 25.448003 37.757529 0.102016 0.831207 0.030467 -0.026735 -104421.000000 0 0 1
-26.765322 -4.012805 25.659703 37.294845 0.148817 0.812035 0.045430 -0.033074 -87093.100000 0 0 1
-26.417472 -4.375105 26.989353 38.019068 0.164124 0.781454 0.046825 -0.027331 246207.000000 0 0 1
-25.557192 -5.542405 26.873063 37.497331 0.213556 0.771786 0.037266 -0.027514 782914.000000 0 0 1
-24.791492 -5.876405 28.221943 38.021419 0.232738 0.734353 0.030845 -0.009918 421336.000000 0 0 1
-25.778482 -6.344505 29.105963 39.394669 0.241320 0.739464 0.043202 -0.009355 479733.000000 0 0 1
-25.228382 -6.884605 30.313333 40.034575 0.266405 0.711813 0.039166 -0.000543 326358.000000 0 0 1
-26.389802 -7.505105 31.138923 41.501576 0.277079 0.722270 0.031469 0.003555 300726.000000 0 0 1
-27.006432 -8.626105 30.553503 41.680615 0.309167 0.748018 0.030070 -0.000762 -699370.000000 0 0 1
-28.159742 -8.909105 31.244053 42.994582 0.306413 0.757294 0.016968 0.004023 -433906.000000 0 0 1
-29.250692 -9.757005 30.510083 43.378189 0.321959 0.790696 0.003215 -0.008806 318834.000000 0 0 1
-28.886232 -11.119205 30.222253 43.260094 0.367449 0.797333 0.015970 -0.005376 205392.000000 0 0 1
-29.882242 -11.673005 29.392703 43.510211 0.372406 0.829105 0.015218 -0.006446 -187980.000000 0 0 1
-29.336482 -12.926305 28.669173 43.007442 0.415028 0.841145 0.025401 -0.010166 -243360.000000 0 0 1
-28.505092 -12.554105 27.626813 41.633960 0.414856 0.845223 0.027908 -0.010424 -609698.000000 0 0 1
-27.638792 -13.602105 27.206423 41.098778 0.457338 0.847344 0.039450 -0.014562 -150502.000000 0 0 1
-26.343382 -12.982005 26.602563 39.625782 0.457871 0.834775 0.036378 -0.014571 -51874.800000 0 0 1
-25.437282 -12.525905 27.592713 39.564017 0.457568 0.799006 0.033928 -0.011042 84639.300000 0 0 1
-25.881922 -11.287405 28.246113 39.938983 0.411244 0.785222 0.039191 -0.017405 -911740.000000 0 0 1
-26.001412 -9.929305 27.411573 39.064804 0.364785 0.793023 0.033564 -0.008342 263476.000000 0 0 1
-24.787792 -9.387605 26.902323 37.766344 0.362027 0.777975 0.031316 -0.009511 91072.100000 0 0 1
-24.233792 -10.103905 25.810873 36.818022 0.395019 0.793943 0.021150 -0.012664 126363.000000 0 0 1
-25.011892 -9.958905 24.435303 36.357373 0.378925 0.833773 0.042490 -0.008333 -127419.000000 0 0 1
-26.267252 -10.561905 24.349933 37.342223 0.382310 0.860478 0.041691 -0.011437 -530515.000000 0 0 1
-26.892932 -10.303805 23.098683 36.918117 0.365889 0.894802 0.056835 -0.007123 408024.000000 0 0 1
-28.209622 -11.125005 22.909383 38.005110 0.375643 0.923794 0.058472 -0.007410 678143.000000 0 0 1
-29.408572 -10.687205 23.518283 39.143200 0.348566 0.926261 0.050612 -0.013083 -414698.000000 0 0 1
-29.492752 -10.930005 24.857923 40.089946 0.354907 0.901985 0.056343 -0.017884 -512001.000000 0 0 1
-30.880202 -10.596905 25.442713 41.390977 0.330570 0.908801 0.014696 -0.012385 -585678.000000 0 0 1
-31.274572 -9.313405 25.184743 41.220258 0.289432 0.913499 0.025254 -0.018930 1021940.000000 0 0 1
-32.612632 -8.978205 25.677433 42.467900 0.268644 0.921493 0.026528 -0.010173 1458150.000000 0 0 1
-32.918512 -8.963205 27.145213 43.598510 0.265840 0.898713 0.017739 -0.011351 -566633.000000 0 0 1
-32.911542 -10.255205 27.640053 44.184968 0.302064 0.894956 0.007982 -0.021320 -99711.900000 0 0 1
-33.319512 -10.362505 28.990453 45.365381 0.301521 0.877542 0.019816 -0.017058 -1083090.000000 0 0 1
-33.807792 -11.746305 29.337683 46.277880 0.334396 0.884151 0.036690 -0.018820 -93750.100000 0 0 1
-35.017570 -12.341005 28.916173 47.060341 0.338832 0.909109 0.013170 -0.011478 752488.000000 0 0 1
35.701635 -11.641305 29.349693 47.660584 -0.315201 0.907387 0.027963 -0.012310 -311982.000000 0 0 1
34.357885 -12.182205 28.862753 46.496548 -0.340738 0.901097 0.030396 -0.014058 -30377.200000 0 0 1
34.133435 -12.019205 27.459833 45.426811 -0.338566 0.921677 0.018799 -0.004008 -861783.000000 0 0 1
32.793325 -12.252305 27.179353 44.319729 -0.357562 0.910620 0.029811 0.012187 -671601.000000 0 0 1
32.358625 -12.059305 25.696993 43.044662 -0.356732 0.931059 0.025228 0.008152 -20892.100000 0 0 1
32.218165 -10.652605 25.361703 42.363949 -0.319324 0.928966 0.029699 -0.011022 -23844.700000 0 0 1
32.157175 -10.415905 23.967973 41.437166 -0.313242 0.954009 0.026848 -0.005802 -405519.000000 0 0 1
32.031285 -8.977505 23.488683 40.722439 -0.273262 0.955991 0.031071 0.009158 -471023.000000 0 0 1
30.708765 -8.573005 23.689423 39.720441 -0.272240 0.931783 0.043839 0.001158 -538202.000000 0 0 1
30.444905 -7.227405 23.276783 38.999183 -0.233078 0.931223 0.053036 0.002794 -847311.000000 0 0 1
28.965095 -7.011305 23.029083 37.662632 -0.237492 0.912896 0.056792 0.005722 -729036.000000 0 0 1
28.666555 -7.658105 21.822083 36.832340 -0.261048 0.936674 0.048931 0.005719 -20627.100000 0 0 1
27.356855 -7.393405 21.350683 35.481145 -0.263952 0.925109 0.061393 -0.010966 -169811.000000 0 0 1
14.403808 -17.006905 26.788083 34.846893 -0.868082 0.693933 0.015880 -0.003812 -321313.000000 0 0 1
14.013208 -18.322605 26.600303 35.208863 -0.917888 0.714379 0.018756 -0.008360 284494.000000 0 0 1
15.106408 -19.212105 26.686273 36.186541 -0.904467 0.741489 0.013309 0.003731 -448756.000000 0 0 1
14.665308 -20.727305 26.493273 36.695858 -0.955031 0.764152 0.012579 -0.001394 22982.700000 0 0 1
13.857108 -21.294905 27.447143 37.401044 -0.993912 0.746809 0.008032 -0.001486 1922830.000000 0 0 1
12.462708 -20.820805 27.599573 36.749986 -1.031429 0.721207 0.017180 -0.004575 1881630.000000 0 0 1
11.765608 -21.292205 28.911053 37.784078 -1.065976 0.699499 0.021129 -0.005895 87889.500000 0 0 1
12.298008 -20.662905 30.082883 38.512031 -1.033933 0.674324 0.026790 -0.010800 519081.000000 0 0 1
11.399908 -19.745805 30.743813 38.275799 -1.047210 0.638118 0.032785 -0.012989 311358.000000 0 0 1
11.206308 -18.333005 30.196203 37.060641 -1.022136 0.618450 0.043164 -0.007787 952028.000000 0 0 1
12.367308 -17.502305 30.412033 37.204473 -0.955648 0.613862 0.029453 0.003602 756666.000000 0 0 1
12.075408 -16.280805 29.775023 36.019885 -0.932631 0.597708 0.023507 0.006293 1000120.000000 0 0 1
13.139708 -15.135905 30.198063 36.244594 -0.855879 0.585973 0.027162 -0.002941 1026450.000000 0 0 1
12.740308 -13.772505 29.948083 35.339568 -0.824311 0.559656 0.040084 0.003833 370504.000000 0 0 1
13.689308 -12.793105 30.392693 35.704013 -0.751570 0.552452 0.036419 0.006644 393657.000000 0 0 1
13.079208 -11.348805 30.217093 34.827199 -0.714679 0.520382 0.029406 0.010332 249497.000000 0 0 1
13.340108 -10.852105 28.962103 33.682787 -0.682915 0.535823 0.046946 0.010835 1500570.000000 0 0 1
14.742808 -10.510605 28.731523 33.960619 -0.619352 0.562312 0.033325 0.011537 1251610.000000 0 0 1
15.000608 -9.640405 27.438033 32.723101 -0.571203 0.576288 0.025234 0.012537 -17721.700000 0 0 1
14.948408 -8.214705 27.565263 32.415738 -0.502488 0.554115 0.022348 0.006935 687916.000000 0 0 1
16.204708 -7.680305 28.017093 33.264654 -0.442596 0.569356 0.026751 0.000884 202612.000000 0 0 1
16.557708 -6.256905 27.517283 32.718610 -0.361297 0.571615 0.020341 0.000063 -905066.000000 0 0 1
17.914308 -6.009705 27.630283 33.473446 -0.323672 0.599817 0.017922 -0.008137 -849639.000000 0 0 1
18.404108 -4.881805 26.974373 33.017572 -0.259285 0.614659 0.020906 -0.012547 170206.000000 0 0 1
19.935208 -4.747805 26.770343 33.713580 -0.233806 0.653350 0.033911 -0.015300 -722801.000000 0 0 1
20.365508 -5.730205 25.880163 33.427115 -0.274277 0.685304 0.048424 -0.013653 87457.400000 0 0 1
21.721208 -5.676805 25.482423 33.961609 -0.255631 0.722235 0.063544 -0.015960 741459.000000 0 0 1
22.794508 -6.066505 26.583833 35.540010 -0.260110 0.725757 0.063285 -0.022652 -362261.000000 0 0 1
22.932208 -4.975105 27.538843 36.180461 -0.213638 0.705708 0.072647 -0.019164 36506.800000 0 0 1
23.863008 -5.244405 28.586523 37.605003 -0.216332 0.707208 0.073154 -0.027471 -32621.400000 0 0 1
24.306608 -4.006705 29.316563 38.292633 -0.163371 0.698834 0.075990 -0.019972 -349032.000000 0 0 1
25.205408 -3.277805 28.493823 38.183171 -0.129318 0.728400 0.068301 -0.011168 222149.000000 0 0 1
25.434508 -1.967005 28.965893 38.598009 -0.077182 0.722053 0.061123 -0.016896 75608.000000 0 0 1
26.455708 -1.261505 27.996843 38.539838 -0.047648 0.757670 0.062884 -0.015155 1687240.000000 0 0 1
27.865508 -1.530305 28.200443 39.674846 -0.054862 0.780177 0.066777 -0.012234 1357450.000000 0 0 1
28.629408 -0.907905 27.138173 39.458177 -0.031702 0.812383 0.056570 0.001147 138957.000000 0 0 1
30.145408 -0.893605 27.349193 40.712683 -0.029634 0.834213 0.039563 0.004062 -165608.000000 0 0 1
30.503708 0.220495 28.201623 41.543428 0.007228 0.824605 0.028024 0.010010 893201.000000 0 0 1
31.831108 0.068495 28.759013 42.898776 0.002152 0.836059 0.033914 0.004609 1064180.000000 0 0 1
32.277108 1.195095 29.700013 43.878591 0.037009 0.827297 0.035355 0.004109 -30573.500000 0 0 1
32.450108 2.493095 29.084183 43.647620 0.076678 0.841506 0.028806 0.008493 57013.500000 0 0 1
32.576108 3.540895 30.039963 44.453798 0.108271 0.828805 0.027264 0.004953 -39637.700000 0 0 1
32.901408 4.933695 29.487683 44.456355 0.148845 0.845583 0.021104 0.010262 -1186.450000 0 0 1
32.903008 6.045295 30.382533 45.191281 0.181704 0.833472 0.015647 0.013700 1345380.000000 0 0 1
31.605308 6.464995 30.923743 44.687465 0.201771 0.806540 0.021994 0.011431 1256870.000000 0 0 1
31.634908 7.411995 32.145533 45.706021 0.230147 0.790752 0.022859 0.006323 -64497.800000 0 0 1
31.921708 6.793995 33.359350 46.669048 0.209704 0.774449 0.017408 0.004290 34884.800000 0 0 1
32.401508 7.672995 -34.276302 47.787001 0.232526 2.370676 0.006724 0.003639 -207740.000000 0 0 1
32.604508 6.857095 -32.948051 46.857739 0.207290 2.350615 0.028308 0.001951 -214950.000000 0 0 1
31.426008 6.197795 -32.546371 45.664788 0.194720 2.364170 0.020378 -0.002931 59476.200000 0 0 1
31.306508 4.831095 -32.961381 45.715310 0.153108 2.376061 0.032906 -0.005436 153980.000000 0 0 1
32.095308 3.794395 -32.060671 45.523541 0.117677 2.352185 0.028952 -0.012930 55052.800000 0 0 1
31.966108 2.454295 -32.535431 45.677236 0.076628 2.363552 0.034587 -0.011938 256033.000000 0 0 1
32.373808 1.515095 -31.572661 45.245904 0.046766 2.343120 0.034840 -0.017371 -89724.700000 0 0 1
32.263008 0.066695 -32.068891 45.489778 0.002067 2.353176 0.047034 -0.028238 -75944.900000 0 0 1
33.325508 -0.224705 -32.999131 46.899708 -0.006743 2.351262 0.045463 -0.021960 582501.000000 0 0 1
33.869108 -1.520905 -32.978861 47.297303 -0.044875 2.342374 0.042868 -0.017858 54462.700000 0 0 1
34.903808 -1.726505 -31.869691 47.296235 -0.049424 2.310178 0.056436 -0.018327 -609083.000000 0 0 1
34.301008 -1.526705 -30.572541 45.973582 -0.044480 2.298293 0.052836 -0.022686 -177416.000000 0 0 1
35.098908 -1.744505 -29.457211 45.855249 -0.049662 2.268416 0.055824 -0.024614 -145685.000000 0 0 1
34.149308 -1.704105 -28.211781 44.328138 -0.049860 2.260658 0.063559 -0.027334 293052.000000 0 0 1
33.720508 -0.367305 -27.866931 43.746696 -0.010892 2.261405 0.046132 -0.024005 334219.000000 0 0 1
32.811408 -0.337305 -26.775311 42.351146 -0.010280 2.255214 0.044435 -0.023810 -149441.000000 0 0 1
32.219908 1.054295 -26.663301 41.834981 0.032710 2.261844 0.027519 -0.013456 148602.000000 0 0 1
31.204908 1.279695 -27.656151 41.716263 0.040986 2.295560 0.030518 -0.021583 581621.000000 0 0 1
30.795908 2.622195 -27.611461 41.444621 0.084943 2.299932 0.018767 -0.013759 -218232.000000 0 0 1
29.859608 2.996495 -28.753381 41.561185 0.100018 2.334820 0.025818 -0.016003 -363307.000000 0 0 1
29.082208 4.138495 -28.483931 40.917432 0.141354 2.340792 0.016529 -0.010194 796068.000000 0 0 1
28.190808 4.396195 -29.621861 41.127884 0.154698 2.374942 0.013519 -0.011816 502809.000000 0 0 1
27.089908 5.402795 -29.230821 40.218083 0.196856 2.384459 0.013422 -0.010070 601303.000000 0 0 1
26.004008 4.926195 -28.408161 38.826530 0.187221 2.391563 0.017432 -0.010656 862306.000000 0 0 1
25.078008 5.892195 -27.991161 38.041156 0.230769 2.397662 0.009914 -0.009893 -545234.000000 0 0 1
23.669808 5.372895 -27.738781 36.858754 0.223211 2.422752 0.014112 -0.004506 -518279.000000 0 0 1
22.919108 5.129195 -28.919171 37.254699 0.220168 2.459501 0.024763 -0.012299 582048.000000 0 0 1
21.626808 4.636495 -28.566541 36.128426 0.211190 2.482739 0.025719 -0.005935 316740.000000 0 0 1
20.793708 4.175195 -29.776501 36.557496 0.198156 2.522683 0.014654 -0.002289 -301493.000000 0 0 1
21.152908 2.899095 -30.185891 36.973480 0.136206 2.525980 0.008793 -0.009053 83339.400000 0 0 1
20.389408 2.320795 -31.284751 37.414565 0.113336 2.561050 0.006090 -0.009855 100951.000000 0 0 1
20.528908 3.016995 -32.668171 38.700745 0.145919 2.575723 0.013272 -0.008869 1356.170000 0 0 1
21.849208 2.825995 -33.154081 39.806623 0.128627 2.555085 0.017112 -0.013988 218027.000000 0 0 1
21.947408 3.435795 34.165524 40.752625 0.155286 0.576522 0.030041 -0.020950 -278690.000000 0 0 1
23.306008 3.154195 33.511533 40.940711 0.134521 0.611935 0.038239 -0.014918 -178342.000000 0 0 1
23.453808 1.835995 33.187199 40.679752 0.078122 0.616657 0.047869 -0.022990 173013.000000 0 0 1
24.825308 1.566195 32.956685 41.290338 0.063005 0.646546 0.053038 -0.024979 -68416.100000 0 0 1
25.065108 0.053095 32.697360 41.199270 0.002118 0.654029 0.051495 -0.021534 -444992.000000 0 0 1
24.533108 -0.395505 31.479283 39.912092 -0.016120 0.662080 0.060096 -0.021820 47679.500000 0 0 1
23.139608 -0.536805 31.356183 38.973579 -0.023194 0.635879 0.059461 -0.028437 -358161.000000 0 0 1
22.377108 -1.630205 32.146943 39.202277 -0.072723 0.609337 0.055713 -0.032237 -537934.000000 0 0 1
22.510408 -2.901805 31.580203 38.890207 -0.128202 0.623166 0.070545 -0.041738 171238.000000 0 0 1
21.967508 -3.826605 32.491813 39.407262 -0.172463 0.601455 0.065437 -0.038328 -210686.000000 0 0 1
21.890608 -5.334205 32.179083 39.282896 -0.239017 0.610847 0.069833 -0.033777 607164.000000 0 0 1
23.149808 -5.967505 32.450333 40.305693 -0.252285 0.634943 0.072715 -0.022989 683902.000000 0 0 1
23.036908 -7.363705 32.273763 40.330126 -0.309384 0.643102 0.068496 -0.022125 771250.000000 0 0 1
24.448608 -8.040405 32.004393 41.069012 -0.317728 0.677275 0.071977 -0.022998 1219060.000000 0 0 1
24.948208 -7.676305 30.712373 40.306186 -0.298497 0.704436 0.078718 -0.023463 496937.000000 0 0 1
26.245508 -8.209705 30.428173 41.013409 -0.303162 0.734885 0.071668 -0.020607 707936.000000 0 0 1
26.759008 -7.940905 28.995883 40.247531 -0.288478 0.766361 0.064596 -0.020864 358795.000000 0 0 1
25.948508 -8.657605 28.045043 39.176570 -0.322032 0.772938 0.062020 -0.011918 364375.000000 0 0 1
26.396008 -8.494405 26.692163 38.488645 -0.311341 0.804450 0.067520 -0.009791 199387.000000 0 0 1
25.482908 -9.326005 25.768123 37.421240 -0.350831 0.811245 0.056213 -0.010517 171846.000000 0 0 1
24.176708 -8.854705 25.468993 36.215862 -0.351077 0.790830 0.056497 -0.012934 252983.000000 0 0 1
23.547108 -9.780905 24.565573 35.406211 -0.393691 0.804015 0.064241 -0.015701 -291428.000000 0 0 1
22.223708 -9.209505 24.059643 34.023149 -0.392858 0.785330 0.051644 -0.011236 -747467.000000 0 0 1
21.187408 -9.463405 24.961173 34.081116 -0.420067 0.748949 0.035768 -0.001691 -1132640.000000 0 0 1
20.014608 -8.906905 24.459263 32.835546 -0.418705 0.730408 0.031314 -0.001247 -190007.000000 0 0 1
18.915808 -8.832905 25.566933 33.007516 -0.436867 0.684747 0.018874 0.004575 536446.000000 0 0 1
18.196508 -10.010105 26.000723 33.276910 -0.502929 0.673979 0.022524 0.007659 799960.000000 0 0 1
19.046008 -10.807005 26.845753 34.644426 -0.516116 0.684249 0.023984 0.006210 113298.000000 0 0 1
18.263508 -11.784205 27.762803 35.258991 -0.573016 0.664222 0.022991 0.006088 -155711.000000 0 0 1
17.560608 -12.656005 26.928123 34.549577 -0.624487 0.677080 0.021464 0.006002 783.988000 0 0 1
16.805508 -13.690805 27.554193 35.058477 -0.683617 0.666566 0.017520 0.010113 82012.300000 0 0 1
17.620008 -14.719505 28.417373 36.533213 -0.695948 0.679558 0.018239 0.013303 -18242.900000 0 0 1
16.783408 -15.519505 29.257833 37.128946 -0.746292 0.663233 0.013130 0.010897 241037.000000 0 0 1
17.384408 -16.623205 29.901853 38.375375 -0.763019 0.677418 0.030668 0.004118 -233830.000000 0 0 1
17.850808 -17.879405 29.037613 38.490356 -0.786199 0.716037 0.029371 0.006194 -502467.000000 0 0 1
18.922708 -17.683805 28.195963 38.285744 -0.751567 0.742972 0.024146 0.006447 -267000.000000 0 0 1
19.159408 -18.851205 27.473483 38.434921 -0.777290 0.774451 0.017824 0.007284 -408795.000000 0 0 1
20.087408 -18.579405 26.290313 37.945736 -0.746418 0.805377 0.015407 0.003195 -451019.000000 0 0 1
21.390408 -18.233305 26.693893 38.762958 -0.705889 0.811179 0.019781 0.000489 -447808.000000 0 0 1
22.096308 -17.556805 25.695463 38.167330 -0.671414 0.832225 0.024980 0.005267 -844924.000000 0 0 1
23.533908 -17.430005 26.166413 39.272524 -0.637480 0.841590 0.028593 0.006248 -550263.000000 0 0 1
24.316208 -18.614505 26.060623 40.211116 -0.653359 0.865716 0.040771 -0.009988 -206406.000000 0 0 1
25.677808 -18.403405 26.307123 41.110825 -0.621849 0.876418 0.034158 -0.001619 -61471.700000 0 0 1
26.446708 -19.770405 26.501123 42.339188 -0.641935 0.894480 0.024108 -0.005589 52436.300000 0 0 1
26.172708 -20.468605 27.703933 43.260633 -0.663705 0.875783 0.025200 0.001594 -222791.000000 0 0 1
26.891308 -21.675005 27.844093 44.364872 -0.678403 0.892309 0.031904 -0.012253 -37724.500000 0 0 1
26.330008 -22.748005 28.852573 45.201903 -0.712541 0.878503 0.031792 -0.010134 1915.660000 0 0 1
26.366608 -22.375605 30.225623 45.928793 -0.703701 0.852507 0.025992 -0.008297 34126.200000 0 0 1
25.819408 -23.463805 30.951333 46.638793 -0.737637 0.845123 0.036148 -0.010835 -336048.000000 0 0 1
25.475108 -23.186405 32.433563 47.313070 -0.738400 0.815493 0.027608 -0.004252 -214681.000000 0 0 1
24.900808 -24.280005 33.029313 47.963574 -0.772776 0.811194 0.024460 -0.008108 -195323.000000 0 0 1
24.826208 -24.210105 -34.160860 48.676834 -0.772835 2.348702 0.029391 -0.008405 -501384.000000 0 0 1
24.245508 -25.509675 -33.594321 48.653536 -0.810800 2.332950 0.020870 -0.007235 398667.000000 0 0 1
22.883808 -25.863965 -33.765271 48.298104 -0.846456 2.344936 0.020330 -0.009723 106959.000000 0 0 1
22.585408 -26.294725 33.543418 48.235611 -0.861139 0.801809 0.030293 -0.011645 131720.000000 0 0 1
21.300208 -27.183165 33.542236 48.142548 -0.906148 0.799971 0.033409 -0.014931 620669.000000 0 0 1
21.593408 -28.529395 33.950201 49.323603 -0.922905 0.811632 0.022564 -0.004229 153137.000000 0 0 1
20.431708 -29.300305 33.817092 49.189006 -0.961871 0.812765 0.027272 -0.005994 -261053.000000 0 0 1
20.721908 -30.778095 34.102657 50.395237 -0.978237 0.827520 0.015398 -0.007335 -336255.000000 0 0 1
21.327508 -31.075805 -33.317581 50.305362 -0.969320 2.294690 0.008351 -0.005567 69047.900000 0 0 1
21.620308 -32.441975 -33.186601 51.198339 -0.982958 2.276010 -0.031608 0.003603 -5599.620000 0 0 1
22.292508 -32.665715 -31.808981 50.752499 -0.971951 2.248168 -0.017928 0.007268 -472606.000000 0 0 1
22.793908 -34.017345 -31.619941 51.735507 -0.980443 2.228353 -0.034156 0.006444 260050.000000 0 0 1
23.588308 -34.237282 -30.498311 51.563036 -0.967514 2.203685 -0.015359 0.008514 1341290.000000 0 0 1
25.042808 -33.549615 -30.471621 51.780678 -0.929577 2.199967 -0.006591 0.006839 919342.000000 0 0 1
25.741708 -33.792925 -29.270231 51.588213 -0.919819 2.174120 0.016435 0.006356 -354735.000000 0 0 1
26.674908 -32.795945 -28.949731 51.236819 -0.887962 2.171252 0.020107 0.005360 -118910.000000 0 0 1
27.212808 -32.927295 -27.474491 50.789677 -0.880133 2.142358 0.021261 0.003458 -268597.000000 0 0 1
28.154008 -33.897845 -27.263021 51.816835 -0.877700 2.124854 0.031158 0.008991 -709596.000000 0 0 1
28.799008 -33.838915 -25.996581 51.480844 -0.865686 2.100150 0.028501 0.006458 489398.000000 0 0 1
-26.086242 -31.226126 9.717179 41.832840 0.874841 1.336369 0.048678 -0.013189 -118306.000000 0 0 1
-25.020892 -32.077426 9.370879 41.747092 0.908360 1.344399 0.042859 -0.016174 167398.000000 0 0 1
-24.281392 -32.615526 10.488779 41.992535 0.930842 1.318346 0.039460 -0.010957 -41399.800000 0 0 1
-24.949892 -33.747726 11.315479 43.467760 0.934175 1.307444 0.020233 -0.006045 -152737.000000 0 0 1
-25.249542 33.812695 10.543579 43.497181 -0.929380 1.325961 0.022995 -0.001123 71316.400000 0 0 1
-25.694042 32.741195 11.347379 43.138528 -0.905416 1.304619 0.013000 0.000211 48486.800000 0 0 1
-25.665042 31.358995 10.773879 41.930387 -0.884920 1.310935 0.010272 -0.000293 639333.000000 0 0 1
-26.636532 31.277395 9.712379 42.215051 -0.865361 1.338648 0.023552 -0.005750 482263.000000 0 0 1
-26.495902 30.011095 9.067279 41.047706 -0.847526 1.348063 0.033698 -0.009537 162641.000000 0 0 1
-25.522092 29.994195 7.858379 40.159470 -0.865779 1.373846 0.022697 -0.003563 1178860.000000 0 0 1
-24.095192 29.933495 8.017879 39.254029 -0.893040 1.365092 0.016189 -0.003227 1057350.000000 0 0 1
-23.473092 29.872395 6.728779 38.582671 -0.904787 1.395501 0.003470 -0.003930 -215168.000000 0 0 1
-22.220492 28.990395 6.649779 37.126982 -0.916833 1.390716 0.045343 -0.003912 -729685.000000 0 0 1
-22.226292 27.594295 6.907579 36.099415 -0.892731 1.378260 0.034431 -0.007942 -21012.600000 0 0 1
-22.916292 26.830295 5.929379 35.779585 -0.863915 1.404309 0.036429 -0.010147 -297773.000000 0 0 1
-23.283592 25.355795 6.220479 34.981943 -0.827976 1.392026 0.045515 -0.004412 -606478.000000 0 0 1
-24.378192 25.232595 7.098479 35.796208 -0.802619 1.371171 0.049704 -0.013487 259219.000000 0 0 1
-24.755592 23.886995 7.360079 35.179520 -0.767543 1.360024 0.056576 -0.019267 -145656.000000 0 0 1
-25.303902 22.959595 6.177179 34.721578 -0.736863 1.391938 0.044526 -0.029177 -491443.000000 0 0 1
-26.619412 23.377395 5.900379 35.915319 -0.720644 1.405762 0.049567 -0.031782 -177807.000000 0 0 1
-27.119892 22.943595 4.640479 35.825007 -0.702171 1.440899 0.054376 -0.029647 107267.000000 0 0 1
-26.596712 23.759695 3.436179 35.828976 -0.729119 1.474744 0.041113 -0.029790 35910.800000 0 0 1
-25.194072 23.810495 3.211179 34.813684 -0.757172 1.478426 0.035017 -0.028456 413581.000000 0 0 1
-24.874792 24.459695 2.019279 34.944376 -0.776984 1.512979 0.042109 -0.036061 918445.000000 0 0 1
-23.442392 25.133995 2.021979 34.428939 -0.820208 1.512033 0.049010 -0.028156 895092.000000 0 0 1
-23.083792 25.750095 0.833979 34.592258 -0.839943 1.546685 0.049945 -0.033271 -102779.000000 0 0 1
-21.844092 26.407995 1.027279 34.287050 -0.879702 1.540831 0.048057 -0.035657 -563122.000000 0 0 1
-21.345292 27.192195 -0.233521 34.570095 -0.905282 1.577551 0.050508 -0.036162 173564.000000 0 0 1
-20.904892 26.380495 -1.298221 33.684275 -0.900684 1.609347 0.053448 -0.033908 -428863.000000 0 0 1
-19.739092 25.642995 -1.099521 32.379065 -0.914765 1.604761 0.055806 -0.041784 -674487.000000 0 0 1
-19.296992 24.764595 -2.241821 31.475146 -0.908857 1.642082 0.060359 -0.040555 -25421.700000 0 0 1
-20.300292 23.798395 -2.495321 31.379803 -0.864557 1.650400 0.061014 -0.039890 -95791.100000 0 0 1
-19.958592 22.876595 -3.470521 30.556971 -0.853415 1.684617 0.058483 -0.034403 -468999.000000 0 0 1
-21.063592 21.968195 -4.028221 30.700212 -0.806417 1.702387 0.051408 -0.024327 -69807.800000 0 0 1
-21.729292 22.544295 -5.140621 31.730637 -0.803804 1.733522 0.047995 -0.020799 -434031.000000 0 0 1
-23.010392 22.026295 -5.341621 32.298122 -0.763551 1.736945 0.057787 -0.021688 -342093.000000 0 0 1
-23.601392 22.622595 -6.639521 33.360017 -0.764226 1.771161 0.052522 -0.008465 -116548.000000 0 0 1
-23.033692 22.173295 -7.857221 32.923272 -0.766368 1.811774 0.046364 -0.009543 283374.000000 0 0 1
-21.869592 22.848095 -8.320621 32.703933 -0.807276 1.828047 0.040493 -0.019479 302570.000000 0 0 1
-21.221592 22.103495 -9.568521 32.101044 -0.805751 1.873472 0.035686 -0.021580 39567.300000 0 0 1
-22.067392 22.031995 -10.702221 32.968411 -0.784595 1.901407 0.038288 -0.007177 -126978.000000 0 0 1
-21.364192 21.505095 -11.749321 32.510680 -0.788685 1.940564 0.025190 0.001064 -442976.000000 0 0 1
-22.184192 21.294395 -13.013921 33.390893 -0.764936 1.971151 0.019546 0.002254 -41462.900000 0 0 1
-23.060892 20.178595 -13.007921 33.289434 -0.718838 1.972245 0.019565 -0.003425 421097.000000 0 0 1
-23.731792 20.069095 -14.275521 34.201710 -0.701971 2.001370 0.023610 -0.002288 644129.000000 0 0 1
-24.784192 18.915995 -14.415421 34.349314 -0.651914 2.003879 0.036893 -0.011941 823121.000000 0 0 1
-24.258492 17.865095 -15.297821 33.788450 -0.634771 2.040647 0.028174 -0.009438 1153150.000000 0 0 1
-25.309872 16.890595 -15.543821 34.168584 -0.588477 2.043074 0.057057 -0.013244 723403.000000 0 0 1
-25.249172 16.124795 -16.857621 34.375995 -0.568338 2.083333 0.062018 -0.011861 632616.000000 0 0 1
-24.215092 15.116795 -16.770421 33.107932 -0.558075 2.101961 0.064339 -0.008780 777344.000000 0 0 1
-23.824692 14.486995 -18.008521 33.193309 -0.546330 2.144248 0.061672 -0.016149 -38852.700000 0 0 1
-23.023692 13.206695 -17.881721 32.004111 -0.520791 2.163652 0.056412 -0.018481 373191.000000 0 0 1
-21.709292 13.319895 -17.344221 30.814525 -0.550329 2.168637 0.057238 -0.023611 300189.000000 0 0 1
-21.101792 12.093795 -17.060621 29.708757 -0.520418 2.182499 0.067391 -0.021645 385410.000000 0 0 1
-19.794992 12.092795 -16.219321 28.304483 -0.548397 2.180995 0.061699 -0.020806 37004.200000 0 0 1
-18.680892 12.768995 -16.707921 28.127879 -0.599588 2.206817 0.047514 -0.011908 -261055.000000 0 0 1
-17.742192 12.984795 -15.684321 27.007187 -0.631790 2.190441 0.049601 -0.009278 -265795.000000 0 0 1
-16.933492 14.278595 -15.815821 27.216936 -0.700543 2.190879 0.042173 -0.005027 -163837.000000 0 0 1
-16.018192 14.168795 -16.885321 27.247959 -0.724210 2.239146 0.060043 -0.015565 2433.810000 0 0 1
-15.508592 15.382795 -17.347021 27.893833 -0.781326 2.241956 0.042144 -0.005809 -279967.000000 0 0 1
-14.784392 15.316495 -18.692921 28.330170 -0.803074 2.291381 0.038292 -0.001986 431612.000000 0 0 1
-13.662892 14.439295 -18.610021 27.230511 -0.813019 2.323241 0.036553 0.000360 -146392.000000 0 0 1
-12.824492 14.490895 -19.718521 27.627408 -0.846329 2.365606 0.053549 -0.003566 -12798.700000 0 0 1
-11.767492 13.362995 -19.698321 26.553104 -0.848802 2.406616 0.044362 -0.002081 -209684.000000 0 0 1
-12.231592 12.105595 -19.994921 26.380942 -0.780221 2.430931 0.052402 -0.006092 131847.000000 0 0 1
-11.175492 11.142795 -20.077921 25.537744 -0.783933 2.475441 0.044818 0.006423 338531.000000 0 0 1
-11.565492 9.911295 -20.975021 25.921918 -0.708527 2.513520 0.047409 -0.000581 -41747.300000 0 0 1
-11.274292 10.010195 -22.348121 26.958341 -0.726077 2.548091 0.043528 -0.003061 -119447.000000 0 0 1
-11.560092 8.887095 -23.121721 27.335511 -0.655408 2.578952 0.040318 0.008392 -79263.400000 0 0 1
-11.152592 9.107795 -24.583021 28.489597 -0.684813 2.611731 0.037049 -0.005073 214372.000000 0 0 1
-9.741192 9.071695 -24.748421 28.101082 -0.749826 2.648119 0.031697 -0.002059 33756.000000 0 0 1
-9.413092 8.269295 -25.907511 28.778232 -0.720802 2.691132 0.009800 -0.006207 -224339.000000 0 0 1
-9.193592 8.942495 -27.304311 30.166467 -0.771554 2.702461 0.033950 -0.009567 -100046.000000 0 0 1
-7.991392 9.650195 -27.538851 30.255196 -0.879150 2.714609 0.033171 -0.013926 132143.000000 0 0 1
-7.961492 10.909995 -26.826721 30.034751 -0.940386 2.675185 0.020343 -0.005673 114616.000000 0 0 1
-6.521192 11.485895 -26.903521 29.970838 -1.054423 2.685219 0.025049 -0.003588 333418.000000 0 0 1
-6.109092 11.944395 -28.191701 31.221171 -1.098022 2.697422 0.018704 -0.010387 -1014890.000000 0 0 1
-4.781192 12.286395 -28.176831 31.108665 -1.199682 2.703954 0.039825 -0.020694 -1313900.000000 0 0 1
-4.216892 12.762595 -29.512831 32.429511 -1.251679 2.714227 0.044829 -0.021438 353229.000000 0 0 1
-2.825892 13.060995 -29.366151 32.263695 -1.357720 2.714543 0.060135 -0.037266 719603.000000 0 0 1
-2.083892 12.899495 -30.576691 33.251670 -1.410632 2.737739 0.060620 -0.034691 1310680.000000 0 0 1
-0.514192 12.888395 -30.471451 33.089038 -1.530922 2.741161 0.072104 -0.039663 788864.000000 0 0 1
-0.019592 11.696395 -29.870511 32.078863 -1.569121 2.768374 0.057329 -0.027515 1140010.000000 0 0 1
1.404008 11.492695 -30.042881 32.196707 1.449233 2.773747 0.069324 -0.029952 1246650.000000 0 0 1
1.896208 10.893995 -31.385171 33.276172 1.398463 2.802848 0.074872 -0.021825 -434748.000000 0 0 1
1.845808 11.787695 -32.487091 34.608782 1.415470 2.789622 0.081489 -0.036045 96878.800000 0 0 1
1.883808 11.029595 -33.689531 35.499087 1.401633 2.820925 0.081962 -0.030442 -74595.600000 0 0 1
2.049208 11.916695 33.657745 35.763818 1.400501 0.344893 0.086878 -0.033906 -1309010.000000 0 0 1
3.254708 12.617595 33.560407 36.001358 1.318349 0.370356 0.082504 -0.028918 -546017.000000 0 0 1
3.325708 13.400095 32.383393 35.203793 1.327526 0.403013 0.074774 -0.020296 117156.000000 0 0 1
4.812108 13.602995 32.027173 35.127449 1.230781 0.423291 0.070372 -0.016020 406300.000000 0 0 1
5.488408 12.394095 31.581153 34.367215 1.153926 0.405431 0.061307 -0.017452 1170360.000000 0 0 1
6.887208 12.554495 31.268703 34.391580 1.069040 0.429446 0.060551 -0.008241 1158440.000000 0 0 1
7.550208 11.216795 30.793363 33.631137 0.978342 0.413747 0.047501 -0.002218 27574.800000 0 0 1
7.133808 10.775295 29.530523 32.234299 0.985995 0.412501 0.039849 -0.009346 -70242.700000 0 0 1
8.066908 9.905595 28.937253 31.631637 0.887349 0.415734 0.037221 -0.009672 211679.000000 0 0 1
7.356708 9.032295 27.867513 30.204334 0.887283 0.395944 0.018513 -0.004168 282814.000000 0 0 1
6.523908 8.048895 28.452463 30.280171 0.889665 0.349219 0.023105 -0.009088 -160363.000000 0 0 1
6.167608 7.007495 27.572743 29.110145 0.849060 0.326450 0.025786 -0.002913 -719257.000000 0 0 1
5.271008 6.024395 28.289373 29.400094 0.851998 0.275753 0.045363 -0.012829 -532378.000000 0 0 1
5.996408 5.108195 29.068863 30.117261 0.705582 0.264629 0.030566 -0.011045 -503969.000000 0 0 1
5.204308 4.326795 29.867893 30.625105 0.693589 0.222835 0.034614 -0.017096 -617333.000000 0 0 1
5.999408 3.191395 30.705363 31.448327 0.488881 0.217800 0.038647 -0.014675 531803.000000 0 0 1
6.165108 1.992095 29.942033 30.634986 0.312534 0.213098 0.042452 -0.008825 24838.400000 0 0 1
7.275008 2.034395 29.064033 30.029694 0.272676 0.254286 0.043832 -0.010454 -392423.000000 0 0 1
7.392008 0.723695 28.231103 29.191792 0.097591 0.257261 0.038831 -0.018492 -149080.000000 0 0 1
7.715008 -0.445105 28.972133 29.985063 -0.057630 0.260665 0.019629 -0.010982 -66465.300000 0 0 1
7.775808 -1.558205 28.160023 29.255395 -0.197772 0.274509 0.040411 -0.007519 -46475.200000 0 0 1
8.418908 -2.827805 28.771403 30.110931 -0.324047 0.299400 0.026901 -0.002901 -154234.000000 0 0 1
9.799508 -2.716605 28.977173 30.709720 -0.270428 0.337507 0.018531 -0.004300 -610102.000000 0 0 1
10.535808 -3.900605 28.774143 30.889631 -0.354577 0.372241 0.020583 -0.003152 408738.000000 0 0 1
12.062508 -3.612605 28.986233 31.603113 -0.290989 0.409813 0.012853 0.004965 752958.000000 0 0 1
13.001208 -4.633705 28.706513 31.852261 -0.342370 0.448175 0.014898 0.005096 212483.000000 0 0 1
13.087308 -5.744905 29.586683 32.858080 -0.413642 0.450020 0.033905 0.004601 -391337.000000 0 0 1
12.363708 -7.053105 29.111143 32.404726 -0.518422 0.454772 0.034790 0.007110 -792481.000000 0 0 1
10.991708 -6.950505 28.953293 31.739886 -0.563861 0.422162 0.042754 0.010445 -1307580.000000 0 0 1
10.376508 -8.165405 28.938813 31.808815 -0.666710 0.428058 0.055812 0.006490 -1117540.000000 0 0 1
8.894408 -8.023605 28.797363 31.189371 -0.733972 0.394193 0.065844 0.001357 -722701.000000 0 0 1
8.048708 -7.488805 29.814863 31.777193 -0.749378 0.353268 0.069581 -0.001722 833569.000000 0 0 1
6.654708 -7.625505 29.555383 31.240265 -0.853276 0.329924 0.055738 0.005387 430452.000000 0 0 1
5.735008 -6.964805 30.590953 31.893656 -0.881933 0.286797 0.041473 0.002728 -152642.000000 0 0 1
5.706408 -7.657505 31.871893 33.271881 -0.930371 0.291121 0.031558 -0.000013 120786.000000 0 0 1
5.011408 -6.904905 32.876928 33.965929 -0.942980 0.253907 0.027085 -0.005528 171260.000000 0 0 1
5.644408 -5.583205 33.434442 34.364131 -0.779947 0.233139 0.032493 -0.003084 16523.700000 0 0 1
5.747508 -4.593005 32.462983 33.286256 -0.674210 0.222871 0.042830 -0.005276 -423110.000000 0 0 1
6.441308 -3.531505 32.967813 33.776304 -0.501506 0.219238 0.029337 -0.000806 -625806.000000 0 0 1
6.298208 -2.281405 32.018713 32.711928 -0.347529 0.206237 0.024296 0.001294 -245673.000000 0 0 1
4.980208 -1.820305 31.867263 32.305394 -0.350423 0.164881 0.032881 -0.002795 -404010.000000 0 0 1
5.001708 -0.452505 31.418773 31.817624 -0.090225 0.158504 0.031453 -0.012131 73800.200000 0 0 1
3.607308 0.198095 31.271203 31.479201 0.054860 0.115019 0.035502 -0.013847 117986.000000 0 0 1
2.974408 0.428595 32.514403 32.652982 0.143109 0.092163 0.036356 -0.020450 -878412.000000 0 0 1
1.649508 0.811295 32.301173 32.353437 0.457099 0.056848 0.047507 -0.023383 -447012.000000 0 0 1
0.948908 0.970895 33.672673 33.700030 0.796850 0.040296 0.046778 -0.021896 -368507.000000 0 0 1
1.329308 2.122095 -34.264035 34.355413 1.011181 3.068641 0.041278 -0.011135 -405163.000000 0 0 1
0.685108 2.331095 -33.058431 33.147597 1.284945 3.068228 0.031447 -0.005305 -471899.000000 0 0 1
1.165508 3.480295 -32.108121 32.317213 1.247647 3.027777 0.031517 0.005112 565612.000000 0 0 1
2.335008 3.028295 -31.407651 31.639585 0.913950 3.020436 0.020349 0.010614 354959.000000 0 0 1
2.995908 4.028195 -30.666191 31.074379 0.931317 2.979329 0.017382 0.010044 623581.000000 0 0 1
4.199808 3.451795 -29.836891 30.328094 0.687949 2.961369 0.012482 0.010034 306343.000000 0 0 1
3.815708 2.789695 -28.657531 29.044726 0.631300 2.978126 0.017079 -0.006233 587923.000000 0 0 1
4.954808 2.255795 -27.968061 28.493002 0.427231 2.949341 0.016351 -0.008597 268754.000000 0 0 1
4.567108 1.552195 -26.594161 27.028081 0.327616 2.962163 0.021761 -0.010454 -200967.000000 0 0 1
3.694608 0.481695 -26.723071 26.981561 0.129646 3.003060 0.027324 -0.012515 -89506.600000 0 0 1
3.368608 -0.042605 -25.458751 25.680680 -0.012647 3.010030 0.038441 -0.013250 -733819.000000 0 0 1
3.798308 -1.545505 -25.263551 25.594193 -0.386435 2.980679 0.048536 -0.024503 115370.000000 0 0 1
5.162608 -1.701705 -24.937121 25.522702 -0.318406 2.926968 0.045371 -0.026034 -169968.000000 0 0 1
5.656308 -2.991005 -25.251781 26.049805 -0.486414 2.893430 0.055454 -0.025242 -351742.000000 0 0 1
7.034408 -3.130005 -24.577521 25.755278 -0.418652 2.838009 0.057834 -0.027300 -335111.000000 0 0 1
8.021708 -2.855205 -25.528871 26.911396 -0.341952 2.819663 0.046971 -0.022084 -412211.000000 0 0 1
9.270308 -3.378105 -25.062621 26.934832 -0.349446 2.766547 0.035698 -0.013351 377779.000000 0 0 1
-29.514842 -4.498205 17.821283 34.770072 0.151241 1.032648 0.061077 0.004903 493299.000000 0 0 1
-30.930982 -4.487305 17.949583 36.042324 0.144070 1.049489 0.042526 0.008025 151541.000000 0 0 1
-31.392642 -5.459505 18.840083 37.016927 0.172188 1.036822 0.034583 -0.003619 -430328.000000 0 0 1
-32.860702 -5.355605 19.208483 38.437925 0.161559 1.047512 0.040883 0.002676 -275972.000000 0 0 1
-33.815762 -5.474805 18.164783 38.774200 0.160508 1.083231 0.041263 0.007402 -506442.000000 0 0 1
-35.101752 -5.297905 18.627083 40.089513 0.149799 1.087571 0.034732 0.000483 -582227.000000 0 0 1
35.740585 -5.079005 17.485883 40.111617 -0.141162 1.119724 0.031021 -0.000469 1512160.000000 0 0 1
34.361675 -5.018205 17.901383 39.068742 -0.145016 1.094825 0.018919 -0.000954 825983.000000 0 0 1
33.434605 -4.813105 16.883783 37.763752 -0.142974 1.107287 0.037878 -0.006815 -425296.000000 0 0 1
31.990665 -5.237905 17.130783 36.664725 -0.162292 1.084643 0.048591 -0.003092 -750896.000000 0 0 1
31.461875 -4.457605 18.123483 36.581149 -0.140746 1.052464 0.050890 -0.011765 -194109.000000 0 0 1
30.342215 -5.131505 18.646983 35.981834 -0.167536 1.026012 0.058380 -0.020405 -169757.000000 0 0 1
29.634785 -4.474505 19.849483 35.947791 -0.149856 0.985825 0.058322 -0.014623 337987.000000 0 0 1
28.678195 -3.461905 19.582883 34.898610 -0.120134 0.975038 0.065658 -0.015494 553655.000000 0 0 1
29.336885 -2.198505 19.415983 35.248641 -0.074800 0.987439 0.067879 -0.015877 35372.900000 0 0 1
28.403415 -1.003005 19.635283 34.544238 -0.035298 0.966225 0.041547 -0.009438 -538121.000000 0 0 1
28.995675 0.247295 19.442583 34.911665 0.008528 0.980138 0.054744 -0.010381 155665.000000 0 0 1
28.050055 1.243595 19.795983 34.354520 0.044306 0.956692 0.049927 -0.003432 415284.000000 0 0 1
28.402795 2.650895 19.236683 34.406337 0.093063 0.977493 0.051516 -0.000954 216120.000000 0 0 1
28.608745 2.556395 17.793683 33.787729 0.089120 1.016163 0.045484 -0.004845 189875.000000 0 0 1
28.377595 3.822195 17.225883 33.415986 0.133885 1.029207 0.046560 0.003637 90597.000000 0 0 1
28.213815 3.749895 15.707283 32.508458 0.132135 1.066518 0.049041 0.003834 -112445.000000 0 0 1
27.847705 5.008095 15.172383 32.105715 0.177937 1.078585 0.038907 0.005808 357979.000000 0 0 1
27.297285 4.831495 13.851983 30.989717 0.175181 1.107403 0.032062 0.006015 116653.000000 0 0 1
26.781515 6.158195 13.206483 30.489082 0.226013 1.122807 0.043926 0.008102 392941.000000 0 0 1
25.817315 6.843495 14.019983 30.164998 0.259115 1.087414 0.044621 0.008412 341443.000000 0 0 1
25.281915 7.962295 13.322383 29.665793 0.305107 1.105058 0.052462 -0.010954 -191291.000000 0 0 1
24.107815 8.606895 14.134083 29.241028 0.342912 1.066302 0.058796 -0.012088 445339.000000 0 0 1
22.791515 8.115495 14.022583 27.963320 0.342077 1.045507 0.070093 -0.006882 610043.000000 0 0 1
22.611715 6.736495 14.446483 27.665338 0.289548 1.021383 0.081894 -0.011150 -242238.000000 0 0 1
21.220315 6.109395 14.073983 26.185941 0.280322 1.003370 0.091437 -0.008885 415748.000000 0 0 1
21.125815 5.865895 12.650083 25.312712 0.270842 1.047484 0.103178 -0.013367 1040890.000000 0 0 1
20.106015 4.873095 12.402383 24.120904 0.237785 1.030750 0.096867 -0.011976 430388.000000 0 1 0
19.774715 4.784995 10.842783 23.054316 0.237412 1.081149 0.105497 -0.016443 402260.000000 0 1 0
20.886115 4.239495 10.133883 23.598701 0.200261 1.126940 0.117578 -0.021058 883547.000000 0 1 0
20.495115 3.985195 8.803083 22.658901 0.192050 1.171788 0.123284 -0.023006 -727992.000000 0 1 0
21.477215 3.183995 8.054183 23.157687 0.147178 1.215576 0.108135 -0.020060 -1577620.000000 0 1 0
21.735915 1.880195 8.472383 23.404410 0.086287 1.200384 0.107864 -0.020402 1151920.000000 0 1 0
22.716115 1.242295 7.609683 23.989007 0.054633 1.248004 0.107702 -0.015354 859826.000000 0 1 0
24.228315 1.654395 7.576183 25.439081 0.068178 1.268392 0.098920 -0.016507 58791.000000 0 0 1
24.919815 1.189895 8.713483 26.426082 0.047713 1.234778 0.073558 0.000103 283296.000000 0 0 1
24.734115 1.988695 9.903583 26.717266 0.080230 1.191054 0.074234 0.001858 -715603.000000 0 0 1
25.267815 1.329595 11.202983 27.671956 0.052572 1.153982 0.059065 0.007053 370838.000000 0 0 1
26.692815 1.342295 11.194083 28.976122 0.050244 1.174157 0.055348 0.008031 416659.000000 0 0 1
27.171985 0.557395 12.282583 29.824307 0.020511 1.146334 0.056074 -0.003652 -348389.000000 0 0 1
28.699565 0.410195 12.273983 31.216726 0.014292 1.166702 0.071068 -0.002663 -26721.000000 0 0 1
29.355315 1.658195 12.600283 31.988299 0.056427 1.165922 0.056074 0.004946 68829.900000 0 0 1
30.750765 1.481295 12.577783 33.256645 0.048134 1.182941 0.064899 0.000676 -36093.500000 0 0 1
31.553845 2.753795 12.951883 34.219582 0.087052 1.182628 0.056465 -0.000915 -342725.000000 0 0 1
31.581455 3.793495 11.998783 33.996319 0.119545 1.210081 0.066863 -0.008258 103958.000000 0 0 1
32.386525 4.917295 12.249783 34.973190 0.150681 1.212945 0.057272 -0.012411 -162227.000000 0 0 1
33.847755 4.782795 11.779183 36.156532 0.140374 1.238957 0.054856 -0.004741 -463778.000000 0 0 1
34.591635 3.910795 12.583583 37.016511 0.112578 1.223938 0.052380 -0.007191 14014.500000 0 0 1
35.895294 3.834095 12.051383 38.057959 0.106410 1.248592 0.054711 0.000491 179988.000000 0 0 1
-34.961555 2.916095 12.789983 37.341634 -0.083216 1.221206 0.064000 0.006490 -229890.000000 0 0 1
-34.806734 1.514395 12.595483 37.046570 -0.043481 1.223889 0.059305 0.008231 292467.000000 0 0 1
-35.923424 0.670295 12.877983 38.167842 -0.018657 1.226638 0.062877 0.003161 252635.000000 0 0 1
35.464345 0.591095 14.360183 38.265964 0.016666 1.186105 0.072455 0.010574 -53478.100000 0 0 1
-35.684869 -0.363105 15.143383 38.766787 0.010175 1.169483 0.056933 0.012628 295266.000000 0 0 1
35.941997 -0.371705 16.517183 39.557334 -0.010341 1.140048 0.065039 0.010425 -241058.000000 0 0 1
-34.937681 -1.203105 17.359683 39.031367 0.034422 1.109887 0.053847 0.012195 -247638.000000 0 0 1
-33.672682 -0.556505 17.327783 37.873622 0.016525 1.095597 0.049189 0.008950 -302121.000000 0 0 1
-32.735212 -1.298305 18.052483 37.405506 0.039640 1.067158 0.044051 0.009372 -259818.000000 0 0 1
-32.752432 -1.220605 19.617383 38.197558 0.037250 1.031448 0.036576 0.003546 -541937.000000 0 0 1
-33.756782 -1.967505 20.257083 39.417519 0.058219 1.031059 0.047769 -0.010937 38574.400000 0 0 1
-33.619312 -1.765705 21.636083 40.018695 0.052472 0.999587 0.035436 -0.009178 -54098.400000 0 0 1
-34.322954 -2.860205 22.420483 41.096521 0.083140 0.993743 0.040374 -0.002327 -94369.300000 0 0 1
-33.732682 -4.141905 22.235583 40.613672 0.122175 0.991434 0.038961 -0.008819 251165.000000 0 0 1
-34.298405 -5.226505 23.043983 41.649995 0.151220 0.984503 0.032861 -0.015462 163338.000000 0 0 1
-34.383520 -5.102005 24.563773 42.563316 0.147310 0.955609 0.024713 -0.016149 -631592.000000 0 0 1
-33.137482 -5.022405 25.143883 41.899071 0.150418 0.927163 0.025343 -0.017495 -1209970.000000 0 0 1
-33.253062 -4.617605 26.465363 42.749314 0.137980 0.903222 0.032641 -0.019398 7686.630000 0 0 1
-31.998592 -3.919605 27.055213 42.086313 0.121886 0.872582 0.032070 -0.021412 -185758.000000 0 0 1
-31.814012 -2.547305 26.786463 41.666950 0.079898 0.872556 0.021982 -0.011564 -74453.300000 0 0 1
-31.429022 -2.261305 25.447673 40.502852 0.071826 0.891439 0.027143 -0.008935 -567024.000000 0 0 1
-31.351332 -0.760705 25.119873 40.180751 0.024259 0.895445 0.023080 -0.007181 -914506.000000 0 0 1
-32.583402 -0.156205 25.110373 41.136764 0.004794 0.914216 0.034145 -0.014811 -943814.000000 0 0 1
-32.435672 1.155895 24.574073 40.709876 -0.035621 0.922739 0.018334 -0.006202 -640331.000000 0 0 1
-33.716562 1.976095 24.661443 41.819831 -0.058542 0.940100 0.036147 -0.001329 117275.000000 0 0 1
-34.622460 1.518695 23.626163 41.943018 -0.043836 0.972432 0.038484 0.006884 -18601.400000 0 0 1
-35.688155 2.343195 23.241583 42.653325 -0.065563 0.994532 0.041098 0.007858 -44889.400000 0 0 1
-35.340721 3.692295 22.554283 42.086759 -0.104099 1.005223 0.044664 0.015072 -306383.000000 0 0 1
-34.788265 3.573395 21.266283 40.929785 -0.102359 1.024437 0.042039 -0.010032 -607761.000000 0 0 1
-35.692265 3.344795 20.266183 41.180622 -0.093439 1.056262 0.050702 -0.004945 -476136.000000 0 0 1
-34.966553 2.680495 19.064383 39.916107 -0.076509 1.072862 0.056818 -0.002738 198347.000000 0 0 1
-33.942592 3.420495 18.442183 38.780323 -0.100434 1.075201 0.067513 -0.004863 -172034.000000 0 0 1
-33.485712 2.719595 17.357683 37.815053 -0.081039 1.093910 0.073404 0.005981 -404865.000000 0 0 1
-32.562892 3.513895 16.410383 36.633183 -0.107495 1.106308 0.071763 -0.001666 -189531.000000 0 0 1
-33.069722 4.762995 15.936183 37.016950 -0.143045 1.125738 0.071809 -0.012402 352860.000000 0 0 1
-32.249842 5.385695 14.909183 35.935244 -0.165472 1.142974 0.078732 -0.007401 259998.000000 0 0 1
-32.604422 6.872995 14.657983 36.402512 -0.207758 1.156371 0.078994 -0.017006 -166646.000000 0 0 1
-32.034952 7.329695 13.468083 35.515515 -0.224931 1.181846 0.092979 -0.014082 5962.440000 0 0 1
-32.313992 8.709095 13.231483 35.987700 -0.263259 1.194297 0.070512 -0.019689 -359635.000000 0 0 1
-31.525672 9.395595 12.090183 35.047364 -0.289648 1.218593 0.078022 -0.018477 -87765.300000 0 0 1
-31.812802 10.755295 11.860783 35.614729 -0.326017 1.231281 0.063180 -0.009891 -104719.000000 0 0 1
-30.953942 11.241495 10.869783 34.679532 -0.348358 1.251988 0.050470 -0.009603 -323372.000000 0 0 1
-30.882332 12.782595 10.878583 35.149064 -0.392442 1.256131 0.041304 0.001518 123687.000000 0 0 1
-30.284972 13.336695 9.692483 34.481751 -0.414820 1.285866 0.033065 0.001761 200763.000000 0 0 1
-30.304172 14.711495 9.835383 35.092815 -0.451949 1.286723 0.037749 0.002430 -300012.000000 0 0 1
-29.556042 15.318095 8.655983 34.396652 -0.478159 1.316410 0.043614 -0.000500 -1414440.000000 0 0 1
-28.196132 15.266595 8.813783 33.253173 -0.496250 1.302540 0.054767 0.003459 -1463120.000000 0 0 1
-27.583812 16.224595 8.026283 32.992808 -0.531692 1.325057 0.042925 -0.007333 996004.000000 0 0 1
-26.055812 16.477195 8.399783 31.952459 -0.563889 1.304786 0.054172 0.000453 1007810.000000 0 0 1
-25.802172 17.136495 9.633183 32.437783 -0.586258 1.269274 0.049546 0.001690 221235.000000 0 0 1
-26.217362 18.485395 9.681883 33.508189 -0.614129 1.277676 0.052151 -0.007889 -453215.000000 0 0 1
-26.373382 19.027895 11.123483 34.370742 -0.624998 1.241230 0.071931 0.005420 -55566.000000 0 0 1
-25.194402 19.077895 11.907783 33.771575 -0.648111 1.210451 0.065454 0.004951 199801.000000 0 0 1
-25.366272 19.449395 13.296383 34.619655 -0.654130 1.176596 0.070971 -0.006503 -94205.000000 0 0 1
-25.869922 18.305195 14.217683 34.734357 -0.615799 1.149081 0.068787 -0.000248 27832.500000 0 0 1
-24.884892 17.344995 14.507983 33.624221 -0.608716 1.124670 0.072267 -0.004263 -99821.600000 0 0 1
-25.250662 16.604395 15.591583 34.005872 -0.581687 1.094493 0.070511 -0.006195 -866777.000000 0 0 1
-24.205092 15.629795 16.070383 32.991426 -0.573363 1.062021 0.068832 -0.005361 -82474.800000 0 0 1
-23.052592 16.308495 16.602283 32.757057 -0.615707 1.039292 0.065217 -0.008363 1039730.000000 0 0 1
-21.957292 15.453695 16.996583 31.777715 -0.613276 1.006456 0.049681 -0.022331 695972.000000 0 0 1
-22.217292 14.365195 18.135883 32.076115 -0.573965 0.969876 0.044119 -0.007227 -521739.000000 0 0 1
-22.413592 14.963295 19.419883 33.217483 -0.588648 0.946374 0.037099 -0.002269 194198.000000 0 0 1
-22.796392 14.015895 20.413783 33.657738 -0.551252 0.919132 0.016350 0.005223 -458706.000000 0 0 1
-22.313192 14.450495 21.804983 34.382447 -0.574701 0.883837 0.023487 0.001360 -598233.000000 0 0 1
-20.976592 14.449295 22.191883 33.782824 -0.603190 0.854099 0.034248 -0.009290 -612248.000000 0 0 1
-20.356792 15.675595 21.745683 33.660035 -0.656205 0.868413 0.039811 0.003619 -1503830.000000 0 0 1
-18.934592 15.866295 22.241583 33.240730 -0.697458 0.837791 0.059434 -0.016463 -107668.000000 0 0 1
-17.999292 15.041295 21.525283 31.836345 -0.696110 0.828309 0.046262 -0.008770 284542.000000 0 0 1
-17.547892 15.644795 20.290583 31.054724 -0.728126 0.858754 0.044287 -0.017927 -1021380.000000 0 0 1
-16.479192 14.786595 19.523583 29.519103 -0.731315 0.848128 0.048347 -0.009580 1011190.000000 0 0 1
-15.281092 14.442095 20.202683 29.158777 -0.757179 0.805361 0.050728 -0.010057 551254.000000 0 0 1
-14.444292 15.522195 20.619683 29.576130 -0.821353 0.799350 0.043712 -0.020758 -1300740.000000 0 0 1
-13.349392 15.196495 21.593183 29.587249 -0.850015 0.752747 0.016521 -0.011726 -1153420.000000 0 0 1
-12.347092 14.378595 21.108483 28.368340 -0.861265 0.731631 0.022514 -0.019488 -777099.000000 0 0 1
-11.482292 14.030795 22.159983 28.631645 -0.884958 0.685712 0.044774 -0.017230 126177.000000 0 0 1
-10.249692 13.209095 21.714683 27.405544 -0.910889 0.656151 0.047862 -0.018562 -639427.000000 0 0 1
-9.621992 12.501195 22.782983 27.711495 -0.914815 0.605620 0.056695 -0.018824 407965.000000 0 0 1
-8.448492 11.753295 22.468483 26.727321 -0.947551 0.572303 0.055087 -0.010373 756670.000000 0 0 1
-7.186792 12.675095 22.416483 26.735870 -1.054994 0.576378 0.048541 -0.012099 -920971.000000 0 0 1
-7.104492 13.464095 21.242183 26.134001 -1.085265 0.621823 0.041591 -0.014299 234726.000000 0 0 1
-6.260992 14.643295 21.440483 26.708059 -1.166753 0.638867 0.030049 -0.001967 231514.000000 0 0 1
-6.833092 15.733795 22.331983 28.159562 -1.161080 0.654994 0.031496 -0.006954 -10497.000000 0 0 1
-7.955692 16.389095 21.795683 28.406817 -1.118876 0.696224 0.013228 -0.005776 -269630.000000 0 0 1
-7.588492 17.461195 20.923983 28.289426 -1.160829 0.738261 0.019968 0.005729 -1368370.000000 0 0 1
-8.588992 17.472395 19.767983 27.745784 -1.113911 0.777787 0.027210 0.004136 740052.000000 0 0 1
-9.796392 18.199995 19.969583 28.740100 -1.077009 0.802608 0.013802 0.002618 340963.000000 0 0 1
-10.674592 17.685895 20.963683 29.431510 -1.027759 0.778045 0.021934 -0.005677 -430792.000000 0 0 1
-12.000592 18.528295 21.079883 30.523325 -0.996047 0.808456 0.009935 -0.009577 814198.000000 0 0 1
-12.863192 18.363495 19.955883 30.015278 -0.959751 0.843493 0.014531 -0.012770 440742.000000 0 0 1
-14.121492 19.005995 20.191783 31.118362 -0.931789 0.864697 0.000681 -0.010308 161089.000000 0 0 1
-14.978092 19.192795 18.970583 30.864051 -0.908120 0.908854 0.027577 -0.015641 -686361.000000 0 0 1
-15.485892 17.986495 18.497583 30.091318 -0.859966 0.908772 0.042313 -0.019044 -145149.000000 0 0 1
-15.925892 18.243195 17.179183 29.691287 -0.853113 0.953793 0.072609 -0.028967 -1345950.000000 0 0 1
-16.760792 17.093595 16.550483 29.103842 -0.795228 0.965908 0.071183 -0.029494 366874.000000 0 0 1
-18.008892 16.794295 17.142783 30.004059 -0.750513 0.962648 0.065360 -0.027761 204670.000000 0 0 1
-18.991492 17.812195 17.162883 31.185182 -0.753366 0.988008 0.070031 -0.024624 -731479.000000 0 0 1
33.659245 -10.456005 11.992079 37.230133 -0.301192 1.242842 0.056347 -0.008205 -318818.000000 0 0 1
32.330245 -10.764105 11.622679 36.002741 -0.321399 1.242081 0.043597 0.000649 8542.760000 0 0 1
31.782855 -11.592805 12.651579 36.119323 -0.349754 1.212935 0.077389 -0.007694 434464.000000 0 0 1
30.267305 -11.901205 12.367879 34.795300 -0.374633 1.207404 0.051459 0.003113 -130658.000000 0 0 1
29.545345 -10.750505 12.775479 33.936907 -0.348973 1.184837 0.052078 0.001542 477768.000000 0 0 1
28.137185 -10.944605 12.845979 32.810132 -0.370964 1.168508 0.041811 -0.002322 753868.000000 0 0 1
27.539145 -11.894305 13.975379 33.093659 -0.407705 1.134818 0.021647 -0.003136 -929997.000000 0 0 1
27.780505 -11.367105 15.237379 33.662223 -0.388391 1.101056 0.029418 -0.002346 356594.000000 0 0 1
26.978455 -11.912505 16.295579 33.694076 -0.415810 1.065995 0.034633 -0.007932 781270.000000 0 0 1
25.507615 -11.400505 16.346979 32.370259 -0.420311 1.041414 0.046665 -0.018068 165569.000000 0 0 1
25.467315 -10.028705 16.580579 32.001167 -0.375139 1.026140 0.050378 -0.006899 -88338.000000 0 0 1
24.867915 -9.294805 15.496679 30.740099 -0.357689 1.042434 0.056604 -0.012174 41101.400000 0 0 1
24.661115 -7.782805 15.742379 30.274827 -0.305698 1.023966 0.071188 -0.032560 16073.700000 0 0 1
25.844315 -7.015205 15.837279 31.112074 -0.265054 1.036728 0.066130 -0.032052 -50216.500000 0 0 1
25.646015 -5.661505 16.186579 30.850869 -0.217271 1.018467 0.070667 -0.026051 416887.000000 0 0 1
26.996905 -4.881905 16.068979 31.794307 -0.178899 1.040946 0.074019 -0.023754 413622.000000 0 0 1
27.496995 -4.951705 14.750279 31.593906 -0.178172 1.085047 0.082581 -0.023419 450377.000000 0 0 1
28.741715 -4.264905 14.679079 32.553817 -0.147312 1.103004 0.075673 -0.016812 213168.000000 0 0 1
28.817775 -3.443005 13.406579 31.969592 -0.118911 1.138063 0.071906 -0.013409 43038.400000 0 0 1
29.259865 -4.164005 12.212079 31.978329 -0.141362 1.178960 0.055879 -0.004869 541133.000000 0 0 1
29.616745 -3.295005 11.140979 31.813992 -0.110799 1.213021 0.064004 -0.006082 -171599.000000 0 0 1
30.174125 -4.054405 9.967179 32.035304 -0.133567 1.254413 0.084066 0.002444 97167.600000 0 0 1
31.503265 -4.541405 10.042879 33.375732 -0.143170 1.265156 0.070171 -0.000649 320344.000000 0 0 1
31.846935 -5.395905 8.952479 33.518502 -0.167839 1.300424 0.081504 -0.002235 379744.000000 0 0 1
33.191165 -6.160905 9.163379 34.979676 -0.183530 1.305741 0.071054 -0.002019 866924.000000 0 0 1
34.344825 -5.350505 8.939979 35.890363 -0.154546 1.319054 0.075752 -0.003278 1120300.000000 0 0 1
35.487285 -6.122905 8.463979 36.992923 -0.170856 1.339952 0.067640 -0.009325 1507570.000000 0 0 1
-35.208575 -5.196805 8.060579 36.491416 0.146542 1.348070 0.065240 -0.008551 295219.000000 0 0 1
-35.459323 -4.552405 6.829779 36.396894 0.127685 1.382030 0.060344 -0.009829 370646.000000 0 0 1
-34.325074 -3.785205 6.474779 35.134901 0.109831 1.385454 0.053674 -0.008635 45983.000000 0 0 1
-34.511100 -3.105405 5.076079 35.020367 0.089741 1.425337 0.056978 -0.018563 -195011.000000 0 0 1
-34.279785 -3.948105 4.000779 34.737551 0.114668 1.455369 0.059221 -0.020630 170912.000000 0 0 1
-34.286308 -3.242905 2.807879 34.553604 0.094303 1.489445 0.057822 -0.016778 98242.800000 0 0 1
-33.572012 -3.950205 1.603779 33.841634 0.117125 1.523388 0.096994 -0.024602 -25192.100000 0 0 1
-34.281272 -5.094505 1.164979 34.677323 0.147529 1.537195 0.092807 -0.021520 373393.000000 0 0 1
-35.186238 -4.834005 0.098179 35.516877 0.136529 1.568032 0.082072 -0.018362 43089.300000 0 0 1
-34.470754 -4.971705 -1.291221 34.851370 0.143242 1.607854 0.107396 -0.025308 -781551.000000 0 0 1
-34.149389 -6.344705 -1.560021 34.768804 0.183698 1.615680 0.101483 -0.040261 310815.000000 0 0 1
-33.282702 -6.476005 -2.674521 34.012203 0.192174 1.649512 0.105150 -0.039804 -217909.000000 0 0 1
-31.817372 -6.005805 -2.502721 32.475813 0.186564 1.647937 0.108214 -0.041894 -538020.000000 0 0 1
-31.159892 -6.879605 -1.582121 31.949506 0.217298 1.620336 0.120196 -0.042658 19089.400000 0 0 1
-29.990762 -6.288505 -1.030421 30.660282 0.206687 1.604410 0.100848 -0.048284 9768.410000 0 0 1
-29.328472 -7.304905 -0.071921 30.224594 0.244105 1.573176 0.081404 -0.041004 -265742.000000 0 0 1
-28.837492 -8.482205 -0.690721 30.067022 0.286070 1.593771 0.081345 -0.041008 366198.000000 0 0 1
-28.201202 -9.257705 0.281979 29.683201 0.317190 1.561297 0.093648 -0.029449 -213916.000000 0 0 1
-27.716742 -10.637405 -0.260321 29.689054 0.366455 1.579565 0.069700 -0.026624 377011.000000 0 0 1
-26.550872 -10.681505 -1.098021 28.639990 0.382490 1.609144 0.062915 -0.029954 724921.000000 0 0 1
-26.071392 -11.984705 -1.476021 28.732025 0.430881 1.622191 0.043885 -0.013425 -573134.000000 0 0 1
-26.912422 -12.856005 -2.365721 29.919090 0.445647 1.649950 0.057094 -0.016673 -949833.000000 0 0 1
-27.985392 -13.506005 -1.754021 31.123479 0.449638 1.627183 0.074328 -0.025088 -99095.300000 0 0 1
-28.494282 -14.515605 -2.590421 32.083285 0.471157 1.651625 0.071914 -0.023541 -89857.900000 0 0 1
-29.540252 -15.415105 -1.880621 33.373473 0.480962 1.627177 0.090949 -0.017676 -241101.000000 0 0 1
-28.950142 -16.231005 -0.955421 33.203450 0.510986 1.599575 0.072784 -0.011671 -242197.000000 0 0 1
-29.811192 -16.775905 -0.003021 34.207282 0.512571 1.570885 0.077011 -0.005641 -285977.000000 0 0 1
-30.251612 -18.269105 -0.228821 35.340806 0.543286 1.577271 0.071084 -0.008086 402899.000000 0 0 1
-29.210932 -19.247805 -0.036821 34.982251 0.582624 1.571849 0.078765 -0.016772 641198.000000 0 0 1
-29.607792 -20.607205 -0.312521 36.074588 0.608040 1.579460 0.067482 -0.012716 267462.000000 0 0 1
-30.495972 -21.235705 0.839879 37.170753 0.608268 1.548199 0.062734 -0.012665 91928.500000 0 0 1
-29.774022 -21.449005 2.046479 36.752419 0.624282 1.515085 0.053580 -0.017768 98377.500000 0 0 1
-30.631302 -21.882505 3.082979 37.770696 0.620314 1.489082 0.044914 -0.011578 -152164.000000 0 0 1
-29.959682 -22.123305 4.454079 37.508159 0.636059 1.451766 0.027618 -0.004954 -208700.000000 0 0 1
-29.389442 -20.902405 4.942879 36.401674 0.618218 1.434588 0.019873 -0.008685 152734.000000 0 0 1
-28.734332 -21.105705 6.179479 36.184231 0.633515 1.399177 0.007442 -0.006244 42757.500000 0 0 1
-28.078452 -19.782205 6.669079 34.988737 0.613762 1.379016 0.004742 0.004420 598479.000000 0 0 1
-27.096122 -19.971605 7.698079 34.530063 0.635171 1.345969 0.008207 0.007773 -4426.520000 0 0 1
-26.491232 -18.795005 8.142179 33.486306 0.617060 1.325185 0.015495 0.003736 83229.300000 0 0 1
-25.483062 -19.101005 9.253479 33.164163 0.643217 1.288022 0.022344 0.010961 -129766.000000 0 0 1
-26.173762 -19.511605 10.460379 34.281017 0.640592 1.260715 0.013693 0.008060 238658.000000 0 0 1
-25.379302 -19.963405 11.563779 34.298214 0.666518 1.226904 0.022538 0.015556 -566373.000000 0 0 1
-24.916992 -18.782005 12.473879 33.603837 0.645918 1.190491 0.018730 0.013208 -168950.000000 0 0 1
-23.796192 -17.980605 12.117479 32.193077 0.647081 1.184889 0.021032 0.006550 278803.000000 0 0 1
-23.458192 -16.968405 13.097479 31.776682 0.626224 1.145959 0.023937 0.006402 87473.000000 0 0 1
-22.849992 -17.440605 14.458779 32.176904 0.651937 1.104756 0.032298 0.004084 -417722.000000 0 0 1
-23.804092 -17.930105 15.366779 33.530007 0.645569 1.094716 0.017126 0.012661 -188275.000000 0 0 1
-23.213992 -18.382105 16.575879 33.934510 0.669754 1.060465 0.030334 0.015557 -7504.970000 0 0 1
-24.237192 -18.819605 17.637279 35.393398 0.660232 1.049135 0.024551 0.017745 -67667.300000 0 0 1
-24.764592 -17.719405 18.373079 35.564482 0.621062 1.027906 0.031917 0.015548 272019.000000 0 0 1
-25.935022 -18.158105 19.064979 36.956942 0.610819 1.028773 0.020417 0.024128 144240.000000 0 0 1
-26.810412 -17.010405 19.605179 37.316419 0.565380 1.017638 0.018281 0.022878 -350262.000000 0 0 1
-26.190602 -16.382205 20.705279 37.189150 0.558958 0.980321 0.030078 0.011527 141203.000000 0 0 1
-27.039972 -15.388505 21.236179 37.668840 0.517391 0.971865 0.040032 0.001628 -5682.190000 0 0 1
-26.470522 -14.602205 22.429279 37.642868 0.504102 0.932480 0.038647 0.000094 -75997.100000 0 0 1
-25.371602 -13.793305 22.111379 36.371507 0.497956 0.917344 0.034502 0.002228 751411.000000 0 0 1
-24.282292 -13.839105 23.085579 36.250442 0.518013 0.880409 0.036731 -0.006714 511435.000000 0 0 1
-23.008392 -13.255905 22.509679 34.810786 0.522686 0.867639 0.034536 -0.002055 -670609.000000 0 0 1
-23.206092 -11.900005 22.282379 34.302147 0.473832 0.863749 0.054742 -0.006989 -202915.000000 0 0 1
-22.318792 -11.377905 21.359079 32.921049 0.471449 0.864794 0.043632 -0.007884 -1086780.000000 0 0 1
-22.177292 -9.861505 21.516779 32.435372 0.418410 0.845478 0.051397 -0.011994 235735.000000 0 0 1
-21.457892 -9.404405 22.656179 32.591202 0.413059 0.802150 0.043084 -0.009227 474506.000000 0 0 1
-20.095892 -9.773205 22.768679 31.902558 0.452651 0.776038 0.018886 -0.005569 -94264.100000 0 0 1
-19.462092 -9.782805 24.200579 32.559858 0.465773 0.732860 0.013318 -0.002597 261628.000000 0 0 1
-19.736492 -10.966005 24.918379 33.626002 0.507148 0.736171 0.019554 0.000469 2307.630000 0 0 1
-19.183692 -10.899105 26.235379 34.279727 0.516667 0.699239 0.019046 -0.004589 -356551.000000 0 0 1
-19.224892 -12.200405 27.072579 35.374721 0.565484 0.699276 0.011156 -0.005229 315752.000000 0 0 1
-20.508392 -12.360405 27.647479 36.575359 0.542402 0.713762 0.013857 -0.000763 -41190.200000 0 0 1
-21.354892 -13.183205 26.849079 36.751889 0.553071 0.751670 0.014875 -0.001608 898884.000000 0 0 1
-22.564892 -13.844505 27.655879 38.284362 0.550317 0.763558 0.011833 -0.004549 463580.000000 0 0 1
-22.408492 -14.985005 28.458379 39.199110 0.589423 0.758315 0.004299 -0.002605 -128777.000000 0 0 1
-21.630792 -14.871005 29.673779 39.617813 0.602282 0.724243 0.003913 0.000744 190949.000000 0 0 1
-21.976292 -15.876805 30.769979 41.010023 0.625636 0.722275 0.005525 -0.002883 -689620.000000 0 0 1
-21.648692 -17.249305 30.489879 41.180543 0.672776 0.737138 0.009691 0.000128 -332820.000000 0 0 1
-21.818592 -18.180705 31.580879 42.472826 0.694699 0.732425 0.012266 -0.000901 -379982.000000 0 0 1
-23.181392 -18.452405 32.267579 43.807133 0.672298 0.742792 0.044840 0.001245 318839.000000 0 0 1
-23.736892 -17.384305 33.061079 44.257079 0.632125 0.727223 0.056258 0.000433 153436.000000 0 0 1
-25.038872 -17.748705 33.489379 45.425766 0.616638 0.741830 0.064702 -0.013074 116756.000000 0 0 1
-25.860272 -16.692005 34.257779 46.054013 0.573183 0.731968 0.063929 -0.013762 226863.000000 0 0 1
-25.321672 -16.403205 -33.116325 44.798919 0.574822 2.402710 0.080087 -0.015898 -355188.000000 0 0 1
-26.166982 -15.459005 -32.555425 44.537035 0.533615 2.390545 0.075710 -0.011624 -226325.000000 0 0 1
-25.757952 -14.905905 -31.191725 43.111272 0.524604 2.379680 0.069721 -0.004813 94854.500000 0 0 1
-26.262822 -15.600105 -30.061625 42.857909 0.535996 2.348192 0.074875 0.001625 76351.500000 0 0 1
-25.454832 -15.258305 -28.977825 41.478653 0.539998 2.344264 0.087725 0.000307 -11926.600000 0 0 1
-25.979802 -15.937005 -27.694825 41.181811 0.550242 2.308380 0.077855 -0.003785 266783.000000 0 0 1
-27.120692 -15.374305 -27.060125 41.281370 0.515714 2.285647 0.083730 -0.008628 175140.000000 0 0 1
-27.009652 -14.085705 -26.414125 40.319156 0.480704 2.285146 0.074994 -0.010063 -219183.000000 0 0 1
-26.185012 -13.957405 -25.089425 38.857988 0.489721 2.272696 0.067175 -0.018452 607411.000000 0 0 1
-24.783192 -13.830005 -25.316625 38.031660 0.508995 2.299191 0.057840 -0.019170 899757.000000 0 0 1
-23.899992 -14.254805 -24.257825 36.916814 0.537794 2.287754 0.052871 -0.022315 498873.000000 0 0 1
-23.498592 -15.765605 -24.244325 37.262923 0.590939 2.279208 0.052837 -0.014636 -768887.000000 0 0 1
-22.638992 -15.997805 -25.300625 37.530992 0.615174 2.310577 0.063032 -0.008715 -323145.000000 0 0 1
-22.274592 -17.378305 -25.324725 37.940804 0.662541 2.301616 0.066942 -0.010371 66307.500000 0 0 1
-21.306492 -17.823205 -26.464925 38.366984 0.696613 2.331987 0.051035 -0.004474 197865.000000 0 0 1
-21.803992 -17.780205 -27.798225 39.551119 0.684095 2.350183 0.052529 -0.008987 60232.600000 0 0 1
-22.980792 -18.551305 -27.967325 40.674795 0.679148 2.328952 0.066293 -0.014128 -270002.000000 0 0 1
-23.522792 -18.582805 -29.406025 41.992341 0.668608 2.346574 0.071894 -0.009727 -265366.000000 0 0 1
-22.711292 -19.152405 -30.406725 42.511014 0.700591 2.367802 0.061334 -0.008189 -32571.700000 0 0 1
-23.214392 -18.871005 -31.698225 43.586698 0.682558 2.385096 0.054319 -0.004608 13949.900000 0 0 1
-22.248692 -19.318205 -32.808625 44.097655 0.715014 2.409832 0.046446 -0.006361 -104013.000000 0 0 1
-21.031692 -18.640105 -33.053925 43.386029 0.725187 2.436971 0.042495 0.000041 754545.000000 0 0 1
-19.829092 -19.379205 -32.805925 42.953174 0.773924 2.439915 0.028363 -0.006747 660333.000000 0 0 1
-19.464692 -20.412605 -33.898625 44.098361 0.809164 2.447610 0.021700 -0.007555 -917461.000000 0 0 1
-19.288692 -19.848205 33.457479 43.421283 0.799694 0.691121 0.023482 -0.005099 103581.000000 0 0 1
-19.143892 -20.886305 32.480479 43.101136 0.828898 0.717294 0.017943 -0.009147 20459.100000 0 0 1
-20.483892 -21.436405 31.900079 43.551399 0.808116 0.748854 0.019927 0.001791 164799.000000 0 0 1
-21.386992 -22.002305 32.841379 44.945089 0.799578 0.751450 0.017166 0.000279 193692.000000 0 0 1
-22.574692 -22.525705 32.249979 45.355102 0.784312 0.779799 0.016184 0.005370 207602.000000 0 0 1
-22.471192 -23.714105 31.244179 45.205221 0.812303 0.807699 0.018007 0.006106 -866986.000000 0 0 1
-22.027192 -24.845605 31.909079 46.050957 0.845455 0.805282 0.015782 0.007517 -906.472000 0 0 1
-22.125892 -26.052265 31.145979 46.242271 0.866715 0.831810 0.018590 0.015844 -4793.530000 0 0 1
-21.433092 -27.272805 31.834779 47.081170 0.904726 0.828247 0.034326 0.002979 150841.000000 0 0 1
-21.952992 -27.589335 33.140479 48.387981 0.898679 0.816343 0.019626 0.004303 78176.900000 0 0 1
-21.228292 -28.622845 33.795379 49.112476 0.932657 0.811899 0.024696 -0.004646 -524704.000000 0 0 1
-22.128792 -29.525245 -33.932825 50.128436 0.927624 2.314363 0.023318 -0.009081 14939.600000 0 0 1
-23.098692 -30.296325 34.010279 51.069717 0.919390 0.842019 0.024737 -0.005111 592059.000000 0 0 1
-24.253992 -29.632055 33.511879 50.885763 0.884873 0.851878 0.016453 -0.000558 495931.000000 0 0 1
-25.470072 -29.289215 -34.164125 51.708511 0.855030 2.292555 0.012827 -0.000065 607291.000000 0 0 1
-26.497372 -28.486495 33.917579 51.613887 0.821559 0.853777 0.014951 0.005942 -48028.500000 0 0 1
-27.514952 -28.222445 -33.774325 51.906493 0.798091 2.279271 0.015185 0.011688 -453001.000000 0 0 1
-28.585722 -27.263575 -34.257825 52.288092 0.761729 2.285210 0.008195 0.009256 -288592.000000 0 0 1
-29.583582 -27.950885 33.638379 52.801334 0.757028 0.880100 0.009781 0.005864 519430.000000 0 0 1
-30.696442 -27.120315 33.225279 52.741845 0.723624 0.889294 0.017357 0.000175 850688.000000 0 0 1
