# x y z rho theta phi s1 s2 stress_xx np intf bulk
-0.779458 -10.872523 -14.423672 18.079315 1.499228 2.494433 0.008240 -0.000094 -1982520.000000 1 0 0
2.052342 -13.518223 -13.084872 18.925336 -1.420126 2.334214 0.008070 -0.000145 848723.000000 1 0 0
2.066542 -11.166023 -14.716072 18.587992 -1.387793 2.484379 0.005308 -0.002172 705648.000000 1 0 0
-5.476658 -6.183123 -16.485172 18.438701 0.845914 2.677109 0.003459 -0.002719 -273794.000000 1 0 0
4.515442 -14.164623 -11.604072 18.859487 -1.262198 2.233551 0.004056 -0.001399 1483080.000000 1 0 0
13.937942 -10.638623 -7.961272 19.256905 -0.651949 1.997008 0.023036 -0.010148 -986611.000000 1 0 0
7.065542 10.784977 -10.807372 16.823701 0.990825 2.268409 0.008930 -0.010339 -905796.000000 1 0 0
5.720242 -4.233123 -12.518372 14.399658 -0.637087 2.624686 0.000708 -0.002650 3005860.000000 1 0 0
13.694942 0.440377 -9.966272 16.943198 0.032145 2.199648 0.010159 -0.000273 879208.000000 1 0 0
14.116142 4.911777 -10.261572 18.129834 0.334852 2.172448 -0.002065 -0.003033 -686455.000000 1 0 0
4.068942 4.285777 -13.481472 14.719860 0.811346 2.728465 0.002413 -0.000994 1974180.000000 1 0 0
10.302842 -5.040923 -13.750272 17.906129 -0.455031 2.446366 0.019390 -0.000692 -431668.000000 1 0 0
2.600142 -7.571823 -12.019672 14.441806 -1.240016 2.554010 0.000477 -0.000590 -504036.000000 1 0 0
-5.629158 -1.952523 -15.240472 16.363733 0.333874 2.768918 0.003547 -0.002397 419116.000000 1 0 0
10.699942 -0.002123 -9.663172 14.417547 -0.000198 2.305324 0.007977 0.000218 1535770.000000 1 0 0
-1.668258 -9.505623 -16.916172 19.475544 1.397063 2.623137 0.026227 -0.009246 1578620.000000 1 0 0
8.597342 1.694877 -17.988272 20.009119 0.194644 2.688286 0.006774 0.003656 -606869.000000 1 0 0
16.426042 -6.049323 -8.926472 19.649200 -0.352863 2.042374 0.026200 -0.002644 -1960160.000000 1 0 0
10.078142 7.555277 -9.892872 16.016244 0.643290 2.236582 0.002978 -0.008760 -684700.000000 1 0 0
13.829542 -2.400223 -10.584672 17.579892 -0.171846 2.216912 0.022736 -0.001209 -1591800.000000 1 0 0
7.288842 -1.907023 -13.635372 15.578425 -0.255900 2.636796 0.011198 -0.002322 517448.000000 1 0 0
-2.813958 6.725877 -13.747472 15.561130 -1.174548 2.653971 0.006122 -0.002331 1168400.000000 1 0 0
11.199942 1.794277 -13.968972 17.994175 0.158854 2.459579 0.003022 0.003745 91986.400000 1 0 0
-2.321758 10.865177 -12.853472 16.989832 -1.360275 2.428801 0.009648 -0.002577 263194.000000 1 0 0
2.846042 -1.089623 -15.262572 15.563847 -0.365640 2.944513 0.009377 -0.005369 27978.200000 1 0 0
-9.042358 0.647077 -15.243372 17.735370 -0.071439 2.605067 0.008326 -0.002522 -1022890.000000 1 0 0
2.371342 -1.868923 -18.081772 18.332120 -0.667460 2.976139 0.016999 -0.006881 392049.000000 1 0 0
1.117242 7.879677 -13.163872 15.382623 1.429947 2.597819 0.005677 -0.004039 -70461.200000 1 0 0
9.322542 -9.134523 -9.886972 16.373806 -0.775212 2.219092 0.015161 -0.005442 -649697.000000 1 0 0
3.962342 7.188477 -13.464972 15.769586 1.067027 2.594147 -0.002495 -0.002841 245590.000000 1 0 0
-2.702858 9.186877 -15.410972 18.143931 -1.284661 2.585593 0.008491 -0.005183 183566.000000 1 0 0
5.492642 -7.669523 -15.218472 17.905100 -0.949304 2.586690 -0.000477 -0.000857 -921885.000000 1 0 0
4.120642 7.394877 -16.368572 18.428078 1.062420 2.664298 0.001623 -0.000329 184038.000000 1 0 0
-0.219658 5.117677 -13.493772 14.433321 -1.527901 2.778785 0.007348 -0.004188 2619750.000000 1 0 0
8.748642 4.351077 -16.578472 19.243606 0.461520 2.609024 0.001687 -0.002319 -962267.000000 1 0 0
5.346342 0.273877 -14.372272 15.336903 0.051182 2.785035 0.007014 -0.001832 1499530.000000 1 0 0
6.312142 7.952877 -11.558072 15.384422 0.899913 2.420802 -0.003034 -0.004870 -1828850.000000 1 0 0
2.759442 -8.382423 -15.027272 17.426946 -1.252776 2.610592 0.003516 -0.003921 1066080.000000 1 0 0
4.032642 11.375677 -13.755772 18.299987 1.230121 2.421405 0.001707 -0.012039 -1359020.000000 1 0 0
0.582042 -4.552523 -13.754772 14.500276 -1.443636 2.819538 0.003330 -0.004117 2263250.000000 1 0 0
8.523142 -0.102123 -11.599672 14.394679 -0.011981 2.507873 0.002080 0.001138 389096.000000 1 0 0
-0.966558 -5.045523 -16.270872 17.062614 1.381522 2.835764 0.007874 -0.010199 598978.000000 1 0 0
4.386042 0.893977 -11.714772 12.540831 0.201069 2.776611 0.006358 -0.002011 1048430.000000 1 0 0
-2.822658 -7.155123 -15.549272 17.347710 1.195045 2.682218 0.002128 -0.006719 498603.000000 1 0 0
11.335342 -3.745223 -11.424072 16.523501 -0.319110 2.334198 0.022959 -0.001121 629493.000000 1 0 0
6.472342 -7.064923 -12.523272 15.768218 -0.829144 2.488502 0.000564 -0.000099 -800563.000000 1 0 0
3.432342 -4.010423 -14.651972 15.573848 -0.862913 2.795797 0.009691 -0.004341 2757660.000000 1 0 0
-0.553158 -1.553723 -18.371772 18.445651 1.228768 3.052062 0.018311 -0.008579 1883300.000000 1 0 0
15.013742 2.814577 -8.426672 17.445432 0.185316 2.074909 0.003142 0.000759 -796829.000000 1 0 0
6.908742 4.250677 -14.219172 16.370212 0.551565 2.623167 -0.000404 -0.000807 3295440.000000 1 0 0
10.106442 -9.677823 -14.008472 19.799942 -0.763737 2.356752 0.030358 -0.009051 -402533.000000 1 0 0
9.001942 -3.171323 -15.599472 18.287585 -0.338716 2.592520 0.016201 -0.003095 -15530.800000 1 0 0
-5.284458 -2.011523 -18.157972 19.017983 0.363714 2.839712 0.001485 0.007718 541384.000000 1 0 0
4.995542 -9.144423 -11.202372 15.299315 -1.070803 2.392363 -0.005453 0.000246 1243840.000000 1 0 0
-2.405558 4.178977 -17.077572 17.745254 -1.048486 2.866404 0.007512 0.004953 1198190.000000 1 0 0
9.467542 9.359477 -14.506372 19.689312 0.779658 2.399068 0.014395 -0.009689 18344.300000 1 0 0
9.801742 10.010877 -11.587172 18.181154 0.795953 2.261809 0.006127 -0.011769 -931721.000000 1 0 0
11.913842 -5.932223 -9.706772 16.472775 -0.461988 2.200941 0.023755 -0.004504 -838506.000000 1 0 0
8.091842 6.957377 -13.625272 17.306965 0.710157 2.477167 -0.004260 -0.002271 -294496.000000 1 0 0
4.033042 -4.159323 -17.533472 18.465861 -0.800811 2.822458 0.024250 -0.011569 900609.000000 1 0 0
9.263542 -7.506523 -12.396072 17.199526 -0.681008 2.375639 0.015646 -0.006197 -423308.000000 1 0 0
11.957942 -8.657923 -8.836372 17.205623 -0.626673 2.110142 0.022325 -0.007154 362068.000000 1 0 0
-3.023458 -2.546123 -13.938472 14.488100 0.699903 2.865264 0.006787 -0.005386 -2273930.000000 1 0 0
-0.349058 6.209777 -17.615272 18.681033 -1.514644 2.802178 0.012611 -0.000312 1304890.000000 1 0 0
1.081642 -8.460023 -17.474672 19.444950 -1.443633 2.687533 0.015470 -0.011662 2587140.000000 1 0 0
0.088442 8.628077 -16.010972 18.187984 1.560546 2.647301 0.005048 -0.002637 886462.000000 1 0 0
1.766742 3.353377 -14.976172 15.448374 1.085897 2.893708 0.010082 -0.000730 509702.000000 1 0 0
-1.937458 -0.516323 -15.843972 15.970341 0.260442 3.015710 0.009043 -0.001431 1365910.000000 1 0 0
14.141142 -4.380623 -8.443472 17.042710 -0.300404 2.089126 0.023409 -0.001725 701457.000000 1 0 0
0.547742 0.615277 -14.540772 14.564087 0.843402 3.085001 0.007670 -0.003040 2278320.000000 1 0 0
8.771642 2.689177 -12.502272 15.507424 0.297479 2.508518 -0.000455 0.000633 1682630.000000 1 0 0
5.964942 1.021277 -17.095972 18.135485 0.169569 2.801371 0.015852 -0.001552 -1642290.000000 1 0 0
15.239142 1.537877 -12.350972 19.675951 0.100576 2.249416 0.008041 -0.001305 49323.700000 1 0 0
8.746542 -11.263123 -11.957172 18.610048 -0.910510 2.268568 0.018927 -0.004771 2583110.000000 1 0 0
-4.637658 0.762177 -15.080372 15.795772 -0.162889 2.839478 0.005235 -0.003452 1451300.000000 1 0 0
2.380142 5.116577 -17.321572 18.217610 1.135389 2.826652 0.008012 -0.000181 582041.000000 1 0 0
5.883342 -11.747223 -12.395672 18.062769 -1.106486 2.327125 0.002090 -0.001419 820697.000000 1 0 0
12.758542 7.096977 -8.657772 16.973641 0.507631 2.106064 -0.002952 -0.004319 36427.800000 1 0 0
-5.023058 3.724277 -15.757172 16.952576 -0.637998 2.763812 0.005425 0.004099 471869.000000 1 0 0
-0.580658 -4.447623 -19.121572 19.640597 1.440976 2.911187 0.018564 -0.014902 -737584.000000 1 0 0
9.725142 4.443477 -10.313472 14.855659 0.428582 2.338167 -0.001528 0.000351 1223510.000000 1 0 0
13.308442 3.642277 -12.774472 18.803403 0.267140 2.317700 0.004113 -0.004761 493614.000000 1 0 0
-6.237858 5.942077 -17.223672 19.258090 -0.761119 2.677796 0.003650 0.007460 -832979.000000 1 0 0
-10.199658 3.376977 -15.406972 18.783285 -0.319728 2.532643 0.010088 0.001877 -838740.000000 1 0 0
10.983242 13.502277 -8.200572 19.240387 0.887916 2.011103 0.033529 -0.002210 1962920.000000 1 0 0
7.441042 13.401777 -12.258472 19.627707 1.063948 2.245351 0.015863 -0.012221 -4852.800000 1 0 0
5.339142 15.144777 -11.214272 19.586491 1.231860 2.180411 0.014519 -0.012415 352635.000000 1 0 0
14.209142 9.236877 -9.977972 19.666712 0.576421 2.102907 0.023182 -0.006631 -1695960.000000 1 0 0
8.227842 -17.314823 -1.943072 19.268523 -1.127192 1.671810 0.018925 -0.005578 -771937.000000 1 0 0
0.573942 -16.092323 -0.053572 16.102643 -1.535146 1.574123 0.007884 -0.005336 2284540.000000 1 0 0
-9.145258 -11.714323 7.546728 16.667759 0.907941 1.100922 0.003643 0.002746 67014.300000 1 0 0
2.022542 -15.935323 -2.648072 16.279971 -1.444549 1.734181 0.007590 -0.002253 2020880.000000 1 0 0
-1.316658 -11.097723 -9.494172 14.663981 1.452706 2.275028 0.004142 -0.000753 347666.000000 1 0 0
-4.991458 -12.647723 -12.994772 18.808074 1.194908 2.333550 0.016625 -0.001889 -446186.000000 1 0 0
-8.316358 -17.830723 -1.889272 19.765268 1.134383 1.666528 0.000084 -0.004949 -1286250.000000 1 0 0
-11.457558 -7.020723 -8.906072 16.120927 0.549748 2.156102 0.017603 -0.000050 1308850.000000 1 0 0
-13.584358 -11.419323 -4.639172 18.342781 0.699025 1.826489 0.003500 -0.003765 161397.000000 1 0 0
-5.592358 -13.549023 9.624428 17.535110 1.179347 0.989789 -0.009013 0.000004 -1066330.000000 1 0 0
0.120742 -13.998023 -3.803872 14.506159 -1.562171 1.836123 0.006346 0.001199 2303900.000000 1 0 0
-14.697558 -11.712023 1.878928 18.887034 0.672829 1.471149 -0.003592 0.002983 352545.000000 1 0 0
-4.012958 -16.482823 -7.613372 18.594373 1.331980 1.992642 0.003967 -0.006019 -441390.000000 1 0 0
0.477142 -15.282523 -9.334372 17.914063 -1.539585 2.118893 0.003491 -0.001388 676591.000000 1 0 0
4.511542 -14.190323 -2.683872 15.130183 -1.262971 1.749125 0.000035 0.003584 -470985.000000 1 0 0
-3.709358 -18.139123 -2.474572 18.679149 1.369083 1.703665 -0.008743 -0.008659 1977020.000000 1 0 0
-0.985858 -13.565323 0.619828 13.615215 1.498249 1.525256 0.008631 -0.001849 2560400.000000 1 0 0
-8.546058 -11.308323 -10.661872 17.736651 0.923637 2.215699 0.019834 -0.001670 1828750.000000 1 0 0
-3.773058 -14.179423 -0.464472 14.680181 1.310729 1.602441 0.002950 -0.000516 4695220.000000 1 0 0
-1.534358 -14.921423 -7.327072 16.693984 1.468327 2.025176 -0.001039 -0.003588 1613660.000000 1 0 0
-14.280058 -7.873023 -1.863672 16.412733 0.503864 1.684592 -0.006835 0.000507 1548260.000000 1 0 0
-10.727858 -7.346623 -11.685772 17.481907 0.600463 2.302918 0.017123 -0.005365 -567594.000000 1 0 0
-9.434758 -14.770323 6.856928 18.820057 1.002360 1.197871 -0.005650 0.006209 -25378.800000 1 0 0
-2.640758 -14.329423 -12.355172 19.103828 1.388552 2.274096 0.016109 -0.004704 -497671.000000 1 0 0
2.284942 -17.877923 -4.654372 18.614625 -1.443677 1.823516 0.008544 -0.009184 -341796.000000 1 0 0
-6.620658 -9.683123 -9.327572 14.986647 0.971072 2.242592 0.014190 -0.006402 -418653.000000 1 0 0
-11.002158 -15.450523 0.211128 18.968677 0.952002 1.559666 0.000105 0.003507 185616.000000 1 0 0
-12.638958 -11.084223 4.084028 17.299784 0.719955 1.332473 0.005938 0.003619 2376320.000000 1 0 0
-17.035258 -8.990823 -1.526672 19.322671 0.485622 1.649888 -0.002238 -0.003016 -2188100.000000 1 0 0
-1.534058 -19.368623 -4.048272 19.846546 1.491758 1.776217 -0.006369 -0.005315 -616545.000000 1 0 0
3.270642 -14.345923 -8.981872 17.238811 -1.346643 2.118849 -0.001212 -0.001934 1531010.000000 1 0 0
-4.249358 -7.981123 -13.069972 15.892751 1.081546 2.536388 -0.001670 -0.001404 1208130.000000 1 0 0
5.544742 -16.582423 1.228928 17.528011 -1.248109 1.500627 0.018654 -0.009546 4941720.000000 1 0 0
-2.887458 -13.833023 -3.298972 14.511139 1.365014 1.800142 0.004070 -0.000572 -137055.000000 1 0 0
-0.494858 -13.990923 3.634928 14.463869 1.535441 1.316762 0.004566 0.000536 -3732650.000000 1 0 0
1.245942 -16.210423 7.061628 17.725596 -1.494087 1.161040 0.002077 -0.002540 1695910.000000 1 0 0
-5.432058 -10.331023 -14.664672 18.742729 1.086722 2.469338 0.009313 -0.002488 -682077.000000 1 0 0
-0.328458 -17.395123 -5.940572 18.384465 1.551916 1.899831 0.005254 -0.006528 1186720.000000 1 0 0
-6.572358 -13.396623 -1.383972 14.986019 1.114698 1.663279 0.000661 -0.001373 2180650.000000 1 0 0
-1.851058 -17.853423 -0.196572 17.950202 1.467485 1.581748 -0.004547 -0.004969 3371360.000000 1 0 0
-9.530758 -9.632423 -4.962272 14.430629 0.790703 1.921832 0.017898 -0.003492 1355510.000000 1 0 0
-0.733258 -16.671023 4.820028 17.369321 1.526841 1.289603 0.010987 -0.007509 2416490.000000 1 0 0
-6.860358 -9.870623 -6.335872 13.588119 0.963415 2.055878 0.016962 -0.005447 3998940.000000 1 0 0
-6.109758 -14.534623 -8.638772 17.978119 1.172863 2.072039 0.013149 -0.005207 483826.000000 1 0 0
-5.788558 -12.206623 -10.360572 17.024996 1.127989 2.225029 0.013799 -0.004595 1217250.000000 1 0 0
-10.824058 -11.949723 -9.026372 18.477865 0.834786 2.081162 0.024606 -0.012766 557721.000000 1 0 0
3.992642 -17.046423 6.563928 18.697777 -1.340722 1.212100 0.012290 -0.009578 872008.000000 1 0 0
-6.679458 -14.346623 -4.221272 16.378641 1.135064 1.831469 0.007895 -0.008781 -1878430.000000 1 0 0
-2.799358 -12.194723 -7.111072 14.391491 1.345151 2.087615 0.008294 -0.002191 2831640.000000 1 0 0
-7.107258 -12.866923 4.356628 15.331374 1.066138 1.282662 -0.006667 0.003609 2748040.000000 1 0 0
2.548242 -16.462223 2.292228 16.815250 -1.417222 1.434052 0.012231 -0.009476 2451190.000000 1 0 0
-6.170858 -12.004123 7.154328 15.276218 1.095963 1.083395 -0.006065 0.001657 1923480.000000 1 0 0
-11.204858 -12.836723 -1.042972 17.070972 0.853171 1.631931 -0.001804 0.002540 1098330.000000 1 0 0
-14.238858 -8.768523 4.595228 17.342093 0.551968 1.302618 0.003225 0.000888 -1994640.000000 1 0 0
-8.122858 -15.560023 4.350728 18.083804 1.089677 1.327826 -0.006428 0.006698 687435.000000 1 0 0
-16.441958 -9.317123 1.272528 18.941121 0.515550 1.503562 -0.007904 0.000260 -855771.000000 1 0 0
-6.729958 -17.109723 2.300928 18.529145 1.196043 1.446296 -0.012410 0.006296 1619820.000000 1 0 0
-11.586858 -14.811323 -4.792972 19.406265 0.906943 1.820359 0.020474 -0.004371 1103420.000000 1 0 0
-9.999858 -9.978923 -12.813672 19.072657 0.784350 2.307479 0.017127 0.003932 368907.000000 1 0 0
-4.402158 -16.040623 -4.612572 17.261413 1.302953 1.841302 -0.002441 -0.005894 -1041370.000000 1 0 0
-11.860658 -8.246523 -0.053272 14.445871 0.607554 1.574484 -0.008395 0.003058 419269.000000 1 0 0
-9.672158 -11.171323 3.400128 15.162782 0.857199 1.344631 -0.004792 0.006111 1290090.000000 1 0 0
-14.123858 -12.975223 -0.670972 19.190882 0.743037 1.605767 -0.001006 0.005846 284698.000000 1 0 0
5.602242 -14.936423 -7.195772 17.500314 -1.211962 1.994544 -0.001171 -0.001516 379592.000000 1 0 0
-7.549158 -10.556623 -1.341772 13.047315 0.950001 1.673817 0.002309 -0.002719 121113.000000 1 0 0
-11.726658 -8.111123 -6.075172 15.498791 0.605122 1.973576 0.012392 -0.001955 359141.000000 1 0 0
-14.444858 -6.519123 -9.168372 18.308794 0.423944 2.095277 0.012124 -0.007444 1888630.000000 1 0 0
-3.947058 -16.459923 1.364028 16.981428 1.335442 1.490385 -0.006773 -0.003051 680655.000000 1 0 0
-7.987958 -15.645223 -0.002072 17.566458 1.098730 1.570914 -0.001127 0.003081 1582600.000000 1 0 0
1.085242 -18.580423 3.757628 18.987618 -1.512455 1.371582 0.009240 -0.011098 1790120.000000 1 0 0
-14.204958 -8.624823 -4.636772 17.253059 0.545675 1.842892 -0.001205 -0.003857 999841.000000 1 0 0
-3.156158 -14.550423 10.931128 18.470671 1.357194 0.937494 -0.018850 -0.002142 189500.000000 1 0 0
-10.790458 -11.997523 -3.859172 16.591195 0.838318 1.805550 0.010690 -0.009276 801649.000000 1 0 0
-10.011858 -10.673323 0.494728 14.642468 0.817365 1.537003 -0.001110 0.003508 2097850.000000 1 0 0
-0.180758 -13.267223 -11.266272 17.406342 1.557173 2.274769 0.005705 -0.002499 299400.000000 1 0 0
-5.851558 -12.551723 -6.369072 15.243082 1.134556 2.001856 0.007450 -0.007940 2441350.000000 1 0 0
1.733442 -15.913923 9.951928 18.849367 -1.462298 1.014586 -0.001959 0.002784 -16433.100000 1 0 0
-9.007058 -15.495023 -5.706472 18.809217 1.044250 1.879042 0.021942 -0.011291 -492889.000000 1 0 0
-3.311858 -15.596223 5.784228 16.960774 1.361554 1.222778 -0.007002 0.001504 -1159400.000000 1 0 0
-17.451558 -5.325823 -6.512272 19.373460 0.296200 1.913616 0.003105 -0.005645 1124950.000000 1 0 0
18.838642 5.444577 -2.950172 19.830315 0.281345 1.720121 -0.004039 0.001882 -1366530.000000 1 0 0
12.660042 -12.509923 -5.962472 18.770346 -0.779434 1.894050 0.020938 -0.006368 -1047860.000000 1 0 0
10.971142 -13.539223 -1.577472 17.497569 -0.889793 1.661073 0.024488 -0.005048 1310300.000000 1 0 0
18.756442 -2.856623 4.400828 19.476440 -0.151139 1.342872 0.034259 -0.010882 -728855.000000 1 0 0
8.535942 -16.947923 4.925728 19.605030 -1.104227 1.316827 0.014892 -0.018044 -347041.000000 1 0 0
18.158742 -1.050623 6.659028 19.369728 -0.057793 1.219851 0.055677 -0.012432 -478465.000000 1 0 0
17.846342 -4.327823 -5.015672 19.036253 -0.237912 1.837424 0.022301 -0.003341 -554187.000000 1 0 0
5.438942 -11.791323 14.737328 19.641950 -1.138613 0.722283 -0.006474 -0.000750 -662131.000000 1 0 0
15.857342 -9.044523 -0.764672 18.271382 -0.518346 1.612659 0.018644 0.002942 187122.000000 1 0 0
13.866942 -12.835123 -1.525372 18.956772 -0.746775 1.651349 0.035770 0.001695 1271970.000000 1 0 0
11.173542 -1.898623 13.926628 17.955606 -0.168314 0.683108 0.017583 -0.001757 -1493850.000000 1 0 0
16.868842 -6.347723 -1.408072 18.078553 -0.359909 1.648762 0.014156 0.003042 -497992.000000 1 0 0
17.846442 3.586077 -0.997372 18.230474 0.198300 1.625533 0.006230 0.002161 586611.000000 1 0 0
9.681342 -11.094823 9.465828 17.505010 -0.853327 0.999468 0.007293 -0.004145 734350.000000 1 0 0
9.074642 -11.169023 4.246828 15.004391 -0.888490 1.283835 0.007594 -0.006019 -1141570.000000 1 0 0
13.984342 -10.154423 6.784428 18.566168 -0.628047 1.196714 0.016701 -0.006338 -422410.000000 1 0 0
16.300642 -0.606223 -4.712672 16.979038 -0.037173 1.852048 0.006412 0.002654 -2578960.000000 1 0 0
15.739242 -0.465623 -1.742472 15.842246 -0.029575 1.681008 0.004710 0.001348 1012880.000000 1 0 0
12.877442 -5.165423 -0.233472 13.876765 -0.381473 1.587622 0.007860 0.000073 1245800.000000 1 0 0
14.245342 -7.551423 1.143128 16.163555 -0.487435 1.500015 0.022195 0.005072 2192750.000000 1 0 0
15.607742 2.405177 3.682728 16.215702 0.152899 1.341688 0.024038 -0.005740 1059290.000000 1 0 0
15.882442 -7.129523 5.067428 18.131765 -0.421933 1.287546 0.025568 -0.004671 -1096890.000000 1 0 0
13.728442 -12.160223 3.323928 18.638391 -0.724897 1.391500 0.026019 -0.003647 1755490.000000 1 0 0
13.990242 -0.860623 9.286128 16.813676 -0.061438 0.985680 0.034117 -0.005122 1959810.000000 1 0 0
14.171442 -2.844423 -1.532972 14.535148 -0.198083 1.676459 0.004803 0.001180 604377.000000 1 0 0
15.010342 1.925777 9.093728 17.655449 0.127600 1.029711 0.045423 -0.009977 -2931710.000000 1 0 0
14.381142 -10.350723 -3.079172 17.984327 -0.623854 1.742858 0.025925 0.000338 -118971.000000 1 0 0
7.274442 -12.591223 6.060828 15.754048 -1.046906 1.175897 -0.001714 -0.006203 254216.000000 1 0 0
12.396442 -4.635123 7.053228 14.996805 -0.357813 1.081148 0.008951 -0.001756 1779430.000000 1 0 0
14.896342 -9.089323 -5.681472 18.352000 -0.547865 1.885551 0.031896 -0.003784 -835578.000000 1 0 0
14.280642 -4.613323 4.669928 15.717115 -0.312465 1.269117 0.016495 -0.005550 2833810.000000 1 0 0
17.181342 -4.451823 0.905728 17.771820 -0.253532 1.519810 0.019318 -0.003922 -1021380.000000 1 0 0
10.181142 -14.469123 1.196528 17.732536 -0.957627 1.503269 0.021926 -0.008651 317098.000000 1 0 0
16.318842 -2.526923 8.587728 18.612872 -0.153627 1.091239 0.046132 -0.008104 29575.200000 1 0 0
16.079342 -2.700323 3.182728 16.612247 -0.166385 1.378015 0.021274 -0.007181 1950850.000000 1 0 0
7.732842 -15.261723 2.685528 17.318461 -1.101817 1.415101 0.011420 -0.011380 1115970.000000 1 0 0
16.593242 -7.042423 7.954228 19.702821 -0.401375 1.155228 0.034928 -0.006646 -1413740.000000 1 0 0
10.150542 -8.583423 5.123128 14.246231 -0.701941 1.202943 0.008612 -0.005188 857471.000000 1 0 0
10.967342 -11.867623 2.217028 16.310680 -0.824803 1.434449 0.017728 -0.006782 2210690.000000 1 0 0
12.169042 -7.367223 12.004928 18.613969 -0.544386 0.869849 0.001422 -0.008423 -298644.000000 1 0 0
15.227442 -9.855523 4.311528 18.643916 -0.574419 1.337427 0.022843 -0.002061 956200.000000 1 0 0
7.283642 -10.247423 7.746128 14.766977 -0.952873 1.018601 -0.002541 0.000393 1205970.000000 1 0 0
15.179842 -3.377023 -4.319872 16.139801 -0.218903 1.841753 0.015166 0.002447 -844739.000000 1 0 0
11.762742 -9.035523 9.750528 17.750368 -0.655015 0.989253 0.005726 -0.006313 -2373820.000000 1 0 0
16.935342 -6.765223 2.471828 18.403369 -0.380053 1.436075 0.026557 -0.001780 1495860.000000 1 0 0
17.580842 3.915377 1.980028 18.120064 0.219131 1.461305 0.015293 -0.002995 628655.000000 1 0 0
14.739842 -4.959023 8.874128 17.905446 -0.324541 1.052259 0.030522 -0.006525 917113.000000 1 0 0
12.814842 -12.674723 6.108228 19.031007 -0.779901 1.244051 0.018770 -0.002799 -50273.800000 1 0 0
18.280142 0.655877 -0.918372 18.314944 0.035864 1.620961 0.018801 -0.001035 6476.120000 1 0 0
11.648042 -2.071023 11.050128 16.188618 -0.175961 0.819501 0.013819 -0.000578 1626970.000000 1 0 0
5.812942 -12.488723 10.507528 17.325318 -1.135164 0.919165 -0.006798 0.002234 -1798750.000000 1 0 0
10.640342 -4.943923 11.088328 16.143428 -0.434961 0.813632 0.002898 0.000184 1056990.000000 1 0 0
17.952742 1.255477 5.045228 18.690412 0.069819 1.297469 0.035815 -0.003462 520391.000000 1 0 0
12.150742 -7.725823 7.167428 16.084181 -0.566350 1.108930 0.014203 -0.006277 -8038.720000 1 0 0
10.461742 -7.869623 14.347528 19.422424 -0.644926 0.739643 -0.001492 -0.005504 -993460.000000 1 0 0
14.221242 -0.327923 3.829728 14.731533 -0.023055 1.307807 0.013093 -0.001849 2644350.000000 1 0 0
11.592442 -7.699623 2.557628 14.149571 -0.586288 1.389041 0.009167 -0.001161 2094070.000000 1 0 0
9.315242 6.089377 3.638728 11.708740 0.578972 1.254793 0.004938 0.000292 1754700.000000 1 0 0
-3.922158 14.824377 -9.890672 18.247490 -1.312148 2.143646 0.004356 -0.005145 1745130.000000 1 0 0
8.792542 -6.450723 9.258028 14.304954 -0.632960 0.866903 0.002294 0.000797 -965405.000000 1 0 0
5.795442 -10.606523 -8.585172 14.825338 -1.070718 2.188406 -0.007195 -0.001047 -168640.000000 1 0 0
5.470142 1.107577 0.623028 5.615812 0.199776 1.459626 0.002177 0.001459 3907380.000000 1 0 0
-0.496858 9.907877 11.027128 14.832749 -1.520691 0.732610 -0.009548 0.003665 -313627.000000 1 0 0
-6.340458 -5.209823 1.011928 8.268474 0.687821 1.448105 0.005806 -0.003374 2416230.000000 1 0 0
-1.001658 4.047277 -10.866772 11.639180 -1.328182 2.775232 0.008399 -0.003671 1640400.000000 1 0 0
10.967542 5.801377 1.336828 12.479185 0.486545 1.463466 0.006950 -0.000221 1566990.000000 1 0 0
-10.149758 -1.636923 -13.604372 17.052157 0.159900 2.494450 0.009873 -0.006042 1193070.000000 1 0 0
7.456342 10.868477 -6.052572 14.503602 0.969493 2.001285 0.000722 -0.003399 715370.000000 1 0 0
-12.490558 -2.818223 -9.662372 16.041130 0.221912 2.217238 0.008531 -0.002056 301102.000000 1 0 0
-4.007858 -8.660323 2.371928 9.833115 1.137362 1.327175 0.005598 -0.000485 -567334.000000 1 0 0
8.011242 -6.715723 -5.963272 12.035013 -0.697655 2.089199 -0.001396 -0.002509 2176500.000000 1 0 0
14.350142 3.010177 -4.180672 15.246828 0.206768 1.848553 0.006073 -0.000400 -174826.000000 1 0 0
-2.592958 -4.882023 9.796928 11.248883 1.082561 0.513716 0.001777 -0.001609 731680.000000 1 0 0
3.558942 -1.881923 -4.610072 6.120496 -0.486411 2.423738 0.000429 -0.000036 -2649820.000000 1 0 0
-3.995058 8.407777 -3.411072 9.913961 -1.127216 1.922042 0.001433 0.000091 1228720.000000 1 0 0
5.783542 0.215277 11.696328 13.049896 0.037205 0.459493 0.000739 -0.003197 2111510.000000 1 0 0
7.124942 4.792377 12.423728 15.102341 0.592113 0.604765 0.000312 0.001930 966363.000000 1 0 0
1.100942 -14.423223 12.421628 19.066679 -1.494613 0.861258 -0.010757 0.000669 -1515230.000000 1 0 0
3.054042 8.652677 -9.078472 12.907930 1.231488 2.350861 0.001049 -0.001582 995576.000000 1 0 0
-4.460058 -8.894923 -4.598472 10.961647 1.106016 2.003697 0.010758 -0.003882 1063770.000000 1 0 0
5.698942 -6.611423 -4.054372 9.624281 -0.859386 2.005636 0.001261 -0.002081 2350060.000000 1 0 0
-3.038158 3.414077 8.669728 9.800536 -0.843594 0.485123 -0.002419 0.002570 3674020.000000 1 0 0
-3.823858 3.202477 -11.143072 12.208432 -0.697192 2.720727 0.001737 -0.004341 32699.900000 1 0 0
3.056042 -6.158923 8.555628 10.975905 -1.110195 0.676942 -0.002597 -0.000343 -1650300.000000 1 0 0
-5.133558 -8.683723 10.462828 14.533796 1.036895 0.767143 0.003796 -0.001918 1491640.000000 1 0 0
-13.218958 -2.559023 6.540128 14.968725 0.191222 1.118625 0.006483 -0.002766 555521.000000 1 0 0
3.899542 -5.935523 -8.325672 10.943202 -0.989527 2.435353 -0.001792 -0.002944 2334500.000000 1 0 0
2.968442 -0.484223 12.416728 12.775807 -0.161699 0.237650 -0.001315 -0.000043 197892.000000 1 0 0
1.371942 -1.454123 -7.600872 7.859386 -0.814469 2.884399 0.004398 -0.003399 55824.000000 1 0 0
3.656842 -3.609223 3.431428 6.178485 -0.778845 0.981972 0.001776 0.000573 1582740.000000 1 0 0
1.449642 0.402777 -11.850872 11.945998 0.271010 3.015311 0.008270 -0.005798 -27094.500000 1 0 0
4.015642 3.565077 -10.602272 11.884584 0.726032 2.672775 0.001427 -0.001444 1289770.000000 1 0 0
2.809142 3.225077 3.352728 5.434445 0.854219 0.905947 -0.006452 0.003625 459265.000000 1 0 0
-5.260958 0.815977 2.576128 5.914383 -0.153874 1.120125 0.001522 -0.002670 852943.000000 1 0 0
-9.514358 -9.333323 5.638128 14.471434 0.775793 1.170595 -0.002214 0.005815 -2639170.000000 1 0 0
-3.041058 3.818277 -0.544272 4.911569 -0.898225 1.681839 -0.001203 -0.002740 1065260.000000 1 0 0
-15.840558 -6.521323 5.051428 17.859671 0.390539 1.284043 0.008866 -0.004901 1262110.000000 1 0 0
0.972542 6.721977 -8.070772 10.548373 1.427112 2.442024 0.003286 -0.001854 -299238.000000 1 0 0
-1.618458 6.600977 -9.475172 11.660669 -1.330355 2.519353 0.004412 -0.001147 -331519.000000 1 0 0
2.077042 -0.392123 5.140728 5.558322 -0.186593 0.390102 -0.000732 0.000632 2506620.000000 1 0 0
-3.421758 -0.530423 -6.324672 7.210496 0.153791 2.640687 0.005302 -0.004323 791692.000000 1 0 0
1.909942 -1.166523 -2.487872 3.346365 -0.548296 2.409018 0.004701 -0.000483 746147.000000 1 0 0
2.428342 -8.630123 -7.753372 11.852875 -1.296509 2.283834 -0.003691 -0.000119 2083940.000000 1 0 0
-2.381758 14.062377 -5.571872 15.312380 -1.403018 1.943227 0.005495 0.000968 4236050.000000 1 0 0
6.898642 -5.116123 -8.266172 11.920385 -0.638112 2.337061 0.000027 -0.003300 3148560.000000 1 0 0
-14.134458 -4.902123 -2.118972 15.109724 0.333840 1.711499 -0.008493 0.000727 -298281.000000 1 0 0
-2.707858 6.915077 -6.775872 10.053021 -1.197563 2.310425 0.003884 -0.001637 -2812230.000000 1 0 0
-5.659458 -1.035423 -8.116072 9.948477 0.180953 2.524926 0.006410 -0.005445 -242677.000000 1 0 0
-5.809458 -10.643223 3.361828 12.582920 1.071155 1.300337 -0.001907 0.001240 -4107360.000000 1 0 0
8.071542 -7.560923 6.698328 12.930001 -0.752746 1.026232 0.000961 -0.002104 422360.000000 1 0 0
8.704342 -5.874223 13.109228 16.796545 -0.593654 0.675376 0.000721 -0.000093 284077.000000 1 0 0
-4.662958 9.504377 -0.690272 10.609092 -1.114688 1.635907 -0.001164 0.002312 1744930.000000 1 0 0
2.790142 6.645177 12.209628 14.178092 1.173275 0.533246 -0.006722 0.005218 518949.000000 1 0 0
6.033542 -2.761023 10.935428 12.791030 -0.429166 0.545382 0.000877 -0.002549 1407750.000000 1 0 0
-9.722758 -6.510123 -1.086172 11.751318 0.590014 1.663358 0.002474 -0.003302 -95254.700000 1 0 0
0.777142 -13.351423 6.254028 14.764054 -1.512655 1.133382 -0.000686 0.000557 -238027.000000 1 0 0
-0.495158 -3.210823 8.732928 9.317649 1.417786 0.356151 -0.000135 -0.002571 1323710.000000 1 0 0
4.303642 0.715377 3.422228 5.544794 0.164720 0.905622 -0.002232 0.003683 1784800.000000 1 0 0
-10.168958 5.584077 8.355428 14.296951 -0.502175 0.946631 0.000220 -0.009772 146954.000000 1 0 0
9.362942 7.944977 0.067428 12.279735 0.703655 1.565305 0.002129 -0.000141 -323634.000000 1 0 0
4.284642 2.868377 8.260028 9.737238 0.589931 0.558044 -0.006989 0.002716 2668680.000000 1 0 0
1.313742 2.651377 -9.771872 10.210054 1.110760 2.847561 0.006624 -0.003773 2331030.000000 1 0 0
-1.514758 -10.259123 3.037728 10.806104 1.424206 1.285843 0.007484 -0.001380 -1394670.000000 1 0 0
-9.867758 9.515577 9.125328 16.467862 -0.767231 0.983479 0.002722 -0.011221 2673900.000000 1 0 0
9.828242 -2.079323 -7.680472 12.645457 -0.208492 2.223542 0.007495 0.000952 579097.000000 1 0 0
-5.168758 -1.885923 6.645528 8.627619 0.349860 0.691544 0.000940 -0.003492 812192.000000 1 0 0
3.106842 -7.853923 -4.980172 9.805034 -1.194107 2.103565 -0.005074 -0.001549 1210980.000000 1 0 0
-5.149658 4.965477 -13.112872 14.937281 -0.767192 2.642176 0.000143 -0.005686 1854900.000000 1 0 0
-5.622158 9.633477 5.549428 12.458278 -1.042518 1.109130 -0.009026 0.001509 1901360.000000 1 0 0
-0.569758 -1.746023 -9.418972 9.596367 1.255373 2.949016 0.005716 -0.006389 -330176.000000 1 0 0
-16.750558 0.109477 6.388428 17.927777 -0.006536 1.206446 0.016716 -0.007363 -25569.400000 1 0 0
-5.978758 -2.938223 4.037528 7.789758 0.456779 1.025920 -0.000704 -0.002590 4012840.000000 1 0 0
0.979042 -5.707123 -5.197172 7.780769 -1.400903 2.302248 0.000397 -0.003279 1779390.000000 1 0 0
-6.964258 1.521877 -8.509372 11.100739 -0.215145 2.444262 0.002567 -0.002722 408354.000000 1 0 0
8.003542 1.990277 4.845228 9.565256 0.243731 1.039624 -0.001104 0.000338 196429.000000 1 0 0
0.477242 -8.103523 -0.572772 8.137746 -1.511971 1.641239 0.004224 -0.000584 384901.000000 1 0 0
5.445642 5.489677 -3.348372 8.426338 0.789425 1.979445 -0.002130 0.001596 219282.000000 1 0 0
-0.716458 -0.434923 -1.266772 1.518941 0.545584 2.557085 0.004460 -0.003529 1189800.000000 1 0 0
9.021042 6.344977 -6.299372 12.701182 0.612973 2.089745 0.001920 -0.003960 16140.600000 1 0 0
-14.963058 -7.076523 2.450028 16.732391 0.441760 1.423844 -0.008975 -0.001971 543169.000000 1 0 0
-6.363158 6.829777 9.020028 12.980622 -0.820752 0.802538 -0.003565 -0.001552 913847.000000 1 0 0
-9.507058 -3.113723 -9.706372 13.938905 0.316507 2.341097 0.008366 0.000282 1110700.000000 1 0 0
14.909842 3.289577 -1.194172 15.315050 0.217152 1.648849 0.003420 -0.001079 2340320.000000 1 0 0
12.109242 1.643677 -5.760872 13.510110 0.134913 2.011319 0.006326 0.000712 439886.000000 1 0 0
1.643242 -9.426223 12.700328 15.901328 -1.398204 0.645671 -0.006472 -0.004021 215798.000000 1 0 0
-3.539958 6.309877 7.960028 10.756761 -1.059533 0.737723 -0.005149 0.001623 1675000.000000 1 0 0
-4.142458 13.133177 -12.280972 18.451628 -1.265254 2.299062 0.014424 -0.006005 -118252.000000 1 0 0
-10.140258 7.756777 6.536528 14.342894 -0.653000 1.097601 -0.005317 -0.006415 -110899.000000 1 0 0
7.995542 -9.329323 -7.197672 14.239784 -0.862233 2.100714 -0.000744 -0.000371 -86949.400000 1 0 0
5.858942 -3.879823 -0.357772 7.036208 -0.584908 1.621666 0.001390 -0.000021 -750973.000000 1 0 0
-1.663358 -4.510423 4.168428 6.362897 1.217489 0.856462 0.003457 -0.001340 473005.000000 1 0 0
9.943342 -2.005723 -2.576172 10.465641 -0.199044 1.819508 0.001615 0.002417 -3264030.000000 1 0 0
13.575242 7.041277 1.433128 15.359708 0.478484 1.477356 0.005982 -0.005019 -1674870.000000 1 0 0
5.472442 -3.692723 -3.308072 7.384251 -0.593602 2.035312 0.002240 -0.000726 -652903.000000 1 0 0
-12.253558 -5.952923 1.911028 13.756416 0.452233 1.431427 -0.007746 0.001547 1841850.000000 1 0 0
3.681842 -5.808223 -0.395272 6.888226 -1.005821 1.628212 0.004525 0.000679 -856109.000000 1 0 0
-5.165158 3.848877 -8.717372 10.839063 -0.640397 2.505217 0.000972 -0.004006 174957.000000 1 0 0
-1.743158 -9.264323 7.159928 11.837687 1.384813 0.921229 -0.000311 0.001868 2925830.000000 1 0 0
-7.530258 -7.484523 2.464428 10.899370 0.782352 1.342717 0.003748 -0.001555 -5559250.000000 1 0 0
-5.726658 13.106677 -8.376372 16.575380 -1.158867 2.100584 0.007847 -0.011544 672843.000000 1 0 0
9.130142 -13.879523 -4.085672 17.108283 -0.988948 1.811939 0.014670 -0.001860 918709.000000 1 0 0
-6.487458 -5.139723 -6.795972 10.709299 0.670001 2.258269 0.012306 -0.003028 1803320.000000 1 0 0
3.395242 0.381077 -6.230372 7.105662 0.111771 2.640000 0.004511 -0.003272 1481020.000000 1 0 0
-3.589558 5.749877 5.036228 8.444502 -1.012712 0.931798 -0.006279 0.002722 -666010.000000 1 0 0
-2.682458 -10.732523 -2.937272 11.445968 1.325877 1.830320 0.007302 0.001666 181154.000000 1 0 0
-12.512658 -0.386023 1.821128 12.650380 0.030841 1.426336 -0.001643 -0.003406 239574.000000 1 0 0
8.319742 -12.041423 -6.145072 15.873748 -0.966186 1.968304 0.004096 -0.000152 -1091540.000000 1 0 0
6.197642 3.950877 1.086228 7.429676 0.567524 1.424069 -0.000458 0.001078 -228442.000000 1 0 0
3.395342 -4.822423 -10.880372 12.376050 -0.957341 2.644866 0.001373 -0.004118 458617.000000 1 0 0
-7.573958 4.210977 8.660028 12.251255 -0.507424 0.785735 -0.002581 -0.004120 2913480.000000 1 0 0
8.229042 8.787277 4.141728 12.731351 0.818192 1.239449 0.006931 -0.000502 2920570.000000 1 0 0
0.328842 10.658577 -6.282372 12.376656 1.539954 2.103192 0.003412 -0.000508 1605780.000000 1 0 0
5.421942 8.166577 3.340828 10.356234 0.984699 1.242331 0.002119 0.002340 2326350.000000 1 0 0
8.020442 6.670477 -3.756072 11.087418 0.693764 1.916404 -0.000342 -0.000559 -527667.000000 1 0 0
10.547942 2.518077 -8.285672 13.647423 0.234341 2.223232 0.003106 -0.000201 925190.000000 1 0 0
3.263342 -12.544823 -0.351472 12.967093 -1.316302 1.597905 0.002840 -0.001567 -1046750.000000 1 0 0
0.644942 2.037777 5.225628 5.645855 1.264278 0.388261 -0.002198 0.002115 1575240.000000 1 0 0
-4.905558 13.476177 1.482728 14.417709 -1.221689 1.467773 -0.003294 0.002167 1477090.000000 1 0 0
8.203342 4.060677 -8.005172 12.160045 0.459642 2.289378 0.000743 -0.000278 551150.000000 1 0 0
-13.783558 -0.521623 -3.494072 14.229093 0.037826 1.818892 -0.002765 -0.002034 -59250.000000 1 0 0
-8.628658 0.015277 -0.537872 8.645419 -0.001771 1.633051 -0.002265 -0.002953 558620.000000 1 0 0
1.844642 -3.782523 -1.246572 4.389091 -1.117057 1.858776 0.004390 -0.002235 -2092660.000000 1 0 0
8.052042 -5.730623 -0.218072 9.885493 -0.618534 1.592858 0.001966 0.001059 3332670.000000 1 0 0
-2.220858 -1.198223 7.275428 7.700636 0.494770 0.333865 -0.000047 -0.001733 2401350.000000 1 0 0
-5.861058 8.867977 -11.658572 15.777051 -0.986780 2.402318 0.000717 -0.002080 -1460400.000000 1 0 0
-6.163858 9.285977 -8.852472 14.233369 -0.984794 2.242029 -0.002150 -0.003423 -266357.000000 1 0 0
-1.409058 14.062377 -8.412772 16.447208 -1.470929 2.107728 0.015520 -0.003116 -145505.000000 1 0 0
-1.408958 7.140977 9.796428 12.204455 -1.375992 0.639000 -0.005557 0.000064 563888.000000 1 0 0
10.035142 2.355277 -4.001072 11.057124 0.230530 1.941053 0.002504 0.001120 -2536170.000000 1 0 0
-3.043858 -7.564323 -7.019172 10.758849 1.188226 2.281555 0.006892 -0.002277 1367660.000000 1 0 0
-5.473058 -4.994323 -1.645472 7.589809 0.739694 1.789332 0.011208 -0.002116 1473880.000000 1 0 0
5.713642 7.342577 -8.733872 12.760865 0.909520 2.324613 -0.002441 -0.000973 680986.000000 1 0 0
-9.452858 5.315477 -7.402272 13.130288 -0.512248 2.169722 -0.003356 -0.000597 -803464.000000 1 0 0
-0.463458 6.110977 -5.323972 8.118098 -1.495101 2.286058 0.001728 0.000261 -1985490.000000 1 0 0
-8.175358 2.852877 -6.328272 10.724850 -0.335749 2.201926 0.002188 -0.000885 1609830.000000 1 0 0
3.728642 1.387277 -1.893172 4.405838 0.356190 2.014953 -0.000046 -0.002666 2280670.000000 1 0 0
-6.794058 12.532177 -3.328972 14.638878 -1.074016 1.800210 0.002264 0.000272 1468580.000000 1 0 0
-6.517558 3.137577 -2.352372 7.606353 -0.448660 1.885215 0.000503 -0.000884 -1931260.000000 1 0 0
12.168042 4.054977 -0.772372 12.849150 0.321674 1.630943 0.001837 -0.001972 -660624.000000 1 0 0
2.417042 12.295777 -5.420972 13.653394 1.376696 1.979088 0.004911 -0.000302 491165.000000 1 0 0
-9.110158 -1.321323 -4.238272 10.134289 0.144034 2.002271 0.005546 -0.001650 -1215880.000000 1 0 0
-1.220658 5.754577 3.478628 6.834180 -1.361775 1.036769 -0.002161 0.002376 2079550.000000 1 0 0
11.587442 2.791477 12.010128 16.920530 0.236401 0.781587 0.029899 -0.001842 -705769.000000 1 0 0
-7.051158 -2.315423 -5.797472 9.417574 0.317281 2.233945 0.007628 -0.001979 1257140.000000 1 0 0
7.474542 -7.435823 10.842528 15.123513 -0.782801 0.771405 -0.001470 0.000667 -1683040.000000 1 0 0
-5.490358 -1.951023 -10.991372 12.440289 0.341437 2.654143 0.005326 -0.003962 -23077.700000 1 0 0
0.821342 -6.233323 4.329528 7.633723 -1.439785 0.967745 0.003733 -0.000754 1046110.000000 1 0 0
-4.844158 -9.302123 7.329028 12.794921 1.090680 0.960869 -0.003110 0.000762 2429260.000000 1 0 0
-8.707458 9.314477 1.718528 12.865949 -0.819068 1.436824 -0.000509 -0.000028 1057460.000000 1 0 0
-8.123258 7.317477 -9.039972 14.186398 -0.733260 2.261693 -0.002744 -0.001270 -1151690.000000 1 0 0
-1.293458 -10.674123 -0.121972 10.752897 1.450207 1.582140 0.006193 -0.000297 164368.000000 1 0 0
-3.887958 10.309777 7.811828 13.506753 -1.210174 0.954074 -0.007430 0.002024 1076220.000000 1 0 0
-7.535658 12.097877 2.035728 14.397533 -1.013715 1.428927 -0.000460 -0.003228 1928290.000000 1 0 0
-8.126958 -8.156323 -2.914172 11.877097 0.787202 1.818688 0.014782 -0.004207 -383839.000000 1 0 0
5.407842 4.533777 -8.023772 10.685542 0.697704 2.420220 0.000244 0.000974 1283570.000000 1 0 0
-8.952958 -0.043023 -10.255672 13.613821 0.004805 2.423904 0.006123 -0.001779 -2500580.000000 1 0 0
-15.115558 -2.188623 -1.502472 15.346908 0.143793 1.668854 -0.007716 -0.001731 -305617.000000 1 0 0
-7.164358 -5.768323 8.747928 12.693613 0.677868 0.810467 0.004728 -0.000773 -663597.000000 1 0 0
8.159842 3.447677 -0.947172 8.908796 0.399766 1.677316 -0.000203 0.002589 1006760.000000 1 0 0
11.859642 7.039377 -5.870872 14.989032 0.535669 1.973251 -0.003769 -0.004409 408536.000000 1 0 0
3.791842 13.255877 -9.489772 16.737746 1.292186 2.173617 0.005518 -0.007891 1141360.000000 1 0 0
-9.688158 5.475877 -0.465472 11.138326 -0.514448 1.612599 -0.005260 0.000539 830153.000000 1 0 0
11.284442 -1.386723 -5.158872 12.485015 -0.122275 1.996767 0.007894 0.000291 -694725.000000 1 0 0
10.586242 1.750177 -1.157072 10.792148 0.163844 1.678217 0.001832 0.001973 8264.080000 1 0 0
14.622242 5.018477 4.766128 16.177486 0.330612 1.271744 0.014461 -0.007177 3387070.000000 1 0 0
0.896742 -0.881323 10.377128 10.453021 -0.776726 0.120576 -0.000272 0.000056 1900840.000000 1 0 0
-7.931158 1.483177 -12.608572 14.969274 -0.184871 2.572327 0.003507 -0.003275 -76963.100000 1 0 0
3.125442 -11.605323 -7.891572 14.378067 -1.307727 2.151798 -0.004439 0.000629 232839.000000 1 0 0
2.842842 5.005277 -6.773872 8.889314 1.054262 2.437230 -0.000639 0.001929 -2101050.000000 1 0 0
6.459042 8.059977 0.615028 10.347015 0.895219 1.511321 0.003917 -0.000484 -450216.000000 1 0 0
-9.032558 -5.437923 6.745728 12.516507 0.541915 1.001610 0.001110 -0.000933 -2363000.000000 1 0 0
-0.220358 -6.915823 -11.892672 13.759099 1.538944 2.614652 0.003051 -0.002458 2419360.000000 1 0 0
6.344742 -13.358223 -4.725572 15.525105 -1.127373 1.880087 -0.002651 0.002832 2150030.000000 1 0 0
-3.282058 -0.387223 9.965628 10.499313 0.117439 0.320210 0.000769 -0.000022 633148.000000 1 0 0
8.563142 8.558777 6.971428 13.970715 0.785143 1.048348 0.001158 0.000270 -337601.000000 1 0 0
-7.891558 5.698577 -2.681672 10.096625 -0.625412 1.839623 -0.001185 -0.002107 1371500.000000 1 0 0
-5.361658 5.901177 -6.425672 10.240143 -0.833264 2.249132 0.000363 -0.001133 -993015.000000 1 0 0
3.237742 -13.710423 2.481628 14.304445 -1.338893 1.396428 0.008161 -0.006373 -918693.000000 1 0 0
-11.278258 -7.010923 6.424628 14.752219 0.556173 1.120200 0.005342 -0.001563 -850481.000000 1 0 0
-12.865758 -3.570623 -6.815572 14.990967 0.270716 2.042770 0.006433 -0.000321 203039.000000 1 0 0
6.070342 0.305277 -7.309472 9.506347 0.050248 2.447922 0.001832 0.000715 852146.000000 1 0 0
-1.417858 2.109777 -2.519972 3.579349 -0.979082 2.351854 0.002264 -0.003654 2980000.000000 1 0 0
7.576942 1.016677 -4.991172 9.129923 0.133384 2.149194 0.002567 0.003425 1103540.000000 1 0 0
3.662842 -4.462323 10.843128 12.284224 -0.883478 0.489246 -0.003369 0.000470 -162805.000000 1 0 0
6.042642 -2.598223 2.103028 6.905578 -0.406082 1.261340 0.003178 -0.000211 -999469.000000 1 0 0
-6.304458 7.702677 1.192928 10.024994 -0.884891 1.451518 -0.006694 0.001413 1204910.000000 1 0 0
6.057242 -3.483623 7.974828 10.603004 -0.521922 0.719509 -0.001392 -0.002254 893732.000000 1 0 0
6.788542 -2.282623 -7.866072 10.638128 -0.324370 2.403009 0.002762 -0.000893 1286680.000000 1 0 0
12.026542 -8.148523 -5.837172 15.655948 -0.595496 1.952865 0.017092 -0.002829 40869.400000 1 0 0
5.588942 -9.681823 10.007228 15.003952 -1.047264 0.840658 -0.012672 0.004664 1307730.000000 1 0 0
-6.577358 7.666277 -4.401672 11.018537 -0.861699 1.981745 0.000803 -0.001733 14498.500000 1 0 0
-1.333858 -7.538123 9.688528 12.347876 1.395661 0.668695 -0.001942 -0.001666 723.900000 1 0 0
10.078442 -9.325223 0.762528 13.751953 -0.746599 1.515319 0.009864 -0.002294 2528520.000000 1 0 0
11.042742 6.210777 9.765928 15.996539 0.512337 0.914101 0.004853 -0.001450 2172020.000000 1 0 0
-15.282058 -4.114423 -4.915672 16.572073 0.262996 1.871952 -0.006432 -0.001766 2007260.000000 1 0 0
-4.740858 -4.581223 7.822728 10.230269 0.768275 0.700275 0.002176 -0.002616 -1881480.000000 1 0 0
2.918242 10.883377 -11.031072 15.768595 1.308821 2.345577 0.000358 -0.003848 -1977060.000000 1 0 0
9.954342 -1.393623 1.655228 10.186800 -0.139097 1.407585 -0.001283 0.002496 -1858870.000000 1 0 0
-1.561758 -2.683423 0.631428 3.168366 1.043716 1.370162 0.003728 -0.004133 1561250.000000 1 0 0
1.537642 2.955077 0.901428 3.451000 1.091010 1.306523 -0.000171 -0.000555 -2143210.000000 1 0 0
-8.960958 -2.422323 4.317828 10.237678 0.264010 1.135412 -0.001286 -0.002663 2737320.000000 1 0 0
9.954842 4.897977 -2.681572 11.414022 0.457243 1.807950 -0.000393 -0.000356 2356890.000000 1 0 0
2.585942 8.482677 2.548928 9.227131 1.274896 1.290914 -0.002614 0.001448 2253350.000000 1 0 0
-8.095558 -0.156023 2.465428 8.464085 0.019270 1.275231 -0.002687 -0.003418 1734520.000000 1 0 0
6.905942 2.082377 13.719528 15.500122 0.292864 0.484036 0.000256 -0.005011 427594.000000 1 0 0
6.905342 4.414977 3.832528 9.047875 0.568857 1.133399 -0.002792 0.002120 287127.000000 1 0 0
-0.192858 3.286777 7.722828 8.395366 -1.512187 0.402992 -0.006075 0.003227 -179283.000000 1 0 0
2.724442 -10.225423 9.184928 14.012307 -1.310407 0.855965 -0.006176 -0.000771 1360900.000000 1 0 0
1.345342 -4.638323 6.842528 8.375212 -1.288493 0.614611 0.001437 -0.001701 1080360.000000 1 0 0
-0.097958 10.793177 -1.994172 10.976293 -1.561721 1.753491 0.003413 0.000534 1578390.000000 1 0 0
8.769942 5.618077 7.962828 13.110351 0.569743 0.918051 0.001046 -0.000112 -892398.000000 1 0 0
2.708142 11.407177 -2.822672 12.059238 1.337705 1.807055 0.003633 -0.002297 2177550.000000 1 0 0
1.561742 2.426077 -6.718172 7.311548 0.998841 2.735938 0.000875 -0.001392 1750650.000000 1 0 0
-13.632158 -2.175823 3.577728 14.260788 0.158275 1.317208 -0.002413 -0.002044 2815580.000000 1 0 0
-0.915758 -10.515223 -5.381172 11.847596 1.483927 2.042270 0.003260 0.001473 -227614.000000 1 0 0
-5.637458 2.881077 0.445128 6.346627 -0.472456 1.500603 0.000282 -0.001860 264258.000000 1 0 0
3.713242 7.204177 -4.901372 9.471631 1.094882 2.114699 -0.001131 -0.000397 -1689910.000000 1 0 0
3.034742 9.698177 -6.486972 12.055916 1.267530 2.138947 0.002320 -0.000955 1004840.000000 1 0 0
-12.180058 1.783677 -2.543172 12.569926 -0.145409 1.774525 0.002208 -0.001753 1517400.000000 1 0 0
-2.413658 9.632677 -5.645472 11.423028 -1.325281 2.087732 0.000660 -0.001673 1473980.000000 1 0 0
-1.282758 3.384477 1.731828 4.012404 -1.208513 1.124510 -0.001895 -0.000797 -1610030.000000 1 0 0
12.865642 3.843277 9.640028 16.529539 0.290286 0.948134 0.027115 -0.003563 1267370.000000 1 0 0
-2.529358 -9.550223 11.592528 15.231254 1.311893 0.705787 -0.005625 -0.006737 1991070.000000 1 0 0
-0.447058 -8.947723 -7.655572 11.784286 1.520875 2.277910 0.002535 -0.002190 2577700.000000 1 0 0
2.341942 7.661477 -0.413272 8.022077 1.274139 1.622336 -0.001886 0.001841 1654940.000000 1 0 0
-11.838458 -1.264023 -5.462472 13.099063 0.106370 2.000952 0.001238 -0.000371 -840934.000000 1 0 0
-6.230358 -7.190623 -11.068672 14.595818 0.856826 2.431567 0.007543 -0.002772 661186.000000 1 0 0
-4.633358 -2.351223 -1.436972 5.390839 0.469594 1.840617 0.007265 -0.003295 -1677390.000000 1 0 0
-10.367358 3.678777 4.571828 11.912897 -0.340982 1.176919 -0.000341 -0.004092 2942020.000000 1 0 0
6.803342 9.360577 -3.621672 12.125279 0.942304 1.874114 0.001941 -0.001311 466226.000000 1 0 0
1.225142 -2.695823 -11.532072 11.906180 -1.144240 2.890247 0.005049 -0.005177 -990600.000000 1 0 0
1.285742 8.767777 7.615428 11.684254 1.425190 0.860883 -0.007463 0.004970 811297.000000 1 0 0
10.349142 0.517177 10.498528 14.750976 0.049931 0.778856 0.012552 -0.003869 713857.000000 1 0 0
-5.259758 -0.791523 -3.903572 6.597684 0.149366 2.203910 0.004733 -0.002657 133355.000000 1 0 0
11.742342 5.692577 5.511428 14.165588 0.451406 1.171173 0.011228 -0.002707 2491200.000000 1 0 0
9.936842 -3.488723 3.742828 11.176796 -0.337645 1.229324 0.003905 -0.002484 -2938680.000000 1 0 0
7.353942 -1.576023 -3.407372 8.256785 -0.211116 1.996186 0.001007 0.002399 -3719640.000000 1 0 0
2.385442 9.270077 10.487728 14.199194 1.318934 0.739784 -0.007947 0.005732 1909390.000000 1 0 0
2.344342 -10.901723 6.288228 12.801770 -1.358979 1.057330 -0.003970 0.000729 583244.000000 1 0 0
5.908642 -7.563323 -1.238472 9.677278 -0.907610 1.699126 -0.000760 -0.002415 -383877.000000 1 0 0
-0.208458 -5.575023 -2.376472 6.063988 1.533422 1.973491 0.003652 -0.001707 1490280.000000 1 0 0
7.795742 -5.097123 2.682828 9.692875 -0.579066 1.290351 0.001949 -0.003244 1440110.000000 1 0 0
-2.806258 -12.556923 4.674228 13.689404 1.350926 1.222339 0.004194 0.003200 -298405.000000 1 0 0
4.830242 -10.337623 -1.110272 11.464309 -1.133691 1.667794 0.002387 -0.002992 1605680.000000 1 0 0
1.038842 0.160977 1.028828 1.470916 0.153736 0.796173 -0.002187 -0.000896 -1209740.000000 1 0 0
-1.651258 8.570277 2.464228 9.069108 -1.380456 1.295620 -0.006057 0.005296 115519.000000 1 0 0
-7.499958 0.746577 -3.067472 8.137329 -0.099217 1.957312 0.002783 -0.000376 -2119670.000000 1 0 0
4.388442 -6.326423 12.813128 14.948521 -0.964332 0.541085 -0.000799 -0.003206 929309.000000 1 0 0
-5.102158 13.007877 8.480528 16.344915 -1.197001 1.025293 -0.007546 -0.007725 1490310.000000 1 0 0
0.718642 6.040177 8.247128 10.247698 1.452376 0.635494 -0.007339 0.005910 745276.000000 1 0 0
8.007542 -0.588623 -0.653072 8.055663 -0.073377 1.651955 0.001790 0.002968 2636350.000000 1 0 0
2.404642 -9.285223 -2.440272 9.897100 -1.317388 1.819930 -0.001201 -0.000700 1763510.000000 1 0 0
-7.055058 12.173177 4.960328 14.918611 -1.045544 1.231851 -0.009114 -0.005400 -432364.000000 1 0 0
-14.920758 0.272377 0.219428 14.924857 -0.018253 1.556094 0.003884 -0.005844 793092.000000 1 0 0
6.923442 -0.554323 3.992628 8.011392 -0.079894 1.049080 0.000352 0.002512 149695.000000 1 0 0
-4.234258 -5.077323 5.054228 8.321861 0.875691 0.918084 0.002334 -0.002308 -699377.000000 1 0 0
2.917842 5.045977 6.867428 9.007622 1.046522 0.703780 -0.007200 0.002912 -710544.000000 1 0 0
2.012842 -7.137223 1.715828 7.611540 -1.295915 1.343418 0.003450 -0.001421 2818570.000000 1 0 0
-2.440158 6.402077 -1.807972 7.085882 -1.206644 1.828801 -0.000371 0.001738 2511160.000000 1 0 0
2.669542 -3.805723 -6.570772 8.048915 -0.959095 2.525868 0.000294 -0.003428 -269948.000000 1 0 0
-5.086058 0.881077 -12.178672 13.227409 -0.171531 2.740705 0.002049 -0.001425 640720.000000 1 0 0
-7.515158 6.507077 -11.895872 15.502627 -0.713630 2.445488 -0.000231 -0.003154 3081430.000000 1 0 0
-0.972758 11.310177 -8.966472 14.465960 -1.485000 2.239326 0.005280 -0.001079 1461840.000000 1 0 0
4.640742 5.901877 -0.529272 7.526538 0.904455 1.641175 -0.001327 0.001025 316351.000000 1 0 0
-2.690258 13.397877 3.626728 14.138379 -1.372634 1.311380 -0.007918 0.001933 1397020.000000 1 0 0
1.454142 -7.902823 10.179128 12.968569 -1.388829 0.668249 -0.003570 -0.004325 -774844.000000 1 0 0
12.957242 -0.280323 -0.993272 12.998280 -0.021631 1.647287 0.003908 0.002677 1608220.000000 1 0 0
-0.990558 3.087777 -5.390772 6.290946 -1.260368 2.600041 0.001283 -0.003885 2205010.000000 1 0 0
6.558342 1.101877 7.320928 9.890499 0.166457 0.737432 -0.002817 0.002122 362645.000000 1 0 0
5.459742 -6.198123 6.864828 10.740175 -0.848651 0.877374 -0.003968 -0.000281 1558340.000000 1 0 0
12.157442 -4.899123 2.637028 13.370068 -0.383067 1.372261 0.007505 -0.000191 -1302860.000000 1 0 0
4.443542 -9.222723 13.708228 17.109038 -1.121811 0.641453 -0.008283 -0.003218 590834.000000 1 0 0
-2.663858 -4.336723 -1.468872 5.297253 1.019960 1.851768 0.008502 -0.004976 1863120.000000 1 0 0
-9.300158 -5.157423 -7.649272 13.099745 0.506331 2.194352 0.012609 0.000379 1674450.000000 1 0 0
-10.568158 -3.095123 7.884228 13.543515 0.284905 0.949438 0.002134 -0.000821 952831.000000 1 0 0
12.071942 -0.586323 1.748728 12.212027 -0.048531 1.427105 0.002982 -0.000544 -478655.000000 1 0 0
-7.503458 4.733677 4.458028 9.928927 -0.562807 1.105157 -0.004630 -0.000950 2688020.000000 1 0 0
-1.055058 10.573477 6.933928 12.688220 -1.471342 0.992634 -0.009439 0.005463 2047730.000000 1 0 0
7.318542 -10.088523 1.856528 12.601033 -0.943205 1.422927 0.006142 -0.005201 3062020.000000 1 0 0
-4.252958 -1.746623 1.614528 4.872888 0.389683 1.233085 0.003114 -0.002144 2382640.000000 1 0 0
6.662442 -15.021723 -0.942372 16.459901 -1.153344 1.628080 0.010814 -0.005638 -1047540.000000 1 0 0
-10.347358 1.670077 2.378728 10.747805 -0.160021 1.347626 -0.003814 -0.001008 111740.000000 1 0 0
-3.016158 8.425577 -11.294972 14.410550 -1.227033 2.471556 0.005049 -0.002500 -214308.000000 1 0 0
-1.343758 -5.209123 -6.936672 8.778272 1.318338 2.481947 -0.000103 -0.004433 1157100.000000 1 0 0
12.813442 -0.473923 6.492628 14.372304 -0.036970 1.102075 0.016403 -0.004024 1734040.000000 1 0 0
5.864342 -13.348823 3.700528 15.042456 -1.156863 1.322239 0.002853 -0.005489 1974400.000000 1 0 0
-5.525758 3.515177 -4.959172 8.214856 -0.566573 2.218910 0.002384 -0.002277 1264010.000000 1 0 0
-4.424358 8.052377 3.468628 9.820749 -1.068377 1.209814 -0.006034 0.002725 -976800.000000 1 0 0
13.964442 6.056677 -3.930572 15.720636 0.409235 1.823504 0.002929 -0.001530 -1017640.000000 1 0 0
-6.822358 -8.534723 5.200228 12.100761 0.896443 1.126587 0.001429 0.000550 1007500.000000 1 0 0
1.605342 11.305277 2.758828 11.747236 1.429740 1.333733 -0.003782 -0.000219 1826170.000000 1 0 0
-7.292358 7.259077 6.089128 11.956177 -0.783111 1.036440 -0.007503 -0.003251 -12412.600000 1 0 0
-17.333458 -4.045523 5.191528 18.540954 0.229289 1.286999 0.008048 -0.009155 -1100870.000000 1 0 0
7.504842 -13.147123 -8.692272 17.456377 -1.052098 2.092021 0.006261 -0.001606 -1081410.000000 1 0 0
-2.251258 12.783077 -2.876572 13.294732 -1.396472 1.788890 0.000099 0.000737 1551750.000000 1 0 0
-5.514558 14.002477 -5.658472 16.077874 -1.195623 1.930441 0.009424 -0.003905 2301600.000000 1 0 0
-5.579758 2.434977 7.459828 9.628699 -0.411482 0.684478 -0.001400 -0.001819 1228690.000000 1 0 0
-7.402558 5.040377 1.508928 9.081857 -0.597790 1.403875 -0.002698 0.001705 1518020.000000 1 0 0
10.737842 -5.707923 -5.016472 13.154719 -0.488584 1.962046 0.005261 0.001067 3476420.000000 1 0 0
-9.476358 -0.769023 6.787128 11.681518 0.080974 0.950822 0.001911 -0.003719 1896690.000000 1 0 0
-11.255258 -4.494123 -2.596872 12.394423 0.379895 1.781880 -0.000481 -0.002961 1108670.000000 1 0 0
6.431142 -4.253223 13.554428 15.593973 -0.584311 0.517195 0.001849 -0.006034 -1027430.000000 1 0 0
0.245342 10.247977 -11.605872 15.484751 1.546860 2.418108 0.005263 -0.002940 -1088710.000000 1 0 0
-11.760358 -3.166923 1.456228 12.266051 0.263048 1.451795 -0.004738 -0.002462 2685400.000000 1 0 0
5.195242 6.001577 5.396328 9.598428 0.857289 0.973741 -0.002570 0.003086 -4248160.000000 1 0 0
-7.110858 -0.003523 8.092928 10.773105 0.000495 0.720894 -0.002205 -0.002182 1532930.000000 1 0 0
1.754642 1.968577 9.694628 10.046884 0.842795 0.265586 -0.003309 0.002235 2519890.000000 1 0 0
10.518842 -4.980823 -2.044372 11.816687 -0.442235 1.744678 0.000906 0.005024 3541620.000000 1 0 0
-9.701458 -2.303123 -1.630072 10.103455 0.233085 1.732843 0.003206 -0.003371 -1534570.000000 1 0 0
-2.022158 -5.242523 -9.941672 11.419720 1.202659 2.627157 0.005081 -0.005893 -394495.000000 1 0 0
7.696342 -1.606823 6.618828 10.277375 -0.205821 0.871056 0.000704 -0.001399 2857950.000000 1 0 0
1.452842 -11.887623 -2.669772 12.270045 -1.449185 1.790135 0.000143 0.002327 -3170190.000000 1 0 0
-0.742758 -1.541723 4.692828 4.995121 1.121838 0.349680 0.002121 -0.001921 1786210.000000 1 0 0
7.619142 1.616977 9.889528 12.588435 0.209123 0.667124 -0.000212 -0.001020 1315560.000000 1 0 0
-3.809858 10.790777 -7.880372 13.894465 -1.231393 2.173849 0.005939 -0.002946 2447850.000000 1 0 0
-9.474558 12.667177 6.425628 17.073761 -0.928601 1.184948 -0.003223 -0.009469 1488870.000000 1 0 0
-2.559058 -2.477223 -11.064472 11.623595 0.769150 2.830167 0.006757 -0.006250 -2473820.000000 1 0 0
1.179742 -11.887823 11.070628 16.287140 -1.471881 0.823421 -0.009668 0.004685 1690490.000000 1 0 0
1.409242 3.411577 -1.950772 4.174965 1.179068 2.056979 0.000402 -0.001584 1838970.000000 1 0 0
-1.883258 -9.463823 -12.089472 15.468223 1.374367 2.467972 0.001871 -0.002198 2109120.000000 1 0 0
1.357242 -2.720323 1.520228 3.399022 -1.108008 1.107103 0.006199 -0.002388 2010700.000000 1 0 0
-1.110158 -2.291023 -6.641472 7.112692 1.119570 2.775545 0.003306 -0.005295 -44189.300000 1 0 0
1.769342 5.803877 4.049628 7.294865 1.274891 0.982272 -0.007660 0.004236 848300.000000 1 0 0
-10.938558 8.593477 3.724828 14.400495 -0.665907 1.309162 -0.005125 -0.007413 2965900.000000 1 0 0
-16.380258 -1.451923 3.939228 16.909714 0.088408 1.335680 0.012421 -0.004228 203878.000000 1 0 0
-12.216658 0.206277 6.821528 13.993660 -0.016883 1.061603 -0.000324 -0.002933 5917.540000 1 0 0
-5.050158 2.996877 4.657228 7.495008 -0.535569 0.900297 -0.003876 0.000459 985416.000000 1 0 0
5.258742 -6.101423 3.927828 8.961560 -0.859441 1.117093 -0.003729 -0.002613 852505.000000 1 0 0
9.984242 3.425077 6.342428 12.314327 0.330468 1.029737 0.002270 0.001261 -279903.000000 1 0 0
-12.027358 5.825277 3.262328 13.756234 -0.451038 1.331362 -0.003457 -0.003178 1781540.000000 1 0 0
-4.820058 12.338877 -1.248272 13.305602 -1.198385 1.664750 -0.003421 0.003316 2675940.000000 1 0 0
-1.678358 -12.187223 10.302728 16.046541 1.433943 0.873623 -0.004271 0.001100 150014.000000 1 0 0
5.230542 6.421977 13.876228 16.160138 0.887291 0.538127 -0.005508 0.004726 1130280.000000 1 0 0
12.913942 -3.723923 -5.937672 14.693313 -0.280748 1.986799 0.005006 -0.000413 1716450.000000 1 0 0
3.496942 -2.563223 6.478928 7.795846 -0.632525 0.589760 -0.002891 0.001335 1080610.000000 1 0 0
7.248042 -11.940323 -0.614872 13.981541 -1.025229 1.614788 0.007113 -0.001349 -1014920.000000 1 0 0
-5.988658 -6.476223 -4.115072 9.733412 0.824493 2.007305 0.017054 -0.004077 -998667.000000 1 0 0
0.256342 -8.966823 4.992628 10.266253 -1.542216 1.062929 0.003127 -0.000718 1771520.000000 1 0 0
-10.235858 2.531677 -0.384172 10.551292 -0.242468 1.607214 -0.003607 0.000623 -2172480.000000 1 0 0
-1.817558 8.897377 -0.341072 9.087528 -1.369289 1.608337 0.001498 0.001932 100132.000000 1 0 0
-3.517758 2.368777 -6.686972 7.918417 -0.592634 2.576396 0.003102 -0.004674 -495110.000000 1 0 0
-12.599958 3.029377 6.445028 14.473232 -0.235949 1.109280 -0.002168 -0.006432 827855.000000 1 0 0
11.392942 1.663577 8.069528 14.060011 0.144994 0.959494 0.016154 -0.006538 -2397510.000000 1 0 0
6.029942 2.643077 -3.134272 7.291757 0.413103 2.015109 -0.001670 0.002807 442581.000000 1 0 0
10.519042 -2.400023 6.480728 12.586111 -0.224320 1.029892 0.007336 -0.004067 2958460.000000 1 0 0
-1.066158 10.967877 4.101828 11.758232 -1.473893 1.214455 -0.005629 0.004444 1716840.000000 1 0 0
-1.700658 -12.208123 7.377728 14.365283 1.432382 1.031444 -0.003702 0.005235 -760533.000000 1 0 0
8.095442 8.624977 -7.771172 14.153358 0.817058 2.152046 -0.000194 -0.007078 1715550.000000 1 0 0
-4.728158 -5.953523 -8.825272 11.648405 0.899615 2.430483 0.009844 -0.004850 829480.000000 1 0 0
-8.584958 -5.267123 -11.793972 15.509412 0.550308 2.434786 0.015208 -0.003775 2502590.000000 1 0 0
6.017042 -0.698323 -9.963472 11.660327 -0.115541 2.595338 0.004911 -0.000643 119476.000000 1 0 0
-11.243158 -5.384223 -5.416672 13.591865 0.446616 1.980702 0.000983 -0.003503 -779042.000000 1 0 0
3.989342 8.882077 -2.668772 10.095964 1.148654 1.838316 0.001709 -0.000921 792313.000000 1 0 0
11.623942 -10.532523 -4.076372 16.207001 -0.736178 1.825046 0.018435 -0.000518 213306.000000 1 0 0
3.875842 -11.329423 3.874628 12.585337 -1.241173 1.257845 0.001422 -0.001170 393703.000000 1 0 0
-0.970558 0.796477 3.073228 3.319802 -0.687200 0.387845 0.001754 0.000136 -1351480.000000 1 0 0
-10.548358 -5.118223 4.508228 12.561376 0.451750 1.203711 0.001623 -0.002076 3721910.000000 1 0 0
4.526342 -8.720823 2.687928 10.186534 -1.092043 1.303763 0.000206 -0.001443 4286270.000000 1 0 0
-3.749758 -5.778823 2.598528 7.362596 0.995209 1.210089 0.006510 -0.002573 2876910.000000 1 0 0
9.983442 5.125077 12.272028 16.629438 0.474277 0.740739 0.009437 0.000503 -87768.700000 1 0 0
1.616942 -12.273923 -5.376872 13.497201 -1.439813 1.980535 0.000209 0.002749 1418010.000000 1 0 0
9.809742 -10.792523 -1.733872 14.687270 -0.833065 1.689125 0.009016 -0.002130 137797.000000 1 0 0
9.579542 -4.449023 -9.299072 14.072462 -0.434789 2.292679 0.013559 -0.003144 1514640.000000 1 0 0
-7.474258 -2.970923 -13.135472 15.402323 0.378338 2.592166 0.004807 -0.003661 1177370.000000 1 0 0
0.483942 6.221377 -2.479272 6.714650 1.493166 1.948980 -0.001306 -0.000281 1684390.000000 1 0 0
-6.061958 -9.558023 0.892028 11.353363 1.005589 1.492146 0.002746 -0.000468 575231.000000 1 0 0
-9.013958 -4.108423 0.600728 9.924286 0.427654 1.510228 -0.001673 -0.002430 2040600.000000 1 0 0
1.921042 3.808277 12.116328 12.845185 1.103604 0.338486 -0.003881 0.000142 1453740.000000 1 0 0
6.623142 4.357377 9.622128 12.467481 0.581910 0.689164 -0.007233 0.002402 2303770.000000 1 0 0
-8.295458 9.970577 -3.540672 13.444828 -0.876849 1.837288 -0.004045 -0.000218 1136020.000000 1 0 0
16.411942 1.972877 -6.022672 17.593086 0.119636 1.920194 0.008569 0.001665 41841.300000 1 0 0
-10.844358 2.658677 -5.059672 12.258423 -0.240425 1.996268 -0.000745 0.000439 616732.000000 1 0 0
-13.638758 4.077177 1.538628 14.318047 -0.290485 1.463128 0.001032 0.000250 682528.000000 1 0 0
-17.381958 10.539877 3.270628 20.589281 -0.545089 1.411270 0.024477 -0.003182 -686068.000000 1 0 0
-14.366258 2.805777 -1.078172 14.677337 -0.192875 1.644321 0.003662 -0.001237 792129.000000 1 0 0
-14.269758 5.154977 5.190228 16.035531 -0.346663 1.241190 0.002181 -0.005555 525234.000000 1 0 0
-17.336158 7.582477 3.199728 19.190482 -0.412309 1.403279 0.015784 0.000979 -1973980.000000 1 0 0
-14.692458 12.694477 -3.414372 19.714868 -0.712573 1.744862 0.021928 -0.012424 -1198570.000000 1 0 0
-8.450958 12.613677 -9.484172 17.901762 -0.980501 2.129149 0.006905 -0.012227 1088840.000000 1 0 0
-12.283658 8.913877 -9.694072 18.008900 -0.627747 2.139207 -0.002447 0.003336 -394725.000000 1 0 0
-13.844358 -3.423023 -12.308272 18.838176 0.242389 2.282822 0.008946 -0.000028 -2064240.000000 1 0 0
-14.690458 5.791277 -7.572472 17.512589 -0.375514 2.017951 0.014563 0.007213 1411850.000000 1 0 0
-10.953558 13.750777 -8.396072 19.482257 -0.898146 2.016353 0.013567 -0.009380 1837710.000000 1 0 0
-10.873558 13.536177 4.004828 17.818558 -0.894049 1.344104 0.005597 -0.007855 -1035390.000000 1 0 0
-15.102858 3.342477 3.066428 15.769320 -0.217804 1.375094 0.005276 0.000281 -365200.000000 1 0 0
-11.193058 9.582777 -12.326972 19.211153 -0.708045 2.267453 0.001641 -0.004135 366716.000000 1 0 0
-13.025658 11.652277 -8.951972 19.636220 -0.729803 2.044169 0.011550 -0.014557 188036.000000 1 0 0
-8.805058 14.700677 -3.481672 17.486023 -1.031145 1.771248 0.004876 -0.009730 1881730.000000 1 0 0
-16.596758 8.188277 -4.066072 18.948171 -0.458326 1.787067 0.025769 0.000776 -683315.000000 1 0 0
-16.741758 6.992377 0.350828 18.146704 -0.395638 1.551462 0.013351 0.006983 147658.000000 1 0 0
-10.388558 2.948877 -12.469572 16.495704 -0.276583 2.427868 0.003205 -0.002211 1346160.000000 1 0 0
-16.782058 0.982277 2.451728 16.988623 -0.058465 1.425975 0.006658 -0.006581 505828.000000 1 0 0
-12.709858 1.272777 -6.857672 14.497866 -0.099808 2.063503 0.005031 -0.003974 746787.000000 1 0 0
-12.249858 9.057177 -5.382772 16.157528 -0.636663 1.910432 0.007991 -0.000520 -1787160.000000 1 0 0
-9.654058 13.923577 1.231928 16.987775 -0.964540 1.498214 0.011041 -0.010873 -1316740.000000 1 0 0
-12.181358 11.143977 2.832328 16.750994 -0.740953 1.400896 0.002542 -0.006284 -67483.800000 1 0 0
-12.536258 6.911677 -3.570472 14.753892 -0.503868 1.815225 -0.000828 0.002403 1697420.000000 1 0 0
-15.844058 3.685477 -9.355172 18.765291 -0.228545 2.092705 0.021370 0.001749 -1005990.000000 1 0 0
-15.108558 5.824577 -4.590972 16.830664 -0.367957 1.847072 0.017883 0.005208 -113362.000000 1 0 0
-17.762658 5.209077 7.591828 20.007058 -0.285262 1.181586 0.010228 -0.004183 -665434.000000 1 0 0
-15.784758 10.298277 -2.185472 18.973386 -0.578074 1.686239 0.028128 0.001281 -854472.000000 1 0 0
-8.719358 10.048877 -8.246272 15.652736 -0.856119 2.125659 -0.001852 -0.006305 -1240660.000000 1 0 0
-16.967858 4.394777 -1.105572 17.562590 -0.253437 1.633788 0.013482 0.003100 1662980.000000 1 0 0
-10.219458 5.431377 -4.537472 12.430842 -0.488509 1.944448 -0.003219 0.000398 342118.000000 1 0 0
-18.226858 2.726077 6.155528 19.430398 -0.148463 1.248444 0.030123 -0.014979 -586918.000000 1 0 0
-10.295258 10.136677 -5.668972 15.520368 -0.777637 1.944709 -0.006204 -0.004190 -248605.000000 1 0 0
-15.371758 0.499377 -5.803672 16.438459 -0.032475 1.931630 0.008499 -0.000559 289176.000000 1 0 0
-16.388058 -4.003023 -8.839372 19.045397 0.239573 2.053439 0.011284 -0.011397 -1131070.000000 1 0 0
-9.913758 9.705577 -1.010672 13.910510 -0.774788 1.643516 -0.005047 0.000406 1593860.000000 1 0 0
-17.307158 -2.968523 -3.162872 17.842466 0.169867 1.749005 -0.004714 -0.001186 -729298.000000 1 0 0
-12.027158 5.143777 -11.430072 17.371169 -0.404139 2.288944 0.008470 0.000986 908575.000000 1 0 0
-16.227958 7.117677 5.904828 18.678194 -0.413338 1.249144 0.011458 -0.001425 -147822.000000 1 0 0
-11.973858 6.058177 -8.686172 15.985130 -0.468397 2.145267 0.004530 0.003959 1146470.000000 1 0 0
-14.432258 8.704977 -0.109172 16.854632 -0.542741 1.577274 0.014273 0.000848 1613100.000000 1 0 0
-14.915558 11.844677 4.000128 19.462047 -0.671143 1.363786 0.009420 -0.011303 2160280.000000 1 0 0
-17.281558 4.114777 -3.992572 18.207808 -0.233750 1.791871 0.022145 0.002920 53030.700000 1 0 0
-13.927658 13.397777 -0.718272 19.338976 -0.766009 1.607946 0.022359 -0.013925 -616811.000000 1 0 0
-10.169958 6.976277 -13.082372 17.979014 -0.601247 2.385681 -0.001615 -0.003050 1660750.000000 1 0 0
-15.892858 -1.039823 -8.302972 17.961167 0.065334 2.051354 0.013078 -0.008135 929400.000000 1 0 0
-11.495958 11.931477 -0.059772 16.568668 -0.803986 1.574404 0.005912 -0.007355 993548.000000 1 0 0
-11.834958 7.466577 -0.866072 14.020203 -0.562825 1.632609 -0.004019 0.003434 1787810.000000 1 0 0
-11.434658 0.310177 -11.664872 16.337590 -0.027119 2.365976 0.004593 -0.006017 -452030.000000 1 0 0
-19.058758 -1.248823 -4.716972 19.673475 0.065431 1.812918 0.007145 -0.004972 -1520460.000000 1 0 0
-17.984958 1.480077 -4.978472 18.719896 -0.082110 1.839981 0.011277 -0.000467 676893.000000 1 0 0
-13.267158 -0.033523 -9.418872 16.270641 0.002527 2.188160 0.008353 -0.005973 1896.350000 1 0 0
-6.115558 11.309477 -13.171172 18.406089 -1.075085 2.368262 0.002158 -0.005489 -1078090.000000 1 0 0
16.386442 5.890177 6.948728 18.748186 0.345072 1.191104 0.024458 -0.007045 1094190.000000 1 0 0
14.842642 9.975377 -5.556072 18.726508 0.591738 1.872027 0.019887 -0.005343 1187520.000000 1 0 0
2.348742 16.821077 4.365328 17.536286 1.432062 1.319220 0.014020 -0.013177 1985060.000000 1 0 0
-3.930858 18.138177 -5.819272 19.450168 -1.357379 1.874639 0.000831 -0.008908 865845.000000 1 0 0
5.371042 14.590177 5.719228 16.565957 1.218065 1.218302 0.006276 -0.009011 -218128.000000 1 0 0
9.889542 6.022477 15.104928 19.032397 0.546992 0.654023 0.020289 -0.004378 -1448980.000000 1 0 0
4.699542 12.802577 -1.154172 13.686628 1.218989 1.655225 0.001954 -0.003170 1599820.000000 1 0 0
3.569042 13.799377 13.019428 19.304569 1.317705 0.830615 0.005548 -0.003216 -221086.000000 1 0 0
-0.851558 12.369377 9.209728 15.444926 -1.502061 0.931919 -0.010127 0.001100 397026.000000 1 0 0
-7.712058 13.960477 8.421628 18.035925 -1.066096 1.084973 -0.000226 -0.014155 852314.000000 1 0 0
11.471642 12.688677 -4.095872 17.589124 0.835729 1.805818 0.023635 -0.001628 325545.000000 1 0 0
-5.794558 16.176677 0.848928 17.204141 -1.226831 1.521432 0.000202 -0.000681 493572.000000 1 0 0
3.245742 10.642277 6.901028 13.092635 1.274772 1.015621 -0.002604 0.002005 849675.000000 1 0 0
-1.183858 15.518977 2.525828 15.767688 -1.494659 1.409913 -0.004727 -0.003907 -1394490.000000 1 0 0
9.904742 8.923577 9.487628 16.363045 0.733334 0.952288 0.004445 -0.001515 841787.000000 1 0 0
7.259242 12.387677 6.271928 15.668064 1.040731 1.158952 0.007959 -0.005146 1652.850000 1 0 0
11.967842 13.918077 -1.536272 18.420159 0.860596 1.654295 0.023531 -0.003713 -319360.000000 1 0 0
9.751342 15.887477 -1.247372 18.683055 1.020309 1.637611 0.026109 -0.003736 944125.000000 1 0 0
10.043742 13.781377 3.029328 17.319929 0.941008 1.394988 0.025451 -0.007131 1864350.000000 1 0 0
-6.007158 14.608777 6.336328 17.019147 -1.180671 1.189304 -0.014649 -0.006818 -117443.000000 1 0 0
-0.943858 18.210777 -6.305572 19.294650 -1.519013 1.903716 0.019319 -0.005495 804461.000000 1 0 0
-3.593758 15.794377 5.418128 17.080210 -1.347071 1.248003 -0.009100 -0.004736 1612930.000000 1 0 0
7.057842 12.390877 10.704128 17.830461 1.053030 0.926885 0.001394 0.002647 3059230.000000 1 0 0
1.375442 14.644077 6.237828 15.976587 1.477146 1.169692 -0.000981 -0.004472 2039000.000000 1 0 0
17.415942 7.514077 -1.478572 19.025314 0.407320 1.648591 0.000107 -0.000844 66768.000000 1 0 0
2.127742 16.256777 -3.435172 16.751433 1.440653 1.777329 0.004148 -0.004250 2173550.000000 1 0 0
6.637042 11.181377 0.608728 13.017069 1.035111 1.524015 0.009684 -0.003445 1695390.000000 1 0 0
12.754842 9.310077 3.225828 16.117367 0.630529 1.369289 0.017619 -0.003352 -1447800.000000 1 0 0
6.163942 14.377877 -3.470472 16.023786 1.165787 1.789109 0.000934 0.000456 2053440.000000 1 0 0
3.076442 16.358777 1.620928 16.724279 1.384907 1.473723 0.010161 -0.018987 -2388630.000000 1 0 0
2.690642 19.010077 -2.646872 19.381139 1.430193 1.707794 0.014860 -0.006263 -2810050.000000 1 0 0
3.957842 12.008477 10.683028 16.552798 1.252421 0.869261 0.001276 0.000878 3798560.000000 1 0 0
7.955342 11.598077 3.421428 14.474427 0.969583 1.332160 0.008208 -0.002740 1537580.000000 1 0 0
0.721542 12.526177 0.130528 12.547621 1.513257 1.560394 0.001830 -0.001417 -824360.000000 1 0 0
11.985842 9.705377 -4.550572 16.079878 0.680650 1.857715 0.011578 -0.001849 979240.000000 1 0 0
-1.315658 16.440277 9.944928 19.259161 -1.490940 1.028185 -0.004592 -0.008333 -882216.000000 1 0 0
8.291042 14.632177 -8.018372 18.631594 1.055274 2.015693 0.011336 -0.002671 1419550.000000 1 0 0
14.473842 7.527577 -1.381972 16.372733 0.479583 1.655304 0.006152 -0.005785 878490.000000 1 0 0
12.500742 8.391777 6.015628 16.213521 0.591205 1.190683 0.011294 -0.003708 -438287.000000 1 0 0
-3.131358 14.201277 10.287928 17.813566 -1.353771 0.955092 -0.001632 -0.010262 2146930.000000 1 0 0
-4.601758 17.000477 -3.093972 17.881976 -1.306447 1.744693 0.009053 -0.012692 -316678.000000 1 0 0
-7.138758 16.547777 -1.744672 18.106206 -1.163515 1.667304 0.011725 -0.005827 -634908.000000 1 0 0
8.331442 11.137077 -1.861472 14.032551 0.928524 1.703842 0.009902 -0.005406 -1742650.000000 1 0 0
8.601742 12.833977 -4.128672 15.992088 0.980329 1.831923 0.015411 -0.003175 2771580.000000 1 0 0
2.636242 14.747777 -7.309172 16.669454 1.393909 2.024700 0.001953 -0.004358 -197562.000000 1 0 0
11.346142 11.486977 9.665428 18.817707 0.791566 1.031381 0.014880 -0.001206 531148.000000 1 0 0
8.564142 15.689977 1.450128 17.933845 1.071156 1.489848 0.020857 -0.008646 467700.000000 1 0 0
6.076442 10.027777 7.751828 14.055970 1.026005 0.986638 -0.000979 0.005489 2280380.000000 1 0 0
14.520442 11.317077 2.566828 18.587848 0.662046 1.432262 0.027722 -0.004928 1591920.000000 1 0 0
12.108242 12.664477 1.194628 17.562051 0.807848 1.502721 0.025018 -0.000892 1742800.000000 1 0 0
5.132742 16.007877 8.219628 18.712548 1.260514 1.116024 0.016923 -0.006991 -967487.000000 1 0 0
11.341042 15.103677 5.134028 19.572903 0.926733 1.305389 0.029221 -0.004907 331470.000000 1 0 0
5.888042 16.762677 1.784628 17.856128 1.233000 1.470684 0.004731 -0.020698 246929.000000 1 0 0
-0.664958 16.272877 -4.227772 16.826252 -1.529956 1.824779 0.007296 -0.002493 -325739.000000 1 0 0
16.026542 6.360377 2.442528 17.414660 0.377801 1.430075 0.002300 -0.006480 -386508.000000 1 0 0
7.866942 16.724177 -3.267272 18.768643 1.131113 1.745769 0.010769 -0.003746 -436438.000000 1 0 0
14.815042 8.281277 7.424728 18.525432 0.509710 1.158422 0.019361 -0.003504 -565906.000000 1 0 0
1.993442 12.952277 8.672428 15.714525 1.418088 0.986187 -0.000302 -0.000309 1299540.000000 1 0 0
16.027842 7.314677 -5.737172 18.528664 0.428141 1.885608 0.003920 0.003230 -324806.000000 1 0 0
-2.947358 16.952277 0.678528 17.219960 -1.398655 1.531383 -0.003014 -0.004493 322366.000000 1 0 0
-2.929158 18.565177 4.556528 19.339279 -1.414309 1.332950 -0.006837 -0.005563 -804679.000000 1 0 0
-0.794658 18.947977 0.775928 18.980500 -1.528882 1.529905 -0.000074 -0.010291 -610636.000000 1 0 0
7.157642 16.746777 -6.163772 19.227025 1.166891 1.897137 0.014178 0.000381 1697280.000000 1 0 0
10.997042 10.095577 0.798728 14.949702 0.742686 1.517343 0.013585 -0.002610 -1828900.000000 1 0 0
9.136442 8.764377 14.294328 19.094939 0.764616 0.724860 0.013527 0.000067 743863.000000 1 0 0
6.431842 12.361377 -8.357072 16.248474 1.091027 2.111022 0.009298 -0.004933 1764470.000000 1 0 0
6.343642 9.056477 13.313928 17.306711 0.959766 0.693063 0.001911 -0.003466 272703.000000 1 0 0
16.754942 9.355477 2.724228 19.382323 0.509248 1.429777 0.021052 -0.012666 -1777170.000000 1 0 0
2.613642 14.756477 -0.851472 15.010322 1.395496 1.627553 0.004186 -0.006513 499588.000000 1 0 0
9.100042 13.033277 8.359328 17.959829 0.961269 1.086658 0.009623 -0.002917 332446.000000 1 0 0
7.210442 9.394477 10.570028 15.873631 0.916177 0.842116 0.000159 0.001376 1296080.000000 1 0 0
4.392142 15.871777 -5.327072 17.308435 1.300826 1.883648 0.005489 0.000257 2225310.000000 1 0 0
0.346142 16.326577 -8.051172 18.207095 1.549598 2.028846 0.012774 -0.005751 -1161580.000000 1 0 0
-2.361458 15.656177 -2.011672 15.960551 -1.421092 1.697173 -0.003183 -0.002071 -956131.000000 1 0 0
13.234942 10.601477 7.592728 18.579681 0.675364 1.149814 0.015381 -0.005360 1817120.000000 1 0 0
-1.102858 15.988377 7.089628 17.524478 -1.501927 1.154303 -0.004517 -0.004196 2712240.000000 1 0 0
13.182742 13.432477 6.566528 19.933274 0.794781 1.235101 0.021627 -0.005581 -124511.000000 1 0 0
5.324242 17.401277 4.545428 18.756677 1.273873 1.326023 0.013729 -0.016435 1028920.000000 1 0 0
10.737842 9.375477 -1.881372 14.378470 0.717767 1.702019 0.009309 -0.002049 76109.700000 1 0 0
3.189442 12.782277 4.829428 14.031484 1.326269 1.219426 -0.002257 0.000140 2068560.000000 1 0 0
-0.241758 18.026577 3.589528 18.382074 -1.557386 1.374260 -0.002515 -0.007709 1574510.000000 1 0 0
-7.671758 15.983777 -5.840572 18.666797 -1.123300 1.889026 0.012673 -0.011543 146040.000000 1 0 0
-12.377558 -9.047623 8.307128 17.437654 0.631210 1.074252 0.009707 -0.001582 -172827.000000 1 0 0
-13.199058 -11.631523 6.905428 18.899534 0.722353 1.196760 0.012666 0.003382 -854995.000000 1 0 0
-6.340758 -12.453823 12.185828 18.541772 1.099862 0.853686 -0.001229 -0.001170 71767.200000 1 0 0
-1.825958 -10.744523 14.362028 18.029052 1.402461 0.649139 0.002564 -0.008307 -267894.000000 1 0 0
-8.834258 2.845277 11.079628 14.453300 -0.311582 0.697296 0.004307 -0.005139 1691590.000000 1 0 0
0.655242 10.066877 15.175528 18.222733 1.505799 0.586686 -0.004251 -0.006406 -59908.700000 1 0 0
0.995442 -6.845723 16.563128 17.949708 -1.426398 0.395635 0.004873 -0.017075 2410240.000000 1 0 0
5.968442 2.204877 17.907628 19.004392 0.353872 0.341394 0.007570 0.001121 2372300.000000 1 0 0
-5.133058 -2.990323 17.630328 18.604268 0.527498 0.325003 0.010578 -0.008692 334114.000000 1 0 0
-4.219058 8.144777 13.066828 15.964957 -1.092847 0.612054 -0.001150 -0.004083 576495.000000 1 0 0
0.085242 -4.839323 18.433328 19.058171 -1.553184 0.256776 0.009577 -0.021986 528056.000000 1 0 0
-11.668858 2.067177 11.167128 16.283127 -0.175334 0.815081 0.007501 -0.005929 1726480.000000 1 0 0
-3.429158 -6.046423 14.338528 15.934608 1.054890 0.451404 0.010647 -0.008703 714063.000000 1 0 0
-7.528858 -2.237923 14.571728 16.553768 0.288928 0.494373 0.003102 -0.002140 1792560.000000 1 0 0
-6.205758 -1.120423 10.563928 12.302981 0.178621 0.538171 0.000843 -0.003173 1660240.000000 1 0 0
-3.990858 2.333577 11.150228 12.070630 -0.529116 0.393041 0.000369 0.000615 1206900.000000 1 0 0
-6.422658 6.318077 13.586028 16.301803 -0.777190 0.585553 -0.001008 -0.003073 905652.000000 1 0 0
-9.012558 5.435777 12.672128 16.472908 -0.542721 0.693097 -0.001207 -0.003545 -696606.000000 1 0 0
-12.127058 -2.069823 15.731728 19.970903 0.169049 0.663677 -0.004204 0.003318 836882.000000 1 0 0
-3.403158 -7.532223 16.903828 18.816356 1.146436 0.454779 0.019785 -0.016936 -1972280.000000 1 0 0
-0.573458 -5.429623 14.393028 15.393794 1.465570 0.362568 0.007358 -0.007257 2304370.000000 1 0 0
-14.142658 -2.158423 13.677028 19.792288 0.151449 0.807886 -0.000272 -0.000417 -341151.000000 1 0 0
-6.511958 1.412077 12.158828 13.864943 -0.213538 0.501323 -0.001853 -0.002004 463235.000000 1 0 0
2.179642 -2.289323 14.551928 14.891287 -0.809936 0.213898 0.000689 -0.005450 1162930.000000 1 0 0
-12.518258 3.999877 9.111328 15.991313 -0.309271 0.964574 0.001623 -0.007338 -871264.000000 1 0 0
-9.113958 -3.066123 12.500828 15.771367 0.324526 0.655689 -0.001387 -0.000946 506065.000000 1 0 0
-7.105758 -7.198323 15.235728 18.287565 0.791869 0.586072 0.014958 -0.006625 73919.200000 1 0 0
-3.113758 5.960077 19.355928 20.490728 -1.089362 0.334365 0.010947 -0.011963 -413485.000000 1 0 0
0.674742 5.538677 16.202028 17.135867 1.449570 0.331658 0.002023 0.001059 -505838.000000 1 0 0
3.356142 1.477877 16.817128 17.212310 0.414800 0.214698 -0.001898 -0.004063 1575590.000000 1 0 0
-11.631658 11.402977 7.862428 18.087043 -0.775471 1.121092 0.002831 -0.015542 421480.000000 1 0 0
0.693942 -9.600423 15.444228 18.198182 -1.498639 0.557333 -0.005308 -0.004797 887696.000000 1 0 0
-2.533258 -3.630523 18.879928 19.392003 0.961571 0.230319 0.014355 -0.018409 1640430.000000 1 0 0
-12.900558 2.338777 13.748528 18.997797 -0.179345 0.761661 0.000192 -0.001140 -759051.000000 1 0 0
-5.410258 -0.652323 15.788928 16.702894 0.119992 0.332342 0.001573 0.001415 1599880.000000 1 0 0
-4.497158 -5.962823 11.673628 13.858328 0.924613 0.569159 0.003184 -0.002308 -83131.600000 1 0 0
2.428442 1.875077 14.012528 14.344483 0.657516 0.215553 -0.002673 -0.000685 -16477.100000 1 0 0
0.080142 3.362977 14.342328 14.731545 1.546970 0.230381 0.003485 -0.002006 807205.000000 1 0 0
-13.031658 7.039177 12.172828 19.171642 -0.495257 0.882866 0.011770 -0.008725 341294.000000 1 0 0
0.776042 1.364477 18.224128 18.291607 1.053674 0.085922 0.006862 -0.004623 760441.000000 1 0 0
-1.970758 6.354477 12.481028 14.143526 -1.270066 0.489740 -0.004003 0.000156 543078.000000 1 0 0
-13.549758 -2.639123 10.893628 17.584995 0.192364 0.902711 0.011364 -0.003230 -500819.000000 1 0 0
-2.616658 3.577877 13.466028 14.176812 -0.939343 0.317999 0.001568 0.001745 316431.000000 1 0 0
3.512642 6.190277 16.280628 17.768428 1.054658 0.412136 -0.003095 0.002530 -262207.000000 1 0 0
-3.709058 12.369677 12.366128 17.879797 -1.279476 0.807059 0.004563 -0.011871 641851.000000 1 0 0
3.613842 -1.480823 17.133928 17.573394 -0.388895 0.224109 0.012195 -0.008111 419427.000000 1 0 0
-15.849458 0.449477 9.133628 18.298374 -0.028352 1.048179 0.008209 -0.004393 657298.000000 1 0 0
-4.813858 4.539777 15.179928 16.559378 -0.756105 0.411063 0.003737 -0.003736 756610.000000 1 0 0
-8.021158 -8.152223 10.441228 15.486024 0.793502 0.830867 0.007719 -0.001239 4399540.000000 1 0 0
-2.675658 -0.516523 14.726928 14.976927 0.190699 0.182970 0.007824 -0.001161 1482000.000000 1 0 0
-1.983358 0.896677 17.217728 17.354766 -0.424599 0.125751 0.005779 -0.002982 367419.000000 1 0 0
-0.791058 -2.589023 14.363028 14.615929 1.274262 0.186297 0.007847 -0.005247 852842.000000 1 0 0
5.200042 -8.318523 16.372828 19.086847 -1.012114 0.539809 0.001496 -0.013113 1452430.000000 1 0 0
-4.431858 9.976777 10.752828 15.323210 -1.152762 0.792967 -0.004503 -0.004382 -1381120.000000 1 0 0
-6.277758 2.010477 15.174328 16.544258 -0.309933 0.409811 0.002769 -0.000736 -930999.000000 1 0 0
-4.926258 6.822377 17.257928 19.200232 -0.945409 0.453682 0.005570 -0.002540 534423.000000 1 0 0
-3.976258 9.105277 15.721528 18.597934 -1.159059 0.563600 0.006138 -0.009795 -442043.000000 1 0 0
-4.521158 -9.831723 18.340828 21.295295 1.139778 0.533048 0.023866 -0.014729 -1231920.000000 1 0 0
-6.792358 -4.089523 11.038928 13.591109 0.541945 0.622854 0.006687 -0.003277 1180310.000000 1 0 0
-2.394358 -0.867223 19.599228 19.763976 0.347497 0.129208 0.010827 -0.004712 -126365.000000 1 0 0
-5.717258 -4.476323 15.196828 16.842449 0.664257 0.445737 0.013839 -0.005905 2290520.000000 1 0 0
-12.926158 0.029077 9.712628 16.168536 -0.002250 0.926405 0.003016 -0.000896 913860.000000 1 0 0
-14.442558 8.813377 10.387628 19.853612 -0.547912 1.020182 0.006117 -0.008009 -697553.000000 1 0 0
-8.233258 10.590177 12.847728 18.574243 -0.909962 0.806962 0.001399 -0.008881 -167002.000000 1 0 0
-10.433058 7.087577 10.817028 16.615972 -0.596724 0.861893 0.009564 -0.007222 -1053320.000000 1 0 0
-9.877958 -6.594323 14.728228 18.920355 0.588634 0.678631 0.015305 -0.004824 1133240.000000 1 0 0
-0.824358 -13.534423 14.479028 19.836895 1.509963 0.752615 -0.007595 -0.003102 1237280.000000 1 0 0
3.855042 -5.820323 16.898928 18.284181 -0.985794 0.391762 0.010085 -0.016965 2320360.000000 1 0 0
-7.253658 9.284077 10.481028 15.769007 -0.907562 0.843758 -0.000576 -0.008506 1390440.000000 1 0 0
-10.379658 -6.718823 11.763128 17.066079 0.574480 0.810316 0.009567 -0.008363 1038650.000000 1 0 0
-10.962058 -3.937623 10.653128 15.784826 0.344851 0.829972 0.003687 -0.000491 -285247.000000 1 0 0
-10.021858 -10.252623 9.803528 17.368450 0.796780 0.971036 0.009223 -0.001557 2440590.000000 1 0 0
-9.905758 -3.664823 15.182228 18.494729 0.354353 0.607820 0.009493 -0.004612 467930.000000 1 0 0
5.514942 -3.339923 16.113228 17.355281 -0.544537 0.380622 0.009996 -0.012807 308387.000000 1 0 0
-11.222658 0.580977 15.274628 18.963118 -0.051722 0.634292 0.000068 -0.000023 34457.800000 1 0 0
-3.329958 3.093277 18.813828 19.355028 -0.748567 0.237036 0.010884 -0.005545 -1575160.000000 1 0 0
0.525642 7.356477 13.948328 15.778147 1.499465 0.486385 -0.003675 -0.002270 795687.000000 1 0 0
-13.186258 -7.461723 12.296228 19.512865 0.514947 0.889037 0.008215 -0.004004 -285638.000000 1 0 0
-1.578758 -1.220823 12.112828 12.276135 0.658235 0.163294 0.003422 -0.003881 687375.000000 1 0 0
2.006442 -4.869223 13.099628 14.118618 -1.179932 0.382253 0.002071 -0.005294 496083.000000 1 0 0
-14.751558 -4.106023 8.694928 17.608795 0.271473 1.054361 0.015723 -0.010389 -1089240.000000 1 0 0
7.897642 0.822477 16.121328 17.970710 0.103768 0.457660 0.013270 -0.009853 679182.000000 1 0 0
-1.184158 11.430677 13.406028 17.657412 -1.467570 0.708668 -0.003946 -0.002802 824774.000000 1 0 0
2.732642 -12.333123 -13.893972 18.778065 -1.352750 2.403725 0.007123 0.001053 -371050.000000 1 0 0
0.689042 -10.755623 -14.017972 17.682244 -1.506820 2.486138 0.004898 0.000855 -3807030.000000 1 0 0
3.143342 -14.456223 -12.417872 19.314930 -1.356690 2.269095 0.007465 -0.002100 -46175.300000 1 0 0
-5.129758 -10.213423 -16.227072 19.848080 1.105345 2.527964 0.012086 -0.006440 -234341.000000 1 0 0
-1.117058 -12.190723 -15.288672 19.585838 1.479420 2.466419 0.014777 -0.000134 -353651.000000 1 0 0
5.644642 -15.038123 -12.346272 20.259258 -1.211714 2.226117 0.008632 0.000258 315779.000000 1 0 0
1.932742 -11.872023 -16.162972 20.147508 -1.409414 2.501821 0.010966 -0.003498 -710992.000000 1 0 0
1.145542 -14.435823 -14.075672 20.194796 -1.491608 2.341995 0.017729 -0.000427 -214171.000000 1 0 0
-1.093358 -10.645823 -15.983772 19.235642 1.468452 2.551601 0.016869 -0.007655 -573399.000000 1 0 0
-5.772658 -5.366623 -15.140672 17.069393 0.748964 2.661619 0.004592 -0.003277 69530.200000 1 0 0
-6.423758 -7.443523 -16.425572 19.143409 0.858804 2.602213 0.001980 -0.002963 49946.200000 1 0 0
4.918442 -12.659323 -11.529672 17.815242 -1.200223 2.274676 -0.001858 0.002299 -311399.000000 1 0 0
-2.043158 -15.613323 -13.117472 20.494351 1.440676 2.265364 0.009694 -0.002142 407128.000000 1 0 0
15.700342 -7.449823 -9.077472 19.606150 -0.443041 2.052163 0.016046 0.003789 615441.000000 1 0 0
19.155142 -3.660423 -4.372872 19.985999 -0.188817 1.791378 0.014268 -0.005810 290655.000000 1 0 0
14.763242 -11.675423 -8.844772 20.796606 -0.669133 2.010088 0.023766 -0.013088 137577.000000 1 0 0
17.582242 -3.636123 -6.463072 19.082136 -0.203932 1.916329 0.017599 -0.000614 237603.000000 1 0 0
9.677642 -9.228723 -15.512372 20.480717 -0.761658 2.430139 0.036151 -0.005953 85417.200000 1 0 0
1.290742 1.855177 -15.212472 15.379435 0.962928 2.994108 0.012570 -0.003076 -84219.300000 1 0 0
4.790242 -4.373923 -13.884972 15.325471 -0.740000 2.704547 0.002801 -0.001607 575296.000000 1 0 0
13.041742 -5.468523 -8.694372 16.600719 -0.397041 2.122025 0.020921 -0.003186 -1107730.000000 1 0 0
2.878842 0.923777 -12.257072 12.624457 0.310506 2.899753 0.007024 -0.002966 -2308300.000000 1 0 0
0.637642 6.352277 -12.948572 14.436881 1.470751 2.683526 0.010946 -0.004555 250685.000000 1 0 0
3.052742 -1.182823 -16.817572 17.133273 -0.369652 2.949327 0.014901 -0.005692 -199639.000000 1 0 0
13.279642 4.018177 -11.238272 17.854787 0.293824 2.251611 0.000620 -0.005041 20126.800000 1 0 0
-3.932958 9.483777 -16.400472 19.349049 -1.177679 2.582264 0.013721 -0.004378 -25457.000000 1 0 0
-0.213358 -5.051623 -17.672872 18.381916 1.528586 2.862941 0.012840 -0.013206 411341.000000 1 0 0
-0.510358 -8.614223 -17.633872 19.632085 1.511620 2.686492 0.020995 -0.007117 199366.000000 1 0 0
5.549342 -10.199823 -12.266972 16.891127 -1.072523 2.383629 -0.000721 0.000954 292993.000000 1 0 0
1.923842 -9.740223 -18.053872 20.603772 -1.375791 2.638802 0.019680 -0.008766 109294.000000 1 0 0
10.950742 8.691677 -14.446172 20.103629 0.670892 2.372562 0.021985 -0.018617 527297.000000 1 0 0
11.006542 -3.881723 -12.988572 17.461808 -0.339055 2.409575 0.025471 -0.001891 152669.000000 1 0 0
5.064842 7.322977 -12.304872 15.188433 0.965705 2.515200 -0.003846 -0.002995 -768699.000000 1 0 0
9.621542 -5.981923 -12.590672 16.937606 -0.556238 2.408870 0.017448 -0.005289 -930603.000000 1 0 0
-3.281558 0.372277 -15.865972 16.206057 -0.112962 2.936367 0.005607 -0.001203 -115121.000000 1 0 0
-0.719558 10.830377 -12.727372 16.727248 -1.504455 2.435459 0.008606 -0.004001 -507345.000000 1 0 0
6.639542 -5.507823 -12.310172 15.031965 -0.692500 2.530346 0.005205 -0.001272 -46352.500000 1 0 0
17.807442 -6.216523 -8.197272 20.565637 -0.335870 1.980776 0.015806 -0.006354 -855053.000000 1 0 0
13.040742 4.959677 -13.705272 19.557450 0.363428 2.347272 0.000618 -0.013991 506643.000000 1 0 0
14.107042 0.867277 -11.427272 18.175350 0.061401 2.250707 0.007795 -0.001392 130355.000000 1 0 0
14.935842 5.954177 -11.114472 19.546434 0.379342 2.175622 -0.000060 -0.008951 -296374.000000 1 0 0
8.284942 1.441077 -11.672272 14.386066 0.172216 2.517270 -0.001702 0.001715 698904.000000 1 0 0
9.993742 1.228677 -8.982072 13.493041 0.122331 2.299203 0.000618 -0.000214 -10156.100000 1 0 0
-0.175358 -5.839223 -13.092972 14.337126 1.540774 2.721918 0.001517 -0.004804 428762.000000 1 0 0
10.506942 -5.717023 -9.054372 15.002061 -0.498317 2.218732 0.015256 -0.003223 -1940740.000000 1 0 0
10.164242 8.516977 -11.170572 17.338754 0.697448 2.270845 0.006050 -0.013122 425752.000000 1 0 0
8.299042 8.265577 -14.577172 18.699942 0.783378 2.464712 0.006069 -0.004985 896680.000000 1 0 0
8.624342 10.576277 -10.690072 17.335356 0.886710 2.235293 0.012461 -0.010000 -2459880.000000 1 0 0
7.021442 1.725177 -18.022072 19.418341 0.240929 2.760061 0.010970 0.007619 -2426320.000000 1 0 0
12.099342 2.630477 -12.976072 17.935773 0.214075 2.379618 0.000384 0.001684 -1371020.000000 1 0 0
2.768142 -0.892823 -19.318872 19.536596 -0.312001 2.992159 0.020097 -0.011226 -306420.000000 1 0 0
10.293342 -2.170623 -15.433672 18.677867 -0.207831 2.543317 0.017556 -0.002233 1144950.000000 1 0 0
8.317942 -0.867723 -12.977272 15.438611 -0.103943 2.569136 0.006576 -0.000169 230493.000000 1 0 0
0.569642 4.336177 -14.640572 15.279832 1.440175 2.851310 0.009096 -0.001047 -534864.000000 1 0 0
4.009342 -7.680023 -15.713472 17.943544 -1.089666 2.637716 0.008916 -0.005460 -2241080.000000 1 0 0
11.386742 -5.900523 -14.579972 19.417766 -0.478095 2.420156 0.023156 0.000229 -261068.000000 1 0 0
-5.829158 4.395677 -16.904372 18.413551 -0.646110 2.733904 0.005414 0.003293 -339233.000000 1 0 0
11.326342 7.721577 -8.958472 16.375683 0.598363 2.149644 0.005186 -0.008143 -1639090.000000 1 0 0
9.544742 6.254777 -13.457472 17.644486 0.580100 2.438276 0.002107 -0.000371 94937.600000 1 0 0
12.126442 0.524477 -10.172772 15.837013 0.043224 2.268346 0.008485 0.000017 -1641530.000000 1 0 0
5.413642 -7.238523 -13.685072 16.400760 -0.928645 2.557870 -0.001793 -0.000451 -1303190.000000 1 0 0
8.611142 -10.355023 -10.644272 17.166211 -0.877087 2.239630 0.013380 -0.001528 -32884.000000 1 0 0
10.065042 4.933077 -15.877772 19.435637 0.455712 2.526883 0.005341 -0.001230 -218635.000000 1 0 0
9.954642 -0.453623 -10.995572 14.839248 -0.045537 2.405323 0.006815 0.002278 -635336.000000 1 0 0
-1.724058 5.540677 -13.951872 15.110467 -1.269129 2.747447 0.005259 -0.001923 1458190.000000 1 0 0
1.356442 -0.707523 -14.941172 15.019293 -0.480779 3.039555 0.009095 -0.003654 -1444240.000000 1 0 0
11.431142 -10.588823 -14.112872 21.023019 -0.747164 2.306765 0.031425 -0.008897 169294.000000 1 0 0
9.373142 -7.819823 -10.835972 16.322491 -0.695297 2.296775 0.015824 -0.005684 -329239.000000 1 0 0
14.121042 -1.076423 -9.704372 17.167916 -0.076081 2.171547 0.016415 0.001325 770218.000000 1 0 0
3.992942 11.171577 -12.138072 16.972935 1.227527 2.367625 0.002444 -0.009384 -1306980.000000 1 0 0
-1.250858 3.075877 -16.953072 17.275194 -1.184556 2.948177 0.007448 0.000645 98554.100000 1 0 0
5.850842 -0.442423 -17.601872 18.554083 -0.075473 2.819829 0.005130 -0.001066 -177376.000000 1 0 0
6.342242 -6.602323 -16.046372 18.474327 -0.805487 2.623119 0.009460 -0.001302 17992.900000 1 0 0
-1.791458 -5.268823 -19.761372 20.530018 1.243048 2.867089 0.020354 -0.018404 -415512.000000 1 0 0
-0.120458 -4.214123 -15.166172 15.741224 1.542220 2.870461 0.003773 -0.008087 315867.000000 1 0 0
0.435842 0.759677 -13.004572 13.034031 1.049925 3.074347 0.008215 -0.005099 340930.000000 1 0 0
15.512142 0.529377 -13.570572 20.617158 0.034113 2.289245 0.004381 -0.001742 574787.000000 1 0 0
0.003842 7.107277 -16.370872 17.847097 1.570256 2.732004 0.008163 -0.001211 -168114.000000 1 0 0
-4.864758 -0.446923 -18.420772 19.057556 0.091612 2.882357 0.003481 0.003261 75263.500000 1 0 0
10.410642 -8.417423 -13.090872 18.724460 -0.679927 2.344979 0.020275 -0.013409 1193770.000000 1 0 0
3.884542 8.805077 -17.143572 19.660140 1.155309 2.630062 0.001747 -0.007628 -769050.000000 1 0 0
9.062442 0.509177 -17.034072 19.301470 0.056126 2.652006 0.005758 0.003272 -1125700.000000 1 0 0
3.263542 4.935477 -18.644572 19.560923 0.986559 2.834293 0.005824 0.005019 -354542.000000 1 0 0
1.424642 -8.139223 -15.921972 17.938388 -1.397517 2.662888 0.004621 -0.010377 920009.000000 1 0 0
4.457942 7.775877 -14.846972 17.342725 1.050238 2.598457 -0.001600 -0.003100 766702.000000 1 0 0
-5.735258 -0.388323 -15.197772 16.248577 0.067605 2.779985 0.005151 -0.002625 -271442.000000 1 0 0
2.805942 3.334177 -13.781972 14.454508 0.871217 2.835347 0.006002 -0.002336 -213252.000000 1 0 0
-2.544858 -10.225123 -18.060872 20.909915 1.326869 2.613455 0.025304 -0.005560 -192289.000000 1 0 0
6.167342 -9.112123 -15.356872 18.891808 -0.975792 2.519885 0.000514 -0.002533 -301008.000000 1 0 0
-1.776758 5.613277 -17.195072 18.175155 -1.264246 2.811696 0.006318 -0.000459 200475.000000 1 0 0
10.061242 -12.270623 -11.684972 19.706226 -0.884011 2.205524 0.031048 -0.005837 1836710.000000 1 0 0
10.833042 3.593177 -9.440272 14.811633 0.320268 2.261858 -0.000864 -0.002982 -734900.000000 1 0 0
4.835742 -0.471223 -11.039372 12.061268 -0.097139 2.726985 0.005793 -0.004439 711032.000000 1 0 0
6.278942 9.508677 -11.352272 16.084593 0.987188 2.354328 0.001165 -0.010912 147277.000000 1 0 0
10.762742 -9.548923 -9.384572 17.178147 -0.725709 2.148747 0.030417 -0.007008 -1577820.000000 1 0 0
3.239242 -2.458123 -14.542872 15.100668 -0.649146 2.868946 0.010357 -0.006219 83563.700000 1 0 0
9.239742 -4.516723 -14.814572 18.034555 -0.454677 2.534754 0.020739 -0.002620 35744.700000 1 0 0
-3.922158 -6.576623 -16.521472 18.209732 1.033044 2.707586 0.000223 -0.007356 -701834.000000 1 0 0
5.881242 -7.795023 -11.241372 14.890260 -0.924430 2.426371 -0.003107 -0.001515 123838.000000 1 0 0
5.401942 6.515377 -16.834472 18.842255 0.878558 2.675748 0.004219 -0.008750 -776242.000000 1 0 0
9.176642 1.336777 -19.446172 21.544172 0.144654 2.696611 0.024720 -0.001476 459419.000000 1 0 0
13.061842 5.725977 -9.356172 17.056861 0.413144 2.151400 -0.008074 -0.002820 761067.000000 1 0 0
-1.626758 -0.829523 -17.387772 17.483394 0.471555 3.036957 0.011238 -0.002432 888036.000000 1 0 0
-0.390358 -0.607823 -19.661772 19.675038 0.999907 3.104869 0.017887 -0.002977 -224488.000000 1 0 0
2.860442 6.425677 -16.557572 17.989571 1.151976 2.739895 0.004151 -0.001498 -780124.000000 1 0 0
7.748242 3.775877 -15.504172 17.738993 0.453453 2.634204 0.005971 -0.002513 -322760.000000 1 0 0
3.098742 -9.950923 -14.778272 18.083705 -1.268912 2.527358 0.006246 -0.002875 385958.000000 1 0 0
8.933842 -10.538723 -13.334572 19.201277 -0.867630 2.338469 0.020369 -0.007833 -93433.700000 1 0 0
3.822542 0.107577 -14.881172 15.364657 0.028135 2.890062 0.008198 -0.004464 -774900.000000 1 0 0
-1.083958 -2.934523 -18.898872 19.156037 1.216961 2.977551 0.018237 -0.006603 268371.000000 1 0 0
9.288342 10.129577 -13.108172 18.992257 0.828694 2.332541 0.014617 -0.012533 332023.000000 1 0 0
4.622942 2.121977 -10.715172 11.861252 0.430321 2.698374 0.000529 -0.000045 174942.000000 1 0 0
-0.469658 7.134977 -18.905472 20.212505 -1.505066 2.780002 0.011337 0.000897 42634.800000 1 0 0
0.855742 -1.838523 -17.645972 17.762117 -1.135168 3.027172 0.018975 -0.008185 -1905960.000000 1 0 0
-4.534558 -2.194623 -14.117472 14.989383 0.450747 2.798835 0.005866 -0.005266 -3453720.000000 1 0 0
10.047442 5.998277 -10.376972 15.640076 0.538207 2.296265 0.003619 -0.002035 157713.000000 1 0 0
8.095042 5.528777 -17.468872 20.031440 0.599214 2.630218 0.010095 -0.007762 -281200.000000 1 0 0
11.365642 0.238877 -13.668872 17.778441 0.021014 2.447830 0.008618 0.007305 407834.000000 1 0 0
6.817642 12.008577 -11.815772 18.174120 1.054442 2.278569 0.011459 -0.013312 -386373.000000 1 0 0
-0.914058 0.472177 -15.196372 15.231158 -0.476818 3.073995 0.008101 -0.002984 -636977.000000 1 0 0
-4.306158 -2.860223 -19.080872 19.768752 0.586305 2.877017 0.004478 0.004377 -168736.000000 1 0 0
5.662142 -12.075023 -13.914172 19.273562 -1.132326 2.377384 -0.000943 -0.005059 -78327.800000 1 0 0
2.176242 -4.771523 -13.968072 14.920137 -1.142890 2.782424 0.003762 -0.004869 725873.000000 1 0 0
11.604542 2.021677 -15.495772 19.464623 0.172483 2.491618 0.005962 0.004286 497958.000000 1 0 0
9.684942 2.241177 -13.729872 16.950822 0.227406 2.514919 0.001568 0.002219 -290822.000000 1 0 0
-2.302058 -4.175423 -16.404372 17.083239 1.066929 2.858733 0.006476 -0.008541 -1154190.000000 1 0 0
-2.854158 10.314677 -14.287472 17.851349 -1.300843 2.498689 0.008419 -0.003979 540938.000000 1 0 0
3.520042 5.707777 -13.768072 15.314347 1.018181 2.688348 0.000752 0.000036 -197183.000000 1 0 0
-5.130958 -2.496723 -16.637372 17.588704 0.452870 2.811192 0.005395 -0.000215 480017.000000 1 0 0
-4.327958 6.282677 -13.538072 15.539712 -0.967578 2.628421 0.001911 -0.001920 -448477.000000 1 0 0
5.995542 -1.111923 -14.071972 15.336339 -0.183375 2.732689 0.010175 -0.000290 -1312170.000000 1 0 0
6.820542 -3.054123 -12.638172 14.682331 -0.421009 2.607585 0.006716 -0.002568 1324790.000000 1 0 0
2.932342 -3.316623 -18.304872 18.832604 -0.846816 2.904299 0.022679 -0.012600 -446726.000000 1 0 0
7.429742 -12.103123 -12.141172 18.684076 -1.020241 2.278136 0.012852 -0.001761 -1181690.000000 1 0 0
-5.937658 -5.263923 -17.718372 19.414051 0.725324 2.720535 0.016027 -0.003218 305133.000000 1 0 0
0.547142 8.748477 -11.952072 14.821850 1.508336 2.508805 0.004599 -0.001218 219267.000000 1 0 0
0.538642 8.591077 -14.470372 16.837114 1.508180 2.604956 0.007062 -0.004114 517675.000000 1 0 0
7.718242 -2.455123 -15.064072 17.103367 -0.307973 2.648275 0.011220 -0.007502 -947195.000000 1 0 0
14.335242 1.411777 -8.848072 16.905048 0.098166 2.121631 0.004043 0.001240 608981.000000 1 0 0
2.893542 10.627077 -14.588072 18.278928 1.304961 2.494901 0.004535 -0.004344 -403360.000000 1 0 0
6.218842 0.990077 -15.482072 16.713731 0.157881 2.755290 0.014262 -0.002809 33948.000000 1 0 0
16.693442 -5.344523 -10.378472 20.370263 -0.309845 2.105390 0.042281 -0.013491 419542.000000 1 0 0
4.873542 -4.235423 -11.148072 12.882924 -0.715458 2.616619 0.000908 -0.002990 -278697.000000 1 0 0
8.844242 -3.441823 -17.179172 19.626276 -0.371126 2.636883 0.012868 -0.000904 323171.000000 1 0 0
13.297442 -9.513323 -8.895272 18.613198 -0.621003 2.069060 0.028757 -0.009512 -176531.000000 1 0 0
2.490442 -7.719623 -13.640772 15.870272 -1.258726 2.605121 0.001999 -0.001023 -229960.000000 1 0 0
-6.844758 -2.320323 -18.567272 19.924312 0.326835 2.770386 0.007925 0.001080 991677.000000 1 0 0
-1.418358 -6.461123 -15.657472 16.997479 1.354702 2.741858 0.008719 -0.009260 -796870.000000 1 0 0
1.728842 -7.238523 -18.299872 19.755263 -1.336349 2.755344 0.022651 -0.016857 -470215.000000 1 0 0
5.439142 10.808777 -14.313272 18.742564 1.104580 2.439787 0.001778 -0.018975 175810.000000 1 0 0
5.494442 -3.421523 -17.377272 18.543605 -0.556961 2.785033 0.022346 -0.009996 1149900.000000 1 0 0
4.028442 12.978577 -14.072372 19.562809 1.269833 2.373653 0.000206 -0.007878 39049.000000 1 0 0
9.359742 10.326677 -15.749072 21.030414 0.834476 2.417154 0.021186 -0.018022 161284.000000 1 0 0
2.453242 3.898977 -16.312872 16.950818 1.009181 2.866371 0.010582 -0.001355 208369.000000 1 0 0
16.602942 1.802577 -11.523372 20.290271 0.108146 2.174780 0.016817 0.001205 472948.000000 1 0 0
9.946042 -3.640823 -10.625872 15.002950 -0.350908 2.357816 0.016379 -0.001268 15350.400000 1 0 0
14.554442 -2.306023 -12.003772 19.006317 -0.157135 2.254370 0.019943 0.000038 180432.000000 1 0 0
-2.606658 -8.650223 -15.959372 18.339100 1.278111 2.626481 0.009097 -0.005579 -271898.000000 1 0 0
13.961242 8.081677 -8.956072 18.451044 0.524734 2.077613 0.010713 -0.005622 387361.000000 1 0 0
-8.354958 0.303077 -16.666472 18.645870 -0.036259 2.676639 0.004873 -0.002637 -66365.100000 1 0 0
-3.496358 4.190777 -15.889572 16.800763 -0.875489 2.810738 0.005997 0.002966 -304292.000000 1 0 0
15.177542 3.964777 -9.511772 18.345328 0.255517 2.115874 0.004196 -0.000299 526519.000000 1 0 0
5.282342 1.079177 -13.010872 14.083698 0.201526 2.748751 0.004020 0.000487 265759.000000 1 0 0
7.823242 -7.827923 -12.850572 16.959266 -0.785697 2.430626 0.012663 -0.003876 -3970030.000000 1 0 0
3.202042 -6.109223 -11.842572 13.704824 -1.088030 2.614190 0.000775 -0.002655 -1028880.000000 1 0 0
-3.216858 3.881377 -18.415072 19.092620 -0.878744 2.874387 0.007733 0.003268 -267709.000000 1 0 0
0.844642 5.157677 -17.717572 18.472342 1.408473 2.854745 0.009661 -0.007217 -1173340.000000 1 0 0
6.276942 7.152977 -10.220072 13.964776 0.850536 2.391824 -0.000459 -0.002898 439007.000000 1 0 0
9.692642 3.751977 -11.694872 15.645916 0.369332 2.415044 -0.001120 0.000215 558501.000000 1 0 0
4.604742 1.818377 -17.304872 17.999132 0.376095 2.862945 0.012552 -0.006175 -770145.000000 1 0 0
2.699642 8.018577 -13.082772 15.580263 1.246043 2.567530 0.000390 -0.007388 -1788770.000000 1 0 0
14.383742 -3.678323 -9.813172 17.796641 -0.250362 2.154845 0.025638 -0.000355 -130332.000000 1 0 0
-1.367358 9.300777 -16.236972 18.762020 -1.424827 2.616778 0.010327 -0.002567 -933705.000000 1 0 0
-5.262358 2.155377 -15.632572 16.634764 -0.388741 2.792704 0.006000 -0.002833 596097.000000 1 0 0
4.503842 4.261177 -11.947272 13.460295 0.757720 2.662891 -0.001433 -0.000811 567840.000000 1 0 0
9.195642 3.139677 -17.537972 20.049885 0.329021 2.635648 0.006505 -0.001938 967943.000000 1 0 0
-4.345558 14.474777 -13.163972 20.042286 -1.279142 2.287377 0.019801 -0.004558 -331885.000000 1 0 0
15.510542 -5.111723 -7.990572 18.181195 -0.318355 2.025834 0.023496 -0.001662 788428.000000 1 0 0
1.142142 9.388177 -16.960672 19.419237 1.449734 2.632928 0.000240 0.004078 -902095.000000 1 0 0
0.439542 -3.263723 -12.789972 13.207137 -1.436927 2.889585 0.001055 -0.003549 94044.200000 1 0 0
7.457042 3.499977 -12.925072 15.326931 0.438830 2.574175 -0.001588 0.000531 40914.200000 1 0 0
-2.902158 7.629277 -15.011672 17.087384 -1.207302 2.643559 0.006660 -0.001358 643301.000000 1 0 0
12.067842 -5.119723 -11.058772 17.150534 -0.401231 2.271566 0.029826 -0.004153 -1016740.000000 1 0 0
0.714942 -4.497023 -20.093972 20.603448 -1.413135 2.918746 0.024782 -0.013542 9686.560000 1 0 0
3.518942 -4.595023 -16.130072 17.136990 -0.917250 2.797089 0.013547 -0.009172 397990.000000 1 0 0
-5.717458 4.187677 -14.378972 16.030621 -0.632166 2.683662 0.002998 0.000520 756198.000000 1 0 0
12.224642 -7.499223 -9.907972 17.431240 -0.550251 2.175360 0.022202 -0.003629 311672.000000 1 0 0
-2.108158 -1.853223 -15.023972 15.283930 0.721132 2.956893 0.008589 -0.004057 272096.000000 1 0 0
7.113442 5.837077 -14.138072 16.868836 0.687158 2.564620 0.000557 -0.003363 -449460.000000 1 0 0
4.326042 -5.541123 -18.338272 19.639524 -0.907925 2.775528 0.025795 -0.014524 190251.000000 1 0 0
7.602942 7.459677 -12.251572 16.234301 0.775887 2.425950 -0.004128 -0.005503 -2170370.000000 1 0 0
12.299642 -2.579223 -10.946972 16.666427 -0.206704 2.287400 0.023763 -0.004140 -1543470.000000 1 0 0
7.443342 -0.665423 -10.620572 12.986250 -0.089161 2.528430 0.000994 0.000998 -1995320.000000 1 0 0
5.326342 3.937677 -14.400672 15.851012 0.636607 2.710481 -0.000161 -0.000673 499682.000000 1 0 0
14.668942 2.833277 -13.060772 19.844120 0.190799 2.289180 0.004616 -0.003692 327936.000000 1 0 0
-6.636858 6.706177 -15.872072 18.464652 -0.790593 2.605268 0.004670 0.006046 599728.000000 1 0 0
-11.342758 3.855977 -16.383272 20.296264 -0.327694 2.510200 0.025860 -0.009153 -434444.000000 1 0 0
-4.951058 6.660077 -17.859672 19.693590 -0.931537 2.706610 0.002519 0.008399 -39147.200000 1 0 0
-10.033258 1.791077 -15.594372 18.629511 -0.176653 2.562718 0.016201 -0.008342 -423401.000000 1 0 0
-7.565558 6.052677 -18.112472 20.541037 -0.674760 2.650398 0.004223 0.005945 -5783.460000 1 0 0
-8.753258 3.973077 -15.738772 18.442175 -0.426090 2.593293 0.006266 0.009581 -668801.000000 1 0 0
9.000642 13.419677 -11.891872 20.062800 0.980003 2.205244 0.027759 -0.021871 -863483.000000 1 0 0
13.703342 8.825677 -11.452572 19.920732 0.572183 2.183287 0.004749 -0.013042 658410.000000 1 0 0
8.539142 15.782777 -9.092172 20.116675 1.074857 2.039771 0.025180 -0.009620 -183648.000000 1 0 0
7.280142 13.580377 -13.820772 20.698813 1.078705 2.301923 0.015537 -0.012149 113289.000000 1 0 0
4.801642 15.953677 -12.544172 20.855020 1.278446 2.216166 0.022830 -0.013985 468112.000000 1 0 0
10.973142 11.061077 -11.365972 19.285814 0.789389 2.201043 0.012734 -0.015069 -270818.000000 1 0 0
15.737242 9.717277 -9.965272 21.009353 0.553166 2.064994 0.023837 0.001001 403584.000000 1 0 0
13.284742 10.398577 -9.447272 19.335608 0.664131 2.081275 0.037371 -0.010252 -115777.000000 1 0 0
10.729042 11.926777 -8.080372 17.962538 0.838216 2.037389 0.025026 0.001905 635459.000000 1 0 0
5.491642 16.219977 -10.023372 19.842222 1.244338 2.100356 0.018701 -0.011736 203430.000000 1 0 0
6.813342 14.608377 -11.443572 19.768198 1.134388 2.188161 0.014308 -0.006384 -845455.000000 1 0 0
10.935042 13.912077 -9.754372 20.205663 0.904644 2.074593 0.036457 -0.002494 -444948.000000 1 0 0
8.201942 -18.675923 -1.068172 20.425546 -1.156983 1.623116 0.029818 -0.002853 -856295.000000 1 0 0
7.272842 -17.403523 -3.203972 19.132231 -1.174959 1.739054 0.019431 -0.004287 -630417.000000 1 0 0
4.491042 -18.301023 5.714728 19.691496 -1.330153 1.276347 0.016682 -0.002652 7292.150000 1 0 0
9.683442 -17.198623 -2.601772 19.908061 -1.058000 1.701861 0.020258 -0.003578 -1089180.000000 1 0 0
-9.782358 -12.210723 -10.211172 18.683263 0.895368 2.149025 0.023483 -0.002559 -274121.000000 1 0 0
-5.054358 -6.952423 -12.102372 14.844195 0.942183 2.524032 0.001666 -0.003322 -238117.000000 1 0 0
-10.933858 -9.411923 -5.668972 15.500670 0.710734 1.945207 0.013402 -0.002409 -887528.000000 1 0 0
-4.560458 -11.523723 -14.057472 18.740504 1.193963 2.419027 0.012622 -0.003060 470345.000000 1 0 0
-2.871158 -15.556123 7.323428 17.431841 1.388283 1.137221 -0.010246 0.002700 -1167.800000 1 0 0
-4.871958 -11.988423 -11.592072 17.373382 1.184795 2.301282 0.011286 -0.002712 -223660.000000 1 0 0
-14.404858 -12.637823 -4.036472 19.583350 0.720148 1.778402 0.006926 -0.011225 -78597.200000 1 0 0
-3.121958 -12.241323 -3.378372 13.077079 1.321085 1.832103 0.007955 -0.000850 641743.000000 1 0 0
-2.634858 -17.389623 -1.512072 17.652983 1.420421 1.656557 -0.009491 -0.006005 -68354.900000 1 0 0
-5.869858 -12.218223 3.590328 14.022505 1.122936 1.311872 -0.008660 0.002900 272411.000000 1 0 0
-8.726958 -10.640523 -12.080572 18.311765 0.883882 2.291238 0.013913 0.002452 807704.000000 1 0 0
-10.049558 -11.592123 -7.597372 17.119900 0.856555 2.030602 0.021460 -0.013673 503311.000000 1 0 0
-10.937758 -15.098723 6.425028 19.720217 0.943871 1.238929 0.012454 0.001142 -388737.000000 1 0 0
-9.502958 -15.880523 0.492628 18.513235 1.031552 1.544184 0.000871 0.008571 -1186280.000000 1 0 0
-14.830758 -7.705823 -8.189772 18.611917 0.479192 2.026427 0.000188 -0.003315 -369568.000000 1 0 0
-2.332658 -16.579123 4.953628 17.459869 1.431015 1.283130 -0.000425 0.000545 -39266.800000 1 0 0
4.252742 -15.766023 5.624828 17.271131 -1.307326 1.239068 0.007759 -0.005521 -618483.000000 1 0 0
4.277042 -14.732623 -10.165572 18.403318 -1.288252 2.156010 0.002347 0.000617 356450.000000 1 0 0
-7.611458 -14.150423 -0.415872 16.073012 1.077293 1.596673 -0.001085 0.004792 836593.000000 1 0 0
3.019242 -14.952623 9.721328 18.088697 -1.371555 1.003415 0.000533 0.001214 17563.000000 1 0 0
2.297242 -17.324023 10.450428 20.361987 -1.438961 1.031850 0.010268 0.003062 -296173.000000 1 0 0
-8.314958 -16.907723 -6.110472 19.807763 1.113743 1.884400 0.020307 -0.011447 -43118.500000 1 0 0
-6.467058 -9.202123 -7.774472 13.672758 0.958208 2.175612 0.017641 -0.007127 376606.000000 1 0 0
-6.028658 -13.007723 -4.854472 15.136428 1.136799 1.897280 0.006568 -0.007740 288695.000000 1 0 0
2.245842 -19.505623 -4.693872 20.187758 -1.456163 1.805455 0.009341 -0.009233 -24902.300000 1 0 0
-5.400858 -12.914023 8.190328 16.217975 1.174685 1.041396 -0.007019 0.003232 805154.000000 1 0 0
2.275442 -17.548023 3.478828 18.033662 -1.441846 1.376672 0.012716 -0.009267 250180.000000 1 0 0
-17.535558 -10.116723 -2.536872 20.402931 0.523281 1.695458 0.006979 -0.013355 503253.000000 1 0 0
-3.573858 -15.411323 2.469928 16.011929 1.342926 1.415922 -0.003931 0.000582 -16163.000000 1 0 0
-9.954558 -10.105123 -14.393172 20.208170 0.792904 2.363488 0.011560 0.001834 -358200.000000 1 0 0
5.974142 -14.593023 -5.683772 16.761621 -1.182227 1.916750 -0.006230 -0.000675 478498.000000 1 0 0
-7.328258 -12.302923 -10.867472 17.976852 1.033580 2.219967 0.014315 -0.005542 -862842.000000 1 0 0
-7.301158 -14.323323 3.771228 16.513226 1.099388 1.340387 -0.006391 0.006193 975736.000000 1 0 0
3.265442 -15.055223 -3.139872 15.722011 -1.357207 1.771860 0.003895 0.000552 -834220.000000 1 0 0
-7.584258 -11.450723 7.757028 15.773760 0.985796 1.056677 -0.002540 0.001240 -265444.000000 1 0 0
-12.735158 -12.381023 -1.152872 17.798963 0.771299 1.635614 -0.001340 0.005511 -1328140.000000 1 0 0
-1.979858 -13.675623 3.936328 14.367921 1.427022 1.293282 0.002724 0.002066 -3482040.000000 1 0 0
-3.199758 -14.083923 5.206328 15.352562 1.347396 1.224817 -0.005601 0.001736 -48567.900000 1 0 0
-14.490058 -10.174323 -4.396772 18.243087 0.612173 1.814203 -0.002841 -0.007127 510045.000000 1 0 0
-6.344458 -8.699623 -10.590772 15.102981 0.940689 2.347928 0.012216 -0.003508 -32586.900000 1 0 0
0.856342 -19.480523 2.447228 19.652303 -1.526866 1.445946 0.010847 -0.013598 198205.000000 1 0 0
6.432842 -14.203323 -8.292372 17.660104 -1.145524 2.059582 0.002367 -0.000753 -2521610.000000 1 0 0
-4.150258 -16.774823 -6.052272 18.309815 1.328257 1.907680 0.002419 -0.004333 227964.000000 1 0 0
-3.902358 -13.728023 -13.104272 19.375473 1.293840 2.313569 0.019413 -0.003363 -1485750.000000 1 0 0
-8.176258 -14.577323 -4.692872 17.360086 1.059632 1.844527 0.011191 -0.007231 -1229800.000000 1 0 0
-4.255458 -14.336323 9.813428 17.886935 1.282250 0.990064 -0.013838 -0.002648 -2266290.000000 1 0 0
-0.393358 -12.240423 -10.072872 15.857031 1.538671 2.259103 0.004583 -0.000340 136153.000000 1 0 0
2.434242 -17.235623 6.909128 18.727741 -1.430491 1.192944 0.003798 -0.005376 -1382110.000000 1 0 0
-2.956558 -19.225623 -3.399672 19.746482 1.418210 1.743824 -0.008980 -0.008219 -1415700.000000 1 0 0
0.668942 -15.351823 -3.219272 15.699989 -1.527250 1.777310 0.002316 -0.000619 -656420.000000 1 0 0
6.013742 -17.935123 0.552328 18.924555 -1.247272 1.541606 0.023798 -0.011327 -903624.000000 1 0 0
-7.188058 -16.752123 3.798128 18.620622 1.165472 1.365380 -0.010282 0.008602 765605.000000 1 0 0
-5.326858 -13.580623 -9.668972 17.501364 1.196998 2.156121 0.011415 -0.003298 88036.900000 1 0 0
5.640342 -15.147923 -2.156672 16.307184 -1.214350 1.703438 0.004261 -0.000661 -1028750.000000 1 0 0
-8.990658 -10.357423 -0.671272 13.731669 0.855922 1.619701 -0.000346 -0.001584 -642372.000000 1 0 0
-7.515758 -18.100623 -3.256272 19.867623 1.177238 1.735438 -0.000994 -0.011801 282786.000000 1 0 0
7.842142 -16.054923 -1.051372 17.898746 -1.116426 1.629570 0.016630 -0.005289 -1055490.000000 1 0 0
-8.081758 -10.185723 -9.606372 16.166204 0.900068 2.207099 0.020559 -0.004369 -2079650.000000 1 0 0
-9.285558 -14.689623 -7.077272 18.764178 1.007096 1.957534 0.026609 -0.014355 -623747.000000 1 0 0
-11.428658 -10.550123 -12.266272 19.808603 0.745447 2.238570 0.021629 0.012252 566521.000000 1 0 0
6.546242 -16.256623 2.450328 17.695626 -1.187980 1.431879 0.016330 -0.011465 -933800.000000 1 0 0
-2.150558 -11.125923 -6.125272 12.881382 1.379858 2.066344 0.009161 -0.001572 -1107220.000000 1 0 0
-12.487858 -15.157123 -3.460372 19.941392 0.881655 1.745206 0.010116 -0.010620 697779.000000 1 0 0
-0.506458 -19.818023 -2.884172 20.033197 1.545246 1.715268 0.003043 -0.010322 -9796.140000 1 0 0
-5.896358 -15.613123 -4.727372 17.346028 1.209701 1.846821 -0.000325 -0.009256 -3044390.000000 1 0 0
1.789442 -15.942023 -1.062472 16.077283 -1.459017 1.636930 0.010035 -0.005577 81072.300000 1 0 0
-13.151958 -11.929223 5.354728 18.545982 0.736686 1.277899 0.011759 0.007644 490330.000000 1 0 0
2.033042 -15.347623 -9.084672 17.950322 -1.439097 2.101454 0.003428 0.001211 -1663180.000000 1 0 0
-11.837258 -16.733023 -0.221172 20.497893 0.955109 1.581587 0.020626 -0.001524 -116478.000000 1 0 0
-7.594258 -16.701823 -1.126072 18.381830 1.144044 1.632095 -0.001059 0.002540 154609.000000 1 0 0
-3.093758 -14.508323 -1.877872 14.952898 1.360703 1.696715 0.004053 -0.002435 286501.000000 1 0 0
-1.827558 -10.552623 -13.231872 17.022933 1.399312 2.461154 0.006098 -0.002231 133553.000000 1 0 0
1.585342 -19.534523 4.999928 20.226472 -1.489818 1.321010 0.013357 -0.011502 -15823.500000 1 0 0
-17.310758 -9.520123 2.660728 19.934256 0.502808 1.436922 -0.002335 -0.003651 34228.400000 1 0 0
-2.749558 -15.660323 -8.056272 17.824402 1.396993 2.039780 0.003221 -0.005985 -854935.000000 1 0 0
-10.561258 -12.146723 0.219528 16.097553 0.855105 1.557159 -0.001656 0.004575 379447.000000 1 0 0
-6.945958 -11.443523 -6.627272 14.937245 1.025262 2.030491 0.013231 -0.006848 172771.000000 1 0 0
-2.210058 -13.584123 -6.726972 15.318776 1.409515 2.025429 0.001842 -0.000540 784264.000000 1 0 0
-14.372158 -14.458523 -1.241472 20.424227 0.788394 1.631618 0.018510 0.001240 319818.000000 1 0 0
-9.632258 -11.150523 -4.503772 15.407742 0.858323 1.867433 0.017536 -0.006662 235956.000000 1 0 0
9.379542 -15.135123 -5.043672 18.506387 -1.016003 1.846825 0.011660 -0.005368 173899.000000 1 0 0
-5.632958 -10.944823 -9.436772 15.510384 1.095483 2.224860 0.014028 -0.003975 -279537.000000 1 0 0
-10.382358 -15.862623 -5.022672 19.612327 0.991252 1.829779 0.017637 -0.007035 -992811.000000 1 0 0
2.134542 -17.420323 -3.159872 17.832798 -1.448872 1.748931 0.009330 -0.004656 237747.000000 1 0 0
-0.314958 -14.447223 -8.245572 16.637635 1.548999 2.089319 0.003707 -0.001244 -64382.500000 1 0 0
-0.596258 -18.334623 -7.202072 19.707454 1.538287 1.944912 0.004018 -0.006384 81782.800000 1 0 0
-1.787958 -10.070523 -10.633472 14.754082 1.395084 2.375628 0.003452 -0.002111 299651.000000 1 0 0
-5.164258 -17.294123 2.020128 18.161419 1.280612 1.459334 -0.010148 0.002202 -219424.000000 1 0 0
0.166142 -12.781523 -2.787472 13.083001 -1.557798 1.785503 0.005826 0.001260 -1870900.000000 1 0 0
2.449042 -15.013223 2.936328 15.492472 -1.409095 1.380110 0.010176 -0.006052 -1442800.000000 1 0 0
-9.354258 -13.154023 6.847728 17.533449 0.952638 1.169565 -0.005695 0.005780 -254805.000000 1 0 0
-1.026158 -17.969623 -4.632572 18.585507 1.513753 1.822710 -0.002502 -0.007522 -128512.000000 1 0 0
-9.862858 -17.635223 -2.226672 20.328185 1.060864 1.680553 0.014865 -0.007566 -877884.000000 1 0 0
1.269542 -16.352523 1.367928 16.458674 -1.493316 1.487587 0.008333 -0.008980 -138249.000000 1 0 0
-0.413058 -18.053123 4.088128 18.514822 1.547920 1.348159 0.006748 -0.009137 923776.000000 1 0 0
-17.316458 -9.425423 -0.029072 19.715455 0.498460 1.572271 -0.009335 -0.003796 148247.000000 1 0 0
-14.922458 -6.968723 -10.651672 19.613795 0.436897 2.144886 0.025232 -0.013266 729834.000000 1 0 0
2.884642 -12.794923 -8.971672 15.890944 -1.349052 2.170718 -0.004993 0.000291 584601.000000 1 0 0
-11.679658 -14.868923 1.567328 18.972501 0.904955 1.488092 0.003889 0.010098 313743.000000 1 0 0
-2.076258 -15.601623 10.446028 18.890235 1.438494 0.984853 -0.009345 0.003957 -699605.000000 1 0 0
-7.106458 -15.951323 1.245528 17.507078 1.151683 1.499592 -0.008236 0.006988 -1321550.000000 1 0 0
-12.600758 -15.019623 -6.026172 20.510556 0.872751 1.869005 0.014541 -0.005812 529901.000000 1 0 0
1.006642 -13.719123 -5.138372 14.684363 -1.497552 1.928283 0.004431 0.002278 511378.000000 1 0 0
6.007442 -16.478723 -7.341972 19.014263 -1.221212 1.967229 0.001979 -0.006195 25683.400000 1 0 0
-6.494158 -12.884423 5.836328 15.564227 1.103929 1.186417 -0.004081 0.000851 480614.000000 1 0 0
-2.609658 -13.644823 0.549928 13.903018 1.381822 1.531231 0.007555 -0.002202 1577400.000000 1 0 0
-4.328258 -15.568623 0.108028 16.159440 1.299632 1.564111 -0.001424 -0.001992 -46185.900000 1 0 0
-17.625658 -7.569123 -1.964272 19.282474 0.405623 1.672842 -0.011215 -0.002185 56400.700000 1 0 0
1.102442 -12.772523 -12.033472 17.582866 -1.484696 2.324558 0.007199 -0.001334 -567645.000000 1 0 0
1.239742 -17.189723 -5.650872 18.137141 -1.498800 1.887634 0.008865 -0.005562 -412409.000000 1 0 0
-12.841158 -6.337623 -9.219972 17.031403 0.458466 2.142840 0.012946 0.002388 -398314.000000 1 0 0
-11.645358 -13.320623 -8.815272 19.767710 0.852400 2.033024 0.023954 -0.010131 180157.000000 1 0 0
-4.426958 -9.882023 3.395828 11.348303 1.149623 1.266904 0.001450 0.001147 -4764010.000000 1 0 0
-6.726958 -14.662023 9.497428 18.719722 1.140647 1.038691 -0.016393 0.006356 -1470450.000000 1 0 0
-5.315458 -15.886723 -8.284672 18.688976 1.247920 2.030064 0.008073 -0.004541 -765476.000000 1 0 0
-0.306958 -13.523823 2.107228 13.690450 1.548103 1.416262 0.008759 -0.003759 762615.000000 1 0 0
-11.011258 -13.290623 -4.784572 17.910348 0.878918 1.841220 0.019193 -0.005180 -677953.000000 1 0 0
-9.763358 -10.619523 6.577028 15.854170 0.827378 1.143024 0.001551 0.006596 -520334.000000 1 0 0
-15.692558 -8.026923 -4.915272 18.298846 0.472814 1.842747 0.009530 -0.003881 1049610.000000 1 0 0
-14.475258 -7.381623 5.456928 17.140581 0.471574 1.246794 0.002528 0.001000 976137.000000 1 0 0
-1.801058 -19.456523 -0.086272 19.539896 1.478491 1.575212 -0.005232 -0.006470 -539669.000000 1 0 0
-15.271858 -12.084223 -1.428572 19.526876 0.669397 1.644021 -0.000711 0.001233 921154.000000 1 0 0
-4.375058 -12.023823 -6.783472 14.482021 1.221823 2.058283 0.006318 -0.004697 844264.000000 1 0 0
-7.569158 -18.404723 1.891028 19.990046 1.180619 1.476056 -0.006467 0.005952 101013.000000 1 0 0
-2.514358 -11.797723 -8.658872 14.848714 1.360816 2.193384 0.004757 -0.000244 599884.000000 1 0 0
-1.519958 -20.451023 -5.192972 21.154705 1.496611 1.818807 0.000925 -0.006237 -342848.000000 1 0 0
-5.254158 -8.921423 -13.911572 17.341563 1.038551 2.501784 0.002669 -0.002368 322981.000000 1 0 0
-8.215358 -19.210523 -1.053472 20.919992 1.166684 1.621175 -0.002991 0.009164 85906.000000 1 0 0
-17.083958 -7.340423 5.660328 19.436634 0.405817 1.275295 0.013297 -0.005629 -73741.600000 1 0 0
-3.668058 -14.652323 -4.383272 15.727628 1.325498 1.853235 -0.000729 -0.004117 -3574180.000000 1 0 0
-3.047558 -14.797723 -10.865872 18.609873 1.367688 2.194292 0.014420 -0.009045 -514336.000000 1 0 0
-0.053358 -16.676523 6.247028 17.808274 1.567597 1.212378 0.009889 -0.005900 -662217.000000 1 0 0
-11.139758 -11.646523 3.732728 16.542943 0.807634 1.343198 0.000042 0.005356 -50223.100000 1 0 0
-0.304258 -14.781423 -0.182872 14.785685 1.550215 1.583165 0.001546 -0.000224 270541.000000 1 0 0
-7.360558 -9.464223 -2.512272 12.249932 0.909786 1.777346 0.009845 -0.003666 -413764.000000 1 0 0
-11.106358 -14.413523 -0.957872 18.221370 0.914272 1.623389 0.001095 -0.001313 123125.000000 1 0 0
0.205342 -14.706323 -10.798772 18.246412 -1.556834 2.204123 0.002717 -0.000232 -220762.000000 1 0 0
-1.464458 -14.096823 -3.994672 14.724892 1.467282 1.845526 0.001445 0.000327 -739548.000000 1 0 0
-11.398158 -7.915023 -7.607572 15.825320 0.606966 2.072274 0.014666 -0.001817 446049.000000 1 0 0
-0.313658 -17.375223 -0.419472 17.383115 1.552746 1.594930 0.005090 -0.004953 847027.000000 1 0 0
-12.840858 -9.512623 4.441528 16.586283 0.637593 1.299705 0.002039 0.002022 -658526.000000 1 0 0
3.935942 -16.813923 1.525028 17.335667 -1.340849 1.482712 0.015015 -0.012848 2587700.000000 1 0 0
-3.707558 -17.911623 -8.339472 20.102711 1.366687 1.998567 0.012037 -0.009297 303466.000000 1 0 0
-13.358458 -11.322623 2.650528 17.710886 0.703099 1.420577 -0.004782 0.001282 -98972.200000 1 0 0
-8.544558 -12.070023 4.151228 15.359935 0.954778 1.297130 -0.004062 0.001439 1323120.000000 1 0 0
-8.359358 -9.327323 -6.001472 13.888682 0.840072 2.017630 0.015918 -0.004091 673952.000000 1 0 0
3.763042 -17.591623 -5.170572 18.717919 -1.360061 1.850672 0.004966 0.000705 -771026.000000 1 0 0
-2.424958 -13.156323 11.298728 17.510868 1.388523 0.869458 -0.012114 0.001540 238295.000000 1 0 0
-0.103958 -16.765423 -9.511072 19.275650 1.564596 2.086819 0.003037 -0.002998 -103597.000000 1 0 0
-7.009058 -10.558123 -14.544972 19.291373 0.984743 2.424870 0.009708 0.003817 -1435230.000000 1 0 0
-4.815758 -18.894823 -1.644472 19.568090 1.321238 1.654934 0.001270 -0.007249 -1014030.000000 1 0 0
-2.631458 -17.284923 1.068628 17.516709 1.419716 1.509752 -0.001298 -0.006886 -255144.000000 1 0 0
4.073642 -14.755823 -7.648472 17.112217 -1.301435 2.034160 -0.003706 0.001974 142207.000000 1 0 0
-1.026358 -15.979623 -6.240372 17.185575 1.506655 1.942407 0.000963 -0.002008 55994.300000 1 0 0
-9.245358 -15.361823 8.356128 19.780978 1.029025 1.134669 -0.004609 0.003666 -769495.000000 1 0 0
-7.274058 -12.024923 -1.887872 14.180083 1.026771 1.704328 0.000481 -0.001705 905623.000000 1 0 0
-7.464758 -15.070323 -9.338972 19.236778 1.110893 2.077703 0.022688 -0.006467 238772.000000 1 0 0
-5.093158 -13.249223 -0.740672 14.213752 1.203800 1.622929 0.001000 -0.000354 2041830.000000 1 0 0
-6.397958 -13.767223 -7.265572 16.830295 1.135766 2.017169 0.008870 -0.007980 422682.000000 1 0 0
5.668142 -15.392023 0.246628 16.404360 -1.217955 1.555761 0.010819 -0.005786 -5223.000000 1 0 0
-14.300358 -12.899723 0.922328 19.280917 0.733950 1.522942 -0.009589 0.000116 867768.000000 1 0 0
0.887742 -15.332723 11.149128 18.978501 -1.512962 0.942879 -0.001110 0.001518 -450662.000000 1 0 0
-9.273358 -10.775423 1.898928 14.342623 0.860179 1.438009 -0.002166 0.005110 -509839.000000 1 0 0
-9.417758 -8.757423 -3.642872 13.366268 0.749082 1.846831 0.014512 -0.004337 -320316.000000 1 0 0
-12.149558 -7.319123 -12.391072 18.834011 0.542196 2.288836 0.017678 -0.004065 -874686.000000 1 0 0
-13.300858 -8.354823 -0.677672 15.721804 0.560855 1.613914 -0.008032 0.002320 -994203.000000 1 0 0
-11.312258 -9.669123 0.497128 14.889803 0.707244 1.537403 -0.006434 0.003307 1931420.000000 1 0 0
-15.765158 -12.351123 2.884928 20.233963 0.664564 1.427730 0.006731 0.005774 -54408.800000 1 0 0
-10.346158 -12.492023 -2.391772 16.395554 0.879083 1.717198 0.008420 -0.004893 941382.000000 1 0 0
-3.382958 -8.845423 -12.062272 15.335720 1.205508 2.475994 -0.000145 -0.002587 9529.100000 1 0 0
-0.217558 -15.543823 3.828828 16.009924 1.556801 1.329302 0.010813 -0.004916 -1232300.000000 1 0 0
-15.679658 -7.853923 1.231828 17.579908 0.464366 1.500669 -0.012515 -0.001503 670364.000000 1 0 0
-6.391458 -13.371923 -13.348672 19.946080 1.124923 2.303979 0.021783 -0.001210 60557.500000 1 0 0
-15.336058 -10.432623 1.096228 18.580527 0.597360 1.511763 -0.001391 -0.001217 -92684.300000 1 0 0
-9.835058 -8.458123 -12.437872 17.971335 0.710269 2.335184 0.016827 -0.004797 761744.000000 1 0 0
-13.360658 -11.722023 -6.206772 18.826498 0.720162 1.906764 0.014268 -0.004312 56881.900000 1 0 0
-12.198658 -11.241123 -3.798772 17.017660 0.744570 1.795918 0.002902 -0.003445 -75553.900000 1 0 0
-11.837958 -10.691223 -9.292472 18.460485 0.734542 2.098292 0.018549 -0.009620 799649.000000 1 0 0
-13.285158 -8.374023 -5.909972 16.779376 0.562422 1.930735 0.003538 -0.002171 -1260910.000000 1 0 0
-13.577058 -8.050223 -3.273172 16.120057 0.535204 1.775268 -0.000273 -0.003765 200188.000000 1 0 0
-4.441558 -17.011123 -3.385372 17.904370 1.315401 1.761022 -0.003183 -0.009507 454987.000000 1 0 0
-15.510658 -8.897523 -1.765172 17.968368 0.520811 1.669193 0.000092 -0.000933 -3301280.000000 1 0 0
-9.560458 -15.614423 3.649128 18.668923 1.021394 1.374064 0.002602 0.005591 -780633.000000 1 0 0
4.838742 -17.006823 7.890828 19.362608 -1.293603 1.151050 0.018762 -0.028521 -207447.000000 1 0 0
-8.331858 -15.494623 5.922828 18.562949 1.077426 1.246051 -0.003652 0.008797 235375.000000 1 0 0
0.876642 -16.139223 8.619628 18.317778 -1.516532 1.080870 -0.000621 0.003748 268382.000000 1 0 0
-10.878558 -7.785423 -10.176772 16.808406 0.621163 2.221137 0.019641 -0.002134 996771.000000 1 0 0
-4.733758 -16.291123 5.742428 17.910461 1.288011 1.244414 -0.010309 0.005162 -1158160.000000 1 0 0
-1.408658 -13.393223 -12.259972 18.211800 1.466005 2.309308 0.005768 0.000989 -1694870.000000 1 0 0
-6.493758 -14.404523 -2.628672 16.017774 1.147266 1.735652 0.004804 -0.005082 453490.000000 1 0 0
-17.555458 -6.709623 -7.317872 20.168401 0.365064 1.942109 0.003470 -0.014866 -169919.000000 1 0 0
-17.215858 -3.953623 -10.244972 20.419999 0.225736 2.096374 0.019308 -0.011490 851378.000000 1 0 0
-15.282358 -5.158523 -8.900472 18.422248 0.325539 2.075031 0.004138 -0.013578 -331949.000000 1 0 0
-16.091758 -5.289323 -5.628272 17.849343 0.317573 1.891591 -0.002071 -0.003604 383807.000000 1 0 0
-15.115458 -4.351023 -12.402972 20.031030 0.280275 2.238504 0.019065 -0.010764 -1019230.000000 1 0 0
-18.599458 -5.170323 -5.342172 20.030249 0.271137 1.840769 -0.002678 -0.005742 168455.000000 1 0 0
-17.447358 -4.183323 -7.641272 19.501270 0.235326 1.973421 0.005349 -0.009383 720084.000000 1 0 0
12.119142 -7.836323 8.756928 16.880917 -0.573986 1.025411 0.010058 -0.002591 210555.000000 1 0 0
16.137942 -3.547123 1.808728 16.621876 -0.216360 1.461764 0.020430 -0.006114 762367.000000 1 0 0
12.005542 -2.040923 12.595728 17.520010 -0.168389 0.768529 0.017516 0.001323 129405.000000 1 0 0
9.581042 -10.072623 5.266728 14.865817 -0.810405 1.208648 0.006929 -0.005966 5763.490000 1 0 0
17.027442 -2.025923 7.230928 18.609795 -0.118423 1.171734 0.049914 -0.010331 599766.000000 1 0 0
5.079742 -12.831223 9.156728 16.561694 -1.193839 0.984973 -0.003951 0.002512 -424908.000000 1 0 0
15.105342 -9.252223 -2.158172 17.844682 -0.549570 1.692035 0.019944 0.002059 567982.000000 1 0 0
11.050942 -8.527823 6.426128 15.366919 -0.657234 1.139356 0.013875 -0.004654 -3194860.000000 1 0 0
20.063942 -2.920923 3.457328 20.568099 -0.144565 1.401903 0.033356 -0.012219 371947.000000 1 0 0
13.496142 -8.569723 6.742128 17.350570 -0.565741 1.171704 0.013287 -0.005271 -12641.300000 1 0 0
8.239642 -10.919423 8.791728 16.260995 -0.924367 0.999571 -0.001271 -0.001885 -1812520.000000 1 0 0
16.820642 0.052877 -0.698972 16.835242 0.003144 1.612327 0.009645 -0.002427 -1139370.000000 1 0 0
12.465542 -12.435723 2.392228 17.769628 -0.784201 1.435762 0.023835 -0.007170 -553753.000000 1 0 0
10.400242 -11.575623 3.634428 15.980273 -0.838832 1.341356 0.010753 -0.007164 -2363330.000000 1 0 0
16.440242 2.877177 2.427728 16.865752 0.173254 1.426350 0.015942 -0.003568 -567206.000000 1 0 0
18.427542 -3.543123 0.430328 18.770008 -0.189955 1.547868 0.022297 -0.004074 533801.000000 1 0 0
13.661542 -11.948223 -0.213172 18.150570 -0.718597 1.582541 0.035967 0.001914 -112309.000000 1 0 0
16.851442 -7.782323 -0.740672 18.576443 -0.432639 1.610678 0.019935 0.002993 115586.000000 1 0 0
10.046942 -5.640723 9.757028 15.098291 -0.511581 0.868157 0.007524 -0.003060 -635656.000000 1 0 0
11.341042 -13.328123 6.038728 18.512815 -0.865774 1.238524 0.016656 -0.006060 -322013.000000 1 0 0
13.044942 -1.552023 10.383528 16.745057 -0.118418 0.901932 0.025652 -0.001459 1202730.000000 1 0 0
15.563642 -2.050323 -1.423072 15.762484 -0.130984 1.661202 0.002708 -0.000939 13769.800000 1 0 0
10.403142 -12.426223 8.921628 18.499509 -0.873785 1.067560 0.010161 -0.013241 288523.000000 1 0 0
14.662642 1.138977 3.343428 15.082071 0.077523 1.347257 0.018725 -0.002681 1135620.000000 1 0 0
14.816842 -5.974823 5.308928 16.835143 -0.383301 1.249973 0.017626 -0.005485 -545191.000000 1 0 0
14.302842 -3.499823 -2.991572 15.025630 -0.239979 1.771234 0.005947 0.001099 1038280.000000 1 0 0
14.171942 0.684277 9.597628 17.129701 0.048246 0.976058 0.042061 -0.006652 2602.830000 1 0 0
15.527342 -3.595923 4.376228 16.528169 -0.227575 1.302827 0.023251 -0.008945 302947.000000 1 0 0
18.421242 4.660577 -4.247172 19.470532 0.247800 1.790698 -0.008478 -0.004050 438228.000000 1 0 0
17.982742 -5.906223 -5.112572 19.606144 -0.317339 1.834610 0.027396 -0.003290 441024.000000 1 0 0
17.377642 0.011777 5.826028 18.328262 0.000678 1.247313 0.047034 -0.006676 566969.000000 1 0 0
17.023042 -6.661423 4.042628 18.721681 -0.373000 1.353149 0.029437 -0.008741 384068.000000 1 0 0
9.694742 -6.518623 14.177328 18.370550 -0.591953 0.689220 0.002975 -0.005985 -779878.000000 1 0 0
8.545142 -12.374623 5.153828 15.896939 -0.966449 1.240628 0.004210 -0.007508 -1678270.000000 1 0 0
16.731342 -10.367823 -0.465572 19.688736 -0.554754 1.594445 0.022810 0.004018 -48570.200000 1 0 0
14.816542 -8.889723 0.433928 17.284252 -0.540409 1.545688 0.029887 -0.001050 -8217.190000 1 0 0
9.981742 -12.965823 1.564028 16.437576 -0.914712 1.475503 0.016798 -0.009395 295432.000000 1 0 0
16.781042 -8.367123 8.793228 20.710697 -0.462532 1.132305 0.021670 -0.004730 401337.000000 1 0 0
19.063442 -0.336623 -1.880472 19.158923 -0.017656 1.669106 0.020081 -0.000773 -748498.000000 1 0 0
13.322842 -1.135523 7.834028 15.497081 -0.085026 1.040816 0.022325 -0.004166 -34596.000000 1 0 0
12.815642 -10.104623 -3.117872 16.615210 -0.667665 1.759567 0.017008 0.004656 -1803130.000000 1 0 0
8.832442 -15.291523 1.517128 17.724118 -1.047007 1.485095 0.020134 -0.003004 -38655.700000 1 0 0
11.327042 -8.394923 11.148028 17.973735 -0.637806 0.901748 0.005340 -0.005295 -163223.000000 1 0 0
13.964642 -3.986523 -0.409972 14.528306 -0.278076 1.599019 0.008548 -0.000631 -99454.700000 1 0 0
7.139842 -13.370223 10.674228 18.538590 -1.080312 0.957233 0.005787 0.004868 -35111.900000 1 0 0
15.388442 -6.772923 1.980328 16.929215 -0.414616 1.453551 0.020555 0.000359 -112747.000000 1 0 0
15.781942 -6.362823 -2.583072 17.211260 -0.383237 1.721446 0.021804 0.000552 -52023.400000 1 0 0
11.053342 -8.525023 3.830128 14.474884 -0.656970 1.303002 0.014126 -0.005434 78032.800000 1 0 0
10.686042 -14.508223 -0.305772 18.021474 -0.935958 1.587764 0.029752 -0.005782 610925.000000 1 0 0
13.537942 -12.930023 4.715228 19.305303 -0.762434 1.324055 0.023074 -0.001298 38504.900000 1 0 0
12.805242 -11.156823 6.428528 18.159705 -0.716713 1.208952 0.010426 -0.006310 -594422.000000 1 0 0
10.960942 -10.493423 1.431428 15.241495 -0.763610 1.476741 0.014282 -0.005012 516646.000000 1 0 0
13.758142 -7.604423 11.785128 19.646958 -0.504930 0.927489 0.010257 -0.016152 51423.800000 1 0 0
15.363142 -1.868423 -4.869272 16.224270 -0.121023 1.875618 0.013971 0.002502 -427716.000000 1 0 0
12.778042 -11.449823 -7.197372 18.605885 -0.730631 1.967991 0.028894 -0.007448 481131.000000 1 0 0
17.713142 -5.491323 1.930228 18.644994 -0.300618 1.467085 0.031177 -0.004380 419143.000000 1 0 0
10.613142 -9.873323 9.094928 17.112539 -0.749301 1.010453 0.004402 -0.004744 -1516100.000000 1 0 0
16.430842 1.919977 9.812228 19.233791 0.116325 1.035431 0.052690 -0.009571 -203373.000000 1 0 0
18.246242 3.586377 0.538428 18.603155 0.194080 1.541849 0.008488 -0.003465 882670.000000 1 0 0
13.299542 -4.076423 5.826028 15.081036 -0.297417 1.174163 0.018387 -0.007530 -669677.000000 1 0 0
11.928842 -6.157423 6.680928 14.994863 -0.476507 1.109010 0.015262 -0.006333 5473.510000 1 0 0
16.695242 -10.267923 3.752028 19.955928 -0.551391 1.381655 0.025892 0.000382 441592.000000 1 0 0
16.238742 -8.251123 -5.651372 19.071334 -0.470117 1.871642 0.030390 -0.000336 -359017.000000 1 0 0
13.999542 -0.462723 5.406528 15.014388 -0.033041 1.202432 0.017487 -0.002199 636137.000000 1 0 0
18.431842 -4.302723 5.039428 19.586783 -0.229333 1.310583 0.050988 -0.008962 66764.100000 1 0 0
13.571942 -13.477523 7.285728 20.467610 -0.781908 1.206851 0.023016 -0.002783 -216758.000000 1 0 0
15.026342 -13.875623 -1.117972 20.483499 -0.745605 1.625403 0.032985 0.004950 672566.000000 1 0 0
17.816442 -6.047623 8.291628 20.560896 -0.327237 1.155707 0.049198 -0.000777 -398910.000000 1 0 0
14.358342 3.347777 9.253428 17.406767 0.229067 1.010308 0.032583 -0.009064 178338.000000 1 0 0
18.754942 3.804777 3.083528 19.383816 0.200152 1.411040 0.019073 -0.004112 22287.600000 1 0 0
14.675742 -10.664623 8.143128 19.885223 -0.628411 1.148883 0.009190 -0.009068 -691457.000000 1 0 0
14.962842 -4.895023 10.447428 18.894355 -0.316171 0.984909 0.035424 -0.010385 59133.000000 1 0 0
17.753742 -8.029923 1.992528 19.586863 -0.424761 1.468892 0.034140 -0.002061 -39236.800000 1 0 0
18.333742 -6.094923 -2.085972 19.432588 -0.320949 1.678348 0.012919 0.002177 872163.000000 1 0 0
14.094742 -13.182623 -5.709872 20.125753 -0.751972 1.858457 0.029868 -0.009726 -369874.000000 1 0 0
15.509342 -1.419123 9.346528 18.163457 -0.091247 1.030280 0.048436 -0.009178 476549.000000 1 0 0
12.979942 -9.977223 10.144528 19.259681 -0.655340 1.016055 0.004557 -0.017430 -1799720.000000 1 0 0
16.650442 2.153077 4.824728 17.468571 0.128597 1.290964 0.029196 -0.006006 -664962.000000 1 0 0
15.086242 2.348877 0.056028 15.268106 0.154457 1.567127 0.005131 -0.000369 -1196160.000000 1 0 0
14.957342 -9.955423 -7.030872 19.294188 -0.587255 1.943789 0.029603 -0.007432 81686.800000 1 0 0
16.103442 -0.077123 -3.241072 16.426544 -0.004789 1.769406 -0.000726 0.003223 93368.000000 1 0 0
12.067942 2.702277 13.527628 18.328509 0.220288 0.740599 0.044486 -0.010290 -203107.000000 1 0 0
17.485242 -3.023923 9.547028 20.150026 -0.171248 1.077199 0.041966 -0.013859 -391334.000000 1 0 0
7.689142 -18.231923 4.558328 20.305277 -1.171690 1.344377 0.026224 -0.015875 -583243.000000 1 0 0
6.768642 -11.155923 6.569928 14.609349 -1.025442 1.104359 0.000007 -0.003569 -48038.400000 1 0 0
18.186842 2.130277 -1.580972 18.379303 0.116602 1.656922 0.016854 0.001840 706720.000000 1 0 0
17.539542 -2.242623 3.606128 18.046303 -0.127171 1.369616 0.019577 -0.007546 -1776570.000000 1 0 0
12.502842 -13.585923 -1.985772 18.569912 -0.826890 1.677936 0.031613 -0.001560 -166574.000000 1 0 0
15.050442 -8.298123 4.407028 17.742507 -0.503882 1.319780 0.022860 -0.002082 -740547.000000 1 0 0
11.787742 -2.916523 15.030928 19.323192 -0.242549 0.679527 0.015893 -0.007926 126440.000000 1 0 0
11.803342 -13.750423 -6.488272 19.248135 -0.861447 1.914616 0.011761 -0.011649 -511147.000000 1 0 0
10.625842 -12.015123 -1.164272 16.081891 -0.846683 1.643256 0.021427 -0.003823 -666993.000000 1 0 0
13.127742 -8.029323 2.200528 15.545094 -0.548927 1.428762 0.019057 0.001965 -215885.000000 1 0 0
8.742142 -7.878723 9.986628 15.434768 -0.733497 0.867125 0.003141 -0.000043 -1851490.000000 1 0 0
15.455542 -3.765423 8.106828 17.854211 -0.238974 1.099483 0.038666 -0.011358 -894143.000000 1 0 0
10.088142 -17.316423 5.142528 20.689966 -1.043287 1.319612 0.020981 -0.017808 66335.700000 1 0 0
15.213742 -6.409423 8.339128 18.495397 -0.398725 1.103050 0.030193 -0.003232 -1104640.000000 1 0 0
16.588142 -5.138923 -0.388872 17.370268 -0.300419 1.593185 0.014960 0.000905 -595386.000000 1 0 0
14.061342 -10.593823 3.464428 17.943040 -0.645674 1.376497 0.029065 -0.002608 712457.000000 1 0 0
14.991542 -10.220423 -4.535572 18.702267 -0.598370 1.815753 0.030271 -0.005758 616813.000000 1 0 0
13.669942 -6.527223 0.039328 15.148383 -0.445476 1.568200 0.015990 0.000240 57813.500000 1 0 0
17.829542 -0.924523 -4.834772 18.496549 -0.051807 1.835256 0.016352 0.000825 -1345560.000000 1 0 0
14.353742 0.264177 -1.525372 14.436983 0.018403 1.676651 0.004013 0.002043 -2151730.000000 1 0 0
4.794642 -12.788723 11.701628 17.985219 -1.212103 0.862390 -0.011965 0.002389 -348487.000000 1 0 0
11.788342 -7.713923 13.498528 19.511019 -0.579440 0.806760 0.000098 -0.009046 -135856.000000 1 0 0
11.889542 -5.792223 11.642628 17.619927 -0.453331 0.848959 0.001423 -0.001897 824818.000000 1 0 0
13.221842 -4.721823 8.430928 16.376607 -0.343006 1.030004 0.019184 -0.005222 -978600.000000 1 0 0
15.224742 -1.330023 3.107228 15.595403 -0.087138 1.370214 0.019825 -0.002729 81433.200000 1 0 0
15.132542 -10.421223 5.767128 19.257608 -0.603077 1.266656 0.018281 -0.005083 -909329.000000 1 0 0
13.611442 -8.134023 -5.693072 16.847693 -0.538643 1.915496 0.021009 -0.001933 -976336.000000 1 0 0
9.631242 -2.198223 13.713128 16.900973 -0.224395 0.624285 0.012366 0.000077 -1093870.000000 1 0 0
9.598142 -9.142523 13.910428 19.214839 -0.761091 0.761297 0.003311 0.002247 -293418.000000 1 0 0
20.196542 6.210377 -3.191672 21.369508 0.298321 1.720714 0.016736 -0.003182 -994939.000000 1 0 0
11.250642 -3.557423 10.559628 15.834707 -0.306250 0.840801 0.011409 0.000092 694840.000000 1 0 0
10.039642 -14.086523 -2.754172 17.515993 -0.951589 1.728689 0.016998 -0.001403 623359.000000 1 0 0
14.986142 -12.877723 2.564728 19.924809 -0.709873 1.441718 0.023798 0.003908 662686.000000 1 0 0
11.230142 -0.400423 14.501128 18.345548 -0.035641 0.659263 0.027931 -0.003974 363092.000000 1 0 0
19.095042 -1.902923 5.650128 20.004142 -0.099327 1.284451 0.040966 -0.010690 923036.000000 1 0 0
18.972042 -0.478523 7.882028 20.549787 -0.025217 1.177151 0.052750 -0.008771 -362413.000000 1 0 0
18.920542 0.679777 0.564828 18.941173 0.035913 1.540972 0.014406 -0.007785 128198.000000 1 0 0
18.589042 0.705577 3.677428 18.962431 0.037938 1.375627 0.026283 -0.009286 364819.000000 1 0 0
16.602942 -4.023023 -4.077972 17.563378 -0.237726 1.805121 0.012061 -0.000830 -1136700.000000 1 0 0
10.931142 -7.990023 15.898328 20.882700 -0.631192 0.705456 0.012687 -0.012866 693658.000000 1 0 0
16.571542 -7.455123 6.424728 19.273609 -0.422750 1.230949 0.026419 -0.006201 212187.000000 1 0 0
19.089042 2.082877 5.865028 20.078059 0.108684 1.274363 0.042553 -0.003183 872357.000000 1 0 0
15.334142 1.676377 7.520028 17.160914 0.108891 1.117194 0.040826 -0.007208 280885.000000 1 0 0
8.615042 -15.710423 3.905228 18.338133 -1.069209 1.356196 0.014557 -0.017576 493465.000000 1 0 0
11.291142 -15.104523 2.158328 18.981435 -0.928875 1.456843 0.019634 -0.004430 -351419.000000 1 0 0
7.909742 -16.237523 6.165628 19.084971 -1.117500 1.241833 0.009500 -0.010738 -182333.000000 1 0 0
14.558242 -11.858923 -2.584172 18.954008 -0.683571 1.707561 0.029390 0.000577 985758.000000 1 0 0
13.620342 -4.930423 3.212628 14.837242 -0.347316 1.352543 0.011021 0.000168 -2082670.000000 1 0 0
-0.937758 10.183677 -5.480372 11.602636 -1.478971 2.062738 0.001095 0.001039 -1489950.000000 1 0 0
8.321042 -1.808223 -8.101572 11.753505 -0.213980 2.331305 0.001421 -0.000506 -1770000.000000 1 0 0
2.942042 -10.185223 7.573228 13.028743 -1.289596 0.950507 -0.002978 0.000342 775760.000000 1 0 0
-6.226758 1.290777 8.357328 10.501597 -0.204400 0.650444 -0.002925 -0.001719 -69601.200000 1 0 0
7.376242 -6.264323 -7.339672 12.145842 -0.704062 2.219677 -0.001669 -0.001883 -45824.000000 1 0 0
-11.364858 -4.450223 -4.140872 12.888417 0.373225 1.897884 0.001948 -0.003273 227418.000000 1 0 0
2.197742 -3.324723 2.750128 4.842216 -0.986706 0.966785 0.003395 -0.000876 1362550.000000 1 0 0
-3.600758 -4.217223 8.787928 10.391251 0.864088 0.562912 0.000644 -0.002950 -3187000.000000 1 0 0
-4.914858 -1.113623 -2.386672 5.576037 0.222821 2.013100 0.003751 -0.002486 -411904.000000 1 0 0
4.997542 -5.188223 -3.740772 8.117047 -0.804116 2.049753 0.004705 -0.001275 542940.000000 1 0 0
2.722642 14.238677 -8.826972 16.972571 1.381862 2.117732 0.010342 -0.007365 -198962.000000 1 0 0
5.367142 -5.399923 13.643428 15.623972 -0.788443 0.508991 0.000028 -0.006184 -1510010.000000 1 0 0
-4.787958 -0.874523 9.837728 10.975893 0.180659 0.459435 0.005464 -0.002271 -2340910.000000 1 0 0
-0.905258 11.923077 -2.750372 12.269630 -1.495017 1.796878 0.002556 -0.002470 249492.000000 1 0 0
3.119942 9.356477 -10.493772 14.401283 1.248938 2.387173 0.002358 -0.001448 -262355.000000 1 0 0
-10.559258 2.730977 1.163528 10.968590 -0.253088 1.464518 -0.006273 0.000386 96390.500000 1 0 0
5.595642 -9.003523 -0.735172 10.626152 -1.014722 1.640037 -0.001235 -0.002197 651870.000000 1 0 0
-6.952158 5.436377 9.410528 12.901346 -0.663650 0.753319 -0.001461 -0.003545 -307077.000000 1 0 0
-5.493658 -1.872323 5.138028 7.751464 0.328469 0.846183 0.002166 -0.003801 564573.000000 1 0 0
6.601642 -3.793823 -7.376472 10.601279 -0.521593 2.340343 0.002310 -0.002572 737469.000000 1 0 0
6.231642 4.854877 11.085528 13.612205 0.661847 0.619134 -0.002963 0.001949 324349.000000 1 0 0
3.681442 -9.921323 3.192128 11.053295 -1.215481 1.277829 -0.000497 -0.001990 755585.000000 1 0 0
-6.573458 6.753077 -5.744572 11.036961 -0.798876 2.118215 -0.004335 -0.001777 484013.000000 1 0 0
-11.019158 8.358177 5.298228 14.810543 -0.648927 1.204957 -0.005038 -0.007102 436547.000000 1 0 0
-9.122758 -5.559523 5.157628 11.863142 0.547312 1.121024 -0.000416 -0.001246 -1166510.000000 1 0 0
3.393142 9.764577 -8.054772 13.104951 1.236355 2.232721 0.001961 -0.001400 848511.000000 1 0 0
-8.192958 -8.531923 5.973228 13.251329 0.805662 1.103175 0.001722 -0.000363 -2828620.000000 1 0 0
-7.787158 -5.696623 -7.600972 12.282757 0.631582 2.238052 0.013603 -0.002042 461853.000000 1 0 0
9.265042 -1.550823 7.064628 11.753936 -0.165847 0.925990 0.002155 -0.003522 1645070.000000 1 0 0
-4.036158 -0.366923 -4.855572 6.324696 0.090660 2.446066 0.006594 -0.005352 -256960.000000 1 0 0
9.082742 1.214577 -4.514272 10.215188 0.132935 2.028532 0.000513 0.003889 -2808180.000000 1 0 0
-1.810758 -10.661123 10.709728 15.219614 1.402555 0.790234 -0.009823 -0.001766 -122461.000000 1 0 0
-12.774458 0.317977 -2.625472 13.045344 -0.024887 1.773438 0.000041 -0.003022 -875309.000000 1 0 0
-9.832458 -5.097823 -6.103472 12.645845 0.478313 2.074470 0.008847 -0.002457 -349182.000000 1 0 0
-5.599858 8.344677 -0.090472 10.049887 -0.979752 1.579799 -0.004658 0.002809 645961.000000 1 0 0
6.198942 9.650177 0.439728 11.478073 0.999807 1.532477 0.009114 -0.003112 280334.000000 1 0 0
-0.620658 -12.143723 -0.085272 12.159872 1.519731 1.577809 0.009124 -0.000734 -405710.000000 1 0 0
6.237442 4.773677 2.444928 8.226260 0.653238 1.269027 -0.000024 0.001329 370278.000000 1 0 0
3.506942 -7.514223 -8.257872 11.702762 -1.134136 2.354114 -0.002696 -0.003389 860182.000000 1 0 0
-6.667558 -9.930423 4.489728 12.776043 0.979505 1.211711 0.000475 0.002800 -2902280.000000 1 0 0
-0.089558 6.657277 -9.220872 11.373295 -1.557345 2.516224 0.004307 -0.000512 -3276570.000000 1 0 0
-17.286858 -2.745023 4.279728 18.019064 0.157478 1.330993 0.012343 -0.006740 753627.000000 1 0 0
-8.302558 1.038177 -9.251472 12.473974 -0.124397 2.406341 0.003550 -0.001350 1177100.000000 1 0 0
-10.056558 -5.896223 -11.922972 16.675043 0.530290 2.367448 0.012381 0.001054 -214651.000000 1 0 0
2.229342 9.461677 6.545728 11.719209 1.339399 0.978163 -0.005886 0.003895 -364499.000000 1 0 0
-11.386658 1.742977 -1.158372 11.577382 -0.151893 1.671019 -0.000125 -0.002316 -1794020.000000 1 0 0
-5.894158 -5.252723 -3.138472 8.496011 0.727918 1.949165 0.014856 -0.002852 491920.000000 1 0 0
-7.062258 -8.354323 1.206828 11.005754 0.869013 1.460921 0.005166 -0.000238 -3423.380000 1 0 0
0.009542 11.197277 -7.739572 13.611763 1.569944 2.175592 0.004053 -0.001247 163175.000000 1 0 0
-2.819558 9.229477 -4.168072 10.512183 -1.274306 1.978497 0.001955 0.000279 557837.000000 1 0 0
3.391142 -4.779023 9.274528 10.970678 -0.953664 0.563497 0.000071 -0.001757 -1081010.000000 1 0 0
-8.990358 1.600577 -0.433272 9.141997 -0.176187 1.618208 -0.004698 -0.000989 -2346200.000000 1 0 0
2.419342 3.538377 -10.468472 11.312040 0.971064 2.752958 0.004778 -0.002113 -878739.000000 1 0 0
-13.668358 0.501377 1.194128 13.729579 -0.036665 1.483711 0.000178 -0.003199 -664391.000000 1 0 0
9.349642 -12.613523 -5.052472 16.493764 -0.932926 1.882128 0.014415 -0.000644 -2784200.000000 1 0 0
-4.703258 9.529677 -8.287472 13.476557 -1.112332 2.233125 0.002225 -0.003400 -693622.000000 1 0 0
-2.304358 7.248277 8.428028 11.352499 -1.262983 0.734160 -0.004271 0.002548 293409.000000 1 0 0
-10.658358 -1.166123 -4.403672 11.591064 0.108976 1.960506 0.004975 -0.002217 -3029170.000000 1 0 0
2.743542 -7.162323 9.685028 12.354175 -1.204985 0.669797 -0.004425 -0.001091 -1623610.000000 1 0 0
-16.086358 -6.586523 3.456528 17.722888 0.388624 1.374506 0.001769 -0.001962 -572512.000000 1 0 0
-10.822258 -0.154523 6.173328 12.460141 0.014277 1.052448 -0.000475 -0.003272 -1353580.000000 1 0 0
-8.281458 9.817077 9.377128 15.902455 -0.870043 0.940152 0.000553 -0.012522 1214450.000000 1 0 0
0.316742 -6.041123 -3.800472 7.144164 -1.518413 2.131720 0.000331 -0.001601 138832.000000 1 0 0
4.942642 1.479577 -2.900872 5.918946 0.290860 2.083000 -0.002239 0.002432 -192802.000000 1 0 0
0.291842 5.266377 3.742928 6.467566 1.515437 0.953635 -0.005541 0.003022 -791400.000000 1 0 0
6.018142 -11.344123 -1.429072 12.920890 -1.083042 1.681625 -0.001058 -0.000211 -2161570.000000 1 0 0
6.154442 -13.458323 5.278228 15.711884 -1.141891 1.228195 0.002346 -0.008938 -45945.800000 1 0 0
8.083842 -8.336923 -5.944972 13.045899 -0.800809 2.043951 -0.002188 -0.000993 570338.000000 1 0 0
-13.058158 -1.454223 -4.536072 13.899863 0.110908 1.903225 -0.002055 0.000438 -2901390.000000 1 0 0
-6.786558 -1.461723 -7.097872 9.928433 0.212144 2.367282 0.006116 -0.002397 -460533.000000 1 0 0
-5.765458 13.011077 -4.477572 14.919025 -1.153679 1.875620 0.003307 -0.002364 711459.000000 1 0 0
-4.256258 6.998277 -6.666572 10.561004 -1.024379 2.253953 0.002590 -0.001906 -3474370.000000 1 0 0
-9.347858 -3.655623 -8.239072 12.985697 0.372780 2.258123 0.009261 0.003085 897000.000000 1 0 0
-2.248858 -6.338123 9.250728 11.437007 1.229839 0.628617 -0.002353 -0.000961 -521724.000000 1 0 0
7.408542 -6.077623 9.991228 13.843722 -0.687029 0.764519 -0.000132 0.001997 -20304.500000 1 0 0
9.485042 -4.829723 12.163828 16.163259 -0.470975 0.718855 0.001514 0.000028 -600053.000000 1 0 0
-6.462858 2.960777 -9.015772 11.481240 -0.429588 2.473914 -0.000283 -0.002989 -497802.000000 1 0 0
7.415042 5.534977 8.831228 12.790989 0.641227 0.808719 -0.003600 -0.000068 478059.000000 1 0 0
12.722442 3.564477 11.225628 17.337265 0.273169 0.866516 0.032802 0.000301 -631764.000000 1 0 0
-7.367658 -7.206923 -3.911072 11.023548 0.774370 1.933488 0.017265 -0.005451 -1796510.000000 1 0 0
2.333142 1.452877 -5.734172 6.358863 0.556953 2.694622 0.002288 -0.001699 -136057.000000 1 0 0
12.775742 6.789177 -7.124372 16.126661 0.488460 2.028374 -0.004604 -0.003368 372005.000000 1 0 0
0.794642 -7.927923 0.997228 8.029812 -1.470897 1.446284 0.004103 -0.000681 967638.000000 1 0 0
-10.287958 -5.978523 -8.648872 14.710126 0.526420 2.199323 0.011330 0.002455 359319.000000 1 0 0
-6.608258 0.060277 3.062628 7.283707 -0.009121 1.136826 0.000377 -0.005037 355144.000000 1 0 0
10.714542 -7.921323 1.240428 13.382355 -0.636622 1.477972 0.006761 -0.002135 156303.000000 1 0 0
6.224942 1.235777 10.583328 12.340335 0.195972 0.540171 0.000285 -0.001814 -134207.000000 1 0 0
-12.813058 5.385377 1.895128 14.027411 -0.397886 1.435280 0.000285 -0.001067 27671.500000 1 0 0
2.039442 7.362377 3.632128 8.459094 1.300564 1.126995 -0.006251 0.003820 308101.000000 1 0 0
10.123542 -9.525523 -0.791972 13.922963 -0.754973 1.627709 0.007534 -0.000652 831748.000000 1 0 0
6.692842 -11.838723 -9.147972 16.390085 -1.056256 2.162940 -0.003621 -0.002620 65504.000000 1 0 0
10.262342 3.602177 11.939528 16.150656 0.337574 0.738826 0.012927 -0.002733 -2111710.000000 1 0 0
-11.064458 -3.030723 -1.977872 11.641284 0.267357 1.741526 -0.001968 -0.002430 -734500.000000 1 0 0
12.260242 1.006177 6.900028 14.104479 0.081885 1.059615 0.014585 -0.004198 -29521.000000 1 0 0
-9.488658 9.096077 3.131628 13.512229 -0.764277 1.336907 -0.003935 -0.004447 1593710.000000 1 0 0
-6.626958 7.753977 -8.763972 13.447972 -0.863607 2.280613 -0.001777 -0.002674 -1275010.000000 1 0 0
8.480842 5.531677 12.078428 15.761109 0.577959 0.697666 0.005224 0.002359 -3148290.000000 1 0 0
1.405142 4.861777 -2.687172 5.729939 1.289445 2.058921 -0.001651 -0.000904 1118740.000000 1 0 0
1.263042 0.430877 9.552228 9.644998 0.328762 0.138809 -0.000343 0.001104 698495.000000 1 0 0
2.622042 12.612777 -3.903772 13.460932 1.365828 1.865031 0.004637 -0.001194 379870.000000 1 0 0
2.136242 0.649077 13.086128 13.275224 0.294977 0.168987 -0.002058 -0.001258 -548743.000000 1 0 0
-12.281258 -1.713723 0.871928 12.430865 0.138644 1.500597 -0.006613 -0.001670 -193455.000000 1 0 0
3.269642 8.703677 -1.231772 9.378796 1.211445 1.702513 0.000987 0.000426 521520.000000 1 0 0
3.687442 -2.839023 -5.840572 7.467902 -0.656126 2.468809 0.000547 -0.001838 -714984.000000 1 0 0
-7.832058 -7.184823 9.163828 14.033479 0.742324 0.859261 0.005152 -0.000355 -143671.000000 1 0 0
-7.086658 10.987177 -3.521372 13.540268 -0.997949 1.833888 -0.000790 0.000148 8174.350000 1 0 0
0.423042 0.389977 2.477928 2.543850 0.744752 0.228154 -0.001739 0.001282 -2633020.000000 1 0 0
-6.977158 4.573077 -1.992172 8.576860 -0.580187 1.805210 -0.000731 -0.001815 -167421.000000 1 0 0
-6.974558 -3.899223 -5.978572 9.979565 0.509775 2.213150 0.006348 -0.000252 -142298.000000 1 0 0
2.849442 -6.167423 13.319628 14.952221 -1.137996 0.471666 -0.002551 -0.007188 -266545.000000 1 0 0
-5.477458 -0.609523 -11.843972 13.063451 0.110822 2.706070 0.003937 -0.005630 -514602.000000 1 0 0
11.909242 2.471577 -0.590472 12.177331 0.204630 1.619305 0.000381 0.000735 -819972.000000 1 0 0
6.137342 -10.957823 10.729928 16.518844 -1.060241 0.863795 -0.007244 0.001881 37155.100000 1 0 0
-8.224458 6.540877 -10.450372 14.820090 -0.671866 2.353430 -0.001383 -0.002234 961289.000000 1 0 0
2.879342 7.938277 11.253128 14.069106 1.222838 0.643757 -0.007707 0.005111 770814.000000 1 0 0
-6.309558 -10.177023 -0.501572 11.984735 1.015815 1.612659 0.008819 -0.001176 -715328.000000 1 0 0
11.295842 4.309277 6.175028 13.575599 0.364450 1.098579 0.009833 -0.003260 -400975.000000 1 0 0
-7.834358 10.652777 1.602028 13.320110 -0.936686 1.450233 -0.003175 0.000439 449241.000000 1 0 0
4.383442 -2.623323 -3.521872 6.204834 -0.539288 2.174386 0.003891 -0.001279 -5166330.000000 1 0 0
6.310642 6.581877 6.281328 11.072506 0.806433 0.967584 -0.002875 0.003124 -4950280.000000 1 0 0
-0.287358 10.417477 -10.120072 14.526606 -1.543219 2.341524 0.004052 -0.000313 26289.000000 1 0 0
13.938642 6.465877 -2.397972 15.551321 0.434338 1.725611 0.003137 -0.004173 498269.000000 1 0 0
1.440342 9.503577 -6.294872 11.489908 1.420383 2.150602 0.002523 -0.000358 30184.100000 1 0 0
0.702442 7.314777 7.276228 10.341319 1.475059 0.790335 -0.009113 0.006220 -58534.800000 1 0 0
12.291942 6.326677 1.998028 13.968207 0.475339 1.427263 0.008579 -0.005091 -1800710.000000 1 0 0
-6.756858 6.722877 -3.143272 10.036552 -0.782877 1.889339 -0.001391 -0.002990 533995.000000 1 0 0
1.083242 9.882677 11.170428 14.953902 1.461622 0.727272 -0.009505 0.003255 -1745610.000000 1 0 0
-3.638158 13.631877 -10.861572 17.805562 -1.309989 2.226870 0.005238 -0.004846 -57435.300000 1 0 0
-10.054658 -5.503023 -2.288072 11.688228 0.500776 1.767827 0.004954 -0.001204 -82183.200000 1 0 0
-4.129958 3.901477 -12.495972 13.726886 -0.756958 2.714873 0.003651 -0.006263 -212359.000000 1 0 0
-3.239858 8.445977 2.498528 9.384767 -1.204509 1.301314 -0.004745 0.005359 -2075920.000000 1 0 0
7.006442 8.979877 7.056428 13.398567 0.908222 1.016135 0.002799 0.001203 -473396.000000 1 0 0
-1.441558 -2.299323 -8.210972 8.647834 1.010797 2.822381 0.003336 -0.006345 -1262170.000000 1 0 0
0.845442 -1.331423 4.672628 4.931623 -1.005044 0.325526 0.002169 -0.001495 -420034.000000 1 0 0
2.742642 -8.795923 -6.208772 11.110319 -1.268542 2.163770 -0.004984 -0.000863 400006.000000 1 0 0
5.221942 3.998877 8.914628 11.078370 0.653526 0.635647 -0.003543 0.002624 268598.000000 1 0 0
6.221242 -7.436123 -2.800772 10.091784 -0.874119 1.852018 -0.000379 -0.001633 827540.000000 1 0 0
1.823342 2.258277 -8.304572 8.797176 0.891557 2.805360 0.002272 -0.002900 137678.000000 1 0 0
-5.304258 10.953477 -0.605172 12.185239 -1.119825 1.620481 -0.003755 0.003115 795819.000000 1 0 0
-5.360858 3.426477 -3.403172 7.215340 -0.568721 2.061966 0.002304 -0.001244 253618.000000 1 0 0
2.231142 13.533277 -6.375272 15.125200 1.407403 2.005895 0.001237 -0.002298 397517.000000 1 0 0
-5.307258 -2.588023 2.563728 6.437200 0.453709 1.161169 -0.000485 -0.002727 1176780.000000 1 0 0
10.312742 -3.381023 -1.839072 11.007550 -0.316807 1.738657 -0.002251 0.004143 214454.000000 1 0 0
2.266242 -3.343423 7.040428 8.116770 -0.975111 0.520857 -0.000378 -0.001099 -2147350.000000 1 0 0
-2.937458 9.990877 -11.645572 15.622600 -1.284840 2.411978 0.008227 -0.001714 -2067030.000000 1 0 0
0.581242 -2.117923 9.333128 9.588051 -1.302951 0.231111 0.000548 -0.001376 887119.000000 1 0 0
9.437042 2.675777 5.041728 11.028897 0.276288 1.096022 0.000811 -0.000951 -428995.000000 1 0 0
13.451142 1.892277 -4.875672 14.432121 0.139761 1.915412 0.005943 0.001016 -1045180.000000 1 0 0
-6.412558 3.747577 7.675728 10.680919 -0.528879 0.768953 -0.002667 -0.002598 -404491.000000 1 0 0
10.616242 0.038777 1.882328 10.781895 0.003653 1.395315 -0.000299 0.002328 180837.000000 1 0 0
15.324442 6.623377 -4.495772 17.289292 0.407962 1.833852 0.001476 -0.002474 -628888.000000 1 0 0
8.038842 -4.913823 -9.323672 13.255169 -0.548658 2.350965 0.004959 -0.001077 -171243.000000 1 0 0
4.455142 5.638877 -2.090872 7.484449 0.902136 1.853926 -0.001077 -0.000099 234848.000000 1 0 0
-1.686358 -10.565323 1.450228 10.796898 1.412519 1.436070 0.006839 -0.000519 -661473.000000 1 0 0
-2.871958 12.338877 -12.793072 18.004409 -1.342111 2.361079 0.012937 -0.004683 -271883.000000 1 0 0
8.324142 4.170477 -9.562172 13.346137 0.464455 2.369532 0.001430 -0.001625 -817990.000000 1 0 0
4.121942 7.537677 -8.872872 12.350500 1.070379 2.372328 -0.000410 -0.001983 -1280590.000000 1 0 0
-1.739858 -5.117123 -2.489972 5.950799 1.243051 2.002509 0.007011 -0.004100 -488563.000000 1 0 0
-3.322958 -8.993523 6.967128 11.851851 1.216871 0.942396 -0.000951 0.002421 -380361.000000 1 0 0
1.117242 7.225677 -1.383572 7.441298 1.417390 1.757816 -0.000589 0.000579 418344.000000 1 0 0
0.338342 -1.068023 -2.272572 2.533719 -1.264005 2.683576 0.006273 0.001135 -1211330.000000 1 0 0
4.123842 -6.738523 7.558928 10.933945 -1.021614 0.807473 -0.002415 0.000868 -1091830.000000 1 0 0
-13.842958 3.921577 6.041528 15.604689 -0.276057 1.173246 -0.003316 -0.002776 -625095.000000 1 0 0
4.289742 6.366177 12.631528 14.781258 0.977849 0.546086 -0.005185 0.005570 -2181100.000000 1 0 0
8.354842 10.055277 -7.117072 14.885050 0.877501 2.069327 0.003321 -0.006234 593347.000000 1 0 0
12.408042 5.387877 9.441628 16.496456 0.409658 0.961436 0.016004 -0.000651 603587.000000 1 0 0
7.570942 4.125377 0.331728 8.628322 0.498916 1.532340 0.001038 0.000916 -1351160.000000 1 0 0
-10.865758 -7.603023 -1.049372 13.303076 0.610540 1.649760 0.001056 0.000161 -1868800.000000 1 0 0
10.385042 6.838077 0.266628 12.437021 0.582296 1.549356 0.005491 -0.001260 -1424880.000000 1 0 0
14.621342 3.542477 4.178628 15.613895 0.237701 1.299872 0.018061 -0.005425 570252.000000 1 0 0
2.248142 5.586677 8.239428 10.205551 1.188213 0.631153 -0.009183 0.005327 -554086.000000 1 0 0
4.177042 0.203877 11.695228 12.420451 0.048770 0.343414 -0.001355 -0.000452 -1560230.000000 1 0 0
-1.561358 -1.484323 -0.403372 2.191748 0.760110 1.755893 0.008019 -0.006219 -704845.000000 1 0 0
2.998242 -5.273523 -9.425072 11.208545 -1.053826 2.569709 -0.002179 -0.001737 289481.000000 1 0 0
-3.905058 -5.377923 -1.383572 6.788652 0.942749 1.776041 0.008081 -0.004207 787387.000000 1 0 0
-1.291258 -8.657923 8.570828 12.250962 1.422746 0.795952 -0.003788 0.001154 -97779.100000 1 0 0
3.856742 8.493477 -5.866872 11.019701 1.144552 2.132228 0.001306 -0.001229 -272900.000000 1 0 0
-14.096358 -1.741923 -2.615672 14.442415 0.122949 1.752912 -0.006791 -0.003339 -686944.000000 1 0 0
8.784942 -10.622923 -6.707972 15.330316 -0.879819 2.023682 -0.002444 -0.001417 349518.000000 1 0 0
14.764542 6.053577 1.550228 16.032489 0.389104 1.473952 0.003480 -0.005373 -2379920.000000 1 0 0
-5.727058 0.516277 -8.545872 10.300372 -0.089904 2.549306 0.003870 -0.005330 -358208.000000 1 0 0
-8.109358 -4.433623 -13.103972 16.035360 0.500329 2.527319 0.008956 -0.002090 674659.000000 1 0 0
0.862142 -10.621723 12.018228 16.062443 -1.489806 0.725423 -0.006643 -0.000678 -725811.000000 1 0 0
0.161442 11.674677 3.366128 12.151336 1.556969 1.290108 -0.003419 0.001791 -410503.000000 1 0 0
5.025542 -13.196823 -3.839672 14.634045 -1.206938 1.836284 -0.006322 0.004205 329266.000000 1 0 0
-7.458258 1.558077 -7.000472 10.346972 -0.205945 2.313894 0.002688 -0.001335 880274.000000 1 0 0
1.501142 2.686677 4.048828 5.085732 1.061271 0.649948 -0.004316 0.002644 -2120180.000000 1 0 0
17.249442 5.450877 1.996528 18.200040 0.306073 1.460876 0.003521 -0.008073 -158199.000000 1 0 0
2.400942 -8.282123 -3.618172 9.351430 -1.288636 1.968076 -0.004377 -0.000608 554159.000000 1 0 0
-0.379358 -9.454823 -0.629372 9.483338 1.530695 1.637211 0.007472 0.000433 -1216950.000000 1 0 0
0.880342 11.874777 -5.454572 13.097240 1.496796 2.000352 0.005247 -0.001491 -756994.000000 1 0 0
6.060042 -5.048423 7.793028 11.087920 -0.694581 0.791415 -0.003171 0.000462 -1103030.000000 1 0 0
-6.055458 -1.765823 -9.520172 11.420174 0.283740 2.556440 0.005224 -0.003398 -440155.000000 1 0 0
2.143142 -1.246823 11.289128 11.558202 -0.526910 0.216198 -0.005850 -0.000257 -942037.000000 1 0 0
18.006142 1.999277 -5.703272 18.993304 0.110580 1.875780 0.007472 0.002917 581062.000000 1 0 0
-8.894758 4.775177 7.864328 12.797136 -0.492694 0.908996 0.001689 -0.007842 -170450.000000 1 0 0
11.371942 -7.140623 -4.792872 14.257671 -0.560693 1.913634 0.009667 -0.000571 201336.000000 1 0 0
10.717142 0.542077 8.985728 13.996224 0.050537 0.873678 0.013426 -0.004897 163693.000000 1 0 0
-8.443558 -7.356423 -1.564272 11.307412 0.716700 1.709582 0.009713 -0.004755 -400619.000000 1 0 0
10.221142 -10.489023 -3.281972 15.008754 -0.798332 1.791248 0.012435 0.000410 828887.000000 1 0 0
7.566242 -13.878223 -3.814972 16.260599 -1.071655 1.807618 0.005573 -0.001494 -2019790.000000 1 0 0
1.732742 -1.149623 -11.672872 11.856643 -0.585786 2.965300 0.006589 -0.005887 335228.000000 1 0 0
-11.809558 -2.435023 -6.479972 13.688865 0.203341 2.063915 0.005151 0.001050 40442.700000 1 0 0
2.811742 -12.204723 -6.435372 14.081021 -1.344366 2.045443 -0.001753 0.002861 845034.000000 1 0 0
-5.500958 1.483977 1.116428 5.805957 -0.263495 1.377301 0.000042 -0.001991 652511.000000 1 0 0
0.179042 6.825577 -3.995472 7.911028 1.544571 2.100237 0.000752 -0.000582 1342800.000000 1 0 0
5.363642 -11.845623 3.612628 13.495870 -1.145620 1.299808 -0.001828 -0.004481 -2348750.000000 1 0 0
-4.491258 -9.247423 0.992728 10.328201 1.118673 1.474530 0.006852 -0.001095 -165491.000000 1 0 0
7.028742 -6.216423 -4.843772 10.559794 -0.724145 2.047327 0.000351 -0.002220 -345791.000000 1 0 0
-6.976358 -6.130723 2.111928 9.524472 0.720970 1.347201 0.002926 -0.002011 -508300.000000 1 0 0
-6.121358 -0.723023 7.079028 9.386502 0.117570 0.716405 -0.001758 -0.001971 -231972.000000 1 0 0
4.281142 -5.088923 3.194228 7.377561 -0.871394 1.123017 -0.001982 0.000022 -771894.000000 1 0 0
-2.434658 10.714777 -8.659372 13.989951 -1.347366 2.238228 0.003610 -0.002095 -505034.000000 1 0 0
-2.307858 -4.983023 2.757428 6.144927 1.137066 1.105450 0.004360 -0.002045 1269270.000000 1 0 0
15.129042 5.092377 6.291328 17.158118 0.324684 1.195372 0.021906 -0.010304 921108.000000 1 0 0
6.859842 0.242877 0.179828 6.866496 0.035391 1.544604 0.000499 0.002218 4380360.000000 1 0 0
-9.740458 9.329677 0.518628 13.497717 -0.763861 1.532363 -0.004987 -0.001210 -1874200.000000 1 0 0
7.125642 10.490577 -2.567272 12.939006 0.974138 1.770535 0.004309 -0.001841 -1444100.000000 1 0 0
1.575842 -4.247623 -5.470972 7.103317 -1.215542 2.449950 0.000366 -0.002912 -200369.000000 1 0 0
0.899642 -8.165423 -7.995772 11.463675 -1.461062 2.342682 -0.001978 -0.001681 333677.000000 1 0 0
-10.398858 0.397577 -10.513072 14.792532 -0.038214 2.361291 0.002467 -0.003512 -5520520.000000 1 0 0
5.825842 -2.530023 0.490328 6.370390 -0.409701 1.493750 0.001146 0.000818 -33180.500000 1 0 0
-3.354858 5.256977 -1.169572 6.344981 -1.002781 1.756187 -0.000316 -0.001715 1130270.000000 1 0 0
-0.331558 4.512277 -5.074672 6.798741 -1.497449 2.413453 0.001696 -0.001352 -1013610.000000 1 0 0
3.993142 -9.626023 9.959828 14.415397 -1.177573 0.808041 -0.008959 0.001877 -1871900.000000 1 0 0
7.256742 -13.567423 -0.589772 15.397503 -1.079647 1.609109 0.009983 -0.003413 331053.000000 1 0 0
13.002042 -0.108023 0.577428 13.015306 -0.008308 1.526416 0.003295 0.000022 -17877.000000 1 0 0
9.319542 2.466777 -0.556972 9.656556 0.258755 1.628506 0.000134 0.002278 -1296930.000000 1 0 0
-0.733258 -5.842423 4.446828 7.378743 1.445943 0.923974 0.002655 0.000923 287490.000000 1 0 0
11.395442 -3.734123 3.334328 12.446586 -0.316659 1.299593 0.007256 -0.001743 -3399330.000000 1 0 0
1.598142 -8.140923 11.709228 14.350425 -1.376952 0.616426 -0.004048 -0.002152 383806.000000 1 0 0
9.424142 -5.938323 -5.941572 12.624595 -0.562271 2.060806 0.000720 -0.001984 105122.000000 1 0 0
3.235442 6.373277 0.001528 7.147500 1.101041 1.570583 -0.003580 0.002802 -758866.000000 1 0 0
6.313842 -1.211023 11.285828 12.988498 -0.189503 0.517802 0.000779 -0.004575 238429.000000 1 0 0
-4.875458 -7.528623 -3.845172 9.758873 0.996117 1.975796 0.012957 -0.003853 -790593.000000 1 0 0
-3.496658 -8.536923 -5.857672 10.927854 1.182048 2.136525 0.012598 -0.003396 -361507.000000 1 0 0
9.785242 5.383977 2.310828 11.405179 0.503008 1.366772 0.004032 -0.000548 -22653.300000 1 0 0
8.909642 -1.500023 0.368828 9.042556 -0.166795 1.529997 0.000218 0.003156 1655740.000000 1 0 0
-3.876458 9.657677 9.277728 13.941804 -1.189096 0.842685 -0.008034 0.000050 203077.000000 1 0 0
-14.310458 -3.493623 -6.072972 15.933474 0.239447 1.961831 -0.003168 -0.001312 793684.000000 1 0 0
10.548442 6.108677 -5.961772 13.569388 0.524915 2.025676 -0.001604 -0.005964 -913472.000000 1 0 0
-1.901258 4.514177 2.701828 5.593966 -1.172170 1.066730 -0.000781 0.000483 491811.000000 1 0 0
7.007842 -3.701323 2.585828 8.336435 -0.485928 1.255410 0.000152 -0.002037 -2099980.000000 1 0 0
8.306342 -11.181523 -1.520772 14.011942 -0.931878 1.679545 0.009332 -0.002555 -2733210.000000 1 0 0
4.696442 0.433377 1.855528 5.068271 0.092017 1.195975 0.001295 0.001614 -87138.500000 1 0 0
-10.717258 2.296177 3.774628 11.592233 -0.211060 1.239132 -0.002483 -0.002237 114768.000000 1 0 0
-0.865758 -3.145823 4.399628 5.477450 1.302236 0.638106 0.003024 -0.000747 212879.000000 1 0 0
8.542342 -8.678123 -8.579672 14.896046 -0.793283 2.184586 0.007084 -0.001802 -655035.000000 1 0 0
12.029742 -4.738823 1.061528 12.972971 -0.375259 1.488879 0.002718 0.001630 259637.000000 1 0 0
2.925642 4.779377 3.537028 6.626643 1.021499 1.007757 -0.006095 0.001839 72888.800000 1 0 0
5.969842 7.533877 2.015528 9.821440 0.900707 1.364111 0.001194 0.000531 -144663.000000 1 0 0
-1.756258 -1.275523 -10.310372 10.536374 0.628142 2.934099 0.005782 -0.005327 648749.000000 1 0 0
-0.969958 -8.576423 5.936828 10.475770 1.458179 0.968277 0.000217 -0.000078 -262575.000000 1 0 0
-4.175358 -0.255423 2.215928 4.733835 0.061098 1.083652 0.001424 -0.001607 -406901.000000 1 0 0
-8.313858 6.238877 -7.936072 13.077655 -0.643769 2.222878 -0.004060 -0.001419 -1173930.000000 1 0 0
6.469942 11.068077 -9.344572 15.864537 1.041808 2.200645 0.006388 -0.007625 274685.000000 1 0 0
-11.272258 -5.854523 3.229528 13.106070 0.479027 1.321817 -0.004592 0.000896 1286620.000000 1 0 0
1.484042 -6.157123 2.861028 6.949678 -1.334279 1.146502 0.003634 -0.001612 269424.000000 1 0 0
10.103442 2.269877 7.405528 12.730818 0.220994 0.949978 0.008977 -0.002074 -1084440.000000 1 0 0
-4.067958 -2.552623 -10.673372 11.704061 0.560391 2.718778 0.003804 -0.005367 -3073950.000000 1 0 0
-8.169458 11.806277 5.997128 15.559363 -0.965488 1.175117 -0.005490 -0.005479 -308146.000000 1 0 0
6.874442 5.997377 -2.879472 9.566496 0.717365 1.876533 0.000524 0.000253 -2737100.000000 1 0 0
3.869242 -9.911123 -2.309472 10.887380 -1.198598 1.784544 -0.004002 -0.000843 -973253.000000 1 0 0
8.383142 -12.984323 -7.414672 17.141968 -0.997495 2.018110 0.004598 -0.001589 -147030.000000 1 0 0
-1.181058 9.402677 3.709728 10.176803 -1.445842 1.197671 -0.007663 0.004662 -409773.000000 1 0 0
0.488542 -13.218023 4.678828 14.030190 -1.533853 1.230801 0.003318 -0.000182 -501273.000000 1 0 0
-11.340258 -6.937923 -5.101272 14.239354 0.549048 1.937191 0.003161 -0.002388 -17739.900000 1 0 0
3.717342 10.295677 -3.264072 11.422512 1.224304 1.860593 0.006002 0.000575 -746402.000000 1 0 0
11.599442 -8.064223 -7.376672 15.937190 -0.607514 2.052014 0.023707 -0.004889 382585.000000 1 0 0
11.763042 -4.862723 -5.933972 14.043762 -0.391996 2.007036 0.005039 0.000265 188510.000000 1 0 0
1.199542 -10.332123 -2.637272 10.730651 -1.455215 1.819110 -0.000880 0.002820 -387309.000000 1 0 0
2.350742 -11.978323 -3.984772 12.840740 -1.377009 1.886329 -0.001905 0.003320 -1406870.000000 1 0 0
-7.585858 -5.618723 7.209028 11.877936 0.637512 0.918609 0.002254 0.000538 -3900940.000000 1 0 0
-7.250858 -0.932623 9.381328 11.893445 0.127920 0.661972 -0.000608 -0.002588 -339750.000000 1 0 0
16.323442 2.546377 -7.567372 18.171514 0.154748 2.000324 0.010388 0.002915 -207987.000000 1 0 0
-2.015158 6.249977 -5.519872 8.578582 -1.258894 2.269791 0.002288 0.000323 -1631580.000000 1 0 0
7.635142 1.138877 8.430428 11.430860 0.148071 0.741413 0.000009 -0.002462 -1290100.000000 1 0 0
7.990842 8.284177 -3.722472 12.097022 0.803420 1.883590 0.001541 -0.000376 168733.000000 1 0 0
7.967342 0.675677 3.956928 8.921455 0.084603 1.111264 -0.002719 -0.000712 443259.000000 1 0 0
-6.831458 5.831377 5.412628 10.486673 -0.706584 1.028454 -0.002164 -0.004434 -529390.000000 1 0 0
-6.020958 -2.016623 -4.564772 7.820220 0.323190 2.194092 0.006741 -0.002109 -392843.000000 1 0 0
-15.156758 -2.007423 3.048128 15.590001 0.131678 1.374011 0.005583 -0.002963 130885.000000 1 0 0
0.998642 1.270577 -10.577872 10.700609 0.904666 2.989987 0.008061 -0.006848 744835.000000 1 0 0
1.504442 -9.228023 9.307728 13.192935 -1.409188 0.787656 -0.002733 -0.002603 -925703.000000 1 0 0
-0.183858 -6.754623 -1.232572 6.868622 1.543583 1.751223 0.004598 -0.001207 600259.000000 1 0 0
-0.373558 -10.301223 -8.509672 13.366722 1.534549 2.260918 0.002067 -0.001114 -739867.000000 1 0 0
-4.337158 6.512577 3.879128 8.733398 -0.983279 1.110547 -0.005983 0.003175 -760533.000000 1 0 0
10.787542 -1.213123 -8.617672 13.860267 -0.111985 2.241776 0.009514 -0.000632 318676.000000 1 0 0
3.041142 -1.077623 6.197028 6.986628 -0.340543 0.480023 -0.001370 0.001191 384622.000000 1 0 0
1.802642 -12.304923 6.817028 14.182119 -1.425333 1.069369 -0.003003 0.001183 -367699.000000 1 0 0
2.874842 -4.987523 -1.466272 5.940543 -1.047905 1.820198 0.008414 -0.002105 -1345080.000000 1 0 0
-0.965858 9.448577 -1.573972 9.627351 -1.468928 1.735023 0.002126 0.000513 536672.000000 1 0 0
4.621242 -2.591623 2.783028 5.984783 -0.511102 1.087142 0.001970 0.002362 -2152460.000000 1 0 0
17.723942 6.593777 -2.692172 19.101409 0.356161 1.712208 0.001762 0.001980 559737.000000 1 0 0
-7.077058 3.624577 -5.390472 9.606222 -0.473327 2.166563 0.000252 -0.003370 -111094.000000 1 0 0
-13.850758 -5.951423 2.241428 15.240962 0.405830 1.423195 -0.011975 -0.000011 1140650.000000 1 0 0
6.762442 -6.109823 3.375228 9.718679 -0.734742 1.216114 -0.000109 -0.004050 -4662.160000 1 0 0
-4.653358 1.931277 3.539928 6.157488 -0.393395 0.958317 0.000118 -0.002196 273587.000000 1 0 0
6.844342 -12.079823 -5.560472 14.956135 -1.055303 1.951728 -0.002271 0.002250 -994815.000000 1 0 0
2.834142 -12.376223 3.263328 13.109255 -1.345679 1.319218 0.003193 -0.003545 -671411.000000 1 0 0
3.428842 11.184177 -6.026572 13.159117 1.273314 2.046514 0.002791 -0.002165 -66316.300000 1 0 0
-5.667558 -8.315123 6.368528 11.908846 0.972529 1.006557 0.001860 0.002430 652635.000000 1 0 0
-3.950158 6.411177 6.438728 9.907783 -1.018596 0.863389 -0.003155 0.001928 46583.000000 1 0 0
4.249742 4.343577 -6.996972 9.267394 0.796317 2.426465 0.000873 0.001172 -2364850.000000 1 0 0
-0.231558 -2.718623 1.598328 3.162148 1.485827 1.040886 0.003445 -0.002544 -123148.000000 1 0 0
-13.287358 -0.954923 6.572928 14.854936 0.071744 1.112440 0.002661 -0.001338 -94467.000000 1 0 0
-0.520258 -9.168823 -6.078672 11.013094 1.514115 2.155497 0.000398 0.000571 -40128.000000 1 0 0
2.137542 -1.784923 -3.955972 4.837846 -0.695742 2.528224 0.001298 -0.000386 -1752090.000000 1 0 0
11.372242 -1.990823 1.309928 11.619259 -0.173304 1.457818 0.000844 0.002286 -629659.000000 1 0 0
0.589742 -4.198723 -2.091772 4.727851 -1.431252 2.029110 0.004041 -0.002533 -1543150.000000 1 0 0
1.187542 -7.459123 -11.320472 13.608889 -1.412915 2.553218 -0.001901 -0.002307 -1297640.000000 1 0 0
-4.478558 4.201977 -10.072872 11.797324 -0.753547 2.594089 0.001052 -0.003708 -21757.700000 1 0 0
-0.993658 5.783577 -2.144672 6.247939 -1.400651 1.921183 0.000235 -0.000671 -1237770.000000 1 0 0
-11.200758 1.782077 -3.822372 11.968430 -0.157781 1.895862 0.002085 -0.000421 253421.000000 1 0 0
-1.953758 -11.271523 4.209328 12.189456 1.399166 1.218211 0.007160 0.000030 -145543.000000 1 0 0
-3.526258 -5.507123 -9.745472 11.736146 1.001264 2.550587 0.004057 -0.002979 -3067970.000000 1 0 0
-12.932658 -3.701023 -8.400972 15.859620 0.278727 2.129053 0.009995 0.001428 -387594.000000 1 0 0
11.505542 4.564577 0.542728 12.389811 0.377683 1.526978 0.006612 -0.000772 32103.800000 1 0 0
-8.900858 -2.244223 -2.967472 9.647160 0.246988 1.883467 0.005321 -0.004077 -428038.000000 1 0 0
-2.554258 -6.183823 -6.491772 9.322392 1.179087 2.341114 0.003917 -0.003990 -115508.000000 1 0 0
0.051842 2.555877 -2.003272 3.247814 1.550516 2.235475 0.001888 -0.002466 286695.000000 1 0 0
7.984342 6.065977 -5.184072 11.288065 0.649702 2.047950 0.000112 -0.000933 -1156760.000000 1 0 0
-9.886258 -0.869123 -0.999572 9.974598 0.087687 1.671177 0.000677 -0.002578 -64104.700000 1 0 0
6.099542 0.488077 -8.890272 10.792570 0.079849 2.538773 0.003029 0.000005 650481.000000 1 0 0
-4.054558 2.508077 7.842328 9.177799 -0.553971 0.546230 -0.004016 0.001154 -1394390.000000 1 0 0
-10.154858 -3.382423 1.541928 10.813855 0.321526 1.427721 -0.002636 -0.001930 1268110.000000 1 0 0
-1.876758 -8.236023 -7.949672 11.599637 1.346750 2.325864 0.003497 -0.005211 1350600.000000 1 0 0
-9.494558 -9.778323 4.107728 14.235015 0.800121 1.278069 -0.005480 0.004148 -755068.000000 1 0 0
-1.221158 -10.748923 7.182428 12.985293 1.457674 0.984691 -0.001610 0.002075 -390196.000000 1 0 0
9.523542 3.784077 -3.721772 10.902692 0.378211 1.919163 0.002132 0.000897 -859347.000000 1 0 0
12.778642 -0.710423 3.181428 13.187869 -0.055537 1.327154 0.007435 -0.002900 184400.000000 1 0 0
6.540842 11.954577 -6.774872 15.218194 1.070151 2.032174 0.005991 -0.001825 321624.000000 1 0 0
-11.921758 0.004577 -6.427072 13.543839 -0.000384 2.065236 0.000599 -0.002433 33576.000000 1 0 0
-7.535358 -6.508523 -11.663472 15.335549 0.712412 2.434958 0.013606 -0.001799 -646653.000000 1 0 0
4.069542 6.013077 6.523728 9.761009 0.975824 0.838814 -0.005504 0.003179 -3181050.000000 1 0 0
-4.271058 -1.356123 -7.411472 8.660885 0.307447 2.597777 0.004791 -0.006085 -1161880.000000 1 0 0
9.628942 9.324077 0.882328 13.432552 0.769314 1.505063 0.011662 -0.002105 -2137810.000000 1 0 0
-8.833058 3.974777 5.000628 10.900828 -0.422845 1.094222 -0.004063 -0.004019 1140980.000000 1 0 0
-7.009258 7.973977 -12.234172 16.198425 -0.849696 2.426861 -0.000247 -0.001325 -730042.000000 1 0 0
11.218442 -3.576123 7.349428 13.880064 -0.308588 1.012791 0.007434 -0.001923 11579.100000 1 0 0
11.836842 7.004277 6.439228 15.186652 0.534320 1.132933 0.009939 -0.004758 -107864.000000 1 0 0
-10.031358 -0.496523 -14.745972 17.841479 0.049457 2.543657 0.009426 -0.003792 495425.000000 1 0 0
1.645242 -13.008323 12.029428 17.794112 -1.444988 0.828429 -0.011397 0.003960 178856.000000 1 0 0
2.967542 3.036677 13.074028 13.746197 0.796912 0.314014 -0.005869 0.002135 -806908.000000 1 0 0
-2.553158 -1.462423 10.897228 11.287465 0.520172 0.263718 0.004169 -0.002219 -631869.000000 1 0 0
2.506442 -10.166323 -8.345272 13.389546 -1.329073 2.243711 -0.006243 0.000811 -1354180.000000 1 0 0
13.985242 3.575577 -7.450772 16.244561 0.250306 2.047286 0.004051 -0.001299 -2864700.000000 1 0 0
7.506442 -1.598023 5.036928 9.179923 -0.209755 0.990000 -0.002047 0.001171 22726.300000 1 0 0
-1.024558 8.638277 10.196128 13.402633 -1.452741 0.706320 -0.003631 0.002037 -53645.600000 1 0 0
-12.194558 -4.631923 0.936628 13.078196 0.363003 1.499117 -0.007443 -0.000541 -322484.000000 1 0 0
-4.888458 4.912177 -5.327872 8.741437 -0.787818 2.226221 0.001846 -0.002564 -314087.000000 1 0 0
-11.127858 0.358777 1.961028 11.305024 -0.032230 1.396449 -0.006429 -0.001086 -2614710.000000 1 0 0
-1.396058 2.192877 -4.097672 4.852691 -1.003876 2.576264 0.001165 -0.004097 1059440.000000 1 0 0
3.168342 -9.811223 12.998928 16.591281 -1.258437 0.670551 -0.007863 -0.002999 -1769100.000000 1 0 0
8.948142 4.677077 -1.515072 10.209787 0.481632 1.719741 0.001843 -0.000813 -1288200.000000 1 0 0
4.120842 2.301377 3.758428 6.033528 0.509325 0.898322 -0.006460 0.004771 1640840.000000 1 0 0
-5.478558 -3.198023 7.512228 9.832371 0.528374 0.701260 0.002297 -0.002938 -227664.000000 1 0 0
1.801342 -5.898223 7.726128 9.885692 -1.274389 0.673655 -0.000842 -0.003130 -2326440.000000 1 0 0
-5.932658 -6.328023 -9.800572 13.087838 0.817634 2.417092 0.009190 -0.005692 23696.300000 1 0 0
-11.696558 -5.685023 5.523128 14.129186 0.452419 1.169185 0.003169 -0.001026 -1063110.000000 1 0 0
10.502142 6.224077 4.659128 13.066813 0.534996 1.206211 0.008825 -0.001954 -1397250.000000 1 0 0
1.569042 -3.706823 0.326628 4.038454 -1.170379 1.489828 0.007974 -0.002880 -745201.000000 1 0 0
8.880442 4.341377 6.992228 12.107893 0.454704 0.955141 -0.000271 0.001482 -667677.000000 1 0 0
-7.835658 12.299277 3.581928 15.016656 -1.003555 1.329944 -0.001852 -0.003102 -473501.000000 1 0 0
-6.205158 13.274477 -6.871472 16.184340 -1.133526 2.009289 0.005965 -0.008511 345686.000000 1 0 0
4.484142 -6.984723 -1.047172 8.366030 -1.000071 1.696295 0.004382 -0.003423 -1822060.000000 1 0 0
-1.958958 -8.161323 11.059028 13.883328 1.335223 0.649198 -0.003197 -0.004997 -183277.000000 1 0 0
11.584842 8.623677 -5.742472 15.541955 0.639903 1.949248 0.006948 -0.005490 521002.000000 1 0 0
-3.242658 -2.963723 -2.001972 4.827668 0.740485 1.998395 0.008798 -0.004110 -1258630.000000 1 0 0
-2.005558 5.850877 4.868328 7.871191 -1.240569 0.903965 -0.006379 0.002667 -396526.000000 1 0 0
0.408842 -11.333723 -5.725172 12.704252 -1.534739 2.038290 -0.000933 0.000171 -655460.000000 1 0 0
-8.753658 6.264377 -1.490072 10.866888 -0.621139 1.708350 -0.001621 0.001994 -570832.000000 1 0 0
2.957942 -0.032423 3.863828 4.866173 -0.010961 0.653406 -0.002425 0.002401 -656334.000000 1 0 0
-10.066358 4.015277 -1.014672 10.885016 -0.379541 1.664149 -0.000044 -0.000446 -192734.000000 1 0 0
6.542042 5.500077 13.752328 16.191840 0.699086 0.556068 0.000568 0.005846 -323175.000000 1 0 0
-8.707558 -1.663223 5.700628 10.539688 0.188736 0.999322 -0.000732 -0.003218 -211182.000000 1 0 0
12.941242 -1.816523 -1.431772 13.146310 -0.139456 1.679923 0.003118 0.001619 -1648360.000000 1 0 0
5.184442 -5.561923 5.443728 9.351342 -0.820510 0.949446 -0.003084 -0.002723 -14521.700000 1 0 0
-9.049558 -1.230023 3.253028 9.694826 0.135093 1.228615 -0.004730 -0.000433 849105.000000 1 0 0
1.904342 5.380977 5.586828 7.987120 1.230649 0.796127 -0.003119 0.002631 -128745.000000 1 0 0
9.341442 3.106577 -7.449772 12.345545 0.321053 2.218602 0.002794 -0.002255 -1366640.000000 1 0 0
2.351042 -2.361123 -1.582872 3.688873 -0.787537 2.014286 0.002578 -0.001075 -330438.000000 1 0 0
-6.228858 0.449877 -3.863372 7.343480 -0.072100 2.124799 0.001301 -0.001655 -3366300.000000 1 0 0
-3.965658 4.149977 4.978928 7.598584 -0.808106 0.856291 -0.003835 0.000126 281657.000000 1 0 0
-6.387558 1.822377 -12.392672 14.060593 -0.277918 2.649564 0.001487 -0.002288 -1345470.000000 1 0 0
-0.152458 2.985077 6.177128 6.862277 -1.519767 0.450666 -0.005467 0.002950 917085.000000 1 0 0
-8.671858 9.484577 -2.041372 13.012514 -0.830130 1.728325 -0.003774 0.000434 565764.000000 1 0 0
-1.380558 -3.786623 -6.176572 7.375262 1.221185 2.563436 0.002037 -0.004432 189664.000000 1 0 0
-3.338958 7.051277 -2.983872 8.353002 -1.128552 1.936088 0.001247 0.001389 940041.000000 1 0 0
6.991942 -0.278123 -4.232672 8.178027 -0.039757 2.114801 0.001045 0.003503 -38077.400000 1 0 0
-5.197858 -10.809023 6.852028 13.813145 1.122560 1.051751 -0.004681 0.001353 60762.900000 1 0 0
9.684442 8.302377 -1.447472 12.837954 0.708711 1.683786 0.004940 -0.001268 -293058.000000 1 0 0
13.777642 4.493277 -4.256872 15.104103 0.315252 1.856503 0.002375 -0.004833 429005.000000 1 0 0
4.694142 1.033777 -6.882172 8.394520 0.216767 2.531930 0.001018 0.000017 -19961.000000 1 0 0
9.010342 -4.774523 3.618628 10.820203 -0.487276 1.229793 0.001405 -0.003671 -1421260.000000 1 0 0
-8.866558 -3.263523 -0.724572 9.475834 0.352682 1.647336 -0.001054 -0.001890 -6696.530000 1 0 0
-8.603358 -4.229023 -10.529272 14.239662 0.456869 2.403024 0.010404 -0.003801 622305.000000 1 0 0
10.493942 -1.000923 10.894328 15.159520 -0.095093 0.768943 0.010511 -0.001928 -160178.000000 1 0 0
2.317642 -11.575223 9.955528 15.442467 -1.373185 0.870185 -0.009119 -0.000521 473549.000000 1 0 0
-6.483358 -10.670523 1.937728 12.635219 1.024811 1.416829 0.001925 0.002826 -1145080.000000 1 0 0
-3.618958 -1.594623 6.602028 7.695872 0.415035 0.539694 0.003171 -0.003401 -1441050.000000 1 0 0
4.749442 -7.603323 3.812828 9.741939 -1.012446 1.168662 -0.001510 -0.001435 395226.000000 1 0 0
11.509442 -9.547623 -5.351472 15.882777 -0.692500 1.914457 0.017802 0.000048 395718.000000 1 0 0
11.397442 1.292377 11.399328 16.171475 0.112910 0.788509 0.024654 -0.003701 -267566.000000 1 0 0
-10.228358 -3.479323 4.397528 11.664615 0.327886 1.184244 0.003863 -0.002260 965005.000000 1 0 0
2.050342 8.760177 9.010528 12.733194 1.340882 0.784643 -0.008900 0.005886 -599601.000000 1 0 0
6.591442 8.839977 4.193828 11.797479 0.930091 1.207363 0.001570 0.001496 873823.000000 1 0 0
-4.223558 3.547877 0.522828 5.540688 -0.698672 1.476294 -0.000150 -0.001236 -1307350.000000 1 0 0
4.882442 7.011077 4.266528 9.549697 0.962497 1.107643 0.000278 0.002743 -1054270.000000 1 0 0
-8.308658 13.140477 1.172128 15.591017 -1.006968 1.495546 -0.001004 -0.004604 -1617590.000000 1 0 0
8.826542 8.103977 -9.092072 15.041545 0.742746 2.219889 -0.000200 -0.010942 -1831120.000000 1 0 0
6.979542 1.985077 6.070828 9.460946 0.277097 0.874120 -0.004775 0.002218 -427144.000000 1 0 0
11.515042 -6.230123 3.053728 13.443804 -0.495940 1.341649 0.006643 -0.001586 -465745.000000 1 0 0
11.474742 4.669877 -2.100872 12.565474 0.386501 1.738779 0.001068 -0.001329 1315990.000000 1 0 0
-3.959958 14.318577 -5.973972 16.012223 -1.300980 1.953132 0.006240 -0.003571 1897790.000000 1 0 0
7.157442 -3.081423 6.906428 10.412631 -0.406537 0.845611 -0.000496 -0.001959 -555303.000000 1 0 0
-8.036558 -0.500723 0.875328 8.099579 0.062225 1.462514 -0.001344 -0.001819 425325.000000 1 0 0
-3.250758 0.997077 10.712028 11.238733 -0.297612 0.307363 0.001789 0.000289 81573.700000 1 0 0
7.145942 -1.299023 -1.814772 7.486344 -0.179821 1.815647 0.002127 0.003377 -1865600.000000 1 0 0
-7.861158 5.353777 3.023928 9.980224 -0.597889 1.262966 -0.004447 -0.000156 785606.000000 1 0 0
9.469142 -2.175323 2.934028 10.149148 -0.225810 1.277519 -0.000763 -0.001010 -2401530.000000 1 0 0
0.245742 3.409877 1.646128 3.794389 1.498853 1.122055 -0.001082 0.000581 -6213740.000000 1 0 0
-7.602058 -3.125623 3.883528 9.090797 0.390085 1.129410 0.000519 -0.002533 991783.000000 1 0 0
-2.179958 8.422477 -6.673972 10.965047 -1.317528 2.225165 0.002060 -0.000688 -334060.000000 1 0 0
4.507342 9.894977 7.456028 13.184046 1.143363 0.969716 -0.002960 0.005729 -1087180.000000 1 0 0
-11.801458 -3.154123 6.905728 14.032533 0.261161 1.056270 0.004977 -0.003806 -1692310.000000 1 0 0
-4.761258 2.365877 -5.722072 7.810830 -0.461166 2.392904 0.003807 -0.004032 -1058260.000000 1 0 0
-2.647558 2.894177 -1.830072 4.328393 -0.829871 2.007336 0.003116 -0.002054 1296580.000000 1 0 0
2.348542 5.231777 11.519728 12.868227 1.148858 0.461901 -0.005711 0.000449 93524.900000 1 0 0
-0.682258 1.579177 4.421028 4.743919 -1.162983 0.371081 -0.000620 -0.000947 1016160.000000 1 0 0
5.099542 1.527877 7.765628 9.415132 0.291100 0.600943 -0.006774 0.004959 -471346.000000 1 0 0
3.318742 -8.121523 1.830028 8.962264 -1.182868 1.365157 0.002299 -0.000803 2173670.000000 1 0 0
5.038742 6.372377 -4.641772 9.356397 0.901742 2.089905 0.000353 -0.000122 -2687380.000000 1 0 0
-4.045358 2.927577 -8.069372 9.489489 -0.626448 2.587443 0.002702 -0.006245 -81169.300000 1 0 0
-8.723958 -2.009123 -12.953472 15.745998 0.226353 2.536856 0.004737 -0.004129 -94062.300000 1 0 0
-7.821458 8.089177 1.348328 11.332607 -0.802223 1.451536 -0.004489 0.000589 -2142080.000000 1 0 0
7.336542 0.941377 -6.564772 9.889756 0.127616 2.296678 0.002061 0.001732 290191.000000 1 0 0
9.053442 8.921977 5.531828 13.862453 0.778085 1.160315 0.005736 -0.000183 532156.000000 1 0 0
9.453442 -1.080623 -1.271872 9.599634 -0.113816 1.703679 0.001251 0.003911 693739.000000 1 0 0
5.472542 0.039177 4.301528 6.960847 0.007159 0.904651 -0.003107 0.002956 -1057360.000000 1 0 0
-4.242658 -7.235923 -8.026672 11.609745 1.040487 2.334185 0.014056 -0.006918 -424951.000000 1 0 0
-2.229158 7.385977 -0.547172 7.734417 -1.277680 1.641601 -0.000716 0.000290 160220.000000 1 0 0
13.419942 -3.429323 -7.394672 15.701474 -0.250185 2.061168 0.015663 -0.001365 1034910.000000 1 0 0
-4.853158 -5.056323 1.617128 7.192680 0.805897 1.344028 0.007495 -0.005185 1029690.000000 1 0 0
-8.839658 1.230477 2.610628 9.298871 -0.138311 1.286224 -0.003913 -0.001464 -1144040.000000 1 0 0
-1.047358 11.087377 10.103328 15.036759 -1.476612 0.834014 -0.010614 -0.001338 113714.000000 1 0 0
-8.551758 0.388277 7.444128 11.344530 -0.045372 0.855042 -0.001526 -0.004282 1042740.000000 1 0 0
-6.187558 12.860677 -1.903772 14.398168 -1.122365 1.703408 0.002002 0.000518 632562.000000 1 0 0
-12.888358 -0.735223 3.325828 13.330846 0.056984 1.318649 0.000985 -0.004833 932453.000000 1 0 0
-6.667658 12.711777 8.662328 16.765526 -1.087721 1.027834 -0.002240 -0.011486 266064.000000 1 0 0
-7.975358 1.033577 -14.131872 16.259902 -0.128878 2.624225 0.003818 -0.002295 -518865.000000 1 0 0
7.428042 2.987277 3.789628 8.857817 0.382369 1.128707 0.000041 0.002584 -785542.000000 1 0 0
-1.660858 0.612577 -2.027772 2.691758 -0.353352 2.423902 0.004720 -0.005153 981486.000000 1 0 0
-6.369358 9.679377 -10.381372 15.557376 -0.988794 2.301368 0.000830 -0.001484 -311505.000000 1 0 0
-9.928058 13.681177 5.287728 17.711607 -0.943047 1.267628 -0.005939 -0.009711 -69043.000000 1 0 0
-5.684958 8.223577 2.589428 10.327202 -0.965933 1.317353 -0.007700 0.001638 -2149340.000000 1 0 0
-2.438658 -10.734823 -1.313572 11.086430 1.347415 1.689560 0.006727 0.000757 587743.000000 1 0 0
-2.287958 -12.355223 8.838628 15.362539 1.387689 0.957781 -0.006446 0.005390 -43197.200000 1 0 0
-14.714458 -6.343323 -1.686472 16.112020 0.407021 1.675660 -0.002092 0.000691 433921.000000 1 0 0
-2.831658 -9.362423 3.180928 10.285502 1.277094 1.256378 0.005074 0.000431 -167515.000000 1 0 0
4.662542 -2.773923 7.559928 9.305184 -0.536689 0.622467 -0.003577 0.001774 -434803.000000 1 0 0
-14.934458 -1.241623 -0.233772 14.987805 0.082947 1.586394 -0.004999 -0.006614 -134381.000000 1 0 0
5.570242 8.758077 -2.806472 10.752107 1.004317 1.834871 0.001326 0.000175 -1401900.000000 1 0 0
-5.614858 -5.784823 8.462528 11.687822 0.800307 0.761145 0.002827 -0.001860 -2446720.000000 1 0 0
3.486542 3.560477 7.029928 8.617010 0.795889 0.616651 -0.006980 0.002810 221590.000000 1 0 0
3.310942 2.282777 9.382428 10.208005 0.603620 0.404944 -0.002788 -0.000471 43304.500000 1 0 0
10.047142 -3.314123 5.309228 11.837076 -0.318619 1.105682 0.004554 -0.003402 -750394.000000 1 0 0
6.541942 9.955977 -5.073672 12.948384 0.989455 1.973425 0.004577 -0.003710 502784.000000 1 0 0
-4.478058 12.118277 -8.400372 15.410123 -1.216831 2.147329 0.003649 -0.005681 -326746.000000 1 0 0
-3.487158 -7.196523 2.087828 8.264940 1.119576 1.315417 0.006008 -0.002865 735708.000000 1 0 0
-7.475958 -4.044723 1.054828 8.565185 0.495931 1.447330 0.001782 -0.001777 1605560.000000 1 0 0
-1.972358 -3.994923 -10.925072 11.798593 1.112188 2.754377 0.005381 -0.005245 -831041.000000 1 0 0
-5.197758 8.394377 -4.452872 10.830989 -1.016382 1.994482 0.002321 -0.001617 -2073380.000000 1 0 0
-11.022058 -3.199523 -10.181272 15.342132 0.282519 2.296437 0.013782 0.000538 -720222.000000 1 0 0
4.663142 -11.278723 -7.720472 14.441612 -1.178753 2.134830 -0.005940 -0.000979 -2214900.000000 1 0 0
-9.358558 -3.998823 7.273028 12.508802 0.403809 0.950308 0.000761 -0.002301 156478.000000 1 0 0
-5.796858 -9.577423 -5.133672 12.316053 1.026516 2.000749 0.014393 -0.006156 189567.000000 1 0 0
4.743542 4.438977 -9.490872 11.501407 0.752242 2.541339 -0.000540 0.000504 507067.000000 1 0 0
-3.385858 -7.109523 -14.064572 16.118981 1.126335 2.631189 -0.000579 -0.002146 -311875.000000 1 0 0
0.622742 -0.845823 -8.901972 8.963723 -0.936149 3.024146 0.005159 -0.007079 522689.000000 1 0 0
-7.700658 2.305577 -2.925672 8.554261 -0.290906 1.919855 0.001045 -0.001741 -1138220.000000 1 0 0
-2.386158 7.650077 -12.535372 14.877936 -1.268446 2.572792 0.004069 -0.003727 185253.000000 1 0 0
-9.778058 8.799777 7.711428 15.248364 -0.732788 1.040578 0.000975 -0.009734 -354500.000000 1 0 0
-10.813758 -2.861923 -14.412772 18.244341 0.258724 2.481582 0.011919 -0.000274 160282.000000 1 0 0
-3.055058 4.844577 8.028728 9.862240 -1.008170 0.619640 -0.003447 0.002010 -600549.000000 1 0 0
8.747842 -2.180423 -3.550672 9.689492 -0.244275 1.945982 0.000569 0.002026 -6601430.000000 1 0 0
1.901442 -8.446723 -1.190772 8.739596 -1.349377 1.707472 0.002458 0.000713 -736743.000000 1 0 0
-13.567158 -2.851023 5.012928 14.741966 0.207128 1.223832 0.005939 -0.005092 466527.000000 1 0 0
7.006742 2.750577 -1.873972 7.757054 0.374078 1.814793 -0.000480 0.002231 851155.000000 1 0 0
-11.016358 4.358177 8.900328 14.817884 -0.376716 0.926485 0.002850 -0.007647 -3421070.000000 1 0 0
-1.665958 -2.436223 8.027428 8.552789 0.971007 0.352321 0.000825 -0.002863 -1441520.000000 1 0 0
3.082442 11.856377 -9.775672 15.672872 1.316445 2.244305 0.005622 -0.008578 909346.000000 1 0 0
3.615342 -5.031323 -7.022672 9.364979 -0.947718 2.418687 -0.002247 -0.003513 238226.000000 1 0 0
8.366642 -13.809723 -9.864472 18.921336 -1.026085 2.119218 0.007956 0.000348 -254745.000000 1 0 0
-6.294858 -5.751023 -0.498372 8.540953 0.740282 1.629180 0.011017 -0.002630 -338708.000000 1 0 0
-1.233058 -4.101723 9.866128 10.755698 1.278771 0.409568 -0.000781 -0.001760 -294901.000000 1 0 0
2.762142 3.312977 1.749028 4.654498 0.875822 1.185567 -0.004655 0.002500 -1403690.000000 1 0 0
-9.059758 13.424077 7.761828 17.959149 -0.977123 1.123873 -0.002432 -0.016578 -551094.000000 1 0 0
3.942542 -11.130023 0.006428 11.807670 -1.230362 1.570252 0.001476 -0.003432 388979.000000 1 0 0
-12.423258 -1.327723 -9.092972 15.452583 0.106470 2.199929 0.007822 -0.002232 139606.000000 1 0 0
-4.226358 0.868977 -13.518172 14.190074 -0.202783 2.832631 0.005098 -0.003568 529042.000000 1 0 0
3.817742 -3.206923 4.986828 7.051805 -0.698663 0.785308 -0.001930 0.003423 -257227.000000 1 0 0
1.813842 -1.226423 1.079928 2.441389 -0.594537 1.112588 0.001910 -0.001049 372261.000000 1 0 0
8.104042 -8.956123 7.438928 14.185390 -0.835302 1.018777 0.003803 -0.003124 -1216150.000000 1 0 0
-0.012058 2.232677 -6.381272 6.760594 -1.565396 2.805020 0.000981 -0.003688 846329.000000 1 0 0
-3.812258 -9.748523 -3.367572 10.995797 1.198020 1.882058 0.011736 -0.001479 -730055.000000 1 0 0
-9.345458 2.307877 -5.437872 11.055964 -0.242108 2.085009 0.002316 -0.000823 -1529480.000000 1 0 0
8.907942 -7.581423 5.307228 12.845080 -0.705124 1.144862 0.004356 -0.002981 690776.000000 1 0 0
-5.556958 -4.374423 4.597828 8.435364 0.666886 0.994329 0.002413 -0.002996 -1349600.000000 1 0 0
-0.121058 -12.437123 10.300128 16.148972 1.561063 0.879133 -0.006609 0.004233 -1730330.000000 1 0 0
-14.217458 -8.289423 3.118028 16.750305 0.527860 1.383557 -0.005484 -0.002399 -1511270.000000 1 0 0
10.956042 -1.338423 -3.569472 11.600318 -0.121561 1.883576 0.007446 0.002716 -1101260.000000 1 0 0
-13.570058 3.015177 2.762728 14.172877 -0.218641 1.374610 0.000173 -0.001086 -1524720.000000 1 0 0
-6.297158 6.119377 1.136328 8.853938 -0.771081 1.442100 -0.003670 0.001959 237445.000000 1 0 0
7.072842 -6.977123 -0.346072 9.941081 -0.778585 1.605616 0.000044 -0.000185 -662359.000000 1 0 0
-6.780458 7.771677 10.206828 14.510442 -0.853408 0.790609 -0.001843 -0.002946 238721.000000 1 0 0
-12.576458 -5.122023 -1.938772 13.717188 0.386758 1.712610 -0.007922 -0.001690 -1958960.000000 1 0 0
-9.420058 -5.661623 0.252728 10.993422 0.541168 1.547805 0.001782 -0.002528 -1282380.000000 1 0 0
-1.771358 1.899077 2.139628 3.364849 -0.820181 0.881653 0.002794 -0.001670 524340.000000 1 0 0
-7.084058 7.338177 7.680828 12.768236 -0.803016 0.925347 -0.004079 -0.004740 -368632.000000 1 0 0
5.673642 7.110177 -0.373872 9.104099 0.897300 1.611874 0.002675 -0.000398 -1208620.000000 1 0 0
-0.040458 -4.139523 7.504628 8.570690 1.561023 0.504088 0.000676 -0.002324 -198586.000000 1 0 0
6.359542 0.720277 13.079528 14.561477 0.112779 0.455075 0.001559 -0.003111 245054.000000 1 0 0
5.814342 6.049877 -7.829072 11.476148 0.805248 2.321569 -0.003281 -0.000082 -978638.000000 1 0 0
9.867442 5.439877 9.030028 14.439532 0.503837 0.895193 0.005476 -0.002198 -2825100.000000 1 0 0
-1.284958 -5.078323 -8.539772 10.018392 1.322970 2.591373 0.003791 -0.005607 644003.000000 1 0 0
9.985942 -3.614823 -8.007472 13.300586 -0.347317 2.216849 0.008692 -0.003899 488129.000000 1 0 0
8.453442 -5.547823 1.323528 10.197585 -0.580777 1.440641 0.002764 -0.001525 1000140.000000 1 0 0
15.681042 3.012677 -5.041772 16.744873 0.189809 1.876635 0.001521 0.000640 -1215660.000000 1 0 0
-6.933158 3.534577 1.135328 7.864533 -0.471463 1.425930 -0.002377 -0.002165 656521.000000 1 0 0
-1.646158 3.849477 0.233728 4.193202 -1.166699 1.515028 0.002016 -0.004013 -228716.000000 1 0 0
-2.553558 9.991677 6.958528 12.440876 -1.320584 0.977222 -0.009343 0.004921 61254.500000 1 0 0
5.461742 -5.778623 -8.651172 11.750144 -0.813582 2.398325 -0.002345 -0.001952 532965.000000 1 0 0
-1.180458 -0.910323 6.112028 6.291188 0.656907 0.239225 0.001765 -0.003179 -86340.900000 1 0 0
-5.557358 5.144177 -7.836172 10.897357 -0.746808 2.373287 -0.001027 -0.002352 -159896.000000 1 0 0
6.852142 -1.316123 2.611228 7.450003 -0.189764 1.212691 -0.001584 0.002932 -1537850.000000 1 0 0
8.810442 7.573077 3.326428 12.084722 0.710016 1.291937 0.005388 -0.000857 193214.000000 1 0 0
-5.284458 -4.824923 -7.830672 10.607771 0.739973 2.401197 0.009460 -0.005638 1155800.000000 1 0 0
-2.157658 8.011377 -9.996972 12.991424 -1.307714 2.448863 0.002902 -0.002422 503062.000000 1 0 0
-2.779358 -2.404223 1.657828 4.031564 0.713154 1.147013 0.002577 -0.000647 533581.000000 1 0 0
6.019842 -2.149323 -9.287872 11.274868 -0.342932 2.538821 0.000868 -0.000612 1177490.000000 1 0 0
1.189542 -7.676623 4.946028 9.209166 -1.417063 1.003829 -0.000005 0.000521 462896.000000 1 0 0
1.717642 11.888977 1.262828 12.078610 1.427316 1.466054 0.000065 -0.001107 1054220.000000 1 0 0
-1.136158 7.065577 2.550128 7.597130 -1.411359 1.228480 -0.003682 0.003922 483566.000000 1 0 0
8.740542 7.854477 -6.606772 13.481073 0.732055 2.082975 0.001267 -0.007007 -251175.000000 1 0 0
3.627342 -11.133423 5.438428 12.910740 -1.255835 1.135992 0.000862 0.000028 -398828.000000 1 0 0
7.862042 -6.984423 12.330328 16.205889 -0.726354 0.706167 -0.001778 0.000512 -98760.500000 1 0 0
-8.634258 0.126777 -3.972772 9.505230 -0.014682 2.001991 0.004383 -0.001105 -1158070.000000 1 0 0
-3.343258 -4.951823 11.209428 12.702330 0.976939 0.489708 0.002684 -0.002765 161342.000000 1 0 0
-8.221758 0.304177 -11.612372 14.231550 -0.036980 2.525184 0.003138 -0.002634 -1822340.000000 1 0 0
1.385142 -5.062823 5.284728 7.448432 -1.303741 0.781995 0.001784 -0.000196 -794548.000000 1 0 0
6.698742 3.652377 -7.657572 10.809783 0.499176 2.358015 -0.000739 0.000532 219034.000000 1 0 0
16.345242 4.025677 -1.256672 16.880529 0.241484 1.645310 0.004059 0.001191 -562482.000000 1 0 0
7.888042 7.481377 0.370128 10.877923 0.758945 1.536764 0.004563 -0.000918 -3016590.000000 1 0 0
5.515442 -10.459823 13.834028 18.199130 -1.085550 0.707256 -0.008622 -0.003018 803674.000000 1 0 0
-5.209658 -9.147623 8.906828 13.789529 1.053098 0.868578 -0.001299 -0.001091 395505.000000 1 0 0
-12.621358 -3.220523 2.837028 13.331135 0.249833 1.356344 -0.004044 -0.001997 1068500.000000 1 0 0
-2.110858 -1.324323 -5.845972 6.354915 0.560313 2.738656 0.003618 -0.005304 -22674.600000 1 0 0
-2.307758 12.977177 -4.429372 13.905115 -1.394804 1.894988 0.002855 0.001381 655696.000000 1 0 0
3.953642 -0.406223 -4.956172 6.352948 -0.102387 2.465682 0.003593 0.000180 -67629.100000 1 0 0
-8.809358 3.844677 -7.390372 12.124518 -0.411513 2.226276 -0.001938 -0.000547 269006.000000 1 0 0
-4.565858 8.029277 -11.277172 14.577070 -1.053746 2.455337 0.003488 -0.002668 -1392330.000000 1 0 0
-10.075258 -6.495423 7.354828 14.063955 0.572634 1.020481 0.001250 -0.000173 -1110400.000000 1 0 0
8.079742 5.346077 4.298828 10.599184 0.584531 1.153182 0.000476 0.000964 -2383980.000000 1 0 0
-6.791058 -7.636223 3.906428 10.940317 0.843912 1.205670 0.003163 -0.000155 -276344.000000 1 0 0
-4.091758 11.852777 7.996228 14.871801 -1.238391 1.003117 -0.010146 -0.001661 -96801.700000 1 0 0
-7.183158 10.052877 -7.883672 14.656411 -0.950380 2.138739 -0.001187 -0.007580 -1836360.000000 1 0 0
13.079142 5.534077 4.653728 14.944804 0.400279 1.254136 0.010311 -0.004983 987773.000000 1 0 0
5.360742 3.935177 -3.706872 7.613414 0.633230 2.079319 -0.000383 0.001906 282712.000000 1 0 0
-2.904558 -4.241823 5.059728 7.213207 0.970384 0.793362 0.003050 -0.001308 -2712600.000000 1 0 0
12.484542 -2.383623 -5.249572 13.751489 -0.188655 1.962481 0.004559 -0.000418 -3315600.000000 1 0 0
-5.159758 9.728777 7.109228 13.107758 -1.083156 0.997543 -0.009244 0.001750 -926389.000000 1 0 0
1.675742 3.754977 -0.466772 4.138338 1.151047 1.683829 0.001775 -0.001337 615845.000000 1 0 0
-0.028058 9.667477 7.755628 12.393977 -1.567894 0.894694 -0.008070 0.004516 -625429.000000 1 0 0
-5.536058 2.131577 5.886028 8.356846 -0.367540 0.789309 -0.001987 -0.001382 704859.000000 1 0 0
8.893542 1.135477 10.728328 13.981467 0.126987 0.696137 0.008747 -0.002263 -669852.000000 1 0 0
0.364442 -2.814923 -10.192672 10.580509 -1.442045 2.869998 0.004140 -0.005501 -1951180.000000 1 0 0
1.291042 10.589777 -2.673972 10.998195 1.449481 1.816386 0.002410 0.000996 -755055.000000 1 0 0
2.257742 -4.328823 11.594528 12.580508 -1.090050 0.398546 -0.001167 -0.001518 -169142.000000 1 0 0
6.552842 -3.061723 9.462128 11.909901 -0.437094 0.652652 -0.000953 -0.001980 265132.000000 1 0 0
-10.613258 -8.222223 5.614628 14.552327 0.659130 1.174696 -0.001648 0.004433 -1437570.000000 1 0 0
-2.983758 0.869377 -6.927072 7.592296 -0.283521 2.719862 0.005122 -0.004721 729767.000000 1 0 0
11.138742 2.637677 -5.057972 12.514472 0.232519 1.986867 0.003432 -0.001335 -2793360.000000 1 0 0
-1.974058 -4.055423 -0.081272 4.511093 1.117789 1.588813 0.005442 -0.004397 593798.000000 1 0 0
-1.163058 -6.434223 -10.665972 12.510591 1.391966 2.591652 0.004054 -0.001989 1613340.000000 1 0 0
0.319342 6.827477 -6.570372 9.480834 1.524057 2.336461 0.002816 0.000067 -2850390.000000 1 0 0
2.061542 3.811377 -6.151372 7.524356 1.074973 2.527902 -0.000198 0.000156 -1893010.000000 1 0 0
1.496742 -14.740523 6.535728 16.193795 -1.469604 1.155354 -0.001327 -0.001795 -305426.000000 1 0 0
-1.706558 5.458377 -10.561572 12.010538 -1.267775 2.645310 0.004904 -0.002950 206086.000000 1 0 0
13.714542 4.258877 -0.720172 14.378642 0.301096 1.620904 0.003214 -0.002213 -1491580.000000 1 0 0
-2.380958 3.324677 -6.170972 7.402928 -0.949315 2.556363 0.001396 -0.002743 -435615.000000 1 0 0
5.646742 7.921677 14.126328 17.152021 0.951517 0.603075 -0.003536 0.002915 137108.000000 1 0 0
15.955942 0.475577 -5.838272 16.997167 0.029797 1.921422 0.005817 0.002274 234035.000000 1 0 0
6.184042 -8.314123 10.600528 14.823569 -0.931275 0.774010 -0.010848 0.004704 -454782.000000 1 0 0
-0.007658 -6.011423 -6.448572 8.815971 1.569522 2.391264 0.000942 -0.004444 675651.000000 1 0 0
8.578142 5.512677 -7.603472 12.719549 0.571185 2.211523 0.001685 -0.002688 -814874.000000 1 0 0
-15.938758 -0.738423 5.285928 16.808638 0.046296 1.250891 0.008931 -0.008953 -306716.000000 1 0 0
-0.355658 4.067177 -12.266972 12.928536 -1.483572 2.820304 0.007416 -0.003789 167645.000000 1 0 0
-11.207558 3.639977 5.914928 13.185035 -0.314032 1.105588 0.001063 -0.005687 -350203.000000 1 0 0
5.110242 -9.755323 -9.716572 14.686479 -1.088258 2.293747 -0.008646 -0.000030 -116346.000000 1 0 0
1.534942 11.159677 -11.720272 16.256052 1.434110 2.376010 0.004463 -0.001178 -2843680.000000 1 0 0
5.980242 2.418977 1.373128 6.595470 0.384375 1.361070 0.000402 0.002845 -517210.000000 1 0 0
5.711542 4.554477 4.928328 8.812116 0.673164 0.977295 -0.005519 0.003386 480971.000000 1 0 0
0.308242 -1.609923 -6.390272 6.597154 -1.381622 2.890497 0.003749 -0.003515 -977401.000000 1 0 0
12.687442 6.661577 -4.585572 15.045773 0.483488 1.880498 0.000060 -0.003933 -994746.000000 1 0 0
7.410842 3.247277 12.757428 15.106865 0.412980 0.565205 0.002959 -0.000478 -654546.000000 1 0 0
-2.509658 -0.246523 8.548928 8.913098 0.097915 0.286842 -0.000060 -0.000617 858385.000000 1 0 0
2.252042 -14.948423 13.389228 20.194020 -1.421267 0.845938 -0.010031 0.003113 -280426.000000 1 0 0
18.935042 4.586177 -1.637972 19.551261 0.237630 1.654673 0.006503 0.002452 1215700.000000 1 0 0
-0.453258 -13.194123 7.218228 15.046366 1.536457 1.070447 -0.004597 0.001645 -1888420.000000 1 0 0
4.398142 1.566677 -0.496572 4.695180 0.342199 1.676757 0.000847 -0.000868 39629.600000 1 0 0
2.648042 -0.544723 -7.307272 7.791346 -0.202878 2.787237 0.004573 -0.002564 388418.000000 1 0 0
7.194742 -11.361123 0.889528 13.477043 -1.006267 1.504745 0.004540 -0.003714 413812.000000 1 0 0
-11.852558 -7.333623 1.249128 13.993765 0.554083 1.481414 -0.005666 0.002898 -26924.600000 1 0 0
0.162742 -7.032723 9.901728 12.146188 -1.547660 0.617700 -0.002147 -0.001883 -1648700.000000 1 0 0
-4.730358 -7.148623 10.597628 13.630437 0.986229 0.680120 0.002698 -0.000843 -1197110.000000 1 0 0
11.867742 0.841877 -1.585772 12.002780 0.070820 1.703301 0.002797 0.001706 1428300.000000 1 0 0
6.485442 -9.647423 -7.530472 13.850694 -0.978941 2.145623 -0.009268 0.000525 -1605970.000000 1 0 0
-10.843858 4.884777 3.694728 12.453968 -0.423240 1.269592 -0.006427 -0.002489 -627662.000000 1 0 0
5.951842 -9.181923 2.014528 11.126116 -0.995678 1.388729 -0.000535 -0.004537 3017090.000000 1 0 0
11.554942 -1.285623 5.951028 13.060790 -0.110806 1.097704 0.012000 -0.006022 -348413.000000 1 0 0
-6.421858 3.594277 4.173328 8.460245 -0.510256 1.054932 -0.004106 -0.001654 -1413650.000000 1 0 0
9.443842 6.311277 -3.200672 11.800961 0.589129 1.845458 0.002696 -0.000685 -800241.000000 1 0 0
-2.222058 6.442677 10.935628 12.885402 -1.238675 0.557305 -0.003194 0.000563 -395750.000000 1 0 0
1.786042 9.773777 3.067828 10.398473 1.390052 1.271313 -0.003988 0.001159 -89825.500000 1 0 0
2.828842 6.042277 -5.558872 8.684038 1.132931 2.265458 -0.001975 0.000277 -1770180.000000 1 0 0
11.623242 0.083777 -5.709872 12.950267 0.007208 2.027406 0.002936 0.000359 96988.900000 1 0 0
-2.755458 -12.590323 6.284428 14.338856 1.355338 1.117113 -0.001147 0.003296 -762384.000000 1 0 0
10.669542 1.779977 -2.720372 11.153828 0.165306 1.817177 0.000272 0.001817 134979.000000 1 0 0
-8.805158 5.323477 0.804828 10.320754 -0.543785 1.492736 -0.003967 0.000773 -653514.000000 1 0 0
1.093642 -10.179823 5.585928 11.663080 -1.463774 1.071348 0.000208 -0.000405 -325793.000000 1 0 0
9.380342 -5.855523 -1.196972 11.122531 -0.558048 1.678622 0.003655 0.002001 3008220.000000 1 0 0
-7.758358 8.730377 -4.362272 12.467599 -0.844281 1.928249 -0.005521 -0.001264 -438546.000000 1 0 0
-7.514658 -0.054123 -1.690672 7.702687 0.007202 1.792089 -0.000748 -0.001020 -1558870.000000 1 0 0
4.127142 8.949677 2.844828 10.257830 1.138709 1.289780 0.001905 -0.001034 714222.000000 1 0 0
-1.405758 -10.362023 -3.855772 11.145162 1.435955 1.924057 0.006066 0.003581 -216188.000000 1 0 0
3.182942 7.801477 -3.514372 9.129347 1.183419 1.965954 0.001184 -0.002343 -397325.000000 1 0 0
-4.295958 1.681377 -11.060672 11.984188 -0.373058 2.746443 0.001228 -0.004517 -200683.000000 1 0 0
1.286042 2.763977 11.033428 11.446834 1.135303 0.269573 -0.002158 0.001494 656721.000000 1 0 0
2.064742 5.596277 -8.071872 10.036763 1.217341 2.505176 0.000048 0.001018 -364014.000000 1 0 0
15.603242 5.979977 3.943128 17.168854 0.365986 1.339060 0.012243 -0.007108 223056.000000 1 0 0
-4.363258 9.006377 4.762728 11.083160 -1.119655 1.126606 -0.007556 0.002370 324254.000000 1 0 0
-0.862258 -8.272523 -12.385472 14.919050 1.466940 2.550224 0.004557 -0.004084 -323497.000000 1 0 0
14.244542 -4.283723 -5.227172 15.766439 -0.292124 1.908730 0.012938 -0.000192 709211.000000 1 0 0
-5.974758 -6.164823 -5.705372 10.307960 0.801053 2.157347 0.015248 -0.004216 446234.000000 1 0 0
-8.805158 2.736877 -12.234272 15.319880 -0.301360 2.495742 0.005643 -0.002303 47529.800000 1 0 0
10.531142 5.505077 13.745428 18.169965 0.481676 0.712864 0.020882 -0.002531 768644.000000 1 0 0
-0.473758 10.902877 5.537728 12.237794 -1.527371 1.101218 -0.006573 0.006189 329062.000000 1 0 0
0.297442 11.181177 -0.564272 11.199357 1.544201 1.621202 0.002042 0.000997 -87848.800000 1 0 0
-1.522158 -0.642423 3.597428 3.958681 0.399367 0.430532 0.002223 -0.001321 220805.000000 1 0 0
-4.775158 6.625077 8.909528 12.086086 -0.946266 0.741920 -0.004769 -0.000219 -782898.000000 1 0 0
3.450142 -8.756623 -11.413272 14.793401 -1.195470 2.452009 -0.006911 0.001497 -250317.000000 1 0 0
6.723642 -3.630823 12.094828 14.306470 -0.495140 0.563465 0.006910 -0.000713 -298912.000000 1 0 0
-2.437058 -1.995423 -12.580272 12.968586 0.686090 2.896263 0.004747 -0.006033 1057530.000000 1 0 0
-15.970258 -4.896123 5.360328 17.542926 0.297480 1.260275 0.000206 -0.006143 634364.000000 1 0 0
-8.850758 7.260077 5.827728 12.845507 -0.686984 1.099908 -0.005523 -0.004818 -4008550.000000 1 0 0
-12.746458 1.486477 6.075828 14.198503 -0.116094 1.128606 -0.002766 -0.005979 262319.000000 1 0 0
-3.532758 3.503277 10.172228 11.323760 -0.781208 0.454892 -0.000025 0.002450 310029.000000 1 0 0
1.952842 -12.332223 -1.223572 12.545694 -1.413748 1.668481 0.002564 0.001461 -2394650.000000 1 0 0
10.284242 -5.085823 -3.624472 12.031959 -0.459259 1.876786 0.003526 0.002986 651325.000000 1 0 0
3.209942 -13.598923 0.868828 13.999617 -1.338995 1.508696 0.006571 -0.001699 258900.000000 1 0 0
10.060942 -1.844423 -6.139372 11.929641 -0.181312 2.111374 0.006500 0.001845 620507.000000 1 0 0
11.989642 -5.416923 -1.522972 13.244396 -0.424350 1.686041 0.004799 0.002561 -61064.000000 1 0 0
1.426242 0.850077 5.905528 6.134497 0.537492 0.274078 -0.001908 -0.000359 32143.400000 1 0 0
-10.669558 11.668677 6.627828 17.144259 -0.830095 1.173863 -0.001843 -0.012864 -1043490.000000 1 0 0
4.664242 -14.183623 3.054928 15.240173 -1.253089 1.368977 0.005203 -0.006751 -2537690.000000 1 0 0
5.373042 -3.479423 -1.768872 6.641150 -0.574665 1.840401 0.002445 0.000611 -1056570.000000 1 0 0
2.018442 -2.924523 -7.747772 8.523785 -0.966693 2.711577 0.002231 -0.002290 318001.000000 1 0 0
-2.640858 14.958877 -8.876972 17.593828 -1.396056 2.099657 0.012275 -0.002645 -463521.000000 1 0 0
-2.331758 6.146177 -8.112072 10.441183 -1.208188 2.460572 0.004660 -0.002416 -190125.000000 1 0 0
2.513042 -3.603123 -11.321172 12.143591 -0.961776 2.771449 0.001558 -0.002170 -1420750.000000 1 0 0
14.583142 2.660777 -2.656372 15.060016 0.180471 1.748110 0.005824 0.000292 442399.000000 1 0 0
-3.548058 13.194477 2.274528 13.851225 -1.308106 1.405838 -0.007262 0.001969 -255494.000000 1 0 0
7.757342 -4.969223 14.026028 16.780911 -0.569727 0.581149 -0.000183 -0.005709 -1161340.000000 1 0 0
-11.358158 7.247477 2.968128 13.796502 -0.567954 1.353965 -0.005770 -0.002202 747916.000000 1 0 0
-2.381358 11.912577 4.120228 12.827963 -1.373494 1.243809 -0.007504 0.003722 488297.000000 1 0 0
1.914942 1.443377 0.725628 2.505370 0.645893 1.276957 -0.005059 -0.000100 -1371340.000000 1 0 0
-6.821958 8.602777 5.383628 12.228260 -0.900341 1.114907 -0.008373 -0.000809 -1308060.000000 1 0 0
-1.139658 9.176077 1.120128 9.314178 -1.447230 1.450244 -0.002282 0.003952 253997.000000 1 0 0
5.042142 13.160577 -8.527472 16.472455 1.204922 2.114934 0.006091 -0.006302 -1284710.000000 1 0 0
8.869242 7.020377 7.140128 13.376494 0.669562 1.007730 -0.002431 -0.000166 -1431180.000000 1 0 0
7.145842 -13.802623 2.812428 15.795100 -1.093076 1.391785 0.011590 -0.009686 210438.000000 1 0 0
4.120542 -13.352823 -1.435172 14.047650 -1.271478 1.673139 -0.000883 0.003070 -2446440.000000 1 0 0
11.938942 -11.948923 -4.650272 17.519707 -0.785816 1.839447 0.013180 -0.002634 -1173810.000000 1 0 0
2.879042 -0.002023 -1.962372 3.484220 -0.000703 2.169070 0.001869 -0.002326 1431110.000000 1 0 0
-13.626158 -2.979023 -10.767372 17.620529 0.215239 2.228208 0.009087 -0.005072 468109.000000 1 0 0
-6.507158 13.657277 5.128028 15.973760 -1.126157 1.243981 -0.007134 -0.006029 -236458.000000 1 0 0
7.327042 -4.386823 -0.568172 8.558772 -0.539475 1.637230 -0.000486 0.002237 -1931640.000000 1 0 0
11.815242 2.158777 -7.279272 14.044503 0.180718 2.115659 0.005555 -0.000450 -271003.000000 1 0 0
-7.443458 -4.520823 9.671028 13.014288 0.545810 0.733093 0.007305 -0.002644 -40837.700000 1 0 0
1.040042 2.648977 8.478828 8.943673 1.196668 0.323825 -0.004515 0.002142 -2077730.000000 1 0 0
1.599042 8.039677 -8.722672 11.969894 1.374465 2.387244 0.002472 -0.001797 216136.000000 1 0 0
-8.596758 -1.959023 -5.560972 10.424319 0.224053 2.133484 0.006963 -0.000131 -145528.000000 1 0 0
6.629942 -0.488123 7.053128 9.692317 -0.073491 0.755829 -0.001538 0.000496 393314.000000 1 0 0
-10.775758 6.458477 7.149728 14.455016 -0.539943 1.053400 0.000169 -0.008497 -60017.300000 1 0 0
-5.946658 11.030277 4.888928 13.451073 -1.076344 1.198817 -0.011071 0.001079 -164912.000000 1 0 0
6.036542 -1.296223 -6.897572 9.257242 -0.211517 2.411481 0.003007 0.000758 -506493.000000 1 0 0
4.445442 -5.766623 11.357828 13.491336 -0.914058 0.570074 -0.002964 -0.002503 -1414940.000000 1 0 0
-9.039358 -7.286023 2.599928 11.897720 0.678409 1.350495 0.000273 0.000147 -4462120.000000 1 0 0
-1.135358 12.826877 -9.381872 15.932274 -1.482512 2.200443 0.012728 -0.001576 612518.000000 1 0 0
-4.605958 9.289677 -2.237472 10.607508 -1.110503 1.783326 -0.001554 -0.000455 648675.000000 1 0 0
-3.167558 9.690877 -0.102172 10.195929 -1.254883 1.580817 -0.000473 0.002073 -978244.000000 1 0 0
-3.412858 10.708677 -6.330672 12.899643 -1.262273 2.083762 0.002980 -0.001740 960373.000000 1 0 0
4.822242 -4.945223 0.287628 6.913174 -0.797988 1.529179 0.000783 -0.000473 -363923.000000 1 0 0
-2.260158 3.071377 -10.920772 11.567408 -0.936395 2.805645 0.005547 -0.003485 -1010870.000000 1 0 0
-3.573458 12.108577 -2.304872 12.833537 -1.283825 1.751374 -0.000116 0.001875 731097.000000 1 0 0
-0.104458 0.356677 -0.027872 0.372702 -1.285899 1.645650 -0.001773 -0.002516 -1866180.000000 1 0 0
-4.728258 -1.742523 0.068828 5.039598 0.353090 1.557138 0.005371 -0.002739 167042.000000 1 0 0
2.688142 2.577277 -2.355872 4.406654 0.764346 2.134851 -0.005580 -0.001863 785344.000000 1 0 0
5.958242 -9.678723 8.456428 14.166492 -1.018984 0.931125 -0.008210 0.003176 -167900.000000 1 0 0
-4.319158 -5.387723 6.548928 9.516887 0.895040 0.811877 0.001553 -0.001724 -7809.630000 1 0 0
-6.294558 5.452177 -12.122372 14.707128 -0.713809 2.539675 0.001747 -0.004877 620976.000000 1 0 0
-12.818658 3.015377 7.978428 15.396941 -0.231033 1.026072 -0.001471 -0.008595 376182.000000 1 0 0
4.649942 -7.469723 -4.905172 10.073700 -1.013993 2.079366 -0.002256 -0.002358 -184075.000000 1 0 0
-5.857958 2.485077 -1.084272 6.454992 -0.401212 1.739571 0.000879 -0.002332 -819934.000000 1 0 0
-6.937258 -2.631723 -14.616872 16.392207 0.362588 2.671876 0.005091 -0.003105 39434.500000 1 0 0
2.648942 -6.156123 0.722028 6.740628 -1.164450 1.463475 0.005488 -0.000344 -721842.000000 1 0 0
4.872442 -7.863323 12.994228 15.950627 -1.016059 0.618666 -0.006806 -0.002879 -210027.000000 1 0 0
-9.961758 -1.627723 8.082928 12.931350 0.161966 0.895582 0.006189 -0.002777 -177808.000000 1 0 0
-4.443358 13.344777 -0.030872 14.065115 -1.249376 1.572991 -0.002989 0.002130 574226.000000 1 0 0
6.884242 2.292577 -4.383472 8.477236 0.321467 2.114241 0.000136 0.003527 -1993910.000000 1 0 0
5.096242 4.520277 0.099728 6.812822 0.725576 1.556158 -0.002681 0.001405 -889245.000000 1 0 0
-5.936858 12.303177 1.834728 13.783348 -1.121209 1.437288 -0.005059 0.001224 449285.000000 1 0 0
6.515142 -7.336323 6.523028 11.782130 -0.844614 0.984071 -0.002906 -0.000934 -1669940.000000 1 0 0
-0.191758 4.849077 7.694628 9.097122 -1.531272 0.562675 -0.007071 0.004339 -1116380.000000 1 0 0
-5.772958 -3.413123 -1.586572 6.891564 0.533943 1.803100 0.007133 -0.002184 -677021.000000 1 0 0
2.318642 -6.567023 -5.224772 8.706327 -1.231386 2.214438 -0.002255 -0.001597 -1053440.000000 1 0 0
-14.401058 -4.684023 -3.695472 15.588042 0.314463 1.810146 -0.005849 -0.003338 -56174.400000 1 0 0
-12.402758 -4.975223 -6.370872 14.804366 0.381487 2.015663 0.006431 -0.003949 -1784960.000000 1 0 0
-14.726158 -3.727623 -1.170172 15.235623 0.247922 1.647677 -0.008095 -0.000779 474789.000000 1 0 0
11.925542 2.948377 8.795028 15.108408 0.242372 0.949453 0.018143 -0.004920 -2447710.000000 1 0 0
8.725242 -6.466223 7.651428 13.284812 -0.637777 0.957027 0.004154 -0.001217 -165591.000000 1 0 0
-8.873758 -1.618723 -9.799472 13.318915 0.180433 2.397579 0.004463 -0.001305 -6833.920000 1 0 0
-8.831158 5.093577 -3.836272 10.892698 -0.523166 1.930704 -0.001601 -0.002536 -845539.000000 1 0 0
-4.085558 -6.311723 4.103828 8.565689 0.996324 1.071166 0.006909 -0.002568 -1263080.000000 1 0 0
-0.286758 -9.336123 3.504128 9.976188 1.540091 1.211891 0.004002 -0.001323 448501.000000 1 0 0
7.909742 -10.546023 3.303628 13.590312 -0.927282 1.325249 0.004627 -0.003825 742662.000000 1 0 0
-0.042358 6.316977 9.620628 11.509234 -1.564091 0.581017 -0.007442 0.003077 82231.600000 1 0 0
-0.055158 3.544677 -9.653872 10.284213 -1.555237 2.789659 0.006216 -0.002731 1093850.000000 1 0 0
4.452842 -3.133223 10.980028 12.255852 -0.613168 0.460341 -0.000617 -0.002306 -833207.000000 1 0 0
8.551042 -9.253423 1.322228 12.668640 -0.824827 1.466236 0.005046 -0.002180 423590.000000 1 0 0
-0.291358 -0.548823 11.429828 11.446705 1.082753 0.054310 0.003691 -0.001401 -836341.000000 1 0 0
10.839742 6.057977 11.322928 16.804993 0.509626 0.831479 0.008322 -0.000059 -84175.700000 1 0 0
-6.343058 -2.926523 -11.977672 13.865913 0.432272 2.613603 0.003730 -0.003504 380834.000000 1 0 0
-1.512758 2.854977 8.527028 9.118637 -1.083542 0.362196 0.000414 -0.000183 851008.000000 1 0 0
-1.574558 13.586177 -6.872172 15.306541 -1.455417 2.036408 0.011792 -0.000391 357116.000000 1 0 0
7.666742 3.189677 9.776928 12.827365 0.394258 0.704102 0.000048 -0.001164 223686.000000 1 0 0
6.494042 8.466977 -7.947272 13.304940 0.916513 2.210948 0.003653 -0.005254 403995.000000 1 0 0
6.724142 -2.915623 -4.000372 8.349726 -0.409137 2.070428 0.001804 0.000951 -584930.000000 1 0 0
1.974842 8.241877 1.060528 8.541268 1.335619 1.446310 -0.001876 0.003217 870963.000000 1 0 0
-17.380058 6.123877 6.327628 19.483510 -0.338768 1.240030 0.008066 -0.004575 -769694.000000 1 0 0
-14.714558 2.855677 -10.144972 18.099546 -0.191689 2.165798 0.024600 -0.000874 -617670.000000 1 0 0
-18.365958 0.096777 -4.314872 18.866263 -0.005269 1.801547 0.016745 -0.002503 260729.000000 1 0 0
-12.927658 8.166477 0.051528 15.291120 -0.563407 1.567427 -0.004104 0.003139 -379768.000000 1 0 0
-12.604858 -4.299823 -12.767672 18.449509 0.328746 2.335098 0.014920 -0.001561 -683760.000000 1 0 0
-17.384358 -0.558723 -8.748572 19.469607 0.032128 2.036828 0.021819 -0.009180 553614.000000 1 0 0
-16.620158 -2.119723 -1.994572 16.873091 0.126854 1.689284 -0.003863 -0.004102 -554034.000000 1 0 0
-15.244058 4.224777 1.790628 15.919686 -0.270357 1.458079 0.008541 0.000659 119390.000000 1 0 0
-13.094758 5.928677 4.490728 15.059500 -0.425140 1.267991 0.001578 -0.004168 -554764.000000 1 0 0
-10.085558 14.179477 2.779328 17.621031 -0.952541 1.412407 0.014908 -0.010789 250658.000000 1 0 0
-11.813758 2.516277 -6.298272 13.622216 -0.209859 2.051443 0.002611 -0.000821 418116.000000 1 0 0
-15.935058 10.568177 3.906228 19.515918 -0.585601 1.369279 0.015331 -0.007019 -674841.000000 1 0 0
-12.864158 1.163577 -8.449472 15.434832 -0.090206 2.150085 0.009581 -0.003589 663747.000000 1 0 0
-12.266858 14.272577 4.255028 19.294754 -0.860830 1.348441 0.015978 -0.012478 -336464.000000 1 0 0
-10.496258 11.158177 -1.051272 15.355179 -0.815956 1.639314 -0.002306 -0.002357 331259.000000 1 0 0
-16.914558 5.568477 8.891928 19.904185 -0.318037 1.107682 0.005919 -0.007216 182387.000000 1 0 0
-11.752958 12.613277 -9.182372 19.533119 -0.820691 2.060192 0.009260 -0.009426 -123952.000000 1 0 0
-17.201058 -0.328423 3.186628 17.496824 0.019091 1.387648 0.012597 -0.007550 410224.000000 1 0 0
-13.258758 14.850477 -0.551572 19.915712 -0.841964 1.598495 0.027333 -0.017347 263452.000000 1 0 0
-16.499058 4.751177 -10.378172 20.062379 -0.280381 2.114484 0.022621 0.004082 791989.000000 1 0 0
-11.768058 7.627577 -8.856072 16.586052 -0.575080 2.134058 -0.000822 0.001822 -209095.000000 1 0 0
-14.811458 13.445977 -2.026072 20.106680 -0.737113 1.671734 0.032354 -0.019813 170945.000000 1 0 0
-11.799158 10.623177 -5.395072 16.768388 -0.732999 1.898364 0.009911 -0.007444 279038.000000 1 0 0
-17.736558 3.056577 -0.576072 18.007221 -0.170656 1.602793 0.017659 -0.001856 457513.000000 1 0 0
-9.504958 15.408477 0.635128 18.115430 -1.018068 1.535729 0.016541 -0.011522 175890.000000 1 0 0
-8.205758 13.239377 -3.554572 15.976563 -1.015946 1.795161 0.002591 -0.005116 -441766.000000 1 0 0
-17.535558 11.477077 2.012928 21.054001 -0.579534 1.475042 0.025427 0.000647 -43435.100000 1 0 0
-7.935358 15.709277 -7.399172 19.091858 -1.103047 1.968776 0.022135 -0.017610 -123431.000000 1 0 0
-6.259258 15.348777 -5.322672 17.409598 -1.183582 1.881504 0.000626 -0.006764 -115609.000000 1 0 0
-17.224558 5.517877 0.006828 18.086802 -0.310020 1.570419 0.015887 0.005598 709554.000000 1 0 0
-5.454858 12.279677 -12.109872 18.088531 -1.152761 2.304302 0.005160 -0.010714 -1025920.000000 1 0 0
-10.979158 3.917577 -11.339272 16.262485 -0.342737 2.342372 -0.004191 -0.000499 654023.000000 1 0 0
-11.841958 11.088877 1.261428 16.272258 -0.752569 1.493198 0.002525 -0.004218 121447.000000 1 0 0
-12.905458 0.300177 -10.972272 16.942010 -0.023256 2.275275 0.006031 -0.007236 1444990.000000 1 0 0
-14.102258 -2.068723 -13.150372 19.392926 0.145656 2.315973 0.010758 -0.003099 267773.000000 1 0 0
-18.669258 -2.297423 -3.616672 19.154625 0.122444 1.760751 -0.001048 -0.003050 336387.000000 1 0 0
-18.354258 4.743277 -5.027872 19.612673 -0.252896 1.830049 0.031720 0.005233 665355.000000 1 0 0
-8.261458 15.571577 -2.289672 17.775497 -1.083011 1.699966 0.012462 -0.010357 -580289.000000 1 0 0
-16.000258 9.000877 -5.314072 19.111866 -0.512424 1.852561 0.022377 -0.001159 61176.100000 1 0 0
-18.132358 1.841177 2.209828 18.359076 -0.101194 1.450137 0.014556 -0.009419 200303.000000 1 0 0
-15.688458 -2.591123 -8.616572 18.085545 0.163683 2.067391 0.005044 -0.007496 -330372.000000 1 0 0
-9.632758 10.624277 -7.044072 15.977617 -0.834306 2.027365 -0.002091 -0.009853 799616.000000 1 0 0
-13.804558 11.970777 -7.566272 19.776597 -0.714373 1.963391 0.018830 -0.017810 2667.920000 1 0 0
-10.971658 6.592277 -3.786472 13.348137 -0.541041 1.858416 -0.002705 -0.001394 -242579.000000 1 0 0
-13.250158 4.754477 -12.445272 18.789799 -0.344514 2.294737 0.017758 -0.003027 1076980.000000 1 0 0
-17.826458 9.046077 2.879728 20.196706 -0.469592 1.427725 0.036394 0.002932 999159.000000 1 0 0
-13.320958 8.710077 -6.468372 17.180023 -0.579086 1.956818 0.003801 0.000617 -1258490.000000 1 0 0
-15.769958 6.927777 -3.639872 17.604952 -0.413922 1.779051 0.017674 0.004718 -1352910.000000 1 0 0
-14.857358 -0.254923 -9.279172 17.518821 0.017156 2.129006 0.013864 -0.007706 595031.000000 1 0 0
-9.882358 5.914377 -6.024972 12.997736 -0.539300 2.052783 -0.003198 0.001113 414681.000000 1 0 0
-12.826058 12.256077 -0.894872 17.762882 -0.762678 1.621196 0.014527 -0.009814 -545704.000000 1 0 0
-10.576058 3.635977 -13.873572 17.819914 -0.331135 2.463137 -0.000682 -0.001630 326780.000000 1 0 0
-11.236858 6.412777 -11.997672 17.644683 -0.518590 2.318504 0.010195 0.001795 525814.000000 1 0 0
-5.772058 11.726377 -14.668072 19.646295 -1.113385 2.413744 0.011033 -0.008326 -211868.000000 1 0 0
-15.581758 13.282077 3.595228 20.787747 -0.705893 1.396973 0.011339 -0.014157 321643.000000 1 0 0
-15.262358 11.228777 -3.374072 19.246022 -0.634297 1.747020 0.040574 -0.004698 495114.000000 1 0 0
-18.083058 7.656277 -4.473272 20.140152 -0.400510 1.794771 0.030265 0.002192 705688.000000 1 0 0
-4.070258 16.252777 -10.661772 19.859334 -1.325409 2.137513 0.011655 -0.005729 -86884.400000 1 0 0
-15.737158 4.389377 -4.343472 16.905340 -0.272005 1.830640 0.020333 0.004065 345716.000000 1 0 0
-18.565958 -1.801923 -6.121272 19.631905 0.096752 1.887886 0.006510 -0.005589 306298.000000 1 0 0
-10.742858 8.594977 -5.690972 14.888579 -0.674780 1.963013 -0.005913 -0.000604 291207.000000 1 0 0
-11.433558 13.868677 -6.830172 19.228045 -0.881344 1.933945 0.013977 -0.005568 393519.000000 1 0 0
-9.471958 10.616377 -4.403572 14.893519 -0.842306 1.870954 -0.010106 -0.002261 -967149.000000 1 0 0
-10.910958 6.426177 -0.100972 12.663134 -0.532266 1.578770 0.000023 0.003133 -1048800.000000 1 0 0
-14.559858 9.604877 -1.425372 17.500709 -0.583152 1.652333 0.019466 0.003127 401573.000000 1 0 0
-18.542158 3.492577 4.738528 19.454135 -0.186177 1.324747 0.018598 -0.007819 459355.000000 1 0 0
-14.842158 13.060777 0.572428 19.778808 -0.721643 1.541851 0.017552 -0.014149 204522.000000 1 0 0
-16.976058 2.621277 -8.961072 19.374170 -0.153200 2.051639 0.020807 -0.002141 493759.000000 1 0 0
-9.118558 8.583577 -8.750072 15.277096 -0.755186 2.180662 -0.003532 0.001373 -2143130.000000 1 0 0
-17.679358 4.702777 -2.541772 18.469879 -0.259983 1.708852 0.021927 0.008602 1317690.000000 1 0 0
-13.563758 5.910077 -4.367572 15.426608 -0.410920 1.857841 0.005149 0.007358 -1126540.000000 1 0 0
-12.106058 9.695577 3.471228 15.893718 -0.675281 1.350619 -0.006206 -0.003791 1327010.000000 1 0 0
-17.557458 2.564577 -3.923772 18.172434 -0.145042 1.788429 0.023094 0.001244 1063280.000000 1 0 0
-11.235858 1.621777 -12.559872 16.930005 -0.143349 2.406652 0.004232 -0.004292 -139366.000000 1 0 0
-11.080158 12.003577 3.560528 16.719244 -0.825380 1.356193 0.004785 -0.007515 -130531.000000 1 0 0
-15.559558 13.485877 -4.505672 21.077709 -0.714125 1.786224 0.001321 -0.003893 503613.000000 1 0 0
-11.075858 4.121677 -4.487972 12.641390 -0.356254 1.933734 -0.004621 0.001497 -240720.000000 1 0 0
-11.073858 15.191977 -9.028772 20.855341 -0.940918 2.018530 0.018028 -0.015041 289454.000000 1 0 0
-15.326058 7.406077 -0.288272 17.024134 -0.450145 1.587730 0.014404 0.004568 -305744.000000 1 0 0
-12.769358 8.494977 -3.949172 15.837206 -0.587030 1.822816 0.002688 0.000238 991348.000000 1 0 0
-19.226458 1.995277 -5.862772 20.199255 -0.103408 1.865281 0.019770 -0.004041 200755.000000 1 0 0
-12.371758 10.208377 -8.786972 18.288856 -0.689881 2.071970 0.000174 -0.006432 832830.000000 1 0 0
-16.747858 11.094577 -1.164572 20.123037 -0.585076 1.628701 0.030117 -0.001195 530737.000000 1 0 0
-10.700958 6.767777 -14.570372 19.303084 -0.563936 2.426177 0.002142 -0.004574 -32599.800000 1 0 0
-13.186158 12.752477 -3.983272 18.771438 -0.768680 1.784621 0.009925 -0.021976 100714.000000 1 0 0
-17.911858 7.980877 -0.097972 19.609657 -0.419159 1.575792 0.025810 0.006534 259113.000000 1 0 0
-12.656758 6.622477 -1.987572 14.422246 -0.482064 1.709049 -0.004148 0.003161 1060590.000000 1 0 0
-13.750358 8.636377 -10.373472 19.268323 -0.560814 2.139297 0.003997 -0.002556 595473.000000 1 0 0
-14.933458 1.332477 -0.967972 15.024002 -0.088992 1.635269 0.004887 0.000267 -1008680.000000 1 0 0
-13.404258 2.830977 -2.400172 13.908608 -0.208141 1.744232 0.001317 0.000508 888428.000000 1 0 0
-11.184858 9.298677 -10.773072 18.100429 -0.693574 2.208290 0.002884 -0.003252 -96865.700000 1 0 0
-15.283958 4.342277 -8.026572 17.801140 -0.276813 2.038572 0.014105 0.002893 790735.000000 1 0 0
-18.425758 10.911477 4.455328 21.872788 -0.534654 1.365668 0.031247 -0.006892 555849.000000 1 0 0
-15.283458 6.151777 -6.147072 17.584509 -0.382670 1.927912 0.019467 0.005550 655907.000000 1 0 0
-7.713758 11.231077 -13.022572 18.847455 -0.968969 2.333593 -0.002959 -0.007292 -412076.000000 1 0 0
-16.685858 9.153477 -2.784872 19.234332 -0.501750 1.716094 0.018660 0.001331 554298.000000 1 0 0
-20.655858 -1.058323 -4.735772 21.218201 0.051191 1.795886 0.018148 -0.005978 478989.000000 1 0 0
-15.354958 4.425477 4.226928 16.529564 -0.280607 1.312205 0.008914 -0.002541 518880.000000 1 0 0
-6.873558 12.636577 -9.309372 17.134564 -1.072617 2.145171 0.004694 -0.011068 -1812510.000000 1 0 0
-17.249858 1.520377 5.875128 18.286232 -0.087911 1.243708 0.022881 -0.012454 92644.900000 1 0 0
-10.405358 14.412677 -3.145172 18.052392 -0.945484 1.745915 0.021870 -0.019384 2248090.000000 1 0 0
-10.100358 8.561477 -12.894772 18.482188 -0.703123 2.342959 -0.006351 -0.002016 140494.000000 1 0 0
-13.694958 11.622077 2.970928 18.205795 -0.703703 1.406877 0.007150 -0.009867 79813.000000 1 0 0
-16.578058 7.024477 1.912828 18.106192 -0.400787 1.464954 0.009520 0.003100 648340.000000 1 0 0
-9.364058 13.411777 -8.416872 18.395790 -0.961282 2.046027 0.018883 -0.014230 1017470.000000 1 0 0
-5.590558 9.874877 -12.828672 17.127241 -1.055646 2.417380 0.005829 -0.003484 -687688.000000 1 0 0
-15.808458 1.936977 3.299628 16.264894 -0.121920 1.366510 0.007276 -0.002631 -548842.000000 1 0 0
-18.539458 -4.921123 4.640228 19.734758 0.259457 1.333444 0.014443 -0.003479 -322883.000000 1 0 0
-5.173558 14.500477 -8.980272 17.823435 -1.228089 2.098842 0.004042 -0.009819 -275396.000000 1 0 0
-15.475458 -0.802123 -6.769772 16.910441 0.051786 1.982674 0.013330 -0.003465 822374.000000 1 0 0
-8.927158 11.108677 -9.436272 17.092106 -0.893852 2.155658 -0.000666 -0.009191 454468.000000 1 0 0
-16.693558 1.314577 -5.944672 17.769134 -0.078585 1.911925 0.010297 -0.002871 -660356.000000 1 0 0
-11.037658 8.702277 -1.523372 14.137899 -0.667638 1.678757 -0.003717 -0.002866 -969800.000000 1 0 0
-10.779458 11.103977 -12.563372 19.933222 -0.800227 2.252701 0.003124 -0.006255 -291176.000000 1 0 0
-13.981558 11.771877 -10.236372 20.948613 -0.699806 2.081329 0.017050 -0.008623 -14581.400000 1 0 0
-13.062758 5.775577 -7.521072 16.141854 -0.416299 2.055489 0.004773 0.008018 1431760.000000 1 0 0
-8.835958 15.406277 -4.935672 18.433350 -1.050068 1.841861 0.013002 -0.016141 139554.000000 1 0 0
-8.739358 6.277477 -12.886872 16.788525 -0.622902 2.445885 0.002231 -0.003163 9104.010000 1 0 0
-16.282558 7.522377 4.376528 18.462444 -0.432780 1.331468 0.013368 0.001547 -64597.300000 1 0 0
-12.620458 5.450977 -10.012272 17.006902 -0.407714 2.200269 0.007405 0.000235 384212.000000 1 0 0
-12.589758 9.253277 -13.092072 20.384492 -0.633822 2.268235 0.019728 -0.010355 -288106.000000 1 0 0
-10.656658 5.243777 -8.389272 14.541026 -0.457280 2.185771 -0.004527 0.000787 -2339220.000000 1 0 0
-17.675158 -4.386823 -2.545972 18.388512 0.243276 1.709697 -0.008201 -0.002285 503939.000000 1 0 0
-8.718258 13.232977 -10.937572 19.254875 -0.988240 2.174921 0.019449 -0.014393 392692.000000 1 0 0
-14.875858 6.284477 6.118428 17.269075 -0.399719 1.208631 0.002259 -0.007304 -544036.000000 1 0 0
-16.330858 -3.010523 -4.423372 17.185063 0.182299 1.831123 -0.005301 -0.002085 -847907.000000 1 0 0
-11.161258 -1.018223 -12.524672 16.807078 0.090976 2.411634 0.009629 -0.002224 250244.000000 1 0 0
-15.266758 6.909677 -8.579972 18.826403 -0.425011 2.044001 0.008719 0.006986 296454.000000 1 0 0
-14.782658 9.546877 1.212728 17.639177 -0.573428 1.501990 0.012628 -0.000586 -144060.000000 1 0 0
-19.324458 5.401677 7.910828 21.568356 -0.272569 1.195252 0.032603 -0.013083 -169814.000000 1 0 0
-16.230458 0.639377 1.026328 16.275439 -0.039373 1.507695 0.004683 -0.005716 -733759.000000 1 0 0
-17.462958 3.732677 7.164928 19.241205 -0.210579 1.189230 0.015947 -0.007456 904047.000000 1 0 0
-15.400758 4.008977 -1.311272 15.967927 -0.254659 1.653008 0.011524 0.001351 -60099.000000 1 0 0
-10.810458 13.285177 0.383428 17.132103 -0.887743 1.548414 0.006703 -0.011876 -1054700.000000 1 0 0
-13.487958 3.292977 0.181528 13.885304 -0.239458 1.557723 0.002579 0.000203 -459912.000000 1 0 0
-15.012958 0.173677 -4.233972 15.599538 -0.011568 1.845661 0.002110 -0.001570 200397.000000 1 0 0
-18.587058 6.633177 3.466228 20.037278 -0.342783 1.396933 0.009949 0.002164 -87082.900000 1 0 0
-14.149058 1.442277 -6.226672 15.525703 -0.101584 1.983465 0.010446 -0.000113 -789671.000000 1 0 0
-14.275358 11.941677 5.476928 19.400676 -0.696618 1.284599 0.004381 -0.014828 139799.000000 1 0 0
17.748242 5.594277 6.112028 19.587060 0.305344 1.253452 0.024028 -0.008782 456512.000000 1 0 0
18.499042 7.314577 -0.311472 19.895090 0.376537 1.586453 -0.000574 -0.004789 301244.000000 1 0 0
16.624542 5.349877 8.456328 19.403764 0.311340 1.119860 0.033886 -0.002673 212215.000000 1 0 0
11.756742 12.276477 10.981628 20.236824 0.807020 0.997201 0.015300 0.000682 351265.000000 1 0 0
-2.334858 16.110977 -0.491372 16.286700 -1.426875 1.600971 -0.004064 -0.005018 -261868.000000 1 0 0
15.282942 12.553777 3.264928 20.045583 0.687669 1.407192 0.034660 -0.006941 119451.000000 1 0 0
13.424242 11.868577 6.610428 19.098983 0.723969 1.217370 0.018003 -0.002356 723590.000000 1 0 0
-0.732858 15.780377 8.614328 17.993444 -1.524389 1.071568 -0.006643 -0.007173 -43003.500000 1 0 0
0.598242 12.954877 9.423228 16.030719 1.524650 0.942431 -0.005421 0.000769 -1809020.000000 1 0 0
0.743042 15.624577 -4.001572 16.145963 1.523276 1.821244 0.004251 -0.002427 -478261.000000 1 0 0
5.415342 10.305677 13.436428 17.778372 1.086980 0.713961 0.004718 -0.008072 -474207.000000 1 0 0
-1.363658 16.575977 -2.840472 16.872785 -1.488714 1.739948 -0.000301 0.000090 -631394.000000 1 0 0
8.483142 10.086977 3.305728 13.588181 0.871551 1.325051 0.009623 -0.002671 581381.000000 1 0 0
12.687842 13.458077 -4.788272 19.105725 0.814849 1.824117 0.031790 -0.010851 240982.000000 1 0 0
2.406242 11.597977 7.896128 14.235586 1.366228 0.982824 -0.001853 0.001069 425477.000000 1 0 0
-0.198358 15.027277 -8.709472 17.369897 -1.557597 2.096026 0.013754 -0.001579 -1817610.000000 1 0 0
2.423042 15.870777 0.270028 16.056949 1.419293 1.553979 0.009038 -0.010216 -527602.000000 1 0 0
1.790742 13.430977 5.356128 14.570038 1.438249 1.194356 0.000859 -0.000246 1274280.000000 1 0 0
17.414542 9.025377 -1.967872 19.712844 0.478154 1.670790 -0.014797 -0.004811 26117.700000 1 0 0
-7.200258 14.986277 7.319228 18.165994 -1.122905 1.156104 -0.004727 -0.011739 -1213290.000000 1 0 0
8.593342 15.876277 -0.133572 18.053242 1.074681 1.578195 0.017990 -0.006181 281732.000000 1 0 0
15.668942 10.352977 2.013528 18.887938 0.583883 1.463989 0.016711 -0.008080 529230.000000 1 0 0
14.109342 7.529077 8.648028 18.181005 0.490183 1.075079 0.019065 -0.004429 -1128690.000000 1 0 0
4.128842 18.594577 -2.185772 19.172461 1.352296 1.685051 0.019060 -0.009484 -1954590.000000 1 0 0
-0.464758 17.668077 -4.933972 18.349960 -1.544497 1.843028 0.016116 -0.001720 179000.000000 1 0 0
1.422542 13.688277 -0.757772 13.782844 1.467244 1.625803 0.002964 -0.004863 -155599.000000 1 0 0
10.027742 14.828577 4.252128 18.398992 0.976192 1.337581 0.020302 -0.009373 493896.000000 1 0 0
-1.634958 15.385977 -5.144972 16.305586 -1.464931 1.891816 0.008840 -0.002491 213826.000000 1 0 0
15.135842 8.541177 -6.236372 18.464500 0.513757 1.915321 0.009344 -0.003542 458143.000000 1 0 0
-2.291358 18.403977 0.851928 18.565627 -1.446930 1.524893 -0.005642 -0.005813 -806050.000000 1 0 0
-3.744458 19.335877 3.480928 20.000349 -1.379511 1.395862 0.001116 -0.010701 -328225.000000 1 0 0
1.914042 17.697077 -2.812972 18.021180 1.463059 1.727530 0.008342 -0.004245 -1050900.000000 1 0 0
2.788242 12.152477 3.416428 12.927837 1.345262 1.303350 -0.000248 -0.001018 545528.000000 1 0 0
-2.563358 16.089177 1.919328 16.404763 -1.412802 1.453530 -0.002164 -0.005068 -589963.000000 1 0 0
11.921842 12.719477 -2.555872 17.619532 0.817757 1.716369 0.017488 0.001537 801792.000000 1 0 0
7.163342 11.730577 4.811128 14.562516 1.022579 1.234093 0.005706 -0.003565 -77465.400000 1 0 0
7.050842 15.714777 1.936128 17.332547 1.149044 1.458858 0.009485 -0.013377 -1451460.000000 1 0 0
5.504042 12.380477 10.270828 17.001782 1.152464 0.922157 0.001220 0.005139 1490050.000000 1 0 0
-1.330558 14.117877 3.265528 14.551581 -1.476828 1.344458 -0.005866 -0.001235 -977487.000000 1 0 0
4.564742 15.911277 1.673928 16.637538 1.291413 1.470014 0.004677 -0.019168 -3497830.000000 1 0 0
7.368942 13.194477 12.066028 19.338681 1.061461 0.897032 0.012204 0.000505 327165.000000 1 0 0
0.906142 17.200277 -9.286572 19.568113 1.518163 2.065279 0.017969 -0.008652 543292.000000 1 0 0
9.894542 9.703977 15.353628 20.683400 0.775675 0.734275 0.022604 -0.006213 -325817.000000 1 0 0
13.493542 7.613377 -0.063272 15.493328 0.513698 1.574880 0.005134 -0.004881 697654.000000 1 0 0
12.448442 13.556577 -0.071372 18.405151 0.827985 1.574674 0.023604 -0.004015 645609.000000 1 0 0
9.362242 12.383877 3.469528 15.907533 0.923465 1.350923 0.016780 -0.002856 733054.000000 1 0 0
-0.654758 12.945577 0.772928 12.985149 -1.520262 1.511237 0.001422 -0.001834 -1025190.000000 1 0 0
15.964542 7.199977 -0.906572 17.536481 0.423684 1.622516 0.001454 -0.003715 -1152430.000000 1 0 0
-4.291358 18.321977 -2.263672 18.953491 -1.340724 1.690515 0.006607 -0.008390 -54574.100000 1 0 0
11.601442 9.090577 -3.176272 15.077160 0.664644 1.783054 0.013303 -0.002264 199241.000000 1 0 0
14.683242 9.862277 7.679628 19.283122 0.591458 1.161181 0.018580 -0.007583 309058.000000 1 0 0
4.382342 13.798077 4.750328 15.236715 1.263267 1.253743 0.005214 -0.002496 -932809.000000 1 0 0
2.166642 15.891277 5.698128 17.020449 1.435290 1.229423 0.006304 -0.004697 47546.900000 1 0 0
6.099942 18.483677 5.451928 20.213341 1.252033 1.297695 0.027411 -0.022555 49926.300000 1 0 0
10.786042 17.031977 -0.851572 20.178011 1.006264 1.613012 0.030879 -0.007378 -726922.000000 1 0 0
10.072542 13.440877 -4.391772 17.360903 0.927682 1.826544 0.029431 -0.007274 691003.000000 1 0 0
16.560942 7.847277 2.272728 18.466452 0.442503 1.447410 0.001308 -0.009214 -286187.000000 1 0 0
4.011542 14.056477 -0.555672 14.628253 1.292799 1.608792 0.004186 -0.004987 -437888.000000 1 0 0
5.688242 13.242477 -2.410872 14.612721 1.165082 1.736539 0.005153 -0.001030 751156.000000 1 0 0
-6.179258 16.803777 -2.964572 18.147696 -1.218414 1.734890 0.011365 -0.009806 -1297880.000000 1 0 0
18.173742 9.859077 2.260428 20.798939 0.497059 1.461901 0.014720 -0.013477 -1403400.000000 1 0 0
7.968742 13.029977 9.528528 18.002056 1.021913 1.013018 0.005369 0.001485 842446.000000 1 0 0
-2.676258 15.848977 6.767128 17.439795 -1.403514 1.172305 -0.009961 -0.002290 336473.000000 1 0 0
10.838042 16.128277 6.268828 20.417705 0.979117 1.258727 0.021136 -0.006789 320930.000000 1 0 0
13.529542 11.965677 1.488428 18.122951 0.724135 1.488574 0.026531 -0.003683 447842.000000 1 0 0
17.545142 7.737577 -5.375772 19.914845 0.415352 1.844125 0.006066 0.004922 494721.000000 1 0 0
9.436942 9.332777 8.021028 15.507853 0.779849 1.027193 0.003276 -0.000288 -715083.000000 1 0 0
-1.925358 14.100677 -2.022872 14.374565 -1.435092 1.711991 -0.003064 -0.001908 773927.000000 1 0 0
10.947342 11.674877 0.830728 16.026140 0.817547 1.518937 0.016985 0.001035 -441509.000000 1 0 0
11.691942 9.771677 -0.628072 15.250628 0.696170 1.611991 0.012046 -0.000795 -482411.000000 1 0 0
-0.317858 16.068077 11.155728 19.563599 -1.551017 0.964012 0.004975 -0.011227 -438337.000000 1 0 0
2.154342 19.908077 -1.438872 20.075933 1.463001 1.642529 0.026754 -0.017502 -701611.000000 1 0 0
9.271742 14.330477 1.785128 17.161424 0.996537 1.466588 0.022802 -0.006884 -775934.000000 1 0 0
8.542342 11.644677 -5.171172 15.339855 0.937885 1.914639 0.009214 -0.003797 -571779.000000 1 0 0
10.479642 10.227077 10.103728 17.790484 0.773202 0.966809 -0.001537 -0.001376 -506364.000000 1 0 0
-5.132658 15.812977 5.853528 17.625499 -1.256940 1.232261 -0.014176 -0.004471 -579195.000000 1 0 0
14.491042 9.001577 -1.974972 17.173212 0.555849 1.686054 0.015732 -0.003913 -648677.000000 1 0 0
12.153842 9.648877 6.892028 16.979893 0.671007 1.152840 0.011277 -0.003959 -1886870.000000 1 0 0
3.066242 13.006177 9.829928 16.588851 1.339271 0.936560 -0.001657 -0.000880 -878087.000000 1 0 0
8.557642 12.506177 -2.597272 15.374769 0.970703 1.740541 0.011225 -0.003903 -435613.000000 1 0 0
9.343742 16.901177 2.065628 19.422207 1.065771 1.464241 0.023523 -0.014105 -551840.000000 1 0 0
9.719642 14.187177 -7.427872 18.732878 0.970140 1.978514 0.020767 -0.006319 880561.000000 1 0 0
6.482242 11.528677 7.394528 15.152852 1.058581 1.061004 0.002216 0.001603 -949455.000000 1 0 0
5.603142 16.873177 -5.689072 18.667214 1.250180 1.880486 0.010412 0.000114 725073.000000 1 0 0
-4.042158 17.206377 -4.549672 18.250972 -1.340058 1.822737 0.002409 -0.007210 -79990.300000 1 0 0
-0.119858 18.194977 -0.431672 18.200492 -1.564209 1.594516 0.002193 -0.016623 -1325710.000000 1 0 0
6.660242 15.780177 -2.773572 17.351240 1.171415 1.731334 0.004051 0.002804 466892.000000 1 0 0
-0.664958 20.536077 0.504128 20.553024 -1.538428 1.546266 0.008505 -0.009706 112022.000000 1 0 0
-1.367558 18.814277 4.379328 19.365582 -1.498237 1.342683 0.001035 -0.007688 -1326210.000000 1 0 0
7.336542 13.803977 -4.426072 16.246992 1.082283 1.846708 0.012584 0.001787 753889.000000 1 0 0
-1.013058 12.014177 7.672528 14.291061 -1.486673 1.004067 -0.008179 0.006154 140412.000000 1 0 0
7.602042 10.886177 10.912628 17.186778 0.961198 0.882861 0.003726 0.000248 155013.000000 1 0 0
1.600442 15.965877 -7.154672 17.568722 1.470889 1.990226 0.011980 -0.007545 -370699.000000 1 0 0
8.931442 7.263177 14.908928 18.836150 0.682747 0.657527 0.013313 0.003212 14158.300000 1 0 0
11.355242 11.174677 -4.702972 16.611228 0.777384 1.857842 0.016222 -0.000413 -305187.000000 1 0 0
-3.411358 17.055577 4.477528 17.960466 -1.373387 1.318840 -0.009113 -0.004199 -495294.000000 1 0 0
4.065542 15.205177 -6.732272 17.118690 1.309529 1.974982 0.008624 -0.008998 7209.330000 1 0 0
-4.543758 14.026677 9.566528 17.575889 -1.257526 0.995244 -0.002702 -0.009675 -1006080.000000 1 0 0
6.005042 17.631677 0.406128 18.630661 1.242536 1.548996 0.007970 -0.021354 -32036.500000 1 0 0
9.769642 10.571977 -2.170072 14.557535 0.824821 1.720423 0.016068 -0.001891 -1408290.000000 1 0 0
7.513942 18.118777 -2.524072 19.776763 1.177678 1.698774 0.016871 -0.000842 327329.000000 1 0 0
3.494142 10.450877 10.505728 15.224986 1.248140 0.809263 -0.003348 0.005123 666247.000000 1 0 0
-0.074958 18.557577 2.114728 18.677831 -1.566757 1.457332 -0.000290 -0.009749 -197284.000000 1 0 0
-0.855758 17.087177 -7.427372 18.651268 -1.520756 1.980376 0.018864 -0.005868 -627328.000000 1 0 0
9.988642 8.741877 12.929828 18.530349 0.718933 0.798524 0.004749 -0.002760 -275475.000000 1 0 0
3.670242 11.530177 5.666428 13.361290 1.262622 1.132836 -0.001007 0.001059 574156.000000 1 0 0
13.050142 14.051577 8.044128 20.795697 0.822332 1.173619 0.021782 -0.002920 -166491.000000 1 0 0
-0.587958 17.506577 6.939628 18.841029 -1.537224 1.193589 -0.000958 -0.001015 -350200.000000 1 0 0
11.857542 13.723177 5.771228 19.032445 0.858201 1.262715 0.017726 -0.003130 -1004560.000000 1 0 0
4.890942 14.662477 -4.398072 16.070240 1.248834 1.848011 0.003510 -0.000414 -248391.000000 1 0 0
3.734342 17.546677 4.673528 18.538421 1.361102 1.315947 0.011920 -0.017797 -835544.000000 1 0 0
7.050042 11.760577 2.073828 13.867770 1.030771 1.420690 0.007855 -0.002433 708806.000000 1 0 0
6.454542 8.642777 11.776828 15.970360 0.929338 0.741557 -0.000292 0.001347 268104.000000 1 0 0
-5.460658 14.901677 1.765928 15.968634 -1.219546 1.459982 -0.000682 0.001468 -268837.000000 1 0 0
6.741142 13.868377 6.124628 16.591744 1.118347 1.192716 0.009670 -0.005663 -271328.000000 1 0 0
5.805342 15.938877 4.917328 17.661538 1.221505 1.288648 0.010529 -0.014964 676215.000000 1 0 0
1.165642 17.945077 4.351128 18.501806 1.505931 1.333400 0.010786 -0.010737 387203.000000 1 0 0
7.464942 17.880477 -7.207872 20.673419 1.175303 1.926931 0.013900 -0.005123 325566.000000 1 0 0
-2.450358 18.668177 -6.044372 19.774720 -1.440284 1.881430 0.014991 -0.006921 -1424500.000000 1 0 0
13.571042 9.931677 -4.550472 17.421774 0.631770 1.835056 0.011485 -0.002179 -283580.000000 1 0 0
-1.601558 18.016977 9.903228 20.621600 -1.482138 1.069873 0.002648 -0.011480 -313901.000000 1 0 0
3.492742 11.820677 -1.505272 12.417468 1.283494 1.692317 0.004440 -0.003714 -117578.000000 1 0 0
4.337942 13.924477 -10.862772 18.185396 1.268792 2.210970 0.004054 -0.015807 616024.000000 1 0 0
11.523642 13.456777 2.503328 17.892620 0.862630 1.430427 0.032280 -0.006098 228212.000000 1 0 0
16.099642 6.209277 -6.906172 18.586253 0.368099 1.951500 0.005225 -0.005727 650064.000000 1 0 0
2.388642 15.922477 3.009328 16.379467 1.421890 1.386021 0.006043 -0.012090 -257714.000000 1 0 0
13.587642 10.573877 3.633228 17.596342 0.661305 1.362824 0.023348 -0.002912 -383455.000000 1 0 0
-5.004358 19.365777 -5.784972 20.821691 -1.317916 1.852335 0.000364 -0.009018 641360.000000 1 0 0
5.484642 12.131577 0.047128 13.313853 1.146200 1.567257 0.004589 -0.003631 -247638.000000 1 0 0
4.738442 15.455177 9.676028 18.839874 1.273302 1.031429 0.012897 -0.003297 -65164.000000 1 0 0
7.751242 9.455377 13.940728 18.542648 0.884116 0.719979 0.008993 -0.005596 -1690200.000000 1 0 0
-4.940758 13.702177 7.125128 16.215061 -1.224726 1.115850 -0.013562 -0.002619 -1165290.000000 1 0 0
-4.513658 17.089277 0.593828 17.685280 -1.312571 1.537212 0.000417 -0.003533 -2021240.000000 1 0 0
-0.740758 16.514677 3.606228 16.920052 -1.525972 1.356015 -0.002147 -0.005803 -1867640.000000 1 0 0
8.040542 16.958977 -4.851172 19.385332 1.128069 1.823734 0.016520 0.001346 409528.000000 1 0 0
3.134142 16.554677 -4.663672 17.482278 1.383690 1.840832 0.007890 -0.000853 -282275.000000 1 0 0
9.183042 14.591477 8.140428 19.065834 1.009080 1.129663 0.002783 -0.003176 52869.100000 1 0 0
12.734042 11.048577 9.039528 19.129557 0.714647 1.078623 0.013511 -0.006056 -240745.000000 1 0 0
3.736442 12.461777 12.179928 17.821547 1.279493 0.818334 0.005654 -0.000457 508384.000000 1 0 0
-3.352258 19.211777 5.955728 20.391192 -1.398046 1.274402 0.008995 -0.011646 69893.600000 1 0 0
-2.680858 15.745277 10.261628 18.984250 -1.402149 0.999725 -0.002679 -0.009045 -1401560.000000 1 0 0
2.025542 14.255277 7.679328 16.318328 1.429650 1.080831 0.005309 -0.004896 40054.800000 1 0 0
4.237042 17.324877 7.826328 19.477046 1.330940 1.157289 0.020843 -0.016572 570917.000000 1 0 0
-2.035458 13.396177 9.452828 16.521399 -1.420006 0.961663 -0.005673 -0.002928 -1524820.000000 1 0 0
5.801142 17.725377 3.038428 18.896410 1.254505 1.409301 0.003822 -0.020997 593881.000000 1 0 0
7.413342 15.285677 -6.831572 18.310651 1.119232 1.953137 0.013308 -0.002682 119323.000000 1 0 0
11.018342 7.795377 9.424728 16.461995 0.615736 0.961227 0.010070 -0.001701 -200118.000000 1 0 0
9.213842 16.127177 -2.708372 18.770083 1.051729 1.715594 0.026609 -0.013152 -903265.000000 1 0 0
14.594942 11.118177 -6.635572 19.510434 0.651000 1.917824 0.026806 -0.001327 484703.000000 1 0 0
11.083742 6.450477 16.089928 20.575320 0.527061 0.672926 0.041634 -0.013130 -253249.000000 1 0 0
8.572042 8.560877 10.291828 15.896234 0.784747 0.866578 0.003904 0.001699 -163972.000000 1 0 0
16.702042 9.403677 4.317828 19.647672 0.512789 1.349225 0.036243 -0.012347 271571.000000 1 0 0
-3.413158 14.359777 4.669628 15.480900 -1.337438 1.264386 -0.011726 0.000110 -1405700.000000 1 0 0
4.584442 14.986277 12.631828 20.128803 1.273927 0.892394 0.007927 0.004730 -211925.000000 1 0 0
16.071342 10.486477 -4.644072 19.743902 0.578127 1.808237 0.011891 -0.004782 176045.000000 1 0 0
14.482742 14.135077 5.871328 21.071847 0.773250 1.288425 0.021574 -0.007600 412139.000000 1 0 0
6.291642 9.539277 9.273528 14.716688 0.987736 0.889067 0.000730 0.004649 218339.000000 1 0 0
10.522342 12.559277 8.797128 18.596897 0.873419 1.078055 0.015739 0.006661 -1371790.000000 1 0 0
7.955442 11.354177 -0.313072 13.867387 0.959626 1.593374 0.009615 -0.004317 317372.000000 1 0 0
7.558042 13.418677 -8.685772 17.681277 1.057839 2.084311 0.008705 -0.003221 -1207770.000000 1 0 0
2.815542 15.314077 -2.315772 15.742015 1.388974 1.718440 0.003920 -0.004745 572157.000000 1 0 0
12.448942 13.882877 -7.626972 20.146492 0.839801 1.959053 0.036155 -0.006053 851709.000000 1 0 0
-7.882558 14.704577 9.785128 19.341873 -1.078717 1.040367 0.002428 -0.018526 -218432.000000 1 0 0
11.638042 9.552177 2.153828 15.209441 0.687279 1.428707 0.020659 -0.002350 -1801090.000000 1 0 0
12.034842 8.684177 4.515828 15.512739 0.625067 1.275415 0.013273 -0.002795 511434.000000 1 0 0
14.078442 8.072477 6.069228 17.326366 0.520626 1.212917 0.013703 -0.004855 -1956490.000000 1 0 0
16.180042 7.504977 7.117828 19.203696 0.434305 1.191089 0.023190 -0.007958 -211388.000000 1 0 0
13.648242 8.272577 2.440028 16.145086 0.544913 1.419084 0.010448 -0.003442 -2518470.000000 1 0 0
-4.302858 17.203977 -7.100872 19.102717 -1.325716 1.951658 -0.000113 -0.013530 328919.000000 1 0 0
2.775442 19.784377 -4.060672 20.386607 1.431421 1.771321 0.009216 -0.001394 362983.000000 1 0 0
-0.226258 14.950177 6.265528 16.211596 -1.555663 1.173980 -0.001428 -0.001830 849762.000000 1 0 0
6.677642 16.353177 8.151128 19.454002 1.183122 1.138458 0.021251 -0.002684 -1505160.000000 1 0 0
13.016742 14.952577 -2.204772 19.946834 0.854501 1.681555 0.034492 -0.010652 284700.000000 1 0 0
12.454042 15.768277 4.203328 20.528266 0.902296 1.364580 0.027689 -0.009016 -524419.000000 1 0 0
2.898542 17.958177 1.472928 18.250129 1.410771 1.490001 0.018302 -0.018885 -625774.000000 1 0 0
10.518042 14.502277 -1.288172 17.961198 0.943312 1.642578 0.024154 0.001049 -1138160.000000 1 0 0
-6.425258 15.764177 -0.551572 17.032248 -1.183767 1.603186 0.004950 -0.004505 -174826.000000 1 0 0
-3.857158 15.769977 -2.445872 16.418043 -1.330917 1.720328 0.004484 -0.004844 -2031740.000000 1 0 0
-6.817058 17.067477 1.666228 18.453926 -1.190792 1.480382 0.004768 -0.003937 -196309.000000 1 0 0
-0.038858 19.417077 -6.748472 20.556417 -1.568795 1.905289 0.023263 -0.004428 -262282.000000 1 0 0
4.811542 14.878377 7.163128 17.199635 1.258020 1.141237 0.015439 -0.006440 -624430.000000 1 0 0
8.701742 12.362177 6.904628 16.619796 0.957457 1.142363 0.013479 -0.005333 -1255710.000000 1 0 0
-7.592358 17.592477 -5.680072 19.985054 -1.163375 1.858985 0.015159 -0.011943 280148.000000 1 0 0
-7.630258 17.974277 -1.253172 19.566960 -1.169341 1.634886 0.017259 -0.004256 -91073.700000 1 0 0
-13.594658 -9.192623 9.379128 18.902039 0.594569 1.051584 0.014032 -0.006075 276969.000000 1 0 0
-12.518858 -12.762823 7.799828 19.505096 0.795048 1.159403 0.016963 -0.000575 -54877.600000 1 0 0
-3.869658 -15.188423 12.246828 19.890883 1.321327 0.907522 -0.011633 0.000224 339464.000000 1 0 0
-2.201858 -14.168423 15.067928 20.799876 1.416624 0.760598 0.002203 0.000481 256831.000000 1 0 0
-6.988958 -13.888623 12.518128 19.961034 1.104580 0.892936 0.000667 -0.007500 -143707.000000 1 0 0
-9.880558 -11.621123 8.940928 17.680953 0.866172 1.040625 0.007569 -0.000004 144436.000000 1 0 0
-10.579958 -10.651123 11.263228 18.768117 0.788750 0.927138 0.019234 -0.007957 261754.000000 1 0 0
-5.902258 -12.364623 10.647228 17.351772 1.125432 0.910171 -0.001268 0.000243 538841.000000 1 0 0
-12.467858 -10.268123 7.305928 17.727335 0.688947 1.146008 0.007798 -0.000699 -304051.000000 1 0 0
-7.486358 -11.345523 12.463128 18.441692 0.987527 0.828730 0.003221 -0.004871 428613.000000 1 0 0
-14.748158 -11.400023 7.341828 20.034248 0.658046 1.195591 0.019381 0.003158 570286.000000 1 0 0
-11.013358 -9.176423 9.107828 16.983913 0.694665 1.004794 0.007117 -0.004788 -619972.000000 1 0 0
-5.005058 -12.198723 13.050828 18.552184 1.181448 0.790534 -0.000864 -0.003155 236070.000000 1 0 0
3.940442 -12.317423 14.775728 19.635888 -1.261177 0.718968 -0.014242 -0.004919 -1417660.000000 1 0 0
6.396242 -12.952823 14.143628 20.217065 -1.112112 0.795975 -0.001512 0.004382 283185.000000 1 0 0
6.753842 -8.593623 15.974928 19.356215 -0.904704 0.600041 0.003283 -0.009476 563757.000000 1 0 0
0.642142 -1.879723 14.345828 14.482696 -1.241611 0.137589 0.003615 -0.006259 -883966.000000 1 0 0
-0.153858 -6.499623 15.474428 16.784716 1.547129 0.397748 0.007787 -0.013627 402507.000000 1 0 0
-1.512358 -4.715623 18.365728 19.021679 1.260447 0.263380 0.014681 -0.019870 -1365000.000000 1 0 0
-5.152958 12.688577 12.988528 18.874714 -1.185034 0.811868 0.006195 -0.011469 -314708.000000 1 0 0
-3.924558 8.752977 11.643428 15.085960 -1.149300 0.689120 -0.002751 -0.001665 -245688.000000 1 0 0
-0.631858 -3.984723 15.034228 15.566158 1.413536 0.262178 0.006636 -0.008418 -31570.900000 1 0 0
-4.340058 9.297977 14.183928 17.506350 -1.134081 0.626276 0.003258 -0.009552 269288.000000 1 0 0
-13.296058 -2.248323 16.845128 21.577730 0.167512 0.675056 -0.010555 0.009582 3728.530000 1 0 0
-0.416258 0.853677 17.322928 17.348944 -1.117113 0.054772 0.006921 -0.000752 -2319540.000000 1 0 0
-3.323758 -7.221223 15.379328 17.312341 1.139430 0.477069 0.012876 -0.014468 155870.000000 1 0 0
-7.450358 5.590477 12.607828 15.675414 -0.643734 0.636290 0.000744 -0.002592 -1904900.000000 1 0 0
-9.730458 10.244977 13.387628 19.464582 -0.811150 0.812350 0.002057 -0.002210 830989.000000 1 0 0
-5.586658 2.254377 11.119028 12.646175 -0.383545 0.496531 0.001270 -0.001044 -1231180.000000 1 0 0
-7.163458 -7.418123 16.824128 19.733093 0.802861 0.549885 0.012653 -0.008051 164784.000000 1 0 0
-4.889958 3.018277 18.629528 19.495666 -0.553000 0.299199 0.003338 -0.003555 -1894540.000000 1 0 0
0.921142 -8.444823 16.548928 18.601896 -1.462148 0.474248 0.003068 -0.012380 648637.000000 1 0 0
-14.878758 -3.558723 13.942928 20.698966 0.234771 0.831721 0.005796 -0.006148 255251.000000 1 0 0
-14.363258 2.212977 13.098328 19.564423 -0.152870 0.837265 0.000434 0.002063 -166804.000000 1 0 0
-5.470458 0.929077 16.057528 16.989211 -0.168230 0.332711 0.003475 -0.001120 236151.000000 1 0 0
4.494442 5.729077 15.108428 16.771611 0.905580 0.449111 -0.005474 0.004160 47403.500000 1 0 0
-1.179058 -12.104523 13.883428 18.456956 1.473696 0.719393 -0.004451 -0.003613 212971.000000 1 0 0
-5.998858 -4.046823 16.717028 18.215984 0.593474 0.408514 0.012849 -0.009118 618973.000000 1 0 0
-12.925558 -1.539223 9.946128 16.381841 0.118525 0.918336 0.005060 0.001078 -591093.000000 1 0 0
-14.714958 10.368777 10.153828 20.667408 -0.613835 1.057219 0.011173 -0.002940 562826.000000 1 0 0
-3.601758 -3.316323 17.711028 18.375287 0.744162 0.269702 0.015757 -0.013905 -1831840.000000 1 0 0
-7.934658 9.358577 11.902528 17.094208 -0.867553 0.800581 0.002023 -0.007985 -111990.000000 1 0 0
-4.071158 10.556577 16.398128 19.922707 -1.202720 0.603970 0.006853 -0.011998 228465.000000 1 0 0
-12.483258 12.685177 8.249328 19.616240 -0.793421 1.136761 0.004958 -0.017001 13125.500000 1 0 0
-12.576758 3.197877 10.488028 16.685322 -0.248992 0.891073 0.001621 -0.005028 197904.000000 1 0 0
-10.187858 -3.506123 13.608028 17.356951 0.331451 0.669696 0.005772 -0.001817 -1043410.000000 1 0 0
-4.150758 -6.352623 17.701128 19.259141 0.992040 0.404999 0.022113 -0.014203 -517370.000000 1 0 0
0.774842 -3.641423 17.696028 18.083411 -1.361138 0.207359 0.008042 -0.022736 -918044.000000 1 0 0
-6.051958 1.733077 13.637628 15.020474 -0.278902 0.432464 -0.001711 0.001135 -641887.000000 1 0 0
-10.452158 8.577877 10.284028 16.987902 -0.687224 0.920561 0.007237 -0.014971 -169351.000000 1 0 0
4.469942 2.494677 17.374828 18.113212 0.509041 0.286513 0.003958 -0.000960 -117596.000000 1 0 0
0.499342 -5.366123 13.237028 14.292079 -1.478009 0.386645 0.003255 -0.005199 -1187410.000000 1 0 0
-4.107158 5.647977 20.573428 21.726351 -0.942054 0.327236 0.015887 -0.011810 -469768.000000 1 0 0
-10.684358 10.855177 9.032828 17.708257 -0.793329 1.035505 0.004046 -0.015689 78212.500000 1 0 0
0.700242 4.191877 13.088828 13.761526 1.405277 0.313962 0.003313 -0.000519 -1791500.000000 1 0 0
-3.075558 7.071877 13.364428 15.429791 -1.160570 0.523361 -0.003227 -0.000038 -876924.000000 1 0 0
0.728642 8.922477 14.075728 16.681356 1.489313 0.566471 -0.007312 -0.001725 -276189.000000 1 0 0
-4.254058 -6.588723 13.097228 15.265833 0.997480 0.539542 0.010756 -0.005685 -372227.000000 1 0 0
-5.071458 8.199477 16.434228 19.053476 -1.016878 0.530544 0.009540 -0.005721 -83534.600000 1 0 0
1.611642 -10.891523 15.703428 19.178642 -1.423890 0.611483 -0.011027 -0.004888 -742759.000000 1 0 0
-15.127258 -1.087123 14.246128 20.807881 0.071742 0.816672 -0.001335 0.006975 141818.000000 1 0 0
-13.692658 -5.278323 8.639828 17.029275 0.367932 1.038688 0.013157 -0.003532 -847447.000000 1 0 0
-14.205858 -1.880823 12.116428 18.765706 0.131632 0.868898 0.006452 -0.001924 641424.000000 1 0 0
9.184642 1.026677 17.050128 19.393777 0.111320 0.496711 0.026367 -0.010301 -555963.000000 1 0 0
5.089042 -6.748223 16.576528 18.606938 -0.924657 0.471520 0.004176 -0.023845 -131208.000000 1 0 0
-6.070658 -2.660023 10.973428 12.819701 0.412979 0.543350 0.002300 -0.002732 347714.000000 1 0 0
0.545642 -6.275723 17.955228 19.028206 -1.484070 0.337422 0.010109 -0.023164 -384292.000000 1 0 0
-8.160558 11.945077 11.984728 18.785986 -0.971453 0.878949 -0.004894 -0.013806 -84169.900000 1 0 0
-6.630358 -5.712323 14.796028 17.190541 0.711156 0.534139 0.013445 -0.006265 -952727.000000 1 0 0
-4.213558 -8.875423 17.095628 19.717700 1.127556 0.521607 0.020641 -0.015898 -180643.000000 1 0 0
2.486042 -6.340723 16.199128 17.572618 -1.197140 0.397997 0.003111 -0.015018 634436.000000 1 0 0
2.199042 5.345777 16.064428 17.072755 1.180535 0.345402 0.000757 0.001312 -4333190.000000 1 0 0
1.012142 -8.902123 14.041128 16.656095 -1.457586 0.567956 -0.003103 -0.006150 -356913.000000 1 0 0
-9.914658 -2.843623 11.202028 15.227346 0.279312 0.744168 -0.005473 -0.001786 -455314.000000 1 0 0
-1.123758 10.116277 12.471928 16.098164 -1.460166 0.684489 -0.008030 -0.003545 -859032.000000 1 0 0
-12.388158 -3.637323 11.311128 17.165028 0.285587 0.851356 0.007757 -0.005751 -844369.000000 1 0 0
-1.781858 6.549577 19.975328 21.097054 -1.305168 0.327560 0.007939 -0.010162 -1076890.000000 1 0 0
0.223342 -13.404723 15.699628 20.644970 -1.554136 0.706779 -0.013615 -0.006920 -575923.000000 1 0 0
4.175542 -8.857823 15.230628 18.107131 -1.130293 0.571409 -0.000497 -0.009078 315955.000000 1 0 0
4.328942 -4.426223 16.220828 17.362213 -0.796509 0.364617 0.008302 -0.008626 -107432.000000 1 0 0
7.995842 1.763277 14.823628 16.934656 0.217050 0.504652 0.006895 -0.003725 -38554.200000 1 0 0
-6.493758 -0.172423 11.836728 13.502102 0.026546 0.501925 -0.001341 -0.002587 73537.200000 1 0 0
-3.493958 -10.997723 18.320128 21.651437 1.263183 0.562097 0.030258 -0.014060 -1090310.000000 1 0 0
3.224242 -1.478923 13.641028 14.094701 -0.430056 0.254408 0.000092 -0.003125 395674.000000 1 0 0
-2.495358 8.503177 15.839528 18.149972 -1.285349 0.510086 0.007772 -0.009677 -1242600.000000 1 0 0
-3.413858 3.922277 14.776728 15.664941 -0.854591 0.338363 0.002756 -0.001183 -1118060.000000 1 0 0
-4.316058 -9.006023 19.717128 22.102080 1.123893 0.468838 0.020120 -0.016753 -179843.000000 1 0 0
-5.768658 -2.972223 19.099728 20.172038 0.475762 0.327524 0.012977 -0.012055 -874698.000000 1 0 0
-6.619958 -8.642723 11.069228 15.525730 0.917160 0.777086 0.009165 -0.003181 -381908.000000 1 0 0
-11.734558 2.487877 12.721928 17.485332 -0.208919 0.756013 0.006123 -0.005531 -885890.000000 1 0 0
-11.742258 -7.528023 11.627628 18.159115 0.570097 0.875883 0.011164 -0.006196 -908037.000000 1 0 0
-11.121058 -7.341023 15.491028 20.433807 0.583443 0.710390 0.029502 -0.012976 992697.000000 1 0 0
0.419042 5.831177 17.755428 18.693139 1.499057 0.318083 0.000515 -0.000781 -269693.000000 1 0 0
-2.246458 -0.200723 13.226128 13.417053 0.089114 0.168902 0.004188 -0.000411 226757.000000 1 0 0
-6.010658 -10.457123 18.309328 21.925120 1.049119 0.582510 0.018359 -0.006791 162985.000000 1 0 0
0.301442 2.550877 19.167628 19.338971 1.453170 0.133215 0.009432 -0.007395 -93094.600000 1 0 0
-0.572758 11.032277 14.841428 18.501545 -1.518926 0.639872 0.005136 -0.002162 -63385.400000 1 0 0
-12.628658 -2.111123 14.235928 19.146840 0.165638 0.732488 -0.001371 -0.003500 -495061.000000 1 0 0
-13.745358 8.405077 11.765228 19.949957 -0.548821 0.940063 0.012956 -0.008097 551921.000000 1 0 0
-18.033258 -0.756623 6.897928 19.322326 0.041932 1.205750 0.029342 -0.012470 655247.000000 1 0 0
-1.990958 -7.777423 17.558628 19.306932 1.320186 0.428845 0.015631 -0.020860 -2866050.000000 1 0 0
5.647542 2.796377 14.481528 15.793325 0.459760 0.410454 -0.000686 -0.001021 -1304390.000000 1 0 0
-14.358658 -7.193023 11.228728 19.595789 0.464410 0.960613 0.036085 -0.006479 346484.000000 1 0 0
3.260542 7.787977 16.242128 18.305476 1.174305 0.479377 -0.000019 -0.005621 -252869.000000 1 0 0
1.004742 2.141977 14.673628 14.863140 1.132196 0.159860 0.003272 -0.004543 -1975410.000000 1 0 0
-14.385358 0.658577 9.744028 17.387303 -0.045749 0.975915 0.002408 -0.001445 -1365670.000000 1 0 0
-9.610758 -5.192723 15.400828 18.881645 0.495368 0.616943 0.010948 -0.002154 -320781.000000 1 0 0
-2.616358 -0.320323 18.113728 18.304510 0.121824 0.144505 0.006811 -0.003394 188974.000000 1 0 0
6.786642 3.580977 17.576828 19.178811 0.485523 0.411627 0.013912 -0.004632 -135697.000000 1 0 0
-4.204658 -0.936023 14.809028 15.422795 0.219044 0.283065 0.007847 -0.000517 -1737200.000000 1 0 0
4.811542 -9.005623 17.755928 20.482313 -1.080101 0.521865 0.003933 -0.011596 -123454.000000 1 0 0
1.974242 6.935377 13.508328 15.312479 1.293469 0.490330 -0.002152 0.003653 -2449430.000000 1 0 0
-3.770758 -0.891123 20.453928 20.817682 0.232067 0.187213 0.007730 -0.004339 -290751.000000 1 0 0
-10.626858 1.680777 16.256928 19.494687 -0.156864 0.584631 -0.006595 0.002666 -456501.000000 1 0 0
-3.768558 7.036577 18.355828 20.016290 -1.079102 0.410192 0.011120 -0.008005 76998.800000 1 0 0
-12.639358 1.127777 14.714328 19.430303 -0.088992 0.711647 0.003513 0.003567 614038.000000 1 0 0
-16.183158 -4.785723 8.512428 18.901301 0.287528 1.103626 0.021665 -0.010606 -1026830.000000 1 0 0
-2.374258 0.697677 15.724628 15.918159 -0.285806 0.156093 0.007190 -0.000055 -186328.000000 1 0 0
-13.452258 -8.887123 13.056428 20.746433 0.583820 0.890101 -0.002154 -0.010045 489298.000000 1 0 0
5.941342 -3.107823 14.577928 16.045999 -0.481944 0.431095 0.002719 -0.008895 703736.000000 1 0 0
-15.721758 0.404577 7.558728 17.449118 -0.025728 1.122771 0.010478 -0.007791 344234.000000 1 0 0
-14.153658 5.910877 12.304328 19.663697 -0.395605 0.894719 0.013664 -0.013142 -149765.000000 1 0 0
0.393542 9.429777 16.651828 19.140505 1.529087 0.515638 -0.002342 -0.011087 -455850.000000 1 0 0
-10.409758 -5.411423 10.794628 15.942727 0.479394 0.826998 0.004941 -0.005662 104910.000000 1 0 0
-3.221658 -10.887323 15.081528 18.877642 1.283097 0.645316 0.009812 -0.009861 -1383120.000000 1 0 0
-3.435258 2.568877 12.635628 13.343883 -0.642090 0.327272 0.002539 0.001980 -1070790.000000 1 0 0
-12.377458 -7.644423 7.441328 16.340502 0.553266 1.097984 0.009900 -0.002592 393381.000000 1 0 0
-8.304158 -1.892823 13.175428 15.688649 0.224108 0.573870 0.000046 -0.000996 -347283.000000 1 0 0
-9.730658 6.426177 9.602328 15.105832 -0.583655 0.881920 0.002197 -0.006820 -1190680.000000 1 0 0
-17.902158 -3.583923 6.610228 19.417180 0.197583 1.223420 0.017002 -0.012790 424075.000000 1 0 0
-1.383658 -0.034923 20.504128 20.550790 0.025234 0.067401 0.013673 -0.008072 -1366060.000000 1 0 0
-2.959758 2.541777 20.263128 20.635289 -0.709569 0.190209 0.015927 -0.004968 -491486.000000 1 0 0
-3.744258 11.330577 11.165828 16.342496 -1.251638 0.818607 -0.003835 -0.008981 -960269.000000 1 0 0
-4.134858 -4.699523 14.867828 16.131797 0.849228 0.398492 0.010254 -0.008278 1369020.000000 1 0 0
-0.208058 -14.410723 13.290628 19.604923 1.556360 0.825863 -0.007850 -0.002821 -1091640.000000 1 0 0
-12.127258 0.408177 8.398728 14.757223 -0.033645 0.965353 0.004402 -0.002944 -599729.000000 1 0 0
-7.807658 1.880277 15.540328 17.492763 -0.236325 0.476979 -0.003216 0.002730 -1978860.000000 1 0 0
3.389342 -2.252623 18.493128 18.935621 -0.586584 0.216610 0.016572 -0.011682 -522491.000000 1 0 0
-2.129158 4.792777 12.606328 13.653700 -1.152740 0.394236 -0.003465 0.002523 -458382.000000 1 0 0
-10.266158 -6.248223 13.232228 17.875294 0.546736 0.737351 0.001602 -0.007471 -144072.000000 1 0 0
2.429642 -3.841723 14.247628 14.955163 -1.006868 0.308831 0.000388 -0.006297 -264038.000000 1 0 0
6.549442 0.998577 16.954428 18.202884 0.151302 0.372516 0.004978 -0.008516 -1144010.000000 1 0 0
-1.978258 -5.832423 13.755128 15.070972 1.243790 0.420977 0.005870 -0.006883 -1942760.000000 1 0 0
-12.898258 3.715677 14.603428 19.835106 -0.280482 0.743297 -0.000632 0.005441 235407.000000 1 0 0
-13.303858 -6.269023 13.459928 19.936472 0.440358 0.829641 0.005151 -0.012330 -347371.000000 1 0 0
-9.620858 6.832177 12.157328 16.942260 -0.617500 0.770483 0.006747 -0.002009 -534552.000000 1 0 0
-1.230858 -2.588123 12.840028 13.155976 1.126875 0.219601 0.001401 -0.002015 322156.000000 1 0 0
0.127242 6.789377 15.358028 16.792286 1.552057 0.416308 0.001833 0.001869 261365.000000 1 0 0
-16.565758 -0.851423 9.669328 19.200134 0.051351 1.043027 0.018627 -0.002717 -170887.000000 1 0 0
-1.320258 2.776677 13.928928 14.264223 -1.126955 0.217250 0.002178 0.000163 -1748260.000000 1 0 0
-11.210258 -3.358423 16.010728 19.831598 0.291076 0.631176 0.004883 -0.004516 -814050.000000 1 0 0
-5.258958 -1.483323 17.132328 17.982590 0.274915 0.308739 0.013916 0.000042 236273.000000 1 0 0
-11.930058 6.679277 11.088928 17.604072 -0.510389 0.889363 0.010901 -0.005277 -1939010.000000 1 0 0
-2.768858 4.607077 18.679328 19.437310 -1.029641 0.280187 0.009915 -0.006055 411891.000000 1 0 0
5.056942 -1.892923 16.602528 17.458515 -0.358176 0.314438 0.012321 -0.007710 -591998.000000 1 0 0
-8.039558 -4.183523 12.075528 15.098170 0.479808 0.643833 0.004995 -0.003783 -627338.000000 1 0 0
-11.393558 -0.741023 16.122328 19.755802 0.064947 0.616200 -0.003375 0.003864 -283357.000000 1 0 0
1.947542 2.010177 17.342428 17.566831 0.801223 0.160010 0.000000 -0.004880 -1092610.000000 1 0 0
-9.115458 -7.640623 11.550928 16.579946 0.697606 0.800036 0.014159 -0.003427 408777.000000 1 0 0
-7.193058 6.947877 14.906928 17.950754 -0.768062 0.590909 -0.002157 -0.001364 -284403.000000 1 0 0
-5.761058 3.386577 15.747828 17.107097 -0.531430 0.401327 0.001199 -0.002158 -11433.800000 1 0 0
-9.349858 4.211977 11.749528 15.595256 -0.423258 0.717573 0.002294 -0.006049 59061.100000 1 0 0
-10.201158 0.271877 14.098528 17.404196 -0.026645 0.626534 0.003308 -0.001483 -697793.000000 1 0 0
7.926642 -0.702723 15.667828 17.572885 -0.088422 0.469950 0.006070 -0.010863 -64160.000000 1 0 0
-8.558758 -7.491323 14.663828 18.558020 0.718989 0.659724 0.016815 -0.004168 -1464560.000000 1 0 0
-0.065758 4.215177 15.672028 16.229125 -1.555197 0.262774 0.002367 -0.002476 314503.000000 1 0 0
-7.973758 3.074377 9.752428 12.966976 -0.367998 0.719558 -0.004366 -0.003196 -717090.000000 1 0 0
-2.107258 -9.760623 13.116028 16.484553 1.358166 0.650707 -0.003274 -0.005353 651114.000000 1 0 0
-5.968058 10.226977 10.580328 15.879298 -1.042553 0.841565 0.002453 -0.010482 -2732680.000000 1 0 0
-8.614858 -2.803423 15.582328 18.024536 0.314609 0.526629 0.007471 -0.002699 -438897.000000 1 0 0
4.136942 5.735177 17.657928 19.021277 0.945899 0.380914 0.004275 0.000512 -393590.000000 1 0 0
-6.841358 -0.974323 15.136528 16.639350 0.141465 0.428277 -0.001165 0.001226 -76262.600000 1 0 0
-0.856058 -10.039623 15.414928 18.415940 1.485734 0.578941 -0.003841 -0.008111 -180226.000000 1 0 0
-4.442358 5.679077 16.242128 17.770571 -0.906984 0.417784 0.006148 -0.004482 206943.000000 1 0 0
3.623742 0.055977 17.488828 17.860396 0.015446 0.204336 0.004553 -0.005244 -1050480.000000 1 0 0
1.151642 0.110877 19.157428 19.192332 0.095982 0.060319 0.005962 -0.008444 -906011.000000 1 0 0
-6.334258 6.488677 17.994528 20.150156 -0.797440 0.466780 -0.001183 0.003743 -196949.000000 1 0 0
-12.217058 0.602477 10.972528 16.432159 -0.049275 0.839618 0.008602 -0.000823 -655951.000000 1 0 0
-5.434158 5.159477 13.884728 15.777704 -0.759475 0.494888 -0.000237 -0.000040 -1651570.000000 1 0 0
-8.565258 -9.584823 9.942528 16.250733 0.841513 0.912437 0.007572 0.000353 30143.500000 1 0 0
6.808442 -3.681523 17.007628 18.686035 -0.495698 0.427081 0.009877 -0.013109 -270978.000000 1 0 0
-16.662258 1.747477 9.652828 19.335501 -0.104494 1.048088 0.016210 -0.006925 -12196.700000 1 0 0
-4.144458 -9.564723 11.349828 15.410355 1.161911 0.742905 0.001801 -0.005570 1074130.000000 1 0 0
-11.126058 -3.874523 9.094628 14.883324 0.335105 0.913395 0.002693 0.000651 -84368.600000 1 0 0
3.761242 -5.524123 18.476828 19.648309 -0.973021 0.347058 0.015455 -0.016958 36472.000000 1 0 0
2.435742 -1.842223 16.093728 16.380925 -0.647539 0.187531 0.003338 -0.007196 164693.000000 1 0 0
-3.178358 -4.336323 20.162828 20.867326 0.938289 0.260586 0.017541 -0.019746 -888114.000000 1 0 0
-6.319458 -3.301323 14.329528 16.005301 0.481411 0.461695 0.007937 -0.002451 731345.000000 1 0 0
-9.641658 5.078477 14.074728 17.800294 -0.484796 0.658842 0.003112 0.003903 297719.000000 1 0 0
-5.890958 -5.205323 11.729728 14.120385 0.723687 0.590442 0.007026 -0.001166 -1017280.000000 1 0 0
6.044342 1.841577 19.469728 20.469386 0.295743 0.313814 0.018192 -0.009194 -34619.600000 1 0 0
-2.701558 11.894977 13.509328 18.201397 -1.347467 0.734429 0.008474 -0.016444 -1289620.000000 1 0 0
3.352942 1.416777 15.208828 15.638348 0.399792 0.234915 0.001331 -0.001777 -1025200.000000 1 0 0
-5.624058 7.441777 12.869828 15.894733 -0.923631 0.627170 -0.005589 -0.007084 -1188320.000000 1 0 0
-1.903458 -1.836523 15.224428 15.452481 0.767503 0.172016 0.007494 -0.002844 57252.300000 1 0 0
-7.151958 10.599677 14.054428 19.000805 -0.977230 0.738208 0.009055 -0.011511 251861.000000 1 0 0
-10.151658 2.099177 10.599428 14.826010 -0.203908 0.774285 0.002903 -0.006139 -202949.000000 1 0 0
-13.456858 5.302877 8.936628 17.002084 -0.375380 1.017353 -0.007271 -0.009467 -342010.000000 1 0 0
0.443642 -4.672623 19.970928 20.515072 -1.476135 0.230834 0.015868 -0.025902 -449687.000000 1 0 0
-14.430058 -3.125623 7.461028 16.542763 0.213310 1.102895 0.010421 -0.006334 1208210.000000 1 0 0
-2.579358 2.295877 17.702828 18.036470 -0.727317 0.192642 0.006293 -0.001995 -157185.000000 1 0 0
-6.180858 -8.442323 14.681128 18.028071 0.938832 0.619191 0.010453 -0.002257 145696.000000 1 0 0
-7.980258 1.936277 12.105928 14.628300 -0.238034 0.596033 -0.004903 -0.002098 -1371350.000000 1 0 0
-14.712058 -3.331923 10.111528 18.160103 0.222719 0.980269 0.016493 -0.010961 -209969.000000 1 0 0
-0.518458 6.894877 12.821328 14.566900 -1.495743 0.494579 -0.001205 0.000362 -1109720.000000 1 0 0
-1.789558 -2.333723 19.402928 19.624535 0.916614 0.150424 0.013793 -0.010535 -56246.900000 1 0 0
-12.660658 10.308177 7.234128 17.857306 -0.683334 1.153700 -0.001303 -0.018840 313800.000000 1 0 0
-19.630258 2.274577 6.801828 20.899416 -0.115357 1.239303 0.045944 -0.023445 740392.000000 1 0 0
-16.173858 8.427677 6.812228 19.468587 -0.480359 1.213323 0.016489 -0.001556 282945.000000 1 0 0
-12.377058 7.221477 13.650528 19.790862 -0.528166 0.809668 0.016606 0.000006 381508.000000 1 0 0
-15.897458 8.122177 10.294328 20.607574 -0.472338 1.047728 0.004881 -0.008752 -172558.000000 1 0 0
2.003442 10.919177 15.105728 18.746339 1.389335 0.633778 -0.003059 -0.008739 -755762.000000 1 0 0
2.106942 14.430277 12.802828 19.405786 1.425812 0.850320 -0.004274 -0.003143 -877152.000000 1 0 0
-3.167058 13.759477 11.791928 18.395734 -1.344564 0.874977 -0.003048 -0.008145 -42063.800000 1 0 0
9.043542 4.858577 15.731528 18.784898 0.492996 0.578185 0.020017 -0.002300 -458567.000000 1 0 0
-0.357058 12.630077 12.755528 17.954104 -1.542533 0.780656 -0.006319 -0.009916 -644864.000000 1 0 0
3.818142 13.395377 14.566628 20.154429 1.293125 0.763022 0.004324 -0.003050 15587.200000 1 0 0
-3.055158 -4.146623 -13.796772 14.726826 0.935808 2.784298 0.003665 -0.006196 -129993.000000 1 0 0
5.928342 -11.595123 16.255328 20.828533 -1.098166 0.675434 -0.005101 -0.002012 153670.000000 1 0 0
7.674842 -13.558423 7.239128 17.179610 -1.055709 1.135831 -0.007756 -0.005228 -326066.000000 1 0 0
-0.085358 15.558377 1.393328 15.620876 -1.565310 1.481481 -0.003391 -0.005638 -3054920.000000 1 0 0
-13.645458 8.279577 9.062628 18.354322 -0.545378 1.054388 0.001570 -0.004815 561074.000000 1 0 0
-15.404558 -9.794623 4.871628 18.893591 0.566347 1.310005 0.004698 0.002659 -2060800.000000 1 0 0
9.554442 -11.216823 11.087328 18.439992 -0.865261 0.925713 0.009260 -0.004366 -97168.200000 1 0 0
-5.766858 -10.529723 -16.856872 20.695068 1.069740 2.522725 0.015939 -0.000336 25908.300000 1 0 0
-1.910858 -12.662023 -15.064372 19.771533 1.421014 2.437072 0.012428 0.000413 -38569.100000 1 0 0
5.360842 -15.944023 -12.383472 20.887816 -1.246442 2.205397 0.012149 -0.003442 275762.000000 1 0 0
2.748242 -12.075923 -16.605672 20.715431 -1.347027 2.500778 0.019947 -0.006316 232819.000000 1 0 0
0.198642 -14.358323 -14.070972 20.104555 -1.556963 2.346039 0.019186 0.003006 244664.000000 1 0 0
-6.240458 -5.873023 -14.487072 16.831844 0.755075 2.607428 -0.000603 -0.005694 26509.000000 1 0 0
-6.202958 -8.074223 -17.100972 19.902588 0.915722 2.604566 0.002528 -0.005090 129547.000000 1 0 0
-2.665558 -16.327223 -13.191972 21.159195 1.408966 2.243960 0.016931 -0.006505 326164.000000 1 0 0
16.383042 -8.109123 -9.036372 20.391615 -0.459616 2.029896 0.028420 -0.004959 62105.300000 1 0 0
19.021242 -3.296823 -3.505472 19.620526 -0.171618 1.750424 0.016720 -0.007075 188183.000000 1 0 0
15.665142 -11.700223 -8.547272 21.338879 -0.641511 1.982913 0.023340 -0.006996 122616.000000 1 0 0
18.313942 -3.128823 -6.794472 19.782691 -0.169210 1.921390 0.115992 -0.001138 -311266.000000 1 0 0
9.189842 -9.956823 -15.879072 20.874301 -0.825435 2.435187 0.041659 0.002806 84364.200000 1 0 0
-4.662858 9.928477 -15.985672 19.387074 -1.131726 2.540208 0.012404 -0.002964 320114.000000 1 0 0
2.658242 -9.510223 -18.610872 21.068345 -1.298238 2.653773 0.020099 -0.001807 257641.000000 1 0 0
11.118842 8.057477 -15.133272 20.434469 0.627091 2.404723 0.023503 -0.033644 311034.000000 1 0 0
18.492942 -6.562823 -8.756472 21.488028 -0.341018 1.990516 0.020636 0.003134 94952.500000 1 0 0
12.665642 5.690877 -13.228572 19.178105 0.422285 2.331974 0.013327 -0.021831 77236.100000 1 0 0
15.792342 6.187877 -10.776372 20.095226 0.373442 2.136802 -0.003884 -0.010560 152402.000000 1 0 0
3.356742 -0.177823 -19.107272 19.400701 -0.052925 2.967450 0.024105 -0.011575 196200.000000 1 0 0
10.044042 -1.293523 -15.167172 18.237300 -0.128080 2.552881 0.008602 0.008699 104021.000000 1 0 0
12.224342 -6.009423 -14.145272 19.637628 -0.456901 2.375052 0.026290 0.004151 374930.000000 1 0 0
10.213042 6.754777 -13.003772 17.861448 0.584339 2.386249 0.010121 -0.005103 445607.000000 1 0 0
10.195342 5.871877 -15.943272 19.814436 0.522538 2.505847 -0.006690 -0.015225 317240.000000 1 0 0
11.435142 -11.036523 -14.950772 21.819553 -0.767661 2.325675 0.017035 0.004377 279327.000000 1 0 0
-1.469058 2.311377 -17.473272 17.686600 -1.004627 2.986120 0.003455 -0.002516 328080.000000 1 0 0
6.357442 -1.040323 -17.064872 18.240318 -0.162201 2.780632 0.016773 0.003216 39972.600000 1 0 0
6.047342 -5.702323 -16.120472 18.137157 -0.756042 2.665537 -0.023681 0.002073 -76433.600000 1 0 0
-2.211258 -4.828823 -20.491272 21.168359 1.141368 2.887988 0.025240 -0.019081 399446.000000 1 0 0
15.690542 -0.345923 -13.247072 20.537714 -0.022043 2.271835 -0.002132 -0.002809 62585.000000 1 0 0
-3.916958 -0.404023 -18.371672 18.788936 0.102784 2.930450 0.000587 -0.005744 -8907.280000 1 0 0
4.324442 8.954577 -17.972172 20.539821 1.120897 2.636215 0.014662 -0.005993 208789.000000 1 0 0
10.005242 0.398777 -17.070572 19.790612 0.039836 2.611102 0.024527 -0.008917 -130334.000000 1 0 0
4.208742 4.919077 -18.550772 19.647951 0.863063 2.805826 0.008526 0.005655 443829.000000 1 0 0
-2.844758 -11.114623 -17.914572 21.273443 1.320228 2.571980 0.028663 -0.017040 319859.000000 1 0 0
7.096642 -8.989023 -15.510572 19.280630 -0.902504 2.505569 0.036831 -0.026424 81169.000000 1 0 0
10.158042 -12.707723 -10.847072 19.553286 -0.896446 2.158852 0.015862 0.006552 37311.300000 1 0 0
6.213042 6.929177 -16.563472 18.999053 0.839836 2.629672 0.011901 -0.023279 316751.000000 1 0 0
8.726142 1.765277 -20.164372 22.042315 0.199604 2.725816 0.025978 -0.002651 116151.000000 1 0 0
-0.979858 -0.798623 -20.381872 20.421034 0.683844 3.079652 0.019772 -0.000189 106461.000000 1 0 0
-1.283858 7.044677 -19.386572 20.666760 -1.390530 2.787772 0.007191 -0.003438 -46015.100000 1 0 0
8.706342 5.829877 -18.130772 20.940696 0.590039 2.617574 0.016288 -0.009693 181873.000000 1 0 0
12.236042 -0.074923 -13.453272 18.185623 -0.006123 2.403532 0.011920 0.008387 -9504.570000 1 0 0
-3.946358 -2.421923 -19.843072 20.376137 0.550440 2.912350 -0.013123 -0.002725 401980.000000 1 0 0
5.681142 -11.290823 -14.450172 19.198060 -1.104620 2.422933 -0.005811 -0.010347 75192.800000 1 0 0
11.420542 2.925677 -15.722472 19.651578 0.250784 2.498194 0.014144 0.002328 -257214.000000 1 0 0
-2.986258 -4.250223 -17.059172 17.832484 0.958319 2.846017 0.008351 -0.009086 461301.000000 1 0 0
-6.756258 -4.857823 -17.458672 19.340390 0.623371 2.696812 0.015248 -0.008271 -1107.280000 1 0 0
2.947842 10.827877 -15.514972 19.148030 1.304993 2.515400 -0.001804 -0.000873 202006.000000 1 0 0
17.012642 -6.063223 -10.911472 21.101016 -0.342361 2.114263 0.038274 -0.013201 -158575.000000 1 0 0
9.623242 -3.465823 -17.722372 20.462189 -0.345689 2.618150 0.011856 -0.003012 44579.300000 1 0 0
-7.323758 -1.501323 -18.614872 20.060032 0.202192 2.759693 0.005599 -0.002155 504046.000000 1 0 0
1.665442 -7.380723 -19.236972 20.671475 -1.348866 2.766858 0.025657 -0.020845 252021.000000 1 0 0
5.535642 9.883477 -14.120772 18.103112 1.060239 2.465493 -0.000722 -0.015820 404801.000000 1 0 0
6.123142 -3.707023 -18.029772 19.398649 -0.544389 2.763673 0.024462 -0.012078 479670.000000 1 0 0
4.752942 13.379377 -14.538172 20.321335 1.229458 2.368013 0.001298 -0.010236 69865.200000 1 0 0
9.146342 11.224377 -15.522972 21.227456 0.887057 2.390976 0.021350 -0.021341 18204.300000 1 0 0
17.328842 1.219877 -11.713172 20.951737 0.070280 2.164042 0.035961 0.011470 246256.000000 1 0 0
14.477642 -3.155723 -12.421572 19.335360 -0.214615 2.268458 0.012218 0.002468 32519.700000 1 0 0
-8.976358 0.410977 -17.376972 19.562798 -0.045752 2.664353 0.022763 -0.010262 454707.000000 1 0 0
-3.527258 4.639877 -18.895472 19.773944 -0.920796 2.842398 0.017587 0.001598 10309.800000 1 0 0
4.545442 2.658777 -16.865972 17.668932 0.529267 2.838960 0.012824 -0.008298 354063.000000 1 0 0
-5.178658 14.455577 -13.620172 20.525382 -1.226794 2.296386 0.023183 -0.007355 157163.000000 1 0 0
1.223242 9.210077 -17.890272 20.158960 1.438753 2.662601 0.010976 -0.006719 295405.000000 1 0 0
1.352042 -5.183023 -19.932772 20.639941 -1.315623 2.879068 0.025866 -0.003865 528673.000000 1 0 0
3.732542 -6.247523 -18.111972 19.519399 -1.032259 2.759526 0.024045 -0.015087 -589315.000000 1 0 0
-6.803258 7.629077 -16.024072 19.006789 -0.842556 2.573764 -0.001779 0.006136 90434.300000 1 0 0
-11.623958 3.209677 -17.020172 20.859163 -0.269413 2.525178 0.017721 -0.010485 301296.000000 1 0 0
-4.449458 7.130377 -17.204172 19.147415 -1.012906 2.687163 0.002229 0.010989 329004.000000 1 0 0
-8.206058 5.472377 -17.718172 20.278558 -0.588144 2.633634 0.012610 -0.002460 239355.000000 1 0 0
-8.298758 4.341477 -14.990272 17.675578 -0.481994 2.583144 -0.009699 -0.012404 465000.000000 1 0 0
9.603342 13.944577 -12.405372 20.989728 0.967709 2.203120 0.025616 -0.023664 520652.000000 1 0 0
13.213942 9.465077 -11.956772 20.178215 0.621579 2.205028 -0.017814 -0.020916 55867.100000 1 0 0
8.885142 15.527977 -9.939472 20.465995 1.051067 2.077912 0.015155 -0.010126 104088.000000 1 0 0
8.143142 13.743777 -14.182572 21.362292 1.035912 2.296827 0.018470 -0.022268 110158.000000 1 0 0
4.520242 15.503177 -13.331772 20.940803 1.287092 2.260931 0.009952 -0.008130 165264.000000 1 0 0
10.687342 11.549377 -10.602872 18.974412 0.824145 2.163733 0.008375 -0.031240 -222107.000000 1 0 0
15.813242 10.400077 -10.621372 21.703313 0.581756 2.082186 0.025076 0.000416 107001.000000 1 0 0
13.420142 11.246577 -9.853672 20.091804 0.697508 2.083382 0.042591 -0.011747 112064.000000 1 0 0
10.769642 11.708777 -7.156572 17.444116 0.827153 1.993532 0.011605 -0.006051 56769.300000 1 0 0
5.643242 17.086177 -10.382972 20.774738 1.251795 2.094151 0.044898 -0.003868 28907.200000 1 0 0
11.710242 13.584577 -10.195272 20.630417 0.859363 2.087695 0.047425 -0.026538 167330.000000 1 0 0
7.993842 -19.446723 -1.583072 21.085129 -1.180789 1.645947 0.023408 -0.008225 262279.000000 1 0 0
7.598642 -16.850023 -3.903972 18.891893 -1.147147 1.778944 0.013650 -0.010292 260952.000000 1 0 0
3.876042 -19.024223 5.678628 20.228484 -1.369805 1.286248 0.023010 -0.008936 1274.570000 1 0 0
10.056042 -18.071823 -2.567872 20.840075 -1.063016 1.694328 0.016934 -0.000709 538572.000000 1 0 0
-3.135258 -14.748823 7.748928 16.952979 1.361337 1.096083 0.003120 -0.026615 54870.800000 1 0 0
-15.343858 -12.593823 -4.173672 20.284425 0.687280 1.778034 0.006848 -0.009154 126604.000000 1 0 0
-9.716858 -12.351523 -7.133572 17.258774 0.904222 1.996905 0.027694 -0.012235 209558.000000 1 0 0
-11.407158 -15.625623 7.061228 20.594763 0.940200 1.220831 0.012663 0.005201 363632.000000 1 0 0
-15.754858 -7.910523 -8.271772 19.473421 0.465327 2.009507 0.077566 -0.006524 -322367.000000 1 0 0
5.193942 -15.643123 5.586328 17.403775 -1.250222 1.244028 0.015682 -0.011356 146956.000000 1 0 0
2.893442 -14.277423 9.065028 17.157842 -1.370846 1.014162 -0.002420 0.002643 355743.000000 1 0 0
3.080742 -17.642423 10.017728 20.520744 -1.397918 1.060798 0.000984 0.007184 255185.000000 1 0 0
-7.747358 -17.238423 -5.424072 19.662282 1.148422 1.850282 -0.017427 -0.010771 33046.300000 1 0 0
1.788642 -19.945123 -3.986472 20.418108 -1.481357 1.767301 0.012991 -0.005986 98130.600000 1 0 0
-16.883158 -10.801123 -2.628772 20.214245 0.569141 1.701211 -0.091695 -0.011755 -271634.000000 1 0 0
-4.341858 -14.874923 2.627728 15.716870 1.286795 1.402816 -0.001087 0.004388 201345.000000 1 0 0
-10.709058 -9.671623 -14.774372 20.652028 0.734539 2.367987 0.016866 0.001361 214527.000000 1 0 0
0.466442 -20.311023 2.693628 20.494166 -1.547835 1.438981 0.007835 -0.012224 354073.000000 1 0 0
5.458142 -18.660523 0.812028 19.459337 -1.286237 1.529055 0.007929 0.000504 298647.000000 1 0 0
-7.853458 -18.822523 -3.773472 20.741342 1.175519 1.753745 0.000082 -0.010496 112279.000000 1 0 0
-9.591658 -15.323823 -7.714872 19.655500 1.011528 1.974149 0.029964 -0.012860 50288.900000 1 0 0
-11.878058 -11.034623 -12.948772 20.749021 0.748604 2.244733 0.024036 0.016368 247013.000000 1 0 0
-13.421658 -15.025823 -3.575072 20.462096 0.841729 1.746414 0.012018 -0.006437 157154.000000 1 0 0
-0.779658 -20.595623 -2.411772 20.751004 1.532959 1.687284 -0.003156 -0.010055 373086.000000 1 0 0
-12.502458 -16.442823 -0.834172 20.673019 0.920698 1.611158 0.028408 -0.009907 163070.000000 1 0 0
0.862142 -19.801323 5.555128 20.583856 -1.527284 1.297530 0.014012 -0.022512 185177.000000 1 0 0
-18.260558 -9.537623 2.655228 20.771722 0.481334 1.442617 0.016499 0.002262 50479.800000 1 0 0
-15.284958 -14.707123 -1.154872 21.242955 0.766134 1.625188 0.027790 -0.000095 -148888.000000 1 0 0
9.983242 -15.785823 -4.705072 19.261231 -1.006880 1.817570 0.019824 -0.002941 -29169.800000 1 0 0
-0.346558 -19.234923 -7.030272 20.482360 1.552781 1.921156 0.003329 -0.006167 173796.000000 1 0 0
-10.105758 -17.046823 -2.931772 20.032868 1.035670 1.717672 0.009650 0.000899 585842.000000 1 0 0
-14.489758 -6.610523 -11.417772 19.596367 0.428015 2.192779 0.014813 -0.008684 -11776.400000 1 0 0
-11.589858 -15.421623 2.334728 19.431989 0.926315 1.450357 0.004559 0.004221 -130238.000000 1 0 0
-2.386558 -16.491223 10.324628 19.602398 1.427077 1.016080 -0.009853 -0.000221 409516.000000 1 0 0
-12.446758 -14.294523 -6.620272 20.076931 0.854386 1.906830 0.011033 -0.005779 196268.000000 1 0 0
5.244342 -16.941823 -7.016872 19.072624 -1.270601 1.947549 0.002267 -0.009433 -120541.000000 1 0 0
-17.615758 -7.438023 -2.905072 19.341110 0.399528 1.721569 -0.011473 -0.005040 -134718.000000 1 0 0
-12.047158 -13.542323 -9.647072 20.532767 0.843761 2.059903 0.021918 -0.011917 57634.600000 1 0 0
-7.567058 -14.441023 9.881928 19.064522 1.088136 1.025886 0.002578 0.007588 491016.000000 1 0 0
-15.756758 -7.823523 -5.841072 18.536479 0.460859 1.891371 0.008843 -0.004554 233131.000000 1 0 0
-0.936258 -19.848423 -0.053572 19.870564 1.523661 1.573492 0.000820 -0.002672 108007.000000 1 0 0
-14.879758 -11.227423 -1.549272 18.704611 0.646403 1.653720 -0.008294 -0.003944 27085.100000 1 0 0
-7.185758 -18.776223 1.105228 20.134626 1.205288 1.515877 -0.007449 -0.005586 285819.000000 1 0 0
-2.331258 -20.945123 -5.179872 21.701705 1.459949 1.811808 -0.000047 -0.003004 -80134.400000 1 0 0
-8.645358 -19.912023 -1.528372 21.761589 1.161178 1.641087 -0.014241 0.020140 251430.000000 1 0 0
-17.839558 -7.478723 5.101428 20.005141 0.396966 1.312943 0.019409 -0.004120 15223.100000 1 0 0
-2.978058 -15.738323 -10.752572 19.292004 1.383784 2.161998 0.016652 -0.005087 100294.000000 1 0 0
-2.851158 -17.953223 -8.748472 20.173821 1.413301 2.019341 0.007806 -0.009909 263445.000000 1 0 0
3.869742 -18.022123 -6.010672 19.388140 -1.359286 1.886008 0.004816 0.029226 370947.000000 1 0 0
0.497142 -17.466323 -9.287572 19.788344 -1.542341 2.059346 0.001838 -0.000349 50127.400000 1 0 0
-7.562458 -9.793523 -14.436972 19.013943 0.913244 2.433008 0.002958 -0.011070 17295.400000 1 0 0
-5.204858 -19.655723 -2.059472 20.437206 1.311936 1.671738 -0.004406 -0.001361 508305.000000 1 0 0
-8.672558 -16.118323 8.310628 20.101744 1.077170 1.144580 -0.020482 0.002933 336594.000000 1 0 0
-7.213458 -15.373123 -10.203672 19.811153 1.132070 2.111859 0.014809 -0.001449 337676.000000 1 0 0
-12.487758 -8.196823 -12.524472 19.493445 0.580853 2.268548 0.017198 -0.002421 89432.600000 1 0 0
-15.606558 -13.286523 2.935028 20.705331 0.705273 1.428565 0.008886 0.005998 92313.100000 1 0 0
-6.469258 -14.278323 -13.074872 20.412596 1.145382 2.265984 0.013641 0.002489 437554.000000 1 0 0
-14.137458 -11.487423 -6.700872 19.409541 0.682348 1.923287 0.016886 -0.013407 199167.000000 1 0 0
-12.064458 -10.269023 -8.472072 17.966078 0.705179 2.061855 0.031042 -0.003775 265226.000000 1 0 0
-9.859058 -14.799623 3.262528 18.079655 0.983138 1.389349 -0.004269 0.003573 282223.000000 1 0 0
5.111742 -17.820623 8.297928 20.311576 -1.291452 1.149951 0.025777 -0.025325 215829.000000 1 0 0
-4.881658 -16.652923 4.876528 18.025841 1.285644 1.296853 -0.009606 0.003737 368328.000000 1 0 0
-18.359058 -7.175723 -7.119172 20.957782 0.372598 1.917385 0.004050 -0.012512 41968.300000 1 0 0
-16.779658 -3.371723 -10.856272 20.267809 0.198300 2.136063 0.024329 -0.014041 -180054.000000 1 0 0
-15.873158 -4.088123 -12.912172 20.866099 0.252071 2.238025 0.029030 -0.015977 373466.000000 1 0 0
-19.482058 -5.365323 -5.634872 20.978299 0.268736 1.842741 0.034088 -0.002776 -247110.000000 1 0 0
5.194242 -13.698023 8.785028 17.081940 -1.208352 1.030620 0.002992 0.002165 253098.000000 1 0 0
20.051542 -3.551923 2.747328 20.548195 -0.175321 1.436693 0.039783 -0.008549 19043.000000 1 0 0
18.179642 -2.668223 0.155428 18.375063 -0.145729 1.562338 0.023189 -0.009495 288661.000000 1 0 0
14.460542 -11.690823 0.231728 18.596675 -0.679880 1.558335 0.040024 0.004589 70330.100000 1 0 0
11.127742 -13.830723 5.261328 18.514781 -0.893277 1.282657 0.018683 -0.003581 537588.000000 1 0 0
10.021042 -13.242023 9.223228 18.995799 -0.922982 1.063815 0.015418 -0.002177 236970.000000 1 0 0
17.740242 5.065677 -4.771172 19.056268 0.278145 1.823862 -0.008210 0.008012 -159868.000000 1 0 0
18.811842 -6.142323 -4.713472 20.342821 -0.315600 1.804623 0.023774 -0.005610 -77053.100000 1 0 0
17.633442 -10.119123 -0.629672 20.340389 -0.520977 1.601758 0.031906 -0.001055 218820.000000 1 0 0
17.336442 -8.329823 9.563128 21.480028 -0.447910 1.109387 0.046131 -0.004671 -117910.000000 1 0 0
19.902942 -0.018123 -2.190572 20.023138 -0.000911 1.680418 0.034797 -0.000799 -5741.090000 1 0 0
7.315042 -13.608723 11.576928 19.306280 -1.077581 0.927738 0.000560 0.007799 327093.000000 1 0 0
16.035442 -6.889123 -3.332272 17.767933 -0.405776 1.759458 0.023555 0.000074 283173.000000 1 0 0
14.064142 -7.864523 12.646028 20.483477 -0.509871 0.905392 0.013215 -0.009082 64874.600000 1 0 0
16.752642 1.086177 10.134428 19.609626 0.064746 1.027677 0.082450 -0.023026 410822.000000 1 0 0
16.744542 -10.252123 2.803428 19.832925 -0.549390 1.428969 0.025452 -0.000700 408634.000000 1 0 0
16.182642 -7.344623 -5.929772 18.734556 -0.426058 1.892850 0.029544 -0.000194 100950.000000 1 0 0
18.081442 -4.111423 5.901428 19.459424 -0.223582 1.262676 0.073477 -0.013558 -27383.800000 1 0 0
13.102042 -13.380423 8.105628 20.405892 -0.795910 1.162311 0.017499 -0.012202 206414.000000 1 0 0
15.365942 -14.442223 -1.800672 21.164413 -0.754419 1.655979 0.043937 0.001430 214073.000000 1 0 0
18.602742 -6.387323 7.880628 21.188775 -0.330742 1.189715 0.047145 -0.015094 85747.000000 1 0 0
19.615642 3.813177 2.681528 20.161953 0.192000 1.437402 0.012410 -0.004091 291727.000000 1 0 0
15.606742 -10.475623 8.149528 20.487164 -0.591151 1.161693 0.034185 -0.029767 308851.000000 1 0 0
14.190242 -4.952223 10.997328 18.623338 -0.335773 0.939102 0.029903 -0.002470 -185138.000000 1 0 0
18.665942 -7.913423 1.754128 20.349855 -0.400981 1.484491 0.030095 -0.006923 241584.000000 1 0 0
18.817342 -5.357623 -1.732472 19.641740 -0.277378 1.659115 0.012155 -0.000283 293135.000000 1 0 0
14.365042 -13.739823 -6.430272 20.892237 -0.763156 1.883658 0.030704 -0.013777 479796.000000 1 0 0
13.830242 -9.574923 10.011928 19.575327 -0.605551 1.033917 0.011249 -0.017907 453320.000000 1 0 0
14.381242 2.142877 0.658528 14.554920 0.147917 1.525537 0.003051 -0.001041 -91438.500000 1 0 0
12.974942 2.935277 13.687528 19.086995 0.222482 0.771146 0.043179 -0.014232 330271.000000 1 0 0
18.152142 -3.433023 9.008028 20.553113 -0.186917 1.117112 0.041179 -0.016586 59172.900000 1 0 0
7.004142 -18.564023 5.126528 20.492980 -1.210014 1.317951 0.014159 -0.021512 388538.000000 1 0 0
12.668642 -2.631323 15.243428 19.994510 -0.204792 0.703812 0.023742 0.004376 289134.000000 1 0 0
11.203442 -13.518823 -7.187472 18.971964 -0.878781 1.959346 0.013317 -0.011184 155978.000000 1 0 0
10.677142 -17.392723 4.401128 20.877694 -1.020229 1.358398 0.021498 -0.018856 641735.000000 1 0 0
18.315742 -0.617823 -5.591172 19.160097 -0.033719 1.866918 0.025487 -0.000423 194616.000000 1 0 0
4.232342 -13.513623 11.454828 18.213835 -1.267282 0.890648 -0.010393 -0.002176 159121.000000 1 0 0
9.252442 -2.779123 14.362328 17.309179 -0.291793 0.592133 0.014505 -0.003923 447935.000000 1 0 0
8.764642 -9.087423 14.362728 19.122974 -0.803477 0.721112 -0.006739 -0.000357 295467.000000 1 0 0
20.945042 5.635077 -3.085372 21.908181 0.262818 1.712098 0.030182 -0.002377 457856.000000 1 0 0
14.834642 -13.569223 1.931328 20.197040 -0.740877 1.475026 0.030156 0.000568 212453.000000 1 0 0
11.068142 0.187977 13.773128 17.670262 0.016982 0.677005 0.025471 -0.032983 179340.000000 1 0 0
19.755842 -0.048823 7.560328 21.153114 -0.002471 1.205303 0.088511 -0.012030 21565.600000 1 0 0
19.806242 0.982477 0.727228 19.843925 0.049564 1.534141 0.020159 -0.010116 283643.000000 1 0 0
17.957642 0.577977 2.979128 18.212253 0.032174 1.406480 0.018642 -0.007222 -44274.300000 1 0 0
10.233342 -8.235423 16.494328 21.085690 -0.677639 0.672523 0.013674 -0.006237 75055.400000 1 0 0
19.046342 2.999777 5.620228 20.083545 0.156216 1.287166 0.025838 0.001582 189319.000000 1 0 0
15.295242 2.485677 7.024028 17.013524 0.161105 1.145216 0.036592 -0.010083 23239.300000 1 0 0
11.368442 -16.044923 2.048228 19.770591 -0.954363 1.467010 0.007610 0.000150 314096.000000 1 0 0
8.535742 -16.328023 6.874428 19.665222 -1.089102 1.213681 0.009062 -0.004101 404334.000000 1 0 0
6.030042 6.839977 7.151428 11.588340 0.848247 0.905716 -0.000186 0.001972 -801389.000000 1 0 0
18.537142 2.169877 -6.472272 19.754096 0.116525 1.904603 0.012114 0.004746 135010.000000 1 0 0
14.318242 4.374777 -7.059772 16.552677 0.296530 2.011420 0.006012 -0.006744 295877.000000 1 0 0
-10.270758 -3.635323 -14.315272 17.989749 0.340188 2.491035 0.002657 0.003375 -81032.200000 1 0 0
7.843042 -14.147223 -10.581772 19.329540 -1.064591 2.150099 0.003866 0.001530 104080.000000 1 0 0
2.017742 -15.612023 14.027428 21.084953 -1.442266 0.842926 -0.011439 -0.002537 321249.000000 1 0 0
-9.597058 -7.996823 2.306528 12.703258 0.694694 1.388214 -0.003591 0.003044 461731.000000 1 0 0
-13.825258 3.163777 -10.015972 17.362803 -0.224967 2.185680 0.019125 0.001422 145763.000000 1 0 0
-12.662358 -4.740623 -13.607272 19.182457 0.358233 2.359386 0.010507 -0.001878 132772.000000 1 0 0
-17.990558 -0.980623 -8.150972 19.775241 0.054454 1.995643 0.053113 -0.026098 134076.000000 1 0 0
-12.400158 15.045777 3.719328 19.848746 -0.881495 1.382299 0.017628 -0.024871 245339.000000 1 0 0
-17.103258 6.414877 9.279828 20.488711 -0.358830 1.100754 0.001951 -0.005947 -23119.200000 1 0 0
-13.835258 15.316577 0.042428 20.640099 -0.836168 1.568741 0.028681 -0.032998 185627.000000 1 0 0
-15.842258 5.350377 -10.712772 19.858680 -0.325701 2.140581 0.016792 0.004497 -1908.760000 1 0 0
-18.480558 3.127577 0.010428 18.743342 -0.167648 1.570240 0.047638 -0.003096 17060.800000 1 0 0
-9.871158 15.440377 -0.240872 18.327658 -1.001974 1.583939 0.014903 -0.014275 1913.650000 1 0 0
-18.013658 12.273677 2.211228 21.909463 -0.598102 1.469699 0.041585 -0.013219 101238.000000 1 0 0
-8.289458 16.392077 -7.956772 20.018130 -1.102600 1.979563 0.032032 -0.018839 17851.600000 1 0 0
-14.986858 -1.748023 -13.281172 20.101021 0.116112 2.292576 0.015801 -0.010829 85910.400000 1 0 0
-19.011158 5.278377 -4.598172 20.259037 -0.270825 1.799761 0.036833 0.005010 -40088.700000 1 0 0
-16.634258 9.598077 -5.693372 20.030879 -0.523341 1.858999 0.027661 0.011768 -32520.000000 1 0 0
-18.937458 1.429077 2.500328 19.155188 -0.075320 1.439893 0.018445 -0.016351 533913.000000 1 0 0
-13.366858 11.777977 -6.745372 19.049769 -0.722293 1.932739 0.015527 -0.015690 -173592.000000 1 0 0
-13.314958 5.371177 -13.164872 19.479515 -0.383429 2.312889 0.024100 -0.008849 -106218.000000 1 0 0
-13.869958 9.481577 -6.544672 18.030773 -0.599638 1.942252 0.008233 -0.002554 73965.600000 1 0 0
-6.380658 11.245277 -15.216572 19.967802 -1.054687 2.437278 0.007996 -0.032591 61962.800000 1 0 0
-15.117058 13.856377 2.997828 20.724662 -0.741914 1.425637 0.024810 -0.023322 -157447.000000 1 0 0
-18.570358 8.270777 -5.009372 20.936995 -0.419001 1.812399 0.034071 0.001043 220270.000000 1 0 0
-3.832258 16.916977 -10.025572 20.034531 -1.348023 2.094874 0.007578 -0.005459 157120.000000 1 0 0
-19.267558 -2.078723 -6.698872 20.504506 0.107471 1.903609 0.013327 -0.006180 -250909.000000 1 0 0
-10.903958 13.492977 -6.136672 18.401508 -0.891123 1.910797 0.016843 -0.030074 -38527.500000 1 0 0
-19.039958 2.878177 4.212028 19.711547 -0.150029 1.355453 0.018250 -0.012722 58292.700000 1 0 0
-15.591358 12.513577 0.368228 19.995391 -0.676322 1.552380 0.031424 -0.008642 11793.300000 1 0 0
-16.488458 1.809177 -9.033172 18.887577 -0.109287 2.069469 -0.038582 0.003705 156975.000000 1 0 0
-15.652458 14.408777 -4.300572 21.705005 -0.744050 1.770254 -0.019261 0.039588 -146262.000000 1 0 0
-10.475958 15.887977 -8.782372 20.959570 -0.987867 2.003156 0.014389 -0.013650 2898.610000 1 0 0
-19.121158 2.300877 -6.756172 20.409767 -0.119756 1.908187 0.026118 -0.007661 174011.000000 1 0 0
-17.389558 10.529977 -0.749972 20.343048 -0.544479 1.607671 0.037853 0.002795 -22809.400000 1 0 0
-11.611058 6.534777 -14.711272 19.847960 -0.512622 2.405650 0.006051 -0.009142 285492.000000 1 0 0
-13.043158 13.454277 -4.607472 19.296900 -0.800912 1.811893 0.025648 -0.003019 250698.000000 1 0 0
-18.786858 7.624877 -0.198872 20.276201 -0.385550 1.580605 0.021983 0.006314 291549.000000 1 0 0
-14.468958 9.000877 -9.870172 19.692304 -0.556498 2.095804 0.010173 -0.005601 474094.000000 1 0 0
-18.756658 11.801877 4.464328 22.605901 -0.561621 1.372005 0.030420 -0.007317 257993.000000 1 0 0
-8.231458 11.633777 -13.709972 19.775364 -0.955022 2.336834 -0.006772 -0.014535 438178.000000 1 0 0
-21.084958 -1.744923 -5.232772 21.794543 0.082569 1.813261 0.012370 -0.010269 295122.000000 1 0 0
-10.725558 13.652577 -3.616672 17.734452 -0.904894 1.776172 0.017438 -0.003589 285580.000000 1 0 0
-18.822358 -4.859523 3.735428 19.795190 0.252661 1.380954 0.022295 -0.005105 6806.920000 1 0 0
-11.450258 11.759777 -12.414172 20.579418 -0.798733 2.218344 0.014991 -0.008982 95868.500000 1 0 0
-14.852758 11.432277 -10.068572 21.276220 -0.655995 2.063751 0.019390 -0.010630 212775.000000 1 0 0
-12.835458 10.023277 -13.591272 21.211736 -0.662989 2.266262 0.026814 -0.014690 217802.000000 1 0 0
-17.662558 -5.063423 -3.212772 18.652777 0.279188 1.743900 -0.056869 -0.002182 -374275.000000 1 0 0
-9.433958 12.764177 -11.350272 19.512879 -0.934310 2.191590 0.021406 -0.013457 -61190.500000 1 0 0
-15.363258 7.794477 -8.247772 19.099982 -0.469507 2.017307 0.001473 0.008264 -38640.800000 1 0 0
-14.349158 9.141377 1.954428 17.125504 -0.567230 1.456423 0.012834 -0.001522 -87978.200000 1 0 0
-19.460158 6.303177 8.177928 22.029668 -0.313238 1.190470 0.032176 -0.002232 317240.000000 1 0 0
-18.340658 5.831777 3.912928 19.639256 -0.307860 1.370214 -0.005971 0.003521 155989.000000 1 0 0
-14.701158 12.601077 6.012028 20.274508 -0.708630 1.269738 0.019266 -0.016639 -115010.000000 1 0 0
17.940842 6.032477 5.291428 19.653595 0.324367 1.298198 0.010281 -0.013640 187776.000000 1 0 0
18.397042 7.961577 0.376628 20.049432 0.408428 1.552010 0.013953 -0.000758 -3744.080000 1 0 0
17.493642 4.970177 8.511928 20.079420 0.276819 1.133035 0.061104 0.001799 -4060.800000 1 0 0
12.313042 12.987477 10.685928 20.844055 0.812049 1.032515 0.030680 -0.004139 240090.000000 1 0 0
15.870842 12.151677 3.893528 20.364343 0.653449 1.378418 0.041146 -0.013825 130969.000000 1 0 0
5.429542 10.701377 14.299928 18.667816 1.101271 0.698169 0.003551 0.000681 301827.000000 1 0 0
13.208142 12.985277 -5.427172 19.300949 0.776890 1.855827 0.027161 -0.007372 298333.000000 1 0 0
17.513442 9.050877 -2.912372 19.927894 0.476994 1.717467 -0.016272 -0.006106 -178060.000000 1 0 0
14.686742 7.399777 9.391228 18.938117 0.466715 1.051937 0.025869 -0.000453 86356.000000 1 0 0
4.489642 19.073577 -1.448972 19.648353 1.339619 1.644609 0.006837 -0.010394 455442.000000 1 0 0
-4.246558 18.786577 2.890428 19.476224 -1.348490 1.421838 -0.007738 -0.026165 142397.000000 1 0 0
6.974342 14.058277 12.091628 19.811211 1.110272 0.914303 0.018021 0.020915 67311.000000 1 0 0
0.462842 17.055977 -10.114272 19.834795 1.543666 2.105895 0.016262 0.000658 35416.500000 1 0 0
10.336342 9.237277 16.053228 21.210219 0.729307 0.712297 0.021938 -0.000611 -49812.800000 1 0 0
-1.202458 12.271077 1.156928 12.384011 -1.473117 1.477239 -0.002670 0.000321 553899.000000 1 0 0
-4.756258 19.082777 -2.591472 19.836585 -1.326530 1.701812 0.004505 0.001492 -17353.300000 1 0 0
6.123442 18.347277 6.391728 20.370894 1.248669 1.251638 0.028747 -0.025375 -38158.100000 1 0 0
11.196342 17.544677 -1.538072 20.869582 1.002788 1.644562 0.025968 -0.001069 414924.000000 1 0 0
18.435342 10.698777 2.619528 21.475279 0.525839 1.448513 0.014258 -0.008528 103848.000000 1 0 0
11.384442 16.071077 7.043928 20.916548 0.954468 1.227319 0.031848 -0.002963 71542.300000 1 0 0
18.160842 7.400677 -6.016072 20.512907 0.386961 1.868455 0.007376 0.007691 292089.000000 1 0 0
0.394942 15.539677 10.816328 18.937542 1.545387 0.962880 -0.004121 -0.010205 363033.000000 1 0 0
1.530542 20.521577 -1.808972 20.657930 1.496352 1.658477 0.024675 0.003771 225836.000000 1 0 0
14.465742 9.667577 -1.297972 17.447191 0.589138 1.645259 0.007262 -0.007594 88680.400000 1 0 0
10.248942 17.031077 1.808428 19.959179 1.029070 1.480066 0.044383 -0.021371 249525.000000 1 0 0
0.815242 18.233577 -0.268372 18.253766 1.526115 1.585499 -0.000359 0.014080 -352942.000000 1 0 0
0.067742 20.863277 1.012628 20.887947 1.567549 1.522298 0.014872 -0.005642 292966.000000 1 0 0
5.929942 17.108677 -0.383372 18.111268 1.237150 1.591966 0.012779 -0.027086 -6747.430000 1 0 0
6.634642 18.465277 -2.620272 19.795221 1.225857 1.703555 -0.002270 -0.008898 14546.400000 1 0 0
10.237242 9.649877 12.802628 19.021791 0.755872 0.832471 0.007789 0.001630 139734.000000 1 0 0
13.265542 14.976477 8.019928 21.554320 0.845905 1.189548 0.030957 -0.003406 99572.900000 1 0 0
0.296942 17.733677 6.678928 18.952033 1.554053 1.210649 0.002818 -0.011626 227554.000000 1 0 0
7.339842 17.746677 -8.140072 20.858538 1.178630 1.971701 0.015624 -0.012913 -78758.500000 1 0 0
-1.463158 18.493677 9.093228 20.660197 -1.491844 1.115050 0.040070 -0.024067 120072.000000 1 0 0
15.740242 6.488277 -7.740172 18.701958 0.390987 1.997497 0.003020 -0.001726 -219215.000000 1 0 0
-5.241458 19.665477 -6.654672 21.412346 -1.310321 1.886817 -0.002788 -0.009655 228903.000000 1 0 0
3.792142 15.422677 9.753828 18.638038 1.329698 1.020043 0.010184 -0.011503 167685.000000 1 0 0
8.667342 15.004877 7.457928 18.865043 1.046984 1.164369 0.010777 -0.002874 -83531.800000 1 0 0
-2.572358 19.504777 6.412228 20.692270 -1.439670 1.255724 0.004592 -0.011224 179886.000000 1 0 0
4.635842 18.135177 8.121128 20.404127 1.320529 1.161445 0.024291 -0.016269 252544.000000 1 0 0
13.754742 10.937577 -7.040572 18.931275 0.671799 1.951853 -0.056828 -0.029027 8439.570000 1 0 0
11.694142 7.071777 15.710528 20.822672 0.543889 0.715917 0.040435 -0.011600 222233.000000 1 0 0
17.539042 9.063577 4.611528 20.273940 0.476970 1.341327 0.038868 -0.012109 244839.000000 1 0 0
4.179142 15.607377 12.038028 20.148687 1.309167 0.930467 -0.014148 0.012183 326821.000000 1 0 0
15.901842 10.976377 -3.848072 19.701703 0.604158 1.767377 0.016963 0.002132 142667.000000 1 0 0
15.338042 13.873377 6.191328 21.588392 0.735300 1.279922 0.033701 -0.000174 425312.000000 1 0 0
12.929342 14.451877 -8.216772 21.060389 0.840946 1.971594 0.056335 -0.013697 242220.000000 1 0 0
-8.212858 15.589877 9.687628 20.108343 -1.085934 1.068121 0.005719 -0.010843 182442.000000 1 0 0
-3.665958 16.507777 -7.211772 18.383569 -1.352268 1.973921 -0.006947 -0.013113 49312.500000 1 0 0
1.892142 19.882377 -4.396372 20.450360 1.475915 1.787465 0.004157 -0.006817 105089.000000 1 0 0
7.069842 16.670477 8.956028 20.201434 1.169694 1.111479 0.019659 -0.006501 626836.000000 1 0 0
13.616542 15.286277 -1.548072 20.529906 0.843105 1.646274 0.054500 -0.013701 168507.000000 1 0 0
12.633642 16.674677 4.423828 21.382798 0.922414 1.362404 0.036142 -0.018175 324241.000000 1 0 0
2.779442 18.266777 0.582428 18.486202 1.419796 1.539285 0.020369 -0.018632 -55448.100000 1 0 0
-6.757358 18.009577 1.559928 19.298708 -1.211842 1.489877 -0.021831 0.018266 126183.000000 1 0 0
0.252042 20.041377 -6.094172 20.948968 1.558221 1.865970 0.026822 0.001088 243282.000000 1 0 0
-7.257858 18.122877 -6.393672 20.542498 -1.189876 1.887295 0.016566 -0.013578 -21168.800000 1 0 0
-7.279758 18.766577 -1.642872 20.195998 -1.200755 1.652233 0.012641 -0.005355 -77627.000000 1 0 0
-14.431458 -9.397423 8.978728 19.421536 0.577202 1.090200 0.014940 0.003082 294327.000000 1 0 0
-13.029158 -13.551623 7.941028 20.407483 0.805051 1.171117 0.013635 0.002396 55227.900000 1 0 0
-3.249258 -15.512823 12.889028 20.428715 1.364325 0.888049 -0.016264 0.004005 210064.000000 1 0 0
-2.306558 -13.853923 15.958228 21.258326 1.405818 0.721704 0.004558 -0.006178 457362.000000 1 0 0
-7.739658 -13.758823 13.085728 20.504726 1.058389 0.878663 -0.003252 -0.007664 243195.000000 1 0 0
-9.830958 -10.841223 11.815828 18.809403 0.834230 0.891575 0.017916 -0.007668 144223.000000 1 0 0
-7.122558 -10.599823 12.925728 18.170347 0.979144 0.779360 0.008253 -0.004187 441574.000000 1 0 0
-15.348358 -12.041423 6.979828 20.719217 0.665244 1.227198 0.024004 -0.002586 347818.000000 1 0 0
-4.555658 -12.926123 13.464728 19.212953 1.231951 0.794257 0.007883 0.000495 430370.000000 1 0 0
3.655742 -12.512723 13.890728 19.049541 -1.286546 0.753659 -0.014155 0.001106 501937.000000 1 0 0
6.329342 -13.658923 14.775728 21.093811 -1.136867 0.794731 -0.005392 0.007626 289899.000000 1 0 0
7.313942 -8.832623 16.704128 20.261709 -0.879178 0.601622 0.001805 -0.011237 482625.000000 1 0 0
-5.099058 13.334877 13.682728 19.774640 -1.205567 0.806633 -0.002583 -0.005713 451420.000000 1 0 0
-13.049058 -1.884423 17.687128 22.060450 0.143419 0.640566 -0.009931 0.009579 295137.000000 1 0 0
-10.025158 9.370677 13.161428 19.014115 -0.751668 0.806274 0.000453 -0.005252 286931.000000 1 0 0
-7.329358 -8.347823 16.926528 20.246308 0.850272 0.580788 0.014934 -0.007582 46080.300000 1 0 0
-5.201358 2.371277 18.007528 18.893071 -0.427746 0.307383 0.010393 -0.007857 604092.000000 1 0 0
-15.304358 -3.464923 14.787128 21.561266 0.222648 0.815068 0.005755 -0.005169 41502.300000 1 0 0
-14.501758 2.918977 12.478028 19.352586 -0.198630 0.870070 0.000980 0.001443 273332.000000 1 0 0
-14.052458 10.845077 9.667328 20.212484 -0.657281 1.072096 -0.038143 0.011702 -214405.000000 1 0 0
-3.684358 11.176977 15.791628 19.694538 -1.252375 0.640449 -0.011297 -0.013572 228187.000000 1 0 0
-12.984558 12.907677 7.473728 19.775325 -0.782429 1.183235 0.005171 -0.037654 26077.900000 1 0 0
-4.034458 -6.408923 18.642228 20.121724 1.008963 0.385866 0.025671 -0.011810 317182.000000 1 0 0
0.597842 -2.846623 18.185328 18.416482 -1.363787 0.158605 0.008250 -0.011357 -14808.800000 1 0 0
-4.408158 6.430177 21.020728 22.419858 -0.969840 0.355151 0.011768 -0.006906 309586.000000 1 0 0
2.377242 -10.696223 16.230828 19.583162 -1.352100 0.593809 -0.002411 -0.013926 267379.000000 1 0 0
-14.845958 -0.193723 14.087528 20.467008 0.013048 0.811648 -0.019676 0.013847 1333.100000 1 0 0
-13.950358 -5.967723 8.039228 17.171353 0.404225 1.083570 0.009942 -0.002614 88410.600000 1 0 0
10.040542 0.752277 16.742728 19.537076 0.074784 0.541431 0.033823 0.004108 670558.000000 1 0 0
-7.687358 12.648277 12.413728 19.317739 -1.024677 0.872899 0.010073 0.003789 61641.900000 1 0 0
-1.893258 7.445177 20.271728 21.678516 -1.321781 0.362236 0.018824 -0.011296 503517.000000 1 0 0
1.056942 -13.153823 15.319328 20.219347 -1.490616 0.711081 -0.017810 -0.019999 317279.000000 1 0 0
-3.574758 -11.549123 17.550828 21.311797 1.270623 0.603197 0.022487 -0.022697 351306.000000 1 0 0
-1.863358 8.758677 16.501228 18.774372 -1.361177 0.497197 0.008082 -0.020178 269900.000000 1 0 0
-4.794958 -9.346823 20.463428 23.002317 1.096800 0.474274 0.040852 -0.021746 213781.000000 1 0 0
-6.673158 -2.703523 19.210428 20.515375 0.384924 0.358592 0.012227 -0.008168 21892.900000 1 0 0
-10.796358 -8.136823 15.895728 20.867280 0.645842 0.704781 0.043319 -0.010248 307206.000000 1 0 0
-0.203658 6.543877 17.836828 19.000427 -1.539684 0.351785 0.008596 -0.002019 156447.000000 1 0 0
-6.269458 -10.980423 19.058828 22.871701 1.051998 0.585759 0.027062 -0.006926 519082.000000 1 0 0
-0.017058 3.333477 18.733328 19.027610 -1.565679 0.176103 0.005261 -0.006965 158822.000000 1 0 0
-17.844458 -1.349023 7.616128 19.448649 0.075455 1.168424 -0.003192 -0.002803 128349.000000 1 0 0
-1.685158 -8.676723 17.544328 19.645068 1.378968 0.466684 0.012329 -0.015451 156559.000000 1 0 0
5.809242 3.410977 15.187728 16.614727 0.530928 0.417483 0.000322 -0.002253 422660.000000 1 0 0
-14.067158 -6.889623 10.376928 18.789158 0.455427 0.985696 0.028422 -0.004894 183359.000000 1 0 0
3.316242 8.142777 17.121528 19.247052 1.184046 0.474402 0.009424 0.007943 98392.400000 1 0 0
6.225442 4.336277 17.707628 19.264462 0.608401 0.404787 0.011314 -0.017163 326406.000000 1 0 0
5.532042 -9.514523 18.108628 21.190848 -1.044142 0.546114 0.013869 -0.003201 397870.000000 1 0 0
-4.578058 -0.548423 20.088828 20.611171 0.119226 0.225613 0.006245 -0.000027 891333.000000 1 0 0
-11.144058 1.843277 17.037028 20.441331 -0.163920 0.585457 0.011199 0.002087 225057.000000 1 0 0
-16.899058 -4.177623 8.654728 19.440550 0.242351 1.109411 0.026548 -0.017477 383329.000000 1 0 0
-12.891058 -8.938623 13.821228 20.907049 0.606281 0.848539 0.006801 -0.018695 79041.500000 1 0 0
-14.889658 6.231577 12.812228 20.607951 -0.396367 0.899869 0.014356 -0.011067 322642.000000 1 0 0
1.183242 9.483477 17.177128 19.656809 1.446669 0.507728 0.002160 -0.006835 175326.000000 1 0 0
-3.686558 -10.059323 15.052628 18.475992 1.219515 0.618563 0.013687 -0.015555 557507.000000 1 0 0
-18.827758 -3.371123 6.590728 20.230834 0.177173 1.238964 0.096106 -0.015223 -223644.000000 1 0 0
-0.757758 -0.583123 20.962628 20.984423 0.655888 0.045581 0.017398 -0.015125 304862.000000 1 0 0
-2.026458 2.491377 20.432828 20.683664 -0.887945 0.155896 0.005838 -0.006200 220756.000000 1 0 0
-8.039258 2.415177 16.290428 18.325959 -0.291845 0.475801 -0.007632 0.010771 517932.000000 1 0 0
2.480442 -2.230223 18.768428 19.062538 -0.732330 0.175889 0.002591 -0.011646 -286152.000000 1 0 0
-12.152658 4.276577 14.424628 19.340271 -0.338371 0.729011 -0.012487 0.003514 152373.000000 1 0 0
-13.822558 -5.538623 13.143728 19.861949 0.381105 0.847640 0.043037 -0.007296 12265.000000 1 0 0
-16.915758 -0.768823 10.548628 19.950125 0.045419 1.013669 0.001290 0.003407 -42619.900000 1 0 0
-7.501658 7.830777 14.740328 18.299541 -0.806860 0.634273 0.001682 -0.003574 82139.300000 1 0 0
-9.546358 0.939677 13.932128 16.915086 -0.098117 0.602977 0.004150 -0.004029 154274.000000 1 0 0
7.525342 -0.732923 14.807328 16.626031 -0.097088 0.472109 0.008507 -0.010278 259796.000000 1 0 0
3.789642 6.125777 18.451228 19.807432 1.016785 0.372197 0.004312 -0.003810 -94698.900000 1 0 0
1.460442 0.310277 20.033428 20.088987 0.209342 0.074390 0.007773 -0.004278 194706.000000 1 0 0
-6.989358 7.114577 17.708928 20.324233 -0.794276 0.512909 -0.004175 -0.002701 504057.000000 1 0 0
7.540142 -3.116423 16.789028 18.666475 -0.391928 0.452352 0.005252 -0.004651 472914.000000 1 0 0
-17.475458 1.939777 9.200928 19.844683 -0.110548 1.088689 0.051643 -0.009163 354564.000000 1 0 0
4.638842 -5.288423 18.754228 20.030161 -0.850739 0.358855 0.042480 -0.031631 248084.000000 1 0 0
-3.647458 -3.761023 20.755628 21.406665 0.800726 0.247258 0.011732 -0.011069 488346.000000 1 0 0
-9.708358 5.885477 14.571428 18.472075 -0.544986 0.661884 0.000666 0.005032 -53163.500000 1 0 0
6.311542 2.586977 19.994528 21.126030 0.388995 0.328770 0.028395 -0.009080 106698.000000 1 0 0
-7.136758 11.366777 14.614628 19.842487 -1.010142 0.742867 0.005446 -0.011794 351805.000000 1 0 0
-14.374958 5.105677 9.080028 17.752585 -0.341281 1.033894 -0.003849 -0.010877 203200.000000 1 0 0
0.837342 -5.466623 20.313028 21.052416 -1.418804 0.265815 0.017618 -0.020446 356242.000000 1 0 0
-6.145358 -8.537023 13.736528 17.301398 0.946873 0.653510 0.012471 0.001378 359960.000000 1 0 0
-12.549558 9.972877 6.352328 17.242441 -0.671488 1.193496 -0.019923 -0.023231 15647.600000 1 0 0
-19.577758 1.590177 7.458628 21.010673 -0.081046 1.207890 0.027123 -0.020991 46762.800000 1 0 0
-15.758558 9.173877 6.396028 19.323596 -0.527193 1.233438 0.003737 -0.003647 101144.000000 1 0 0
-13.065358 7.384777 14.284628 20.719293 -0.514452 0.810086 0.017113 0.001005 220333.000000 1 0 0
-16.554458 8.596177 10.790428 21.549424 -0.478942 1.046355 0.012436 -0.010451 364856.000000 1 0 0
2.511842 10.894377 14.303528 18.154551 1.344193 0.663445 -0.007042 -0.042618 612536.000000 1 0 0
1.495442 14.256477 13.508828 19.697003 1.466283 0.815051 -0.002876 -0.020848 586461.000000 1 0 0
8.404142 5.144977 16.373128 19.109676 0.549339 0.541769 0.007848 -0.013203 227200.000000 1 0 0
-0.617158 13.455477 13.147428 18.822476 -1.524962 0.797502 -0.008105 0.000399 201628.000000 1 0 0
4.605142 13.812777 14.896628 20.830499 1.248988 0.773978 0.028068 0.017004 151455.000000 1 0 0
-3.706858 -4.426523 -13.164772 14.375191 0.873651 2.728287 0.001647 -0.010058 136438.000000 1 0 0
5.462442 -12.164323 16.856528 21.493058 -1.148729 0.669265 -0.038543 0.016995 232671.000000 1 0 0
8.417442 -14.105623 7.011728 17.860186 -1.032775 1.167350 -0.003564 -0.001897 367651.000000 1 0 0
-0.248058 15.431477 0.466028 15.440506 -1.554723 1.540610 -0.005280 -0.005046 -463734.000000 1 0 0
-14.002858 7.499777 8.654228 18.089288 -0.491712 1.071945 0.000889 -0.008108 19337.400000 1 0 0
-15.814958 -9.612023 5.708728 19.367329 0.546121 1.271591 0.000977 0.000715 52022.100000 1 0 0
8.862242 -10.785123 11.574028 18.133293 -0.882957 0.878541 -0.006827 0.006641 136462.000000 1 0 0
-25.885098 6.139777 31.514111 41.241658 -0.232890 0.701100 0.015385 -0.008316 -791493.000000 0 0 1
-24.714658 5.408677 31.306781 40.251492 -0.215448 0.679671 0.017013 -0.011392 -33244.300000 0 0 1
-23.676658 5.807777 32.208271 40.394147 -0.240546 0.647905 0.013450 -0.006648 684897.000000 0 0 1
-22.292458 5.270677 31.733861 39.137854 -0.232170 0.625240 0.011623 -0.007036 264242.000000 0 0 1
-22.007358 3.921177 32.038261 39.065965 -0.176325 0.609199 0.026162 -0.006772 -313837.000000 0 0 1
-20.670958 3.576177 31.798121 38.094593 -0.171309 0.583182 0.024843 -0.000306 -152554.000000 0 0 1
-20.156358 2.299377 32.530221 38.337725 -0.113586 0.557619 0.021778 -0.001251 -100469.000000 0 0 1
-20.703758 1.071377 32.109001 38.220170 -0.051702 0.573317 0.027084 -0.004883 64594.800000 0 0 1
-20.710058 0.128177 33.131383 39.071875 -0.006189 0.558672 0.019739 0.002446 -54002.500000 0 0 1
-21.430358 -1.205423 32.749933 39.157009 0.056189 0.580160 0.025004 -0.001917 -23221.100000 0 0 1
-20.602958 -2.196923 32.154101 38.251726 0.106230 0.572421 0.040095 0.001331 149171.000000 0 0 1
-20.957758 -3.512423 32.523551 38.850304 0.166052 0.578744 0.043461 -0.002747 -447942.000000 0 0 1
-22.227458 -4.285023 32.074761 39.258268 0.190444 0.614574 0.037695 0.003334 368907.000000 0 0 1
-23.375058 -4.255623 32.911343 40.591380 0.180086 0.625285 0.033592 0.005609 410227.000000 0 0 1
-23.232958 -4.784123 34.216068 41.634090 0.203081 0.606184 0.036777 0.007928 -331753.000000 0 0 1
-24.476158 -4.404723 -33.674372 41.862241 0.178054 2.505477 0.038375 0.010269 488259.000000 0 0 1
-24.441858 -5.067523 -32.398412 40.899160 0.204433 2.485126 0.033633 0.005414 5207.070000 0 0 1
-25.507408 -4.572323 -31.630022 40.890002 0.177371 2.455203 0.028847 0.001439 -222427.000000 0 0 1
-25.525008 -5.121323 -30.159162 39.841298 0.198010 2.429479 0.016196 -0.004970 -389547.000000 0 0 1
-25.667918 -6.525523 -30.144512 40.126252 0.248955 2.420738 0.024718 -0.003557 531529.000000 0 0 1
-25.302018 -7.100323 -28.916632 39.074011 0.273586 2.403938 0.015673 -0.008521 -134560.000000 0 0 1
-25.750658 -8.568723 -28.907852 39.650767 0.321232 2.387746 0.013533 -0.003292 -444663.000000 0 0 1
-27.126158 -8.735223 -28.678282 40.429895 0.311536 2.359349 0.021456 -0.010975 -320042.000000 0 0 1
-27.476168 -10.083723 -29.045642 41.234338 0.351738 2.352380 0.019978 -0.001809 326653.000000 0 0 1
-28.863818 -10.537923 -28.537592 41.935211 0.350055 2.319263 0.040080 0.000955 408689.000000 0 0 1
-28.786188 -10.924623 -27.177782 41.068526 0.362718 2.293969 0.052893 -0.002705 -623855.000000 0 0 1
-30.048848 -11.271923 -26.711122 41.754922 0.358876 2.264920 0.052334 -0.003317 -491917.000000 0 0 1
-30.005678 -12.093223 -25.382282 41.119910 0.383117 2.236070 0.048173 0.002218 -189726.000000 0 0 1
-29.407658 -11.381823 -24.308672 39.815421 0.369281 2.227531 0.052075 0.000915 197317.000000 0 0 1
-29.604518 -12.034623 -23.088072 39.424849 0.386108 2.196444 0.057893 -0.001617 -181906.000000 0 0 1
-28.774078 -11.403023 -21.944372 37.941164 0.377308 2.187537 0.056487 -0.005027 -191216.000000 0 0 1
-28.758058 -12.105023 -20.706272 37.447392 0.398415 2.156688 0.062201 -0.003820 249090.000000 0 0 1
-27.888718 -13.224223 -20.586372 37.100665 0.442778 2.159014 0.053850 -0.004177 -103629.000000 0 0 1
-27.584658 -13.702523 -19.158272 36.272743 0.461040 2.127243 0.045506 -0.007400 163703.000000 0 0 1
-27.128358 -12.541423 -18.439972 35.117911 0.433035 2.123614 0.036290 -0.009302 262916.000000 0 0 1
-26.995718 -12.742523 -17.042872 34.374411 0.441014 2.089553 0.044158 -0.016188 -62408.700000 0 0 1
-26.671278 -11.455023 -16.251872 33.267070 0.405667 2.081197 0.040075 -0.011685 -786885.000000 0 0 1
-25.389928 -10.963023 -16.452472 32.179499 0.407605 2.107460 0.022180 -0.000914 -383556.000000 0 0 1
-25.344618 -9.670823 -15.858672 31.422475 0.364521 2.099821 0.022848 -0.002917 -1246270.000000 0 0 1
-23.999558 -9.006223 -15.921272 30.175781 0.359004 2.126590 0.033652 -0.001591 -1174290.000000 0 0 1
-23.130158 -9.496423 -14.960472 29.137638 0.389580 2.109987 0.025555 -0.005287 -39788.300000 0 0 1
-21.971258 -8.686423 -14.821172 27.890092 0.376495 2.131065 0.039488 -0.026227 -423910.000000 0 0 1
-20.970758 -9.165023 -13.821472 26.735808 0.412023 2.114098 0.038942 -0.012732 -783602.000000 0 0 1
-20.279158 -10.307123 -14.338072 26.889800 0.470235 2.133194 0.027717 -0.002083 542929.000000 0 0 1
-19.159358 -10.553023 -13.495472 25.701655 0.503459 2.123608 0.034588 -0.007549 -43767.200000 0 0 1
-18.168558 -11.571923 -14.034772 25.709545 0.567125 2.148256 0.040081 -0.005706 -318604.000000 0 0 1
-17.415458 -11.306423 -15.181972 25.722085 0.575825 2.202141 0.048798 -0.008917 139816.000000 0 0 1
-18.071558 -11.653723 -16.357172 27.017541 0.572757 2.221100 0.038178 -0.008071 -249938.000000 0 0 1
-17.383358 -10.997523 -17.583772 27.061332 0.564079 2.278084 0.042714 -0.010574 140511.000000 0 0 1
-18.004358 -11.350623 -18.816872 28.408946 0.562500 2.294757 0.023114 0.001837 454968.000000 0 0 1
-17.361058 -10.675623 -19.870772 28.464413 0.551316 2.343525 0.032245 -0.004151 -203950.000000 0 0 1
-18.075858 -10.879923 -21.215672 29.920129 0.541818 2.358985 0.043643 -0.004422 307179.000000 0 0 1
-19.308358 -10.166323 -21.293172 30.488784 0.484641 2.343947 0.031270 -0.010610 682250.000000 0 0 1
-20.232158 -10.862323 -22.128972 31.890777 0.492718 2.337686 0.032859 -0.004811 614933.000000 0 0 1
-21.421058 -9.988623 -22.620772 32.715954 0.436325 2.334262 0.013934 -0.005129 61739.600000 0 0 1
-20.954258 -8.967023 -23.491772 32.731510 0.404352 2.371306 0.015076 -0.010574 -513398.000000 0 0 1
-21.846758 -8.604123 -24.472772 33.915016 0.375185 2.376894 0.013641 -0.016197 -764904.000000 0 0 1
-21.316358 -7.740123 -25.640162 34.230316 0.348304 2.417421 0.009158 -0.022301 96670.800000 0 0 1
-20.433558 -8.408923 -26.557972 34.548027 0.390402 2.447643 0.015667 -0.022038 526554.000000 0 0 1
-19.984658 -7.562423 -27.580672 34.889400 0.361758 2.482449 0.007522 -0.030047 151013.000000 0 0 1
-18.650558 -8.018123 -28.257592 34.794038 0.406025 2.518605 0.027966 -0.029150 8744.300000 0 0 1
-18.826458 -9.064023 -29.206642 35.911279 0.448699 2.520598 0.021090 -0.015113 1426210.000000 0 0 1
-17.565458 -9.618523 -29.677182 35.802185 0.500985 2.547972 0.013480 -0.008944 765370.000000 0 0 1
-17.749058 -10.990823 -30.419952 36.894454 0.554442 2.540137 0.006467 -0.007884 -294290.000000 0 0 1
-18.350658 -10.798323 -31.663852 38.156912 0.531879 2.549604 0.006334 -0.002305 354580.000000 0 0 1
-18.341458 -12.020923 -32.357222 39.088380 0.580159 2.545965 0.012195 0.003267 -323711.000000 0 0 1
-19.012358 -11.958323 -33.731232 40.524897 0.561454 2.554145 0.010370 -0.001623 24799.300000 0 0 1
-18.328758 -11.202723 33.996186 40.214239 0.548621 0.563526 0.014248 -0.001614 232586.000000 0 0 1
-18.999458 -11.232923 32.767515 39.507822 0.533941 0.592776 0.019040 -0.004328 -181595.000000 0 0 1
-18.689158 -12.467023 31.898831 39.015980 0.588283 0.613594 0.025131 -0.010232 -454651.000000 0 0 1
-17.376458 -12.377123 31.416481 37.975383 0.618928 0.596538 0.026862 -0.008933 -80851.300000 0 0 1
-17.085358 -13.306423 30.361381 37.293214 0.661692 0.619574 0.027555 -0.014596 -29696.200000 0 0 1
-16.999558 -14.807323 30.526291 37.948599 0.716584 0.636112 0.025898 -0.006088 347282.000000 0 0 1
-18.294058 -15.395923 30.780061 38.975879 0.699586 0.660443 0.018572 -0.004062 779838.000000 0 0 1
-18.187858 -16.702623 31.232271 39.814953 0.742855 0.669011 0.023941 -0.009309 -239660.000000 0 0 1
-18.454158 -16.887123 32.749196 41.209716 0.741087 0.652290 -0.001516 -0.013060 -31992.400000 0 0 1
-17.297858 -16.491723 33.480257 41.135391 0.761545 0.619956 0.014031 -0.006059 269040.000000 0 0 1
-17.451558 -16.363523 -33.894002 41.486445 0.753233 2.526968 0.013292 -0.004380 -671881.000000 0 0 1
-16.263758 -15.703023 -33.259002 40.215121 0.767859 2.544595 0.004176 -0.005584 -756927.000000 0 0 1
-16.121958 -14.333823 -33.612642 39.939776 0.726753 2.571004 0.012256 -0.004254 -324706.000000 0 0 1
-14.892858 -13.765723 -33.244762 38.942349 0.746089 2.593830 0.016289 -0.004798 -375448.000000 0 0 1
-14.736558 -13.269323 -31.792542 37.470079 0.733056 2.583899 0.039191 -0.003432 -481605.000000 0 0 1
-14.892058 -14.327523 -30.885202 37.161095 0.766080 2.551909 0.021314 -0.010512 -132895.000000 0 0 1
-15.279058 -13.867423 -29.633702 36.109712 0.737004 2.533357 0.025104 -0.014245 -403618.000000 0 0 1
-15.583558 -15.066923 -28.659042 35.933273 0.768544 2.494040 0.043416 -0.003659 1012420.000000 0 0 1
-14.460258 -15.854923 -28.173642 35.415134 0.831371 2.490671 0.047792 -0.022538 493836.000000 0 0 1
-13.796658 -16.630323 -29.120072 36.261467 0.878260 2.503206 0.042908 -0.023367 -172617.000000 0 0 1
-12.373458 -17.085223 -28.727902 35.641263 0.944000 2.508209 0.032940 -0.014009 -257431.000000 0 0 1
-11.453558 -16.051423 -28.500072 34.656692 0.951031 2.536332 0.028330 -0.015562 -514490.000000 0 0 1
-10.254158 -16.711323 -28.127102 34.286294 1.020433 2.532837 0.029812 -0.022029 264332.000000 0 0 1
-9.034858 -15.761723 -28.118982 33.477421 1.050304 2.567967 0.012307 -0.021591 13832.300000 0 0 1
-9.059758 -14.889023 -26.979212 32.119155 1.024161 2.568029 0.036957 -0.019698 -816536.000000 0 0 1
-7.865758 -14.196923 -26.884152 31.403509 1.064852 2.598448 0.035821 -0.023467 -854121.000000 0 0 1
-7.953358 -12.698223 -27.192962 31.047672 1.011237 2.637981 0.030963 -0.022473 -252429.000000 0 0 1
-7.868558 -12.477823 -28.609542 32.188758 1.008178 2.665528 0.040930 -0.020161 197869.000000 0 0 1
-7.863058 -11.068823 -28.816132 31.854607 0.953139 2.701270 0.032889 -0.018634 -447655.000000 0 0 1
-6.859958 -10.581723 -29.849192 32.403798 0.995629 2.741856 0.024955 -0.006713 259541.000000 0 0 1
-5.501058 -10.948123 -29.510972 31.953411 1.105178 2.748066 0.024876 -0.011490 1349900.000000 0 0 1
-4.584058 -10.739423 -30.587582 32.740632 1.167365 2.776916 0.020365 -0.010565 283988.000000 0 0 1
-4.244658 -9.283223 -31.080952 32.714231 1.141938 2.824270 0.008189 -0.012597 256900.000000 0 0 1
-3.054858 -9.011423 -31.878742 33.268485 1.243956 2.851532 0.007471 -0.009320 1001680.000000 0 0 1
-3.202558 -7.714523 -32.333652 33.395139 1.177312 2.888786 0.003748 -0.009956 -794771.000000 0 0 1
-1.976258 -7.169223 -33.010882 33.838169 1.301818 2.920014 0.005919 -0.010175 -780099.000000 0 0 1
-1.678958 -7.463823 34.373194 35.214258 1.349533 0.218997 0.005099 -0.009026 -33201.300000 0 0 1
-0.595058 -6.718423 33.864470 34.529605 1.482456 0.196596 0.014065 -0.000844 54294.900000 0 0 1
0.085142 -7.226623 32.562341 33.354720 -1.559015 0.218407 0.016687 0.004099 -294958.000000 0 0 1
-0.715258 -7.058923 31.421621 32.212703 1.469814 0.222078 0.020135 0.008852 -255112.000000 0 0 1
-0.032258 -7.433523 30.221141 31.121948 1.566457 0.241185 0.017110 0.007289 -118056.000000 0 0 1
-0.513458 -6.866323 28.885791 29.695100 1.496156 0.234003 0.011389 0.011500 -161511.000000 0 0 1
-0.090558 -5.530823 28.705901 29.234003 1.554424 0.190364 0.022118 -0.001476 -48263.900000 0 0 1
-0.198858 -5.040023 27.383591 27.844253 1.531361 0.182154 0.036019 0.006677 -210739.000000 0 0 1
-1.401758 -4.134923 27.118831 27.468045 1.243950 0.159628 0.026196 0.013376 521809.000000 0 0 1
-2.653258 -4.818223 27.122401 27.674531 1.067438 0.200088 0.021747 0.011614 127026.000000 0 0 1
-3.777458 -3.979823 26.981321 27.533613 0.811479 0.200630 0.011813 -0.002579 382292.000000 0 0 1
-5.103558 -4.686923 27.381221 28.244376 0.742869 0.247860 0.000671 -0.001486 297980.000000 0 0 1
-5.452058 -5.684023 26.445441 27.593376 0.806225 0.289460 -0.003700 0.002767 -644449.000000 0 0 1
-6.734258 -6.162423 26.737001 28.252308 0.741087 0.329002 -0.014895 -0.000415 -169025.000000 0 0 1
-6.854758 -7.674323 26.703581 28.617550 0.841747 0.367804 -0.009728 -0.002856 -108961.000000 0 0 1
-6.025258 -8.241523 27.668871 29.492250 0.939511 0.353478 -0.012468 0.000122 -214451.000000 0 0 1
-6.010758 -9.668823 27.517541 29.779698 1.014600 0.392288 -0.015740 -0.001668 -408288.000000 0 0 1
-5.276558 -10.356323 28.605951 30.877110 1.099577 0.385939 -0.006258 -0.005100 -296562.000000 0 0 1
-5.519658 -11.752423 28.585231 31.395883 1.131713 0.426360 0.012443 -0.008390 715754.000000 0 0 1
-4.604158 -12.330823 29.528681 32.329405 1.213441 0.419312 0.017869 -0.009524 195236.000000 0 0 1
-4.646058 -13.922323 29.437441 32.893462 1.248704 0.462516 0.043438 -0.018062 616161.000000 0 0 1
-5.839458 -14.488523 30.006901 33.829435 1.187672 0.479977 0.060728 -0.023031 526313.000000 0 0 1
-5.630058 -15.844223 30.242541 34.602720 1.229374 0.507436 0.047983 -0.026035 173958.000000 0 0 1
-5.922158 -16.251723 31.675611 36.090646 1.221349 0.499821 0.066870 -0.020615 -698177.000000 0 0 1
-7.264058 -16.406323 31.964271 36.655812 1.153980 0.511501 0.059809 -0.018133 -1103390.000000 0 0 1
-7.412658 -16.480423 33.337153 37.919884 1.148121 0.496727 0.061408 -0.013966 -1054640.000000 0 0 1
-8.809158 -16.770623 33.810060 38.755325 1.087135 0.510710 0.055637 -0.011902 -727988.000000 0 0 1
-9.370558 -18.006323 33.373934 39.062187 1.090959 0.546441 0.045034 -0.011691 446529.000000 0 0 1
-10.115958 -17.986423 32.126541 38.183224 1.058466 0.570968 0.044737 -0.013520 36801.400000 0 0 1
-10.892858 -19.265723 31.795361 38.739739 1.056206 0.608086 0.028750 -0.016648 129706.000000 0 0 1
-11.822958 -19.739523 32.761864 40.034620 1.031150 0.612282 0.040159 -0.020743 339155.000000 0 0 1
-12.189258 -21.091423 32.460621 40.584702 1.046767 0.643794 0.022965 -0.020286 -39972.400000 0 0 1
-11.500158 -22.126723 33.430463 41.706610 1.091481 0.640892 0.015235 -0.010293 111813.000000 0 0 1
-10.196558 -22.511723 33.038594 41.258891 1.145497 0.642228 0.005656 -0.012774 126576.000000 0 0 1
-9.418958 -23.077523 34.094302 42.233994 1.183289 0.631282 0.013971 -0.015812 271297.000000 0 0 1
-9.768958 -24.533423 34.374162 43.346330 1.191851 0.655059 0.013521 -0.003120 -283806.000000 0 0 1
-9.354458 -25.376283 33.331389 42.923689 1.217622 0.681662 0.008184 -0.004664 -85932.400000 0 0 1
-9.599658 -26.764353 33.550097 43.978324 1.226416 0.703043 0.023158 -0.005650 -71677.100000 0 0 1
-8.900958 -27.689553 32.444241 43.572550 1.259774 0.730857 0.014410 0.004819 1941800.000000 0 0 1
-7.452558 -27.672413 32.367311 43.231306 1.307724 0.724696 0.030626 -0.008153 1731600.000000 0 0 1
-6.644658 -28.314703 33.397049 44.285852 1.340296 0.716476 0.035074 -0.007984 92747.700000 0 0 1
-5.237558 -27.774963 33.586596 43.896924 1.384414 0.699562 0.047467 -0.015572 -448649.000000 0 0 1
-5.227058 -26.520713 34.226783 43.613564 1.376197 0.668465 0.034386 -0.011240 41048.900000 0 0 1
-5.066558 -25.405303 33.366676 42.242567 1.373950 0.660179 0.038588 -0.005450 39238.400000 0 0 1
-4.809658 -24.101723 34.163493 42.085272 1.373827 0.623622 0.041374 -0.006074 -232834.000000 0 0 1
-3.487558 -24.047523 -34.135831 41.901090 1.426773 2.522967 0.028970 -0.002658 -354867.000000 0 0 1
-3.134658 -22.693923 -33.806152 40.837435 1.433537 2.546011 0.021660 -0.012747 62718.000000 0 0 1
33.926809 -15.052023 2.096528 37.175088 -0.417570 1.514370 0.054579 -0.022777 210660.000000 0 0 1
34.712889 -15.694423 3.117028 38.223232 -0.424616 1.489158 0.039060 -0.022513 682700.000000 0 0 1
33.899829 -16.341123 4.088028 37.854229 -0.449178 1.462591 0.047983 -0.020105 -134552.000000 0 0 1
34.630059 -16.494623 5.396128 38.735407 -0.444516 1.431034 0.040230 -0.006317 91253.700000 0 0 1
-35.504564 -17.518423 5.400228 39.957873 0.458364 1.435233 0.040416 -0.007956 -35197.300000 0 0 1
-34.761132 -17.432723 6.551328 39.435466 0.464847 1.403895 0.029814 -0.000866 -421691.000000 0 0 1
-33.507338 -18.290223 6.736128 38.764021 0.499657 1.396137 0.022224 -0.010647 -336679.000000 0 0 1
-33.694058 -19.668523 6.708828 39.587229 0.528377 1.400505 0.031238 -0.012721 -652348.000000 0 0 1
-32.474088 -20.309923 6.842528 38.908605 0.558901 1.394015 0.024907 -0.012251 -487799.000000 0 0 1
-32.681338 -21.845523 7.022128 39.932530 0.589229 1.394027 0.031239 -0.009261 -235718.000000 0 0 1
-33.032618 -22.558723 5.838228 40.424432 0.599172 1.425866 0.041484 -0.016835 254545.000000 0 0 1
-33.243078 -23.934623 6.096328 41.414171 0.624015 1.423056 0.039334 -0.019363 -947122.000000 0 0 1
-32.407518 -24.848723 5.183028 41.165155 0.654140 1.444553 0.055726 -0.016693 -164400.000000 0 0 1
-32.677668 -24.551023 3.807128 41.049688 0.644338 1.477918 0.062019 -0.022900 395414.000000 0 0 1
-31.934438 -25.414023 2.931428 40.917895 0.672186 1.499093 0.057056 -0.011471 -15849.000000 0 0 1
-32.426798 -25.423833 1.452528 41.230793 0.664932 1.535560 0.065325 -0.010251 -860060.000000 0 0 1
-33.617668 -26.125413 1.338728 42.596678 0.660642 1.539363 0.055330 -0.013200 -88108.500000 0 0 1
-34.434228 -25.735793 0.223528 42.989499 0.641829 1.565597 0.048889 -0.011283 468531.000000 0 0 1
-35.306311 -24.446723 0.304728 42.944973 0.605619 1.563700 0.053476 -0.009348 -684037.000000 0 0 1
34.474189 -24.744723 0.069128 42.435549 -0.622556 1.569167 0.045651 -0.009221 -778942.000000 0 0 1
33.646159 -23.712023 0.510928 41.165338 -0.613905 1.558384 0.046887 -0.010205 -1146980.000000 0 0 1
32.174329 -24.000823 0.386728 40.141954 -0.640912 1.561162 0.027564 -0.007151 -915853.000000 0 0 1
31.793209 -24.031323 -0.948872 39.864934 -0.647243 1.594601 0.033787 -0.018514 -260953.000000 0 0 1
30.425349 -23.691123 -1.035672 38.575171 -0.661595 1.597648 0.026416 -0.014829 352392.000000 0 0 1
29.923939 -23.497023 -2.521072 38.130146 -0.665667 1.636962 0.019712 -0.009084 374940.000000 0 0 1
30.519029 -22.303923 -3.095472 37.927010 -0.631113 1.652504 0.038203 -0.020866 246036.000000 0 0 1
29.976779 -22.024023 -4.358172 37.452083 -0.633639 1.687427 0.031495 -0.029268 -178647.000000 0 0 1
30.118089 -20.638923 -4.921372 36.841340 -0.600769 1.704780 0.025103 -0.030603 47401.600000 0 0 1
29.192139 -19.870923 -4.205772 35.562945 -0.597651 1.689337 0.025905 -0.028452 -391992.000000 0 0 1
29.177179 -18.523923 -4.592972 34.864579 -0.565670 1.702918 0.023169 -0.026838 -462710.000000 0 0 1
28.432029 -17.752723 -3.525472 33.704130 -0.558162 1.675589 0.032815 -0.019621 -455323.000000 0 0 1
28.979479 -17.514223 -2.246072 33.935277 -0.543624 1.637032 0.033490 -0.016995 -321447.000000 0 0 1
29.550449 -18.564523 -1.519072 34.931048 -0.560920 1.614298 0.028960 -0.001047 -261176.000000 0 0 1
28.646179 -19.797623 -1.148772 34.840625 -0.604734 1.603775 0.026126 -0.002082 532612.000000 0 0 1
27.642139 -19.544423 -0.145072 33.854001 -0.615443 1.575082 0.017247 0.009516 394645.000000 0 0 1
27.046179 -20.793623 0.155128 34.115900 -0.655437 1.566249 0.019100 0.007716 54164.800000 0 0 1
25.736409 -20.700923 0.994528 33.043608 -0.677384 1.540694 0.005483 0.008565 -466818.000000 0 0 1
25.091909 -21.898723 1.314328 33.329948 -0.717549 1.531352 0.000045 0.018198 -324317.000000 0 0 1
24.290209 -21.734923 2.449628 32.686722 -0.729936 1.495783 0.005038 0.010470 624687.000000 0 0 1
22.826409 -21.200723 2.263828 31.235245 -0.748490 1.498256 -0.002741 0.009870 83393.400000 0 0 1
22.697109 -19.796123 1.968828 30.181476 -0.717235 1.505517 0.012574 0.001600 90759.800000 0 0 1
22.962209 -18.942623 3.060428 29.924108 -0.689769 1.468344 0.018919 -0.000452 -285972.000000 0 0 1
22.978609 -17.458023 2.605228 28.975615 -0.649713 1.480764 0.027386 0.001705 -570519.000000 0 0 1
21.706109 -17.141423 2.171328 27.743435 -0.668432 1.492452 0.028096 0.002208 -807380.000000 0 0 1
21.755709 -15.747923 1.876928 26.922682 -0.626556 1.501024 0.036796 -0.010946 419103.000000 0 0 1
20.459309 -15.162123 1.247228 25.495664 -0.637772 1.521858 0.038161 -0.002457 -143126.000000 0 0 1
19.344609 -15.103623 2.074028 24.629960 -0.662903 1.486489 0.035792 -0.001408 150958.000000 0 1 0
18.337909 -14.148923 1.733128 23.226594 -0.657162 1.496109 0.035173 -0.003294 275185.000000 0 1 0
18.677909 -12.667123 2.269228 22.681924 -0.595936 1.470583 0.037213 -0.003288 -94339.700000 0 1 0
19.824009 -12.190223 1.587328 23.326219 -0.551319 1.502695 0.041817 -0.002244 317336.000000 0 1 0
20.221109 -10.938323 2.044028 23.080689 -0.495858 1.482120 0.046672 -0.005428 -235932.000000 0 1 0
21.121009 -10.166223 1.117628 23.466960 -0.448602 1.523153 0.056376 -0.010724 -489502.000000 0 1 0
20.419009 -9.800823 -0.030972 22.649349 -0.447508 1.572164 0.052247 -0.008181 115731.000000 0 1 0
21.257909 -9.226823 -0.961372 23.193904 -0.409504 1.612258 0.052375 -0.002878 -1272900.000000 0 1 0
20.541109 -8.603023 -2.129972 22.371543 -0.396624 1.666150 0.062998 -0.000065 -634680.000000 0 1 0
21.247809 -7.989223 -3.209672 22.925948 -0.359649 1.711259 0.056449 -0.007625 167611.000000 0 1 0
22.156509 -8.802423 -3.935172 24.163591 -0.378163 1.734380 0.049809 -0.009788 -541232.000000 0 1 0
21.593909 -9.942623 -4.808572 24.254382 -0.431499 1.770374 0.026169 -0.011389 -269094.000000 0 1 0
20.935109 -9.595523 -6.014472 23.801822 -0.429773 1.826255 0.020493 -0.012631 436801.000000 0 1 0
19.560009 -9.272223 -5.891772 22.433926 -0.442665 1.836541 0.019674 -0.008302 -228919.000000 0 1 0
18.927009 -9.227123 -7.322072 22.293143 -0.453606 1.905453 0.023529 -0.005958 -422797.000000 0 1 0
18.933209 -10.471723 -8.007272 23.070323 -0.505211 1.925253 0.022583 -0.003861 1006570.000000 0 1 0
20.063009 -10.590723 -8.889172 24.366065 -0.485697 1.944233 0.015748 -0.006807 340744.000000 0 1 0
20.207009 -11.992323 -9.483072 25.339054 -0.535607 1.954381 0.023118 -0.008535 24272.700000 0 0 1
19.162409 -12.273723 -10.402772 25.021188 -0.569675 1.999573 0.036601 -0.019685 362904.000000 0 0 1
19.256009 -13.577323 -10.909572 25.964521 -0.614137 2.004432 0.036788 -0.011431 519766.000000 0 0 1
18.039309 -13.941723 -11.843172 25.691419 -0.657967 2.049893 0.042083 -0.014242 557286.000000 0 0 1
17.743509 -15.298823 -12.153172 26.392910 -0.711546 2.049322 0.042005 -0.018988 1186750.000000 0 0 1
16.583109 -15.400123 -13.037872 26.117990 -0.748427 2.093461 0.035190 -0.018056 735401.000000 0 0 1
16.198809 -16.797423 -13.499572 26.959104 -0.803538 2.095253 0.030130 -0.018143 -282927.000000 0 0 1
15.855909 -17.675723 -12.396072 26.786258 -0.839617 2.051922 0.029545 -0.016283 338123.000000 0 0 1
15.740109 -19.088623 -12.762572 27.838998 -0.881246 2.047038 0.026077 -0.017728 -843426.000000 0 0 1
14.811909 -19.861823 -11.861172 27.469475 -0.930022 2.017278 0.021071 -0.014843 -9075.030000 0 0 1
13.439409 -19.578623 -12.134772 26.668200 -0.969234 2.043200 0.009587 -0.005757 246101.000000 0 0 1
12.604409 -20.589323 -11.584972 26.776910 -1.021468 2.018224 0.006122 -0.006312 -205060.000000 0 0 1
11.139209 -20.300923 -11.876972 26.024448 -1.068948 2.044716 0.007660 -0.009342 -226076.000000 0 0 1
10.171709 -21.079623 -11.213672 25.953046 -1.121216 2.017589 0.005557 -0.006696 -45795.700000 0 0 1
8.861709 -21.009523 -11.738172 25.645947 -1.171644 2.046204 0.000891 -0.007029 469299.000000 0 0 1
7.817409 -21.529523 -10.710172 25.285174 -1.222498 2.008185 0.002058 -0.004240 -118209.000000 0 0 1
7.834809 -22.939323 -10.529572 26.428557 -1.241674 1.980586 0.008381 -0.011100 -244573.000000 0 0 1
6.887509 -23.323623 -9.578372 26.137604 -1.283655 1.945997 0.016768 -0.018770 -73850.800000 0 0 1
6.930709 -24.862723 -9.448572 27.485728 -1.298939 1.921717 0.019855 -0.015022 1226330.000000 0 0 1
8.262109 -25.303043 -9.101072 28.130694 -1.255185 1.900252 0.023163 -0.010862 603595.000000 0 0 1
8.526509 -26.591283 -9.578272 29.521873 -1.260503 1.901223 0.020694 -0.011502 847918.000000 0 0 1
9.999809 -27.118743 -9.427372 30.402265 -1.217524 1.886082 0.017502 -0.005256 810865.000000 0 0 1
10.251209 -27.549043 -8.117172 30.494680 -1.214564 1.840228 0.016776 -0.012290 1384890.000000 0 0 1
11.657209 -27.955303 -8.017972 31.331731 -1.175726 1.829581 0.031904 -0.003608 1313430.000000 0 0 1
12.138509 -28.061243 -6.548572 31.267564 -1.162530 1.781795 0.025265 -0.013170 137383.000000 0 0 1
11.616009 -29.164963 -5.765972 31.918226 -1.191768 1.752442 0.029112 -0.014254 922670.000000 0 0 1
10.199309 -29.132703 -5.505272 31.353601 -1.234034 1.747298 0.030776 -0.015159 652990.000000 0 0 1
9.811809 -30.181933 -4.442972 32.046227 -1.256484 1.709887 0.035171 -0.020141 -114698.000000 0 0 1
9.954009 -31.569053 -4.807372 33.448441 -1.265354 1.715021 0.037913 -0.012167 -222011.000000 0 0 1
9.139409 -31.994133 -5.866572 33.787128 -1.292548 1.745314 0.048932 -0.011333 -175978.000000 0 0 1
9.302809 -33.461263 -6.143772 35.269594 -1.299627 1.745884 0.051313 -0.008246 -212982.000000 0 0 1
8.965409 -34.375241 -5.142972 35.895486 -1.315670 1.714567 0.040164 -0.007271 -66038.000000 0 0 1
9.320409 33.185124 -5.449872 34.897330 1.296989 1.727607 0.047834 -0.005807 -156788.000000 0 0 1
8.815309 32.134687 -4.508472 33.625498 1.303059 1.705280 0.033079 -0.000149 -157773.000000 0 0 1
7.513409 31.698667 -4.799172 32.928542 1.338065 1.717062 0.028468 -0.006381 -752462.000000 0 0 1
7.013409 30.858427 -3.829272 31.876226 1.347316 1.691217 0.009914 -0.004206 489660.000000 0 0 1
5.530709 30.435337 -4.080172 31.201704 1.391038 1.701940 0.014705 -0.009952 462563.000000 0 0 1
5.391209 29.750537 -5.313772 30.698465 1.391528 1.744768 0.021852 -0.008333 31396.200000 0 0 1
5.012209 30.506217 -6.459972 31.582951 1.407950 1.776790 0.012984 -0.008332 -80910.200000 0 0 1
5.335309 29.679197 -7.739872 31.132393 1.392930 1.822043 0.035318 -0.017839 -277631.000000 0 0 1
4.536309 28.528867 -7.807272 29.923701 1.413109 1.834757 0.037207 -0.020984 152526.000000 0 0 1
5.081709 27.386047 -7.066472 28.735942 1.387325 1.819255 0.029509 -0.014603 -250141.000000 0 0 1
4.316909 26.072587 -7.404872 27.445357 1.406712 1.843986 0.026085 -0.017399 971368.000000 0 0 1
2.941709 25.940997 -6.962272 27.019664 1.457879 1.831411 0.024684 -0.016103 1010760.000000 0 0 1
1.999809 26.721237 -7.701872 27.880864 1.496096 1.850678 0.030182 -0.019174 -74237.900000 0 0 1
1.478709 25.995897 -8.965672 27.538274 1.513975 1.902412 0.038625 -0.018833 -533527.000000 0 0 1
2.560709 25.695387 -9.816972 27.625769 1.471468 1.934091 0.031611 -0.023522 -147304.000000 0 0 1
2.194609 24.950157 -10.971772 27.344221 1.483062 1.983674 0.042485 -0.021118 -309942.000000 0 0 1
2.101909 23.431687 -10.813772 25.892077 1.481332 2.001651 0.051983 -0.017704 -542449.000000 0 0 1
0.891809 22.998887 -10.283872 25.209168 1.532040 1.990995 0.052441 -0.015530 -677118.000000 0 0 1
0.841009 21.607987 -10.173472 23.897949 1.531895 2.010537 0.038261 -0.013053 -279403.000000 0 1 0
-0.366791 20.988787 -9.425572 23.010979 -1.553323 1.992825 0.030482 -0.006744 1667650.000000 0 1 0
-1.680091 21.252487 -10.033372 23.561822 -1.491907 2.010677 0.032906 -0.010093 1431820.000000 0 1 0
-2.619491 20.371487 -9.413172 22.593518 -1.442912 2.000533 0.024369 -0.005756 201537.000000 0 1 0
-4.040991 20.960487 -9.330972 23.296752 -1.380342 1.982888 0.037598 -0.006474 398977.000000 0 1 0
-5.130491 20.145787 -8.952172 22.634400 -1.321429 1.977421 0.027422 -0.012656 158016.000000 0 1 0
-5.883491 19.645187 -9.999872 22.815484 -1.279810 2.024495 0.028065 -0.005468 -685831.000000 0 1 0
-6.633391 18.313487 -9.584372 21.708198 -1.223283 2.028076 0.028896 -0.010890 467713.000000 0 1 0
-7.751691 18.564187 -8.730472 21.930319 -1.175243 1.980242 0.038874 -0.014713 -391538.000000 0 1 0
-8.959191 18.643587 -9.411372 22.724972 -1.122829 1.997797 0.051425 -0.020931 -1195540.000000 0 1 0
-10.055791 18.911187 -8.387572 23.002246 -1.082082 1.944044 0.063225 -0.031512 -496486.000000 0 1 0
-10.297391 17.813387 -7.553672 21.918280 -1.046658 1.922640 0.055637 -0.032766 -133287.000000 0 1 0
-11.236191 18.234687 -6.579472 22.406366 -1.018551 1.868832 0.055197 -0.028562 -279080.000000 0 1 0
-11.645391 17.155687 -5.578372 21.472097 -0.974436 1.833608 0.035169 -0.032787 -14824.900000 0 1 0
-12.617391 17.645587 -4.658372 22.187062 -0.950044 1.782329 0.047250 -0.026122 295589.000000 0 1 0
-13.007791 16.619887 -3.765072 21.438261 -0.906716 1.747336 0.042275 -0.021866 -13648.800000 0 1 0
-14.293091 16.885187 -2.934272 22.316181 -0.868345 1.702664 0.033788 -0.020006 -805833.000000 0 1 0
-15.423291 16.759887 -3.690772 23.073654 -0.826905 1.731443 0.052428 -0.033584 -781110.000000 0 1 0
-16.568491 17.025587 -2.910272 23.934394 -0.799004 1.692692 0.044790 -0.035153 -494408.000000 0 1 0
-17.878991 17.288487 -3.622072 25.133036 -0.768609 1.715416 0.041361 -0.038076 -525976.000000 0 0 1
-17.833291 18.487187 -4.321072 26.047534 -0.803400 1.737459 0.046986 -0.037359 -267798.000000 0 0 1
-19.073891 18.711687 -4.921372 27.169108 -0.775813 1.752940 0.022200 -0.033480 -609637.000000 0 0 1
-19.004791 19.506987 -6.264972 27.945563 -0.798438 1.796903 0.014700 -0.013373 -300284.000000 0 0 1
-18.603491 20.853587 -6.192672 28.623612 -0.842363 1.788869 0.021979 -0.018697 178365.000000 0 0 1
-18.616291 21.467187 -7.464272 29.378934 -0.856403 1.827681 0.012743 -0.012314 -68707.400000 0 0 1
-18.451691 23.036187 -7.514572 30.456520 -0.895454 1.820102 0.031852 -0.008219 -36966.100000 0 0 1
-17.244991 23.549087 -6.993072 30.014201 -0.938720 1.805950 0.035953 -0.016806 123632.000000 0 0 1
-17.431691 24.159737 -5.750972 30.341892 -0.945774 1.761489 0.039926 -0.013542 321098.000000 0 0 1
-16.050391 24.790187 -5.429972 30.027538 -0.996216 1.752630 0.041156 -0.017606 84476.800000 0 0 1
-16.014791 25.527197 -4.203772 30.426683 -1.010500 1.709400 0.036007 -0.016976 567012.000000 0 0 1
-14.753091 26.171607 -3.988272 30.306980 -1.057491 1.702775 0.049560 -0.017623 328170.000000 0 0 1
-14.379891 27.394357 -4.843072 31.315929 -1.087411 1.726072 0.045692 -0.011775 -173958.000000 0 0 1
-15.066591 28.618507 -4.601472 32.667946 -1.086203 1.712122 0.038233 -0.008339 282976.000000 0 0 1
-14.484691 29.628577 -5.421372 33.422300 -1.116088 1.733724 0.034730 -0.014645 82851.700000 0 0 1
-14.980791 30.934377 -4.853872 34.711956 -1.119806 1.711089 0.022679 -0.008705 326802.000000 0 0 1
-16.373991 31.125827 -5.014072 35.525563 -1.086520 1.712409 0.045745 -0.009343 117037.000000 0 0 1
-16.760691 32.332607 -4.352972 36.677876 -1.092550 1.689758 0.040157 -0.007699 -67431.500000 0 0 1
12.404742 -8.257523 19.074811 24.205634 -0.587316 0.663191 0.027445 -0.013622 -432518.000000 0 1 0
12.801842 -9.555323 19.394911 25.126757 -0.641195 0.688999 0.036144 -0.016786 53510.200000 0 0 1
13.271542 -10.364223 18.348011 24.903824 -0.663008 0.742538 0.034400 -0.018687 -262446.000000 0 1 0
13.626642 -11.784923 18.834011 26.063187 -0.713049 0.763198 0.052083 -0.017135 -500687.000000 0 0 1
14.688742 -11.690523 19.759111 27.255273 -0.672226 0.759813 0.040652 -0.010654 231685.000000 0 0 1
14.986342 -12.919223 20.399811 28.419167 -0.711458 0.770132 0.045674 -0.007484 27241.300000 0 0 1
15.833842 -13.981123 19.607011 28.820431 -0.723337 0.822602 0.042394 0.003609 -539487.000000 0 0 1
15.190142 -14.428323 18.472211 27.930977 -0.759683 0.848176 0.050562 -0.010358 498379.000000 0 0 1
15.879342 -15.533023 17.789211 28.458467 -0.774374 0.895545 0.060608 -0.008653 -70188.300000 0 0 1
15.398442 -15.683523 16.315111 27.372755 -0.794570 0.932243 0.057631 -0.008484 -548147.000000 0 0 1
14.067642 -16.071223 16.155111 26.780037 -0.851779 0.923224 0.105810 -0.017825 -349518.000000 0 0 1
13.756842 -16.003623 14.788011 25.769205 -0.860751 0.959580 0.121849 -0.032129 -297280.000000 0 0 1
12.966142 -17.176123 14.231311 25.800586 -0.924171 0.986529 0.073060 -0.014692 -511266.000000 0 0 1
13.692742 -18.353223 14.057711 26.869150 -0.929817 1.020205 0.074713 -0.012410 -28853.200000 0 0 1
12.820042 -19.396823 13.744411 27.009240 -0.986772 1.036915 0.070841 -0.015456 68566.600000 0 0 1
13.636742 -20.546223 13.097011 27.922029 -0.984843 1.082574 0.072733 -0.013509 -286160.000000 0 0 1
14.499342 -21.217223 13.922111 29.227156 -0.971315 1.074307 0.050949 -0.006250 -547232.000000 0 0 1
15.091242 -22.277723 13.225711 29.982694 -0.975390 1.113960 0.038011 -0.004449 -580356.000000 0 0 1
15.838742 -23.129723 14.275211 31.458408 -0.970359 1.099793 0.029237 -0.006202 -453184.000000 0 0 1
17.117042 -22.577523 14.468911 31.813315 -0.922103 1.098641 -0.009346 -0.002153 -545930.000000 0 0 1
17.796742 -23.216623 15.517811 33.114016 -0.916786 1.083071 -0.002614 -0.002956 357315.000000 0 0 1
19.225742 -22.607023 15.648111 33.549516 -0.866051 1.085559 -0.021140 -0.005831 707928.000000 0 0 1
20.217042 -23.159123 14.770911 34.106503 -0.853122 1.122887 -0.013006 -0.010310 -773766.000000 0 0 1
21.430842 -22.567923 15.069011 34.578421 -0.811236 1.119878 -0.014830 -0.007117 -803375.000000 0 0 1
22.600442 -23.361923 14.463411 35.577376 -0.801964 1.152139 -0.019337 -0.016557 -380857.000000 0 0 1
22.785642 -24.529223 15.236411 36.783372 -0.822232 1.143711 -0.012734 -0.012119 557987.000000 0 0 1
23.941442 -25.228613 14.746611 37.777481 -0.811570 1.169780 -0.009819 -0.018378 260471.000000 0 0 1
24.309042 -26.409633 15.697211 39.176532 -0.826791 1.158539 -0.003257 -0.012535 -93884.400000 0 0 1
24.751342 -25.986433 16.953411 39.690575 -0.809736 1.129470 0.000388 -0.003930 -64922.600000 0 0 1
25.134542 -27.048463 17.749211 40.968268 -0.822059 1.122709 0.019665 0.001373 -4315.610000 0 0 1
25.436942 -26.672483 19.239511 41.576654 -0.809104 1.089704 0.007896 0.010736 237093.000000 0 0 1
24.306142 -26.266893 19.995811 40.994764 -0.824149 1.061269 0.003134 0.021721 68935.200000 0 0 1
24.657242 -26.027743 21.327211 41.716578 -0.812431 1.034169 0.008143 0.029876 212508.000000 0 0 1
23.430642 -25.900033 22.270411 41.421949 -0.835414 1.003152 0.000821 0.027550 -54503.300000 0 0 1
22.587642 -26.992023 22.337311 41.686045 -0.874000 1.005287 -0.000445 0.026408 125128.000000 0 0 1
21.687342 -26.838193 23.472511 41.732339 -0.891149 0.973446 0.008324 0.028820 557832.000000 0 0 1
21.087942 -28.257653 23.741771 42.507269 -0.929684 0.978178 0.018491 0.017151 -84620.700000 0 0 1
22.051442 -29.116963 24.329651 43.886165 -0.922614 0.983177 0.021371 0.017515 381144.000000 0 0 1
22.021642 -30.389473 23.718511 44.396402 -0.943720 1.007183 0.032025 0.005328 41983.900000 0 0 1
23.223742 -31.282383 24.153611 45.840229 -0.932183 1.015837 0.005526 0.015466 215283.000000 0 0 1
23.107642 -31.594093 25.520991 46.727623 -0.939312 0.993017 0.018679 0.009598 488427.000000 0 0 1
24.221742 -32.333143 26.036231 48.062566 -0.927852 0.998320 0.031370 0.006599 -426143.000000 0 0 1
24.058142 -32.825893 27.515271 49.126607 -0.938328 0.976303 0.039205 -0.008322 242115.000000 0 0 1
23.262842 -33.984563 27.687541 49.625701 -0.970541 0.978910 0.032540 -0.005115 -416686.000000 0 0 1
21.928442 -33.915943 27.319211 48.759481 -0.996848 0.976066 0.033158 -0.003719 -1498390.000000 0 0 1
21.068942 33.803509 27.719071 48.527564 1.013437 0.962826 0.056850 -0.024244 -405795.000000 0 0 1
20.688642 33.743787 29.101771 49.128161 1.020793 0.936806 0.058498 -0.009348 211089.000000 0 0 1
20.350242 32.408247 29.521401 48.331563 1.010090 0.913713 0.059479 -0.014343 -25644.800000 0 0 1
19.931942 32.476207 30.998861 49.121439 1.020335 0.887870 0.050395 -0.018546 -313689.000000 0 0 1
20.993342 32.708737 31.873971 50.264619 1.000188 0.883922 0.045301 -0.008281 -191530.000000 0 0 1
20.561842 32.844597 33.184092 51.017065 1.011454 0.862618 0.036451 -0.003179 699498.000000 0 0 1
21.806742 32.994493 34.151757 52.254312 0.986782 0.858507 0.020461 -0.001999 941013.000000 0 0 1
22.382642 31.714997 -34.373305 51.849280 0.956226 2.295544 0.019779 -0.001904 547575.000000 0 0 1
23.607342 31.799207 -33.623752 51.952410 0.932185 2.274706 0.012696 -0.001814 645185.000000 0 0 1
24.072842 30.360487 -33.274692 51.073144 0.900399 2.280370 0.016369 0.006383 -159190.000000 0 0 1
24.346342 29.687597 34.292265 51.478707 0.883928 0.841769 0.025666 -0.000726 218263.000000 0 0 1
23.713042 28.415977 -34.375845 50.512126 0.875372 2.319304 0.040935 -0.014833 2715.840000 0 0 1
23.734442 27.648977 33.049110 49.193834 0.861434 0.834141 0.068600 -0.024358 675544.000000 0 0 1
25.040442 27.126827 32.754799 49.353474 0.825371 0.845072 0.059461 -0.024326 971083.000000 0 0 1
25.065842 26.374947 31.586991 48.183735 0.810841 0.855882 0.072500 -0.034629 -607207.000000 0 0 1
26.341842 25.554027 31.493781 48.360719 0.770219 0.861597 0.066096 -0.025633 -531421.000000 0 0 1
26.496942 24.521767 32.409281 48.515631 0.746703 0.839255 0.088032 -0.029989 -160940.000000 0 0 1
27.549542 24.738287 33.295095 49.794814 0.731685 0.838410 0.080139 -0.030339 -1180870.000000 0 0 1
27.451742 23.883887 -34.156986 49.907293 0.716009 2.324589 0.068942 -0.030562 -298957.000000 0 0 1
26.341242 24.125007 -33.330892 48.855147 0.741511 2.321617 0.066721 -0.017787 799151.000000 0 0 1
25.010542 23.831087 -33.761802 48.304319 0.761254 2.344710 0.078234 -0.014233 277078.000000 0 0 1
24.681742 22.287887 -33.692952 47.340821 0.734476 2.362726 0.075353 -0.022816 -805649.000000 0 0 1
24.397942 21.783387 -32.435792 46.063610 0.728844 2.352025 0.050875 -0.020035 563162.000000 0 0 1
23.909542 20.417187 -32.563472 45.264859 0.706774 2.373732 0.052871 -0.015602 -4549.840000 0 0 1
23.766842 19.786687 -31.209052 43.936098 0.694266 2.360761 0.047933 -0.021374 416207.000000 0 0 1
22.664742 20.160187 -30.354932 42.913233 0.726981 2.356547 0.037533 -0.015769 720542.000000 0 0 1
22.716642 19.416587 -29.113212 41.720844 0.707233 2.343131 0.037729 -0.011838 713980.000000 0 0 1
21.468042 19.752587 -28.206562 40.578956 0.743806 2.339360 0.049049 -0.016114 652728.000000 0 0 1
21.467342 19.039687 -27.004702 39.403178 0.725538 2.325871 0.048435 -0.017111 234092.000000 0 0 1
22.268042 19.643187 -25.976202 39.452295 0.722851 2.289515 0.044305 -0.013408 176063.000000 0 0 1
22.277142 18.783187 -24.716672 38.209856 0.700509 2.274264 0.057214 -0.010957 -219948.000000 0 0 1
23.039442 17.637587 -24.886572 38.226193 0.653372 2.279743 0.050440 -0.023646 -166648.000000 0 0 1
22.935242 16.922987 -23.685272 37.059479 0.635686 2.264143 0.061099 -0.021878 -329101.000000 0 0 1
23.800242 15.641987 -23.542772 36.951122 0.581434 2.261569 0.060265 -0.027876 135342.000000 0 0 1
25.182042 15.900787 -23.334172 37.834559 0.563212 2.235394 0.067725 -0.030405 773947.000000 0 0 1
26.029442 14.744787 -23.554872 38.075880 0.515397 2.237794 0.064340 -0.029662 455364.000000 0 0 1
26.206042 13.679487 -22.431072 37.108463 0.481090 2.219901 0.064309 -0.028912 -220088.000000 0 0 1
25.042842 12.878287 -22.372272 35.965439 0.474983 2.242153 0.058728 -0.025129 115440.000000 0 0 1
24.800042 12.412487 -21.080272 34.835181 0.464050 2.220742 0.042035 -0.017256 -339255.000000 0 0 1
23.349742 11.940987 -20.910072 33.541448 0.472724 2.243893 0.035267 -0.016120 -130570.000000 0 0 1
22.455142 13.005987 -20.659672 33.169431 0.524984 2.243180 0.058024 -0.019301 -512906.000000 0 0 1
21.158842 12.678687 -21.083472 32.449322 0.539842 2.278033 0.048822 -0.024638 -306009.000000 0 0 1
20.183242 13.867287 -20.964072 32.235962 0.601995 2.278818 0.054290 -0.024020 -623821.000000 0 0 1
20.577342 14.990887 -21.718872 33.464356 0.629608 2.277085 0.052796 -0.024104 -402944.000000 0 0 1
19.734342 16.065487 -21.625672 33.394818 0.683272 2.275195 0.045908 -0.020420 -293752.000000 0 0 1
18.473442 15.985187 -22.557072 33.250801 0.713313 2.316368 0.039148 -0.010021 177913.000000 0 0 1
17.419142 15.233487 -21.982372 31.917242 0.718561 2.330533 0.020743 -0.015867 -220272.000000 0 0 1
16.403842 15.128087 -22.939172 32.002354 0.744961 2.369993 0.019586 -0.015365 -69734.400000 0 0 1
15.213542 14.222987 -22.532472 30.683180 0.751760 2.395518 0.002359 -0.008336 294334.000000 0 0 1
14.018942 14.500787 -23.215372 30.753164 0.802292 2.426288 0.011891 -0.012298 -332101.000000 0 0 1
12.938942 13.686587 -22.815472 29.585210 0.813471 2.451486 0.023074 -0.010211 115513.000000 0 0 1
11.685442 14.000587 -23.670672 29.880876 0.875288 2.485149 0.016748 -0.002638 -174623.000000 0 0 1
11.110642 15.241787 -23.382572 30.041690 0.940898 2.462810 0.000456 0.001200 -309922.000000 0 0 1
10.421942 15.748087 -24.471672 30.910870 0.986177 2.484359 0.012491 -0.004963 -982931.000000 0 0 1
10.388842 17.272887 -24.450172 31.687404 1.029309 2.452157 0.006457 -0.005598 610821.000000 0 0 1
11.660142 17.927887 -24.398772 32.444848 0.994146 2.421899 0.007250 -0.009996 1275950.000000 0 0 1
12.739342 17.667587 -25.351232 33.423337 0.946077 2.431788 0.012507 -0.015923 706708.000000 0 0 1
12.501742 17.953687 -26.868662 34.649004 0.962536 2.458228 0.025416 -0.026586 -246457.000000 0 0 1
13.582442 17.495087 -27.676812 35.448085 0.910639 2.466694 0.019008 -0.025744 -119141.000000 0 0 1
13.276042 17.253887 -29.043192 36.296790 0.914962 2.498356 0.016661 -0.028954 -513358.000000 0 0 1
14.317542 17.654387 -30.106842 37.723883 0.889390 2.494906 0.013093 -0.017342 474861.000000 0 0 1
15.513742 16.848787 -30.018812 37.758269 0.826628 2.489847 0.005517 -0.014519 475706.000000 0 0 1
16.356042 17.245587 -31.096062 39.139436 0.811865 2.488971 0.009435 -0.005442 -510234.000000 0 0 1
17.608542 16.416387 -31.265902 39.460299 0.750375 2.485428 0.025031 -0.005591 -1535850.000000 0 0 1
18.488942 16.501187 -30.179782 39.050601 0.728650 2.454097 0.035990 -0.013055 236455.000000 0 0 1
19.637742 15.698987 -30.460632 39.496193 0.674393 2.451567 0.044417 -0.011433 363081.000000 0 0 1
20.840242 16.345087 -31.170992 40.903647 0.665097 2.437283 0.045021 -0.013548 -600942.000000 0 0 1
20.620642 16.563987 -32.558152 41.947704 0.676733 2.459350 0.056223 -0.013665 414721.000000 0 0 1
21.779442 17.199087 -33.077542 43.177268 0.668425 2.443527 0.059010 -0.012135 101376.000000 0 0 1
21.721342 17.613387 34.198281 44.176583 0.681340 0.685462 0.037484 0.001810 194330.000000 0 0 1
22.835342 18.406387 33.801604 44.752613 0.678418 0.714686 0.044708 -0.006970 459345.000000 0 0 1
22.695042 18.818687 32.442251 43.837285 0.692293 0.737636 0.048447 -0.004970 113828.000000 0 0 1
23.579742 20.063587 32.132431 44.621126 0.705006 0.766825 0.063298 -0.007282 43898.900000 0 0 1
24.966642 19.867387 32.076651 45.243318 0.672149 0.782744 0.052588 -0.011335 -416449.000000 0 0 1
25.600742 21.113287 31.983871 46.088360 0.689630 0.803810 0.062161 -0.018117 230557.000000 0 0 1
27.104242 21.031287 31.583981 46.631565 0.659898 0.826698 0.059912 -0.024607 613455.000000 0 0 1
27.914542 20.498587 32.614131 47.572001 0.633399 0.815404 0.046286 -0.023685 -383746.000000 0 0 1
29.274042 20.791787 32.524721 48.447141 0.617570 0.834775 0.021346 -0.010801 -40065.200000 0 0 1
30.175842 20.242287 33.684810 49.547937 0.590866 0.823248 0.005005 -0.004265 184416.000000 0 0 1
30.060042 20.936587 -33.804472 49.846656 0.608368 2.316065 0.004107 -0.002025 -460230.000000 0 0 1
28.905442 20.703087 -33.072862 48.558796 0.621539 2.320045 0.010003 -0.008710 -563331.000000 0 0 1
29.140342 20.996587 -31.569572 47.818972 0.624374 2.291867 0.020743 -0.005432 545432.000000 0 0 1
30.123742 20.081387 -31.045522 47.691995 0.587977 2.279643 0.014810 -0.008673 458716.000000 0 0 1
30.729342 20.555187 -29.872672 47.530882 0.589555 2.250406 0.016659 -0.002037 -553834.000000 0 0 1
32.143842 20.039887 -29.619952 48.084979 0.557480 2.234441 0.004324 0.009911 -182497.000000 0 0 1
33.143442 20.737287 -30.371992 49.507381 0.559090 2.231261 -0.008984 0.002964 90774.300000 0 0 1
34.384742 20.508287 -29.719152 49.861091 0.537795 2.209355 -0.018346 0.015588 -98744.200000 0 0 1
35.508142 21.375587 -30.326632 51.356095 0.541882 2.202495 -0.040003 0.008991 -134410.000000 0 0 1
-35.255225 20.837487 -31.595902 51.724586 -0.533810 2.227929 -0.033761 0.006745 -122487.000000 0 0 1
-34.088925 21.411687 -32.119992 51.499602 -0.560835 2.244256 -0.029086 0.002703 -393154.000000 0 0 1
-33.411825 20.656387 -33.285382 51.487407 -0.553720 2.273753 -0.035179 0.003777 -166508.000000 0 0 1
-32.782725 19.476487 -32.811582 50.305472 -0.536076 2.281341 -0.006583 -0.001990 103693.000000 0 0 1
-31.814225 19.011287 -33.713832 50.101861 -0.538632 2.308926 0.002635 -0.003374 30926.700000 0 0 1
-30.994525 17.793887 -33.240502 48.807930 -0.521156 2.319988 -0.004549 0.006577 -178591.000000 0 0 1
-31.832825 16.682087 -33.204432 48.930104 -0.482704 2.316664 -0.002002 0.008337 330407.000000 0 0 1
-31.130525 15.448887 -33.351072 48.167123 -0.460653 2.335611 -0.001543 0.013925 -124105.000000 0 0 1
-32.150025 14.344887 -33.637112 48.691429 -0.419678 2.333422 0.003652 0.010800 -110577.000000 0 0 1
-31.612325 13.068387 -33.927352 48.178699 -0.392000 2.352090 0.017827 0.004158 223837.000000 0 0 1
-32.673425 12.124387 -33.906662 48.623196 -0.355328 2.342469 0.022272 0.000109 -63050.800000 0 0 1
-32.256225 10.646287 -33.817142 47.931269 -0.318796 2.353973 0.020269 0.002364 -491397.000000 0 0 1
-31.664525 10.210987 33.756130 47.396020 -0.311946 0.778148 0.016341 0.003145 -68832.100000 0 0 1
-32.031925 8.887987 33.436289 47.148976 -0.270664 0.782487 0.017666 -0.004519 -403795.000000 0 0 1
-31.090225 8.327587 32.374051 45.651177 -0.261709 0.782488 0.020346 -0.002805 -136247.000000 0 0 1
-29.764425 8.205587 32.809832 45.052611 -0.269002 0.755023 0.004755 0.009398 -748033.000000 0 0 1
-28.896525 7.749587 31.842901 43.692512 -0.262019 0.754235 0.012344 -0.001065 -760529.000000 0 0 1
20.559042 -4.122323 -31.738702 38.039624 -0.197887 2.557765 0.019209 -0.025862 -919508.000000 0 0 1
21.683442 -4.284623 -32.572992 39.364063 -0.195086 2.545402 0.011317 -0.028028 -253053.000000 0 0 1
22.739242 -3.491623 -32.069152 39.467646 -0.152361 2.519298 0.010450 -0.019559 -258709.000000 0 0 1
22.642842 -2.059423 -32.572912 39.723219 -0.090703 2.532202 0.013369 -0.021571 -1658570.000000 0 0 1
23.545242 -1.106223 -32.135382 39.853293 -0.046948 2.508737 0.023281 -0.015951 -360269.000000 0 0 1
23.179742 0.156677 -32.653992 40.045077 0.006759 2.524269 0.023968 -0.017584 160997.000000 0 0 1
23.994142 1.343677 -32.007342 40.024921 0.055942 2.497567 0.027989 -0.007256 185808.000000 0 0 1
25.386542 1.264077 -32.198382 41.022070 0.049752 2.473337 0.032401 -0.011751 -194014.000000 0 0 1
26.126742 2.290577 -31.566602 41.040270 0.087448 2.448325 0.026532 -0.003114 181296.000000 0 0 1
27.654242 2.250677 -31.789772 42.194932 0.081207 2.424018 0.030527 -0.004521 320948.000000 0 0 1
28.172642 2.629477 -33.102972 43.547890 0.093065 2.434342 0.048919 -0.008393 309096.000000 0 0 1
28.250242 1.583777 -34.022122 44.250303 0.056004 2.447847 0.046560 -0.011611 -262747.000000 0 0 1
28.839642 1.946377 33.346957 44.130861 0.067387 0.714169 0.048082 -0.030168 71032.100000 0 0 1
28.105542 2.920777 32.574671 43.122635 0.103550 0.714538 0.050997 -0.021162 385301.000000 0 0 1
28.456342 4.241577 32.888499 43.696770 0.147966 0.718714 0.057889 -0.019428 196311.000000 0 0 1
27.576942 5.267377 32.091471 42.639131 0.188733 0.718750 0.056061 -0.011072 79098.400000 0 0 1
27.950942 6.617577 32.394501 43.294933 0.232476 0.725409 0.061902 -0.008151 -118485.000000 0 0 1
27.092542 7.547277 31.807631 42.458128 0.271686 0.724014 0.045722 -0.009516 -267432.000000 0 0 1
27.436842 9.048477 32.113531 43.196459 0.318561 0.732612 0.036728 -0.008136 759850.000000 0 0 1
28.547342 9.598377 31.377451 43.492804 0.324352 0.764917 0.034645 -0.011500 468490.000000 0 0 1
28.619042 11.008177 31.550841 43.996421 0.367200 0.771131 0.029258 -0.003394 -5230.380000 0 0 1
29.951642 11.475877 30.929911 44.558456 0.365894 0.803569 0.028821 0.001786 -410030.000000 0 0 1
31.064942 10.946777 31.657441 45.684309 0.338797 0.805209 0.036687 -0.011735 798976.000000 0 0 1
32.337742 11.195577 31.044201 46.204036 0.333292 0.834034 0.031844 -0.011100 686163.000000 0 0 1
32.838842 12.594077 31.237781 47.040401 0.366212 0.844557 0.037770 -0.006540 -1211980.000000 0 0 1
33.037842 12.970977 32.615491 48.202858 0.374119 0.827620 0.045721 -0.004766 42497.000000 0 0 1
33.314142 14.339377 32.831957 48.922257 0.406460 0.835098 0.055307 0.004160 348303.000000 0 0 1
32.101042 15.329077 32.730209 48.339674 0.445507 0.826998 0.029402 0.001744 -841416.000000 0 0 1
31.857842 15.621977 31.387571 47.372438 0.455910 0.846551 0.024183 -0.008126 533376.000000 0 0 1
30.748542 16.523477 31.259091 46.857538 0.493098 0.840475 0.012126 -0.006703 818316.000000 0 0 1
29.335442 15.889877 31.389981 45.808157 0.496419 0.815851 0.017959 -0.000223 -455396.000000 0 0 1
28.996942 14.878877 30.446661 44.600480 0.474088 0.819409 0.007715 0.004470 32168.400000 0 0 1
27.612142 14.606677 30.428691 43.608378 0.486573 0.798514 -0.005533 0.002723 23286.500000 0 0 1
27.170342 14.023277 29.053331 42.177907 0.476464 0.810925 0.008481 0.006314 -36149.800000 0 0 1
27.574242 12.669177 28.823741 41.852777 0.430690 0.811111 0.013744 0.005070 -1441.130000 0 0 1
26.935642 12.087277 27.695501 40.480512 0.421811 0.817333 0.021016 -0.004460 123281.000000 0 0 1
26.790642 10.556477 27.769201 40.003828 0.375354 0.803539 0.027589 0.010821 368170.000000 0 0 1
27.970542 9.886577 27.343381 40.345460 0.339757 0.826123 0.033570 -0.000037 319149.000000 0 0 1
27.774442 8.498277 27.447801 39.962759 0.296929 0.813672 0.056678 -0.006980 -395698.000000 0 0 1
29.047942 7.740377 27.130491 40.493949 0.260418 0.836603 0.031989 -0.013661 -592190.000000 0 0 1
29.404942 7.871877 25.789301 39.896179 0.261572 0.867926 0.038760 -0.011344 -186221.000000 0 0 1
30.516142 7.094477 25.433711 40.353936 0.228425 0.888901 0.054110 -0.003145 -109273.000000 0 0 1
31.015442 7.316077 23.969191 39.874864 0.231650 0.925907 0.046804 -0.005959 -1154690.000000 0 0 1
31.338242 8.608277 23.525411 40.120230 0.268077 0.944223 0.027337 -0.009985 303942.000000 0 0 1
30.223142 9.376377 23.083411 39.168848 0.300823 0.940566 0.030168 -0.004912 -32981.800000 0 0 1
29.960542 9.203577 21.587811 38.057503 0.298040 0.967643 0.027681 -0.002361 -108903.000000 0 0 1
30.970142 9.700177 20.731511 38.510241 0.303532 1.002333 0.019108 0.003528 259654.000000 0 0 1
30.593942 9.531077 19.330411 37.423195 0.302005 1.027996 0.025990 -0.006381 -758184.000000 0 0 1
31.375442 10.410177 18.326611 37.797551 0.320364 1.064591 0.039596 -0.019583 816466.000000 0 0 1
32.754142 10.174177 18.039211 38.752559 0.301174 1.086600 0.044503 -0.013701 1057780.000000 0 0 1
33.642442 10.227177 19.185911 40.056313 0.295119 1.071311 0.031562 -0.006954 -1117010.000000 0 0 1
34.987042 9.686577 18.738311 40.853974 0.270096 1.094303 0.026774 -0.006109 -854690.000000 0 0 1
35.033842 8.260277 18.828411 40.621562 0.231551 1.088846 0.023169 -0.009771 443099.000000 0 0 1
-35.115925 7.846677 17.866911 40.173686 -0.219839 1.109911 0.029487 -0.014074 39275.200000 0 0 1
-35.173625 6.326377 17.557111 39.817824 -0.177959 1.114155 0.027200 -0.015984 72471.300000 0 0 1
34.778442 6.008477 16.801311 39.088693 0.171076 1.126497 0.014371 -0.011776 571478.000000 0 0 1
35.023342 4.721977 16.287511 38.912910 0.134016 1.138934 0.020485 -0.015269 -90244.200000 0 0 1
33.827242 3.748677 16.217611 37.700740 0.110368 1.126119 0.019680 -0.013310 -91367.400000 0 0 1
33.646642 3.043177 17.448411 38.023736 0.090200 1.094060 0.025411 -0.014744 -446947.000000 0 0 1
32.410742 2.404377 17.443411 36.885089 0.074049 1.078203 0.011279 -0.011338 -399263.000000 0 0 1
32.216642 1.487677 18.647111 37.253724 0.046145 1.046570 0.017992 -0.022235 25832.500000 0 0 1
33.043142 0.343477 18.629511 37.934495 0.010394 1.057448 0.018522 -0.021615 -59773.200000 0 0 1
32.744142 -0.395123 19.761411 38.247200 -0.012066 1.027832 0.020452 -0.020270 202982.000000 0 0 1
33.569742 -1.696223 19.853811 39.038168 -0.050485 1.037268 0.024197 -0.015623 -61505.400000 0 0 1
33.098242 -2.500023 20.885211 39.216524 -0.075390 1.009172 0.034860 -0.007955 137827.000000 0 0 1
33.716242 -3.778523 20.919911 39.858561 -0.111603 1.018253 0.015622 -0.006624 -340092.000000 0 0 1
33.084742 -4.552923 22.095711 40.044347 -0.136755 0.986298 0.014350 -0.000058 252651.000000 0 0 1
33.491842 -3.931623 23.367111 41.026613 -0.116856 0.964826 0.021202 -0.007340 577522.000000 0 0 1
32.741242 -4.437023 24.481491 41.122007 -0.134697 0.933110 0.018708 -0.005757 131978.000000 0 0 1
33.240642 -3.850123 25.779611 42.241592 -0.115312 0.914370 0.014972 -0.003463 -160732.000000 0 0 1
32.513742 -4.225623 26.934821 42.432109 -0.129240 0.883080 0.023923 -0.001885 -168217.000000 0 0 1
33.078042 -3.741523 28.121531 43.577246 -0.112633 0.869346 0.026626 -0.003715 -63118.800000 0 0 1
32.163642 -4.002223 29.355021 43.729108 -0.123797 0.834845 0.033564 -0.010117 162014.000000 0 0 1
32.049042 -5.372023 29.731851 44.045234 -0.166075 0.829791 0.024821 -0.015427 18214.300000 0 0 1
31.081342 -5.562523 30.742291 44.069036 -0.177092 0.798763 0.025500 -0.022051 4597.760000 0 0 1
31.059842 -6.962423 31.261241 44.614508 -0.220516 0.794423 0.032114 -0.015769 -22410.100000 0 0 1
32.258442 -7.294523 31.925001 45.967628 -0.222387 0.803057 0.036089 -0.017348 -218358.000000 0 0 1
32.641842 -8.581223 31.485231 46.156765 -0.257073 0.820115 0.025178 -0.009644 37539.800000 0 0 1
33.915242 -9.099123 32.190421 47.636760 -0.262117 0.828818 0.007323 -0.003033 165946.000000 0 0 1
33.721542 -9.284423 33.583445 48.489078 -0.268669 0.805712 0.011481 -0.012869 -107388.000000 0 0 1
34.942942 -9.550423 34.218540 49.830997 -0.266799 0.813868 0.006351 -0.011145 -381192.000000 0 0 1
34.751442 -9.955523 -33.062032 48.988500 -0.279006 2.311617 0.016296 -0.017660 -521105.000000 0 0 1
34.397142 -8.886223 -32.192412 47.942463 -0.252814 2.307001 0.012504 -0.018680 447876.000000 0 0 1
35.320142 -7.814423 -32.121662 48.377462 -0.217738 2.296925 0.007494 -0.011347 75324.600000 0 0 1
34.764042 -6.641423 -31.201052 47.182123 -0.188768 2.293333 0.016177 -0.006262 186915.000000 0 0 1
34.715142 -6.968123 -29.842632 46.306355 -0.198091 2.271114 0.020005 -0.008739 -2427.700000 0 0 1
34.077742 -5.924923 -29.188902 45.259134 -0.172144 2.271726 0.026022 -0.007788 -423470.000000 0 0 1
34.515742 -5.760623 -27.730822 44.648849 -0.165374 2.240925 0.025811 -0.013523 202706.000000 0 0 1
-35.290725 -5.231023 -27.706942 45.171601 0.147155 2.231118 0.038131 -0.013282 -41936.500000 0 0 1
-34.852825 -4.976623 -26.403022 44.006883 0.141831 2.214266 0.035543 -0.010869 -887016.000000 0 0 1
-33.365425 -4.792123 -26.247512 42.721750 0.142650 2.232400 0.046709 -0.009625 -1420910.000000 0 0 1
-32.981025 -4.400623 -24.929072 41.576100 0.132645 2.213799 0.048966 -0.016342 994243.000000 0 0 1
-31.581125 -4.245823 -24.674372 40.301602 0.133640 2.229691 0.059005 -0.015939 912345.000000 0 0 1
-30.662225 -3.240423 -25.405202 39.951179 0.105290 2.259978 0.051672 -0.009869 -288419.000000 0 0 1
-30.508125 -3.588823 -26.794132 40.762125 0.117097 2.288065 0.051343 -0.009705 161802.000000 0 0 1
-29.394025 -2.910823 -27.349042 40.254834 0.098706 2.317738 0.042806 -0.000680 185755.000000 0 0 1
-28.854725 -3.690123 -28.558522 40.765198 0.127196 2.346980 0.030538 0.001971 -536922.000000 0 0 1
-29.808025 -3.670123 -29.568642 42.146088 0.122509 2.348402 0.044275 -0.000290 -302372.000000 0 0 1
-29.494025 -4.587023 -30.620892 42.761868 0.154288 2.368966 0.036319 -0.001155 -523378.000000 0 0 1
-30.701625 -4.717323 -31.578842 44.295216 0.152458 2.364446 0.026235 -0.006697 556749.000000 0 0 1
-31.876925 -5.413723 -31.121352 44.877448 0.168227 2.337096 0.039525 -0.008887 1105450.000000 0 0 1
-32.642025 -4.766923 -30.087862 44.648682 0.145011 2.310244 0.041209 -0.012579 -263740.000000 0 0 1
-33.660325 -3.696323 -30.580872 45.627514 0.109374 2.305313 0.043386 -0.009899 21994.900000 0 0 1
-32.990325 -2.560423 -31.180702 45.465960 0.077456 2.326503 0.044843 -0.001471 331950.000000 0 0 1
-32.404925 -1.644723 -30.274182 44.376913 0.050712 2.321571 0.032027 0.003487 169868.000000 0 0 1
-31.804725 -0.394223 -30.952522 44.381917 0.012394 2.342578 0.038702 0.003973 -82813.600000 0 0 1
-32.867225 0.277577 -31.575512 45.577895 -0.008445 2.336135 0.026280 0.004436 17103.500000 0 0 1
-32.492525 1.442477 -32.205532 45.771620 -0.044365 2.351266 0.017185 0.009460 -306534.000000 0 0 1
-33.681925 2.275477 -32.672622 46.980316 -0.067455 2.339847 0.017479 0.006971 -346213.000000 0 0 1
-34.343225 1.886677 -33.868452 48.270992 -0.054881 2.348481 0.019352 0.008550 291015.000000 0 0 1
-35.533025 2.670177 -33.961722 49.225240 -0.075005 2.332182 0.018810 0.003820 -128511.000000 0 0 1
34.657542 2.262777 33.669977 48.372851 0.065197 0.800913 0.029623 0.004525 -535258.000000 0 0 1
34.987542 2.599877 32.320611 47.702299 0.074172 0.826372 0.020403 0.001449 -351690.000000 0 0 1
-35.267025 1.694377 31.764421 47.493288 -0.048007 0.838177 0.014070 0.004441 -842890.000000 0 0 1
-35.201325 1.719577 30.260071 46.451718 -0.048811 0.861328 0.017921 -0.005165 -541839.000000 0 0 1
-34.845425 2.945777 29.731051 45.900072 -0.084338 0.866190 0.019385 -0.003959 204014.000000 0 0 1
-34.552425 3.002277 28.335601 44.786047 -0.086673 0.885777 0.020421 -0.004063 178222.000000 0 0 1
-33.884525 4.373677 27.973721 44.156756 -0.128366 0.884716 0.013099 -0.003206 52959.900000 0 0 1
-33.197825 4.436277 26.734021 42.854218 -0.132845 0.897155 0.013433 0.000073 309518.000000 0 0 1
-32.906225 5.766277 26.409791 42.585756 -0.173472 0.901855 0.020306 0.000742 -386877.000000 0 0 1
-32.103825 5.947177 25.095101 41.179954 -0.183172 0.915492 0.031999 -0.004712 220328.000000 0 0 1
-30.780225 5.429377 25.295711 40.209120 -0.174596 0.890397 0.028548 0.000766 924043.000000 0 0 1
-29.924225 5.620377 24.143591 38.858215 -0.185657 0.900363 0.027666 -0.008306 197659.000000 0 0 1
-30.288925 5.144577 22.715211 38.208199 -0.168244 0.934138 0.048134 -0.024402 -757056.000000 0 0 1
-30.374625 3.741077 22.573711 38.028751 -0.122547 0.935277 0.041801 -0.017682 66043.100000 0 0 1
-31.101725 3.338077 21.433411 37.919008 -0.106918 0.970070 0.050548 -0.023282 -854879.000000 0 0 1
-30.898425 1.889577 21.004311 37.409414 -0.061078 0.974634 0.045163 -0.014748 -359631.000000 0 0 1
-29.672525 1.437277 20.493411 36.090226 -0.048400 0.966919 0.038822 -0.012786 -129063.000000 0 0 1
-29.303225 1.990577 19.240811 35.111966 -0.067826 0.990844 0.035079 -0.016322 -526744.000000 0 0 1
-28.126825 1.257677 18.610511 33.749832 -0.044685 0.986725 0.048833 -0.009388 -452280.000000 0 0 1
-28.524425 -0.055223 18.310311 33.895624 0.001936 1.000125 0.056605 -0.014356 373387.000000 0 0 1
-27.588325 -0.800823 17.542411 32.703106 0.029019 1.004614 0.062014 -0.007987 -44713.100000 0 0 1
-27.551625 -0.480723 16.046411 31.887465 0.017446 1.043475 0.048597 0.001101 -23693.300000 0 0 1
-27.145425 0.865077 15.836611 31.439159 -0.031857 1.042894 0.048183 0.000578 275600.000000 0 0 1
-27.513525 1.260477 14.538911 31.144226 -0.045781 1.085099 0.060013 0.001086 -21564.600000 0 0 1
-26.890325 2.646777 14.240811 30.543341 -0.098113 1.085750 0.059393 -0.004756 150048.000000 0 0 1
-25.487125 2.536477 14.082811 29.229314 -0.099193 1.068084 0.052964 -0.010732 20655.500000 0 0 1
-25.074525 3.636677 13.298211 28.614675 -0.144030 1.087462 0.060262 -0.018367 -414858.000000 0 0 1
-23.564325 3.824977 13.127411 27.244023 -0.160917 1.068037 0.061606 -0.017711 -570363.000000 0 0 1
-22.961625 4.144977 14.371511 27.403602 -0.178594 1.018741 0.055808 -0.012154 -811784.000000 0 0 1
-21.618325 4.332277 14.077811 26.159231 -0.197779 1.002546 0.057516 -0.009589 -672638.000000 0 0 1
-20.818225 4.936977 15.308711 26.308342 -0.232846 0.949739 0.037316 -0.011447 122002.000000 0 0 1
-20.782225 6.317077 15.390511 26.620935 -0.295091 0.954354 0.034517 -0.008402 274239.000000 0 0 1
-20.068825 6.597277 16.556911 26.840512 -0.317604 0.906046 0.026060 -0.002012 -236074.000000 0 0 1
-20.298425 8.080277 16.900511 27.621445 -0.378845 0.912384 0.027056 -0.007477 -40679.000000 0 0 1
-19.585625 8.967877 16.005111 26.836227 -0.429388 0.931788 0.017322 -0.010959 455984.000000 0 0 1
-19.782925 10.385177 16.179111 27.585860 -0.483413 0.944065 0.023058 -0.003994 -512062.000000 0 0 1
-19.300425 11.092377 17.491011 28.310470 -0.521625 0.904818 0.029720 -0.001435 -445815.000000 0 0 1
-19.973425 10.631177 18.597711 29.288812 -0.489126 0.882818 0.034349 -0.011264 386344.000000 0 0 1
-19.404525 11.143477 19.808211 29.884409 -0.521287 0.846208 0.043752 -0.007186 -319482.000000 0 0 1
-12.201358 -33.805432 -21.023972 41.637577 1.224419 2.100095 0.054202 -0.019008 -363205.000000 0 0 1
-13.026658 -34.225732 -19.960772 41.707637 1.207116 2.069842 0.081631 -0.018668 -507727.000000 0 0 1
-14.043558 -33.293432 -19.753172 41.180845 1.171629 2.071074 0.070502 -0.037686 -687480.000000 0 0 1
-15.282458 -33.900032 -19.121372 41.813785 1.147269 2.045751 0.065817 -0.031102 -1326600.000000 0 0 1
-15.989158 34.164277 -19.963672 42.677854 -1.133068 2.057569 0.070403 -0.038785 -52893.700000 0 0 1
-16.733758 33.147477 -19.308872 41.852198 -1.103294 2.050322 0.067550 -0.023406 686031.000000 0 0 1
-18.063958 33.542577 -18.574472 42.384220 -1.076796 2.024436 0.067637 -0.023965 -271269.000000 0 0 1
-17.941758 34.392877 -17.428072 42.526632 -1.089963 1.993048 0.066699 -0.023681 293509.000000 0 0 1
-19.274258 -34.300432 -16.999572 42.860263 1.058844 1.978637 0.046030 -0.016509 311592.000000 0 0 1
-19.623558 33.997077 -15.647772 42.257994 -1.047300 1.950119 0.055011 -0.019866 -464532.000000 0 0 1
-19.378858 32.607577 -15.516872 40.982528 -1.034575 1.959103 0.052659 -0.026057 199042.000000 0 0 1
-19.917558 32.133177 -14.295472 40.417951 -1.015913 1.932311 0.053449 -0.023710 -31241.700000 0 0 1
-19.866058 30.575377 -14.051072 39.076164 -0.994604 1.938616 0.050932 -0.028100 385153.000000 0 0 1
-18.548858 30.123477 -13.765772 37.960249 -1.018869 1.941892 0.045307 -0.034603 339700.000000 0 0 1
-18.591758 28.759177 -13.516172 36.816174 -0.996911 1.946714 0.042283 -0.038320 1502210.000000 0 0 1
-17.184358 28.057477 -13.139872 35.428526 -1.021258 1.950757 0.059962 -0.031362 2421040.000000 0 0 1
-16.167658 28.139277 -14.197972 35.423079 -1.049294 1.983199 0.061806 -0.030916 22078.800000 0 0 1
-15.039658 27.460377 -13.760472 34.199623 -1.069732 1.984887 0.073582 -0.035463 -776875.000000 0 0 1
-13.741858 27.956877 -14.399072 34.318493 -1.113941 2.003770 0.075001 -0.035555 -577890.000000 0 0 1
-13.786658 27.885477 -15.843572 34.909749 -1.111637 2.041871 0.065105 -0.036905 -561701.000000 0 0 1
-12.834258 28.675377 -16.461072 35.467765 -1.149964 2.053430 0.066658 -0.031270 -679127.000000 0 0 1
-12.893658 28.659177 -18.029972 36.230854 -1.148029 2.091674 0.080952 -0.043612 -167050.000000 0 0 1
-12.544058 27.430177 -18.643272 35.458985 -1.141881 2.124416 0.055027 -0.040053 388651.000000 0 0 1
-13.053058 27.523177 -19.962572 36.419938 -1.127954 2.150914 0.036135 -0.041405 96609.400000 0 0 1
-12.347658 26.463277 -20.845072 35.878778 -1.134227 2.190736 0.012296 -0.026514 -804662.000000 0 0 1
-11.044758 26.749677 -21.246172 35.901696 -1.179225 2.204071 0.010818 -0.030519 -805207.000000 0 0 1
-10.552858 25.459477 -21.622172 35.029504 -1.177856 2.236047 0.013401 -0.023576 -228512.000000 0 0 1
-9.294058 25.659377 -22.469072 35.350281 -1.223287 2.259598 0.039373 -0.032677 -360790.000000 0 0 1
-9.630758 26.315677 -23.666272 36.679133 -1.219965 2.272113 0.031536 -0.031139 -210527.000000 0 0 1
-8.643958 26.217977 -24.656972 37.014411 -1.252323 2.299825 0.027531 -0.029763 -354523.000000 0 0 1
-9.018458 27.002577 -25.953842 38.523677 -1.248459 2.310016 0.024462 -0.023250 -575793.000000 0 0 1
-10.015058 26.392477 -26.701572 38.856637 -1.208116 2.328399 0.013780 -0.014901 -514083.000000 0 0 1
-10.208158 27.004077 -27.929022 40.167860 -1.209378 2.339644 0.020733 -0.008140 970920.000000 0 0 1
-11.639358 26.535277 -28.439512 40.600511 -1.157432 2.346855 0.015351 -0.007835 1127050.000000 0 0 1
-11.919858 26.917277 -29.808812 41.894965 -1.153918 2.362445 0.016305 -0.006590 602537.000000 0 0 1
-13.206758 26.487077 -30.269012 42.334346 -1.108260 2.367419 0.011079 -0.007781 418300.000000 0 0 1
-13.317358 26.927777 -31.761112 43.717565 -1.111511 2.384021 0.008969 -0.006834 105066.000000 0 0 1
-12.472958 26.398577 -32.817982 43.925841 -1.129401 2.414519 0.018961 -0.010612 455123.000000 0 0 1
-12.496858 24.953077 -32.894122 43.137580 -1.106497 2.438026 0.016688 -0.011047 -48222.900000 0 0 1
-11.551658 24.471677 -34.018262 43.468908 -1.129764 2.469609 0.016663 -0.010817 -41958.100000 0 0 1
-12.090058 24.734777 33.453271 43.325513 -1.116159 0.688598 0.020750 -0.014100 -161298.000000 0 0 1
-11.416458 24.090777 32.429261 41.980448 -1.128251 0.688051 0.027002 -0.013372 -954780.000000 0 0 1
-12.129558 24.193477 31.077391 41.209886 -1.106064 0.716476 0.037760 -0.010211 273049.000000 0 0 1
-13.354458 23.444677 31.170621 41.226230 -1.053018 0.713483 0.045454 -0.016747 550700.000000 0 0 1
-14.001558 23.440377 29.885271 40.479925 -1.032345 0.740289 0.047830 -0.015779 539162.000000 0 0 1
-15.379158 22.724677 29.846621 40.543190 -0.975838 0.743405 0.038788 -0.013262 474313.000000 0 0 1
-15.124758 21.378077 30.110101 39.904870 -0.955062 0.715833 0.047356 -0.023829 463340.000000 0 0 1
-16.325358 20.664677 30.424411 40.239172 -0.902175 0.713479 0.041837 -0.024819 445814.000000 0 0 1
-16.054758 19.197777 30.672001 39.586381 -0.874320 0.684379 0.046691 -0.030560 -73634.600000 0 0 1
-15.922458 18.375377 29.556941 38.272600 -0.856795 0.688383 0.054974 -0.018323 39456.300000 0 0 1
-15.205258 17.217077 29.910751 37.713136 -0.847369 0.654894 0.045530 -0.038222 -132293.000000 0 0 1
-14.769558 16.421477 28.688251 36.205255 -0.838310 0.656099 0.042827 -0.025019 332176.000000 0 0 1
-13.883458 17.158877 27.832381 35.522090 -0.890524 0.670481 0.054355 -0.028249 130497.000000 0 0 1
-13.324358 16.326977 26.847311 34.130438 -0.886318 0.665499 0.028919 -0.016902 336076.000000 0 0 1
-12.333858 16.948277 25.785681 33.230551 -0.941698 0.682556 0.030195 -0.015939 386638.000000 0 0 1
-12.787758 17.799277 24.693981 33.017173 -0.947800 0.725884 0.020355 -0.012432 -328681.000000 0 0 1
-13.276358 19.088077 25.042311 34.172119 -0.963076 0.748326 0.026565 -0.013409 -393871.000000 0 0 1
-12.315058 20.157277 25.628651 34.854042 -1.022365 0.744667 0.042226 -0.016765 -314650.000000 0 0 1
-11.818558 19.812277 26.898291 35.436178 -1.032934 0.708924 0.049776 -0.017485 -339291.000000 0 0 1
-12.657658 20.087177 27.990521 36.703954 -1.008512 0.703470 0.060502 -0.016741 -349983.000000 0 0 1
-12.158458 19.572877 29.359641 37.321765 -1.014942 0.665412 0.068773 -0.020947 404802.000000 0 0 1
-10.979658 20.200777 29.871581 37.695300 -1.072937 0.655984 0.051509 -0.026308 410640.000000 0 0 1
-10.967658 20.140577 31.289901 38.794204 -1.072143 0.632485 0.036830 -0.028061 734999.000000 0 0 1
-9.736858 20.920077 31.924661 39.390862 -1.135184 0.625862 0.029663 -0.023039 411981.000000 0 0 1
-8.504858 20.289877 31.840951 38.702169 -1.173876 0.604621 0.034857 -0.021788 -241448.000000 0 0 1
-7.488258 21.065377 32.483971 39.433900 -1.229251 0.602789 0.029539 -0.014970 249350.000000 0 0 1
-6.212258 20.376977 32.963917 39.248352 -1.274881 0.573734 0.021969 -0.013331 -481692.000000 0 0 1
-6.426858 19.500177 34.050300 39.761594 -1.252428 0.542614 0.022270 -0.019611 1168490.000000 0 0 1
-5.236758 19.017677 -33.979222 39.289734 -1.302093 2.615622 0.015787 -0.021363 1509410.000000 0 0 1
-4.365358 17.924177 34.048869 38.725417 -1.331901 0.496535 0.006795 -0.019651 198807.000000 0 0 1
-4.961358 16.644277 33.995572 38.175201 -1.281100 0.472321 0.009702 -0.017885 -251293.000000 0 0 1
-4.673158 15.971677 32.763945 36.747911 -1.286151 0.469960 0.008399 -0.013265 -86476.900000 0 0 1
-5.347358 14.574677 32.710593 36.207711 -1.219151 0.443128 0.019408 -0.016569 -2416.150000 0 0 1
-4.571558 13.518977 33.254291 36.187149 -1.244709 0.405379 0.017574 -0.007573 205235.000000 0 0 1
-5.420058 12.360177 33.383218 36.008197 -1.157539 0.384195 0.027770 -0.004549 446243.000000 0 0 1
-4.671258 11.101577 33.830603 35.910658 -1.172510 0.342026 0.032187 -0.006094 117893.000000 0 0 1
-4.423758 10.949677 -33.514242 35.534061 -1.186840 2.802805 0.041543 -0.007370 -17830.300000 0 0 1
-3.532258 9.870977 -33.233322 34.847765 -1.227152 2.836009 0.042852 -0.009244 333471.000000 0 0 1
-3.422358 9.448577 -31.763892 33.315657 -1.223287 2.835182 0.046820 -0.009095 -347993.000000 0 0 1
-4.536458 8.732277 -31.336112 32.844848 -1.091667 2.837319 0.056442 -0.004633 -316890.000000 0 0 1
-4.477758 8.515577 -29.922472 31.431190 -1.086698 2.830499 0.059427 0.001731 -465982.000000 0 0 1
-5.757458 7.829577 -29.509042 31.068218 -0.936739 2.823438 0.056686 -0.008095 -553655.000000 0 0 1
-5.639158 7.080377 -28.294802 29.707367 -0.898225 2.831977 0.054114 -0.009867 730578.000000 0 0 1
-6.774458 6.209477 -28.111692 29.575634 -0.741912 2.825643 0.066256 -0.021984 24298.500000 0 0 1
-6.678658 5.403977 -26.784942 28.128999 -0.680290 2.831214 0.051340 -0.020939 -367050.000000 0 0 1
-6.800858 6.162177 -25.599622 27.194940 -0.736169 2.797369 0.031497 -0.012954 642416.000000 0 0 1
-5.779658 7.160977 -25.331442 26.951178 -0.891738 2.793137 0.030882 -0.008765 143371.000000 0 0 1
-6.159658 8.242577 -24.290072 26.379710 -0.929027 2.740888 0.013742 0.005111 -43521.200000 0 0 1
-6.387458 7.614977 -23.017072 25.071360 -0.872839 2.733961 0.011228 0.003279 -37211.500000 0 0 1
-7.695058 7.948677 -22.603372 25.165608 -0.801609 2.686420 0.010770 0.004658 -299274.000000 0 0 1
-7.776258 8.103877 -21.084772 23.889551 -0.806026 2.652148 0.008838 0.001197 -257802.000000 0 1 0
-7.050958 9.136877 -20.482172 23.509953 -0.913549 2.628464 -0.005552 0.002474 -86453.000000 0 1 0
-6.877258 9.116377 -19.110772 22.262673 -0.924495 2.602982 0.003329 -0.000101 -650812.000000 0 1 0
-8.008658 9.756577 -18.327272 22.253501 -0.883472 2.538469 -0.008261 0.013668 -1025850.000000 0 1 0
-7.830958 9.785977 -16.927672 21.062653 -0.895920 2.504253 -0.010325 0.010076 -442524.000000 0 1 0
-9.000658 9.996377 -16.210872 21.064942 -0.837765 2.448958 -0.000231 0.005500 -342703.000000 0 1 0
-9.626358 11.437377 -16.358672 22.160472 -0.871165 2.401182 0.001709 0.000336 -925473.000000 0 1 0
-8.690358 12.382077 -15.970972 21.997957 -0.958830 2.383314 -0.006825 0.000036 -294022.000000 0 1 0
-9.075758 13.697777 -16.231572 23.096805 -0.985634 2.350070 0.014163 -0.002388 -133848.000000 0 1 0
-7.897558 14.678277 -16.070872 23.153751 -1.077179 2.337956 0.029292 -0.002052 -335328.000000 0 1 0
-7.362458 14.846077 -14.755072 22.188374 -1.110419 2.298278 0.026011 0.002257 276141.000000 0 1 0
-8.183258 15.332977 -13.661972 22.106908 -1.080551 2.236987 0.023473 -0.014327 -570869.000000 0 1 0
-7.407458 16.089377 -12.557772 21.712580 -1.139332 2.187518 0.020231 -0.011101 -26171.700000 0 1 0
-7.087958 17.447977 -12.908272 22.831876 -1.184928 2.171668 0.032160 -0.009623 923958.000000 0 1 0
-6.015658 17.609677 -13.894472 23.223808 -1.241615 2.212156 0.041357 -0.002880 616533.000000 0 1 0
-5.888358 19.037077 -14.406872 24.589450 -1.270820 2.196782 0.055275 0.005259 131262.000000 0 1 0
-5.313058 19.914877 -13.453072 24.613331 -1.310080 2.149067 0.048539 -0.003522 -103291.000000 0 1 0
-5.236158 21.254177 -13.866172 25.911930 -1.329247 2.135454 0.039426 -0.002448 -86823.300000 0 0 1
-4.653458 22.329177 -12.814472 26.162139 -1.365335 2.082668 0.042146 -0.001206 -405520.000000 0 0 1
-4.692658 23.737177 -13.069072 27.500460 -1.375621 2.066023 0.024168 -0.005802 159736.000000 0 0 1
-5.986458 24.316877 -13.176372 28.297791 -1.329411 2.055146 0.036096 -0.008134 389857.000000 0 0 1
-6.807558 24.450077 -11.862172 28.015358 -1.299247 2.008010 0.030512 -0.010929 -112175.000000 0 0 1
-7.245658 23.152477 -11.472672 26.835778 -1.267498 2.012537 0.037237 -0.006133 -387816.000000 0 0 1
-7.886158 22.998177 -10.248072 26.384288 -1.240457 1.969708 0.046945 -0.007351 45663.800000 0 0 1
-7.077358 23.394577 -8.956372 26.030979 -1.277028 1.922040 0.030518 -0.006734 142814.000000 0 0 1
-7.065358 24.770077 -8.767472 27.209274 -1.292937 1.898874 0.030324 -0.007556 -36465.400000 0 0 1
-6.274958 25.094977 -7.632172 26.970040 -1.325772 1.857703 0.025944 -0.007050 132480.000000 0 0 1
-6.305858 26.599977 -7.266672 28.286519 -1.338031 1.830605 0.013588 -0.014774 -398793.000000 0 0 1
-5.626158 27.486077 -8.068872 29.193232 -1.368894 1.850838 0.015571 -0.017183 -603768.000000 0 0 1
-6.041858 27.563477 -9.406972 29.744587 -1.355011 1.892579 0.020488 -0.020302 126081.000000 0 0 1
-5.464558 28.701477 -10.327072 30.988459 -1.382655 1.910551 0.013510 -0.015373 570132.000000 0 0 1
-6.295358 29.851677 -10.212372 32.172142 -1.362954 1.893813 0.017179 -0.012915 25285.200000 0 0 1
-7.155858 30.146477 -11.264972 32.968409 -1.337740 1.919511 0.028057 -0.012107 -143158.000000 0 0 1
-8.240958 31.211677 -10.945472 34.086442 -1.312653 1.897697 0.027374 -0.014552 71463.000000 0 0 1
-9.296058 30.670477 -10.184572 33.627673 -1.276503 1.878491 0.035123 -0.009771 328560.000000 0 0 1
-10.347158 31.631477 -10.007872 34.753008 -1.254652 1.862904 0.033982 -0.016014 958585.000000 0 0 1
-11.586958 31.218377 -9.153272 34.534433 -1.215398 1.839050 0.043030 -0.011358 704277.000000 0 0 1
-12.321458 30.128277 -9.776972 33.987065 -1.182584 1.862587 0.057745 -0.018223 138960.000000 0 0 1
-13.396058 29.862577 -8.892672 33.916184 -1.149115 1.836093 0.061958 -0.014282 143653.000000 0 0 1
-14.338758 28.711477 -9.332372 33.422180 -1.107622 1.853785 0.069080 -0.018312 16685.100000 0 0 1
-14.010258 27.395977 -8.931972 32.040709 -1.098072 1.853309 0.070083 -0.018822 -361561.000000 0 0 1
-14.826358 26.495477 -9.591072 31.840538 -1.060627 1.876770 0.076999 -0.024010 -420320.000000 0 0 1
-14.916258 25.068577 -9.046472 30.541234 -1.034048 1.871513 0.066805 -0.022378 -563408.000000 0 0 1
-13.849058 24.226877 -9.324572 29.422536 -1.051491 1.893276 0.071987 -0.018008 -307883.000000 0 0 1
-14.107558 22.975577 -8.781672 28.355213 -1.020129 1.885676 0.074707 -0.022113 297933.000000 0 0 1
-13.051058 21.932177 -9.288772 27.159378 -1.034014 1.919851 0.077454 -0.020187 259333.000000 0 0 1
-13.245758 21.532877 -10.646772 27.431162 -1.019318 1.969395 0.077572 -0.015083 85123.600000 0 0 1
-12.600158 20.315677 -10.881672 26.265976 -1.015643 1.997956 0.070179 -0.012164 -314803.000000 0 0 1
-13.010358 19.691077 -12.224572 26.579092 -0.986920 2.048715 0.061463 -0.008092 -452580.000000 0 0 1
-14.291858 19.150677 -12.187472 26.824245 -0.929677 2.042434 0.055669 -0.003223 -646458.000000 0 0 1
-14.554858 18.610977 -13.468872 27.196009 -0.907092 2.088921 0.053951 -0.001679 529219.000000 0 0 1
-16.010058 18.761077 -14.025472 28.372766 -0.864352 2.087859 0.047984 0.013658 402777.000000 0 0 1
-16.412758 20.085677 -14.172472 29.557944 -0.885693 2.070860 0.024498 0.010222 -4845.850000 0 0 1
-17.595058 20.049177 -14.955572 30.581444 -0.850498 2.081786 0.014379 0.014360 -221351.000000 0 0 1
-18.003358 21.384877 -15.573572 31.999532 -0.871039 2.079083 0.015186 0.007122 -111532.000000 0 0 1
-18.396258 22.409477 -14.661872 32.489652 -0.883432 2.038994 0.021969 -0.013627 324734.000000 0 0 1
-18.617358 23.561277 -15.423572 33.758353 -0.902080 2.045283 0.030260 -0.015786 -311274.000000 0 0 1
-19.366658 24.628677 -14.653672 34.588572 -0.904437 2.008274 0.024728 -0.004303 715759.000000 0 0 1
-20.707458 24.230577 -14.292472 34.931282 -0.863638 1.992329 0.036386 -0.011074 1115860.000000 0 0 1
-21.325758 25.223477 -13.470672 35.671708 -0.868937 1.958031 0.038959 -0.023087 -191292.000000 0 0 1
-25.432698 -0.864723 3.967728 25.754858 0.033987 1.416123 0.056839 -0.033076 -77348.400000 0 0 1
-26.023308 -0.133823 5.025028 26.504365 0.005142 1.380049 0.070085 -0.026415 610329.000000 0 0 1
-27.225188 -0.739423 5.503128 27.785644 0.027153 1.371422 0.056652 -0.023905 239718.000000 0 0 1
-27.884138 0.134377 6.616628 28.658733 -0.004819 1.337818 0.052767 -0.018561 -600899.000000 0 0 1
-28.297758 1.432277 6.153428 28.994468 -0.050571 1.356942 0.072489 -0.026060 512569.000000 0 0 1
-28.823718 2.127477 7.328328 29.816728 -0.073676 1.322473 0.080775 -0.014188 87129.600000 0 0 1
-27.736908 2.835677 8.191628 29.059936 -0.101881 1.285036 0.102129 -0.020181 -280918.000000 0 0 1
-26.962248 1.949577 8.909728 28.463080 -0.072182 1.252417 0.078214 -0.022588 -8072.870000 0 0 1
-25.887098 2.671877 9.506428 27.706550 -0.102849 1.220569 0.086384 -0.025969 -9353.600000 0 0 1
-24.814358 1.749877 10.127228 26.858428 -0.070402 1.184177 0.064741 -0.021569 -428325.000000 0 0 1
-24.013658 1.070077 9.158928 25.723273 -0.044532 1.206752 0.072604 -0.022533 273995.000000 0 0 1
-24.569358 -0.039723 8.454928 25.983470 0.001617 1.239365 0.066744 -0.017091 -938578.000000 0 0 1
-23.537758 -0.981423 7.852428 24.832436 0.041672 1.249058 0.065422 -0.025097 -212574.000000 0 1 0
-22.871358 -1.818623 8.793328 24.570898 0.079348 1.204804 0.064166 -0.033312 589996.000000 0 1 0
-21.827258 -2.594823 8.223628 23.468923 0.118325 1.212793 0.064175 -0.026822 502906.000000 0 1 0
-20.677758 -2.989023 9.199428 22.828346 0.143558 1.156023 0.062152 -0.011310 380847.000000 0 1 0
-19.765458 -2.001323 9.656328 22.088986 0.100910 1.118362 0.039571 -0.008259 540328.000000 0 1 0
-20.314958 -1.015523 10.550228 22.913666 0.049947 1.092312 0.045402 -0.012565 -897943.000000 0 1 0
-19.549658 0.242877 10.806128 22.338767 -0.012423 1.065875 0.019929 -0.009827 -1214200.000000 0 1 0
-19.800758 1.337677 9.944328 22.197951 -0.067454 1.106287 0.023744 -0.014215 732017.000000 0 1 0
-20.819058 2.210177 10.460828 23.403995 -0.105765 1.107424 0.048916 -0.009627 124573.000000 0 1 0
-21.217858 3.462477 9.692328 23.582355 -0.161761 1.147247 0.043175 -0.023594 -526011.000000 0 1 0
-21.946858 4.364477 10.469828 24.704868 -0.196305 1.133164 0.062090 -0.023839 315684.000000 0 1 0
-22.351658 5.455077 9.716028 24.975101 -0.239377 1.171219 0.053899 -0.021317 -315018.000000 0 1 0
-22.446958 6.735577 10.588828 25.716866 -0.291518 1.146427 0.053674 -0.023692 -389860.000000 0 0 1
-23.387558 6.651477 11.611428 26.945227 -0.277086 1.125276 0.060100 -0.019552 19748.800000 0 0 1
-23.535458 7.851377 12.332228 27.706421 -0.321989 1.109506 0.061545 -0.019143 -86951.100000 0 0 1
-24.388658 7.586777 13.599428 28.936314 -0.301589 1.081531 0.062521 -0.020118 633827.000000 0 0 1
-25.771278 7.369677 13.320228 29.931578 -0.278531 1.109597 0.069879 -0.013380 433697.000000 0 0 1
-26.513338 7.067977 14.480728 31.025874 -0.260523 1.085206 0.063019 -0.018117 303549.000000 0 0 1
-27.975248 6.653577 14.164528 32.054928 -0.233500 1.113100 0.046486 -0.005501 162222.000000 0 0 1
-28.185788 5.454577 13.443128 31.700296 -0.191159 1.132862 0.051150 -0.000798 124337.000000 0 0 1
-29.188318 5.602377 12.447028 32.222244 -0.189633 1.174194 0.046997 -0.012162 -405249.000000 0 0 1
-29.445638 4.249577 11.710928 31.972650 -0.143330 1.195789 0.064681 -0.011166 -111832.000000 0 0 1
-29.984258 3.261377 12.592028 32.684116 -0.108344 1.175302 0.041442 -0.009838 253388.000000 0 0 1
-30.386608 2.158277 11.839028 32.682819 -0.070908 1.200126 0.039106 -0.006139 -458408.000000 0 0 1
-31.387628 1.275677 12.550228 33.827781 -0.040620 1.190707 0.029636 0.008051 -488365.000000 0 0 1
-30.782908 0.460777 13.552528 33.637341 -0.014967 1.156112 0.021255 0.009286 347176.000000 0 0 1
-31.784038 -0.271623 14.249928 34.833307 0.008546 1.149341 0.020356 0.010599 366772.000000 0 0 1
-31.239438 -1.509923 15.023828 34.697230 0.048296 1.122980 0.029273 0.000717 -70905.300000 0 0 1
-31.119558 -2.708823 14.309828 34.358926 0.086827 1.141226 0.027087 -0.002404 149062.000000 0 0 1
-31.375308 -3.748723 15.226828 35.075906 0.118916 1.121745 0.021549 -0.004537 -88360.200000 0 0 1
-31.282578 -5.195823 14.770228 34.982222 0.164591 1.134902 0.026552 -0.001762 -219561.000000 0 0 1
-32.356528 -5.593823 13.964828 35.682659 0.171189 1.168685 0.018277 -0.008283 -131855.000000 0 0 1
-32.247278 -6.931223 13.575728 35.668322 0.211719 1.180340 0.019416 -0.008064 -836998.000000 0 0 1
-33.314078 -7.306523 12.559428 36.344907 0.215904 1.217958 0.018482 -0.010474 654059.000000 0 0 1
-34.689305 -7.223523 12.955128 37.727477 0.205301 1.220275 0.010784 -0.007349 682444.000000 0 0 1
-35.268526 -5.966023 13.018928 38.065139 0.167574 1.221734 0.023840 -0.008053 -679643.000000 0 0 1
34.376279 -5.893223 12.583628 37.078381 -0.169782 1.224540 0.040974 -0.012053 -12921.400000 0 0 1
33.492659 -6.576523 13.463028 36.691443 -0.193890 1.195094 0.029437 -0.004361 286904.000000 0 0 1
32.165299 -6.191223 13.072228 35.267844 -0.190156 1.191081 0.036620 -0.005051 403636.000000 0 0 1
31.208079 -7.340623 13.449728 34.766710 -0.231016 1.173576 0.025028 0.002784 -222043.000000 0 0 1
30.819479 -7.365623 14.854228 34.996297 -0.234592 1.132440 0.020245 -0.000478 1109240.000000 0 0 1
29.774319 -8.361023 15.117128 34.423020 -0.273763 1.116136 0.018686 -0.000906 769357.000000 0 0 1
29.227269 -8.366023 16.577728 34.627224 -0.278786 1.071568 0.011689 -0.004145 14701.400000 0 0 1
30.156609 -8.800423 17.564428 35.991355 -0.283939 1.060979 -0.003622 -0.004867 32708.400000 0 0 1
29.534269 -9.082623 18.801528 36.169940 -0.298349 1.024167 0.000717 -0.009175 -51487.200000 0 0 1
30.544129 -9.549123 19.899628 37.684543 -0.303007 1.014484 0.001929 -0.001015 320663.000000 0 0 1
31.528489 -8.657423 20.343628 38.507919 -0.267985 1.014202 0.006532 -0.001293 166576.000000 0 0 1
32.737209 -8.767923 19.594028 39.147506 -0.261686 1.046599 -0.007240 -0.004125 -1053540.000000 0 0 1
33.887789 -8.062723 20.206228 40.270105 -0.233581 1.045155 -0.005290 -0.001837 -912071.000000 0 0 1
34.186709 -8.568023 21.505328 41.287059 -0.245566 1.022923 -0.002270 -0.006963 -554361.000000 0 0 1
35.491397 -8.214223 21.843028 42.476236 -0.227438 1.030674 -0.003402 -0.003133 -622899.000000 0 0 1
-35.248688 -8.823623 23.218728 43.121174 0.245284 1.002196 0.004995 -0.005709 -335046.000000 0 0 1
35.376866 -8.187123 24.376028 43.734910 -0.227422 0.979595 0.003806 -0.003642 129428.000000 0 0 1
35.013819 -9.098523 25.366228 44.183664 -0.254232 0.959281 0.004168 -0.005737 -695788.000000 0 0 1
34.483539 -8.460023 26.667828 44.405625 -0.240583 0.926607 0.016477 -0.007143 586206.000000 0 0 1
35.496952 -7.843023 27.516528 45.592828 -0.217455 0.922878 -0.002430 -0.009331 427598.000000 0 0 1
34.964999 -7.011023 28.540428 45.675613 -0.197891 0.895856 -0.003104 -0.012199 525568.000000 0 0 1
-35.106707 -6.426623 29.557628 46.340433 0.181055 0.879110 0.002840 -0.009912 1038080.000000 0 0 1
-34.445999 -7.345223 30.436528 46.549558 0.210092 0.858132 0.004253 -0.006682 32553.600000 0 0 1
-33.292758 -6.864923 31.075528 46.056740 0.203349 0.830207 -0.001216 -0.016816 58438.300000 0 0 1
-32.883328 -7.670923 32.320128 46.741277 0.229178 0.807276 -0.005999 -0.005929 -87403.500000 0 0 1
-32.610428 -9.040123 32.094328 46.639143 0.270425 0.811872 0.002429 -0.007417 289627.000000 0 0 1
-32.015458 -9.621623 33.201428 47.115814 0.291943 0.788829 0.005876 -0.006744 -267357.000000 0 0 1
-32.234858 -11.160623 33.115528 47.542441 0.333311 0.800223 0.011209 -0.006925 463741.000000 0 0 1
-33.624048 -11.390223 33.350828 48.709255 0.326620 0.816616 0.010110 -0.015620 526255.000000 0 0 1
-33.827708 -12.749523 33.641128 49.382078 0.360432 0.821339 0.019570 -0.014458 388982.000000 0 0 1
-35.314988 -13.174923 33.830028 50.647781 0.357077 0.839350 0.024566 -0.014825 403608.000000 0 0 1
-35.536560 -14.574023 33.790928 51.157365 0.389194 0.849273 0.022043 -0.023112 -1047780.000000 0 0 1
34.247169 -14.857223 33.864928 50.402768 -0.409320 0.834044 0.005394 -0.017096 -1230140.000000 0 0 1
33.980829 -16.378923 33.895228 50.713433 -0.449148 0.838784 -0.004587 -0.007640 -19575.100000 0 0 1
34.440259 -16.988723 -33.626855 51.044231 -0.458258 2.289991 -0.001977 -0.019518 467614.000000 0 0 1
34.076889 -18.373423 -33.609855 51.268308 -0.494495 2.285731 0.004645 -0.026977 -253489.000000 0 0 1
34.693339 -19.147023 -32.441255 51.212023 -0.504296 2.256825 0.005960 -0.012618 141423.000000 0 0 1
33.881259 -19.004723 -31.277355 49.873762 -0.511189 2.248660 0.004731 -0.016029 40770.800000 0 0 1
34.270579 -19.874623 -30.233155 49.834896 -0.525533 2.222657 -0.002020 -0.009112 -781392.000000 0 0 1
33.293639 -19.729123 -28.984155 48.350656 -0.534945 2.213619 0.007227 -0.009804 877042.000000 0 0 1
31.978559 -20.207723 -29.147355 47.755090 -0.563556 2.227300 0.002645 -0.000305 250771.000000 0 0 1
31.197869 -19.591023 -30.153555 47.606219 -0.560725 2.256729 -0.009183 0.006515 -2649490.000000 0 0 1
29.972829 -20.368223 -30.451555 47.334260 -0.596873 2.269636 -0.010415 0.009139 -1325800.000000 0 0 1
29.146669 -19.671623 -31.351755 47.110865 -0.593694 2.298945 -0.009700 0.008928 666110.000000 0 0 1
27.882759 -20.347723 -31.504655 46.733514 -0.630421 2.310588 -0.004879 0.001767 391562.000000 0 0 1
26.990959 -19.719323 -32.556355 46.661331 -0.630962 2.343001 -0.001065 0.007056 -275517.000000 0 0 1
27.465549 -19.718423 -33.879255 47.864146 -0.622660 2.357205 -0.014006 0.006928 83090.500000 0 0 1
26.397929 -19.472823 33.965328 47.219540 -0.635560 0.767993 0.035623 -0.003002 53562.100000 0 0 1
26.754299 -19.680723 32.478428 46.453973 -0.634228 0.796584 0.027196 0.003204 -453798.000000 0 0 1
27.582259 -18.622023 32.038228 46.195333 -0.593849 0.804408 -0.008580 -0.002207 115104.000000 0 0 1
27.898889 -18.645523 30.665828 45.457634 -0.589150 0.830370 -0.000179 -0.007306 -100572.000000 0 0 1
26.937199 -17.912423 29.655828 43.885484 -0.586827 0.828808 0.001864 -0.000770 132998.000000 0 0 1
26.906399 -16.518523 30.030128 43.573208 -0.550596 0.810429 0.002397 -0.011373 135463.000000 0 0 1
26.134559 -15.731623 29.166328 42.203955 -0.541850 0.807813 0.025656 -0.004590 -276232.000000 0 0 1
25.701809 -14.463523 29.876428 41.980679 -0.512574 0.778923 0.035657 -0.008853 -492438.000000 0 0 1
26.810959 -13.690423 30.242128 42.671319 -0.472114 0.783110 0.029719 0.000690 -143811.000000 0 0 1
26.493189 -12.389623 30.711728 42.409929 -0.437437 0.760975 0.039180 -0.001540 -332281.000000 0 0 1
27.708989 -11.503723 31.002828 43.142775 -0.393508 0.768995 0.029363 -0.004187 -207468.000000 0 0 1
28.262649 -11.002023 29.815228 42.529633 -0.371229 0.793933 0.027293 -0.015183 549342.000000 0 0 1
29.659669 -10.728523 29.983828 43.518124 -0.347078 0.810693 0.022665 -0.010362 848049.000000 0 0 1
30.330349 -10.107323 28.696228 42.959999 -0.321668 0.839311 0.047443 -0.017757 21921.700000 0 0 1
30.091779 -8.708723 28.522228 42.365959 -0.281709 0.832222 0.038631 -0.010413 -40419.300000 0 0 1
30.357989 -8.193123 27.270228 41.622111 -0.263603 0.856367 0.036399 -0.005677 -45998.300000 0 0 1
30.207679 -6.656423 27.194828 41.187019 -0.216889 0.849609 0.039665 -0.009073 155122.000000 0 0 1
28.851859 -6.269623 27.067528 40.054825 -0.213977 0.828798 0.043880 -0.002800 -191570.000000 0 0 1
28.782359 -4.852023 27.052228 39.796851 -0.167006 0.823364 0.053508 -0.004308 97190.200000 0 0 1
27.394419 -4.288323 26.701428 38.494287 -0.155280 0.804257 0.051410 -0.007862 -28560.300000 0 0 1
27.033739 -4.560123 25.298228 37.304398 -0.167110 0.825545 0.055431 -0.005690 1321700.000000 0 0 1
25.654609 -4.145723 25.098128 36.128410 -0.160213 0.802804 0.052428 -0.006323 1138520.000000 0 0 1
25.052609 -4.529923 23.728428 34.802180 -0.178884 0.820564 0.043562 0.000085 -239135.000000 0 0 1
25.431209 -3.716123 22.709028 34.296588 -0.145098 0.847130 0.052704 0.002171 7510.400000 0 0 1
24.822109 -4.105423 21.489728 33.087762 -0.163910 0.863900 0.047161 -0.000259 158401.000000 0 0 1
24.939209 -3.059623 20.404228 32.367545 -0.122073 0.888739 0.056738 -0.001731 -55162.500000 0 0 1
24.076609 -1.986523 20.653528 31.783606 -0.082322 0.863453 0.054110 -0.002755 -211029.000000 0 0 1
24.369509 -0.889123 19.788528 31.404607 -0.036469 0.889094 0.063673 -0.008135 -26744.900000 0 0 1
23.133509 -0.155523 19.210328 30.070253 -0.006723 0.877796 0.017662 -0.011329 -48364.200000 0 0 1
22.525809 -0.961923 18.204028 28.977992 -0.042677 0.891556 0.038680 -0.015642 -456048.000000 0 0 1
21.290809 -0.448223 17.789328 27.748147 -0.021049 0.874866 0.044000 -0.013973 -354362.000000 0 0 1
20.369809 -1.536423 17.250028 26.736738 -0.075284 0.869537 0.027640 -0.016116 -755168.000000 0 0 1
20.766109 -1.975823 15.978328 26.276265 -0.094861 0.917144 0.046310 -0.025910 -482396.000000 0 0 1
19.794809 -2.775523 15.442628 25.258914 -0.139306 0.913001 0.050614 -0.028836 -972660.000000 0 0 1
20.106109 -3.379523 14.004528 24.734664 -0.166528 0.968920 0.054413 -0.031503 -657340.000000 0 1 0
19.077709 -4.182723 13.546028 23.768656 -0.215832 0.964398 0.053601 -0.030022 198190.000000 0 1 0
19.281609 -4.615723 12.213528 23.286383 -0.234963 1.018678 0.052707 -0.028777 1085590.000000 0 1 0
18.040109 -5.591423 11.920128 22.333808 -0.300555 1.007796 0.023061 -0.023403 916371.000000 0 1 0
18.228409 -6.830523 12.492928 23.130158 -0.358524 1.000223 0.060409 -0.035095 285223.000000 0 1 0
17.042809 -7.556023 12.551628 22.474301 -0.417315 0.978234 0.031613 -0.010114 -840849.000000 0 1 0
17.304709 -9.083223 12.643928 23.277173 -0.483368 0.996564 0.058614 -0.035401 -349516.000000 0 1 0
17.998209 -9.705323 11.600628 23.509645 -0.494543 1.054755 0.037709 -0.043076 436509.000000 0 1 0
17.975009 -11.109123 11.744228 24.175203 -0.553573 1.063522 0.057415 -0.036210 72769.600000 0 1 0
18.676109 -11.871723 10.591128 24.533790 -0.566231 1.124425 0.058316 -0.034074 430593.000000 0 1 0
17.962509 -11.543423 9.414628 23.335329 -0.571184 1.155513 0.039354 -0.030406 139221.000000 0 1 0
18.770609 -11.877923 8.354528 23.732234 -0.564184 1.211054 0.055096 -0.037238 -318823.000000 0 1 0
18.615009 -11.171823 6.998828 22.810344 -0.540531 1.258939 0.052744 -0.022989 -118775.000000 0 1 0
19.214309 -9.852623 6.912528 22.672602 -0.473816 1.260979 0.067337 -0.016025 625500.000000 0 1 0
19.286609 -9.405823 5.553128 22.164838 -0.453749 1.317561 0.021479 -0.022575 -372908.000000 0 1 0
19.882509 -7.971423 5.406728 22.092769 -0.381305 1.323557 0.045467 -0.015102 -271744.000000 0 1 0
20.484809 -7.696023 4.155428 22.273836 -0.359379 1.383136 0.041519 -0.018417 559951.000000 0 1 0
20.916209 -6.350023 4.048128 22.230563 -0.294750 1.387677 0.055130 -0.018388 -421988.000000 0 1 0
21.599109 -6.000223 2.671328 22.575655 -0.270967 1.452191 0.057954 -0.021782 -354416.000000 0 1 0
20.750009 -6.221323 1.607028 21.722115 -0.291294 1.496747 0.039904 -0.025552 33806.800000 0 1 0
21.250909 -5.634023 0.458428 21.989850 -0.259157 1.549948 0.043590 -0.017459 -67193.900000 0 1 0
-25.433218 -16.371323 0.229228 30.247666 0.571933 1.563218 0.038694 0.009173 -704891.000000 0 0 1
-24.661158 -15.722123 -0.749472 29.256103 0.567556 1.596417 0.034636 0.011301 953786.000000 0 0 1
-23.246458 -15.679223 -0.445772 28.043440 0.593391 1.586693 0.039686 0.005950 1368730.000000 0 0 1
-22.724158 -14.934523 0.787428 27.203811 0.581426 1.541847 0.040492 -0.001002 -848106.000000 0 0 1
-23.025858 -15.618423 2.021128 27.896419 0.596013 1.498282 0.039215 0.014267 -86443.000000 0 0 1
-22.251158 -15.107523 3.068528 27.069672 0.596461 1.457195 0.045301 0.015579 15208.900000 0 0 1
-22.563058 -15.808523 4.443528 27.906019 0.611154 1.410884 0.045349 0.014684 -235941.000000 0 0 1
-22.111358 -17.149423 4.611928 28.359914 0.659681 1.407450 0.045468 0.001125 319042.000000 0 0 1
-22.677058 -17.775223 5.773328 29.386031 0.664810 1.373045 0.055255 -0.006984 60985.200000 0 0 1
-22.435458 -19.278423 5.684728 30.121811 0.709859 1.380933 0.048905 -0.009257 185969.000000 0 0 1
-23.108358 -20.061723 6.672928 31.320870 0.714942 1.356100 0.042907 -0.013151 -95127.400000 0 0 1
-23.226358 -21.416423 6.268528 32.209025 0.744878 1.374926 0.042591 -0.014126 240251.000000 0 0 1
-24.166958 -22.241623 7.185528 33.620878 0.743935 1.355413 0.048714 -0.016298 -2510.910000 0 0 1
-23.486158 -22.645023 8.342628 33.674859 0.767167 1.320449 0.051839 -0.009760 -601911.000000 0 0 1
-24.239658 -23.375623 9.242228 34.919901 0.767254 1.302935 0.054300 -0.006299 -290097.000000 0 0 1
-23.396358 -23.809423 10.451128 34.978625 0.794148 1.267376 0.030319 -0.007056 158747.000000 0 0 1
-23.267858 -22.724623 11.336528 34.442975 0.773587 1.235405 0.049327 -0.003814 386482.000000 0 0 1
-22.242758 -22.953823 12.312828 34.252357 0.801130 1.203092 0.055624 -0.000241 356177.000000 0 0 1
-22.491358 -22.114323 13.600028 34.349166 0.776946 1.163711 0.038829 0.005687 223923.000000 0 0 1
-23.649558 -22.503323 14.345328 35.657952 0.760568 1.156765 0.034225 0.007580 378889.000000 0 0 1
-23.855058 -21.648323 15.427928 35.717427 0.736940 1.124149 0.041117 0.013729 33744.100000 0 0 1
-25.088988 -22.167823 16.251628 37.215388 0.723662 1.118879 0.021868 0.015147 1629020.000000 0 0 1
-26.415298 -21.940823 15.707328 37.760930 0.693129 1.141790 0.017072 0.010251 962092.000000 0 0 1
-26.715098 -22.885723 14.681728 38.118314 0.708347 1.175413 0.012964 0.004500 26828.800000 0 0 1
-27.928408 -23.875723 14.884928 39.643501 0.707326 1.185893 0.021379 0.004622 573737.000000 0 0 1
-27.642808 -24.743723 15.944428 40.380706 0.730114 1.164889 0.021312 0.008494 47025.800000 0 0 1
-28.618308 -25.749013 16.218128 41.773758 0.732671 1.172078 0.005634 0.009424 -69232.300000 0 0 1
-28.518148 -27.102663 15.467628 42.273947 0.759955 1.196207 0.011728 0.008724 124432.000000 0 0 1
-29.031448 -27.050293 14.110128 42.114594 0.750087 1.229147 0.014437 -0.001521 284578.000000 0 0 1
-30.407358 -27.393883 14.121528 43.294916 0.733310 1.238547 0.019652 -0.006068 -111621.000000 0 0 1
-30.950048 -27.855523 12.768128 43.552964 0.732824 1.273263 0.020142 -0.011845 -248569.000000 0 0 1
-30.621908 -29.175033 12.374828 44.068357 0.761206 1.286159 0.043675 -0.021241 99753.800000 0 0 1
-30.939688 -29.400253 11.028428 44.082484 0.759891 1.317933 0.038778 -0.015828 126575.000000 0 0 1
-30.159068 -30.659583 10.519728 44.274643 0.793628 1.330900 0.048743 -0.025869 61845.300000 0 0 1
-30.616388 -31.857793 11.069528 45.550155 0.805266 1.325320 0.042367 -0.020885 -142651.000000 0 0 1
-29.985568 -32.912173 10.426928 45.728177 0.831894 1.340753 0.055175 -0.025447 -414117.000000 0 0 1
-30.072688 -34.250413 11.178428 46.929890 0.850256 1.330290 0.039368 -0.023801 -782398.000000 0 0 1
-31.343048 34.141637 11.277028 47.699155 -0.828109 1.332117 0.030460 -0.018945 -1095070.000000 0 0 1
-31.382908 32.923390 11.982028 47.036215 -0.809349 1.313217 0.033248 -0.021072 -172736.000000 0 0 1
-32.797498 32.658707 12.584228 47.964881 -0.783278 1.305326 0.045388 -0.020445 645802.000000 0 0 1
-33.849718 32.389077 11.659728 48.278411 -0.763351 1.326875 0.015667 -0.020252 212127.000000 0 0 1
-34.354538 33.531333 11.037928 49.258709 -0.773272 1.344797 0.024352 -0.017929 -235876.000000 0 0 1
35.338116 33.360903 10.418028 49.701787 0.756625 1.359619 0.008352 -0.002868 721739.000000 0 0 1
35.328822 32.600507 9.207828 48.945918 0.745256 1.381546 -0.012529 0.001281 -526513.000000 0 0 1
34.026819 32.544787 8.721528 47.885829 0.763140 1.387642 -0.005646 0.002100 -590893.000000 0 0 1
33.892319 31.907727 7.305328 47.118576 0.755246 1.415127 -0.010714 0.003348 -150228.000000 0 0 1
34.308299 30.583937 7.157928 46.515294 0.728068 1.416299 -0.006103 0.002886 -17162.900000 0 0 1
34.213719 30.145557 5.822928 45.969987 0.722272 1.443787 0.005367 0.001286 -141362.000000 0 0 1
34.547959 28.643227 5.620728 45.228183 0.692226 1.446199 0.004947 0.005597 -765567.000000 0 0 1
33.610459 27.755037 6.073328 44.010117 0.690267 1.432356 0.016224 -0.000294 -608104.000000 0 0 1
33.978819 27.148767 7.319028 44.104239 0.674125 1.404077 0.004641 -0.002710 96530.500000 0 0 1
33.007859 26.064597 7.884328 42.790707 0.668397 1.385484 0.012201 -0.001566 209408.000000 0 0 1
32.986459 24.908137 7.100128 41.939642 0.646758 1.400683 0.022941 -0.005984 439738.000000 0 0 1
31.769599 24.203057 7.334728 40.606572 0.651030 1.389170 0.018556 0.002515 -110761.000000 0 0 1
31.842029 22.812887 6.717228 39.742469 0.621674 1.400962 0.012676 0.003198 464573.000000 0 0 1
32.826069 21.890887 7.242528 40.115034 0.588147 1.389257 0.028072 -0.000395 -115350.000000 0 0 1
34.138779 22.152987 6.866328 41.271752 0.575608 1.403650 0.046861 -0.009991 -935984.000000 0 0 1
35.050569 20.930987 6.702128 41.371091 0.538333 1.408079 0.039309 -0.013269 -220232.000000 0 0 1
34.654649 19.964687 5.737928 40.403679 0.522664 1.428300 0.050038 -0.016726 -173575.000000 0 0 1
35.254833 18.741987 6.025028 40.379033 0.488618 1.421025 0.067471 -0.019716 -117647.000000 0 0 1
34.846789 17.556287 5.126628 39.354850 0.466694 1.440158 0.059482 -0.017083 -303393.000000 0 0 1
35.559797 17.530187 3.913528 39.838704 0.458014 1.472403 0.060563 -0.013599 109776.000000 0 0 1
35.040999 16.504087 3.083428 38.855682 0.440174 1.491357 0.037263 -0.008999 -1111690.000000 0 0 1
-35.145013 16.159087 1.940228 38.730511 -0.430960 1.520680 0.050887 0.008996 -257928.000000 0 0 1
-34.132213 15.230987 2.273128 37.445401 -0.419719 1.510054 0.061816 -0.010620 -541196.000000 0 0 1
-32.944718 15.927787 2.475328 36.676642 -0.450336 1.503254 0.071114 -0.013726 -611748.000000 0 0 1
-31.670558 15.018687 2.541128 35.143172 -0.442809 1.498425 0.081621 -0.022081 282203.000000 0 0 1
-31.533308 14.282187 3.770728 34.821671 -0.425283 1.462297 0.091248 -0.025566 -539926.000000 0 0 1
-30.218108 13.849487 3.806628 33.457925 -0.429749 1.456776 0.075461 -0.027740 -863716.000000 0 0 1
-29.774868 13.208087 5.163228 32.979619 -0.417518 1.413591 0.078248 -0.024425 -277708.000000 0 0 1
-30.107918 11.902287 5.378128 32.818827 -0.376466 1.406181 0.083144 -0.033052 180619.000000 0 0 1
-29.723148 11.433987 6.649928 32.533415 -0.367233 1.364943 0.067929 -0.020599 -131180.000000 0 0 1
-29.972048 9.943587 6.839628 32.310665 -0.320336 1.357499 0.064926 -0.025782 381207.000000 0 0 1
-31.338978 9.580187 6.984828 33.506706 -0.296674 1.360796 0.060746 -0.024912 117233.000000 0 0 1
-31.540698 8.195287 6.779528 33.285738 -0.254211 1.365684 0.057215 -0.020376 503463.000000 0 0 1
-33.023078 7.694987 6.839428 34.590667 -0.228933 1.371760 0.051214 -0.015015 297441.000000 0 0 1
-33.569778 7.566887 8.116728 35.356315 -0.221702 1.339161 0.039519 -0.011936 301340.000000 0 0 1
-34.775530 6.809487 7.953228 36.317495 -0.193366 1.350015 0.029287 -0.014250 497985.000000 0 0 1
-35.410850 6.263787 9.247928 37.130681 -0.175078 1.319082 0.008252 -0.006042 15431.100000 0 0 1
35.113584 7.164387 10.161028 37.249681 0.201272 1.294513 0.013422 -0.003631 546358.000000 0 0 1
-35.069605 7.787287 11.035928 37.580723 -0.218507 1.272744 0.026351 -0.010014 99139.600000 0 0 1
35.299187 8.778487 12.003428 38.303743 0.243744 1.252052 0.027185 -0.011451 -118851.000000 0 0 1
34.634199 8.026887 13.017228 37.860360 0.227741 1.219812 0.011390 -0.011858 368197.000000 0 0 1
34.221149 8.920087 14.007928 38.037837 0.254986 1.193656 0.027290 -0.019358 -294711.000000 0 0 1
33.460209 8.276987 15.187328 37.666285 0.242500 1.155777 0.027525 -0.021695 -92113.400000 0 0 1
32.098719 7.958987 14.963228 36.298367 0.243052 1.145897 0.013640 -0.015141 207606.000000 0 0 1
31.534729 7.313087 16.077828 36.144390 0.227878 1.109821 0.019549 -0.013921 -337059.000000 0 0 1
30.039649 7.061987 15.879928 34.704817 0.230896 1.095534 0.007568 -0.009650 -1256940.000000 0 0 1
29.267419 8.240887 15.989028 34.353210 0.274466 1.086676 0.005493 -0.011727 16598.500000 0 0 1
27.889509 7.911387 15.945928 33.086060 0.276408 1.067914 0.015302 -0.013495 276277.000000 0 0 1
27.257929 7.311987 17.245728 33.073781 0.262082 1.022268 0.016280 -0.013067 -823338.000000 0 0 1
27.276019 8.216687 18.334728 33.877093 0.292596 0.998917 0.023817 -0.016090 279741.000000 0 0 1
26.609409 7.721287 19.503228 33.882958 0.282415 0.957452 0.026744 -0.012252 161601.000000 0 0 1
27.389189 6.682987 20.335228 34.761351 0.239325 0.945922 0.025160 -0.006299 45987.800000 0 0 1
26.798249 6.690487 21.614628 35.072795 0.244660 0.906787 0.026174 -0.007836 153536.000000 0 0 1
27.331189 5.644487 22.419628 35.797959 0.203659 0.894021 0.038066 -0.013494 -208683.000000 0 0 1
26.753199 5.559287 23.886228 36.293129 0.204883 0.852441 0.043947 -0.008841 1203610.000000 0 0 1
25.340509 5.345987 23.990228 35.302295 0.207917 0.823626 0.046051 -0.007051 546126.000000 0 0 1
24.469709 6.441987 23.850028 34.771967 0.257423 0.814959 0.045247 -0.000410 -1396.750000 0 0 1
22.979009 6.082987 24.035028 33.804144 0.258783 0.779865 0.032388 0.000442 277946.000000 0 0 1
22.463609 5.404487 22.909128 32.536908 0.236101 0.789646 0.019228 0.018918 136355.000000 0 0 1
21.056209 5.455387 22.768728 31.488731 0.253513 0.762552 0.022888 0.005599 -337027.000000 0 0 1
20.408909 4.597387 21.673728 30.123247 0.221565 0.767712 0.026070 0.003926 327931.000000 0 0 1
19.065109 4.790087 21.283028 28.972238 0.246154 0.745718 0.034788 -0.000540 115661.000000 0 0 1
18.070009 4.345187 22.145428 28.910653 0.235984 0.698208 0.049977 -0.003334 -301998.000000 0 0 1
16.718709 4.022687 21.437928 27.482394 0.236122 0.676034 0.071783 -0.009774 -96957.100000 0 0 1
16.688809 3.004487 20.496228 26.601478 0.178122 0.691184 0.055469 -0.005356 174751.000000 0 0 1
15.425809 2.759987 19.897228 25.327313 0.177047 0.667125 0.072566 -0.019413 541470.000000 0 0 1
14.329709 1.992487 20.723528 25.274002 0.138160 0.609465 0.079114 -0.024927 -25826.500000 0 0 1
14.596609 0.586287 20.820828 25.434457 0.040144 0.611815 0.043320 -0.016991 598256.000000 0 0 1
13.599909 -0.041813 21.624428 25.545551 -0.003074 0.561411 0.036753 -0.021369 201301.000000 0 0 1
14.043009 -1.473513 21.864628 26.027664 -0.104546 0.573415 0.011851 -0.021102 -27036.300000 0 0 1
13.903609 -2.264913 20.718928 25.054224 -0.161483 0.597111 0.041150 -0.017319 200853.000000 0 0 1
14.094709 -3.655213 21.011828 25.564004 -0.253742 0.606005 0.036410 -0.000866 -33910.200000 0 0 1
13.729309 -4.498813 19.786428 24.499714 -0.316653 0.630694 0.032694 -0.008156 738339.000000 0 1 0
12.363309 -4.446613 19.352228 23.390864 -0.345256 0.596439 0.026905 -0.008930 484909.000000 0 1 0
12.228109 -5.090213 18.103528 22.431555 -0.394454 0.631647 0.031623 -0.011821 -301852.000000 0 1 0
10.784609 -5.195013 17.622228 21.303494 -0.448906 0.596692 0.027627 -0.011460 -253073.000000 0 1 0
10.016709 -6.116013 18.399128 21.823565 -0.548163 0.567801 0.021069 -0.007983 -74855.200000 0 1 0
8.675109 -6.074313 17.921728 20.816895 -0.610860 0.533717 0.021825 -0.022443 1003500.000000 0 1 0
7.669209 -6.768813 18.983528 21.564042 -0.723116 0.494234 0.011428 -0.022478 450313.000000 0 1 0
7.593409 -8.186913 19.031928 22.065803 -0.822991 0.530592 -0.007235 -0.016454 -31109.500000 0 1 0
8.810909 -8.733013 19.498828 23.110645 -0.780958 0.566627 0.010470 -0.022279 73833.800000 0 1 0
9.055109 -10.212213 18.989028 23.385198 -0.845381 0.623208 0.026665 -0.024782 134187.000000 0 1 0
8.993409 -10.310713 17.587528 22.282579 -0.853532 0.661136 0.020007 -0.015142 165308.000000 0 1 0
9.607709 -11.532313 17.218928 22.842806 -0.876189 0.716969 0.029295 -0.014762 -49359.000000 0 1 0
9.534009 -11.888713 15.720028 21.894248 -0.894875 0.769874 0.028593 -0.018619 222801.000000 0 1 0
10.265109 -13.007113 15.226528 22.503435 -0.902680 0.827618 0.024502 -0.014024 -172081.000000 0 1 0
9.873109 -13.270213 13.936328 21.628640 -0.931143 0.870629 0.017106 -0.004094 -504298.000000 0 1 0
10.589109 -14.430713 13.233428 22.259791 -0.937751 0.934154 0.036333 -0.010117 1912780.000000 0 1 0
11.975809 -14.108413 12.839128 22.523555 -0.866975 0.964253 0.024745 -0.020332 1779490.000000 0 1 0
12.002609 -13.366613 11.623528 21.397088 -0.839113 0.996518 -0.006580 -0.016033 -1021080.000000 0 1 0
13.429309 -13.156713 11.113928 21.839524 -0.775145 1.036901 0.013503 -0.024554 -307746.000000 0 1 0
13.970409 -14.339613 10.530228 22.620401 -0.798439 1.086575 0.020840 -0.023530 73577.200000 0 1 0
15.188309 -13.934913 9.922528 22.876256 -0.742387 1.122148 0.023411 -0.033142 -339466.000000 0 1 0
16.132809 -15.066213 9.532628 24.044319 -0.751225 1.163138 0.028308 -0.036500 -306881.000000 0 1 0
16.574009 -15.875213 10.572628 25.268570 -0.763866 1.139102 0.023975 -0.028058 412911.000000 0 0 1
15.702709 -16.974413 10.885928 25.557957 -0.824296 1.130806 0.052408 -0.021033 251999.000000 0 0 1
16.173709 -17.752913 12.144628 26.911833 -0.831912 1.102603 0.044033 -0.013828 -384517.000000 0 0 1
17.162109 -18.702913 11.825928 28.003384 -0.828333 1.134811 0.052640 -0.020954 -148627.000000 0 0 1
17.632409 -19.258013 13.029628 29.181229 -0.829435 1.107938 0.030040 -0.013166 -140936.000000 0 0 1
18.945209 -20.050113 12.889328 30.447705 -0.813725 1.133682 -0.008063 -0.017630 33079.200000 0 0 1
20.042209 -19.248913 12.512028 30.475591 -0.765211 1.147729 0.007043 -0.021884 -575470.000000 0 0 1
21.231309 -19.995913 12.388128 31.687075 -0.755442 1.169131 -0.001518 -0.028286 -6025.940000 0 0 1
22.255709 -19.154713 11.633828 31.584261 -0.710653 1.193571 0.006545 -0.019003 -1099760.000000 0 0 1
22.192409 -19.210413 10.206528 31.075975 -0.713498 1.236147 -0.001181 -0.019240 322924.000000 0 0 1
20.992209 -18.808913 9.524828 29.751813 -0.730598 1.244916 0.021362 -0.024939 408028.000000 0 0 1
20.613909 -17.326213 9.689128 28.618352 -0.698959 1.225407 0.064365 -0.029289 -311375.000000 0 0 1
21.401809 -16.344313 9.033228 28.403753 -0.652204 1.247146 0.057298 -0.023540 70755.300000 0 0 1
20.908909 -15.001613 9.225928 27.337678 -0.622358 1.226557 0.073473 -0.035699 152338.000000 0 0 1
-33.958208 25.175577 8.297828 43.079270 -0.637955 1.376967 0.036055 0.002647 -243635.000000 0 0 1
-32.985348 24.400877 8.932528 41.990785 -0.636908 1.356432 0.051210 -0.008225 -976276.000000 0 0 1
-31.961628 25.175177 9.395728 41.756615 -0.667177 1.343841 0.045738 -0.005281 -918650.000000 0 0 1
-30.915718 24.290677 10.146428 40.605032 -0.665964 1.318239 0.059349 -0.020578 34365.200000 0 0 1
-30.233708 23.468277 9.213228 39.366492 -0.660077 1.334568 0.064228 -0.019429 -456096.000000 0 0 1
-29.403898 22.563477 9.810228 38.339800 -0.654521 1.312043 0.074328 -0.018002 -180510.000000 0 0 1
-28.678818 21.531977 8.897228 36.949443 -0.644011 1.327612 0.063935 -0.018507 512210.000000 0 0 1
-29.598728 20.694577 8.222028 37.039870 -0.610169 1.346954 0.071720 -0.023126 563239.000000 0 0 1
-28.862738 19.938877 7.283928 35.828370 -0.604536 1.366069 0.062124 -0.020263 226132.000000 0 0 1
-29.854928 19.313777 6.290228 36.109634 -0.574208 1.395705 0.068995 -0.021200 -291004.000000 0 0 1
-30.546518 18.248677 6.813928 36.228905 -0.538510 1.381590 0.070974 -0.026573 -46214.300000 0 0 1
-31.366088 17.600777 5.869428 36.442681 -0.511356 1.409033 0.066610 -0.025730 -39300.400000 0 0 1
-32.117108 16.346877 6.405228 36.602677 -0.470804 1.394897 0.079775 -0.025212 -548135.000000 0 0 1
-33.048948 16.731577 7.352828 37.765629 -0.468648 1.374849 0.075623 -0.024429 -97683.100000 0 0 1
-33.848378 15.670477 7.866328 38.120279 -0.433580 1.362948 0.074438 -0.030355 275857.000000 0 0 1
-34.792342 16.119677 9.009728 39.389418 -0.433868 1.340019 0.072461 -0.032897 124905.000000 0 0 1
35.169230 16.812177 8.617828 39.922312 0.445923 1.353219 0.073987 -0.026685 -47515.200000 0 0 1
34.480869 17.289777 9.755828 39.787472 0.464792 1.323072 0.079178 -0.023162 -242424.000000 0 0 1
33.562689 18.484277 9.516128 39.480113 0.503410 1.327363 0.055867 -0.016655 454810.000000 0 0 1
32.258599 18.154677 9.013228 38.097872 0.512606 1.331951 0.030890 -0.014916 494858.000000 0 0 1
31.587089 19.408177 8.802228 38.103816 0.550965 1.337684 0.012659 -0.002414 -718704.000000 0 0 1
30.178299 19.189477 8.287228 36.710270 0.566378 1.343087 -0.007342 0.001321 -1313930.000000 0 0 1
29.594299 20.437977 8.250728 36.899973 0.604393 1.345293 -0.016570 0.005796 120401.000000 0 0 1
28.338549 20.573777 7.564928 35.827110 0.627963 1.358044 -0.017970 0.002980 627016.000000 0 0 1
28.162919 20.265577 6.104028 35.229289 0.623749 1.396652 -0.032669 0.015268 -621495.000000 0 0 1
28.419319 18.924477 5.787528 34.630753 0.587473 1.402887 -0.036553 0.007763 -91133.000000 0 0 1
28.302709 18.606577 4.424928 34.158865 0.581569 1.440892 -0.040071 0.001858 -100442.000000 0 0 1
26.949999 18.664577 3.667928 32.986703 0.605717 1.459372 -0.018593 0.011248 -916470.000000 0 0 1
25.950609 17.892877 4.238428 31.804928 0.603642 1.437135 -0.028859 0.002194 809530.000000 0 0 1
24.577909 18.255177 3.996828 30.875553 0.638843 1.440982 0.008869 -0.003805 848860.000000 0 0 1
24.022409 19.648477 4.362028 31.339529 0.685574 1.431157 0.014157 -0.006203 -960012.000000 0 0 1
24.608609 20.736877 3.710328 32.393954 0.700222 1.456007 0.014217 -0.005644 72885.900000 0 0 1
24.016409 21.926577 4.207528 32.791249 0.739942 1.442129 0.016990 0.002465 -334111.000000 0 0 1
24.840109 23.210677 4.025428 34.234057 0.751501 1.452938 0.004797 0.016202 -69523.600000 0 0 1
25.992409 23.308377 4.842928 35.246840 0.731010 1.432960 0.004930 0.002517 -19869.500000 0 0 1
26.823879 24.354177 4.460628 36.504022 0.737179 1.448295 0.015326 0.007755 -282344.000000 0 0 1
28.153009 24.336777 5.284328 37.587163 0.712822 1.429740 0.010248 0.004263 -10003.000000 0 0 1
29.075899 23.286077 5.126728 37.602296 0.675273 1.434030 -0.001638 0.004266 335155.000000 0 0 1
29.691879 23.101677 3.843328 37.816218 0.661211 1.468989 0.006014 0.003044 -497609.000000 0 0 1
30.658409 24.171777 3.276328 39.178402 0.667641 1.487073 0.025527 -0.008510 -373137.000000 0 0 1
30.009759 25.376377 2.905228 39.407950 0.701937 1.497008 0.020787 -0.004071 498823.000000 0 0 1
31.009259 26.381377 2.644828 40.798852 0.704934 1.505925 0.038567 -0.001877 -31300.000000 0 0 1
30.631069 27.891077 2.982328 41.533949 0.738613 1.498930 0.040914 -0.001960 -458588.000000 0 0 1
29.573239 28.485477 2.319728 41.126391 0.766665 1.514362 0.032746 -0.006894 -389587.000000 0 0 1
28.341969 28.206877 3.003328 40.098817 0.783009 1.495828 0.013633 0.003593 -428746.000000 0 0 1
27.174369 28.757077 2.212428 39.627146 0.813688 1.514936 0.011182 0.016260 -634104.000000 0 0 1
26.906249 30.082677 2.571628 40.441649 0.841078 1.507165 0.003758 0.010158 918198.000000 0 0 1
25.600009 30.395177 2.030528 39.791335 0.870825 1.519745 -0.003292 0.012816 1168440.000000 0 0 1
24.967309 31.720377 2.494128 40.444648 0.903967 1.509089 0.003788 -0.005570 -22212.200000 0 0 1
24.602109 31.774977 3.898928 40.374678 0.911948 1.474077 0.003039 -0.012993 576982.000000 0 0 1
25.733509 32.064577 4.717228 41.383606 0.894501 1.456560 0.003635 -0.013221 252842.000000 0 0 1
25.491109 31.972977 6.208328 41.359537 0.897722 1.420121 0.012924 -0.026566 -4001.140000 0 0 1
25.061109 30.755277 6.901728 40.268848 0.887063 1.398555 0.014402 -0.022536 440831.000000 0 0 1
25.971109 29.680777 6.790728 40.019508 0.851958 1.400286 0.022329 -0.017635 -19985.200000 0 0 1
25.310209 28.453077 7.391528 38.791996 0.843789 1.379081 0.030422 -0.011696 363520.000000 0 0 1
24.149209 28.069877 6.670028 37.624348 0.860339 1.392575 0.015894 -0.020123 179211.000000 0 0 1
23.470709 26.939077 7.150828 36.437926 0.854093 1.373267 0.015837 -0.004293 42212.600000 0 0 1
22.215109 26.599277 6.288928 35.221914 0.874971 1.391282 0.029335 -0.002274 3586.310000 0 0 1
22.372009 26.254277 4.945528 34.846121 0.865068 1.428391 0.028141 -0.005898 42170.500000 0 0 1
22.593909 27.334777 4.059228 35.695268 0.880067 1.456831 0.029372 0.001438 -238268.000000 0 0 1
22.531709 26.962677 2.600228 35.233863 0.874685 1.496930 0.028798 0.005028 -275708.000000 0 0 1
23.733609 26.361577 2.143528 35.536062 0.837810 1.510440 0.012956 0.022689 432990.000000 0 0 1
23.593309 25.878077 0.801028 35.028000 0.831549 1.547926 0.028679 0.018272 -254620.000000 0 0 1
24.936809 25.433177 0.199828 35.619249 0.795252 1.565186 0.026902 0.012832 -420024.000000 0 0 1
25.919009 26.498277 0.044828 37.066909 0.796449 1.569587 0.015256 0.019291 2251740.000000 0 0 1
27.161519 26.058377 -0.606572 37.645120 0.764673 1.586910 0.022217 0.021006 1352570.000000 0 0 1
27.982929 24.854077 -0.098672 37.426985 0.726250 1.573433 0.027564 0.013250 -1105830.000000 0 0 1
27.413049 23.545277 -0.194972 36.137147 0.709643 1.576192 0.033250 0.001217 330115.000000 0 0 1
28.190089 22.544477 0.447228 36.098956 0.674577 1.558407 0.038330 -0.002667 -266226.000000 0 0 1
27.221939 21.541677 1.025028 34.729361 0.669435 1.541277 0.026859 -0.004347 -141059.000000 0 0 1
26.768659 20.584277 0.100528 33.768087 0.655531 1.567819 0.031123 -0.017997 868227.000000 0 0 1
25.472109 20.143977 0.525428 32.478982 0.669121 1.554618 0.034397 -0.007034 679488.000000 0 0 1
24.731509 19.061777 -0.344672 31.226875 0.656649 1.581834 0.031608 -0.015509 54533.300000 0 0 1
23.499209 18.575277 0.141028 29.954526 0.668899 1.566088 0.032445 -0.015159 150140.000000 0 0 1
23.026609 17.503677 -0.660872 28.931647 0.649966 1.593641 0.039117 -0.025551 514697.000000 0 0 1
21.571909 17.049777 -0.329272 27.498193 0.668841 1.582771 0.027565 -0.015701 158502.000000 0 0 1
21.013409 16.068877 -1.165172 26.478856 0.652841 1.614814 0.023934 -0.017210 2131140.000000 0 0 1
19.597309 15.733077 -0.904772 25.147622 0.676457 1.606783 0.034472 -0.015227 2725960.000000 0 0 1
18.461609 16.715777 -1.353472 24.941534 0.735809 1.625089 0.034372 -0.017387 40054.900000 0 1 0
18.341209 17.850477 -0.548972 25.599626 0.771840 1.592243 0.029191 -0.018599 270539.000000 0 0 1
17.105009 18.516877 -0.759772 25.219702 0.825012 1.600927 0.004835 -0.020558 34013.200000 0 0 1
17.159309 20.057777 -0.597972 26.402915 0.863121 1.593446 0.009705 -0.017924 -173046.000000 0 0 1
17.178409 20.364477 0.789928 26.653962 0.870060 1.541156 0.021759 -0.017575 50820.400000 0 0 1
17.317209 21.715177 1.246028 27.802648 0.897600 1.525964 0.026714 -0.016222 -129370.000000 0 0 1
16.239509 22.735777 0.761328 27.950257 0.950557 1.543554 0.022525 -0.017741 593106.000000 0 0 1
14.994209 22.609877 1.444528 27.168355 0.985218 1.517602 0.021666 -0.012339 770166.000000 0 0 1
14.005309 23.505677 0.849028 27.374923 1.033451 1.539777 0.013256 -0.015253 310934.000000 0 0 1
12.644909 23.427877 1.537928 26.666916 1.075866 1.513093 0.020005 -0.016888 -272864.000000 0 0 1
12.670309 23.916077 2.810928 27.210601 1.083608 1.467309 0.028062 -0.002619 -630625.000000 0 0 1
11.412209 23.694177 3.350528 26.511858 1.121939 1.444079 0.013766 -0.004409 -432238.000000 0 0 1
11.285509 24.041677 4.788628 26.986959 1.131915 1.392409 0.018413 -0.004086 -92273.100000 0 0 1
11.973909 23.073477 5.547128 26.580641 1.092106 1.360561 0.019084 -0.019595 344598.000000 0 0 1
11.411509 23.030777 6.888728 26.610032 1.110764 1.308937 0.020435 -0.009356 -657054.000000 0 0 1
11.812109 21.802177 7.759628 25.982161 1.074282 1.267516 0.031211 -0.011270 1043170.000000 0 0 1
13.066109 21.880877 8.470328 26.855958 1.032477 1.249920 0.043851 -0.010519 871519.000000 0 0 1
14.206909 21.936977 7.637528 27.228644 0.996093 1.286485 0.037105 -0.011486 -983288.000000 0 0 1
15.569009 21.928977 8.323228 28.152268 0.953408 1.270660 0.049308 -0.010922 -704804.000000 0 0 1
15.870409 20.698577 8.842428 27.540689 0.916668 1.243940 0.055219 -0.009496 923038.000000 0 0 1
17.146209 20.628377 9.530928 28.466841 0.877321 1.229395 0.050103 -0.014081 1003050.000000 0 0 1
17.362809 21.509277 10.774328 29.668204 0.891666 1.199138 0.031052 -0.004779 -1357750.000000 0 0 1
16.452609 21.279077 11.793428 29.369583 0.912623 1.157585 0.041897 -0.007733 -617337.000000 0 0 1
16.608709 22.042477 12.960828 30.491033 0.925068 1.131757 0.038734 -0.002625 20474.000000 0 0 1
17.696409 21.589177 13.983328 31.221610 0.884165 1.106411 0.023229 0.010832 1015290.000000 0 0 1
19.065009 21.770177 13.650828 31.996255 0.851548 1.130024 0.023959 0.010127 378278.000000 0 0 1
19.990109 21.223377 14.596228 32.605001 0.815313 1.106640 0.013392 0.013157 -331680.000000 0 0 1
21.424209 21.482177 14.216828 33.505207 0.786749 1.132589 0.015056 0.010774 -1002270.000000 0 0 1
21.825209 20.895077 12.988028 32.888188 0.763629 1.164821 0.013419 0.019173 817184.000000 0 0 1
23.157209 21.387677 12.694428 33.982901 0.745694 1.187960 0.009316 0.019938 1096020.000000 0 0 1
23.818109 20.848377 11.430828 33.654435 0.719009 1.224248 0.007400 0.023015 -51081.000000 0 0 1
23.503109 21.645877 10.314228 33.575638 0.744286 1.258553 0.015685 0.013831 286885.000000 0 0 1
24.338609 21.411277 9.193428 33.694656 0.721500 1.294447 0.019398 0.011342 -76259.300000 0 0 1
24.179809 22.511877 8.093728 34.014059 0.749691 1.330539 0.009616 0.009247 17973.500000 0 0 1
24.464809 23.818377 8.544528 35.197315 0.772011 1.325586 0.017373 0.010061 -304555.000000 0 0 1
25.811909 24.161377 8.397328 36.339262 0.752382 1.337607 0.003281 0.015205 -649661.000000 0 0 1
26.274679 25.296877 9.370828 37.657711 0.766440 1.319312 0.014555 0.013770 -706627.000000 0 0 1
27.564119 25.724277 9.069328 38.778497 0.750886 1.334735 0.009552 0.012311 -425936.000000 0 0 1
27.924339 26.777577 9.954828 39.948792 0.764437 1.318953 0.016537 0.004750 176638.000000 0 0 1
29.146729 27.587877 9.463128 41.233161 0.757929 1.339229 0.006063 0.002528 81076.300000 0 0 1
28.949359 28.297477 8.280728 41.320492 0.774011 1.369028 0.014643 -0.003442 236522.000000 0 0 1
30.184029 28.541177 7.622128 42.234716 0.757430 1.389331 0.009910 0.000474 85437.500000 0 0 1
30.097319 29.396677 6.327428 42.544678 0.773622 1.421518 0.020335 0.001464 -4093.110000 0 0 1
29.850409 30.739377 6.601028 43.353545 0.800069 1.417941 0.020284 -0.000874 68690.800000 0 0 1
29.675269 31.491777 5.403828 43.606823 0.815087 1.446555 0.023342 -0.007139 -6015.830000 0 0 1
29.845259 32.995277 5.667628 44.850305 0.835483 1.444090 0.000251 -0.007311 911712.000000 0 0 1
28.717309 33.473877 6.443528 44.572451 0.861733 1.425725 0.001994 -0.014593 805442.000000 0 0 1
28.776179 -34.028732 6.566328 45.045974 -0.868837 1.424506 0.007838 -0.020422 -507157.000000 0 0 1
27.521809 -33.388232 7.172728 43.859686 -0.881415 1.406520 0.030640 -0.023130 -260758.000000 0 0 1
26.543189 -33.474632 6.152228 43.161810 -0.900379 1.427771 0.026655 -0.029921 -983721.000000 0 0 1
25.324409 -33.005532 6.653828 42.130325 -0.916329 1.412198 0.008243 -0.028221 684352.000000 0 0 1
24.127409 -33.076632 5.587028 41.320822 -0.940584 1.435170 0.022743 -0.016670 914933.000000 0 0 1
24.388609 -32.435232 4.351628 40.814032 -0.926069 1.463972 0.012060 -0.001793 -762306.000000 0 0 1
23.317909 -32.549332 3.503228 40.192742 -0.949157 1.483525 0.018848 -0.010625 -715381.000000 0 0 1
23.686809 -31.956832 2.169328 39.837295 -0.932943 1.516315 0.021226 0.000880 97147.700000 0 0 1
24.054109 -30.592432 2.296628 38.984248 -0.904480 1.511851 0.032636 0.001468 -23562.600000 0 0 1
24.574409 -30.195332 1.055328 38.945775 -0.887668 1.543696 0.019696 0.003029 -225995.000000 0 0 1
24.794309 -28.650532 1.010628 37.902931 -0.857427 1.544130 0.029176 -0.004027 715183.000000 0 0 1
23.587709 -27.855332 0.983228 36.513919 -0.868167 1.543866 0.018752 -0.000103 524187.000000 0 0 1
23.014209 -27.728932 -0.286472 36.036504 -0.878046 1.578746 0.028896 0.000944 -382237.000000 0 0 1
21.817209 -26.761832 -0.292172 34.529287 -0.886834 1.579258 0.023203 0.001346 -244069.000000 0 0 1
22.056109 -25.400832 -0.226672 33.641130 -0.855761 1.577534 0.014990 0.000454 -441012.000000 0 0 1
22.405809 -24.876932 1.078028 33.496928 -0.837613 1.538608 0.006240 0.001397 1103110.000000 0 0 1
21.179709 -24.759732 2.098628 32.650095 -0.863170 1.506476 0.004837 0.001702 1000260.000000 0 0 1
21.431009 -23.970632 3.235528 32.316374 -0.841277 1.470508 -0.001850 -0.006923 -359337.000000 0 0 1
20.260209 -23.641732 3.967828 31.387119 -0.862271 1.444041 0.002248 -0.004477 1481.670000 0 0 1
20.428009 -22.792732 5.270328 31.057826 -0.840056 1.400277 0.002164 -0.008643 -141593.000000 0 0 1
20.501409 -21.377432 5.220028 30.075756 -0.806313 1.396350 0.027667 -0.004515 -4149.290000 0 0 1
19.308409 -20.724932 4.840128 28.736115 -0.820767 1.401556 0.023080 -0.003704 -563453.000000 0 0 1
19.349009 -19.168532 5.021128 27.695280 -0.780713 1.388489 0.028886 -0.004982 21723.100000 0 0 1
19.216709 -18.657732 6.314828 27.518538 -0.770641 1.339258 0.050257 -0.015912 106019.000000 0 0 1
17.912109 -18.642732 6.878928 26.752846 -0.805383 1.310746 0.037983 -0.006646 374589.000000 0 0 1
18.305842 -26.257723 -11.901072 34.149778 -0.961979 1.926763 0.037038 -0.015271 -152674.000000 0 0 1
18.391942 -24.902423 -12.216872 33.281318 -0.934657 1.946663 0.051855 -0.019252 136815.000000 0 0 1
17.166942 -24.409423 -12.751272 32.451791 -0.957865 1.974612 0.027015 -0.016114 296284.000000 0 0 1
17.132542 -22.923923 -13.116372 31.481255 -0.928984 2.000543 0.027821 -0.022686 -71212.600000 0 0 1
17.242942 -21.955823 -12.098372 30.426104 -0.905054 1.979730 0.036596 -0.026217 -708886.000000 0 0 1
18.456642 -21.724523 -11.447672 30.718915 -0.866548 1.952669 0.046185 -0.032980 -1015200.000000 0 0 1
18.585342 -22.188323 -9.967372 30.611846 -0.873535 1.902448 0.050131 -0.012523 788563.000000 0 0 1
17.587442 -21.615223 -9.043472 29.297105 -0.887781 1.884603 0.049029 -0.027507 1169150.000000 0 0 1
16.311342 -22.245523 -9.132972 29.057432 -0.938107 1.890524 0.041688 -0.006561 145991.000000 0 0 1
15.306042 -21.654723 -8.120272 27.733387 -0.955506 1.867948 0.039502 -0.022817 -976709.000000 0 0 1
15.250142 -20.244623 -8.391172 26.698752 -0.925191 1.890506 0.025957 -0.030783 395429.000000 0 0 1
14.239642 -19.510623 -7.692772 25.349764 -0.940323 1.879124 0.021270 -0.034062 -83072.500000 0 0 1
12.819142 -19.777423 -8.170672 24.944673 -0.995708 1.904508 0.018386 -0.015538 -943856.000000 0 1 0
12.338742 -20.991023 -7.632272 25.517037 -1.039388 1.874551 0.024113 -0.017263 -48690.500000 0 0 1
11.017342 -21.314223 -8.054072 25.309010 -1.093720 1.894658 0.015570 -0.010813 259095.000000 0 0 1
10.556642 -22.692523 -7.684872 26.181110 -1.135371 1.868711 0.013279 -0.012067 -166119.000000 0 0 1
10.549042 -22.973423 -6.307472 26.054647 -1.140331 1.815312 0.019599 -0.015122 122147.000000 0 0 1
10.134342 -24.291223 -6.044172 27.005562 -1.175549 1.796520 0.007041 -0.012984 95047.300000 0 0 1
10.532542 -24.777023 -4.659372 27.322976 -1.168847 1.742163 0.027130 -0.016800 -270533.000000 0 0 1
9.760842 -25.839383 -4.283072 27.951609 -1.209616 1.724634 0.033995 -0.014629 -451811.000000 0 0 1
10.265442 -26.277263 -3.041372 28.374703 -1.198369 1.678189 0.025015 -0.018748 17292.200000 0 0 1
9.252442 -27.155883 -2.295172 28.780505 -1.242416 1.650629 0.028554 -0.017019 -448637.000000 0 0 1
8.208542 -26.529343 -1.668072 27.820292 -1.270726 1.630791 0.026779 -0.011181 -1022690.000000 0 0 1
7.784942 -27.266233 -0.559272 28.361339 -1.292680 1.590517 0.038189 -0.016964 263179.000000 0 0 1
6.994142 -26.350073 0.451528 27.266247 -1.311347 1.554236 0.040855 -0.012871 -666211.000000 0 0 1
5.773242 -25.968423 -0.039772 26.602460 -1.352036 1.572291 0.042167 -0.018296 -1110840.000000 0 0 1
5.022942 -25.385903 1.044528 25.899132 -1.375456 1.530455 0.051161 -0.016305 1697740.000000 0 0 1
3.505842 -25.026203 0.724028 25.280941 -1.431615 1.542153 0.022120 -0.017688 1918510.000000 0 0 1
2.632142 -26.176613 0.617628 26.315864 -1.470580 1.547324 0.011740 -0.015186 -600607.000000 0 0 1
1.336942 -25.772823 0.346128 25.809797 -1.518969 1.557385 0.003676 -0.007896 -717873.000000 0 0 1
0.396342 -26.892103 -0.119072 26.895287 -1.556059 1.575224 0.005546 -0.007687 -110327.000000 0 0 1
0.095042 -27.862203 0.861528 27.875681 -1.567385 1.539885 -0.001373 -0.004110 -306250.000000 0 0 1
0.851042 -29.040093 0.686028 29.060659 -1.541499 1.547187 -0.009608 -0.003090 -213963.000000 0 0 1
0.374142 -30.175263 1.587528 30.219310 -1.558398 1.518239 0.005578 -0.008341 50130.700000 0 0 1
0.736242 -29.995483 2.936328 30.147853 -1.546256 1.473244 -0.006450 -0.008143 -130195.000000 0 0 1
0.208542 -31.011953 3.705528 31.233246 -1.564072 1.451876 -0.002008 -0.006858 -207476.000000 0 0 1
0.264742 -30.666883 5.202328 31.106141 -1.562164 1.402762 -0.005016 -0.003758 -894547.000000 0 0 1
1.560542 -30.855363 5.673328 31.411389 -1.520263 1.389186 -0.004750 0.009002 -740292.000000 0 0 1
1.661442 -30.654893 7.059328 31.501062 -1.516651 1.344779 -0.000676 0.007465 507246.000000 0 0 1
3.086342 -31.074903 7.530728 32.122997 -1.471802 1.334160 0.005221 0.005032 733318.000000 0 0 1
3.470042 -32.441163 7.313828 33.435943 -1.464237 1.350272 0.002743 0.005631 -48267.300000 0 0 1
4.847342 -32.630453 7.596928 33.851979 -1.423322 1.344453 0.002281 -0.001094 101231.000000 0 0 1
5.095242 -34.130590 7.410228 35.295469 -1.422604 1.359274 0.005510 0.012338 -64649.300000 0 0 1
4.819342 34.191164 6.162028 35.074668 1.430766 1.394197 -0.003929 0.007036 -130419.000000 0 0 1
4.824742 32.737667 6.246328 33.675653 1.424474 1.384231 -0.002214 0.001125 -23116.400000 0 0 1
5.072842 32.037387 4.876828 32.801088 1.413759 1.421564 -0.002639 -0.008869 273584.000000 0 0 1
6.369242 32.161367 4.326128 33.070170 1.375286 1.439604 0.004297 -0.002526 -310796.000000 0 0 1
7.010442 30.931677 4.185528 31.991149 1.347919 1.439586 0.002615 -0.000060 -122528.000000 0 0 1
8.414642 31.100787 3.557328 32.414808 1.306562 1.460831 -0.005736 -0.001264 -167664.000000 0 0 1
9.341442 31.494137 4.541128 33.162706 1.282454 1.433430 0.000586 -0.012057 -77325.000000 0 0 1
10.614442 31.650287 3.892428 33.608899 1.247217 1.454720 0.006607 -0.016484 664019.000000 0 0 1
11.728842 32.141627 4.856828 34.557759 1.220900 1.429787 0.022367 -0.034208 16708.600000 0 0 1
12.189342 31.215297 5.797828 34.008670 1.198513 1.399479 0.028013 -0.029919 80230.300000 0 0 1
13.480342 31.590557 6.265128 34.913246 1.167469 1.390371 0.039869 -0.029692 127948.000000 0 0 1
14.082342 30.533647 7.239928 34.395240 1.138662 1.358718 0.035733 -0.025725 -972330.000000 0 0 1
13.462742 30.414677 8.453628 34.318535 1.154080 1.321906 0.024345 -0.018249 -319339.000000 0 0 1
13.901142 29.247997 9.168528 33.656337 1.127115 1.294893 0.021580 -0.019566 37705.300000 0 0 1
13.795242 29.242097 10.699728 34.057204 1.129995 1.251215 0.013920 -0.012974 24142.800000 0 0 1
14.553442 30.222107 11.400128 35.427974 1.122018 1.243184 0.014441 -0.012624 60026.900000 0 0 1
14.081642 30.316307 12.712928 35.762965 1.135958 1.207371 0.012493 -0.009222 -42528.600000 0 0 1
14.924042 31.256567 13.622628 37.219296 1.125335 1.196079 0.005003 -0.007414 822894.000000 0 0 1
16.228042 30.838647 14.030428 37.566267 1.086390 1.188034 -0.015804 -0.002903 427194.000000 0 0 1
16.861942 31.947357 14.652528 38.982757 1.085154 1.185459 -0.005009 0.006795 1470370.000000 0 0 1
18.191342 31.562787 15.481628 39.583017 1.047945 1.168950 0.004373 0.005473 1414140.000000 0 0 1
19.289942 30.999957 14.800028 39.397209 1.014172 1.185686 0.008678 0.003534 14847.900000 0 0 1
19.305642 29.610717 14.704228 38.284680 0.993029 1.176589 0.002798 0.005944 178146.000000 0 0 1
20.722642 29.028157 14.355528 38.446625 0.950815 1.188137 0.019604 0.000058 550637.000000 0 0 1
21.623542 29.158917 15.432728 39.446028 0.932709 1.168821 0.013173 -0.000391 -619216.000000 0 0 1
22.919342 29.023427 14.888528 39.866325 0.902377 1.188059 0.022851 -0.005158 82021.100000 0 0 1
23.970542 29.205717 16.055628 41.052941 0.883531 1.168975 0.040448 -0.011494 75790.600000 0 0 1
24.240942 28.004827 16.742228 40.647212 0.857316 1.146268 0.031536 -0.004800 -241458.000000 0 0 1
25.147642 28.063367 17.800328 41.675030 0.840139 1.129489 0.037289 -0.007858 -98873.800000 0 0 1
26.138042 26.880117 17.908328 41.550525 0.799394 1.125194 0.018245 -0.002694 257584.000000 0 0 1
25.437642 25.735647 18.356928 40.575534 0.791222 1.101326 0.005828 -0.001153 359937.000000 0 0 1
25.042942 25.648987 19.745428 40.925560 0.797353 1.067322 0.016660 0.002723 -178913.000000 0 0 1
24.313442 24.384517 20.048528 39.845848 0.786858 1.043554 0.013120 0.002516 -670041.000000 0 0 1
25.298142 23.405987 20.232228 39.964725 0.746568 1.039963 0.011562 0.002937 -85520.200000 0 0 1
24.862642 22.055387 20.460628 39.028558 0.725636 1.018965 0.015791 -0.000616 136484.000000 0 0 1
26.022142 21.003487 20.506828 39.227903 0.679079 1.020709 0.003643 -0.001966 422256.000000 0 0 1
25.366342 19.728287 20.551628 38.144804 0.661016 1.001809 0.010582 0.006257 339653.000000 0 0 1
26.239742 18.619287 20.662128 38.237749 0.617129 0.999932 0.011455 0.002780 -92592.300000 0 0 1
26.840142 18.330187 22.046728 39.274002 0.599184 0.974772 0.030796 0.010217 -292296.000000 0 0 1
25.839342 17.994487 22.961328 38.970447 0.608305 0.940730 0.018888 0.012828 -231574.000000 0 0 1
26.375842 17.714487 24.229628 39.957014 0.591423 0.919281 0.037207 0.012418 -161615.000000 0 0 1
25.412542 16.992587 25.187928 39.610315 0.589388 0.881631 0.025315 0.015443 -13880.400000 0 0 1
25.137842 15.702187 24.748928 38.613200 0.558343 0.875068 0.030561 0.013534 -59687.200000 0 0 1
23.851942 15.354187 25.195028 37.940159 0.571954 0.844543 0.025533 0.012310 -286369.000000 0 0 1
23.386442 13.963587 24.665928 36.746639 0.538270 0.834912 0.034567 0.008682 -510349.000000 0 0 1
22.223942 13.519187 25.273628 36.268834 0.546512 0.799812 0.030004 0.002877 -293060.000000 0 0 1
21.610542 12.399687 24.626628 35.031965 0.520917 0.791223 0.026214 0.001454 909935.000000 0 0 1
20.239342 11.905587 25.220728 34.459528 0.531727 0.749699 0.025481 -0.004683 645398.000000 0 0 1
19.143342 12.720987 24.895128 33.883011 0.586510 0.745516 0.018184 -0.005198 639499.000000 0 0 1
17.911142 12.006687 25.171428 33.144688 0.590546 0.708343 0.014058 -0.004155 1211250.000000 0 0 1
16.658642 12.900587 25.423228 33.019328 0.658940 0.692034 0.015858 -0.004309 234685.000000 0 0 1
16.619442 13.327987 26.749028 34.195783 0.675930 0.672556 0.019965 -0.002841 -172117.000000 0 0 1
15.525742 14.175487 26.868228 34.115902 0.739968 0.663961 0.030026 0.000175 -480471.000000 0 0 1
15.271542 14.518187 28.325428 35.303366 0.760114 0.639585 0.021573 0.008672 -598026.000000 0 0 1
14.853742 13.398787 29.012428 35.240348 0.733945 0.603643 0.026339 0.015507 -151958.000000 0 0 1
14.940742 13.591087 30.417628 36.512676 0.738130 0.586161 0.018136 0.019893 165310.000000 0 0 1
16.377242 13.434087 31.008428 37.552781 0.686991 0.599303 0.017291 0.014251 -291532.000000 0 0 1
17.233842 14.302087 30.402128 37.760355 0.692699 0.634896 0.028415 0.003129 -710156.000000 0 0 1
18.589842 13.883787 30.328128 38.185562 0.641481 0.653057 0.026067 0.007365 382172.000000 0 0 1
19.486242 15.132687 29.969428 38.818532 0.660298 0.688753 0.040958 0.002841 -196853.000000 0 0 1
19.305042 15.757987 28.690728 38.002062 0.684579 0.715175 0.037677 0.001863 122867.000000 0 0 1
19.621642 14.998687 27.570828 37.015132 0.652651 0.730482 0.037314 -0.000094 -334646.000000 0 0 1
19.317942 15.671587 26.205928 36.132149 0.681560 0.759355 0.015068 0.002327 -100503.000000 0 0 1
20.097242 16.855387 26.000328 36.932645 0.697892 0.789792 0.009279 0.009117 409428.000000 0 0 1
20.158742 17.058187 24.629928 36.110801 0.702280 0.820213 0.006246 0.005464 -700235.000000 0 0 1
21.372642 17.850987 24.189428 36.885986 0.695854 0.855569 0.005849 0.012214 -953306.000000 0 0 1
21.489542 17.971887 22.760728 36.094873 0.696492 0.888495 0.002461 0.007576 874129.000000 0 0 1
22.712642 18.588987 22.274128 36.844963 0.685886 0.921612 -0.001422 0.007175 761912.000000 0 0 1
22.939742 20.066887 22.761628 38.039498 0.718697 0.929333 0.005072 0.003171 -1237210.000000 0 0 1
22.102542 21.019287 22.265528 37.763561 0.760283 0.940228 -0.001058 0.010341 -554742.000000 0 0 1
22.161342 22.211887 23.061528 38.940045 0.786537 0.936971 0.009746 0.007395 -683870.000000 0 0 1
21.200042 23.311887 22.705628 38.838530 0.832807 0.946390 0.004382 0.002505 -638988.000000 0 0 1
21.708542 24.305347 21.868428 39.245877 0.841774 0.979767 0.015193 0.005387 -528199.000000 0 0 1
20.818542 25.365127 21.712728 39.347731 0.883528 0.986255 0.016721 0.000409 -659867.000000 0 0 1
21.014042 26.400937 20.617028 39.543157 0.898525 1.022328 0.016848 -0.001295 -322340.000000 0 0 1
20.795842 25.915177 19.283328 38.417577 0.894558 1.044956 0.007486 -0.003539 186294.000000 0 0 1
21.339842 26.818577 18.322628 38.863140 0.898676 1.079845 0.017190 -0.001499 -61254.800000 0 0 1
21.334442 26.264157 16.859328 37.804779 0.888599 1.108552 0.012870 0.002698 97556.700000 0 0 1
20.027542 25.987497 16.395628 36.677910 0.914203 1.107369 0.019135 0.003058 38944.700000 0 0 1
20.127042 25.497157 15.084628 35.815483 0.902562 1.136055 0.026231 0.004260 -447805.000000 0 0 1
18.726142 25.303447 14.520128 34.666511 0.933685 1.138616 0.021391 -0.000783 -782920.000000 0 0 1
18.197742 26.557437 14.168628 35.173929 0.970057 1.156205 0.022090 0.000430 414864.000000 0 0 1
17.021742 26.891697 14.928628 35.153478 1.006484 1.132199 0.027554 0.012384 1330450.000000 0 0 1
15.594942 26.449507 14.412528 33.919016 1.038050 1.131934 0.023617 -0.004441 555310.000000 0 0 1
15.268442 25.044227 14.420428 32.684666 1.023305 1.113863 0.018469 -0.002304 -34843.500000 0 0 1
15.220242 24.318147 15.647728 32.678425 1.011564 1.071464 0.019173 0.001308 -137962.000000 0 0 1
14.117042 24.661297 16.683328 32.951539 1.050890 1.039909 0.036921 -0.014200 -55166.300000 0 0 1
14.364242 25.959987 17.195928 34.292161 1.065406 1.045518 0.023774 -0.018404 -15170.100000 0 0 1
13.356142 26.358887 18.087528 34.645868 1.101800 1.021522 0.018427 -0.014839 -167718.000000 0 0 1
13.690842 27.746697 18.692128 36.148499 1.112425 1.027345 0.024825 -0.024350 -296488.000000 0 0 1
13.637742 28.843977 17.761728 36.516325 1.129136 1.062826 0.018967 -0.017716 75526.800000 0 0 1
14.318542 29.936387 18.366528 37.928054 1.124660 1.065295 0.019737 -0.010556 -223155.000000 0 0 1
14.262542 31.207437 17.532228 38.531847 1.142117 1.098417 0.009454 -0.013405 486835.000000 0 0 1
12.996342 31.865747 17.379828 38.553718 1.183544 1.103140 0.021702 -0.005791 446012.000000 0 0 1
13.105042 33.151000 16.860528 39.433594 1.194336 1.128996 0.023401 -0.001158 -188920.000000 0 0 1
11.829742 33.938423 17.165928 39.829994 1.235401 1.125218 0.030038 -0.006701 -333968.000000 0 0 1
11.770642 -33.659203 16.563928 39.317345 -1.234388 1.135931 0.033654 -0.003011 -371191.000000 0 0 1
12.580542 -32.622873 17.023928 38.888764 -1.202734 1.117691 0.044709 -0.007319 -763762.000000 0 0 1
12.463742 -32.282423 18.524028 39.250978 -1.202343 1.079309 0.040314 -0.012781 -102756.000000 0 0 1
13.171542 -33.084873 19.482328 40.591371 -1.191917 1.070185 0.050300 -0.009822 252688.000000 0 0 1
12.816042 -32.801753 20.808428 40.904726 -1.198322 1.037117 0.048790 -0.008059 -690863.000000 0 0 1
13.763142 -33.419823 21.849028 42.233738 -1.180137 1.027061 0.054311 -0.007036 -64297.500000 0 0 1
14.940842 -32.649823 21.664928 41.935770 -1.141633 1.027896 0.059883 -0.006241 508943.000000 0 0 1
16.080342 -33.122063 22.434428 43.115565 -1.118826 1.023556 0.060282 -0.004683 669783.000000 0 0 1
17.377942 -32.384473 22.171628 42.922349 -1.078289 1.027977 0.055851 -0.009496 -276862.000000 0 0 1
17.271742 -31.117843 22.656828 42.189632 -1.064090 1.003892 0.066397 -0.011632 838792.000000 0 0 1
18.434542 -30.388113 22.206028 41.909157 -1.025511 1.012360 0.058085 -0.005127 590146.000000 0 0 1
-4.865558 12.987977 18.387311 23.031596 -1.212359 0.646243 0.020776 -0.002780 -206679.000000 0 1 0
-4.713358 14.261877 17.748311 23.251224 -1.251610 0.702347 0.021353 -0.010182 54523.000000 0 1 0
-5.936058 14.962477 17.714211 23.935450 -1.193112 0.737603 0.014085 -0.003205 -34083.700000 0 1 0
-5.688458 16.402977 17.407411 24.585243 -1.236980 0.784073 0.018245 -0.009210 167972.000000 0 1 0
-5.072458 17.098177 18.499311 25.696342 -1.282401 0.767109 0.035807 -0.000845 317840.000000 0 0 1
-4.740958 18.463577 18.151711 26.322329 -1.319453 0.809869 0.037243 0.007181 -205431.000000 0 0 1
-4.014458 19.092177 19.344911 27.474583 -1.363548 0.789638 0.028417 0.009198 253463.000000 0 0 1
-4.920958 19.241077 20.449611 28.506516 -1.320411 0.770782 0.021583 0.006417 988728.000000 0 0 1
-4.187058 19.917377 21.479411 29.590513 -1.363592 0.758471 0.015936 0.013238 133067.000000 0 0 1
-5.054258 20.019077 22.689411 30.677652 -1.323492 0.738310 0.024839 0.014142 -263175.000000 0 0 1
-5.342558 18.874377 23.452411 30.574509 -1.294953 0.696554 0.027035 0.006709 -391313.000000 0 0 1
-6.020658 19.086877 24.671001 31.768152 -1.265240 0.681553 0.021794 0.004476 -115612.000000 0 0 1
-5.352458 19.808377 25.883801 33.030164 -1.306887 0.670290 0.018398 0.004151 -631267.000000 0 0 1
-5.067358 21.191277 25.662851 33.664971 -1.336079 0.703935 0.026318 0.000246 65604.800000 0 0 1
-4.294858 21.730977 26.745151 34.727284 -1.375673 0.691723 0.014883 0.007505 161784.000000 0 0 1
-2.770358 21.578177 26.586031 34.352724 -1.443108 0.685799 0.012156 0.007131 -435278.000000 0 0 1
-2.351758 20.272477 26.876101 33.746539 -1.455305 0.649460 0.019953 0.009332 271724.000000 0 0 1
-0.925458 20.193377 26.871591 33.626052 -1.524999 0.644950 0.015860 0.011888 640252.000000 0 0 1
-0.438458 18.812777 27.414471 33.251557 -1.547494 0.601555 0.015365 0.013915 -138954.000000 0 0 1
-0.869958 17.766877 26.606731 32.005263 -1.521870 0.589311 0.025866 0.017060 72156.800000 0 0 1
-0.292458 16.516877 27.000241 31.652895 -1.553092 0.549070 0.022426 0.009657 188315.000000 0 0 1
1.135642 16.106877 26.557931 31.081262 1.500406 0.546271 0.024843 0.011337 24896.500000 0 0 1
1.433742 15.936377 25.196731 29.847931 1.481071 0.565781 0.026587 0.013527 -315422.000000 0 0 1
0.954642 14.762377 24.560151 28.671242 1.506219 0.542128 0.040418 0.003320 -187891.000000 0 0 1
1.308542 14.546577 23.071011 27.305434 1.481082 0.564374 0.051079 -0.006282 -103209.000000 0 0 1
2.656542 14.357177 22.721011 27.007964 1.387833 0.571167 0.036862 -0.004674 -297624.000000 0 0 1
2.729742 13.835677 21.420411 25.645886 1.376001 0.582231 0.033535 -0.007316 1151520.000000 0 0 1
4.240542 13.884277 20.968011 25.503193 1.274374 0.605580 0.029697 -0.006712 1113400.000000 0 0 1
4.624542 15.060177 20.281111 25.681098 1.272865 0.660429 0.024486 -0.010227 -106837.000000 0 0 1
6.029642 15.161977 20.157511 25.933904 1.192290 0.680490 0.022628 -0.008909 87742.100000 0 0 1
6.385442 16.180477 19.016511 25.772260 1.194920 0.740891 0.030316 -0.013065 63500.800000 0 0 1
6.032042 15.789677 17.702111 24.475787 1.205882 0.762300 0.026694 -0.021862 202935.000000 0 1 0
6.545642 16.768577 16.802011 24.623935 1.198635 0.819831 0.027904 -0.013912 -21059.600000 0 1 0
6.589142 16.163177 15.399011 23.276482 1.183701 0.847887 0.028070 -0.008919 61969.000000 0 1 0
7.508542 15.168277 14.970411 22.595753 1.111144 0.846602 0.023492 -0.012461 75336.000000 0 1 0
7.734142 14.017077 15.719211 22.436332 1.066599 0.794539 0.025056 -0.011145 17631.000000 0 1 0
8.804142 13.108977 15.041511 21.808376 0.979378 0.809704 0.023848 -0.012416 10007.300000 0 1 0
10.116642 13.586277 15.082911 22.680996 0.930746 0.843300 0.022982 -0.010965 -613570.000000 0 1 0
10.950042 12.798677 14.250811 22.063435 0.863083 0.868592 0.024588 -0.006570 -102268.000000 0 1 0
12.414442 13.243277 14.287911 23.100804 0.817690 0.903960 0.022065 -0.004976 -1574930.000000 0 1 0
13.104542 12.972977 15.498711 24.088113 0.780353 0.871842 0.008913 -0.003691 280025.000000 0 1 0
14.368142 13.634277 15.523311 25.165655 0.759197 0.906068 0.010552 -0.000153 531743.000000 0 0 1
15.422142 12.948777 14.606811 24.877143 0.698438 0.943253 0.012254 -0.002372 -264680.000000 0 1 0
16.774042 13.459777 14.744311 26.075444 0.676213 0.969820 0.015989 -0.007594 1282970.000000 0 0 1
17.618242 12.907277 13.750311 25.808357 0.632277 1.008908 0.019870 -0.008932 -236381.000000 0 0 1
19.053742 13.444877 13.781111 27.087429 0.614494 1.037048 0.021476 -0.011544 859.192000 0 0 1
19.736642 13.147077 14.992711 28.056409 0.587628 1.007025 0.009884 -0.012597 -615159.000000 0 0 1
21.034142 13.649377 14.956311 29.196436 0.575612 1.032976 0.017963 -0.017537 -204164.000000 0 0 1
21.825942 13.268077 16.276311 30.287488 0.546211 1.003453 0.014891 -0.009373 137553.000000 0 0 1
22.090542 11.914877 16.522711 30.049232 0.494642 0.988606 0.025706 -0.015197 313284.000000 0 0 1
23.121342 11.728977 17.477011 31.266776 0.469454 0.977660 0.020938 -0.010647 -34870.800000 0 0 1
23.580142 10.242677 17.574011 31.141313 0.409786 0.971174 0.033404 -0.007852 -473756.000000 0 0 1
22.641242 9.401777 18.177311 30.519402 0.393583 0.932786 0.007430 -0.010118 -57917.400000 0 0 1
22.694842 8.022877 17.814611 29.946332 0.339799 0.933674 0.007280 0.000659 199345.000000 0 0 1
21.294942 7.436977 18.151711 28.952855 0.335995 0.893177 0.033887 -0.000362 350401.000000 0 0 1
21.198542 6.028677 18.059911 28.493570 0.277076 0.884309 0.039959 -0.007405 27022.500000 0 0 1
19.835642 5.685477 18.184011 27.503374 0.279145 0.848438 0.036155 -0.003314 -115254.000000 0 0 1
19.540742 4.237177 17.739511 26.729843 0.213532 0.845096 0.054532 0.001591 -467104.000000 0 0 1
19.472942 4.062777 16.344011 25.745453 0.205686 0.883007 0.072652 -0.011652 157879.000000 0 0 1
19.414942 2.699277 15.871911 25.221888 0.138145 0.890156 0.062007 -0.023193 270768.000000 0 0 1
18.203742 1.763877 16.201811 24.433300 0.096595 0.845839 0.068103 -0.020359 253427.000000 0 1 0
18.377442 1.364177 17.549511 25.447528 0.074095 0.809811 0.050270 -0.019289 61102.700000 0 0 1
17.333242 0.502077 17.937311 24.948757 0.028958 0.768483 0.053642 -0.022857 -644948.000000 0 1 0
17.403942 -0.073323 19.401011 26.063419 -0.004213 0.731195 0.031659 -0.012660 -255540.000000 0 0 1
18.388242 -1.088123 19.440911 26.781719 -0.059106 0.758451 0.034060 -0.013311 -131137.000000 0 0 1
17.836842 -2.131523 20.167911 27.008165 -0.118937 0.727658 0.018918 -0.014588 147823.000000 0 0 1
18.003242 -3.520123 19.445011 26.732311 -0.193091 0.756275 0.018907 -0.015158 326191.000000 0 0 1
17.121342 -3.571723 18.320411 25.328541 -0.205663 0.762211 0.012059 -0.012419 519024.000000 0 0 1
17.211442 -4.770023 17.671411 25.125000 -0.270357 0.790711 0.036666 -0.014263 -109780.000000 0 0 1
16.780942 -4.684223 16.194411 23.786570 -0.272211 0.821913 0.037784 -0.019699 457830.000000 0 1 0
15.377842 -4.424423 16.017111 22.640702 -0.280148 0.784916 0.019131 -0.007599 885670.000000 0 1 0
14.948142 -4.599023 14.674611 21.446262 -0.298474 0.817221 0.023738 -0.015223 251830.000000 0 1 0
15.486642 -3.576723 13.604211 20.921367 -0.226976 0.862877 0.028961 -0.013051 -417955.000000 0 1 0
14.898942 -2.326223 13.815311 20.451225 -0.154883 0.829120 0.039261 -0.006993 286029.000000 0 1 0
15.470142 -1.206223 13.102511 20.309014 -0.077814 0.869567 0.045284 -0.010496 338196.000000 0 1 0
14.559942 0.077177 13.211711 19.660803 0.005301 0.833914 0.045315 -0.002270 43275.800000 0 1 0
15.128242 1.210077 12.603611 19.727620 0.079818 0.877753 0.056588 -0.006876 -101706.000000 0 1 0
16.122442 1.874177 13.308911 20.989826 0.115727 0.883998 0.070506 -0.020374 -299607.000000 0 1 0
16.381042 3.288677 12.845011 21.074825 0.198127 0.915372 0.073578 -0.018762 -613067.000000 0 1 0
15.279842 4.093077 13.067311 20.517833 0.261730 0.880357 0.072056 -0.015245 -274434.000000 0 1 0
15.429042 5.324877 12.485911 20.550125 0.332321 0.917782 0.070693 -0.013913 -271996.000000 0 1 0
14.267642 6.287277 12.749711 20.140770 0.415065 0.885335 0.057245 -0.016544 -367643.000000 0 1 0
14.418842 7.609177 12.179111 20.350266 0.485580 0.929201 0.034319 -0.013398 65926.100000 0 1 0
13.318342 8.496777 12.264311 19.999670 0.567876 0.910659 0.014229 -0.010524 -229577.000000 0 1 0
13.394542 9.496677 13.482611 21.245739 0.616738 0.883302 0.012521 -0.013478 -28012.700000 0 1 0
13.084042 8.876477 14.747311 21.620990 0.596096 0.820189 0.026807 -0.018472 471877.000000 0 1 0
13.593342 9.682377 15.789511 22.974682 0.618926 0.813090 0.040408 -0.024817 -89477.500000 0 1 0
13.194142 9.188777 17.206211 23.549367 0.608325 0.751531 0.047700 -0.028381 644335.000000 0 1 0
11.830942 9.468677 17.567111 23.199794 0.674943 0.711766 0.035918 -0.027922 243491.000000 0 1 0
11.332742 8.744177 18.658611 23.516706 0.657173 0.654390 0.053415 -0.024019 -279048.000000 0 1 0
11.877242 8.880877 20.083911 24.966024 0.642042 0.636048 0.058205 -0.026365 50970.600000 0 1 0
13.249042 8.510977 20.167111 25.586837 0.571003 0.662945 0.058558 -0.025162 175634.000000 0 0 1
13.778342 8.649077 21.459311 26.928633 0.560560 0.648657 0.054097 -0.014903 -40387.800000 0 0 1
15.291142 8.381877 21.525711 27.702547 0.501424 0.680863 0.051129 -0.013265 249028.000000 0 0 1
16.101842 9.336177 20.837011 27.939480 0.525449 0.729075 0.055267 -0.014846 -19841.100000 0 0 1
17.230442 8.762477 20.235611 27.984801 0.470461 0.762527 0.047416 -0.017461 -251610.000000 0 0 1
17.977042 9.732077 19.314311 28.123477 0.496187 0.813763 0.048498 -0.018534 -96270.100000 0 0 1
18.671742 10.792377 19.972011 29.393717 0.524090 0.823763 0.030974 -0.018988 103294.000000 0 0 1
19.402242 11.548977 19.017911 29.521294 0.536912 0.870806 0.026335 -0.012075 -492166.000000 0 0 1
20.344042 12.460277 19.756911 30.975379 0.549544 0.879124 0.014928 -0.008536 -1260120.000000 0 0 1
19.760842 13.586277 20.383111 31.472989 0.602311 0.866316 0.012216 -0.007475 -60678.700000 0 0 1
20.505842 14.292177 21.377311 32.889897 0.608697 0.863257 0.008398 -0.000281 282628.000000 0 0 1
21.843742 14.977477 20.927911 33.755760 0.601040 0.902079 0.006483 -0.000951 573266.000000 0 0 1
22.955242 14.102777 20.989411 34.152406 0.550911 0.908942 0.004265 0.003203 -396778.000000 0 0 1
24.139342 14.824377 20.807511 35.148578 0.550735 0.937274 0.016406 -0.001486 429462.000000 0 0 1
25.490042 14.028377 20.778611 35.753158 0.503110 0.950632 0.022709 0.001087 619441.000000 0 0 1
25.698342 13.276977 19.626611 34.955497 0.476877 0.974630 0.016003 0.001581 -1188680.000000 0 0 1
26.871542 12.602277 19.739911 35.644933 0.438527 0.983884 0.025114 -0.001228 -1077490.000000 0 0 1
27.189442 11.820577 18.404411 34.895761 0.410099 1.015246 0.026279 -0.004061 -100876.000000 0 0 1
27.641742 12.619277 17.315511 34.973404 0.428271 1.052841 0.026151 -0.010727 204843.000000 0 0 1
27.904542 11.988277 16.078811 34.364377 0.405775 1.083892 0.031149 -0.014950 77284.800000 0 0 1
26.629942 11.518877 15.323711 32.812413 0.408251 1.084890 0.028060 -0.028692 374131.000000 0 0 1
25.924142 12.575877 14.661711 32.329238 0.451659 1.100094 0.034888 -0.030886 -84309.500000 0 0 1
24.888542 12.095477 13.854711 30.946617 0.452374 1.106608 0.035273 -0.032882 -226749.000000 0 0 1
24.397642 12.970477 12.744611 30.428660 0.488629 1.138634 0.024065 -0.028397 -349966.000000 0 0 1
23.813042 14.134677 13.195411 30.675217 0.535677 1.126121 0.006990 -0.017508 -104358.000000 0 0 1
23.527942 15.101477 12.175111 30.493475 0.570627 1.160077 -0.011100 -0.008640 -95670.900000 0 0 1
22.885442 16.403977 12.741411 30.905946 0.621903 1.145859 -0.005208 0.004980 -966865.000000 0 0 1
21.528142 16.261577 12.971511 29.935930 0.646925 1.122635 0.013480 -0.005187 -819516.000000 0 0 1
20.882342 17.507577 13.188911 30.274327 0.697716 1.120040 0.011704 0.002099 -849967.000000 0 0 1
20.375542 18.303377 11.941211 29.879238 0.731876 1.159662 0.019021 0.005967 252961.000000 0 0 1
19.151942 17.927777 11.313911 28.569331 0.752396 1.163622 0.029156 0.001290 19813.500000 0 0 1
18.015842 17.932577 12.133711 28.166910 0.783082 1.125441 0.028409 0.002649 -1166650.000000 0 0 1
16.803842 17.420377 11.349611 26.732982 0.803411 1.132326 0.037437 0.004076 -393115.000000 0 0 1
16.682442 15.994077 11.323911 25.736071 0.764335 1.115196 0.032875 0.001693 1129040.000000 0 0 1
15.444942 15.564877 10.691511 24.395083 0.789266 1.117129 0.035047 -0.003283 1034530.000000 0 1 0
15.512042 14.160477 10.102511 23.306722 0.739880 1.122469 0.037303 -0.007199 -317013.000000 0 1 0
15.533342 13.022277 10.901011 23.015136 0.697688 1.077371 0.022731 0.001653 298318.000000 0 1 0
16.073842 11.964477 10.178911 22.475038 0.639872 1.100783 0.030610 0.002880 -261467.000000 0 1 0
16.220042 10.629377 10.927411 22.259419 0.580109 1.057660 0.026078 -0.002117 -654946.000000 0 1 0
16.820142 9.647477 10.082311 21.855068 0.520757 1.091307 0.014802 -0.010430 432331.000000 0 1 0
17.263942 8.491277 10.756711 22.042058 0.457107 1.060990 0.010698 -0.008527 403921.000000 0 1 0
18.545142 8.649677 11.643011 23.543554 0.436418 1.053501 0.017073 -0.013120 -104953.000000 0 1 0
18.311242 9.285277 12.889211 24.241488 0.469296 1.010189 0.026353 -0.015671 82934.700000 0 1 0
19.422742 9.275777 13.773211 25.553557 0.445546 1.001554 0.030731 -0.018309 -816380.000000 0 0 1
19.027342 9.677577 15.218311 26.216259 0.470515 0.951464 0.022592 -0.008987 182624.000000 0 0 1
18.419942 8.670777 15.999911 25.893509 0.439957 0.904712 0.032997 -0.015380 337558.000000 0 0 1
17.181142 8.181077 15.527611 24.560708 0.444399 0.886390 0.044476 -0.023288 -650097.000000 0 1 0
16.606642 6.895277 16.149911 24.169093 0.393551 0.839003 0.049647 -0.017739 -186837.000000 0 1 0
16.162142 7.037777 17.529811 24.860399 0.410687 0.788190 0.069126 -0.015051 298507.000000 0 1 0
15.551342 5.884477 18.059111 24.547969 0.361740 0.744147 0.078884 0.002674 1394110.000000 0 1 0
14.009942 5.684277 17.716411 23.290786 0.385438 0.706464 0.062867 -0.020228 1010230.000000 0 1 0
13.506242 4.365777 17.967711 22.897974 0.312641 0.668608 0.064504 -0.016889 351281.000000 0 1 0
13.023942 3.820677 16.681411 21.505583 0.285352 0.683007 0.052343 -0.020278 76635.700000 0 1 0
12.806842 2.305577 16.611511 21.101497 0.178119 0.664509 0.046585 -0.022654 -678317.000000 0 1 0
14.001742 1.610877 16.676211 21.834370 0.114545 0.701679 0.046906 -0.018636 -667833.000000 0 1 0
13.916442 0.190877 16.705511 21.743456 0.013715 0.694614 0.043531 -0.012230 -669086.000000 0 1 0
13.200842 -0.631923 17.784611 22.157480 -0.047833 0.639078 0.042767 -0.016990 -1080470.000000 0 1 0
11.836442 -0.478223 17.694511 21.293797 -0.040381 0.589947 0.043454 -0.010850 -1442430.000000 0 1 0
11.209442 -1.150223 18.748811 21.874472 -0.102254 0.541165 0.037101 -0.018872 -104304.000000 0 1 0
-25.336538 14.227477 28.599691 40.771357 -0.511660 0.793345 -0.006371 0.007333 -739125.000000 0 0 1
-24.439258 14.261977 29.650431 40.985722 -0.528250 0.762034 -0.003617 0.010649 -254863.000000 0 0 1
-23.874858 12.973377 29.821691 40.344152 -0.497755 0.738941 0.001821 0.005546 203289.000000 0 0 1
-22.710158 12.952577 30.869201 40.452788 -0.518327 0.702712 -0.001153 0.005411 -691.111000 0 0 1
-23.117258 13.138477 32.202461 41.761534 -0.516815 0.690224 -0.003252 -0.001409 696545.000000 0 0 1
-22.058558 13.225677 33.211507 42.005984 -0.540104 0.658947 -0.003735 0.002152 398431.000000 0 0 1
-22.568058 13.456577 -34.103376 43.051562 -0.537670 2.485123 -0.002025 0.006311 -384652.000000 0 0 1
-23.216558 12.384377 -33.514342 42.609770 -0.490032 2.475984 -0.010001 0.004110 -134566.000000 0 0 1
-23.567258 12.741777 -32.221552 41.904617 -0.495641 2.447956 -0.016627 0.008868 -149945.000000 0 0 1
-24.440658 11.703077 -31.459852 41.521441 -0.446574 2.430543 -0.017888 -0.002275 43196.500000 0 0 1
-23.795458 10.619577 -30.765932 40.318009 -0.419761 2.438864 -0.004420 -0.008254 262085.000000 0 0 1
-23.251858 9.589377 -31.597102 40.385417 -0.391162 2.469289 -0.001362 -0.008628 -63468.900000 0 0 1
-22.495458 8.575577 -30.706862 39.019194 -0.364207 2.476676 0.010515 -0.003855 -320345.000000 0 0 1
-23.323058 7.891177 -29.788552 38.647038 -0.326252 2.450869 0.010926 -0.000169 -120762.000000 0 0 1
-22.600558 7.011777 -28.989752 37.421330 -0.300832 2.457013 0.007765 0.001223 -430202.000000 0 0 1
-23.341658 6.152677 -27.927942 36.914203 -0.257730 2.428838 0.014347 0.000860 -244143.000000 0 0 1
-24.213458 5.180477 -28.449472 37.716062 -0.210773 2.425394 0.021134 0.000105 167586.000000 0 0 1
-24.505158 4.172277 -27.523552 37.087149 -0.168644 2.407042 0.028857 0.004782 -687456.000000 0 0 1
-25.370208 3.012977 -27.997712 37.902472 -0.118207 2.401903 0.023300 0.007325 1198360.000000 0 0 1
-26.775778 3.261477 -28.246942 39.057256 -0.121210 2.379248 0.002584 0.010474 1311310.000000 0 0 1
-27.027928 3.977777 -29.435822 40.159672 -0.146124 2.393474 0.001867 0.014918 -1213930.000000 0 0 1
-28.375658 3.721677 -30.108302 41.539604 -0.130413 2.381554 0.004892 0.003000 -160408.000000 0 0 1
-29.429128 4.405177 -29.437582 41.857501 -0.148584 2.350798 0.010655 0.011248 300552.000000 0 0 1
-30.670118 4.496477 -30.107952 43.212998 -0.145571 2.341630 0.013527 0.002736 402307.000000 0 0 1
-30.845358 5.872377 -30.765192 43.959276 -0.188130 2.345993 0.008715 -0.011195 -869247.000000 0 0 1
-29.876028 6.076977 -31.765152 44.028759 -0.200669 2.376710 0.011139 -0.002979 133989.000000 0 0 1
-29.955688 7.357377 -32.414752 44.745842 -0.240841 2.380988 0.010531 -0.001540 -342436.000000 0 0 1
-29.258918 8.609077 -31.731422 44.012312 -0.286162 2.375993 0.004780 -0.011457 -782006.000000 0 0 1
-27.883318 8.458877 -31.583702 42.971645 -0.294543 2.396447 -0.000266 -0.018787 -473554.000000 0 0 1
-27.368228 7.966877 -30.388072 41.664445 -0.283271 2.388172 0.006001 -0.020665 -476167.000000 0 0 1
-27.502668 8.934277 -29.124872 41.042371 -0.314097 2.359768 0.003805 -0.012763 311536.000000 0 0 1
-28.816308 9.046077 -28.572252 41.576252 -0.304180 2.328459 0.007816 -0.022729 815641.000000 0 0 1
-29.293038 7.979877 -27.762632 41.140300 -0.265962 2.311528 0.000484 -0.012666 10572.700000 0 0 1
-30.628698 8.175977 -26.993082 41.636405 -0.260856 2.276152 -0.009157 -0.009499 200617.000000 0 0 1
-30.620298 9.036977 -25.859232 41.084906 -0.286983 2.251589 -0.014950 -0.012162 46892.400000 0 0 1
-30.338848 8.269577 -24.664272 39.964458 -0.266109 2.235918 -0.007945 -0.008428 -413101.000000 0 0 1
-30.049918 9.167277 -23.403772 39.176180 -0.296100 2.211049 0.000020 -0.005302 -1384810.000000 0 0 1
-30.958008 10.128577 -22.992372 39.870233 -0.316195 2.185456 -0.000219 -0.003108 -595803.000000 0 0 1
-30.426208 11.306677 -22.548672 39.522623 -0.355795 2.177942 0.013305 -0.002572 -562125.000000 0 0 1
-31.371638 12.033077 -21.569072 39.927428 -0.366259 2.141479 0.001963 -0.002752 -40420.300000 0 0 1
-31.307978 11.514977 -20.250872 39.024121 -0.352441 2.116398 -0.002767 -0.004878 324672.000000 0 0 1
-32.215958 12.220177 -19.420672 39.552031 -0.362553 2.084052 -0.001588 -0.001780 -176780.000000 0 0 1
-31.606998 13.332177 -18.546372 38.996374 -0.399166 2.066433 0.007225 -0.009082 180157.000000 0 0 1
-30.706648 12.832277 -17.531972 37.615630 -0.395841 2.055654 0.027538 -0.008340 935448.000000 0 0 1
-31.382318 12.263277 -16.379072 37.463474 -0.372524 2.023281 0.014720 0.004837 27328.500000 0 0 1
-32.065058 13.265777 -15.418672 37.972151 -0.392273 1.988926 0.006928 0.014288 323493.000000 0 0 1
-33.087668 14.018277 -16.101272 39.377111 -0.400744 1.992044 0.001700 0.009055 266097.000000 0 0 1
-33.528398 15.011677 -15.197372 39.755051 -0.420965 1.963054 0.000939 0.012838 20767.500000 0 0 1
-34.361831 16.106077 -15.916372 41.151817 -0.438312 1.967925 -0.000728 0.004360 153097.000000 0 0 1
-35.467031 15.583277 -16.644772 42.163933 -0.413982 1.976607 -0.009583 0.001278 470071.000000 0 0 1
34.927369 16.712477 -17.119072 42.335454 0.446294 1.987083 -0.014208 -0.002440 -633782.000000 0 0 1
34.648829 16.663177 -18.670172 42.740826 0.448264 2.022860 -0.029895 -0.001455 357988.000000 0 0 1
33.558379 15.842377 -19.087772 41.731149 0.441067 2.045864 -0.003721 -0.001375 935239.000000 0 0 1
32.265759 16.419177 -18.913672 40.845999 0.470721 2.052228 0.031665 -0.012944 -471667.000000 0 0 1
31.204859 15.347077 -19.111372 39.680229 0.457080 2.073315 0.047768 -0.015080 -672851.000000 0 0 1
31.082089 14.900777 -20.462172 40.085283 0.447033 2.106523 0.040883 -0.014830 206031.000000 0 0 1
30.375029 13.672977 -20.529872 39.128869 0.422969 2.123128 0.020894 -0.008348 -82604.100000 0 0 1
31.154899 12.396877 -20.137372 39.112966 0.378704 2.111631 0.014311 0.011742 -148140.000000 0 0 1
31.180389 12.227377 -18.752172 38.384494 0.373721 2.081206 0.029889 0.008585 89168.300000 0 0 1
31.833759 11.051577 -18.361372 38.375325 0.334147 2.069706 0.011388 0.009211 -404553.000000 0 0 1
31.941299 10.916377 -16.810072 37.709315 0.329319 2.032842 0.009858 0.015292 -810318.000000 0 0 1
30.843229 10.182077 -16.323472 36.351551 0.318859 2.036492 0.015833 0.011151 192656.000000 0 0 1
30.932709 10.002477 -14.926272 35.772555 0.312750 2.001219 0.006425 0.013512 -591309.000000 0 0 1
30.375739 11.136177 -14.095672 35.290055 0.351399 1.981684 0.029947 0.007871 -476368.000000 0 0 1
28.965449 11.140077 -14.050272 34.066240 0.367159 1.995927 0.035922 0.012970 148443.000000 0 0 1
28.460229 12.224077 -13.317172 33.715869 0.405688 1.976845 0.044338 0.007186 585734.000000 0 0 1
26.900399 12.335377 -13.385772 32.480331 0.429947 1.995575 0.059759 0.011355 356809.000000 0 0 1
26.159209 11.385077 -12.664272 31.213907 0.410497 1.988569 0.052585 0.006178 -70908.500000 0 0 1
24.911309 11.066177 -13.225972 30.297854 0.418039 2.022536 0.052349 0.016221 -607306.000000 0 0 1
24.941809 10.127077 -14.436372 30.546037 0.385692 2.063047 0.044714 0.005635 -711103.000000 0 0 1
25.319309 8.854677 -14.006572 30.259821 0.336426 2.052034 0.035219 0.001337 183438.000000 0 0 1
26.690959 8.605077 -14.176072 31.423171 0.311876 2.038832 0.035301 -0.006641 -313535.000000 0 0 1
27.348389 7.428577 -13.333172 31.319190 0.265228 2.010553 0.040040 -0.007855 943.433000 0 0 1
26.888189 6.106877 -13.693372 30.785989 0.223332 2.031739 0.032722 -0.013085 401720.000000 0 0 1
26.191209 5.518877 -12.649872 29.605012 0.207677 2.012288 0.037323 -0.015355 -382539.000000 0 0 1
25.775509 4.070977 -12.941472 29.127846 0.156646 2.031188 0.047873 -0.019961 97330.600000 0 0 1
25.055709 3.524577 -11.823572 27.928625 0.139753 2.007936 0.045684 -0.023316 523022.000000 0 0 1
24.504809 2.242477 -11.998472 27.376591 0.091258 2.024475 0.040994 -0.026554 -465459.000000 0 0 1
23.685909 1.915577 -10.757072 26.084600 0.080699 1.995874 0.041747 -0.022974 -506896.000000 0 0 1
24.485609 1.781277 -9.589472 26.356707 0.072620 1.943177 0.045193 -0.012569 538632.000000 0 0 1
23.836509 2.152577 -8.401672 25.365348 0.090062 1.908399 0.056008 -0.002642 -429714.000000 0 0 1
24.587309 1.599977 -7.139472 25.652832 0.064982 1.852832 0.069669 -0.000295 -168284.000000 0 0 1
24.517709 0.203977 -6.904672 25.472224 0.008319 1.845297 0.043926 -0.007432 646244.000000 0 0 1
25.327609 -0.623823 -7.749272 26.493927 -0.024625 1.867629 0.042377 -0.007760 -138490.000000 0 0 1
25.378509 -2.063323 -7.221872 26.466610 -0.081124 1.847168 0.049660 -0.021005 8343.400000 0 0 1
26.345829 -2.188623 -6.170772 27.147214 -0.082883 1.800108 0.060176 -0.027664 848228.000000 0 0 1
26.261499 -3.522823 -5.680172 27.098726 -0.133348 1.781973 0.074526 -0.035327 -316188.000000 0 0 1
27.601359 -4.008923 -5.074772 28.348894 -0.144235 1.750778 0.056492 -0.031719 -254604.000000 0 0 1
28.605559 -4.159823 -6.065172 29.535884 -0.144408 1.777617 0.052848 -0.021537 -335606.000000 0 0 1
29.784949 -4.425023 -5.347372 30.582976 -0.147487 1.746548 0.063066 -0.032634 -181987.000000 0 0 1
30.960169 -4.662823 -6.367372 31.950234 -0.149484 1.771430 0.049237 -0.032544 -108542.000000 0 0 1
30.968339 -5.929223 -7.021272 32.303126 -0.189171 1.789901 0.027913 -0.024311 430955.000000 0 0 1
31.804219 -5.922723 -8.178572 33.368789 -0.184115 1.818416 0.033650 -0.029725 -957050.000000 0 0 1
31.294299 -6.889523 -9.239772 33.349244 -0.216696 1.851530 0.024970 -0.023486 499188.000000 0 0 1
30.022039 -6.487623 -9.738872 32.222007 -0.212823 1.877841 0.028190 -0.008310 339127.000000 0 0 1
28.890809 -6.954423 -9.048472 31.063124 -0.236220 1.866375 0.027241 -0.003842 -945958.000000 0 0 1
27.753379 -5.942023 -9.161372 29.824293 -0.210917 1.883023 0.028197 -0.005440 -709013.000000 0 0 1
26.938349 -5.991723 -10.329272 29.466409 -0.218861 1.928948 0.021629 0.000056 55927.500000 0 0 1
25.813609 -5.167723 -10.274872 28.259879 -0.197582 1.942910 0.035209 -0.001801 114256.000000 0 0 1
24.554609 -6.038523 -9.939472 27.169573 -0.241137 1.945322 0.046988 0.006131 -1208120.000000 0 0 1
24.589209 -6.840423 -8.695872 26.963657 -0.271328 1.899169 0.038378 -0.002477 646945.000000 0 0 1
23.334809 -7.434923 -8.369072 25.881128 -0.308450 1.900081 0.032047 0.000047 -327498.000000 0 0 1
22.392209 -6.423023 -7.702572 24.535604 -0.279342 1.890131 0.047405 -0.001573 -722604.000000 0 1 0
21.897809 -5.454523 -8.629072 24.160438 -0.244122 1.936019 0.044623 0.001030 205274.000000 0 1 0
21.681009 -4.149723 -8.062172 23.500744 -0.189112 1.920969 0.044741 -0.003462 -142739.000000 0 1 0
21.576609 -3.008123 -9.129472 23.620883 -0.138523 1.967630 0.047363 0.005005 -720592.000000 0 1 0
22.715009 -2.877423 -9.913872 24.950673 -0.126004 1.979411 0.033532 0.004433 -45634.600000 0 1 0
22.491009 -2.154523 -11.074072 25.161926 -0.095503 2.026520 0.035403 0.003662 -447980.000000 0 0 1
23.699309 -1.923723 -12.010172 26.638360 -0.080995 2.038525 0.030514 0.001942 -216215.000000 0 0 1
24.707609 -1.173123 -11.364072 27.221027 -0.047445 2.001460 0.030797 -0.006872 570577.000000 0 0 1
25.934209 -1.311723 -12.064672 28.633200 -0.050536 2.005733 0.042844 -0.005999 -336072.000000 0 0 1
27.010669 -0.338823 -11.602972 29.399320 -0.012543 1.976503 0.037310 -0.005163 -1111070.000000 0 0 1
28.304949 -0.703823 -12.037772 30.766434 -0.024861 1.972800 0.038080 -0.007620 -53714.200000 0 0 1
29.259339 0.263377 -11.777872 31.541981 0.009001 1.953471 0.035917 -0.011838 -443548.000000 0 0 1
29.198299 1.479477 -12.721372 31.883583 0.050627 1.981216 0.036932 -0.014912 -825929.000000 0 0 1
29.533699 1.195277 -14.083772 32.741727 0.040450 2.015452 0.039949 -0.017240 511719.000000 0 0 1
29.581919 2.358677 -14.779472 33.152468 0.079565 2.032868 0.029346 -0.019106 -178581.000000 0 0 1
29.911529 2.231577 -16.253572 34.115365 0.074468 2.067386 0.024682 -0.017695 351047.000000 0 0 1
28.833599 1.595877 -16.956172 33.487834 0.055291 2.101730 0.035204 -0.016019 634697.000000 0 0 1
29.246049 1.499977 -18.269772 34.516169 0.051243 2.128584 0.015891 -0.012351 229771.000000 0 0 1
28.155439 0.888477 -19.266572 34.127979 0.031546 2.170671 0.023807 -0.007885 602332.000000 0 0 1
27.793949 -0.436823 -19.103672 33.728989 -0.015715 2.172912 0.015748 -0.004247 200001.000000 0 0 1
27.251709 -0.884823 -20.345172 34.020062 -0.032457 2.211843 0.003330 -0.006039 -147925.000000 0 0 1
27.060489 -2.389723 -20.466272 34.012485 -0.088082 2.216459 0.017339 -0.007238 -839767.000000 0 0 1
25.845609 -2.792823 -19.950872 32.769386 -0.107640 2.225377 0.028275 -0.008514 -684269.000000 0 0 1
25.656909 -4.209223 -19.938272 32.764756 -0.162609 2.225001 0.031022 -0.016374 -197791.000000 0 0 1
26.356319 -5.011723 -18.809872 32.765595 -0.187909 2.182269 0.023352 -0.008520 821879.000000 0 0 1
27.762139 -5.186223 -19.040872 34.061534 -0.184681 2.163992 0.011081 -0.014066 561468.000000 0 0 1
28.433979 -5.614623 -17.863472 34.045834 -0.194954 2.123146 0.013005 -0.009155 -192427.000000 0 0 1
29.954069 -5.425723 -17.950472 35.339838 -0.179192 2.103586 0.022259 -0.008159 -167481.000000 0 0 1
30.569759 -6.376423 -18.869972 36.486227 -0.205637 2.114350 0.009493 -0.010912 -384142.000000 0 0 1
31.804209 -5.857623 -19.265072 37.642562 -0.182136 2.108063 0.023101 -0.011376 -728108.000000 0 0 1
32.663089 -7.001023 -19.853072 38.859184 -0.211146 2.107025 0.021563 -0.003701 -318674.000000 0 0 1
33.111629 -7.907823 -18.843172 38.909880 -0.234432 2.076333 0.029092 -0.006503 118473.000000 0 0 1
33.515739 -9.143623 -19.413072 39.796708 -0.266334 2.080371 0.033109 -0.000736 -254289.000000 0 0 1
34.168079 -10.027923 -18.345572 40.057170 -0.285472 2.046523 0.045176 -0.004000 -648877.000000 0 0 1
33.257289 -10.401023 -17.343472 38.923317 -0.303107 2.032619 0.022195 -0.005365 -275037.000000 0 0 1
33.699789 -11.279323 -16.315072 39.103459 -0.322980 2.001190 0.021371 0.003045 -500346.000000 0 0 1
35.010959 -10.979223 -15.529672 39.843209 -0.303881 1.971178 0.044258 -0.006148 -201653.000000 0 0 1
35.356549 -11.943223 -14.542572 40.052622 -0.325760 1.942375 0.038409 -0.005695 489551.000000 0 0 1
-35.020841 -13.028723 -15.091372 40.298343 0.356162 1.954644 0.033783 -0.005052 315494.000000 0 0 1
-33.500038 -12.885423 -15.406972 39.059716 0.367194 1.976262 0.065359 -0.007782 61464.700000 0 0 1
-33.238728 -12.295823 -16.670672 39.165183 0.354314 2.010477 0.062654 -0.005940 -147311.000000 0 0 1
-31.863838 -12.387023 -16.945472 38.156147 0.370769 2.030975 0.080002 -0.008387 -373594.000000 0 0 1
-31.454648 -11.501523 -18.140472 38.088799 0.350552 2.067202 0.088586 -0.009380 17346.300000 0 0 1
-31.628468 -10.125323 -17.848772 37.702265 0.309824 2.063959 0.084828 -0.008089 541151.000000 0 0 1
-32.602718 -9.570223 -18.733372 38.800330 0.285520 2.074662 0.080837 -0.012645 199596.000000 0 0 1
-33.128738 -8.178323 -18.359772 38.748929 0.242026 2.064413 0.067321 -0.013944 501301.000000 0 0 1
-34.210022 -7.744923 -19.205172 39.989349 0.222640 2.071744 0.068391 -0.014341 318321.000000 0 0 1
-34.850673 -6.661723 -18.612172 40.066955 0.188872 2.053896 0.050891 -0.017114 -407136.000000 0 0 1
24.030442 27.419377 -27.288532 45.540624 0.851172 2.213314 0.018991 0.017558 -146798.000000 0 0 1
24.643442 26.889877 -26.160982 44.886097 0.828962 2.193004 0.020758 0.009771 -1063850.000000 0 0 1
25.759042 26.195877 -26.540272 45.322602 0.793806 2.196399 0.007067 0.008675 -1212980.000000 0 0 1
26.446142 25.437877 -25.385122 44.619373 0.765968 2.175996 0.014178 -0.003870 -157367.000000 0 0 1
27.006742 26.253277 -24.330572 44.839441 0.771252 2.144344 0.021506 0.004409 449956.000000 0 0 1
27.361642 25.392877 -23.253972 43.979596 0.748096 2.127917 0.024590 -0.000787 96297.000000 0 0 1
27.959542 26.039577 -22.016972 44.096969 0.749858 2.093570 0.018441 0.003072 -442346.000000 0 0 1
26.950042 26.752977 -21.397772 43.587742 0.781729 2.083933 0.031735 -0.003622 -457678.000000 0 0 1
27.410542 27.716077 -20.467572 44.027722 0.790941 2.054294 0.016072 -0.007847 -419861.000000 0 0 1
26.357142 28.683677 -19.908272 43.746904 0.827642 2.043257 0.019790 0.005832 -55728.800000 0 0 1
25.581642 28.020877 -18.876672 42.378281 0.830873 2.032454 0.032145 -0.002199 53594.200000 0 0 1
24.787742 28.994377 -18.239772 42.282329 0.863455 2.016819 0.029325 -0.004139 -384050.000000 0 0 1
23.671042 28.380477 -17.372472 40.835922 0.875629 2.010224 0.023828 -0.004148 -14412.500000 0 0 1
22.727442 27.669277 -18.185572 40.160186 0.883144 2.040729 0.039998 0.001748 -679351.000000 0 0 1
21.636342 27.455177 -17.365172 39.031619 0.903378 2.031859 0.026257 0.000077 -761448.000000 0 0 1
20.724742 26.314477 -17.862572 37.961008 0.903675 2.060711 0.030581 -0.001890 -337620.000000 0 0 1
20.080442 26.704677 -19.033472 38.453050 0.926052 2.088608 0.024926 0.002225 -886305.000000 0 0 1
19.268942 25.668677 -19.471672 37.540900 0.926861 2.116101 0.029829 0.004726 -258701.000000 0 0 1
18.525042 26.067277 -20.749172 38.120969 0.952950 2.146349 0.015442 0.012062 77087.400000 0 0 1
17.748042 27.215777 -20.464972 38.399305 0.992930 2.132881 0.007862 0.010414 -181270.000000 0 0 1
16.689342 27.389677 -21.415572 38.566246 1.023545 2.159512 0.010966 0.000868 638034.000000 0 0 1
15.678842 28.449077 -20.909872 38.631578 1.067094 2.142736 0.020039 -0.000026 -184717.000000 0 0 1
14.926442 28.098277 -19.805372 37.477522 1.082484 2.127582 0.020878 0.004592 -35014.700000 0 0 1
13.829142 29.003377 -19.603472 37.639570 1.125871 2.118609 0.012320 -0.001781 576117.000000 0 0 1
13.320142 28.925877 -18.150372 36.654721 1.139251 2.088829 0.004787 -0.000423 -184123.000000 0 0 1
12.691842 27.670677 -17.950172 35.340599 1.140752 2.103564 0.003617 0.002348 -483405.000000 0 0 1
12.226742 27.663177 -16.650072 34.524911 1.154627 2.074032 0.014809 -0.002117 -26512.800000 0 0 1
11.451542 26.335177 -16.342772 33.041876 1.160622 2.088180 0.031546 -0.006067 190304.000000 0 0 1
12.277542 25.187277 -16.287472 32.410164 1.117239 2.097333 0.003180 -0.003319 2497.430000 0 0 1
11.466842 24.059177 -16.037472 31.105193 1.126035 2.112490 0.037204 -0.003820 470347.000000 0 0 1
12.360642 22.804577 -16.210572 30.587855 1.074097 2.129359 0.006413 -0.002840 443055.000000 0 0 1
12.936842 22.751077 -17.512372 31.490579 1.053766 2.160500 0.015570 0.004397 -40968.000000 0 0 1
13.672242 21.587977 -17.860472 31.176392 1.006232 2.180817 0.012355 0.007357 229611.000000 0 0 1
12.724042 20.352877 -18.027872 30.019078 1.012074 2.214982 0.015160 0.001736 628009.000000 0 0 1
12.179142 19.750577 -16.814572 28.655657 1.018226 2.197873 0.014383 0.000143 20409.100000 0 0 1
11.727442 18.401577 -17.027072 27.678008 1.003396 2.233416 0.013878 -0.001931 182926.000000 0 0 1
12.804442 17.273677 -17.218172 27.546309 0.932906 2.246008 0.008921 0.001567 217374.000000 0 0 1
13.465342 17.003577 -15.986072 26.944231 0.901006 2.205951 0.012895 -0.001074 -48725.300000 0 0 1
14.350642 15.926077 -16.172872 26.854100 0.837386 2.217112 0.008061 0.000997 -1471860.000000 0 0 1
14.849242 15.320677 -14.859372 26.000463 0.801023 2.179134 0.022420 0.001624 -335326.000000 0 0 1
15.750542 16.165477 -14.072472 26.597682 0.798398 2.128320 0.016937 0.012712 114757.000000 0 0 1
16.992842 16.416577 -14.594372 27.771503 0.768151 2.124118 0.009616 0.012048 -1429440.000000 0 0 1
17.967042 15.234577 -14.967872 27.909571 0.703284 2.136842 0.009484 0.005740 -709863.000000 0 0 1
18.469542 14.352077 -13.958772 27.238822 0.660600 2.108842 0.021940 0.006366 821465.000000 0 0 1
19.111142 14.955277 -12.829672 27.449892 0.664005 2.057127 0.009707 0.007078 -308829.000000 0 0 1
19.824242 13.922177 -11.877072 26.979482 0.612255 2.026647 0.016350 0.001600 -485702.000000 0 0 1
18.956742 13.068077 -11.197972 25.603267 0.603551 2.023463 0.037079 -0.005529 208042.000000 0 0 1
19.612142 12.141777 -10.329072 25.273476 0.554342 1.991817 0.046865 -0.003782 -161825.000000 0 0 1
19.935442 10.787677 -10.991972 25.191651 0.496008 2.022317 0.039786 -0.009073 -813968.000000 0 0 1
20.957442 10.909777 -11.928172 26.467318 0.479966 2.038318 0.043188 -0.002203 185509.000000 0 0 1
21.328742 9.780377 -12.693872 26.677808 0.429945 2.066694 0.042988 -0.008969 78018.000000 0 0 1
22.112042 8.605277 -12.024572 26.600443 0.371133 2.039852 0.042906 0.001434 -289634.000000 0 0 1
21.230942 7.801977 -11.279672 25.275576 0.352163 2.033387 0.045060 -0.007951 541284.000000 0 0 1
21.856642 6.684877 -10.683772 25.229811 0.296816 2.008056 0.040724 -0.001613 -728081.000000 0 0 1
21.986842 5.546777 -11.690172 25.511725 0.247121 2.046796 0.042545 -0.003534 583276.000000 0 0 1
20.758442 4.840277 -11.899772 24.412001 0.229078 2.079970 0.031053 -0.007750 741926.000000 0 1 0
19.833342 5.386877 -12.782572 24.202770 0.265209 2.127211 0.000949 -0.015810 -319954.000000 0 1 0
18.798342 4.376577 -13.337972 23.461321 0.228742 2.175489 -0.001679 -0.018408 295471.000000 0 1 0
19.482242 3.505677 -14.248472 24.389885 0.178037 2.194685 0.007851 -0.014283 678348.000000 0 1 0
18.775242 2.319777 -14.501572 23.836667 0.122932 2.224805 0.014577 0.002014 -166783.000000 0 1 0
19.773142 1.252377 -14.996672 24.848456 0.063253 2.218711 0.034674 -0.004972 190997.000000 0 1 0
20.750042 0.765177 -14.050672 25.071321 0.036859 2.165699 0.040726 -0.004553 758766.000000 0 0 1
21.928142 0.399177 -14.749972 26.430370 0.018202 2.162853 0.037026 -0.014561 -345508.000000 0 0 1
21.899042 -1.002223 -15.411972 26.797414 -0.045734 2.183558 0.038713 -0.007156 -905708.000000 0 0 1
21.029542 -1.238323 -16.504672 26.761526 -0.058817 2.235380 0.021532 -0.003189 417961.000000 0 0 1
21.666142 -2.132623 -17.381772 27.858496 -0.098115 2.244559 0.026061 -0.007354 -302701.000000 0 0 1
20.600942 -2.902023 -18.160372 27.615569 -0.139948 2.288443 0.011001 -0.009529 -160157.000000 0 0 1
19.955542 -3.861423 -17.308272 26.696639 -0.191139 2.276187 0.011920 -0.003135 497075.000000 0 0 1
18.902442 -4.435123 -18.091872 26.538434 -0.230463 2.320912 0.008489 -0.002377 -6668.440000 0 0 1
18.031842 -5.455023 -17.374372 25.627591 -0.293769 2.315774 0.014012 -0.003691 -170956.000000 0 0 1
18.793242 -6.593223 -16.993172 26.180612 -0.337414 2.277164 0.011195 0.005852 1182180.000000 0 0 1
17.922142 -7.570523 -16.395772 25.442825 -0.399676 2.271056 0.021013 0.004911 817025.000000 0 0 1
18.841842 -8.575823 -15.617472 25.931934 -0.427127 2.217111 0.017092 -0.000418 632212.000000 0 0 1
19.547742 -9.511523 -16.409172 27.236817 -0.452853 2.217380 0.023102 0.002443 237827.000000 0 0 1
20.383342 -10.319823 -15.622572 27.677502 -0.468665 2.170563 0.022858 0.000989 -290498.000000 0 0 1
20.998242 -11.510023 -16.374672 29.009252 -0.501416 2.170580 0.017449 0.000824 39809.000000 0 0 1
22.215942 -11.259723 -17.068772 30.193914 -0.469097 2.171599 0.022258 0.001513 314065.000000 0 0 1
22.535542 -12.161723 -18.101472 31.359551 -0.494877 2.186121 0.022666 0.009268 -821728.000000 0 0 1
21.796442 -12.043523 -19.455972 31.601680 -0.504795 2.234023 0.020728 0.017931 907232.000000 0 0 1
20.429642 -12.474223 -19.549572 30.905700 -0.548173 2.255645 0.018351 0.012944 744131.000000 0 0 1
20.253242 -13.864123 -19.473872 31.331125 -0.600274 2.241517 0.008844 0.018283 677148.000000 0 0 1
18.734342 -14.281623 -19.652472 30.678331 -0.651341 2.266073 0.012731 0.012518 1186630.000000 0 0 1
18.294642 -13.877923 -20.963872 31.092999 -0.648969 2.310720 0.010440 0.023688 65999.600000 0 0 1
16.892642 -14.147223 -20.996972 30.436460 -0.697180 2.332095 0.016617 0.015542 275132.000000 0 0 1
16.215042 -13.362223 -22.130072 30.515843 -0.689242 2.382120 0.006844 0.018818 -626255.000000 0 0 1
16.520742 -13.939323 -23.346872 31.816915 -0.700853 2.394677 0.002751 0.025649 139073.000000 0 0 1
16.118842 -13.151623 -24.421672 32.081152 -0.684371 2.436030 0.003224 0.019806 -314048.000000 0 0 1
16.034442 -14.004923 -25.701902 33.374076 -0.717939 2.449819 0.007325 0.013909 -542637.000000 0 0 1
15.081742 -15.043823 -25.671702 33.358834 -0.784139 2.448952 0.007913 0.011796 39344.100000 0 0 1
14.902742 -15.722123 -26.944532 34.572889 -0.812147 2.464431 0.010898 0.004084 256776.000000 0 0 1
15.822142 -17.005123 -26.978752 35.600105 -0.821419 2.430774 0.011898 0.007506 1650810.000000 0 0 1
17.252742 -16.824423 -26.868702 36.092180 -0.772830 2.410502 0.021346 0.014197 946884.000000 0 0 1
17.928242 -18.036223 -27.065162 37.138258 -0.788401 2.387317 0.038672 0.008041 -155417.000000 0 0 1
19.450542 -17.809723 -27.069792 37.792638 -0.741390 2.369241 0.038652 0.013750 -423027.000000 0 0 1
19.902242 -17.384823 -25.815032 36.942485 -0.717986 2.344501 0.033046 0.019344 -3464.980000 0 0 1
21.233242 -16.906723 -25.886092 37.507034 -0.672443 2.332515 0.029573 0.023461 -60212.700000 0 0 1
21.779842 -16.424623 -24.544072 36.695248 -0.646133 2.303474 0.022837 0.026965 -127062.000000 0 0 1
21.516642 -15.087923 -24.112372 35.665358 -0.611545 2.313216 0.018395 0.026710 -53083.700000 0 0 1
20.144642 -14.747423 -23.979872 34.616865 -0.631931 2.336053 0.034239 0.025221 276370.000000 0 0 1
20.017842 -13.345123 -23.366072 33.537734 -0.587999 2.341597 0.026137 0.027861 -226149.000000 0 0 1
20.324942 -12.261423 -24.234572 33.922857 -0.542820 2.366566 0.026146 0.019227 65877.600000 0 0 1
19.925142 -11.026323 -23.726272 32.886579 -0.505440 2.376701 0.022564 0.017952 -148945.000000 0 0 1
20.182742 -9.851723 -24.663272 33.356806 -0.454103 2.402942 0.029422 0.007063 -224514.000000 0 0 1
19.815642 -8.610423 -24.077472 32.350019 -0.409912 2.410252 0.027223 0.006876 84761.300000 0 0 1
19.981442 -7.521723 -24.927372 32.820850 -0.360029 2.433337 0.020393 0.004634 -394550.000000 0 0 1
19.505742 -6.261523 -24.226372 31.726925 -0.310618 2.439652 0.016090 -0.007221 348731.000000 0 0 1
18.128542 -6.350323 -23.853072 30.625801 -0.336937 2.463635 0.004055 0.000913 443089.000000 0 0 1
17.562142 -5.452223 -22.910772 29.377867 -0.301019 2.465247 -0.003964 -0.001809 69533.200000 0 0 1
18.061942 -5.600623 -21.413072 28.567821 -0.300677 2.418182 0.007659 0.001907 -573533.000000 0 0 1
17.649042 -6.715923 -20.616172 27.957447 -0.363607 2.400028 0.010856 0.004461 279740.000000 0 0 1
18.125142 -8.008823 -21.040272 28.902510 -0.416066 2.386158 0.015344 0.006224 -21093.200000 0 0 1
17.639442 -9.109723 -20.024772 28.198022 -0.476713 2.360505 0.009636 0.010966 975738.000000 0 0 1
16.229442 -9.188923 -19.758972 27.170721 -0.515187 2.385053 0.004766 0.012586 708548.000000 0 0 1
15.952942 -10.477823 -19.144872 27.033447 -0.581138 2.357730 0.017506 0.015347 622594.000000 0 0 1
14.489242 -10.595523 -18.598872 25.848042 -0.631405 2.373946 0.014990 0.003131 545566.000000 0 0 1
14.055242 -9.907223 -17.423972 24.480558 -0.613992 2.362779 0.029106 -0.002682 97685.500000 0 1 0
14.060542 -8.476323 -17.424072 23.940451 -0.542509 2.385918 0.031106 -0.012713 6966.480000 0 1 0
12.748742 -7.753623 -16.977772 22.602961 -0.546418 2.420569 0.028030 -0.005028 500794.000000 0 1 0
11.702942 -7.780523 -17.950872 22.797570 -0.586733 2.477381 0.021341 -0.007907 282289.000000 0 1 0
10.848942 -6.676823 -17.652572 21.769079 -0.551692 2.516487 0.015451 -0.002243 599873.000000 0 1 0
9.378842 -6.752023 -18.184872 21.546277 -0.623971 2.575478 0.017048 0.000792 668600.000000 0 1 0
9.208042 -6.643423 -19.560372 22.617057 -0.624997 2.615649 0.021639 -0.002258 -394445.000000 0 1 0
7.870342 -6.355123 -19.854372 22.282863 -0.679284 2.670373 0.025779 -0.004167 -462761.000000 0 1 0
7.543442 -5.976023 -21.299572 23.372808 -0.669975 2.717220 0.036231 -0.009136 -54271.400000 0 1 0
7.548642 -7.070323 -22.221172 24.510242 -0.752691 2.705970 0.037887 -0.008812 65074.700000 0 1 0
6.841442 -6.813123 -23.411172 25.324039 -0.783324 2.750425 0.052942 -0.012520 -68110.300000 0 0 1
6.756042 -8.015423 -24.366472 26.525762 -0.870450 2.735311 0.046338 -0.015405 -344674.000000 0 0 1
6.090842 -9.108123 -23.860672 26.256198 -0.981369 2.711108 0.049179 -0.017162 -154817.000000 0 0 1
5.785742 -9.941023 -24.987172 27.507408 -1.043712 2.710189 0.049121 -0.006621 -38874.000000 0 0 1
4.908242 -11.185123 -24.680472 27.537674 -1.157279 2.682024 0.048798 -0.010220 50266.300000 0 0 1
5.481042 -12.108423 -23.763572 27.227983 -1.145730 2.631630 0.046491 -0.013412 -14277.000000 0 0 1
4.790542 -13.325423 -23.718872 27.624284 -1.225680 2.603376 0.043624 -0.018066 -448235.000000 0 0 1
5.492342 -14.277523 -22.731672 27.399679 -1.203562 2.549246 0.047778 -0.019977 -145583.000000 0 0 1
6.634442 -15.050823 -23.039872 28.308635 -1.155617 2.521598 0.043330 -0.015503 672787.000000 0 0 1
7.873342 -14.345023 -23.239572 28.422648 -1.068832 2.528101 0.052717 -0.014800 981070.000000 0 0 1
8.563642 -13.617323 -22.026572 27.275214 -1.009413 2.510812 0.042768 -0.006260 -233698.000000 0 0 1
9.029542 -14.471423 -20.931072 27.001194 -1.012948 2.457813 0.038457 -0.004958 976498.000000 0 0 1
7.952242 -15.132623 -20.219772 26.477795 -1.086955 2.439744 0.038264 -0.006987 643078.000000 0 0 1
8.434642 -15.566323 -18.848372 25.859519 -1.074230 2.387475 0.038603 -0.010305 398104.000000 0 0 1
9.418142 -16.592423 -18.901972 26.856925 -1.054528 2.351532 0.049382 -0.013489 -248061.000000 0 0 1
9.833242 -17.003223 -17.596072 26.370893 -1.046473 2.301312 0.052348 -0.014216 -301322.000000 0 0 1
8.941642 -17.964723 -16.752072 26.140316 -1.108964 2.266404 0.033700 -0.015130 -536146.000000 0 0 1
8.778042 -19.277223 -17.213572 27.294183 -1.143495 2.253210 0.036688 -0.016521 86446.100000 0 0 1
8.044942 -19.384023 -18.425872 27.928018 -1.177401 2.291300 0.046340 -0.012422 -534431.000000 0 0 1
6.519142 -19.419623 -18.271872 27.449631 -1.246918 2.299162 0.031098 -0.011884 -501425.000000 0 0 1
5.955842 -18.203823 -17.812272 26.155845 -1.254598 2.319931 0.033043 -0.010477 -1117790.000000 0 0 1
4.617442 -18.296223 -17.486672 25.726567 -1.323587 2.318167 0.026711 -0.010669 -497532.000000 0 0 1
3.959042 -16.873823 -17.399572 24.559011 -1.340339 2.358139 0.017661 0.001654 275776.000000 0 1 0
4.437342 -16.329423 -16.163972 23.401155 -1.305464 2.333300 0.011831 -0.003049 305136.000000 0 1 0
4.078742 -14.952723 -15.983472 22.264129 -1.304499 2.371581 0.007049 0.005491 88510.600000 0 1 0
10.075842 30.430977 -18.217372 36.870579 1.251053 2.087584 0.028561 -0.011857 -589173.000000 0 0 1
9.316142 29.534977 -18.937172 36.300439 1.265247 2.119614 0.054128 -0.013100 -305078.000000 0 0 1
8.324042 28.849177 -18.187472 35.104827 1.289889 2.115413 0.041600 -0.012307 560942.000000 0 0 1
7.174942 28.294877 -19.097672 34.882674 1.322454 2.150150 0.041528 -0.009386 394316.000000 0 0 1
6.550942 29.355577 -19.853272 36.039106 1.351235 2.154216 0.042166 -0.013006 -386833.000000 0 0 1
5.723742 28.757777 -20.823472 35.963704 1.374331 2.188315 0.033802 -0.012264 235373.000000 0 0 1
4.791442 29.906877 -21.385072 37.076954 1.411934 2.185572 0.030090 -0.009100 188388.000000 0 0 1
3.738442 30.213677 -20.498072 36.701679 1.447689 2.163379 0.025005 -0.012525 -264954.000000 0 0 1
2.913942 31.244877 -21.057972 37.791158 1.477804 2.161830 0.007805 -0.014520 -602796.000000 0 0 1
1.460642 31.054077 -20.625672 37.308277 1.523796 2.156570 0.014567 -0.011147 -234765.000000 0 0 1
0.830242 29.790677 -20.978572 36.445497 1.542934 2.184152 0.015615 -0.014097 288745.000000 0 0 1
0.390642 29.673377 -22.305972 37.124363 1.557632 2.215354 0.028723 -0.024495 -453550.000000 0 0 1
-0.128758 28.242077 -22.707172 36.238753 -1.566237 2.247978 0.028159 -0.016543 235506.000000 0 0 1
-1.202358 27.798177 -21.912272 35.416550 -1.527570 2.237885 0.023089 -0.022005 -203729.000000 0 0 1
-1.709058 26.535177 -22.284172 34.693239 -1.506478 2.268318 0.036877 -0.029061 314585.000000 0 0 1
-2.895058 26.108777 -21.389872 33.875895 -1.460363 2.254178 0.018343 -0.025238 -422703.000000 0 0 1
-4.029058 26.889877 -21.344972 34.567422 -1.422067 2.236342 0.016438 -0.027713 -425174.000000 0 0 1
-5.014858 26.248977 -20.543272 33.707323 -1.382022 2.226176 0.020875 -0.027573 405032.000000 0 0 1
-6.034558 27.229577 -19.897972 34.260693 -1.352703 2.190485 0.032371 -0.042327 -46931.700000 0 0 1
-7.265758 26.640077 -19.603272 33.864041 -1.304534 2.188153 0.040189 -0.033668 -591625.000000 0 0 1
-8.044758 27.520177 -18.786072 34.278197 -1.286398 2.150824 0.040742 -0.041985 6711.270000 0 0 1
-9.280258 26.807777 -18.231672 33.722010 -1.237531 2.142001 0.045151 -0.035451 -397126.000000 0 0 1
-9.095058 25.709577 -17.337072 32.315268 -1.230774 2.137078 0.041225 -0.034328 94076.300000 0 0 1
-10.379558 25.229277 -16.955672 32.120811 -1.180493 2.126889 0.032588 -0.031679 397967.000000 0 0 1
-10.336158 24.649877 -15.534772 30.915720 -1.173748 2.097270 0.046631 -0.016823 -278559.000000 0 0 1
-9.444158 23.592177 -15.411872 29.720511 -1.190024 2.115962 0.046385 -0.008278 -348324.000000 0 0 1
-9.546858 22.860077 -14.223172 28.566138 -1.175192 2.091976 0.069381 -0.008358 -173891.000000 0 0 1
-8.823358 21.478077 -14.236472 27.236677 -1.181008 2.120805 0.068161 0.001161 -515388.000000 0 0 1
-9.440658 20.360877 -14.777672 26.871378 -1.136636 2.153090 0.052527 0.005326 -351040.000000 0 0 1
-9.899758 20.382977 -16.132872 27.816192 -1.118664 2.189502 0.046388 0.006321 145111.000000 0 0 1
-8.821858 20.292277 -17.245472 28.053663 -1.160705 2.232842 0.046969 0.004226 -19667.000000 0 0 1
-8.530458 18.983977 -17.556972 27.228797 -1.148483 2.271550 0.043995 0.005664 -433057.000000 0 0 1
-7.557958 18.870977 -18.535972 27.510340 -1.189853 2.310111 0.043540 -0.001259 -366748.000000 0 0 1
-7.047458 17.390777 -18.695372 26.488162 -1.185780 2.354350 0.045132 -0.002886 -282319.000000 0 0 1
-7.965758 16.510077 -19.293072 26.613128 -1.121264 2.381752 0.033928 -0.009263 -27532.900000 0 0 1
-7.378458 15.544577 -20.210872 26.543453 -1.127622 2.436306 0.035466 -0.007432 974533.000000 0 0 1
-6.113458 14.705177 -19.786872 25.399546 -1.176799 2.463905 0.027156 -0.008250 445504.000000 0 0 1
-6.435858 13.630377 -18.849172 24.135011 -1.129659 2.467044 0.022114 -0.005838 504682.000000 0 1 0
-5.297758 12.935777 -18.346972 23.065385 -1.182090 2.490518 0.023228 -0.005494 450505.000000 0 1 0
-4.495958 13.446277 -17.138672 22.242979 -1.248118 2.450454 0.031955 -0.004583 57843.600000 0 1 0
-3.775158 14.634677 -17.332372 22.996450 -1.318340 2.424467 0.031554 -0.008698 -253844.000000 0 1 0
-3.159058 15.049877 -16.131972 22.287193 -1.363894 2.380123 0.026822 -0.002239 580262.000000 0 1 0
-2.329158 16.399877 -16.346172 23.271835 -1.429717 2.349562 0.043825 0.001515 545109.000000 0 1 0
-3.133258 17.538377 -16.514972 24.293133 -1.394010 2.318314 0.038422 -0.001541 -325490.000000 0 1 0
-2.313658 18.656077 -16.588472 25.071491 -1.447410 2.293809 0.045335 -0.001527 -64612.900000 0 0 1
-2.998158 19.865577 -17.250372 26.480284 -1.421005 2.280280 0.042311 -0.006058 144043.000000 0 0 1
-3.082158 19.645977 -18.638672 27.255536 -1.415180 2.323821 0.055281 -0.015043 -133845.000000 0 0 1
-3.868358 20.597877 -19.322872 28.506317 -1.385155 2.315624 0.049728 -0.012636 -129693.000000 0 0 1
-3.195958 21.924377 -19.527972 29.533611 -1.426044 2.293229 0.030078 -0.010224 -1230470.000000 0 0 1
-2.231958 21.966977 -20.516872 30.140866 -1.469539 2.319513 0.041947 -0.012484 413478.000000 0 0 1
-1.119958 22.874777 -20.253572 30.573141 -1.521875 2.294898 0.032122 -0.009019 1563840.000000 0 0 1
-0.081658 22.407577 -19.172672 29.490635 -1.567152 2.278549 0.041157 -0.007907 -387170.000000 0 0 1
-0.537458 22.512177 -17.830972 28.723345 -1.546927 2.240538 0.038798 -0.005459 -196208.000000 0 0 1
0.485542 22.175677 -16.899372 27.885215 1.548905 2.221861 0.044863 -0.007454 422130.000000 0 0 1
-0.049558 22.184477 -15.405072 27.008698 -1.568562 2.177758 0.040870 -0.012993 -289131.000000 0 0 1
-0.860758 21.113077 -15.061572 25.949064 -1.530050 2.190051 0.047796 -0.003905 -444965.000000 0 0 1
-0.944858 21.056277 -13.664672 25.119372 -1.525953 2.145981 0.066589 -0.010507 26970.400000 0 0 1
-1.793858 19.913877 -13.101772 23.904746 -1.480958 2.150866 0.037240 -0.006255 -67350.400000 0 1 0
-1.112258 18.668777 -13.119372 22.844656 -1.511288 2.182528 0.042598 -0.007239 -404184.000000 0 1 0
-1.935158 17.650677 -12.691072 21.825548 -1.461596 2.191340 0.038926 -0.006680 -583629.000000 0 1 0
-1.436158 16.257677 -12.877972 20.789824 -1.482688 2.238821 0.025509 -0.004394 -392947.000000 0 1 0
-0.290058 15.948977 -12.077672 20.008103 -1.552612 2.218854 0.021429 -0.003269 361068.000000 0 1 0
0.053742 14.604077 -12.031372 18.921836 1.567116 2.259900 0.020506 -0.001662 251226.000000 0 1 0
0.837242 14.103577 -13.275772 19.387057 1.511502 2.325091 0.014794 -0.001006 -456494.000000 0 1 0
-0.002058 13.891677 -14.374972 19.990461 -1.570648 2.373291 0.016987 -0.008674 107359.000000 0 1 0
0.487442 12.806677 -15.185172 19.870532 1.532753 2.440605 0.017657 -0.016082 -298735.000000 0 1 0
0.041942 12.739177 -16.644272 20.959967 1.567504 2.488319 0.019137 -0.010022 -31412.200000 0 1 0
0.628542 13.700577 -17.521572 22.250986 1.524951 2.477460 0.025059 -0.014445 118910.000000 0 1 0
0.172542 13.542377 -18.821372 23.187708 1.558056 2.517846 0.034619 -0.019051 -530374.000000 0 1 0
-0.708058 14.729077 -19.252272 24.250712 -1.522761 2.487968 0.041134 -0.016329 175330.000000 0 1 0
0.053142 15.843277 -19.643072 25.236136 1.567442 2.462863 0.036974 -0.016252 84223.900000 0 0 1
-0.829158 16.912877 -19.690972 25.970508 -1.521810 2.431352 0.053329 -0.020293 -89807.800000 0 0 1
-0.019758 18.159577 -20.035372 27.040466 -1.569708 2.405266 0.053741 -0.019380 216552.000000 0 0 1
0.473042 18.070377 -21.342072 27.968667 1.544625 2.438847 0.047545 -0.026455 -89776.500000 0 0 1
1.374642 19.116277 -21.601972 28.878485 1.499010 2.415885 0.048815 -0.022639 -37192.500000 0 0 1
1.920642 19.224477 -23.026672 30.058227 1.471221 2.443499 0.051041 -0.030056 -534964.000000 0 0 1
2.908542 18.290977 -23.258672 29.731890 1.413101 2.469114 0.037552 -0.026341 -653217.000000 0 0 1
3.435542 18.581077 -24.562672 30.990067 1.387966 2.485855 0.041308 -0.039758 269696.000000 0 0 1
4.432042 17.462077 -24.936372 30.763449 1.322235 2.515946 0.021092 -0.019248 57590.700000 0 0 1
5.660942 17.319377 -24.200372 30.292988 1.254887 2.496222 0.016338 -0.015937 858805.000000 0 0 1
6.398342 16.155077 -24.601072 30.118733 1.193693 2.526644 0.016951 -0.010979 398466.000000 0 0 1
6.870942 16.063477 -26.126192 31.429653 1.166610 2.552166 0.009703 -0.010544 -1687660.000000 0 0 1
7.855042 16.982977 -26.497402 32.438180 1.137576 2.526740 0.000812 -0.006997 -233886.000000 0 0 1
8.086642 17.114777 -27.850362 33.674205 1.129394 2.544642 0.004906 -0.015159 92631.900000 0 0 1
8.828242 15.891877 -28.490832 33.796703 1.063726 2.573644 0.013829 -0.015497 288867.000000 0 0 1
10.212842 15.816077 -28.112592 33.834425 0.997432 2.551497 0.011192 -0.011681 531804.000000 0 0 1
10.843142 14.594477 -28.289242 33.628169 0.931815 2.570362 0.016776 -0.004582 -194585.000000 0 0 1
10.350442 13.404077 -27.392072 32.204449 0.913247 2.587861 0.017236 -0.005479 -1009980.000000 0 0 1
9.031242 13.003277 -27.556852 31.780948 0.963747 2.620121 0.015227 -0.001124 -776591.000000 0 0 1
8.541942 12.538077 -26.291102 30.354410 0.972745 2.618219 0.019257 -0.002441 637310.000000 0 0 1
7.067342 12.020477 -26.396632 29.853331 1.039290 2.655598 0.019998 -0.007214 723841.000000 0 0 1
6.147542 13.056677 -26.632152 30.290933 1.130752 2.645002 0.019765 -0.005365 -492130.000000 0 0 1
4.822742 12.636377 -26.413822 29.675358 1.206204 2.668345 0.026350 -0.005945 244396.000000 0 0 1
3.712942 13.698777 -26.573162 30.125992 1.306114 2.651029 0.040488 -0.007429 -580374.000000 0 0 1
3.322142 13.974377 -27.909912 31.389219 1.337398 2.666294 0.036295 -0.008409 302911.000000 0 0 1
4.077142 15.020977 -28.509292 32.481265 1.305752 2.641869 0.040203 -0.010369 23626.100000 0 0 1
4.021542 14.888277 -30.049992 33.776258 1.306978 2.667436 0.039957 -0.013262 -58509.200000 0 0 1
4.770942 13.769177 -30.531462 33.830790 1.237248 2.696279 0.040932 -0.012282 85449.500000 0 0 1
4.684542 13.537177 -31.915842 34.983154 1.237645 2.719712 0.042707 -0.012603 -527069.000000 0 0 1
5.577742 12.370977 -32.495532 35.215223 1.147216 2.746003 0.047508 -0.000117 241457.000000 0 0 1
6.973342 12.511677 -32.435102 35.457093 1.062330 2.725736 0.046246 0.005091 -20506.500000 0 0 1
7.612642 12.606477 -31.144732 34.450979 1.027538 2.699902 0.039556 0.002073 -600203.000000 0 0 1
7.640442 11.257277 -30.253632 33.172050 0.974501 2.718983 0.044740 0.003659 769720.000000 0 0 1
8.705742 10.360377 -30.686902 33.538237 0.871965 2.726261 0.043940 0.004211 621032.000000 0 0 1
8.520042 9.143177 -30.031392 32.528039 0.820662 2.747242 0.040513 -0.008089 -131523.000000 0 0 1
9.605942 8.077677 -30.301862 32.798260 0.699190 2.748911 0.033590 -0.008366 34653.300000 0 0 1
10.792142 8.363477 -29.598442 32.595795 0.659285 2.709389 0.031712 -0.009075 -399756.000000 0 0 1
11.652242 7.265277 -29.516222 32.554053 0.557526 2.706150 0.009192 0.000555 -1410750.000000 0 0 1
12.989542 7.619477 -28.908232 32.595560 0.530498 2.661336 0.011943 0.004247 -170571.000000 0 0 1
13.833442 6.497977 -28.527722 32.363850 0.439139 2.649760 0.011578 0.002936 505901.000000 0 0 1
14.545742 5.929977 -29.600382 33.510086 0.387108 2.653710 0.007664 0.006999 -850490.000000 0 0 1
15.288342 4.667277 -29.124272 33.222584 0.296297 2.639632 0.017563 -0.001483 437588.000000 0 0 1
16.210142 4.984777 -28.063732 32.790087 0.298332 2.598008 0.016060 -0.004474 646836.000000 0 0 1
17.196342 4.005777 -27.831422 32.959801 0.228862 2.576250 0.018063 -0.002296 209090.000000 0 0 1
18.020142 4.159877 -26.507302 32.321311 0.226872 2.532414 0.025446 -0.006059 18483.400000 0 0 1
18.922042 5.231377 -26.444602 32.935209 0.269732 2.502988 0.029084 -0.007511 -63016.600000 0 0 1
19.409442 5.622777 -25.163562 32.273006 0.281974 2.464998 0.036993 -0.015600 230321.000000 0 0 1
20.486242 6.743277 -25.379142 33.305537 0.317991 2.437207 0.034294 -0.016703 -186560.000000 0 0 1
19.959742 7.979277 -25.777282 33.563797 0.380307 2.446522 0.043327 -0.018664 373043.000000 0 0 1
20.875942 8.764077 -26.559582 34.900221 0.397473 2.435672 0.051610 -0.025478 -515697.000000 0 0 1
20.757842 8.465477 -28.103872 35.949686 0.387230 2.468273 0.045250 -0.024799 -684397.000000 0 0 1
19.573142 9.011477 -28.594162 35.804200 0.431469 2.495805 0.039468 -0.011734 143893.000000 0 0 1
18.485942 8.068377 -28.451172 34.875464 0.411537 2.524896 0.035200 -0.005645 -246498.000000 0 0 1
17.161342 8.627277 -28.999132 34.783491 0.465818 2.556578 0.012135 0.004147 -274945.000000 0 0 1
17.052642 8.505077 -30.424582 35.899640 0.462650 2.582035 0.013735 0.008890 -503749.000000 0 0 1
15.930942 9.149777 -30.886022 35.936885 0.521338 2.604993 0.008095 0.004803 -1040420.000000 0 0 1
15.592042 8.681477 -32.332292 36.930434 0.508041 2.637249 -0.000313 0.014906 -26210.600000 0 0 1
14.951942 7.401377 -32.401592 36.444535 0.459649 2.666097 -0.001284 0.015396 323853.000000 0 0 1
13.638042 7.601377 -32.902992 36.419556 0.508481 2.698530 -0.009406 0.023289 183903.000000 0 0 1
12.845942 6.311577 -33.215872 36.168334 0.456686 2.734735 -0.008682 0.014171 72546.500000 0 0 1
12.629042 5.436077 -32.155222 34.971445 0.406472 2.737529 0.005306 0.005624 119578.000000 0 0 1
11.976642 4.288777 -32.673582 35.062751 0.343868 2.770303 0.015182 -0.004632 117157.000000 0 0 1
11.583842 3.285677 -31.564772 33.783367 0.276384 2.777167 0.024999 -0.008874 -398273.000000 0 0 1
12.686342 2.517477 -31.187262 33.762794 0.195895 2.748469 0.026285 -0.013277 -103757.000000 0 0 1
12.459842 1.531977 -30.207772 32.712446 0.122339 2.747730 0.039032 -0.016644 -342626.000000 0 0 1
11.870842 0.230477 -30.834552 33.041483 0.019413 2.774034 0.044423 -0.011853 275502.000000 0 0 1
12.691042 -0.608423 -31.688882 34.141148 -0.047904 2.760269 0.039759 -0.014927 114942.000000 0 0 1
13.509342 -1.458423 -30.963072 33.813328 -0.107540 2.728058 0.037261 -0.016416 -125276.000000 0 0 1
14.056842 -2.734623 -31.646782 34.736030 -0.192140 2.716656 0.036138 -0.016779 -105924.000000 0 0 1
13.097142 -3.736323 -31.799222 34.593146 -0.277896 2.736929 0.042667 -0.017243 580487.000000 0 0 1
13.681642 -4.760223 -32.702592 35.767396 -0.334827 2.724605 0.052181 -0.018602 426683.000000 0 0 1
12.918142 -6.086123 -32.706662 35.688164 -0.440286 2.729930 0.064823 -0.018509 -106970.000000 0 0 1
13.204742 -6.775023 -31.483482 34.806261 -0.474053 2.701084 0.053853 -0.015171 193963.000000 0 0 1
12.613942 -8.037123 -31.401262 34.781405 -0.567297 2.697073 0.056588 -0.019345 -158829.000000 0 0 1
12.855642 -8.838623 -30.069072 33.875329 -0.602307 2.662990 0.038782 -0.014121 78764.400000 0 0 1
14.233042 -9.136923 -29.905912 34.357334 -0.570696 2.626887 0.043539 -0.013485 353324.000000 0 0 1
14.507242 -9.534223 -28.532902 33.398922 -0.581423 2.595011 0.039345 -0.008925 -20718.500000 0 0 1
14.406242 -11.028223 -28.260412 33.582918 -0.653358 2.570871 0.026183 -0.004251 -557727.000000 0 0 1
13.132842 -11.550323 -28.475462 33.417562 -0.721372 2.590801 0.032440 -0.010761 -488328.000000 0 0 1
13.220542 -12.963123 -28.760232 34.204915 -0.775567 2.569596 0.030231 -0.014704 203005.000000 0 0 1
-10.075458 -2.514623 -17.590772 20.427272 0.244582 2.608307 0.009631 -0.007376 36285.700000 0 1 0
-10.691158 -2.461023 -18.872472 21.829514 0.226251 2.615029 0.007801 -0.005828 15565.900000 0 1 0
-11.618058 -3.503923 -19.051172 22.587694 0.292917 2.574435 0.006914 -0.006840 129280.000000 0 1 0
-12.491258 -3.283323 -20.399372 24.144277 0.257035 2.577165 0.012076 -0.007749 590495.000000 0 1 0
-13.544158 -2.345723 -20.131972 24.377098 0.171490 2.542515 0.007977 -0.008365 359625.000000 0 1 0
-14.218358 -1.888323 -21.291172 25.671803 0.132036 2.548758 0.006345 -0.006403 -235337.000000 0 0 1
-15.101758 -0.716423 -21.042672 25.910816 0.047404 2.518571 0.006226 -0.004068 -378331.000000 0 0 1
-14.468658 0.548177 -21.281672 25.740088 -0.037869 2.544175 0.010101 -0.004745 409874.000000 0 0 1
-15.295758 1.674677 -20.920772 25.970049 -0.109052 2.507438 0.011100 0.000582 39330.100000 0 0 1
-14.738858 3.017477 -21.401972 26.160725 -0.201939 2.528888 0.025685 -0.007650 9919.160000 0 0 1
-13.555858 3.500177 -20.797472 25.070847 -0.252685 2.549094 0.036437 -0.014275 291109.000000 0 0 1
-13.246558 4.740377 -21.449272 25.651779 -0.343657 2.561061 0.039180 -0.017208 -8207.600000 0 0 1
-11.978358 5.448077 -20.914972 24.710295 -0.426861 2.579998 0.022620 -0.018043 51062.500000 0 1 0
-12.206258 5.935677 -19.627772 23.863664 -0.452613 2.536582 0.029259 -0.020063 1368920.000000 0 1 0
-10.955458 6.425177 -19.083372 22.923352 -0.530420 2.554376 0.014616 -0.011733 967940.000000 0 1 0
-11.213558 7.083177 -17.703872 22.121084 -0.563376 2.498619 0.021004 -0.012632 48981.600000 0 1 0
-11.680258 8.401277 -17.853772 22.929611 -0.623543 2.463282 0.009423 -0.012195 310256.000000 0 1 0
-12.673558 8.641277 -16.872572 22.802948 -0.598430 2.403762 0.020888 -0.007657 -303900.000000 0 1 0
-13.330558 9.990777 -16.904872 23.733818 -0.643158 2.363522 0.020800 -0.006577 -358595.000000 0 1 0
-12.781958 10.996377 -16.042272 23.273445 -0.710446 2.331312 0.006598 0.000906 -233594.000000 0 1 0
-13.519458 12.121277 -16.160072 24.307387 -0.730922 2.298051 0.007854 -0.008179 -656660.000000 0 1 0
-12.788458 13.301177 -15.496772 24.095973 -0.805048 2.269371 0.009774 0.000385 -310040.000000 0 1 0
-12.876758 13.186777 -14.072872 23.189388 -0.797292 2.222909 0.029228 -0.004228 107604.000000 0 1 0
-12.391158 14.359277 -13.447272 23.249920 -0.858839 2.187537 0.022717 -0.002179 -868697.000000 0 1 0
-12.878658 14.626777 -11.994072 22.883623 -0.848868 2.122494 0.028608 -0.011965 -66681.700000 0 1 0
-14.213458 15.021677 -11.848372 23.833948 -0.813037 2.091075 0.019793 -0.008845 90568.800000 0 1 0
-15.207358 14.029477 -12.090772 23.964072 -0.745132 2.099642 0.012966 -0.005163 -841246.000000 0 1 0
-16.558958 14.431877 -11.462972 24.776560 -0.716870 2.051783 -0.004986 -0.000021 -799365.000000 0 1 0
-17.534758 13.731277 -12.132872 25.361828 -0.664344 2.069618 -0.006721 -0.001184 -478878.000000 0 0 1
-18.812158 14.213077 -11.764572 26.349839 -0.647028 2.033620 0.033558 -0.004363 -352404.000000 0 0 1
-20.047758 13.715177 -12.485572 27.311320 -0.599992 2.045593 0.026838 -0.013286 -453455.000000 0 0 1
-20.522058 12.394777 -12.268572 26.931454 -0.543336 2.043784 0.035006 -0.014119 -278279.000000 0 0 1
-21.490058 11.972877 -13.134672 27.887130 -0.508305 2.061214 0.050599 -0.015223 -823919.000000 0 0 1
-22.223558 10.720277 -12.668572 27.736323 -0.449455 2.045135 0.035639 -0.015204 239932.000000 0 0 1
-21.264858 9.650777 -12.644172 26.555730 -0.426040 2.067053 0.035469 -0.015598 962335.000000 0 0 1
-21.723058 8.602077 -11.844072 26.194828 -0.377043 2.039974 0.035026 -0.019122 -66522.000000 0 0 1
-20.601158 7.563577 -11.639972 24.841585 -0.351865 2.058465 0.030653 -0.011361 -142884.000000 0 1 0
-20.501758 6.693877 -12.732972 25.045132 -0.315590 2.104123 0.042540 -0.016936 -138280.000000 0 0 1
-19.475958 5.785977 -12.554372 23.883106 -0.288779 2.124286 0.045489 -0.016586 -722038.000000 0 1 0
-19.449758 4.578477 -13.519372 24.125276 -0.231191 2.165643 0.046912 -0.024039 -783208.000000 0 1 0
-20.423458 3.627777 -13.306872 24.644497 -0.175794 2.141178 0.050792 -0.028266 -163582.000000 0 1 0
-20.225358 2.464677 -14.052672 24.751108 -0.121263 2.174578 0.047374 -0.033354 -827549.000000 0 1 0
-21.245458 1.417577 -13.731672 25.336492 -0.066625 2.143578 0.063655 -0.029712 -617694.000000 0 0 1
-22.338058 1.417977 -14.621072 26.735281 -0.063393 2.149433 0.044558 -0.022699 254861.000000 0 0 1
-22.846158 0.109277 -14.873172 27.261147 -0.004783 2.147879 0.041223 -0.022888 -714158.000000 0 0 1
-24.247358 -0.049523 -15.437672 28.744713 0.002042 2.137746 0.050936 -0.028884 -954640.000000 0 0 1
-25.273308 0.209677 -14.542772 29.159497 -0.008296 2.092931 0.057180 -0.028834 -700250.000000 0 0 1
-26.509148 0.015777 -15.166772 30.541220 -0.000595 2.090474 0.041205 -0.020178 -727048.000000 0 0 1
-27.730858 0.283677 -14.304972 31.204378 -0.010229 2.047022 0.046594 -0.015323 -865966.000000 0 0 1
-28.002768 -0.723423 -13.338572 31.025729 0.025828 2.015200 0.043040 -0.017259 358516.000000 0 0 1
-29.214308 -0.347123 -12.684972 31.851292 0.011881 1.980411 0.048394 -0.017043 289769.000000 0 0 1
-29.296988 -0.880823 -11.218172 31.383702 0.030056 1.936335 0.038961 -0.020140 -392522.000000 0 0 1
-29.542758 -2.267223 -11.021972 31.613268 0.076594 1.926927 0.035227 -0.009726 176742.000000 0 0 1
-28.591858 -3.137823 -11.540972 30.992488 0.109308 1.952368 0.041002 -0.016138 -610953.000000 0 0 1
-28.923738 -4.591223 -11.062372 31.305559 0.157422 1.931965 0.034549 -0.020413 125894.000000 0 0 1
-30.109888 -5.195923 -11.583672 32.676971 0.170882 1.933165 0.028455 -0.014984 659607.000000 0 0 1
-30.426648 -6.504523 -11.083572 33.029309 0.210607 1.913004 0.054921 -0.019103 -184227.000000 0 0 1
-29.601998 -7.651423 -11.727672 32.746921 0.252941 1.937061 0.056725 -0.021858 -1092400.000000 0 0 1
-28.295938 -7.626423 -11.307472 31.411484 0.263268 1.939042 0.030080 -0.015426 -612358.000000 0 0 1
-27.495208 -8.586423 -12.058672 31.226986 0.302692 1.967263 0.033422 -0.014441 -766835.000000 0 0 1
-26.080008 -8.767123 -11.610872 29.863717 0.324295 1.970120 0.036403 -0.019768 -1649660.000000 0 0 1
-25.213618 -7.737823 -12.077972 29.008237 0.297766 2.000238 0.038375 -0.015377 753848.000000 0 0 1
-23.884858 -7.794523 -11.573072 27.661833 0.315441 2.002454 0.047276 -0.018899 129683.000000 0 0 1
-23.718758 -7.434823 -10.082572 26.823764 0.303757 1.956145 0.041284 -0.019275 -971095.000000 0 0 1
-23.915858 -6.119323 -9.627772 26.497327 0.250495 1.942656 0.037092 -0.017558 121249.000000 0 0 1
-25.215448 -5.610823 -9.738272 27.606776 0.218948 1.931304 0.032442 -0.015471 -699712.000000 0 0 1
-25.381308 -4.309423 -8.959172 27.258919 0.168183 1.905691 0.031241 -0.018190 -334224.000000 0 0 1
-25.271208 -4.384523 -7.558272 26.739212 0.171789 1.857369 0.025445 -0.019472 500760.000000 0 0 1
-25.539428 -3.140723 -6.965772 26.657991 0.122361 1.835167 0.055350 -0.017539 -230120.000000 0 0 1
-25.340708 -3.036523 -5.459772 26.099446 0.119259 1.781544 0.052164 -0.015885 46476.100000 0 0 1
-24.002858 -3.195123 -5.019272 24.729316 0.132336 1.775185 0.019088 -0.007778 391046.000000 0 1 0
-23.878558 -3.160523 -3.584272 24.352031 0.131593 1.718519 0.004842 -0.005653 -310807.000000 0 1 0
-22.484858 -3.595023 -3.125472 22.983942 0.158544 1.707204 -0.005742 -0.002121 -307103.000000 0 1 0
-22.368358 -4.976223 -3.139372 23.129243 0.218902 1.706948 0.011977 -0.002227 362517.000000 0 1 0
-21.088358 -5.429623 -2.775372 21.952274 0.251997 1.697563 0.003975 -0.003358 -271412.000000 0 1 0
-21.109358 -6.915323 -2.736272 22.381105 0.316577 1.693361 0.018753 -0.007826 51157.900000 0 1 0
-22.017558 -7.365923 -1.742872 23.282338 0.322843 1.645725 0.035217 -0.001997 743272.000000 0 1 0
-22.518558 -8.660523 -2.025872 24.211449 0.367156 1.654568 0.034009 -0.008144 207987.000000 0 1 0
-23.102258 -9.411623 -0.789972 24.958305 0.386861 1.602453 0.035628 -0.007904 1057650.000000 0 1 0
-21.999758 -9.888523 0.037028 24.119983 0.422424 1.569261 0.025850 -0.001310 1287530.000000 0 1 0
-22.422958 -10.724423 1.067028 24.878521 0.446120 1.527894 0.021697 0.003046 -438580.000000 0 1 0
-21.207158 -11.334623 1.760228 24.110488 0.490843 1.497725 0.021233 0.005571 -259734.000000 0 1 0
-20.499458 -12.166823 0.845328 23.853174 0.535641 1.535350 0.024707 0.005678 100412.000000 0 1 0
-19.350458 -12.580623 1.542528 23.132049 0.576478 1.504063 0.011701 0.001516 -796499.000000 0 1 0
-18.647058 -13.727223 0.906928 23.172655 0.634585 1.531648 0.020309 0.002055 -576905.000000 0 1 0
-19.319558 -14.986723 0.892928 24.467213 0.659765 1.534293 0.022341 0.003634 301025.000000 0 1 0
-18.632358 -15.995223 0.172828 24.556909 0.709388 1.563758 0.009685 -0.003128 301549.000000 0 1 0
-17.428758 -16.721223 0.831328 24.167168 0.764683 1.536390 0.016872 -0.002302 436626.000000 0 1 0
-16.209158 -15.972123 0.921528 22.774870 0.778033 1.530323 0.022381 -0.001152 266817.000000 0 1 0
-15.181058 -16.668923 1.550228 22.599131 0.832079 1.502146 0.032492 -0.001654 -148043.000000 0 1 0
-15.237558 -16.673223 3.077128 22.795794 0.830358 1.435396 0.045736 0.000277 -456034.000000 0 1 0
-14.867358 -15.368823 3.514028 21.669966 0.801982 1.407916 0.025064 -0.002150 -2788.150000 0 1 0
-14.025658 -15.332823 4.640528 21.291994 0.829893 1.351086 0.010663 0.002148 -149247.000000 0 1 0
-14.568258 -15.827323 6.012828 22.335899 0.826797 1.298234 0.029264 0.003597 -540212.000000 0 1 0
-15.478358 -14.916123 6.611128 22.489493 0.766902 1.272424 0.027796 0.001295 212815.000000 0 1 0
-15.632458 -15.071323 8.019528 23.148031 0.767124 1.217017 0.031836 -0.000378 -212831.000000 0 1 0
-16.439858 -16.257623 8.535528 24.646185 0.779825 1.217148 0.026132 0.001497 -443110.000000 0 1 0
-15.845858 -17.485823 8.166728 24.970796 0.834560 1.237615 0.030412 0.003227 -187252.000000 0 1 0
-16.473858 -18.598923 8.743928 26.339404 0.845914 1.232404 0.034191 0.000235 -283647.000000 0 0 1
-16.142258 -19.003223 10.222728 26.948082 0.866623 1.181704 0.046102 0.002079 481844.000000 0 0 1
-14.886458 -19.648623 10.428128 26.766039 0.922428 1.170596 0.039505 0.001638 237723.000000 0 0 1
-14.552158 -19.744323 11.833928 27.233168 0.935648 1.121268 0.040544 -0.004581 947753.000000 0 0 1
-13.180258 -20.426123 12.237028 27.215630 0.997757 1.104443 0.032991 0.001158 1102800.000000 0 0 1
-12.083558 -19.558923 12.016628 25.941534 1.017389 1.089172 0.017928 -0.004700 -239548.000000 0 0 1
-10.872358 -20.216523 12.364428 26.072879 1.077371 1.076712 0.014444 -0.004380 965727.000000 0 0 1
-9.634758 -19.333523 12.714028 25.065118 1.108474 1.038817 0.011868 -0.007226 562907.000000 0 0 1
-9.080558 -18.738023 11.582628 23.827029 1.119540 1.063160 0.002958 -0.009821 -184081.000000 0 1 0
-7.946958 -17.957923 11.986728 23.007016 1.154170 1.022771 -0.002615 -0.006411 241648.000000 0 1 0
-7.132658 -17.401023 10.845628 21.709400 1.181786 1.047680 -0.007586 -0.001533 -519606.000000 0 1 0
-6.450458 -18.315523 10.096928 21.886405 1.232176 1.091299 -0.008958 0.000996 -617751.000000 0 1 0
-5.659558 -17.672223 9.140828 20.685569 1.260865 1.113087 -0.008551 0.006440 253271.000000 0 1 0
-4.561458 -18.533923 8.426628 20.864353 1.329478 1.155046 -0.009369 0.006157 406068.000000 0 1 0
-3.453758 -18.866423 9.220928 21.281350 1.389737 1.122660 -0.003144 0.018329 -792854.000000 0 1 0
-2.367958 -19.183423 8.423628 21.084791 1.447980 1.159812 0.004372 0.005250 -752560.000000 0 1 0
-1.074658 -19.557123 9.140428 21.614425 1.515902 1.134169 0.004434 0.010384 -905743.000000 0 1 0
-0.083358 -19.682223 8.184528 21.316269 1.566561 1.176718 0.012413 -0.001667 -1677400.000000 0 1 0
1.088742 -19.968723 8.880628 21.881517 -1.516328 1.152887 0.020494 -0.006935 -677239.000000 0 1 0
2.129142 -20.607923 7.958828 22.193753 -1.467845 1.204021 0.030251 -0.015304 -407235.000000 0 1 0
1.864542 -21.954223 7.600228 23.307249 -1.486071 1.238633 0.027037 -0.008590 -209774.000000 0 1 0
2.234642 -22.939523 8.575228 24.591662 -1.473688 1.214608 0.032184 -0.014186 20148.800000 0 1 0
1.795142 -24.382623 8.194828 25.785461 -1.497305 1.247380 0.021776 -0.007988 152619.000000 0 0 1
2.043842 -25.319263 9.209828 27.019683 -1.490248 1.222969 0.017733 -0.011385 -253095.000000 0 0 1
1.516442 -26.563623 8.832828 28.034701 -1.513771 1.250268 0.021703 -0.004748 -565858.000000 0 0 1
1.639742 -27.657133 9.904328 29.422805 -1.511577 1.227470 0.017879 -0.008254 284170.000000 0 0 1
0.880242 -27.388103 11.048728 29.545852 -1.538668 1.187530 0.015163 -0.009755 -712838.000000 0 0 1
-0.510658 -27.412053 10.972328 29.530888 1.552170 1.190114 0.005087 0.001269 -696180.000000 0 0 1
-1.184758 -27.606413 12.323628 30.255404 1.527907 1.151279 0.002931 -0.003522 -21354.700000 0 0 1
-0.710258 -28.803213 12.941328 31.584925 1.546142 1.148637 -0.002082 -0.002704 -10267.100000 0 0 1
-0.992758 -28.790403 14.283228 32.154058 1.536328 1.110501 -0.002288 -0.005451 -176670.000000 0 0 1
-0.478458 -30.020243 15.032428 33.577042 1.554860 1.106605 -0.013024 0.006530 64257.800000 0 0 1
-0.734058 -29.896793 16.419128 34.116635 1.546248 1.068700 -0.012773 0.008052 -12015.600000 0 0 1
-0.409958 -31.039273 17.237628 35.506905 1.557589 1.063893 -0.021786 0.011047 -4442.480000 0 0 1
-0.729458 -30.747353 18.727828 36.009212 1.547077 1.023847 -0.026104 0.009498 112512.000000 0 0 1
-2.081558 -30.610623 19.104128 36.142922 1.502900 1.013879 -0.024579 0.015171 -43506.000000 0 0 1
-2.196358 -30.279563 20.482428 36.622476 1.498387 0.977272 -0.006914 0.008225 -564117.000000 0 0 1
-3.670958 -30.143593 20.827128 36.822294 1.449611 0.969621 0.030925 -0.002720 -798921.000000 0 0 1
-4.344858 -29.084123 20.178928 35.664452 1.422504 0.969394 0.023990 -0.004550 258863.000000 0 0 1
-5.570958 -28.735603 20.816628 35.917996 1.379302 0.952608 0.030628 -0.007748 341213.000000 0 0 1
-5.508358 -27.778603 22.041628 35.886294 1.375041 0.909415 0.040298 -0.015769 -680346.000000 0 0 1
-4.680458 -28.317903 23.035228 36.802609 1.406995 0.894495 0.044304 -0.015464 -15977.100000 0 0 1
-4.498958 -27.387153 24.112228 36.765422 1.407978 0.855502 0.037207 -0.020302 111235.000000 0 0 1
-3.572458 -27.887183 25.274928 37.805811 1.443386 0.838544 0.039673 -0.024117 149185.000000 0 0 1
-4.071858 -29.058073 25.824028 39.087492 1.431575 0.849082 0.035802 -0.021578 236548.000000 0 0 1
-3.454058 -30.228043 25.286228 39.560819 1.457023 0.877373 0.023005 -0.019220 135796.000000 0 0 1
-3.747558 -31.383543 26.278728 41.104044 1.451948 0.877180 0.033448 -0.014163 263036.000000 0 0 1
-3.155258 -31.192963 27.570428 41.750270 1.469986 0.849491 0.028681 -0.018695 203571.000000 0 0 1
-3.538858 -32.254783 28.396628 43.119172 1.461518 0.851891 0.021982 -0.011835 -101141.000000 0 0 1
-3.022558 -32.146873 29.867028 43.984050 1.477049 0.824339 0.044553 -0.015663 -409089.000000 0 0 1
-1.651258 -32.263453 30.100928 44.155666 1.519661 0.820712 0.049279 -0.014133 -341396.000000 0 0 1
-1.413758 -32.259293 31.467428 45.087245 1.527000 0.798303 0.047289 -0.028845 -66476.100000 0 0 1
-27.976148 3.111677 -10.450372 30.025950 -0.110771 1.926281 0.044596 -0.018624 -138747.000000 0 0 1
-28.620468 2.804777 -11.652672 31.028740 -0.097687 1.955781 0.043912 -0.033662 -180086.000000 0 0 1
-29.182788 3.901077 -12.260272 31.893068 -0.132890 1.965374 0.043559 -0.027503 -348398.000000 0 0 1
-30.184988 3.581477 -13.400772 33.219590 -0.118099 1.986026 0.047257 -0.018352 -406593.000000 0 0 1
-31.286618 2.909177 -12.857672 33.950486 -0.092718 1.959207 0.040875 -0.021459 191903.000000 0 0 1
-32.110858 2.417377 -13.941672 35.090186 -0.075141 1.979380 0.043243 -0.014950 459756.000000 0 0 1
-33.266718 1.510577 -13.423772 35.904791 -0.045377 1.953976 0.030158 -0.018593 323393.000000 0 0 1
-32.792488 0.205577 -13.251972 35.369539 -0.006269 1.954839 0.024943 -0.018705 321539.000000 0 0 1
-33.731118 -0.553523 -12.527872 35.986696 0.016408 1.926367 0.028448 -0.009622 -281696.000000 0 0 1
-33.201368 -2.001723 -12.276872 35.455032 0.060217 1.924384 0.015328 -0.011126 85467.600000 0 0 1
-33.266258 -2.792623 -13.490472 36.006048 0.083751 1.954840 0.019095 -0.010269 96583.100000 0 0 1
-32.618958 -4.005223 -13.283472 35.446986 0.122177 1.954915 0.024760 -0.011254 -415486.000000 0 0 1
-32.997598 -5.165823 -14.193472 36.290244 0.155291 1.972634 0.039367 -0.017242 -134912.000000 0 0 1
-32.583608 -6.427923 -13.765872 35.951480 0.194774 1.963731 0.043692 -0.022330 310424.000000 0 0 1
-33.235158 -7.413223 -14.561172 37.034569 0.219461 1.974882 0.046814 -0.013767 -579832.000000 0 0 1
-33.307888 -8.835523 -13.888272 37.153277 0.259296 1.953910 0.056580 -0.009418 867767.000000 0 0 1
-32.057868 -9.385123 -13.397772 35.990106 0.284797 1.952242 0.056513 -0.008608 1638200.000000 0 0 1
-31.052658 -9.613223 -14.395072 35.551367 0.300221 1.987676 0.069520 -0.011809 49757.700000 0 0 1
-29.989548 -10.665723 -13.989272 34.768238 0.341698 1.984887 0.071377 -0.017172 34262.600000 0 0 1
-30.525208 -11.966523 -14.070072 35.678466 0.373609 1.976165 0.071618 -0.019639 -42703.600000 0 0 1
-29.491808 -12.895623 -14.078572 35.132179 0.412210 1.983111 0.056792 -0.017829 -611423.000000 0 0 1
-29.843138 -14.340223 -14.479772 36.137497 0.447942 1.983061 0.064516 -0.021225 -383902.000000 0 0 1
-29.696288 -14.564123 -15.827672 36.667402 0.455967 2.017123 0.064741 -0.019190 -75230.500000 0 0 1
-29.907168 -15.841423 -16.327172 37.576135 0.487114 2.020289 0.067085 -0.024656 -79290.800000 0 0 1
-28.816438 -16.927623 -16.072272 37.084356 0.531125 2.019056 0.060698 -0.022417 371493.000000 0 0 1
-27.633858 -16.577023 -16.796272 36.339270 0.540332 2.051279 0.054441 -0.026858 495635.000000 0 0 1
-26.511598 -17.415023 -16.433272 35.723945 0.581199 2.048800 0.063766 -0.033517 370506.000000 0 0 1
-25.236758 -16.786023 -16.985772 34.744510 0.586946 2.081598 0.064186 -0.043115 -457974.000000 0 0 1
-25.183598 -16.547223 -18.415372 35.315012 0.581325 2.119358 0.044758 -0.035601 1203280.000000 0 0 1
-23.808258 -16.223223 -18.785172 34.393441 0.598141 2.148599 0.027245 -0.022238 1085380.000000 0 0 1
-23.777058 -15.647123 -20.235972 34.923853 0.582032 2.188827 0.023868 -0.015428 -45694.700000 0 0 1
-24.257058 -16.585723 -21.186972 36.226770 0.599735 2.195483 0.019602 -0.024474 698035.000000 0 0 1
-25.672378 -16.517523 -21.359472 37.257571 0.571719 2.181315 0.022284 -0.026402 136879.000000 0 0 1
-26.347698 -17.635823 -22.167172 38.686004 0.589858 2.180961 0.032746 -0.027811 -148291.000000 0 0 1
-25.711408 -17.867923 -23.404172 39.090848 0.607323 2.212689 0.021927 -0.013268 69562.400000 0 0 1
-26.348488 -18.862923 -24.186672 40.435724 0.621319 2.211988 0.019874 -0.015518 -683112.000000 0 0 1
-25.596038 -19.123423 -25.528672 40.897134 0.641658 2.244925 0.019218 -0.013590 400327.000000 0 0 1
-24.271358 -19.620123 -25.452362 40.272457 0.679821 2.254933 0.007557 -0.014467 175605.000000 0 0 1
-24.132258 -20.931323 -24.986272 40.556133 0.714486 2.234567 0.017725 -0.008421 -873811.000000 0 0 1
-22.645258 -21.281523 -24.986372 39.875176 0.754362 2.247998 0.015482 0.001918 -35827.200000 0 0 1
-22.114658 -21.529323 -26.291662 40.544066 0.771987 2.276371 0.023589 -0.000626 610258.000000 0 0 1
-20.688758 -21.529023 -26.396462 39.853441 0.805299 2.294732 0.022524 0.001947 428003.000000 0 0 1
-20.257258 -21.286223 -27.866632 40.497024 0.810161 2.329685 0.030495 0.006070 -321701.000000 0 0 1
-20.404158 -22.424423 -28.663782 41.722857 0.832534 2.328155 0.054247 0.001791 -53227.800000 0 0 1
-20.564558 -22.023223 -29.986632 42.510251 0.819636 2.353780 0.056128 -0.007527 30854.300000 0 0 1
-19.439758 -22.492423 -30.916432 42.891013 0.858070 2.375772 0.058801 -0.018259 18081.500000 0 0 1
-19.910458 -23.515223 -31.753512 44.245650 0.868218 2.371238 0.069868 -0.024048 181668.000000 0 0 1
-18.908658 -23.773923 -32.724442 44.650038 0.898895 2.393385 0.075594 -0.029492 43445.200000 0 0 1
-19.237358 -24.668523 -33.943662 46.160418 0.908473 2.396967 0.078432 -0.020788 161356.000000 0 0 1
-18.133558 -24.682923 33.909278 45.693673 0.937185 0.734598 0.076852 -0.028635 90379.500000 0 0 1
-18.519958 -24.961023 32.534211 44.994626 0.932464 0.762562 0.081875 -0.033875 -32683.000000 0 0 1
-17.340358 -24.813823 31.503331 43.690659 0.960864 0.765474 0.084379 -0.031455 496814.000000 0 0 1
-16.699958 -23.547723 31.484551 42.716048 0.953925 0.742078 0.056913 -0.020154 -502441.000000 0 0 1
-15.843058 -23.514223 30.394781 41.566379 0.977896 0.750666 0.063784 -0.022074 -284606.000000 0 0 1
-15.109458 -22.156423 30.304511 40.466853 0.972291 0.724437 0.022541 -0.013431 -376340.000000 0 0 1
-16.065858 -21.165923 30.137011 40.178943 0.921532 0.722629 0.024205 -0.009547 -43737.800000 0 0 1
-15.472358 -19.904423 29.999491 39.186086 0.910031 0.698877 0.024999 -0.010916 -84561.900000 0 0 1
-15.127258 -19.119823 31.265111 39.647304 0.901455 0.662298 0.027614 -0.011609 21400.700000 0 0 1
-14.605158 -17.841723 30.888221 38.545037 0.884819 0.641241 0.021595 -0.005098 -55492.600000 0 0 1
-14.228258 -17.119723 32.037111 39.011597 0.877376 0.607250 0.031336 -0.010724 -101057.000000 0 0 1
-13.566558 -15.725623 31.841151 38.015860 0.858973 0.577966 0.033959 -0.010442 75740.000000 0 0 1
-12.378758 -15.853323 31.080711 37.021238 0.907854 0.574365 0.038931 -0.016376 -56193.300000 0 0 1
-11.954058 -14.553323 30.611611 35.941194 0.883144 0.551549 0.038007 -0.016642 -396711.000000 0 0 1
-10.482758 -14.436523 30.232821 35.104485 0.942749 0.533123 0.058401 -0.016445 -276547.000000 0 0 1
-10.103058 -13.054523 30.174021 34.394242 0.912166 0.500592 0.061579 -0.015722 -26634.000000 0 0 1
-8.806158 -12.753323 30.656251 34.351148 0.966475 0.468077 0.046010 -0.012698 234370.000000 0 0 1
-8.512258 -11.209123 30.656271 33.732920 0.921303 0.430412 0.030350 -0.010001 61286.700000 0 0 1
-9.296658 -10.442623 31.596901 34.551995 0.843388 0.416590 0.030053 -0.005489 508322.000000 0 0 1
-8.906558 -9.081723 31.636861 34.098320 0.795136 0.382290 0.020442 -0.001307 -72059.600000 0 0 1
-9.865758 -8.351523 32.576871 35.047591 0.702468 0.377731 0.010645 -0.001916 203387.000000 0 0 1
-11.222158 -8.158423 32.181401 35.044818 0.628613 0.407050 0.012976 -0.007890 965396.000000 0 0 1
-12.080658 -7.666823 33.245195 36.193445 0.565499 0.406420 0.012080 -0.011610 411166.000000 0 0 1
-11.830758 -6.199323 33.617676 36.173838 0.482663 0.378184 0.011901 -0.015454 -562241.000000 0 0 1
-12.096058 -5.264023 32.592901 35.161367 0.410466 0.384591 0.000810 -0.011154 309831.000000 0 0 1
-12.105858 -3.950623 33.030853 35.400515 0.315443 0.367965 0.005325 -0.014140 -527591.000000 0 0 1
-11.726058 -2.888023 32.007761 34.210201 0.241485 0.360784 0.006576 -0.004811 -721714.000000 0 0 1
-10.350758 -2.702123 31.976481 33.718466 0.255356 0.322843 0.014894 -0.015828 -598670.000000 0 0 1
-9.924558 -1.549623 31.249881 32.824583 0.154890 0.311004 0.010871 -0.009616 1122870.000000 0 0 1
-8.360658 -1.406623 31.476121 32.597935 0.166682 0.263108 0.029208 -0.014194 1117240.000000 0 0 1
-8.119158 -1.031723 32.795801 33.801623 0.126395 0.244562 0.037393 -0.026521 -491925.000000 0 0 1
-6.743358 -0.847923 32.936321 33.630241 0.125085 0.203495 0.051117 -0.035654 -558549.000000 0 0 1
-6.371758 -0.262223 34.306484 34.894167 0.041131 0.183790 0.063598 -0.044639 -102218.000000 0 0 1
-6.972158 1.027077 -34.154286 34.873789 -0.146259 2.938108 0.060116 -0.025448 428943.000000 0 0 1
-6.552558 2.101777 33.728536 34.423359 -0.310389 0.201261 0.059347 -0.018862 91755.200000 0 0 1
-7.440258 3.368277 33.881438 34.851895 -0.425105 0.236539 0.060133 -0.010431 166219.000000 0 0 1
-8.714158 3.333677 33.293588 34.576190 -0.365381 0.273227 0.037004 -0.009242 -338513.000000 0 0 1
-9.488558 4.433577 33.603834 35.198111 -0.437110 0.302127 0.019290 0.017520 -34293.300000 0 0 1
-10.611958 4.667677 32.557221 34.559709 -0.414382 0.342085 0.008069 0.016622 117095.000000 0 0 1
-11.527858 5.671177 32.925318 35.343038 -0.457190 0.372026 0.009433 0.025360 -614710.000000 0 0 1
-12.496058 5.844377 31.981171 34.829635 -0.437473 0.407241 -0.006917 0.022032 -742021.000000 0 0 1
-13.078958 7.291877 32.142781 35.459681 -0.508604 0.435972 0.008044 0.017084 6892.170000 0 0 1
-13.879958 7.431377 33.314734 36.847661 -0.491568 0.441479 0.006503 0.024653 227993.000000 0 0 1
-14.385558 8.747877 33.274289 37.291392 -0.546355 0.468430 0.015241 0.020987 -170767.000000 0 0 1
-15.305658 9.076177 -34.259839 38.605398 -0.535253 2.662550 0.016737 0.019623 175945.000000 0 0 1
-14.729358 9.452477 -32.980292 37.336349 -0.570549 2.653714 0.031926 0.012665 -193929.000000 0 0 1
-15.692858 9.940077 -32.088192 37.077257 -0.564627 2.616827 0.041144 0.007588 -832936.000000 0 0 1
-15.025058 10.549877 -30.864662 35.912110 -0.612169 2.604989 0.065697 -0.002123 -337176.000000 0 0 1
-14.272458 11.675277 -31.060702 36.121771 -0.685638 2.605848 0.060854 -0.004692 -978334.000000 0 0 1
-12.924958 11.408877 -31.256602 35.695829 -0.723175 2.637550 0.066270 -0.006384 -556732.000000 0 0 1
-11.935858 12.633677 -31.202662 35.716672 -0.813792 2.633381 0.060360 -0.003560 466075.000000 0 0 1
-12.149758 13.551577 -32.312272 37.085641 -0.839887 2.628617 0.059372 -0.007792 -176196.000000 0 0 1
-11.395058 14.712577 -32.175042 37.169081 -0.911792 2.617224 0.054780 -0.016726 -326187.000000 0 0 1
-11.768558 15.823077 -31.182712 36.894854 -0.931301 2.577694 0.063856 -0.017217 342014.000000 0 0 1
-12.961358 16.542677 -31.529902 37.891842 -0.906191 2.553684 0.068786 -0.024173 644421.000000 0 0 1
-13.372358 17.350477 -30.427142 37.492266 -0.914166 2.517610 0.043956 -0.015323 -443700.000000 0 0 1
-14.728058 17.954477 -30.785422 38.561913 -0.883799 2.495326 0.035640 -0.021587 -505972.000000 0 0 1
-14.571958 18.798577 -31.930112 39.815330 -0.911385 2.501357 0.036418 -0.028325 150462.000000 0 0 1
-15.797358 19.451977 -32.160922 40.770833 -0.888708 2.479686 0.025508 -0.021619 108917.000000 0 0 1
-16.254658 20.655477 -31.211942 40.805000 -0.904069 2.441690 0.003780 -0.028383 -415511.000000 0 0 1
-15.599258 21.883677 -31.458102 41.374441 -0.951514 2.434613 0.010682 -0.024980 57953.400000 0 0 1
-16.021558 22.989377 -30.663582 41.538621 -0.962146 2.401186 0.001994 -0.020878 353927.000000 0 0 1
-17.447358 23.520177 -31.015562 42.656467 -0.932561 2.384886 -0.007640 -0.019615 624662.000000 0 0 1
-18.546058 22.843977 -30.414322 42.318253 -0.888867 2.372734 -0.001674 -0.022185 192874.000000 0 0 1
-19.524258 22.561677 -31.363712 43.288663 -0.857445 2.381141 0.028048 -0.025283 257361.000000 0 0 1
-20.866958 21.907277 -30.819452 43.187931 -0.809715 2.365438 0.029778 -0.029197 1306330.000000 0 0 1
-21.851558 22.681877 -30.073452 43.547338 -0.804041 2.333104 0.068167 -0.028382 1513730.000000 0 0 1
-22.644958 23.587977 -30.885372 44.978806 -0.805792 2.327688 0.063243 -0.025168 -401614.000000 0 0 1
-23.862058 22.957377 -31.545362 45.733454 -0.766078 2.331962 0.070131 -0.036029 -881518.000000 0 0 1
-23.568958 22.131577 -32.677282 45.968546 -0.753956 2.361519 0.065110 -0.033628 406995.000000 0 0 1
-24.792458 21.616777 -33.190132 46.728320 -0.717077 2.360690 0.076450 -0.028613 216560.000000 0 0 1
-24.701958 20.756777 34.279726 47.075791 -0.698829 0.755131 0.065917 -0.019674 -88270.700000 0 0 1
-24.375458 19.382577 -34.288890 46.320355 -0.671787 2.404246 0.065550 -0.018089 208888.000000 0 0 1
-24.211158 18.765277 33.188806 45.164285 -0.659352 0.745356 0.051193 -0.020043 -157861.000000 0 0 1
-23.959858 17.202777 33.397557 44.557908 -0.622694 0.723442 0.019939 -0.003422 -181772.000000 0 0 1
-25.074018 16.439577 33.803039 45.184195 -0.580331 0.725577 0.012171 -0.001683 283817.000000 0 0 1
-25.335398 15.371477 32.861007 44.249412 -0.545346 0.733805 0.014567 -0.002735 -571258.000000 0 0 1
-26.206868 14.235477 33.377910 44.760849 -0.497605 0.729220 -0.005369 0.001390 -683790.000000 0 0 1
-27.515758 14.635977 33.735562 45.928389 -0.488851 0.745830 0.000099 0.001952 68209.400000 0 0 1
-28.493528 13.629877 33.487394 46.033251 -0.446178 0.756182 0.003934 0.003157 -85679.200000 0 0 1
-28.507758 12.277777 34.219164 46.199429 -0.406673 0.736709 0.005533 0.002642 -764709.000000 0 0 1
-27.328178 11.511477 34.069845 45.167441 -0.398674 0.716208 0.007894 -0.007763 -361852.000000 0 0 1
-27.515678 10.143477 34.209842 45.059027 -0.353186 0.708678 0.011950 -0.000625 -727024.000000 0 0 1
-26.308048 9.211377 -34.190926 44.113289 -0.336795 2.457624 0.007025 -0.007093 -117220.000000 0 0 1
-25.486708 8.977277 33.457177 43.006354 -0.338663 0.679386 0.007898 -0.008746 166675.000000 0 0 1
-24.443958 9.944977 33.335225 42.516431 -0.386396 0.669624 0.005578 -0.013848 -323318.000000 0 0 1
-23.132758 9.450177 32.690664 41.147416 -0.387829 0.652651 0.005714 -0.005305 -462742.000000 0 0 1
-23.243158 9.290477 31.309201 40.085202 -0.380255 0.674425 0.002541 -0.003809 303303.000000 0 0 1
-21.988858 9.043477 30.680271 38.814603 -0.390189 0.659284 0.002642 -0.006346 487059.000000 0 0 1
-22.103258 8.951977 29.138031 37.652580 -0.384815 0.685875 0.009068 -0.005309 35986.400000 0 0 1
-22.467558 10.205977 28.576621 37.756806 -0.426386 0.712301 0.002723 0.004981 122212.000000 0 0 1
-22.537758 10.134977 27.143221 36.707257 -0.422595 0.738542 0.002414 0.007405 -563114.000000 0 0 1
-22.934058 11.496877 26.562751 36.928701 -0.464688 0.768005 -0.003127 0.008648 817069.000000 0 0 1
-24.306858 11.909177 26.592071 37.944566 -0.455576 0.794259 -0.007681 0.012983 650982.000000 0 0 1
-25.124238 11.376677 25.562451 37.604455 -0.425194 0.823345 0.000547 0.015119 -263709.000000 0 0 1
-26.525788 11.990577 25.561191 38.739719 -0.424545 0.850219 0.002283 0.006782 -362128.000000 0 0 1
-26.498938 13.333377 25.062981 38.834594 -0.466178 0.869279 0.000910 0.005917 343464.000000 0 0 1
-27.719728 13.988277 25.416001 40.125158 -0.467347 0.884834 -0.003969 -0.000718 507703.000000 0 0 1
-27.946768 15.359877 24.734221 40.357519 -0.502545 0.911099 -0.001392 -0.004537 -552637.000000 0 0 1
-27.142728 16.328077 25.262661 40.515871 -0.541568 0.897553 0.003799 -0.005343 -474075.000000 0 0 1
-27.251108 17.561677 24.586211 40.688047 -0.572456 0.921958 0.001832 -0.004599 -239505.000000 0 0 1
-22.401758 -9.198023 31.877501 40.032705 0.389605 0.649665 0.024852 0.004677 -359252.000000 0 0 1
-21.414358 -9.250123 30.913991 38.727436 0.407750 0.646420 0.025874 0.003019 57675.500000 0 0 1
-22.023758 -9.310723 29.616601 38.064137 0.399970 0.679207 0.030011 0.003849 163370.000000 0 0 1
-20.930858 -9.224223 28.526141 36.564023 0.415093 0.675859 0.027619 -0.000582 -45363.800000 0 0 1
-20.541958 -7.849323 28.306801 35.844928 0.364991 0.660474 0.029808 -0.000665 1178810.000000 0 0 1
-19.306758 -7.507823 28.997431 35.636629 0.370875 0.620312 0.027204 -0.006286 1042430.000000 0 0 1
-17.934258 -7.779323 28.309021 34.402851 0.409274 0.604356 0.033019 -0.003115 -237251.000000 0 0 1
-17.513658 -9.159323 28.289461 34.509636 0.481863 0.609813 0.034695 0.001333 265985.000000 0 0 1
-17.017258 -9.723823 29.505271 35.421756 0.519132 0.586342 0.028819 -0.001088 313752.000000 0 0 1
-15.719758 -9.046523 30.108921 35.149644 0.522200 0.542167 0.036090 -0.008907 80979.800000 0 0 1
-14.534958 -9.523823 29.529551 34.263137 0.580047 0.531898 0.038574 -0.007439 -649663.000000 0 0 1
-13.381158 -8.930523 30.058871 34.093186 0.588507 0.491411 0.023252 -0.005846 139043.000000 0 0 1
-12.074258 -9.655323 29.615301 33.407769 0.674535 0.481115 0.022941 -0.007760 67317.500000 0 0 1
-11.737358 -9.560023 28.191261 31.998544 0.683517 0.492789 0.050012 -0.014061 -434368.000000 0 0 1
-10.605658 -10.345323 27.966861 31.648870 0.772973 0.487171 0.039835 -0.015436 -833863.000000 0 0 1
-10.109358 -10.096823 26.542061 30.143423 0.784778 0.493826 0.026342 -0.019666 298387.000000 0 0 1
-11.066558 -10.317523 25.469001 29.624145 0.750385 0.536040 0.032512 -0.016118 727219.000000 0 0 1
-10.474258 -10.070123 24.216071 28.240672 0.765729 0.540427 0.006298 -0.016343 -43521.900000 0 0 1
-11.415858 -10.602923 23.113711 27.874494 0.748495 0.593110 0.009483 -0.013939 -316512.000000 0 0 1
-11.491758 -12.002623 23.034111 28.402354 0.807139 0.624949 0.022225 -0.013850 787871.000000 0 0 1
-12.692058 -12.486723 22.394311 28.609644 0.777243 0.671718 0.021517 -0.009741 1129350.000000 0 0 1
-13.919858 -12.540323 23.367211 29.950771 0.733309 0.675831 0.030504 -0.007948 -618428.000000 0 0 1
-15.063958 -13.012423 22.747511 30.227392 0.712458 0.718876 0.026159 -0.001187 31189.800000 0 0 1
-16.205858 -12.862923 23.584311 31.373625 0.670900 0.720124 0.023963 0.002842 988354.000000 0 0 1
-17.548058 -13.609323 23.251611 32.152533 0.659651 0.762421 0.030027 -0.003495 559129.000000 0 0 1
-17.459058 -14.993823 23.355011 32.788564 0.709580 0.778039 0.032292 -0.003874 -35586.400000 0 0 1
-18.703258 -15.633023 23.344311 33.751446 0.696219 0.807020 0.031839 0.002551 -239904.000000 0 0 1
-19.542858 -15.862423 24.608721 35.201263 0.681819 0.796677 0.028013 -0.001446 232319.000000 0 0 1
-18.925658 -16.842423 25.489061 35.938001 0.727221 0.782361 0.031450 0.002616 278262.000000 0 0 1
-19.704958 -16.952223 26.640571 37.220737 0.710445 0.773105 0.025772 -0.001652 -375378.000000 0 0 1
-19.183558 -17.936623 27.737151 38.197917 0.751819 0.758101 0.028009 -0.003492 -152842.000000 0 0 1
-19.298958 -19.312923 27.384661 38.669864 0.785760 0.783900 0.040105 -0.005104 124876.000000 0 0 1
-19.049258 -20.157423 28.486351 39.757617 0.813655 0.772024 0.042854 -0.009627 -162850.000000 0 0 1
-19.118658 -21.689123 28.117791 40.330525 0.848305 0.799335 0.053479 -0.010356 64892.500000 0 0 1
-20.423258 -22.060823 27.728801 40.898359 0.823924 0.825768 0.060907 -0.015541 -58482.100000 0 0 1
-20.463458 -23.439923 27.380401 41.447188 0.853090 0.849166 0.080322 -0.004452 -361554.000000 0 0 1
-21.891258 -23.853423 27.038971 42.181973 0.828266 0.874986 0.087915 -0.011279 76294.200000 0 0 1
-22.797758 -24.056223 28.120801 43.465147 0.812251 0.867188 0.083671 -0.006803 136250.000000 0 0 1
-23.917258 -24.823023 27.814001 44.292621 0.803980 0.891867 0.062536 -0.007664 -365015.000000 0 0 1
-24.721358 -25.513913 28.908641 45.801908 0.801174 0.887740 0.029181 -0.013590 -530249.000000 0 0 1
-25.378168 -24.635823 29.758221 46.222580 0.770557 0.871339 0.014548 0.000421 25270.500000 0 0 1
-25.926538 -25.400893 30.828491 47.621283 0.775158 0.866670 0.010160 0.000275 190177.000000 0 0 1
-27.209648 -24.815123 31.472551 48.442509 0.739404 0.863621 0.001222 0.008049 -188065.000000 0 0 1
-28.259318 -24.606523 30.599941 48.377953 0.716412 0.885996 0.007706 0.004457 -367986.000000 0 0 1
-29.390998 -24.086823 31.244051 49.195493 0.686537 0.882659 0.013623 -0.003684 693765.000000 0 0 1
-30.737058 -23.874223 30.451611 49.417060 0.660386 0.906867 0.019009 -0.008527 871899.000000 0 0 1
-31.423048 -25.087403 30.247361 50.315888 0.673750 0.925858 0.024706 -0.012873 -624680.000000 0 0 1
-32.632248 -25.006553 29.584971 50.650388 0.653861 0.947024 0.027340 -0.016808 -157183.000000 0 0 1
-33.774038 -25.957383 30.052891 52.131062 0.655274 0.956373 0.027583 -0.016878 376843.000000 0 0 1
-33.478448 -27.266143 29.677481 52.392765 0.683483 0.968614 0.029471 -0.013684 144942.000000 0 0 1
-34.365847 -28.198623 30.263431 53.777774 0.687142 0.973088 0.027736 -0.018405 -55459.200000 0 0 1
-33.665908 -29.548903 30.523451 54.205277 0.720363 0.972654 0.027114 -0.020301 -108804.000000 0 0 1
-32.839608 -29.462773 31.648111 54.296388 0.731250 0.948532 0.033126 -0.022884 -379701.000000 0 0 1
-32.330988 -30.718233 31.968391 54.871492 0.759824 0.948866 0.030589 -0.030872 -168003.000000 0 0 1
-31.298248 -30.731993 33.109202 54.956846 0.776270 0.924219 0.023225 -0.017656 -295845.000000 0 0 1
-31.907698 -30.543293 -34.366353 55.964633 0.763554 2.232007 0.012989 -0.004876 -323057.000000 0 0 1
-31.004238 -30.650323 -33.321912 54.873080 0.779658 2.223396 0.012854 -0.016674 -457503.000000 0 0 1
-31.642038 -30.335583 -31.962802 54.250224 0.764322 2.200832 0.008590 -0.012938 3955.290000 0 0 1
-31.929518 -28.942123 -31.766932 53.537637 0.736361 2.206019 0.002960 -0.001947 -400004.000000 0 0 1
-30.820228 -28.225933 -31.302602 52.215348 0.741490 2.213661 0.012552 -0.002461 -563282.000000 0 0 1
-30.976988 -26.725573 -31.130932 51.409775 0.711853 2.221247 -0.001189 0.008304 -321695.000000 0 0 1
-31.752908 -26.381533 -30.006832 51.035697 0.693264 2.199328 -0.008504 -0.004448 -337922.000000 0 0 1
-31.704418 -24.955023 -29.810322 50.165512 0.666835 2.207116 0.010891 0.001058 322311.000000 0 0 1
-30.438518 -24.326023 -29.137372 48.654344 0.674244 2.212879 0.011635 -0.009250 124596.000000 0 0 1
-30.421398 -22.930123 -29.161972 47.975750 0.645897 2.224144 0.009839 -0.006263 273225.000000 0 0 1
-29.255528 -22.553023 -28.430452 46.613467 0.656742 2.226755 0.021226 -0.007283 238734.000000 0 0 1
-28.998758 -21.047823 -28.565212 45.824776 0.627844 2.243825 0.028275 -0.015505 -388089.000000 0 0 1
-28.203128 -20.748423 -29.660192 45.887258 0.634272 2.273615 0.035956 -0.014321 67669.600000 0 0 1
-28.015908 -19.351023 -29.747342 45.213466 0.604468 2.288864 0.026329 -0.020345 -177670.000000 0 0 1
-27.362498 -18.809123 -31.062322 45.468200 0.602223 2.322885 0.038010 -0.013338 251401.000000 0 0 1
-28.176318 -18.486923 -32.198162 46.608935 0.580662 2.333412 0.042948 -0.020532 700346.000000 0 0 1
-29.120118 -17.406423 -32.030932 46.657748 0.538760 2.327472 0.045575 -0.019913 210790.000000 0 0 1
-29.697088 -16.777823 -33.358492 47.709552 0.514260 2.345073 0.053799 -0.025952 649648.000000 0 0 1
-30.735668 -17.467523 -34.055712 49.087546 0.516795 2.337514 0.057059 -0.026405 2230250.000000 0 0 1
-32.112118 -17.295523 -33.566392 49.568396 0.494047 2.314711 0.057136 -0.024005 1469160.000000 0 0 1
-33.078508 -17.788423 34.090032 50.722243 0.493400 0.833765 0.050156 -0.029956 -413643.000000 0 0 1
-33.422878 -19.151623 34.107982 51.451218 0.520337 0.846086 0.040617 -0.021750 -245536.000000 0 0 1
-34.229294 -19.328323 33.007277 51.329416 0.514038 0.872325 0.036396 -0.016788 -1169100.000000 0 0 1
-34.894289 -20.667223 32.978870 52.271898 0.534724 0.888071 0.020875 -0.014876 -769006.000000 0 0 1
-34.035318 -21.715923 32.783579 52.007184 0.567922 0.888771 0.035049 -0.013668 -215905.000000 0 0 1
-34.541888 -22.770023 33.590756 53.291227 0.582816 0.888825 0.026041 -0.006966 124801.000000 0 0 1
-33.463958 -23.881323 33.768393 53.202053 0.619824 0.883151 0.027435 -0.006411 2030900.000000 0 0 1
-32.276488 -23.710723 -34.147821 52.631205 0.633580 2.276820 0.011598 -0.007764 1771430.000000 0 0 1
-31.328958 -22.667623 34.311698 51.697363 0.626348 0.845038 0.019290 -0.007449 -104721.000000 0 0 1
-30.060548 -22.701923 -33.579032 50.463504 0.646825 2.298842 0.017357 -0.006713 -325905.000000 0 0 1
-29.151068 -23.741523 -33.928852 50.641995 0.683478 2.304971 0.015647 -0.005519 438215.000000 0 0 1
-27.913008 -23.664923 -33.230472 49.431051 0.703221 2.308052 0.026546 -0.010343 268351.000000 0 0 1
-27.871268 -24.139223 -31.784912 48.680492 0.713765 2.282242 0.029761 -0.002183 -613826.000000 0 0 1
-27.563208 -25.507263 -31.604852 49.083781 0.746678 2.270376 0.028355 -0.010397 -10114.000000 0 0 1
-27.348208 -25.762833 -30.237942 48.228427 0.755557 2.248458 0.023835 -0.015479 -384449.000000 0 0 1
-26.825268 -27.179183 -29.897852 48.499325 0.791952 2.235034 0.020534 -0.020024 -383075.000000 0 0 1
-27.752768 -28.195213 -30.060052 49.686949 0.793306 2.220548 0.008211 -0.004233 -437695.000000 0 0 1
-27.239078 -29.404623 -29.623272 49.841122 0.823611 2.207259 0.006979 -0.010048 -133134.000000 0 0 1
-28.036898 -30.672883 -30.052152 51.283771 0.830267 2.196907 0.007098 0.002495 -142361.000000 0 0 1
-27.820868 -30.948503 -31.409552 52.137994 0.838567 2.217340 0.023357 -0.014408 272656.000000 0 0 1
-28.037678 -32.331613 -31.774092 53.301384 0.856406 2.209458 0.028799 -0.002435 -156559.000000 0 0 1
-27.507718 -32.733983 -33.224902 54.148705 0.871936 2.231391 0.022176 -0.020877 -331265.000000 0 0 1
-26.114178 -32.686263 -33.301422 53.472673 0.896706 2.243080 0.004512 -0.022004 -906419.000000 0 0 1
-25.714978 -33.236613 34.210552 54.187585 0.912303 0.887522 0.014565 -0.025746 -229296.000000 0 0 1
-24.211658 -33.310803 33.902355 53.340263 0.942282 0.882028 0.016944 -0.025533 -239085.000000 0 0 1
-24.104258 -34.171887 32.828463 53.164284 0.956467 0.905247 0.023162 -0.019576 -194179.000000 0 0 1
-23.113458 33.756557 32.926696 52.515754 -0.970406 0.893117 0.022159 -0.010020 -657158.000000 0 0 1
-23.064258 32.964917 31.580801 51.146776 -0.960298 0.905294 0.031333 -0.014615 -265597.000000 0 0 1
-24.289058 32.294707 31.371451 51.157349 -0.925948 0.910647 0.031447 -0.029804 -75351.400000 0 0 1
-24.353758 31.439027 30.259881 49.971776 -0.911715 0.920353 0.026073 -0.021462 -617427.000000 0 0 1
-25.746128 30.872367 30.018331 50.170373 -0.875692 0.929384 0.025196 -0.024856 -529843.000000 0 0 1
-25.980238 29.779817 30.843031 50.130857 -0.853435 0.908093 0.035172 -0.025705 -18612.200000 0 0 1
-27.319938 29.367217 30.719021 50.521982 -0.821498 0.917216 0.040620 -0.028058 74557.800000 0 0 1
-27.597818 28.131057 31.603251 50.514962 -0.794966 0.894868 0.032440 -0.039912 176939.000000 0 0 1
-26.735628 27.067967 31.223971 49.217934 -0.791575 0.883561 0.040077 -0.032438 340163.000000 0 0 1
-27.114478 25.846307 31.949051 49.233813 -0.761457 0.864626 0.031558 -0.022816 1619520.000000 0 0 1
-28.370808 25.025697 31.388541 49.157184 -0.722833 0.878204 0.022127 -0.015703 1469460.000000 0 0 1
-28.008678 24.552237 30.088211 47.881090 -0.719732 0.891309 0.020773 -0.011461 68457.500000 0 0 1
-29.144418 24.130437 29.350391 47.886538 -0.691559 0.911051 0.015274 -0.002941 439942.000000 0 0 1
-28.688618 23.833287 27.885831 46.569109 -0.693216 0.928788 0.017393 -0.019942 413204.000000 0 0 1
-27.671268 22.839787 27.696941 45.326322 -0.690036 0.913402 0.008679 -0.007036 -175261.000000 0 0 1
-26.902058 23.118787 26.572971 44.320670 -0.709908 0.927843 0.006823 -0.007617 -308648.000000 0 0 1
-25.582048 22.315887 26.673441 43.173052 -0.717314 0.904821 0.007918 -0.004194 -231268.000000 0 0 1
-25.658428 20.906587 26.789241 42.580556 -0.683703 0.890347 0.008819 -0.008066 293332.000000 0 0 1
-24.390558 20.353287 27.099381 41.755623 -0.695411 0.864528 0.011104 0.001689 136236.000000 0 0 1
-24.576758 18.940587 27.666551 41.571636 -0.656600 0.842613 0.013880 -0.000591 -785097.000000 0 0 1
-23.475658 18.426487 28.307971 41.133723 -0.665477 0.811800 0.010788 0.008750 -668911.000000 0 0 1
-23.805658 17.590887 29.382021 41.706736 -0.636383 0.789091 0.006275 0.007833 114631.000000 0 0 1
-22.653958 16.661287 29.850881 41.010674 -0.634136 0.755570 0.005226 0.002704 686601.000000 0 0 1
-21.495758 17.274687 30.442431 41.075833 -0.676952 0.736048 0.026722 -0.004146 803225.000000 0 0 1
-20.342958 16.462487 30.347451 40.072649 -0.680354 0.711611 0.024888 -0.001348 261000.000000 0 0 1
-19.150258 16.945887 31.191831 40.333928 -0.724404 0.686704 0.023083 -0.012004 -179818.000000 0 0 1
-19.303758 16.723287 32.590951 41.406201 -0.713894 0.664698 0.023820 -0.014453 497679.000000 0 0 1
-18.186358 17.264887 33.279642 41.669587 -0.759411 0.645739 0.029789 -0.016637 -449043.000000 0 0 1
-18.271258 17.128087 -33.918622 42.162580 -0.753116 2.505583 0.027068 -0.019534 292434.000000 0 0 1
-19.302558 17.852487 -33.245462 42.385856 -0.746390 2.472448 0.027090 -0.018871 614467.000000 0 0 1
-20.599958 17.269087 -33.344162 42.830045 -0.697666 2.463105 0.033902 -0.014868 -94768.500000 0 0 1
-21.585058 18.092887 -32.495532 43.002638 -0.697611 2.427463 0.050418 -0.015690 -207727.000000 0 0 1
-21.521258 17.639187 -31.158262 41.774906 -0.686589 2.412622 0.038886 -0.012793 608761.000000 0 0 1
-22.528358 18.311887 -30.395572 42.032641 -0.682520 2.379137 0.036214 -0.015144 -91396.300000 0 0 1
-22.680358 17.788587 -28.893482 40.812569 -0.665105 2.357395 0.039825 -0.014062 386705.000000 0 0 1
-23.399658 16.560787 -28.605312 40.497747 -0.615899 2.355115 0.018651 -0.015686 -136838.000000 0 0 1
-24.728658 16.507187 -29.053412 41.570356 -0.588602 2.344651 0.033220 -0.018101 -730828.000000 0 0 1
-25.390958 15.392187 -28.273922 41.000425 -0.544971 2.331734 0.038637 -0.012535 -395087.000000 0 0 1
-24.849358 14.162587 -28.618002 40.460592 -0.518022 2.356476 0.012214 -0.007506 -134298.000000 0 0 1
-25.456048 13.219487 -27.779792 39.930966 -0.478973 2.340184 0.000807 -0.002157 -256563.000000 0 0 1
-24.962058 11.799287 -27.818462 39.194315 -0.441561 2.359950 0.003173 -0.003880 -514680.000000 0 0 1
-23.966858 11.503087 -26.878192 37.804345 -0.447486 2.361689 0.005868 -0.007580 -158955.000000 0 0 1
-23.316758 10.318387 -27.373782 37.409414 -0.416625 2.391661 0.000217 -0.001676 72014.500000 0 0 1
-22.306958 9.652887 -26.411722 35.893700 -0.408400 2.397690 0.028814 -0.008166 140143.000000 0 0 1
-22.863658 8.869087 -25.365372 35.281860 -0.370042 2.373066 0.022617 -0.005915 -191437.000000 0 0 1
-21.867558 8.103887 -24.726772 33.989356 -0.354898 2.385447 0.050855 -0.006138 -10637.500000 0 0 1
-22.411958 7.136987 -23.619972 33.333700 -0.308292 2.358296 0.056133 -0.004660 -137036.000000 0 0 1
-23.221758 6.148587 -24.160072 34.069990 -0.258837 2.359061 0.044490 -0.016350 -45870.200000 0 0 1
-23.241958 4.927487 -23.442072 33.376631 -0.208915 2.349490 0.055669 -0.016766 -334120.000000 0 0 1
33.801009 25.306977 -10.640672 43.545094 0.642672 1.817656 0.005568 -0.001102 -303549.000000 0 0 1
34.444029 24.375677 -9.796772 43.319067 0.615868 1.798924 0.008343 -0.003297 -703623.000000 0 0 1
35.519218 23.772677 -10.387372 43.984685 0.589817 1.809207 -0.000064 -0.001480 -664171.000000 0 0 1
-34.490851 23.312277 -9.421872 42.683167 -0.594366 1.793369 0.015642 -0.003307 -90754.200000 0 0 1
-34.832104 22.200677 -8.594972 42.190272 -0.567440 1.775952 0.005411 -0.002581 93165.700000 0 0 1
-33.661548 21.711377 -7.954072 40.838107 -0.572846 1.766820 0.019258 0.007897 -38870.400000 0 0 1
-33.886408 20.693577 -6.850272 40.291922 -0.548232 1.741642 0.021741 0.023448 -111674.000000 0 0 1
-34.376578 19.439477 -7.347272 40.169949 -0.514655 1.754737 0.019784 0.002120 337567.000000 0 0 1
-34.703626 18.585477 -6.296472 39.867370 -0.491680 1.729396 0.017607 -0.014860 -389070.000000 0 0 1
-35.494892 17.328277 -6.679272 40.059571 -0.454156 1.738312 0.017972 0.002559 411792.000000 0 0 1
34.310299 17.649977 -7.128072 39.236816 0.475119 1.753479 0.021682 -0.007998 266239.000000 0 0 1
33.737129 16.585677 -7.803272 38.394917 0.456917 1.775459 0.036634 0.000435 591298.000000 0 0 1
32.395839 16.914177 -8.562972 37.535374 0.481178 1.800954 0.020504 -0.010374 869836.000000 0 0 1
31.744719 15.806877 -9.215972 36.640397 0.461996 1.825052 0.044479 -0.016227 288050.000000 0 0 1
30.942079 16.329377 -10.243472 36.455309 0.485593 1.855619 0.052676 -0.016733 -634532.000000 0 0 1
30.427149 15.205077 -11.201072 35.811588 0.463424 1.888913 0.044605 -0.002957 383255.000000 0 0 1
29.332649 14.342577 -10.835672 34.402407 0.454779 1.891220 0.040870 0.000162 827394.000000 0 0 1
29.264519 13.832177 -9.523972 33.740884 0.441538 1.856954 0.043710 -0.003862 -672601.000000 0 0 1
28.226689 12.696277 -9.342272 32.329855 0.422685 1.863944 0.036169 0.002940 211591.000000 0 0 1
28.654349 11.459777 -9.829672 32.388589 0.380447 1.879152 0.042475 0.006537 1500100.000000 0 0 1
27.509849 10.568677 -9.742372 31.038727 0.366793 1.890071 0.044732 0.000001 857883.000000 0 0 1
27.963259 9.245877 -10.331472 31.211687 0.319328 1.908173 0.047985 -0.000421 -797428.000000 0 0 1
28.947379 8.672877 -9.580172 31.700935 0.291097 1.877801 0.046816 0.001603 -240799.000000 0 0 1
29.097749 7.281977 -9.818072 31.561064 0.245223 1.887127 0.037970 -0.004984 -566761.000000 0 0 1
30.205319 6.645477 -8.968972 32.201959 0.216560 1.853052 0.048399 -0.006813 826348.000000 0 0 1
31.553259 7.028777 -9.322372 33.643997 0.219181 1.851559 0.047546 -0.004654 1180170.000000 0 0 1
32.501579 6.472977 -8.441172 34.198033 0.196587 1.820206 0.047055 -0.004735 802510.000000 0 0 1
34.008209 6.784577 -8.763572 35.768547 0.196913 1.818324 0.047963 0.000876 755912.000000 0 0 1
34.441209 6.091977 -9.908372 36.352234 0.175070 1.846855 0.049389 0.000089 363624.000000 0 0 1
-35.265187 6.095077 -9.915572 37.136262 -0.171145 1.841080 0.058938 -0.001264 -533627.000000 0 0 1
-34.647167 5.354777 -11.094172 36.772007 -0.153338 1.877273 0.053898 -0.007058 302051.000000 0 0 1
-33.227958 5.367477 -10.951572 35.395535 -0.160152 1.885364 0.059427 -0.009470 1266350.000000 0 0 1
-32.473618 6.361577 -11.718272 35.104464 -0.193450 1.911140 0.044955 -0.005625 317934.000000 0 0 1
-31.747398 7.423477 -10.807772 34.348409 -0.229702 1.890886 0.047677 -0.002457 -154606.000000 0 0 1
-32.639848 8.288377 -10.074672 35.150475 -0.248678 1.861489 0.051165 0.001975 633111.000000 0 0 1
-33.078678 9.455677 -10.769872 36.049950 -0.278429 1.874177 0.058782 0.009062 -282486.000000 0 0 1
-34.132126 10.187877 -9.965572 36.987937 -0.290065 1.843595 0.068704 0.006003 -257142.000000 0 0 1
-33.553398 10.972177 -8.941972 36.416728 -0.316046 1.818879 0.041107 0.009044 115122.000000 0 0 1
-34.510985 11.762077 -8.263272 37.384973 -0.328474 1.793669 0.051336 0.005012 -183223.000000 0 0 1
-33.923128 12.835077 -7.348672 37.007037 -0.361711 1.770700 0.045097 0.001070 -57148.200000 0 0 1
-33.185038 13.844477 -8.020072 36.840709 -0.395237 1.790249 0.037164 -0.003145 185292.000000 0 0 1
-32.498528 14.665277 -7.054572 36.345449 -0.423901 1.766134 0.035571 -0.000218 -209345.000000 0 0 1
-31.576068 15.660177 -7.746472 36.087353 -0.460403 1.787139 0.021916 0.000416 -484275.000000 0 0 1
-32.188808 16.630477 -8.534572 37.222722 -0.476882 1.802138 0.014413 -0.000293 -127895.000000 0 0 1
-31.377088 17.781677 -8.600772 37.076717 -0.515581 1.804901 0.017668 0.000612 291179.000000 0 0 1
-31.960618 18.710777 -9.683172 38.279735 -0.529639 1.826533 -0.000903 -0.005490 274586.000000 0 0 1
-31.610678 18.330177 -11.016472 38.165338 -0.525489 1.863614 -0.002238 -0.004314 217747.000000 0 0 1
-32.662338 18.714977 -11.905272 39.481821 -0.520317 1.877102 -0.000782 -0.016950 320564.000000 0 0 1
-32.138698 18.885877 -13.347672 39.594603 -0.531279 1.914640 -0.002088 -0.000409 2743.250000 0 0 1
-31.702718 20.197077 -13.642872 39.988901 -0.567237 1.918954 -0.011278 -0.001117 24581.300000 0 0 1
-31.356398 20.276677 -15.016872 40.247656 -0.574018 1.953157 -0.021338 0.002273 -357037.000000 0 0 1
-30.597028 21.587777 -15.432572 40.501537 -0.614442 1.961714 -0.010351 0.002507 -1260680.000000 0 0 1
-29.319148 21.413077 -14.952372 39.264561 -0.630802 1.961469 -0.013879 0.004033 -839779.000000 0 0 1
-28.425868 22.515577 -14.959372 39.227083 -0.669893 1.962056 -0.015999 0.000599 461249.000000 0 0 1
-27.890228 23.004677 -16.332672 39.671604 -0.689698 1.995112 -0.018201 0.005371 -201493.000000 0 0 1
-28.852998 23.856077 -16.978872 41.108272 -0.690879 1.996573 -0.012677 0.010378 576347.000000 0 0 1
-28.311938 24.574077 -18.071872 41.617829 -0.714838 2.019984 -0.013175 0.006002 -19771.300000 0 0 1
-27.365718 25.773177 -17.740072 41.567407 -0.755438 2.011724 -0.002555 0.007853 628839.000000 0 0 1
-28.128158 26.913877 -17.340772 42.617513 -0.763341 1.989847 0.005822 0.004338 291899.000000 0 0 1
-27.306348 28.047177 -17.198172 42.755794 -0.798781 1.984761 0.003136 0.000653 -191114.000000 0 0 1
-28.096928 29.300277 -16.887772 43.967493 -0.806360 1.965026 0.000895 0.002363 -484223.000000 0 0 1
-28.375708 29.645377 -15.527772 43.876428 -0.807278 1.932532 -0.001323 0.001905 -169516.000000 0 0 1
-27.346468 29.724777 -14.580772 42.941712 -0.827047 1.917233 -0.004167 0.006775 -707192.000000 0 0 1
-27.781968 30.590277 -13.385472 43.437008 -0.833471 1.884053 -0.001290 -0.000585 -340685.000000 0 0 1
-27.340168 31.923877 -13.432972 44.125542 -0.862588 1.880132 0.017649 -0.008119 3973.360000 0 0 1
-27.837678 32.755577 -12.424072 44.746192 -0.866383 1.852150 0.009495 -0.013591 25500.000000 0 0 1
-27.179908 34.162177 -12.509672 45.412483 -0.898735 1.849873 -0.004070 -0.014583 112125.000000 0 0 1
-27.702888 -34.072832 -13.574072 45.963718 0.888149 1.870588 -0.008726 -0.024098 70858.000000 0 0 1
-26.873298 -32.942132 -13.839672 44.709001 0.886512 1.885516 0.006123 -0.023005 183464.000000 0 0 1
-27.208088 -32.153032 -15.141772 44.759030 0.868509 1.915901 0.004162 -0.019027 -126752.000000 0 0 1
-26.527448 -32.712532 -16.223572 45.133353 0.889429 1.938484 -0.000767 -0.016122 -112286.000000 0 0 1
-26.829298 -31.958332 -17.357672 45.193307 0.872425 1.965003 0.010053 -0.008235 -130586.000000 0 0 1
-26.071208 -32.482332 -18.587672 45.610430 0.894455 1.990545 0.005120 -0.004218 -303732.000000 0 0 1
-26.298118 -33.796832 -19.173872 46.919657 0.909538 1.991774 0.003107 0.005123 -312388.000000 0 0 1
-25.782628 34.066177 -18.471972 46.545269 -0.922932 1.978890 -0.008366 0.003638 -993018.000000 0 0 1
-25.825598 32.671977 -19.142172 45.834947 -0.901905 2.001635 -0.004052 -0.002789 346238.000000 0 0 1
-27.119798 32.109577 -19.359672 46.274240 -0.869445 2.002444 0.001368 0.007180 12208.300000 0 0 1
-27.804658 32.726077 -20.396872 47.540799 -0.866524 2.014225 -0.000663 0.007158 -1215520.000000 0 0 1
-29.256168 32.252177 -20.429972 48.098961 -0.834069 2.009481 0.002220 0.009130 -549835.000000 0 0 1
-29.425488 30.849277 -20.572772 47.336838 -0.809015 2.020395 -0.004064 0.005342 367186.000000 0 0 1
-30.810908 30.594277 -20.754072 48.125392 -0.781870 2.016674 0.003424 0.003050 151784.000000 0 0 1
-30.978038 29.144677 -21.071372 47.466344 -0.754914 2.030768 0.000048 0.000663 -621590.000000 0 0 1
-32.309838 28.820077 -21.375172 48.284785 -0.728372 2.029392 0.007937 -0.004135 -74886.400000 0 0 1
-32.363718 27.469777 -21.874672 47.754583 -0.703787 2.046613 0.007570 -0.000238 -435253.000000 0 0 1
-33.765738 26.908977 -22.163672 48.532942 -0.672867 2.045048 0.033462 0.001051 -267642.000000 0 0 1
-34.455046 27.670777 -23.093372 49.861066 -0.676627 2.052347 0.017561 -0.003212 -38783.600000 0 0 1
35.500636 27.003777 -23.572572 50.449632 0.650286 2.056974 0.031408 -0.003934 378088.000000 0 0 1
34.638409 27.799877 -24.549772 50.747846 0.676308 2.075742 0.043902 -0.006404 -178940.000000 0 0 1
35.243867 28.056577 -25.776532 51.901169 0.672340 2.090527 0.036649 -0.002963 -577579.000000 0 0 1
34.284299 28.338577 -26.758672 51.908715 0.690737 2.112381 0.057635 -0.008537 -120830.000000 0 0 1
34.836939 28.494077 -28.186132 53.103511 0.685577 2.130314 0.036694 -0.008295 59976.100000 0 0 1
35.276183 27.337277 -28.827412 53.129611 0.659279 2.144310 0.017713 0.001412 -598439.000000 0 0 1
-35.083425 27.689277 -29.914052 53.780975 -0.668146 2.160627 -0.006094 0.003108 -1279300.000000 0 0 1
-34.674486 26.431677 -30.608812 53.271502 -0.651314 2.182889 -0.023249 0.000054 -395734.000000 0 0 1
-33.768378 25.588477 -29.977912 51.901337 -0.648452 2.186575 -0.021517 0.000959 -425914.000000 0 0 1
-32.442448 26.059977 -30.098702 51.357246 -0.676730 2.196991 -0.033039 0.011543 -498356.000000 0 0 1
-31.395358 25.233577 -29.322162 49.821593 -0.677015 2.200052 -0.025398 0.006499 -147623.000000 0 0 1
-31.298638 23.863277 -29.738532 49.329920 -0.651414 2.217864 -0.015610 -0.000364 -79822.300000 0 0 1
-31.909038 22.890877 -28.944072 48.784611 -0.622295 2.205953 -0.026094 0.005399 -240542.000000 0 0 1
-31.672998 21.435077 -29.437722 48.262002 -0.594959 2.226802 -0.028164 -0.000623 -765523.000000 0 0 1
-30.342758 21.020877 -29.479672 47.239933 -0.605864 2.244700 0.028524 -0.008014 -300477.000000 0 0 1
-30.369768 19.689177 -29.937912 46.970896 -0.575190 2.261879 0.015428 -0.012606 -287596.000000 0 0 1
-29.006348 19.062177 -30.241482 46.035661 -0.581401 2.287515 0.042254 -0.023772 -996566.000000 0 0 1
-28.273188 19.758977 -31.207452 46.515539 -0.609960 2.306223 0.052435 -0.021058 -49963.900000 0 0 1
-26.913028 19.388877 -31.238092 45.563780 -0.624304 2.326211 0.056364 -0.023530 -53048.500000 0 0 1
-26.575618 18.045577 -31.994022 45.337885 -0.596511 2.354178 0.045744 -0.016399 -521470.000000 0 0 1
-27.031938 16.916177 -31.255482 44.651852 -0.559164 2.346168 0.022828 -0.011655 90637.600000 0 0 1
-27.104848 15.775277 -32.057582 44.846636 -0.527086 2.367173 -0.002417 0.002033 58661.100000 0 0 1
-27.562378 14.437377 -31.312692 44.143032 -0.482512 2.359367 0.000088 -0.001595 -439534.000000 0 0 1
-28.819748 14.438777 -30.721602 44.529462 -0.464450 2.332170 0.005606 -0.003850 -189356.000000 0 0 1
-29.501788 13.185677 -30.599402 44.503269 -0.420311 2.328942 -0.000251 -0.000152 188726.000000 0 0 1
-29.251138 12.338477 -29.307732 43.206600 -0.399167 2.316265 -0.002167 -0.015090 -536488.000000 0 0 1
-29.731828 12.997577 -28.227782 43.008444 -0.412125 2.286742 -0.005865 -0.010887 107700.000000 0 0 1
-29.744358 12.092577 -27.130252 42.035792 -0.386140 2.272354 -0.001815 -0.002431 -91170.300000 0 0 1
-29.503658 12.729277 -25.788852 41.201520 -0.407319 2.247107 -0.006156 -0.012711 347029.000000 0 0 1
-28.140748 13.144977 -25.734652 40.335647 -0.436996 2.262711 -0.000668 -0.016780 304925.000000 0 0 1
-27.887958 13.618077 -24.456772 39.513592 -0.454255 2.238196 0.005171 -0.013168 355521.000000 0 0 1
-26.378178 13.922077 -24.238672 38.433654 -0.485630 2.253203 0.027177 -0.011458 151406.000000 0 0 1
-25.759168 15.067777 -24.859972 38.840583 -0.529278 2.265362 0.034830 -0.010276 370756.000000 0 0 1
-24.370658 15.141477 -24.601972 37.794845 -0.555934 2.279611 0.042868 -0.014650 69684.200000 0 0 1
-23.998658 15.694377 -23.179972 36.872214 -0.579160 2.250621 0.042385 -0.011293 -727236.000000 0 0 1
-24.216358 17.094577 -22.981072 37.507149 -0.614682 2.230284 0.053236 -0.011951 229914.000000 0 0 1
-24.602858 17.277977 -21.628872 37.035621 -0.612251 2.194446 0.051443 -0.006181 688117.000000 0 0 1
-26.100618 17.370077 -21.177372 37.834415 -0.587198 2.164866 0.049996 -0.009608 432504.000000 0 0 1
-26.809538 16.153377 -21.141872 37.771175 -0.542273 2.164863 0.048908 -0.008106 -100047.000000 0 0 1
-28.107808 16.427577 -20.669972 38.563738 -0.528906 2.136482 0.046363 -0.003050 -937623.000000 0 0 1
-29.033558 15.211577 -20.749972 38.793052 -0.482609 2.135173 0.013291 -0.006444 218530.000000 0 0 1
-29.786758 14.955477 -21.964672 39.916965 -0.465314 2.153471 0.006886 -0.007204 1155820.000000 0 0 1
-30.762228 15.957477 -22.304472 41.212198 -0.478524 2.142672 -0.004880 0.000525 -94138.000000 0 0 1
-31.310608 15.934177 -23.783672 42.425408 -0.470748 2.165906 -0.015794 -0.004736 -17913.600000 0 0 1
-32.229118 14.864077 -24.014072 42.852450 -0.432129 2.165653 -0.004707 -0.005983 623201.000000 0 0 1
-32.759438 14.971877 -25.348902 44.044350 -0.428680 2.184050 -0.008218 -0.005295 337170.000000 0 0 1
-33.905428 14.070377 -25.890462 44.920703 -0.393361 2.185063 -0.009663 -0.008769 -56002.500000 0 0 1
-33.529458 12.715177 -26.119512 44.363602 -0.362469 2.200320 -0.011174 -0.007321 343759.000000 0 0 1
-33.481208 11.892977 -24.948672 43.415095 -0.341312 2.182978 -0.012073 -0.015328 -308374.000000 0 0 1
-33.596468 10.418477 -25.304172 43.330918 -0.300703 2.194413 -0.015518 -0.012959 -1017590.000000 0 0 1
-34.886084 10.069677 -25.637812 44.449237 -0.281007 2.185588 -0.015130 -0.004929 -889957.000000 0 0 1
-34.914703 9.030877 -26.607532 44.816894 -0.253108 2.206438 -0.012556 0.004173 -720147.000000 0 0 1
34.879259 8.374477 -26.915352 44.845633 0.235639 2.214520 -0.010393 0.002948 -680900.000000 0 0 1
34.400199 7.681177 -25.792962 43.676665 0.219685 2.202528 -0.013828 0.009078 699329.000000 0 0 1
33.151959 7.005077 -26.067662 42.750983 0.208239 2.226549 0.005044 0.006978 971322.000000 0 0 1
32.518029 6.167677 -24.889872 41.412175 0.187443 2.215583 0.000491 0.003322 590286.000000 0 0 1
33.418199 5.105377 -24.505472 41.753552 0.151600 2.198030 -0.004194 -0.001603 867546.000000 0 0 1
32.780549 4.295577 -23.518772 40.572762 0.130298 2.189119 -0.006985 -0.004334 -80013.800000 0 0 1
33.753969 3.341977 -22.854172 40.900030 0.098688 2.163712 -0.018671 -0.004879 -244561.000000 0 0 1
34.001349 2.203577 -23.648872 41.475495 0.064718 2.177532 -0.015766 -0.006939 606119.000000 0 0 1
35.208652 1.512277 -23.324372 42.260650 0.042925 2.155458 0.002207 -0.000926 317732.000000 0 0 1
-35.507757 0.328777 -24.211072 42.977726 -0.009259 2.169219 0.017468 -0.002483 109929.000000 0 0 1
34.846509 -0.829823 -24.007572 42.324122 -0.023809 2.173937 0.012602 -0.013276 187140.000000 0 0 1
-35.551114 -1.842323 -24.646972 43.298373 0.051775 2.176372 0.018079 -0.008058 357796.000000 0 0 1
-22.398958 29.831677 27.493311 46.341390 -0.926755 0.935672 0.022602 -0.007705 351010.000000 0 0 1
-23.695058 29.964377 26.832751 46.683147 -0.901706 0.958456 0.005850 -0.005871 1687380.000000 0 0 1
-23.828958 29.199677 25.608021 45.565460 -0.886334 0.973988 0.004652 0.002957 -360415.000000 0 0 1
-24.074858 27.712277 25.871461 44.909927 -0.855521 0.956878 0.009195 -0.007868 -110425.000000 0 0 1
-25.405448 27.391877 26.256901 45.663734 -0.823004 0.958185 0.003107 -0.005750 378244.000000 0 0 1
-25.656278 27.405077 27.689941 46.647783 -0.818344 0.935276 0.012172 -0.010672 -1109110.000000 0 0 1
-25.141138 26.143077 28.305551 46.008059 -0.804933 0.908118 0.013167 -0.008861 411592.000000 0 0 1
-23.742358 26.043577 28.567741 45.366103 -0.831588 0.889609 0.020342 -0.002882 367357.000000 0 0 1
-23.340158 26.707177 29.728591 46.279860 -0.852574 0.873215 0.014862 -0.010766 137244.000000 0 0 1
-21.902758 26.459177 30.280391 45.789965 -0.879336 0.848261 0.025204 -0.004380 59902.600000 0 0 1
-20.871258 27.086877 29.540811 45.188138 -0.914285 0.858294 0.028575 -0.007436 442190.000000 0 0 1
-19.562258 26.873177 30.059441 44.815394 -0.941559 0.835591 0.029761 -0.014543 543704.000000 0 0 1
-18.908958 25.516777 29.800581 43.551455 -0.933054 0.817206 0.042470 -0.009468 -770941.000000 0 0 1
-18.666558 25.238677 28.465761 42.376064 -0.933984 0.834239 0.040351 -0.007206 -75932.600000 0 0 1
-19.649858 24.428177 27.845271 41.931037 -0.893382 0.844543 0.049460 -0.009141 -8449.080000 0 0 1
-19.541658 22.879477 28.078261 41.155019 -0.863919 0.819952 0.053181 -0.001725 102909.000000 0 0 1
-20.161958 22.414277 29.263921 42.015252 -0.838250 0.800278 0.038158 -0.006223 89879.200000 0 0 1
-20.042658 21.009177 29.369901 41.299936 -0.808938 0.779683 0.032276 -0.002020 162917.000000 0 0 1
-20.596158 20.566277 30.770791 42.355815 -0.784672 0.757606 0.035176 -0.002492 48520.000000 0 0 1
-19.665758 20.733777 31.821641 42.769713 -0.811828 0.731725 0.037051 -0.019761 157073.000000 0 0 1
-20.174858 20.395077 33.069465 43.778689 -0.790826 0.714565 0.037166 -0.014199 7219.780000 0 0 1
-19.139458 20.884677 34.136437 44.359722 -0.828975 0.692681 0.046836 -0.018801 -45465.600000 0 0 1
-19.087958 22.233277 34.362154 45.160009 -0.861370 0.706101 0.033375 -0.019969 -150736.000000 0 0 1
-18.238158 22.997077 33.571807 44.593298 -0.900299 0.718424 0.037235 -0.014093 596793.000000 0 0 1
-16.700658 22.984477 33.924724 44.250255 -0.942436 0.697180 0.026012 -0.012315 592490.000000 0 0 1
-16.101858 21.734177 33.745619 43.248250 -0.933174 0.675688 0.042100 -0.024094 -378057.000000 0 0 1
-14.702158 21.910077 33.871265 42.935621 -0.979784 0.661804 0.037763 -0.026680 -474044.000000 0 0 1
-13.929758 20.620077 33.616794 41.824808 -0.976673 0.637221 0.044463 -0.037563 827953.000000 0 0 1
-12.514758 20.615277 33.930696 41.628127 -1.025200 0.617911 0.030975 -0.030297 1299730.000000 0 0 1
-12.239058 20.464177 -33.420312 41.054773 -1.031795 2.521874 0.037181 -0.028050 -1116160.000000 0 0 1
-10.762958 20.328577 -33.084542 40.294904 -1.083868 2.534062 0.021571 -0.021588 -950203.000000 0 0 1
-10.072258 21.490477 -33.243342 40.846185 -1.132513 2.521572 0.013395 -0.020466 202063.000000 0 0 1
-8.767258 21.306377 -32.663952 39.971994 -1.180428 2.527282 0.014419 -0.018931 737915.000000 0 0 1
-7.881558 22.598477 -32.577002 40.423647 -1.235222 2.507973 0.011322 -0.016308 34508.800000 0 0 1
-8.141158 23.575377 -31.600182 40.257277 -1.238293 2.473421 0.012661 -0.012047 133633.000000 0 0 1
-7.579258 23.257677 -30.321342 38.958292 -1.255767 2.462754 0.017978 -0.011718 51040.200000 0 0 1
-7.443258 24.504877 -29.491402 39.059364 -1.275906 2.426512 0.015261 -0.013582 -266462.000000 0 0 1
-6.458158 25.352977 -29.987382 39.796034 -1.321371 2.424207 0.014534 -0.012745 -354894.000000 0 0 1
-6.275058 26.387477 -29.054822 39.747428 -1.337328 2.390562 0.021891 -0.011652 -763579.000000 0 0 1
-5.065758 27.197477 -29.458722 40.412634 -1.386648 2.387581 0.041899 -0.023055 -817903.000000 0 0 1
-3.874558 26.420277 -29.364572 39.690318 -1.425183 2.403632 0.046611 -0.023020 569108.000000 0 0 1
-2.731658 26.969477 -30.015232 40.444145 -1.469854 2.407054 0.044174 -0.022426 546114.000000 0 0 1
-2.089958 28.275777 -29.441292 40.873918 -1.497017 2.375024 0.055469 -0.025073 -1053510.000000 0 0 1
-1.320458 28.019777 -28.337472 39.873097 -1.523705 2.361277 0.062535 -0.033404 -505298.000000 0 0 1
-0.520058 29.089477 -28.030732 40.400373 -1.552920 2.337581 0.067487 -0.029708 -774536.000000 0 0 1
0.046742 29.151577 -26.569822 39.443277 1.569193 2.309894 0.065184 -0.030498 1005120.000000 0 0 1
1.159842 28.338777 -26.147522 38.576216 1.529891 2.315582 0.070534 -0.031863 1428370.000000 0 0 1
2.431642 28.553977 -26.794802 39.232690 1.485842 2.322619 0.062195 -0.031113 270914.000000 0 0 1
3.589842 28.520977 -25.812792 38.634614 1.445588 2.302484 0.052844 -0.026139 -435338.000000 0 0 1
3.859542 27.276177 -25.156032 37.305655 1.430231 2.310843 0.058283 -0.022772 -183296.000000 0 0 1
4.956542 27.388677 -24.285372 36.938953 1.391764 2.288221 0.038941 -0.011596 -95143.700000 0 0 1
5.734742 26.119977 -23.928872 35.884975 1.354672 2.300732 0.042007 -0.016169 242665.000000 0 0 1
6.844242 26.372477 -23.090972 35.714762 1.316876 2.273835 0.033760 -0.017119 -52731.300000 0 0 1
7.670942 25.238977 -22.741772 34.828688 1.275736 2.282284 0.035864 -0.012166 1056520.000000 0 0 1
9.052642 25.772277 -22.251072 35.231674 1.233004 2.254366 0.024551 -0.008660 -53855.400000 0 0 1
9.021442 26.110877 -20.859572 34.616269 1.238131 2.217544 0.041674 -0.008094 1308430.000000 0 0 1
10.307942 26.481177 -20.259972 34.899469 1.199587 2.190168 0.057893 -0.014848 1812980.000000 0 0 1
11.341542 25.360377 -19.907772 34.177459 1.150261 2.192576 0.032867 -0.000606 305284.000000 0 0 1
11.749742 24.682977 -21.055572 34.505694 1.126511 2.227117 0.031374 -0.005980 -260439.000000 0 0 1
11.832542 23.315977 -20.707772 33.353496 1.101178 2.240633 0.012837 0.005641 -423640.000000 0 0 1
11.977442 22.380277 -21.913972 33.534432 1.079404 2.282965 0.005320 -0.002558 -166795.000000 0 0 1
10.938442 22.480677 -22.863772 33.878938 1.117950 2.311581 0.012781 -0.013985 27878.900000 0 0 1
11.115242 21.508777 -23.911072 34.028157 1.093817 2.349960 0.004413 -0.018267 -12027.400000 0 0 1
10.249542 21.637777 -25.182432 34.747682 1.128420 2.381428 0.012082 -0.016737 -447631.000000 0 0 1
8.889542 21.424977 -24.952572 34.068820 1.177499 2.392661 0.010508 -0.017094 -642041.000000 0 0 1
8.262042 21.203477 -26.231382 34.726563 1.199240 2.427014 0.008417 -0.014563 -886198.000000 0 0 1
6.878342 20.595777 -26.139662 33.982048 1.248474 2.448415 0.008945 -0.020643 -15863.300000 0 0 1
5.738142 21.297677 -25.626162 33.811500 1.307620 2.430904 0.027414 -0.018231 556226.000000 0 0 1
5.923142 21.935377 -24.336672 33.294414 1.307059 2.390515 0.036696 -0.019448 -891270.000000 0 0 1
4.571842 22.270577 -23.664172 32.815749 1.368323 2.376217 0.050606 -0.020874 242452.000000 0 0 1
3.989842 23.458277 -24.231972 33.961715 1.402326 2.365289 0.045682 -0.020773 -192777.000000 0 0 1
2.616642 23.502577 -23.908572 33.627932 1.459919 2.361678 0.054834 -0.018357 145320.000000 0 0 1
1.904942 24.702877 -24.644372 34.945759 1.493834 2.353527 0.043325 -0.003431 -826744.000000 0 0 1
0.603242 24.447377 -25.012072 34.980593 1.546126 2.367459 0.057673 -0.026046 -1074120.000000 0 0 1
0.237542 25.181777 -26.135442 36.293797 1.561364 2.374754 0.055543 -0.028504 734312.000000 0 0 1
-1.256358 24.967377 -26.569042 36.480986 -1.520519 2.386632 0.069282 -0.030811 615359.000000 0 0 1
-1.524458 23.753777 -27.101242 36.069977 -1.506707 2.420905 0.083185 -0.035368 -1531250.000000 0 0 1
-2.659958 23.765777 -27.839852 36.700748 -1.459336 2.431902 0.080789 -0.030633 -1319630.000000 0 0 1
-3.075758 22.344577 -28.048332 35.992351 -1.434005 2.464322 0.067937 -0.029806 -930771.000000 0 0 1
-2.313158 21.636077 -28.981042 36.240466 -1.464289 2.497571 0.073108 -0.028371 -277160.000000 0 0 1
-2.846958 20.354177 -29.277132 35.770773 -1.431827 2.529531 0.057727 -0.021103 -507800.000000 0 0 1
-4.094058 20.294277 -30.155262 36.578120 -1.371733 2.539950 0.040602 -0.017074 -696651.000000 0 0 1
-3.945658 20.674677 -31.492932 37.878956 -1.382219 2.552436 0.041990 -0.017855 -98672.300000 0 0 1
-3.904058 22.087577 -31.684802 38.820477 -1.395850 2.525578 0.060633 -0.020615 -250223.000000 0 0 1
-3.497858 22.373577 -33.144212 40.141634 -1.415713 2.542206 0.045167 -0.013332 -660277.000000 0 0 1
-2.219058 21.913277 -33.398952 40.007574 -1.469875 2.558594 0.050519 -0.013239 -553300.000000 0 0 1
-1.788558 22.150777 34.031019 40.644386 -1.490226 0.578494 0.049129 -0.004556 585791.000000 0 0 1
-0.499658 21.336777 33.656863 39.853383 -1.547383 0.565134 0.045925 0.004083 512607.000000 0 0 1
-0.780758 20.027377 33.166813 38.752328 -1.531832 0.543573 0.036678 0.002078 -195702.000000 0 0 1
0.363442 19.405577 32.653481 37.986291 1.552070 0.536286 0.028965 -0.000372 -355593.000000 0 0 1
0.184342 17.941677 32.255071 36.909719 1.560522 0.507647 0.025396 0.009191 -226742.000000 0 0 1
-0.675958 17.792377 31.167411 35.894750 -1.532823 0.519032 0.006915 0.008698 -251253.000000 0 0 1
-1.073858 16.478777 30.949021 35.079127 -1.505722 0.490148 0.013776 0.007316 395112.000000 0 0 1
-2.188758 16.368177 29.832931 34.098558 -1.437865 0.505561 0.013929 0.007065 367059.000000 0 0 1
-3.431758 16.887277 30.261181 34.823787 -1.370311 0.517659 0.003879 -0.003947 -241932.000000 0 0 1
-3.821458 17.925077 29.404851 34.649058 -1.360750 0.557372 0.014964 0.001168 -913786.000000 0 0 1
-5.166958 18.578877 29.624601 35.348113 -1.299542 0.577039 0.015552 -0.005857 -1164870.000000 0 0 1
-6.126358 17.922277 28.919501 34.569898 -1.241419 0.579838 0.017986 -0.008422 -973494.000000 0 0 1
-7.437858 18.426377 29.098671 35.236143 -1.187145 0.599144 0.025432 -0.016360 -23617.700000 0 0 1
-8.448958 17.794077 28.114981 34.328796 -1.127496 0.611146 0.030206 -0.017118 152507.000000 0 0 1
-9.015758 16.507577 28.225261 33.918275 -1.070907 0.587814 0.047129 -0.021305 644477.000000 0 0 1
-9.708458 16.277777 29.507201 35.069860 -1.033010 0.570958 0.048386 -0.023423 2767.440000 0 0 1
-10.349458 14.861177 29.671751 34.761741 -0.962484 0.547987 0.049775 -0.019867 1065920.000000 0 0 1
-9.318258 13.804377 29.660781 34.016947 -0.977032 0.511643 0.034203 -0.004317 1387960.000000 0 0 1
-8.376858 13.651577 30.714051 34.639432 -1.020423 0.480684 0.024670 -0.009771 -87904.300000 0 0 1
-8.940058 13.539377 32.142941 36.005666 -0.987214 0.467453 0.041001 -0.013464 -474891.000000 0 0 1
-9.524358 12.275477 32.425301 35.955540 -0.910934 0.446841 0.043541 0.007952 285995.000000 0 0 1
-9.605358 12.046377 33.840399 37.182667 -0.897664 0.427242 0.026708 0.022950 -59752.600000 0 0 1
-10.294758 10.684177 34.161012 37.243904 -0.803958 0.409740 0.041435 0.009657 -308177.000000 0 0 1
-9.515158 9.534277 33.833438 36.416235 -0.786402 0.378890 0.035916 0.012086 337436.000000 0 0 1
-9.164758 8.739777 -33.781742 36.077453 -0.761667 2.782930 0.058325 0.003636 257026.000000 0 0 1
-8.180858 9.260877 -32.710572 34.966724 -0.847241 2.780403 0.059355 -0.001322 -16101.700000 0 0 1
-8.810558 10.291477 -31.926242 34.681773 -0.862770 2.740278 0.060394 -0.001002 401210.000000 0 0 1
-7.871658 10.988577 -31.128292 33.936447 -0.949182 2.731923 0.059271 -0.002552 138825.000000 0 0 1
-7.048058 12.054377 -31.904212 34.826167 -1.041711 2.729036 0.042581 -0.008918 76841.700000 0 0 1
-7.682958 13.328877 -32.200932 35.687349 -1.047900 2.695887 0.053905 -0.011156 498209.000000 0 0 1
-6.709358 14.285977 -32.658092 36.271967 -1.131725 2.691409 0.030559 -0.015376 358339.000000 0 0 1
-7.277758 15.667077 -32.959942 37.212644 -1.135929 2.658837 0.029847 -0.019088 -438228.000000 0 0 1
-8.095458 15.718977 -34.088719 38.401347 -1.095212 2.663113 0.033904 -0.023386 -340716.000000 0 0 1
-8.510358 17.037577 -34.251666 39.190329 -1.107545 2.634135 0.040919 -0.026562 -1262400.000000 0 0 1
-9.098458 17.267877 33.112204 38.436696 -1.085860 0.532632 0.049344 -0.031767 298023.000000 0 0 1
-10.328858 16.674177 32.768332 38.190013 -1.016196 0.539367 0.050364 -0.035192 746076.000000 0 0 1
-11.484758 16.956277 33.572846 39.326212 -0.975457 0.547744 0.061112 -0.040704 -126724.000000 0 0 1
-12.791558 16.425177 32.950538 38.976254 -0.909131 0.563482 0.059407 -0.033335 -127265.000000 0 0 1
-12.795258 15.004477 32.860101 38.322829 -0.864701 0.540493 0.055986 -0.028324 963493.000000 0 0 1
-14.138658 14.538177 33.059987 38.784314 -0.799329 0.550226 0.061154 -0.015688 694192.000000 0 0 1
-14.194558 13.028377 33.186031 38.373646 -0.742586 0.526018 0.049733 -0.000463 -111590.000000 0 0 1
-14.214758 12.236977 31.962561 37.059523 -0.710768 0.530675 0.029841 0.001122 306001.000000 0 0 1
-12.914458 11.865477 31.525461 36.075303 -0.743092 0.507671 0.025236 0.000859 196405.000000 0 0 1
-12.836358 11.618977 29.973201 34.614527 -0.735659 0.523822 0.024763 0.008593 230813.000000 0 0 1
-13.702358 10.503477 29.755031 34.401156 -0.654006 0.525760 0.012862 0.011199 389674.000000 0 0 1
-13.938058 10.166577 28.398691 33.228217 -0.630194 0.545909 0.002080 0.010615 -174164.000000 0 0 1
-14.717258 8.890077 28.071051 32.918309 -0.543398 0.549571 -0.000267 0.005775 -70789.800000 0 0 1
-14.172758 7.659477 28.545751 32.777958 -0.495471 0.513801 -0.016736 0.013806 -292970.000000 0 0 1
-14.909258 6.544677 28.136171 32.507890 -0.413641 0.524612 -0.011526 0.017051 -425702.000000 0 0 1
-14.192158 5.153477 28.258711 32.039513 -0.348316 0.490716 -0.010786 0.015772 127889.000000 0 0 1
-13.211858 4.823777 27.298511 30.708805 -0.350072 0.475755 -0.012148 0.005088 13460.400000 0 0 1
-13.729858 4.465577 26.042661 29.777014 -0.314454 0.506208 -0.012835 0.004923 -300834.000000 0 0 1
-12.639158 4.204077 24.982221 28.311375 -0.321111 0.489838 -0.006668 0.010037 -118464.000000 0 0 1
-12.080058 2.902577 25.113141 28.018255 -0.235808 0.459412 -0.009679 0.004515 -389029.000000 0 0 1
-11.254958 2.628477 24.051431 26.684345 -0.229427 0.447963 -0.009637 0.005206 -1040620.000000 0 0 1
-10.414958 1.391177 24.285371 26.461027 -0.132789 0.408346 -0.008526 0.007279 -1598110.000000 0 0 1
-9.077358 1.684777 24.203591 25.904646 -0.183514 0.364411 -0.009031 -0.007220 -1716230.000000 0 0 1
-8.321458 0.626177 24.641321 26.016023 -0.075107 0.326535 -0.005899 -0.004039 -138703.000000 0 0 1
-6.820458 1.003477 24.491271 25.443034 -0.146080 0.274384 0.006299 -0.006043 -139971.000000 0 0 1
-6.386558 1.184177 23.116611 24.011832 -0.183335 0.273922 0.005844 -0.004051 830503.000000 0 1 0
-4.990958 1.461977 22.917911 23.500589 -0.284954 0.223147 0.002790 -0.005880 873049.000000 0 1 0
-4.495758 2.869377 23.321211 23.923295 -0.568064 0.224827 0.006882 -0.010688 -592826.000000 0 1 0
-4.507058 3.085377 24.729371 25.325381 -0.600292 0.217380 0.009424 -0.011827 -92499.000000 0 0 1
-3.878358 4.279377 25.037381 25.694847 -0.834517 0.226704 0.005229 -0.019970 -274211.000000 0 0 1
3.998942 -23.407823 12.990728 27.068001 -1.401592 1.070222 0.029013 -0.005472 116534.000000 0 0 1
3.768042 -24.616223 13.677628 28.411865 -1.418904 1.068539 0.028401 -0.007620 -476294.000000 0 0 1
2.559142 -25.253703 13.335328 28.672804 -1.469804 1.087064 0.019598 -0.003554 -31777.600000 0 0 1
2.438642 -26.620453 14.018128 30.184489 -1.479443 1.087822 0.013671 -0.001488 -75042.000000 0 0 1
2.184142 -26.447833 15.391328 30.678189 -1.488400 1.045230 0.007161 -0.007561 49588.000000 0 0 1
2.313742 -27.664653 16.098728 32.091361 -1.487355 1.045288 -0.007673 -0.002803 -194735.000000 0 0 1
1.792142 -27.665163 17.574928 32.824550 -1.506107 1.005791 -0.021135 0.001176 -117253.000000 0 0 1
2.633042 -26.882723 18.366128 32.663869 -1.473162 0.973660 -0.003622 -0.011916 -25385.800000 0 0 1
2.712142 -27.352293 19.676628 33.803451 -1.471963 0.949500 -0.008486 -0.006727 -164875.000000 0 0 1
3.386642 -26.464093 20.704128 33.770971 -1.443517 0.910850 -0.000967 -0.000680 -72579.200000 0 0 1
2.612342 -25.351693 21.128328 33.104968 -1.468115 0.878609 -0.009252 -0.003238 -82109.700000 0 0 1
3.316242 -24.518723 21.986728 33.099568 -1.436359 0.844293 0.014650 -0.018623 -297339.000000 0 0 1
2.448942 -23.357423 22.375628 32.438175 -1.466332 0.809593 0.024641 -0.017639 10006.900000 0 0 1
1.864342 -22.462523 21.407328 31.085598 -1.487988 0.811161 0.016071 -0.017446 213146.000000 0 0 1
2.822842 -21.686223 20.723128 30.128205 -1.441357 0.812299 0.009114 -0.010755 158401.000000 0 0 1
2.123242 -20.501823 19.994728 28.716233 -1.467601 0.800585 -0.003528 -0.013274 311113.000000 0 0 1
2.166942 -19.313423 20.705928 28.397876 -1.459065 0.753737 0.001048 -0.017327 -371888.000000 0 0 1
1.403642 -18.347523 20.057228 27.219371 -1.494442 0.742363 -0.005261 -0.021721 -117593.000000 0 0 1
1.230842 -17.061623 20.822028 26.947556 -1.498780 0.687733 -0.003259 -0.015341 128886.000000 0 0 1
2.303042 -16.173723 20.589628 26.283571 -1.429353 0.670735 -0.015994 -0.006052 248838.000000 0 0 1
1.856542 -14.914223 20.991628 25.817227 -1.446952 0.621362 -0.006811 -0.004461 586871.000000 0 0 1
2.964042 -13.835723 20.741628 25.108323 -1.359755 0.598670 -0.029905 -0.000919 -296033.000000 0 0 1
3.165842 -13.323423 19.404928 23.750524 -1.337508 0.614552 -0.038639 -0.004491 -167406.000000 0 1 0
2.139942 -12.856223 18.517528 22.644219 -1.405857 0.613289 -0.025845 -0.007547 178007.000000 0 1 0
1.253042 -11.676723 19.054328 22.382658 -1.463894 0.552341 -0.012060 -0.009728 -127435.000000 0 1 0
1.867542 -10.398923 18.973928 21.717165 -1.393101 0.508073 -0.008913 -0.008068 -353124.000000 0 1 0
1.487442 -9.533323 19.967428 22.176449 -1.416019 0.450134 -0.001927 -0.016992 -159942.000000 0 1 0
0.040042 -9.001023 19.947428 21.884238 -1.566348 0.423886 0.003759 -0.020540 36700.000000 0 1 0
-0.269858 -8.052223 20.975328 22.469435 1.537295 0.366730 0.011664 -0.022654 -334026.000000 0 1 0
-1.616058 -7.643023 20.926528 22.337122 1.362423 0.357285 0.022520 -0.022849 -249465.000000 0 1 0
-2.126058 -7.037723 22.269728 23.451875 1.277419 0.318862 0.017879 -0.016066 -185229.000000 0 1 0
-2.159558 -7.934023 23.333228 24.739683 1.305045 0.338813 0.008867 -0.006723 146770.000000 0 1 0
-2.109558 -7.403723 24.643328 25.817803 1.293220 0.302787 0.013274 0.001926 -168192.000000 0 0 1
-2.228658 -8.422823 25.815528 27.246143 1.312127 0.325494 0.010140 0.005588 -129120.000000 0 0 1
-1.038658 -9.136823 26.030128 27.606664 1.457604 0.339585 0.014268 0.008268 -172542.000000 0 0 1
-1.205958 -10.173823 27.004328 28.882429 1.452811 0.362610 0.013012 0.005679 -702225.000000 0 0 1
0.002842 -11.020523 27.361328 29.497359 -1.570538 0.382898 0.014122 0.009544 -611044.000000 0 0 1
0.996042 -10.325523 28.067728 29.923333 -1.474630 0.354016 0.015371 0.011745 -284235.000000 0 0 1
2.065042 -11.193223 28.381228 30.578534 -1.388357 0.381406 0.012007 0.010641 4965.350000 0 0 1
2.852142 -10.560423 29.581428 31.539152 -1.307011 0.354192 0.018291 0.009485 167863.000000 0 0 1
2.221142 -10.801723 30.851428 32.763109 -1.367995 0.343293 0.013077 0.011551 94018.400000 0 0 1
2.852742 -10.073723 31.903328 33.577379 -1.294835 0.317101 0.028442 0.009357 -198975.000000 0 0 1
2.204442 -10.027123 33.292428 34.839468 -1.354391 0.299123 0.025565 0.008414 -598005.000000 0 0 1
2.480142 -11.201923 34.026528 35.908756 -1.352908 0.325212 0.020939 0.002695 253536.000000 0 0 1
2.153442 -11.182023 -33.366755 35.256422 -1.380545 2.812705 0.022679 -0.000508 -256064.000000 0 0 1
3.148442 -10.349123 -32.536155 34.287292 -1.275470 2.820615 0.020407 0.001277 -129476.000000 0 0 1
2.846542 -8.935323 -32.585055 33.907648 -1.262389 2.861371 0.025667 -0.003613 -1611.770000 0 0 1
3.437842 -8.212023 -31.569655 32.800902 -1.174329 2.866732 0.024843 -0.003107 -315692.000000 0 0 1
2.914042 -6.748323 -31.401855 32.250706 -1.163166 2.911651 0.011063 -0.011952 -20580.400000 0 0 1
3.348242 -5.951023 -32.449055 33.159713 -1.058306 2.934188 0.019640 -0.005283 68975.800000 0 0 1
3.419842 -4.566623 -32.055755 32.559496 -0.928014 2.965459 0.015748 -0.005964 -137331.000000 0 0 1
3.456642 -3.597323 -33.265655 33.637671 -0.805339 2.992731 0.018545 -0.004145 -117575.000000 0 0 1
2.266042 -2.932723 -33.656555 33.859999 -0.912940 3.031917 0.020930 0.000600 -274482.000000 0 0 1
2.430242 -2.128223 33.942128 34.095505 -0.719240 0.094888 0.032605 -0.004367 51667.900000 0 0 1
1.809442 -2.718423 32.616928 32.779992 -0.983517 0.099786 0.035216 -0.008124 453648.000000 0 0 1
0.401642 -2.787423 32.484928 32.606772 -1.427690 0.086477 0.032790 -0.012033 -103293.000000 0 0 1
0.180442 -3.364523 31.248428 31.429553 -1.517217 0.107410 0.039652 0.000277 130790.000000 0 0 1
-1.299358 -3.678123 30.959328 31.204117 1.231214 0.125340 0.038018 -0.009390 298526.000000 0 0 1
-2.173958 -2.566023 30.856928 31.039661 0.867925 0.108562 0.032854 -0.014183 639046.000000 0 0 1
-3.558558 -2.889123 30.722628 31.062682 0.681943 0.148104 0.017924 -0.013376 894230.000000 0 0 1
-4.380458 -1.693323 30.137528 30.501251 0.368869 0.154588 0.020368 -0.010966 -228350.000000 0 0 1
-4.193058 -1.511923 28.710428 29.054368 0.346067 0.154021 0.022208 -0.006981 95067.100000 0 0 1
-5.265658 -0.817323 28.095528 28.596396 0.153989 0.187438 0.009475 -0.011809 2310.780000 0 0 1
-5.541158 0.655877 28.522528 29.063193 -0.117817 0.193189 0.014521 -0.007250 -120867.000000 0 0 1
-6.561158 0.748177 29.493328 30.223583 -0.113541 0.220271 0.015696 -0.004941 -97495.800000 0 0 1
-6.832358 2.103677 29.915628 30.757948 -0.298688 0.234569 0.016606 -0.007933 171187.000000 0 0 1
-8.301158 2.413277 30.336328 31.544031 -0.282918 0.277608 0.018870 -0.002586 399913.000000 0 0 1
-9.164858 2.274277 29.211128 30.699462 -0.243239 0.312658 0.002211 0.000458 -399743.000000 0 0 1
-10.473458 2.640377 29.508128 31.422834 -0.246956 0.350892 -0.007733 0.009913 -616082.000000 0 0 1
-11.563758 2.072377 28.573128 30.893994 -0.177331 0.390086 -0.005492 0.012470 -148621.000000 0 0 1
-11.811858 0.763377 28.916028 31.244830 -0.064538 0.388532 -0.005519 0.009239 187229.000000 0 0 1
-12.321258 -0.071423 27.854928 30.458422 0.005797 0.416469 -0.007121 0.006604 -1023960.000000 0 0 1
-12.141158 -1.611723 28.143928 30.693420 0.131977 0.410461 -0.005772 0.009509 -547308.000000 0 0 1
-10.858058 -2.126223 28.330028 30.413956 0.193373 0.372333 -0.003088 0.000138 153098.000000 0 0 1
-9.863558 -1.872123 27.332828 29.118346 0.187571 0.352013 -0.006222 0.000011 -313273.000000 0 0 1
-10.046458 -2.727223 26.013328 28.018963 0.265073 0.380663 -0.003877 0.000942 -543194.000000 0 0 1
-10.939258 -2.224923 25.042228 27.417710 0.200652 0.419336 -0.001924 0.002980 298510.000000 0 0 1
-10.861158 -2.996423 23.823628 26.353530 0.269188 0.441758 0.003303 0.002910 -19279.300000 0 0 1
-9.710058 -2.666323 22.824828 24.947290 0.267989 0.415481 0.006701 0.006199 -153739.000000 0 1 0
-8.402858 -2.894723 23.241828 24.883127 0.331760 0.365235 0.009943 0.000185 -485039.000000 0 1 0
-7.521758 -2.497623 22.169428 23.543545 0.320598 0.343341 0.001439 -0.004315 -50538.000000 0 1 0
-6.067758 -2.410123 22.677828 23.598946 0.378092 0.280317 0.011566 -0.005519 -4021.980000 0 1 0
-5.322358 -3.621123 22.696828 23.592075 0.597423 0.276367 0.011169 -0.004871 104501.000000 0 1 0
-5.756558 -4.554023 23.662428 24.774737 0.669292 0.300789 0.009932 -0.005833 -496957.000000 0 1 0
-5.542858 -6.044023 23.313128 24.713466 0.828624 0.338249 0.009776 -0.005184 -133964.000000 0 1 0
-6.400558 -6.563523 22.284928 24.096991 0.797968 0.390283 0.012303 -0.010482 214912.000000 0 1 0
-5.949758 -6.273723 20.983928 22.695472 0.811895 0.390847 0.016961 -0.011451 -411137.000000 0 1 0
-7.076258 -6.342123 19.946328 22.094161 0.730741 0.444589 0.018647 -0.009755 137955.000000 0 1 0
-8.084358 -5.358423 20.192528 22.401065 0.585330 0.447783 0.017113 -0.009335 101249.000000 0 1 0
-8.917158 -5.231623 19.045128 21.670313 0.530577 0.497333 0.016021 -0.006629 514056.000000 0 1 0
-9.688958 -3.862923 19.101928 21.764230 0.379379 0.499806 0.011736 -0.007897 204837.000000 0 1 0
-8.873358 -2.774923 18.742728 20.921915 0.303090 0.460474 0.012669 -0.009769 -388422.000000 0 1 0
-9.492858 -1.512823 18.811628 21.125348 0.158035 0.472405 0.002961 -0.008912 -80386.700000 0 1 0
-8.513658 -0.328623 18.475528 20.345405 0.038580 0.432088 -0.001111 0.001410 45838.700000 0 1 0
-7.535458 -0.100923 19.440228 20.849839 0.013392 0.369820 0.006063 0.009764 -169094.000000 0 1 0
-7.963858 0.722977 20.473428 21.979695 -0.090534 0.372363 0.018793 0.009981 -271461.000000 0 1 0
-7.719958 2.233377 20.216728 21.755501 -0.281611 0.378365 0.001818 0.001743 -317406.000000 0 1 0
-8.594558 2.787077 19.291128 21.302156 -0.313584 0.438016 -0.009952 -0.002639 -272001.000000 0 1 0
-8.307958 4.164777 19.092928 21.234581 -0.464687 0.452989 -0.014921 0.001855 -380412.000000 0 1 0
-9.083058 4.686577 17.918928 20.628958 -0.476341 0.518366 -0.009019 0.004224 -835074.000000 0 1 0
-10.463858 4.523477 18.163428 21.444446 -0.408034 0.560482 -0.011368 0.007354 -34538.800000 0 1 0
-11.281558 4.996477 17.101528 21.087925 -0.416925 0.625000 0.002760 0.017488 -106166.000000 0 1 0
-11.437758 6.555377 16.920528 21.449931 -0.520431 0.661880 -0.001961 0.016357 -487527.000000 0 1 0
-10.229858 7.279177 16.692728 20.887402 -0.618444 0.644872 -0.001327 0.009055 276357.000000 0 1 0
-10.427658 8.644977 16.544428 21.381997 -0.692201 0.686049 -0.003459 0.003769 259194.000000 0 1 0
-9.158058 9.544077 16.693228 21.298434 -0.806036 0.670072 -0.005678 0.006085 341625.000000 0 1 0
-8.808858 9.867977 18.035828 22.366583 -0.842045 0.632801 0.008502 0.019491 254435.000000 0 1 0
-8.008458 11.064977 18.153228 22.718028 -0.944297 0.645054 0.022750 0.009166 378286.000000 0 1 0
-8.720258 12.359477 17.661328 23.253432 -0.956354 0.708229 0.027692 0.011571 108969.000000 0 1 0
-8.649958 12.515977 16.263328 22.270323 -0.966060 0.752081 0.021556 -0.006789 -469410.000000 0 1 0
-9.339458 13.658777 15.987928 23.008727 -0.971046 0.802566 0.024946 -0.013189 -563147.000000 0 1 0
-9.084458 14.178177 14.599228 22.286443 -1.000962 0.856518 0.015687 -0.012353 335193.000000 0 1 0
-7.836558 14.840277 14.476828 22.163574 -1.084953 0.859018 0.014720 -0.006830 24902.500000 0 1 0
-7.508158 15.366977 13.220028 21.616789 -1.116318 0.912762 0.001351 -0.015468 253232.000000 0 1 0
-6.398658 16.464777 13.145228 22.018827 -1.200133 0.931041 -0.016619 -0.008391 1260240.000000 0 1 0
-5.088458 15.989677 13.523428 21.550993 -1.262696 0.892447 -0.012763 -0.015144 275553.000000 0 1 0
-4.299458 17.150777 13.726528 22.384192 -1.325172 0.910660 -0.010341 -0.010456 805483.000000 0 1 0
-2.744658 16.893377 13.678128 21.909143 -1.409734 0.896547 0.000771 -0.019102 794975.000000 0 1 0
-2.082058 16.343377 14.802728 22.148628 -1.444084 0.838827 0.013059 -0.018886 -324277.000000 0 1 0
-2.526758 15.111277 15.281528 21.639323 -1.405119 0.786690 0.014751 -0.011537 -335492.000000 0 1 0
-1.500958 14.451777 16.232628 21.785430 -1.467308 0.730091 0.012409 -0.006309 -428227.000000 0 1 0
-0.246358 14.172977 15.697628 21.150638 -1.553416 0.734476 -0.000558 -0.018397 -957667.000000 0 1 0
0.654642 13.678377 16.640928 21.551033 1.522973 0.688557 0.003122 -0.001566 -32066.500000 0 1 0
1.588942 14.728277 17.290128 22.768298 1.463328 0.708414 0.003912 -0.004135 -310447.000000 0 1 0
1.006742 15.633577 18.213028 24.023669 1.506489 0.710358 -0.000287 -0.005469 -261143.000000 0 1 0
1.923442 16.673377 18.497128 24.976887 1.455944 0.736878 0.027222 -0.012019 36518.100000 0 1 0
1.207242 17.913777 19.180328 26.272530 1.503506 0.752397 0.024053 -0.004321 578107.000000 0 0 1
0.451442 18.732177 18.331228 26.213206 1.546701 0.796361 0.013213 -0.004517 -994794.000000 0 0 1
-0.730658 18.282177 17.800228 25.526848 -1.530852 0.799153 0.023223 -0.003870 -1622580.000000 0 0 1
-1.299358 19.195077 16.749828 25.508745 -1.503207 0.854453 0.014960 0.000904 -487969.000000 0 0 1
-1.829758 20.318277 17.440428 26.839317 -1.480984 0.863463 0.011778 0.011743 -179594.000000 0 0 1
-2.471858 21.150977 16.481028 26.927648 -1.454457 0.912148 0.005405 0.007370 -341189.000000 0 0 1
-3.000658 22.452577 17.179628 28.429945 -1.437939 0.921935 0.003867 0.016659 -104790.000000 0 0 1
-4.049758 22.110677 18.059228 28.834325 -1.389646 0.893985 0.007440 0.017528 6283.040000 0 0 1
-4.588958 23.320377 18.637628 30.203637 -1.376500 0.905788 0.006962 0.016109 150410.000000 0 0 1
-5.584858 23.101177 19.824928 30.949682 -1.333591 0.875577 0.005447 0.015382 1132590.000000 0 0 1
-6.870658 22.760177 19.267728 30.601911 -1.277623 0.889726 0.005628 0.008102 429235.000000 0 0 1
-7.839958 22.332777 20.213228 31.125431 -1.233185 0.863985 0.005385 0.002805 492182.000000 0 0 1
-9.259658 22.625477 19.677728 31.382582 -1.182334 0.893065 0.008979 -0.009380 53176.300000 0 0 1
-9.785058 23.901677 19.836628 32.565770 -1.182223 0.915839 0.017579 -0.005191 799904.000000 0 0 1
-11.047258 24.154277 19.176028 32.759595 -1.141837 0.945477 0.010657 -0.009205 847586.000000 0 0 1
-11.463458 25.584077 19.369228 34.075253 -1.149549 0.966206 0.017881 -0.015037 -124738.000000 0 0 1
-11.769058 25.825677 20.746028 35.155000 -1.143203 0.939576 0.021557 -0.010828 169494.000000 0 0 1
-12.507458 27.034577 20.804128 36.333409 -1.137475 0.961135 0.037939 -0.014361 -291059.000000 0 0 1
-13.261658 27.272577 22.136428 37.545792 -1.118198 0.940252 0.040729 -0.018778 -280108.000000 0 0 1
-14.467358 26.533277 22.192728 37.494485 -1.071605 0.937391 0.047194 -0.017495 -79372.600000 0 0 1
-15.160358 26.894877 23.338528 38.702167 -1.057504 0.923504 0.038167 -0.007081 830510.000000 0 0 1
-16.735958 26.793277 23.323828 39.267963 -1.012461 0.934817 0.037986 -0.005329 1161480.000000 0 0 1
-17.206558 25.476177 23.307628 38.579098 -0.976773 0.922095 0.038568 -0.011845 -976458.000000 0 0 1
-18.586858 25.361177 23.235328 39.096561 -0.938338 0.934394 0.045316 -0.006054 -554599.000000 0 0 1
26.056742 23.941677 23.598711 42.533009 0.743121 0.982634 0.021432 -0.012786 -120672.000000 0 0 1
25.925442 23.290077 24.862671 42.810147 0.731902 0.951127 0.035908 -0.026255 246332.000000 0 0 1
25.777842 21.851977 24.732231 41.877074 0.703160 0.939005 0.042913 -0.014405 -378070.000000 0 0 1
25.561842 21.157977 26.135051 42.238711 0.691415 0.903650 0.048888 -0.016145 -217420.000000 0 0 1
24.322342 21.558177 26.643151 42.026049 0.725224 0.884124 0.040597 -0.007888 -414152.000000 0 0 1
24.254942 21.433177 28.024051 42.813908 0.723715 0.857203 0.041835 -0.009903 -134936.000000 0 0 1
22.934342 21.719077 28.762901 42.720099 0.758189 0.832150 0.043344 -0.004497 -357679.000000 0 0 1
22.619142 23.071177 28.814951 43.292103 0.795291 0.842507 0.057018 -0.019060 -58397.700000 0 0 1
21.509342 23.219177 29.675031 43.386512 0.823607 0.817607 0.078332 -0.016611 -226730.000000 0 0 1
21.234742 24.646377 30.210171 44.396088 0.859620 0.822394 0.077329 -0.019054 -283517.000000 0 0 1
20.837842 25.503377 29.105611 43.951957 0.885738 0.847026 0.053249 -0.022595 134612.000000 0 0 1
20.499442 26.833577 29.479431 44.825270 0.918428 0.853099 0.055849 -0.023857 -130629.000000 0 0 1
19.207142 26.997877 30.307251 44.903554 0.952439 0.829912 0.063111 -0.021705 -150620.000000 0 0 1
18.004242 26.622677 29.632111 43.714776 0.976171 0.825960 0.061029 -0.016257 -305608.000000 0 0 1
16.894042 27.124677 30.273721 44.018802 1.013760 0.812418 0.052900 -0.015768 -952446.000000 0 0 1
16.041542 26.110177 30.983981 43.578429 1.019871 0.779886 0.008854 0.002219 -1147970.000000 0 0 1
16.518142 25.562777 32.181671 44.294069 0.997112 0.757515 0.027155 -0.004291 -564934.000000 0 0 1
15.628742 24.756577 32.848625 44.002021 1.007682 0.727972 -0.024406 -0.001889 -390205.000000 0 0 1
16.268042 24.412477 34.221727 45.074880 0.982991 0.708683 0.003421 -0.007545 97142.600000 0 0 1
16.411942 25.476977 -33.632342 45.272096 0.998518 2.408179 0.007867 -0.007768 -180698.000000 0 0 1
16.709842 25.003277 -32.383942 44.193918 0.981660 2.393179 0.006701 -0.001152 -377565.000000 0 0 1
17.006942 26.192077 -31.405682 44.289704 0.994902 2.359013 0.019375 0.007772 -685579.000000 0 0 1
15.937842 27.027277 -31.136432 44.203687 1.037989 2.352353 0.020444 -0.008211 -539221.000000 0 0 1
16.347742 28.230377 -30.524532 44.676056 1.045899 2.322989 0.024021 -0.010092 -264702.000000 0 0 1
15.984842 28.624977 -29.071962 43.818757 1.061509 2.296229 0.037280 -0.005805 -263392.000000 0 0 1
16.507242 27.671377 -28.177922 42.804082 1.032921 2.289354 0.040627 0.002938 128913.000000 0 0 1
16.316142 28.120177 -26.850292 42.165140 1.045041 2.261123 0.027728 0.012556 187672.000000 0 0 1
17.067042 27.160877 -25.850092 41.197384 1.009778 2.249095 0.027206 0.011783 747361.000000 0 0 1
18.479342 27.342477 -25.884552 41.941712 0.976465 2.235919 0.027237 0.010481 227299.000000 0 0 1
19.116342 26.945577 -24.655172 41.223491 0.953761 2.211906 0.035493 0.004834 782967.000000 0 0 1
20.669742 27.001377 -24.637172 41.991700 0.917444 2.197793 0.030070 0.009719 532687.000000 0 0 1
21.212942 26.616877 -23.398672 41.303086 0.897904 2.173063 0.018427 0.014940 -328157.000000 0 0 1
22.616642 26.512577 -23.496072 42.029688 0.864532 2.164018 0.029763 0.016801 250040.000000 0 0 1
23.237242 26.133877 -22.090672 41.363592 0.844002 2.134193 0.035636 0.010430 260116.000000 0 0 1
22.781142 24.910177 -21.575472 40.062431 0.830011 2.139507 0.033998 0.011669 35285.100000 0 0 1
23.252942 24.840477 -20.248472 39.594814 0.818396 2.107600 0.035922 -0.001282 -324565.000000 0 0 1
22.860542 23.696277 -19.326772 38.179079 0.803347 2.101585 0.041744 -0.010083 -85970.500000 0 0 1
23.722842 22.583077 -19.575572 38.157197 0.760789 2.109501 0.053119 -0.002846 475370.000000 0 0 1
23.443642 21.530377 -18.653772 36.893424 0.742882 2.100888 0.065055 -0.001695 -792609.000000 0 0 1
23.477442 20.103077 -19.292872 36.435408 0.708124 2.128818 0.079270 -0.015463 893274.000000 0 0 1
22.392742 19.697177 -20.160172 35.997864 0.721443 2.165228 0.056835 -0.016076 889802.000000 0 0 1
21.079542 19.843377 -19.639672 34.983188 0.755200 2.166877 0.049423 -0.021210 -142814.000000 0 0 1
19.938142 19.457077 -20.626972 34.663805 0.773188 2.208134 0.049570 -0.015931 327639.000000 0 0 1
19.815542 20.268477 -21.841372 35.784248 0.796697 2.227315 0.048493 -0.015509 -71210.900000 0 0 1
19.776342 21.707877 -21.648272 36.482644 0.831925 2.206055 0.041833 -0.007433 -85025.300000 0 0 1
19.781642 22.526677 -22.974772 37.770421 0.850189 2.224681 0.041957 0.009407 -22820.500000 0 0 1
18.496042 22.407977 -23.514572 37.378552 0.880745 2.251182 0.045597 -0.003601 -524815.000000 0 0 1
18.282542 23.260377 -24.596572 38.474509 0.904654 2.264378 0.036007 -0.000047 200799.000000 0 0 1
16.776742 23.229677 -24.965572 38.004694 0.945318 2.287506 0.031157 -0.003168 524299.000000 0 0 1
16.011342 24.008777 -24.005672 37.537405 0.982635 2.264661 0.024421 0.000232 -666440.000000 0 0 1
14.685142 24.094777 -24.380272 37.290875 1.023440 2.283374 0.023193 -0.001160 -893101.000000 0 0 1
13.926542 25.191877 -23.605072 37.226049 1.065792 2.257642 0.012703 -0.002997 14303.700000 0 0 1
13.994142 26.481177 -24.225672 38.522357 1.084644 2.250899 0.009907 -0.000906 -167796.000000 0 0 1
13.064842 27.340077 -23.637272 38.430334 1.125014 2.233269 0.020770 -0.002773 -28569.500000 0 0 1
13.020642 28.764377 -24.155372 39.754352 1.145728 2.223852 0.021016 -0.008336 201733.000000 0 0 1
12.710942 28.724277 -25.536882 40.481904 1.154184 2.253409 0.022601 -0.011510 -209501.000000 0 0 1
12.317742 29.914077 -26.200862 41.630085 1.180184 2.251543 0.029781 -0.008664 26687.900000 0 0 1
13.276642 31.129277 -26.241902 42.824509 1.167656 2.230367 0.046709 -0.016574 655198.000000 0 0 1
14.528442 31.030077 -26.935202 43.582639 1.132907 2.237026 0.036411 -0.012971 282492.000000 0 0 1
15.128242 32.269577 -26.978922 44.699570 1.132412 2.218756 0.036307 -0.015529 -1157020.000000 0 0 1
16.523942 32.318777 -27.545512 45.566427 1.098166 2.219951 0.037114 0.003514 -1555820.000000 0 0 1
17.425342 31.811877 -26.650582 45.009906 1.069673 2.204465 0.030860 0.008807 -761263.000000 0 0 1
18.704342 31.800077 -27.261652 45.872596 1.039109 2.207180 0.020529 0.012937 238140.000000 0 0 1
19.765842 30.950877 -26.458322 45.262436 1.002463 2.195126 0.009645 0.019341 -273801.000000 0 0 1
20.372342 31.530877 -25.319022 45.280034 0.997162 2.164175 0.020849 0.017558 -26212.900000 0 0 1
21.263742 32.615077 -25.452322 46.515704 0.993044 2.149784 0.015360 0.010616 992624.000000 0 0 1
22.679242 32.329277 -26.113402 47.343848 0.959059 2.155040 0.017735 0.013473 664996.000000 0 0 1
22.453942 31.873677 -27.456172 47.685975 0.957079 2.184342 0.009405 0.020441 660567.000000 0 0 1
23.648842 31.852477 -28.274672 48.716580 0.932145 2.190005 0.002760 0.021273 -202125.000000 0 0 1
23.476042 31.174677 -29.651472 49.012191 0.925347 2.220539 -0.001205 0.024883 -837632.000000 0 0 1
22.567742 31.811977 -30.456232 49.486230 0.953783 2.233751 0.009543 0.015672 173522.000000 0 0 1
21.231342 31.300277 -30.331852 48.481940 0.974775 2.246738 0.008978 0.012689 559110.000000 0 0 1
20.180142 32.053377 -31.207452 49.077105 1.008911 2.259953 0.005594 0.013083 -463378.000000 0 0 1
19.888342 33.307677 -30.729222 49.489722 1.032505 2.240714 0.022492 0.005704 217510.000000 0 0 1
18.983042 34.109177 -31.501112 50.160861 1.062948 2.249779 0.025296 -0.002552 1428300.000000 0 0 1
17.437042 33.835877 -31.328062 49.298727 1.094951 2.259419 0.034455 -0.003879 853653.000000 0 0 1
16.710742 32.648577 -31.598422 48.411143 1.097724 2.281952 0.042601 -0.002808 351707.000000 0 0 1
17.010742 32.005977 -32.870812 48.930954 1.082278 2.307405 0.035959 -0.008115 -606994.000000 0 0 1
16.488242 32.668777 -34.149279 50.052816 1.103388 2.321652 0.040683 -0.007430 -219780.000000 0 0 1
17.069742 33.973877 -34.268184 51.185046 1.105201 2.304326 0.038500 -0.003965 114074.000000 0 0 1
16.880442 -34.330732 33.231527 50.674282 -1.113810 0.855572 0.040311 -0.005124 804335.000000 0 0 1
15.409542 -33.831732 32.985322 49.699815 -1.143398 0.845054 0.045938 -0.005330 905803.000000 0 0 1
14.437042 34.080777 32.661111 49.362696 1.170102 0.847771 0.033925 -0.001952 447531.000000 0 0 1
13.107042 -34.359032 32.557071 49.115176 -1.206363 0.846148 0.017822 -0.002974 57971.000000 0 0 1
12.648042 -33.652832 31.306941 47.671906 -1.211290 0.854339 0.014748 0.001727 -985197.000000 0 0 1
13.220142 -32.440932 30.961391 46.752476 -1.183829 0.846991 0.034460 -0.001714 334023.000000 0 0 1
12.578142 -31.999132 29.756821 45.471117 -1.196272 0.857392 0.034489 -0.002788 113266.000000 0 0 1
13.078442 -30.592932 29.452301 44.434347 -1.166811 0.846208 0.028768 -0.006978 8451.180000 0 0 1
12.683842 -29.663332 30.492601 44.391349 -1.166731 0.813576 0.026998 -0.007627 310419.000000 0 0 1
13.123042 -28.341732 30.238241 43.472051 -1.137161 0.801571 0.034578 -0.018136 -280872.000000 0 0 1
12.652042 -27.305432 31.266691 43.396622 -1.136894 0.766292 0.018360 -0.012990 551912.000000 0 0 1
11.283842 -26.896832 31.152761 42.676213 -1.173574 0.752504 -0.002375 -0.011080 67750.800000 0 0 1
11.108642 -25.729232 30.367601 41.322954 -1.163221 0.745300 -0.005663 -0.003263 -471292.000000 0 0 1
11.410542 -24.377832 31.044351 41.088087 -1.133017 0.714294 0.001877 -0.007044 -318706.000000 0 0 1
10.577642 -23.947332 32.091741 41.415469 -1.154862 0.684282 0.004057 -0.006602 -346303.000000 0 0 1
10.931542 -22.757232 32.764886 41.363365 -1.122988 0.656516 0.008556 -0.004452 135480.000000 0 0 1
9.936042 -22.396132 33.930281 41.851830 -1.153236 0.625409 0.007220 -0.004136 97931.400000 0 0 1
9.896542 -23.159832 -33.633672 42.018368 -1.166967 2.498845 -0.002340 0.004766 366444.000000 0 0 1
11.092042 -23.171332 -32.846972 41.699732 -1.124336 2.477867 0.009266 -0.002250 508137.000000 0 0 1
11.495242 -21.890532 -32.048112 40.477370 -1.087252 2.484471 0.018854 -0.013478 -91056.000000 0 0 1
11.826342 -20.827232 -32.917362 40.708583 -1.054367 2.512582 0.011914 -0.004946 361507.000000 0 0 1
12.963342 -20.081032 -32.452482 40.304587 -0.997555 2.506777 0.027575 -0.016821 420344.000000 0 0 1
13.389842 -18.955332 -33.398752 40.670249 -0.955795 2.534322 0.020781 -0.012426 -341219.000000 0 0 1
13.964642 -19.366932 34.108408 41.634995 -0.946078 0.610739 0.039775 -0.007356 390517.000000 0 0 1
13.806042 -18.380532 33.109834 40.307715 -0.926577 0.606888 0.022133 -0.008082 -20369.000000 0 0 1
14.959542 -17.353332 33.021447 40.191317 -0.859345 0.606573 0.037924 -0.010128 -582566.000000 0 0 1
14.953042 -16.457132 34.102067 40.710952 -0.833247 0.577806 0.035281 -0.009598 446911.000000 0 0 1
15.535642 -15.181932 33.721227 40.111948 -0.773884 0.572263 0.046278 -0.008940 458161.000000 0 0 1
17.072842 -15.087232 33.954789 40.890515 -0.723735 0.591002 0.050398 -0.004837 231098.000000 0 0 1
17.821142 -15.898532 33.070819 40.792591 -0.728442 0.625438 0.065325 -0.002722 410208.000000 0 0 1
19.226942 -15.821232 33.314991 41.591770 -0.688530 0.641833 0.073777 -0.002559 330026.000000 0 0 1
20.035342 -16.460232 32.201731 41.343750 -0.687750 0.677922 0.086711 -0.008835 -629939.000000 0 0 1
19.950342 -15.816332 30.902611 40.039279 -0.670326 0.689118 0.076963 -0.006390 501133.000000 0 0 1
20.789442 -16.474832 29.948001 40.006297 -0.670127 0.724875 0.066442 -0.012361 -112619.000000 0 0 1
21.139142 -15.515732 28.850671 38.986696 -0.633170 0.737706 0.055531 -0.005893 -696535.000000 0 0 1
22.050342 -14.512732 29.092611 39.283801 -0.582093 0.736870 0.034440 -0.002038 -158555.000000 0 0 1
22.304742 -13.968332 27.819371 38.295342 -0.559497 0.757665 0.035529 -0.002736 131135.000000 0 0 1
23.194942 -12.701632 27.927581 38.461495 -0.501001 0.758137 0.027119 0.000650 -71486.400000 0 0 1
22.396142 -11.597932 28.295511 37.904289 -0.477829 0.728012 0.044059 -0.006309 663443.000000 0 0 1
23.153142 -10.382132 28.332601 38.034102 -0.421532 0.730372 0.021910 -0.002393 239612.000000 0 0 1
22.197442 -9.184232 28.393261 37.192120 -0.392305 0.702203 0.039874 -0.009448 77979.800000 0 0 1
21.527142 -9.051932 29.644091 37.737613 -0.398044 0.667241 0.049324 -0.014992 -280496.000000 0 0 1
20.687742 -7.941232 29.494451 36.891306 -0.366517 0.644341 0.067811 -0.019841 -95198.600000 0 0 1
19.442142 -7.863432 30.409711 36.940235 -0.384339 0.603748 0.040292 -0.005012 13464.400000 0 0 1
19.609942 -7.535632 31.786061 38.101040 -0.366878 0.584012 0.037997 -0.009741 -15968.800000 0 0 1
19.628142 -8.726132 32.590821 39.032947 -0.418331 0.582742 0.049033 -0.016497 -341584.000000 0 0 1
19.639042 -8.364932 34.084168 40.216844 -0.402661 0.559520 0.033425 -0.018220 -93640.400000 0 0 1
18.452642 -7.821232 -34.146671 39.593773 -0.400900 2.610838 0.030366 -0.021779 -4640.970000 0 0 1
18.772042 -7.227032 -32.938222 38.594638 -0.367499 2.593347 0.020546 -0.027374 188482.000000 0 0 1
17.512542 -6.713032 -32.191202 37.256240 -0.366051 2.614054 0.020941 -0.024692 122957.000000 0 0 1
17.788542 -6.000132 -31.032092 36.268782 -0.325319 2.597533 0.009084 -0.024744 -521920.000000 0 0 1
16.644442 -5.749832 -30.302742 35.047885 -0.332616 2.615169 0.014207 -0.017318 -739629.000000 0 0 1
16.845742 -4.696432 -29.216342 34.050406 -0.271887 2.602222 0.007306 -0.012018 -331858.000000 0 0 1
17.435542 -5.119732 -27.979422 33.362522 -0.285610 2.565593 0.002361 -0.006973 5750.680000 0 0 1
16.863342 -6.126432 -27.198972 32.583578 -0.348473 2.558465 -0.000088 -0.009640 -221898.000000 0 0 1
15.559642 -5.732732 -26.447082 31.215619 -0.353004 2.581562 0.004545 -0.009309 86575.300000 0 0 1
15.629342 -4.648832 -25.550552 30.310373 -0.289109 2.573566 -0.021580 -0.003033 -47774.300000 0 0 1
14.351842 -4.480532 -24.938872 29.120403 -0.302604 2.599063 0.021143 -0.007757 235147.000000 0 0 1
14.121742 -3.272932 -24.005572 28.042881 -0.227745 2.598338 0.019386 -0.006043 -94395.000000 0 0 1
13.780342 -2.039932 -24.607572 28.277054 -0.146965 2.626468 0.012957 -0.014823 158801.000000 0 0 1
13.510342 -1.029932 -23.637372 27.245467 -0.076086 2.621093 0.015341 -0.012139 -152160.000000 0 0 1
13.974742 0.347068 -24.088072 27.850477 0.024830 2.615761 0.013746 -0.015160 -97615.300000 0 0 1
13.247642 0.938068 -25.181272 28.468868 0.070692 2.656260 0.035593 -0.019013 352470.000000 0 0 1
13.913442 2.094068 -25.656562 29.261377 0.149386 2.639976 0.029668 -0.007487 -298130.000000 0 0 1
13.151542 2.726068 -26.780992 29.960241 0.204387 2.676733 0.034081 -0.004668 -746016.000000 0 0 1
11.964342 3.360068 -26.422822 29.199333 0.273788 2.701969 0.038166 -0.021405 -473880.000000 0 0 1
11.257642 3.689068 -27.590182 30.026020 0.316667 2.736018 0.042978 -0.018384 -304828.000000 0 0 1
9.809142 4.178068 -27.446022 29.444179 0.402663 2.771068 0.042003 -0.028085 -263638.000000 0 0 1
9.664642 5.255068 -26.575882 28.762798 0.498026 2.749123 0.043941 -0.026413 575675.000000 0 0 1
8.365342 5.864068 -26.530152 28.429126 0.611394 2.774022 0.061207 -0.024889 555227.000000 0 0 1
7.694842 4.813577 -31.567382 32.846320 0.559001 2.861620 0.044223 -0.022010 -212811.000000 0 0 1
7.712842 3.904977 -30.460612 31.663633 0.468671 2.865054 0.040717 -0.010830 433517.000000 0 0 1
7.718142 2.573077 -30.952712 32.004075 0.321793 2.884562 0.029912 -0.005729 -232776.000000 0 0 1
7.568842 1.586977 -29.788122 30.775609 0.206678 2.887586 0.036324 -0.007492 -312728.000000 0 0 1
8.700542 1.434577 -28.963982 30.276554 0.163413 2.846060 0.048771 -0.015695 224383.000000 0 0 1
8.479742 0.474177 -28.009952 29.269238 0.055861 2.847191 0.056251 -0.019559 -405934.000000 0 0 1
9.772342 0.237777 -27.241212 28.941991 0.024327 2.797064 0.053611 -0.025496 -234034.000000 0 0 1
10.668242 -0.635223 -27.908852 29.885095 -0.059473 2.775888 0.044293 -0.012534 107709.000000 0 0 1
11.520642 -1.277623 -26.963082 29.349026 -0.110447 2.735584 0.041799 -0.009306 420374.000000 0 0 1
12.557142 -2.267823 -27.550372 30.361947 -0.178674 2.707847 0.043114 -0.009684 313021.000000 0 0 1
11.803242 -3.373323 -27.992262 30.565709 -0.278375 2.728307 0.058390 -0.018394 669793.000000 0 0 1
12.611042 -4.429323 -28.529212 31.505130 -0.337766 2.703451 0.053474 -0.018365 120095.000000 0 0 1
12.064742 -5.780523 -28.028362 31.057391 -0.446809 2.696266 0.058572 -0.008214 -51940.000000 0 0 1
12.048142 -5.843523 -26.631752 29.808635 -0.451587 2.675707 0.051578 -0.008356 54052.500000 0 0 1
11.638242 -7.111723 -26.153422 29.496216 -0.548516 2.660890 0.059806 -0.010683 38398.300000 0 0 1
11.106442 -7.055423 -24.715372 27.999673 -0.565940 2.652378 0.057385 -0.008678 -324211.000000 0 0 1
12.128342 -6.746523 -23.822872 27.570664 -0.507637 2.614088 0.020712 -0.002109 -408957.000000 0 0 1
11.647542 -6.701023 -22.500972 26.208065 -0.522072 2.603234 0.028376 -0.000308 -302849.000000 0 0 1
12.688542 -6.682723 -21.393272 25.755193 -0.484758 2.551051 0.021727 -0.003708 123759.000000 0 0 1
13.371942 -5.409923 -21.222372 25.660576 -0.384442 2.544621 0.010202 -0.003832 -393236.000000 0 0 1
14.492242 -5.631323 -20.440772 25.681940 -0.370619 2.491322 0.003178 0.000726 -741362.000000 0 0 1
15.058242 -4.352723 -19.787472 25.243631 -0.281389 2.471654 0.007934 -0.000613 -414872.000000 0 0 1
15.528142 -3.470123 -20.791472 26.181105 -0.219861 2.488388 0.000318 -0.000644 212007.000000 0 0 1
16.107142 -2.370323 -20.075172 25.847069 -0.146111 2.460191 0.008524 0.000012 -185233.000000 0 0 1
17.030242 -1.501323 -20.951972 27.041972 -0.087929 2.457186 -0.002609 -0.003122 -1166030.000000 0 0 1
18.280242 -2.013923 -21.080372 27.975082 -0.109727 2.424228 0.008489 -0.009531 -1262170.000000 0 0 1
19.124742 -1.333623 -22.001872 29.182472 -0.069620 2.424837 0.013045 -0.007182 1165560.000000 0 0 1
20.492542 -2.101723 -22.192972 30.280184 -0.102203 2.393402 0.010997 -0.008066 459049.000000 0 0 1
21.417242 -2.035323 -21.117672 30.146258 -0.094747 2.346904 0.010029 -0.005744 615789.000000 0 0 1
22.725242 -2.485323 -21.425472 31.331523 -0.108931 2.323797 0.002127 -0.006467 923533.000000 0 0 1
23.705142 -1.610323 -22.301872 32.586813 -0.067827 2.324554 0.018042 -0.011862 -547158.000000 0 0 1
23.268142 -1.531423 -23.646072 33.209764 -0.065721 2.363170 0.017801 -0.011457 424848.000000 0 0 1
24.203442 -0.848623 -24.479372 34.434959 -0.035048 2.361555 0.012820 0.000544 -180659.000000 0 0 1
25.426842 -1.642023 -24.956072 35.665475 -0.064489 2.345811 0.009851 -0.004454 -835601.000000 0 0 1
26.341742 -1.917223 -23.911072 35.627272 -0.072655 2.306549 0.013291 -0.002476 50586.700000 0 0 1
27.491342 -2.677223 -24.232772 36.744641 -0.097078 2.290938 -0.008959 0.009847 427997.000000 0 0 1
28.622342 -1.857023 -24.909272 37.988931 -0.064789 2.285903 -0.013878 0.002772 -913063.000000 0 0 1
28.400242 -1.587323 -26.281602 38.727457 -0.055833 2.316692 0.005155 -0.000201 242146.000000 0 0 1
28.740442 -0.267623 -26.570052 39.141440 -0.009311 2.316953 -0.001500 -0.009833 -545606.000000 0 0 1
28.391042 0.228277 -28.044532 39.907382 0.008040 2.350038 0.008354 -0.007932 550581.000000 0 0 1
27.048642 0.633377 -28.296302 39.149852 0.023412 2.378597 0.011695 -0.002447 466944.000000 0 0 1
26.601542 1.856177 -27.742322 38.480175 0.069664 2.375970 0.012078 0.004000 -981418.000000 0 0 1
25.126142 2.161977 -27.960892 37.653800 0.085834 2.407708 0.012368 -0.006800 -729871.000000 0 0 1
24.324642 1.348477 -27.137012 36.468124 0.055380 2.410027 0.015830 -0.005799 -46469.200000 0 0 1
22.970442 1.692677 -27.314702 35.729530 0.073556 2.441039 0.019299 -0.004778 12207.700000 0 0 1
21.966442 1.333577 -26.179782 34.200643 0.060635 2.442578 0.028805 -0.005553 43505.600000 0 0 1
22.119642 2.123577 -25.025772 33.467558 0.095711 2.415482 0.032075 -0.006188 757090.000000 0 0 1
21.148642 1.744577 -24.034072 32.061585 0.082305 2.418287 0.029782 -0.004286 174718.000000 0 0 1
21.365642 2.430877 -22.714072 31.278250 0.113288 2.383566 0.028516 -0.004814 -224536.000000 0 0 1
20.831642 3.772877 -22.589572 30.959339 0.179171 2.388611 0.036751 -0.009323 573059.000000 0 0 1
21.067942 4.325677 -21.293672 30.265329 0.202506 2.351200 0.038294 -0.013810 -252937.000000 0 0 1
20.608742 5.810277 -21.099572 30.061130 0.274800 2.348842 0.042807 -0.006678 -71095.100000 0 0 1
21.424942 6.790877 -21.743872 31.272034 0.306944 2.339653 0.028377 -0.006498 484923.000000 0 0 1
21.148842 8.156477 -21.450472 31.207762 0.368092 2.328622 0.025582 -0.006155 -566533.000000 0 0 1
21.535942 8.582677 -20.029072 30.636953 0.379237 2.283333 0.021234 0.001904 -632784.000000 0 0 1
22.906942 8.708777 -19.725772 31.459130 0.363305 2.248529 0.020798 0.009719 214265.000000 0 0 1
23.227442 8.720377 -18.342872 30.854822 0.359151 2.207427 0.033090 -0.002282 -89653.200000 0 0 1
22.990942 10.083877 -17.621872 30.672437 0.413335 2.182812 0.040308 -0.008669 259001.000000 0 0 1
21.606142 10.343877 -17.400272 29.607274 0.446501 2.199013 0.036404 -0.018888 524862.000000 0 0 1
21.255442 11.695077 -17.069572 29.663765 0.503009 2.183932 0.018690 -0.014542 81371.100000 0 0 1
19.707642 11.866277 -17.082972 28.653580 0.541974 2.209543 0.019784 -0.018991 86543.900000 0 0 1
18.981742 11.767277 -18.237972 28.833990 0.554942 2.255594 0.010814 -0.016097 18361.100000 0 0 1
18.709242 10.459477 -18.624472 28.395552 0.509768 2.286163 0.017346 -0.010848 -416349.000000 0 0 1
17.892942 10.198377 -19.938172 28.665223 0.518043 2.339985 0.031373 -0.021099 355232.000000 0 0 1
18.723842 10.396977 -21.064872 30.040111 0.506888 2.347910 0.038486 -0.021875 903371.000000 0 0 1
17.974242 10.053077 -22.239872 30.310884 0.509959 2.394586 0.031275 -0.023337 263625.000000 0 0 1
18.840942 10.467577 -23.439372 31.842667 0.507114 2.398086 0.037849 -0.020971 -58050.400000 0 0 1
19.031942 11.886177 -23.588572 32.556363 0.558267 2.381171 0.030076 -0.017750 219663.000000 0 0 1
19.798642 12.202377 -24.736272 33.952429 0.552336 2.387009 0.039580 -0.021772 47174.300000 0 0 1
20.167342 13.695577 -24.803472 34.777906 0.596559 2.364844 0.043352 -0.031696 194522.000000 0 0 1
20.804742 14.185177 -26.003172 36.196982 0.598423 2.372266 0.040144 -0.039827 408533.000000 0 0 1
20.568842 15.614377 -26.014692 36.655835 0.649317 2.359870 0.049358 -0.026901 699586.000000 0 0 1
19.286042 16.060277 -26.820912 36.732074 0.694389 2.389377 0.044000 -0.023036 739903.000000 0 0 1
18.059542 15.724577 -26.246912 35.528999 0.716394 2.402004 0.043816 -0.027404 298048.000000 0 0 1
16.921342 15.918177 -27.121162 35.711030 0.754860 2.433282 0.037034 -0.025522 449968.000000 0 0 1
15.601442 15.426877 -26.567702 34.456296 0.779772 2.451293 0.029576 -0.025002 -711810.000000 0 0 1
15.552442 13.988277 -26.457442 33.727535 0.732498 2.472599 0.027143 -0.021114 454948.000000 0 0 1
14.188342 13.587077 -26.441472 32.940388 0.763754 2.502616 0.016589 -0.022463 174249.000000 0 0 1
14.167842 12.055177 -26.269672 32.189295 0.705007 2.525426 0.012529 -0.022768 -1133140.000000 0 0 1
12.888542 11.575277 -26.258842 31.458359 0.731768 2.558416 0.025097 -0.021346 -1279430.000000 0 0 1
12.865942 10.199877 -25.859262 30.631216 0.670324 2.575891 0.032970 -0.024995 114408.000000 0 0 1
11.465442 9.570377 -25.650122 29.681261 0.695553 2.614326 0.032968 -0.022826 203233.000000 0 0 1
10.789642 10.130277 -24.543772 28.660699 0.753890 2.598968 0.041829 -0.019918 -757042.000000 0 0 1
9.616642 9.486277 -24.236572 27.746724 0.778574 2.633128 0.041522 -0.021017 -759773.000000 0 0 1
8.883642 10.035677 -22.982172 26.604777 0.846215 2.613632 0.033457 -0.013402 -19046.500000 0 0 1
8.316842 11.307277 -23.282872 27.186698 0.936620 2.599066 0.021793 -0.017159 -339946.000000 0 0 1
7.490142 11.876977 -22.331472 26.379148 1.008149 2.580281 0.021154 -0.002953 -220390.000000 0 0 1
8.160342 12.788077 -21.291672 26.143095 1.002817 2.522539 0.020908 -0.013090 -751426.000000 0 0 1
9.131342 12.137477 -20.586772 25.583490 0.925808 2.505949 0.025485 -0.017807 -1409170.000000 0 0 1
9.936542 13.072077 -19.988672 25.868148 0.920840 2.453902 0.025921 -0.014700 313282.000000 0 0 1
11.182442 12.412877 -19.223272 25.468819 0.837498 2.426110 0.030934 -0.016059 1763580.000000 0 0 1
12.263542 11.775077 -19.974072 26.229954 0.765081 2.436418 0.031985 -0.021609 929889.000000 0 0 1
11.895542 10.759077 -20.918872 26.360214 0.735275 2.487462 0.045158 -0.019195 -1343840.000000 0 0 1
13.015042 10.006477 -21.601972 27.132381 0.655450 2.491734 0.048235 -0.024515 -486859.000000 0 0 1
13.411942 8.791177 -20.950372 26.383387 0.580214 2.488280 0.052582 -0.027207 -500139.000000 0 0 1
14.486642 8.205177 -21.559372 27.239572 0.515344 2.484011 0.058119 -0.032084 -1014660.000000 0 0 1
14.975742 6.893977 -20.802072 26.542908 0.431422 2.471421 0.065529 -0.028100 444670.000000 0 0 1
15.840742 7.304777 -19.718772 26.327151 0.432078 2.417333 0.048106 -0.021409 591302.000000 0 0 1
16.416242 6.189777 -19.028372 25.882142 0.360568 2.396748 0.039363 -0.032915 553418.000000 0 0 1
17.366442 6.687877 -17.864272 25.796380 0.367599 2.335760 0.054394 -0.023336 345191.000000 0 0 1
18.658742 7.188477 -18.244272 27.067995 0.367736 2.310429 0.050578 -0.032276 647438.000000 0 0 1
19.465742 7.331677 -17.129972 26.946327 0.360212 2.259721 0.050967 -0.031485 -200017.000000 0 0 1
20.077042 6.157277 -16.298472 26.582699 0.297576 2.230804 0.044357 -0.028210 48746.600000 0 0 1
21.162142 5.441277 -16.920672 27.636080 0.251672 2.229722 0.043670 -0.027510 947663.000000 0 0 1
21.928242 4.697577 -16.014272 27.556704 0.211035 2.190924 0.062245 -0.031984 -88712.900000 0 0 1
23.099442 3.908877 -16.675972 28.756766 0.167632 2.189399 0.028677 0.002704 45429.400000 0 0 1
23.714042 3.116577 -15.691572 28.605844 0.130674 2.151419 0.020045 0.005714 728523.000000 0 0 1
24.915742 2.524477 -16.227972 29.841486 0.100976 2.145762 0.023769 -0.006700 602173.000000 0 0 1
25.524542 1.339977 -15.509672 29.897286 0.052449 2.116202 0.043205 -0.022868 -380721.000000 0 0 1
24.971042 0.054277 -15.740172 29.517942 0.002174 2.133223 0.043004 -0.018052 86519.900000 0 0 1
25.921442 -0.937723 -16.121672 30.540282 -0.036160 2.126901 0.038826 -0.008644 -39193.100000 0 0 1
25.234142 -2.289423 -16.266772 30.109986 -0.090479 2.141525 0.017723 -0.014574 -423132.000000 0 0 1
24.845642 -2.957623 -15.109872 29.229466 -0.118482 2.114068 0.023444 -0.006631 340469.000000 0 0 1
24.810342 -4.364223 -15.298672 29.472850 -0.174122 2.116567 0.024980 -0.004240 -1260830.000000 0 0 1
24.231742 -5.009723 -14.004872 28.432571 -0.203870 2.085830 0.018253 -0.003893 519695.000000 0 0 1
22.873842 -4.782923 -13.632272 27.054165 -0.206130 2.098891 0.018376 0.005569 831601.000000 0 0 1
21.949742 -5.264823 -14.608672 26.887224 -0.235411 2.145197 0.017631 0.002690 -496704.000000 0 0 1
20.500742 -5.475123 -14.093472 25.473189 -0.260978 2.157077 0.024544 -0.002111 48489.700000 0 0 1
20.373142 -6.542023 -13.164072 25.122814 -0.310710 2.122324 0.029276 0.002403 374984.000000 0 0 1
20.586942 -6.145923 -11.794472 24.509266 -0.290112 2.072848 0.041224 -0.001944 -392169.000000 0 1 0
20.399242 -7.356123 -10.780072 24.216762 -0.346093 2.032137 0.048313 -0.004060 846170.000000 0 1 0
19.094242 -8.002023 -10.776672 23.340075 -0.396846 2.050734 0.050149 -0.004007 1573600.000000 0 1 0
18.992042 -9.001923 -11.848172 24.126986 -0.442619 2.084120 0.047164 -0.006106 110315.000000 0 1 0
17.583842 -9.697423 -11.758772 23.270158 -0.503991 2.100544 0.066453 -0.012380 379296.000000 0 1 0
16.639742 -8.659523 -11.839372 22.181954 -0.479844 2.133812 0.057076 -0.011900 -747251.000000 0 1 0
15.348242 -9.159323 -12.050372 21.556280 -0.538039 2.163999 0.052410 -0.016106 -412967.000000 0 1 0
14.304542 -8.092723 -12.371972 20.571285 -0.514851 2.216073 0.040991 -0.009629 -408873.000000 0 1 0
14.537642 -7.315723 -13.573272 21.191898 -0.466225 2.265937 0.048392 -0.007024 512102.000000 0 1 0
15.425142 -6.239923 -13.318272 21.313095 -0.384405 2.245783 0.036627 -0.008950 -973.932000 0 1 0
15.302042 -5.296923 -14.512572 21.744531 -0.333248 2.301525 0.026301 -0.003609 588384.000000 0 1 0
14.153342 -4.443423 -14.310472 20.611907 -0.304204 2.338218 0.028446 -0.005350 849217.000000 0 1 0
13.913642 -3.485523 -15.338472 21.000167 -0.245460 2.389700 0.027560 -0.007228 -57157.300000 0 1 0
14.942542 -2.342523 -15.445072 21.617521 -0.155503 2.366663 0.018529 -0.012280 461378.000000 0 1 0
16.061542 -2.579223 -16.348272 23.062774 -0.159224 2.358677 0.014710 -0.005518 874936.000000 0 1 0
17.125442 -1.678623 -16.211072 23.641011 -0.097707 2.326386 0.026310 -0.001657 -40458.500000 0 1 0
18.164442 -2.044123 -15.126672 23.726391 -0.112063 2.262105 0.024593 -0.003093 -785032.000000 0 1 0
17.756942 -1.921923 -13.760572 22.546754 -0.107815 2.227252 0.026636 -0.000378 502369.000000 0 1 0
18.869442 -2.326923 -12.989272 23.025890 -0.122698 2.170159 0.028028 0.002038 161168.000000 0 1 0
18.466942 -2.637823 -11.536472 21.933450 -0.141880 2.124659 0.034219 0.003951 -70977.200000 0 1 0
18.044742 -1.533923 -10.737572 21.053767 -0.084803 2.105989 0.029802 0.002626 650001.000000 0 1 0
17.573242 -1.963623 -9.517072 20.081069 -0.111278 2.064548 0.030646 0.003817 -1216860.000000 0 1 0
17.422842 -0.800223 -8.568972 19.432526 -0.045897 2.027465 0.018147 0.001818 -52197.300000 0 1 0
18.585942 -0.337723 -7.870872 20.186677 -0.018169 1.971324 0.017949 0.002910 1733100.000000 0 1 0
19.729442 0.192077 -8.587572 21.518229 0.009735 1.981314 0.025683 0.002013 550885.000000 0 1 0
19.475942 1.416377 -9.505472 21.718021 0.072597 2.023809 0.027771 -0.001176 -702636.000000 0 1 0
19.169842 2.591377 -8.823572 21.261550 0.134365 1.998741 0.015587 0.002956 651961.000000 0 1 0
18.684142 3.573377 -9.725272 21.364623 0.188970 2.043398 0.014277 -0.005397 -549108.000000 0 1 0
18.627142 4.976077 -9.066272 21.305611 0.261045 2.010349 0.029090 0.000416 -460767.000000 0 1 0
17.969542 5.907377 -9.865772 21.333894 0.317614 2.051548 0.022386 -0.002083 481811.000000 0 1 0
18.348142 7.177277 -9.383072 21.822229 0.372873 2.015264 0.033090 -0.010424 -109839.000000 0 1 0
-25.433758 -29.440933 5.765928 39.330528 0.858293 1.423664 0.032111 -0.013052 -306018.000000 0 0 1
-25.577318 -28.562423 6.861428 38.949844 0.840479 1.393712 0.048674 -0.016480 599021.000000 0 0 1
-24.555458 -27.512613 6.855228 37.508779 0.842131 1.387000 0.036987 -0.014258 276397.000000 0 0 1
-24.925558 -26.316293 7.722728 37.060373 0.812532 1.360876 0.037997 -0.014471 -221110.000000 0 0 1
-26.061838 -25.542853 7.346828 37.224086 0.775342 1.372124 0.034920 -0.012946 -230472.000000 0 0 1
-27.334408 -26.048383 7.564128 38.508494 0.761312 1.373083 0.037933 -0.012112 -628617.000000 0 0 1
-27.818418 -26.236473 9.054128 39.296235 0.756141 1.338300 0.030203 -0.009015 -558002.000000 0 0 1
-26.990688 -27.152883 9.721028 39.500312 0.788394 1.322142 0.036128 -0.010219 -228377.000000 0 0 1
-27.466448 -27.440873 10.995028 40.352173 0.784932 1.294830 0.029943 -0.002017 -1018.240000 0 0 1
-26.363328 -28.238383 11.773428 40.386197 0.819725 1.274980 0.017262 -0.000733 1265060.000000 0 0 1
-25.163258 -27.512323 12.085128 39.193976 0.829964 1.257347 0.025555 0.000329 490691.000000 0 0 1
-25.301488 -26.528513 13.099128 38.929608 0.809068 1.227617 0.029494 0.004527 -871803.000000 0 0 1
-23.962158 -26.144673 13.707328 38.021306 0.828928 1.201974 0.043647 -0.000029 -354290.000000 0 0 1
-23.261658 -27.136123 14.433028 38.545897 0.862125 1.187006 0.059304 -0.002476 -187828.000000 0 0 1
-22.243158 -26.536203 15.194128 37.812559 0.873181 1.157285 0.057198 -0.005003 18642.400000 0 0 1
-21.386658 -27.514403 16.014728 38.352353 0.910057 1.140029 0.051275 -0.009486 -101203.000000 0 0 1
-22.194658 -28.074073 17.034128 39.634807 0.901829 1.126551 0.046592 -0.009694 221382.000000 0 0 1
-21.601558 -29.166093 17.715828 40.387360 0.933313 1.116703 0.054305 -0.009535 -209161.000000 0 0 1
-22.602558 -30.064943 18.466128 41.901960 0.926150 1.114420 0.064410 -0.017373 -72667.200000 0 0 1
-23.579758 -30.686533 17.641628 42.531110 0.915618 1.143080 0.017671 -0.010045 205844.000000 0 0 1
-24.088458 -31.782153 18.353328 43.899928 0.922243 1.139474 0.018474 -0.007109 -222924.000000 0 0 1
-25.183998 -32.589763 17.603528 44.790742 0.912889 1.166886 0.009544 -0.007200 131865.000000 0 0 1
-24.712958 -33.283603 16.468828 44.606623 0.932115 1.192647 0.012978 -0.004361 446347.000000 0 0 1
-25.684668 -34.274204 16.092928 45.753749 0.927687 1.211379 0.013040 -0.001975 -496013.000000 0 0 1
-25.302208 33.672112 14.942628 44.691106 -0.926381 1.229877 0.009054 -0.010141 -21762.100000 0 0 1
-24.077558 32.959063 15.081528 43.514149 -0.939873 1.216864 -0.003284 -0.010832 382948.000000 0 0 1
-22.981858 33.781364 14.720028 43.428396 -0.973407 1.224996 0.007739 -0.008249 -1170820.000000 0 0 1
-21.632858 33.082045 14.858428 42.227658 -0.991674 1.211234 0.035814 -0.020210 -368856.000000 0 0 1
-21.524558 32.050177 13.906428 41.035463 -0.979393 1.225062 0.029346 -0.017217 9034.290000 0 0 1
-20.246658 31.469107 14.022528 39.960770 -0.999088 1.212256 0.032342 -0.018557 -51442.800000 0 0 1
-19.895558 30.442637 12.911928 38.591518 -0.991935 1.229637 0.024295 -0.017325 89723.000000 0 0 1
-19.662858 30.971307 11.630628 38.485340 -1.005129 1.263787 0.012517 -0.008097 5240.840000 0 0 1
-19.644158 29.965607 10.636528 37.376012 -0.990525 1.282226 0.023771 -0.012645 79828.400000 0 0 1
-19.272658 30.582587 9.269928 37.318381 -1.008478 1.319767 0.018588 -0.006886 -181483.000000 0 0 1
-17.969058 31.135377 9.163128 37.098001 -1.047365 1.321215 0.016420 -0.009574 -18277.500000 0 0 1
-17.565758 31.407447 7.826228 36.827075 -1.060851 1.356650 0.023771 -0.007861 194069.000000 0 0 1
-17.031658 30.156887 7.062528 35.346775 -1.056685 1.369636 0.025119 -0.008324 -484907.000000 0 0 1
-18.016758 29.194957 6.723928 34.959409 -1.017884 1.377255 0.021638 -0.003724 -226564.000000 0 0 1
-17.795658 27.842997 7.173328 33.813822 -1.002091 1.357030 0.016542 -0.003045 -258217.000000 0 0 1
-18.816958 26.823347 6.634128 33.430249 -0.959055 1.371023 0.019372 0.003668 -250621.000000 0 0 1
-18.643858 26.622087 5.262628 32.924523 -0.959859 1.410269 0.030587 -0.003229 716120.000000 0 0 1
-19.646658 25.796187 4.625428 32.754069 -0.919906 1.429106 0.030417 -0.004234 -67654.000000 0 0 1
-19.163158 25.006087 3.374528 31.684672 -0.916920 1.464090 0.041854 -0.009174 -908773.000000 0 0 1
-18.902458 25.711927 2.195928 31.987939 -0.936859 1.502094 0.042562 -0.002795 1666020.000000 0 0 1
-17.630958 26.412577 2.001028 31.819476 -0.982202 1.507868 0.036995 -0.005199 1255720.000000 0 0 1
-16.216758 25.805577 2.185628 30.556309 -1.009741 1.499207 0.044254 -0.007295 50084.000000 0 0 1
-15.915758 24.729217 1.347828 29.439127 -0.998932 1.524997 0.051629 -0.010063 86065.600000 0 0 1
-15.737358 25.059377 -0.059672 29.591221 -1.010041 1.572813 0.052920 -0.008043 -380651.000000 0 0 1
-15.480458 23.838487 -0.895872 28.438014 -0.994851 1.602304 0.052758 -0.016416 -460089.000000 0 0 1
-16.598658 23.041087 -1.138972 28.420141 -0.946514 1.610883 0.056207 -0.028259 -219726.000000 0 0 1
-16.380558 21.875287 -1.945672 27.397746 -0.928054 1.641872 0.053003 -0.027938 2708.380000 0 0 1
-15.437358 20.767687 -1.333772 25.911152 -0.931574 1.622294 0.055356 -0.033767 22305.600000 0 0 1
-15.955558 19.872387 -0.384572 25.488027 -0.894289 1.585885 0.060149 -0.041566 37269.600000 0 0 1
-15.005658 18.932087 0.130428 24.158036 -0.900581 1.565397 0.075524 -0.042776 296589.000000 0 1 0
-15.742958 17.790887 0.876728 23.772359 -0.846393 1.533908 0.066465 -0.037212 231977.000000 0 1 0
-16.420058 16.791487 0.156328 23.486098 -0.796581 1.564140 0.051330 -0.037076 247634.000000 0 1 0
-17.230858 16.035587 1.007128 23.559644 -0.749483 1.528035 0.060126 -0.043786 -438819.000000 0 1 0
-17.791458 14.838987 0.295628 23.169353 -0.695162 1.558037 0.067749 -0.038287 -738906.000000 0 1 0
-18.807258 15.171087 -0.594272 24.170809 -0.678790 1.595385 0.071116 -0.039731 -347560.000000 0 1 0
-19.541458 14.047687 -0.897872 24.083444 -0.623276 1.608087 0.061273 -0.029935 -1196710.000000 0 1 0
-20.471958 14.214187 -2.104672 25.011474 -0.606907 1.655044 0.050692 -0.022141 -1354140.000000 0 0 1
-21.299158 13.136587 -2.463672 25.145452 -0.552656 1.668931 0.038119 -0.017465 874085.000000 0 0 1
-22.365958 12.765787 -1.586272 25.801505 -0.518648 1.632315 0.045494 -0.017254 -82248.300000 0 0 1
-23.443258 13.854387 -1.333872 27.263705 -0.533757 1.619741 0.041493 -0.022164 -931728.000000 0 0 1
-22.946258 14.837487 -0.448872 27.329165 -0.573995 1.587222 0.040925 -0.039473 62046.900000 0 0 1
-23.987458 15.743187 -0.227772 28.693169 -0.580798 1.578735 0.023288 -0.031034 -356890.000000 0 0 1
-23.674758 16.959087 0.694628 29.130522 -0.621606 1.546949 0.025326 -0.034862 -229671.000000 0 0 1
-23.539558 16.561487 2.063928 28.855735 -0.613111 1.499209 0.029774 -0.041321 174781.000000 0 0 1
-23.236258 17.620587 2.924128 29.308007 -0.648807 1.470858 0.025091 -0.040029 -35831.800000 0 0 1
-24.465358 18.460687 3.350328 30.831403 -0.646416 1.461915 0.033014 -0.037001 7502.740000 0 0 1
-25.432848 17.695587 4.054928 31.247496 -0.607886 1.440661 0.039999 -0.033209 196943.000000 0 0 1
-26.703118 18.297287 4.181528 32.639430 -0.600732 1.442330 0.040506 -0.033070 786869.000000 0 0 1
-27.713848 17.986987 2.987528 33.174002 -0.575690 1.480618 0.033291 -0.023893 -659692.000000 0 0 1
-28.989378 18.456287 3.179928 34.512759 -0.566938 1.478528 0.038855 -0.015369 -684007.000000 0 0 1
-29.705138 18.715587 2.000728 35.166338 -0.562219 1.513872 0.025959 -0.012204 49607.900000 0 0 1
-30.893918 19.689587 2.177228 36.699514 -0.567416 1.511436 0.026236 -0.015049 266228.000000 0 0 1
-32.011038 19.149187 2.878928 37.412380 -0.539099 1.493769 0.026177 -0.009556 793844.000000 0 0 1
-33.148508 20.006887 2.939328 38.829612 -0.543028 1.495026 0.036148 -0.008835 353662.000000 0 0 1
-33.221748 20.755887 4.290928 39.406896 -0.558433 1.461692 0.043408 -0.018333 -227247.000000 0 0 1
-32.110098 21.600787 4.564228 38.967738 -0.592175 1.453398 0.030344 -0.010395 697523.000000 0 0 1
-32.364298 22.248687 5.808228 39.701226 -0.602250 1.423971 0.039304 -0.013755 -329801.000000 0 0 1
-31.277578 23.239387 6.218228 39.459123 -0.639009 1.412550 0.036026 -0.012211 -432902.000000 0 0 1
-31.164068 24.346177 5.315928 39.902313 -0.663188 1.437176 0.033681 -0.002689 -49970.100000 0 0 1
-30.268028 25.269107 5.839528 39.859521 -0.695630 1.423764 0.025520 -0.006112 -518240.000000 0 0 1
-30.762658 26.709407 5.671628 41.132723 -0.714989 1.432470 0.013803 -0.001784 -149986.000000 0 0 1
-31.817978 27.026497 6.574628 42.261578 -0.704151 1.414592 0.022133 0.004199 269361.000000 0 0 1
-32.109588 28.373047 6.298928 43.309721 -0.723698 1.424840 0.011674 0.006380 -441243.000000 0 0 1
-33.212468 28.905917 7.203228 44.615093 -0.716181 1.408634 0.011745 0.004821 -1006130.000000 0 0 1
-32.777438 29.290467 8.491728 44.770541 -0.729277 1.379968 0.017871 -0.006164 -462035.000000 0 0 1
-33.787758 29.855987 9.223528 46.022451 -0.723699 1.369016 0.021388 -0.004423 -758189.000000 0 0 1
-35.056207 29.124547 9.660128 46.588571 -0.693239 1.361931 0.013474 0.003486 -430613.000000 0 0 1
-34.692877 27.857117 10.273528 45.663553 -0.676545 1.343871 0.022385 -0.008706 47733.800000 0 0 1
35.511273 27.429097 11.253028 46.260529 0.657687 1.325078 0.014658 -0.004134 -154663.000000 0 0 1
-35.138967 26.092027 11.897828 45.355256 -0.638708 1.305365 0.037430 -0.005762 -404054.000000 0 0 1
-34.078146 26.326927 12.798228 44.924623 -0.657775 1.281913 0.040216 -0.012584 -370133.000000 0 0 1
-33.541438 25.130657 13.230828 43.950345 -0.643016 1.265013 0.051172 -0.018438 256194.000000 0 0 1
-32.272948 25.398717 14.107628 43.424223 -0.666762 1.239912 0.052377 -0.020920 292819.000000 0 0 1
-32.565418 26.390177 15.055128 44.537678 -0.681035 1.225972 0.036166 -0.008960 -29468.900000 0 0 1
-31.455718 26.770827 15.849328 44.241842 -0.705111 1.204411 0.051284 -0.007776 37753.300000 0 0 1
-31.791458 27.803887 16.944028 45.506626 -0.718587 1.189265 0.031335 -0.007350 -468757.000000 0 0 1
-31.879858 29.077677 16.312628 46.129584 -0.739461 1.209351 0.038997 -0.012941 180288.000000 0 0 1
-32.208338 30.121907 17.245328 47.350899 -0.751937 1.198020 0.026246 -0.014679 -154212.000000 0 0 1
-32.005008 31.484457 16.561328 47.852577 -0.777199 1.217395 0.023034 -0.014004 701821.000000 0 0 1
-30.631038 31.676417 16.202928 46.948810 -0.802174 1.218431 0.012821 -0.007999 418820.000000 0 0 1
-30.471968 32.904217 15.588228 47.478639 -0.823757 1.236271 0.008437 -0.001356 641735.000000 0 0 1
-28.996218 33.134425 15.056928 46.533664 -0.851905 1.241296 0.026003 -0.008656 699511.000000 0 0 1
-28.446578 32.319537 14.027928 45.282922 -0.849048 1.255830 0.030749 -0.013118 276138.000000 0 0 1
-28.216858 30.898607 14.323028 44.227414 -0.830732 1.241001 0.030369 -0.012412 156109.000000 0 0 1
-29.404288 29.920957 13.983028 44.219915 -0.794107 1.249059 0.050811 -0.020301 415004.000000 0 0 1
-29.604528 29.696237 12.656428 43.800454 -0.786945 1.277660 0.064168 -0.029830 -185183.000000 0 0 1
-30.656628 28.770967 12.506428 43.863517 -0.753678 1.281663 0.075411 -0.029002 75852.100000 0 0 1
-30.809998 28.389217 10.963928 43.306020 -0.744529 1.314837 0.063558 -0.021714 460914.000000 0 0 1
-29.733088 27.535417 10.546728 41.874684 -0.747042 1.316190 0.065535 -0.016261 292670.000000 0 0 1
-29.469278 27.851747 9.226528 41.584696 -0.757187 1.347061 0.056302 -0.018075 -157562.000000 0 0 1
-28.260388 27.080337 8.646428 40.084347 -0.764078 1.353382 0.043949 -0.013915 116548.000000 0 0 1
-27.894548 27.616807 7.408228 39.945909 -0.780395 1.384260 0.031153 -0.008208 86834.000000 0 0 1
-26.753218 26.967567 6.849428 38.599210 -0.789388 1.392402 0.025786 -0.007937 148854.000000 0 0 1
-26.532858 27.306957 5.384128 38.453235 -0.799775 1.430317 0.016011 -0.016435 -256461.000000 0 0 1
-25.867428 28.535107 5.180728 38.861499 -0.834395 1.437086 0.023141 -0.009412 119581.000000 0 0 1
-25.726448 28.759837 3.834528 38.777338 -0.841013 1.471749 0.021136 -0.004988 -820393.000000 0 0 1
-24.635958 29.715767 3.426828 38.751779 -0.878589 1.482250 0.023369 -0.007541 -124318.000000 0 0 1
-23.324758 29.195947 3.670628 37.548917 -0.896724 1.472884 0.017313 -0.007333 358014.000000 0 0 1
-22.335558 30.137107 3.333928 37.659494 -0.932995 1.482152 0.026043 -0.010992 959248.000000 0 0 1
-20.849058 29.686427 3.588728 36.453342 -0.958522 1.472189 0.019894 -0.010273 763172.000000 0 0 1
-19.909958 30.654167 3.298728 36.701035 -0.994771 1.480794 0.015868 -0.009252 777369.000000 0 0 1
-18.539958 30.251797 3.616928 35.664877 -1.020978 1.469207 0.020834 -0.010685 1956700.000000 0 0 1
-17.450358 31.248997 3.140828 35.928813 -1.061504 1.483267 0.025428 -0.008763 211334.000000 0 0 1
-17.464958 32.485497 3.842928 37.082346 -1.077505 1.466978 0.022180 -0.005891 130808.000000 0 0 1
-16.292158 33.273282 3.661028 37.228334 -1.115465 1.472297 0.022846 0.004911 72361.300000 0 0 1
-16.187158 -34.262353 4.405528 38.148939 1.129433 1.455056 0.023629 0.003297 181474.000000 0 0 1
-17.102158 -33.248673 3.946928 37.597025 1.095718 1.465623 0.024195 -0.001915 403641.000000 0 0 1
-16.968558 -32.128973 4.832028 36.654486 1.084892 1.438585 0.014011 -0.002355 338450.000000 0 0 1
-18.171758 -31.130703 4.856528 36.371957 1.042430 1.436872 0.013234 -0.004021 261152.000000 0 0 1
-18.299258 -30.341253 3.709228 35.626013 1.028090 1.466492 0.017156 -0.002382 276359.000000 0 0 1
-19.346758 -29.392303 3.877428 35.401115 0.988661 1.461048 0.024083 -0.008127 22686.100000 0 0 1
-19.559058 -28.388273 2.690828 34.578770 0.967502 1.492900 0.018282 -0.002294 -67647.500000 0 0 1
-18.550958 -27.434533 2.484928 33.210939 0.976230 1.495904 0.017565 -0.009010 -147763.000000 0 0 1
-19.001758 -26.423683 1.593128 32.585516 0.947354 1.521886 0.009555 -0.004277 132846.000000 0 0 1
-18.049558 -25.195813 1.558928 31.032979 0.949167 1.520541 0.013744 -0.002940 542937.000000 0 0 1
-16.797458 -25.579973 1.007628 30.618702 0.989750 1.537881 0.020789 -0.007466 -504195.000000 0 0 1
-15.844058 -24.568523 1.107528 29.255309 0.998020 1.532930 0.028109 -0.006511 140649.000000 0 0 1
-14.460958 -24.972823 0.510728 28.862121 1.045910 1.553100 0.034115 -0.010666 62708.500000 0 0 1
-14.375658 -25.059573 -0.895272 28.904035 1.049970 1.601775 0.027429 -0.010072 -49103.600000 0 0 1
-14.621458 -23.862123 -1.573172 28.029677 1.021056 1.626951 0.028488 -0.009099 -375511.000000 0 0 1
-14.821858 -24.078023 -3.115472 28.445471 1.019002 1.680541 0.017493 -0.003049 389112.000000 0 0 1
-13.670658 -24.537623 -3.822872 28.347772 1.062495 1.706065 0.025245 -0.005467 414596.000000 0 0 1
-14.043758 -24.784223 -5.173572 28.952559 1.055267 1.750453 0.024370 -0.004440 113021.000000 0 0 1
-12.804058 -25.197683 -5.976772 28.889252 1.100655 1.779187 0.036208 -0.006439 -7429.210000 0 0 1
-12.271758 -26.500603 -5.660072 29.747511 1.137123 1.762234 0.045467 -0.012119 -218054.000000 0 0 1
-11.430158 -26.823473 -6.760472 29.930773 1.167973 1.798633 0.031121 -0.008336 22211.300000 0 0 1
23.062442 13.288477 28.582771 39.056813 0.522732 0.749800 0.028913 0.001674 -279548.000000 0 0 1
23.494642 11.954177 28.544281 38.854556 0.470666 0.745654 0.031318 -0.000914 243003.000000 0 0 1
22.845542 11.066477 29.448571 38.879352 0.451093 0.711421 0.036903 -0.006151 -284197.000000 0 0 1
22.973842 11.335377 30.919981 40.153872 0.458357 0.691897 0.043639 -0.004094 276503.000000 0 0 1
22.104642 12.389177 31.347931 40.308804 0.510853 0.679806 0.038047 -0.007077 287593.000000 0 0 1
22.362742 12.755377 32.675361 41.598931 0.518359 0.667316 0.034508 -0.007367 -266965.000000 0 0 1
21.343842 13.771577 33.167385 41.776684 0.573011 0.653566 0.026849 -0.002131 -1168870.000000 0 0 1
20.189542 13.263277 33.683110 41.449778 0.581237 0.622155 0.024911 0.001817 -1423440.000000 0 0 1
19.401842 14.255577 34.210789 41.833372 0.633672 0.613241 0.029112 0.005586 256934.000000 0 0 1
18.172242 13.650577 -33.728632 40.671726 0.644254 2.548631 0.017195 0.015178 1195390.000000 0 0 1
17.070942 13.306177 34.173456 40.451162 0.662093 0.564591 0.012471 0.019459 817178.000000 0 0 1
15.960242 12.780077 -33.831132 39.529802 0.675195 2.597966 0.004033 0.017667 1054470.000000 0 0 1
14.803542 12.262177 33.992145 39.050887 0.691777 0.514665 0.005152 0.022585 449831.000000 0 0 1
15.031742 11.052477 33.328552 38.195587 0.634011 0.510345 -0.005308 0.035087 25350.300000 0 0 1
13.931042 10.685077 32.494881 36.934565 0.654291 0.495364 0.001364 0.030613 312215.000000 0 0 1
14.243542 9.510777 31.562581 35.910025 0.588735 0.497172 0.003494 0.034572 -10974.800000 0 0 1
14.344042 8.327277 32.260171 36.274147 0.525987 0.474889 -0.001911 0.027950 -257867.000000 0 0 1
15.194242 7.481077 31.549991 35.808287 0.457519 0.492654 -0.002479 0.008252 -253961.000000 0 0 1
15.241742 6.019477 32.147711 36.083516 0.376131 0.471418 0.017981 0.002439 -76131.600000 0 0 1
14.153742 5.095477 32.053681 35.408061 0.345564 0.438793 0.003316 0.005937 -117795.000000 0 0 1
14.479042 3.807977 32.544511 35.823017 0.257175 0.431163 0.014259 -0.000258 -47988.700000 0 0 1
13.311142 2.804077 32.663861 35.383289 0.207621 0.394617 0.004889 -0.002937 -165240.000000 0 0 1
13.819942 1.529177 32.944154 35.758166 0.110202 0.399375 0.013161 -0.012537 -396161.000000 0 0 1
12.770542 0.739277 33.392532 35.758837 0.057825 0.365833 0.007535 -0.012550 -543677.000000 0 0 1
13.208842 -0.685623 33.841099 36.334055 -0.051860 0.372589 -0.009104 -0.015293 -150486.000000 0 0 1
13.381742 -1.502923 32.744034 35.404824 -0.111843 0.390164 -0.025567 -0.015608 255275.000000 0 0 1
14.013342 -2.742523 33.122487 36.069299 -0.193265 0.407028 0.031370 -0.026118 -233250.000000 0 0 1
14.102142 -3.865623 32.023171 35.203649 -0.267544 0.428344 0.037201 -0.026210 -669220.000000 0 0 1
14.668342 -5.132923 32.498191 36.022764 -0.336614 0.446053 0.059856 -0.024949 1266700.000000 0 0 1
16.058542 -5.280123 32.821173 36.918638 -0.317669 0.475610 0.055811 -0.026822 1174360.000000 0 0 1
17.178642 -4.795423 31.861931 36.514168 -0.272221 0.510315 0.047296 -0.031218 -360309.000000 0 0 1
17.060842 -3.409823 31.666461 36.131205 -0.197263 0.502399 0.042093 -0.034415 82215.800000 0 0 1
18.177142 -2.750423 31.055391 36.088927 -0.150173 0.534499 0.065352 -0.039310 255660.000000 0 0 1
18.143342 -1.237823 31.000601 35.940928 -0.068119 0.530522 0.068938 -0.039168 -677977.000000 0 0 1
18.353942 -0.725423 32.330011 37.183639 -0.039504 0.516671 0.059407 -0.030644 151096.000000 0 0 1
18.240242 0.672877 32.508391 37.282096 0.036873 0.511610 0.053882 -0.015448 21757.200000 0 0 1
19.422242 1.550977 32.008441 37.472247 0.079687 0.546804 0.057373 -0.014636 -46104.900000 0 0 1
19.567242 1.532677 30.558331 36.318558 0.078169 0.570933 0.049945 -0.019844 186104.000000 0 0 1
20.572242 2.325677 29.923381 36.387287 0.112571 0.605253 0.046769 -0.012681 249618.000000 0 0 1
20.298142 3.867277 29.875231 36.324920 0.188267 0.605101 0.044005 -0.005413 -175330.000000 0 0 1
20.311442 4.472677 31.147661 37.453121 0.216746 0.588735 0.039591 -0.005541 429323.000000 0 0 1
19.757342 5.800677 31.179351 37.365122 0.285571 0.583661 0.034430 -0.004158 -291559.000000 0 0 1
19.416542 6.136377 32.656401 38.485033 0.306105 0.557561 0.038233 0.003093 -85915.700000 0 0 1
18.262342 5.465277 33.123832 38.217413 0.290782 0.522206 0.028023 0.012266 145571.000000 0 0 1
17.999142 5.784277 -34.260596 39.130748 0.310940 2.637352 0.019787 0.017361 -417899.000000 0 0 1
16.884942 5.027777 -33.561242 37.904311 0.289407 2.658194 0.024082 0.013367 -386898.000000 0 0 1
17.169942 3.633577 -33.668492 37.968107 0.208547 2.661078 0.016144 0.011120 -237035.000000 0 0 1
16.165142 2.928977 -33.035812 36.895198 0.179246 2.680116 0.002767 0.005667 -503331.000000 0 0 1
16.076442 1.438577 -33.358072 37.057826 0.089246 2.690939 0.014813 -0.008196 446129.000000 0 0 1
17.271342 0.689877 -33.043932 37.291777 0.039922 2.659640 0.014024 -0.008014 761875.000000 0 0 1
17.041542 -0.703623 -32.883502 37.043676 -0.041265 2.663112 0.024361 -0.011230 -492366.000000 0 0 1
18.188642 -1.403723 -32.140852 36.957158 -0.077023 2.625347 0.023511 -0.011573 -367923.000000 0 0 1
18.185642 -1.460823 -30.724912 35.733343 -0.080156 2.605750 0.025139 -0.008895 287996.000000 0 0 1
18.376742 -0.239923 -30.057792 35.231138 -0.013055 2.592809 0.026955 -0.004173 -333435.000000 0 0 1
18.090342 -0.293323 -28.542722 33.793986 -0.016213 2.576632 0.018581 -0.006333 112598.000000 0 0 1
16.744142 -0.574523 -28.178542 32.783023 -0.034298 2.605179 0.021600 -0.011071 344367.000000 0 0 1
16.477542 -0.623323 -26.814192 31.478546 -0.037811 2.590255 0.014015 -0.010081 -222115.000000 0 0 1
17.033842 -1.867323 -26.072452 31.199542 -0.109188 2.560144 0.012121 -0.007934 352504.000000 0 0 1
18.411042 -1.676623 -25.735672 31.687574 -0.090816 2.518657 0.020670 -0.004146 316607.000000 0 0 1
19.267242 -2.781523 -25.736552 32.269701 -0.143375 2.494012 0.018993 -0.000903 502110.000000 0 0 1
20.027542 -2.984323 -27.103272 33.831878 -0.147922 2.499955 0.021708 -0.008480 369103.000000 0 0 1
21.149342 -2.111823 -27.300102 34.598411 -0.099523 2.480068 0.022556 -0.003990 290552.000000 0 0 1
21.706542 -2.197823 -28.588332 35.962441 -0.100908 2.489721 0.013107 -0.009122 395239.000000 0 0 1
23.174142 -1.721023 -28.725512 36.948042 -0.074129 2.461409 0.011212 -0.011635 1046310.000000 0 0 1
24.207142 -2.699923 -28.476612 37.472560 -0.111075 2.434005 0.011147 -0.011952 643975.000000 0 0 1
25.473842 -2.333323 -28.991402 38.663451 -0.091342 2.418617 0.005199 -0.008023 48281.100000 0 0 1
26.532242 -3.407023 -28.720902 39.248667 -0.127712 2.391708 -0.004770 -0.010236 -269536.000000 0 0 1
26.398842 -4.555823 -29.584572 39.911168 -0.170893 2.405743 0.005163 -0.015955 77132.200000 0 0 1
27.206142 -5.634823 -29.143032 40.264646 -0.204228 2.380071 0.001297 -0.016613 -346383.000000 0 0 1
26.810142 -6.569723 -27.994272 39.314428 -0.240311 2.363226 0.003023 -0.012088 -318711.000000 0 0 1
27.058442 -6.044823 -26.698542 38.490406 -0.219790 2.337329 -0.000666 -0.003602 137356.000000 0 0 1
26.686142 -6.967723 -25.749782 37.732620 -0.255397 2.321875 -0.009879 -0.003785 -315053.000000 0 0 1
26.768142 -6.368823 -24.320572 36.723093 -0.233583 2.294640 -0.022080 0.003014 1238460.000000 0 0 1
28.133342 -6.282423 -23.830072 37.400884 -0.219704 2.261595 -0.025627 0.003168 1475870.000000 0 0 1
28.021742 -5.777723 -22.535172 36.420243 -0.203338 2.237952 -0.015300 -0.001137 435816.000000 0 0 1
29.443042 -5.436423 -21.988072 37.147311 -0.182586 2.204230 -0.012486 -0.001448 171279.000000 0 0 1
29.939042 -4.288223 -22.615372 37.764933 -0.142264 2.212855 -0.009042 -0.007478 850743.000000 0 0 1
31.259442 -3.945523 -22.142972 38.510143 -0.125555 2.183389 -0.000680 -0.009303 679641.000000 0 0 1
31.779342 -2.645923 -22.777172 39.188354 -0.083068 2.191027 -0.005641 -0.009591 -129340.000000 0 0 1
31.119542 -1.489823 -22.287572 38.306414 -0.047838 2.191765 -0.021119 -0.007077 561295.000000 0 0 1
31.774042 -0.301023 -22.725372 39.065623 -0.009474 2.191642 -0.010601 -0.005719 -265442.000000 0 0 1
30.858042 0.854177 -22.409072 38.145968 0.027674 2.198708 -0.016240 -0.001374 -755080.000000 0 0 1
29.709942 0.862777 -23.189172 37.698312 0.029032 2.233341 -0.015171 0.003383 -169765.000000 0 0 1
28.716542 1.756577 -22.678772 36.634029 0.061093 2.238345 -0.012924 0.002373 -434326.000000 0 0 1
27.494242 1.696277 -23.561572 36.248564 0.061618 2.278381 -0.003649 -0.000611 -655930.000000 0 0 1
26.454342 2.609577 -23.226572 35.300365 0.098326 2.288916 0.002928 -0.001328 181061.000000 0 0 1
25.658342 2.906077 -24.334072 35.481585 0.112780 2.326530 0.012455 -0.003966 -282419.000000 0 0 1
24.581842 3.943877 -23.957172 34.550937 0.159083 2.336975 0.019385 -0.003071 -645569.000000 0 0 1
25.119842 5.178477 -23.760072 34.962324 0.203303 2.318001 0.006972 -0.003617 -18476.900000 0 0 1
24.152842 6.182677 -23.524372 34.278001 0.250600 2.327161 0.023619 -0.008355 -152211.000000 0 0 1
24.750242 7.544077 -23.057672 34.657522 0.295862 2.298693 0.029939 -0.004575 -95196.100000 0 0 1
25.298242 8.253977 -24.135472 35.925621 0.315377 2.307457 0.019381 -0.003173 236227.000000 0 0 1
25.749842 9.537577 -23.638972 36.232869 0.354726 2.281567 0.034277 -0.004772 -598747.000000 0 0 1
26.403542 10.330177 -24.775872 37.652403 0.372934 2.288977 0.050961 -0.007170 -242153.000000 0 0 1
25.604242 10.706477 -25.898312 37.959563 0.396056 2.321646 0.043011 -0.023311 789693.000000 0 0 1
24.437242 11.509277 -25.680602 37.271109 0.440157 2.330935 0.047349 -0.029992 623990.000000 0 0 1
23.765542 11.968777 -27.021792 37.924001 0.466539 2.363886 0.041597 -0.030761 -83261.200000 0 0 1
23.223342 10.942077 -27.856822 37.882123 0.440316 2.396987 0.040607 -0.023157 682740.000000 0 0 1
24.117242 9.921777 -28.417862 38.570169 0.390293 2.399097 0.037369 -0.025779 509419.000000 0 0 1
25.109842 10.393077 -29.543502 40.141484 0.392435 2.397916 0.040092 -0.019086 -282298.000000 0 0 1
26.161242 11.237277 -29.109072 40.718854 0.405709 2.367248 0.035132 -0.014066 741460.000000 0 0 1
27.118342 11.588977 -30.094292 42.135203 0.403858 2.366322 0.033621 -0.010303 -313925.000000 0 0 1
28.087342 10.588677 -30.620192 42.879075 0.360515 2.366142 0.029742 -0.003870 -1510000.000000 0 0 1
27.524942 9.676077 -31.547712 42.971003 0.338045 2.395229 0.036861 -0.013054 44800.800000 0 0 1
28.377642 8.606777 -31.863012 43.527218 0.294476 2.392086 0.033304 -0.005890 -396704.000000 0 0 1
27.752042 7.646877 -32.884482 43.704001 0.268871 2.422550 0.041948 -0.009231 -628643.000000 0 0 1
26.713242 7.011477 -32.234212 42.447645 0.256682 2.433168 0.042562 -0.008215 -730548.000000 0 0 1
26.041142 6.157977 -33.139812 42.594705 0.232206 2.462315 0.043043 -0.001277 -217237.000000 0 0 1
24.736042 5.575977 -32.590382 41.292812 0.221713 2.480384 0.048030 0.001264 94877.700000 0 0 1
23.518742 6.309077 -32.681612 40.755656 0.262087 2.501251 0.035027 0.001786 431864.000000 0 0 1
23.240842 7.100177 -31.569272 39.839280 0.296499 2.485556 0.040197 -0.005585 512932.000000 0 0 1
21.714442 7.470777 -31.542102 39.015814 0.331361 2.512300 0.031488 -0.002067 837158.000000 0 0 1
21.316442 8.383577 -32.548842 39.800781 0.374710 2.528364 0.030259 0.002972 -641079.000000 0 0 1
20.005042 8.815977 -32.380252 39.069219 0.415083 2.547742 0.014273 0.013246 -459640.000000 0 0 1
19.485542 9.930077 -33.343552 39.875873 0.471308 2.561084 0.017527 0.012391 -8017.570000 0 0 1
19.120642 9.486077 34.099951 40.229234 0.460536 0.559273 0.033479 0.010973 102964.000000 0 0 1
18.869842 10.490377 33.100829 39.519411 0.507387 0.577951 0.024747 0.009398 501962.000000 0 0 1
17.981342 9.923477 31.879301 37.922208 0.504283 0.572314 0.016401 0.010286 358708.000000 0 0 1
18.542142 8.884877 31.034231 37.227350 0.446847 0.585129 0.018221 0.001390 894113.000000 0 0 1
19.531442 9.282377 30.011361 36.990831 0.443655 0.624392 0.032636 -0.001379 446505.000000 0 0 1
19.106242 10.225877 28.814381 36.053926 0.491418 0.644829 0.024510 -0.005121 -298906.000000 0 0 1
18.145942 9.744577 27.892341 34.672968 0.492816 0.636063 0.017154 0.000952 315963.000000 0 0 1
16.870442 10.284177 28.232471 34.459375 0.547447 0.610612 0.012235 -0.003906 143841.000000 0 0 1
15.681642 9.627977 27.490311 33.080644 0.550625 0.589877 0.025592 -0.001764 -310250.000000 0 0 1
15.690842 9.874777 26.051921 31.975246 0.561710 0.618494 0.028211 -0.001133 -69691.400000 0 0 1
14.533842 9.355977 25.445671 30.761161 0.571960 0.596688 0.036051 -0.000964 -112197.000000 0 0 1
14.426942 7.820177 25.270541 30.131247 0.496722 0.575937 0.041608 0.003832 -169930.000000 0 0 1
14.294542 7.150777 26.516951 30.961528 0.463844 0.542446 0.028465 0.007157 101088.000000 0 0 1
13.898842 5.774977 26.367521 30.360737 0.393797 0.518680 0.035901 0.002202 -24902.200000 0 0 1
14.056942 4.888477 27.613931 31.369157 0.334680 0.494325 0.032522 0.003731 200940.000000 0 0 1
15.351542 4.347777 27.822281 32.072610 0.275987 0.520686 0.023160 0.004491 331057.000000 0 0 1
15.362942 3.866677 29.148471 33.175360 0.246567 0.497836 0.009484 0.004819 316538.000000 0 0 1
16.328042 2.679677 29.472011 33.799187 0.162665 0.511576 0.023853 -0.003951 200675.000000 0 0 1
15.908042 1.402477 28.980141 33.088991 0.087934 0.503655 0.017021 -0.014567 148829.000000 0 0 1
15.116842 0.762477 29.982171 33.586171 0.050396 0.467508 0.007280 -0.016556 53913.800000 0 0 1
14.756642 -0.760723 29.699421 33.172169 -0.051506 0.461667 0.006739 -0.021492 -1137540.000000 0 0 1
14.018142 -1.042923 28.582081 31.851709 -0.074261 0.457072 0.007132 -0.020169 -248518.000000 0 0 1
14.664142 -1.014123 27.305411 31.010498 -0.069047 0.493835 0.005390 -0.011607 -517616.000000 0 0 1
15.870242 -2.031523 27.193601 31.551285 -0.127316 0.531820 0.012513 -0.014714 578842.000000 0 0 1
17.077942 -1.737423 27.878091 32.739314 -0.101386 0.551924 0.019303 -0.018680 608780.000000 0 0 1
17.778442 -0.533523 27.489901 32.742210 -0.030001 0.574276 0.020077 -0.011552 -123778.000000 0 0 1
19.316342 -0.500423 27.748921 33.813815 -0.025901 0.608269 0.046410 -0.005999 824434.000000 0 0 1
20.139342 -1.350323 26.964901 33.682671 -0.066949 0.642572 0.037647 -0.012009 880049.000000 0 0 1
21.528742 -0.982523 27.083841 34.611942 -0.045606 0.672126 0.045569 -0.017064 1479400.000000 0 0 1
22.415342 -1.725423 25.980881 34.357398 -0.076824 0.713318 0.048227 -0.010329 328406.000000 0 0 1
22.481142 -0.974723 24.789821 33.479651 -0.043330 0.737065 0.046739 -0.003103 500467.000000 0 0 1
21.763442 -1.649923 23.731591 32.242178 -0.075667 0.743592 0.041915 0.007726 88004.900000 0 0 1
21.579642 -0.765223 22.442311 31.143600 -0.035446 0.766118 0.034664 -0.007633 -505639.000000 0 0 1
20.431042 0.022377 22.466411 30.367213 0.001095 0.737987 0.009534 0.003293 -415031.000000 0 0 1
20.365642 0.895777 21.418311 29.568663 0.043956 0.760693 0.031560 -0.000604 -68199.100000 0 0 1
-29.804358 -27.582732 -10.618972 41.974629 0.746705 1.826561 0.002042 0.009666 -51176.100000 0 0 1
-29.642108 -26.505732 -9.756072 40.943734 0.729597 1.811391 0.007874 0.010780 -220697.000000 0 0 1
-30.279618 -26.736232 -8.511472 41.281068 0.723331 1.778469 0.021724 0.001833 -562905.000000 0 0 1
-30.689778 -25.534432 -7.690772 40.657320 0.693961 1.761104 0.037262 -0.002650 198401.000000 0 0 1
-29.625928 -24.763332 -7.120772 39.263515 0.696232 1.753164 0.026431 0.000132 -403897.000000 0 0 1
-29.058998 -25.336932 -5.969672 39.013107 0.717079 1.724417 0.013030 0.003388 318680.000000 0 0 1
-27.823528 -24.565032 -5.428772 37.510813 0.723280 1.716032 0.014955 0.010185 68583.500000 0 0 1
-27.973158 -23.434132 -4.632572 36.784737 0.697331 1.697069 0.026039 0.003777 -304716.000000 0 0 1
-28.651258 -22.337232 -5.196272 36.699425 0.662193 1.712864 0.029477 -0.003436 -158629.000000 0 0 1
-28.711078 -21.092832 -4.271072 35.881411 0.633610 1.690112 0.030152 -0.001084 517776.000000 0 0 1
-27.445048 -20.401532 -4.238372 34.458917 0.639238 1.694106 0.032905 -0.008241 882718.000000 0 0 1
-27.462148 -19.362432 -3.256872 33.759155 0.614113 1.667420 0.045488 -0.001453 137569.000000 0 0 1
-26.394778 -18.250232 -3.413772 32.270871 0.604953 1.676780 0.045478 0.001289 229026.000000 0 0 1
-26.695928 -17.441932 -4.499872 32.204696 0.578731 1.710982 0.041342 -0.011108 449241.000000 0 0 1
-25.755678 -16.364332 -4.556872 30.853061 0.566020 1.719035 0.045040 -0.016279 284662.000000 0 0 1
-26.048048 -15.423132 -5.749672 30.812863 0.534593 1.758496 0.038959 -0.031270 -788204.000000 0 0 1
-27.226748 -14.737832 -5.565772 31.455958 0.496139 1.748671 0.028348 -0.024303 -740550.000000 0 0 1
-27.429028 -13.684632 -6.535372 31.342173 0.462776 1.780855 0.056350 -0.042648 -648015.000000 0 0 1
-28.688518 -12.861332 -6.330672 32.070584 0.421447 1.769499 0.064910 -0.028201 -313280.000000 0 0 1
-29.866028 -13.466732 -6.815472 33.463161 0.423606 1.775902 0.070865 -0.024623 -843217.000000 0 0 1
-31.013188 -12.791132 -6.471572 34.165950 0.391186 1.761364 0.061267 -0.028332 -1288240.000000 0 0 1
-32.195538 -13.515932 -7.088772 35.629816 0.397464 1.771089 0.037411 -0.023494 -753630.000000 0 0 1
-32.655568 -14.710132 -6.491372 36.399341 0.423239 1.750093 0.035583 -0.024559 237808.000000 0 0 1
-32.876878 -15.689932 -7.492472 37.191400 0.445269 1.773642 0.042275 -0.026620 -465467.000000 0 0 1
-33.613938 -16.961232 -6.969372 38.290369 0.467312 1.753830 0.018675 -0.020340 1163420.000000 0 0 1
-35.033174 -16.993532 -6.738372 39.515935 0.451632 1.742157 0.015807 -0.022308 1058750.000000 0 0 1
-35.519828 -16.137632 -5.684272 39.425782 0.426447 1.715477 0.028232 -0.025345 -834688.000000 0 0 1
34.111799 -16.210832 -5.412072 38.153590 -0.443633 1.713126 0.029789 -0.023056 -1350230.000000 0 0 1
33.291289 -15.715632 -6.434672 37.372397 -0.441050 1.743836 0.030165 -0.018523 409495.000000 0 0 1
31.900409 -15.839332 -6.169272 36.146652 -0.460863 1.742309 0.026113 -0.032166 456392.000000 0 0 1
31.273069 -14.882532 -5.105072 35.007948 -0.444174 1.717144 0.031002 -0.030470 -877436.000000 0 0 1
31.513889 -15.385532 -3.806872 35.275092 -0.454175 1.678926 0.026705 -0.026005 248192.000000 0 0 1
31.090629 -14.506432 -2.792772 34.421845 -0.436560 1.652019 0.029023 -0.026893 -1015140.000000 0 0 1
31.200739 -15.117332 -1.357072 34.696708 -0.451186 1.609919 0.040574 -0.024206 1179790.000000 0 0 1
32.521279 -15.415332 -0.811872 35.998961 -0.442638 1.593351 0.050391 -0.017419 1156100.000000 0 0 1
33.385069 -16.222432 -1.588872 37.151779 -0.452319 1.613576 0.041881 -0.016174 -1369730.000000 0 0 1
33.120359 -17.701832 -1.911272 37.602740 -0.490842 1.621646 0.023777 -0.016612 -1069350.000000 0 0 1
33.452239 -18.594532 -0.843172 38.282109 -0.507326 1.592823 0.037431 -0.022023 233448.000000 0 0 1
33.206909 -19.974632 -1.146172 38.768524 -0.541537 1.600365 0.030811 -0.022708 -301513.000000 0 0 1
34.237839 -20.619332 -2.061372 40.020442 -0.542064 1.622327 0.030377 -0.036942 -393923.000000 0 0 1
34.197379 -20.044132 -3.365072 39.781298 -0.530159 1.655487 0.008346 -0.036253 116350.000000 0 0 1
34.941969 -20.803732 -4.320972 40.895077 -0.537015 1.676654 0.035491 -0.034507 -92905.800000 0 0 1
35.017339 -20.196632 -5.728472 40.828096 -0.523157 1.711568 0.056059 -0.033419 -369677.000000 0 0 1
33.788219 -20.238432 -6.407472 39.903554 -0.539668 1.732068 0.040403 -0.041855 105042.000000 0 0 1
33.807289 -19.398532 -7.520572 39.696283 -0.520930 1.761401 0.042443 -0.037318 99597.300000 0 0 1
32.555589 -19.644032 -8.403472 38.940631 -0.542916 1.788310 0.045506 -0.043990 141012.000000 0 0 1
32.730609 -20.748732 -9.253972 39.842674 -0.564991 1.805200 0.056694 -0.046164 420036.000000 0 0 1
31.581009 -20.991232 -10.059672 39.232499 -0.586625 1.830104 0.055833 -0.046755 92.805400 0 0 1
31.504509 -22.351232 -10.854172 40.123868 -0.617048 1.844726 0.060707 -0.033692 -188472.000000 0 0 1
31.496649 -23.517432 -10.048472 40.571916 -0.641363 1.821072 0.049801 -0.032526 91696.100000 0 0 1
31.271289 -24.708332 -10.798372 41.291646 -0.668693 1.835388 0.048442 -0.019350 173812.000000 0 0 1
30.388209 -25.699132 -9.956972 41.024748 -0.701989 1.815951 0.045371 -0.020171 1412080.000000 0 0 1
29.057109 -25.279532 -9.597172 39.692267 -0.715988 1.815006 0.037438 -0.022282 511581.000000 0 0 1
28.287239 -26.225432 -8.915772 39.590810 -0.747594 1.797943 0.024117 -0.012583 177847.000000 0 0 1
26.908149 -25.544932 -8.657472 38.099132 -0.759415 1.800034 0.020243 -0.021490 183014.000000 0 0 1
26.158699 -25.404432 -9.856772 37.773254 -0.770771 1.834798 0.024378 -0.023864 340431.000000 0 0 1
24.916009 -24.760032 -9.561572 36.404538 -0.782258 1.836562 0.035358 -0.023364 85834.100000 0 0 1
24.159109 -24.293632 -10.779872 35.917249 -0.788175 1.875626 0.064441 -0.037181 -433089.000000 0 0 1
23.556709 -25.362632 -11.497672 36.474349 -0.822298 1.891491 0.050255 -0.030318 320175.000000 0 0 1
22.925209 -24.869632 -12.671372 36.119628 -0.826058 1.929240 0.047821 -0.012215 310258.000000 0 0 1
22.070409 -25.967032 -13.399772 36.618897 -0.866337 1.945423 0.051647 -0.020857 565705.000000 0 0 1
22.925309 -27.000732 -13.890572 38.046778 -0.866847 1.944528 0.040868 -0.004166 573096.000000 0 0 1
22.213809 -28.191332 -13.885272 38.483832 -0.903436 1.939930 0.031552 0.004901 -441183.000000 0 0 1
22.947409 -29.318132 -14.591172 39.987983 -0.906691 1.944310 0.016654 0.002279 -358152.000000 0 0 1
23.098409 -29.193832 -15.956372 40.502126 -0.901439 1.975737 0.023359 0.009569 296156.000000 0 0 1
23.521309 -30.372632 -16.565172 41.834839 -0.911846 1.977916 0.010062 0.009059 -490850.000000 0 0 1
23.473909 -30.314932 -18.120772 42.407333 -0.911902 2.012304 0.013339 0.011674 152443.000000 0 0 1
22.183309 -29.988732 -18.632472 41.696430 -0.933906 2.034049 0.014566 0.016912 268290.000000 0 0 1
22.075409 -30.009132 -20.044572 42.304333 -0.936560 2.064418 0.010948 0.028308 -396505.000000 0 0 1
20.627909 -29.882332 -20.515972 41.705750 -0.966607 2.085092 0.016963 0.031526 -510006.000000 0 0 1
20.586109 -29.960332 -21.920872 42.449194 -0.968772 2.113441 0.003323 0.034203 -208443.000000 0 0 1
19.289409 -29.798632 -22.436872 41.993488 -0.996304 2.134469 0.021014 0.022596 -451752.000000 0 0 1
19.215209 -30.103532 -23.936772 42.993209 -1.002687 2.161273 0.027431 0.016998 -365523.000000 0 0 1
19.715509 -29.100332 -24.782872 43.008388 -0.975330 2.184909 0.033443 0.012759 234380.000000 0 0 1
19.883509 -29.469532 -26.141632 44.127001 -0.977243 2.204853 0.038684 0.003893 -158539.000000 0 0 1
20.396009 -28.223032 -26.922592 44.015483 -0.945015 2.228956 0.036296 -0.006160 874335.000000 0 0 1
19.360709 -27.223132 -27.060852 42.990996 -0.952602 2.251647 0.069018 -0.015777 794547.000000 0 0 1
18.407909 -27.423432 -28.096582 43.362584 -0.979629 2.275680 0.067784 -0.026142 351465.000000 0 0 1
17.492709 -26.187832 -28.345192 42.370359 -0.981891 2.303641 0.069081 -0.027768 141766.000000 0 0 1
16.627609 -25.827132 -27.287272 41.086657 -0.998789 2.297139 0.058593 -0.005384 103401.000000 0 0 1
16.041809 -24.525132 -27.504022 40.190708 -0.991547 2.324492 0.049160 0.005734 52055.200000 0 0 1
14.945909 -24.167232 -26.495602 38.851670 -1.016930 2.321247 0.044816 0.003969 186064.000000 0 0 1
13.658609 -24.756032 -26.685252 38.878290 -1.066627 2.327295 0.046694 -0.009387 809586.000000 0 0 1
12.587209 -24.239132 -25.862512 37.614398 -1.091834 2.328933 0.011334 0.001266 736960.000000 0 0 1
12.639509 -24.564632 -24.345472 36.822281 -1.095584 2.293162 0.010718 0.002569 -28139.700000 0 0 1
13.757409 -24.061632 -23.602072 36.404482 -1.051403 2.276184 0.015156 -0.002153 200654.000000 0 0 1
13.617109 -24.375432 -22.231272 35.690571 -1.061343 2.243227 0.031750 -0.004673 -131421.000000 0 0 1
14.741009 -23.765232 -21.397572 35.212778 -1.015601 2.223913 0.010257 -0.013330 -47637.100000 0 0 1
14.889909 -22.343532 -21.288772 34.265940 -0.982973 2.241173 0.010389 -0.015242 -491172.000000 0 0 1
16.134409 -22.031032 -20.739172 34.289923 -0.938688 2.220334 0.009372 -0.012405 -694791.000000 0 0 1
16.320609 -20.606332 -20.025572 33.045526 -0.900941 2.221818 0.019382 -0.005762 296822.000000 0 0 1
15.633709 -20.520532 -18.751972 31.892657 -0.919750 2.199345 0.009690 -0.013205 1167810.000000 0 0 1
14.210709 -20.436732 -18.883272 31.243916 -0.963197 2.219787 0.013656 -0.007650 399763.000000 0 0 1
13.314009 -20.398032 -17.624572 30.066062 -0.992518 2.197150 0.018575 -0.012693 36273.000000 0 0 1
13.386809 -19.165932 -16.904572 28.849683 -0.961099 2.196853 0.033162 -0.012864 499324.000000 0 0 1
12.446109 -19.186732 -15.826272 27.811998 -0.995347 2.176140 0.029348 -0.009549 330121.000000 0 0 1
12.785709 -17.966532 -14.897172 26.611959 -0.952301 2.164932 0.023224 -0.014374 -219495.000000 0 0 1
12.489609 -16.720932 -15.487272 25.989142 -0.929254 2.209199 0.064967 -0.023107 73919.100000 0 0 1
12.528109 -15.608432 -14.636172 24.795044 -0.894442 2.202210 0.054140 -0.020062 985167.000000 0 1 0
11.144609 -14.975432 -14.137672 23.416654 -0.931022 2.218986 0.043729 -0.016588 1300890.000000 0 1 0
10.340709 -14.501932 -15.188472 23.407819 -0.951361 2.276886 0.039577 -0.008869 24564.300000 0 1 0
9.125909 -13.877232 -14.823572 22.262033 -0.989085 2.299453 0.035619 -0.013340 581274.000000 0 1 0
8.236809 -13.195632 -15.896372 22.241052 -1.012767 2.367036 0.027686 -0.013059 359897.000000 0 1 0
8.799109 -12.014932 -16.549072 22.263304 -0.938689 2.408837 0.032518 -0.006834 813542.000000 0 1 0
9.844709 -12.448532 -17.479172 23.609441 -0.901670 2.404382 0.035418 0.002259 793255.000000 0 1 0
10.279509 -11.373732 -18.483072 24.013622 -0.835889 2.449154 0.041417 0.004171 215036.000000 0 1 0
9.289709 -11.113732 -19.477572 24.273227 -0.874559 2.502153 0.027519 0.000295 204828.000000 0 1 0
9.466209 -9.893032 -20.113672 24.331893 -0.807442 2.543903 0.018281 -0.004079 -86260.000000 0 1 0
9.065809 -9.864232 -21.596172 25.414300 -0.827551 2.586335 0.018953 -0.003837 -91848.100000 0 0 1
9.981009 -10.600832 -22.373272 26.693848 -0.815504 2.564667 0.015939 0.002986 -760666.000000 0 0 1
9.671309 -10.709432 -23.730072 27.773053 -0.836291 2.595245 0.031100 -0.002181 -42822.200000 0 0 1
10.822709 -11.210232 -24.644172 29.157084 -0.802985 2.577774 0.051710 -0.002899 -32369.600000 0 0 1
10.902009 -12.596832 -24.459472 29.593914 -0.857397 2.543664 0.043368 -0.003254 -578533.000000 0 0 1
11.980609 -13.228732 -25.075272 30.778298 -0.834868 2.523019 0.023238 0.000488 -396281.000000 0 0 1
12.014809 -14.748932 -24.868372 31.310104 -0.887203 2.488585 0.020800 0.000040 -85152.400000 0 0 1
10.989609 -15.436132 -25.567132 31.823324 -0.952101 2.503794 0.033816 -0.007012 -130446.000000 0 0 1
10.939609 -16.778832 -25.100892 32.113222 -0.993024 2.468083 0.037064 -0.012862 692277.000000 0 0 1
9.626509 -17.543532 -25.495762 32.411095 -1.068935 2.476139 0.038273 -0.011804 697538.000000 0 0 1
9.656909 -18.203432 -26.753852 33.769653 -1.083048 2.485276 0.026027 -0.012827 -415486.000000 0 0 1
8.507509 -19.001532 -26.856662 33.981116 -1.149834 2.482161 0.031986 -0.010941 -169020.000000 0 0 1
8.554509 -20.005632 -28.033632 35.486469 -1.166721 2.481574 0.015632 -0.014217 -497875.000000 0 0 1
9.308909 -21.111432 -27.697912 36.048893 -1.155501 2.447044 0.001354 -0.011722 -233828.000000 0 0 1
9.435609 -21.961832 -28.829602 37.449950 -1.165005 2.449350 0.000816 -0.008402 93091.800000 0 0 1
9.826409 -23.435332 -28.435502 38.135953 -1.173764 2.412284 0.000218 -0.009358 84260.600000 0 0 1
9.673209 -24.335732 -29.520402 39.462045 -1.192456 2.415946 0.011579 -0.012962 -127173.000000 0 0 1
10.237509 -25.646632 -29.362492 40.307720 -1.191001 2.386865 0.026420 -0.013968 223604.000000 0 0 1
9.643609 -26.554232 -28.244392 39.948369 -1.222440 2.356075 0.027976 -0.010866 150383.000000 0 0 1
10.242909 -26.302532 -26.999732 39.060542 -1.199438 2.333983 0.014240 -0.009616 -347412.000000 0 0 1
9.368009 -26.515432 -25.870552 38.211428 -1.231181 2.314525 0.004564 -0.002839 601827.000000 0 0 1
8.518309 -25.285532 -25.506512 36.912083 -1.245853 2.333678 0.008568 0.000680 -995415.000000 0 0 1
9.319709 -24.272832 -25.066272 36.115722 -1.204197 2.337902 -0.009155 0.005807 -1095000.000000 0 0 1
8.642409 -23.095732 -24.700172 34.902759 -1.212728 2.357013 -0.005417 0.000428 -354722.000000 0 0 1
9.533909 -21.813632 -24.501772 34.162360 -1.158754 2.370594 0.006351 -0.009945 209825.000000 0 0 1
10.285609 -21.913932 -23.319372 33.612606 -1.131957 2.337505 0.015390 -0.006585 -310339.000000 0 0 1
11.334409 -20.984632 -23.283072 33.330543 -1.075563 2.344166 0.013583 -0.006987 -147454.000000 0 0 1
11.891109 -20.758232 -21.868772 32.412126 -1.050588 2.311368 0.012508 -0.004030 858431.000000 0 0 1
10.841109 -20.142732 -21.047072 31.084378 -1.077047 2.314604 0.018312 -0.003884 1090250.000000 0 0 1
10.652609 -18.702032 -21.186572 30.201241 -1.053033 2.348315 0.035077 -0.006662 455148.000000 0 0 1
11.934009 -17.813932 -20.939072 29.970010 -0.980541 2.344330 0.023581 -0.004613 879725.000000 0 0 1
12.847709 -17.852632 -22.028272 31.129165 -0.947002 2.356950 0.019354 0.000518 -361436.000000 0 0 1
14.125209 -17.498732 -21.560672 31.154290 -0.891672 2.335137 0.021457 -0.003694 -702432.000000 0 0 1
15.180309 -17.392532 -22.639372 32.333932 -0.853210 2.346437 0.006052 0.019939 -77720.300000 0 0 1
16.445509 -17.829632 -22.147172 32.845819 -0.825759 2.310781 0.024513 0.019639 -147611.000000 0 0 1
17.451309 -17.649032 -23.063772 33.881767 -0.791031 2.319532 0.016975 0.024601 -390186.000000 0 0 1
18.867809 -17.917332 -22.486672 34.390049 -0.759565 2.283486 0.015479 0.023202 117379.000000 0 0 1
19.033709 -19.284132 -22.087772 34.957539 -0.791933 2.254729 0.019130 0.010965 1168360.000000 0 0 1
20.393109 -19.440332 -21.624472 35.516520 -0.761484 2.225415 0.019772 0.007505 1036900.000000 0 0 1
20.751509 -20.837632 -21.159772 36.229381 -0.787469 2.194506 0.031515 -0.003390 -393642.000000 0 0 1
20.376109 -21.086132 -19.863772 35.417231 -0.802521 2.166209 0.038568 -0.006038 472256.000000 0 0 1
21.011009 -22.245432 -19.263872 36.158243 -0.813928 2.132662 0.031744 0.005513 37065.500000 0 0 1
-16.291958 13.059577 28.491421 35.323385 -0.675714 0.632439 0.029847 -0.015802 -570580.000000 0 0 1
-17.440258 13.826977 28.404061 36.085157 -0.670347 0.664639 0.026659 -0.014242 -513310.000000 0 0 1
-17.968258 13.733877 27.041841 35.252501 -0.652616 0.696504 0.022011 -0.014724 440218.000000 0 0 1
-19.262258 14.545377 26.725181 36.011635 -0.646772 0.734559 0.033211 -0.009575 429561.000000 0 0 1
-19.160058 15.926677 27.052651 36.777884 -0.693504 0.744291 0.016103 -0.001826 523683.000000 0 0 1
-20.273158 16.653277 26.467281 37.267272 -0.687681 0.781012 0.013636 0.000240 197287.000000 0 0 1
-20.220158 18.260177 26.729351 38.167356 -0.734508 0.794951 0.011133 0.013524 -266054.000000 0 0 1
-19.107458 18.977977 26.289611 37.635119 -0.781998 0.797442 0.009751 0.004695 -567721.000000 0 0 1
-17.965258 18.749977 27.084491 37.521751 -0.806768 0.764347 0.018061 0.010438 -583260.000000 0 0 1
-16.698758 19.463277 26.603411 36.951443 -0.861698 0.767058 0.029046 0.004079 -348895.000000 0 0 1
-16.806458 20.889077 26.676991 37.821587 -0.893283 0.787897 0.028184 -0.000486 -421830.000000 0 0 1
-15.838458 21.509377 25.907551 37.211709 -0.936088 0.800678 0.035623 -0.003888 -644785.000000 0 0 1
-15.937458 23.092477 25.805981 38.121040 -0.966706 0.827188 0.034294 -0.007453 141672.000000 0 0 1
-15.472158 23.859177 26.884251 39.133246 -0.995492 0.813454 0.035281 -0.008207 -197600.000000 0 0 1
-15.807058 25.164777 26.632981 39.905448 -1.009941 0.840082 0.030210 -0.010623 -170292.000000 0 0 1
-15.283858 26.171677 27.683881 41.048146 -1.042236 0.830611 0.022486 -0.001014 135165.000000 0 0 1
-13.887258 26.354177 27.475701 40.525458 -1.085824 0.825777 0.044514 -0.007364 68864.100000 0 0 1
-13.397158 27.172577 28.482911 41.582557 -1.112732 0.816230 0.045847 -0.005380 161889.000000 0 0 1
-11.847558 27.207477 28.587531 41.205077 -1.160106 0.804063 0.056787 -0.011364 441646.000000 0 0 1
-11.197358 27.850277 27.503191 40.711722 -1.188519 0.829073 0.056562 -0.012972 -1430340.000000 0 0 1
-9.847158 27.688777 27.664581 40.360425 -1.229108 0.815591 0.043410 -0.002517 -1110810.000000 0 0 1
-9.009858 28.315877 26.514711 39.824570 -1.262735 0.842247 0.045378 -0.012028 40256.400000 0 0 1
-7.606458 28.313077 26.657021 39.624302 -1.308338 0.832885 0.036575 -0.004424 82556.600000 0 0 1
-7.024958 28.804677 25.469591 39.086565 -1.331584 0.861078 0.032689 -0.006197 -113263.000000 0 0 1
-5.516358 28.435977 25.470501 38.571770 -1.379184 0.849524 0.020922 -0.000810 -441722.000000 0 0 1
-4.787358 29.201077 26.401841 39.657016 -1.408297 0.842292 0.020663 -0.003810 366622.000000 0 0 1
-3.385258 28.928277 26.354141 39.279078 -1.454304 0.835312 -0.001057 -0.000157 896163.000000 0 0 1
-2.588958 29.760177 25.271971 39.128549 -1.484021 0.868634 -0.009546 0.004045 -564064.000000 0 0 1
-2.932658 29.526577 23.943841 38.127769 -1.471798 0.891829 -0.014377 0.015485 -150145.000000 0 0 1
-2.573558 30.611677 23.115511 38.445089 -1.486922 0.925719 -0.019382 0.013252 -132877.000000 0 0 1
-2.785058 30.231177 21.618511 37.269836 -1.478930 0.952002 -0.015713 0.017553 427377.000000 0 0 1
-4.139858 30.039477 21.241311 37.022992 -1.433845 0.959740 -0.016905 0.020637 59942.000000 0 0 1
-4.553658 28.694177 21.390211 36.078148 -1.413413 0.936159 -0.011018 0.020983 -403366.000000 0 0 1
-6.057458 28.423177 21.196111 35.970056 -1.360821 0.940640 0.009345 0.014606 -498932.000000 0 0 1
-6.435358 28.714577 19.843611 35.492389 -1.350325 0.977503 -0.002473 0.017342 424063.000000 0 0 1
-7.350058 27.726477 19.331111 34.590067 -1.311665 0.977782 -0.004353 0.010021 -330657.000000 0 0 1
-6.684158 26.452677 18.771111 33.117619 -1.323294 0.968178 -0.015131 0.010181 344327.000000 0 0 1
-5.875358 26.586577 17.587611 32.414348 -1.353302 0.997282 -0.015575 0.006792 830284.000000 0 0 1
-4.515658 26.979677 17.813011 32.643491 -1.404961 0.993592 -0.013824 0.018247 344530.000000 0 0 1
-3.694058 26.952777 16.507811 31.821472 -1.434588 1.025393 -0.016471 0.011382 -151462.000000 0 0 1
-3.244058 25.712477 16.054811 30.486265 -1.445293 1.016172 -0.004943 0.011674 -419544.000000 0 0 1
-2.682658 25.888477 14.822411 29.951858 -1.467541 1.053106 0.002452 -0.001432 -525214.000000 0 0 1
-2.082258 24.581577 14.308311 28.518722 -1.486290 1.045214 -0.004694 0.001587 -207071.000000 0 0 1
-0.903258 24.232077 14.975911 28.500655 -1.533538 1.017542 0.008697 0.002989 -247885.000000 0 0 1
-0.240758 23.060277 14.485711 27.233622 -1.560356 1.009947 0.009985 -0.015896 42806.400000 0 0 1
0.963642 22.749377 15.402611 27.490056 1.528463 0.976051 0.007139 -0.008007 309016.000000 0 0 1
2.037642 23.666977 15.334611 28.274160 1.484912 0.997560 0.013259 -0.014953 -343569.000000 0 0 1
3.250042 23.148877 15.798011 28.213657 1.431311 0.976481 0.022337 -0.016581 -1053090.000000 0 0 1
4.270842 24.248977 15.866311 29.291514 1.396460 0.998375 0.028726 -0.014707 -1020220.000000 0 0 1
5.554742 23.690877 15.847211 29.038714 1.340489 0.993540 0.039370 -0.016694 -993181.000000 0 0 1
6.495542 24.710877 15.891111 30.088984 1.313750 1.014391 0.046507 -0.018631 -676566.000000 0 0 1
7.957142 24.268977 16.156411 30.221333 1.253968 1.006759 0.047531 -0.020265 276872.000000 0 0 1
8.592342 23.708677 15.031911 29.357930 1.223106 1.033259 0.037596 -0.010543 -208298.000000 0 0 1
9.046942 24.597577 14.065611 29.744401 1.218355 1.078237 0.036826 -0.017969 -1079270.000000 0 0 1
9.456442 23.851077 12.828111 28.685512 1.193329 1.107166 0.036540 -0.012249 397009.000000 0 0 1
10.750042 23.237277 12.876911 28.659192 1.137497 1.104802 0.040109 -0.009961 481842.000000 0 0 1
10.969142 22.415277 11.730611 27.574879 1.115697 1.131382 0.039754 -0.009519 -145982.000000 0 0 1
12.339742 21.735777 11.773511 27.628406 1.054454 1.130577 0.044073 -0.005073 -122650.000000 0 0 1
12.396342 20.572277 12.543311 27.096541 1.028486 1.089519 0.039338 0.008460 -360865.000000 0 0 1
13.699242 20.068877 12.667011 27.402231 0.971836 1.090252 0.035126 0.010676 -638630.000000 0 0 1
13.779642 19.078377 13.875211 27.320038 0.945283 1.038078 0.038146 0.004939 953157.000000 0 0 1
15.091942 18.500577 14.085611 27.720796 0.886522 1.037791 0.031667 0.006090 1035340.000000 0 0 1
15.166742 17.979277 15.366811 28.096679 0.870048 0.992108 0.018793 0.003464 176846.000000 0 0 1
16.479542 17.195277 15.612511 28.478121 0.806649 0.990552 0.004375 -0.001057 159544.000000 0 0 1
16.644842 16.741777 16.920111 29.045276 0.788302 0.948943 0.011546 -0.007979 193611.000000 0 0 1
17.577842 15.649577 16.876111 28.960196 0.727431 0.948707 -0.002053 -0.004672 273846.000000 0 0 1
18.116442 15.281777 18.270611 29.925799 0.700726 0.914066 0.013162 -0.008337 270335.000000 0 0 1
18.900642 16.215777 18.996711 31.321889 0.709091 0.919146 0.015131 -0.007640 200296.000000 0 0 1
18.025042 17.086377 19.613711 31.647181 0.758671 0.902357 0.008132 -0.008136 -396791.000000 0 0 1
18.699142 18.301777 20.323811 33.131107 0.774659 0.910392 0.010725 0.000294 -398014.000000 0 0 1
17.830642 19.155277 20.972011 33.536274 0.821197 0.895212 0.004034 0.012170 -254667.000000 0 0 1
18.565942 20.208577 21.587411 34.915571 0.827737 0.904251 0.006249 0.017229 497203.000000 0 0 1
17.689442 21.424377 22.164211 35.541139 0.880598 0.897430 0.007427 0.014332 236102.000000 0 0 1
16.946742 20.916377 23.230111 35.557348 0.889858 0.858843 0.009918 0.011609 72217.000000 0 0 1
16.164842 21.975777 23.791231 36.197508 0.936591 0.853617 0.011379 0.001205 319431.000000 0 0 1
15.470242 21.791977 25.178811 36.717723 0.953453 0.815176 0.023185 0.003563 215142.000000 0 0 1
14.501542 20.790277 25.052751 35.639454 0.961740 0.791260 0.024126 -0.002399 106622.000000 0 0 1
13.572542 20.600377 26.129851 35.935478 0.988225 0.756661 0.022587 -0.000921 923183.000000 0 0 1
12.433542 19.537877 25.928421 34.764991 1.004054 0.729032 0.035653 -0.007352 166488.000000 0 0 1
12.741342 18.136877 25.946361 34.124797 0.958388 0.706964 0.030669 -0.006985 -35109.900000 0 0 1
13.629342 17.632277 24.954001 33.456813 0.912751 0.728976 0.027593 -0.002996 -239518.000000 0 0 1
13.029642 17.541277 23.537911 32.116993 0.931920 0.748250 0.037055 -0.006224 -823937.000000 0 0 1
12.854042 18.710877 22.730311 32.124607 0.968861 0.784747 0.039182 0.002569 -25729.400000 0 0 1
13.912642 19.133377 21.870011 32.217156 0.942087 0.824627 0.023091 0.001498 179474.000000 0 0 1
14.379342 18.089977 20.829011 31.110456 0.899186 0.837237 0.023843 0.005513 -211648.000000 0 0 1
13.366142 17.624477 19.943711 29.783008 0.921950 0.837081 0.025261 -0.001107 -39910.100000 0 0 1
13.857842 16.639777 19.066411 28.852210 0.876365 0.848872 0.019850 -0.005329 -79816.900000 0 0 1
12.829842 16.105877 18.059211 27.388670 0.898136 0.850819 0.019302 0.002833 -74729.500000 0 0 1
12.414742 17.016477 17.041711 27.094395 0.940498 0.890562 0.035451 0.003626 -5102.460000 0 0 1
11.272942 16.437077 16.432611 25.831907 0.969648 0.881316 0.026503 0.001584 393014.000000 0 0 1
10.709042 17.216777 15.185811 25.331993 1.014349 0.927956 0.038061 0.004338 276203.000000 0 0 1
10.027042 18.438777 15.459811 26.067908 1.072724 0.935943 0.041914 0.001109 225121.000000 0 0 1
9.566542 19.115777 14.272511 25.702845 1.106787 0.982086 0.034552 0.004925 740321.000000 0 0 1
8.419842 20.178277 14.553711 26.265322 1.175489 0.983511 0.037945 0.004182 938835.000000 0 0 1
7.160642 19.599477 14.834611 25.602343 1.220514 0.952775 0.008160 -0.003618 -280217.000000 0 0 1
6.242042 20.577677 15.284311 26.382078 1.276278 0.952872 0.026995 -0.007597 -690851.000000 0 0 1
5.067842 19.968577 16.000511 26.085311 1.322253 0.910448 0.018348 -0.018614 -440218.000000 0 0 1
4.079342 19.609577 15.011111 25.030182 1.365694 0.927645 0.013330 -0.016321 515923.000000 0 0 1
2.883042 19.171177 15.690311 24.940566 1.421531 0.890391 0.008590 -0.016442 391998.000000 0 1 0
1.869242 18.565177 14.743811 23.781081 1.470449 0.902078 0.011568 -0.020291 -723135.000000 0 1 0
1.158642 19.554677 14.070511 24.118606 1.511614 0.947902 0.010248 -0.024842 -786081.000000 0 1 0
0.203042 18.873677 13.310811 23.096203 1.560039 0.956578 0.008483 -0.030148 -739292.000000 0 1 0
-0.657758 19.784077 12.432811 23.375567 -1.537562 1.009987 0.011321 -0.027818 -275490.000000 0 1 0
-1.676458 20.476977 13.136711 24.386273 -1.489108 1.001911 0.011640 -0.018692 -606250.000000 0 1 0
-2.770558 20.573277 12.264611 24.111334 -1.436934 1.037162 0.011222 -0.028568 -570655.000000 0 1 0
-3.836658 21.466977 12.862811 25.318036 -1.393940 1.037878 0.010771 -0.017670 220297.000000 0 0 1
-4.727158 20.787077 13.781211 25.384452 -1.347191 0.996910 0.016953 -0.018520 503690.000000 0 0 1
-5.627258 21.625377 14.482411 26.628241 -1.316226 0.995749 0.005818 -0.003536 80180.800000 0 0 1
-6.311958 20.944477 15.706911 26.929890 -1.278087 0.948070 0.010732 -0.000607 126165.000000 0 0 1
-7.267258 19.924777 15.259911 26.128044 -1.221056 0.947095 0.007145 -0.001844 452845.000000 0 0 1
-8.116258 19.424977 16.241311 26.589163 -1.175018 0.913695 0.001548 0.010394 236757.000000 0 0 1
-9.126058 20.384177 16.977111 28.053911 -1.149854 0.920829 0.000127 0.014195 -172835.000000 0 0 1
-10.332458 20.627177 16.310311 28.253608 -1.106417 0.955400 -0.003792 0.008862 343999.000000 0 0 1
-11.463658 19.905077 16.831011 28.476490 -1.048274 0.938437 -0.006263 0.011517 300579.000000 0 0 1
-12.660558 19.786677 15.890511 28.360371 -1.001588 0.976040 0.002522 -0.003073 -506514.000000 0 0 1
-13.316958 21.013177 15.698311 29.416525 -1.005934 1.007878 -0.002028 -0.002906 -531980.000000 0 0 1
-14.125358 20.899677 14.577911 29.134820 -0.976453 1.046781 0.000549 -0.008962 -262293.000000 0 0 1
-15.148958 22.070777 14.502611 30.445621 -0.969269 1.074304 0.005038 -0.010028 179552.000000 0 0 1
-16.228958 22.017077 15.424611 31.401423 -0.935597 1.057321 0.012520 -0.014259 173394.000000 0 0 1
-17.135758 23.058277 15.034111 32.424417 -0.931694 1.088668 0.023012 -0.014006 581809.000000 0 0 1
-18.594258 22.837677 15.526611 33.292365 -0.887461 1.085612 0.031318 -0.013116 136472.000000 0 0 1
-19.318158 21.825377 14.777311 32.678850 -0.846261 1.101568 0.027993 -0.019953 1854230.000000 0 0 1
-20.550558 21.327877 15.412111 33.387677 -0.803957 1.090986 0.026721 -0.015563 2386140.000000 0 0 1
-21.742158 22.303977 15.785111 34.919315 -0.798153 1.101739 0.032482 -0.018990 -137359.000000 0 0 1
-22.325458 22.872577 14.644111 35.157230 -0.797503 1.141169 0.033770 -0.014621 -148216.000000 0 0 1
-22.996458 24.024277 15.044211 36.501113 -0.807254 1.145975 0.047742 -0.024614 -453911.000000 0 0 1
-22.450358 25.300577 14.399211 36.762414 -0.845017 1.168336 0.039496 -0.017695 977383.000000 0 0 1
-21.116758 25.683077 14.797811 36.393861 -0.882662 1.152065 0.028118 -0.022936 850016.000000 0 0 1
-20.633058 26.699877 13.957111 36.515852 -0.912876 1.178598 0.020074 -0.014947 -1325580.000000 0 0 1
-19.257458 27.191977 14.321011 36.267681 -0.954586 1.164870 0.026688 -0.019747 -1131880.000000 0 0 1
-18.321158 26.279677 13.815211 34.887624 -0.961978 1.163649 0.024386 -0.014411 -998663.000000 0 0 1
-17.053458 26.869777 13.852311 34.708672 -1.005273 1.160259 0.022181 -0.020628 -523757.000000 0 0 1
-16.062358 26.129277 12.925011 33.283545 -1.019619 1.171977 0.024021 -0.018998 310382.000000 0 0 1
-14.727558 26.527177 13.167411 33.075260 -1.063979 1.161347 0.019150 -0.019171 454126.000000 0 0 1
-13.712958 26.004477 12.314211 31.873466 -1.085524 1.174129 0.015804 -0.011763 325131.000000 0 0 1
-12.284358 26.495577 12.606211 31.809395 -1.136659 1.163308 0.004860 -0.010161 -604855.000000 0 0 1
-11.373558 25.832877 11.746711 30.572546 -1.156059 1.176429 0.000273 -0.005106 770751.000000 0 0 1
-9.999358 26.239177 11.840911 30.474395 -1.206702 1.171736 0.012415 -0.008028 778801.000000 0 0 1
-9.715958 27.730277 11.363711 31.504000 -1.233789 1.201771 0.015969 -0.017743 -1038790.000000 0 0 1
-8.515458 28.213277 11.886011 31.777025 -1.277667 1.187430 0.030529 -0.027439 -175624.000000 0 0 1
-8.014958 29.403677 11.253911 32.487941 -1.304678 1.217063 0.032712 -0.023610 -101945.000000 0 0 1
-6.675258 29.894277 11.832711 32.836564 -1.351105 1.202151 0.020577 -0.022366 60925.000000 0 0 1
-5.570658 29.109677 11.387111 31.750147 -1.381714 1.203978 0.028492 -0.020391 -210506.000000 0 0 1
-4.412358 29.594977 12.025911 32.248320 -1.422795 1.188647 0.026540 -0.024814 -594946.000000 0 0 1
-3.131758 29.112477 11.357711 31.406080 -1.463634 1.200769 0.033102 -0.031715 -551469.000000 0 0 1
-2.878258 29.812077 10.136611 31.619538 -1.474548 1.244454 0.049803 -0.029920 191669.000000 0 0 1
-1.783758 29.178077 9.480111 30.731328 -1.509739 1.257198 0.032583 -0.026181 271089.000000 0 0 1
-1.440958 29.910577 8.153111 31.035338 -1.522658 1.304973 0.026728 -0.022427 -51324.600000 0 0 1
-2.500258 29.921677 7.227511 30.883571 -1.487430 1.334581 0.031857 -0.030973 -77333.400000 0 0 1
-2.256158 30.805877 6.130511 31.490880 -1.497689 1.374869 0.036075 -0.022138 21777.700000 0 0 1
10.223242 34.395077 -26.689352 44.719767 1.281883 2.210320 0.048364 -0.020093 -170326.000000 0 0 1
10.893442 -34.095732 -25.520192 43.959826 -1.261551 2.190181 0.042228 -0.019676 602535.000000 0 0 1
12.090242 -33.373432 -25.869902 43.922793 -1.223231 2.200600 0.048904 -0.016999 516268.000000 0 0 1
13.045142 -33.308332 -24.658072 43.446994 -1.197511 2.174316 0.050961 0.001615 -595740.000000 0 0 1
12.539042 -32.534532 -23.607872 42.107660 -1.202933 2.165973 0.054137 0.006131 17998.600000 0 0 1
13.131842 -32.684432 -22.354872 41.718793 -1.188759 2.136306 0.042288 0.005819 218708.000000 0 0 1
14.609042 -32.284632 -22.066772 41.745228 -1.145859 2.127754 0.026035 0.017429 288631.000000 0 0 1
15.589142 -33.146132 -22.569472 43.024046 -1.131177 2.123016 0.037538 0.009346 -147494.000000 0 0 1
16.867342 -32.840032 -22.029272 42.991439 -1.096311 2.108786 0.028461 0.009542 302442.000000 0 0 1
17.851042 -34.002232 -22.361372 44.439200 -1.087352 2.098083 0.016621 0.017376 -413463.000000 0 0 1
19.141242 -33.808332 -21.849072 44.573226 -1.055624 2.083097 0.016614 0.030780 91145.400000 0 0 1
19.969942 33.958477 -22.068172 45.155077 1.039196 2.081418 0.010939 0.024804 -560014.000000 0 0 1
21.429442 34.285877 -21.838172 45.952673 1.012181 2.066024 0.013084 0.031488 -755714.000000 0 0 1
22.058142 -33.768632 -22.789972 46.327799 -0.992165 2.085100 0.010298 0.029283 794819.000000 0 0 1
23.468742 -34.035432 -22.808972 47.216964 -0.967126 2.074951 0.013761 0.029443 934398.000000 0 0 1
24.224542 -33.153932 -23.863372 47.491812 -0.939782 2.097253 0.028762 0.013497 133183.000000 0 0 1
24.289842 -31.723832 -23.611372 46.410073 -0.917344 2.104535 0.029420 0.016243 -14559.400000 0 0 1
23.030942 -31.104632 -23.757472 45.412993 -0.933445 2.121331 0.006930 0.022384 -133233.000000 0 0 1
23.168142 -29.601532 -23.597172 44.382880 -0.906714 2.131371 0.010970 0.004639 -171046.000000 0 0 1
23.849942 -28.919232 -24.663972 44.871520 -0.881170 2.152751 0.005563 0.004527 11572.800000 0 0 1
23.556442 -27.545532 -24.676772 43.847525 -0.863302 2.168549 0.012947 0.007169 19222.300000 0 0 1
24.184342 -26.785332 -25.857112 44.395120 -0.836384 2.192513 0.007781 0.008147 414237.000000 0 0 1
23.613042 -27.044932 -27.165542 45.021893 -0.853041 2.218536 0.015797 0.002975 -135688.000000 0 0 1
24.329542 -26.186432 -28.043282 45.432164 -0.822140 2.236047 0.009752 0.006087 -269967.000000 0 0 1
23.518842 -25.693132 -29.283472 45.505986 -0.829552 2.269869 0.015503 0.000272 769673.000000 0 0 1
22.708642 -24.515732 -29.015522 44.256119 -0.823646 2.285809 0.033995 -0.006860 18572.100000 0 0 1
21.493742 -24.773132 -28.347952 43.350841 -0.856160 2.283550 0.049395 -0.009136 -330829.000000 0 0 1
20.583142 -23.524132 -28.141982 42.059740 -0.851978 2.303787 0.054778 -0.007926 117863.000000 0 0 1
19.987442 -23.002332 -29.309082 42.280343 -0.855414 2.336727 0.072374 -0.017245 257406.000000 0 0 1
19.401042 -21.729232 -29.022412 41.120073 -0.841943 2.354343 0.065720 -0.006294 274547.000000 0 0 1
18.315542 -21.191932 -30.014232 41.053760 -0.858076 2.390723 0.074277 -0.016623 883449.000000 0 0 1
17.139842 -22.008732 -30.029552 40.986980 -0.909132 2.393020 0.061853 -0.019771 82641.400000 0 0 1
15.971742 -21.272932 -30.276402 40.302540 -0.926783 2.420717 0.052122 -0.020573 -168721.000000 0 0 1
14.771942 -22.232432 -30.018402 40.169588 -0.984342 2.414773 0.035256 -0.021745 -304858.000000 0 0 1
14.516742 -23.207032 -31.034082 41.381353 -1.011815 2.418788 0.046092 -0.018944 180477.000000 0 0 1
13.926342 -24.384032 -30.470932 41.436720 -1.051879 2.396995 0.045897 -0.026499 -78466.400000 0 0 1
13.884242 -25.586432 -31.403272 42.820593 -1.073621 2.394060 0.065480 -0.028273 206744.000000 0 0 1
13.317442 -26.715532 -30.781852 42.878857 -1.108357 2.371548 0.069324 -0.023291 -200682.000000 0 0 1
13.930942 -27.850232 -31.292452 44.146621 -1.106981 2.358635 0.105458 -0.029371 234650.000000 0 0 1
13.610842 -29.088332 -30.399482 44.221201 -1.133145 2.328756 0.087502 -0.032399 264654.000000 0 0 1
14.294842 -29.162332 -29.137652 43.632407 -1.115034 2.302043 0.095396 -0.036652 -31410.400000 0 0 1
13.811442 -28.217132 -28.203722 42.218627 -1.115608 2.302368 0.076003 -0.031171 -443598.000000 0 0 1
14.546742 -28.233232 -26.920832 41.634773 -1.095035 2.273909 0.058716 -0.009946 -480635.000000 0 0 1
14.324242 -29.378632 -26.087442 41.819165 -1.117139 2.244411 0.068315 -0.010169 -103445.000000 0 0 1
15.168842 -29.422032 -24.957072 41.456064 -1.094778 2.216816 0.061837 -0.005133 -901194.000000 0 0 1
14.957442 -28.407332 -23.760772 39.940905 -1.086147 2.207935 0.046702 0.000746 243570.000000 0 0 1
13.812142 -28.525332 -22.939872 39.124258 -1.119863 2.197322 0.037677 0.002498 210443.000000 0 0 1
12.583842 -28.335932 -23.624972 38.979706 -1.152864 2.221924 0.035396 0.004789 730203.000000 0 0 1
11.296742 -28.112932 -22.704572 37.860942 -1.188710 2.213902 0.016076 0.009377 1233520.000000 0 0 1
11.341842 -26.824332 -22.036872 36.521308 -1.170774 2.218551 0.009533 0.009218 814083.000000 0 0 1
10.046342 -26.575532 -21.445672 35.596415 -1.209372 2.217385 0.011616 0.008352 723813.000000 0 0 1
9.832142 -25.054132 -21.160272 34.236496 -1.196828 2.237071 0.005222 0.001240 -51150.500000 0 0 1
10.566842 -24.540132 -20.055172 33.407876 -1.164197 2.214688 0.000407 -0.002298 176588.000000 0 0 1
10.342442 -23.164932 -19.854972 32.214905 -1.150882 2.234869 -0.004008 -0.002033 -315692.000000 0 0 1
10.415042 -22.545732 -18.411072 30.915218 -1.138048 2.208727 0.002372 -0.008303 138988.000000 0 0 1
9.482042 -23.008632 -17.435372 30.385827 -1.179896 2.181934 0.015516 -0.009013 550956.000000 0 0 1
9.845642 -22.363632 -16.258772 29.349896 -1.156078 2.157914 0.015086 -0.005190 -45113.000000 0 0 1
9.050642 -22.901032 -15.055672 28.862513 -1.194429 2.119562 0.026817 -0.005889 -91656.300000 0 0 1
9.318942 -24.222332 -14.671072 29.812823 -1.203527 2.085304 0.021360 -0.004000 23174.000000 0 0 1
8.663342 -24.698132 -13.491372 29.446025 -1.233436 2.046735 0.018700 -0.004839 -7505.040000 0 0 1
9.040242 -26.168232 -13.277472 30.704945 -1.238166 2.017973 0.035540 -0.010376 283021.000000 0 0 1
10.407842 -26.356232 -12.961572 31.160496 -1.194702 1.999796 0.031002 -0.010732 -214967.000000 0 0 1
10.700642 -27.740032 -13.087472 32.485305 -1.202637 1.985451 0.043116 -0.014796 -1248310.000000 0 0 1
12.026142 -28.111732 -12.463672 33.018793 -1.166558 1.957861 0.039877 -0.010316 -709572.000000 0 0 1
13.170542 -27.659432 -13.166272 33.344536 -1.126395 1.976707 0.033463 -0.007189 79586.700000 0 0 1
13.496942 -28.265732 -14.432472 34.487901 -1.125309 2.002567 0.032145 -0.005495 -700623.000000 0 0 1
14.794542 -27.969432 -15.214772 35.109214 -1.084255 2.019009 0.014438 0.003711 43097.200000 0 0 1
15.921642 -28.692432 -14.766472 35.983372 -1.064193 1.993655 0.008546 0.005010 445397.000000 0 0 1
17.107642 -28.064532 -15.309572 36.258411 -1.023361 2.006706 0.017056 0.008448 753302.000000 0 0 1
18.339942 -28.966332 -15.109372 37.465918 -1.006360 1.985898 0.025318 0.005756 -50398.100000 0 0 1
18.331742 -30.067032 -15.978672 38.670366 -1.023278 1.996764 0.007256 0.021084 231756.000000 0 0 1
19.619942 -30.675832 -16.040772 39.790139 -1.001774 1.985736 0.011095 0.019430 345077.000000 0 0 1
19.908442 -31.678832 -17.137872 41.153386 -1.009723 2.000321 0.005574 0.019336 -329761.000000 0 0 1
19.566042 -32.964632 -16.750572 41.833942 -1.035136 1.982756 0.007055 0.026310 -21962.400000 0 0 1
19.742342 -33.902532 -17.814872 43.087254 -1.043473 1.997048 0.004942 0.023193 62897.100000 0 0 1
19.542042 33.522577 -17.387072 42.520170 1.043007 1.992059 0.002891 0.013947 89754.000000 0 0 1
20.528442 33.047477 -16.469172 42.246732 1.014948 1.971247 0.005891 0.012999 374670.000000 0 0 1
20.265642 31.726977 -15.978272 40.897464 1.002370 1.972178 0.014637 0.002764 193729.000000 0 0 1
21.346242 31.395377 -14.906072 40.786306 0.973677 1.944931 0.011940 -0.010199 322161.000000 0 0 1
22.677842 31.088977 -15.268972 41.399886 0.940578 1.948532 0.010585 -0.002411 640495.000000 0 0 1
23.548042 30.754177 -14.177072 41.247050 0.917332 1.921662 0.011071 -0.008732 306171.000000 0 0 1
23.242942 29.403377 -13.432972 39.815044 0.901884 1.914933 0.010989 -0.000687 -971843.000000 0 0 1
23.391342 28.234977 -14.237272 39.332795 0.878945 1.941176 0.018322 0.002504 488811.000000 0 0 1
22.907242 27.049977 -13.487072 37.925508 0.868135 1.934374 0.019056 0.001811 325744.000000 0 0 1
21.402942 26.933677 -13.128572 36.822117 0.899324 1.935359 0.024398 -0.006545 -600539.000000 0 0 1
20.580242 26.591677 -14.230572 36.512640 0.912152 1.971150 0.037355 -0.016862 -621304.000000 0 0 1
19.232942 26.845077 -13.996672 35.867410 0.949120 1.971682 0.047898 -0.021947 -789049.000000 0 0 1
18.713742 28.304977 -14.038672 36.721386 0.986625 1.963083 0.040044 -0.019976 -644998.000000 0 0 1
18.715142 28.866277 -15.388972 37.687385 0.995589 1.991423 0.035286 -0.017383 561562.000000 0 0 1
17.801742 28.253477 -16.347672 37.180740 1.008558 2.026040 0.018156 -0.005894 178958.000000 0 0 1
17.874642 28.983277 -17.658972 38.358474 1.018171 2.049205 0.020044 0.000733 79595.700000 0 0 1
17.068042 30.130977 -17.788172 38.930874 1.055403 2.045322 0.020996 -0.002286 107228.000000 0 0 1
17.511542 30.815077 -18.954672 40.193317 1.054028 2.061887 0.020410 0.000513 -274314.000000 0 0 1
16.509242 31.904277 -19.291272 40.774884 1.093277 2.063621 0.019174 -0.001715 -178201.000000 0 0 1
16.373742 32.953177 -18.316072 41.103404 1.109649 2.032651 0.009669 0.004465 -80769.500000 0 0 1
15.657342 34.045077 -18.855272 41.949266 1.139740 2.036977 0.014349 0.008551 -1763.880000 0 0 1
15.428642 -33.778732 -17.881972 41.216631 -1.142338 2.019562 0.014903 0.014243 -465364.000000 0 0 1
14.472142 -32.856432 -18.255272 40.277078 -1.155899 2.041196 0.016895 0.017946 -429460.000000 0 0 1
14.183442 -32.071132 -17.100972 39.015008 -1.154406 2.024523 0.021553 0.015769 125101.000000 0 0 1
13.133042 -30.971732 -17.425372 37.886259 -1.169745 2.048723 0.030161 0.010294 1394720.000000 0 0 1
11.789942 -31.483032 -17.625372 37.958369 -1.212477 2.053679 0.040760 0.006960 739900.000000 0 0 1
10.890842 -30.440832 -17.909972 36.959732 -1.227216 2.076680 0.029789 0.012211 249899.000000 0 0 1
9.475442 -30.959832 -18.277372 37.180069 -1.273793 2.084712 0.044572 0.002873 -494039.000000 0 0 1
8.688442 -31.322132 -17.117772 36.736673 -1.300210 2.055514 0.049128 -0.000070 434669.000000 0 0 1
7.695242 -32.270232 -17.486672 37.501578 -1.336706 2.055890 0.057370 0.004721 571973.000000 0 0 1
6.387942 -31.769332 -18.175072 37.154132 -1.372370 2.081946 0.051205 0.005224 -380545.000000 0 0 1
6.531842 -31.234132 -19.472672 37.382094 -1.364642 2.118712 0.044836 0.009458 -177019.000000 0 0 1
6.289142 -32.155632 -20.485772 38.642009 -1.377650 2.129565 0.030419 0.003084 -933651.000000 0 0 1
6.562642 -31.516032 -21.871272 38.918904 -1.365498 2.167562 0.018036 0.006050 1459370.000000 0 0 1
7.936142 -31.225932 -22.295872 39.180954 -1.321913 2.176145 0.028611 0.006769 1619710.000000 0 0 1
8.884342 -32.281032 -22.275172 40.214175 -1.302227 2.157854 0.030342 0.000465 -397502.000000 0 0 1
8.779742 -33.473932 -23.267772 41.701046 -1.314288 2.162729 0.028085 -0.003632 -553639.000000 0 0 1
7.683442 -34.335032 -23.076172 42.076590 -1.350645 2.151285 0.024694 -0.010125 -583147.000000 0 0 1
7.470742 33.701077 -24.127772 42.115603 1.352647 2.180829 0.020870 -0.014041 -853782.000000 0 0 1
6.331442 32.697677 -23.839572 40.957911 1.379528 2.192044 0.025922 -0.021206 760387.000000 0 0 1
5.008042 33.234777 -23.809872 41.189088 1.421235 2.187149 0.025284 -0.016398 343375.000000 0 0 1
4.750442 34.107477 -22.729672 41.261662 1.432408 2.154199 0.012628 -0.010449 -861584.000000 0 0 1
3.321142 -34.210432 -22.834472 41.264958 -1.474020 2.157192 0.013761 -0.007155 1270040.000000 0 0 1
2.153142 33.893777 -22.606072 40.797778 1.507355 2.158078 0.010922 -0.012290 772007.000000 0 0 1
0.995642 -34.363732 -23.072372 41.402799 -1.541831 2.161886 0.009005 -0.005547 1060500.000000 0 0 1
-0.354858 33.913277 -22.497972 40.698834 -1.560333 2.156507 0.010311 -0.014420 1086860.000000 0 0 1
-0.648758 34.149977 -21.133972 40.165739 -1.551801 2.124886 0.002255 -0.011221 -27023.100000 0 0 1
-1.693958 33.309277 -20.663772 39.234792 -1.519985 2.125474 0.006686 -0.016075 202184.000000 0 0 1
-2.074858 33.356577 -19.179372 38.533292 -1.508674 2.091782 0.010205 -0.009285 259176.000000 0 0 1
-1.044158 32.982377 -18.265972 37.717015 -1.539149 2.076348 -0.000672 -0.020054 238544.000000 0 0 1
-1.618358 32.860477 -16.984972 37.025928 -1.521587 2.047364 -0.002822 -0.020238 276027.000000 0 0 1
-0.799858 31.891777 -16.093472 35.731290 -1.545721 2.038013 -0.002840 -0.023926 914494.000000 0 0 1
0.397142 32.455077 -15.507872 35.971987 1.558560 2.016519 0.005237 -0.018290 185705.000000 0 0 1
1.257642 31.372877 -15.243672 34.902846 1.530731 2.022774 0.008655 -0.010911 39497.600000 0 0 1
2.310842 31.759977 -14.172772 34.855468 1.498165 1.989543 0.027307 -0.016530 -300114.000000 0 0 1
3.222742 32.698077 -14.652372 35.975580 1.472553 1.990277 0.030212 -0.013089 -215096.000000 0 0 1
4.118342 33.123577 -13.593772 36.040571 1.447098 1.957546 0.033832 -0.014491 1418520.000000 0 0 1
5.546942 33.496477 -14.173672 36.792330 1.406688 1.966258 0.056664 -0.020943 1397410.000000 0 0 1
6.366142 32.349877 -14.482772 36.011013 1.376489 1.984689 0.046745 -0.012011 -76700.500000 0 0 1
7.517642 32.678677 -15.244872 36.834997 1.344683 1.997497 0.043552 -0.004416 86215.900000 0 0 1
8.478542 31.495477 -15.232472 35.998319 1.307831 2.007709 0.034245 -0.011007 -286676.000000 0 0 1
9.074242 31.313777 -13.959072 35.464774 1.288738 1.975345 0.034735 -0.013566 -243824.000000 0 0 1
9.949642 30.200377 -13.780572 34.654904 1.252541 1.979752 0.031502 -0.010243 105431.000000 0 0 1
9.372242 28.746077 -13.739172 33.210552 1.255628 1.997310 0.029092 -0.018170 -162693.000000 0 0 1
8.760542 28.208077 -14.925972 33.094220 1.269672 2.038698 0.038755 -0.016865 129517.000000 0 0 1
8.367042 26.867677 -14.572972 31.689920 1.268899 2.048635 0.033229 -0.010435 -28939.700000 0 0 1
7.343842 26.261377 -15.588772 31.410218 1.298118 2.090124 0.038975 -0.009453 227884.000000 0 0 1
7.941942 25.727677 -16.758072 31.714678 1.271384 2.127513 0.040916 -0.005537 -85592.200000 0 0 1
7.262342 24.603777 -17.249572 30.913350 1.283775 2.162767 0.037036 0.000152 559382.000000 0 0 1
8.216442 23.836877 -18.247972 31.123868 1.238856 2.197282 0.035921 0.006544 474645.000000 0 0 1
7.487742 23.138377 -19.199972 30.985315 1.257825 2.239090 0.048209 -0.001559 17259.800000 0 0 1
8.381742 22.301077 -19.917372 31.053073 1.211285 2.267115 0.034052 -0.000592 463900.000000 0 0 1
7.617542 21.251077 -20.849372 30.729978 1.226610 2.316474 0.032196 -0.011915 323569.000000 0 0 1
6.998342 20.176977 -20.204672 29.399252 1.236932 2.328495 0.030826 -0.008164 16884.800000 0 0 1
6.200142 19.471377 -21.175672 29.427630 1.262524 2.374000 0.020652 -0.002662 175146.000000 0 0 1
24.843642 -12.652723 -9.400272 29.422153 -0.471055 1.895994 0.011449 0.000774 -265755.000000 0 0 1
25.239942 -11.766123 -8.349572 29.072524 -0.436220 1.862097 0.010006 -0.002811 802875.000000 0 0 1
24.350842 -11.907323 -7.241172 28.056771 -0.454801 1.831841 0.010788 0.000440 -175669.000000 0 0 1
25.002842 -11.335123 -5.986072 28.097334 -0.425639 1.785490 0.003977 -0.004750 -429362.000000 0 0 1
25.065842 -9.933023 -5.764972 27.571657 -0.377293 1.781441 0.011403 -0.011169 828120.000000 0 0 1
25.918042 -9.078723 -6.567372 28.236474 -0.336929 1.805531 0.003068 -0.007987 -503468.000000 0 0 1
26.146142 -7.622723 -5.956172 27.878354 -0.283680 1.786105 0.039830 -0.015225 -146034.000000 0 0 1
26.775942 -7.416323 -4.702772 28.179230 -0.270203 1.738469 0.058004 -0.024057 87995.300000 0 0 1
28.113842 -7.817223 -4.609672 29.542278 -0.271205 1.727473 0.051267 -0.030585 -437575.000000 0 0 1
28.722142 -7.719223 -3.179572 29.910826 -0.262551 1.677299 0.058739 -0.031460 -161054.000000 0 0 1
28.969542 -6.379023 -2.762572 29.791913 -0.216739 1.663659 0.075860 -0.032208 -182239.000000 0 0 1
30.043142 -6.271723 -1.885472 30.748657 -0.205802 1.632154 0.067954 -0.027662 -325841.000000 0 0 1
30.238942 -4.823323 -1.299272 30.648755 -0.158175 1.613201 0.073226 -0.030783 32910.000000 0 0 1
29.088142 -4.462123 -0.562972 29.433781 -0.152214 1.589924 0.096980 -0.033576 78254.200000 0 0 1
29.039842 -3.151623 -0.053172 29.210409 -0.108104 1.572617 0.079892 -0.025871 -217525.000000 0 0 1
29.568042 -3.045023 1.427428 29.758677 -0.102622 1.522811 0.074320 -0.019878 188871.000000 0 0 1
28.696242 -3.457023 2.495428 29.011247 -0.119892 1.484674 0.082340 -0.025975 557903.000000 0 0 1
29.360342 -3.294223 3.730228 29.779123 -0.111732 1.445203 0.061962 -0.018772 81532.400000 0 0 1
28.817642 -4.218423 4.852928 29.526302 -0.145351 1.405688 0.064774 -0.022906 -310226.000000 0 0 1
29.327542 -5.509123 4.718028 30.211173 -0.185684 1.413986 0.063495 -0.027500 109142.000000 0 0 1
29.527142 -6.119923 5.979928 30.741911 -0.204371 1.375028 0.065799 -0.024353 -375190.000000 0 0 1
30.381642 -7.359423 6.000928 31.831061 -0.237655 1.381137 0.047337 -0.016294 1003070.000000 0 0 1
31.806942 -7.220423 5.775528 33.123599 -0.223225 1.395538 0.048618 -0.024615 1222350.000000 0 0 1
32.390742 -8.511723 5.619628 33.958649 -0.256973 1.404547 0.046220 -0.015848 643555.000000 0 0 1
33.955942 -8.527523 5.627828 35.459795 -0.246047 1.411412 0.036124 -0.013513 518368.000000 0 0 1
34.458942 -7.964323 4.442528 35.645269 -0.227137 1.445840 0.042438 -0.011326 -744105.000000 0 0 1
-35.286425 -7.883823 4.601928 36.448103 0.219814 1.444199 0.042123 -0.007653 -530393.000000 0 0 1
-34.451125 -7.524423 3.346428 35.421682 0.215032 1.476181 0.044882 -0.004125 -218240.000000 0 0 1
-34.492225 -8.503223 2.342028 35.602015 0.241706 1.504965 0.043186 -0.011107 -169025.000000 0 0 1
-33.441225 -8.298923 1.459928 34.486505 0.243250 1.528450 0.056808 -0.011964 -656397.000000 0 0 1
-33.256125 -9.448723 0.508028 34.576094 0.276825 1.556103 0.053247 -0.011623 -112613.000000 0 0 1
-32.766325 -10.573223 1.286328 34.454023 0.312137 1.533453 0.049860 -0.002118 441996.000000 0 0 1
-32.728325 -11.804523 0.580928 34.796946 0.346159 1.554101 0.043037 -0.009906 -494783.000000 0 0 1
-32.541525 -13.085823 1.439228 35.103575 0.382339 1.529785 0.027012 -0.010198 1241670.000000 0 0 1
-31.279325 -13.303923 2.109428 34.056427 0.402147 1.508817 0.028905 -0.002503 1409610.000000 0 0 1
-30.160225 -13.706523 1.322428 33.155041 0.426554 1.530900 0.033430 0.004927 8169.690000 0 0 1
-28.915425 -14.147623 2.089128 32.258665 0.455032 1.505989 0.032705 0.011480 -282688.000000 0 0 1
-28.137925 -13.075323 2.539728 31.131288 0.435000 1.489124 0.030646 0.009204 340167.000000 0 0 1
-26.918225 -13.485423 3.140428 30.270609 0.464429 1.466864 0.042871 0.011504 125615.000000 0 0 1
-25.973125 -12.360923 3.568228 28.984959 0.444192 1.447377 0.039989 0.009995 -209156.000000 0 0 1
-24.858425 -12.798423 4.316528 28.290870 0.475459 1.417621 0.033842 0.012194 -101247.000000 0 0 1
-24.217725 -11.743623 4.926328 27.362010 0.451510 1.389767 0.031465 0.014342 276946.000000 0 0 1
-22.826225 -12.091523 5.540328 26.418492 0.487140 1.359514 0.029976 0.022940 531690.000000 0 0 1
-22.992225 -13.012123 6.597228 27.230152 0.514996 1.326085 0.035984 0.005057 53399.200000 0 0 1
-21.723925 -13.464123 7.004228 26.500391 0.554839 1.303311 0.031986 0.008770 260342.000000 0 0 1
-21.084225 -12.858923 8.302728 26.054399 0.547655 1.246471 0.036688 -0.001104 -190520.000000 0 0 1
-20.793625 -11.494423 8.412828 25.204608 0.504980 1.230484 0.037189 -0.003563 1250900.000000 0 0 1
-21.936725 -10.640423 8.727728 25.896172 0.451617 1.227038 0.057799 -0.007080 443736.000000 0 0 1
-22.452225 -10.678223 10.198628 26.872641 0.443936 1.181522 0.062446 -0.000630 -708798.000000 0 0 1
-23.092125 -11.860323 10.589728 28.036687 0.474475 1.183475 0.048176 -0.010421 -454894.000000 0 0 1
-24.435525 -12.000323 10.242128 29.086145 0.456503 1.210950 0.047480 -0.008835 -655907.000000 0 0 1
-25.372325 -11.389723 11.315428 30.025315 0.421942 1.184389 0.058468 -0.013376 -537236.000000 0 0 1
-25.374925 -12.172923 12.467828 30.781709 0.447294 1.153774 0.039830 -0.010751 323463.000000 0 0 1
-26.449025 -11.730723 13.290528 31.840209 0.417454 1.140199 0.030882 -0.013842 202993.000000 0 0 1
-26.525625 -12.421323 14.677328 32.761593 0.437948 1.106265 0.032908 -0.009394 -180668.000000 0 0 1
-26.873225 -13.759223 14.628828 33.548309 0.473205 1.119589 0.023382 -0.008846 197530.000000 0 0 1
-26.527025 -14.496023 15.759728 34.090860 0.500123 1.090225 0.019241 -0.007971 -674333.000000 0 0 1
-26.251525 -15.979723 15.510728 34.424944 0.546804 1.103396 0.018311 0.000027 241407.000000 0 0 1
-27.370725 -16.870723 15.538728 35.710362 0.552375 1.120611 0.008480 0.000186 209418.000000 0 0 1
-26.880625 -18.168923 15.671328 36.031490 0.594376 1.120831 0.009092 0.004265 35405.300000 0 0 1
-27.831125 -19.227623 16.310428 37.554002 0.604571 1.121514 -0.007908 0.011706 42172.100000 0 0 1
-28.297225 -18.955023 17.613128 38.343814 0.590206 1.093536 0.006485 0.008842 22826.000000 0 0 1
-28.788025 -20.125023 18.296028 39.604438 0.610106 1.090582 0.013249 0.010354 -141986.000000 0 0 1
-27.783825 -21.245423 18.612328 39.619789 0.652823 1.081762 0.012661 0.014924 -901668.000000 0 0 1
-26.745425 -20.938023 19.458128 39.145080 0.664204 1.050569 0.020597 0.011583 -566125.000000 0 0 1
-26.069225 -22.103623 19.858228 39.528772 0.703263 1.044454 0.029078 0.012351 -630228.000000 0 0 1
-24.683425 -21.819823 20.429028 38.764949 0.723897 1.015733 0.042225 0.015185 -602891.000000 0 0 1
-23.678425 -21.627323 19.457828 37.510211 0.740157 1.025427 0.047034 0.010234 -1000090.000000 0 0 1
-22.477825 -21.531023 20.148428 37.078251 0.763888 0.996311 0.051906 0.006272 -753953.000000 0 0 1
-21.328025 -21.278023 19.146928 35.696551 0.784225 1.004654 0.045109 0.007498 -165393.000000 0 0 1
-21.053225 -22.401223 18.319928 35.786489 0.816409 1.033374 0.041402 0.013360 917391.000000 0 0 1
-19.852325 -22.227623 17.535928 34.578762 0.841786 1.038945 0.043341 0.007685 670206.000000 0 0 1
-19.856925 -23.157323 16.274528 34.574836 0.861976 1.080707 0.035510 0.015602 -276209.000000 0 0 1
-19.696725 -24.576523 16.484428 35.548598 0.895175 1.088612 0.044032 0.008358 486424.000000 0 0 1
-18.523225 -25.093643 17.111628 35.575393 0.934913 1.069006 0.051049 0.001561 1275710.000000 0 0 1
-17.113325 -24.999223 16.403328 34.451360 0.970512 1.074548 0.054195 -0.004279 962611.000000 0 0 1
-16.449325 -23.766823 16.372128 33.218801 0.965383 1.055426 0.053062 -0.003201 -281887.000000 0 0 1
-15.271225 -23.814023 15.621028 32.316165 1.000582 1.066283 0.043826 -0.004777 71370.300000 0 0 1
-14.490525 -22.435023 15.440028 30.849635 0.997317 1.046628 0.040058 0.005870 169911.000000 0 0 1
-15.178025 -21.434123 14.691328 30.093673 0.954639 1.060786 0.050101 0.007799 356870.000000 0 0 1
-15.980825 -20.553723 15.524528 30.312592 0.909917 1.033113 0.050098 0.005369 108149.000000 0 0 1
-15.223625 -19.546223 16.409028 29.716490 0.909084 0.985812 0.043859 -0.006554 -615996.000000 0 0 1
-14.785725 -18.361023 15.715328 28.332249 0.892845 0.982818 0.045194 -0.007979 117283.000000 0 0 1
-14.626725 -17.202723 16.554928 27.998935 0.866153 0.938164 0.025806 -0.010076 -690820.000000 0 0 1
-14.050025 -16.004223 15.778128 26.504484 0.850329 0.933157 0.027334 -0.008229 -71705.800000 0 0 1
-14.900425 -15.376723 14.833528 26.048029 0.801128 0.964937 0.032771 -0.015832 -2522.600000 0 0 1
-15.005725 -16.017223 13.530328 25.783579 0.817991 1.018357 0.045674 -0.015802 152273.000000 0 0 1
-15.973625 -15.282123 12.561228 25.426058 0.763278 1.054078 0.043511 -0.010211 1096690.000000 0 0 1
-17.390825 -15.461123 12.753628 26.535676 0.726726 1.069433 0.036048 -0.010862 909135.000000 0 0 1
-18.144825 -14.515723 11.993228 26.149157 0.674736 1.094325 0.046842 -0.009726 -24670.300000 0 0 1
-19.662925 -14.773123 12.187428 27.448300 0.644345 1.110723 0.036351 -0.008526 5121.050000 0 0 1
-20.222225 -15.919523 11.611728 28.234762 0.666905 1.146964 0.039603 -0.017563 -189757.000000 0 0 1
-20.132225 -16.071023 10.186828 27.701186 0.673687 1.194219 0.039915 -0.009040 -385017.000000 0 0 1
-20.992825 -17.289123 9.693328 28.871665 0.688950 1.228407 0.042677 -0.004374 264045.000000 0 0 1
-20.565925 -18.603523 10.019928 29.486391 0.735340 1.224076 0.058135 0.000800 -281816.000000 0 0 1
-21.406425 -19.588923 9.414128 30.505519 0.741093 1.257071 0.065262 -0.006593 157302.000000 0 0 1
-20.786525 -20.969923 9.235428 30.937201 0.789790 1.267653 0.058599 0.001842 -1036.430000 0 0 1
-19.778525 -21.139423 8.266028 30.106352 0.818645 1.292663 0.055735 -0.001503 -227483.000000 0 0 1
-19.156525 -22.413323 8.463628 30.675112 0.863584 1.291258 0.048148 -0.003809 803431.000000 0 0 1
-17.833925 -22.638723 7.643928 29.815940 0.903562 1.311531 0.045245 -0.012282 828776.000000 0 0 1
-16.743125 -21.807423 8.055628 28.649416 0.916018 1.285773 0.037272 -0.012218 -33840.000000 0 0 1
-15.606325 -22.262023 7.340528 28.160937 0.959380 1.307087 0.048788 -0.011531 934318.000000 0 0 1
-14.277625 -21.705123 8.036128 27.194526 0.988957 1.270812 0.019125 -0.006556 1008410.000000 0 0 1
-13.101225 -22.198623 7.429228 26.825629 1.037627 1.290183 0.026487 -0.002771 88240.500000 0 0 1
-11.943025 -21.860123 8.177228 26.217701 1.070769 1.253607 0.024878 0.001063 918403.000000 0 0 1
-10.595025 -22.476123 7.705728 26.015551 1.130297 1.270088 0.016616 0.010467 570188.000000 0 0 1
-10.531325 -23.901723 7.991828 27.314290 1.155779 1.273864 0.016392 0.009915 143751.000000 0 0 1
-9.284625 -24.475023 7.581128 27.252605 1.208217 1.288898 0.029087 0.006879 742685.000000 0 0 1
-9.306825 -25.996463 7.849428 28.706211 1.227009 1.293829 0.029419 0.002266 -23785.200000 0 0 1
-9.652825 -26.684563 6.655728 29.146897 1.223703 1.340413 0.023076 -0.005024 -186515.000000 0 0 1
-9.748825 -28.112963 6.957628 30.557926 1.236999 1.341095 0.037785 -0.009121 -225098.000000 0 0 1
-8.890825 -28.975753 6.014928 30.900168 1.273079 1.374889 0.041019 -0.010805 -1289980.000000 0 0 1
-7.548125 -28.553983 6.046328 30.147341 1.312362 1.368868 0.045337 -0.015895 -345478.000000 0 0 1
-6.660825 -29.458803 5.407728 30.682750 1.348429 1.393624 0.044519 -0.008755 232049.000000 0 0 1
-6.576825 -30.850483 6.110828 32.130190 1.360757 1.379441 0.049542 -0.019559 -1010600.000000 0 0 1
-6.124025 -30.790093 7.487728 32.273821 1.374463 1.336657 0.044631 -0.015096 211583.000000 0 0 1
-6.179025 -32.063543 8.046728 33.630357 1.380418 1.329183 0.075594 -0.029045 -175694.000000 0 0 1
-6.593925 -32.043373 9.538028 34.076848 1.367848 1.287109 0.070763 -0.030457 -182431.000000 0 0 1
-5.711025 -31.464453 10.494028 33.656384 1.391244 1.253710 0.046272 -0.018287 303979.000000 0 0 1
-6.101025 -31.742543 11.804528 34.411603 1.380909 1.220646 0.033579 -0.011374 -250802.000000 0 0 1
-5.166025 -30.899253 12.732928 33.816846 1.405139 1.184753 0.027109 -0.002515 416569.000000 0 0 1
-5.533025 -29.551113 12.659128 32.621100 1.385704 1.172265 0.026570 -0.004025 227152.000000 0 0 1
-4.817025 -28.790613 13.651528 32.225259 1.405019 1.133349 0.010002 -0.001703 -61971.700000 0 0 1
-5.592025 -28.206433 14.869428 32.372418 1.375081 1.093562 0.012389 -0.002681 -180635.000000 0 0 1
-5.949025 -29.227063 15.850728 33.776584 1.369994 1.082319 0.022895 -0.008254 406035.000000 0 0 1
-4.865025 -29.739623 16.622328 34.415337 1.408645 1.066728 0.008881 -0.000164 418030.000000 0 0 1
-5.270025 -31.138363 17.149828 35.937270 1.403140 1.073313 0.010684 0.001681 213948.000000 0 0 1
-5.345025 -32.070433 16.066728 36.265985 1.405649 1.111827 0.011490 0.001371 162403.000000 0 0 1
-6.227325 -33.061693 16.528428 37.483917 1.384623 1.114143 0.008462 -0.001500 -44701.600000 0 0 1
-5.856025 -34.428513 15.911028 38.376768 1.402316 1.143293 0.000253 -0.004633 -181509.000000 0 0 1
-6.237225 34.264624 14.562728 37.749709 -1.390737 1.174753 0.012937 -0.014374 -25315.400000 0 0 1
-5.566025 33.189210 13.919928 36.417972 -1.404637 1.178591 0.004647 -0.015967 213772.000000 0 0 1
-4.385025 33.681225 12.996428 36.367025 -1.441333 1.205348 0.018062 -0.021520 389839.000000 0 0 1
-4.637025 34.016518 11.648328 36.253401 -1.435315 1.243691 0.027656 -0.025447 391339.000000 0 0 1
-3.424025 34.385717 10.975328 36.256852 -1.471547 1.263261 0.034757 -0.026789 -188838.000000 0 0 1
-3.572025 -34.219576 9.471228 35.685331 1.466788 1.302168 0.040530 -0.031069 -778617.000000 0 0 1
-3.755025 33.644783 8.517228 34.908664 -1.459648 1.324322 0.053306 -0.038021 636313.000000 0 0 1
-4.634025 32.486677 8.701328 33.949543 -1.429108 1.311602 0.055291 -0.035084 1284370.000000 0 0 1
-6.102025 32.780757 9.148828 34.576203 -1.386756 1.303008 0.080401 -0.039102 -199688.000000 0 0 1
-7.029225 33.267481 8.237228 34.985529 -1.362565 1.333118 0.086348 -0.031030 -775279.000000 0 0 1
-8.250325 33.429684 8.956728 35.578570 -1.328835 1.316313 0.072042 -0.025121 555097.000000 0 0 1
-9.360625 33.768278 7.887328 35.918350 -1.300384 1.349402 0.074523 -0.032863 67886.400000 0 0 1
-9.320025 -33.811793 7.462728 35.857949 1.301831 1.361145 0.095157 -0.033725 2511.490000 0 0 1
-10.118625 -33.674993 6.308928 35.723861 1.278900 1.393263 0.075908 -0.017347 1397.340000 0 0 1
-10.287925 -32.281373 5.718128 34.360230 1.262277 1.403601 0.062701 -0.019598 10343.000000 0 0 1
-11.109825 -31.522423 6.571528 34.062829 1.231948 1.376655 0.061587 -0.008766 268683.000000 0 0 1
-12.102025 -30.770303 5.839928 33.576410 1.196077 1.395978 0.053534 -0.003940 94352.700000 0 0 1
-12.991025 -29.877293 6.725128 33.266300 1.160644 1.367233 0.049491 -0.002791 -603672.000000 0 0 1
-13.893125 -30.739173 7.346628 34.523740 1.146307 1.356357 0.070050 -0.013601 -215849.000000 0 0 1
-14.765325 -29.973113 8.195428 34.403013 1.113071 1.330265 0.055511 -0.017230 -43407.000000 0 0 1
31.985389 -13.268623 -12.891072 36.949983 -0.393228 1.927171 -0.000554 0.002474 161402.000000 0 0 1
31.026009 -13.054023 -11.843372 35.683136 -0.398261 1.909118 -0.011421 0.005643 495563.000000 0 0 1
30.803639 -14.254023 -11.080172 35.704503 -0.433396 1.886336 -0.018251 0.002296 -142102.000000 0 0 1
31.849429 -14.693323 -10.015072 36.477137 -0.432242 1.848926 -0.001930 -0.003809 260879.000000 0 0 1
33.058769 -15.212923 -10.555972 37.891210 -0.431286 1.853118 0.007186 -0.008074 10120.300000 0 0 1
33.891899 -15.724423 -9.513572 38.554200 -0.434401 1.820130 0.028228 -0.011881 -154866.000000 0 0 1
35.321507 -15.813323 -10.054172 39.984452 -0.420937 1.824977 0.027200 -0.017263 -258675.000000 0 0 1
-35.174446 -14.566123 -10.458372 39.481529 0.392611 1.838889 0.027639 -0.007743 -342867.000000 0 0 1
-33.899238 -14.836423 -10.948272 38.589408 0.412547 1.858459 0.040471 -0.020029 -644402.000000 0 0 1
-33.200718 -13.567723 -11.361072 37.622397 0.387947 1.877561 0.064916 -0.026229 -254397.000000 0 0 1
-32.959688 -12.639023 -10.307072 36.773926 0.366175 1.854884 0.073494 -0.027656 329804.000000 0 0 1
-32.341278 -11.501323 -10.906472 36.016521 0.341676 1.878445 0.070396 -0.029771 -51793.000000 0 0 1
-32.508158 -10.212723 -10.086472 35.536136 0.304395 1.858590 0.067597 -0.028487 33678.800000 0 0 1
-31.855968 -10.185123 -8.821572 34.588431 0.309453 1.828690 0.065181 -0.022859 125049.000000 0 0 1
-32.372208 -9.183523 -8.057472 34.600864 0.276423 1.805823 0.074337 -0.033049 -489075.000000 0 0 1
-31.855108 -8.993523 -6.607072 33.753292 0.275164 1.767814 0.058260 -0.030204 -30697.400000 0 0 1
-30.682888 -8.189423 -6.438472 32.403089 0.260825 1.770827 0.064390 -0.036274 727729.000000 0 0 1
-30.181148 -8.177023 -5.095672 31.681718 0.264580 1.732338 0.057580 -0.028611 438571.000000 0 0 1
-29.272268 -9.433423 -4.658672 31.105600 0.311756 1.721132 0.063922 -0.023934 -22482.900000 0 0 1
-30.018768 -10.607023 -4.340972 32.132217 0.339653 1.706308 0.069855 -0.020594 565439.000000 0 0 1
-30.584598 -10.595023 -3.022072 32.508538 0.333479 1.663893 0.050947 -0.013968 -94261.800000 0 0 1
-31.335208 -11.922023 -2.830872 33.645857 0.363555 1.655033 0.057984 -0.014492 246961.000000 0 0 1
-32.667628 -12.048523 -3.327872 34.977358 0.353343 1.666084 0.053564 -0.020750 851022.000000 0 0 1
-33.229498 -13.298223 -2.930172 35.911393 0.380673 1.652482 0.051976 -0.026428 93959.900000 0 0 1
-34.772773 -13.412123 -2.871872 37.380187 0.368125 1.647701 0.042398 -0.022486 65274.700000 0 0 1
-35.157076 -12.595323 -1.804672 37.388755 0.344013 1.619083 0.044211 -0.029613 -28165.300000 0 0 1
34.583239 -12.635423 -1.545972 36.851654 -0.350295 1.612760 0.052639 -0.025679 -133968.000000 0 0 1
34.195199 -11.585623 -0.469272 36.107596 -0.326670 1.583793 0.052764 -0.027911 -204193.000000 0 0 1
34.599739 -11.977623 0.822228 36.623510 -0.333265 1.548344 0.059926 -0.021771 141670.000000 0 0 1
34.661029 -10.896723 1.663128 36.371575 -0.304596 1.525054 0.040016 -0.016982 -414960.000000 0 0 1
35.010759 -11.225423 3.167528 36.902528 -0.310272 1.484856 0.047566 -0.017588 312217.000000 0 0 1
33.985639 -11.907923 3.899428 36.221925 -0.337014 1.462933 0.046735 -0.024919 210847.000000 0 0 1
34.409539 -12.125323 5.206828 36.853099 -0.338796 1.429036 0.039474 -0.024060 48488.100000 0 0 1
33.286099 -12.439423 6.271128 36.083662 -0.357641 1.396115 0.038081 -0.020336 446606.000000 0 0 1
32.528409 -11.359523 6.759128 35.111565 -0.335978 1.377083 0.029838 -0.021902 124340.000000 0 0 1
32.435999 -11.376323 8.152928 35.326831 -0.337326 1.337911 0.006701 -0.006125 -414377.000000 0 0 1
31.600179 -10.209023 8.701428 34.329438 -0.312484 1.314532 0.018605 -0.018577 131535.000000 0 0 1
30.203049 -10.344423 8.494228 33.036089 -0.329974 1.310756 0.040454 -0.012616 328910.000000 0 0 1
29.442939 -9.532323 9.392528 32.341481 -0.313106 1.276133 0.055298 -0.003655 -475926.000000 0 0 1
27.974349 -9.532123 8.999328 30.893583 -0.328406 1.275210 0.054912 -0.010757 -725539.000000 0 0 1
27.609139 -8.870723 7.833628 30.038642 -0.310879 1.306961 0.076134 -0.016257 170581.000000 0 0 1
26.888739 -9.806723 7.001028 29.465072 -0.349723 1.330898 0.078244 -0.026563 253951.000000 0 0 1
25.961409 -9.081123 5.995128 28.149656 -0.336491 1.356179 0.076628 -0.030338 434856.000000 0 0 1
24.841809 -8.375323 6.537828 27.018599 -0.325178 1.326395 0.068935 -0.024515 463845.000000 0 0 1
24.017809 -7.664323 5.629628 25.831951 -0.308895 1.351101 0.069590 -0.031597 -102781.000000 0 0 1
24.583909 -6.437223 4.814628 25.864784 -0.256097 1.383558 0.066186 -0.029510 -621411.000000 0 0 1
25.226809 -6.864923 3.636628 26.395911 -0.265694 1.432584 0.060444 -0.028535 33002.700000 0 0 1
25.896009 -5.752123 3.079528 26.705312 -0.218575 1.455224 0.073324 -0.026956 146600.000000 0 0 1
26.552299 -5.923523 1.634428 27.254065 -0.219495 1.510790 0.080389 -0.031916 -160748.000000 0 0 1
25.645309 -6.015923 0.583328 26.347931 -0.230416 1.548655 0.083495 -0.038257 -419123.000000 0 0 1
26.226189 -5.992823 -0.728572 26.912037 -0.224648 1.597872 0.080439 -0.034605 -712198.000000 0 0 1
25.239209 -6.184723 -1.856172 26.052137 -0.240309 1.642105 0.077229 -0.029140 -473183.000000 0 0 1
24.427009 -5.061123 -2.065072 25.031146 -0.204303 1.653390 0.086557 -0.023477 -503998.000000 0 0 1
23.571509 -5.201823 -3.130572 24.340819 -0.217201 1.699768 0.062643 -0.018491 -678850.000000 0 1 0
22.317309 -4.310623 -3.047972 22.933249 -0.190802 1.704097 0.040917 -0.017252 -495258.000000 0 1 0
22.391409 -2.845623 -3.177572 22.794072 -0.126408 1.710655 0.030025 -0.018837 69625.100000 0 1 0
22.823909 -2.317323 -4.408372 23.360962 -0.101184 1.760641 0.037667 -0.017123 230102.000000 0 1 0
21.864209 -1.203323 -5.000272 22.460952 -0.054981 1.795298 0.018041 -0.006448 582641.000000 0 1 0
22.037609 0.035277 -4.332672 22.459508 0.001601 1.764924 0.031772 -0.004995 494042.000000 0 1 0
21.054609 0.938677 -4.812672 21.618036 0.044553 1.795300 0.032430 -0.000436 -460284.000000 0 1 0
20.948309 2.308777 -4.050872 21.460934 0.109770 1.760691 0.041954 -0.001298 -47704.300000 0 1 0
22.019109 3.255977 -4.168772 22.645556 0.146807 1.755940 0.060068 -0.003968 298335.000000 0 1 0
23.075609 2.935277 -3.302072 23.494750 0.126523 1.711808 0.069249 -0.005361 -380254.000000 0 1 0
24.198009 4.001377 -3.440272 24.766714 0.163877 1.710154 0.059960 -0.010165 -215604.000000 0 1 0
23.758309 5.314577 -3.185672 24.553014 0.220070 1.700910 0.054823 -0.006335 19882.700000 0 1 0
24.813509 6.177677 -2.938472 25.739242 0.244004 1.685209 0.049860 -0.010354 -516932.000000 0 0 1
24.314209 7.612777 -3.071272 25.662577 0.303431 1.690763 0.037463 -0.017695 426137.000000 0 0 1
23.387509 7.914377 -2.005272 24.771639 0.326305 1.651835 0.045206 -0.018160 -14039.400000 0 1 0
22.368809 8.720277 -2.446372 24.132791 0.371718 1.672342 0.035040 -0.016916 -1135120.000000 0 1 0
21.370409 8.963277 -1.300972 23.210499 0.397139 1.626877 0.016813 -0.013718 -778405.000000 0 1 0
21.850309 9.719577 -0.224072 23.915610 0.418543 1.580166 0.003388 -0.007633 1117140.000000 0 1 0
20.879709 9.980877 0.835128 23.157669 0.445908 1.534726 -0.004181 -0.008458 100649.000000 0 1 0
21.649109 10.629877 2.026728 24.203013 0.456428 1.486959 0.021569 -0.007781 85782.800000 0 1 0
22.295809 11.886877 1.694228 25.323337 0.489810 1.503842 0.013420 -0.004606 450297.000000 0 0 1
21.481809 12.963677 1.342428 25.126225 0.542969 1.517344 0.012476 -0.008210 -293537.000000 0 0 1
20.421809 13.587977 2.330928 24.639737 0.587102 1.476054 0.010180 -0.004823 644843.000000 0 1 0
19.173309 12.896877 2.470728 23.238970 0.592132 1.464277 0.034604 -0.010981 473418.000000 0 1 0
18.346709 13.722177 3.260228 23.141499 0.642179 1.429444 0.046082 -0.011108 -982142.000000 0 1 0
18.419309 13.608077 4.815528 23.401710 0.636291 1.363539 0.040988 -0.010384 -502225.000000 0 1 0
17.868209 12.414477 5.343928 22.404234 0.607214 1.329952 0.021274 -0.006332 260195.000000 0 1 0
18.158109 12.266377 6.721528 22.920730 0.594115 1.273171 0.026721 -0.013360 -220965.000000 0 1 0
18.262909 10.810577 7.232428 22.421205 0.534473 1.242352 0.014948 -0.015381 -141097.000000 0 1 0
19.197409 10.070877 6.468528 22.623106 0.483130 1.280824 -0.002947 -0.027308 186629.000000 0 1 0
19.547809 8.918377 7.173228 22.651920 0.428026 1.248578 0.027335 -0.020762 -96123.200000 0 1 0
20.500009 8.046977 6.358028 22.922232 0.374055 1.289737 0.021107 -0.020866 120424.000000 0 1 0
19.841609 7.624077 5.179128 21.877828 0.366853 1.331798 -0.000653 -0.017987 1427280.000000 0 1 0
20.848109 6.903677 4.441828 22.406121 0.319777 1.371233 0.003095 -0.017101 564897.000000 0 1 0
20.496109 6.736977 2.956828 21.776597 0.317571 1.434596 -0.001499 -0.014229 -35792.600000 0 1 0
21.460909 5.886277 2.355428 22.377822 0.267696 1.465344 0.000771 -0.017138 450883.000000 0 1 0
21.302909 5.716577 0.959128 22.077435 0.262171 1.527339 0.011345 -0.007450 -66062.200000 0 1 0
22.361709 4.769677 0.336528 22.867206 0.210147 1.556079 0.036405 -0.012320 279357.000000 0 1 0
22.133709 3.466477 0.749328 22.416044 0.155353 1.537362 0.022620 -0.009761 704215.000000 0 1 0
23.301509 2.712777 0.452128 23.463246 0.115899 1.551526 0.039325 -0.009825 249064.000000 0 1 0
23.165309 1.195077 0.440628 23.200300 0.051543 1.551803 0.050107 -0.013492 454333.000000 0 1 0
22.133409 0.719877 -0.470372 22.150108 0.032513 1.592034 0.029542 -0.013555 1315150.000000 0 1 0
22.289609 -0.637723 -0.857172 22.315199 -0.028603 1.609218 0.041801 -0.019021 -999555.000000 0 1 0
21.983409 -1.781523 0.193428 22.056326 -0.080863 1.562026 0.046571 -0.016530 -381569.000000 0 1 0
22.938109 -2.090623 1.155328 23.062141 -0.090891 1.520679 0.049643 -0.013806 -79103.200000 0 1 0
24.134309 -2.668523 0.661128 24.290389 -0.110122 1.543575 0.054228 -0.022759 -430820.000000 0 1 0
25.345309 -2.294423 1.509428 25.493675 -0.090280 1.511554 0.066816 -0.021094 -683985.000000 0 0 1
25.445609 -0.893623 1.783628 25.523693 -0.035105 1.500858 0.057026 -0.018028 -51850.600000 0 0 1
26.322819 -0.413523 2.751628 26.469478 -0.015708 1.466653 0.057362 -0.022760 -383530.000000 0 0 1
25.799009 0.908877 3.416428 26.040102 0.035215 1.439218 0.036488 -0.018179 -415344.000000 0 0 1
25.885809 2.058377 2.601528 26.097509 0.079351 1.470946 0.041405 -0.018298 -16648.700000 0 0 1
27.181559 2.597477 2.500928 27.419677 0.095271 1.479460 0.048185 -0.021542 -189812.000000 0 0 1
27.261349 3.714677 1.429028 27.550356 0.135428 1.518903 0.047166 -0.023973 -316078.000000 0 0 1
27.119579 3.202877 0.149428 27.308466 0.117557 1.565324 0.068776 -0.022065 213315.000000 0 0 1
27.484919 4.046677 -0.937872 27.797050 0.146182 1.604543 0.063876 -0.015947 -755213.000000 0 0 1
28.946629 3.922577 -1.319972 29.241003 0.134690 1.615953 0.060249 -0.012153 -858957.000000 0 0 1
29.844609 4.357777 -0.332272 30.162913 0.144991 1.581812 0.057991 -0.014560 816354.000000 0 0 1
31.228639 4.276177 -0.729272 31.528486 0.136085 1.593929 0.045595 -0.009270 1157380.000000 0 0 1
32.227199 4.703477 0.376328 32.570795 0.144924 1.559242 0.028607 -0.007082 -45942.600000 0 0 1
32.375129 3.818077 1.483628 32.633232 0.117390 1.525317 0.036469 -0.007606 151873.000000 0 0 1
31.329189 3.955877 2.417728 31.670372 0.125603 1.494382 0.034999 -0.004881 -74773.000000 0 0 1
31.323869 2.802877 3.474228 31.640341 0.089243 1.460771 0.043161 -0.010702 -471514.000000 0 0 1
30.611129 1.646377 3.191828 30.821089 0.053732 1.467050 0.040136 -0.016843 -7648.430000 0 0 1
30.866989 0.511277 4.054728 31.136365 0.016562 1.440201 0.040469 -0.019172 289625.000000 0 0 1
32.241439 -0.220623 3.881728 32.475019 -0.006843 1.450980 0.049286 -0.010568 476773.000000 0 0 1
33.327709 0.565677 4.346528 33.614707 0.016972 1.441129 0.044171 -0.012854 -79558.500000 0 0 1
34.539849 -0.085323 4.054428 34.777102 -0.002470 1.453947 0.039524 -0.007739 -1200690.000000 0 0 1
-35.386295 0.719877 4.503828 35.679021 -0.020341 1.444227 0.042537 -0.007517 -567931.000000 0 0 1
-34.986909 1.860077 3.735328 35.234875 -0.053115 1.464585 0.031792 -0.014221 200933.000000 0 0 1
-34.486584 1.550977 2.442728 34.607758 -0.044943 1.500154 0.042795 -0.012261 -1231960.000000 0 0 1
-34.374703 2.819077 1.679428 34.530970 -0.081827 1.522142 0.051476 -0.015795 751720.000000 0 0 1
-33.165168 3.577677 1.859228 33.409353 -0.107459 1.515118 0.061860 -0.024476 1301000.000000 0 0 1
-32.013238 2.972077 1.249228 32.175165 -0.092574 1.531961 0.066108 -0.027599 -926562.000000 0 0 1
-30.681498 3.625177 1.524428 30.932509 -0.117610 1.521494 0.071391 -0.030148 -773327.000000 0 0 1
-30.324248 3.572277 2.882528 30.669694 -0.117262 1.476671 0.067651 -0.026072 70920.900000 0 0 1
-30.123708 4.903577 3.345728 30.703041 -0.161366 1.461609 0.075402 -0.028192 -806908.000000 0 0 1
-30.252448 5.098577 4.902128 31.068263 -0.166965 1.412348 0.063915 -0.012218 343519.000000 0 0 1
-31.595648 5.236877 5.352128 32.470835 -0.164254 1.405212 0.056223 -0.006756 478297.000000 0 0 1
-32.418498 4.097177 5.214028 33.089756 -0.125717 1.412565 0.060491 -0.010221 -827238.000000 0 0 1
-32.315908 3.166177 6.464228 33.107836 -0.097664 1.374286 0.039376 0.004676 -408207.000000 0 0 1
-32.925958 3.749377 7.633328 34.006532 -0.113385 1.344401 0.030789 0.002733 440526.000000 0 0 1
-32.807238 2.854577 8.734328 34.069810 -0.086792 1.311536 0.024446 0.002472 91979.200000 0 0 1
-33.865758 1.722377 8.921428 35.063485 -0.050815 1.313531 0.020257 0.006038 -51532.700000 0 0 1
-33.485758 0.546177 8.270728 34.496365 -0.016309 1.328681 0.026482 0.001289 358380.000000 0 0 1
-34.386520 -0.518723 8.538828 35.434636 0.015084 1.327427 0.032676 -0.001568 126403.000000 0 0 1
-34.325241 -1.097323 9.964828 35.759252 0.031958 1.288393 0.043957 -0.002827 950993.000000 0 0 1
-33.149938 -1.961623 10.037528 34.691761 0.059105 1.277265 0.033418 -0.004894 1177440.000000 0 0 1
-33.140618 -2.814923 11.208328 35.097734 0.084735 1.245757 0.027793 -0.003589 -496166.000000 0 0 1
-32.026618 -3.842523 11.214228 34.150083 0.119408 1.236208 0.026141 -0.003077 -490737.000000 0 0 1
-32.092518 -4.772123 10.160528 33.999106 0.147617 1.267312 0.023733 -0.005084 344493.000000 0 0 1
-30.908138 -5.550623 10.148828 33.001835 0.177690 1.258207 0.022633 -0.007022 138236.000000 0 0 1
-30.999588 -6.586423 8.970928 32.936802 0.209355 1.294943 0.018131 -0.003232 89734.900000 0 0 1
-31.958838 -7.592823 9.164728 34.102940 0.233257 1.298715 0.028601 -0.005239 -129199.000000 0 0 1
-31.935748 -8.514123 8.068628 34.021832 0.260542 1.331355 0.022062 -0.005373 225101.000000 0 0 1
-32.942308 -9.710023 8.192728 35.307237 0.286641 1.336621 0.017002 -0.004976 1030840.000000 0 0 1
-34.318440 -9.316523 8.293028 36.514753 0.265084 1.341683 0.015975 -0.007915 702612.000000 0 0 1
-35.083410 -10.484423 8.590728 37.610761 0.290395 1.340351 0.021005 -0.006506 -170018.000000 0 0 1
8.040642 -24.000323 10.518928 27.410130 -1.247527 1.176931 0.063898 -0.013092 51841.900000 0 0 1
7.395042 -24.788823 9.512328 27.561871 -1.280880 1.218423 0.067010 -0.013459 -115765.000000 0 0 1
6.078042 -25.217603 9.767828 27.717874 -1.334284 1.210660 0.061732 -0.016309 353493.000000 0 0 1
5.462942 -26.064883 8.637828 27.997034 -1.364197 1.257153 0.049430 -0.009835 21381.200000 0 0 1
5.027342 -25.403803 7.459628 26.949460 -1.375423 1.290333 0.051544 -0.008804 -286065.000000 0 0 1
4.805142 -26.320193 6.388028 27.507250 -1.390220 1.336426 0.045045 -0.000415 -521266.000000 0 0 1
4.044742 -25.832663 5.123228 26.644584 -1.415483 1.377311 0.039667 -0.004977 502783.000000 0 0 1
2.627342 -25.815653 5.151228 26.455358 -1.469372 1.374830 0.019248 -0.009893 188535.000000 0 0 1
1.978642 -27.093993 5.199028 27.659164 -1.497897 1.381704 0.006676 -0.007959 -568927.000000 0 0 1
0.455442 -27.125113 5.033728 27.591984 -1.554007 1.387334 0.003304 -0.004931 -219275.000000 0 0 1
-0.250358 -26.571673 6.191928 27.284729 1.561375 1.341864 0.007603 -0.008987 -129200.000000 0 0 1
-1.641758 -26.768643 6.217928 27.530315 1.509542 1.342973 -0.005771 -0.005698 -138803.000000 0 0 1
-2.129758 -28.227183 6.386428 29.018893 1.495488 1.348902 -0.003183 -0.003232 -1032490.000000 0 0 1
-1.820058 -28.896133 7.568628 29.926296 1.507893 1.315111 0.003214 -0.008434 30636.500000 0 0 1
-2.249758 -30.232493 7.478428 31.224860 1.496518 1.328943 0.018043 -0.012914 -299346.000000 0 0 1
-2.202658 -30.923153 8.858228 32.242228 1.499686 1.292477 0.015481 -0.012096 628201.000000 0 0 1
-0.864358 -31.231533 9.244428 32.582437 1.543128 1.283121 0.010824 -0.004287 336112.000000 0 0 1
-0.794258 -31.391253 10.637628 33.154196 1.545500 1.244166 0.005149 0.003740 -107795.000000 0 0 1
0.684142 -31.518943 10.999328 33.390073 -1.549094 1.235108 0.007438 0.002701 1689.180000 0 0 1
1.343642 -32.762593 10.692028 34.489307 -1.529808 1.255593 0.008056 0.000046 1174020.000000 0 0 1
2.725542 -32.820123 11.121528 34.760285 -1.487942 1.245120 0.011415 0.006130 1072540.000000 0 0 1
3.172942 -33.396463 12.469728 35.789459 -1.476072 1.214912 0.017735 0.003322 -99423.800000 0 0 1
2.527942 -32.840883 13.576628 35.626379 -1.493972 1.179828 0.002135 0.003829 -54974.000000 0 0 1
3.279642 -33.245963 14.672228 36.487318 -1.472467 1.156967 0.004990 0.003429 -295398.000000 0 0 1
2.940842 -32.488913 15.997228 36.333033 -1.480524 1.114870 -0.006117 0.006678 -26030.300000 0 0 1
3.310642 -31.118453 16.065228 35.176839 -1.464807 1.096515 -0.004036 0.004702 -1120290.000000 0 0 1
4.651242 -30.932243 16.314128 35.278725 -1.421546 1.090056 0.013095 0.012250 -1030980.000000 0 0 1
5.270242 -29.703613 15.539828 33.934736 -1.395196 1.095128 0.023831 0.006872 -131993.000000 0 0 1
5.541242 -29.906063 14.179628 33.558006 -1.387586 1.134549 0.021096 0.001825 -216315.000000 0 0 1
4.418542 -29.817753 13.307928 32.950308 -1.423682 1.155044 -0.000404 0.014922 -209666.000000 0 0 1
4.717142 -29.605493 11.835628 32.230711 -1.412791 1.194782 0.001094 0.014754 -75255.900000 0 0 1
5.110342 -30.713773 11.074428 33.046851 -1.405921 1.229071 0.010675 0.006218 308502.000000 0 0 1
6.465442 -31.151053 11.231228 33.739154 -1.366151 1.231436 0.021552 0.004537 234685.000000 0 0 1
6.895942 -32.442173 10.518928 34.795063 -1.361353 1.263680 0.017991 0.002365 -198945.000000 0 0 1
6.641042 -33.570053 11.258128 36.024954 -1.375492 1.252963 0.014683 0.000923 -3781.480000 0 0 1
6.978542 34.152864 10.580928 36.429030 1.369238 1.276096 0.025273 -0.003464 6105.820000 0 0 1
6.832342 32.835117 11.424728 35.430922 1.365643 1.242479 0.033531 -0.007143 1267670.000000 0 0 1
5.458542 32.497277 11.728128 34.977388 1.404381 1.228866 0.028515 -0.009020 790508.000000 0 0 1
5.435242 31.509607 12.719428 34.411932 1.399982 1.192193 0.034639 -0.008929 589641.000000 0 0 1
4.055742 31.245947 13.404528 34.240906 1.441717 1.168560 0.035966 -0.008342 547937.000000 0 0 1
4.015942 31.850107 14.675328 35.297626 1.445369 1.142018 0.053013 -0.009250 -415309.000000 0 0 1
2.967442 31.406597 15.462928 35.132353 1.476591 1.115049 0.041870 -0.007620 -475557.000000 0 0 1
3.283242 31.505337 17.008928 35.953714 1.466959 1.078015 0.031840 -0.009871 139297.000000 0 0 1
3.701942 32.803897 17.389928 37.312326 1.458421 1.085960 0.023475 -0.006143 244506.000000 0 0 1
4.175642 32.886687 18.728728 38.075391 1.444502 1.056542 0.020825 -0.006477 -83945.900000 0 0 1
4.593142 34.270699 19.136728 39.519516 1.437565 1.065308 0.015748 -0.004575 3860.390000 0 0 1
3.495942 -33.780533 19.384128 39.103586 -1.467674 1.052142 -0.007133 -0.001615 -139269.000000 0 0 1
3.808942 -32.938443 20.450428 38.957272 -1.455669 1.018146 0.000270 -0.009078 -36994.600000 0 0 1
2.694042 -32.062413 21.059128 38.454428 -1.486968 0.991257 -0.016147 -0.004725 -51288.900000 0 0 1
1.742142 -32.797193 21.791828 39.415411 -1.517728 0.984985 -0.010783 -0.000868 -819988.000000 0 0 1
0.782742 -31.975763 22.323128 39.004924 -1.546322 0.961469 -0.013760 0.003658 -903762.000000 0 0 1
-0.414858 -32.682253 22.968228 39.947982 1.558103 0.958249 -0.014669 0.004328 -1226890.000000 0 0 1
-1.275458 -33.208793 21.999928 39.855332 1.532408 0.986042 -0.018238 0.000716 -24403.000000 0 0 1
-2.140258 -34.197014 22.594028 41.042740 1.508292 0.987833 -0.009295 0.001511 -321724.000000 0 0 1
-3.407558 -33.679773 23.249928 41.066990 1.469964 0.968973 0.007865 0.006782 -858442.000000 0 0 1
-4.336058 -33.242173 22.270628 40.247041 1.441090 0.984418 0.004772 0.003442 -768441.000000 0 0 1
-5.552358 -32.861333 22.817428 40.389737 1.403414 0.970446 0.013740 0.008780 -365371.000000 0 0 1
-6.635958 -32.503703 21.771528 39.680298 1.369404 0.990020 0.015795 0.004625 205797.000000 0 0 1
-7.321958 -33.634983 21.228328 40.442119 1.356452 1.018191 0.005921 0.008339 -218934.000000 0 0 1
-8.533058 -33.166873 20.692228 40.012783 1.318981 1.027290 0.028140 -0.006438 225431.000000 0 0 1
-9.636258 -34.248839 20.475328 41.049719 1.296527 1.048590 0.053780 -0.010880 353154.000000 0 0 1
-9.978358 34.073423 21.685228 41.603064 -1.285913 1.022492 0.066837 -0.015006 -310983.000000 0 0 1
-11.249958 33.463723 21.651628 41.414675 -1.246483 1.020663 0.054656 -0.017368 186931.000000 0 0 1
-11.839258 33.180880 23.053428 42.102249 -1.228068 0.991353 0.049054 -0.012689 -47527.400000 0 0 1
-12.158158 34.331090 23.874528 43.548107 -1.230434 0.990546 0.050220 -0.015273 315732.000000 0 0 1
-11.017258 -34.021523 24.503628 43.350568 1.257621 0.970068 0.043126 -0.013038 107990.000000 0 0 1
-11.225958 -32.565543 24.872028 42.487109 1.238834 0.945421 0.034769 -0.014475 -64132.100000 0 0 1
-11.877858 -32.341773 26.099528 43.223363 1.218828 0.922500 0.030309 -0.007455 13091.500000 0 0 1
-12.166358 -30.966753 26.130028 42.305300 1.196439 0.905040 0.029364 -0.010316 -23279.700000 0 0 1
-13.038658 -30.586863 27.330628 43.040980 1.167840 0.882800 0.029783 -0.006142 28781.500000 0 0 1
-12.297758 -30.425503 28.534728 43.487662 1.186681 0.855082 0.007286 -0.001569 471774.000000 0 0 1
-13.204658 -30.064103 29.587828 44.200145 1.156946 0.837388 0.024488 -0.007203 198381.000000 0 0 1
-12.599158 -29.846973 30.968828 44.817952 1.171363 0.807936 0.006988 -0.002545 -213451.000000 0 0 1
-13.643158 -29.676183 31.907228 45.660516 1.139877 0.797088 0.020463 -0.004725 586954.000000 0 0 1
-13.164258 -28.887143 33.011328 45.798608 1.143201 0.765850 0.006698 0.002653 73886.300000 0 0 1
-12.498058 -29.668673 34.191728 46.962813 1.172103 0.755309 0.008375 0.007573 653070.000000 0 0 1
-11.169158 -30.110993 33.884328 46.685861 1.215596 0.758608 -0.004757 0.009247 328270.000000 0 0 1
-10.842858 -31.218723 -34.039855 47.443524 1.236512 2.370976 -0.001360 0.018009 434439.000000 0 0 1
-9.381958 -31.749533 -34.189655 47.591874 1.283474 2.372285 -0.002994 0.011975 184637.000000 0 0 1
-8.507258 -30.978633 -33.440255 46.371325 1.302786 2.376244 0.019973 0.005723 -41490.600000 0 0 1
-7.261758 -31.641533 -33.203655 46.437080 1.345202 2.367456 0.031528 -0.006516 541588.000000 0 0 1
-6.348358 -30.974873 -32.166255 45.104460 1.368644 2.364778 0.047049 0.003030 -439031.000000 0 0 1
-6.818858 -31.079803 -30.865655 44.329895 1.354820 2.340987 0.039747 -0.003228 -239439.000000 0 0 1
-6.158358 -30.174183 -30.032155 43.015544 1.369468 2.343634 0.033877 0.000904 -28022.500000 0 0 1
-6.632758 -30.333483 -28.582955 42.203068 1.355523 2.314845 0.046211 -0.002640 -60634.900000 0 0 1
-6.211458 -31.541043 -27.975655 42.615219 1.376352 2.286927 0.039292 0.002148 65265.800000 0 0 1
-7.082658 -31.905773 -26.912355 42.336949 1.352352 2.259673 0.045878 0.000739 110373.000000 0 0 1
-6.671158 -33.180283 -26.145755 42.767231 1.372384 2.228562 0.045125 -0.006047 595075.000000 0 0 1
-5.614558 -32.901683 -25.212255 41.829437 1.401778 2.217726 0.020335 -0.009068 182994.000000 0 0 1
-5.409758 -34.058029 -24.471155 42.285367 1.413273 2.187948 0.019218 -0.015248 37119.500000 0 0 1
-4.379058 -33.787003 -23.322555 41.287762 1.441907 2.171082 0.026636 -0.025800 110193.000000 0 0 1
-4.745958 -33.027113 -22.174355 40.062655 1.428075 2.157347 0.028185 -0.018725 -287150.000000 0 0 1
-4.901358 -31.614303 -22.427755 39.070342 1.416985 2.182222 0.007567 -0.002621 -153114.000000 0 0 1
-5.616458 -30.817333 -21.254455 37.855045 1.390525 2.166957 0.012017 -0.007710 520042.000000 0 0 1
-7.039758 -30.882163 -21.247455 38.140798 1.346671 2.161661 0.021457 -0.008234 117574.000000 0 0 1
-7.705758 -29.789103 -20.638055 37.049948 1.317668 2.161606 0.022980 -0.005210 3934.730000 0 0 1
-7.778258 -28.511503 -21.515555 36.555796 1.304466 2.200082 0.035939 -0.019751 -1371550.000000 0 0 1
-6.538458 -28.075353 -21.946555 36.230210 1.341985 2.221508 0.028597 -0.004270 -1163550.000000 0 0 1
-6.569558 -27.594913 -23.243755 36.673021 1.337076 2.257266 0.058856 -0.017925 -950577.000000 0 0 1
-5.383858 -27.940363 -24.179355 37.340206 1.380438 2.275151 0.059023 -0.012396 296122.000000 0 0 1
-4.163758 -27.253573 -24.026455 36.569997 1.419190 2.287628 0.055847 -0.013109 -32377.000000 0 0 1
-3.530758 -27.463373 -22.786255 35.859678 1.442935 2.259359 0.027679 -0.010165 -149392.000000 0 0 1
-1.984058 -27.086733 -22.803655 35.463139 1.497679 2.269237 0.034049 -0.007966 973572.000000 0 0 1
-1.549058 -25.768853 -22.965355 34.552003 1.510755 2.297836 0.039516 -0.013672 -241103.000000 0 0 1
-1.919558 -24.832523 -22.014655 33.241298 1.493650 2.294638 0.042676 -0.014050 -1091590.000000 0 0 1
-1.835658 -23.412323 -22.653655 32.629658 1.492551 2.338196 0.046960 -0.013523 134095.000000 0 0 1
-2.712658 -23.239723 -23.770955 33.354183 1.454597 2.364112 0.046697 -0.025009 375186.000000 0 0 1
-4.087258 -23.251623 -23.409055 33.246466 1.396790 2.351961 0.050246 -0.026249 -775888.000000 0 0 1
-4.997258 -23.468623 -24.587355 34.355303 1.360996 2.368392 0.044635 -0.023133 -536770.000000 0 0 1
-5.336158 -22.391823 -25.348955 34.240879 1.336851 2.404332 0.053577 -0.023796 -144602.000000 0 0 1
-5.992158 -22.706223 -26.554955 35.449177 1.312779 2.417498 0.054968 -0.020125 -26448.700000 0 0 1
-6.208458 -21.426823 -27.416155 35.345427 1.288768 2.458562 0.061762 -0.015560 9015.510000 0 0 1
-6.515858 -21.678723 -28.810255 36.639517 1.278822 2.475620 0.065388 -0.015499 -100245.000000 0 0 1
-5.347858 -21.965823 -29.534355 37.193751 1.331980 2.488269 0.041038 -0.018524 -126531.000000 0 0 1
-5.617758 -22.232223 -31.035155 38.587715 1.323292 2.505252 0.045112 -0.022144 -222049.000000 0 0 1
-5.854458 -21.015323 -31.760255 38.530926 1.299104 2.539725 0.041870 -0.025279 78109.700000 0 0 1
-6.711758 -21.299723 -32.864355 39.734012 1.265535 2.544740 0.044391 -0.021147 -83586.000000 0 0 1
-6.595958 -20.206023 -33.932855 40.040338 1.255267 2.581991 0.039159 -0.017531 -1060730.000000 0 0 1
-5.454258 -20.372823 34.111328 40.104657 1.309209 0.553751 0.045881 -0.011619 -1406930.000000 0 0 1
-5.598158 -19.898323 32.799228 38.769472 1.296547 0.562346 0.043628 -0.006407 255196.000000 0 0 1
-4.300058 -20.185523 32.029328 38.102804 1.360907 0.572401 0.024406 -0.002898 -487215.000000 0 0 1
-4.184858 -21.549223 31.631428 38.502328 1.378984 0.606679 0.032328 -0.004211 1102340.000000 0 0 1
-2.984558 -21.995523 30.961928 38.096608 1.435931 0.621989 0.025604 0.003510 181042.000000 0 0 1
-1.550458 -21.811123 31.360328 38.230866 1.499830 0.608882 0.003083 -0.003683 -875651.000000 0 0 1
-0.994858 -20.497623 31.091028 37.253111 1.522299 0.583410 -0.006109 -0.003141 741104.000000 0 0 1
-0.041558 -20.044623 32.110828 37.853585 1.568723 0.558048 0.005926 -0.005853 439190.000000 0 0 1
-0.599258 -19.688623 33.489328 38.852748 1.540369 0.531683 -0.001340 -0.010995 202451.000000 0 0 1
-1.620458 -18.673023 33.494028 38.381735 1.484232 0.510183 0.001038 -0.013273 296531.000000 0 0 1
-2.058158 -18.475523 -33.899555 38.662136 1.459855 2.639995 0.010814 -0.018412 619165.000000 0 0 1
-3.246358 -17.477723 -33.720555 38.119358 1.387147 2.656442 0.021683 -0.020959 247193.000000 0 0 1
-2.837358 -16.152723 -34.008355 37.756182 1.396912 2.692257 0.023150 -0.018643 255971.000000 0 0 1
-3.814158 -15.140423 -33.711855 37.151977 1.324013 2.707862 0.030719 -0.015477 52092.900000 0 0 1
-3.389558 -13.722723 -34.114255 36.926747 1.328640 2.748780 0.021075 -0.016216 -149682.000000 0 0 1
-2.251258 -13.275723 -33.386755 35.999839 1.402817 2.758235 0.012542 -0.009112 259164.000000 0 0 1
-1.944658 -11.855423 -33.528255 35.615680 1.408213 2.797525 0.008435 -0.001209 250363.000000 0 0 1
-1.358858 -11.399423 33.846328 35.740275 1.452152 0.327007 0.009603 -0.003284 -91274.800000 0 0 1
-2.335558 -11.469023 32.790628 34.816930 1.369903 0.342847 0.004411 -0.001346 378006.000000 0 0 1
-1.850258 -11.022823 31.541328 33.463135 1.404490 0.340555 0.001701 0.009549 169645.000000 0 0 1
-0.754858 -11.892723 30.848028 33.069737 1.507409 0.368642 0.007615 0.005334 323904.000000 0 0 1
-1.320758 -13.108523 30.367928 33.102701 1.470380 0.409336 0.009052 -0.004372 572633.000000 0 0 1
-0.281058 -13.899923 29.795028 32.879029 1.550579 0.436584 0.009171 -0.003021 293406.000000 0 0 1
-0.377058 -15.402723 30.200928 33.904013 1.546321 0.471743 0.008397 -0.001733 84945.400000 0 0 1
-1.409458 -16.074023 29.520828 33.642831 1.483335 0.500219 0.012192 -0.010278 35201.600000 0 0 1
-1.613958 -17.322623 30.163128 34.820861 1.477894 0.523175 0.023749 -0.004259 -173115.000000 0 0 1
-2.150658 -18.408123 29.166228 34.556521 1.454492 0.566070 0.027345 -0.010699 1157360.000000 0 0 1
-3.525458 -17.998223 28.906928 34.234125 1.377367 0.565372 0.038438 -0.010170 1113530.000000 0 0 1
-4.374858 -18.834023 28.155628 34.155514 1.342559 0.601768 0.040762 -0.011405 313283.000000 0 0 1
-3.948158 -18.997723 26.624528 32.944907 1.365890 0.629787 0.031254 -0.017908 -211303.000000 0 0 1
-4.775358 -19.898323 25.871028 32.985715 1.335263 0.669213 0.046577 -0.019321 -109585.000000 0 0 1
-4.492758 -21.292423 26.118228 33.995793 1.362844 0.694649 0.026127 -0.010853 -171449.000000 0 0 1
-28.894828 34.172477 -0.521972 44.754237 -0.868886 1.582460 0.022533 -0.016089 -4630.160000 0 0 1
-28.154218 -33.603732 -0.146072 43.839390 0.873410 1.574128 0.033305 -0.003936 111706.000000 0 0 1
-28.568908 -33.133532 1.110728 43.763537 0.859242 1.545413 0.029598 -0.012868 -196596.000000 0 0 1
-28.040838 -31.749332 1.436128 42.383619 0.847344 1.536906 0.027471 -0.008761 -1031780.000000 0 0 1
-26.680278 -31.725632 1.629728 41.485045 0.871569 1.531502 0.029868 -0.016489 -1278090.000000 0 0 1
-26.117968 -30.410332 1.783528 40.126270 0.861186 1.526334 0.032778 -0.007509 -154625.000000 0 0 1
-24.616558 -30.373832 2.012228 39.148355 0.889714 1.519374 0.033384 -0.005376 -605871.000000 0 0 1
-24.281858 -31.004632 3.225828 39.513312 0.906403 1.489066 0.030894 -0.012667 618941.000000 0 0 1
-22.857058 -30.958132 3.424628 38.633912 0.934811 1.482037 0.031703 -0.009011 845240.000000 0 0 1
-22.341058 -31.763632 4.624428 39.108011 0.957823 1.452271 0.039375 -0.015998 -148187.000000 0 0 1
-22.561958 -30.966932 5.741828 38.742244 0.941144 1.422042 0.033244 -0.014409 -212528.000000 0 0 1
-22.285658 -31.549732 6.935128 39.244518 0.955811 1.393148 0.023246 -0.008306 -303641.000000 0 0 1
-22.845358 -30.724732 8.186528 39.152762 0.931436 1.360150 0.025529 -0.007015 161045.000000 0 0 1
-22.262958 -29.464932 8.545928 37.905863 0.923737 1.343390 0.039924 -0.013735 -2808.680000 0 0 1
-22.713758 -29.157432 9.856128 38.251979 0.908990 1.310193 0.034957 -0.009374 151736.000000 0 0 1
-22.034158 -27.881132 10.402428 37.027992 0.902005 1.286029 0.041283 -0.008492 756422.000000 0 0 1
-20.672058 -28.093832 10.771728 36.505171 0.936431 1.271263 0.031741 -0.013067 251663.000000 0 0 1
-20.186458 -27.048732 11.598428 35.688241 0.929668 1.239792 0.045315 -0.010919 530302.000000 0 0 1
-18.817658 -27.263232 12.303028 35.337694 0.966664 1.215193 0.045874 -0.008617 425769.000000 0 0 1
-18.959158 -28.239332 13.325928 36.530671 0.979542 1.197392 0.049606 -0.003576 -1134830.000000 0 0 1
-17.806858 -28.297932 14.054628 36.268302 1.009137 1.172858 0.056203 -0.011069 -1002840.000000 0 0 1
-17.796058 -29.399232 15.212328 37.582302 1.026471 1.154065 0.077022 -0.020296 116235.000000 0 0 1
-17.732658 -30.731132 14.668128 38.392755 1.047441 1.178778 0.088143 -0.025439 -296107.000000 0 0 1
-17.670658 -31.654032 15.723128 39.515145 1.061646 1.161568 0.101334 -0.031596 163141.000000 0 0 1
-17.554158 -33.141632 15.234028 40.479524 1.083695 1.184955 0.093453 -0.030937 215791.000000 0 0 1
-17.879358 -34.108232 16.230128 41.790669 1.087981 1.171937 0.092022 -0.030518 147201.000000 0 0 1
-17.348858 33.570077 15.806528 40.960704 -1.093803 1.174619 0.086526 -0.031930 42772.400000 0 0 1
-17.447558 32.429577 16.855428 40.499385 -1.077202 1.141545 0.080671 -0.033731 -810569.000000 0 0 1
-18.748658 32.021277 17.084228 40.850278 -1.041102 1.139316 0.083975 -0.030519 -726837.000000 0 0 1
-18.833958 30.995777 18.024028 40.500886 -1.024786 1.109591 0.079552 -0.025142 223960.000000 0 0 1
-19.412958 31.244177 19.456028 41.612481 -1.014840 1.084276 0.070244 -0.028714 719876.000000 0 0 1
-18.407958 32.017577 20.137028 42.065165 -1.049012 1.071611 0.071183 -0.023133 829061.000000 0 0 1
-18.982758 32.570777 21.313628 43.306713 -1.043108 1.056232 0.059364 -0.024387 215117.000000 0 0 1
-18.227458 33.771377 21.937828 44.204236 -1.075871 1.051484 0.039132 -0.002953 290588.000000 0 0 1
-16.968758 33.510577 22.531128 43.801247 -1.102066 1.030495 0.041971 -0.019387 -98482.100000 0 0 1
-16.900958 34.120977 23.806728 44.907057 -1.110896 1.012039 0.042366 -0.017826 89212.100000 0 0 1
-17.676958 33.532777 25.042328 45.431709 -1.085662 0.986985 0.028392 -0.022278 577154.000000 0 0 1
-19.093958 33.602977 24.922028 45.987463 -1.054071 0.998063 0.008268 -0.017028 378782.000000 0 0 1
-19.717358 32.646777 25.795728 46.043521 -1.027470 0.976113 0.000039 -0.008707 -307789.000000 0 0 1
-21.239458 32.729277 25.714128 46.728327 -0.995164 0.988085 0.042755 -0.013496 -589222.000000 0 0 1
-21.737658 32.275277 24.495328 45.980870 -0.978072 1.008975 0.029647 -0.005471 -561539.000000 0 0 1
-23.109958 32.447777 24.354328 46.691131 -0.951916 1.022065 0.003048 0.000299 -627575.000000 0 0 1
-23.665558 31.899277 23.007528 45.901731 -0.932510 1.045772 -0.009009 0.008388 -147388.000000 0 0 1
-23.410058 32.755377 21.919228 45.841009 -0.950277 1.072241 -0.009243 0.005373 138860.000000 0 0 1
-23.373358 32.104777 20.697828 44.782035 -0.941503 1.090333 -0.014462 0.011448 -166148.000000 0 0 1
-23.065458 33.155077 19.581228 44.885398 -0.962973 1.119370 0.007397 0.000257 175673.000000 0 0 1
-21.835958 33.840777 19.766428 44.863336 -0.997763 1.114538 0.052702 -0.012748 119237.000000 0 0 1
-21.461458 34.403077 18.563028 44.595425 -1.013043 1.141475 0.059730 -0.015341 -136301.000000 0 0 1
-20.069058 -33.862032 18.557128 43.517483 1.035783 1.130255 0.080361 -0.019930 -25046.800000 0 0 1
-20.202858 -32.805032 19.426928 43.147783 1.018807 1.103760 0.068584 -0.031097 253719.000000 0 0 1
-18.940458 -32.229932 19.650028 42.233080 1.039495 1.086850 0.081265 -0.033741 -99884.200000 0 0 1
-18.943958 -31.261032 20.866728 42.089738 1.025982 1.052078 0.066576 -0.034021 54486.200000 0 0 1
-19.512558 -29.990532 20.545628 41.258875 0.993983 1.049542 0.082295 -0.037532 360253.000000 0 0 1
-19.756658 -29.191432 21.676628 41.380448 0.975814 1.019447 0.092813 -0.029897 127076.000000 0 0 1
-20.600958 -27.932732 21.337628 40.742255 0.935330 1.019582 0.076462 -0.024634 -373646.000000 0 0 1
-19.809958 -26.970832 20.649928 39.322764 0.937292 1.017918 0.071725 -0.023038 254435.000000 0 0 1
-20.371658 -25.724832 20.249328 38.559133 0.901010 1.017905 0.063632 -0.006752 -1080010.000000 0 0 1
-21.520958 -25.714032 19.265228 38.671851 0.873937 1.049307 0.059221 -0.005985 -1085060.000000 0 0 1
-22.731158 -25.962732 19.933128 39.850955 0.851666 1.046976 0.048096 -0.006191 -433006.000000 0 0 1
-23.753258 -25.919632 18.970128 39.948847 0.828983 1.075991 0.043971 -0.000353 -748185.000000 0 0 1
-25.182528 -26.193332 19.468028 41.222015 0.805070 1.078929 0.026050 -0.005041 -115509.000000 0 0 1
-25.508598 -27.548832 19.562728 42.335884 0.823833 1.090453 0.007712 -0.001200 54481.700000 0 0 1
-25.970248 -28.088632 18.337028 42.422537 0.824565 1.123813 0.013565 -0.004283 -1062090.000000 0 0 1
-26.932778 -29.220432 18.402328 43.793308 0.826115 1.137121 0.009380 -0.005540 241395.000000 0 0 1
-28.275098 -28.832032 18.703328 44.503727 0.795150 1.137060 -0.013116 -0.003449 684553.000000 0 0 1
-29.310578 -29.647332 18.153428 45.471103 0.791110 1.160119 -0.008739 0.004988 1610750.000000 0 0 1
-30.761348 -29.094132 18.472628 46.194881 0.757551 1.159405 -0.006140 0.003005 1008680.000000 0 0 1
-30.922258 -27.729932 18.048128 45.286533 0.731024 1.160881 0.008594 0.015101 -369989.000000 0 0 1
-32.230228 -27.277232 18.244028 45.996517 0.702356 1.162943 -0.011938 0.020328 -474363.000000 0 0 1
-32.553218 -25.938432 17.500728 45.152959 0.672787 1.172783 -0.015754 0.016753 -232525.000000 0 0 1
-32.807708 -26.042532 16.112528 44.879536 0.670945 1.203582 0.008314 0.001111 558455.000000 0 0 1
-33.447098 -24.899932 15.502228 44.486336 0.639944 1.214856 0.005954 -0.004839 -22363.000000 0 0 1
-32.456838 -23.815032 15.087528 42.991111 0.633016 1.212216 -0.011247 0.004908 146867.000000 0 0 1
-31.727828 -23.219732 16.183828 42.517377 0.631778 1.180308 -0.018241 0.009543 245759.000000 0 0 1
-31.286608 -21.877732 15.943728 41.372569 0.610235 1.175188 -0.006634 0.004030 -108411.000000 0 0 1
-32.299478 -20.741232 16.210628 41.668207 0.570840 1.171206 -0.006327 -0.004968 -48030.600000 0 0 1
-32.446908 -20.407932 17.579828 42.170320 0.561445 1.140790 -0.002153 0.004290 -121198.000000 0 0 1
-33.203638 -19.273132 17.825228 42.328170 0.525922 1.136117 0.009827 -0.000121 -434333.000000 0 0 1
-33.529898 -19.016432 19.300128 43.108859 0.515914 1.106597 0.003607 0.000489 -392807.000000 0 0 1
-34.635609 -19.759432 19.749628 44.498409 0.518442 1.110931 0.005714 0.006261 87864.400000 0 0 1
-34.854801 -19.442332 21.105928 45.147775 0.508819 1.084352 0.006887 0.010228 23907.000000 0 0 1
34.892879 -19.933432 21.679828 45.660373 -0.519030 1.076053 0.016627 0.010891 441679.000000 0 0 1
34.501299 -21.264932 21.777328 46.008575 -0.552356 1.077727 0.017829 0.008581 507391.000000 0 0 1
35.289299 -22.010632 22.748628 47.405724 -0.557678 1.070289 0.007613 0.022240 276403.000000 0 0 1
34.639309 -23.381132 23.090128 47.746341 -0.593742 1.066033 0.019037 0.023391 113652.000000 0 0 1
33.668059 -23.294632 24.109828 47.512755 -0.605263 1.038586 0.044531 0.007032 103264.000000 0 0 1
33.167829 -24.559432 24.453028 47.971045 -0.637367 1.035907 0.037961 -0.003599 -556879.000000 0 0 1
32.248279 -24.526732 25.690228 47.973950 -0.650225 1.005692 0.044236 -0.007630 -360362.000000 0 0 1
31.020309 -23.984932 25.287428 46.658232 -0.658185 0.998015 0.044946 -0.006271 40570.200000 0 0 1
30.058769 -23.933132 26.364028 46.598137 -0.672427 0.969424 0.028126 -0.001011 1788040.000000 0 0 1
28.626439 -24.574432 26.081728 45.865371 -0.709381 0.965922 0.016679 0.007366 897688.000000 0 0 1
27.756359 -23.639032 25.519328 44.502308 -0.705458 0.960100 0.025371 0.001943 -166401.000000 0 0 1
26.514019 -24.278132 25.229028 43.919526 -0.741406 0.958879 0.017982 0.015933 373587.000000 0 0 1
25.440309 -23.392032 24.577128 42.407921 -0.743478 0.952631 0.015062 0.007968 -324147.000000 0 0 1
25.598809 -22.951532 23.262128 41.511426 -0.730926 0.975953 0.022555 0.007665 -91521.800000 0 0 1
26.603569 -21.966232 23.084328 41.510859 -0.690209 0.981106 0.031723 0.015500 76956.000000 0 0 1
26.489659 -21.161532 21.767128 40.290450 -0.674046 1.000056 0.038596 0.000834 -106614.000000 0 0 1
25.515709 -20.163632 21.720528 39.107606 -0.668764 0.981947 0.027759 -0.007747 -288856.000000 0 0 1
25.474509 -19.626332 20.442928 38.105864 -0.656449 1.004539 0.006996 -0.009997 198392.000000 0 0 1
24.563109 -18.358132 20.400728 36.831468 -0.641826 0.983762 0.019520 -0.001503 11898.900000 0 0 1
25.017809 -17.200832 21.056428 36.947700 -0.602317 0.964414 0.033121 -0.022487 -18283.800000 0 0 1
25.080209 -17.268332 22.492228 37.856473 -0.602983 0.934594 0.030943 -0.017653 21929.900000 0 0 1
25.287409 -15.939832 23.230228 37.857295 -0.562435 0.910151 0.042532 -0.018295 132261.000000 0 0 1
24.022809 -15.276232 23.249028 36.755625 -0.566403 0.885981 0.018940 -0.017446 296921.000000 0 0 1
24.007809 -13.982132 23.854028 36.618159 -0.527377 0.861334 0.013886 -0.011374 -539697.000000 0 0 1
22.734309 -13.130732 23.817928 35.447971 -0.523766 0.834009 0.013215 -0.007285 -187326.000000 0 0 1
21.718409 -13.868432 24.482528 35.544576 -0.568289 0.810986 0.037957 -0.009065 -532442.000000 0 0 1
20.495509 -13.196632 24.361928 34.463322 -0.572060 0.785699 0.045485 -0.013207 421918.000000 0 0 1
19.283509 -14.030232 24.959428 34.520634 -0.628995 0.762619 0.050510 -0.005397 588842.000000 0 0 1
18.816609 -15.007232 24.048428 34.023649 -0.673247 0.785811 0.053777 -0.007588 445616.000000 0 0 1
17.507809 -15.448232 24.409228 33.778420 -0.722985 0.763200 0.049455 -0.003912 358738.000000 0 0 1
17.086409 -16.601432 23.525528 33.481389 -0.771003 0.791688 0.040011 -0.002129 -99093.600000 0 0 1
17.772609 -17.799832 23.758528 34.600106 -0.786163 0.813911 0.035170 -0.005778 -17397.000000 0 0 1
17.087609 -18.810632 23.042828 34.304492 -0.833359 0.834275 0.032198 -0.006493 -31330.900000 0 0 1
17.620709 -20.233132 23.238028 35.494718 -0.854302 0.857024 0.018790 -0.000623 -273164.000000 0 0 1
17.228509 -20.845132 24.464828 36.467367 -0.880104 0.835416 0.026919 -0.009068 192866.000000 0 0 1
17.632109 -22.187832 24.744028 37.622574 -0.899311 0.853047 0.027380 -0.003887 -403325.000000 0 0 1
17.119009 -23.204532 23.630028 37.281215 -0.935185 0.884299 0.015396 -0.000398 150797.000000 0 0 1
17.753109 -23.324032 22.366128 36.870409 -0.920197 0.919001 0.020835 0.006529 -568750.000000 0 0 1
18.951809 -24.043332 22.388428 37.927491 -0.903270 0.939371 0.013326 0.009827 -450336.000000 0 0 1
19.647009 -24.025932 21.028128 37.489099 -0.885330 0.975308 0.011880 0.019109 -374307.000000 0 0 1
19.038409 -24.862232 20.106528 37.213762 -0.917287 1.000005 0.020540 0.011388 146790.000000 0 0 1
20.021309 -25.287332 19.153428 37.512075 -0.901105 1.034921 0.015125 0.014421 653542.000000 0 0 1
19.477709 -26.194132 17.972628 37.262972 -0.931410 1.067497 0.010261 0.008754 151073.000000 0 0 1
18.970709 -27.366632 18.514028 38.099732 -0.964645 1.063363 0.028424 -0.005669 -319701.000000 0 0 1
18.234909 -28.117632 17.577828 37.843007 -0.995461 1.087734 0.025745 -0.011982 -129111.000000 0 0 1
17.427709 -29.187432 18.336628 38.624645 -1.032515 1.076129 0.033021 -0.006609 -120898.000000 0 0 1
16.346809 -28.657632 19.067928 38.105957 -1.052413 1.046744 0.041199 -0.014863 -222020.000000 0 0 1
15.507009 -29.682732 19.562328 38.784231 -1.089370 1.042122 0.060307 -0.016518 -476962.000000 0 0 1
14.225409 -29.138432 20.160428 38.181846 -1.116632 1.014540 0.062730 -0.007266 -685274.000000 0 0 1
13.504609 -28.368232 19.239228 36.841267 -1.126494 1.021345 0.069007 -0.012007 -459482.000000 0 0 1
12.162209 -28.261332 19.679528 36.522679 -1.164405 1.001748 0.056760 -0.012905 155179.000000 0 0 1
11.196009 -27.970232 18.520128 35.364950 -1.190046 1.019624 0.064151 -0.017232 -157078.000000 0 0 1
10.981609 -29.003232 17.570928 35.644365 -1.208844 1.055318 0.053956 -0.021734 217590.000000 0 0 1
10.205509 -28.481032 16.484028 34.453517 -1.226723 1.071916 0.059020 -0.015767 225516.000000 0 0 1
9.957109 -29.425732 15.348428 34.649560 -1.244510 1.111897 0.053095 -0.016333 301178.000000 0 0 1
8.982609 -30.433032 15.647328 35.379310 -1.283786 1.112664 0.037684 -0.006639 221608.000000 0 0 1
8.914809 -31.219632 14.456528 35.540547 -1.292647 1.151890 0.033777 -0.000008 -415883.000000 0 0 1
7.864509 -32.303732 14.357328 36.214838 -1.331987 1.163151 0.026370 -0.002476 -648504.000000 0 0 1
7.869309 -33.316132 15.365428 37.523154 -1.338846 1.148899 0.031416 -0.008105 -566947.000000 0 0 1
7.026609 -34.360832 15.041328 38.161258 -1.369083 1.165652 0.027035 -0.002239 -354414.000000 0 0 1
7.124709 33.378977 15.954128 37.675613 1.360503 1.133535 0.040932 -0.007263 516693.000000 0 0 1
8.345209 32.642877 15.920728 37.264857 1.320505 1.129368 0.041039 -0.012384 154091.000000 0 0 1
8.268609 31.646977 16.915128 36.824213 1.315233 1.093535 0.049820 -0.016504 -621109.000000 0 0 1
9.599209 30.950877 17.050828 36.617378 1.270060 1.086429 0.036189 -0.020248 -879406.000000 0 0 1
9.995709 30.214977 15.910628 35.580994 1.251310 1.107201 0.053494 -0.024608 -87016.300000 0 0 1
10.876209 29.178977 16.325628 35.160074 1.214007 1.087926 0.041598 -0.024766 -64781.400000 0 0 1
11.707409 28.425177 15.255428 34.318832 1.180101 1.110157 0.032695 -0.025462 118164.000000 0 0 1
10.919909 27.816677 14.272128 33.116546 1.196714 1.125233 0.036258 -0.025565 -642730.000000 0 0 1
11.701809 26.873177 13.722428 32.363637 1.160111 1.132931 0.032073 -0.019292 -647446.000000 0 0 1
-9.617858 -9.329423 18.780211 23.070276 0.770176 0.619716 0.034801 -0.018197 -425578.000000 0 1 0
-9.893358 -9.666623 17.464411 22.278415 0.773807 0.669848 0.036799 -0.016116 78649.400000 0 1 0
-9.467758 -10.968223 17.087311 22.403494 0.858689 0.703307 0.024661 -0.019276 33969.900000 0 1 0
-9.826258 -11.198623 15.622111 21.587377 0.850579 0.761693 0.031887 -0.017297 771790.000000 0 1 0
-11.237258 -11.191923 15.336311 22.062129 0.783377 0.802179 0.035573 -0.012318 831870.000000 0 1 0
-11.526458 -11.970123 14.189411 21.851372 0.804278 0.864054 0.039938 -0.011851 -71705.300000 0 1 0
-11.340758 -13.512023 14.235411 22.667917 0.872542 0.891818 0.026057 -0.012951 -810554.000000 0 1 0
-10.011358 -13.925823 14.100911 22.203412 0.947494 0.882686 0.018167 -0.006971 -450087.000000 0 1 0
-9.846458 -15.305023 14.340811 23.170138 0.999112 0.903410 0.014329 -0.008828 41841.200000 0 1 0
-9.664858 -15.687323 15.859211 24.310823 1.018627 0.860113 0.024022 -0.011879 -842071.000000 0 1 0
-10.773058 -15.539623 16.656911 25.199034 0.964606 0.848627 0.040151 -0.010231 -959691.000000 0 0 1
-10.392358 -15.605823 18.024911 26.008464 0.983305 0.805099 0.038604 -0.008316 492231.000000 0 0 1
-11.526558 -14.960023 18.917411 26.730736 0.914310 0.784555 0.022915 -0.012583 -637569.000000 0 0 1
-11.607558 -13.591923 18.540811 25.753396 0.863982 0.767085 0.025084 -0.013485 221134.000000 0 0 1
-12.820558 -13.183223 17.912711 25.671565 0.799344 0.798524 0.025786 -0.018503 329357.000000 0 0 1
-14.075358 -13.335523 18.802011 27.008655 0.758414 0.800779 0.012423 -0.010337 -1034590.000000 0 0 1
-14.568558 -14.636023 18.941211 28.021875 0.787708 0.828552 0.020544 -0.006390 -122902.000000 0 0 1
-15.478958 -14.727023 20.026111 29.283587 0.760510 0.817745 0.025263 -0.008408 77522.300000 0 0 1
-15.916958 -16.154023 20.483011 30.559053 0.792790 0.836215 0.029273 -0.006517 251843.000000 0 0 1
-16.744758 -16.805623 19.513411 30.717895 0.787212 0.882470 0.031922 0.001949 64999.000000 0 0 1
-17.357558 -17.992823 19.929711 31.972173 0.803367 0.897782 0.015870 0.001838 -458704.000000 0 0 1
-18.629158 -18.300723 19.156511 32.387249 0.776505 0.937899 0.029286 0.003021 -659601.000000 0 0 1
-18.455358 -18.520923 17.771111 31.613876 0.787171 0.973837 0.033188 0.000070 -78738.000000 0 0 1
-18.382358 -17.350323 16.966911 30.443732 0.756524 0.979641 0.042030 0.002008 -330685.000000 0 0 1
-18.111658 -17.596623 15.436011 29.596346 0.770976 1.022128 0.044992 -0.008352 -347348.000000 0 0 1
-19.192658 -18.326123 14.880911 30.424437 0.762306 1.059727 0.047854 -0.007315 104171.000000 0 0 1
-19.054658 -18.527123 13.512411 29.814753 0.771362 1.100431 0.057553 -0.009894 191903.000000 0 0 1
-19.374958 -20.036923 13.096311 30.795789 0.802193 1.131544 0.049235 -0.003361 600580.000000 0 0 1
-18.197058 -20.675323 12.579311 30.279381 0.849066 1.142368 0.056846 0.004819 530606.000000 0 0 1
-18.293458 -22.098023 12.539511 31.308346 0.879313 1.158716 0.048905 0.004165 -427062.000000 0 0 1
-17.065858 -22.709123 11.874411 30.788787 0.926337 1.174859 0.053887 -0.001125 -334824.000000 0 0 1
-17.296258 -24.056823 11.521711 31.790581 0.947449 1.199928 0.058402 -0.007953 121282.000000 0 0 1
-16.344258 -24.494523 10.578711 31.289384 0.982382 1.225907 0.050026 -0.006534 -139502.000000 0 0 1
-16.814858 -25.734363 9.820811 32.271430 0.992034 1.261573 0.057450 -0.014617 -62284.200000 0 0 1
-17.946258 -25.680553 8.970911 32.588897 0.960858 1.291921 0.040884 -0.016388 -146468.000000 0 0 1
-18.196658 -26.891133 8.296211 33.512363 0.975894 1.320639 0.040079 -0.015224 -340752.000000 0 0 1
-19.333858 -26.749083 7.321911 33.807127 0.944941 1.352487 0.028090 -0.017696 -355829.000000 0 0 1
-19.003958 -25.727483 6.364711 32.612318 0.934590 1.374373 0.029518 -0.021222 160060.000000 0 0 1
-20.043558 -25.553393 5.420811 32.925754 0.905653 1.405406 0.032668 -0.016338 67317.500000 0 0 1
-20.032358 -24.184723 4.729611 31.757918 0.879032 1.421313 0.033005 -0.014188 448355.000000 0 0 1
-20.988558 -24.007823 3.658411 32.097961 0.852398 1.456572 0.027351 -0.007966 437724.000000 0 0 1
-20.995358 -22.715823 3.091811 31.086540 0.824738 1.471173 0.031840 -0.000602 344866.000000 0 0 1
-21.680258 -22.851323 1.666911 31.543543 0.811690 1.517927 0.016713 0.004668 568838.000000 0 0 1
-20.848858 -23.400923 0.627611 31.347599 0.843008 1.550774 -0.005618 0.002906 583070.000000 0 0 1
-21.601358 -23.518423 -0.593489 31.938802 0.827861 1.589379 0.007708 0.005729 107379.000000 0 0 1
-20.885858 -24.279223 -1.724289 32.072931 0.860390 1.624584 0.009286 0.004548 343238.000000 0 0 1
-19.554258 -23.853723 -2.043989 30.911923 0.884124 1.636968 0.014975 0.003457 1068970.000000 0 0 1
-18.855858 -24.613123 -3.083989 31.158629 0.917077 1.669936 0.018699 0.011602 539702.000000 0 0 1
-18.698058 -26.150683 -3.039889 32.291121 0.950066 1.665076 0.017672 0.005881 -125237.000000 0 0 1
-19.888458 -26.834073 -3.421989 33.575709 0.932974 1.672892 0.026600 -0.004793 157722.000000 0 0 1
-19.572258 -28.118373 -3.897789 34.480558 0.962715 1.684082 0.027988 -0.005288 93448.600000 0 0 1
-20.753158 -28.795243 -4.613389 35.793057 0.946303 1.700047 0.023471 -0.011826 39752.300000 0 0 1
-20.957558 -28.279533 -5.925189 35.693964 0.933025 1.737568 0.015401 0.000870 -158428.000000 0 0 1
-22.011558 -28.952933 -6.581689 36.960785 0.920765 1.749823 0.016269 -0.009972 -473079.000000 0 0 1
-22.447658 -28.459423 -7.991489 37.117381 0.902947 1.787799 0.010752 0.004902 -511996.000000 0 0 1
-21.470858 -28.313003 -8.994889 36.654221 0.921980 1.818727 0.029975 0.002849 -168704.000000 0 0 1
-21.968058 -28.333663 -10.354089 37.317545 0.911277 1.851945 0.025215 0.009823 282425.000000 0 0 1
-22.915458 -27.181213 -10.846889 37.169766 0.870344 1.866926 0.011964 0.019680 416418.000000 0 0 1
-22.310258 -25.858783 -10.978589 35.874136 0.858933 1.881817 0.010778 0.020921 332993.000000 0 0 1
-21.923058 -25.150343 -9.854889 34.789065 0.853850 1.858004 -0.002056 0.020451 -63289.200000 0 0 1
-21.523458 -23.692123 -10.168489 33.585325 0.833324 1.878390 0.005079 0.012559 53618.400000 0 0 1
-22.626058 -22.902123 -10.537489 33.874539 0.791462 1.887119 -0.003114 0.013289 14157.200000 0 0 1
-22.264958 -21.545023 -10.547189 32.728574 0.768967 1.898915 0.012579 0.010650 173770.000000 0 0 1
-23.473558 -20.602123 -10.766689 33.035995 0.720342 1.902768 0.022869 0.006673 -855275.000000 0 0 1
-24.152058 -20.934623 -11.930989 34.116401 0.714158 1.928062 0.018886 0.002252 922369.000000 0 0 1
-25.520218 -20.485523 -12.024389 34.864367 0.676396 1.922918 0.023046 -0.002866 1025400.000000 0 0 1
-25.675978 -18.986723 -12.091789 34.146198 0.636730 1.932767 0.030556 -0.014213 -1409010.000000 0 0 1
-25.230518 -18.357923 -13.280689 33.911194 0.629015 1.973200 0.040457 -0.011145 355839.000000 0 0 1
-24.922458 -16.946423 -13.148689 32.881578 0.597153 1.982182 0.050890 -0.014986 575223.000000 0 0 1
-23.650458 -16.593423 -12.302289 31.401149 0.611806 1.973360 0.039168 -0.009816 -97784.300000 0 0 1
-23.959858 -16.791023 -10.935789 31.234672 0.611261 1.928492 0.048883 -0.013906 744112.000000 0 0 1
-22.930458 -16.391723 -10.006289 29.910204 0.620620 1.911918 0.042515 -0.015662 423013.000000 0 0 1
-23.287758 -16.794023 -8.556389 29.959484 0.624782 1.860427 0.026544 -0.019791 57271.400000 0 0 1
-23.372458 -18.162423 -8.388889 30.765546 0.660612 1.846965 0.025076 -0.009949 551616.000000 0 0 1
-24.211358 -18.435223 -7.249089 31.282528 0.650775 1.804652 0.027355 0.000070 569701.000000 0 0 1
-24.662458 -19.921723 -6.844789 32.433979 0.679464 1.783433 0.019159 0.009436 348723.000000 0 0 1
-25.234098 -20.665723 -7.970189 33.576118 0.686196 1.810461 0.007769 -0.008494 388567.000000 0 0 1
-25.409918 -22.032823 -7.602889 34.480619 0.714335 1.793121 0.008304 0.005207 137612.000000 0 0 1
-25.550118 -22.981223 -8.779389 35.468617 0.732515 1.820922 -0.003171 0.012485 23936.100000 0 0 1
-25.617658 -24.304523 -8.225789 36.257935 0.759101 1.799658 -0.004863 0.019408 -230350.000000 0 0 1
-25.774288 -25.257763 -9.224189 37.247203 0.775277 1.821048 -0.004802 0.025020 -23998.400000 0 0 1
-26.498498 -26.540833 -8.756189 38.513076 0.786196 1.800158 -0.014989 0.017141 -173497.000000 0 0 1
-25.859308 -27.178183 -7.649989 38.286809 0.810260 1.771958 -0.001976 0.002642 25686.500000 0 0 1
-26.487938 -28.364103 -7.249989 39.480318 0.819589 1.755480 0.008585 -0.004558 -138841.000000 0 0 1
-25.847058 -29.015393 -6.019289 39.321689 0.843085 1.724479 0.012882 -0.001283 -207953.000000 0 0 1
-26.018398 -28.199373 -4.867089 38.676223 0.825603 1.696973 0.013135 -0.003662 81334.400000 0 0 1
-25.375658 -28.618323 -3.646089 38.421691 0.845382 1.665836 0.012457 -0.001717 -28087.700000 0 0 1
-25.879618 -29.866583 -2.868589 39.623177 0.856797 1.643256 0.018774 -0.005065 -427642.000000 0 0 1
-25.463148 -31.088243 -3.427589 40.331118 0.884541 1.655885 0.036384 -0.012690 -55902.700000 0 0 1
-25.689208 -32.271253 -2.644589 41.332348 0.898475 1.634824 0.041418 -0.018054 19060.200000 0 0 1
-24.814658 -32.469843 -1.366489 40.889182 0.918246 1.604222 0.036641 -0.019652 12057.600000 0 0 1
-23.442058 -32.654523 -1.661989 40.231954 0.948170 1.612118 0.025744 -0.023415 -423794.000000 0 0 1
-22.772258 -32.940193 -0.463489 40.048057 0.965919 1.582370 0.047315 -0.021600 -40800.600000 0 0 1
-21.665058 -31.862653 -0.143889 38.530820 0.973653 1.574531 0.040328 -0.023599 -164347.000000 0 0 1
-21.944058 -30.518873 0.103611 37.589280 0.947411 1.568040 0.021422 -0.012594 -494707.000000 0 0 1
-21.988658 -29.817033 -1.121689 37.065006 0.935374 1.601064 0.022131 -0.003139 15185.500000 0 0 1
-22.520158 -28.357433 -0.875889 36.222488 0.899630 1.594979 0.021673 -0.001997 543937.000000 0 0 1
-23.921358 -28.289893 -0.611289 37.052976 0.868874 1.587295 0.022367 -0.003066 546564.000000 0 0 1
-24.485058 -26.995133 -0.254289 36.446123 0.834118 1.577774 0.031210 0.000225 388120.000000 0 0 1
-23.862058 -26.222343 0.938911 35.466754 0.832489 1.544320 0.034593 0.001395 -257060.000000 0 0 1
-23.950658 -26.937543 2.129011 36.108142 0.844026 1.511800 0.030556 -0.004805 -115866.000000 0 0 1
-23.562358 -26.234033 3.313911 35.417385 0.838999 1.477092 0.040966 -0.007074 42201.500000 0 0 1
-24.428958 -25.044593 3.848011 35.196772 0.797841 1.461249 0.046989 -0.010568 17970.600000 0 0 1
-24.600858 -23.876423 3.057711 34.418532 0.770455 1.481840 0.038536 -0.008742 -177049.000000 0 0 1
-25.533518 -23.074323 3.743411 34.617886 0.734849 1.462449 0.045037 -0.004186 -88240.300000 0 0 1
-25.797998 -21.769223 2.985011 33.887255 0.700903 1.482595 0.045030 -0.000861 327507.000000 0 0 1
-24.660158 -20.913123 2.935011 32.466850 0.703363 1.480273 0.032494 0.002280 144856.000000 0 0 1
-24.700358 -19.955823 1.861111 31.808902 0.679549 1.512254 0.025795 0.007158 -415699.000000 0 0 1
-23.503758 -19.031223 1.829811 30.297892 0.680634 1.510366 0.034355 0.009574 -421565.000000 0 0 1
-22.311158 -19.629423 1.371511 29.748664 0.721544 1.524677 0.028706 0.004302 336991.000000 0 0 1
-21.175458 -18.806823 1.673811 28.370728 0.726225 1.511764 0.024049 0.007335 362497.000000 0 0 1
-19.813458 -19.472523 1.446611 27.818068 0.776720 1.518770 0.012398 0.000254 -375193.000000 0 0 1
-19.462258 -19.690823 0.107311 27.686088 0.791236 1.566920 0.003833 0.007796 -528679.000000 0 0 1
-18.555458 -20.715223 -0.012389 27.810531 0.840340 1.571242 0.026188 0.008333 -612389.000000 0 0 1
-18.257058 -21.043223 -1.451489 27.897028 0.856174 1.622850 0.030251 0.004836 -16277.400000 0 0 1
-17.596458 -20.046023 -2.185789 26.762960 0.850381 1.652560 0.019066 0.002584 -114894.000000 0 0 1
-17.465258 -20.493123 -3.480489 27.149901 0.864998 1.699345 0.022678 0.006272 72192.800000 0 0 1
-16.955758 -19.399723 -4.407889 26.139557 0.852521 1.740235 0.036004 0.004776 324674.000000 0 0 1
-15.594558 -19.042623 -4.239689 24.975722 0.884619 1.741375 0.058140 -0.011007 115705.000000 0 1 0
-15.050458 -18.576123 -5.473489 24.526469 0.889864 1.795858 0.060364 0.001292 1018340.000000 0 1 0
-13.503458 -18.289423 -5.357789 23.357060 0.934812 1.802243 0.070636 -0.008925 736258.000000 0 1 0
-12.683558 -19.406723 -5.354489 23.794203 0.991919 1.797774 0.048803 -0.011493 -1384760.000000 0 1 0
-11.416358 -19.106123 -5.785389 22.996693 1.032200 1.825103 0.042934 -0.018767 -749179.000000 0 1 0
-10.443558 -20.306823 -5.731689 23.543305 1.095784 1.816721 0.035236 -0.021911 52562.500000 0 1 0
-10.903758 -21.383423 -6.498589 24.867134 1.099247 1.835199 0.034934 -0.014256 57017.200000 0 1 0
-9.872358 -22.336623 -6.752889 25.337515 1.154631 1.840574 0.040653 -0.015658 212319.000000 0 0 1
-10.276658 -23.437523 -7.750189 26.739345 1.157572 1.864858 0.030332 -0.009315 -484907.000000 0 0 1
-10.488558 -22.994823 -9.088289 26.858308 1.142859 1.915990 0.034492 -0.005504 5040.900000 0 0 1
-10.917358 -24.051323 -9.930389 28.218211 1.144688 1.930412 0.031112 -0.002471 -223433.000000 0 0 1
-11.721558 -23.512623 -11.130189 28.532779 1.108332 1.971519 0.038214 0.000610 -665265.000000 0 0 1
-11.069358 -22.745923 -12.079689 28.032598 1.117884 2.016304 0.033794 0.000193 -450332.000000 0 0 1
-11.953558 -22.100623 -12.977989 28.279909 1.074990 2.047567 0.040255 -0.008926 -372727.000000 0 0 1
-11.224558 -21.192023 -14.032389 27.784896 1.083704 2.100221 0.040436 -0.000475 233801.000000 0 0 1
-10.604258 -20.025423 -13.411789 26.331425 1.083797 2.105220 0.042839 -0.003237 -102944.000000 0 0 1
-10.643258 -18.876723 -14.209889 25.913906 1.057397 2.151186 0.032840 0.009365 -108769.000000 0 0 1
-10.308358 -17.606623 -13.493089 24.460557 1.041120 2.155109 0.043717 0.011170 -289653.000000 0 1 0
-11.359958 -17.140823 -12.675789 24.156409 0.985515 2.123204 0.045207 0.002903 -66927.500000 0 1 0
-11.051258 -16.066023 -11.801789 22.793192 0.968261 2.115047 0.046132 -0.000618 -88538.600000 0 1 0
-10.807658 -14.671823 -12.454689 22.072316 0.935909 2.170342 0.050719 0.003626 1081930.000000 0 1 0
-11.979658 -14.009523 -13.029289 22.573022 0.863344 2.186100 0.049773 0.012991 725286.000000 0 1 0
-11.979358 -13.904323 -14.410689 23.334592 0.859631 2.236443 0.058264 0.007561 -324825.000000 0 1 0
-13.120658 -13.102023 -15.045589 23.878535 0.784688 2.252463 0.055518 0.013490 -348907.000000 0 1 0
-13.025158 -11.737523 -14.745789 22.909877 0.733446 2.270046 0.036974 0.013767 443038.000000 0 1 0
-14.040058 -10.953523 -15.395189 23.539642 0.662527 2.283671 0.030159 0.003976 284434.000000 0 1 0
-14.304858 -9.600223 -14.667289 22.625707 0.591077 2.276090 0.032735 -0.004318 -360650.000000 0 1 0
-13.282258 -8.666223 -14.821889 21.707376 0.578107 2.322390 0.031787 -0.003736 -69546.000000 0 1 0
-13.211558 -7.914723 -16.018689 22.221307 0.539740 2.375854 0.029921 -0.000163 -317316.000000 0 1 0
-12.097958 -6.849823 -15.970089 21.173672 0.515193 2.425296 0.022162 0.004204 273339.000000 0 1 0
-10.826958 -7.472723 -15.914689 20.648049 0.604116 2.450829 0.015982 -0.002790 415063.000000 0 1 0
-9.709158 -6.609123 -15.746389 19.644262 0.597662 2.500725 0.003511 0.006571 447756.000000 0 1 0
11.460142 22.341277 15.925911 29.733856 1.096836 1.005560 0.054164 -0.008607 -232249.000000 0 0 1
11.944642 22.134477 17.234211 30.489795 1.075942 0.970066 0.059617 -0.015668 -202942.000000 0 0 1
12.418242 20.813977 17.344611 29.803857 1.032858 0.949661 0.048119 -0.003150 33384.300000 0 0 1
13.649142 20.658977 18.268111 30.770380 0.986944 0.935158 0.042443 0.000053 1501350.000000 0 0 1
14.895842 21.231277 17.742411 31.423660 0.958998 0.970824 0.023829 0.003854 840929.000000 0 0 1
15.991942 20.726277 18.474711 32.041157 0.913628 0.956244 0.023660 0.006288 154671.000000 0 0 1
17.282742 21.346977 17.863811 32.764346 0.890223 0.994144 0.008581 0.009929 -644415.000000 0 0 1
17.429942 22.619677 18.355811 33.946848 0.914263 0.999501 0.018164 0.006149 397755.000000 0 0 1
18.651342 23.259877 17.982811 34.817753 0.894918 1.028057 0.026051 0.006306 1339670.000000 0 0 1
19.998142 22.787977 18.638811 35.589646 0.850510 1.019591 0.012447 0.002547 93302.500000 0 0 1
20.368042 21.469877 18.363411 34.828546 0.811728 1.015433 0.020246 0.011304 -907477.000000 0 0 1
21.656742 21.190477 18.772611 35.643537 0.774517 1.016110 0.019580 0.000279 -928140.000000 0 0 1
21.967042 19.646877 18.504411 34.798907 0.729701 1.010128 0.011745 -0.004050 68584.100000 0 0 1
21.880842 19.329377 17.108911 33.839488 0.723564 1.040731 0.001251 0.000904 92749.600000 0 0 1
21.390042 17.987977 16.864711 32.642299 0.699217 1.027860 0.003907 0.001575 -53650.300000 0 0 1
22.226842 16.774277 17.316311 32.791211 0.646493 1.014461 -0.000963 0.002700 -310826.000000 0 0 1
23.489042 16.723977 16.686911 33.314854 0.618728 1.046175 -0.003525 0.000959 -478365.000000 0 0 1
24.185642 15.753677 17.437411 33.722202 0.577334 1.027349 -0.006790 0.001680 -526304.000000 0 0 1
25.644342 15.600877 16.948911 34.471513 0.546541 1.056780 0.053443 0.000434 -1269590.000000 0 0 1
26.347542 16.795477 17.312411 35.721151 0.567508 1.064828 0.033389 0.001912 584228.000000 0 0 1
27.699542 16.690377 17.748811 36.889750 0.542293 1.068852 0.024884 -0.001479 1147390.000000 0 0 1
28.683442 15.742577 16.945311 36.847146 0.501951 1.092935 0.026479 -0.006081 -879332.000000 0 0 1
28.943642 16.049277 15.619511 36.596214 0.506292 1.129838 0.047778 -0.006129 -33662.800000 0 0 1
29.460742 14.937377 14.893811 36.233771 0.469253 1.147193 0.078119 -0.014186 84737.700000 0 0 1
28.850542 14.729977 13.471011 35.082676 0.472061 1.176695 0.045736 -0.003011 -313598.000000 0 0 1
29.150942 15.641977 12.463111 35.352200 0.492486 1.210511 0.043437 -0.001225 -142175.000000 0 0 1
28.371642 15.594077 11.287011 34.285885 0.502564 1.235337 0.026786 -0.002220 -421714.000000 0 0 1
27.029842 16.308177 11.348611 33.546386 0.542872 1.225691 0.012366 0.003327 -873989.000000 0 0 1
27.095042 17.749377 11.312811 34.309786 0.579937 1.234784 -0.011404 0.027503 352090.000000 0 0 1
27.755342 18.466577 12.413311 35.573358 0.587080 1.214346 0.004413 0.016790 190476.000000 0 0 1
27.099842 18.334377 13.832311 35.523002 0.594813 1.170827 0.002282 0.015277 396823.000000 0 0 1
25.953642 19.195377 13.856611 35.129186 0.636813 1.165330 -0.000364 0.029256 274815.000000 0 0 1
25.250442 19.129177 15.079711 35.084298 0.648333 1.126510 0.000253 0.021365 -65878.200000 0 0 1
25.843342 19.928577 16.268911 36.465106 0.656888 1.108337 0.014040 0.006575 -114136.000000 0 0 1
25.820642 21.355977 16.214811 37.225038 0.691042 1.120104 0.006591 0.012817 -159464.000000 0 0 1
24.533942 21.879277 16.394211 36.734007 0.728264 1.108175 0.004276 0.012537 -437567.000000 0 0 1
24.549742 23.385277 16.238611 37.593264 0.761110 1.124137 0.013652 0.009676 -53956.400000 0 0 1
24.563542 23.869177 14.892511 37.348254 0.771062 1.160646 0.036037 0.006117 52849.100000 0 0 1
24.670942 25.257477 14.849511 38.302787 0.797145 1.172675 0.036013 0.003688 -230272.000000 0 0 1
24.497342 25.824577 13.437611 38.047312 0.811767 1.209827 0.027241 0.002493 -437781.000000 0 0 1
23.259642 25.485377 12.899211 36.836192 0.831027 1.213036 0.042771 0.001424 -592221.000000 0 0 1
23.067642 25.933177 11.545511 36.577925 0.843811 1.249664 0.039784 -0.007906 30964.100000 0 0 1
22.366742 24.818577 10.737411 35.093090 0.837313 1.259840 0.033450 -0.007198 80831.500000 0 0 1
20.957242 24.673577 10.861511 34.146213 0.866662 1.247084 0.035270 -0.009068 311027.000000 0 0 1
20.442942 23.362377 10.590211 32.800414 0.851945 1.242038 0.037331 0.000882 -48772.800000 0 0 1
20.372142 22.940877 9.103511 32.002843 0.844635 1.282354 0.041367 0.003924 -1636960.000000 0 0 1
19.265742 23.349777 8.435411 31.425103 0.880941 1.299034 0.042752 -0.007301 -1208240.000000 0 0 1
19.536442 23.857177 7.116711 31.646249 0.884642 1.343973 0.033501 -0.014596 -247117.000000 0 0 1
18.294342 24.079277 6.243111 30.878326 0.921081 1.367209 0.030915 -0.017990 -1222410.000000 0 0 1
17.722742 22.872477 5.794811 29.509755 0.911580 1.373143 0.034874 -0.007055 648896.000000 0 0 1
16.790642 23.095577 4.716011 28.940838 0.942174 1.407113 0.048848 -0.017020 782174.000000 0 0 1
15.473242 23.910677 4.900411 28.899061 0.996444 1.400403 0.039684 -0.012639 -163977.000000 0 0 1
15.721742 25.332077 4.807111 30.199266 1.015349 1.410937 0.046393 -0.019439 292018.000000 0 0 1
14.583142 25.968477 5.341311 30.258213 1.059113 1.393342 0.045180 -0.023578 -59770.200000 0 0 1
14.297242 27.417177 4.770411 31.286891 1.090120 1.417726 0.042098 -0.024079 -262877.000000 0 0 1
13.664442 27.408877 3.526011 30.828498 1.108317 1.456170 0.044458 -0.016145 269053.000000 0 0 1
13.478742 28.736877 3.111111 31.893003 1.132222 1.473093 0.050481 -0.019521 -89303.000000 0 0 1
13.001042 28.914477 1.646811 31.745647 1.148244 1.518898 0.056451 -0.025111 506146.000000 0 0 1
14.079342 28.583877 0.723711 31.871456 1.113117 1.548087 0.075688 -0.023428 765102.000000 0 0 1
13.991142 27.258077 0.331311 30.640898 1.096578 1.559983 0.054533 -0.014741 502641.000000 0 0 1
15.159342 26.931677 -0.659189 30.912060 1.058117 1.592123 0.056612 -0.016346 451749.000000 0 0 1
14.890842 27.541477 -1.959689 31.370536 1.075145 1.633306 0.056025 -0.010491 -302194.000000 0 0 1
15.882642 27.227777 -2.894989 31.654244 1.042728 1.662381 0.044680 -0.006378 -521248.000000 0 0 1
15.621142 27.758577 -4.301389 32.141261 1.058217 1.705027 0.057470 -0.009024 -1645220.000000 0 0 1
14.571742 27.128377 -4.959689 31.191073 1.077880 1.730484 0.055041 -0.016773 -700896.000000 0 0 1
14.377942 27.632777 -6.245889 31.769588 1.091024 1.768685 0.050011 -0.019709 179627.000000 0 0 1
13.144242 27.037377 -6.949189 30.855828 1.118289 1.797960 0.045611 -0.024051 102106.000000 0 0 1
13.192342 25.637977 -7.248789 29.730266 1.095567 1.817098 0.039970 -0.017835 -140677.000000 0 0 1
11.903742 25.215677 -7.634489 28.910463 1.129736 1.838040 0.030141 -0.016856 90258.500000 0 0 1
11.773242 23.728977 -8.043089 27.683296 1.110230 1.865587 0.025966 -0.011702 75111.500000 0 0 1
12.515342 23.417677 -9.202089 28.101599 1.079978 1.904408 0.022688 -0.008800 149551.000000 0 0 1
11.967142 22.229977 -9.671489 27.035571 1.076954 1.936634 0.027073 -0.004007 46796.500000 0 0 1
12.622842 21.671877 -10.973889 27.375768 1.043379 1.983253 0.028962 -0.001051 215615.000000 0 0 1
11.891742 20.512977 -11.398489 26.308199 1.045424 2.018911 0.034298 -0.006247 41263.400000 0 0 1
11.904642 20.264577 -12.792589 26.758624 1.039648 2.069256 0.028781 -0.008436 715210.000000 0 0 1
13.286642 19.781277 -13.378289 27.327869 0.979333 2.082367 0.015114 0.001599 369318.000000 0 0 1
14.314342 20.713477 -13.277989 28.464953 0.966093 2.056090 0.016787 0.003509 -918477.000000 0 0 1
15.449342 20.160377 -13.905989 28.956856 0.916931 2.071715 0.013284 0.007757 60270.400000 0 0 1
16.678442 21.101677 -13.735289 30.201149 0.901946 2.042937 0.024337 0.009908 -107301.000000 0 0 1
16.793442 22.234677 -14.565889 31.441465 0.923924 2.052478 0.028206 0.006590 -78142.300000 0 0 1
15.914842 23.348777 -14.355589 31.694330 0.972517 2.040855 0.024735 0.007220 179524.000000 0 0 1
16.467642 24.737777 -14.851789 33.222229 0.983472 2.034254 0.026141 0.000650 7682.910000 0 0 1
16.638742 24.903077 -16.225089 34.062656 0.981774 2.067273 0.015446 -0.001060 291089.000000 0 0 1
15.383142 25.172677 -16.860889 33.979322 1.022252 2.090025 0.016188 0.001291 478505.000000 0 0 1
15.329842 25.156877 -18.370289 34.718008 1.023516 2.128370 0.014380 0.006470 130020.000000 0 0 1
15.810742 23.904077 -18.906389 34.334182 0.986432 2.153949 0.014802 0.008222 29369.400000 0 0 1
15.592142 23.829477 -20.306989 34.976173 0.991389 2.190256 0.022248 0.005584 -195281.000000 0 0 1
15.983742 22.435077 -20.891289 34.572513 0.951767 2.219651 0.025486 0.000670 295200.000000 0 0 1
14.930242 21.471077 -20.827589 33.432137 0.963188 2.243344 0.018564 0.003000 110100.000000 0 0 1
15.298242 20.342277 -21.602889 33.384567 0.925990 2.274560 0.025728 0.001908 -289561.000000 0 0 1
14.345442 19.150977 -21.780789 32.356675 0.927890 2.309252 0.014848 0.000702 -739862.000000 0 0 1
14.163442 18.437877 -20.607989 31.068435 0.915767 2.296029 0.010236 -0.001613 140431.000000 0 0 1
13.434742 17.225277 -20.819989 30.177383 0.908405 2.332175 0.007936 -0.001236 165181.000000 0 0 1
11.915142 17.262977 -21.070789 29.731451 0.966669 2.358455 0.007221 -0.000061 -377220.000000 0 0 1
11.133742 17.817777 -20.042689 29.036921 1.012293 2.332629 0.007101 0.002378 -662664.000000 0 0 1
9.793742 17.963177 -20.380589 28.878392 1.071636 2.354261 0.008940 -0.001125 -327494.000000 0 0 1
8.776742 17.570477 -19.288389 27.528074 1.107536 2.347147 0.017432 -0.003367 -209622.000000 0 0 1
8.723842 16.173477 -19.096789 26.502342 1.076134 2.375420 0.009723 -0.010328 551523.000000 0 0 1
7.498342 15.742977 -18.480289 25.408415 1.126290 2.385219 0.013912 -0.013506 565802.000000 0 0 1
7.370842 15.864077 -16.900289 24.323200 1.135847 2.338968 0.012731 -0.016140 -43374.800000 0 1 0
7.431842 17.178777 -16.452389 24.920349 1.162491 2.291880 0.019932 -0.016275 -201476.000000 0 1 0
6.674642 17.307477 -15.277389 24.031193 1.202721 2.259752 0.017849 -0.018198 -544563.000000 0 1 0
6.189342 18.721377 -14.987289 24.767252 1.251505 2.220719 0.036649 -0.022890 124687.000000 0 1 0
7.217542 19.715977 -14.773789 25.672505 1.219872 2.183977 0.027107 -0.018107 234857.000000 0 0 1
7.729842 20.297077 -15.931289 26.935623 1.206920 2.203662 0.041534 -0.015223 146662.000000 0 0 1
8.907442 21.278377 -15.612989 27.854574 1.174346 2.165807 0.026900 -0.006040 72790.900000 0 0 1
8.634242 22.441977 -14.842489 28.257600 1.203517 2.123813 0.036656 -0.009521 -133290.000000 0 0 1
8.610342 22.267177 -13.450489 27.402205 1.201822 2.083866 0.023446 -0.002699 -166660.000000 0 0 1
8.371742 23.560377 -12.686989 28.038137 1.229380 2.040352 0.038176 -0.008795 -1107540.000000 0 0 1
7.133342 24.101177 -12.996689 28.296029 1.283036 2.048016 0.044871 -0.006798 -471181.000000 0 0 1
6.536142 24.993877 -12.036089 28.500570 1.315015 2.006789 0.023128 -0.006173 630088.000000 0 0 1
5.886942 24.261177 -10.834889 27.214989 1.332748 1.980265 0.013794 -0.015630 -385756.000000 0 0 1
6.918242 23.995777 -9.924389 26.872903 1.290098 1.949061 0.010467 -0.012254 69091.900000 0 0 1
6.362742 23.292977 -8.858489 25.720033 1.304140 1.922417 0.020734 -0.019731 115288.000000 0 0 1
7.239342 23.323677 -7.602089 25.577212 1.269839 1.872577 0.015286 -0.018096 -23440.800000 0 0 1
7.190742 24.566477 -6.912389 26.514142 1.286045 1.834549 0.008141 -0.013866 443788.000000 0 0 1
8.134242 24.636477 -5.825489 26.590567 1.251895 1.791669 0.020827 -0.010111 435784.000000 0 0 1
8.376242 26.076377 -5.340489 27.904475 1.259988 1.763369 0.013362 -0.007778 -131686.000000 0 0 1
8.844042 26.916177 -6.337589 29.032098 1.253332 1.790864 0.027984 -0.016264 -73718.300000 0 0 1
9.241742 28.139977 -5.760089 30.173610 1.253474 1.762873 0.024857 -0.015429 133343.000000 0 0 1
9.516142 29.292477 -6.783089 31.537541 1.256685 1.787570 0.027709 -0.008892 721973.000000 0 0 1
10.884942 29.400077 -7.194489 32.165310 1.216210 1.796377 0.033877 -0.015316 383717.000000 0 0 1
11.046342 30.580077 -7.950089 33.471880 1.224155 1.810604 0.032111 -0.012620 -58503.200000 0 0 1
12.393942 30.735977 -8.666189 34.255116 1.187501 1.826566 0.054354 -0.027926 59584.200000 0 0 1
13.504742 30.793677 -7.804989 34.518785 1.157500 1.798877 0.038147 -0.017049 -498954.000000 0 0 1
14.620542 31.332877 -8.481389 35.601172 1.134208 1.811343 0.039288 -0.017926 -34241.500000 0 0 1
15.844842 31.530377 -7.580589 36.092784 1.105130 1.782403 0.044337 -0.019715 -54293.000000 0 0 1
16.536742 30.340977 -7.243189 35.305843 1.071777 1.777419 0.047689 -0.015989 232509.000000 0 0 1
17.581942 30.594277 -6.293389 35.843287 1.049202 1.747292 0.038427 -0.004924 597206.000000 0 0 1
18.592542 29.433977 -6.097389 35.344304 1.007415 1.744178 0.037627 -0.002187 -340309.000000 0 0 1
18.185242 28.477777 -5.185889 34.184504 1.002494 1.723087 0.056550 -0.014077 -314468.000000 0 0 1
19.170542 27.410877 -5.038189 33.826753 0.960488 1.720294 0.042639 -0.006936 339699.000000 0 0 1
19.124642 26.355677 -6.114989 33.132563 0.943071 1.756422 0.031484 0.001981 -85137.700000 0 0 1
19.618742 26.874677 -7.360989 34.078255 0.940213 1.788515 0.030875 0.006401 241333.000000 0 0 1
19.582442 25.886677 -8.357589 33.517777 0.923169 1.822803 0.022461 0.001721 -357666.000000 0 0 1
20.370942 26.273477 -9.640989 34.615308 0.911272 1.853047 0.026632 -0.001147 147245.000000 0 0 1
21.771242 26.323777 -9.605089 35.485011 0.879774 1.844896 0.024650 -0.002583 36685.700000 0 0 1
22.508042 25.100577 -9.596989 35.053575 0.839800 1.848118 0.035344 -0.003029 -1751.600000 0 0 1
24.040342 25.281877 -9.565089 36.174609 0.810565 1.838393 0.022684 0.002813 -350191.000000 0 0 1
24.618642 25.681377 -10.716089 37.154344 0.806523 1.863374 0.020527 0.003962 -444657.000000 0 0 1
26.004242 25.410477 -10.598489 37.871374 0.773850 1.854439 0.013105 0.011501 175372.000000 0 0 1
26.750042 25.600677 -11.950689 38.907305 0.763447 1.883002 0.002232 0.008135 37464.000000 0 0 1
26.837342 26.976977 -12.294789 39.989525 0.787993 1.883309 -0.007275 0.014517 173394.000000 0 0 1
27.640342 27.113877 -13.478089 40.997680 0.775783 1.905779 0.004643 0.010601 220086.000000 0 0 1
27.081342 28.140877 -14.491389 41.657033 0.804583 1.926099 0.008990 -0.004624 -115764.000000 0 0 1
27.431942 29.516677 -14.295489 42.756365 0.821989 1.911709 0.003660 -0.008208 108049.000000 0 0 1
27.097742 30.341377 -15.399489 43.497484 0.841809 1.932675 0.020273 -0.005732 -382333.000000 0 0 1
27.433042 31.792977 -15.143589 44.639596 0.858881 1.916906 0.012933 -0.010229 -163323.000000 0 0 1
28.831842 32.008877 -15.100189 45.649305 0.837570 1.907934 0.010885 -0.006550 312218.000000 0 0 1
29.082242 33.414277 -15.044889 46.782897 0.854604 1.898204 -0.001180 -0.014599 -205717.000000 0 0 1
14.503942 -32.770232 -28.754422 45.946374 -1.154117 2.246986 0.062293 -0.026294 170176.000000 0 0 1
15.711042 -33.190932 -28.152082 46.271099 -1.128692 2.224860 0.044672 -0.018404 -30438.600000 0 0 1
16.118642 -32.270632 -27.257672 45.212665 -1.107562 2.217898 0.063115 -0.025819 -1255260.000000 0 0 1
17.272342 -32.701332 -26.375392 45.424358 -1.084856 2.190316 0.031903 -0.010906 136137.000000 0 0 1
18.586542 -32.617832 -26.918642 46.195193 -1.052858 2.192862 0.041556 -0.015833 407113.000000 0 0 1
18.924642 -33.467132 -27.993842 47.558871 -1.056154 2.200140 0.034387 -0.011715 -727795.000000 0 0 1
20.415442 -33.243932 -28.335572 48.216740 -1.020066 2.198973 0.029267 -0.005937 73613.600000 0 0 1
20.878942 -31.931532 -28.703672 47.743626 -0.991708 2.215804 0.025605 -0.010772 104155.000000 0 0 1
22.217742 -31.863832 -28.226102 48.017130 -0.961904 2.199175 0.003600 0.000330 133390.000000 0 0 1
22.898642 -30.530732 -28.683892 47.741377 -0.927283 2.215321 -0.009819 0.007687 -65685.900000 0 0 1
23.205442 -30.523332 -30.074452 48.730268 -0.920766 2.235927 -0.005613 -0.001278 -134365.000000 0 0 1
23.927042 -29.367232 -30.489162 48.626399 -0.887124 2.248503 -0.004595 -0.003284 203964.000000 0 0 1
24.171942 -29.414732 -32.023502 49.749512 -0.882925 2.270113 0.005900 -0.006073 -164462.000000 0 0 1
25.036642 -30.411532 -32.464242 51.045291 -0.882032 2.260086 0.014761 -0.007099 -558980.000000 0 0 1
25.110542 -30.460632 -33.873022 52.017027 -0.881377 2.279949 0.020656 -0.012477 -532208.000000 0 0 1
26.336342 -31.212332 34.367349 53.375343 -0.869924 0.871237 0.016907 -0.012618 85805.000000 0 0 1
27.494842 -30.410932 -34.151890 53.358624 -0.835715 2.265352 0.019635 -0.018191 -146933.000000 0 0 1
28.684242 -31.099832 34.264498 54.443008 -0.825781 0.890061 0.015096 -0.018487 289995.000000 0 0 1
29.908242 -30.164232 34.214341 54.543606 -0.789659 0.892735 0.016659 -0.026281 -74616.400000 0 0 1
29.844042 -29.221532 33.131970 53.313153 -0.774859 0.900192 0.026646 -0.021628 -700647.000000 0 0 1
31.010642 -28.488332 33.065596 53.540439 -0.743031 0.905132 0.026572 -0.025452 -569585.000000 0 0 1
31.188242 -27.712632 31.689771 52.392156 -0.726459 0.921210 0.018280 -0.021653 -299075.000000 0 0 1
32.384942 -26.981332 31.504991 52.624531 -0.694627 0.928950 0.017889 -0.024456 117476.000000 0 0 1
32.577242 -26.275232 30.300061 51.669703 -0.678723 0.944166 0.017463 -0.018394 -222840.000000 0 0 1
33.110142 -27.105832 29.086441 51.740011 -0.686014 0.973795 0.017875 -0.018456 -273770.000000 0 0 1
32.237142 -28.048232 28.499111 51.362788 -0.716025 0.982603 0.012453 -0.024405 327253.000000 0 0 1
31.322942 -27.506332 27.550861 49.967739 -0.720613 0.986787 0.022660 -0.020675 130533.000000 0 0 1
30.606942 -28.644032 26.779811 49.743580 -0.752282 1.002310 0.010013 -0.005004 253974.000000 0 0 1
29.533442 -28.173332 25.970131 48.377769 -0.761833 1.004133 0.009956 0.006485 296604.000000 0 0 1
28.916442 -29.195532 25.172371 48.189086 -0.790201 1.021172 -0.003655 0.009483 -624032.000000 0 0 1
27.517742 -28.840032 24.706221 46.897451 -0.808856 1.015949 0.003801 0.020146 -372445.000000 0 0 1
26.619042 -28.829332 25.797941 46.959957 -0.825239 0.989198 -0.001665 0.026873 190446.000000 0 0 1
25.276842 -28.476332 25.487001 45.819291 -0.844850 0.980929 -0.015148 0.044028 1291770.000000 0 0 1
24.243842 -28.399032 26.682501 45.893625 -0.864167 0.950349 0.000325 0.043741 675060.000000 0 0 1
24.445642 -27.251232 27.490081 45.781259 -0.839615 0.926713 -0.005170 0.027685 442210.000000 0 0 1
23.348242 -27.040332 28.390391 45.632601 -0.858540 0.899308 0.009419 0.009618 415011.000000 0 0 1
23.317842 -25.641732 29.028321 45.209110 -0.832828 0.873575 0.010444 0.012138 198218.000000 0 0 1
22.112742 -25.397232 29.762211 44.941985 -0.854421 0.846997 0.026534 0.009015 592303.000000 0 0 1
21.959242 -24.137232 30.411331 44.605643 -0.832612 0.820600 0.031320 0.007215 -645479.000000 0 0 1
21.575342 -22.887832 29.533031 43.145662 -0.814908 0.816884 0.033576 0.000061 -969677.000000 0 0 1
22.517642 -22.451432 28.619541 42.780710 -0.783926 0.837957 0.038539 0.001220 -375077.000000 0 0 1
22.426342 -21.054332 28.435571 41.890422 -0.753854 0.824658 0.059526 -0.000681 252974.000000 0 0 1
23.182642 -20.127732 29.486861 42.568010 -0.714980 0.805570 0.055448 -0.004616 -123139.000000 0 0 1
22.583042 -20.120732 30.766501 43.144122 -0.727802 0.776872 0.067403 -0.007594 159271.000000 0 0 1
23.274442 -19.280632 31.686051 43.788677 -0.691822 0.761774 0.064131 -0.016998 -219676.000000 0 0 1
22.493942 -19.066732 33.024191 44.273185 -0.703122 0.728883 0.080435 -0.009156 -46408.400000 0 0 1
22.667642 -20.036832 33.987343 45.502045 -0.723871 0.727347 0.073202 -0.015358 113567.000000 0 0 1
21.850742 -19.764032 -33.653642 44.728509 -0.735297 2.422491 0.074791 -0.015219 -153148.000000 0 0 1
22.014442 -20.896332 -32.642172 44.573577 -0.759347 2.392521 0.072347 -0.012426 187932.000000 0 0 1
23.307542 -21.075832 -32.098132 44.919064 -0.735158 2.366816 0.057325 -0.012256 -16415.100000 0 0 1
23.208442 -22.020032 -31.027132 44.566765 -0.759129 2.340879 0.049444 -0.012193 49749.500000 0 0 1
24.523642 -22.473632 -30.378132 45.047798 -0.741806 2.310885 0.042455 -0.005511 457661.000000 0 0 1
25.493142 -23.191032 -31.170822 46.468747 -0.738147 2.306071 0.023936 -0.002112 89951.500000 0 0 1
26.569142 -23.610532 -30.391702 46.765715 -0.726506 2.278212 0.023646 -0.004670 276569.000000 0 0 1
27.758842 -24.384832 -31.060112 48.269078 -0.720782 2.269830 -0.001982 -0.003655 -274113.000000 0 0 1
28.591942 -23.613932 -31.894582 48.911975 -0.690332 2.281123 -0.000042 -0.002078 -55186.800000 0 0 1
28.208742 -23.562632 -33.262132 49.571163 -0.695895 2.306350 0.004505 -0.000966 -141735.000000 0 0 1
28.245942 -24.841132 -34.127778 50.789963 -0.721350 2.307621 0.006438 0.001445 142381.000000 0 0 1
27.285942 -25.800632 -33.695502 50.453762 -0.757426 2.302112 0.017631 -0.009488 -3072.220000 0 0 1
27.261942 -27.094932 -34.351233 51.549550 -0.782326 2.300130 0.015454 -0.011279 117367.000000 0 0 1
26.806142 -27.211032 32.905799 50.416279 -0.792894 0.859677 0.017119 -0.010041 342730.000000 0 0 1
27.793842 -26.718432 32.001691 50.104695 -0.765673 0.877993 0.006006 -0.009708 88364.800000 0 0 1
27.324142 -26.599032 30.679571 48.942347 -0.771952 0.893291 0.003379 -0.002955 240615.000000 0 0 1
28.420942 -26.015732 29.670341 48.630211 -0.741243 0.914582 0.003193 -0.001053 804670.000000 0 0 1
28.766942 -24.612932 29.694441 48.115416 -0.707735 0.905681 -0.008378 -0.006485 74006.900000 0 0 1
29.265842 -24.197432 30.951811 48.989997 -0.690879 0.886925 -0.010623 -0.006649 -1248840.000000 0 0 1
29.633342 -22.676732 31.013521 48.520178 -0.653186 0.877354 -0.022942 -0.000547 428046.000000 0 0 1
30.878742 -22.284432 30.440821 48.751782 -0.625126 0.896428 -0.000798 -0.009594 243208.000000 0 0 1
31.923942 -22.581232 31.361461 50.125756 -0.615638 0.894825 -0.002587 -0.008387 -446307.000000 0 0 1
33.292842 -22.026532 30.881661 50.470372 -0.584486 0.912365 -0.002821 -0.004845 -16357.900000 0 0 1
33.682142 -22.623632 29.684061 50.273839 -0.591466 0.939183 0.018904 -0.011022 -262927.000000 0 0 1
34.853142 -22.046232 29.174941 50.516879 -0.564008 0.955098 0.005439 -0.006971 -99915.800000 0 0 1
35.236242 -22.492832 27.757671 50.179762 -0.568137 0.984638 0.018801 -0.004305 50378.700000 0 0 1
-35.439525 -23.849432 27.755711 50.942466 0.592348 0.994593 0.021146 -0.008720 95010.000000 0 0 1
-34.875625 -24.153232 26.517501 50.028649 0.605711 1.012141 0.013101 0.006568 -282986.000000 0 0 1
-34.673025 -25.695632 26.293261 50.535332 0.637771 1.023600 0.010284 -0.001209 167455.000000 0 0 1
35.210842 -26.392332 26.219891 51.223445 -0.643214 1.033433 0.025894 -0.008679 194124.000000 0 0 1
35.259442 -27.718532 25.749541 51.716382 -0.666227 1.049622 0.031725 -0.017894 356833.000000 0 0 1
-35.130125 -28.740632 26.740731 52.680322 0.685692 1.038395 0.027950 -0.026698 -565352.000000 0 0 1
-35.005925 -30.083332 26.230761 53.089307 0.709914 1.054011 0.039097 -0.027634 673678.000000 0 0 1
-33.904325 -30.780932 26.825561 53.071459 0.737150 1.040880 0.042602 -0.028463 1464720.000000 0 0 1
-32.432425 -30.242732 26.701591 51.763501 0.750475 1.028811 0.036236 -0.026739 -67652.600000 0 0 1
-31.912425 -30.230832 25.406581 50.772044 0.758345 1.046730 0.023547 -0.019052 -180223.000000 0 0 1
-30.631825 -29.646232 25.411211 49.627990 0.769049 1.033245 -0.001257 -0.012116 -162983.000000 0 0 1
-30.054025 -29.400532 23.980311 48.401354 0.774407 1.052447 -0.005577 0.000774 -181742.000000 0 0 1
-29.793325 -30.673532 23.363311 48.727324 0.799954 1.070745 -0.006081 0.002459 440871.000000 0 0 1
-29.300825 -30.525932 22.024211 47.701538 0.805873 1.090876 -0.013164 0.003053 -404309.000000 0 0 1
-29.313225 -31.826132 21.171711 48.170626 0.826476 1.115738 -0.008013 0.006704 -155073.000000 0 0 1
-28.628025 -32.924532 21.707311 48.731879 0.855087 1.109126 -0.017621 0.004218 779177.000000 0 0 1
-27.219125 -32.871732 21.417411 47.750781 0.879190 1.105682 -0.008552 0.006212 657003.000000 0 0 1
-26.479525 -34.234532 21.356111 48.262324 0.912440 1.112411 -0.019922 0.017845 -168198.000000 0 0 1
-26.816725 33.863277 20.235811 47.700590 -0.901007 1.132690 -0.028345 0.017411 879081.000000 0 0 1
-28.025225 33.066977 20.247811 47.841531 -0.867739 1.133793 -0.023575 0.016970 655744.000000 0 0 1
-28.021525 31.861477 21.250511 47.454650 -0.849435 1.106485 -0.013238 0.015598 -119409.000000 0 0 1
-27.027325 30.895177 20.985911 46.102025 -0.852076 1.098193 -0.016500 0.014209 52202.200000 0 0 1
-27.022225 29.917177 22.030011 45.940826 -0.836197 1.070677 -0.009756 0.006868 115656.000000 0 0 1
-26.073125 28.734577 21.654611 44.434288 -0.833920 1.061755 0.001472 0.002968 1382890.000000 0 0 1
-24.682825 29.066677 21.883111 43.965715 -0.866779 1.049815 0.000647 0.004944 870540.000000 0 0 1
-23.834225 28.030577 21.439711 42.584560 -0.866132 1.043195 0.001772 -0.001834 1186290.000000 0 0 1
-22.285225 28.352477 21.463611 41.966425 -0.904647 1.033928 0.009794 0.005618 996655.000000 0 0 1
-21.792225 28.416177 22.778111 42.440812 -0.916570 1.004272 0.015325 -0.001971 50274.400000 0 0 1
-20.421725 28.727677 22.834911 41.997136 -0.952810 0.995927 0.028966 -0.010636 -221674.000000 0 0 1
-20.036425 29.123677 24.227061 42.855541 -0.968185 0.969976 0.020008 -0.004541 -542579.000000 0 0 1
-20.146625 27.917777 25.055911 42.580365 -0.945693 0.941671 0.031887 -0.005417 166246.000000 0 0 1
-19.729925 27.927977 26.374781 43.184151 -0.955750 0.913787 0.025220 -0.009494 -604688.000000 0 0 1
-18.263125 28.173577 26.759951 42.934685 -0.995662 0.897878 0.020064 -0.001525 -687834.000000 0 0 1
-17.927525 29.528677 26.662471 43.637441 -1.025156 0.913473 0.001444 -0.009303 544251.000000 0 0 1
-16.572225 29.862777 26.979641 43.523846 -1.064164 0.902204 0.010629 -0.008008 230631.000000 0 0 1
-16.253225 30.047777 28.459241 44.463070 -1.074957 0.876214 -0.001424 0.000617 -423200.000000 0 0 1
-16.336725 28.873077 29.274541 44.244117 -1.055895 0.847766 0.008667 -0.000589 216445.000000 0 0 1
-16.046125 29.161577 30.649641 45.246836 -1.067762 0.826591 0.011631 0.002286 -137896.000000 0 0 1
-16.151625 27.970377 31.570461 45.165374 -1.047119 0.796802 0.007129 -0.000159 -84703.600000 0 0 1
-14.930725 27.263377 31.520241 44.268995 -1.069761 0.778431 0.027348 0.002565 271027.000000 0 0 1
-14.992525 26.096577 32.364831 44.196034 -1.049337 0.749101 0.034280 -0.000866 -138693.000000 0 0 1
-15.288825 26.189177 33.911400 45.492903 -1.042386 0.729629 0.029254 -0.001984 1015410.000000 0 0 1
-16.701325 26.200777 34.241137 46.237111 -1.003304 0.736900 0.022770 -0.002096 886681.000000 0 0 1
-17.049925 27.020277 -33.411902 46.229326 -1.007891 2.378559 0.017513 0.001051 -83665.300000 0 0 1
-18.466625 26.753977 -32.888552 46.243361 -0.966652 2.362008 0.000642 0.004096 -570681.000000 0 0 1
-19.474025 26.936377 -33.828042 47.425125 -0.944824 2.364983 0.006409 0.001089 -502456.000000 0 0 1
-20.700825 26.491677 -33.287692 47.311770 -0.907495 2.351222 0.019314 -0.005702 351205.000000 0 0 1
-21.883225 26.518977 -34.338746 48.593016 -0.880883 2.355563 0.030482 -0.018469 -553589.000000 0 0 1
-21.996125 25.571477 33.340258 47.426815 -0.860421 0.791213 0.041002 -0.014617 12449.100000 0 0 1
-22.199025 24.226077 33.767086 47.115981 -0.829033 0.771766 0.046326 -0.021501 -216943.000000 0 0 1
-22.445625 23.298877 32.513181 45.866662 -0.804049 0.782911 0.038694 -0.018433 -902774.000000 0 0 1
-23.764125 23.478377 32.125411 46.346627 -0.779350 0.804939 0.052699 -0.019000 -876864.000000 0 0 1
-23.961825 22.739377 30.934801 45.257157 -0.759228 0.818203 0.048658 -0.015777 344920.000000 0 0 1
-25.483325 22.524377 30.746561 45.848647 -0.723841 0.835766 0.035285 -0.009138 25146.500000 0 0 1
-25.975225 21.281577 31.114081 45.778858 -0.686401 0.823497 0.039259 -0.015456 -416854.000000 0 0 1
-27.305725 21.167777 30.675761 46.202594 -0.659444 0.844721 0.021606 -0.013825 -330149.000000 0 0 1
-27.855325 19.765177 31.035711 46.149721 -0.617117 0.833214 0.026183 -0.019774 -333505.000000 0 0 1
-28.036125 19.517077 32.407671 47.087129 -0.608131 0.811724 0.034261 -0.023412 93580.700000 0 0 1
-27.913725 18.142277 32.829641 46.755787 -0.576334 0.792382 0.025006 -0.012505 192733.000000 0 0 1
-28.864725 17.096077 32.106071 46.435417 -0.534726 0.807353 0.007623 -0.007655 302655.000000 0 0 1
-30.232825 17.401077 32.021781 47.352040 -0.522262 0.828137 0.000816 -0.010427 54072.300000 0 0 1
-31.005725 16.254777 31.639911 47.187464 -0.482860 0.835893 0.021326 -0.005838 -665261.000000 0 0 1
-32.483525 16.486077 31.450011 48.125599 -0.469646 0.858599 0.016174 -0.004228 -1273300.000000 0 0 1
-33.119425 16.733677 32.641431 49.420393 -0.467841 0.849332 0.021110 0.000748 -52241.600000 0 0 1
-34.522025 16.885577 32.543581 50.358491 -0.454910 0.868152 0.024701 0.002262 10803.600000 0 0 1
-35.034025 17.221477 33.967485 51.747002 -0.456876 0.854740 0.017752 0.013007 -1478450.000000 0 0 1
34.825742 17.714377 34.082899 51.848582 0.470550 0.853494 0.003537 0.013067 -1302970.000000 0 0 1
34.592442 18.212177 -33.332762 51.375028 0.484605 2.276819 -0.005763 0.011679 161894.000000 0 0 1
33.091042 18.282177 -32.991232 50.176453 0.504746 2.288298 -0.004559 0.014612 121225.000000 0 0 1
32.486542 17.045677 -32.740092 49.171579 0.483212 2.299407 0.000373 0.023184 -185519.000000 0 0 1
31.136542 17.067077 -32.350772 48.034798 0.501411 2.309711 0.003506 0.020036 -123582.000000 0 0 1
30.509242 15.659277 -32.519712 47.260539 0.474202 2.329656 0.007824 0.018263 -326997.000000 0 0 1
30.072742 15.479577 -33.855272 47.855685 0.475368 2.356673 0.008823 0.002106 35014.500000 0 0 1
29.111942 14.421277 -34.035722 47.052192 0.459939 2.379454 0.006346 0.001865 -58824.300000 0 0 1
29.547642 12.946577 -34.091972 46.935483 0.412964 2.383805 0.003291 0.006053 -266230.000000 0 0 1
30.147842 12.507877 -32.878402 46.328487 0.393272 2.359840 0.007624 0.009482 -201981.000000 0 0 1
31.306642 11.793577 -33.180522 47.118376 0.360270 2.352085 0.021077 0.005366 -465013.000000 0 0 1
17.397342 -21.273023 9.661428 29.129919 -0.885288 1.232726 0.005239 -0.018268 -4444.850000 0 0 1
17.074442 -22.575223 10.151928 30.070565 -0.923253 1.226427 0.004405 -0.020810 826073.000000 0 0 1
18.242842 -23.172723 10.746128 31.388782 -0.903875 1.221373 -0.008418 -0.014229 380799.000000 0 0 1
17.887142 -24.419423 11.610128 32.419949 -0.938592 1.204546 0.005061 -0.007794 -98467.100000 0 0 1
17.325742 -25.493733 10.894128 32.692411 -0.973888 1.231068 0.006670 -0.007575 374909.000000 0 0 1
15.915242 -25.558353 11.058428 32.075117 -1.013851 1.218806 0.011227 -0.001745 166998.000000 0 0 1
15.116742 -26.490703 10.141428 32.142212 -1.052242 1.249794 0.017326 0.002544 -107767.000000 0 0 1
15.105842 -26.201173 8.771128 31.490008 -1.047811 1.288526 0.014725 0.001946 88520.900000 0 0 1
14.073442 -26.897743 8.093228 31.417362 -1.088746 1.310255 0.020682 0.005540 127963.000000 0 0 1
13.814042 -26.304913 6.684228 30.454147 -1.087231 1.349510 0.024503 0.002160 -296213.000000 0 0 1
13.140742 -25.107213 6.778928 29.137692 -1.088616 1.335993 0.036617 -0.008204 -231472.000000 0 0 1
12.848742 -24.472423 5.479628 28.178289 -1.087326 1.375087 0.037019 -0.001698 409890.000000 0 0 1
12.135142 -23.060623 5.642028 26.662454 -1.086387 1.357575 0.047231 -0.011746 363677.000000 0 0 1
11.540942 -22.487323 4.483928 25.670579 -1.096629 1.395224 0.054518 -0.008456 74074.100000 0 0 1
10.896242 -21.250023 4.867428 24.371775 -1.096990 1.369728 0.055485 -0.009144 215584.000000 0 1 0
10.110242 -20.603223 3.699128 23.246361 -1.114607 1.410990 0.045028 -0.017310 -106524.000000 0 1 0
10.890542 -20.037823 2.657228 22.960381 -1.072958 1.454805 0.037987 -0.012673 -150193.000000 0 1 0
10.094342 -19.436823 1.654128 21.964106 -1.091796 1.495414 0.027905 -0.011663 973046.000000 0 1 0
11.052442 -19.043823 0.413628 22.022596 -1.044937 1.552013 0.025490 -0.008984 977597.000000 0 1 0
11.823542 -17.857723 0.654728 21.427157 -0.985964 1.540236 0.027657 -0.010377 -284557.000000 0 1 0
12.493642 -17.481823 -0.508672 21.493347 -0.950296 1.594465 0.034692 -0.007577 509137.000000 0 1 0
13.862842 -16.771323 -0.219272 21.760141 -0.880057 1.580873 0.046967 -0.003528 1077280.000000 0 1 0
14.886842 -17.590723 0.339828 23.047062 -0.868460 1.556051 0.048073 0.000023 -100174.000000 0 1 0
16.127542 -16.940223 0.422228 23.393312 -0.809969 1.552746 0.041110 -0.003924 -236351.000000 0 1 0
17.112242 -17.660323 1.340828 24.627498 -0.801159 1.516325 0.029287 0.000901 -280810.000000 0 1 0
17.600742 -18.731023 0.638228 25.710789 -0.816498 1.545970 0.034838 -0.004534 432574.000000 0 0 1
18.807542 -19.294423 1.194028 26.970801 -0.798176 1.526511 0.030811 -0.004260 1198350.000000 0 0 1
19.259142 -20.710723 0.606328 28.288093 -0.821699 1.549361 0.031845 -0.004817 625246.000000 0 0 1
18.380442 -21.729523 1.121028 28.482793 -0.868702 1.531428 0.035201 -0.000531 286893.000000 0 0 1
18.283442 -22.815323 0.236128 29.238313 -0.895223 1.562720 0.029056 0.000950 617555.000000 0 0 1
17.100242 -23.803623 0.595028 29.315265 -0.947836 1.550497 0.021682 0.004447 594444.000000 0 0 1
17.170442 -24.360623 1.854728 29.861414 -0.956827 1.508645 0.013493 0.004558 -391827.000000 0 0 1
16.014942 -25.100433 2.154928 29.852199 -1.002879 1.498547 0.008114 0.006447 -522466.000000 0 0 1
15.868242 -25.837853 3.518728 30.525025 -1.020039 1.455266 -0.002730 0.002773 -269555.000000 0 0 1
16.729342 -26.892783 3.801728 31.898993 -1.014303 1.451332 -0.002281 0.005592 -176507.000000 0 0 1
18.060142 -26.498393 4.107528 32.329635 -0.972556 1.443401 -0.005395 0.006241 -369777.000000 0 0 1
19.042642 -27.655403 4.057928 33.821743 -0.967784 1.450527 -0.001422 0.001237 -469509.000000 0 0 1
19.422442 -27.948463 2.738128 34.144475 -0.963476 1.490518 0.008028 0.007360 -294928.000000 0 0 1
20.462342 -28.882323 2.594728 35.491247 -0.954406 1.497622 0.037382 0.005865 -383010.000000 0 0 1
20.132442 -30.355283 2.687128 36.523678 -0.985179 1.497158 0.038360 0.003932 -189529.000000 0 0 1
19.959042 -30.785773 4.039928 36.911356 -0.995603 1.461127 0.049634 -0.003965 -170555.000000 0 0 1
19.538042 -32.093023 4.150328 37.801090 -1.023936 1.460781 0.045411 -0.017715 -378866.000000 0 0 1
19.250042 -32.658033 5.569628 38.316210 -1.038176 1.424920 0.046194 -0.022832 -679891.000000 0 0 1
20.373742 -32.982083 6.287028 39.273832 -1.017448 1.410023 0.040703 -0.022151 -648218.000000 0 0 1
19.870742 -33.482323 7.443528 39.639859 -1.035192 1.381896 0.035129 -0.022908 -26638.500000 0 0 1
20.869342 -34.393931 8.159928 41.049438 -1.025411 1.370680 0.031364 -0.022792 -47238.600000 0 0 1
21.769842 -33.661633 8.966228 41.078276 -0.996726 1.350753 0.041384 -0.021303 -179425.000000 0 0 1
22.715442 34.382818 9.545628 42.299982 0.986962 1.343171 0.036878 -0.021589 383022.000000 0 0 1
23.698442 -33.748983 10.507428 42.556034 -0.958597 1.321308 0.035510 -0.017186 -168731.000000 0 0 1
24.621242 -32.961813 9.813428 42.296454 -0.929242 1.336647 0.026191 -0.015757 -198006.000000 0 0 1
25.247142 -32.073923 10.753528 42.211291 -0.903937 1.313202 0.015154 -0.004781 -121108.000000 0 0 1
25.923942 -30.947203 9.946528 41.577801 -0.873497 1.329227 0.012638 -0.013631 35733.600000 0 0 1
24.993142 -30.126093 9.240728 40.219767 -0.878255 1.338969 0.011244 -0.018686 520425.000000 0 0 1
25.671442 -29.416673 8.189828 39.892817 -0.853280 1.364030 0.025049 -0.023559 299070.000000 0 0 1
25.256242 -27.960503 8.144428 38.548660 -0.836170 1.357916 0.021501 -0.024498 27501.200000 0 0 1
25.871142 -27.251743 9.203828 38.686999 -0.811381 1.330588 0.008189 -0.026960 -4574.050000 0 0 1
25.608442 -25.879033 8.937028 37.488493 -0.790654 1.330085 0.010407 -0.024838 -269108.000000 0 0 1
26.146542 -24.768023 9.887128 37.347716 -0.758330 1.302871 0.029086 -0.034466 349809.000000 0 0 1
27.546942 -24.614623 9.687728 38.191174 -0.729241 1.314330 0.036426 -0.027314 -280445.000000 0 0 1
28.130442 -23.598323 10.424328 38.168956 -0.698008 1.294172 0.023973 -0.028399 -387777.000000 0 0 1
29.541742 -23.331623 9.880428 38.919173 -0.668481 1.314117 0.040590 -0.028561 -26899.400000 0 0 1
29.489542 -22.890323 8.508628 38.288336 -0.660071 1.346700 0.047012 -0.023738 -542948.000000 0 0 1
30.773242 -22.685523 7.979628 39.055087 -0.635248 1.365030 0.043612 -0.022020 -178114.000000 0 0 1
30.787842 -21.759323 6.794028 38.308200 -0.615242 1.392501 0.037934 -0.012005 -51868.400000 0 0 1
30.359742 -20.399723 7.045728 37.249227 -0.591640 1.380499 0.028186 -0.002249 10622.800000 0 0 1
30.735542 -19.562723 5.965928 36.918369 -0.566816 1.408487 0.016448 0.006739 135065.000000 0 0 1
30.564642 -18.031423 6.215628 36.027262 -0.532992 1.397403 0.028527 0.009090 664040.000000 0 0 1
31.441242 -17.581723 7.271928 36.749825 -0.509874 1.371605 0.033820 0.001336 243553.000000 0 0 1
30.999342 -16.308323 7.716928 35.867417 -0.484298 1.353949 0.034566 -0.002555 103736.000000 0 0 1
31.651142 -15.631623 8.938528 36.414828 -0.458733 1.322798 0.031706 -0.010308 109451.000000 0 0 1
33.033642 -15.312623 8.940128 37.491650 -0.434062 1.330020 0.017132 -0.010952 74404.700000 0 0 1
33.387842 -14.830323 10.237228 37.940576 -0.418006 1.297587 0.015560 -0.023585 678844.000000 0 0 1
34.943842 -14.844123 10.418528 39.369605 -0.401701 1.302972 0.013685 -0.026722 390246.000000 0 0 1
-35.543425 -13.976223 9.503828 39.357243 0.374644 1.326910 0.014875 -0.021378 5700.370000 0 0 1
-34.398225 -14.657623 9.017228 38.462893 0.402815 1.334154 0.014493 -0.025939 -28842.400000 0 0 1
-33.531925 -13.907723 8.032128 37.179696 0.393166 1.353044 0.012379 -0.019031 -294698.000000 0 0 1
-34.198725 -13.772123 6.764428 37.483085 0.382839 1.389336 0.023267 -0.017502 232709.000000 0 0 1
-33.393125 -13.282623 5.700628 36.387168 0.378578 1.413482 0.023940 -0.011957 -253802.000000 0 0 1
-32.418325 -14.335223 5.083728 35.809087 0.416344 1.428348 0.012391 0.002964 -353131.000000 0 0 1
-31.390925 -14.511623 5.994128 35.098532 0.433025 1.399175 0.014854 -0.001039 -1272540.000000 0 0 1
-30.471725 -15.435923 5.539628 34.604641 0.468886 1.410021 0.021135 0.001606 -548110.000000 0 0 1
-29.736025 -16.074223 6.736828 34.467327 0.495570 1.374074 0.027714 -0.010297 -708778.000000 0 0 1
-30.588625 -16.837523 7.493728 35.711652 0.503189 1.359385 0.020714 -0.013060 -597031.000000 0 0 1
-30.227325 -16.830923 8.791728 35.696857 0.508058 1.321947 0.015388 -0.021967 -301215.000000 0 0 1
-31.153125 -17.681023 9.684428 37.106925 0.516219 1.306752 -0.010274 -0.021933 358587.000000 0 0 1
-32.465225 -17.080623 9.754628 37.959073 0.484325 1.310903 -0.003515 -0.015941 960390.000000 0 0 1
-33.382425 -17.705023 10.662528 39.262496 0.487647 1.295772 0.014261 -0.025721 387041.000000 0 0 1
-33.956025 -19.093223 10.241128 40.279566 0.512232 1.313723 0.028836 -0.020887 -29981.300000 0 0 1
-33.056025 -20.263223 10.392528 40.141046 0.549921 1.308913 0.025370 -0.015818 598350.000000 0 0 1
-32.623325 -20.528823 11.743828 40.294309 0.561663 1.275053 0.012878 -0.028567 -740633.000000 0 0 1
-33.725425 -21.063423 12.672128 41.733139 0.558280 1.262279 0.034143 -0.023374 -189259.000000 0 0 1
-34.121525 -22.379023 12.355528 42.635175 0.580485 1.276782 0.017062 -0.019308 -204728.000000 0 0 1
-35.252825 -22.380423 11.512428 43.314905 0.565654 1.301779 0.037760 -0.022316 -540318.000000 0 0 1
35.341442 -23.805423 11.253528 44.072186 -0.592776 1.312594 0.027202 -0.012499 -259247.000000 0 0 1
35.114342 -24.341423 12.534728 44.526860 -0.606151 1.285430 0.051764 -0.009769 -147050.000000 0 0 1
34.778442 -25.651643 12.450128 44.972797 -0.635500 1.290296 0.017731 0.007693 -443949.000000 0 0 1
34.148542 -26.127433 13.778828 45.151099 -0.653102 1.260678 0.024981 -0.011370 337044.000000 0 0 1
32.930242 -25.378283 13.850428 43.821141 -0.656598 1.249215 0.028721 -0.013076 -75126.900000 0 0 1
32.290242 -25.373783 15.080828 43.748371 -0.666024 1.218859 0.039174 -0.007648 -363178.000000 0 0 1
32.026142 -23.954023 15.707228 42.967266 -0.642189 1.196559 0.037423 -0.014584 -15700.600000 0 0 1
33.192842 -23.219623 16.062428 43.576567 -0.610415 1.193291 0.038782 -0.016701 71053.300000 0 0 1
33.770542 -22.586123 14.932428 43.284638 -0.589486 1.218577 0.044063 -0.017603 -270100.000000 0 0 1
35.032342 -21.773223 15.261528 43.980137 -0.556091 1.216416 0.037280 -0.021276 -532709.000000 0 0 1
34.922042 -20.520423 15.909628 43.517273 -0.531257 1.196526 0.030767 -0.013110 508188.000000 0 0 1
34.084642 -20.434523 17.100128 43.263690 -0.540069 1.164452 0.024230 -0.014538 483697.000000 0 0 1
33.962742 -19.091623 17.839728 42.851065 -0.512112 1.141403 0.019902 -0.005632 -285704.000000 0 0 1
33.573142 -17.976123 17.070828 41.733799 -0.491590 1.149394 0.026673 -0.014414 274138.000000 0 0 1
33.328742 -16.767823 17.796028 41.335984 -0.466128 1.125726 0.023745 -0.010572 -84695.700000 0 0 1
34.602242 -16.015023 18.233628 42.264185 -0.433474 1.124730 0.015792 -0.014884 -184620.000000 0 0 1
35.167042 -16.442723 19.451428 43.421677 -0.437361 1.106308 0.018620 -0.003758 -120844.000000 0 0 1
-35.049425 -15.458323 19.840328 43.140011 0.415381 1.092908 0.000992 -0.011478 -564629.000000 0 0 1
-34.673025 -15.639923 21.335328 43.612178 0.423742 1.059617 -0.008933 0.001539 -812072.000000 0 0 1
-33.839725 -16.693923 21.599928 43.478396 0.458292 1.050892 -0.003837 0.009530 -232807.000000 0 0 1
-33.428925 -16.616423 22.974828 43.834247 0.461299 1.019104 -0.008429 0.012419 124735.000000 0 0 1
-32.541125 -17.831923 23.408728 43.873350 0.501292 1.008001 -0.008075 0.017354 -1199910.000000 0 0 1
-33.168225 -19.057823 23.568428 44.931087 0.521519 1.018614 -0.011264 0.015143 -266312.000000 0 0 1
-32.449625 -20.157323 24.085828 45.159970 0.555854 1.008247 -0.021607 0.018124 -798923.000000 0 0 1
-31.366825 -20.799423 23.231028 44.228660 0.585531 1.017789 -0.010837 0.014311 -165989.000000 0 0 1
-30.156025 -20.070323 23.242828 43.039897 0.587229 1.000324 -0.007198 0.018738 -80863.300000 0 0 1
-29.120225 -20.690423 22.526328 42.231701 0.617750 1.008183 0.002974 0.014884 -650830.000000 0 0 1
-27.929825 -19.747723 22.423428 40.900584 0.615440 0.990535 0.021097 0.008292 -494771.000000 0 0 1
-27.227725 -19.623623 23.654928 41.060823 0.624498 0.956853 0.011540 0.009116 -382362.000000 0 0 1
-26.252925 -18.659823 23.590628 39.923962 0.617918 0.938636 0.036210 0.002379 -821154.000000 0 0 1
-25.835525 -18.169523 24.993628 40.277628 0.612922 0.901373 0.025151 -0.002064 -1067840.000000 0 0 1
-25.049325 -17.008223 24.940528 39.227264 0.596485 0.881757 0.026098 -0.004429 -11144.500000 0 0 1
-24.668625 -16.581423 26.210528 39.629237 0.591801 0.848121 0.015368 -0.004934 53462.800000 0 0 1
-23.533725 -17.295023 26.976228 39.757652 0.633769 0.825055 0.016227 -0.001539 -464530.000000 0 0 1
-23.862425 -18.636523 27.266128 40.745270 0.663047 0.837685 0.021469 -0.003874 387418.000000 0 0 1
-22.823525 -19.131623 28.132028 40.967588 0.697628 0.813871 0.033781 -0.009531 406537.000000 0 0 1
-23.216025 -20.508723 28.755928 42.266948 0.723560 0.822569 0.031435 -0.007236 296188.000000 0 0 1
-24.252525 -20.275323 29.712528 43.383268 0.696315 0.816351 0.026853 -0.013526 215364.000000 0 0 1
-24.758925 -21.490023 30.231628 44.595703 0.714835 0.825888 0.031747 -0.013802 -843679.000000 0 0 1
-25.899925 -21.247723 31.188928 45.771400 0.687043 0.821114 0.024908 -0.007063 -1089820.000000 0 0 1
-25.463925 -20.842923 32.495428 46.247073 0.685937 0.791684 0.043309 -0.013484 -79068.000000 0 0 1
-26.461325 -20.883623 33.455128 47.492873 0.668129 0.789185 0.050952 -0.019120 45765.400000 0 0 1
-27.702925 -19.929423 33.387228 47.742444 0.623626 0.796351 0.023269 -0.023689 -135157.000000 0 0 1
-28.566725 -20.270423 32.331028 47.668052 0.617128 0.825413 0.034608 -0.018554 -504573.000000 0 0 1
-29.758425 -19.578923 32.593828 48.283079 0.581929 0.829754 0.060787 -0.028608 -739332.000000 0 0 1
-30.925825 -20.002523 31.705728 48.597950 0.574116 0.860038 0.043352 0.001589 -659047.000000 0 0 1
-31.160125 -19.242723 30.521928 47.674142 0.553219 0.876012 0.028375 -0.011331 291617.000000 0 0 1
-32.169925 -19.836023 29.732928 48.087616 0.552537 0.904209 0.021918 -0.012567 39377.800000 0 0 1
-32.744625 -18.952923 28.589528 47.421354 0.524693 0.923687 0.012067 0.000345 -216602.000000 0 0 1
-33.886225 -19.465823 27.953928 48.048065 0.521418 0.949867 -0.003815 0.002605 -71532.000000 0 0 1
-34.384325 -18.402823 27.221028 47.559752 0.491417 0.961422 -0.000196 0.005788 1037.240000 0 0 1
-35.493825 -18.753923 26.178028 47.925049 0.486086 0.992941 -0.005472 0.004214 -256335.000000 0 0 1
34.444442 -19.188223 26.746728 47.644464 -0.508261 0.974742 0.011770 -0.003837 -965039.000000 0 0 1
33.457942 -19.405123 25.796228 46.491268 -0.525573 0.982600 0.048402 -0.001020 -382459.000000 0 0 1
32.172142 -19.976723 26.420528 46.175323 -0.555669 0.961637 0.040689 -0.006960 -213694.000000 0 0 1
31.306742 -19.029723 27.056528 45.544463 -0.546170 0.934689 0.025328 -0.019795 937418.000000 0 0 1
30.342042 -19.759123 27.862528 45.687886 -0.577227 0.914931 0.018602 -0.011407 427328.000000 0 0 1
-29.686448 -5.624923 33.890610 45.403726 0.187258 0.728118 0.009955 -0.004501 -65980.600000 0 0 1
-30.670578 -5.241123 32.985813 45.345535 0.169250 0.756224 0.006353 -0.000740 355974.000000 0 0 1
-30.097778 -4.185923 32.181071 44.260812 0.138191 0.756740 0.007020 0.001204 497624.000000 0 0 1
-30.824568 -4.115623 30.788011 43.760644 0.132733 0.790409 0.005927 0.001286 219267.000000 0 0 1
-30.516348 -5.188523 29.903651 43.039477 0.168414 0.802660 -0.002442 -0.000453 236403.000000 0 0 1
-29.207848 -5.215523 29.340411 41.727206 0.176703 0.790981 0.010799 -0.002000 328029.000000 0 0 1
-28.917578 -6.392523 28.382671 41.020320 0.217561 0.806655 0.016485 -0.004137 100323.000000 0 0 1
-29.592768 -6.235623 27.122821 40.623421 0.207676 0.839729 0.010804 -0.012738 -17158.200000 0 0 1
-29.042448 -7.003023 26.121701 39.684372 0.236614 0.852323 0.022932 -0.008308 -194649.000000 0 0 1
-29.562198 -6.492723 24.743481 39.093719 0.216197 0.885468 0.030062 -0.010842 154915.000000 0 0 1
-29.111428 -5.218123 24.298961 38.277193 0.177363 0.883026 0.046016 -0.016267 -45732.600000 0 0 1
-29.868688 -4.880123 23.156811 38.107637 0.161955 0.917675 0.047828 -0.017232 91475.700000 0 0 1
-29.401988 -3.597923 22.442811 37.163177 0.121765 0.922412 0.049746 -0.020335 -643622.000000 0 0 1
-28.163898 -3.733923 21.853611 35.843097 0.131810 0.915112 0.065369 -0.017199 -906550.000000 0 0 1
-27.600168 -2.517623 21.460611 35.052325 0.090966 0.911899 0.064223 -0.018855 -252235.000000 0 0 1
-26.210668 -2.592223 20.828711 33.579070 0.098579 0.901686 0.060120 -0.008408 -264358.000000 0 0 1
-26.172228 -3.421123 19.663111 32.913941 0.129979 0.930529 0.062066 -0.005784 335782.000000 0 0 1
-24.946758 -3.071323 19.002411 31.509766 0.122499 0.923459 0.054169 -0.002641 405936.000000 0 0 1
-24.819058 -3.954323 17.720011 30.750953 0.157998 0.956673 0.055334 -0.001877 -372011.000000 0 0 1
-25.850588 -3.848923 16.786511 31.062100 0.147805 0.999863 0.045536 0.005558 -277026.000000 0 0 1
-25.539568 -4.565123 15.594911 30.270631 0.176879 1.029575 0.057289 0.002174 -337293.000000 0 0 1
-26.640538 -4.579523 14.549111 30.697995 0.170237 1.077033 0.054534 -0.004148 -241906.000000 0 0 1
-26.710098 -3.380423 13.834711 30.269718 0.125890 1.096123 0.048757 -0.002830 -1013920.000000 0 0 1
-27.965078 -3.293723 13.290111 31.137136 0.117240 1.129817 0.028732 -0.003080 -1157850.000000 0 0 1
-28.244508 -2.041223 12.498511 30.953701 0.072144 1.155151 0.034555 -0.001330 -319212.000000 0 0 1
-27.578008 -1.899623 11.258211 29.847988 0.068773 1.184042 0.038740 -0.005118 -11276.000000 0 0 1
-28.017548 -0.786023 10.487511 29.926388 0.028047 1.212752 0.038169 -0.002033 731713.000000 0 0 1
-29.436708 -0.919023 9.823211 31.046092 0.031210 1.248857 0.025200 0.003442 739523.000000 0 0 1
-29.320678 -1.701423 8.643711 30.615531 0.057963 1.284573 0.025154 0.000671 357642.000000 0 0 1
-30.590708 -2.186623 8.203311 31.746922 0.071359 1.309434 0.022488 0.002748 180068.000000 0 0 1
-30.611988 -2.848423 6.807311 31.488836 0.092782 1.352894 0.032651 0.003066 -343415.000000 0 0 1
-30.262788 -2.118823 5.649411 30.858412 0.069900 1.386683 0.039594 -0.007988 733273.000000 0 0 1
-31.174278 -1.044823 5.336611 31.645010 0.033503 1.401347 0.034996 -0.006438 79724.200000 0 0 1
-30.810118 -0.230123 4.063111 31.077728 0.007469 1.439681 0.039260 -0.010659 -94103.000000 0 0 1
-31.303618 -0.876323 2.917911 31.451528 0.027987 1.477888 0.037842 -0.011000 204259.000000 0 0 1
-30.590328 -0.483323 1.789811 30.646455 0.015799 1.512361 0.052679 -0.022025 -325774.000000 0 0 1
-31.222858 -1.004123 0.501811 31.243030 0.032149 1.554734 0.056170 -0.015809 358564.000000 0 0 1
-32.440488 -0.300723 0.220611 32.442632 0.009270 1.563996 0.042911 -0.011261 542720.000000 0 0 1
-33.093528 -0.873123 -0.892089 33.117061 0.026377 1.597737 0.042034 -0.006552 -378210.000000 0 0 1
-34.613225 -0.729623 -0.729789 34.628605 0.021076 1.591873 0.044153 -0.010181 -688397.000000 0 0 1
-35.210155 -1.743423 -0.009789 35.253292 0.049474 1.571074 0.042202 -0.004365 82678.400000 0 0 1
34.502319 -1.652423 -0.120489 34.542077 -0.047857 1.574285 0.031888 -0.004992 -174782.000000 0 0 1
33.819289 -2.844823 0.442111 33.941609 -0.083921 1.557770 0.036668 -0.009766 -860248.000000 0 0 1
34.060209 -2.918023 1.875611 34.236393 -0.085464 1.515985 0.033865 -0.005581 310474.000000 0 0 1
33.536949 -4.134123 2.376711 33.874278 -0.122652 1.500576 0.030286 -0.004596 -227807.000000 0 0 1
33.589049 -4.298323 3.889911 34.085645 -0.127276 1.456425 0.033980 -0.001890 -376577.000000 0 0 1
32.816699 -3.323623 4.566811 33.299219 -0.100934 1.433218 0.049235 -0.012618 213035.000000 0 0 1
32.907129 -3.559023 5.949811 33.629541 -0.107735 1.392938 0.048432 -0.010021 -566012.000000 0 0 1
32.235389 -2.486623 6.804611 33.039466 -0.076987 1.363358 0.055163 -0.013869 -1333490.000000 0 0 1
30.867279 -2.645023 6.817411 31.721636 -0.085481 1.354193 0.051858 -0.017890 -1125100.000000 0 0 1
30.274839 -1.656123 7.592811 31.256350 -0.054648 1.325421 0.054818 -0.022054 90389.600000 0 0 1
28.743849 -1.697023 7.865111 29.848764 -0.058971 1.304149 0.034169 -0.015789 -92240.800000 0 0 1
27.971989 -1.534823 6.716611 28.807998 -0.054815 1.335480 0.035002 -0.018270 -498313.000000 0 0 1
26.584659 -1.581423 6.848011 27.498005 -0.059416 1.319111 0.034020 -0.010047 -321434.000000 0 0 1
25.963209 -3.003523 6.938911 27.041780 -0.115172 1.311294 0.041330 -0.019861 -1092040.000000 0 0 1
26.346689 -3.697423 8.112911 27.814354 -0.139427 1.274813 0.044999 -0.020912 439786.000000 0 0 1
25.992509 -5.037623 8.005211 27.659927 -0.191437 1.277180 0.054444 -0.024891 -343562.000000 0 0 1
26.256079 -5.934523 9.224811 28.455182 -0.222290 1.240644 0.058542 -0.018924 -472991.000000 0 0 1
25.350609 -5.762323 10.270711 27.952554 -0.223507 1.194548 0.071641 -0.006485 508184.000000 0 0 1
25.859409 -6.415423 11.464711 29.005280 -0.243179 1.164442 0.059090 -0.011091 529000.000000 0 0 1
24.788809 -6.366223 12.614611 28.533178 -0.251386 1.112854 0.049788 -0.011996 10500.700000 0 0 1
23.733109 -7.214323 12.363111 27.715581 -0.295102 1.108426 0.062620 -0.018167 -675890.000000 0 0 1
22.527009 -6.795123 12.967711 26.866361 -0.292964 1.067090 0.066156 -0.023315 -258795.000000 0 0 1
21.554809 -7.960323 12.998411 26.399531 -0.353769 1.055983 0.065322 -0.030447 -415919.000000 0 0 1
21.927309 -8.957323 13.965611 27.496887 -0.387813 1.038054 0.064403 -0.035376 202674.000000 0 0 1
21.131909 -10.111523 13.805911 27.191978 -0.446296 1.038260 0.092050 -0.051701 -207521.000000 0 0 1
21.458509 -11.268123 14.757911 28.376648 -0.483535 1.023861 0.073925 -0.041332 -359102.000000 0 0 1
21.250309 -10.966823 16.131711 28.845778 -0.476427 0.977328 0.064305 -0.034436 172609.000000 0 0 1
21.687709 -12.044223 16.915011 30.025616 -0.506940 0.972358 0.050593 -0.033206 -92829.200000 0 0 1
21.630309 -11.696223 18.419011 30.723474 -0.495701 0.927908 0.061548 -0.024599 542805.000000 0 0 1
20.277809 -11.477023 18.832111 29.959306 -0.515036 0.891058 0.068434 -0.028494 313274.000000 0 0 1
20.029809 -11.469623 20.232711 30.693779 -0.520050 0.851069 0.079768 -0.016849 236704.000000 0 0 1
20.636709 -10.397623 21.209611 31.366095 -0.466716 0.828210 0.070646 -0.017631 -12618.700000 0 0 1
19.826509 -9.232823 21.351511 30.565053 -0.435817 0.797414 0.069038 -0.013633 218554.000000 0 0 1
20.198509 -8.158823 20.522911 29.928849 -0.383891 0.815199 0.070966 -0.014762 -204149.000000 0 0 1
21.471109 -7.298323 20.871611 30.820418 -0.327661 0.826845 0.044346 -0.008809 1263160.000000 0 0 1
22.732109 -7.963623 20.889511 31.883220 -0.336964 0.856365 0.054225 -0.010277 383160.000000 0 0 1
23.205509 -8.264123 19.590211 31.473286 -0.342123 0.898941 0.046767 -0.018371 -763059.000000 0 0 1
24.555609 -9.018123 19.594311 32.683964 -0.351962 0.927910 0.031693 -0.018515 63152.900000 0 0 1
24.416809 -10.268823 20.201811 33.312797 -0.398107 0.919236 0.026011 -0.022308 479773.000000 0 0 1
25.596209 -11.023823 19.927811 34.260885 -0.406673 0.950042 0.024443 -0.024316 389705.000000 0 0 1
25.470709 -12.495223 20.199011 34.826537 -0.456077 0.952081 0.005357 -0.024996 -695466.000000 0 0 1
24.481709 -13.002923 19.389411 33.828676 -0.488239 0.960433 0.038191 -0.029179 -348366.000000 0 0 1
24.533509 -14.388423 19.424211 34.441541 -0.530419 0.971603 0.029627 -0.016591 -282054.000000 0 0 1
23.381409 -15.016423 18.626511 33.453403 -0.570899 0.980280 0.049582 -0.019993 -693656.000000 0 0 1
23.534109 -14.822023 17.230311 32.717431 -0.562051 1.016153 0.034343 -0.016588 557252.000000 0 0 1
22.548009 -15.407923 16.374111 31.842241 -0.599456 1.030691 0.009951 -0.015578 -221975.000000 0 0 1
22.357009 -16.907123 16.485211 32.518438 -0.647479 1.039154 -0.010418 -0.011363 -1430410.000000 0 0 1
23.402709 -17.724923 16.114211 33.489214 -0.648212 1.068800 0.019210 -0.018848 -830041.000000 0 0 1
23.182809 -19.081823 16.325711 34.177294 -0.688670 1.072788 0.007830 -0.003272 134811.000000 0 0 1
24.410709 -19.996823 16.002811 35.381430 -0.686329 1.101460 0.007960 0.000362 279905.000000 0 0 1
24.680309 -20.187423 14.623811 35.078562 -0.685595 1.140778 0.004358 -0.015261 127510.000000 0 0 1
25.599309 -21.256023 14.437911 36.271151 -0.692967 1.161401 0.013142 -0.025901 -285101.000000 0 0 1
25.991509 -21.476023 12.994111 36.133433 -0.690556 1.202941 0.008935 -0.038914 370018.000000 0 0 1
24.891209 -21.691323 12.083611 35.158206 -0.716813 1.219950 -0.006289 -0.028677 648310.000000 0 0 1
25.373009 -21.429823 10.781111 34.917893 -0.701346 1.256911 0.002763 -0.028753 -618214.000000 0 0 1
24.330209 -21.425123 9.639811 33.821900 -0.721992 1.281772 -0.014391 -0.027670 -238163.000000 0 0 1
23.726809 -22.631323 9.278911 34.076919 -0.761772 1.295021 -0.011758 -0.031300 -351546.000000 0 0 1
22.574909 -22.941223 10.015411 33.708080 -0.793446 1.269119 -0.025002 -0.015766 -1094480.000000 0 0 1
21.694609 -23.886123 9.267111 33.572046 -0.833441 1.291128 -0.014731 -0.017868 -899356.000000 0 0 1
22.175909 -25.206513 9.269711 34.829108 -0.849272 1.301401 -0.009851 -0.015687 -49285.400000 0 0 1
21.966009 -25.901023 8.042911 34.900673 -0.867421 1.338255 0.000099 -0.004300 446622.000000 0 0 1
20.526209 -26.433373 7.681511 34.337357 -0.910533 1.345180 -0.008418 0.012923 1044820.000000 0 0 1
19.620509 -25.372023 7.395211 32.914937 -0.912541 1.344185 -0.011877 0.014285 213523.000000 0 0 1
18.263209 -25.742663 7.665611 32.480626 -0.953754 1.332543 -0.004810 0.004647 753600.000000 0 0 1
17.334309 -24.505223 7.494511 30.937872 -0.955140 1.326118 -0.003510 -0.007386 -290454.000000 0 0 1
17.171709 -23.995423 6.150911 30.141029 -0.949661 1.365282 0.012358 -0.004746 -290032.000000 0 0 1
16.436009 -22.842223 6.283211 28.833804 -0.947073 1.351123 0.035627 -0.007125 -459861.000000 0 0 1
16.105409 -22.243123 4.889611 27.893530 -0.944103 1.394590 0.036413 0.000757 -126617.000000 0 0 1
15.277309 -21.084523 5.021611 26.517350 -0.943767 1.380275 0.057529 -0.004594 196162.000000 0 0 1
14.975009 -20.408823 3.853111 25.605027 -0.937775 1.419740 0.050662 -0.004566 29370.800000 0 0 1
14.024609 -19.234623 3.850011 24.113958 -0.940784 1.410451 0.050067 -0.002010 -365430.000000 0 1 0
14.704009 -18.130323 4.349311 23.745168 -0.889373 1.386590 0.039736 -0.005184 -258570.000000 0 1 0
14.009909 -16.967123 4.241511 22.408731 -0.880574 1.380368 0.016607 0.000419 -651544.000000 0 1 0
14.993509 -15.828123 4.312211 22.224535 -0.812470 1.375528 0.004521 -0.000811 -602926.000000 0 1 0
15.502809 -15.576923 5.594111 22.677559 -0.787783 1.321543 0.021472 -0.011022 -222374.000000 0 1 0
16.534909 -14.652823 5.725011 22.822887 -0.725124 1.317243 0.025749 -0.013356 -575992.000000 0 1 0
17.937009 -15.222223 5.501211 24.160209 -0.703709 1.341084 0.029142 -0.020477 -944177.000000 0 1 0
18.893809 -14.205723 5.511511 24.272522 -0.644698 1.341730 0.045928 -0.021060 -125113.000000 0 1 0
20.199909 -14.759523 5.446611 25.603621 -0.631016 1.356430 0.054128 -0.019647 38450.300000 0 0 1
21.319809 -13.727923 5.357011 25.916938 -0.572078 1.362596 0.047328 -0.024233 -233511.000000 0 0 1
21.347509 -12.779423 6.417711 25.694684 -0.539417 1.318356 0.062178 -0.034555 -858071.000000 0 0 1
22.417109 -11.960823 6.197211 26.153269 -0.490132 1.331563 0.064332 -0.033985 -903923.000000 0 0 1
22.775409 -11.008323 7.333111 26.337748 -0.450233 1.288642 0.085545 -0.038514 -98668.200000 0 0 1
23.281009 -11.733923 8.450611 27.406261 -0.466853 1.257343 0.088880 -0.020129 293327.000000 0 0 1
23.184009 -10.941823 9.625411 27.383760 -0.440961 1.211623 0.100809 -0.037618 -269908.000000 0 0 1
23.664109 -11.667923 10.859911 28.531879 -0.458084 1.180326 0.075942 -0.035224 -1095620.000000 0 0 1
22.854709 -12.671723 11.256111 28.453652 -0.506251 1.164081 0.087048 -0.042089 -562410.000000 0 0 1
23.250409 -13.521323 12.293611 29.572632 -0.526744 1.142074 0.075469 -0.039416 -130522.000000 0 0 1
22.231609 -14.669623 12.522511 29.432220 -0.583271 1.131316 0.056265 -0.038697 843817.000000 0 0 1
20.981809 -14.373423 13.149311 28.631032 -0.600616 1.093626 0.048680 -0.034216 266892.000000 0 0 1
19.991609 -15.345123 12.900411 28.311797 -0.654657 1.097688 0.011980 -0.023710 -605899.000000 0 0 1
18.681709 -14.817123 13.437511 27.370058 -0.670541 1.057609 0.020831 -0.020413 -1170340.000000 0 0 1
18.597709 -14.615123 14.812111 27.908336 -0.666057 1.011321 0.019571 -0.035206 106933.000000 0 0 1
18.520209 -13.274923 15.188611 27.384587 -0.621899 0.982865 0.040946 -0.042117 1702160.000000 0 0 1
17.023909 -12.637823 15.280211 26.134515 -0.638592 0.946316 0.048825 -0.043373 1600180.000000 0 0 1
16.266709 -12.830123 14.086711 25.053010 -0.667834 0.973661 0.050367 -0.052429 1407020.000000 0 0 1
14.846409 -12.623223 14.318311 24.182135 -0.704642 0.937131 0.072401 -0.047080 1273840.000000 0 1 0
14.298309 -11.159723 14.284711 23.087529 -0.662732 0.903684 0.047190 -0.046286 -374957.000000 0 1 0
14.729109 -10.347923 15.386611 23.680666 -0.612435 0.863535 0.030881 -0.035861 97034.900000 0 1 0
14.403009 -9.032923 15.296311 22.869576 -0.560148 0.838136 0.026949 -0.027536 -925304.000000 0 1 0
15.116409 -8.097623 16.331611 23.681191 -0.491786 0.809798 0.042282 -0.019721 -67488.900000 0 1 0
16.502109 -8.015723 16.040311 24.369304 -0.452174 0.852347 0.053367 -0.037002 -320632.000000 0 1 0
17.135409 -8.804523 17.002211 25.694689 -0.474643 0.847711 0.069331 -0.030972 -221120.000000 0 0 1
18.653509 -8.720823 16.638211 26.473311 -0.437325 0.891186 0.061008 -0.027973 831475.000000 0 0 1
19.368009 -7.477923 16.937011 26.793683 -0.368464 0.886501 0.059027 -0.027954 411513.000000 0 0 1
20.667209 -7.443323 16.401911 27.414581 -0.345690 0.929429 0.056309 -0.020497 -11237.700000 0 0 1
21.407909 -6.087223 16.606011 27.768912 -0.277033 0.929784 0.050208 -0.017179 -156039.000000 0 0 1
21.864609 -5.846323 17.876411 28.841059 -0.261275 0.902277 0.050095 -0.017408 100727.000000 0 0 1
22.281409 -4.534423 18.082111 29.051418 -0.200765 0.898969 0.045818 -0.019268 -243856.000000 0 0 1
-5.293758 -33.297932 -6.218272 34.284735 1.413134 1.753177 0.010287 -0.006500 -191427.000000 0 0 1
-6.143558 -32.171532 -6.403072 33.372895 1.382106 1.763858 0.010426 -0.014914 181116.000000 0 0 1
-5.807958 -31.131932 -5.514172 32.145539 1.386357 1.743187 0.012668 -0.012703 -818721.000000 0 0 1
-6.550958 -29.836832 -5.794572 31.092261 1.354666 1.758259 0.019108 -0.014880 486624.000000 0 0 1
-7.926058 -29.766932 -5.445572 31.281735 1.310564 1.745769 0.017557 -0.018157 166991.000000 0 0 1
-8.785958 -30.405032 -6.368572 32.283398 1.289495 1.769370 0.020317 -0.012144 -1084490.000000 0 0 1
-10.192058 -30.476132 -5.792172 32.653054 1.248061 1.749125 0.033785 -0.011761 -63588.800000 0 0 1
-11.209058 -30.898432 -6.714472 33.547582 1.222790 1.772305 0.030276 -0.011857 -311997.000000 0 0 1
-12.479858 -30.526232 -6.280772 33.571503 1.182706 1.758992 0.035964 -0.010046 -474864.000000 0 0 1
-13.560658 -30.915632 -7.297572 34.538708 1.157434 1.783688 0.041483 -0.012530 -112285.000000 0 0 1
-13.513558 -30.004332 -8.349172 33.949741 1.147621 1.819273 0.048025 -0.016744 -206226.000000 0 0 1
-14.581358 -30.196132 -9.227172 34.778774 1.120932 1.839322 0.066660 -0.015468 -223341.000000 0 0 1
-14.612758 -29.246332 -10.451372 34.323634 1.107433 1.880204 0.080128 -0.015384 -469327.000000 0 0 1
-15.167058 -27.971732 -10.209472 33.416924 1.073940 1.881279 0.075602 -0.018776 -1287.920000 0 0 1
-14.224858 -26.936732 -9.955072 32.047427 1.084935 1.886658 0.062858 -0.011757 -239641.000000 0 0 1
-14.722758 -25.527432 -9.707272 31.026449 1.047653 1.889010 0.058004 -0.004862 -376197.000000 0 0 1
-14.991258 -24.809732 -10.883072 30.962912 1.027258 1.929956 0.064976 -0.018921 17145.100000 0 0 1
-15.530958 -23.576232 -10.493072 30.118997 0.988291 1.926646 0.047000 -0.000954 -244614.000000 0 0 1
-16.229758 -22.854232 -11.677372 30.365803 0.953296 1.965524 0.054229 0.006428 -596278.000000 0 0 1
-17.400558 -23.456032 -12.101472 31.613454 0.932540 1.963616 0.055086 -0.004942 -960234.000000 0 0 1
-17.929058 -22.859832 -13.224272 31.920282 0.905700 1.997960 0.048991 -0.016202 426871.000000 0 0 1
-19.350558 -23.439232 -13.580172 33.290581 0.880662 1.990980 0.047792 -0.000496 364100.000000 0 0 1
-19.389158 -24.766632 -13.986572 34.423099 0.906586 1.989212 0.064214 -0.006167 -187639.000000 0 0 1
-19.192558 -25.719132 -12.973572 34.614182 0.929708 1.954983 0.073876 -0.007765 -843068.000000 0 0 1
-19.219258 -27.244432 -13.275672 35.887079 0.956430 1.949729 0.075342 -0.009947 440940.000000 0 0 1
-18.192958 -27.757232 -14.129672 36.070699 0.990612 1.973298 0.085416 -0.011831 1126700.000000 0 0 1
-16.853658 -27.746032 -13.608372 35.200510 1.024935 1.967734 0.082563 -0.016074 436721.000000 0 0 1
-16.010958 -28.993132 -13.996072 35.956120 1.066241 1.970618 0.082801 -0.015217 -178120.000000 0 0 1
-15.739358 -29.100332 -15.351572 36.472284 1.074993 2.005245 0.085051 -0.011121 -220237.000000 0 0 1
-15.139958 -30.319432 -15.782772 37.384251 1.107670 2.006642 0.078028 -0.011194 -280640.000000 0 0 1
-15.845758 -31.713932 -15.739472 38.789078 1.107431 1.988618 0.078399 -0.016551 -443463.000000 0 0 1
-16.184958 -32.073132 -14.424672 38.713174 1.103454 1.952610 0.078475 -0.017396 155406.000000 0 0 1
-16.628458 -33.402132 -14.250672 39.941078 1.108889 1.935628 0.061682 -0.014666 -939831.000000 0 0 1
-17.257758 -33.654032 -12.869872 39.950691 1.096962 1.898790 0.068081 -0.013158 -19857.300000 0 0 1
-18.630558 -33.346432 -12.721772 40.260722 1.061300 1.892291 0.072218 -0.011550 261647.000000 0 0 1
-19.028258 -31.963932 -12.663372 39.295401 1.033837 1.898913 0.078258 -0.016764 -562267.000000 0 0 1
-18.492858 -31.029032 -11.581572 37.933092 1.033334 1.881066 0.084588 -0.017987 -394151.000000 0 0 1
-18.936658 -31.274832 -10.246172 37.969675 1.026348 1.844035 0.069175 -0.022188 251891.000000 0 0 1
-18.674058 -30.177632 -9.397372 36.711314 1.016665 1.829658 0.076781 -0.015805 -256285.000000 0 0 1
-18.990258 -30.404532 -7.942072 36.717053 1.012494 1.788824 0.047485 -0.014254 186050.000000 0 0 1
-18.076758 -31.265832 -7.203072 36.826698 1.046588 1.767659 0.066847 -0.017707 647544.000000 0 0 1
-18.495258 -31.420532 -5.843372 36.925187 1.038775 1.729713 0.054228 -0.022699 68257.000000 0 0 1
-17.617158 -32.411032 -5.008372 37.227988 1.072915 1.705738 0.052114 -0.019370 436369.000000 0 0 1
-16.354358 -31.905232 -4.584572 36.144532 1.097126 1.697979 0.028509 -0.021909 597879.000000 0 0 1
-16.168058 -32.211332 -3.216972 36.184595 1.105600 1.659818 0.029953 -0.012086 216606.000000 0 0 1
-14.871058 -31.612432 -2.600372 35.032216 1.131093 1.645093 0.017245 -0.007868 -286355.000000 0 0 1
-13.658758 -32.224732 -2.897072 35.119625 1.169892 1.653382 0.021132 -0.005287 -709675.000000 0 0 1
-12.668758 -31.477232 -2.218172 34.003439 1.188159 1.636076 0.018297 0.000059 390882.000000 0 0 1
-11.219658 -32.031732 -2.254072 34.014606 1.233884 1.637113 0.015445 -0.004892 -31240.600000 0 0 1
-11.075758 -33.214032 -1.487372 35.043639 1.248926 1.613253 0.018801 0.006066 842173.000000 0 0 1
-9.774658 -33.844632 -1.358172 35.254045 1.289637 1.609331 0.046376 0.001044 834463.000000 0 0 1
-8.772458 -33.166132 -0.437972 34.309476 1.312217 1.583562 0.052238 -0.000440 -705283.000000 0 0 1
-9.267958 -33.056332 0.851928 34.341548 1.297446 1.545986 0.057065 0.001884 -414803.000000 0 0 1
-8.379058 -32.474632 1.759828 33.584332 1.318285 1.518372 0.039853 -0.001498 316084.000000 0 0 1
-7.341658 -33.463332 2.373028 34.341314 1.354824 1.501640 0.053385 -0.012354 299605.000000 0 0 1
-7.944658 -34.206432 3.435528 35.284564 1.342586 1.473276 0.059708 -0.022245 335084.000000 0 0 1
-7.151958 33.610577 3.836028 34.576531 -1.361135 1.459624 0.063842 -0.016442 349182.000000 0 0 1
-6.058058 33.803977 4.921328 34.693348 -1.393467 1.428464 0.071553 -0.023474 578668.000000 0 0 1
-4.948758 -34.332132 4.508028 34.978677 1.427639 1.441558 0.064714 -0.025015 -210019.000000 0 0 1
-3.972458 -34.257132 5.518328 34.925399 1.455352 1.412128 0.041155 -0.028002 -150232.000000 0 0 1
-2.791358 -33.357632 5.168828 33.870933 1.487311 1.417594 0.059680 -0.024535 -353159.000000 0 0 1
-3.155758 -32.040932 4.743228 32.543484 1.472622 1.424525 0.046994 -0.017820 37445.400000 0 0 1
-3.445658 -31.966132 3.331128 32.323406 1.463420 1.467557 0.043630 -0.016068 -190246.000000 0 0 1
-4.058258 -30.615432 2.971628 31.025872 1.439009 1.474870 0.024481 -0.023212 -163081.000000 0 0 1
-3.118658 -29.580132 3.078528 29.902970 1.465754 1.467663 0.010073 -0.012302 -86488.900000 0 0 1
-3.561558 -28.494732 2.288128 28.807464 1.446451 1.491284 0.012001 -0.013509 281219.000000 0 0 1
-2.687158 -27.234532 2.457428 27.476891 1.472447 1.481240 -0.001423 -0.008410 -120125.000000 0 0 1
-3.030858 -26.130132 1.651228 26.357095 1.455321 1.508107 -0.000451 -0.008530 -432630.000000 0 0 1
-2.723358 -24.889532 2.217128 25.136053 1.461812 1.482476 -0.016188 -0.003005 367005.000000 0 0 1
-3.831858 -24.365932 3.217928 24.874422 1.414811 1.441066 -0.017482 0.001237 472754.000000 0 1 0
-3.848058 -25.046132 4.445228 25.726958 1.418350 1.397140 -0.004932 -0.002316 -369744.000000 0 0 1
-4.876458 -24.657032 5.315328 25.690500 1.375544 1.362392 -0.006057 0.001998 -215375.000000 0 0 1
-5.406158 -25.726832 6.363828 27.048008 1.363673 1.333291 0.014277 -0.004902 150640.000000 0 0 1
-4.531358 -26.055232 7.444728 27.474212 1.398605 1.296394 0.000003 -0.008588 88083.800000 0 0 1
-5.182258 -27.000832 8.327628 28.727167 1.381173 1.276688 0.012571 -0.007129 363457.000000 0 0 1
-4.376558 -27.448732 9.584828 29.401634 1.412682 1.238731 0.005264 -0.004353 -8389.990000 0 0 1
-4.198858 -26.436532 10.564028 28.777063 1.413284 1.194908 0.007946 -0.006256 845886.000000 0 0 1
-5.381558 -25.973132 11.286028 28.826016 1.366490 1.168511 0.005939 -0.008557 950267.000000 0 0 1
-5.076458 -24.885932 12.393128 28.260744 1.369568 1.116836 0.004237 -0.005261 270495.000000 0 0 1
-4.342058 -25.508332 13.451628 29.162901 1.402191 1.091384 0.013534 -0.005012 -106963.000000 0 0 1
-3.338858 -24.589332 13.859228 28.422903 1.435837 1.061449 -0.002811 -0.004572 -63531.600000 0 0 1
-2.344958 -25.196132 14.888928 29.360247 1.477995 1.038966 0.004060 -0.009810 -90120.500000 0 0 1
-2.885758 -25.647532 16.090928 30.414495 1.458752 1.013310 -0.006332 -0.008154 -280527.000000 0 0 1
-1.877758 -26.264632 16.876228 31.275613 1.499424 1.000838 -0.016744 -0.003794 110865.000000 0 0 1
-2.285358 -26.786632 18.261328 32.499579 1.485685 0.974122 -0.010219 -0.005576 -78296.400000 0 0 1
-2.554258 -25.737632 19.192428 32.207130 1.471878 0.932403 -0.007266 -0.007556 -106037.000000 0 0 1
-2.523758 -26.159932 20.546428 33.359663 1.474620 0.907260 -0.000273 -0.010627 -23672.300000 0 0 1
-2.938558 -25.059332 21.573928 33.196982 1.454065 0.863375 0.010058 -0.013240 73794.200000 0 0 1
-2.280158 -25.235032 22.832528 34.107628 1.480684 0.837361 -0.015749 -0.019715 203187.000000 0 0 1
-2.580858 -24.146032 23.744928 33.963411 1.464315 0.796613 -0.004533 -0.019772 323210.000000 0 0 1
-1.592558 -22.978632 23.560728 32.949381 1.501601 0.774089 -0.004659 -0.020091 114595.000000 0 0 1
-2.087458 -22.252132 22.467828 31.690979 1.477261 0.782765 0.010293 -0.014270 -511871.000000 0 0 1
-1.197358 -21.311332 21.973728 30.634152 1.514671 0.770884 0.005421 -0.018000 -768472.000000 0 0 1
-1.890258 -20.094332 21.345428 29.376565 1.477003 0.757415 0.004492 -0.004654 -536031.000000 0 0 1
-2.535458 -19.199032 22.235528 29.486439 1.439494 0.716524 0.015949 -0.024143 664445.000000 0 0 1
-3.875758 -19.556932 22.609428 30.144342 1.375153 0.722675 0.030988 -0.025446 376149.000000 0 0 1
-4.977058 -19.170832 21.565528 29.280777 1.316788 0.742903 0.020253 -0.020771 -548178.000000 0 0 1
-4.955258 -19.908332 20.349828 28.896570 1.326850 0.789459 0.029704 -0.018480 -236327.000000 0 0 1
-5.549258 -21.202832 20.450228 29.976094 1.314816 0.820005 0.014175 -0.012437 -223382.000000 0 0 1
-5.618458 -21.989032 19.089328 29.656147 1.320637 0.871488 0.002094 -0.015690 -96744.600000 0 0 1
-6.003658 -23.332432 19.301228 30.870434 1.318950 0.895366 0.000324 -0.014692 -253553.000000 0 0 1
-5.560558 -24.004832 18.114828 30.582655 1.343168 0.936857 0.014080 -0.014071 65463.800000 0 0 1
-6.192958 -25.403732 17.831528 31.649103 1.331679 0.972285 0.016797 -0.017482 -721108.000000 0 0 1
-7.573358 -25.379132 17.888628 31.960274 1.280800 0.976755 0.030227 -0.019317 -1290910.000000 0 0 1
-8.101358 -26.650632 17.523328 32.908285 1.275689 1.009257 0.048716 -0.025363 -763797.000000 0 0 1
-9.591958 -26.798732 17.716328 33.526795 1.227078 1.014054 0.044788 -0.024935 -2117110.000000 0 0 1
-10.239658 -26.108632 16.708428 32.644798 1.197037 1.033488 0.052390 -0.026223 159531.000000 0 0 1
-11.662858 -26.249232 16.817828 33.284888 1.152682 1.041102 0.053762 -0.022413 981727.000000 0 0 1
-12.346258 -25.513432 18.031828 33.593335 1.120102 1.004194 0.050938 -0.015946 -1047480.000000 0 0 1
-12.681758 -24.180732 17.650928 32.512921 1.087775 0.996922 0.040509 -0.014306 -123192.000000 0 0 1
-12.783858 -23.230332 18.689828 32.440484 1.067716 0.956814 0.035361 -0.008233 174876.000000 0 0 1
-11.465958 -22.689632 19.317628 31.928958 1.102887 0.921007 0.019233 -0.012904 383742.000000 0 0 1
-10.762158 -23.467532 20.261428 32.818814 1.140816 0.905398 0.028504 -0.014389 -676913.000000 0 0 1
-9.405958 -23.156132 20.174028 32.119619 1.184959 0.891699 0.038838 -0.021166 -433831.000000 0 0 1
-8.503358 -24.076732 21.011128 33.067562 1.231294 0.882270 0.033684 -0.020681 -269918.000000 0 0 1
-8.447258 -23.846532 22.420328 33.803615 1.230354 0.845640 0.027352 -0.018467 333426.000000 0 0 1
-7.397458 -24.557332 23.082028 34.504564 1.278210 0.837993 0.027318 -0.014036 416972.000000 0 0 1
-7.311858 -24.103332 24.522428 35.153711 1.276265 0.798786 0.026820 -0.014506 -146252.000000 0 0 1
-6.258958 -24.697832 25.219028 35.849084 1.322600 0.790518 0.024562 -0.018848 -269827.000000 0 0 1
-6.324258 -24.311732 26.549528 36.550431 1.316305 0.757755 0.026530 -0.011920 -187042.000000 0 0 1
-5.154558 -24.943032 27.349028 37.372365 1.367012 0.749840 0.027426 -0.007915 -61920.700000 0 0 1
-3.906258 -24.456032 26.904628 36.567956 1.412408 0.744033 0.025700 -0.004562 -177711.000000 0 0 1
-2.967558 -24.457332 27.973228 37.275582 1.450050 0.722063 0.010251 -0.003739 -374397.000000 0 0 1
-1.672158 -23.771632 27.596628 36.461767 1.500569 0.712294 0.004004 -0.002373 -1589780.000000 0 0 1
-1.845258 -22.413932 27.299528 35.370236 1.488655 0.689095 0.010031 -0.004488 -341590.000000 0 0 1
-0.667658 -21.791132 26.848128 34.584985 1.540167 0.682031 0.014277 -0.012175 155698.000000 0 0 1
0.386742 -21.426532 27.948328 35.218672 -1.552749 0.654150 0.010090 -0.002697 -140549.000000 0 0 1
0.959142 -22.678632 28.361728 36.326683 -1.528529 0.674946 0.015217 -0.005173 -416320.000000 0 0 1
1.653342 -22.645432 29.574828 37.285649 -1.497916 0.654757 0.004442 -0.007234 -540452.000000 0 0 1
2.301242 -23.918432 30.040828 38.468669 -1.474879 0.674664 0.019884 -0.015339 318241.000000 0 0 1
3.469942 -24.273432 29.261128 38.176611 -1.428806 0.697473 0.018606 -0.022690 766300.000000 0 0 1
4.050942 -25.466332 29.774828 39.388889 -1.413047 0.713739 0.001557 -0.008485 -882607.000000 0 0 1
5.350342 -25.198032 30.563728 39.971345 -1.361572 0.700312 -0.004377 -0.006874 -185675.000000 0 0 1
6.523442 -24.829632 29.886428 39.398788 -1.313875 0.709693 0.010598 -0.016505 140687.000000 0 0 1
7.030142 -25.853532 29.034928 39.507658 -1.305294 0.745249 0.012967 -0.010545 -1516910.000000 0 0 1
8.207842 -25.404032 28.197828 38.831058 -1.258291 0.758066 0.015616 -0.017750 -626322.000000 0 0 1
7.817242 -24.497232 27.245128 37.463591 -1.261904 0.756500 0.025707 -0.017291 -240261.000000 0 0 1
8.900542 -24.211832 26.416528 36.922424 -1.218519 0.773514 0.015230 -0.015155 -375734.000000 0 0 1
8.621142 -22.962932 25.522228 35.397803 -1.211642 0.765535 0.031253 -0.011559 -92558.000000 0 0 1
7.673042 -23.179532 24.526028 34.607692 -1.251123 0.783161 0.026196 -0.007066 -298322.000000 0 0 1
7.500642 -22.047632 23.696828 33.224951 -1.242877 0.776709 0.028329 0.000183 206275.000000 0 0 1
6.602942 -22.192932 22.466228 32.262308 -1.281612 0.800481 0.027079 -0.000939 932574.000000 0 0 1
7.491342 -22.835332 21.503928 32.248900 -1.253800 0.840875 0.027630 0.006991 1153730.000000 0 0 1
6.906642 -22.790132 20.216228 31.237601 -1.276540 0.866922 0.029581 0.006509 272249.000000 0 0 1
7.513542 -23.919232 19.306728 31.643842 -1.266435 0.914577 0.048215 -0.014483 -266015.000000 0 0 1
8.809742 -23.736832 18.864228 31.573848 -1.215412 0.930462 0.071287 -0.016460 -960587.000000 0 0 1
9.274142 -24.753432 17.988928 31.974109 -1.212323 0.973258 0.065379 -0.016339 1010790.000000 0 0 1
10.632142 -24.341932 17.287428 31.692701 -1.158988 0.993846 0.075914 -0.010722 943462.000000 0 0 1
10.538942 -23.236632 16.390028 30.325623 -1.144995 0.999803 0.102144 0.000924 333635.000000 0 0 1
11.814042 -22.931032 15.800828 30.250124 -1.095064 1.021204 0.081123 -0.010852 860836.000000 0 0 1
-12.233858 22.760277 11.697228 28.364108 -1.077594 1.145714 0.001668 -0.007227 319691.000000 0 0 1
-13.213358 21.794177 11.297528 27.878542 -1.025773 1.153554 -0.005473 -0.008824 404180.000000 0 0 1
-12.586958 20.554777 10.952528 26.474294 -1.021337 1.144277 0.008099 -0.009242 241664.000000 0 0 1
-13.428858 19.638577 9.981028 25.799784 -0.971026 1.173567 0.012686 -0.005320 -195658.000000 0 0 1
-13.343358 20.227877 8.685328 25.741934 -0.987666 1.226643 0.013283 -0.017486 -58896.400000 0 0 1
-14.080358 19.661977 7.625228 25.357325 -0.949333 1.265358 0.014244 -0.021165 1003410.000000 0 0 1
-15.653158 19.792677 7.696928 26.382080 -0.901656 1.274742 0.016977 -0.014793 573496.000000 0 0 1
-16.218658 18.890977 8.586128 26.336960 -0.861365 1.238716 0.008107 -0.017431 -847793.000000 0 0 1
-17.605958 19.019777 8.587328 27.303185 -0.823981 1.250848 0.013297 -0.013346 -840038.000000 0 0 1
-18.324358 18.073777 9.509828 27.438665 -0.778514 1.216868 0.012965 -0.012172 -338574.000000 0 0 1
-18.455558 16.773177 8.877428 26.471793 -0.737679 1.228815 0.015330 -0.016625 182737.000000 0 0 1
-18.917958 15.684477 9.703528 26.420644 -0.692222 1.194723 0.021516 -0.019061 -507519.000000 0 0 1
-17.916258 15.230277 10.777528 25.867137 -0.704541 1.141040 0.024057 -0.012538 713377.000000 0 0 1
-16.910258 14.339777 10.205828 24.407887 -0.703328 1.139403 0.010482 0.001303 414938.000000 0 1 0
-16.287858 13.401477 11.040428 23.807246 -0.688483 1.088582 0.000709 0.000067 -205751.000000 0 1 0
-17.160558 12.434077 11.889828 24.299363 -0.627028 1.059502 0.012215 0.001958 -474909.000000 0 1 0
-17.857058 11.621377 10.988228 23.972319 -0.576938 1.094634 0.000614 0.001448 -208316.000000 0 1 0
-18.761158 10.802577 11.711128 24.613558 -0.522431 1.074923 0.015614 -0.001487 45670.100000 0 1 0
-19.737658 9.959577 10.873428 24.637365 -0.467319 1.113706 0.023147 -0.000846 -164011.000000 0 1 0
-19.121758 8.916677 10.141228 23.409256 -0.436335 1.122740 0.005950 -0.004046 182415.000000 0 1 0
-18.749658 9.320977 8.805428 22.714882 -0.461347 1.172715 0.018940 0.000575 -897592.000000 0 1 0
-19.842158 9.463677 7.747928 23.308857 -0.445037 1.231946 0.031391 -0.003808 -359265.000000 0 1 0
-20.263358 8.220877 7.230128 23.031744 -0.385412 1.251477 0.012084 -0.001786 289705.000000 0 1 0
-21.039558 8.377577 6.070328 23.445590 -0.378938 1.308901 0.017358 -0.000366 -132546.000000 0 1 0
-21.337758 7.036777 5.387228 23.104943 -0.318550 1.335467 0.034177 0.001198 206398.000000 0 1 0
-22.267958 6.173477 6.066728 23.890981 -0.270444 1.314051 0.052465 -0.004780 529482.000000 0 1 0
-22.043258 4.849977 5.633028 23.262814 -0.216570 1.326218 0.060238 -0.017337 -539672.000000 0 1 0
-23.207058 3.888477 5.757028 24.224598 -0.166014 1.330848 0.087817 -0.016892 236316.000000 0 1 0
-24.272158 3.977877 4.760828 25.052478 -0.162442 1.379599 0.089347 -0.022506 699545.000000 0 0 1
-25.131118 2.882477 4.971228 25.779738 -0.114199 1.376746 0.087621 -0.026669 -447740.000000 0 0 1
-26.297268 2.916077 3.973728 26.755192 -0.110438 1.421723 0.081541 -0.028579 -402922.000000 0 0 1
-25.777388 2.658877 2.711928 26.055669 -0.102784 1.466525 0.068520 -0.023747 -257686.000000 0 0 1
-26.697698 2.680577 1.671528 26.883946 -0.100069 1.508581 0.062065 -0.021039 -554380.000000 0 0 1
-26.125458 2.784577 0.225428 26.274403 -0.106184 1.562216 0.068318 -0.019177 -145130.000000 0 0 1
-25.339278 3.906377 -0.154672 25.639086 -0.152959 1.576829 0.061428 -0.025740 525768.000000 0 0 1
-25.117688 4.051077 -1.585672 25.491642 -0.159907 1.633040 0.059808 -0.015156 -810310.000000 0 0 1
-26.286448 4.573077 -2.428372 26.791554 -0.172247 1.661560 0.066585 -0.019017 -439874.000000 0 0 1
-27.384918 3.703077 -2.397172 27.737933 -0.134408 1.657326 0.065877 -0.023611 -446161.000000 0 0 1
-28.575448 4.438877 -2.442872 29.021156 -0.154107 1.655072 0.059346 -0.020344 -55157.300000 0 0 1
-29.896798 3.625377 -2.470372 30.216959 -0.120674 1.652642 0.058221 -0.024523 101056.000000 0 0 1
-30.176458 2.951177 -3.664172 30.541025 -0.097487 1.691061 0.056275 -0.016995 -252914.000000 0 0 1
-31.205068 2.030477 -3.604272 31.478086 -0.064977 1.685549 0.064096 -0.018336 -558752.000000 0 0 1
-31.434118 1.339977 -4.947272 31.849251 -0.042602 1.726762 0.059736 -0.021201 134955.000000 0 0 1
-30.286798 0.609977 -5.407072 30.771718 -0.020137 1.747429 0.070913 -0.015999 624458.000000 0 0 1
-30.335738 -0.066823 -6.673772 31.061241 0.002203 1.787343 0.069965 -0.014924 -325945.000000 0 0 1
-30.620348 0.822277 -7.935072 31.642491 -0.026848 1.824275 0.054238 -0.017401 508799.000000 0 0 1
-32.007488 1.113677 -8.158172 33.049589 -0.034780 1.820221 0.049868 -0.019235 976305.000000 0 0 1
-32.311538 1.931877 -9.277072 33.672417 -0.059718 1.849916 0.051314 -0.015696 580263.000000 0 0 1
-33.834468 2.307877 -9.214972 35.142755 -0.068105 1.836114 0.056003 -0.014868 728580.000000 0 0 1
-34.252363 3.102677 -8.082572 35.329576 -0.090336 1.801617 0.053769 -0.009014 233441.000000 0 0 1
35.549170 2.922477 -7.637172 36.477538 0.082025 1.781723 0.050726 0.002054 -168417.000000 0 0 1
35.186356 3.738477 -6.391172 35.956960 0.105851 1.749491 0.055189 -0.003405 -31637.800000 0 0 1
33.856189 3.443577 -5.994372 34.554772 0.101363 1.745153 0.046780 -0.006388 247308.000000 0 0 1
33.317869 4.277877 -5.014072 33.963533 0.127697 1.718969 0.041274 -0.006619 -947691.000000 0 0 1
31.962079 3.773077 -4.590372 32.509724 0.117505 1.712470 0.035418 -0.008919 -954555.000000 0 0 1
32.007449 2.523977 -3.984372 32.353091 0.078693 1.694263 0.038797 -0.014802 518481.000000 0 0 1
30.787189 1.777477 -4.177872 31.120171 0.057670 1.705453 0.045988 -0.019377 282625.000000 0 0 1
30.860489 0.367177 -3.502372 31.060767 0.011897 1.683795 0.071133 -0.023646 226195.000000 0 0 1
31.859639 -0.496123 -4.091772 32.125151 -0.015571 1.698513 0.050047 -0.023563 548720.000000 0 0 1
31.959659 -1.741523 -3.344772 32.181364 -0.054437 1.674919 0.062281 -0.022220 483532.000000 0 0 1
33.132799 -2.700723 -3.786672 33.457662 -0.081332 1.684217 0.040920 -0.017283 569051.000000 0 0 1
33.009799 -4.015723 -3.281472 33.414681 -0.121058 1.669159 0.035487 -0.025987 21118.900000 0 0 1
34.300239 -4.565623 -3.198172 34.750246 -0.132330 1.662960 0.050498 -0.025902 -214552.000000 0 0 1
34.194899 -5.989323 -2.769572 34.825761 -0.173394 1.650407 0.041515 -0.024613 -453932.000000 0 0 1
33.822669 -6.206023 -1.468472 34.418659 -0.181469 1.613474 0.047430 -0.020241 -95544.400000 0 0 1
33.781789 -7.579023 -1.103472 34.639118 -0.220698 1.602658 0.049311 -0.020727 -107077.000000 0 0 1
33.280359 -7.871423 0.304328 34.199915 -0.232251 1.561898 0.039898 -0.008275 871410.000000 0 0 1
31.850729 -7.678323 0.418228 32.765844 -0.236558 1.558032 0.044562 -0.011569 933908.000000 0 0 1
31.321589 -7.838423 1.683128 32.331343 -0.245220 1.518714 0.050739 -0.024719 -433049.000000 0 0 1
31.215819 -9.337423 2.204528 32.656925 -0.290654 1.503239 0.066790 -0.023294 -339652.000000 0 0 1
30.156899 -10.170823 1.775828 31.875347 -0.325284 1.515056 0.068001 -0.029578 1046870.000000 0 0 1
28.853949 -9.828023 2.315528 30.569627 -0.328288 1.494978 0.064856 -0.036669 131591.000000 0 0 1
27.775079 -10.939323 1.938328 29.914560 -0.375197 1.505955 0.057993 -0.033160 690085.000000 0 0 1
26.524939 -10.669123 2.585928 28.706961 -0.382427 1.480594 0.072918 -0.030772 467879.000000 0 0 1
25.766009 -9.578723 2.194828 27.576374 -0.355925 1.491121 0.075946 -0.029722 -767849.000000 0 0 1
24.950409 -9.579023 0.835328 26.739079 -0.366570 1.539551 0.055943 -0.019798 -648611.000000 0 0 1
25.782809 -9.521023 -0.292672 27.486156 -0.353745 1.581445 0.044239 -0.027307 92.175500 0 0 1
25.276509 -9.755723 -1.590472 27.140480 -0.368345 1.629431 0.031919 -0.018222 -583406.000000 0 0 1
24.712009 -11.127523 -2.035872 27.178115 -0.423093 1.645775 0.028389 -0.012389 -34632.300000 0 0 1
23.423309 -11.401723 -1.532572 26.095967 -0.453006 1.629558 0.042810 -0.005042 -194142.000000 0 0 1
23.123809 -12.775723 -1.567872 26.464842 -0.504755 1.630075 0.039084 0.000172 850694.000000 0 0 1
21.584509 -13.024423 -1.324572 25.244427 -0.542927 1.623290 0.036669 0.000666 666560.000000 0 0 1
20.786409 -12.520423 -2.350572 24.379520 -0.542136 1.667362 0.038311 0.003670 -305054.000000 0 1 0
19.439309 -12.762623 -2.048672 23.344557 -0.580957 1.658667 0.040053 0.001854 -439715.000000 0 1 0
18.401809 -12.252923 -3.039372 22.315879 -0.587440 1.707419 0.037135 0.004754 -222798.000000 0 1 0
18.409309 -13.008123 -4.229972 22.934833 -0.615146 1.756293 0.038742 -0.006480 254825.000000 0 1 0
17.676509 -12.311023 -5.200672 22.160037 -0.608348 1.807693 0.045061 -0.010334 -222914.000000 0 1 0
17.807409 -13.016623 -6.541872 23.007224 -0.631208 1.859114 0.040500 -0.012935 -173039.000000 0 1 0
17.086209 -14.217823 -6.646972 23.200588 -0.694023 1.861368 0.050730 -0.016147 210808.000000 0 1 0
17.118909 -14.678623 -7.971872 23.917980 -0.708804 1.910598 0.048774 -0.021557 -20782.800000 0 1 0
16.129309 -15.856423 -8.322872 24.100850 -0.776867 1.923392 0.041895 -0.023794 336880.000000 0 1 0
14.797309 -15.350723 -8.280172 22.872829 -0.803753 1.941219 0.042152 -0.019868 629265.000000 0 1 0
13.785809 -16.071123 -8.966572 22.994106 -0.861791 1.971375 0.035160 -0.021144 6471.570000 0 1 0
13.764609 -15.980023 -10.522672 23.570155 -0.859742 2.033580 0.033351 -0.028917 -689134.000000 0 1 0
13.168209 -14.868823 -11.192272 22.798039 -0.845980 2.083955 0.037479 -0.024657 142773.000000 0 1 0
13.823209 -13.647723 -11.001372 22.324239 -0.779010 2.086100 0.047323 -0.013457 -256813.000000 0 1 0
13.615809 -12.561423 -12.043072 22.095592 -0.745141 2.147238 0.054987 -0.014178 121401.000000 0 1 0
14.647509 -12.640423 -13.033072 23.327897 -0.711978 2.163602 0.042448 -0.011535 371233.000000 0 1 0
14.323209 -12.186623 -14.335572 23.646918 -0.704976 2.222113 0.049719 -0.005769 -373637.000000 0 1 0
15.553409 -11.996023 -15.257772 24.871926 -0.656981 2.231223 0.044026 -0.009920 153366.000000 0 1 0
16.125409 -13.259423 -15.594172 26.057999 -0.688173 2.212350 0.033753 -0.011720 20479.700000 0 0 1
17.325209 -13.039523 -16.328072 27.144023 -0.645184 2.216217 0.039393 -0.007671 -20289.500000 0 0 1
18.209109 -14.289823 -16.092572 28.191161 -0.665380 2.178322 0.029410 -0.007484 -483515.000000 0 0 1
18.998809 -14.166923 -14.922372 28.005957 -0.640727 2.132736 0.027915 -0.018100 96604.700000 0 0 1
20.093209 -15.069023 -15.030472 29.269909 -0.643473 2.110070 0.021382 -0.007797 -230373.000000 0 0 1
21.193209 -14.842823 -13.994072 29.415906 -0.610966 2.066592 0.019341 -0.018890 -355317.000000 0 0 1
21.834809 -13.595023 -14.218572 29.389647 -0.556894 2.075782 0.025050 -0.008107 -140454.000000 0 0 1
22.866409 -13.377423 -13.277172 29.632945 -0.529336 2.035384 0.016306 -0.009940 96128.200000 0 0 1
23.508909 -11.974623 -13.445572 29.611549 -0.471112 2.042119 0.019974 -0.006510 -64998.300000 0 0 1
22.604609 -10.871023 -13.197972 28.343147 -0.448268 2.055165 0.022730 -0.002024 806671.000000 0 0 1
23.311109 -9.624523 -13.141972 28.438542 -0.391554 2.051179 0.031118 -0.004834 73337.300000 0 0 1
24.296109 -9.475723 -11.955472 28.688387 -0.371865 2.000648 0.026349 -0.004593 84458.200000 0 0 1
25.522609 -10.140223 -12.196472 30.049653 -0.378180 1.988735 0.008926 -0.003542 62799.900000 0 0 1
26.444939 -9.834323 -11.157272 30.340294 -0.356032 1.947371 0.003029 0.002703 353928.000000 0 0 1
27.889829 -10.363223 -11.405072 31.864002 -0.355766 1.936846 -0.014851 0.007839 316671.000000 0 0 1
28.409509 -9.843323 -12.581272 32.592631 -0.333535 1.967105 -0.014235 0.004642 -387084.000000 0 0 1
29.734109 -10.245823 -12.791972 33.951858 -0.331839 1.957101 -0.022338 0.006526 -402542.000000 0 0 1
30.340459 -9.709323 -14.081472 34.829618 -0.309714 1.987005 -0.012353 0.012473 -272599.000000 0 0 1
29.848139 -10.451323 -15.253672 35.111481 -0.336808 2.020208 -0.018564 0.007547 493020.000000 0 0 1
30.323379 -9.901223 -16.450172 35.890802 -0.315607 2.046922 -0.016795 0.005041 -768998.000000 0 0 1
29.893969 -10.666623 -17.744472 36.363340 -0.342733 2.080567 -0.025328 0.010268 456089.000000 0 0 1
28.593329 -10.391423 -18.276472 35.490697 -0.348581 2.111763 -0.016345 0.007632 670291.000000 0 0 1
28.461969 -9.151323 -18.912272 35.376609 -0.311088 2.134829 -0.014241 0.007761 -181951.000000 0 0 1
27.001669 -8.920523 -19.363172 34.403463 -0.319081 2.168597 -0.029764 0.008365 144285.000000 0 0 1
26.517309 -9.677123 -20.519772 34.898072 -0.349918 2.199370 -0.020922 0.018652 124690.000000 0 0 1
25.174509 -9.305723 -20.711972 33.901890 -0.354071 2.228042 -0.008772 0.027026 -45252.500000 0 0 1
24.596109 -9.645423 -22.135172 34.466921 -0.373723 2.268181 -0.004842 0.017475 45475.800000 0 0 1
24.453609 -10.984823 -22.496772 34.996430 -0.422197 2.268984 -0.007453 0.021523 -47436.800000 0 0 1
23.941809 -11.150323 -23.787472 35.544110 -0.435854 2.303979 0.001784 0.013656 -699058.000000 0 0 1
23.936509 -12.702523 -24.135572 36.288240 -0.487886 2.298434 -0.001935 0.025478 567013.000000 0 0 1
25.126009 -13.257123 -24.693572 37.640937 -0.485503 2.286342 0.003501 0.021913 645985.000000 0 0 1
26.285849 -13.226923 -23.853872 37.880134 -0.466201 2.251989 -0.014965 0.019650 104265.000000 0 0 1
27.571139 -13.755523 -24.513272 39.373629 -0.462775 2.242833 -0.025863 0.014563 -164447.000000 0 0 1
28.064439 -12.915323 -25.509372 40.064278 -0.431306 2.261022 -0.014894 -0.005690 29106.500000 0 0 1
29.350629 -13.424323 -25.823642 41.334397 -0.428972 2.245607 -0.023638 -0.007331 264021.000000 0 0 1
30.058669 -12.827323 -27.104912 42.458687 -0.403346 2.263192 -0.011912 -0.006385 -24063.900000 0 0 1
29.846849 -13.485123 -28.287742 43.276775 -0.424359 2.283190 -0.002889 -0.004719 285525.000000 0 0 1
30.611879 -13.005723 -29.382612 44.379881 -0.401751 2.294375 -0.005897 -0.003546 -13780.000000 0 0 1
30.457209 -13.907823 -30.607552 45.363988 -0.428358 2.311369 0.000163 -0.008095 37395.600000 0 0 1
30.886319 -15.230323 -30.338692 45.895138 -0.458120 2.293005 -0.003804 -0.014643 114920.000000 0 0 1
31.399889 -15.964423 -31.459602 47.228407 -0.470363 2.299786 -0.014296 -0.011283 -111118.000000 0 0 1
30.432699 -16.608923 -32.457712 47.492195 -0.499581 2.323251 -0.027254 -0.002469 -36455.000000 0 0 1
29.708279 -15.720123 -33.312742 47.322752 -0.486694 2.351737 -0.033286 0.002618 680703.000000 0 0 1
28.719939 -16.451623 -34.055182 47.489433 -0.520201 2.370444 -0.014608 0.004734 520322.000000 0 0 1
27.801559 -15.611923 33.761960 46.438440 -0.511666 0.756816 0.006904 0.001984 141447.000000 0 0 1
26.936729 -14.626523 34.307351 46.005618 -0.497450 0.729180 0.007245 0.001997 18820.700000 0 0 1
27.599879 -13.501523 -33.969922 45.803931 -0.454960 2.406305 0.005681 -0.002071 -598357.000000 0 0 1
26.742379 -12.247123 -33.664182 44.703736 -0.429459 2.423483 0.015532 -0.003595 102888.000000 0 0 1
26.065379 -11.652023 34.008279 44.404241 -0.420382 0.698389 0.015160 -0.000246 -93007.700000 0 0 1
25.502509 -10.415323 -34.367409 44.045156 -0.387730 2.465904 0.004555 -0.010387 57887.600000 0 0 1
19.800042 -29.352532 9.433928 36.641668 -0.977349 1.310399 0.009365 0.000054 129654.000000 0 0 1
20.119442 -29.528932 8.068928 36.631372 -0.972699 1.348701 -0.006380 -0.010771 316951.000000 0 0 1
21.404742 -30.096232 7.845328 37.755733 -0.952586 1.361479 0.021914 -0.011170 395139.000000 0 0 1
21.980742 -29.947032 6.424428 37.699483 -0.937622 1.399549 0.025246 -0.012472 -78942.000000 0 0 1
22.422042 -28.637832 6.128428 36.884022 -0.906537 1.403868 0.028995 -0.006194 153507.000000 0 0 1
23.187442 -28.615432 4.915128 37.157219 -0.889799 1.438128 0.034071 -0.008022 126451.000000 0 0 1
23.484942 -27.182432 4.479828 36.200773 -0.858245 1.446729 0.024980 -0.013123 244519.000000 0 0 1
24.308842 -26.368432 5.320228 36.256294 -0.826017 1.423525 0.025232 -0.017928 151437.000000 0 0 1
24.157742 -24.982832 5.048528 35.117318 -0.802187 1.426535 0.020808 -0.013774 -191038.000000 0 0 1
25.053242 -24.080332 5.913028 35.248989 -0.765599 1.402249 0.004956 -0.008374 -774159.000000 0 0 1
26.360242 -24.027532 5.428728 36.078467 -0.739136 1.419753 0.000905 -0.001529 -308882.000000 0 0 1
27.261342 -23.250932 6.253328 36.371565 -0.706170 1.398009 0.008377 -0.004357 176521.000000 0 0 1
26.942742 -21.782632 6.540728 35.258695 -0.679890 1.384209 -0.001014 0.005491 -771220.000000 0 0 1
27.115242 -21.016832 5.366328 34.723783 -0.659368 1.415631 0.003496 0.011149 28467.400000 0 0 1
26.750742 -19.636732 5.604728 33.654367 -0.633223 1.403479 0.006043 -0.001628 -484030.000000 0 0 1
26.655142 -18.924932 4.292228 32.970788 -0.617400 1.440243 0.006350 0.005972 1007400.000000 0 0 1
27.948042 -18.604732 3.712328 33.778847 -0.587326 1.460673 0.027045 0.009907 1122070.000000 0 0 1
27.773842 -17.783732 2.605428 33.082257 -0.569530 1.491959 0.022991 0.008806 715702.000000 0 0 1
28.942242 -16.727132 2.499028 33.521567 -0.524048 1.496177 0.021817 0.001611 836680.000000 0 0 1
28.816442 -15.675832 3.423428 32.982403 -0.498217 1.466813 0.031858 -0.009755 482662.000000 0 0 1
30.103742 -15.089732 3.591628 33.864954 -0.464653 1.464539 0.043719 -0.014072 592451.000000 0 0 1
29.896642 -13.809032 4.338028 33.216217 -0.432700 1.439822 0.062574 -0.021075 184752.000000 0 0 1
29.587142 -14.082232 5.681728 33.256432 -0.444230 1.399108 0.056170 -0.015615 25078.600000 0 0 1
29.126542 -12.872032 6.283828 32.458145 -0.416127 1.375968 0.057846 -0.017087 44713.600000 0 0 1
28.837242 -13.011532 7.841128 32.594015 -0.423856 1.327844 0.060026 -0.012134 -716454.000000 0 0 1
27.660842 -13.683332 8.121428 31.911023 -0.459385 1.313463 0.044640 -0.011440 -908109.000000 0 0 1
27.174542 -13.494532 9.421428 31.769820 -0.460914 1.269715 0.050040 -0.004170 88224.800000 0 0 1
27.574542 -14.521032 10.492528 32.883262 -0.484708 1.246033 0.043591 -0.004581 -3376.510000 0 0 1
28.953342 -14.650032 10.793428 34.196748 -0.468426 1.249679 0.023926 -0.005237 41882.800000 0 0 1
29.098642 -15.955532 11.393128 35.087225 -0.501557 1.240093 0.036314 -0.011917 -105857.000000 0 0 1
29.738542 -16.015332 12.796128 36.119422 -0.494001 1.208660 0.035966 -0.009867 131403.000000 0 0 1
31.097542 -15.640732 12.876328 37.114545 -0.466011 1.216495 0.024645 -0.007511 -132746.000000 0 0 1
31.451242 -15.393632 14.227828 37.796503 -0.455167 1.184854 0.031253 -0.014005 173755.000000 0 0 1
32.995942 -15.278332 14.322828 39.080725 -0.433642 1.195559 0.022810 -0.016691 -76355.000000 0 0 1
33.475542 -14.035532 13.892328 38.866501 -0.397013 1.205274 0.010752 -0.014846 -365190.000000 0 0 1
34.693542 -13.825132 14.550828 40.081202 -0.379207 1.199275 -0.000098 -0.019764 -907903.000000 0 0 1
35.353742 -12.530732 14.165028 40.094318 -0.340624 1.209708 -0.003581 -0.019341 -210306.000000 0 0 1
-34.827125 -12.723132 13.081228 39.318256 0.350259 1.231630 0.012175 -0.020604 930767.000000 0 0 1
-33.978025 -11.577232 12.941628 38.157885 0.328390 1.224773 0.022373 -0.022041 236556.000000 0 0 1
-33.051125 -11.633332 11.695728 36.939157 0.338438 1.248631 0.027493 -0.025320 162415.000000 0 0 1
-31.792525 -12.253232 11.816728 36.063020 0.367868 1.236961 0.009096 -0.016800 18726.400000 0 0 1
-31.824525 -13.672532 11.671128 36.550701 0.405779 1.245791 0.008064 -0.016134 -121168.000000 0 0 1
-30.540625 -14.391832 12.165128 35.886557 0.440373 1.224955 0.004408 -0.012355 332916.000000 0 0 1
-29.405625 -14.183832 11.336728 34.559995 0.449429 1.236579 0.016457 -0.012386 -235703.000000 0 0 1
-28.426525 -15.101032 11.773028 34.274082 0.488319 1.220159 0.017271 -0.006205 -723758.000000 0 0 1
-27.135925 -14.992532 10.986528 32.891310 0.504759 1.230225 0.026662 -0.007528 -614158.000000 0 0 1
-27.219225 -15.523532 9.710428 32.804857 0.518306 1.270288 0.025335 -0.008804 420181.000000 0 0 1
-25.962925 -15.349332 9.052028 31.489914 0.533925 1.279225 0.026748 -0.009897 450127.000000 0 0 1
-25.949525 -15.278032 7.529028 31.040013 0.532114 1.325794 0.041735 -0.001124 -98559.900000 0 0 1
-26.209125 -16.498632 6.804228 31.708368 0.561828 1.354527 0.050009 0.004088 175496.000000 0 0 1
-26.189225 -16.253032 5.386328 31.289760 0.555429 1.397791 0.048531 0.010769 -515011.000000 0 0 1
-26.641125 -17.394132 4.505328 32.134146 0.578415 1.430129 0.037569 0.013332 -654722.000000 0 0 1
-28.003325 -17.378432 4.226328 33.227368 0.555418 1.443257 0.020607 -0.003971 -665985.000000 0 0 1
-28.444625 -18.580332 3.609528 34.166565 0.578629 1.464954 0.022487 0.006433 -385449.000000 0 0 1
-29.954225 -18.819932 3.704928 35.569256 0.560961 1.466446 0.029190 -0.005369 -208044.000000 0 0 1
-30.719425 -17.907632 2.908228 35.676661 0.527782 1.489190 0.042584 -0.002682 -395997.000000 0 0 1
-32.059525 -18.064532 3.303128 36.946598 0.513125 1.481274 0.050288 -0.009913 -177308.000000 0 0 1
-33.026425 -17.107632 2.566628 37.282749 0.477942 1.501900 0.027309 -0.008239 82487.000000 0 0 1
-33.240625 -17.528732 1.203728 37.598465 0.485271 1.538776 0.022381 -0.004452 -121421.000000 0 0 1
-33.978625 -16.612532 0.439928 37.824816 0.454737 1.559165 0.043029 -0.010884 -101228.000000 0 0 1
-34.412825 -17.032232 -0.953672 38.408970 0.459590 1.595628 0.039674 -0.014082 -386791.000000 0 0 1
-33.339625 -17.137032 -1.883372 37.533393 0.474796 1.620996 0.042019 -0.015290 319257.000000 0 0 1
-33.748025 -17.977732 -2.955372 38.351822 0.489468 1.647932 0.036558 -0.011055 -200632.000000 0 0 1
-32.642725 -18.553532 -3.836872 37.742584 0.516846 1.672631 0.026969 -0.006166 -186615.000000 0 0 1
-33.109525 -19.700032 -4.508672 38.789948 0.536732 1.687293 0.035049 -0.025129 -979805.000000 0 0 1
-32.087225 -20.301032 -5.179272 38.321623 0.564105 1.706364 0.021224 -0.015640 -1220860.000000 0 0 1
-32.492825 -21.523932 -6.120372 39.452786 0.585058 1.726557 0.036273 -0.016730 -154218.000000 0 0 1
-32.974225 -22.653332 -5.434372 40.373325 0.601949 1.705809 0.046672 -0.022526 -193829.000000 0 0 1
-33.516925 -23.612632 -6.296472 41.479950 0.613739 1.723181 0.046250 -0.022602 -21062.300000 0 0 1
-34.065025 -24.801932 -5.515172 42.496810 0.629322 1.700942 0.046574 -0.019252 333975.000000 0 0 1
-33.005525 -25.536232 -4.930572 42.021118 0.658495 1.688403 0.049512 -0.016853 152087.000000 0 0 1
-33.551525 -26.775932 -4.498772 43.161260 0.673553 1.675218 0.038408 -0.015485 843279.000000 0 0 1
-32.424625 -27.794632 -4.111672 42.904589 0.708664 1.666777 0.035816 -0.012693 -856008.000000 0 0 1
-31.518725 -28.191432 -5.122472 42.596087 0.729732 1.691345 0.032269 -0.010949 166212.000000 0 0 1
-30.699425 -29.280132 -4.769772 42.691118 0.761740 1.682758 0.029619 -0.007459 450764.000000 0 0 1
-29.623325 -28.896132 -3.657372 41.544003 0.772972 1.658947 0.037212 -0.011194 -633551.000000 0 0 1
-30.171225 -28.788432 -2.361272 41.769035 0.761949 1.627358 0.045290 -0.012834 -149242.000000 0 0 1
-29.183525 -28.983032 -1.384672 41.153513 0.781951 1.604449 0.043329 -0.007340 -75078.600000 0 0 1
-29.707225 -28.731732 0.093428 41.328445 0.768707 1.568536 0.046915 -0.004885 363846.000000 0 0 1
-30.531625 -29.773532 0.598928 42.649760 0.772828 1.556753 0.041455 -0.005714 87351.300000 0 0 1
-31.237325 -29.360632 1.757728 42.905790 0.754438 1.529818 0.045347 -0.004672 -42940.400000 0 0 1
-31.769525 -30.605232 2.477628 44.182820 0.766734 1.514690 0.034695 -0.000900 -321901.000000 0 0 1
-32.762825 -30.237232 3.461428 44.717719 0.745331 1.493313 0.034253 -0.000912 721959.000000 0 0 1
-33.401625 -31.345332 4.067028 45.986293 0.753650 1.482241 0.018473 0.000510 142587.000000 0 0 1
-34.431125 -32.135332 3.199728 47.206146 0.750923 1.502962 0.014174 -0.003605 -286064.000000 0 0 1
-35.070625 -33.204332 3.914628 48.454110 0.758070 1.489918 0.003025 -0.003733 229397.000000 0 0 1
35.038942 -33.778632 3.086428 48.767300 -0.767086 1.507465 0.005958 -0.007332 -539995.000000 0 0 1
33.993642 34.290777 3.919628 48.443664 0.789750 1.489797 -0.006371 -0.003505 476654.000000 0 0 1
33.046842 -33.870332 4.677128 47.551748 -0.797704 1.472278 -0.014738 -0.004808 351255.000000 0 0 1
32.404042 -32.743832 4.139728 46.252761 -0.790614 1.481174 -0.011540 -0.010199 -874877.000000 0 0 1
31.361142 -32.890932 2.982128 45.543691 -0.809203 1.505271 -0.001076 -0.006136 -714373.000000 0 0 1
31.752742 -33.459732 1.779528 46.162290 -0.811568 1.532237 0.002837 -0.003296 -820146.000000 0 0 1
30.956842 -33.001432 0.744528 45.254557 -0.817355 1.554344 0.008185 -0.003365 -1653810.000000 0 0 1
31.245342 -33.624332 -0.650472 45.905231 -0.822055 1.584967 0.015357 -0.009769 358258.000000 0 0 1
32.411842 -33.201632 -1.331372 46.418191 -0.797435 1.599482 0.018689 -0.008127 -600761.000000 0 0 1
33.591742 -33.433332 -0.634872 47.398269 -0.783035 1.584191 0.013141 -0.001754 -1924940.000000 0 0 1
34.869342 -33.277332 -1.455872 48.222105 -0.762041 1.600992 0.012259 -0.002331 -554002.000000 0 0 1
35.177842 -34.308032 -2.339672 49.193452 -0.772881 1.618375 0.010970 -0.007331 183155.000000 0 0 1
-34.981025 -33.837632 -3.265572 48.778289 0.768785 1.637794 0.010577 -0.012089 -640275.000000 0 0 1
-34.323425 34.028077 -4.127672 48.508198 -0.781077 1.655992 0.008149 -0.014330 -249948.000000 0 0 1
-33.240425 33.347677 -3.522172 47.216513 -0.787009 1.645462 0.009932 -0.008559 62482.100000 0 0 1
-32.634025 32.585277 -4.573372 46.343237 -0.784651 1.669642 0.023078 -0.013592 310519.000000 0 0 1
-31.344025 31.835577 -4.145272 44.867975 -0.793178 1.663316 0.034586 -0.013384 162659.000000 0 0 1
-30.118025 32.572677 -4.110172 44.552983 -0.824533 1.663181 0.038610 -0.015963 804785.000000 0 0 1
-29.011725 31.647377 -3.975872 43.116635 -0.828821 1.663140 0.051047 -0.016749 686140.000000 0 0 1
-28.611825 31.290477 -2.559272 42.476822 -0.830085 1.631084 0.040881 -0.023203 -133788.000000 0 0 1
-29.606925 30.437577 -1.960372 42.507166 -0.799231 1.616931 0.030069 -0.017147 112338.000000 0 0 1
-29.595925 30.358377 -0.576672 42.401443 -0.798115 1.584397 0.012852 0.000001 -449741.000000 0 0 1
-30.887925 29.839177 0.035828 42.946964 -0.768130 1.569962 0.005984 0.005106 -389766.000000 0 0 1
-31.111825 28.441377 -0.211872 42.153321 -0.740587 1.575823 0.004514 0.001055 519524.000000 0 0 1
-32.352825 28.203377 -0.912572 42.929810 -0.716983 1.592055 -0.001142 0.000863 811501.000000 0 0 1
-32.494425 26.768377 -1.412572 42.123972 -0.689076 1.604336 0.012825 0.004901 -30385.300000 0 0 1
-32.716325 25.932877 -0.266872 41.748572 -0.670248 1.577189 0.002441 0.008847 43469.200000 0 0 1
-33.134525 24.606177 -0.729972 41.278246 -0.638758 1.588481 0.025831 0.010011 111639.000000 0 0 1
-33.241725 23.573877 0.460428 40.754778 -0.616851 1.559499 0.024203 0.006658 -742830.000000 0 0 1
-32.006925 23.091077 0.840528 39.475911 -0.624971 1.549503 0.023354 -0.001516 -506615.000000 0 0 1
-31.531125 23.792677 2.030128 39.552810 -0.646424 1.519447 0.012257 -0.000992 -587933.000000 0 0 1
-30.015425 23.678277 2.245628 38.296598 -0.667918 1.512125 0.008565 -0.011068 4320.640000 0 0 1
-29.129825 24.561977 1.565828 38.135145 -0.700527 1.529725 0.014712 -0.007375 244459.000000 0 0 1
-29.077125 25.863677 2.065628 38.970191 -0.726975 1.517766 0.001039 -0.005607 -450779.000000 0 0 1
-28.458825 26.953477 1.166628 39.214228 -0.758239 1.541042 0.000391 -0.001649 -583518.000000 0 0 1
-27.117625 26.707577 0.921728 38.072429 -0.777780 1.546584 0.002592 -0.001644 -1039450.000000 0 0 1
-26.667525 27.446877 -0.220272 38.269263 -0.799799 1.576552 0.005091 -0.003174 168438.000000 0 0 1
-25.362225 26.913877 -0.817472 36.990100 -0.815071 1.592898 0.006728 -0.000614 -15438.200000 0 0 1
-25.707625 25.756677 -1.666372 36.428906 -0.786351 1.616555 0.012605 -0.001394 1059990.000000 0 0 1
-24.493325 25.195877 -2.241972 35.210533 -0.799536 1.634513 0.004956 -0.000568 1376440.000000 0 0 1
-23.728125 24.115677 -1.422372 33.861674 -0.793498 1.612814 0.000689 0.004066 66702.600000 0 0 1
-24.181425 22.776177 -1.557872 33.255414 -0.755481 1.617659 0.009673 -0.004728 -271060.000000 0 0 1
-23.272725 21.922777 -0.944172 31.986237 -0.755538 1.600319 -0.000157 -0.014278 -1048220.000000 0 0 1
-23.854525 20.505477 -0.765772 31.465845 -0.710044 1.595135 0.006384 -0.016950 -318926.000000 0 0 1
-24.565425 20.263377 0.443228 31.847465 -0.689725 1.556879 0.000727 -0.015261 1082800.000000 0 0 1
-25.903125 20.781477 0.549328 33.213603 -0.676128 1.554256 0.000643 -0.004272 1666580.000000 0 0 1
-27.061125 20.323977 -0.462572 33.846455 -0.644166 1.584464 0.004737 -0.009420 399798.000000 0 0 1
-27.295325 18.959277 -0.366372 33.235872 -0.607091 1.581820 0.020988 -0.016680 198907.000000 0 0 1
-28.200925 18.598377 -1.387672 33.810020 -0.583021 1.611851 0.029307 -0.008620 -160117.000000 0 0 1
-28.452525 17.080977 -1.377472 33.214506 -0.540664 1.612280 0.031400 -0.010236 -150185.000000 0 0 1
-29.214925 16.686077 -0.256072 33.645246 -0.518935 1.578407 0.047534 -0.014288 249852.000000 0 0 1
-29.395625 15.259477 -0.132472 33.120567 -0.478816 1.574796 0.055993 -0.018619 -164902.000000 0 0 1
-28.169225 14.405577 0.301128 31.640426 -0.472721 1.561279 0.062413 -0.021027 -454391.000000 0 0 1
-27.883725 14.764577 1.670228 31.595641 -0.486972 1.517909 0.078279 -0.025684 207941.000000 0 0 1
-26.661525 14.296177 2.207428 30.332991 -0.492194 1.497959 0.063443 -0.025005 32012.600000 0 0 1
-26.326325 12.784777 2.162428 29.346244 -0.452083 1.497043 0.062834 -0.018834 -555533.000000 0 0 1
-26.038425 12.268177 0.863828 28.796770 -0.440308 1.540794 0.053780 -0.018914 442120.000000 0 0 1
-25.579325 10.932677 0.845128 27.830550 -0.403904 1.540425 0.055565 -0.008669 -250626.000000 0 0 1
-25.455125 10.373577 -0.597072 27.494199 -0.386976 1.592514 0.051651 -0.003979 26994.700000 0 0 1
-26.684425 9.953877 -1.194672 28.505534 -0.357035 1.612719 0.056493 -0.011586 540595.000000 0 0 1
-26.606925 9.284377 -2.392972 28.281698 -0.335735 1.655510 0.059729 -0.012180 -234788.000000 0 0 1
-27.918125 8.642477 -2.890972 29.367871 -0.300209 1.669396 0.066586 -0.019568 -44111.900000 0 0 1
-27.835625 7.922477 -4.133472 29.234795 -0.277284 1.712660 0.061977 -0.011308 1314020.000000 0 0 1
-29.150325 7.766877 -4.747172 30.538524 -0.260393 1.726878 0.067474 -0.016534 1375220.000000 0 0 1
-11.306758 18.246177 -19.833372 29.225475 -1.016033 2.316696 0.041698 0.000414 159611.000000 0 0 1
-11.703358 17.401577 -20.931772 29.629758 -0.978735 2.355258 0.012384 0.000398 -174233.000000 0 0 1
-10.762558 17.421277 -21.992072 30.049705 -1.017404 2.391839 0.012765 -0.005977 -59712.800000 0 0 1
-10.852958 16.221977 -22.996972 30.162891 -0.981161 2.437850 0.010673 -0.001266 141957.000000 0 0 1
-10.377658 15.003877 -22.374572 28.869250 -0.965686 2.457561 0.015724 -0.008070 97720.700000 0 0 1
-10.287458 13.956177 -23.365172 29.095325 -0.935586 2.503202 0.022841 -0.012470 -256209.000000 0 0 1
-9.513058 12.745977 -22.865072 27.852643 -0.929630 2.533834 0.004438 -0.005784 558155.000000 0 0 1
-8.094558 12.834977 -23.056072 27.601467 -1.008134 2.559512 0.008624 -0.005613 534033.000000 0 0 1
-7.446058 11.706377 -22.534872 26.463248 -1.004277 2.589738 0.008106 -0.003708 1016570.000000 0 0 1
-5.882758 11.895077 -22.519472 26.138599 -1.111515 2.609093 0.018743 -0.002452 1092760.000000 0 0 1
-5.197958 11.695477 -23.742972 26.972795 -1.152574 2.647198 0.012163 -0.005464 -455675.000000 0 0 1
-3.805658 11.797977 -23.621972 26.677198 -1.258765 2.658310 0.017155 -0.002665 -90973.300000 0 0 1
-3.044058 11.333477 -24.883772 27.512109 -1.308399 2.700923 0.028058 -0.012069 -378125.000000 0 0 1
-3.266858 9.987377 -25.313712 27.408103 -1.254667 2.748125 0.026175 -0.006597 -62219.800000 0 0 1
-2.594358 9.622977 -26.490982 28.303790 -1.307457 2.781749 0.024210 -0.007921 -198745.000000 0 0 1
-2.331758 8.050977 -26.622602 27.910899 -1.288886 2.836578 0.023912 -0.002439 -739577.000000 0 0 1
-1.097958 7.742477 -26.074292 27.221686 -1.429926 2.850218 0.021368 -0.001233 -628296.000000 0 0 1
-1.001558 6.397577 -25.788142 26.588727 -1.415504 2.895575 0.024792 -0.004066 -542592.000000 0 0 1
0.312842 5.978477 -25.143182 25.846077 1.518516 2.907843 0.006058 0.002059 -401839.000000 0 0 1
0.608742 6.513977 -23.857872 24.738645 1.477615 2.873950 0.003295 -0.001119 140268.000000 0 1 0
1.544442 5.738277 -23.123272 23.874649 1.307879 2.890045 0.005203 0.001981 -317184.000000 0 1 0
1.840242 6.392777 -21.784472 22.777562 1.290512 2.845214 0.008004 0.002729 156648.000000 0 1 0
2.575542 7.603377 -21.862472 23.289750 1.244191 2.789684 0.008053 -0.003702 -2561.450000 0 1 0
2.303342 8.337177 -20.707672 22.441515 1.301246 2.745925 0.008405 -0.004257 336346.000000 0 1 0
3.061742 9.715277 -20.626772 23.004882 1.265502 2.682886 0.005788 -0.008117 306373.000000 0 1 0
2.541242 10.512077 -19.533772 22.327784 1.333602 2.635951 0.007959 -0.008578 754317.000000 0 1 0
3.208342 11.799077 -19.475272 22.995606 1.305301 2.580948 0.014698 -0.008316 -576493.000000 0 1 0
4.420842 11.932377 -18.598472 22.535054 1.215984 2.541553 0.006911 -0.011291 -128073.000000 0 1 0
5.585142 11.266877 -19.062272 22.836518 1.110584 2.558434 0.011169 -0.004821 46794.300000 0 1 0
6.523842 10.977877 -18.039472 22.101965 1.034599 2.525588 0.008157 -0.009999 386873.000000 0 1 0
7.616342 9.952577 -18.432972 22.289839 0.917598 2.544489 0.026209 -0.018992 -231373.000000 0 1 0
7.139242 8.654977 -18.668072 21.780136 0.881073 2.600438 0.024055 -0.014988 144524.000000 0 1 0
6.722242 8.336977 -19.969272 22.659779 0.892216 2.649329 0.023025 -0.010854 -5900.850000 0 1 0
6.310342 6.880977 -20.237772 22.287568 0.828630 2.709353 0.026896 -0.009525 -298446.000000 0 1 0
7.400542 6.019577 -20.398672 22.519084 0.682857 2.704153 0.029523 -0.005105 -73433.100000 0 1 0
7.027742 4.651677 -20.681372 22.332631 0.584697 2.754633 0.023967 -0.001584 -38820.500000 0 1 0
7.187042 4.415477 -22.183472 23.733025 0.550916 2.778236 0.035852 -0.006076 -193456.000000 0 1 0
6.133942 5.086377 -22.828672 24.179428 0.692305 2.805760 0.030543 -0.008827 -213982.000000 0 1 0
5.946642 4.521677 -24.067072 25.199843 0.650108 2.840620 0.031355 -0.014319 496349.000000 0 0 1
4.687642 5.013077 -24.881472 25.810707 0.818933 2.872446 0.020701 -0.011284 410750.000000 0 0 1
4.890542 6.334377 -25.339812 26.573442 0.913323 2.835694 0.033729 -0.012683 240953.000000 0 0 1
4.849542 7.362877 -24.373672 25.919219 0.988366 2.794515 0.027007 -0.008402 -1013350.000000 0 0 1
4.920242 8.854377 -24.967572 26.944173 1.063599 2.756173 0.025625 -0.009357 762335.000000 0 0 1
3.753942 9.392177 -25.637062 27.560189 1.190559 2.765810 0.032148 -0.005542 -18161.100000 0 0 1
2.693642 9.576577 -24.773772 26.696560 1.296607 2.759741 0.021279 -0.003178 -989964.000000 0 0 1
1.483842 10.205877 -25.507642 27.513661 1.426417 2.757370 0.028221 0.001679 -109007.000000 0 0 1
1.531942 11.583277 -25.768502 28.293725 1.439305 2.715892 0.037912 -0.012699 -456666.000000 0 0 1
0.316842 11.965477 -26.324132 28.917693 1.544323 2.714834 0.044685 -0.018092 -798365.000000 0 0 1
0.175742 13.486077 -26.616282 29.838426 1.557766 2.672577 0.040210 -0.021727 -387379.000000 0 0 1
-0.127258 14.225877 -25.456062 29.161668 -1.561851 2.631970 0.037534 -0.026904 74649.900000 0 0 1
-0.422558 15.624877 -25.596902 29.991945 -1.543759 2.593384 0.042031 -0.039595 -223380.000000 0 0 1
-0.884358 16.307177 -24.266772 29.250339 -1.516618 2.549230 0.045997 -0.027434 315319.000000 0 0 1
-2.152758 15.788577 -23.886572 28.713792 -1.435283 2.553292 0.044755 -0.022910 -425569.000000 0 0 1
-2.520358 16.216077 -22.581672 27.914965 -1.416607 2.513152 0.045332 -0.027075 -793905.000000 0 0 1
-3.777958 15.395177 -22.248972 27.318514 -1.330153 2.522540 0.048093 -0.018991 -219884.000000 0 0 1
-4.983358 15.850077 -22.822372 28.229762 -1.266176 2.512311 0.043429 -0.019846 -354466.000000 0 0 1
-5.116658 15.522377 -24.200772 29.202770 -1.252382 2.547604 0.034925 -0.021309 -1655820.000000 0 0 1
-6.528358 15.360377 -24.734472 29.838813 -1.168915 2.547999 0.016984 -0.010044 -716680.000000 0 0 1
-7.127858 16.629877 -24.879272 30.762597 -1.165866 2.512821 0.024535 -0.016265 146179.000000 0 0 1
-8.198558 16.435277 -25.810942 31.678690 -1.108078 2.523134 0.029055 -0.012978 13073.700000 0 0 1
-8.937858 17.691777 -26.275442 32.913267 -1.102999 2.495303 0.035980 -0.012175 634161.000000 0 0 1
-9.727358 18.266777 -25.161532 32.579124 -1.081475 2.453283 0.034234 -0.009478 741876.000000 0 0 1
-10.637358 19.273977 -25.572062 33.742702 -1.066494 2.430815 0.034658 -0.008595 79917.500000 0 0 1
-11.208658 20.136077 -24.431372 33.585526 -1.062865 2.385376 0.023003 -0.009405 -225189.000000 0 0 1
-10.467758 21.228377 -23.930572 33.658435 -1.112682 2.361691 0.023454 -0.018435 -120350.000000 0 0 1
-10.888958 22.486677 -24.375072 34.905074 -1.119836 2.343850 0.014358 -0.012800 -216339.000000 0 0 1
-10.535158 22.942377 -25.796132 36.094081 -1.140317 2.366979 0.012694 -0.011429 -202941.000000 0 0 1
-11.267458 22.266077 -26.797752 36.617664 -1.102331 2.391794 0.011480 -0.011873 193021.000000 0 0 1
-11.211958 22.901577 -28.084032 37.932876 -1.115526 2.404404 0.031100 -0.008205 -256438.000000 0 0 1
-11.596858 22.057777 -29.291782 38.458304 -1.086762 2.436653 0.028496 -0.010731 197116.000000 0 0 1
-10.632358 21.116077 -29.779902 38.023392 -1.104337 2.470591 0.023159 -0.016161 405254.000000 0 0 1
-10.606958 19.923177 -29.037782 36.778164 -1.081571 2.480853 0.033834 -0.015762 -301651.000000 0 0 1
-9.630558 18.977777 -29.731502 36.563177 -1.101195 2.520347 0.032759 -0.019984 -593262.000000 0 0 1
-8.300758 19.435277 -29.686572 36.440707 -1.167150 2.522929 0.024592 -0.020097 -544144.000000 0 0 1
-7.312458 18.691877 -30.292372 36.338494 -1.197890 2.556420 0.025324 -0.015205 -364228.000000 0 0 1
-6.882358 17.340677 -29.665512 35.044380 -1.192973 2.580197 0.026941 -0.016766 -365979.000000 0 0 1
-7.890258 16.332877 -29.787742 34.875903 -1.120768 2.594627 0.036249 -0.022069 395112.000000 0 0 1
-7.571558 15.109677 -29.104322 33.655496 -1.106264 2.615492 0.018534 -0.016162 26201.100000 0 0 1
-8.759958 14.107477 -28.878572 33.312606 -1.015119 2.619738 0.034902 -0.006352 -57473.300000 0 0 1
-9.637258 14.586877 -27.898492 32.923845 -0.986950 2.581798 0.038989 -0.001792 -965741.000000 0 0 1
-10.830258 13.891677 -28.019732 33.096504 -0.908605 2.580374 0.071417 -0.003905 -297722.000000 0 0 1
-11.916058 14.320777 -26.978132 32.785618 -0.876797 2.537231 0.059704 0.000937 364440.000000 0 0 1
-12.571358 15.553477 -27.237862 33.791283 -0.891035 2.508264 0.051802 -0.002041 -162883.000000 0 0 1
-13.171258 16.030977 -26.044232 33.298293 -0.883015 2.468904 0.026153 -0.005050 247122.000000 0 0 1
-14.251758 17.109677 -26.264062 34.433336 -0.876276 2.438353 0.005390 -0.002990 301765.000000 0 0 1
-13.705358 18.425477 -26.470862 35.043424 -0.931258 2.427020 0.009949 0.000243 440358.000000 0 0 1
-14.773858 19.349377 -26.715592 36.143992 -0.918691 2.402594 0.001045 0.002195 84217.200000 0 0 1
-14.410458 20.826377 -26.890762 36.939307 -0.965505 2.386155 -0.001191 -0.000627 -280116.000000 0 0 1
-15.522758 21.670877 -27.123152 38.029572 -0.949217 2.364866 -0.029100 0.006710 193777.000000 0 0 1
-15.172858 23.094477 -27.152892 38.740806 -0.989522 2.347435 -0.013209 0.000621 82535.800000 0 0 1
-14.769358 23.706877 -25.786072 38.014096 -1.013637 2.316283 -0.045476 -0.001481 394714.000000 0 0 1
-14.029058 24.927577 -26.010752 38.662098 -1.058185 2.308745 -0.016266 -0.010674 457620.000000 0 0 1
-13.525758 25.533377 -24.825772 38.094861 -1.083650 2.280597 0.001949 -0.012593 207791.000000 0 0 1
-12.977558 26.971277 -25.090842 39.056589 -1.122332 2.268452 0.017740 -0.017375 195675.000000 0 0 1
-14.087258 27.761377 -25.438232 40.202594 -1.101214 2.255897 0.021016 -0.016726 -57683.000000 0 0 1
-14.278358 28.831777 -24.592572 40.496142 -1.110972 2.223431 0.028953 -0.021469 -195985.000000 0 0 1
-15.630358 29.473977 -24.917772 41.640351 -1.083195 2.212305 0.022846 -0.019316 -223069.000000 0 0 1
-16.779658 28.706277 -24.755872 41.454318 -1.041830 2.210783 0.007285 -0.018414 -589457.000000 0 0 1
-17.932958 29.299377 -25.306222 42.666724 -1.021557 2.205717 -0.000621 -0.006739 226833.000000 0 0 1
-19.160758 28.366877 -25.352162 42.597494 -0.976729 2.208256 0.013753 0.003269 186820.000000 0 0 1
-19.624258 28.003477 -24.036972 41.798113 -0.959548 2.183490 0.022281 -0.008094 -318980.000000 0 0 1
-20.535258 26.942177 -23.937072 41.479648 -0.919534 2.185945 0.021647 -0.014268 -243888.000000 0 0 1
-21.070758 26.760777 -22.459272 40.798713 -0.903801 2.153747 0.035204 -0.014248 430390.000000 0 0 1
-22.051658 27.804177 -22.289672 41.906770 -0.900273 2.131624 0.028785 -0.009284 312734.000000 0 0 1
-22.435858 27.964877 -20.931772 41.515553 -0.894662 2.099241 0.013867 -0.006192 -612821.000000 0 0 1
-23.626158 28.896477 -20.648172 42.656169 -0.885407 2.076086 -0.006409 0.003581 181985.000000 0 0 1
-24.833658 28.265177 -21.032872 43.104669 -0.849934 2.080535 -0.014746 0.004082 232022.000000 0 0 1
-25.972548 29.116377 -21.093072 44.353741 -0.842405 2.066402 -0.003420 0.007627 491597.000000 0 0 1
-27.305968 28.380177 -21.327372 44.787355 -0.804686 2.067115 -0.018327 0.009846 -222940.000000 0 0 1
-27.460188 28.007077 -22.705272 45.320941 -0.795258 2.095537 -0.019667 0.008653 -117208.000000 0 0 1
-28.674508 27.338577 -22.969972 45.795686 -0.761552 2.096215 -0.018183 0.011758 -221962.000000 0 0 1
-28.825158 26.920877 -24.433272 46.396208 -0.751252 2.125419 -0.017039 0.013509 70901.400000 0 0 1
-28.356428 25.622977 -24.716772 45.514204 -0.734803 2.144869 -0.001830 0.008025 -302266.000000 0 0 1
-28.621258 25.413677 -26.095732 46.325140 -0.726107 2.169191 0.012783 0.004629 -42403.000000 0 0 1
-28.674488 23.933377 -26.604702 45.856766 -0.695519 2.189733 0.016005 -0.003162 555724.000000 0 0 1
-27.387138 23.313777 -26.739892 44.817512 -0.705229 2.210103 0.028359 -0.010244 697822.000000 0 0 1
-27.705758 22.082877 -27.284362 44.717993 -0.672940 2.227037 0.037076 -0.013016 -657491.000000 0 0 1
-26.682728 21.016077 -27.226932 43.531016 -0.667152 2.246518 0.051391 -0.008218 -872993.000000 0 0 1
-26.523358 20.530477 -25.920152 42.389189 -0.658718 2.228726 0.047252 -0.008871 132532.000000 0 0 1
-25.975258 19.226677 -25.855112 41.386785 -0.637194 2.245568 0.040688 -0.013939 3677.460000 0 0 1
-27.037678 18.122077 -25.647362 41.439509 -0.590481 2.238152 0.043547 -0.002816 -373849.000000 0 0 1
-27.913008 17.902677 -26.697402 42.572211 -0.570287 2.248632 0.035300 -0.005931 -260427.000000 0 0 1
-28.599438 16.708677 -26.399812 42.356320 -0.528744 2.243725 0.019115 -0.005578 -396596.000000 0 0 1
-29.371028 16.093277 -27.574082 43.381803 -0.501253 2.259600 0.001842 -0.011740 352224.000000 0 0 1
-30.645528 16.692177 -27.806772 44.620553 -0.498754 2.243602 -0.011184 -0.001998 113966.000000 0 0 1
-31.242538 16.083077 -28.893842 45.493029 -0.475403 2.258969 -0.006647 0.002268 421459.000000 0 0 1
-32.606398 16.675577 -29.381282 46.952229 -0.472742 2.246914 -0.008719 -0.002364 815375.000000 0 0 1
-33.677538 16.617877 -28.437782 47.106665 -0.458387 2.218917 -0.017750 0.006658 -51913.700000 0 0 1
-34.873441 16.957477 -29.103672 48.484396 -0.452593 2.214634 -0.022213 0.010644 687313.000000 0 0 1
34.959279 16.661577 -28.240782 47.930169 0.444753 2.200873 -0.001164 0.021570 587413.000000 0 0 1
34.808619 17.629477 -27.227602 47.579205 0.468809 2.180054 -0.015119 0.020299 -96322.300000 0 0 1
33.810389 17.284377 -26.304862 46.193483 0.472579 2.176633 -0.000952 0.020068 -206937.000000 0 0 1
33.367919 18.485177 -25.424202 45.842228 0.505894 2.158681 0.013477 0.012827 -120828.000000 0 0 1
32.736469 19.469577 -26.187662 46.222662 0.536540 2.173115 0.015974 0.006358 -43480.700000 0 0 1
32.207459 20.485477 -25.402762 45.850578 0.566504 2.157998 0.033600 -0.002164 -813417.000000 0 0 1
31.623569 21.691877 -26.203522 46.445799 0.601227 2.170229 0.034949 -0.002333 1252370.000000 0 0 1
30.278779 21.578477 -26.734602 45.794914 0.619172 2.194185 0.037707 0.001146 1057340.000000 0 0 1
29.303979 21.708977 -25.724602 44.629117 0.637600 2.185123 0.032979 0.000062 -491263.000000 0 0 1
27.832239 21.423177 -26.070012 43.740503 0.656006 2.209326 0.023086 0.001924 202616.000000 0 0 1
27.669689 20.016577 -26.221862 43.056488 0.626266 2.225609 0.024311 -0.005916 469486.000000 0 0 1
26.315799 19.779377 -26.622002 42.337644 0.644535 2.250808 0.037662 -0.006263 424251.000000 0 0 1
25.854409 18.308477 -26.523072 41.317359 0.616167 2.267816 0.042039 -0.007820 -45673.400000 0 0 1
26.592319 17.428677 -27.378532 41.958244 0.580164 2.281700 0.031495 -0.007436 774488.000000 0 0 1
27.725489 16.778177 -26.770382 42.034074 0.544200 2.261232 0.027975 -0.001751 675021.000000 0 0 1
28.510619 15.855577 -27.769452 42.841536 0.507536 2.276001 0.019792 0.006019 -168179.000000 0 0 1
27.806669 14.758977 -28.310122 42.337941 0.487960 2.303215 0.026967 0.008663 -11218.300000 0 0 1
27.318809 13.780177 -27.379762 41.059250 0.467178 2.300750 0.041416 0.000434 -348320.000000 0 0 1
28.293419 12.999577 -26.466752 40.865579 0.430690 2.275298 0.032024 -0.006133 -171481.000000 0 0 1
28.679749 13.735177 -25.309092 40.641521 0.446638 2.243036 0.030194 -0.002736 103827.000000 0 0 1
29.715319 13.112677 -24.584172 40.734801 0.415576 2.218702 0.020368 -0.003525 -135244.000000 0 0 1
-14.314858 -31.486132 -23.880872 42.030795 1.144090 2.175083 0.042419 0.015658 -50747.800000 0 0 1
-13.626958 -30.487632 -24.572872 41.461015 1.150468 2.205171 0.032392 0.000068 92470.300000 0 0 1
-14.134258 -30.394332 -25.898912 42.359725 1.135514 2.228630 0.022286 0.013278 174209.000000 0 0 1
-13.393358 -29.241932 -26.705912 41.805244 1.141294 2.263756 0.026175 0.009741 75534.900000 0 0 1
-13.763158 -27.923232 -26.240322 40.714689 1.112851 2.271156 0.032167 0.016399 139386.000000 0 0 1
-13.167358 -26.870532 -27.027962 40.322643 1.115157 2.305399 0.017625 0.010852 -430753.000000 0 0 1
-13.492258 -25.448132 -26.611292 39.214912 1.083292 2.316653 0.009046 0.008630 -231413.000000 0 0 1
-12.964558 -24.978132 -25.380752 37.896826 1.092036 2.304645 0.017959 -0.008899 148301.000000 0 0 1
-13.393158 -23.637132 -25.150832 37.022359 1.055286 2.317661 0.023909 -0.005075 13370.100000 0 0 1
-12.949858 -23.093132 -23.766972 35.578934 1.059725 2.302323 0.030029 -0.002451 544520.000000 0 0 1
-11.566358 -22.779732 -23.615472 34.790622 1.100970 2.316908 0.034022 -0.018507 207955.000000 0 0 1
-11.427158 -22.027332 -22.455072 33.466604 1.092244 2.306312 0.022952 -0.010315 -928866.000000 0 0 1
-9.999158 -21.870732 -22.026272 32.610869 1.141976 2.312340 0.020245 -0.015232 -1053200.000000 0 0 1
-9.219658 -21.075132 -22.885372 32.448475 1.158414 2.353619 0.033191 -0.021949 317743.000000 0 0 1
-7.846958 -21.271832 -22.535172 31.967164 1.217393 2.353145 0.043968 -0.016077 1040690.000000 0 0 1
-6.797558 -20.371232 -23.320172 31.702119 1.248730 2.397353 0.022416 -0.007515 558439.000000 0 0 1
-6.846558 -19.051332 -22.854272 30.531072 1.225795 2.416681 0.042844 -0.020377 374235.000000 0 0 1
-7.662958 -18.146832 -23.638672 30.770364 1.171236 2.446866 0.026146 -0.026772 244006.000000 0 0 1
-6.916458 -17.254632 -24.638472 30.864446 1.189560 2.495230 0.037422 -0.021135 64884.500000 0 0 1
-6.618858 -17.954732 -25.828642 32.144991 1.217612 2.503955 0.031406 -0.027811 133996.000000 0 0 1
-5.597158 -17.316732 -26.579112 32.212522 1.258173 2.541206 0.015008 -0.020439 260548.000000 0 0 1
-5.304758 -17.891032 -28.004162 33.652082 1.282550 2.553801 0.017795 -0.009828 -250378.000000 0 0 1
-6.306658 -17.503632 -28.900502 34.371356 1.224970 2.569613 0.033536 -0.006859 -163196.000000 0 0 1
-6.314058 -18.277032 -30.064682 35.746361 1.238168 2.570028 0.030400 -0.012357 9872.200000 0 0 1
-7.274058 -17.767132 -31.184452 36.620390 1.182204 2.589750 0.036589 -0.016294 180163.000000 0 0 1
-6.931058 -16.595032 -31.920862 36.638451 1.175160 2.628518 0.034348 -0.015284 -148828.000000 0 0 1
-6.766358 -15.414132 -31.183842 35.437425 1.157152 2.646594 0.024880 -0.015757 -115174.000000 0 0 1
-7.211858 -14.060032 -31.863232 35.566290 1.096856 2.681211 0.024634 -0.010676 -272479.000000 0 0 1
-6.645858 -13.892032 -33.108642 36.514904 1.124583 2.706227 0.038608 -0.012780 -371780.000000 0 0 1
-7.245758 -12.882632 -33.932492 37.011853 1.058449 2.730790 0.043130 -0.009669 -235858.000000 0 0 1
-7.204858 -11.421332 -33.443382 36.066835 1.008019 2.757827 0.025844 -0.009082 1078590.000000 0 0 1
-5.989358 -10.683632 -33.750462 35.904124 1.059843 2.793474 0.022922 -0.007539 763896.000000 0 0 1
-5.904058 -10.254332 33.636437 35.656964 1.048389 0.338258 0.008356 -0.004846 -204461.000000 0 0 1
-4.625958 -9.439132 33.398830 35.013976 1.115114 0.304919 0.004303 -0.003132 -489860.000000 0 0 1
-4.671058 -8.829632 32.138131 33.654727 1.084203 0.301350 -0.003149 0.004286 377446.000000 0 0 1
-3.678458 -7.798732 32.065351 33.204488 1.130065 0.262696 -0.002511 -0.001498 -835374.000000 0 0 1
-3.838458 -6.727132 30.922341 31.877566 1.052280 0.245423 0.003250 -0.000057 488052.000000 0 0 1
-4.964158 -5.814432 31.002591 31.931350 0.864121 0.241778 -0.004459 -0.002802 184028.000000 0 0 1
-6.128658 -6.331132 30.461361 31.710222 0.801647 0.281584 -0.008991 0.000574 -919841.000000 0 0 1
-7.406858 -5.468032 30.603511 31.958345 0.635932 0.292222 -0.005338 -0.003734 -707866.000000 0 0 1
-8.352258 -6.088932 29.852311 31.591071 0.629936 0.333323 0.004172 -0.002007 -1135900.000000 0 0 1
-9.572858 -5.374032 29.894961 31.846955 0.511540 0.351936 0.002979 -0.002693 31637.000000 0 0 1
-10.744158 -5.946132 29.089001 31.574727 0.505472 0.399451 0.002699 -0.001044 -321991.000000 0 0 1
-10.483358 -5.842832 27.720851 30.207368 0.508464 0.408582 -0.005858 0.001629 540704.000000 0 0 1
-11.401458 -6.537332 26.878101 29.919262 0.520614 0.454787 -0.000992 -0.008501 30148.400000 0 0 1
-11.010858 -6.330832 25.420451 28.416857 0.521806 0.463361 -0.001040 -0.008444 513922.000000 0 0 1
-9.706858 -6.800532 25.057661 27.719248 0.611122 0.441807 0.004945 -0.007818 482680.000000 0 0 1
-9.213158 -6.475132 23.791011 26.321509 0.612612 0.442084 0.005488 -0.009148 -543448.000000 0 0 1
-10.046558 -6.790032 22.495311 25.555369 0.594338 0.494391 0.008196 -0.014412 -390472.000000 0 0 1
-11.263958 -6.120732 22.497911 25.893940 0.497755 0.517925 0.000214 -0.006501 -608894.000000 0 0 1
-12.070558 -6.328232 21.352211 25.331044 0.482875 0.568097 0.003569 -0.005187 705695.000000 0 0 1
-13.256458 -5.303132 21.213711 25.571046 0.380542 0.592407 0.003869 -0.001377 627061.000000 0 0 1
-12.931158 -4.016732 20.722511 24.754221 0.301175 0.578780 -0.002141 0.001330 -373026.000000 0 1 0
-13.938958 -3.155932 21.155211 25.530323 0.222657 0.594139 -0.009128 0.008581 -139366.000000 0 0 1
-13.873558 -1.761932 20.599211 24.897942 0.126323 0.596430 -0.002390 0.012511 1015950.000000 0 1 0
-12.753358 -1.008932 21.186711 24.749602 0.078947 0.543232 -0.010660 0.003784 1013010.000000 0 1 0
-12.748358 0.400068 20.995911 24.566419 -0.031372 0.545903 -0.013805 0.002263 -358474.000000 0 1 0
-12.329558 0.931068 19.599911 23.174153 -0.075372 0.562797 -0.003802 -0.006904 -411956.000000 0 1 0
-13.170358 0.834068 18.506511 22.729825 -0.063245 0.619455 0.003511 0.003569 -21493.600000 0 1 0
-14.389158 1.592068 18.511111 23.499867 -0.110195 0.663711 0.002725 0.009562 658501.000000 0 1 0
-15.460058 0.920068 17.613911 23.454419 -0.059442 0.721244 0.020321 0.015161 -80941.000000 0 1 0
-15.883658 -0.342932 18.090911 24.076737 0.021587 0.720637 0.001247 0.016203 -310262.000000 0 1 0
-16.817158 -1.045932 17.374211 24.202768 0.062114 0.770072 0.001585 0.016208 -452696.000000 0 1 0
-16.710158 -2.545932 17.564411 24.376621 0.151196 0.766211 -0.006584 0.017437 -90012.600000 0 1 0
-17.032558 -3.000932 18.864311 25.592496 0.174398 0.742023 -0.013177 0.019293 -10030.100000 0 0 1
-16.996758 -4.367132 18.960011 25.834930 0.251499 0.746764 -0.006808 0.013373 -146413.000000 0 0 1
-17.747358 -4.927332 20.180311 27.322011 0.270817 0.739790 -0.012687 0.016916 -188511.000000 0 0 1
-17.086458 -4.529932 21.380511 27.741550 0.259156 0.690852 -0.009624 0.012182 674668.000000 0 0 1
-17.982158 -4.376632 22.500811 29.134162 0.238746 0.688316 -0.006834 0.009959 340554.000000 0 0 1
-18.455858 -5.672832 23.265511 30.233817 0.298207 0.692708 0.001941 0.008633 32567.100000 0 0 1
-17.378858 -6.386432 23.834771 30.181244 0.352164 0.660442 0.017463 -0.003606 -26649.800000 0 0 1
-16.816658 -7.292532 22.954511 29.374999 0.409174 0.673842 0.003492 -0.001795 334525.000000 0 0 1
-15.479858 -7.889632 23.553311 29.268255 0.471354 0.635560 0.004912 -0.000498 794003.000000 0 0 1
-15.691358 -8.930332 24.501021 30.434677 0.517407 0.635060 0.027229 -0.013628 -440176.000000 0 0 1
-14.494058 -9.050332 25.176361 30.427543 0.558180 0.596298 0.038154 -0.008065 -493048.000000 0 0 1
-14.484358 -9.974532 26.424621 31.741905 0.603062 0.587221 0.030770 -0.009057 69598.000000 0 0 1
-14.818558 -11.303732 26.152461 32.114097 0.651649 0.619169 0.031398 -0.016315 111275.000000 0 0 1
-14.399558 -12.005532 27.322221 33.135839 0.694980 0.601386 0.031412 -0.015994 130299.000000 0 0 1
-14.411258 -13.563532 27.193021 33.632040 0.755104 0.629121 0.020468 -0.018571 -90542.800000 0 0 1
-15.702558 -14.103332 27.415731 34.599084 0.731795 0.656091 0.023754 -0.018305 236539.000000 0 0 1
-15.872558 -15.433832 27.041531 34.948328 0.771385 0.686045 0.029461 -0.011202 -401928.000000 0 0 1
-15.174058 -16.605832 27.755381 35.726277 0.830421 0.681085 0.018751 -0.001729 -399195.000000 0 0 1
-13.797058 -16.608732 27.495001 34.959746 0.877608 0.665714 0.031638 -0.011302 -792138.000000 0 0 1
-13.050658 -17.377932 28.360281 35.729788 0.926662 0.653858 0.028450 -0.004039 -92614.000000 0 0 1
-11.664858 -17.515432 27.638961 34.738616 0.983272 0.650755 0.026064 -0.013888 361783.000000 0 0 1
-10.693558 -18.261432 28.357161 35.383056 1.041046 0.641108 0.044467 -0.019924 330680.000000 0 0 1
-9.748958 -18.897832 27.495521 34.758796 1.094528 0.658293 0.025485 -0.018095 360143.000000 0 0 1
-8.503158 -19.432232 28.273821 35.345782 1.158319 0.643633 0.058738 -0.022289 232063.000000 0 0 1
-8.692958 -20.610132 28.945831 36.581501 1.171656 0.657914 0.039436 -0.012328 195963.000000 0 0 1
-7.484158 -21.039532 29.554451 37.042410 1.229036 0.647069 0.049007 -0.009484 338283.000000 0 0 1
-7.596958 -22.393432 30.262971 38.406080 1.243731 0.663286 0.035871 -0.004763 161246.000000 0 0 1
-7.793158 -23.474132 29.352791 38.384301 1.250256 0.700208 0.026569 -0.004188 81152.700000 0 0 1
-8.031758 -24.683332 30.077071 39.729161 1.256210 0.712006 0.022987 -0.008797 -353403.000000 0 0 1
-8.145958 -25.928332 29.201311 39.891749 1.266389 0.749523 0.027600 -0.005156 -249484.000000 0 0 1
-9.349358 -25.932932 28.452381 39.616480 1.224780 0.769591 0.022646 -0.010258 163622.000000 0 0 1
-9.568258 -27.158132 27.773351 40.005934 1.232059 0.803446 0.025224 -0.013386 -505432.000000 0 0 1
-10.996558 -27.290432 27.240041 40.096282 1.187753 0.823898 0.027628 -0.017926 -384489.000000 0 0 1
-11.343258 -26.726632 25.965161 38.950892 1.169419 0.841141 0.036575 -0.019582 231012.000000 0 0 1
-11.319258 -25.287432 25.893461 37.921645 1.149920 0.819188 0.022801 -0.008552 -697592.000000 0 0 1
-11.362758 -24.818932 24.414891 36.622105 1.141453 0.841063 0.037828 -0.022010 247819.000000 0 0 1
-12.604058 -25.121832 23.786401 36.820668 1.105776 0.868455 0.031861 -0.016227 398803.000000 0 0 1
-12.563958 -24.912832 22.386611 35.772372 1.103701 0.894630 0.042669 -0.020177 756584.000000 0 0 1
-13.966958 -24.965832 21.657711 35.880707 1.060732 0.922784 0.043770 -0.020540 767020.000000 0 0 1
-14.527858 -26.229932 21.449311 36.866529 1.064990 0.949844 0.050046 -0.020944 651593.000000 0 0 1
-15.608258 -26.244932 20.490611 36.773351 1.034272 0.979770 0.051501 -0.023005 913617.000000 0 0 1
-16.178058 -27.647832 20.246011 37.895028 1.041369 1.007158 0.061159 -0.032910 540447.000000 0 0 1
-15.154158 -28.256232 19.471411 37.512651 1.078523 1.025043 0.060351 -0.023774 623770.000000 0 0 1
-15.540058 -29.554632 19.108311 38.472032 1.086716 1.051026 0.080049 -0.023968 528572.000000 0 0 1
-14.574858 -30.146432 18.012411 38.022110 1.120461 1.077269 0.083299 -0.029589 388343.000000 0 0 1
-14.739358 -29.648332 16.730411 37.096886 1.109440 1.102919 0.070697 -0.027392 122899.000000 0 0 1
-13.463058 -29.622132 16.110711 36.308121 1.144212 1.111049 0.070600 -0.034422 344335.000000 0 0 1
-13.556758 -29.222032 14.593011 35.364796 1.136425 1.145443 0.054230 -0.020908 -26788.300000 0 0 1
-13.927758 -27.851532 14.481611 34.342501 1.107092 1.135497 0.048754 -0.021506 -83355.900000 0 0 1
-14.300358 -27.411232 13.196911 33.615984 1.089942 1.167363 0.045691 -0.010985 -428968.000000 0 0 1
-13.249958 -27.363532 12.076811 32.713509 1.119853 1.192682 0.030688 -0.013003 -17743.500000 0 0 1
-13.728858 -26.808632 10.871811 32.021564 1.097511 1.224395 0.016036 -0.005719 -186016.000000 0 0 1
-12.695058 -26.861632 9.928311 31.325439 1.129300 1.248294 0.025558 -0.007273 -90836.100000 0 0 1
-12.961858 -26.067832 8.639211 30.367377 1.109363 1.282322 0.029233 -0.005998 157033.000000 0 0 1
-14.056758 -26.461432 7.805611 30.963324 1.082488 1.315955 0.020904 -0.013622 178862.000000 0 0 1
-14.157758 -25.599632 6.704211 30.012160 1.065618 1.345512 0.021447 -0.013483 -515660.000000 0 0 1
-15.150658 -26.082132 5.708411 30.698632 1.044552 1.383758 0.026623 -0.006584 -568862.000000 0 0 1
-14.689258 -27.214632 4.980811 31.324415 1.075852 1.411111 0.025249 -0.010826 381770.000000 0 0 1
-15.610258 -27.531632 3.923511 31.891455 1.055000 1.447457 0.035939 -0.001897 192283.000000 0 0 1
-15.277058 -28.849632 3.228411 32.804153 1.083796 1.472222 0.024905 0.006642 -78172.800000 0 0 1
-14.045658 -28.826532 2.539711 32.166747 1.117403 1.491760 0.025822 0.009960 -168841.000000 0 0 1
-13.725258 -30.053232 1.887511 33.092932 1.142386 1.513729 0.010641 0.011794 -218321.000000 0 0 1
-12.282458 -30.099632 1.363311 32.537751 1.183361 1.528885 0.004500 0.007746 -119004.000000 0 0 1
-12.053858 -29.422532 0.122711 31.796163 1.181972 1.566937 0.013373 0.007913 -26223.400000 0 0 1
-12.210458 -28.003332 0.028811 30.549677 1.159615 1.569853 0.012495 0.001880 -687455.000000 0 0 1
-12.076158 -27.321032 -1.354089 29.901605 1.154607 1.616097 0.020242 -0.005246 216193.000000 0 0 1
-10.768758 -27.425432 -1.913189 29.525934 1.196637 1.635639 0.019774 -0.003879 105183.000000 0 0 1
-10.656358 -26.699032 -3.050889 28.908549 1.191041 1.676529 0.035606 -0.005724 484091.000000 0 0 1
-9.229458 -27.017232 -3.581989 28.774023 1.241612 1.695607 0.024218 -0.005322 432521.000000 0 0 1
-8.786558 -26.123832 -4.526889 27.931182 1.246340 1.733587 0.019656 -0.008790 -706677.000000 0 0 1
-7.462558 -26.341832 -4.936689 27.820007 1.294733 1.749192 0.028480 -0.000023 194700.000000 0 0 1
-6.744458 -25.187832 -5.675489 26.685685 1.309167 1.785112 0.014326 -0.001758 85127.100000 0 0 1
-7.160858 -25.000032 -7.031389 26.939190 1.291831 1.834864 0.029052 -0.001554 -431632.000000 0 0 1
-6.476658 -23.970732 -7.606389 25.969218 1.306907 1.868055 0.027716 -0.001489 -784531.000000 0 0 1
-6.756758 -23.710832 -9.028489 26.255875 1.293190 1.921827 0.029420 -0.004176 -147978.000000 0 0 1
-6.063358 -24.658232 -9.814289 27.223391 1.329684 1.939610 0.014904 -0.003360 -117887.000000 0 0 1
-6.265258 -24.491132 -11.182589 27.642708 1.320350 1.987272 0.008810 0.005307 29532.100000 0 0 1
-7.564758 -25.047332 -11.798389 28.701854 1.277489 1.994421 0.006019 0.008122 38124.400000 0 0 1
-7.599258 -24.932432 -13.217589 29.224640 1.274947 2.040111 0.005750 0.013626 -303794.000000 0 0 1
-8.783858 -25.414632 -13.793789 30.221322 1.238027 2.044770 0.010050 0.009302 -583629.000000 0 0 1
-8.804158 -25.341732 -15.347989 30.907562 1.236424 2.090447 0.012126 0.009112 199050.000000 0 0 1
-8.076058 -26.302232 -16.069289 31.863022 1.272886 2.099395 0.007096 0.009417 1393980.000000 0 0 1
-6.631558 -26.400832 -15.937389 31.543333 1.324700 2.100472 0.012741 0.010398 1422200.000000 0 0 1
-5.942158 -27.444032 -16.894789 32.770689 1.357569 2.112441 -0.001769 0.008637 189203.000000 0 0 1
-5.796358 -27.082532 -18.246289 33.166073 1.359952 2.153339 0.022181 0.008696 57583.600000 0 0 1
-4.796758 -27.801832 -18.935689 33.978097 1.399945 2.161916 0.015387 0.003532 -253304.000000 0 0 1
-24.291958 14.897277 -5.941372 29.108899 -0.550112 1.776349 0.025202 -0.015970 3736.390000 0 0 1
-24.587358 13.651777 -5.386872 28.634378 -0.506854 1.760050 0.020421 -0.008096 88736.900000 0 0 1
-23.413658 12.883077 -5.385172 27.261202 -0.503026 1.769644 0.032539 -0.009742 -787440.000000 0 0 1
-23.498858 11.414277 -4.869872 26.574381 -0.452173 1.755092 0.034078 -0.009662 -606584.000000 0 0 1
-24.132058 10.470277 -5.663972 26.908428 -0.409363 1.782873 0.030358 -0.006877 630541.000000 0 0 1
-25.535768 10.596477 -5.906172 28.270897 -0.393341 1.781260 0.035695 -0.009889 262986.000000 0 0 1
-25.914998 9.832577 -7.221172 28.642835 -0.362637 1.825657 0.039035 -0.007569 -326400.000000 0 0 1
-25.684988 10.668177 -8.298972 29.024155 -0.393666 1.860777 0.054022 0.000274 -18151.000000 0 0 1
-25.767068 10.056777 -9.532872 29.256729 -0.372113 1.902691 0.043450 -0.006095 -653400.000000 0 0 1
-26.088038 11.140777 -10.622372 30.290880 -0.403602 1.929092 0.034412 -0.010611 -415623.000000 0 0 1
-25.159208 12.136777 -10.957472 30.005888 -0.449468 1.944620 0.034541 -0.013444 7574.930000 0 0 1
-25.705738 13.001977 -11.949472 31.186957 -0.468277 1.964007 0.035717 -0.017832 3297.980000 0 0 1
-24.746458 14.121377 -12.439172 31.089122 -0.518553 1.982437 0.031768 -0.012834 -107184.000000 0 0 1
-24.621258 15.213477 -11.588572 31.176133 -0.553477 1.951650 0.030840 -0.003950 81069.100000 0 0 1
-23.622558 15.990477 -12.178872 31.016859 -0.595064 1.974311 0.018820 -0.008544 -269784.000000 0 0 1
-23.551358 17.434977 -11.531872 31.490141 -0.637262 1.945725 0.018938 -0.003977 -24013.200000 0 0 1
-23.089058 17.527277 -10.158872 30.716652 -0.649310 1.907872 0.020756 0.001458 218174.000000 0 0 1
-22.891058 18.884577 -9.744672 31.234379 -0.689786 1.888078 -0.005597 0.006206 259541.000000 0 0 1
-21.775658 19.021477 -8.653372 30.180734 -0.717991 1.861596 -0.010311 0.009494 -167300.000000 0 0 1
-21.963258 18.479777 -7.337472 29.626430 -0.699477 1.821067 -0.000148 0.002947 -460928.000000 0 0 1
-22.897258 19.101377 -6.518672 30.522780 -0.695262 1.786022 0.002866 -0.003829 -794253.000000 0 0 1
-23.224958 18.350577 -5.198372 30.052711 -0.668689 1.744646 0.000137 -0.000968 49617.800000 0 0 1
-22.127458 18.280477 -4.323372 29.025709 -0.690481 1.720302 0.006599 -0.015882 182721.000000 0 0 1
-22.666058 17.987177 -3.048972 29.096133 -0.670810 1.675779 -0.001043 -0.013404 -291299.000000 0 0 1
-21.569458 17.748377 -2.039072 28.007217 -0.688518 1.643666 0.008639 -0.029153 -1079230.000000 0 0 1
-20.878858 18.899277 -1.662372 28.211219 -0.735674 1.629756 0.003641 -0.029996 396062.000000 0 0 1
-19.879658 18.502577 -0.703672 27.166916 -0.749535 1.596701 0.043328 -0.042020 605471.000000 0 0 1
-19.133658 19.728177 -0.061572 27.482752 -0.800695 1.573037 0.046900 -0.043782 26241.300000 0 0 1
-20.014958 20.380177 0.834128 28.577018 -0.794439 1.541603 0.040313 -0.038737 340890.000000 0 0 1
-19.956658 21.782177 0.692728 29.550149 -0.829107 1.547352 0.049835 -0.030245 -358292.000000 0 0 1
-20.981958 22.421377 1.618428 30.750285 -0.818550 1.518141 0.029534 -0.021625 -631787.000000 0 0 1
-20.781958 22.130877 2.984228 30.505264 -0.816822 1.472813 0.055049 -0.024670 529608.000000 0 0 1
-21.913058 22.294077 3.832328 31.494360 -0.794017 1.448811 0.035901 -0.022279 328378.000000 0 0 1
-21.402258 21.863677 5.235828 31.040150 -0.796062 1.401307 0.036668 -0.022013 106628.000000 0 0 1
-20.509758 22.725477 5.945128 31.184003 -0.836601 1.378975 0.033944 -0.012878 692397.000000 0 0 1
-19.742258 21.975077 6.911928 30.338680 -0.838870 1.340952 0.032962 -0.007220 251594.000000 0 0 1
-20.508458 21.707777 8.253328 30.982929 -0.813799 1.301158 0.029274 -0.018184 1016500.000000 0 0 1
-21.696858 20.851677 8.185428 31.185691 -0.765537 1.305211 0.027375 -0.013080 1623350.000000 0 0 1
-22.201758 20.311177 9.417828 31.530263 -0.740957 1.267475 0.030797 -0.013036 35161.700000 0 0 1
-22.606958 21.327977 10.544028 32.819715 -0.756296 1.243725 0.033534 -0.016301 -413878.000000 0 0 1
-23.790758 22.039277 10.221428 34.003051 -0.747200 1.265471 0.039828 -0.018256 364185.000000 0 0 1
-24.078058 22.916377 11.296228 35.107236 -0.760684 1.243205 0.037802 -0.014921 -134368.000000 0 0 1
-25.136178 23.968877 10.984028 36.427783 -0.761631 1.264501 0.046685 -0.024506 173309.000000 0 0 1
-26.078088 24.183077 12.039028 37.547651 -0.747713 1.244398 0.041995 -0.025261 255326.000000 0 0 1
-26.706768 25.444677 11.879828 38.753237 -0.761202 1.259229 0.044059 -0.025942 -199649.000000 0 0 1
-27.287288 25.947277 13.175728 39.893071 -0.760232 1.234200 0.052601 -0.027987 -123415.000000 0 0 1
-26.327968 26.049677 14.210228 39.669613 -0.780085 1.204442 0.034896 -0.022557 196327.000000 0 0 1
-26.901118 26.512377 15.435728 40.802426 -0.778120 1.182833 0.031644 -0.018230 33678.700000 0 0 1
-25.829328 26.668077 16.540428 40.643896 -0.801374 1.151673 0.032242 -0.020215 -242410.000000 0 0 1
-25.426328 25.434677 17.125328 39.833376 -0.785562 1.126388 0.040961 -0.022388 144498.000000 0 0 1
-24.538658 25.712477 18.199428 39.931146 -0.808753 1.097559 0.033113 -0.017981 -8712.140000 0 0 1
-23.827558 24.454177 18.694528 38.926144 -0.798376 1.069849 0.043064 -0.008580 -96106.600000 0 0 1
-22.773858 24.639577 19.619428 38.867458 -0.824728 1.041672 0.044942 -0.011181 349884.000000 0 0 1
-22.368858 23.367677 20.151828 38.111813 -0.807233 1.013663 0.049447 -0.012577 524709.000000 0 0 1
-20.835858 23.236577 20.498328 37.339697 -0.839817 0.989666 0.049397 -0.011532 357958.000000 0 0 1
-20.079858 23.286577 19.311428 36.309732 -0.859209 1.010010 0.049965 -0.018413 1303640.000000 0 0 1
-18.703658 22.835177 19.505928 35.380127 -0.884534 0.986845 0.041355 -0.015654 1481860.000000 0 0 1
-18.505558 21.258477 19.371728 34.200035 -0.854519 0.968636 0.039792 0.002162 -302906.000000 0 0 1
-19.047258 20.514177 20.429628 34.655435 -0.822461 0.940348 0.031365 0.004068 -149128.000000 0 0 1
-18.266758 20.578377 21.598728 34.980696 -0.844837 0.905303 0.019049 0.012268 -348072.000000 0 0 1
-19.088858 20.281277 22.849628 36.025272 -0.815676 0.883737 0.018416 0.008643 -221105.000000 0 0 1
-20.042558 21.311377 23.076028 37.260998 -0.816070 0.902936 0.034508 0.001175 -93583.800000 0 0 1
-20.415058 21.145377 24.405028 38.203494 -0.802969 0.877837 0.032017 0.009292 -193665.000000 0 0 1
-21.519258 22.110377 24.879728 39.635188 -0.798946 0.892178 0.034210 0.000005 -367979.000000 0 0 1
-21.174058 23.427977 24.663828 40.068881 -0.835889 0.907731 0.045502 -0.008856 231173.000000 0 0 1
-22.118758 24.453077 25.055328 41.412098 -0.835479 0.921000 0.038262 -0.010724 419466.000000 0 0 1
-23.132358 24.850977 23.923828 41.533440 -0.821200 0.956953 0.032364 -0.012471 62596.600000 0 0 1
-24.146958 23.887777 23.830628 41.492172 -0.780003 0.958998 0.022240 -0.009486 -288290.000000 0 0 1
-24.833458 24.035577 22.606128 41.297053 -0.769073 0.991539 0.025800 -0.003831 -262947.000000 0 0 1
-25.891028 22.963977 22.326128 41.184288 -0.725557 0.997859 0.026939 0.000215 532329.000000 0 0 1
-27.222648 23.235277 22.771428 42.420380 -0.706538 1.004152 -0.000246 -0.008290 210156.000000 0 0 1
-28.095158 22.233177 22.375528 42.241169 -0.669446 1.012539 0.006190 -0.006845 -1016270.000000 0 0 1
-29.561248 22.518677 22.626728 43.507781 -0.650987 1.023873 0.018592 -0.003585 -1639790.000000 0 0 1
-29.997248 23.527877 21.774528 43.903598 -0.665116 1.051854 0.006863 -0.003257 156975.000000 0 0 1
-31.394078 23.758777 21.856428 45.030779 -0.647834 1.064014 0.004710 -0.003372 654226.000000 0 0 1
-32.364668 22.701477 21.225528 44.870389 -0.611684 1.078057 0.013999 -0.011001 -906331.000000 0 0 1
-32.435078 21.478477 21.911528 44.648341 -0.584903 1.057837 0.019573 -0.003687 116655.000000 0 0 1
-32.966458 20.485077 21.071228 44.163587 -0.556000 1.073424 0.023945 0.004664 126254.000000 0 0 1
-34.476381 20.406477 20.730128 45.108573 -0.534440 1.093296 0.027840 -0.001240 1735.950000 0 0 1
-34.861490 19.583177 19.658728 44.556592 -0.511814 1.113852 0.029471 0.006797 84518.700000 0 0 1
34.910979 19.749877 19.277528 44.502328 0.514833 1.122778 0.035662 -0.006492 147524.000000 0 0 1
34.380399 18.812577 18.167228 43.196911 0.500683 1.136725 0.055653 -0.007733 -169513.000000 0 0 1
34.291999 17.458877 18.564028 42.724428 0.470920 1.121306 0.066087 -0.003477 189885.000000 0 0 1
33.824739 16.670377 17.475728 41.562189 0.457908 1.136831 0.069239 -0.009254 120040.000000 0 0 1
34.058659 15.158577 17.558028 41.207512 0.418749 1.130632 0.057054 -0.009136 486732.000000 0 0 1
33.303649 14.419277 16.570528 39.895250 0.408597 1.142468 0.064334 -0.016803 748772.000000 0 0 1
33.949709 13.162277 16.430628 39.947388 0.369858 1.146909 0.057528 -0.020855 264727.000000 0 0 1
33.122839 12.298577 15.445528 38.560885 0.355525 1.158680 0.064917 -0.023590 102268.000000 0 0 1
33.091799 12.843077 14.126928 38.204475 0.370210 1.192033 0.068908 -0.028133 293934.000000 0 0 1
32.051339 12.371377 13.302228 36.841398 0.368368 1.201384 0.070935 -0.032468 -189679.000000 0 0 1
32.301009 12.913977 11.890628 36.762930 0.380335 1.241433 0.079066 -0.030096 127045.000000 0 0 1
33.497799 12.440777 11.287028 37.473624 0.355603 1.264846 0.071837 -0.034426 346892.000000 0 0 1
33.586949 12.728977 9.895528 37.256295 0.362260 1.301963 0.067800 -0.034977 683256.000000 0 0 1
35.068436 12.488677 9.414528 38.397860 0.342119 1.323087 0.067254 -0.027688 478613.000000 0 0 1
35.514572 11.140077 9.385128 38.385763 0.303956 1.323797 0.065695 -0.028245 -80449.700000 0 0 1
-34.261165 11.005677 9.010728 37.096436 -0.310817 1.325442 0.074738 -0.030465 -280796.000000 0 0 1
-33.912178 11.191377 7.513028 36.492853 -0.318757 1.363437 0.088308 -0.040840 -772842.000000 0 0 1
-33.963828 12.521277 7.124228 36.892799 -0.353205 1.376469 0.098285 -0.040604 51784.200000 0 0 1
-33.695488 12.649777 5.729328 36.444862 -0.359134 1.412936 0.092673 -0.041901 -727563.000000 0 0 1
-34.849663 13.427277 5.147228 37.699930 -0.367763 1.433837 0.080664 -0.049412 -903388.000000 0 0 1
35.099952 12.644677 5.238528 37.674085 0.345775 1.431296 0.067513 -0.041502 -275754.000000 0 0 1
33.910659 13.341677 4.954428 36.776073 0.374835 1.435667 0.051544 -0.022072 234027.000000 0 0 1
33.338009 14.175077 6.147828 36.744407 0.402034 1.402692 0.047323 -0.021744 -1193910.000000 0 0 1
32.341489 15.120277 5.815628 36.172037 0.437327 1.409319 0.020005 -0.018835 222830.000000 0 0 1
31.732199 15.681977 6.987628 36.078856 0.458995 1.375888 0.033708 -0.018246 50835.100000 0 0 1
30.564139 14.886977 7.580928 34.831870 0.453253 1.351397 0.034456 -0.020908 -993463.000000 0 0 1
30.996539 13.723177 8.226528 34.882471 0.416794 1.332718 0.036534 -0.017771 -506528.000000 0 0 1
30.112689 12.653177 8.317528 33.705463 0.397793 1.321450 0.050840 -0.017757 -910116.000000 0 0 1
30.351739 11.524577 7.275128 33.271180 0.362885 1.350354 0.056321 -0.020531 -143066.000000 0 0 1
29.899969 11.869377 5.983628 32.721462 0.377891 1.386896 0.037291 -0.020159 263599.000000 0 0 1
30.191989 10.832377 5.085128 32.476994 0.344478 1.413573 0.063171 -0.026559 -470250.000000 0 0 1
29.765159 11.110077 3.659128 31.981053 0.357242 1.456130 0.042412 -0.026099 -730725.000000 0 0 1
28.421389 10.933077 3.339928 30.634338 0.367228 1.461554 0.015432 -0.015925 -386133.000000 0 0 1
28.149809 11.207577 1.957128 30.362014 0.378902 1.506292 0.028092 -0.016972 819343.000000 0 0 1
26.659079 10.902877 1.549628 28.844074 0.388219 1.517046 0.042824 -0.005900 942216.000000 0 0 1
26.351409 9.512477 1.566128 28.059522 0.346428 1.514953 0.025480 -0.020992 -1778240.000000 0 0 1
25.045609 9.212277 1.389428 26.722259 0.352461 1.518778 0.024040 -0.022704 -1898100.000000 0 0 1
24.678309 7.676277 1.354528 25.880087 0.301567 1.518434 0.027517 -0.018240 -51840.900000 0 0 1
24.994109 7.006077 2.557628 26.083176 0.273295 1.472582 0.031636 -0.010077 340462.000000 0 0 1
26.375779 6.768977 2.737328 27.367750 0.251215 1.470609 0.044265 -0.020846 -276616.000000 0 0 1
26.777379 6.278477 4.166628 27.817407 0.230309 1.420446 0.043479 -0.022349 -1180470.000000 0 0 1
28.135549 6.019577 4.289528 29.090282 0.210772 1.422801 0.060106 -0.028595 -369859.000000 0 0 1
28.355399 5.522477 5.610428 29.427934 0.192351 1.378972 0.048864 -0.014415 -702596.000000 0 0 1
29.840229 5.427477 5.896928 30.897743 0.179918 1.378765 0.049289 -0.022422 -460660.000000 0 0 1
30.503939 6.658777 6.220828 31.835960 0.214921 1.374128 0.062719 -0.024666 -256225.000000 0 0 1
31.864039 6.500777 6.515728 33.166727 0.201254 1.373056 0.054758 -0.019339 -386136.000000 0 0 1
32.400829 7.777277 7.170528 34.083959 0.235576 1.358834 0.047775 -0.020487 -207612.000000 0 0 1
31.897869 7.900877 8.465528 33.934689 0.242806 1.318668 0.038156 -0.020971 31211.700000 0 0 1
32.435389 9.005177 9.129128 34.878198 0.270814 1.305968 0.041433 -0.026463 -103230.000000 0 0 1
31.987919 9.135277 10.638528 34.926473 0.278180 1.261280 0.039397 -0.025415 564889.000000 0 0 1
30.621689 9.554477 10.810428 33.850277 0.302444 1.245742 0.042042 -0.024849 792750.000000 0 0 1
30.179779 9.235677 12.100828 33.801581 0.296972 1.204676 0.039756 -0.027632 -144645.000000 0 0 1
28.673389 9.495177 12.343428 32.629463 0.319784 1.182847 0.032413 -0.035035 -113138.000000 0 0 1
28.287409 10.879177 12.529228 32.795054 0.367155 1.178787 0.041830 -0.035581 235361.000000 0 0 1
28.290869 11.759877 11.394428 32.687933 0.393948 1.214738 0.039927 -0.034462 -100146.000000 0 0 1
27.066039 11.673377 10.423128 31.264674 0.407188 1.230906 0.029547 -0.036941 -11770.900000 0 0 1
27.114669 12.628877 9.385528 31.349354 0.435881 1.266748 0.013543 -0.018424 -777733.000000 0 0 1
26.011009 12.586077 8.571828 30.140640 0.450665 1.282422 0.011283 -0.020966 -1219420.000000 0 0 1
26.033809 13.736477 7.531028 30.383654 0.485514 1.320321 -0.001214 -0.007488 24867.000000 0 0 1
25.961909 15.025377 8.082328 31.066167 0.524646 1.307603 -0.009398 0.001858 319853.000000 0 0 1
26.125279 16.038477 7.120528 31.471652 0.550582 1.342568 -0.015918 0.011344 -680494.000000 0 0 1
26.055769 17.509477 7.792028 32.345024 0.591686 1.327500 -0.002832 0.006815 868043.000000 0 0 1
24.771909 18.102877 8.045328 31.718905 0.631088 1.314350 0.001112 0.007979 1227280.000000 0 0 1
23.740509 17.387477 8.737028 30.696446 0.632140 1.282179 0.008886 0.004409 513567.000000 0 0 1
22.347009 18.048377 8.731528 30.022863 0.679383 1.275703 0.016459 0.002562 -77741.600000 0 0 1
21.725909 18.349777 7.535128 29.419511 0.701353 1.311783 0.025958 -0.008564 -1085080.000000 0 0 1
20.580809 19.063677 7.789628 29.114804 0.747148 1.299948 0.057361 -0.018737 -987015.000000 0 0 1
20.119409 19.709777 6.499328 28.905142 0.775114 1.344007 0.054446 -0.019774 -293770.000000 0 0 1
20.953109 20.732477 6.014228 30.083872 0.780105 1.369525 0.022053 -0.004559 -283482.000000 0 0 1
20.491409 21.160377 4.797728 29.844223 0.801458 1.409337 0.033228 -0.011822 -325329.000000 0 0 1
17.289542 17.444877 33.348394 41.416994 0.789870 0.634807 0.042223 0.005123 7236.680000 0 0 1
17.085642 18.128477 32.125211 40.652061 0.815004 0.659583 0.027316 0.007942 246298.000000 0 0 1
16.345242 17.319977 31.214351 39.261740 0.814344 0.651736 0.027137 0.003521 -1078.640000 0 0 1
15.981442 17.943277 29.902221 38.360273 0.843163 0.676913 0.016888 0.003970 438481.000000 0 0 1
17.039642 18.065877 28.931931 38.128493 0.814623 0.709326 0.014555 0.011870 299534.000000 0 0 1
16.566842 18.606177 27.697961 37.253552 0.843313 0.732510 0.025297 0.002878 -280670.000000 0 0 1
17.668442 19.025777 26.742251 37.273342 0.822372 0.770643 0.012348 0.007764 -678854.000000 0 0 1
18.165842 20.310877 26.859301 38.261621 0.841089 0.792608 0.015207 0.009034 344847.000000 0 0 1
19.150542 20.606677 25.870821 38.218815 0.822007 0.827235 0.008649 0.015142 -134014.000000 0 0 1
20.033342 21.790677 26.088011 39.455706 0.827391 0.848383 0.020754 0.009014 -238399.000000 0 0 1
19.258842 22.953677 25.864671 39.582263 0.872705 0.858675 0.009751 0.002622 212345.000000 0 0 1
19.996842 24.101877 26.099941 40.767402 0.878218 0.876017 0.022959 0.002536 -147816.000000 0 0 1
19.151742 25.396377 25.963501 41.059330 0.924668 0.886225 0.026197 -0.001936 118620.000000 0 0 1
18.970942 25.786577 24.596861 40.371398 0.936516 0.915664 0.021238 -0.006125 187746.000000 0 0 1
18.028542 26.810577 24.430721 40.505500 0.978806 0.923357 0.041952 -0.014300 -261937.000000 0 0 1
18.397942 27.637777 23.194111 40.500590 0.983476 0.961018 0.043552 -0.019764 120857.000000 0 0 1
19.493742 28.539677 23.271411 41.666266 0.971544 0.978197 0.043881 -0.016999 136494.000000 0 0 1
19.381342 29.517677 22.235111 41.729245 0.989795 1.008840 0.034849 -0.016130 171465.000000 0 0 1
20.717042 30.267977 21.955811 42.748145 0.970580 1.031411 0.043197 -0.017294 -10266.200000 0 0 1
21.596542 29.369477 21.291011 42.217105 0.936744 1.042200 0.028909 -0.017916 -163590.000000 0 0 1
22.787742 30.078677 20.942811 43.157958 0.922446 1.064136 0.035196 -0.024261 351851.000000 0 0 1
22.854242 30.447777 19.456011 42.754180 0.926908 1.098349 0.029073 -0.026066 -399043.000000 0 0 1
22.088142 31.567977 19.114411 43.009114 0.960271 1.110262 0.013488 -0.009897 -90772.700000 0 0 1
21.880242 31.632377 17.761811 42.365484 0.965660 1.138175 0.019590 -0.005698 -243090.000000 0 0 1
20.998142 32.856777 17.394511 42.697293 1.002135 1.151200 0.034886 -0.002560 -609980.000000 0 0 1
21.582042 34.150077 17.528711 44.037121 1.007196 1.161413 0.026624 -0.004745 -31667.400000 0 0 1
21.806142 -34.066732 16.354511 43.629349 -1.001412 1.186560 0.020764 -0.006749 223654.000000 0 0 1
22.973942 34.455277 15.369111 44.172137 0.982718 1.215427 0.003725 -0.001967 179519.000000 0 0 1
22.891142 33.262177 14.583411 42.930790 0.968032 1.224203 0.022773 -0.008874 -317684.000000 0 0 1
21.862742 33.401877 13.649211 42.189642 0.991239 1.241349 0.001528 -0.005244 -294292.000000 0 0 1
21.582142 32.156977 12.771111 40.779423 0.979697 1.252262 0.007774 -0.017543 85608.000000 0 0 1
22.650642 31.878377 11.877711 40.870069 0.953036 1.275920 0.024256 -0.028601 129280.000000 0 0 1
22.336942 30.708577 11.141111 39.573729 0.941927 1.285410 0.028317 -0.030641 -348810.000000 0 0 1
23.562142 29.962977 10.557311 39.552641 0.904419 1.300603 0.027670 -0.027537 623827.000000 0 0 1
24.420842 29.171977 11.397211 39.714962 0.873819 1.279729 0.030158 -0.020647 541142.000000 0 0 1
25.227042 29.937177 12.289411 41.032522 0.870575 1.266623 0.034097 -0.019920 -900563.000000 0 0 1
26.676342 29.491677 12.478511 41.678526 0.835480 1.266734 0.036029 -0.013059 -196333.000000 0 0 1
26.836542 28.202177 13.048811 41.058912 0.810205 1.247381 0.042034 -0.011772 -229200.000000 0 0 1
28.194142 28.075777 13.409911 41.987911 0.783295 1.245726 0.042548 0.002128 22434.600000 0 0 1
28.469042 27.026777 14.478611 41.839733 0.759415 1.217439 0.032709 -0.004551 -441829.000000 0 0 1
29.451342 27.342877 15.411311 43.040946 0.748291 1.204605 0.010973 -0.012740 -335378.000000 0 0 1
29.847642 26.113477 16.063911 42.788371 0.718769 1.185939 0.010772 -0.014280 -37969.300000 0 0 1
31.077442 26.308777 16.961511 44.109546 0.702491 1.176096 0.017663 -0.009696 -440860.000000 0 0 1
32.247442 26.667677 16.300011 44.908272 0.690971 1.199351 0.021370 -0.007945 -1174520.000000 0 0 1
33.330742 26.765077 17.157611 46.061821 0.676577 1.189105 0.023616 -0.003463 -151939.000000 0 0 1
34.639042 27.117077 16.410811 46.952251 0.664194 1.213736 0.026385 -0.012550 66918.500000 0 0 1
34.556642 28.415877 15.806211 47.449551 0.688191 1.231190 0.024564 -0.010097 -410019.000000 0 0 1
-35.320725 28.886877 15.362611 48.145769 -0.685528 1.246032 0.036485 -0.018980 -207778.000000 0 0 1
-35.424225 30.072077 14.375711 48.640175 -0.703863 1.270763 0.017981 -0.014301 130971.000000 0 0 1
35.115542 31.211577 14.970511 49.309026 0.726607 1.262321 0.022536 -0.018722 88049.200000 0 0 1
34.724842 32.194177 13.999511 49.378801 0.747599 1.283341 0.026526 -0.016039 178746.000000 0 0 1
34.193742 33.472377 14.748811 50.071344 0.774738 1.271806 0.012864 -0.015280 -902748.000000 0 0 1
33.887842 -34.376232 13.843511 50.217069 -0.792552 1.291506 -0.002961 -0.022828 181207.000000 0 0 1
32.786442 -33.565232 14.229011 49.031014 -0.797135 1.276356 -0.007057 -0.009150 563058.000000 0 0 1
31.436542 -34.228932 13.811211 48.483250 -0.827897 1.281930 0.001283 -0.002155 -421663.000000 0 0 1
31.217142 33.417177 14.358011 47.930890 0.819423 1.266569 0.003072 -0.015452 -295648.000000 0 0 1
30.199542 32.771677 13.597811 46.592871 0.826222 1.274643 0.009295 -0.008063 -234423.000000 0 0 1
29.532242 31.607877 14.299611 45.559742 0.819334 1.251535 0.022286 -0.013380 -308631.000000 0 0 1
28.593042 32.027477 15.265311 45.566996 0.841992 1.229183 0.031615 -0.008796 46453.300000 0 0 1
28.322642 31.071377 16.242911 45.071440 0.831645 1.202120 0.036249 -0.015615 297811.000000 0 0 1
27.294242 31.517277 17.332811 45.152417 0.857081 1.176809 0.034027 -0.018878 437575.000000 0 0 1
26.984942 30.579677 18.312911 44.706448 0.847764 1.148753 0.019763 -0.010973 174083.000000 0 0 1
27.970942 30.680577 19.332711 45.797654 0.831564 1.134999 0.027251 -0.013035 234736.000000 0 0 1
27.928842 29.527577 20.346011 45.451713 0.813216 1.106672 0.025808 -0.010233 -421603.000000 0 0 1
26.921642 29.593477 21.291111 45.319534 0.832639 1.081732 0.029110 -0.016600 -545850.000000 0 0 1
27.029742 28.507177 22.160511 45.103818 0.811995 1.057189 0.007354 -0.008063 259696.000000 0 0 1
25.840442 28.264877 23.149111 44.749448 0.830178 1.027098 0.015018 -0.009703 -168286.000000 0 0 1
24.675042 27.799377 22.538611 43.470128 0.844868 1.025718 0.026562 -0.007417 167126.000000 0 0 1
23.517242 27.780577 23.399611 43.270809 0.868317 0.999443 0.033221 -0.008865 628395.000000 0 0 1
23.308242 26.627677 24.408271 42.989197 0.851774 0.966994 0.033426 -0.017718 -513797.000000 0 0 1
24.261442 26.550877 25.451151 44.060501 0.830424 0.954961 0.012650 -0.011418 240307.000000 0 0 1
23.954842 25.506877 26.335551 43.794937 0.816766 0.925622 0.031346 -0.013241 -364714.000000 0 0 1
25.084942 25.257177 27.352641 44.892608 0.788819 0.915631 0.041305 -0.020617 177393.000000 0 0 1
25.560342 26.290977 28.242601 46.283810 0.799488 0.914477 0.054384 -0.016535 1084310.000000 0 0 1
26.563942 27.144377 27.617351 46.959326 0.796205 0.942074 0.035168 -0.009581 244400.000000 0 0 1
26.908642 28.402477 28.468911 48.386513 0.812399 0.941762 0.010645 -0.003700 -604981.000000 0 0 1
27.360942 28.242877 29.787201 49.331112 0.801258 0.922509 0.020082 -0.000181 124343.000000 0 0 1
27.606442 29.525677 30.357741 50.551693 0.818978 0.926634 0.013434 -0.002915 313372.000000 0 0 1
29.087342 29.988477 30.291731 51.603984 0.800651 0.943443 -0.009509 0.002069 259651.000000 0 0 1
29.572242 30.252477 28.961321 51.268782 0.796768 0.970494 -0.028705 0.001129 235801.000000 0 0 1
30.969242 30.518277 29.066551 52.300321 0.778064 0.981517 -0.006013 -0.006885 529658.000000 0 0 1
31.671042 30.890277 27.760311 52.229293 0.772919 1.010416 -0.010369 0.001689 -153166.000000 0 0 1
31.405342 32.246977 27.401921 52.697517 0.798620 1.023963 -0.021669 0.002273 307497.000000 0 0 1
32.026042 32.540577 26.142801 52.611810 0.793367 1.050774 -0.002860 -0.003042 26994.400000 0 0 1
31.864242 34.019677 25.865951 53.307746 0.818102 1.064182 -0.005514 -0.010903 -103769.000000 0 0 1
32.776642 -34.080332 26.567851 54.236777 -0.804895 1.058879 0.010318 -0.012394 164193.000000 0 0 1
32.354842 -32.785332 26.381571 53.082022 -0.792007 1.050662 0.010463 -0.011162 -190379.000000 0 0 1
33.320642 -31.811432 27.052251 53.423372 -0.762231 1.039821 0.016841 -0.025418 -170704.000000 0 0 1
33.169942 -31.863532 28.433831 54.074139 -0.765313 1.017105 0.010584 -0.032742 192681.000000 0 0 1
33.893842 -30.791432 28.955081 54.178423 -0.737473 1.006952 0.025065 -0.035641 -558955.000000 0 0 1
33.368642 -30.368232 30.353831 54.378772 -0.738358 0.978590 0.022158 -0.036728 -401447.000000 0 0 1
33.574242 -31.339232 31.336091 55.599711 -0.750981 0.972057 0.026743 -0.035231 878972.000000 0 0 1
32.469942 -32.233232 31.627671 55.620032 -0.781740 0.965947 0.018556 -0.029795 126886.000000 0 0 1
32.679242 -33.099432 32.902458 56.974354 -0.791786 0.955138 0.027273 -0.023108 -429273.000000 0 0 1
32.319342 -32.457232 34.140874 57.128024 -0.787527 0.930266 0.032057 -0.028524 14231.900000 0 0 1
32.549542 -33.153832 -33.384002 57.211370 -0.794595 2.193853 0.030176 -0.020050 -426479.000000 0 0 1
31.892842 34.387677 -33.197592 57.460820 0.823021 2.186757 0.011728 -0.017856 -232824.000000 0 0 1
32.220342 33.403477 -34.193540 57.646691 0.803425 2.205771 0.019445 -0.018911 -142384.000000 0 0 1
31.497242 32.188777 -34.136086 56.510760 0.796256 2.219387 0.017726 -0.010312 -121508.000000 0 0 1
31.787842 31.164177 33.469179 55.694334 0.775492 0.926115 -0.002090 0.000419 -37558.200000 0 0 1
33.052842 30.547077 33.550872 56.136221 0.746020 0.930206 -0.009203 -0.007844 -64657.600000 0 0 1
33.266542 29.656177 32.448931 55.127895 0.728083 0.941456 -0.016098 -0.004771 465733.000000 0 0 1
34.613142 28.868877 32.603911 55.628201 0.695157 0.944554 -0.011218 -0.002099 362276.000000 0 0 1
34.616742 27.708677 33.371013 55.495172 0.675010 0.925629 -0.008976 0.000688 280867.000000 0 0 1
-35.205725 27.179477 33.576172 55.727250 -0.657445 0.924155 -0.025644 -0.002210 174943.000000 0 0 1
-35.230825 25.840477 34.311834 55.553967 -0.632833 0.905070 -0.035669 0.004661 -16321.100000 0 0 1
35.309242 24.810977 33.564143 54.670640 0.612520 0.909762 -0.041597 0.005374 69723.100000 0 0 1
35.355242 23.638677 34.292656 54.633016 0.589343 0.892213 -0.043945 -0.007049 -133007.000000 0 0 1
34.784842 22.440877 33.403784 53.192020 0.572947 0.891835 -0.048283 -0.003516 -5056.680000 0 0 1
-35.466625 22.030977 32.360391 52.824619 -0.555844 0.911450 -0.035705 -0.001986 544088.000000 0 0 1
35.053242 21.060977 31.491871 51.614266 0.541028 0.914560 -0.025357 0.002735 130642.000000 0 0 1
-34.923625 20.246777 30.878061 50.823678 -0.525393 0.917821 -0.008885 -0.014060 -261763.000000 0 0 1
-34.289825 20.943877 29.858161 50.059443 -0.548315 0.931720 -0.012335 -0.014591 -162759.000000 0 0 1
-33.132025 20.219277 29.439821 48.716048 -0.547932 0.921891 0.001457 -0.017738 180672.000000 0 0 1
-33.271525 19.209777 28.325221 47.731835 -0.523609 0.935490 0.015756 -0.014216 -539682.000000 0 0 1
-34.105425 18.165677 28.757531 48.168116 -0.489412 0.931010 0.023937 -0.014055 106838.000000 0 0 1
-34.414925 17.223877 27.756731 47.449817 -0.464029 0.945953 0.033927 -0.020806 211950.000000 0 0 1
-35.219825 16.032977 28.297501 47.939973 -0.427191 0.939404 0.052964 -0.030124 391836.000000 0 0 1
-34.268625 15.159377 28.906081 47.325542 -0.416490 0.913735 0.044022 -0.023615 772465.000000 0 0 1
-34.916925 14.001577 29.394181 47.741530 -0.381365 0.907530 0.048459 -0.027017 263309.000000 0 0 1
-33.942325 12.793977 29.628661 46.836149 -0.360464 0.885887 0.047131 -0.017453 270336.000000 0 0 1
-32.984625 13.047777 30.641091 46.873302 -0.376683 0.858332 0.041966 -0.011205 93951.900000 0 0 1
-32.250325 11.904277 30.969491 46.269911 -0.353607 0.837500 0.040486 -0.005819 -91319.700000 0 0 1
-30.728625 12.179277 30.994031 45.312395 -0.377356 0.817554 0.035767 -0.001733 -1325500.000000 0 0 1
-30.204925 12.531177 29.721301 44.189632 -0.393261 0.833099 0.020033 -0.001039 381025.000000 0 0 1
-28.844325 12.924677 29.703601 43.374489 -0.421259 0.816443 0.000917 -0.002185 281387.000000 0 0 1
-27.758925 11.984277 30.260221 42.776884 -0.407555 0.784988 0.002734 -0.000823 -1176340.000000 0 0 1
-27.525025 10.815577 29.425281 41.718711 -0.374402 0.787914 0.012293 -0.002262 551664.000000 0 0 1
-26.479525 9.956777 29.936521 41.188566 -0.359663 0.757121 0.006533 0.001475 272634.000000 0 0 1
-25.996625 8.869777 28.922161 39.887202 -0.328804 0.759619 0.016201 -0.002085 -324028.000000 0 0 1
-26.787525 7.765877 28.664211 39.993966 -0.282171 0.771718 0.015450 -0.005412 -787270.000000 0 0 1
-28.026225 7.984277 28.061151 40.455484 -0.277534 0.804280 0.015054 -0.000301 -451252.000000 0 0 1
-28.888525 6.715177 27.887071 40.710308 -0.228395 0.816175 0.013744 0.005059 151257.000000 0 0 1
-29.501225 6.270477 29.113601 41.919481 -0.209433 0.803054 0.011980 0.001429 240254.000000 0 0 1
-30.189525 5.057577 28.907251 42.102442 -0.165986 0.814004 0.017404 0.000801 -369748.000000 0 0 1
-30.723525 4.536277 30.269381 43.367594 -0.146589 0.798234 -0.005384 0.011786 95487.800000 0 0 1
-31.834825 5.264277 30.768531 44.585549 -0.163879 0.809168 -0.000233 0.002787 -170995.000000 0 0 1
-32.244625 4.732077 31.960491 45.646263 -0.145715 0.795150 -0.002926 0.003651 89987.700000 0 0 1
-33.764025 4.969177 32.143701 46.881975 -0.146125 0.815327 0.013036 -0.000031 11765.600000 0 0 1
-34.022325 6.256777 32.547401 47.497359 -0.181870 0.815854 0.021035 0.007011 19319.700000 0 0 1
-35.413925 6.528277 32.614321 48.584549 -0.182296 0.834849 0.021741 0.010537 353646.000000 0 0 1
35.307042 7.982677 32.791087 48.842254 0.222355 0.834744 0.025637 0.000367 -206155.000000 0 0 1
-35.397425 8.572777 34.061946 49.866686 -0.237611 0.818852 0.031845 0.001150 633034.000000 0 0 1
35.090942 9.871377 34.188153 49.976476 0.274222 0.817448 0.030957 -0.002018 61685.300000 0 0 1
35.104842 10.384377 -33.119542 49.366885 0.287609 2.306199 0.024715 -0.002955 -37987.900000 0 0 1
34.159342 9.566677 -32.419422 48.056227 0.273065 2.311239 0.044846 0.007199 271020.000000 0 0 1
34.163742 10.007777 -31.049472 47.237555 0.284963 2.288033 0.033214 0.007138 435399.000000 0 0 1
32.989542 9.360177 -30.227932 45.712697 0.276466 2.293292 0.025373 0.009254 685694.000000 0 0 1
33.199542 7.959377 -30.052242 45.482948 0.235303 2.292596 0.015904 0.007153 -372736.000000 0 0 1
32.033442 7.405577 -29.553552 44.208556 0.227191 2.302990 0.023006 0.003994 -579403.000000 0 0 1
34.165369 6.286177 -20.417772 40.294837 0.181958 2.102160 -0.019331 -0.000285 -708793.000000 0 0 1
33.619039 7.028877 -19.388472 39.440560 0.206105 2.084708 -0.025959 -0.003173 -55950.100000 0 0 1
34.081539 8.330877 -19.205072 39.997370 0.239739 2.071632 -0.022699 0.008050 -569767.000000 0 0 1
35.522629 8.450977 -18.613372 40.984556 0.233562 2.042221 -0.013909 0.002015 400773.000000 0 0 1
-34.555320 7.890377 -19.377072 40.395533 -0.224492 2.071090 -0.014289 -0.009536 -61964.500000 0 0 1
-34.125769 8.839577 -20.339772 40.699049 -0.253459 2.094118 -0.009397 -0.004605 -1643380.000000 0 0 1
-33.030758 8.382977 -21.238772 40.154585 -0.248545 2.128130 -0.003085 -0.003263 -1205960.000000 0 0 1
-33.226788 7.236377 -22.087572 40.549296 -0.214439 2.146839 -0.016194 0.006054 213188.000000 0 0 1
-34.107263 7.415977 -23.183972 41.902251 -0.214099 2.157101 -0.015072 0.009029 16016.300000 0 0 1
-34.292106 6.140577 -24.068572 42.343257 -0.177189 2.175375 -0.010134 0.000444 -157058.000000 0 0 1
-33.182408 5.795677 -24.857272 41.863421 -0.172917 2.206533 -0.006466 -0.002825 -57480.100000 0 0 1
-33.163068 4.403077 -25.070672 41.805679 -0.131998 2.213917 0.000549 0.004694 -669448.000000 0 0 1
-31.948118 4.107877 -25.928322 41.350149 -0.127878 2.248548 0.009104 -0.000090 -701630.000000 0 0 1
-30.725388 4.368777 -25.283402 40.029815 -0.141241 2.254430 0.007147 -0.001475 -4392.900000 0 0 1
-29.671338 4.174277 -26.238842 39.828253 -0.139767 2.290019 0.004032 0.001284 -211436.000000 0 0 1
-28.314658 4.401377 -25.589492 38.417627 -0.154211 2.299747 0.008458 -0.007419 -758260.000000 0 0 1
-28.098058 5.778977 -25.446922 38.346359 -0.202843 2.296427 0.004545 -0.006976 755967.000000 0 0 1
-26.807998 6.104277 -24.887072 37.085001 -0.223886 2.306463 0.022331 -0.011269 821860.000000 0 0 1
-26.408868 7.580677 -25.062172 37.188808 -0.279535 2.310294 0.026839 -0.013219 -89105.900000 0 0 1
-27.026218 8.459877 -24.132172 37.206823 -0.303363 2.276534 0.023629 -0.012766 -281803.000000 0 0 1
-26.710808 9.828777 -24.329672 37.443358 -0.352593 2.278082 0.006711 -0.013427 885355.000000 0 0 1
-25.275748 10.328877 -23.846672 36.252075 -0.387939 2.288693 0.038303 -0.004306 1070570.000000 0 0 1
-25.170548 10.430477 -22.463172 35.312115 -0.392852 2.260271 0.035476 -0.006341 675799.000000 0 0 1
-23.835258 10.901577 -22.242572 34.375804 -0.428967 2.274494 0.060811 -0.015227 231854.000000 0 0 1
-23.651158 11.467277 -20.835172 33.540723 -0.451455 2.241057 0.072726 -0.028491 -664736.000000 0 0 1
-24.242258 12.754077 -20.498672 34.213289 -0.484316 2.213227 0.065023 -0.028881 2385570.000000 0 0 1
-25.693498 12.849877 -20.277972 35.163494 -0.463745 2.185451 0.070307 -0.011905 1759500.000000 0 0 1
-26.390088 11.879477 -19.302872 34.787348 -0.422978 2.159017 0.054456 -0.014205 -620848.000000 0 0 1
-26.169878 12.187977 -17.934872 33.986305 -0.435854 2.126697 0.053872 -0.022417 305891.000000 0 0 1
-27.177228 11.565877 -17.170472 34.164255 -0.402355 2.097384 0.037733 -0.023076 -976516.000000 0 0 1
-26.758088 11.381177 -15.722472 33.056355 -0.402155 2.066472 0.046822 -0.024843 17037.000000 0 0 1
-25.936238 10.264477 -15.431472 31.877551 -0.376844 2.076115 0.071195 -0.032993 708364.000000 0 0 1
-24.613258 10.469277 -15.915072 31.124070 -0.402168 2.107543 0.067329 -0.029448 -920915.000000 0 0 1
-23.761358 9.180277 -15.949172 30.054213 -0.368687 2.130199 0.057294 -0.029886 -1162930.000000 0 0 1
-22.417358 9.414477 -15.765072 28.977712 -0.397597 2.146042 0.056109 -0.027778 -613872.000000 0 0 1
-21.695458 8.174677 -15.732072 28.018143 -0.360341 2.166989 0.045365 -0.024971 -227957.000000 0 0 1
-20.179258 8.324677 -15.652372 26.860742 -0.391267 2.192872 0.055688 -0.023988 -545785.000000 0 0 1
-19.536358 8.824177 -16.791072 27.230048 -0.424250 2.235261 0.066777 -0.031697 1409490.000000 0 0 1
-18.098658 8.904477 -16.623572 26.137986 -0.457224 2.260091 0.059001 -0.026151 766676.000000 0 0 1
-17.305158 9.495377 -17.806672 26.583985 -0.501846 2.304772 0.046362 -0.023678 -212097.000000 0 0 1
-17.103258 8.799277 -18.993672 27.031617 -0.475164 2.349907 0.068116 -0.032425 256323.000000 0 0 1
-16.062658 7.861377 -18.844772 25.979524 -0.455147 2.382368 0.061633 -0.022266 -726465.000000 0 0 1
-15.684758 7.071377 -20.128672 26.479793 -0.423555 2.434344 0.050253 -0.017383 124367.000000 0 0 1
-16.602258 6.080477 -20.635572 27.174142 -0.351072 2.433160 0.048066 -0.015983 318766.000000 0 0 1
-17.675258 6.702677 -21.321972 28.495037 -0.362459 2.416246 0.055710 -0.017415 -488689.000000 0 0 1
-18.658258 5.716777 -21.913372 29.342938 -0.297312 2.414037 0.062298 -0.011258 -383735.000000 0 0 1
-19.274558 4.876777 -20.964672 28.893062 -0.247816 2.382696 0.072361 -0.017288 198260.000000 0 0 1
-20.239858 4.033777 -21.539772 29.830940 -0.196721 2.377574 0.035646 0.005427 -511597.000000 0 0 1
-20.709358 2.933277 -20.580872 29.343720 -0.140704 2.348117 0.065951 -0.000890 99.314900 0 0 1
-21.522558 1.953477 -21.237972 30.299968 -0.090516 2.347488 0.063836 0.002443 300537.000000 0 0 1
-22.215758 1.206377 -20.314472 30.127612 -0.054249 2.310787 0.058272 -0.001771 -415880.000000 0 0 1
-23.150358 0.107877 -20.886372 31.179982 -0.004660 2.304823 0.060926 0.002684 346765.000000 0 0 1
-22.382558 -1.076223 -21.239672 30.874922 0.048046 2.329424 0.055415 -0.001195 341288.000000 0 0 1
-23.135658 -2.215223 -21.570072 31.708578 0.095458 2.318913 0.055577 -0.005876 -834571.000000 0 0 1
-23.259158 -2.476023 -23.061272 32.847243 0.106054 2.349105 0.043757 -0.014036 -507067.000000 0 0 1
-22.055858 -2.601623 -23.737572 32.506948 0.117414 2.389456 0.019307 -0.009970 -389486.000000 0 0 1
-21.320158 -3.798723 -23.480772 31.942544 0.176325 2.396602 0.013999 -0.019062 -779221.000000 0 0 1
-20.197558 -4.047023 -24.474672 31.989519 0.197753 2.441968 0.013520 -0.008414 -622849.000000 0 0 1
-20.619158 -4.301923 -25.808512 33.312693 0.205687 2.457092 0.011369 -0.015356 346389.000000 0 0 1
-19.943258 -3.553423 -26.776632 33.576009 0.176326 2.493925 0.011551 -0.027432 -707042.000000 0 0 1
-20.817158 -3.516323 -28.011592 35.076600 0.167335 2.495734 0.013407 -0.033039 -247032.000000 0 0 1
-20.776558 -4.763923 -28.610792 35.678253 0.225397 2.501284 0.008607 -0.018411 473276.000000 0 0 1
-21.773258 -4.882223 -29.608512 37.075259 0.220582 2.495771 0.002257 -0.017306 -62552.300000 0 0 1
-21.517158 -6.154223 -30.430552 37.774079 0.278577 2.507473 0.011223 -0.010260 169910.000000 0 0 1
-20.474658 -6.038923 -31.392922 37.963084 0.286814 2.544427 0.008708 -0.006491 168601.000000 0 0 1
-19.976158 -7.278423 -31.803362 38.255407 0.349406 2.552316 0.007364 -0.001317 -182572.000000 0 0 1
-18.571658 -7.351923 -32.434502 38.091392 0.376939 2.589620 0.010944 -0.009905 -587946.000000 0 0 1
-18.475158 -6.847923 -33.755502 39.085284 0.354957 2.613237 0.009810 -0.010793 272640.000000 0 0 1
-18.503058 -7.889123 34.081145 39.574308 0.403029 0.533183 0.011619 -0.002670 -456631.000000 0 0 1
-18.297958 -7.400723 32.619581 38.126408 0.384342 0.544157 0.013359 -0.003511 -191136.000000 0 0 1
-16.988658 -6.994523 32.318681 37.175731 0.390566 0.516913 0.025301 -0.003920 -99890.400000 0 0 1
-16.600058 -5.696223 32.663321 37.079663 0.330555 0.493045 0.002474 -0.003759 -685965.000000 0 0 1
-15.486558 -5.254823 31.741701 35.706893 0.327124 0.475745 0.014344 -0.001567 -839255.000000 0 0 1
-15.851158 -5.202923 30.410481 34.686120 0.317156 0.501768 0.013917 -0.002224 481467.000000 0 0 1
-14.741558 -4.855223 29.580341 33.404839 0.318167 0.483204 0.009453 0.000497 347704.000000 0 0 1
-15.124658 -4.919723 28.058891 32.253067 0.314484 0.515674 0.017827 -0.004150 260458.000000 0 0 1
-16.105858 -3.927923 27.793011 32.361685 0.239212 0.537826 0.009978 0.003061 178107.000000 0 0 1
-16.643358 -3.945023 26.467661 31.513515 0.232738 0.573729 0.016068 0.000629 74201.500000 0 0 1
-15.633358 -3.559023 25.345471 29.991022 0.223841 0.564041 0.004944 0.000599 70638.800000 0 0 1
-15.442658 -2.172023 25.153351 29.595345 0.139734 0.554984 0.000862 0.002137 -398767.000000 0 0 1
-14.308958 -1.928323 24.369381 28.325455 0.133956 0.534870 -0.003131 0.002919 -514084.000000 0 0 1
-14.003958 -0.385523 24.354341 28.096145 0.027523 0.522005 0.003402 0.005208 8385.060000 0 0 1
-14.960358 0.404577 23.651411 27.988662 -0.027037 0.564165 -0.004167 0.002610 101834.000000 0 0 1
-15.196858 1.658777 24.241891 28.659471 -0.108722 0.562622 -0.010468 0.001684 -108320.000000 0 0 1
-16.018258 2.592977 23.355011 28.438788 -0.160484 0.607219 -0.004063 0.001319 325942.000000 0 0 1
-15.131258 3.056177 22.311011 27.130728 -0.199297 0.605264 -0.002085 0.005817 843041.000000 0 0 1
-15.634358 4.211177 21.631011 27.019767 -0.263110 0.642563 0.006066 0.006631 -15576.200000 0 0 1
-14.557158 4.875777 20.749311 25.811198 -0.323196 0.636993 0.013035 0.015702 -408520.000000 0 0 1
-13.583358 5.548977 21.458611 25.995591 -0.387824 0.599760 -0.011734 0.009396 -511661.000000 0 0 1
-12.641858 6.006577 20.521211 24.839799 -0.443558 0.598570 -0.007732 0.017744 -299046.000000 0 1 0
-11.768358 7.190977 20.924011 25.060300 -0.548500 0.582761 -0.008097 0.018524 -251353.000000 0 0 1
-12.359358 8.470977 20.841611 25.668734 -0.600853 0.623319 -0.000844 0.016642 315452.000000 0 0 1
-11.404458 9.487677 21.059111 25.759733 -0.693908 0.613704 -0.008059 0.021027 -179315.000000 0 0 1
-12.039358 10.853477 20.964111 26.499775 -0.733643 0.658183 -0.008334 0.023468 -510333.000000 0 0 1
-12.318358 11.301677 19.658311 25.805407 -0.742382 0.704724 -0.005948 0.018607 236037.000000 0 0 1
-13.086158 12.467177 19.692211 26.729407 -0.761180 0.742583 -0.007672 0.018788 -576468.000000 0 0 1
-13.065858 13.209677 18.305011 26.082286 -0.790872 0.792850 -0.015803 0.019897 502609.000000 0 0 1
-11.817958 13.824577 17.928211 25.538281 -0.863493 0.792576 -0.018768 0.014169 656951.000000 0 0 1
-11.600658 15.190377 18.352211 26.497669 -0.918594 0.805713 -0.017726 0.017666 -14272.500000 0 0 1
-12.621458 16.311277 17.897811 27.307336 -0.912244 0.856056 -0.020895 0.016198 334011.000000 0 0 1
-12.741958 16.745077 16.529311 26.757676 -0.920332 0.904930 -0.015624 0.005040 177989.000000 0 0 1
-13.428358 15.822777 15.681311 26.011240 -0.867073 0.923707 0.002124 0.012201 -231880.000000 0 0 1
-13.668458 16.305977 14.201011 25.580859 -0.873164 0.982263 -0.006479 -0.002117 305665.000000 0 0 1
-14.609558 17.381277 14.090011 26.722208 -0.871823 1.015403 -0.009426 -0.005861 136373.000000 0 0 1
-15.002558 17.533477 12.774511 26.375892 -0.863030 1.065205 -0.011606 -0.008377 162826.000000 0 0 1
-16.199058 18.531177 12.687211 27.690781 -0.852447 1.094856 0.010880 -0.012630 1129620.000000 0 0 1
-17.449858 17.965177 13.178211 28.300360 -0.799948 1.086421 0.016801 -0.011246 1042640.000000 0 0 1
-18.455558 18.969077 13.064411 29.514612 -0.799119 1.112253 0.022727 -0.016210 -870684.000000 0 0 1
-19.843258 18.547377 13.420111 30.296196 -0.751656 1.111895 0.019924 -0.004560 -756023.000000 0 0 1
-20.376358 17.609277 12.466811 29.676657 -0.712681 1.137254 0.022402 -0.006581 135485.000000 0 0 1
-21.723058 17.212277 12.698211 30.486034 -0.670059 1.141176 0.049296 -0.011979 384251.000000 0 0 1
-22.328258 16.494177 11.465011 30.034238 -0.636238 1.179128 0.038522 -0.010887 -104803.000000 0 0 1
-21.852658 15.182477 11.208611 28.873504 -0.607204 1.172122 0.038770 -0.006349 119217.000000 0 0 1
-22.518458 14.599377 10.078111 28.666899 -0.575200 1.211560 0.037182 -0.006335 -204442.000000 0 0 1
-21.936358 13.257377 9.574011 27.360986 -0.543617 1.213316 0.044305 0.002020 -394795.000000 0 0 1
-22.307758 12.147177 10.323511 27.418331 -0.498632 1.184761 0.046780 0.001207 1038530.000000 0 0 1
-23.701858 11.767177 10.327111 28.405875 -0.460817 1.198715 0.055794 -0.002386 862367.000000 0 0 1
-24.404658 11.218477 9.091411 28.356574 -0.430879 1.244423 0.057993 0.008239 -470783.000000 0 0 1
-24.617958 12.215777 8.072911 28.643341 -0.460614 1.285082 0.060181 -0.002826 133483.000000 0 0 1
-25.280278 11.623077 6.964911 28.682719 -0.430948 1.325518 0.068396 -0.006891 -625993.000000 0 0 1
-25.732818 12.675377 5.936411 29.293072 -0.457691 1.366727 0.054389 -0.014312 -561092.000000 0 0 1
-24.862158 12.962677 4.876111 28.459346 -0.480606 1.398611 0.059601 -0.011430 417139.000000 0 0 1
-23.657058 13.637677 5.262211 27.808874 -0.522941 1.380421 0.056825 -0.008671 -206580.000000 0 0 1
-23.765558 15.138077 5.593611 28.727193 -0.567165 1.374830 0.048635 -0.011261 -649848.000000 0 0 1
-22.531858 15.670177 6.024111 28.098559 -0.607678 1.354727 0.035514 -0.018918 211879.000000 0 0 1
-22.631058 16.995677 6.436511 29.024929 -0.644134 1.347179 0.037215 -0.024940 811697.000000 0 0 1
-21.196258 17.666977 6.474211 28.342880 -0.694834 1.340337 0.031007 -0.018881 890546.000000 0 0 1
-20.768158 17.977277 5.170011 27.950454 -0.713491 1.384754 0.034502 -0.031062 -248987.000000 0 0 1
-19.407258 18.280877 5.206911 27.165126 -0.755520 1.377926 0.039485 -0.023827 -714660.000000 0 0 1
-18.883958 19.145577 4.081011 27.199479 -0.792277 1.420188 0.045068 -0.024947 996993.000000 0 0 1
-17.438358 19.309377 4.186611 26.352914 -0.836269 1.411253 0.033019 -0.024096 1501520.000000 0 0 1
-16.976658 20.361777 3.362811 26.722975 -0.875811 1.444622 0.040082 -0.018546 -38740.100000 0 0 1
-17.217758 21.791477 3.940211 28.050756 -0.902112 1.429863 0.048547 -0.018526 -355423.000000 0 0 1
-16.505758 22.039077 5.131011 28.008717 -0.927979 1.386563 0.048307 -0.015073 18854.300000 0 0 1
-16.558558 23.386577 5.565111 29.190552 -0.954697 1.378974 0.034110 -0.014697 -109910.000000 0 0 1
-15.694258 23.585877 6.847511 29.146042 -0.983665 1.333642 0.035168 0.003651 -240398.000000 0 0 1
-16.272058 23.012977 7.992911 29.296137 -0.955333 1.294461 0.029372 -0.004388 226256.000000 0 0 1
-15.482658 23.234077 9.145411 29.379816 -0.982994 1.254254 0.024256 -0.007204 280653.000000 0 0 1
-16.241458 22.667977 10.376511 29.753893 -0.949086 1.214565 0.012705 -0.009821 1301300.000000 0 0 1
-17.448658 23.400177 10.713911 31.093598 -0.930076 1.219016 0.019288 -0.012319 403171.000000 0 0 1
-18.258658 22.685477 11.603111 31.347116 -0.893098 1.191627 0.011806 -0.010374 230737.000000 0 0 1
-19.528958 23.501577 11.991711 32.825378 -0.877458 1.196822 0.015215 -0.015406 101301.000000 0 0 1
-20.446558 23.733077 10.966011 33.189970 -0.859651 1.234068 0.016526 -0.015212 -342784.000000 0 0 1
-20.196358 24.946077 10.219711 33.684450 -0.890229 1.262542 0.003121 -0.018965 -540512.000000 0 0 1
-21.435758 25.757277 9.864511 34.931900 -0.876715 1.284509 0.015995 -0.011506 -720288.000000 0 0 1
-22.147458 26.263277 10.941911 36.055444 -0.870213 1.262459 0.025602 -0.020572 293398.000000 0 0 1
-22.984058 27.363477 10.530511 37.254778 -0.872164 1.284228 0.029661 -0.014455 -172503.000000 0 0 1
-23.915558 27.840077 11.618611 38.496960 -0.861081 1.264210 0.025481 -0.021500 -554409.000000 0 0 1
-23.219858 28.557877 12.633811 38.914359 -0.888130 1.240147 0.029338 -0.024277 834754.000000 0 0 1
-24.102258 29.111877 13.626311 40.175821 -0.879262 1.224765 0.029159 -0.022162 316483.000000 0 0 1
8.654142 -33.167432 28.533891 44.599952 -1.315564 0.876592 0.006165 -0.007131 -220604.000000 0 0 1
9.956342 -32.964432 28.065301 44.423458 -1.277476 0.886965 0.004284 -0.017363 -220525.000000 0 0 1
10.012742 -32.655832 26.680371 43.341673 -1.273283 0.907672 0.017085 -0.014223 -101759.000000 0 0 1
11.440642 -32.732232 26.081291 43.388029 -1.234547 0.925898 0.014176 -0.004312 -17864.500000 0 0 1
12.036242 -33.997232 26.150821 44.548270 -1.230531 0.943421 0.021817 -0.007835 -379797.000000 0 0 1
13.364642 -33.851332 25.729881 44.570765 -1.194777 0.955401 0.031121 -0.005772 -448831.000000 0 0 1
14.096042 33.744977 25.643131 44.665334 1.175106 0.959271 0.048615 -0.002352 -350585.000000 0 0 1
14.041442 33.044777 24.422431 43.423203 1.168992 0.973477 0.046850 -0.007941 274860.000000 0 0 1
15.125242 32.137677 24.312641 43.043092 1.130912 0.970552 0.053281 -0.009221 -43518.600000 0 0 1
15.562842 31.801277 22.847811 42.137225 1.115682 0.997715 0.053780 -0.020769 -643.618000 0 0 1
14.666142 31.043877 22.028111 40.792839 1.129445 1.000360 0.043445 -0.014764 62862.700000 0 0 1
14.788542 29.629777 22.035311 39.776621 1.107860 0.983663 0.042077 -0.014096 -118375.000000 0 0 1
14.502642 28.854577 23.327311 39.838131 1.105062 0.945235 0.040109 -0.010965 210732.000000 0 0 1
15.418542 28.977877 24.442391 40.925289 1.081815 0.930736 0.049803 -0.018354 566250.000000 0 0 1
14.825542 28.445977 25.630141 41.059401 1.090347 0.896662 0.037378 -0.014494 -88759.100000 0 0 1
15.581442 28.815477 26.913421 42.396289 1.075097 0.883039 0.045571 -0.021238 40320.600000 0 0 1
15.335642 30.154477 27.230071 43.427539 1.100317 0.893070 0.050111 -0.010046 451863.000000 0 0 1
15.879042 30.471177 28.550451 44.673984 1.090398 0.877489 0.063948 -0.014934 152636.000000 0 0 1
15.623842 31.936477 28.829971 45.773467 1.115813 0.889449 0.071394 -0.016397 -44322.900000 0 0 1
16.309142 32.933577 28.078051 46.249168 1.110985 0.918385 0.069508 -0.014536 -27743.700000 0 0 1
16.203542 34.238477 28.599641 47.463329 1.128772 0.924088 0.059630 -0.003598 -120441.000000 0 0 1
17.164442 -33.694232 27.903671 46.995045 -1.099643 0.935075 0.050048 -0.006662 -474332.000000 0 0 1
17.079042 -33.552332 26.509461 46.045675 -1.099953 0.957311 0.058295 -0.007347 -88843.600000 0 0 1
17.467442 -32.303532 25.874481 44.923474 -1.075099 0.957009 0.064819 -0.011224 190023.000000 0 0 1
18.924342 -31.778932 25.985921 45.202869 -1.033693 0.958347 0.057974 -0.006636 70438.300000 0 0 1
19.201542 -31.108232 27.247441 45.594346 -1.017790 0.930285 0.047013 -0.006660 -453510.000000 0 0 1
20.411042 -30.424632 27.265051 45.668938 -0.979888 0.931021 0.057740 -0.003479 -541111.000000 0 0 1
20.591542 -29.596832 28.577651 46.007241 -0.962939 0.900580 0.062420 -0.004253 -288429.000000 0 0 1
19.525742 -28.680432 28.647421 44.994406 -0.973070 0.880600 0.047744 -0.003935 198984.000000 0 0 1
19.709342 -27.891732 29.836481 45.350000 -0.955630 0.852748 0.061747 -0.005379 475751.000000 0 0 1
18.343442 -27.352632 30.365191 44.796129 -0.980056 0.825958 0.041330 -0.006896 619890.000000 0 0 1
17.658942 -26.476032 29.466821 43.371789 -0.982578 0.823851 0.042224 -0.004799 165796.000000 0 0 1
16.489342 -25.923832 30.049671 42.975879 -1.004277 0.796488 0.045172 -0.013044 117203.000000 0 0 1
15.624742 -25.225432 28.963201 41.464708 -1.016231 0.797494 0.035704 -0.002654 -190373.000000 0 0 1
14.925642 -26.081032 28.029281 41.093012 -1.051009 0.820175 0.041305 -0.006543 321623.000000 0 0 1
14.460942 -25.373032 26.867571 39.683447 -1.052778 0.827053 0.036245 -0.015087 709182.000000 0 0 1
12.995042 -24.739432 26.997911 38.856117 -1.087133 0.802630 0.015570 -0.011954 1771850.000000 0 0 1
11.880542 -25.639832 26.993701 39.079511 -1.136886 0.808287 0.007081 -0.008553 482440.000000 0 0 1
11.735642 -26.435332 25.817541 38.769802 -1.152995 0.842072 0.019144 -0.010469 -938190.000000 0 0 1
10.965742 -27.749032 26.098161 39.640513 -1.194456 0.852144 0.016392 -0.019313 440199.000000 0 0 1
9.551142 -27.598032 26.181281 39.221616 -1.237617 0.839921 0.004736 -0.017163 196417.000000 0 0 1
8.996142 -28.817832 26.622591 40.251216 -1.268210 0.848098 0.005633 -0.017173 -49057.800000 0 0 1
7.497442 -28.811632 26.993771 40.186882 -1.316220 0.834287 0.005525 -0.019323 856280.000000 0 0 1
6.444742 -28.636032 26.012551 39.220019 -1.349428 0.845648 0.015867 -0.017945 809474.000000 0 0 1
6.461042 -27.339932 25.325791 37.823441 -1.338731 0.837154 0.023190 -0.016899 -845615.000000 0 0 1
5.252242 -26.986332 24.433091 36.780757 -1.378573 0.844253 0.031842 -0.014164 -462476.000000 0 0 1
5.087042 -27.824532 23.287011 36.638333 -1.389968 0.882022 0.013850 -0.006880 25478.200000 0 0 1
4.488642 -29.135632 23.488411 37.692684 -1.417938 0.898025 0.009670 -0.007820 -513596.000000 0 0 1
3.044942 -29.166932 23.969431 37.874995 -1.466776 0.885560 0.000415 -0.009355 -1634200.000000 0 0 1
2.054342 -28.941532 23.035811 37.047013 -1.499933 0.899758 -0.007525 -0.005590 577785.000000 0 0 1
0.771942 -28.548232 23.576711 37.033212 -1.543763 0.880667 -0.007940 -0.014206 1088310.000000 0 0 1
0.631542 -27.085232 23.957251 36.165709 -1.547484 0.846738 -0.000008 -0.014000 -346038.000000 0 0 1
1.285342 -26.747432 25.170181 36.750718 -1.522778 0.816344 0.003422 -0.016392 137358.000000 0 0 1
1.028942 -25.348632 25.387031 35.890294 -1.530227 0.785053 0.012127 -0.013836 -572638.000000 0 0 1
2.058242 -24.698432 26.290781 36.131068 -1.487654 0.755906 0.026206 -0.008892 372215.000000 0 0 1
3.340042 -24.633532 25.570091 35.662254 -1.436029 0.771297 0.023855 -0.012567 1238430.000000 0 0 1
4.279742 -23.878932 26.341691 35.810673 -1.393453 0.744271 0.030468 -0.009748 295626.000000 0 0 1
4.008542 -22.315932 26.477411 34.858608 -1.393065 0.708151 0.017277 -0.001909 -605578.000000 0 0 1
4.054942 -21.616332 25.242371 33.479631 -1.385364 0.716724 0.016860 -0.007537 325844.000000 0 0 1
3.492042 -20.306032 25.366591 32.680166 -1.400491 0.682168 0.016322 -0.014311 100801.000000 0 0 1
3.394042 -19.522932 24.039591 31.153914 -1.398668 0.689382 0.022895 -0.017832 -542816.000000 0 0 1
4.624742 -18.979832 23.718971 30.728030 -1.331788 0.688972 0.030091 -0.003536 -654366.000000 0 0 1
4.615842 -18.520632 22.403711 29.432059 -1.326545 0.705633 0.034400 -0.006471 -336069.000000 0 0 1
5.903442 -17.769832 22.007211 28.895240 -1.250051 0.704986 0.029011 -0.000464 -155614.000000 0 0 1
6.933142 -18.686532 21.762111 29.510073 -1.215516 0.741514 0.021587 0.005041 -1276510.000000 0 0 1
8.089842 -18.115232 21.284411 29.096964 -1.150793 0.750278 0.031534 0.011139 -493870.000000 0 0 1
9.292442 -18.188332 22.253111 30.205395 -1.098466 0.742580 0.028997 0.014267 -166448.000000 0 0 1
9.146142 -17.442032 23.438811 30.614609 -1.087840 0.698809 0.019727 0.013962 126681.000000 0 0 1
10.300342 -17.558732 24.255741 31.666182 -1.040272 0.698228 0.022465 0.018128 274984.000000 0 0 1
10.287942 -16.612832 25.482561 32.112129 -1.016323 0.654176 0.027935 0.002663 -97497.400000 0 0 1
10.416542 -15.207032 25.337561 31.332893 -0.970221 0.628931 0.040571 -0.001186 130013.000000 0 0 1
10.304242 -14.585832 26.605781 32.043587 -0.955751 0.591151 0.035474 -0.002270 -207663.000000 0 0 1
10.620642 -13.042132 26.576811 31.451902 -0.887376 0.564234 0.035495 0.001007 -110708.000000 0 0 1
9.698942 -12.223332 25.875461 30.216201 -0.900045 0.542649 0.037669 0.003645 174542.000000 0 0 1
10.080742 -10.844932 25.936841 29.865593 -0.821901 0.518725 0.034879 0.006671 -359153.000000 0 0 1
9.178942 -9.970032 25.095501 28.520847 -0.826687 0.495144 0.029414 0.008339 8399.270000 0 0 1
7.861342 -9.866332 25.612361 28.550626 -0.898019 0.457667 0.021316 0.013494 -33483.600000 0 0 1
6.969442 -9.492632 24.575561 27.251447 -0.937487 0.446862 0.025116 0.021541 628137.000000 0 0 1
5.469142 -9.532632 25.002821 27.311603 -1.049918 0.414134 0.026100 0.010924 -255549.000000 0 0 1
5.080642 -8.547732 25.947091 27.787194 -1.034516 0.365965 0.035821 0.015106 1119590.000000 0 0 1
3.697442 -8.591232 26.379081 27.988145 -1.164383 0.340736 0.032447 0.014310 1553270.000000 0 0 1
2.592142 -8.345732 25.332331 26.797340 -1.269648 0.332191 0.030191 0.009774 -448401.000000 0 0 1
2.613142 -6.980732 24.891261 25.983341 -1.212608 0.290956 0.046106 0.007069 -262125.000000 0 0 1
1.495542 -6.825132 24.063881 25.057722 -1.355083 0.282585 0.039081 -0.007706 -208863.000000 0 0 1
1.545242 -5.526032 23.268711 23.965761 -1.298131 0.241774 0.034985 -0.020335 -17386.100000 0 1 0
1.419342 -4.389132 24.122921 24.560015 -1.258034 0.188945 0.039096 -0.009592 -139668.000000 0 1 0
1.830942 -3.191932 23.523911 23.809980 -1.050003 0.155170 0.044964 -0.012606 -1264460.000000 0 1 0
0.929042 -2.525932 22.488611 22.649085 -1.218351 0.119110 0.029495 -0.018153 117415.000000 0 1 0
-0.139558 -1.749932 23.027111 23.093929 1.491214 0.076089 0.028733 -0.019591 696936.000000 0 1 0
-1.237958 -2.514932 23.570511 23.736605 1.113374 0.118369 0.032109 -0.017150 -341875.000000 0 1 0
-2.243858 -1.543932 24.202351 24.355131 0.602675 0.112068 0.019392 -0.016065 -136654.000000 0 1 0
-1.733458 -0.907932 25.378001 25.453333 0.482482 0.076955 0.026641 -0.015489 536764.000000 0 0 1
-2.643958 0.115068 25.780401 25.915880 -0.043494 0.102296 0.010005 -0.012322 -141419.000000 0 0 1
-2.009658 1.106068 26.778321 26.876394 -0.503132 0.085455 0.032575 -0.021585 -537955.000000 0 0 1
-2.049358 0.857068 28.165311 28.252773 -0.396108 0.078706 0.035708 -0.014292 451936.000000 0 0 1
-1.270558 -0.267932 28.609041 28.638494 0.207833 0.045357 0.043901 -0.017361 -1542790.000000 0 0 1
0.207942 -0.094932 28.797901 28.798808 -0.428273 0.007937 0.055086 -0.023608 -1255610.000000 0 0 1
1.066342 0.195068 27.710381 27.731577 0.180931 0.039100 0.053457 -0.023260 179709.000000 0 0 1
1.334042 -0.917932 26.848811 26.897600 -0.602683 0.060240 0.044882 -0.019001 -941741.000000 0 0 1
2.597442 -1.673932 27.216291 27.391153 -0.572467 0.113055 0.057745 -0.016020 -1102970.000000 0 0 1
2.491842 -2.531932 28.351861 28.573554 -0.793378 0.124649 0.062475 -0.014082 367513.000000 0 0 1
3.683542 -3.229932 28.719041 29.133902 -0.719880 0.168960 0.050048 0.003332 755747.000000 0 0 1
4.361442 -4.231632 27.683771 28.342901 -0.770293 0.216085 0.055102 0.006564 -105887.000000 0 0 1
5.276642 -3.691932 26.785281 27.548586 -0.610508 0.235951 0.048716 0.004349 -417983.000000 0 0 1
5.638442 -4.646132 25.807001 26.821258 -0.689211 0.275885 0.042161 0.006290 -473648.000000 0 0 1
6.822542 -4.132732 24.986551 26.228883 -0.544634 0.309010 0.048520 0.001091 -1229930.000000 0 0 1
8.029942 -4.139232 25.682611 27.225167 -0.475951 0.338238 0.043187 0.004991 348371.000000 0 0 1
8.878742 -5.344432 25.418021 27.449423 -0.541842 0.387134 0.028455 0.001149 754066.000000 0 0 1
9.702742 -5.243332 24.132781 26.533504 -0.495441 0.428666 0.029061 -0.009636 -1248100.000000 0 0 1
8.869442 -5.325732 22.996711 25.216644 -0.540757 0.422747 0.022232 -0.006909 -265305.000000 0 0 1
9.515842 -5.182832 21.745111 24.295326 -0.498729 0.462292 0.035155 -0.008831 -111448.000000 0 1 0
9.391942 -3.848932 21.016411 23.339074 -0.388936 0.449920 0.038683 -0.027331 -657608.000000 0 1 0
8.061842 -3.618932 20.719011 22.524817 -0.421936 0.403148 0.035037 -0.034386 -1350240.000000 0 1 0
7.855342 -2.445932 20.007211 21.632787 -0.301857 0.390140 0.021415 -0.034882 -91873.900000 0 1 0
6.421342 -1.886932 20.005711 21.095559 -0.285808 0.322842 0.025325 -0.024203 -147948.000000 0 1 0
6.164642 -1.243932 21.262711 22.173251 -0.199111 0.287572 0.036515 -0.020844 738332.000000 0 1 0
4.812542 -0.760932 21.210211 21.762643 -0.156816 0.225799 0.015602 -0.010254 767122.000000 0 1 0
4.311942 -0.129932 22.572711 22.981231 -0.030124 0.188834 0.022156 -0.016237 482576.000000 0 1 0
2.979142 0.359068 22.434111 22.633903 0.119949 0.132967 0.016647 -0.012784 330925.000000 0 1 0
2.442942 0.737068 23.691431 23.828452 0.293028 0.107293 0.030886 -0.015585 -866967.000000 0 1 0
1.024842 1.232068 23.623911 23.678206 0.876960 0.067734 0.026609 -0.016475 -995545.000000 0 1 0
0.886542 2.608068 23.260511 23.423051 1.243127 0.117876 0.019595 -0.009620 -1025310.000000 0 1 0
-0.429358 2.884068 23.011911 23.195910 -1.423009 0.126039 0.010087 -0.016882 -1256580.000000 0 1 0
-0.735358 4.375068 22.607411 23.038598 -1.404274 0.193776 0.015090 -0.012957 -310082.000000 0 1 0
-0.724858 5.345068 23.634711 24.242416 -1.436006 0.224380 0.019741 -0.008475 -54881.700000 0 1 0
-1.661158 6.370068 23.363011 24.272772 -1.315702 0.274653 0.015133 -0.007924 -112177.000000 0 1 0
-1.347658 7.710068 24.138541 25.375785 -1.397753 0.313555 0.026196 -0.008010 -651215.000000 0 0 1
-0.282958 8.431068 23.647211 25.106843 -1.537248 0.342663 0.026959 -0.009568 -718100.000000 0 0 1
-0.242658 9.721068 24.143011 26.027735 -1.545839 0.382893 0.038015 -0.011593 -122568.000000 0 0 1
0.743442 10.718068 23.434211 25.779680 1.501544 0.429873 0.049235 -0.015191 1081940.000000 0 0 1
2.143542 10.434068 23.490011 25.792347 1.368179 0.425734 0.036521 -0.016104 672639.000000 0 0 1
2.790342 10.796068 24.756501 27.151895 1.317872 0.423203 0.057922 -0.017724 52574.500000 0 0 1
4.073542 11.685068 24.552401 27.494635 1.235360 0.466854 0.042298 -0.014591 124279.000000 0 0 1
5.212442 10.972068 24.182341 27.061808 1.127295 0.465501 0.023676 -0.007950 -518531.000000 0 0 1
5.264742 10.425068 22.907011 25.712462 1.103150 0.471492 0.041207 -0.012275 -872215.000000 0 0 1
6.688142 10.125068 22.388411 25.465451 0.987038 0.496683 0.023246 -0.008080 490614.000000 0 0 1
7.337142 11.363068 21.966311 25.796740 0.997449 0.551928 0.029781 -0.008226 503031.000000 0 0 1
8.636242 11.153068 21.429011 25.654982 0.911900 0.582160 0.032787 -0.001770 292711.000000 0 0 1
9.337942 12.350068 20.799511 25.929539 0.923400 0.639901 0.030452 -0.023641 -320889.000000 0 0 1
8.853042 12.750068 19.522211 24.941076 0.963871 0.671751 0.026203 -0.017146 647796.000000 0 1 0
9.774342 13.602068 18.779811 25.164167 0.947701 0.728323 0.041273 -0.017153 1952440.000000 0 0 1
11.166342 12.992068 18.290011 25.060038 0.860828 0.752697 0.039209 -0.023818 1753640.000000 0 0 1
12.210842 12.918068 19.289511 26.231019 0.813535 0.744583 0.040600 -0.029430 -231450.000000 0 0 1
13.331142 12.274068 18.810411 26.119028 0.744138 0.766734 0.040356 -0.031825 -747056.000000 0 0 1
14.351242 11.938068 19.890111 27.278052 0.693862 0.753700 0.023491 -0.019154 44705.700000 0 0 1
15.022142 13.119068 20.359511 28.500603 0.717875 0.775096 0.017174 -0.020517 -55124.200000 0 0 1
16.026342 12.895068 21.316711 29.623109 0.677550 0.767574 0.018590 -0.015216 87306.800000 0 0 1
16.696242 14.161068 21.813611 30.905242 0.703424 0.787213 0.021393 -0.011474 -1333.680000 0 0 1
15.895742 14.876068 22.755411 31.492550 0.752274 0.763291 0.019735 -0.009512 358904.000000 0 0 1
16.531742 16.073068 23.163311 32.683038 0.771331 0.783106 0.020456 -0.001046 -230759.000000 0 0 1
-20.860458 13.154877 -24.529972 34.784034 -0.562626 2.353513 0.032720 0.001828 61961.800000 0 0 1
-20.665958 12.900177 -25.918362 35.570464 -0.558041 2.387143 0.027992 -0.012681 -613940.000000 0 0 1
-21.582858 13.613877 -26.629412 36.882015 -0.562740 2.377508 0.022682 -0.015371 -952922.000000 0 0 1
-21.424758 13.616977 -28.154372 37.909247 -0.566166 2.407857 0.011945 -0.007414 530457.000000 0 0 1
-20.166358 14.227677 -28.483512 37.688450 -0.614418 2.427614 0.035717 -0.003414 507189.000000 0 0 1
-20.136458 14.488977 -29.850702 38.813294 -0.623720 2.448204 0.032364 -0.006022 131215.000000 0 0 1
-18.753458 15.051477 -30.279932 38.666697 -0.676323 2.470433 0.031157 -0.005758 125810.000000 0 0 1
-17.786658 14.041177 -30.156412 37.721732 -0.668258 2.497165 0.037280 -0.012730 -1052540.000000 0 0 1
-16.477458 14.494577 -30.208722 37.338536 -0.721464 2.513329 0.045141 -0.002635 -570378.000000 0 0 1
-15.569658 13.905577 -29.140992 35.846572 -0.729001 2.519974 0.065927 0.002121 -374790.000000 0 0 1
-15.866658 14.384677 -27.840962 35.125332 -0.736448 2.485887 0.059693 -0.003269 -116941.000000 0 0 1
-16.659358 13.426077 -27.183472 34.593857 -0.678339 2.474767 0.056133 0.004863 -204467.000000 0 0 1
-17.204658 13.896577 -25.760192 33.951474 -0.679432 2.432166 0.044766 0.004721 63063.200000 0 0 1
-16.265758 14.269977 -24.755672 32.879331 -0.720132 2.423292 0.071656 -0.013945 21475.600000 0 0 1
-16.920858 14.821977 -23.613472 32.612919 -0.719373 2.380456 0.047546 -0.015046 -4810.320000 0 0 1
-16.018458 15.439777 -22.511072 31.650057 -0.767005 2.362070 0.039302 -0.001732 213844.000000 0 0 1
-15.415658 16.674777 -22.906872 32.255472 -0.824615 2.360536 0.020290 -0.003065 66649.400000 0 0 1
-14.731458 17.389977 -21.894872 31.603996 -0.867975 2.336144 0.005689 0.003701 -622840.000000 0 0 1
-14.482958 18.849777 -22.271672 32.574492 -0.915663 2.323638 0.002243 -0.001592 838227.000000 0 0 1
-15.640058 19.718577 -22.171672 33.541269 -0.900238 2.292982 -0.021080 0.001973 1364960.000000 0 0 1
-16.699458 19.475277 -23.106572 34.526396 -0.861982 2.303987 -0.020499 -0.001273 -602510.000000 0 0 1
-17.881858 20.376977 -23.001272 35.553348 -0.850523 2.274375 -0.015786 0.000483 -941516.000000 0 0 1
-17.576458 21.683477 -23.397472 36.421790 -0.889630 2.268426 -0.018927 -0.001916 -532251.000000 0 0 1
-18.734658 22.393877 -23.655272 37.577188 -0.874135 2.251721 0.014284 -0.013015 -686453.000000 0 0 1
-18.472458 23.820777 -24.132972 38.614265 -0.911189 2.245897 0.011317 -0.015454 -96076.400000 0 0 1
-17.835458 24.406477 -23.017072 37.994280 -0.939718 2.221572 0.011013 -0.012331 -398612.000000 0 0 1
-17.160658 25.567777 -23.386072 38.666624 -0.979674 2.220327 -0.001954 -0.003451 -727450.000000 0 0 1
-16.161958 26.042177 -22.276372 37.889849 -1.015362 2.199287 -0.001707 -0.013032 -77140.100000 0 0 1
-14.977958 25.313777 -22.098572 36.789583 -1.036508 2.215141 -0.000875 -0.029020 -316333.000000 0 0 1
-15.208458 23.957577 -21.690472 35.717493 -1.005175 2.223427 -0.010832 -0.007322 -1376860.000000 0 0 1
-13.998558 23.009877 -21.732672 34.608137 -1.024244 2.249731 0.003332 -0.010796 -412455.000000 0 0 1
-13.052458 23.350177 -20.770872 33.867781 -1.061079 2.231019 0.021796 -0.016427 -73085.000000 0 0 1
-12.186658 22.221077 -20.509872 32.602849 -1.069161 2.251168 0.031839 -0.012109 -11751.200000 0 0 1
-11.590858 22.408677 -19.107272 31.647822 -1.093445 2.218989 0.025162 -0.008008 -39036.500000 0 0 1
-12.411358 22.153477 -17.958072 31.101619 -1.060122 2.186337 0.017079 -0.003424 421335.000000 0 0 1
-13.449558 23.080877 -17.699372 32.045051 -1.043184 2.155950 0.024968 -0.015151 115196.000000 0 0 1
-14.280758 22.933977 -16.421272 31.615907 -1.013860 2.116944 0.043266 -0.010789 2572.710000 0 0 1
-13.510958 23.400777 -15.337472 31.070572 -1.047181 2.087059 0.068606 -0.025897 237495.000000 0 0 1
-14.226558 23.470777 -14.111172 30.860938 -1.025875 2.045697 0.073874 -0.023972 166737.000000 0 0 1
-13.340358 23.967077 -12.949372 30.332692 -1.062891 2.011871 0.082868 -0.024296 -58611.300000 0 0 1
-12.739858 25.227377 -12.970572 31.095985 -1.103156 2.001064 0.079584 -0.029427 99163.100000 0 0 1
-11.810958 25.258277 -11.911672 30.321069 -1.133397 1.974526 0.063581 -0.014458 -37537.000000 0 0 1
-11.177458 26.680877 -11.717272 31.210563 -1.174077 1.955653 0.073353 -0.027058 -9168.040000 0 0 1
-10.383058 27.090377 -12.791672 31.706834 -1.204791 1.986065 0.072238 -0.032445 42324.200000 0 0 1
-10.269958 28.494377 -12.804972 32.884174 -1.224869 1.970772 0.041032 -0.012710 -492766.000000 0 0 1
-9.732858 28.981177 -14.205772 33.711143 -1.246797 2.005781 0.059454 -0.026863 -715155.000000 0 0 1
-8.372058 29.005177 -14.419172 33.456004 -1.289794 2.016385 0.043331 -0.025396 -1111910.000000 0 0 1
-7.709658 27.762077 -14.601872 32.301493 -1.299917 2.039858 0.051871 -0.030640 -19436.000000 0 0 1
-6.372658 27.965177 -15.359572 32.535801 -1.346744 2.062448 0.047045 -0.029135 440127.000000 0 0 1
-5.547358 28.872377 -14.656272 32.851083 -1.380976 2.033247 0.035923 -0.026778 -744856.000000 0 0 1
-4.193758 28.760677 -15.018572 32.715771 -1.426001 2.047736 0.042391 -0.031437 -172826.000000 0 0 1
-3.277858 29.710377 -14.209772 33.096352 -1.460914 2.014564 0.020479 -0.029362 -187283.000000 0 0 1
-3.400758 31.119277 -14.369372 34.444933 -1.461947 2.001125 0.014277 -0.029881 -515744.000000 0 0 1
-4.424958 31.643177 -13.570872 34.713679 -1.431858 1.972446 0.003595 -0.029276 -150589.000000 0 0 1
-4.732258 33.130177 -13.821172 36.208117 -1.428918 1.962447 0.000469 -0.029081 90761.000000 0 0 1
-3.617958 33.956577 -13.467872 36.708614 -1.464650 1.946456 -0.007798 -0.023576 218287.000000 0 0 1
-3.875958 -33.654532 -13.752872 36.562168 1.456133 1.956434 -0.008879 -0.018755 485868.000000 0 0 1
-2.945658 -32.744932 -12.904572 35.319053 1.481080 1.944828 -0.009745 -0.017485 221387.000000 0 0 1
-3.410758 -32.696832 -11.575672 34.852723 1.466858 1.909358 -0.007192 -0.020399 46835.800000 0 0 1
-2.520158 -32.088932 -10.643772 33.901927 1.492421 1.890155 -0.018792 -0.021190 -185561.000000 0 0 1
-2.943058 -32.268732 -9.218572 33.688496 1.479843 1.847973 -0.019846 -0.018484 -415059.000000 0 0 1
-2.095858 -31.440132 -8.427672 32.617483 1.504233 1.832140 -0.011685 -0.011778 150907.000000 0 0 1
-2.303958 -31.626132 -7.058672 32.486079 1.498075 1.789826 -0.011456 -0.018903 128752.000000 0 0 1
-1.097358 -31.002532 -6.282372 31.651689 1.535415 1.770608 -0.000666 -0.014041 396509.000000 0 0 1
-1.222358 -31.090832 -4.866372 31.493104 1.531501 1.725940 0.004090 -0.008700 -836160.000000 0 0 1
-0.165058 -30.506132 -4.209072 30.795578 1.565386 1.707903 0.001002 -0.000407 -698803.000000 0 0 1
-0.191558 -30.502732 -2.685572 30.621327 1.564516 1.658612 -0.002592 -0.001258 -470987.000000 0 0 1
-0.218258 -31.740432 -1.955172 31.801343 1.563920 1.632316 0.003537 -0.008099 -181407.000000 0 0 1
0.755342 -32.720132 -2.197972 32.802571 -1.547715 1.637853 0.002071 -0.007761 -598915.000000 0 0 1
2.172542 -32.436932 -1.732872 32.555758 -1.503919 1.624049 0.016625 -0.006218 -1407540.000000 0 0 1
2.270642 -32.467132 -0.343372 32.548247 -1.500973 1.581346 0.003759 0.000512 847313.000000 0 0 1
3.607842 -32.305132 0.173028 32.506431 -1.459577 1.565473 0.009447 -0.003392 922459.000000 0 0 1
4.124742 -30.876332 0.234728 31.151509 -1.437993 1.563261 -0.000719 -0.006968 -964688.000000 0 0 1
4.131542 -30.280732 -1.081872 30.580432 -1.435192 1.606182 0.020604 -0.018210 -17446.100000 0 0 1
4.154042 -28.877732 -1.033772 29.193290 -1.427927 1.606215 0.018430 -0.007820 -212710.000000 0 0 1
3.759442 -28.101032 -2.350772 28.448683 -1.437803 1.653523 0.018354 -0.006324 -178083.000000 0 0 1
2.440842 -28.381932 -2.766772 28.620741 -1.485008 1.667618 0.010741 -0.004894 4640.560000 0 0 1
2.005742 -27.368032 -3.704972 27.690414 -1.497639 1.704999 0.012920 -0.009673 -17627.300000 0 0 1
2.512842 -27.426132 -5.172472 28.022519 -1.479429 1.756444 0.010060 -0.008570 -125241.000000 0 0 1
1.912342 -28.433032 -5.964772 29.114823 -1.503640 1.777128 0.009895 -0.005893 -168379.000000 0 0 1
2.431042 -28.464732 -7.262672 29.477065 -1.485598 1.819744 0.018197 -0.021919 -450622.000000 0 0 1
1.658542 -29.369832 -8.221272 30.543856 -1.514385 1.843320 0.005759 -0.016131 -339058.000000 0 0 1
0.414842 -28.728832 -8.448372 29.948170 -1.556357 1.856778 0.005001 -0.011938 -409028.000000 0 0 1
0.112342 -28.648832 -9.836372 30.290633 -1.566875 1.901526 0.015198 -0.009753 -355030.000000 0 0 1
-1.234058 -28.000932 -10.130972 29.802881 1.526753 1.917642 -0.006880 -0.008797 -910829.000000 0 0 1
-1.357058 -26.674032 -9.708172 28.418202 1.519965 1.919434 -0.001326 -0.002911 -37555.800000 0 0 1
-2.670758 -26.159632 -9.543272 27.973798 1.469054 1.918937 0.002044 -0.010037 543203.000000 0 0 1
-3.522158 -26.762132 -8.386672 28.265767 1.439939 1.872040 0.003491 -0.006885 -378385.000000 0 0 1
-3.011058 -26.616432 -7.055072 27.699729 1.458147 1.828332 0.009059 -0.007442 -257496.000000 0 0 1
-2.066958 -27.535832 -6.549472 28.379393 1.495873 1.803678 -0.000414 -0.007900 314424.000000 0 0 1
-1.594058 -27.185032 -5.166372 27.717475 1.512226 1.758287 0.011628 -0.009252 -530771.000000 0 0 1
-2.603358 -27.493032 -4.276772 27.945216 1.476386 1.724441 0.019881 -0.011695 -645764.000000 0 0 1
-2.284558 -27.210332 -2.929672 27.462782 1.487034 1.677678 0.018112 -0.003501 -317786.000000 0 0 1
-3.420158 -27.276132 -1.883572 27.554178 1.446057 1.639209 0.014928 -0.005181 329716.000000 0 0 1
-4.447458 -26.274132 -1.949172 26.719079 1.403114 1.643812 0.014339 0.000019 -72130.100000 0 0 1
-5.105458 -26.356432 -0.734372 26.856406 1.379458 1.598144 0.016868 -0.005633 -7660.810000 0 0 1
-6.245958 -25.310032 -0.575372 26.075674 1.328852 1.592864 0.013371 -0.001197 500617.000000 0 0 1
-5.659558 -24.026432 -0.536472 24.689833 1.339458 1.592527 -0.002350 0.000769 158654.000000 0 1 0
-6.560858 -23.279332 0.254828 24.187540 1.296090 1.560261 0.007906 0.001566 185107.000000 0 1 0
-6.044058 -21.812232 0.493728 22.639520 1.300484 1.548986 0.001815 -0.002359 -587033.000000 0 1 0
-5.061158 -21.817032 1.442928 22.442822 1.342846 1.506458 -0.007119 -0.002665 -1081770.000000 0 1 0
-4.518358 -20.551732 1.505028 21.096312 1.354386 1.499395 -0.017902 -0.001335 63627.500000 0 1 0
-3.390658 -20.307132 2.556128 20.746324 1.405354 1.447274 -0.013088 -0.001410 10381.400000 0 1 0
-3.814258 -20.251432 3.918328 20.976710 1.384632 1.382898 -0.012243 0.007670 -679423.000000 0 1 0
-2.802558 -20.093432 4.876928 20.865876 1.432214 1.334887 -0.003922 -0.000566 -659843.000000 0 1 0
-2.059758 -21.353732 5.273228 22.091433 1.474635 1.329769 -0.007665 -0.003702 -414245.000000 0 1 0
-1.186158 -21.757432 4.288828 22.207811 1.516333 1.376453 0.005289 -0.010239 -942462.000000 0 1 0
-0.619858 -23.002332 4.591928 23.464384 1.543855 1.373827 0.004465 -0.009078 -793136.000000 0 1 0
0.393242 -23.538032 3.520928 23.803162 -1.554091 1.422333 0.011402 -0.016065 365538.000000 0 1 0
1.498442 -22.673932 3.346028 22.968423 -1.504806 1.424597 0.006081 -0.017269 -847360.000000 0 1 0
2.476142 -22.973832 4.260928 23.496463 -1.463430 1.388444 0.023642 -0.016507 -1587920.000000 0 1 0
3.643642 -21.984432 4.335328 22.702125 -1.406552 1.378650 0.033079 -0.021300 101039.000000 0 1 0
4.576242 -21.870332 3.284528 22.584100 -1.364528 1.424843 0.023350 -0.014636 -58382.700000 0 1 0
5.654742 -21.039432 3.734228 22.103807 -1.308232 1.401042 0.036306 -0.014404 473272.000000 0 1 0
6.514942 -20.570832 2.581828 21.731761 -1.264083 1.451711 0.044041 -0.009207 -178863.000000 0 1 0
7.317342 -21.535732 1.923128 22.826075 -1.243258 1.486445 0.042282 -0.011679 -147941.000000 0 1 0
6.911442 -21.704832 0.547528 22.785249 -1.262519 1.546764 0.041817 -0.012731 125059.000000 0 1 0
7.800342 -22.692032 -0.215472 23.996252 -1.239702 1.579776 0.037633 -0.006501 256034.000000 0 1 0
9.015842 -22.098532 -0.650672 23.875802 -1.183426 1.598052 0.040340 -0.005219 -275873.000000 0 1 0
9.838542 -23.054332 -1.324472 25.100864 -1.167440 1.623587 0.037972 -0.005560 -665579.000000 0 0 1
11.074642 -22.395732 -1.855472 25.053130 -1.111560 1.644926 0.039882 -0.001263 -1054660.000000 0 0 1
11.011342 -21.518832 -2.975372 24.354931 -1.097827 1.693269 0.037811 0.006927 -633471.000000 0 1 0
12.304242 -21.306132 -3.483872 24.849206 -1.047087 1.711460 0.041433 0.000736 -269588.000000 0 1 0
12.379542 -20.023932 -4.362472 23.942475 -1.017075 1.754026 0.031755 -0.011739 -118570.000000 0 1 0
12.367242 -18.786832 -3.598572 22.778136 -0.988613 1.729445 0.037461 -0.011173 79338.200000 0 1 0
12.576942 -17.816832 -4.555372 22.279372 -0.956120 1.776714 0.038144 -0.013790 -855992.000000 0 1 0
13.002042 -16.378532 -3.989872 21.289164 -0.899819 1.759324 0.047863 -0.011239 125679.000000 0 1 0
14.317742 -16.268532 -3.509972 21.954107 -0.849092 1.731363 0.042934 -0.012774 -475267.000000 0 1 0
15.279642 -16.288732 -4.518572 22.786131 -0.817353 1.770423 0.042340 -0.014142 -1362420.000000 0 1 0
16.675242 -15.945332 -4.034172 23.422038 -0.763026 1.743898 0.040272 -0.011734 -704208.000000 0 1 0
17.287242 -16.679532 -3.037372 24.213244 -0.767509 1.696570 0.048680 -0.017787 199942.000000 0 1 0
18.690542 -16.458032 -3.096772 25.095681 -0.721967 1.694510 0.038689 -0.009016 133682.000000 0 0 1
19.385442 -17.440232 -2.107772 26.161035 -0.732625 1.651453 0.026747 -0.016879 36017.500000 0 0 1
20.784542 -17.371832 -2.297472 27.185587 -0.696195 1.655408 0.021699 -0.013256 -337448.000000 0 0 1
21.500742 -18.111632 -1.378472 28.146284 -0.700049 1.619791 0.016125 -0.007387 -97660.500000 0 0 1
23.020542 -18.215732 -1.642572 29.401638 -0.669402 1.626692 0.011724 -0.006329 210198.000000 0 0 1
23.699142 -17.005632 -1.333672 29.199650 -0.622416 1.616486 0.013761 -0.004634 382083.000000 0 0 1
24.949042 -17.259132 -0.693972 30.344916 -0.605185 1.593668 0.025040 -0.003200 687990.000000 0 0 1
25.683242 -15.947032 -0.241372 30.232351 -0.555654 1.578780 0.023233 -0.009230 174171.000000 0 0 1
24.978542 -15.284832 0.782928 29.294482 -0.549137 1.544067 0.015699 -0.011191 164128.000000 0 0 1
25.730442 -14.208232 1.325628 29.422556 -0.504527 1.525726 0.011616 -0.015971 739845.000000 0 0 1
24.828342 -13.362232 2.342928 28.292846 -0.493727 1.487891 0.025595 -0.020695 471825.000000 0 0 1
24.586542 -13.958132 3.642928 28.506112 -0.516342 1.442651 0.042822 -0.009963 761361.000000 0 0 1
25.792142 -14.169232 4.394028 29.754146 -0.502354 1.422576 0.045818 -0.005734 757892.000000 0 0 1
25.462342 -14.865232 5.727728 30.035194 -0.528432 1.378921 0.039714 -0.000892 359579.000000 0 0 1
24.591042 -15.942432 5.497828 29.817891 -0.575181 1.385355 0.031605 0.002368 -101698.000000 0 0 1
23.877042 -16.321932 6.665428 29.680744 -0.599622 1.344294 0.019010 0.001360 69152.100000 0 0 1
23.185442 -17.696432 6.473828 29.877063 -0.651931 1.352382 0.006495 -0.002653 -143886.000000 0 0 1
24.000942 -18.826832 6.549128 31.199133 -0.665169 1.359310 0.002748 -0.005435 -582515.000000 0 0 1
23.202242 -19.980832 6.393628 31.280284 -0.710937 1.364948 -0.008628 0.005502 -28388.000000 0 0 1
1.777142 23.386377 -3.047772 23.651000 1.494952 1.700020 0.025760 -0.006785 537577.000000 0 1 0
2.543742 24.524677 -2.615072 24.794536 1.467444 1.676463 0.022192 -0.002987 211433.000000 0 1 0
3.356742 25.055777 -3.639472 25.540271 1.437619 1.713782 0.032107 -0.004254 -288745.000000 0 0 1
4.281342 26.187677 -3.231472 26.731381 1.408743 1.691980 0.027513 0.002346 -872619.000000 0 0 1
5.324942 25.666477 -2.494472 26.331454 1.366232 1.665672 0.028583 0.002258 -1113790.000000 0 0 1
6.063842 26.677977 -1.900772 27.424398 1.347296 1.640161 0.020251 0.002459 -157217.000000 0 0 1
7.200942 26.050977 -1.009072 27.046723 1.301113 1.608113 0.008739 -0.008299 591919.000000 0 0 1
8.267242 25.742677 -1.900472 27.104327 1.260051 1.640971 0.011950 -0.015099 -302464.000000 0 0 1
9.207542 24.829877 -1.415472 26.519902 1.215691 1.624196 0.011365 -0.010155 794923.000000 0 0 1
10.458642 24.560077 -2.342972 26.796830 1.168215 1.658343 0.019107 -0.006915 -566211.000000 0 0 1
11.450742 25.560977 -2.339872 28.106193 1.149626 1.654144 0.017164 -0.006103 226125.000000 0 0 1
12.487742 25.362877 -3.300072 28.462427 1.113277 1.687003 0.019341 -0.009582 175585.000000 0 0 1
13.408042 24.157677 -3.041572 27.796045 1.064106 1.680441 0.032896 -0.013660 -1374630.000000 0 0 1
12.828542 22.873977 -3.368672 26.441223 1.059672 1.698546 0.029301 -0.011048 49510.300000 0 0 1
12.697242 22.611077 -4.737872 26.361491 1.059129 1.751505 0.026743 -0.014734 -524497.000000 0 0 1
11.791542 21.428877 -5.072872 24.979417 1.067750 1.775301 0.033043 -0.013051 626850.000000 0 1 0
10.423042 21.786777 -4.788072 24.621720 1.124568 1.766509 0.040383 -0.009353 503507.000000 0 1 0
9.599142 20.659277 -4.894772 23.300388 1.135834 1.782446 0.023513 -0.001073 -417051.000000 0 1 0
8.101142 20.919277 -4.739172 22.928245 1.201323 1.778993 0.014465 -0.001339 -333793.000000 0 1 0
7.732442 21.383477 -3.460872 23.000465 1.223818 1.721840 0.016962 -0.000222 273388.000000 0 1 0
6.405742 21.894777 -3.532572 23.084494 1.286170 1.724428 0.019848 0.012061 410393.000000 0 1 0
5.914242 22.404677 -2.188272 23.275231 1.312710 1.664953 0.025526 0.002661 36382.900000 0 1 0
5.609542 21.441777 -1.173472 22.194455 1.314914 1.623693 0.025971 -0.006116 267633.000000 0 1 0
4.757742 22.005277 -0.184272 22.514491 1.357865 1.578981 0.025782 -0.007255 244972.000000 0 1 0
4.316342 21.011177 0.902328 21.468921 1.368184 1.528754 0.018468 -0.013905 -57399.900000 0 1 0
3.294842 21.556377 1.710228 21.873689 1.419123 1.492530 0.013502 -0.014295 221998.000000 0 1 0
3.085542 20.696777 2.768228 21.107824 1.422803 1.439270 0.018630 -0.021808 -49757.600000 0 1 0
2.282942 21.330577 3.922828 21.808116 1.464175 1.389933 0.019243 -0.017788 1578310.000000 0 1 0
0.859642 21.451577 3.627128 21.773039 1.530744 1.403428 0.015590 -0.017584 1058330.000000 0 1 0
0.078542 21.863477 4.718928 22.367076 1.567204 1.358222 0.012409 -0.023621 -420955.000000 0 1 0
-1.247158 22.342777 4.176828 22.764029 -1.515035 1.386267 0.013738 -0.008695 -449414.000000 0 1 0
-2.228258 22.738177 5.117328 23.413178 -1.473112 1.350451 0.018937 -0.013336 373879.000000 0 1 0
-3.520858 22.747677 4.499428 23.454171 -1.417236 1.377761 0.023003 -0.016595 824457.000000 0 1 0
-4.683158 23.041377 5.475428 24.141610 -1.370278 1.342001 0.030532 -0.022849 24222.900000 0 1 0
-4.839058 24.381777 5.777828 25.520009 -1.374872 1.342412 0.043746 -0.013929 -661683.000000 0 0 1
-5.970358 24.613877 6.536428 26.157466 -1.332832 1.318232 0.050044 -0.017607 -445813.000000 0 0 1
-6.238158 26.117477 6.814128 27.703241 -1.336339 1.322277 0.054021 -0.019296 -82712.900000 0 0 1
-5.231458 26.686477 7.667528 28.254685 -1.377217 1.295978 0.046308 -0.024888 294133.000000 0 0 1
-5.421258 28.004277 8.239428 29.690365 -1.379575 1.289593 0.050755 -0.028722 -168000.000000 0 0 1
-5.730358 29.181177 7.248928 30.609232 -1.376892 1.331703 0.061777 -0.032997 311537.000000 0 0 1
-7.077858 29.126777 6.802128 30.736528 -1.332415 1.347645 0.063935 -0.025931 -156560.000000 0 0 1
-7.291258 30.186277 5.902128 31.610266 -1.333794 1.382979 0.064842 -0.026253 623148.000000 0 0 1
-8.803658 30.460577 5.582128 32.194896 -1.289445 1.396530 0.066837 -0.024893 1043660.000000 0 0 1
-9.652358 30.972277 6.590628 33.104174 -1.268691 1.370370 0.068226 -0.021474 43697.900000 0 0 1
-10.148958 29.971777 7.466328 32.512380 -1.244298 1.339083 0.056044 -0.019870 -42830.900000 0 0 1
-11.176558 30.421877 8.554228 33.519858 -1.218718 1.312743 0.044852 -0.020894 261865.000000 0 0 1
-10.550858 31.121077 9.620128 34.240165 -1.243931 1.286002 0.051407 -0.024491 615467.000000 0 0 1
-11.491458 31.342277 10.682028 35.049931 -1.219372 1.261104 0.053471 -0.019211 394086.000000 0 0 1
-10.729058 31.854777 11.924928 35.665718 -1.245919 1.229878 0.046309 -0.023331 -82962.900000 0 0 1
-10.160258 33.157877 11.746228 36.614881 -1.273460 1.244217 0.048954 -0.019324 280904.000000 0 0 1
-9.359458 33.440877 12.881828 37.038267 -1.297898 1.215575 0.050219 -0.024986 147129.000000 0 0 1
-8.824658 -33.991332 12.844428 37.393376 1.316789 1.220161 0.049273 -0.026291 -124820.000000 0 0 1
-9.680458 -33.133332 13.534728 37.077188 1.286541 1.197118 0.047075 -0.015557 15612.600000 0 0 1
-9.089358 -31.833832 13.613828 35.795888 1.292672 1.180656 0.055371 -0.009287 349401.000000 0 0 1
-10.054558 -30.817832 14.311328 35.435110 1.255427 1.155048 0.052086 -0.010787 294220.000000 0 0 1
-10.398558 -30.873732 15.725928 36.174883 1.245921 1.121070 0.042778 -0.020228 -412039.000000 0 0 1
-9.325158 -30.857232 16.610028 36.263210 1.277319 1.095006 0.051794 -0.018383 -441915.000000 0 0 1
-9.791258 -30.989932 18.073028 37.187081 1.264772 1.063286 0.051987 -0.024340 -102530.000000 0 0 1
-10.577658 -29.966232 18.628128 36.835704 1.231464 1.040593 0.072482 -0.031992 49546.500000 0 0 1
-11.345858 -30.413732 19.710728 37.976788 1.213736 1.025092 0.080991 -0.032524 -156176.000000 0 0 1
-11.504258 -29.310232 20.801528 37.737796 1.196772 0.986980 0.076570 -0.038827 1113490.000000 0 0 1
-10.266058 -29.242632 21.563228 37.755745 1.233173 0.962921 0.060151 -0.030019 1125990.000000 0 0 1
-10.364958 -28.514732 22.711028 37.898722 1.222150 0.928225 0.041843 -0.024263 148295.000000 0 0 1
-9.054558 -28.607632 23.527328 38.130261 1.264264 0.905840 0.044504 -0.024073 212394.000000 0 0 1
-8.801058 -29.852732 24.153428 39.395842 1.284102 0.910823 0.047509 -0.012530 -62926.100000 0 0 1
-7.617158 -29.726932 24.909228 39.524438 1.319956 0.888955 0.053881 -0.013029 75146.800000 0 0 1
-7.582158 -30.819332 25.996828 41.026277 1.329567 0.884517 0.054116 -0.008706 -11627.800000 0 0 1
-7.330758 -32.130832 25.475528 41.654927 1.346482 0.912734 0.075073 0.000715 278025.000000 0 0 1
-7.610558 -33.055532 26.484428 43.035029 1.344504 0.907883 0.070625 -0.000948 -210422.000000 0 0 1
-7.470158 34.438177 25.879328 43.721058 -1.357190 0.937359 0.058531 -0.002741 809901.000000 0 0 1
-6.083458 34.044777 25.721628 43.100551 -1.393973 0.931312 0.051935 0.001678 1158510.000000 0 0 1
-5.804158 32.790477 25.127628 41.716919 -1.395604 0.924371 0.045184 0.005780 -155974.000000 0 0 1
-6.562258 32.351377 23.843528 40.720863 -1.370668 0.945255 0.049509 0.000601 217446.000000 0 0 1
-7.817858 31.718477 24.061428 40.572565 -1.329137 0.935959 0.049672 0.001038 444378.000000 0 0 1
-8.356958 31.335377 22.798628 39.642427 -1.310168 0.958062 0.037057 0.002836 340931.000000 0 0 1
-9.383858 30.147377 22.840728 38.969475 -1.269036 0.944537 0.032871 -0.012110 232203.000000 0 0 1
-8.750158 28.851477 22.807128 37.803943 -1.276330 0.923164 0.038713 -0.005402 -107249.000000 0 0 1
-9.541058 27.693277 22.931728 37.199644 -1.239006 0.906570 0.036201 -0.007966 -485757.000000 0 0 1
-8.766058 26.403577 22.457028 35.753472 -1.250244 0.891677 0.034487 -0.003548 -76533.800000 0 0 1
-7.731458 26.047877 23.327928 35.811445 -1.282262 0.861355 0.021445 0.001477 -216787.000000 0 0 1
-7.250058 24.694977 23.191728 34.644790 -1.285236 0.837376 0.022078 -0.001153 411340.000000 0 0 1
-5.893358 24.537877 23.945828 34.788529 -1.335087 0.811618 0.005970 0.008833 873037.000000 0 0 1
-4.846658 25.165777 23.195728 34.566577 -1.380537 0.835179 -0.002768 0.012153 24476.100000 0 0 1
-3.638558 25.391777 23.888728 35.052144 -1.428469 0.820959 0.000448 0.009492 112436.000000 0 0 1
-2.528358 25.835777 22.924028 34.632225 -1.473244 0.847409 -0.000615 0.024155 -232036.000000 0 0 1
-2.174758 24.839077 21.981228 33.239791 -1.483465 0.848256 -0.000108 0.020666 65983.000000 0 0 1
-1.429158 25.287677 20.874328 32.821436 -1.514340 0.881497 0.010614 0.022443 -67835.500000 0 0 1
-0.902558 24.255177 19.902928 31.388768 -1.533603 0.883981 0.011081 0.021911 -1016860.000000 0 0 1
0.070042 23.401477 20.399428 31.044657 1.567803 0.853832 0.007749 0.013803 -543650.000000 0 0 1
0.238542 22.286477 19.518728 29.626419 1.560093 0.851536 0.006761 0.015958 806890.000000 0 0 1
1.525342 21.423777 19.887128 29.271193 1.499718 0.823839 0.010874 0.010280 665125.000000 0 0 1
2.690442 22.024477 19.392428 29.468328 1.449242 0.852534 0.026431 0.002260 -499096.000000 0 0 1
3.809542 21.188477 19.644328 29.143847 1.392904 0.831122 0.026139 -0.000156 398806.000000 0 0 1
5.169442 21.850777 19.303528 29.610907 1.338488 0.860701 0.032673 -0.004259 -144148.000000 0 0 1
6.085342 20.973377 18.725528 28.767331 1.288404 0.861987 0.031420 0.000531 -1019800.000000 0 0 1
7.322042 21.626077 18.725328 29.528587 1.244336 0.883897 0.044449 -0.007389 -1027800.000000 0 0 1
8.491542 20.712177 18.445028 29.005510 1.181718 0.881603 0.042175 0.005503 -732350.000000 0 0 1
8.727542 19.880477 19.585528 29.240319 1.157127 0.836840 0.045545 -0.007406 -281049.000000 0 0 1
9.674942 18.899877 19.308528 28.698939 1.097670 0.832815 0.032330 -0.000397 -231369.000000 0 0 1
10.214142 18.137377 20.512828 29.224463 1.057910 0.792726 0.036527 -0.007590 72406.800000 0 0 1
9.247742 17.278577 21.106128 28.801712 1.079376 0.748357 0.045018 -0.007956 337329.000000 0 0 1
9.845042 16.525977 22.148828 29.336042 1.033521 0.715136 0.041036 -0.008297 256608.000000 0 0 1
8.854042 15.397277 22.550228 28.705104 1.048932 0.667159 0.030276 -0.004396 -198428.000000 0 0 1
7.759642 15.849677 23.289928 29.220627 1.115522 0.648423 0.028671 0.001400 85102.900000 0 0 1
6.826342 14.791477 23.649728 28.717527 1.138416 0.603191 0.025210 0.005294 584401.000000 0 0 1
7.258742 13.832377 24.761728 29.277417 1.087534 0.562805 0.034849 -0.001475 -461647.000000 0 0 1
7.140342 14.343577 26.050028 30.583111 1.108904 0.551426 0.032869 -0.008176 5211.160000 0 0 1
7.431542 13.275877 26.994228 30.986531 1.060477 0.513236 0.031698 -0.006519 -47238.400000 0 0 1
8.593242 13.642377 27.997828 32.308461 1.008686 0.522491 0.019465 0.000282 1081250.000000 0 0 1
9.876642 13.764577 27.364428 32.184213 0.948395 0.554348 0.035261 -0.000202 484763.000000 0 0 1
10.174042 15.046177 26.871528 32.434204 0.976231 0.594384 0.031640 -0.000007 338022.000000 0 0 1
11.528842 14.996777 26.058628 32.200460 0.915400 0.627901 0.039410 -0.005523 640223.000000 0 0 1
11.403342 14.076977 24.971628 30.850927 0.889945 0.627618 0.033825 -0.009289 1299040.000000 0 0 1
12.651342 13.718977 24.273128 30.617830 0.825862 0.655444 0.034220 -0.008171 1129990.000000 0 0 1
12.508642 12.614777 23.203828 29.223558 0.789623 0.653417 0.027938 -0.011164 82308.100000 0 0 1
12.161642 11.259077 23.604628 28.841824 0.746880 0.612146 0.033431 -0.006153 583034.000000 0 0 1
10.874242 11.113277 24.207628 28.770876 0.796269 0.570940 0.042796 -0.004350 163820.000000 0 0 1
10.571142 9.689877 24.843928 28.685598 0.741930 0.523496 0.034559 -0.003729 -23690.300000 0 0 1
10.448042 8.764477 23.853028 27.476255 0.697993 0.519369 0.042889 -0.000073 178047.000000 0 0 1
9.993742 7.523477 24.367728 27.390943 0.645303 0.474268 0.042576 -0.002713 60012.200000 0 0 1
10.159842 6.414677 23.283828 26.201281 0.563171 0.476398 0.058015 -0.018050 605109.000000 0 0 1
11.472442 5.852677 23.137028 26.480046 0.471735 0.507930 0.057138 -0.014273 761375.000000 0 0 1
11.427142 4.679077 22.409128 25.585980 0.388644 0.503631 0.061030 -0.017088 -222845.000000 0 0 1
11.653442 3.364677 23.196828 26.176642 0.281084 0.481794 0.053508 -0.016133 -1632570.000000 0 0 1
12.949642 3.117277 23.510928 27.021739 0.236229 0.515443 0.044951 -0.014688 -1320290.000000 0 0 1
12.911542 2.140777 24.525428 27.799055 0.164309 0.490198 0.044194 -0.012665 -136559.000000 0 0 1
14.317542 1.763977 25.017528 28.878718 0.122586 0.523057 0.035562 -0.008354 -406459.000000 0 0 1
15.016542 1.016977 24.085028 28.401045 0.067621 0.558534 0.019431 -0.008107 -121508.000000 0 0 1
16.402542 1.117777 24.352028 29.382207 0.068041 0.593833 0.027985 -0.008408 386941.000000 0 0 1
17.223842 -0.108323 23.710028 29.305936 -0.006289 0.628259 0.026201 -0.003909 435664.000000 0 0 1
16.993642 -1.392123 24.242128 29.637858 -0.081738 0.612967 0.013348 -0.006417 -96352.600000 0 0 1
18.080542 -2.144223 23.808128 29.972165 -0.118041 0.652874 0.012625 -0.004366 -466783.000000 0 0 1
17.984942 -3.613123 24.257928 30.413153 -0.198258 0.647469 0.017370 0.000684 -379515.000000 0 0 1
17.214342 -4.326023 23.345228 29.326570 -0.246205 0.650066 0.013146 -0.006834 -51230.600000 0 0 1
17.275242 -5.705623 23.587328 29.788423 -0.318998 0.656999 0.037087 -0.010478 -446531.000000 0 0 1
16.181442 -6.519123 22.932428 28.813786 -0.382984 0.650330 0.030715 -0.013006 -604926.000000 0 0 1
16.344242 -6.508523 21.498228 27.778929 -0.378967 0.685813 0.018305 -0.016275 281022.000000 0 0 1
15.742742 -7.622823 20.832028 27.201374 -0.450938 0.698442 0.037060 -0.020623 -237510.000000 0 0 1
16.323942 -8.961223 21.198428 28.216094 -0.502046 0.720784 0.046220 -0.018199 -54077.400000 0 0 1
15.894642 -9.471623 22.453728 29.095037 -0.537400 0.689228 0.034681 -0.012106 32754.800000 0 0 1
16.635542 -10.615223 22.801428 30.155088 -0.567968 0.713404 0.042219 -0.013688 -130040.000000 0 0 1
15.981442 -11.431723 23.932028 30.965024 -0.620929 0.687440 0.064720 -0.024174 263134.000000 0 0 1
14.887442 -12.254823 23.526128 30.418667 -0.688707 0.686592 0.050239 -0.016955 314678.000000 0 0 1
14.489742 -13.131223 24.560228 31.394051 -0.736253 0.672413 0.058827 -0.003942 -165140.000000 0 0 1
13.457442 -14.148123 24.075928 30.998749 -0.810413 0.681428 0.057879 -0.007259 -232769.000000 0 0 1
13.977242 -15.045623 23.111328 30.917107 -0.822193 0.726467 0.051393 0.000710 484957.000000 0 0 1
12.926642 -15.704823 22.398428 30.256059 -0.882128 0.737286 0.055076 0.009871 142886.000000 0 0 1
13.362942 -16.569323 21.191428 30.036433 -0.892112 0.787634 0.044139 0.008091 192852.000000 0 0 1
14.274742 -17.616223 21.574928 31.298196 -0.889796 0.810226 0.053793 0.004632 471035.000000 0 0 1
14.748042 -18.319023 20.436928 31.157011 -0.892973 0.855378 0.044451 0.006774 -2077.130000 0 0 1
-23.501058 -32.326432 26.667431 48.046330 0.942184 0.982390 0.022795 -0.018909 -304683.000000 0 0 1
-23.904158 -33.409432 27.462141 49.414250 0.949749 0.981527 0.030210 -0.014897 -50455.500000 0 0 1
-25.170778 -33.881632 27.084101 50.150589 0.931853 1.000293 0.015364 -0.016503 -324381.000000 0 0 1
-25.841948 34.054377 28.023811 51.115955 -0.921659 0.990538 0.006709 -0.009893 -507579.000000 0 0 1
-26.534858 -34.288832 29.103331 52.219025 0.912197 0.979627 0.028502 -0.020740 151113.000000 0 0 1
-25.769438 -33.628632 30.083791 51.961364 0.916948 0.953338 0.021298 -0.020793 -280596.000000 0 0 1
-26.769898 -32.911832 31.006201 52.547128 0.887949 0.939657 0.003504 -0.023459 110967.000000 0 0 1
-27.048268 -31.570032 30.680161 51.667669 0.862385 0.935025 -0.004809 -0.018661 33824.300000 0 0 1
-28.030358 -31.036132 31.523921 52.370794 0.836242 0.924872 -0.004795 -0.008908 -460857.000000 0 0 1
-28.331838 -29.564532 31.168151 51.460745 0.806686 0.920191 -0.006931 -0.012434 -443770.000000 0 0 1
-28.961058 -29.362832 29.946511 50.967758 0.792287 0.942759 -0.007940 -0.008153 221090.000000 0 0 1
-29.591508 -28.075432 29.876481 50.561758 0.759114 0.938634 0.002688 -0.003013 -131550.000000 0 0 1
-30.107128 -27.688332 28.503071 49.854869 0.743572 0.962194 -0.006225 -0.007897 -752775.000000 0 0 1
-29.231448 -27.583432 27.448231 48.669587 0.756400 0.971610 -0.006635 -0.008286 -312544.000000 0 0 1
-28.517458 -26.328532 27.347211 47.479543 0.745509 0.956995 -0.002992 -0.002783 243232.000000 0 0 1
-27.537558 -26.208432 26.152171 46.142552 0.760673 0.968217 0.000908 -0.001259 -421560.000000 0 0 1
-28.142138 -26.287332 24.908811 45.863413 0.751334 0.996662 -0.004065 -0.004106 -786502.000000 0 0 1
-27.294588 -26.039432 23.837701 44.623789 0.761869 1.007244 0.013516 0.001648 -471819.000000 0 0 1
-27.907378 -26.384632 22.443811 44.482527 0.757358 1.041932 -0.005325 0.009680 -89673.000000 0 0 1
-28.684368 -25.373632 21.852511 44.092476 0.724230 1.052264 -0.004824 0.007455 128643.000000 0 0 1
-29.119888 -25.775532 20.557911 43.988335 0.724551 1.084506 -0.006915 0.017671 -102973.000000 0 0 1
-29.694238 -24.521932 19.852811 43.326747 0.690284 1.094814 -0.009069 0.013515 -502264.000000 0 0 1
-30.954738 -24.155532 20.316711 44.209210 0.662644 1.093298 -0.014104 0.012723 -172486.000000 0 0 1
-31.549528 -23.121032 19.526411 43.717680 0.632434 1.107781 -0.003092 0.010165 485782.000000 0 0 1
-33.036908 -22.762932 19.803411 44.741071 0.603316 1.112275 -0.010353 0.019448 911929.000000 0 0 1
-34.001048 -23.701232 19.301811 45.720669 0.608759 1.134961 -0.012870 0.014852 859488.000000 0 0 1
-35.364046 -23.275632 19.370711 46.557440 0.582099 1.141688 0.001188 0.008446 810519.000000 0 0 1
34.814669 -24.305432 18.667911 46.382175 -0.609475 1.156572 0.008818 -0.000499 84139.900000 0 0 1
34.785699 -25.545432 19.347211 47.296179 -0.633420 1.149367 0.008332 -0.003731 -61860.800000 0 0 1
34.486599 -26.583432 18.481911 47.303123 -0.656702 1.169391 0.012112 0.000969 -52091.000000 0 0 1
33.992149 -27.903032 19.236011 48.000724 -0.687336 1.158467 0.013680 0.000932 426695.000000 0 0 1
32.767889 -28.009332 19.952711 47.501241 -0.707262 1.137300 0.018376 -0.002576 114079.000000 0 0 1
32.710379 -27.189032 21.083111 47.473255 -0.693481 1.110621 0.022653 -0.007939 -1120520.000000 0 0 1
31.377119 -27.193432 21.778611 46.886184 -0.714089 1.087727 0.016546 -0.004556 -706510.000000 0 0 1
30.336449 -26.617532 21.009111 45.499186 -0.720194 1.090833 0.027816 -0.001604 16557.700000 0 0 1
29.403239 -26.001332 21.889211 44.941710 -0.724074 1.062079 0.034231 -0.001519 -210152.000000 0 0 1
28.575909 -24.811832 21.406311 43.479188 -0.715010 1.056026 0.042105 0.005246 -220933.000000 0 0 1
29.275669 -23.677632 20.947911 43.087238 -0.680073 1.063090 0.051390 0.000953 -168087.000000 0 0 1
30.123699 -23.061932 21.921111 43.815809 -0.653394 1.046849 0.058793 -0.001070 206691.000000 0 0 1
30.934829 -21.889132 21.323611 43.483263 -0.615801 1.058263 0.048220 -0.006343 165189.000000 0 0 1
30.209879 -20.666032 21.265111 42.331154 -0.599963 1.044480 0.050887 -0.013289 9563.380000 0 0 1
31.014579 -19.600732 20.848911 42.199170 -0.563606 1.054043 0.040050 -0.008495 -456688.000000 0 0 1
30.308069 -18.257232 21.036411 41.163530 -0.542174 1.034396 0.035141 -0.003844 -5376.390000 0 0 1
30.109419 -17.802532 22.382611 41.526962 -0.533969 1.001559 0.047200 -0.019028 438368.000000 0 0 1
29.000519 -18.398632 23.056611 41.366014 -0.565348 0.979569 0.065285 -0.015956 6119.320000 0 0 1
28.923589 -18.014032 24.512181 41.975307 -0.557026 0.947190 0.048551 -0.015912 -98967.100000 0 0 1
28.482199 -16.676332 24.672201 41.207441 -0.529690 0.928880 0.040843 -0.024566 163729.000000 0 0 1
28.660989 -16.294932 25.997151 41.986057 -0.516966 0.903092 0.038174 -0.019201 -116047.000000 0 0 1
28.444059 -14.797332 26.160411 41.381066 -0.479697 0.886429 0.025328 -0.024912 -1308750.000000 0 0 1
27.139009 -14.401232 26.039501 40.273775 -0.487864 0.867727 0.047240 -0.023539 -1205250.000000 0 0 1
26.854349 -13.105532 26.578901 39.991862 -0.454020 0.843828 0.036728 -0.020631 33100.300000 0 0 1
27.383839 -11.949132 25.675671 39.394117 -0.411451 0.860888 0.040495 -0.030256 -195905.000000 0 0 1
26.733349 -11.925432 24.431301 38.128419 -0.419596 0.875304 0.041551 -0.021081 -6448.140000 0 0 1
27.266669 -10.948732 23.584411 37.677187 -0.381836 0.894434 0.038063 -0.012928 529809.000000 0 0 1
28.579749 -11.356032 22.811211 38.289853 -0.378216 0.932596 0.047206 -0.025247 365131.000000 0 0 1
28.406149 -12.376732 21.838111 37.907729 -0.410904 0.956864 0.033361 -0.024767 -171280.000000 0 0 1
28.537939 -13.648732 22.430411 38.779185 -0.446110 0.954014 0.046756 -0.033474 -343733.000000 0 0 1
28.055459 -14.822432 21.531111 38.345822 -0.486051 0.974601 0.051565 -0.024457 -604978.000000 0 0 1
28.687199 -14.845232 20.289011 38.144204 -0.477539 1.009950 0.036657 -0.022809 -282699.000000 0 0 1
28.042929 -15.794932 19.459911 37.610822 -0.512952 1.026984 0.040753 -0.030205 -261691.000000 0 0 1
28.480759 -15.846332 17.967211 37.216670 -0.507734 1.066978 0.038648 -0.030786 44366.800000 0 0 1
27.892309 -16.921632 17.178711 36.870458 -0.545315 1.086121 0.045022 -0.032592 411550.000000 0 0 1
26.549959 -16.808032 16.739111 35.603485 -0.564383 1.081331 0.046509 -0.033825 -228873.000000 0 0 1
26.257989 -15.809532 15.607811 34.395161 -0.541951 1.099794 0.033435 -0.024817 -414320.000000 0 0 1
26.532869 -16.209332 14.251311 34.202858 -0.548407 1.141017 0.044201 -0.029478 -253340.000000 0 0 1
25.450309 -16.961632 13.822411 33.562989 -0.587860 1.146330 0.026035 -0.032836 -564146.000000 0 0 1
25.692009 -17.709532 12.469811 33.603617 -0.603509 1.190619 0.019943 -0.009821 -172135.000000 0 0 1
25.404109 -16.834732 11.375611 32.529702 -0.585236 1.213546 0.031545 -0.022789 -41335.500000 0 0 1
25.135409 -17.422632 10.117511 32.213366 -0.606114 1.251311 0.026410 -0.017449 -24082.500000 0 0 1
26.385449 -17.802532 9.284011 33.155919 -0.593551 1.286991 0.021814 -0.013515 188796.000000 0 0 1
27.159669 -18.765732 9.934111 34.474438 -0.604620 1.278493 0.016004 -0.007101 -1460070.000000 0 0 1
28.412669 -18.963832 9.376511 35.423519 -0.588540 1.302906 0.016451 -0.000124 -404596.000000 0 0 1
29.201099 -19.848132 10.405511 36.809336 -0.596975 1.284202 0.034497 -0.013634 -130801.000000 0 0 1
29.477179 -19.235332 11.652111 37.076594 -0.578166 1.251107 0.044494 -0.025399 31582.800000 0 0 1
29.634889 -20.225832 12.615711 38.032448 -0.598885 1.232682 0.035923 -0.026208 -55362.300000 0 0 1
29.421129 -19.662832 14.062711 38.078730 -0.589149 1.192534 0.054030 -0.020996 106629.000000 0 0 1
29.211039 -20.613532 15.051511 38.791114 -0.614525 1.172320 0.050116 -0.022568 21779.400000 0 0 1
28.958599 -19.896832 16.256511 38.713803 -0.602001 1.137445 0.061970 -0.027656 55436.300000 0 0 1
28.918779 -20.801232 17.491911 39.685690 -0.623561 1.114350 0.051697 -0.019157 -567571.000000 0 0 1
27.757929 -21.537432 17.403711 39.207815 -0.659873 1.110868 0.032334 -0.011278 -767082.000000 0 0 1
27.556889 -22.375332 18.530511 40.042696 -0.681996 1.089680 0.038326 -0.012772 1581130.000000 0 0 1
26.140699 -23.139432 18.461711 39.491825 -0.724571 1.084356 0.028670 -0.002699 2042450.000000 0 0 1
25.017009 -22.320832 18.775911 38.426620 -0.728504 1.060292 0.033734 -0.005226 160816.000000 0 0 1
23.788009 -22.977032 18.570211 37.929753 -0.768058 1.059171 0.012797 0.000635 -12841.300000 0 0 1
22.588009 -22.284432 19.215911 37.095354 -0.778633 1.026269 -0.003368 0.007595 -374459.000000 0 0 1
22.065509 -21.092432 18.642011 35.767331 -0.762855 1.022537 -0.000188 0.004320 754171.000000 0 0 1
20.936409 -20.442632 19.271111 35.037268 -0.773466 0.988411 -0.000273 0.011506 865467.000000 0 0 1
21.085609 -20.019132 20.755711 35.723495 -0.759459 0.950827 -0.000541 0.007874 -313136.000000 0 0 1
21.380109 -21.116132 21.647211 37.035144 -0.779186 0.946527 0.004084 0.006040 -124053.000000 0 0 1
21.614109 -20.600232 22.899711 37.628926 -0.761385 0.916543 0.012681 0.005305 -1528.280000 0 0 1
22.100909 -21.591632 23.936821 39.084782 -0.773743 0.911661 0.013432 0.004509 686142.000000 0 0 1
21.034509 -22.443132 24.421551 39.275398 -0.817786 0.899754 0.009651 0.010224 652591.000000 0 0 1
21.536709 -23.312632 25.424981 40.666182 -0.824975 0.895393 0.007820 0.010254 -186602.000000 0 0 1
20.503809 -24.015832 26.317201 41.106708 -0.864122 0.876016 0.020068 0.003601 -221984.000000 0 0 1
19.845209 -25.163032 25.828381 41.159638 -0.903005 0.892436 0.025929 0.015472 -263755.000000 0 0 1
18.822609 -25.619132 26.647371 41.481477 -0.937153 0.873181 0.039568 0.001515 -727711.000000 0 0 1
18.046009 -26.715432 25.944731 41.382386 -0.976710 0.893163 0.044128 0.001520 -414269.000000 0 0 1
17.320409 -26.189132 24.846811 40.040370 -0.986478 0.901360 0.040438 -0.004151 112014.000000 0 0 1
16.651009 -27.222832 24.168201 40.030496 -1.021850 0.922606 0.045475 -0.009460 -231687.000000 0 0 1
15.769709 -26.750532 23.003311 38.644884 -1.038126 0.933221 0.041229 -0.011039 -1220140.000000 0 0 1
14.483109 -26.397332 23.308411 38.077049 -1.068984 0.912035 0.036815 -0.011847 -1255860.000000 0 0 1
13.975309 -25.732832 22.153011 36.718440 -1.073272 0.923137 0.030927 -0.009338 670092.000000 0 0 1
12.504509 -25.234232 22.324011 35.937316 -1.110725 0.900532 0.027600 -0.008555 1141610.000000 0 0 1
11.481209 -26.234632 22.281611 36.284215 -1.158272 0.909570 0.033466 -0.014277 775707.000000 0 0 1
10.162009 -25.690832 22.407111 35.571954 -1.194132 0.889360 0.035708 -0.010196 1199690.000000 0 0 1
9.044809 -26.785832 22.470711 36.114017 -1.245147 0.899226 0.035514 -0.012240 277577.000000 0 0 1
8.718609 -27.300532 21.191011 35.642561 -1.261677 0.934100 0.040420 -0.010829 -260292.000000 0 0 1
7.463609 -27.901732 21.327511 35.903689 -1.309420 0.934749 0.027972 -0.009648 -469072.000000 0 0 1
6.947909 -28.670332 20.099611 35.696719 -1.333042 0.972705 0.039780 -0.003492 -299381.000000 0 0 1
7.650609 -29.851732 19.887511 36.676571 -1.319909 0.997695 0.044652 -0.008702 -84483.400000 0 0 1
7.282409 -30.626732 18.738511 36.635529 -1.337352 1.033885 0.028721 -0.011340 -220735.000000 0 0 1
8.060109 -31.934032 18.562811 37.806424 -1.323561 1.057563 0.034995 -0.005204 24215.900000 0 0 1
7.651609 -32.906132 19.533411 39.024541 -1.342328 1.046572 0.031404 -0.005377 142182.000000 0 0 1
8.496809 -34.027232 19.500411 40.128722 -1.326094 1.063351 0.032635 -0.005655 -104963.000000 0 0 1
8.169309 33.792677 20.580911 40.401195 1.333599 1.036293 0.039539 -0.015287 -247726.000000 0 0 1
7.196909 32.861877 20.204211 39.241670 1.355195 1.029945 0.039769 -0.021292 -523308.000000 0 0 1
7.282909 31.731577 21.032211 38.759356 1.345188 0.997225 0.039483 -0.025855 -29456.700000 0 0 1
6.290409 30.563877 20.766911 37.483122 1.367819 0.983595 0.043939 -0.027724 37272.000000 0 0 1
4.990009 30.809877 21.263411 37.766141 1.410229 0.972751 0.046299 -0.031273 -129635.000000 0 0 1
4.223309 29.605077 20.944011 36.509568 1.429097 0.959831 0.046262 -0.019741 1198270.000000 0 0 1
2.759309 29.760577 21.505611 36.821150 1.478344 0.947080 0.034975 -0.014773 594478.000000 0 0 1
2.626109 29.311077 22.860811 37.264626 1.481440 0.910346 0.029521 -0.020901 -725361.000000 0 0 1
1.299209 29.042877 23.170111 37.175674 1.526092 0.897892 0.017367 -0.008625 -584471.000000 0 0 1
1.186809 28.421177 24.583891 37.597068 1.529063 0.858098 0.020208 -0.009933 -199153.000000 0 0 1
1.260409 29.332077 25.640531 38.979433 1.527852 0.852907 0.023777 -0.018419 45963.600000 0 0 1
1.072709 28.779277 26.918111 39.420581 1.533540 0.819148 0.022807 -0.016947 -291044.000000 0 0 1
2.239609 28.104777 27.669891 39.503382 1.491277 0.794777 0.023778 -0.014847 -263125.000000 0 0 1
2.622509 26.874577 27.043471 38.216093 1.473521 0.784635 0.023409 -0.015848 100952.000000 0 0 1
3.645109 26.288277 27.822201 38.450425 1.433016 0.761812 0.008140 -0.006074 100934.000000 0 0 1
4.195809 24.950877 27.208901 37.154749 1.404192 0.749084 0.011582 0.002542 188587.000000 0 0 1
3.161009 23.966277 27.081071 36.300948 1.439659 0.728738 0.018804 0.002625 427085.000000 0 0 1
3.713509 22.713677 26.761001 35.296635 1.408738 0.710288 0.026956 0.005909 396698.000000 0 0 1
2.518709 21.726777 26.706531 34.520074 1.455385 0.686211 0.014423 0.010660 150421.000000 0 0 1
2.843209 20.326077 26.793491 33.750917 1.431818 0.653666 0.017986 0.008637 -207434.000000 0 0 1
3.471909 19.818377 25.656881 32.605180 1.397370 0.665034 0.019750 0.011966 -58470.300000 0 0 1
4.074609 18.375277 25.836681 31.965408 1.352583 0.629588 0.018985 0.007054 335288.000000 0 0 1
5.221009 18.148777 26.640501 32.655066 1.290682 0.616659 0.012239 0.001769 -48027.500000 0 0 1
6.353809 17.898777 25.841661 32.070681 1.229687 0.633818 0.033668 0.007733 -194794.000000 0 0 1
7.648709 17.685877 26.703981 32.930163 1.162611 0.625061 0.022669 0.001917 522731.000000 0 0 1
8.113709 18.829677 27.473401 34.280852 1.163939 0.641129 0.017021 0.005574 144577.000000 0 0 1
8.664709 19.848277 26.673851 34.358778 1.159186 0.681969 0.010992 -0.005204 -657931.000000 0 0 1
9.175609 21.044577 27.451991 35.786560 1.159639 0.696483 0.004086 -0.005236 -435049.000000 0 0 1
10.345709 20.851577 28.185501 36.554677 1.110226 0.690307 0.019983 -0.021587 -461988.000000 0 0 1
10.459009 21.864377 29.201591 37.949635 1.124611 0.692765 0.004113 -0.015208 427957.000000 0 0 1
11.737009 21.689177 30.107861 38.918647 1.074776 0.686278 0.000765 -0.010349 838433.000000 0 0 1
12.904509 22.019577 29.357451 38.900489 1.040699 0.715629 0.002390 -0.003328 -522232.000000 0 0 1
14.029209 21.862177 30.188471 39.826088 1.000270 0.710544 -0.004682 0.003132 -140190.000000 0 0 1
15.318009 21.981277 29.349461 39.739260 0.962177 0.739878 -0.009325 0.003395 -313380.000000 0 0 1
15.438509 23.290977 29.022151 40.287745 0.985438 0.766458 -0.010576 0.005459 610922.000000 0 0 1
16.642209 23.488777 28.239291 40.325468 0.954377 0.795001 0.030277 0.005488 936641.000000 0 0 1
-8.641958 16.805477 4.384128 19.399177 -1.095826 1.342831 0.007836 -0.013149 -244344.000000 0 1 0
-8.433258 18.141577 4.747128 20.561418 -1.135655 1.337819 0.008355 -0.014327 708035.000000 0 1 0
-7.038158 18.350377 4.994128 20.278396 -1.204557 1.321958 0.002384 -0.011374 314020.000000 0 1 0
-6.758758 19.800777 5.540628 21.643709 -1.241859 1.311922 0.004091 -0.011118 -217328.000000 0 1 0
-7.023558 20.965977 4.807628 22.627767 -1.247548 1.356699 0.009936 -0.008399 -2378.730000 0 1 0
-8.395158 21.162577 4.515328 23.210376 -1.193140 1.375009 0.007406 -0.011452 226815.000000 0 1 0
-8.662458 22.270677 3.417828 24.139238 -1.199841 1.428731 0.031072 -0.014726 249824.000000 0 1 0
-8.040358 22.119677 2.133828 23.632196 -1.222152 1.480380 0.023773 -0.015674 256133.000000 0 1 0
-8.634058 21.064477 1.357328 22.805734 -1.181796 1.511244 0.036168 -0.012994 -376924.000000 0 1 0
-7.987858 21.023777 -0.034572 22.490138 -1.207698 1.572334 0.021403 -0.006220 837776.000000 0 1 0
-6.637158 20.571977 -0.185072 21.616946 -1.258709 1.579358 0.021068 -0.003061 804157.000000 0 1 0
-5.669058 21.600877 0.081128 22.332548 -1.314139 1.567164 0.023098 -0.006950 -128042.000000 0 1 0
-4.296658 21.230077 -0.505372 21.666399 -1.371108 1.594124 0.015267 -0.005135 -141630.000000 0 1 0
-4.233658 21.381177 -1.900772 21.879021 -1.375316 1.657782 0.010776 -0.010371 -289878.000000 0 1 0
-2.913858 21.498277 -2.352972 21.822075 -1.436078 1.678832 0.014569 0.001122 -367315.000000 0 1 0
-2.800058 21.705177 -3.912272 22.231980 -1.442501 1.747692 0.013685 -0.007883 381937.000000 0 1 0
-1.595458 22.316477 -4.376372 22.797440 -1.499425 1.763963 0.024846 0.003296 571410.000000 0 1 0
-1.693358 22.561277 -5.805972 23.357826 -1.495881 1.821996 0.029683 -0.006069 29581.500000 0 1 0
-0.399258 23.208177 -6.349072 24.064281 -1.553595 1.837795 0.031570 -0.014645 -80843.900000 0 1 0
0.672642 22.318377 -6.235072 23.182721 1.540667 1.843103 0.039824 -0.002933 -1075560.000000 0 1 0
1.878642 22.895477 -6.644072 23.913926 1.488927 1.852334 0.037952 -0.004946 -294579.000000 0 1 0
3.024642 21.870677 -6.550672 23.030117 1.433371 1.859218 0.027120 -0.001030 -193484.000000 0 1 0
3.042142 20.958677 -7.551272 22.484272 1.426653 1.913300 0.034514 -0.008121 -66058.000000 0 1 0
4.107842 20.056477 -7.374272 21.760435 1.368776 1.916527 0.033676 -0.007132 182004.000000 0 1 0
4.110542 18.929877 -8.373772 21.103480 1.356970 1.978820 0.024656 -0.011457 109484.000000 0 1 0
4.388942 19.387677 -9.715572 22.125487 1.348171 2.025407 0.034680 -0.013186 -284007.000000 0 1 0
3.279742 19.270277 -10.598072 22.235544 1.402215 2.067611 0.027758 -0.015418 -456518.000000 0 1 0
3.545942 19.577577 -12.055272 23.263380 1.391616 2.115551 0.032795 -0.019315 -181460.000000 0 1 0
3.515842 20.950377 -12.409172 24.602175 1.404528 2.099476 0.045253 -0.020478 -73235.900000 0 1 0
3.847342 21.055177 -13.763372 25.447062 1.390064 2.142259 0.048093 -0.017756 -51013.100000 0 0 1
4.103142 22.527477 -14.147472 26.916054 1.390632 2.124234 0.044991 -0.019743 240795.000000 0 0 1
2.964542 23.316177 -14.410172 27.569652 1.444330 2.120791 0.046341 -0.017108 -270183.000000 0 0 1
3.381642 24.502777 -15.001672 28.928736 1.433652 2.115978 0.042005 -0.016046 -109890.000000 0 0 1
2.247842 25.353577 -15.619372 29.863380 1.482368 2.121196 0.035749 -0.008240 -107354.000000 0 0 1
1.384442 25.765477 -14.572672 29.633415 1.517116 2.084912 0.039309 -0.015015 -177967.000000 0 0 1
1.348842 27.160377 -14.499572 30.817902 1.521175 2.060644 0.024561 -0.013728 -1124480.000000 0 0 1
0.611742 27.825377 -13.349272 30.867927 1.548815 2.018020 0.026699 -0.015278 691996.000000 0 0 1
-0.817258 27.831477 -13.330672 30.870145 -1.541440 2.017318 0.015824 -0.022397 787643.000000 0 0 1
-1.566458 26.589777 -13.376572 29.806086 -1.511952 2.036203 0.006974 -0.017053 -257659.000000 0 0 1
-1.281058 25.388077 -12.439072 28.300638 -1.520380 2.025875 0.032175 -0.023955 -386441.000000 0 0 1
-1.922058 25.614277 -11.191172 28.018348 -1.495898 1.981684 0.018898 -0.019370 29959.500000 0 0 1
-2.020058 24.375077 -10.562072 26.641742 -1.488111 1.978441 0.036193 -0.017476 334930.000000 0 0 1
-3.050858 24.510277 -9.347372 26.408991 -1.446961 1.932584 0.030826 -0.011936 342447.000000 0 0 1
-2.701358 24.949577 -8.039272 26.351635 -1.462944 1.880815 0.036676 -0.012575 -348403.000000 0 0 1
-2.419658 26.323977 -7.943472 27.602632 -1.479135 1.862704 0.036407 -0.016568 -185991.000000 0 0 1
-2.523658 26.797477 -6.504172 27.690755 -1.476898 1.807898 0.034569 -0.013523 -203954.000000 0 0 1
-1.393758 26.389477 -5.754572 27.045558 -1.518030 1.785209 0.030559 -0.008841 -24621.200000 0 0 1
-1.347358 26.773577 -4.400272 27.166196 -1.520515 1.733489 0.032325 -0.013528 -478909.000000 0 0 1
-2.120558 25.980977 -3.339272 26.280386 -1.489357 1.698204 0.037516 -0.009617 -1302230.000000 0 0 1
-3.443158 25.936577 -3.679472 26.421580 -1.438815 1.710511 0.023674 -0.005554 -1073180.000000 0 0 1
-4.214658 25.202677 -2.665072 25.691261 -1.405099 1.674718 0.027224 -0.004864 453790.000000 0 0 1
-5.493158 24.581777 -3.264372 25.398714 -1.350944 1.699678 0.009671 0.000029 -8223.060000 0 0 1
-6.489658 25.561977 -3.534572 26.608712 -1.322170 1.704025 0.000181 0.002356 -847164.000000 0 0 1
-7.614658 24.890777 -3.987472 26.333130 -1.273915 1.722805 0.009468 -0.002067 -920144.000000 0 0 1
-8.804358 25.832177 -4.163472 27.607112 -1.242315 1.722186 0.006098 -0.001585 -197633.000000 0 0 1
-9.508158 26.048477 -2.917372 27.882599 -1.220806 1.675619 0.006950 -0.004752 -869329.000000 0 0 1
-10.801858 26.456077 -3.155972 28.750032 -1.183160 1.680791 0.018516 -0.004941 -998921.000000 0 0 1
-11.718358 26.458177 -1.929072 29.001317 -1.153861 1.637362 0.027881 -0.003567 -180942.000000 0 0 1
-12.155758 25.163577 -1.489872 27.985493 -1.120785 1.624059 0.031821 -0.000957 913015.000000 0 0 1
-11.083858 24.400277 -0.874772 26.814001 -1.144413 1.603426 0.020644 -0.000692 569174.000000 0 0 1
-11.532858 23.031377 -0.382272 25.760382 -1.106553 1.585636 0.031712 -0.010583 -208153.000000 0 0 1
-12.105958 23.039877 0.898528 26.042226 -1.087008 1.536287 0.039512 -0.007711 -44639.100000 0 0 1
-12.535458 21.758177 1.274228 25.143183 -1.048116 1.520096 0.048755 -0.018207 38687.900000 0 0 1
-13.503058 21.635777 2.501628 25.626111 -1.012839 1.473020 0.053124 -0.014963 87563.900000 0 0 1
-12.949758 21.924977 3.787628 25.743873 -1.037288 1.423133 0.050585 -0.017573 82887.900000 0 0 1
-12.627258 23.287577 4.033828 26.796094 -1.073937 1.419684 0.044342 -0.007951 -29310.100000 0 0 1
-12.431758 23.577277 5.524028 27.220424 -1.085566 1.366440 0.038371 -0.004484 -218316.000000 0 0 1
-11.336358 22.874077 6.101628 26.248167 -1.110676 1.336191 0.027418 -0.003532 491262.000000 0 0 1
-11.617458 22.590377 7.454228 26.473685 -1.095801 1.285365 0.020394 -0.003175 -111086.000000 0 0 1
-10.368758 22.098177 8.220228 25.756800 -1.132080 1.245966 0.016929 -0.010973 -165242.000000 0 0 1
-9.409058 23.122577 8.389328 26.335618 -1.184338 1.246592 0.026247 -0.015188 150981.000000 0 0 1
-8.193758 22.679577 8.972328 25.729430 -1.224105 1.214593 0.027759 -0.011792 199293.000000 0 0 1
-8.144658 22.397677 10.520728 26.051432 -1.222023 1.155081 0.016924 -0.015609 -89182.500000 0 0 1
-9.045558 21.356477 10.904128 25.628524 -1.170154 1.131317 0.013800 -0.013327 477985.000000 0 0 1
-8.547558 20.740777 12.125128 25.500183 -1.179891 1.075273 0.012169 -0.010721 265875.000000 0 0 1
-9.526858 19.693177 12.686028 25.288684 -1.120221 1.045293 0.008323 -0.009382 -155001.000000 0 0 1
-9.717758 18.659077 11.774128 24.108631 -1.090643 1.060566 0.011507 -0.015921 -64355.700000 0 1 0
-10.501858 17.649777 12.366228 23.973470 -1.034051 1.028820 0.006993 -0.014724 -218330.000000 0 1 0
-10.614158 16.445877 11.392828 22.647820 -0.997662 1.043680 0.008220 -0.025152 -389616.000000 0 1 0
-11.037058 15.272977 12.062528 22.373758 -0.945028 1.001384 0.000108 -0.022328 -25084.700000 0 1 0
-11.140758 14.214277 11.113128 21.205277 -0.906029 1.019169 0.006265 -0.015501 -77053.900000 0 1 0
-11.555058 12.927877 11.842128 20.997271 -0.841412 0.971594 -0.000534 -0.011168 567809.000000 0 1 0
-12.778958 13.085277 12.569828 22.192945 -0.797241 0.968679 0.008996 -0.011838 446641.000000 0 1 0
-13.130358 11.877177 13.176128 22.069979 -0.735328 0.931020 0.003231 0.000097 302795.000000 0 1 0
-13.900458 12.073077 14.519328 23.447661 -0.715158 0.903044 0.000218 0.012118 1190160.000000 0 1 0
-15.227358 12.618677 14.483328 24.512655 -0.691989 0.938683 0.011441 0.004161 744499.000000 0 1 0
-15.885458 12.820077 15.720328 25.764915 -0.679014 0.914553 0.002966 0.011852 99488.700000 0 0 1
-16.942458 13.941177 15.568928 26.903435 -0.688522 0.953667 0.012245 0.010250 -682572.000000 0 0 1
-17.909658 13.596177 14.666728 26.846318 -0.649334 0.992830 0.017862 0.005304 -962029.000000 0 0 1
-18.849858 14.638477 14.501728 27.926730 -0.660298 1.024791 0.041213 -0.001918 892824.000000 0 0 1
-20.168458 14.046977 13.829028 28.201530 -0.608361 1.058288 0.042211 -0.007875 757448.000000 0 0 1
-20.907758 13.185477 14.694428 28.756171 -0.562652 1.034448 0.055157 -0.005845 260455.000000 0 0 1
-21.941058 12.582577 13.925428 28.872977 -0.520685 1.067518 0.039936 -0.006731 298631.000000 0 0 1
-22.915058 11.693477 14.769528 29.664394 -0.471851 1.049635 0.051590 -0.002286 473787.000000 0 0 1
-23.719758 12.462477 15.695528 31.053017 -0.483764 1.040901 0.067652 -0.016245 182594.000000 0 0 1
-24.679858 11.682377 16.321028 31.811150 -0.442107 1.032050 0.059461 -0.011550 153088.000000 0 0 1
-25.560358 12.453077 17.404228 33.336439 -0.453358 1.021511 0.048039 -0.016097 -148351.000000 0 0 1
-26.563688 13.292477 16.965728 34.207534 -0.463968 1.051851 0.042620 -0.009242 -1168710.000000 0 0 1
-27.297518 13.631877 18.026328 35.439118 -0.463153 1.037173 0.035017 -0.004670 -697806.000000 0 0 1
-28.341548 14.685177 17.592428 36.447103 -0.478062 1.067080 0.030390 -0.005775 301973.000000 0 0 1
-27.710558 15.950277 17.241328 36.325607 -0.522287 1.076249 0.038283 -0.002921 592427.000000 0 0 1
-28.704578 16.900377 16.872928 37.339942 -0.532121 1.101932 0.046117 0.000721 295338.000000 0 0 1
-28.141378 18.405677 16.947528 37.655342 -0.579212 1.103953 0.045581 -0.001764 7397.720000 0 0 1
-27.843168 18.943077 18.230328 38.293956 -0.597415 1.074624 0.034034 -0.003105 405164.000000 0 0 1
-28.878038 18.905477 19.202028 39.497798 -0.579649 1.063113 0.029676 -0.007617 -28884.500000 0 0 1
-28.115668 19.004377 20.613628 39.706156 -0.594392 1.024935 0.019173 -0.008081 1259810.000000 0 0 1
-27.422228 17.832577 21.117628 38.934992 -0.576584 0.997527 0.020859 -0.005705 303339.000000 0 0 1
-26.506838 17.185877 20.256928 37.527456 -0.575219 1.000609 0.031611 -0.004176 -793324.000000 0 0 1
-25.967958 15.951877 20.953428 36.984367 -0.550861 0.968485 0.014497 -0.003781 -214800.000000 0 0 1
-26.979708 15.052977 21.363428 37.561853 -0.508916 0.965807 -0.001978 -0.002507 109774.000000 0 0 1
-26.512958 13.770377 21.617028 36.876227 -0.479033 0.944430 0.001973 0.005452 -257863.000000 0 0 1
-27.702408 12.821377 21.840528 37.534248 -0.433468 0.949755 0.003923 0.001645 -86635.500000 0 0 1
-28.512088 12.509677 20.737028 37.409297 -0.413459 0.983241 0.005700 -0.005088 -199484.000000 0 0 1
-29.497128 11.592877 21.119828 38.085725 -0.374472 0.982994 0.017651 -0.009157 -397996.000000 0 0 1
-30.562208 11.288677 20.034628 38.247472 -0.353823 1.019472 0.024317 -0.009194 -217214.000000 0 0 1
-30.112628 10.711177 18.818028 37.089323 -0.341747 1.038666 0.031193 -0.013900 105041.000000 0 0 1
-29.416808 9.484577 18.912028 36.234936 -0.311897 1.021687 0.036080 -0.013736 -4680.330000 0 0 1
-28.701278 9.050677 17.575528 34.850786 -0.305471 1.042216 0.039122 -0.020747 274013.000000 0 0 1
-29.557348 8.897077 16.437528 34.971233 -0.292384 1.081472 0.040240 -0.014732 410603.000000 0 0 1
-30.028828 10.097377 15.784328 35.395375 -0.324379 1.108569 0.039515 -0.015705 -505075.000000 0 0 1
-29.007768 11.060177 15.173128 34.554333 -0.364268 1.116189 0.043717 -0.009881 -462131.000000 0 0 1
-28.492218 10.474277 14.009228 33.433149 -0.352284 1.138428 0.045962 -0.014016 832849.000000 0 0 1
-27.400548 11.290577 13.508228 32.568994 -0.390857 1.143120 0.053491 -0.002573 627027.000000 0 0 1
-27.112308 11.341677 12.010128 31.748292 -0.396201 1.182846 0.065706 -0.003726 -291562.000000 0 0 1
-26.552978 10.208377 11.317728 30.616377 -0.367033 1.192151 0.077789 -0.000772 451935.000000 0 0 1
-27.417838 9.107077 11.151028 30.968082 -0.320693 1.202441 0.065710 -0.000702 -481686.000000 0 0 1
-26.780648 7.890077 10.433328 29.804542 -0.286512 1.213163 0.071818 -0.011121 -314296.000000 0 0 1
-26.340188 8.261577 9.128128 29.075451 -0.303931 1.251450 0.075822 -0.005619 354167.000000 0 0 1
-25.822228 7.138677 8.475628 28.099545 -0.269718 1.264396 0.082295 -0.020709 -164499.000000 0 0 1
-25.090108 7.385577 7.128428 27.108573 -0.286276 1.304709 0.073504 -0.004247 -468306.000000 0 0 1
-25.966798 7.765277 6.134328 27.788561 -0.290582 1.348213 0.068579 -0.012050 -86364.200000 0 0 1
-25.282278 8.194177 4.959928 27.035884 -0.313425 1.386294 0.057331 -0.002193 418433.000000 0 0 1
-26.281508 8.495877 3.781828 27.878304 -0.312661 1.434722 0.054269 -0.002051 129616.000000 0 0 1
-26.879668 7.371277 3.093528 28.043220 -0.267652 1.460259 0.060522 -0.015987 236735.000000 0 0 1
-26.091188 6.292477 2.578128 26.962791 -0.236653 1.475032 0.062386 -0.010222 -401762.000000 0 0 1
-25.099648 6.668177 1.463128 26.011491 -0.259670 1.514517 0.066138 -0.007871 -474998.000000 0 0 1
-24.029658 7.428477 1.937528 25.226192 -0.299819 1.493914 0.051045 0.004872 -21701.700000 0 0 1
-23.077358 7.646277 0.907828 24.328053 -0.319949 1.533472 0.053180 0.005842 -251272.000000 0 1 0
-21.990358 8.656577 1.257528 23.666296 -0.375023 1.517635 0.045081 0.009288 -206648.000000 0 1 0
-22.473958 9.959577 1.300528 24.616323 -0.417152 1.517940 0.044202 0.012872 396730.000000 0 1 0
-21.375558 10.790377 1.592728 23.997573 -0.467480 1.504377 0.054307 0.010754 -187989.000000 0 1 0
-21.722058 12.166977 2.117128 24.987304 -0.510580 1.485966 0.044969 0.005748 115358.000000 0 1 0
-20.598158 12.953777 2.532928 24.464263 -0.561385 1.467075 0.041847 -0.006141 1024340.000000 0 1 0
-20.966858 14.241777 2.975828 25.520441 -0.596665 1.453925 0.029812 -0.015901 -265110.000000 0 0 1
-19.847958 14.702877 3.920828 25.009777 -0.637571 1.413375 0.017818 -0.015632 172585.000000 0 0 1
-19.485458 13.824977 5.054128 24.420427 -0.617075 1.362326 0.019140 -0.015284 366834.000000 0 1 0
-18.466658 14.394677 5.865428 24.137677 -0.662113 1.325340 0.012742 -0.016712 -135698.000000 0 1 0
-18.099458 13.470177 6.983128 23.617793 -0.639799 1.270637 0.009879 -0.010765 -651565.000000 0 1 0
-17.001658 12.701277 6.623628 22.231762 -0.641618 1.268267 0.012988 -0.006259 -549428.000000 0 1 0
-16.729858 11.871777 7.661528 21.898088 -0.617151 1.213362 0.014252 -0.008168 -622984.000000 0 1 0
10.895742 -32.859332 -14.478672 37.524457 -1.250618 1.966921 0.046433 -0.006632 -335398.000000 0 0 1
12.149042 -33.032332 -13.886972 37.836255 -1.218360 1.946609 0.019060 -0.006599 -378269.000000 0 0 1
12.850442 -31.807632 -13.857072 36.998349 -1.186842 1.954689 0.021739 -0.009525 534190.000000 0 0 1
14.304742 -31.826432 -13.287072 37.337565 -1.148391 1.934634 0.050736 -0.007280 709431.000000 0 0 1
15.123042 -32.798232 -13.940272 38.713843 -1.138756 1.939155 0.036313 -0.004716 1445160.000000 0 0 1
16.531342 -32.444632 -13.734172 38.917437 -1.099558 1.931471 0.047257 -0.006272 2566720.000000 0 0 1
17.581142 -33.600032 -14.096772 40.457110 -1.088724 1.926700 0.031304 -0.009575 825144.000000 0 0 1
17.384342 34.251477 -13.242772 40.629424 1.101127 1.902803 0.030627 -0.013183 -140455.000000 0 0 1
17.873042 33.051577 -13.843072 40.043515 1.075073 1.923782 0.017178 -0.002562 -140438.000000 0 0 1
17.700442 31.862977 -12.878272 38.657533 1.063727 1.910425 0.020906 -0.011887 165586.000000 0 0 1
18.614642 31.912577 -11.801172 38.783826 1.042746 1.879980 0.019746 -0.014750 -14536.700000 0 0 1
18.384442 30.741177 -10.961572 37.458828 1.031820 1.867772 0.022333 -0.017630 401464.000000 0 0 1
19.474242 30.489677 -9.870672 37.500623 1.002395 1.837148 0.021509 -0.009503 1247190.000000 0 0 1
20.793742 30.132977 -10.306172 38.034106 0.966769 1.845199 0.024577 -0.009138 618333.000000 0 0 1
21.676342 30.010977 -9.225272 38.152696 0.945273 1.815015 0.019687 -0.004654 -48678.700000 0 0 1
22.979342 29.216877 -9.449372 38.353184 0.904336 1.819737 0.002800 0.004750 -91025.300000 0 0 1
23.868142 29.973377 -10.246672 39.662146 0.898309 1.832109 0.002571 -0.001911 525639.000000 0 0 1
25.123242 29.256077 -10.271372 39.907348 0.861252 1.831107 0.002497 0.009686 1049430.000000 0 0 1
26.254842 29.893077 -11.130072 41.313331 0.850105 1.843573 0.010831 -0.001461 113897.000000 0 0 1
26.640742 31.196677 -10.742472 42.407105 0.864007 1.826905 0.000394 -0.009553 -241401.000000 0 0 1
27.591842 31.658177 -11.633872 43.576335 0.853921 1.841051 -0.004352 -0.004151 -479597.000000 0 0 1
27.994742 33.111877 -11.511172 44.862112 0.868944 1.830289 -0.003453 -0.002529 -134137.000000 0 0 1
27.069942 34.034277 -12.102572 45.139629 0.898883 1.842231 0.016342 -0.005059 195090.000000 0 0 1
27.441142 -33.544832 -11.951272 44.956701 -0.885149 1.839871 0.034695 -0.003831 -200100.000000 0 0 1
26.315342 -32.529332 -12.225672 43.590386 -0.890608 1.855077 0.030433 -0.012492 -14922.900000 0 0 1
25.302142 -32.563332 -11.242972 42.743110 -0.910230 1.836964 0.025605 -0.007150 -267586.000000 0 0 1
24.219442 -31.677332 -11.402972 41.473637 -0.918037 1.849329 0.014149 -0.006623 53910.900000 0 0 1
24.478042 -30.178432 -11.133272 40.421060 -0.889317 1.849836 0.027109 -0.018765 -188107.000000 0 0 1
25.379642 -29.529232 -12.055772 40.760808 -0.860827 1.871056 0.021369 -0.006798 328691.000000 0 0 1
25.678342 -28.241332 -11.526672 39.872475 -0.832896 1.864071 0.024643 -0.002840 -229885.000000 0 0 1
26.602642 -27.462232 -12.465872 40.215330 -0.801296 1.885966 0.012950 0.009503 630322.000000 0 0 1
27.891642 -27.987932 -12.789572 41.531208 -0.787121 1.883835 0.010866 0.013863 481815.000000 0 0 1
27.863642 -28.960032 -13.855472 42.509295 -0.804690 1.902802 0.017983 0.003406 230933.000000 0 0 1
29.206642 -29.687432 -14.241572 44.013566 -0.793562 1.900299 0.019850 0.010957 666497.000000 0 0 1
29.598842 -30.710532 -13.337972 44.689258 -0.803829 1.873875 0.021287 -0.001404 -299322.000000 0 0 1
30.804642 -31.271332 -13.767372 46.003943 -0.792916 1.874719 0.017760 -0.009857 -233647.000000 0 0 1
31.421942 -32.252432 -12.666972 46.776169 -0.798440 1.845020 0.008463 -0.011739 216927.000000 0 0 1
32.594442 -32.878132 -13.168972 48.133056 -0.789731 1.847925 0.000189 -0.010717 -70042.500000 0 0 1
33.273742 -33.699632 -12.252172 48.917511 -0.791757 1.823958 0.006763 -0.010469 -697546.000000 0 0 1
32.644242 33.949477 -11.702672 48.530054 0.804996 1.814340 -0.003521 -0.005275 -371794.000000 0 0 1
31.865842 34.284877 -10.554072 47.982009 0.821950 1.792569 0.001727 -0.010893 202925.000000 0 0 1
31.301642 33.130377 -9.868372 46.634745 0.813773 1.784018 0.001033 -0.007317 92176.600000 0 0 1
30.553142 33.551477 -8.547872 46.176425 0.832137 1.756984 -0.006864 -0.003635 478181.000000 0 0 1
29.319942 34.226877 -8.751772 45.910039 0.862463 1.762599 0.002813 -0.011215 -81211.800000 0 0 1
28.621142 34.362177 -7.510072 45.346777 0.876299 1.737177 0.012132 -0.009502 823749.000000 0 0 1
27.537342 -33.437632 -7.704172 43.996986 -0.881864 1.746811 0.022089 -0.013767 -101773.000000 0 0 1
28.166942 -32.189732 -7.945972 43.505103 -0.851950 1.754472 0.019479 -0.020927 55457.500000 0 0 1
27.327842 -31.170932 -8.429572 42.302431 -0.850999 1.771408 0.016933 -0.015319 504988.000000 0 0 1
26.262542 -30.528132 -7.457672 40.954913 -0.860368 1.753913 0.024847 -0.021322 681352.000000 0 0 1
25.513042 -29.506032 -8.088372 39.836454 -0.857846 1.775257 0.028172 -0.021961 8351.830000 0 0 1
24.488642 -29.048332 -7.223472 38.673993 -0.870362 1.758678 0.027231 -0.028336 9237.940000 0 0 1
23.427942 -28.186232 -7.935472 37.500719 -0.877328 1.784017 0.045412 -0.032029 -200059.000000 0 0 1
22.577942 -28.939532 -8.818772 37.749579 -0.908260 1.806588 0.056827 -0.032840 100494.000000 0 0 1
21.787942 -28.098832 -9.595672 36.828464 -0.911234 1.834389 0.071996 -0.033359 -880328.000000 0 0 1
20.683942 -28.849632 -10.327272 36.969978 -0.948780 1.853905 0.051897 -0.018677 -785684.000000 0 0 1
20.989642 -29.761232 -11.284772 38.126659 -0.956544 1.871279 0.043110 -0.016379 42721.700000 0 0 1
19.849142 -30.502232 -11.727472 38.234909 -0.993898 1.882543 0.033130 -0.012322 518007.000000 0 0 1
19.603842 -31.828832 -10.929472 38.946612 -1.018757 1.855244 0.032866 -0.019329 180870.000000 0 0 1
20.646942 -32.776332 -11.102872 40.297121 -1.008656 1.849932 0.024567 -0.013846 -150792.000000 0 0 1
20.299342 -34.058432 -10.659272 41.056792 -1.033312 1.833428 0.019144 -0.012730 -94562.100000 0 0 1
21.465342 33.874577 -10.749472 41.518659 1.005986 1.832687 -0.001049 -0.004386 681965.000000 0 0 1
22.512742 34.043777 -9.776872 41.968912 0.986527 1.805912 0.005005 -0.006981 116126.000000 0 0 1
23.711642 33.415177 -10.167072 42.215938 0.953652 1.814022 0.011452 -0.009827 245256.000000 0 0 1
24.899542 33.866277 -9.259472 43.042418 0.936814 1.787615 0.019762 -0.009282 -364535.000000 0 0 1
24.848042 33.560877 -7.832872 42.486605 0.933476 1.756218 0.016812 -0.019915 -10364.800000 0 0 1
24.806742 32.181677 -7.491372 41.317738 0.914094 1.753116 0.000804 -0.001180 -367488.000000 0 0 1
24.864142 32.105277 -5.903472 41.034441 0.911826 1.715164 -0.001309 0.004219 -216261.000000 0 0 1
26.083942 32.624677 -5.321372 42.107703 0.896351 1.697510 0.007960 -0.009157 1022300.000000 0 0 1
27.089742 31.634977 -5.093172 41.959103 0.862643 1.692481 0.001770 -0.006390 17287.500000 0 0 1
26.721042 30.511677 -4.104072 40.765426 0.851534 1.671642 0.006274 0.007249 -764206.000000 0 0 1
26.366242 31.037277 -2.809672 40.821386 0.866591 1.639679 0.014059 0.003903 29760.000000 0 0 1
26.392442 30.075977 -1.759772 40.052743 0.850538 1.614747 0.013713 0.010457 67636.100000 0 0 1
25.157442 29.118877 -1.751272 38.521071 0.858255 1.616275 0.028905 0.015835 422106.000000 0 0 1
23.944942 29.771577 -1.387672 38.231305 0.893446 1.607101 0.016494 0.020956 -511825.000000 0 0 1
22.915942 28.844377 -1.287972 36.861869 0.899438 1.605744 0.021793 0.019428 -133621.000000 0 0 1
21.683242 29.552777 -0.647172 36.659903 0.937801 1.588451 0.042422 0.010959 189087.000000 0 0 1
21.721942 29.666777 0.799428 36.777704 0.938786 1.549058 0.057305 0.000928 -566712.000000 0 0 1
20.534942 30.168777 1.317428 36.518141 0.973163 1.534713 0.040986 -0.005184 -471110.000000 0 0 1
19.859842 29.431577 2.479028 35.591806 0.977198 1.501088 0.048406 -0.014870 -275271.000000 0 0 1
19.236042 28.245877 2.001628 34.232462 0.972922 1.512291 0.066165 -0.010686 103670.000000 0 0 1
18.740242 27.423577 3.010328 33.351332 0.971324 1.480412 0.067745 -0.013913 -667538.000000 0 0 1
17.941842 26.256877 2.445628 31.895367 0.971353 1.494044 0.042372 -0.005668 -397230.000000 0 0 1
18.646042 25.169477 1.839228 31.377703 0.933197 1.512147 0.036633 -0.007671 -51909.900000 0 0 1
19.562042 24.609277 2.754628 31.557535 0.899170 1.483396 0.039089 -0.006159 -657131.000000 0 0 1
20.694942 23.851177 2.048528 31.644206 0.856133 1.506015 0.045434 0.000633 -685249.000000 0 0 1
20.307342 22.733577 1.335328 30.512076 0.841709 1.527018 0.036529 -0.000869 -647328.000000 0 0 1
21.379142 21.934777 0.974528 30.645585 0.798226 1.538991 0.013877 -0.003955 -656367.000000 0 0 1
21.130642 20.885177 -0.094172 29.710327 0.779556 1.573966 0.039668 -0.006619 -233292.000000 0 0 1
20.952542 21.426077 -1.385872 30.000108 0.796572 1.617008 0.031789 -0.000340 302102.000000 0 0 1
21.088942 20.409477 -2.323672 29.439594 0.769026 1.649809 0.071871 -0.017356 6217.530000 0 0 1
20.925042 20.969877 -3.727172 29.857745 0.786468 1.695954 0.051798 -0.006234 -69117.100000 0 0 1
21.928142 21.948777 -3.974772 31.279243 0.785868 1.698215 0.047683 -0.002338 643137.000000 0 0 1
21.662642 22.531677 -5.255572 31.694914 0.805060 1.737383 0.040231 -0.007510 -262974.000000 0 0 1
22.731142 23.584977 -5.588572 33.229326 0.803831 1.739781 0.029401 0.009971 -351954.000000 0 0 1
22.723042 24.866877 -4.893772 34.038908 0.830416 1.715066 0.007637 0.017065 40509.300000 0 0 1
23.110342 24.909977 -3.538972 34.163127 0.822857 1.674573 0.028917 0.009763 34855.500000 0 0 1
21.936142 24.785277 -2.515572 33.193861 0.846304 1.646653 0.031019 0.002387 -450687.000000 0 0 1
20.963042 25.790477 -2.581672 33.335610 0.888286 1.648319 0.035957 -0.001289 523488.000000 0 0 1
19.931842 25.650577 -1.601872 32.523783 0.910205 1.620069 0.043121 0.005331 570593.000000 0 0 1
18.794942 24.614377 -1.881172 31.026702 0.918663 1.631464 0.039180 -0.010176 -699915.000000 0 0 1
18.068742 24.882577 -3.020972 30.899003 0.942728 1.668722 0.037652 -0.007959 -206900.000000 0 0 1
17.494242 23.699877 -3.527472 29.667756 0.934918 1.689977 0.033345 -0.012547 23323.300000 0 0 1
16.940142 23.923477 -4.968972 29.732001 0.954657 1.738710 0.032200 -0.013729 -254200.000000 0 0 1
16.364942 22.780377 -5.544472 28.591924 0.947842 1.765950 0.025762 -0.021537 154569.000000 0 0 1
16.014942 23.049377 -6.898972 28.902387 0.963562 1.811822 0.025849 -0.016821 -57583.300000 0 0 1
15.158842 22.007777 -7.625372 27.789909 0.967630 1.848755 0.031185 -0.016700 -282468.000000 0 0 1
15.966742 20.854077 -7.758772 27.386638 0.917360 1.858035 0.017122 -0.009658 634828.000000 0 0 1
15.292842 19.822477 -8.473872 26.431196 0.913683 1.897160 0.029392 -0.007996 -25207.000000 0 0 1
16.181642 18.581477 -8.672772 26.121520 0.854323 1.909237 0.022122 -0.000194 2037.630000 0 0 1
17.262542 18.820877 -9.548972 27.265430 0.828558 1.928605 0.015476 -0.004269 79349.900000 0 0 1
18.061442 17.675977 -9.752372 27.088090 0.774613 1.939090 0.013317 -0.003402 -997250.000000 0 0 1
19.361842 17.962877 -10.430072 28.395991 0.747935 1.946909 0.007958 -0.000993 -1181620.000000 0 0 1
19.221442 18.334677 -11.806972 29.069380 0.761791 1.989050 0.010723 -0.000541 124411.000000 0 0 1
20.434642 18.831077 -12.332372 30.401834 0.744582 1.988481 0.018077 0.008212 2041.680000 0 0 1
20.367542 19.203277 -13.836672 31.225889 0.755984 2.029867 0.028895 -0.000747 -137842.000000 0 0 1
20.727342 18.135277 -14.725172 31.230461 0.718799 2.061788 0.029845 0.000163 324016.000000 0 0 1
20.262042 18.377377 -16.027172 31.704079 0.736661 2.100785 0.036078 -0.004732 -88282.800000 0 0 1
20.429842 17.182477 -16.945272 31.618954 0.699274 2.136395 0.038337 -0.012333 -29131.300000 0 0 1
21.725342 17.143677 -17.512072 32.750097 0.668065 2.134971 0.046188 -0.015625 195152.000000 0 0 1
21.957042 16.064777 -18.383172 32.834887 0.631651 2.165022 0.051449 -0.027111 -692829.000000 0 0 1
22.973942 16.374877 -19.468372 34.277633 0.619238 2.174823 0.058624 -0.021963 695441.000000 0 0 1
24.288442 16.664577 -18.937672 35.018167 0.601344 2.142179 0.075272 -0.019578 1049140.000000 0 0 1
25.308642 16.821077 -19.883172 36.315514 0.586597 2.150184 0.078813 -0.024372 575008.000000 0 0 1
26.764742 16.982677 -19.356172 37.140600 0.565414 2.119005 0.055411 -0.017717 530246.000000 0 0 1
26.839242 18.315277 -18.942372 37.611272 0.598821 2.098598 0.052393 -0.016241 1001270.000000 0 0 1
28.157542 18.661477 -18.456172 38.493223 0.585288 2.070842 0.047300 -0.021202 897397.000000 0 0 1
28.037842 19.841477 -17.404972 38.506336 0.615854 2.039806 0.037092 -0.019617 66075.200000 0 0 1
27.360642 19.495477 -16.197472 37.296602 0.619091 2.020044 0.032684 -0.023016 656232.000000 0 0 1
25.984342 19.893777 -16.263872 36.543973 0.653415 2.032026 0.030966 -0.019280 796075.000000 0 0 1
25.054342 19.332977 -15.121872 35.073567 0.657209 2.016560 0.030849 -0.006364 219341.000000 0 0 1
25.373742 19.827277 -13.827272 35.044845 0.663302 1.976385 0.030695 -0.008659 366649.000000 0 0 1
24.539042 19.308977 -12.764572 33.733300 0.666682 1.958860 0.036407 -0.004773 195454.000000 0 0 1
24.974742 19.797477 -11.350072 33.830489 0.670274 1.912930 0.041353 -0.006028 -178632.000000 0 0 1
24.777342 21.214277 -11.064572 34.443969 0.708081 1.897829 0.041762 -0.011772 -120727.000000 0 0 1
25.078342 21.629677 -9.761872 34.526227 0.711697 1.857444 0.030550 -0.008131 32646.400000 0 0 1
24.165342 21.186977 -8.587372 33.265519 0.719821 1.831899 0.039237 -0.006600 -964112.000000 0 0 1
24.204442 19.790077 -8.335172 32.357028 0.685394 1.831334 0.048867 -0.010103 527359.000000 0 0 1
23.304942 19.373477 -7.289172 31.170242 0.693539 1.806832 0.037245 -0.011634 327877.000000 0 0 1
21.803942 19.473577 -7.603872 30.206804 0.729002 1.825261 0.023282 -0.018313 -783049.000000 0 0 1
21.240942 20.765377 -7.766972 30.703491 0.774077 1.826542 0.044445 -0.007130 285068.000000 0 0 1
19.849342 20.663877 -8.061272 29.765354 0.805501 1.845049 0.063417 -0.009497 163198.000000 0 0 1
19.324842 22.089677 -8.237372 30.483728 0.852059 1.844420 0.024290 -0.006774 -986912.000000 0 0 1
19.790742 22.827377 -9.346272 31.624602 0.856530 1.870815 0.026418 -0.006570 21672.200000 0 0 1
19.304842 22.548377 -10.659572 31.539384 0.862741 1.915562 0.019601 0.010443 36984.100000 0 0 1
17.801342 22.878577 -10.825272 30.943555 0.909565 1.928196 0.017623 0.003120 -114640.000000 0 0 1
17.481842 24.237177 -10.473172 31.666116 0.945929 1.907881 0.037888 -0.011185 401712.000000 0 0 1
16.081242 24.493377 -10.519972 31.132004 0.989827 1.915497 0.033760 -0.005521 462994.000000 0 0 1
15.714542 25.857477 -9.990672 31.864863 1.024707 1.889707 0.043625 -0.007028 -124776.000000 0 0 1
16.181042 26.927677 -10.767772 33.209499 1.029710 1.901002 0.042083 -0.004566 83554.700000 0 0 1
16.248942 28.122677 -10.039372 33.995619 1.046869 1.870580 0.047190 -0.024026 -239803.000000 0 0 1
19.781442 28.818977 33.920660 48.707803 0.969254 0.800412 0.036639 0.002136 289693.000000 0 0 1
18.479242 29.299277 33.679076 48.313665 1.008104 0.799463 0.043341 -0.008860 466476.000000 0 0 1
17.433842 28.305677 33.786046 47.398809 1.018758 0.777309 0.033244 -0.005399 636875.000000 0 0 1
16.015342 28.895877 33.840700 47.293296 1.064701 0.773386 0.027872 -0.009995 -153448.000000 0 0 1
15.539242 29.266577 32.563241 46.458210 1.082692 0.794117 0.034859 -0.012960 -361006.000000 0 0 1
14.206342 29.679577 32.761769 46.433081 1.124368 0.787570 0.021506 -0.011351 173358.000000 0 0 1
13.361242 29.731277 31.415441 45.270317 1.148441 0.803833 0.021363 -0.015036 47810.500000 0 0 1
12.958342 28.468777 31.037901 44.065193 1.143645 0.789271 0.007600 -0.016961 -641957.000000 0 0 1
11.570242 28.357677 30.995861 43.574898 1.183403 0.779417 -0.005536 -0.004294 -764050.000000 0 0 1
11.028642 26.880077 30.947991 42.449354 1.181450 0.753853 -0.014080 -0.003402 -220729.000000 0 0 1
11.305942 26.131077 29.790951 41.208716 1.162453 0.762765 -0.013858 0.001135 -269496.000000 0 0 1
12.650342 25.753577 29.671081 41.275307 1.114208 0.768638 -0.008427 0.000367 -571906.000000 0 0 1
12.872542 25.100477 28.274601 39.939822 1.096929 0.784233 0.014187 0.003191 -280832.000000 0 0 1
12.740542 25.989577 27.136461 39.675774 1.115005 0.817625 0.004367 -0.000569 81365.700000 0 0 1
12.878542 25.357477 25.835561 38.423101 1.100865 0.833355 0.026964 0.000231 181707.000000 0 0 1
11.772442 24.344977 25.375371 37.083389 1.120381 0.817182 0.028991 -0.004329 225636.000000 0 0 1
12.153342 23.643077 24.191131 35.943145 1.095985 0.832487 0.034006 -0.011206 -147613.000000 0 0 1
11.199642 22.690277 23.875471 34.789636 1.112292 0.814433 0.040947 -0.012760 -257562.000000 0 0 1
11.285142 22.330677 22.389011 33.575011 1.102866 0.840842 0.047771 -0.009638 64225.200000 0 0 1
11.067042 23.433877 21.564611 33.714366 1.129580 0.876784 0.051505 -0.013562 45235.000000 0 0 1
11.127542 23.066477 20.168911 32.598613 1.121318 0.903704 0.058283 -0.008902 -243946.000000 0 0 1
10.475442 24.201077 19.288611 32.672275 1.162295 0.939284 0.049629 -0.012346 1186920.000000 0 0 1
9.037442 24.221577 19.200611 32.202851 1.213679 0.931988 0.055764 -0.021871 908541.000000 0 0 1
8.435942 24.964777 20.276111 33.249450 1.244929 0.914965 0.054816 -0.023388 1267500.000000 0 0 1
7.019542 25.594977 19.912511 33.179586 1.303123 0.927116 0.057138 -0.022130 1518000.000000 0 0 1
7.317142 26.683577 19.034111 33.583497 1.303156 0.968217 0.060204 -0.030886 584947.000000 0 0 1
6.098342 27.234277 18.535911 33.503368 1.350509 0.984529 0.052297 -0.025628 531941.000000 0 0 1
6.302942 28.258477 17.408011 33.783242 1.351342 1.029456 0.053517 -0.020689 -15759.600000 0 0 1
6.664142 27.739777 16.185911 32.800758 1.335027 1.054731 0.055102 -0.017734 -194595.000000 0 0 1
6.916342 28.803777 15.289811 33.335742 1.335139 1.094308 0.044266 -0.018509 460986.000000 0 0 1
7.534242 28.274177 13.937711 32.410703 1.310377 1.126266 0.041440 -0.020455 351240.000000 0 0 1
6.452242 27.852577 13.145711 31.467558 1.343155 1.139824 0.028312 -0.018835 -187826.000000 0 0 1
6.753342 26.808077 12.227311 30.228923 1.324017 1.154375 0.017672 -0.018964 382465.000000 0 0 1
5.912242 26.925477 10.869611 29.632489 1.354649 1.195214 0.007163 -0.019532 174583.000000 0 0 1
6.406042 27.811077 9.921711 30.214794 1.344404 1.236216 0.007732 -0.015867 -116684.000000 0 0 1
6.450942 29.173877 10.176511 31.564080 1.353178 1.242524 0.005134 -0.012240 -184803.000000 0 0 1
6.828242 29.870477 8.855411 31.894962 1.346063 1.289457 0.008823 -0.003823 -507446.000000 0 0 1
5.817942 29.940077 7.881011 31.501857 1.378869 1.317934 0.001888 -0.008601 -328571.000000 0 0 1
5.832442 28.794977 6.974911 30.196316 1.370949 1.337706 -0.001522 -0.001365 368837.000000 0 0 1
4.421842 28.293177 6.566211 29.379784 1.415764 1.345398 0.001079 0.001216 443751.000000 0 0 1
3.552242 29.215077 5.912811 30.018336 1.449801 1.372527 0.008525 -0.001976 128586.000000 0 0 1
2.223842 28.722277 5.866311 29.399461 1.493525 1.369910 -0.001090 -0.002744 -435668.000000 0 0 1
1.342142 29.641077 5.123811 30.110600 1.525547 1.399798 -0.002431 -0.002453 -1206070.000000 0 0 1
1.715742 29.861477 3.775911 30.148119 1.513403 1.445221 0.000066 -0.001744 302768.000000 0 0 1
0.812842 30.705577 3.041111 30.866512 1.544330 1.472112 -0.002937 -0.006755 1119850.000000 0 0 1
-0.520258 30.020177 2.569611 30.134442 -1.553468 1.485421 0.016853 -0.011068 215205.000000 0 0 1
-0.263158 29.132977 1.522911 29.173942 -1.561764 1.518572 0.019197 -0.004581 85080.400000 0 0 1
-1.346958 28.250477 1.231611 28.309374 -1.523153 1.527277 0.024793 -0.011732 69153.900000 0 0 1
-1.606058 27.966477 -0.246989 28.013645 -1.513431 1.579613 0.032875 -0.012639 116594.000000 0 0 1
-2.316858 29.003677 -0.903889 29.110104 -1.491084 1.601852 0.033432 -0.013865 5668.960000 0 0 1
-1.465758 29.678877 -1.783389 29.768518 -1.521449 1.630741 0.017354 -0.009051 -882423.000000 0 0 1
-2.129958 30.974377 -2.407689 31.140741 -1.502139 1.648190 0.014715 -0.005540 1398510.000000 0 0 1
-3.431658 30.828377 -3.042389 31.167632 -1.459938 1.668566 0.016209 -0.006969 1216600.000000 0 0 1
-3.427158 29.891277 -4.058589 30.359612 -1.456641 1.704882 0.011206 -0.008402 14148.000000 0 0 1
-4.843758 29.699477 -4.714289 30.458915 -1.409127 1.726196 0.010336 -0.004281 709469.000000 0 0 1
-5.327658 30.757677 -5.516989 31.699461 -1.399284 1.745728 0.010634 -0.007189 -20726.200000 0 0 1
-6.257458 30.304077 -6.493489 31.617373 -1.367169 1.777645 0.010824 -0.002771 -153404.000000 0 0 1
-7.024958 31.444877 -7.150989 33.004045 -1.351000 1.789199 0.015123 -0.004586 -409264.000000 0 0 1
-8.021858 32.021677 -6.336789 33.613880 -1.325335 1.760448 0.020093 0.000263 -183844.000000 0 0 1
-8.348558 33.206477 -7.020989 34.952294 -1.324488 1.773046 0.016046 -0.010213 163142.000000 0 0 1
-9.420358 34.088577 -6.326689 35.927723 -1.301176 1.747814 0.029322 -0.004659 817964.000000 0 0 1
-10.777158 33.630377 -6.352389 35.881782 -1.260677 1.748771 0.036748 -0.002243 190697.000000 0 0 1
-11.506758 -34.296132 -5.664089 36.615735 1.247086 1.726110 0.038604 -0.002337 -50414.500000 0 0 1
-13.031258 -34.441932 -5.859489 37.287987 1.209088 1.728592 0.046395 -0.006344 197584.000000 0 0 1
-13.452358 -34.322632 -7.230389 37.567107 1.197259 1.764471 0.053746 -0.005631 186748.000000 0 0 1
-14.823758 34.315577 -7.442189 38.114155 -1.163026 1.767319 0.044886 -0.009629 -493081.000000 0 0 1
-15.216658 34.147677 -8.915589 38.433036 -1.151596 1.804906 0.063707 -0.011745 201222.000000 0 0 1
-16.589458 33.845877 -9.099589 38.775715 -1.115062 1.807678 0.071321 -0.019487 675914.000000 0 0 1
-17.516858 -33.965432 -8.969089 39.254751 1.094647 1.801317 0.062281 -0.021405 -1089390.000000 0 0 1
-18.931158 34.402177 -9.133089 40.315157 -1.067731 1.799323 0.061653 -0.022740 -639909.000000 0 0 1
-19.451358 33.566077 -8.111389 39.633717 -1.045591 1.776911 0.051171 -0.022359 128618.000000 0 0 1
-19.650458 34.227977 -6.894289 40.065274 -1.049635 1.743733 0.044362 -0.019783 -764308.000000 0 0 1
-20.075958 33.243577 -5.745789 39.258039 -1.027511 1.717684 0.032036 -0.019277 -271589.000000 0 0 1
-19.716758 33.789777 -4.469489 39.376083 -1.042588 1.684549 0.026679 -0.025568 -293826.000000 0 0 1
-20.796858 34.215477 -3.716889 40.212230 -1.024647 1.663360 0.016011 -0.018159 -492239.000000 0 0 1
-21.553658 -33.421432 -4.087289 39.978222 0.998011 1.673213 0.030280 -0.031168 -424707.000000 0 0 1
-22.298358 -33.517032 -5.235589 40.595808 0.983751 1.700125 0.038132 -0.024656 -222624.000000 0 0 1
-23.209058 -32.458632 -5.473289 40.276297 0.950051 1.707112 0.031983 -0.024634 181074.000000 0 0 1
-23.720458 -32.602832 -6.966989 40.916302 0.941813 1.741904 0.031509 -0.022453 -477269.000000 0 0 1
-22.892558 -32.015632 -7.903589 40.143949 0.950045 1.768972 0.048532 -0.026207 -243805.000000 0 0 1
-23.159058 -32.494532 -9.189389 40.947301 0.951593 1.797144 0.027487 -0.017735 -15416.300000 0 0 1
-24.355158 -31.998832 -10.036389 41.446690 0.920212 1.815379 0.011369 -0.014479 -1092690.000000 0 0 1
-25.584548 -32.391232 -9.483889 42.352157 0.902269 1.796641 0.012231 -0.010856 337270.000000 0 0 1
-26.734538 -31.898832 -10.211689 42.854984 0.873249 1.811396 -0.001246 -0.004811 977328.000000 0 0 1
-26.962438 -30.393332 -10.192689 41.888168 0.845145 1.816595 0.001920 0.000518 -797026.000000 0 0 1
-26.033458 -29.679032 -10.996389 40.981782 0.850741 1.842449 -0.007253 0.014115 138069.000000 0 0 1
-26.453278 -29.654032 -12.328989 41.606989 0.842383 1.871634 -0.002198 0.011620 -136569.000000 0 0 1
-25.468408 -28.875632 -13.192789 40.700020 0.848014 1.900906 0.001118 0.012470 200819.000000 0 0 1
-24.153958 -29.405032 -13.217189 40.283541 0.883129 1.905092 0.010423 -0.000893 184870.000000 0 0 1
-23.246758 -28.802432 -14.136689 39.621179 0.891734 1.935633 0.028023 0.001200 772478.000000 0 0 1
-21.963458 -29.733532 -14.154389 39.583117 0.934582 1.936479 0.051077 -0.011538 266171.000000 0 0 1
-22.060758 -31.049932 -14.701489 40.827798 0.953063 1.939156 0.056953 -0.009888 -377851.000000 0 0 1
-22.853758 -31.941932 -14.002689 41.697201 0.949758 1.913270 0.038369 -0.008074 -413030.000000 0 0 1
-22.794158 -33.328332 -14.640789 42.950018 0.970939 1.918649 0.036538 -0.013037 -201186.000000 0 0 1
-23.535658 -34.251732 -13.912089 43.825273 0.968755 1.893830 0.024158 -0.022640 -321581.000000 0 0 1
-23.481658 33.405577 -14.579689 43.357677 -0.958109 1.913745 0.027055 -0.030854 206053.000000 0 0 1
-24.096158 32.284577 -13.654089 42.536489 -0.929624 1.897578 0.018087 -0.026824 440797.000000 0 0 1
-23.247158 31.986177 -12.508489 41.472982 -0.942317 1.877173 0.020936 -0.021269 735516.000000 0 0 1
-23.112558 33.007677 -11.543189 41.915896 -0.959924 1.849791 0.044247 -0.026507 292475.000000 0 0 1
-22.232358 32.563777 -10.336989 40.761878 -0.971753 1.827191 0.039989 -0.026052 504989.000000 0 0 1
-23.023958 31.734777 -9.508389 40.343627 -0.943153 1.808720 0.038001 -0.018409 266475.000000 0 0 1
-22.213958 31.290777 -8.480589 39.300039 -0.953443 1.788298 0.032190 -0.016425 -333665.000000 0 0 1
-22.988058 30.248677 -7.714889 38.767935 -0.920946 1.771136 0.035378 -0.010832 -98708.000000 0 0 1
-23.260458 29.153677 -8.586389 38.271555 -0.897364 1.797077 0.032075 -0.000264 214763.000000 0 0 1
-23.850458 27.977877 -8.005789 37.625771 -0.864867 1.785210 0.020508 0.008296 80725.900000 0 0 1
-22.948058 27.111777 -7.077689 36.218166 -0.868382 1.767480 0.019034 0.014052 -123272.000000 0 0 1
-22.852558 27.643977 -5.720789 36.320192 -0.880001 1.728965 0.025428 0.016848 -72586.000000 0 0 1
-21.825458 27.159977 -4.883689 35.183311 -0.893871 1.710053 0.020245 0.015996 -891599.000000 0 0 1
-20.702958 28.164277 -4.876889 35.293385 -0.936914 1.709421 0.015942 0.009750 -1364130.000000 0 0 1
-19.970558 28.144277 -6.037589 35.033927 -0.953671 1.743996 0.011712 0.001627 243366.000000 0 0 1
-18.594958 28.390977 -5.677489 34.410085 -0.990942 1.736549 0.043418 -0.004455 693799.000000 0 0 1
-17.607858 28.042177 -6.800989 33.803163 -1.010110 1.773373 0.054024 -0.012276 -510810.000000 0 0 1
-17.649758 28.729977 -8.025489 34.660266 -1.019905 1.804464 0.057854 -0.013499 149545.000000 0 0 1
-17.818358 30.146577 -7.997889 35.920415 -1.036978 1.795334 0.057957 -0.011840 -221160.000000 0 0 1
-17.866358 30.823877 -9.401589 36.847090 -1.045492 1.828801 0.062460 -0.020593 -353678.000000 0 0 1
-16.644258 30.802477 -10.094089 36.437818 -1.075389 1.851490 0.070065 -0.025176 -166622.000000 0 0 1
-16.625358 31.591277 -11.262189 37.433250 -1.086359 1.876391 0.074868 -0.023471 -338682.000000 0 0 1
-15.203358 31.847777 -11.791989 37.208521 -1.125411 1.893273 0.077245 -0.025059 -98947.700000 0 0 1
-15.072658 32.408977 -13.070589 38.057419 -1.135476 1.921378 0.072374 -0.021612 -180110.000000 0 0 1
-15.333158 31.529777 -14.174089 37.817157 -1.118163 1.954984 0.067769 -0.031749 -312113.000000 0 0 1
-14.891558 32.064377 -15.520889 38.610631 -1.136010 1.984480 0.091563 -0.025385 -139222.000000 0 0 1
-13.495358 32.084077 -15.623689 38.152488 -1.172637 1.992709 0.076033 -0.031825 -553167.000000 0 0 1
-12.968058 32.785177 -16.706089 39.014508 -1.194135 2.013299 0.063108 -0.035406 -850793.000000 0 0 1
-11.493658 32.542277 -16.903489 38.429571 -1.231281 2.026235 0.073006 -0.039196 -1057360.000000 0 0 1
-11.152758 31.196077 -17.192389 37.325025 -1.227451 2.049482 0.068781 -0.050746 548986.000000 0 0 1
-9.835258 30.968877 -17.714789 37.008343 -1.263285 2.069936 0.059496 -0.043993 536374.000000 0 0 1
-9.670258 31.206877 -19.225589 37.907867 -1.270304 2.102690 0.061699 -0.047746 -316855.000000 0 0 1
-10.265558 30.184277 -19.978089 37.624411 -1.242972 2.130562 0.051404 -0.057474 191761.000000 0 0 1
-9.667858 30.083177 -21.241489 38.074478 -1.259850 2.162641 0.051591 -0.051875 -427712.000000 0 0 1
-10.748058 29.653277 -22.286489 38.620269 -1.223067 2.185929 0.055878 -0.051359 473431.000000 0 0 1
-11.705358 30.626677 -22.610489 39.827666 -1.205733 2.174515 0.062355 -0.050720 -435295.000000 0 0 1
-12.799858 30.687977 -21.748889 39.731631 -1.175639 2.150044 0.062123 -0.051606 -970411.000000 0 0 1
-13.744058 31.877877 -21.870789 41.029619 -1.163730 2.132996 0.075060 -0.046209 -255387.000000 0 0 1
-14.509258 31.821877 -23.037589 41.879362 -1.143004 2.153273 0.056206 -0.038673 -109250.000000 0 0 1
-15.359258 32.985777 -23.085589 43.091910 -1.135019 2.136167 0.052347 -0.026916 614194.000000 0 0 1
-16.006458 33.169877 -24.465989 44.215745 -1.121198 2.157156 0.050393 -0.019348 293147.000000 0 0 1
-14.964258 33.284477 -25.416189 44.472105 -1.148286 2.179139 0.043761 -0.020461 238022.000000 0 0 1
-15.453058 33.145777 -26.739389 45.303802 -1.134540 2.202133 0.042059 -0.002060 228442.000000 0 0 1
-15.725658 -34.450632 -27.495989 46.799271 1.142576 2.198800 0.031184 0.006881 360128.000000 0 0 1
-16.867658 -33.718032 -27.057689 46.406273 1.106944 2.193288 0.027038 0.009877 127479.000000 0 0 1
-17.209358 -32.808432 -28.090889 46.493583 1.087709 2.219543 0.029021 0.012743 -446584.000000 0 0 1
-18.590958 -32.181832 -27.946289 46.500421 1.046947 2.215536 0.030613 0.002478 -207434.000000 0 0 1
-19.639858 -33.106232 -28.119789 47.670423 1.035364 2.201706 0.017627 0.004418 -646743.000000 0 0 1
-20.852458 -32.674332 -27.548089 47.553488 1.002768 2.188675 0.021279 0.000473 1261650.000000 0 0 1
-22.044858 -33.716932 -27.828289 48.961423 0.991739 2.175322 0.000721 0.006140 670498.000000 0 0 1
-21.932258 33.984477 -27.114689 48.694712 -0.997689 2.161361 0.024543 0.006626 -244127.000000 0 0 1
-23.058658 33.140277 -27.296389 48.734716 -0.962902 2.165305 0.005626 0.008125 -3541.780000 0 0 1
-22.831258 31.646977 -27.008489 47.457939 -0.945828 2.176212 0.005735 0.008279 53936.200000 0 0 1
-22.484058 31.356477 -25.669589 46.343169 -0.948721 2.157840 0.014824 0.001647 -339777.000000 0 0 1
-22.721158 29.985877 -25.410889 45.399528 -0.922367 2.164841 0.004435 -0.000509 -78748.200000 0 0 1
30.881489 9.988277 -26.734082 42.049295 0.312819 2.259814 0.006977 -0.002071 -159807.000000 0 0 1
30.536379 8.625677 -26.634032 41.427581 0.275300 2.269082 0.002629 0.001661 -890003.000000 0 0 1
29.163219 8.498077 -26.525482 40.327557 0.283546 2.288625 0.008174 -0.004058 -909021.000000 0 0 1
28.835739 7.051277 -26.118722 39.539955 0.239826 2.292368 0.005883 -0.003059 -122796.000000 0 0 1
29.229879 6.691677 -24.762672 38.889000 0.225055 2.261076 -0.008042 0.000003 359007.000000 0 0 1
28.578329 5.504677 -24.298172 37.913369 0.190287 2.266449 -0.004168 0.000550 -27550.300000 0 0 1
28.559899 5.334277 -22.772172 36.914688 0.184648 2.235577 -0.003518 0.001362 122645.000000 0 0 1
29.800759 5.084277 -22.142972 37.473275 0.168982 2.202971 -0.014112 0.007012 224752.000000 0 0 1
29.513659 4.889377 -20.803272 36.438142 0.164174 2.178423 -0.012554 0.004502 531850.000000 0 0 1
30.721209 4.610577 -19.825372 36.852347 0.148966 2.138821 -0.020004 0.006856 414382.000000 0 0 1
31.462219 3.427477 -20.081472 37.481787 0.108512 2.136211 -0.015513 0.005597 492751.000000 0 0 1
32.495749 3.287777 -19.112672 37.842799 0.100832 2.100241 -0.009797 0.000881 -292687.000000 0 0 1
33.042729 1.872377 -19.136872 38.230193 0.056605 2.095053 0.002576 -0.011211 -1154540.000000 0 0 1
32.215449 0.884477 -18.634872 37.227355 0.027448 2.095053 0.026265 -0.007855 -813274.000000 0 0 1
32.775329 -0.442123 -18.701072 37.737883 -0.013489 2.089266 0.034108 -0.008786 -442634.000000 0 0 1
31.876999 -1.685923 -18.547272 36.918650 -0.052839 2.097148 0.013024 -0.007070 -143184.000000 0 0 1
31.453439 -2.071223 -17.238972 35.927579 -0.065755 2.071252 0.027501 -0.007506 964467.000000 0 0 1
30.073069 -1.705623 -17.014772 34.594813 -0.056655 2.084987 0.028742 -0.015043 787099.000000 0 0 1
29.665739 -1.947823 -15.544072 33.548000 -0.065565 2.052555 0.044550 -0.013648 -192043.000000 0 0 1
29.577929 -3.271423 -15.257872 33.441871 -0.110156 2.044573 0.041851 -0.015006 469207.000000 0 0 1
28.726359 -3.486623 -14.147172 32.210289 -0.120783 2.025519 0.047143 -0.011991 -71269.100000 0 0 1
28.587029 -4.989323 -13.766872 32.119127 -0.172791 2.013760 0.039140 -0.010489 -198333.000000 0 0 1
27.950389 -5.768223 -14.753372 32.127226 -0.203516 2.047910 0.030515 -0.012927 331049.000000 0 0 1
27.715649 -7.028123 -14.149572 31.902384 -0.248345 2.030327 0.010088 -0.006519 -420857.000000 0 0 1
26.911139 -7.949923 -15.087572 31.859779 -0.287244 2.064127 0.006442 -0.002024 -992262.000000 0 0 1
25.715209 -7.383523 -15.484372 30.912039 -0.279605 2.095455 0.027084 -0.008525 -496675.000000 0 0 1
24.948709 -8.394423 -16.165872 30.890773 -0.324568 2.121543 0.011830 0.000369 872386.000000 0 0 1
23.583609 -7.924723 -16.792872 30.016469 -0.324173 2.164525 0.018903 -0.002208 674418.000000 0 0 1
23.641909 -6.922323 -17.819372 30.403757 -0.284837 2.197022 0.008531 -0.000648 816014.000000 0 0 1
22.298309 -6.601723 -18.249872 29.561041 -0.287842 2.236182 0.013286 -0.003643 1189120.000000 0 0 1
21.947909 -6.891223 -19.754672 30.322380 -0.304233 2.280341 0.015503 0.000511 -505774.000000 0 0 1
22.752709 -6.162023 -20.565072 31.282239 -0.264481 2.288165 0.008894 -0.000390 -247698.000000 0 0 1
22.606509 -6.672323 -21.872672 32.155683 -0.287002 2.318848 0.018477 0.000388 -203110.000000 0 0 1
23.090009 -5.710023 -22.937272 33.043476 -0.242430 2.338041 0.021185 -0.002804 -240207.000000 0 0 1
22.963509 -6.099923 -24.300572 33.986021 -0.259639 2.367444 0.022466 -0.002382 76178.200000 0 0 1
23.156209 -4.962623 -25.122952 34.525358 -0.211117 2.385710 0.015335 -0.018547 -244564.000000 0 0 1
23.039309 -5.416523 -26.612392 35.614153 -0.230906 2.414699 0.019252 -0.017907 201450.000000 0 0 1
21.839509 -6.126123 -26.897342 35.184664 -0.273478 2.441003 0.029672 -0.017447 -132504.000000 0 0 1
21.668309 -6.287723 -28.305342 36.197285 -0.282424 2.468623 0.018134 -0.018182 1116860.000000 0 0 1
20.328309 -7.011523 -28.781952 35.927738 -0.332137 2.499938 0.028045 -0.024185 856435.000000 0 0 1
20.283909 -8.371923 -28.505042 35.973094 -0.391438 2.485528 0.022384 -0.011974 437247.000000 0 0 1
19.335909 -8.979623 -29.387242 36.305936 -0.434765 2.513983 0.012652 -0.007779 117399.000000 0 0 1
19.237809 -10.503023 -29.081982 36.416596 -0.499734 2.495748 0.021093 0.001469 -38255.400000 0 0 1
18.288609 -10.867323 -28.080342 35.228930 -0.536153 2.493244 0.021690 0.001647 393535.000000 0 0 1
18.460409 -12.100123 -27.443722 35.218710 -0.580206 2.464244 0.021116 0.002178 -471530.000000 0 0 1
18.397309 -13.394323 -28.291282 36.307926 -0.629310 2.464191 0.023504 0.008364 -714504.000000 0 0 1
17.226809 -13.607123 -29.004072 36.375169 -0.668540 2.493703 0.032126 0.004512 -330775.000000 0 0 1
17.427209 -14.650723 -29.906852 37.586847 -0.699059 2.490915 0.028953 -0.002822 -550019.000000 0 0 1
16.360709 -14.823123 -30.982602 38.043651 -0.736131 2.522484 0.019647 -0.011255 -475468.000000 0 0 1
15.170309 -15.326823 -30.427532 37.294564 -0.790530 2.525029 0.019972 -0.008783 494447.000000 0 0 1
14.238809 -15.842223 -31.408812 37.950404 -0.838651 2.545664 0.022579 -0.015651 147374.000000 0 0 1
12.993109 -16.429423 -30.744202 37.201516 -0.901663 2.543522 0.029595 -0.013592 -261732.000000 0 0 1
13.219609 -17.654023 -30.142802 37.349847 -0.928054 2.509918 0.021428 -0.019083 101768.000000 0 0 1
12.056809 -18.030723 -29.443242 36.570181 -0.981400 2.506668 0.021143 -0.016012 76185.400000 0 0 1
12.228009 -19.361323 -28.688402 36.707076 -1.007487 2.467942 0.018912 -0.011133 -525910.000000 0 0 1
13.141509 -19.306723 -27.651432 36.194620 -0.973162 2.440233 0.031996 -0.008954 -507335.000000 0 0 1
13.033409 -20.468623 -26.846172 36.187722 -1.003792 2.406634 0.034076 -0.003949 457753.000000 0 0 1
13.987709 -20.661623 -25.596012 35.745132 -0.975681 2.368952 0.024038 0.003795 -91466.600000 0 0 1
15.316109 -21.041823 -25.856692 36.686646 -0.941597 2.352935 0.026628 0.010050 -127302.000000 0 0 1
15.947009 -21.144123 -24.606572 36.150580 -0.924609 2.319472 0.022853 0.028986 -625568.000000 0 0 1
17.476609 -21.266223 -24.596572 36.914434 -0.882903 2.300050 0.035567 0.018365 -18902.800000 0 0 1
18.122409 -22.457623 -25.047172 38.211613 -0.891826 2.285622 0.046990 0.007297 276336.000000 0 0 1
17.862309 -23.566823 -24.165872 38.189614 -0.922231 2.255943 0.052318 -0.002457 -689065.000000 0 0 1
18.781609 -24.805923 -24.291472 39.473513 -0.922740 2.233673 0.037523 -0.000695 383494.000000 0 0 1
20.118709 -24.587323 -23.826372 39.711395 -0.885023 2.214283 0.045124 0.003429 678524.000000 0 0 1
20.630209 -25.651273 -23.077972 40.201817 -0.893465 2.182243 0.049360 0.001002 -178583.000000 0 0 1
20.289509 -25.447243 -21.586572 39.053891 -0.897694 2.156443 0.052312 0.011403 -671811.000000 0 0 1
19.017209 -25.852163 -21.206172 38.466743 -0.936566 2.154701 0.038935 0.007778 -441636.000000 0 0 1
19.091709 -26.040583 -19.830472 37.892650 -0.938165 2.121554 0.021963 -0.000917 361184.000000 0 0 1
17.851409 -26.834803 -19.321372 37.577851 -0.983787 2.110835 0.016514 0.009027 -142294.000000 0 0 1
17.919909 -28.183523 -19.795572 38.823946 -1.004448 2.105842 0.021636 0.014820 32871.400000 0 0 1
16.994109 -29.095693 -19.211472 38.787108 -1.042168 2.088983 0.008294 0.027308 1409400.000000 0 0 1
15.497609 -28.952133 -19.744172 38.317544 -1.079322 2.112128 0.011888 0.021778 1131340.000000 0 0 1
14.848009 -27.876283 -19.099872 36.910102 -1.081379 2.114688 0.016793 0.020183 -1023660.000000 0 0 1
13.576409 -27.528583 -19.522672 36.376867 -1.112624 2.137292 0.019057 0.021523 -287230.000000 0 0 1
12.830509 -26.518393 -18.611972 34.846128 -1.120165 2.134261 0.011620 0.010409 -771753.000000 0 0 1
12.418009 -27.058013 -17.366972 34.466719 -1.140533 2.098877 0.014911 0.010075 -291792.000000 0 0 1
11.453309 -26.229953 -16.772772 33.174005 -1.159100 2.100873 0.017690 -0.005839 109130.000000 0 0 1
10.018709 -26.372213 -17.320272 33.103776 -1.207740 2.121411 0.027822 -0.003572 -537595.000000 0 0 1
9.296409 -27.597843 -17.001172 33.720973 -1.245882 2.099219 0.042603 -0.000525 1154530.000000 0 0 1
7.881609 -27.319393 -17.067472 33.162744 -1.289924 2.111405 0.041315 0.004608 1240010.000000 0 0 1
7.117009 -28.100703 -18.154272 34.203493 -1.322744 2.130308 0.048369 -0.000020 -66401.200000 0 0 1
7.236709 -27.560573 -19.412072 34.478742 -1.314018 2.168827 0.030878 0.003721 -253703.000000 0 0 1
6.444309 -28.219163 -20.351672 35.384189 -1.346280 2.183600 0.027213 0.004293 -36395.100000 0 0 1
6.508409 -27.441183 -21.658772 35.559532 -1.337923 2.225703 0.021425 -0.001946 -125663.000000 0 0 1
5.850009 -26.188863 -21.456672 34.357938 -1.351026 2.245293 0.022105 -0.007009 242933.000000 0 0 1
5.809209 -25.445013 -22.670872 34.571144 -1.346339 2.286004 0.011565 -0.007802 40439.600000 0 0 1
4.376309 -24.994523 -23.031072 34.268185 -1.397463 2.307815 0.009817 -0.005052 -169267.000000 0 0 1
3.478209 -25.973843 -23.474272 35.182096 -1.437676 2.301269 0.004895 0.000379 -381952.000000 0 0 1
2.250909 -25.304873 -23.729372 34.763289 -1.482078 2.322109 0.008649 -0.004573 5094.030000 0 0 1
1.268209 -26.358093 -24.295472 35.869588 -1.522719 2.314921 -0.005055 -0.003211 -578889.000000 0 0 1
1.696409 -27.107973 -25.471892 37.236236 -1.508298 2.324113 -0.017397 0.004324 -565573.000000 0 0 1
0.777009 -27.999053 -25.951832 38.184398 -1.543052 2.318075 -0.003892 -0.004444 -589096.000000 0 0 1
1.337009 -28.779823 -27.180092 39.608373 -1.524373 2.327077 -0.015611 0.002740 -338369.000000 0 0 1
1.551909 -28.045873 -28.371812 39.924167 -1.515518 2.361207 -0.016438 -0.001742 133979.000000 0 0 1
2.063509 -28.858793 -29.434372 41.273118 -1.499414 2.364793 -0.005051 -0.007505 768445.000000 0 0 1
3.555409 -29.337853 -29.390172 41.678925 -1.450196 2.353440 -0.019403 0.000576 281762.000000 0 0 1
3.986709 -30.280713 -28.395212 41.702560 -1.439891 2.319785 -0.024852 -0.006479 -418613.000000 0 0 1
5.122609 -30.929623 -28.885082 42.628988 -1.406665 2.315280 -0.006484 -0.008163 -281012.000000 0 0 1
5.674309 -32.074223 -28.046422 42.983198 -1.395696 2.281672 0.015961 -0.016424 -59115.400000 0 0 1
4.801609 -33.176873 -27.938352 43.638422 -1.427067 2.265586 0.018720 -0.021371 -81862.200000 0 0 1
5.437109 -34.307258 -27.390772 44.235783 -1.413621 2.238519 0.035831 -0.025775 61893.200000 0 0 1
4.397009 33.543261 -26.999502 43.283452 1.440455 2.244370 0.031663 -0.019891 -192612.000000 0 0 1
3.681109 33.040008 -28.074242 43.512708 1.459840 2.272077 0.032271 -0.022470 105133.000000 0 0 1
2.432209 32.537807 -27.598072 42.734976 1.496185 2.272862 0.034071 -0.024887 523257.000000 0 0 1
1.287009 32.676767 -28.633932 43.466419 1.531431 2.289966 0.045589 -0.024085 -465922.000000 0 0 1
1.151909 31.641867 -29.603452 43.346269 1.534408 2.322594 0.065994 -0.030085 120973.000000 0 0 1
0.153109 31.967977 -30.549662 44.218287 1.566007 2.333506 0.062074 -0.039814 91029.300000 0 0 1
-0.039491 30.895717 -31.614532 44.204361 -1.569518 2.367693 0.068996 -0.039929 594744.000000 0 0 1
1.097609 30.779667 -32.493522 44.770768 1.535151 2.382957 0.073313 -0.040477 743853.000000 0 0 1
0.885909 29.746187 -33.478392 44.793116 1.541023 2.414937 0.080363 -0.038796 -253150.000000 0 0 1
2.160909 29.584587 -34.312108 45.356787 1.497884 2.428731 0.083593 -0.032577 -33514.600000 0 0 1
2.508609 30.673127 33.572322 45.543766 1.489193 0.741962 0.076156 -0.034869 411304.000000 0 0 1
3.603809 30.351877 32.711273 44.768865 1.452615 0.751493 0.050001 -0.031020 334137.000000 0 0 1
3.141809 29.558387 31.451211 43.275257 1.464902 0.757187 0.056594 -0.021150 -91673.400000 0 0 1
2.714109 28.211117 31.645001 42.481050 1.474884 0.730381 0.058516 -0.023161 100172.000000 0 0 1
3.783809 27.286277 31.773701 42.052660 1.433004 0.714274 0.048431 -0.015528 -194560.000000 0 0 1
3.275809 25.843237 32.012591 41.272386 1.444712 0.683065 0.048314 -0.016562 -182321.000000 0 0 1
2.603809 25.234157 30.885441 39.968149 1.467974 0.687632 0.049460 -0.009265 231817.000000 0 0 1
2.899409 23.856387 30.897111 39.142882 1.449854 0.661060 0.047022 -0.005654 -534165.000000 0 0 1
1.953809 23.028487 30.047851 37.907808 1.486156 0.655643 0.035781 0.004555 -162444.000000 0 0 1
0.685009 22.920887 30.687871 38.309029 1.540919 0.641731 0.021034 0.002854 144221.000000 0 0 1
-0.206991 22.319787 29.743011 37.186858 -1.561523 0.643791 0.029751 0.004616 -530181.000000 0 0 1
-1.522991 21.886987 30.328191 37.432057 -1.501324 0.626269 0.026290 0.010033 -1028920.000000 0 0 1
-2.582091 22.801587 30.417971 38.102920 -1.458035 0.646311 0.037717 0.001493 -1017640.000000 0 0 1
-3.769391 22.112087 30.471451 37.837310 -1.401952 0.634568 0.019703 0.003045 -863640.000000 0 0 1
-4.981591 23.049687 30.668151 38.686429 -1.357946 0.655511 -0.000775 -0.007434 -356082.000000 0 0 1
-5.137991 23.533887 31.970531 40.029460 -1.355846 0.645706 0.000166 -0.008855 -11340.500000 0 0 1
-4.613191 24.828537 32.156181 40.887134 -1.387089 0.665737 0.005379 -0.011675 -104945.000000 0 0 1
-4.713891 25.450997 33.545947 42.371035 -1.387657 0.657179 0.013740 -0.012609 356619.000000 0 0 1
-6.056491 25.764217 33.924554 43.027332 -1.339914 0.662524 0.009780 -0.010064 492941.000000 0 0 1
-6.086891 26.082517 -33.417452 42.826091 -1.341529 2.465951 0.022859 -0.015229 557233.000000 0 0 1
-7.481691 26.437087 -32.787012 42.777137 -1.295008 2.444109 0.021017 -0.007381 497046.000000 0 0 1
-7.924291 27.717377 -33.263492 44.017125 -1.292329 2.427510 0.023985 -0.014636 1077570.000000 0 0 1
-9.336691 28.020737 -33.178622 44.420226 -1.249160 2.414223 0.018251 -0.010302 1313650.000000 0 0 1
-9.790491 28.471897 -31.777792 43.775915 -1.239597 2.383167 0.016760 -0.011705 -514063.000000 0 0 1
-9.154891 29.652187 -31.388332 44.139457 -1.271338 2.361882 0.014221 -0.016319 93724.600000 0 0 1
-9.171491 29.800837 -29.999962 43.268971 -1.272236 2.336905 0.024376 -0.015559 -459133.000000 0 0 1
-8.542891 31.086857 -29.449312 43.665039 -1.302609 2.310998 0.027184 -0.019327 -637140.000000 0 0 1
-7.152091 31.122177 -29.553932 43.510657 -1.344911 2.317515 0.018131 -0.018819 -705692.000000 0 0 1
-6.677991 32.384097 -29.130412 44.067065 -1.367435 2.293010 0.026096 -0.015963 -987808.000000 0 0 1
-5.176291 32.492797 -29.150462 43.958222 -1.412818 2.295803 0.018792 -0.019001 -1386670.000000 0 0 1
-4.568291 33.631344 -28.560082 44.357805 -1.435788 2.270325 0.023074 -0.024680 -205348.000000 0 0 1
-4.378391 -34.070472 -29.322522 45.163898 1.442987 2.277390 0.033360 -0.020342 268761.000000 0 0 1
-3.269291 -34.221429 -30.420162 45.904038 1.475552 2.295202 0.039303 -0.029741 103051.000000 0 0 1
-3.563491 33.783062 -31.492902 46.322744 -1.465703 2.318366 0.047728 -0.037705 243098.000000 0 0 1
-4.385391 34.246725 -32.599792 47.484906 -1.443437 2.327502 0.048661 -0.032730 545337.000000 0 0 1
-3.791891 -33.594873 -33.659762 47.707164 1.458401 2.353994 0.029154 -0.024279 -99683.800000 0 0 1
-3.787891 -32.282233 -33.137682 46.417633 1.453994 2.365852 0.016615 -0.023043 -351879.000000 0 0 1
-3.041991 -31.498003 -33.990372 46.440535 1.474518 2.391920 0.000067 -0.021430 -364718.000000 0 0 1
32.034469 19.765677 12.717311 39.731841 0.552835 1.244984 0.028696 0.004626 -111008.000000 0 0 1
32.781059 18.722977 13.289911 40.022112 0.518938 1.232305 0.047977 -0.001179 -211667.000000 0 0 1
32.253609 17.425577 13.198911 38.963538 0.495340 1.225208 0.051256 -0.000572 -414727.000000 0 0 1
33.249049 16.362977 13.674211 39.499751 0.457335 1.217295 0.075602 -0.011558 -909895.000000 0 0 1
34.363649 16.316477 12.865311 40.157242 0.443300 1.244673 0.079785 -0.013788 -991454.000000 0 0 1
35.103516 15.228077 13.337911 40.522229 0.409305 1.235393 0.083719 -0.016999 -317865.000000 0 0 1
-34.930860 14.680877 12.378811 39.861361 -0.397869 1.255028 0.080844 -0.026500 170712.000000 0 0 1
-34.027518 13.760377 12.901911 38.906031 -0.384285 1.232779 0.063541 -0.022971 -256475.000000 0 0 1
-34.631295 12.512577 13.148211 39.099445 -0.346713 1.227836 0.052112 -0.019761 -76635.800000 0 0 1
-33.999068 11.751377 14.346711 38.728021 -0.332784 1.191305 0.040909 -0.016581 20480.300000 0 0 1
-34.070618 12.486177 15.568611 39.485355 -0.351280 1.165503 0.050770 -0.016418 38160.800000 0 0 1
-33.521048 11.852877 16.704411 39.283440 -0.339874 1.131583 0.037842 -0.010113 -169447.000000 0 0 1
-33.328398 12.691277 17.968411 39.933876 -0.363841 1.104082 0.030173 -0.008501 -284381.000000 0 0 1
-34.443057 12.756777 18.798511 41.260678 -0.354708 1.097746 0.031476 -0.007420 -25341.400000 0 0 1
-34.070628 13.566577 19.921911 41.734185 -0.378945 1.073157 0.020061 -0.010834 2015180.000000 0 0 1
-35.342870 13.562877 20.952111 43.267321 -0.366421 1.065293 0.036363 -0.010848 1879210.000000 0 0 1
35.559812 12.340277 21.637511 43.416179 0.334025 1.049074 0.030929 -0.008902 617937.000000 0 0 1
34.228279 12.181777 22.131311 42.541341 0.341920 1.023675 0.028289 -0.008780 656229.000000 0 0 1
34.158019 10.801477 22.930811 42.535447 0.306271 1.001430 0.016170 -0.011192 -142016.000000 0 0 1
34.989429 10.661077 24.045561 43.773368 0.295758 0.989247 0.017543 -0.008445 -238295.000000 0 0 1
34.618269 11.463877 25.136981 44.291228 0.319785 0.967283 0.023982 -0.007244 -263945.000000 0 0 1
-35.325318 11.744177 26.161251 45.499614 -0.320962 0.958220 0.033564 -0.010988 1245050.000000 0 0 1
-34.427629 12.815377 25.820271 44.901914 -0.356350 0.958147 0.041061 -0.019632 469879.000000 0 0 1
-33.571618 12.554977 24.719651 43.540121 -0.357873 0.967033 0.026966 -0.017672 -767569.000000 0 0 1
-32.585608 13.728077 24.413261 42.968468 -0.398726 0.966520 0.019352 -0.014221 660433.000000 0 0 1
-31.515348 13.978377 25.334261 42.783606 -0.417470 0.937074 0.012260 -0.016809 301729.000000 0 0 1
-31.889218 14.365677 26.673721 43.986160 -0.423259 0.919256 0.009107 -0.017801 -867770.000000 0 0 1
-30.789918 14.866277 27.627221 43.957804 -0.449817 0.891181 0.000381 -0.008449 -219927.000000 0 0 1
-30.273158 16.173877 27.238341 43.817640 -0.490682 0.899975 -0.005773 -0.008368 -131448.000000 0 0 1
-29.674318 16.847877 28.313651 44.340489 -0.516376 0.878183 -0.015756 -0.016691 12757.000000 0 0 1
-29.070318 18.204177 27.793811 44.147156 -0.559470 0.889794 -0.010497 -0.007417 191845.000000 0 0 1
-30.060418 19.108077 27.301221 44.878770 -0.566225 0.916838 -0.000682 -0.019947 278809.000000 0 0 1
-29.523018 20.306777 26.764061 44.724588 -0.602510 0.929270 -0.006447 -0.020411 -108838.000000 0 0 1
-30.552538 21.230677 26.068071 45.428444 -0.607289 0.959625 -0.007266 -0.012799 -70644.000000 0 0 1
-31.280528 22.082477 26.931721 46.812657 -0.614708 0.957815 -0.002462 -0.015980 146578.000000 0 0 1
-32.208628 22.897477 26.221661 47.426424 -0.618012 0.984966 0.002102 -0.012837 -396121.000000 0 0 1
-31.710458 24.281777 25.716231 47.502446 -0.653495 0.998735 0.000271 -0.013026 -315495.000000 0 0 1
-32.623368 24.844477 24.786551 47.915606 -0.650855 1.027108 0.013177 -0.014157 -14543.200000 0 0 1
-33.032308 26.132977 24.994281 48.977341 -0.669311 1.035236 0.011431 -0.008072 -257035.000000 0 0 1
-34.069298 26.549977 23.951601 49.389245 -0.661987 1.064484 0.028556 -0.005707 -205841.000000 0 0 1
-33.626768 26.637277 22.609311 48.492113 -0.669933 1.085752 0.033779 -0.005764 -45067.800000 0 0 1
-34.698413 27.056377 21.771711 49.092105 -0.662276 1.111311 0.045695 -0.013119 238419.000000 0 0 1
-34.341824 26.814077 20.307611 48.070310 -0.662923 1.134643 0.043958 -0.019477 178331.000000 0 0 1
-34.367787 25.442977 19.987411 47.201552 -0.637274 1.133548 0.042619 -0.018504 -59938.700000 0 0 1
-33.950528 25.329577 18.657211 46.285174 -0.640983 1.155903 0.043390 -0.016404 -181374.000000 0 0 1
-34.205893 23.990977 17.847311 45.432770 -0.611645 1.167090 0.038062 -0.007471 414370.000000 0 0 1
-35.531759 23.867277 17.367311 46.192817 -0.591491 1.185348 0.039330 -0.014696 -112364.000000 0 0 1
-35.460956 22.959777 16.262411 45.266950 -0.574592 1.203326 0.030840 -0.003366 -251461.000000 0 0 1
34.388769 22.827377 15.435611 44.067388 0.586018 1.212934 0.018163 0.010563 -441350.000000 0 0 1
33.382479 22.140477 16.120011 43.179224 0.585624 1.188203 0.032036 0.002340 -403235.000000 0 0 1
32.149859 22.258977 15.433011 42.038712 0.605574 1.194892 0.032126 0.007265 -293345.000000 0 0 1
31.092269 21.263877 15.956011 40.908141 0.599836 1.170116 0.025011 0.001663 37893.500000 0 0 1
30.350649 21.538677 17.104011 40.958805 0.617181 1.140004 0.020530 0.004332 10459.400000 0 0 1
29.268629 22.429277 16.863511 40.547542 0.653867 1.141870 0.021173 0.008831 -356486.000000 0 0 1
28.618529 22.991577 18.088711 40.924740 0.676799 1.112970 0.024310 0.007814 -163226.000000 0 0 1
29.427769 23.873277 18.819611 42.309629 0.681563 1.109838 0.007080 0.005092 -326866.000000 0 0 1
28.706679 24.315477 19.939011 42.577929 0.702768 1.083437 0.009232 0.002259 418579.000000 0 0 1
29.688259 25.076777 20.881011 44.116370 0.701391 1.077744 0.017469 -0.003648 155782.000000 0 0 1
30.365879 26.169477 20.278711 44.923872 0.711308 1.102461 0.033625 -0.014730 163657.000000 0 0 1
31.123419 26.787277 21.336711 46.276135 0.710661 1.091591 0.045991 -0.018855 -450075.000000 0 0 1
32.352849 27.471677 20.727411 47.233732 0.703987 1.116504 0.047122 -0.017159 98547.300000 0 0 1
33.312099 28.004877 21.651711 48.608288 0.699059 1.109139 0.051764 -0.011258 619843.000000 0 0 1
32.847249 29.230977 22.256911 49.282471 0.727210 1.102217 0.029166 -0.012764 -476609.000000 0 0 1
33.520179 29.563177 23.578011 50.532232 0.722754 1.085361 0.035623 -0.018247 792630.000000 0 0 1
34.904799 29.886077 23.368411 51.551967 0.708092 1.100334 0.056551 -0.008375 641893.000000 0 0 1
35.489309 30.423377 24.553731 52.801124 0.708691 1.087136 0.050886 -0.001146 -383779.000000 0 0 1
-34.341863 31.189877 24.392201 52.413276 -0.737337 1.086730 0.056731 -0.007971 -881325.000000 0 0 1
-33.252178 30.373177 24.128511 51.092292 -0.740180 1.078951 0.046847 -0.011458 141865.000000 0 0 1
-32.037248 31.160477 24.090401 50.771134 -0.771526 1.076412 0.049475 -0.009475 1442560.000000 0 0 1
-30.728658 30.298277 23.967611 49.362763 -0.778346 1.063815 0.045165 -0.007367 437926.000000 0 0 1
-30.345998 29.994577 22.609711 48.288231 -0.779574 1.083517 0.020231 -0.000533 182610.000000 0 0 1
-30.956548 28.837577 22.000811 47.685946 -0.749975 1.091259 0.024671 0.003905 -81242.000000 0 0 1
-30.551658 27.465277 22.578311 46.877771 -0.732250 1.068269 0.013027 0.007475 466936.000000 0 0 1
-29.141458 27.217477 22.408411 45.740054 -0.751273 1.058812 -0.023125 0.004120 979172.000000 0 0 1
-28.577198 26.256577 23.301711 45.266255 -0.743102 1.030057 -0.014421 0.006485 128504.000000 0 0 1
-28.360948 26.679677 24.855501 46.194637 -0.754862 1.002662 0.013094 0.001677 635674.000000 0 0 1
-29.554888 26.885177 25.654111 47.480918 -0.738132 0.999998 0.015110 -0.002085 743427.000000 0 0 1
-29.196928 27.379077 26.946001 48.251025 -0.753278 0.978275 0.031355 -0.013611 -679970.000000 0 0 1
-30.362288 27.757977 27.840511 49.673613 -0.740619 0.975845 0.036121 -0.014819 -324795.000000 0 0 1
-31.054928 26.663477 28.452291 49.848595 -0.709460 0.963348 0.014773 -0.008846 943164.000000 0 0 1
-32.128978 27.213277 29.281701 51.285979 -0.702750 0.963134 0.019443 -0.000445 1108870.000000 0 0 1
-33.059198 26.112077 29.880941 51.649025 -0.668526 0.953861 0.002159 0.000574 303999.000000 0 0 1
-32.387428 25.370177 30.853141 51.424777 -0.664496 0.927337 -0.002212 -0.009764 391525.000000 0 0 1
-33.159648 24.161977 31.030891 51.442002 -0.629700 0.923263 -0.021257 -0.013192 615548.000000 0 0 1
-32.453318 23.239377 32.078361 51.208473 -0.621441 0.893836 -0.000934 -0.021127 936443.000000 0 0 1
-31.160528 22.734477 31.656681 49.899703 -0.630312 0.883556 0.004650 -0.016211 815634.000000 0 0 1
-30.810618 21.652677 32.491461 49.737588 -0.612580 0.858917 0.013152 -0.023511 297228.000000 0 0 1
-29.829688 21.942277 33.702498 50.071271 -0.634212 0.832417 0.022819 -0.029747 34501.600000 0 0 1
-30.382218 22.839277 -34.078465 51.049521 -0.644609 2.301719 0.047679 -0.031096 283468.000000 0 0 1
-30.097448 22.549477 -32.690132 49.829510 -0.642999 2.286356 0.038032 -0.018339 377308.000000 0 0 1
-28.773898 23.045477 -31.980792 48.803712 -0.675299 2.285368 0.046491 -0.025505 619031.000000 0 0 1
-28.663618 24.395877 -31.519782 49.094384 -0.705138 2.267932 0.032707 -0.020885 -261080.000000 0 0 1
-27.503218 24.503477 -30.732832 47.972433 -0.727782 2.266122 0.062416 -0.017062 -217930.000000 0 0 1
-27.320628 25.742877 -29.747482 47.895983 -0.755674 2.240923 0.037883 -0.008128 44494.900000 0 0 1
-27.202208 27.025577 -30.360142 48.908897 -0.782141 2.240494 0.028814 -0.009788 521959.000000 0 0 1
-28.442708 27.393877 -30.968462 50.184239 -0.766616 2.235842 0.036148 -0.004859 40473.600000 0 0 1
-28.444228 28.762077 -31.727842 51.409991 -0.790954 2.235916 0.031648 -0.008711 -89837.200000 0 0 1
-28.644578 29.883477 -30.895582 51.653374 -0.806563 2.211966 0.028073 -0.008970 75587.600000 0 0 1
-28.215698 31.037477 -31.621682 52.529814 -0.832985 2.216770 0.031240 -0.019063 -113415.000000 0 0 1
-28.409058 32.413877 -31.041822 53.116182 -0.851147 2.194954 0.028377 -0.007339 -44938.300000 0 0 1
-27.513318 32.757977 -29.997492 52.248610 -0.872197 2.182337 0.008226 -0.002983 -67749.000000 0 0 1
-27.951998 33.773777 -29.137332 52.639969 -0.879437 2.157382 0.002626 0.001417 -552895.000000 0 0 1
-27.178058 33.800677 -27.779052 51.505421 -0.893580 2.140452 -0.001746 0.001710 54579.200000 0 0 1
-25.869868 34.290177 -27.668362 51.094076 -0.924460 2.143038 -0.005700 0.005255 -453471.000000 0 0 1
-25.613208 -33.275032 -28.058062 50.502664 0.914779 2.159852 0.002959 0.012618 -912308.000000 0 0 1
-26.118608 -32.199632 -27.081902 49.521989 0.889296 2.149413 -0.001591 0.012209 1135180.000000 0 0 1
-27.555788 -32.022032 -27.019562 50.147669 0.860223 2.139808 -0.009440 0.004123 971120.000000 0 0 1
-27.851628 -31.084032 -25.989622 49.166968 0.840190 2.127746 -0.009354 0.003070 1024510.000000 0 0 1
-29.408128 -30.863632 -25.825672 49.843426 0.809543 2.115466 -0.015559 0.001460 1088570.000000 0 0 1
-29.830678 -29.924532 -26.807772 50.040020 0.786969 2.136164 -0.010274 -0.000001 -1174710.000000 0 0 1
-31.143438 -29.608832 -26.608632 50.543209 0.760143 2.125220 -0.011979 -0.002009 -1512100.000000 0 0 1
-31.837068 -28.704632 -27.643302 51.006931 0.733704 2.143554 -0.000685 -0.008886 -636701.000000 0 0 1
-33.223858 -28.766332 -27.575282 51.881816 0.713615 2.131169 0.008184 -0.004882 -791201.000000 0 0 1
-33.794678 -27.959932 -28.554662 52.337432 0.691195 2.147887 0.011636 -0.009369 119644.000000 0 0 1
-35.305129 -28.238532 -28.843032 53.626368 0.674645 2.138683 0.020935 -0.012776 1099390.000000 0 0 1
34.973629 -27.760732 -27.781862 52.589399 -0.670926 2.127368 0.015781 0.004738 531990.000000 0 0 1
33.581179 -27.748732 -28.082812 51.829838 -0.690584 2.143406 0.016575 -0.001924 428786.000000 0 0 1
32.708669 -27.212032 -26.944922 50.362492 -0.693922 2.135327 0.023719 0.006737 -338552.000000 0 0 1
32.502629 -28.123332 -25.872562 50.167043 -0.713289 2.112654 0.036432 0.004168 465603.000000 0 0 1
31.601999 -27.649232 -24.860772 48.797791 -0.718785 2.105359 0.031628 0.006355 324730.000000 0 0 1
31.519099 -28.486432 -23.527772 48.564251 -0.734901 2.076550 0.032005 0.011072 -135159.000000 0 0 1
30.882609 -29.747332 -23.619472 48.954252 -0.766676 2.074281 0.041592 0.002150 -108709.000000 0 0 1
30.517859 -30.321232 -22.372672 48.489724 -0.782166 2.050358 0.043390 0.004028 188522.000000 0 0 1
31.600009 -30.446632 -21.214772 48.740379 -0.766811 2.021124 0.033573 0.012595 -486534.000000 0 0 1
32.596959 -31.404732 -21.528272 50.122704 -0.766772 2.014748 0.027483 0.004453 792319.000000 0 0 1
33.714719 -31.408532 -20.621072 50.481747 -0.750000 1.991591 0.005138 0.012049 750588.000000 0 0 1
34.693789 -30.229132 -20.663372 50.442387 -0.716738 1.992859 -0.005799 0.015595 -1038730.000000 0 0 1
34.107349 -29.018732 -20.253672 49.148849 -0.704962 1.995541 -0.002322 0.021251 84263.500000 0 0 1
34.740849 -27.897732 -20.910172 49.218344 -0.676582 2.009587 0.001299 0.016384 533787.000000 0 0 1
33.879559 -26.605332 -20.695672 47.790994 -0.665708 2.018665 -0.002105 0.024097 1120440.000000 0 0 1
32.600529 -26.605332 -21.347272 47.184153 -0.684482 2.040279 0.014024 0.017341 550551.000000 0 0 1
31.749789 -25.633632 -20.762372 45.784368 -0.679215 2.041464 0.027964 0.028272 351176.000000 0 0 1
30.447919 -25.410832 -21.591872 45.155234 -0.695466 2.069366 0.021700 0.022584 388359.000000 0 0 1
29.676269 -26.596232 -21.736672 45.392989 -0.730718 2.070147 0.036323 0.015542 108824.000000 0 0 1
28.414969 -26.258732 -22.299872 44.656643 -0.745980 2.093660 0.034082 0.005602 700181.000000 0 0 1
27.555489 -27.514332 -22.741972 45.094798 -0.784651 2.099385 0.037096 0.005043 362730.000000 0 0 1
27.129039 -28.296832 -21.649172 44.781493 -0.806465 2.075377 0.039831 0.007184 -47734.800000 0 0 1
26.667109 -29.544832 -22.183572 45.564709 -0.836548 2.079286 0.037495 0.009096 -419003.000000 0 0 1
26.030309 -30.385432 -21.072872 45.220763 -0.862442 2.055561 0.042462 0.014789 -87891.100000 0 0 1
26.862229 -31.003932 -20.071872 45.669500 -0.856850 2.025841 0.054704 0.004607 342309.000000 0 0 1
27.716869 -32.073432 -20.500572 47.087189 -0.858134 2.021251 0.063024 0.004362 1037830.000000 0 0 1
28.723899 -32.496132 -19.329972 47.483774 -0.846938 1.990058 0.047694 -0.004970 704447.000000 0 0 1
28.057459 -33.160632 -18.265572 47.121966 -0.868566 1.968848 0.040933 -0.003074 164944.000000 0 0 1
27.307169 -32.279232 -17.421872 45.729115 -0.868648 1.961652 0.019085 -0.001417 171557.000000 0 0 1
26.787549 -33.009232 -16.147472 45.474422 -0.889072 1.933806 0.019167 -0.003323 -698309.000000 0 0 1
25.593709 -33.683232 -16.360272 45.356991 -0.921030 1.939815 0.025541 -0.002150 -487769.000000 0 0 1
25.234309 34.388477 -15.231472 45.291671 0.937743 1.913779 0.023142 0.005941 -1281090.000000 0 0 1
23.768309 34.353477 -14.884072 44.346697 0.965544 1.913070 0.010270 0.006467 -1017820.000000 0 0 1
23.375009 -33.248032 -14.536572 43.164043 -0.958027 1.914286 0.004357 0.013265 262412.000000 0 0 1
22.039009 -33.346832 -14.060372 42.372435 -0.986795 1.909037 0.011861 0.006491 153790.000000 0 0 1
-0.963158 -7.047023 -28.818252 29.682989 1.434962 2.899622 0.010132 -0.011951 1003.110000 0 0 1
-0.316758 -8.312923 -28.821352 29.997923 1.532710 2.860591 0.015202 -0.007634 55737.700000 0 0 1
-0.504058 -8.918123 -30.103052 31.400330 1.514336 2.853142 0.011441 -0.008998 -378160.000000 0 0 1
-0.258458 -10.428023 -30.133262 31.887677 1.546016 2.808334 0.018937 -0.011457 825851.000000 0 0 1
1.096742 -10.797423 -29.831472 31.744352 -1.469569 2.792669 0.010309 -0.011314 579626.000000 0 0 1
1.171642 -12.084623 -29.301072 31.716930 -1.474145 2.748766 0.018002 -0.010109 203161.000000 0 0 1
2.552842 -12.282223 -28.597452 31.227940 -1.365866 2.728204 0.014200 -0.001831 -447560.000000 0 0 1
3.497542 -12.275223 -29.632782 32.264774 -1.293225 2.734877 0.016078 -0.002744 -275550.000000 0 0 1
4.835942 -12.534023 -29.229502 32.169113 -1.202569 2.710764 0.041479 -0.014139 647599.000000 0 0 1
5.259842 -13.945723 -28.837962 32.461934 -1.210129 2.664562 0.044687 -0.020438 -885709.000000 0 0 1
5.029042 -14.206923 -27.486972 31.347433 -1.230576 2.640065 0.037108 -0.012685 94743.300000 0 0 1
5.742542 -15.321023 -26.921052 31.503231 -1.212188 2.595478 0.044001 -0.012482 264535.000000 0 0 1
5.175442 -16.783823 -27.213822 32.389412 -1.271689 2.568462 0.027498 -0.010670 116396.000000 0 0 1
5.442142 -17.112223 -28.597612 33.767862 -1.262884 2.580903 0.026001 -0.012547 193472.000000 0 0 1
5.092942 -18.453423 -28.851362 34.624673 -1.301511 2.555775 0.018072 -0.011188 -603438.000000 0 0 1
5.229642 -18.881523 -30.285862 36.070688 -1.300598 2.567389 0.018379 -0.011222 689820.000000 0 0 1
6.594342 -18.972823 -30.728042 36.710570 -1.236290 2.562638 0.012315 -0.015203 766552.000000 0 0 1
6.670342 -19.637223 -31.973222 38.110378 -1.243346 2.566172 0.008892 -0.017430 462197.000000 0 0 1
8.019642 -19.563623 -32.759062 38.989821 -1.181762 2.568439 0.011570 -0.015376 410436.000000 0 0 1
8.418942 -18.311023 -33.212712 38.849149 -1.139844 2.596183 0.015125 -0.019084 145235.000000 0 0 1
9.607142 -18.421823 -33.976462 39.825378 -1.090090 2.592764 0.014216 -0.013570 -94809.000000 0 0 1
9.930142 -17.099823 34.115965 39.432356 -1.044677 0.525293 0.018783 -0.014567 18363.500000 0 0 1
9.012442 -16.891723 33.050638 38.195537 -1.080677 0.525046 0.015997 -0.009950 374186.000000 0 0 1
9.023542 -15.565423 32.609881 37.243939 -1.045424 0.504170 0.013524 -0.007210 -263834.000000 0 0 1
8.111142 -15.316923 31.403011 35.868480 -1.083786 0.504318 0.021932 -0.008784 -305349.000000 0 0 1
8.426042 -16.059923 30.281011 35.296727 -1.087614 0.539631 0.023086 -0.009437 90871.500000 0 0 1
7.555842 -15.595523 29.274861 34.019532 -1.119635 0.534485 0.020404 -0.002445 -272364.000000 0 0 1
7.491642 -16.543223 28.033961 33.402184 -1.145573 0.574829 0.018694 0.002142 -492426.000000 0 0 1
6.983942 -17.815023 28.248211 34.119084 -1.197183 0.595390 0.027758 -0.002965 200457.000000 0 0 1
7.372442 -18.644523 27.185931 33.779372 -1.194243 0.635443 0.014669 -0.002618 -53047.400000 0 0 1
7.171242 -20.062823 27.591571 34.860269 -1.227509 0.657552 0.020329 -0.012432 -78882.600000 0 0 1
7.843042 -20.421223 28.795601 36.162498 -1.204104 0.649670 0.027582 -0.007306 344361.000000 0 0 1
7.416942 -21.632923 29.383971 37.234555 -1.240501 0.661358 0.012002 -0.005282 -323775.000000 0 0 1
7.767042 -21.655623 30.891981 38.517625 -1.226426 0.640124 0.019071 -0.010084 89442.500000 0 0 1
7.023842 -20.858023 31.860021 38.722763 -1.245978 0.604525 0.023695 -0.011660 501992.000000 0 0 1
6.891342 -19.447323 31.669071 37.797077 -1.230243 0.577425 0.009837 -0.005356 -338788.000000 0 0 1
6.250742 -18.652823 32.800909 38.247865 -1.247448 0.540235 0.007784 -0.004262 15486.400000 0 0 1
4.876242 -18.939223 33.026976 38.382978 -1.318801 0.534627 0.008855 -0.009094 52841.100000 0 0 1
4.386942 -18.029023 33.967912 38.705425 -1.332108 0.499962 0.011656 -0.002868 313051.000000 0 0 1
2.936042 -18.265123 -34.289069 38.961203 -1.411414 2.646832 0.018192 -0.005511 321405.000000 0 0 1
2.972242 -19.384623 -33.388762 38.722180 -1.418651 2.610520 0.007325 -0.004578 131209.000000 0 0 1
1.994942 -19.098623 -32.410482 37.671959 -1.466719 2.606722 0.016727 -0.012166 -157581.000000 0 0 1
1.687742 -20.382523 -31.600242 37.641347 -1.488181 2.567175 0.008178 -0.005999 -838334.000000 0 0 1
0.701442 -21.215623 -32.163182 38.536540 -1.537746 2.558230 0.004562 -0.008731 312069.000000 0 0 1
-0.103058 -21.963023 -31.224192 38.175059 1.566104 2.528585 0.008715 -0.010017 786985.000000 0 0 1
-0.971058 -21.113523 -30.218822 36.876836 1.524836 2.531252 0.016401 -0.013927 -792619.000000 0 0 1
-2.011958 -20.467623 -30.899802 37.118315 1.472812 2.554343 0.027120 -0.029833 -360339.000000 0 0 1
-2.569358 -19.348723 -30.154172 35.920033 1.438777 2.567123 0.040130 -0.013102 215959.000000 0 0 1
-1.762958 -18.008923 -30.107292 35.126605 1.473214 2.600425 0.024624 -0.005485 -304644.000000 0 0 1
-2.462558 -17.003223 -29.448942 34.094193 1.426967 2.613466 0.028920 -0.007406 -365466.000000 0 0 1
-2.203558 -15.805123 -30.135012 34.099509 1.432269 2.654586 0.037677 -0.012590 235872.000000 0 0 1
-3.148158 -14.662923 -29.648322 33.225520 1.359305 2.673290 0.031536 0.002167 103165.000000 0 0 1
-3.069258 -14.306223 -28.274032 31.835660 1.359460 2.664045 0.020985 -0.010482 -230444.000000 0 0 1
-3.978358 -13.295323 -27.921952 31.180576 1.280046 2.680331 0.014093 -0.013098 -88679.100000 0 0 1
-4.114458 -13.217023 -26.385972 29.796610 1.269005 2.658443 0.007543 -0.007118 -487503.000000 0 0 1
-4.621358 -14.309323 -25.618762 29.705801 1.258409 2.610820 0.005118 -0.000440 162020.000000 0 0 1
-4.683458 -14.157923 -24.210172 28.434380 1.251326 2.589521 0.004811 0.002722 -238675.000000 0 0 1
-5.539258 -12.977223 -23.722372 27.601497 1.167364 2.605008 0.018327 -0.004058 933844.000000 0 0 1
-6.969858 -13.208423 -23.849372 28.139543 1.085248 2.582128 0.019724 -0.004436 1216870.000000 0 0 1
-7.635158 -12.021623 -23.377072 27.373391 1.004954 2.594436 0.008021 -0.002834 716261.000000 0 0 1
-9.203158 -12.035423 -23.423872 27.896726 0.917971 2.567460 0.040021 -0.009979 675744.000000 0 0 1
-9.759258 -13.157123 -22.783872 28.061679 0.932598 2.518232 0.034241 -0.007282 -125686.000000 0 0 1
-10.159358 -14.103023 -23.770472 29.447294 0.946531 2.510225 0.044983 -0.016289 -267100.000000 0 0 1
-11.042658 -15.269823 -23.175772 29.870122 0.944690 2.458913 0.045924 -0.024854 -297019.000000 0 0 1
-10.476058 -16.352023 -22.500072 29.721872 1.001016 2.429538 0.042501 -0.019926 -481804.000000 0 0 1
-11.339058 -17.439623 -22.237872 30.450577 0.994288 2.389548 0.050474 -0.021175 -142768.000000 0 0 1
-12.025458 -18.207823 -23.364372 31.969209 0.987106 2.390348 0.036762 -0.011957 182221.000000 0 0 1
-13.136158 -17.516223 -23.912272 32.421805 0.927332 2.400212 0.044424 -0.006775 140793.000000 0 0 1
-13.905758 -18.349023 -24.772672 33.819255 0.922292 2.392786 0.029749 -0.010349 395322.000000 0 0 1
-15.173458 -17.710523 -25.393252 34.477727 0.862398 2.398695 0.048897 -0.013706 -78710.900000 0 0 1
-16.156158 -17.377923 -24.454372 34.073890 0.821816 2.371271 0.045918 -0.007184 -97739.600000 0 0 1
-17.353558 -17.126823 -25.177792 35.048470 0.778822 2.372254 0.028612 -0.007193 249649.000000 0 0 1
-18.254858 -15.964823 -24.728272 34.635283 0.718576 2.365937 0.049860 -0.008850 -310011.000000 0 0 1
-18.881758 -16.009623 -23.483772 34.122080 0.703267 2.329840 0.022825 -0.006711 195498.000000 0 0 1
-19.549658 -14.744123 -23.339872 33.827916 0.646176 2.332229 0.035309 -0.006373 314337.000000 0 0 1
-20.251958 -14.532223 -21.975172 33.230039 0.622422 2.293353 0.013827 -0.007144 616652.000000 0 0 1
-19.214158 -14.485923 -20.982072 31.926058 0.646005 2.287905 0.024080 -0.002114 978027.000000 0 0 1
-19.730258 -14.681323 -19.656272 31.483223 0.639716 2.245084 0.012734 -0.008144 -44428.500000 0 0 1
-20.452958 -13.506323 -18.990472 31.006165 0.583624 2.229983 0.010005 -0.006036 -925049.000000 0 0 1
-21.644058 -13.129823 -19.577872 32.002352 0.545276 2.229084 0.012381 -0.007778 -828019.000000 0 0 1
-22.146858 -12.047023 -18.854372 31.481763 0.498195 2.212921 0.012716 -0.003223 -81623.100000 0 0 1
-23.593358 -11.651923 -19.204972 32.576752 0.458727 2.201273 0.025778 -0.004226 -96152.800000 0 0 1
-23.717358 -11.028623 -20.498472 33.231475 0.435259 2.235517 0.015351 -0.007480 -395551.000000 0 0 1
-25.011658 -10.556323 -20.738572 34.162953 0.399374 2.223138 0.013822 -0.005576 -687476.000000 0 0 1
-25.219338 -9.517123 -21.832472 34.687858 0.360850 2.251575 0.017323 -0.006279 -252466.000000 0 0 1
-25.217978 -10.008323 -23.143372 35.661304 0.377807 2.277036 0.004108 -0.004878 122992.000000 0 0 1
-25.961318 -9.083323 -23.888772 36.430347 0.336567 2.285956 0.018725 -0.016667 -272873.000000 0 0 1
-26.107878 -9.575423 -25.352822 37.630780 0.351530 2.310035 0.009666 0.002792 558191.000000 0 0 1
-24.913558 -9.635123 -26.158802 37.387215 0.369025 2.345735 0.006230 -0.009404 450363.000000 0 0 1
-24.464058 -10.979123 -26.348902 37.593828 0.421844 2.347432 0.003969 0.007217 -66329.800000 0 0 1
-23.273458 -11.048023 -27.306152 37.541159 0.443207 2.385272 0.010808 0.001290 21326.600000 0 0 1
-23.752858 -10.963523 -28.651892 38.798557 0.432431 2.401607 0.019270 0.008893 -84629.700000 0 0 1
-22.675258 -10.817623 -29.519332 38.763117 0.445134 2.436469 0.026614 0.009010 -235455.000000 0 0 1
-23.041458 -11.112923 -30.993002 40.186714 0.449389 2.451560 0.028238 0.004140 169826.000000 0 0 1
-24.023358 -10.285323 -31.590942 40.998746 0.404526 2.450475 0.025126 0.002798 56903.100000 0 0 1
-23.477558 -9.301623 -32.449862 41.118238 0.377219 2.480276 0.022028 0.006857 -890225.000000 0 0 1
-24.408958 -8.185723 -33.002042 41.856159 0.323571 2.479103 0.034390 0.003773 -81906.000000 0 0 1
-25.373668 -8.512223 -34.014742 43.281447 0.323677 2.474941 0.043860 0.006134 904653.000000 0 0 1
-26.461118 -9.304223 -33.608842 43.775719 0.338116 2.446120 0.042366 -0.001663 -55461.000000 0 0 1
-27.630288 -8.597523 -32.830452 43.762870 0.301666 2.419145 0.021144 -0.001401 -147376.000000 0 0 1
-28.872298 -9.239423 -32.763922 44.636881 0.309712 2.395004 0.021136 -0.002407 155057.000000 0 0 1
-29.689558 -8.720523 -31.704692 44.302425 0.285689 2.368340 0.025777 -0.002373 -576219.000000 0 0 1
-31.147918 -9.091823 -31.822002 45.447705 0.284002 2.346459 0.030982 -0.004901 -896760.000000 0 0 1
-31.370548 -10.490023 -31.704412 45.818354 0.322702 2.334995 0.034788 -0.006671 -1226760.000000 0 0 1
-32.676028 -10.856423 -31.614362 46.744546 0.320770 2.313554 0.033140 -0.008241 -1662260.000000 0 0 1
-32.826868 -12.382223 -31.542122 47.178683 0.360696 2.303077 0.032470 -0.013949 -669680.000000 0 0 1
-34.076669 -13.002523 -31.543122 48.220883 0.364515 2.283839 0.017755 -0.016932 -508657.000000 0 0 1
-33.963258 -14.394023 -31.672102 48.619058 0.400864 2.280269 0.019080 -0.013180 -99898.300000 0 0 1
-35.221878 -15.150823 -31.226332 49.449084 0.406228 2.254263 0.019203 -0.018850 -270696.000000 0 0 1
-35.307417 -15.136123 -29.849742 48.648977 0.404996 2.231375 0.023198 -0.018938 -248465.000000 0 0 1
35.146657 -16.215923 -29.313062 48.554086 -0.432276 2.218955 0.018337 -0.023125 -400918.000000 0 0 1
35.272733 -16.161423 -27.783692 47.720969 -0.429639 2.192242 0.034499 -0.021477 113132.000000 0 0 1
-34.501392 -16.044923 -27.370112 46.871192 0.435300 2.194374 0.028594 -0.027012 89518.300000 0 0 1
-34.380845 -15.975023 -25.981952 45.959827 0.434969 2.171616 0.048397 -0.029007 1239540.000000 0 0 1
-32.869228 -15.587623 -25.752872 44.570961 0.442821 2.186821 0.043580 -0.026384 1562720.000000 0 0 1
-31.777938 -16.496323 -25.931862 44.208907 0.478820 2.197620 0.047447 -0.029198 253163.000000 0 0 1
-30.587658 -15.905023 -25.482372 42.871037 0.479505 2.207311 0.053732 -0.018452 224382.000000 0 0 1
-29.356948 -16.862523 -25.541512 42.409243 0.521380 2.217129 0.028045 -0.013830 -54597.400000 0 0 1
-29.397888 -17.938423 -24.627472 42.338342 0.547882 2.191592 0.031372 -0.019891 -329603.000000 0 0 1
-30.222458 -19.012823 -24.970672 43.570849 0.561539 2.181086 0.032966 -0.018368 -459873.000000 0 0 1
-30.082748 -20.280123 -24.047972 43.526544 0.593162 2.156145 0.031215 -0.013306 -627523.000000 0 0 1
-28.824398 -20.861023 -24.145272 43.000260 0.626474 2.167011 0.032424 -0.005818 -643705.000000 0 0 1
-28.807538 -22.069423 -23.384272 43.171262 0.653725 2.143210 0.023684 -0.004127 -202419.000000 0 0 1
-27.458878 -22.837123 -23.451272 42.725710 0.693764 2.151820 0.018602 -0.005447 691194.000000 0 0 1
-26.307228 -22.177023 -22.925772 41.345878 0.700417 2.158543 0.020960 -0.006807 337899.000000 0 0 1
-26.253228 -22.085423 -21.492072 40.483417 0.699390 2.130442 0.033458 -0.016524 -550639.000000 0 0 1
-25.967068 -23.357023 -20.670672 40.584674 0.732531 2.105193 0.032799 -0.008237 -103536.000000 0 0 1
-26.066658 -22.997523 -19.294672 39.757277 0.722926 2.077516 0.040555 -0.015106 119361.000000 0 0 1
-26.202668 -24.115723 -18.444172 40.104057 0.743947 2.048688 0.037706 0.007848 -101059.000000 0 0 1
-26.235678 -23.641423 -16.955772 39.175577 0.733432 2.018409 0.033684 0.006165 -85067.400000 0 0 1
-27.440268 -23.029623 -16.567272 39.469055 0.698228 2.003970 0.036710 -0.004512 -209132.000000 0 0 1
-27.210658 -21.933323 -15.712072 38.319183 0.678423 1.993285 0.037806 -0.008553 4464.730000 0 0 1
-28.520618 -21.418123 -15.085072 38.726232 0.644121 1.970919 0.026846 -0.005777 -263303.000000 0 0 1
-29.316218 -20.731423 -15.971072 39.297680 0.615519 1.989321 0.026034 -0.004248 -436539.000000 0 0 1
-30.415998 -20.141423 -15.295472 39.557064 0.584903 1.967813 0.035009 -0.000683 191675.000000 0 0 1
-31.407018 -19.418323 -16.237372 40.337629 0.553752 1.985083 0.033690 -0.008076 -89638.100000 0 0 1
-32.160648 -20.315023 -17.042572 41.682810 0.563384 1.992004 0.029439 0.002739 447660.000000 0 0 1
-33.151248 -19.652423 -17.836472 42.466018 0.535117 2.004261 0.023763 -0.002540 683974.000000 0 0 1
-33.998618 -20.588023 -18.779072 43.959370 0.544494 2.012181 0.009721 0.011076 1442690.000000 0 0 1
-35.139571 -21.355023 -18.288872 45.003436 0.546077 1.989294 -0.000024 0.022643 929527.000000 0 0 1
-34.944867 -22.196423 -17.198472 44.828700 0.565889 1.964540 0.018502 0.016896 -308529.000000 0 0 1
35.148871 -23.342623 -17.154372 45.547708 -0.586229 1.956946 0.012972 0.035760 1559630.000000 0 0 1
33.744439 -22.968323 -16.988672 44.213640 -0.597624 1.965181 0.017006 0.022751 1556670.000000 0 0 1
33.020479 -24.198223 -17.165572 44.391023 -0.632418 1.967836 0.002829 0.019648 716611.000000 0 0 1
31.557549 -24.141623 -16.608272 43.064272 -0.653034 1.966722 0.002588 0.010882 1259100.000000 0 0 1
30.558619 -23.562923 -17.463072 42.355630 -0.656852 1.995770 -0.003015 0.007018 15863.200000 0 0 1
29.270429 -24.041023 -17.221972 41.609195 -0.687619 1.997528 0.011669 0.002871 26268.400000 0 0 1
28.251439 -23.564123 -18.318072 41.097001 -0.695182 2.032783 0.030155 0.017491 127105.000000 0 0 1
27.853369 -22.239723 -18.093972 39.972581 -0.673799 2.040542 0.040063 0.009300 -216245.000000 0 0 1
26.889009 -21.820223 -18.998072 39.497692 -0.681709 2.072582 0.015458 -0.010450 -798802.000000 0 0 1
33.823169 29.228177 -17.952372 48.172407 0.712650 1.952680 0.029233 -0.009141 323811.000000 0 0 1
32.905149 29.296177 -19.060672 48.003376 0.727442 1.979118 0.032305 -0.020846 609861.000000 0 0 1
33.657989 29.353577 -20.255572 49.038566 0.717193 1.996601 0.038137 -0.018351 276901.000000 0 0 1
32.765209 29.576677 -21.492472 49.094451 0.734297 2.023922 0.046358 -0.012879 -673661.000000 0 0 1
31.903219 28.495177 -21.834372 48.026351 0.729032 2.042757 0.046467 -0.014045 593349.000000 0 0 1
31.048349 28.780177 -22.938572 48.150563 0.747505 2.067344 0.051310 -0.006582 -423537.000000 0 0 1
29.936059 29.772077 -22.798272 47.982345 0.782652 2.065918 0.048656 -0.007061 -1589920.000000 0 0 1
30.327719 31.097377 -22.599172 48.964681 0.797928 2.050527 0.057331 -0.002342 -90375.800000 0 0 1
29.253769 32.002777 -22.771372 48.974444 0.830245 2.054391 0.056895 -0.000738 -360281.000000 0 0 1
29.706979 33.443077 -22.638872 50.134445 0.844492 2.039313 0.053469 -0.002679 -95348.500000 0 0 1
30.204619 33.724377 -21.331072 50.046651 0.840400 2.011111 0.061424 -0.003536 1373520.000000 0 0 1
31.632369 33.486977 -21.191272 50.705566 0.813871 2.001960 0.061005 -0.002758 823177.000000 0 0 1
32.052889 33.354377 -19.747072 50.297605 0.805294 1.974258 0.041277 -0.003095 -439748.000000 0 0 1
31.887189 -34.342132 -19.088872 50.601976 -0.822449 1.957606 0.041904 -0.007003 180043.000000 0 0 1
32.096799 -34.431932 -17.710072 50.293232 -0.820483 1.930649 0.012201 -0.019476 -300687.000000 0 0 1
31.824809 -33.077032 -17.064872 48.970587 -0.804690 1.926737 0.014011 -0.017732 -201149.000000 0 0 1
32.918499 -32.219632 -17.118072 49.140215 -0.774670 1.926608 0.011133 -0.004619 -397558.000000 0 0 1
33.894989 -32.375632 -16.091272 49.557854 -0.762476 1.901487 0.003422 -0.003880 80273.600000 0 0 1
35.020559 -31.332132 -16.352172 49.754755 -0.729867 1.905676 0.008183 0.000582 -213134.000000 0 0 1
-35.451726 -31.703732 -17.533972 50.689167 0.729645 1.924007 -0.004003 -0.003862 -416508.000000 0 0 1
-34.299408 -30.890032 -17.738172 49.449836 0.733146 1.937682 -0.005775 0.003987 605454.000000 0 0 1
-33.212708 -31.543232 -18.638872 49.451664 0.759623 1.957255 -0.006467 -0.005342 -608773.000000 0 0 1
-32.599918 -32.654332 -18.082372 49.558372 0.786232 1.944290 -0.003499 -0.010068 -158251.000000 0 0 1
-31.876038 -33.404432 -19.031772 49.941428 0.808807 1.961762 0.012010 -0.002758 -693775.000000 0 0 1
-30.510768 -32.999332 -19.526872 49.001649 0.824562 1.980671 -0.007291 -0.003173 -2004510.000000 0 0 1
-30.522708 -31.858232 -20.306072 48.568706 0.806804 2.002138 -0.016211 -0.001694 304868.000000 0 0 1
-29.262198 -31.371332 -20.783172 47.669455 0.820169 2.021929 -0.001820 -0.000538 68482.700000 0 0 1
-28.423868 -32.346232 -21.615172 48.181020 0.849853 2.036022 -0.003895 0.007879 -982735.000000 0 0 1
-28.874098 -32.746932 -22.885372 49.293157 0.848165 2.053607 -0.009175 0.013060 -91750.700000 0 0 1
-28.048158 -33.779232 -23.432472 49.767625 0.877829 2.061036 -0.015274 0.009978 -173221.000000 0 0 1
-28.759998 34.381077 -24.563272 51.113113 -0.874188 2.072097 -0.015833 0.006842 183728.000000 0 0 1
-29.837998 33.522577 -24.146372 50.961913 -0.843485 2.064411 -0.018392 0.007305 302633.000000 0 0 1
-30.382078 32.720577 -25.166372 51.254786 -0.822440 2.084040 -0.018395 0.004388 177045.000000 0 0 1
-31.306058 33.433177 -26.175412 52.754136 -0.818243 2.089987 -0.007598 -0.000907 -185706.000000 0 0 1
-30.630968 34.169077 -27.247892 53.368808 -0.839944 2.106630 -0.005566 -0.005202 -96986.300000 0 0 1
-31.459668 -33.745732 -27.793252 53.860468 0.820443 2.112998 -0.006882 -0.004104 228105.000000 0 0 1
-30.829578 -33.002932 -29.019742 53.682417 0.819433 2.141925 -0.004600 -0.004185 -198372.000000 0 0 1
-30.692598 -33.738432 -30.244642 54.727103 0.832636 2.156331 0.003212 -0.003962 -170478.000000 0 0 1
-31.859798 -33.960432 -31.017952 55.950613 0.817302 2.158415 0.013034 -0.003151 3337.060000 0 0 1
-31.678108 34.154377 -32.324122 56.699849 -0.822995 2.177414 0.030532 -0.005758 280407.000000 0 0 1
-30.885008 -34.132532 -33.335922 56.834824 0.835305 2.197577 0.029229 -0.027493 110314.000000 0 0 1
-31.121738 34.046777 34.208210 57.427757 -0.830252 0.932692 0.027371 -0.038807 -462091.000000 0 0 1
-30.301668 34.438877 32.986719 56.500894 -0.849216 0.947362 0.034070 -0.037808 89782.000000 0 0 1
-28.988168 33.907577 32.900202 55.429784 -0.863455 0.935337 0.034978 -0.033030 110115.000000 0 0 1
-28.867588 32.535577 32.676061 54.402448 -0.845063 0.926500 0.042463 -0.034255 -702482.000000 0 0 1
-27.442628 32.116677 33.046296 53.634284 -0.863715 0.906962 0.031991 -0.030141 -539528.000000 0 0 1
-27.151078 31.948077 -34.332493 54.190228 -0.866389 2.256936 0.032113 -0.029552 1751440.000000 0 0 1
-25.694308 31.888777 -34.165423 53.332614 -0.892561 2.266089 0.034600 -0.030910 1627700.000000 0 0 1
-24.960258 30.530477 34.354295 52.300498 -0.885444 0.854145 0.048211 -0.023965 -449248.000000 0 0 1
-25.234088 29.510877 -33.468232 51.261815 -0.863362 2.282188 0.039930 -0.015766 69100.600000 0 0 1
-24.953658 28.295677 -33.995572 50.784144 -0.848078 2.304215 0.038727 -0.016462 -518213.000000 0 0 1
-24.958058 27.157477 -32.941582 49.452817 -0.827576 2.299793 0.050870 -0.027150 -731595.000000 0 0 1
-23.840858 27.152377 -32.083422 48.321673 -0.850247 2.296892 0.042830 -0.016636 -304455.000000 0 0 1
-23.899858 28.068777 -30.961342 48.142125 -0.865447 2.269367 0.031528 -0.008961 -1003290.000000 0 0 1
-22.688558 28.120577 -30.078832 47.013548 -0.891904 2.265022 0.041044 0.000475 -361255.000000 0 0 1
-21.577558 28.702777 -30.777832 47.293925 -0.926171 2.279405 0.030584 -0.001095 676193.000000 0 0 1
-20.355058 28.746477 -30.039132 46.292956 -0.954662 2.276924 0.009055 0.001093 546492.000000 0 0 1
-20.115058 29.968477 -29.141562 46.389178 -0.979657 2.250031 0.005585 0.000814 -600694.000000 0 0 1
-19.640858 31.022577 -29.934232 47.373219 -1.006383 2.254774 0.007881 0.006912 109495.000000 0 0 1
-19.354958 32.160877 -29.152282 47.526750 -1.029042 2.231138 0.007278 0.007569 64580.100000 0 0 1
-18.796558 33.330577 -30.039312 48.647695 -1.057311 2.236340 0.003175 0.018944 1445680.000000 0 0 1
-17.539658 33.082877 -30.745492 48.449991 -1.083302 2.258264 0.014904 0.015768 884420.000000 0 0 1
-17.219058 34.218377 -31.543852 49.622655 -1.104583 2.259678 0.019697 0.015579 -33759.800000 0 0 1
-15.750958 34.263977 -32.015582 49.468276 -1.139910 2.274694 0.016244 0.016996 -541862.000000 0 0 1
-14.943258 -34.169732 -30.974052 48.479516 1.158533 2.263877 0.019971 0.015205 70313.600000 0 0 1
-13.534058 -34.261332 -31.121732 48.224183 1.194587 2.272285 0.019134 0.021764 607496.000000 0 0 1
-12.908658 33.254577 -31.111672 47.333250 -1.200524 2.288014 0.021276 0.014075 -817814.000000 0 0 1
-12.918058 32.639677 -29.797512 46.044723 -1.193935 2.274627 0.032266 -0.000068 -10507.500000 0 0 1
-12.607058 31.257177 -29.916422 45.065967 -1.187420 2.296733 0.030484 -0.006967 -213576.000000 0 0 1
-12.616358 30.523277 -28.585862 43.680596 -1.178847 2.284224 0.024407 -0.020835 -467181.000000 0 0 1
-11.549958 30.982477 -27.812972 43.207370 -1.213965 2.270131 0.024404 -0.015427 -251939.000000 0 0 1
-11.510758 30.405377 -26.534382 41.964961 -1.208894 2.255313 0.027305 -0.029464 316550.000000 0 0 1
-10.239658 30.831177 -25.728212 41.440958 -1.250138 2.240610 0.038656 -0.027531 157936.000000 0 0 1
-9.080058 30.104377 -26.001682 40.802065 -1.277855 2.261739 0.038766 -0.020846 -1060200.000000 0 0 1
-7.988658 30.806377 -25.495062 40.778055 -1.317067 2.246204 0.038420 -0.025578 20700.000000 0 0 1
-6.676458 30.011877 -25.828112 40.154443 -1.351900 2.269492 0.034091 -0.029888 140339.000000 0 0 1
-6.395858 28.821477 -25.094002 38.746529 -1.352422 2.275286 0.030261 -0.033275 -99144.300000 0 0 1
-5.292458 28.226177 -25.757932 38.577173 -1.385447 2.301910 0.029028 -0.034828 298980.000000 0 0 1
-4.572958 26.989777 -25.083152 37.128487 -1.402957 2.312543 0.041136 -0.027325 231329.000000 0 0 1
-5.384158 25.837577 -24.854072 36.253199 -1.365352 2.326181 0.049241 -0.027713 484777.000000 0 0 1
-4.596858 24.661777 -24.563572 35.109877 -1.386515 2.345662 0.052902 -0.023165 383474.000000 0 0 1
-5.509258 23.398277 -24.546072 34.356091 -1.339553 2.366649 0.052131 -0.023542 245190.000000 0 0 1
-5.759658 22.985877 -25.883432 35.092396 -1.325278 2.400275 0.043118 -0.024881 778583.000000 0 0 1
-6.731158 21.899777 -25.842082 34.535807 -1.272599 2.416246 0.044129 -0.028781 306603.000000 0 0 1
-6.639758 20.947277 -27.042192 34.844727 -1.263840 2.459217 0.033905 -0.023657 -945790.000000 0 0 1
-5.467158 20.264177 -27.239962 34.388112 -1.307276 2.485092 0.043888 -0.030675 -1235210.000000 0 0 1
-5.280658 19.214277 -26.335862 33.025012 -1.302588 2.493857 0.041761 -0.029753 295223.000000 0 0 1
-3.959158 18.393677 -26.533522 32.527375 -1.358785 2.524785 0.035770 -0.034173 572328.000000 0 0 1
-4.036458 17.642477 -27.734522 33.117272 -1.345876 2.563422 0.026063 -0.032181 -345251.000000 0 0 1
-2.950058 16.769377 -27.774192 32.577916 -1.396659 2.591635 0.028721 -0.032317 -604504.000000 0 0 1
-2.722058 16.352777 -29.229432 33.603313 -1.405850 2.625670 0.035507 -0.023301 87617.900000 0 0 1
-1.823358 17.229177 -29.893782 34.551518 -1.465359 2.616334 0.042022 -0.034310 259422.000000 0 0 1
-1.859558 17.091177 -31.265242 35.680270 -1.462420 2.638844 0.039897 -0.036591 -102997.000000 0 0 1
-1.138458 18.270377 -31.957232 36.828894 -1.508565 2.621397 0.048807 -0.018677 -395958.000000 0 0 1
0.249242 18.213177 -31.735322 36.591155 1.557112 2.620538 0.055366 -0.025947 -53913.100000 0 0 1
0.986842 19.314377 -32.265682 37.617726 1.519747 2.601625 0.058448 -0.009368 255430.000000 0 0 1
0.717042 20.759077 -31.647712 37.855398 1.536269 2.560778 0.067739 -0.015002 -397708.000000 0 0 1
1.334842 20.987377 -30.397072 36.962600 1.507280 2.536367 0.069254 -0.029888 -341734.000000 0 0 1
0.925242 22.164077 -29.707012 37.075719 1.529075 2.500182 0.073913 -0.033234 -264984.000000 0 0 1
1.887742 22.560877 -28.596742 36.473695 1.487318 2.471940 0.070925 -0.031021 -163738.000000 0 0 1
3.154142 22.918677 -29.089102 37.167059 1.434032 2.469721 0.056602 -0.030500 83995.100000 0 0 1
4.184442 22.898577 -28.081102 36.474686 1.390053 2.449448 0.049253 -0.029289 784880.000000 0 0 1
4.709742 24.337977 -27.609652 37.105413 1.379645 2.409963 0.047347 -0.027994 20599.000000 0 0 1
5.440542 24.937977 -28.663772 38.381168 1.355999 2.414062 0.043558 -0.030153 -65565.600000 0 0 1
5.811042 26.249477 -28.308652 39.040787 1.352933 2.381983 0.037551 -0.030876 -180732.000000 0 0 1
6.676042 26.972577 -29.378262 40.437257 1.328160 2.384032 0.040384 -0.027718 -173142.000000 0 0 1
8.055542 26.760577 -29.234902 40.443785 1.278402 2.378718 0.014625 -0.018071 -350381.000000 0 0 1
8.797942 27.548977 -30.130762 41.763773 1.261677 2.376700 0.015061 -0.018645 506408.000000 0 0 1
10.344942 27.542877 -29.984352 42.008205 1.211505 2.365668 0.008845 -0.016083 644779.000000 0 0 1
11.012542 28.526877 -30.766302 43.377692 1.202381 2.359252 0.007333 -0.010656 -133150.000000 0 0 1
12.353742 28.739377 -30.404692 43.623527 1.164821 2.341973 0.015221 -0.016305 -318396.000000 0 0 1
13.003342 29.900677 -31.178992 45.113933 1.160583 2.333829 0.019376 -0.009848 -232292.000000 0 0 1
12.506242 31.243777 -30.965792 45.732483 1.190049 2.314621 0.006206 -0.000721 171198.000000 0 0 1
13.256042 32.084377 -31.805872 47.082305 1.178995 2.312490 0.021987 -0.009460 -283783.000000 0 0 1
12.797242 33.514177 -31.929162 48.025419 1.206038 2.298074 0.027279 -0.018694 296667.000000 0 0 1
11.736142 33.649677 -32.875702 48.485561 1.235214 2.315905 0.013365 -0.012708 192310.000000 0 0 1
10.851142 -34.246432 -32.567252 48.489085 -1.263949 2.307218 0.023462 -0.016472 -422475.000000 0 0 1
9.769442 -33.866232 -33.576332 48.679911 -1.289949 2.331922 0.007683 -0.014684 -312914.000000 0 0 1
10.205342 -33.122532 34.069192 48.600010 -1.271917 0.793981 -0.001543 0.000128 -14456.100000 0 0 1
9.069042 -32.954432 33.258018 47.690019 -1.302245 0.799062 0.001731 0.001550 22103.100000 0 0 1
9.229242 -32.122132 31.977071 46.255198 -1.291015 0.807484 0.004712 -0.002468 -122539.000000 0 0 1
9.136242 -30.700432 32.197501 45.416589 -1.281549 0.782806 -0.006916 -0.004370 -106641.000000 0 0 1
9.278942 -30.032432 30.942821 44.107867 -1.271136 0.793260 0.015200 -0.007963 -738928.000000 0 0 1
8.874342 -28.509232 30.859661 42.940062 -1.269024 0.768911 0.004465 -0.020746 -845396.000000 0 0 1
7.481742 -28.391932 30.926761 42.644376 -1.313137 0.759435 -0.007302 -0.009302 -601387.000000 0 0 1
6.903842 -28.492632 32.211711 43.555567 -1.333075 0.738388 -0.003744 -0.003057 -280015.000000 0 0 1
5.340742 -28.570232 32.201081 43.378466 -1.385995 0.734257 0.000140 -0.002521 451155.000000 0 0 1
4.838642 -29.817732 31.794961 43.856917 -1.409925 0.759805 0.010522 -0.012086 -392890.000000 0 0 1
5.074142 -30.278232 30.461351 43.248262 -1.404755 0.789308 0.003543 -0.011636 -779497.000000 0 0 1
4.598442 -29.473732 29.198651 41.742158 -1.416026 0.796098 0.007586 -0.020027 -228565.000000 0 0 1
3.222742 -29.708432 29.005161 41.644644 -1.462740 0.800299 0.018823 -0.019227 -185316.000000 0 0 1
2.700242 -28.914532 27.972421 40.321183 -1.477679 0.804127 0.018473 -0.020895 928751.000000 0 0 1
1.230442 -29.317832 27.529431 40.235791 -1.528852 0.817287 0.015050 -0.019111 995030.000000 0 0 1
1.099742 -30.531532 26.919711 40.719218 -1.534792 0.848505 0.019729 -0.025248 26463.700000 0 0 1
0.842942 -31.620332 27.784131 42.101234 -1.544144 0.850062 0.039755 -0.030275 -562777.000000 0 0 1
1.067542 -33.006732 27.096111 42.717482 -1.538464 0.883681 0.039676 -0.034501 1024140.000000 0 0 1
2.412042 -33.416232 26.750371 42.872426 -1.498740 0.897006 0.032852 -0.027351 839728.000000 0 0 1
3.037342 -32.709832 25.720131 41.721502 -1.478205 0.906542 0.024669 -0.027900 -928758.000000 0 0 1
4.552042 -32.854932 25.846411 42.050025 -1.433123 0.908843 0.025797 -0.016921 -730743.000000 0 0 1
5.212842 -32.338232 24.745311 41.051984 -1.410974 0.923816 0.025892 -0.027428 -39509.300000 0 0 1
6.611642 -32.342432 24.977801 41.396102 -1.369148 0.923057 0.026410 -0.026929 -96006.600000 0 0 1
7.376142 -31.754032 23.761711 40.340364 -1.342554 0.940938 0.023201 -0.016146 -858548.000000 0 0 1
8.730542 -31.549932 24.004051 40.593288 -1.300830 0.938089 0.013699 -0.004029 -689761.000000 0 0 1
9.322942 -31.334532 22.737411 39.821602 -1.281608 0.963095 0.021385 -0.000424 146951.000000 0 0 1
10.453242 -30.271332 22.767011 39.293264 -1.238298 0.952789 0.016860 -0.000247 147364.000000 0 0 1
11.699642 -30.687932 23.273311 40.252675 -1.206561 0.954299 0.026904 -0.006317 -287217.000000 0 0 1
12.576942 -29.609832 23.444811 39.806793 -1.169133 0.941019 0.037313 -0.000486 -37086.900000 0 0 1
13.823342 -29.982032 24.287771 40.986618 -1.138788 0.936541 0.049111 -0.004632 97973.400000 0 0 1
13.555842 -29.923032 25.680851 41.697180 -1.145431 0.907282 0.029217 -0.008994 191491.000000 0 0 1
14.695342 -29.512632 26.397741 42.234930 -1.108803 0.895637 0.033905 -0.013841 -165068.000000 0 0 1
-10.954758 -13.927523 25.824031 31.318735 0.904308 0.601380 0.039024 -0.027286 793230.000000 0 0 1
-9.534258 -13.958923 25.568131 30.650985 0.971556 0.584170 0.024816 -0.024242 630726.000000 0 0 1
-8.891358 -14.208223 26.813561 31.621146 1.011629 0.558666 0.031371 -0.027200 -121223.000000 0 0 1
-7.351958 -14.030123 26.760051 31.096558 1.088124 0.534454 0.049278 -0.016943 -95099.200000 0 0 1
-6.760858 -14.991923 25.956281 30.727764 1.147139 0.564759 0.045226 -0.026615 -116347.000000 0 0 1
-6.802158 -14.753523 24.532921 29.424479 1.138789 0.584915 0.039517 -0.023849 -890467.000000 0 0 1
-5.958158 -15.820823 23.774931 29.172683 1.210622 0.618115 0.042529 -0.028189 118918.000000 0 0 1
-6.491258 -17.150223 23.526511 29.828900 1.208966 0.662080 0.052732 -0.023658 -209931.000000 0 0 1
-6.774858 -17.895923 24.663841 31.216467 1.208900 0.659839 0.054896 -0.022605 -364259.000000 0 0 1
-7.345758 -19.241723 24.172261 31.756924 1.206111 0.705689 0.043916 -0.019391 23982.800000 0 0 1
-8.663858 -19.200323 23.638411 31.662111 1.146916 0.727884 0.026102 -0.016376 53234.500000 0 0 1
-9.196558 -20.514023 23.467611 32.498162 1.149352 0.763933 0.018975 -0.009669 1462410.000000 0 0 1
-10.783158 -20.510123 23.560011 33.045661 1.086763 0.777095 -0.000992 -0.006425 1217580.000000 0 0 1
-11.134458 -20.441323 24.932051 34.109104 1.072029 0.751083 0.000374 -0.002462 132554.000000 0 0 1
-12.536358 -20.550423 25.117841 34.790603 1.023035 0.764148 0.018187 -0.005101 287028.000000 0 0 1
-13.106258 -20.749223 26.529211 36.140051 1.007429 0.746505 0.026680 -0.011147 -154637.000000 0 0 1
-12.730758 -21.987823 27.157871 37.189871 1.045968 0.752110 0.025630 -0.010328 216378.000000 0 0 1
-11.741758 -21.787923 28.162511 37.492792 1.076506 0.721002 0.022226 -0.010043 43164.200000 0 0 1
-11.319558 -23.102923 28.904431 38.695524 1.115211 0.727302 0.013032 -0.002433 89981.600000 0 0 1
-12.307658 -23.625023 29.774131 39.951458 1.090523 0.729875 0.026779 -0.009303 -52619.600000 0 0 1
-11.673658 -24.639123 30.502691 40.911793 1.128339 0.729403 0.010431 0.003667 162344.000000 0 0 1
-12.691458 -25.545673 31.277021 42.330917 1.109700 0.739405 0.027036 -0.016594 416899.000000 0 0 1
-12.960158 -24.909923 32.524141 42.968473 1.091056 0.712193 0.011323 -0.015162 -610216.000000 0 0 1
-14.008558 -25.486413 33.229906 44.159071 1.068223 0.718939 0.035105 -0.020769 -590343.000000 0 0 1
-14.023058 -25.051703 -34.086886 44.566240 1.060487 2.441619 0.027950 -0.013015 58678.800000 0 0 1
-14.218458 -23.666123 -33.843352 43.676337 1.029793 2.457301 0.030784 -0.016110 56291.600000 0 0 1
-15.454858 -23.083923 -34.230614 44.084635 0.980830 2.459849 0.037822 -0.023782 -249709.000000 0 0 1
-15.573658 -21.565823 -34.038032 43.199666 0.945362 2.478226 0.034577 -0.018864 -165460.000000 0 0 1
-15.521558 -21.163523 -32.716322 41.942475 0.937997 2.465508 0.036520 -0.014325 208869.000000 0 0 1
-15.866458 -19.778223 -32.468352 41.196073 0.894704 2.478581 0.029177 -0.016897 39789.400000 0 0 1
-15.889358 -19.367223 -30.947742 39.816124 0.883724 2.461106 0.035199 -0.010353 132027.000000 0 0 1
-17.034458 -19.809623 -30.232992 39.957824 0.860578 2.428928 0.038268 -0.003709 233753.000000 0 0 1
-17.000058 -19.428723 -28.867562 38.727424 0.851968 2.411936 0.033447 -0.006886 134599.000000 0 0 1
-16.086058 -20.266123 -27.914612 38.061825 0.899883 2.394109 0.029304 0.001690 412087.000000 0 0 1
-14.699358 -20.056323 -28.098552 37.521405 0.938327 2.417148 0.029472 -0.003413 -80691.800000 0 0 1
-13.946558 -21.099423 -27.528092 37.382990 0.986732 2.398501 0.020868 0.006930 -30146.700000 0 0 1
-12.436358 -20.993123 -27.779872 36.974254 1.035983 2.420872 0.022534 -0.007128 -1020430.000000 0 0 1
-11.749358 -20.109223 -26.980472 35.642308 1.042018 2.429473 0.032121 -0.019534 216936.000000 0 0 1
-10.346858 -20.369823 -27.068682 35.421755 1.100809 2.440569 0.030812 -0.023434 685793.000000 0 0 1
-9.756358 -21.491223 -26.154822 35.229730 1.144646 2.407453 0.034634 -0.022210 -877664.000000 0 0 1
-10.064958 -22.848523 -26.470242 36.387252 1.155864 2.385408 0.028429 -0.020721 174957.000000 0 0 1
-9.488858 -23.777323 -25.559722 36.175944 1.191090 2.355392 0.044349 -0.021320 -404501.000000 0 0 1
-9.624858 -25.250763 -26.023142 37.515901 1.206626 2.337349 0.041674 -0.014952 -563210.000000 0 0 1
-8.801158 -25.685413 -27.058722 38.332431 1.240683 2.354484 0.036364 -0.010085 -231871.000000 0 0 1
-9.034658 -26.957393 -27.649782 39.659003 1.247415 2.342264 0.026088 -0.000125 -286818.000000 0 0 1
-8.996358 -28.306283 -26.863242 40.047645 1.263070 2.306059 0.047078 -0.001188 -610772.000000 0 0 1
-9.994858 -28.422273 -25.915932 39.741141 1.232647 2.281172 0.028802 0.001990 -536856.000000 0 0 1
-9.819558 -29.611043 -25.159712 40.078032 1.250590 2.249479 0.047288 0.001827 -56507.200000 0 0 1
-10.602358 -29.679893 -23.814172 39.502162 1.227701 2.217874 0.048628 -0.004361 -53177.500000 0 0 1
-10.486358 -28.548923 -22.987472 38.123858 1.218783 2.218013 0.034769 -0.011271 -280863.000000 0 0 1
-11.295258 -27.454783 -23.371072 37.782998 1.180490 2.237706 0.027281 -0.007772 -272892.000000 0 0 1
-11.032058 -26.220733 -22.461772 36.245887 1.172541 2.239164 0.041272 -0.014028 27709.900000 0 0 1
-11.392458 -26.540363 -21.132172 35.787535 1.165331 2.202462 0.035972 -0.012693 190552.000000 0 0 1
-11.405958 -25.420013 -20.266872 34.453142 1.149024 2.199683 0.027622 -0.002147 -291448.000000 0 0 1
-11.893758 -25.792913 -18.889072 34.110597 1.138729 2.157669 0.031289 0.003839 502635.000000 0 0 1
-13.315858 -25.944473 -18.914372 34.758901 1.096609 2.146183 0.041533 -0.000562 438096.000000 0 0 1
-13.730258 -26.385693 -17.624272 34.573685 1.090988 2.105702 0.054511 -0.003237 545469.000000 0 0 1
-15.282658 -26.512633 -17.570472 35.287403 1.047889 2.092000 0.055066 -0.007835 13751.600000 0 0 1
-16.036958 -25.316383 -17.443972 34.675574 1.006135 2.097935 0.046929 -0.004668 412973.000000 0 0 1
-17.407258 -25.422553 -17.087172 35.231949 0.970401 2.077149 0.061930 -0.010038 1226240.000000 0 0 1
-18.431458 -26.097743 -18.108572 36.725076 0.955890 2.086428 0.064449 -0.007324 -257111.000000 0 0 1
-18.257858 -27.509263 -18.362372 37.779434 0.984851 2.078351 0.067197 -0.007023 -6707.230000 0 0 1
-18.701358 -28.473743 -17.423072 38.263014 0.989660 2.043562 0.067571 -0.013361 971610.000000 0 0 1
-20.270358 -28.661343 -17.239872 39.109758 0.955230 2.027294 0.073027 -0.016234 1256550.000000 0 0 1
-20.767258 -29.504203 -18.251572 40.433858 0.957475 2.039122 0.062839 -0.012902 -294921.000000 0 0 1
-22.063558 -30.005843 -18.031972 41.379985 0.936764 2.021685 0.054708 -0.007029 -37122.900000 0 0 1
-22.571858 -31.038163 -19.066372 42.853038 0.942029 2.031886 0.030769 -0.011440 70884.400000 0 0 1
-21.908058 -32.310373 -19.052672 43.438779 0.974954 2.024847 0.026821 -0.008960 202341.000000 0 0 1
-22.402958 -33.119563 -20.087272 44.747027 0.976067 2.036339 0.012615 0.003750 255485.000000 0 0 1
-21.798358 34.360249 -19.996172 45.339189 -1.005462 2.027548 0.001459 0.004930 484276.000000 0 0 1
-22.306558 33.600721 -18.870572 44.527402 -0.984731 2.008429 0.005513 0.003016 -19039.400000 0 0 1
-21.547458 32.457897 -18.858172 43.283238 -0.984740 2.021604 0.002624 -0.005309 -505763.000000 0 0 1
-22.292958 31.260947 -18.250572 42.512424 -0.951316 2.014514 0.011156 -0.013264 -106810.000000 0 0 1
-22.628058 31.226207 -16.895972 42.102006 -0.943718 1.983743 0.001168 -0.013818 89279.800000 0 0 1
-23.398458 30.008207 -16.700272 41.555739 -0.908535 1.984361 0.006822 -0.011399 384698.000000 0 0 1
-22.618458 28.660477 -16.485472 40.059810 -0.902684 1.994919 0.015519 -0.025484 113344.000000 0 0 1
-21.977258 28.128327 -17.634372 39.814240 -0.907549 2.029645 0.009161 -0.024692 126557.000000 0 0 1
-21.460558 26.820547 -17.380472 38.496469 -0.895962 2.039222 0.018825 -0.024793 4919.060000 0 0 1
-20.760758 26.180897 -18.567772 38.225785 -0.900355 2.078005 0.026344 -0.022292 -1473210.000000 0 0 1
-20.395658 24.803827 -18.272972 36.947452 -0.882618 2.088132 0.042685 -0.025360 227956.000000 0 0 1
-19.504958 24.293607 -19.254072 36.624337 -0.894299 2.124355 0.037161 -0.015378 485777.000000 0 0 1
-18.109858 24.962687 -19.322772 36.393299 -0.943175 2.130509 0.021129 -0.019998 -1242170.000000 0 0 1
-17.168158 24.725887 -18.285472 35.220358 -0.963880 2.116680 0.031608 -0.020580 6968.490000 0 0 1
-16.137958 25.667317 -18.403772 35.467502 -1.009515 2.116350 0.044494 -0.024867 -392146.000000 0 0 1
-16.303258 26.936147 -17.456872 36.001314 -1.026521 2.077040 0.037932 -0.034413 -366662.000000 0 0 1
-17.288158 27.871477 -17.857672 37.344291 -1.015597 2.069389 0.026247 -0.030635 -18267.500000 0 0 1
-17.157258 29.077317 -17.206872 37.893777 -1.037720 2.042138 0.039343 -0.037173 -479797.000000 0 0 1
-18.315358 29.978267 -17.629072 39.305636 -1.022361 2.035897 0.039727 -0.030742 -203583.000000 0 0 1
-18.333258 30.364567 -18.979972 40.228779 -1.027608 2.062128 0.037079 -0.030734 58627.500000 0 0 1
-18.947458 29.457377 -19.881172 40.274114 -0.999205 2.087074 0.022101 -0.023157 -299022.000000 0 0 1
-19.172958 29.931387 -21.366772 41.473235 -1.001083 2.112031 0.019735 -0.025780 71751.800000 0 0 1
-19.994858 31.076987 -21.506072 42.756106 -0.999077 2.097856 0.016173 -0.019961 108234.000000 0 0 1
-20.199958 31.181577 -22.898372 43.642462 -0.995957 2.123137 0.018667 -0.014732 -23672.100000 0 0 1
-20.654358 32.551237 -23.439372 45.117510 -1.005382 2.117083 0.012756 -0.008359 -32768.700000 0 0 1
-19.688858 33.592988 -23.340072 45.397125 -1.040660 2.110791 0.004049 -0.001669 -64192.800000 0 0 1
-20.015158 -34.233046 -24.129872 46.419378 1.041722 2.117440 0.004527 0.003661 -246913.000000 0 0 1
-19.043058 -33.018743 -24.103372 45.098204 1.047659 2.134670 0.020876 0.001598 73556.200000 0 0 1
-18.966058 -32.216703 -22.944472 43.864292 1.038725 2.121255 0.025061 0.000806 -58304.200000 0 0 1
-18.479958 -32.832003 -21.787672 43.521855 1.058130 2.095105 0.034801 -0.010533 -509194.000000 0 0 1
-18.233658 -31.799063 -20.663372 42.078755 1.050164 2.084107 0.054740 -0.014127 567550.000000 0 0 1
-17.133558 -30.926723 -20.974672 41.109097 1.064883 2.106237 0.062354 -0.016324 509124.000000 0 0 1
-16.843258 -29.974973 -19.926872 39.740087 1.058855 2.096047 0.064619 -0.016435 -363807.000000 0 0 1
-15.569358 -29.197823 -20.288572 38.814223 1.080914 2.120823 0.057086 -0.017873 20531.100000 0 0 1
-14.424958 -30.060913 -20.325372 39.049438 1.123392 2.118237 0.055246 -0.018597 -166831.000000 0 0 1
-13.338058 -29.149803 -20.413172 38.004110 1.141666 2.137828 0.043765 -0.017413 84813.300000 0 0 1
-11.978558 -29.932863 -20.307872 38.103435 1.190134 2.132900 0.058679 -0.020113 348026.000000 0 0 1
-11.439858 -30.550963 -19.157872 37.831941 1.212507 2.101794 0.056429 -0.017079 180890.000000 0 0 1
-10.836158 -29.563223 -18.321472 36.429147 1.219462 2.097787 0.037680 -0.011114 -306876.000000 0 0 1
-9.907458 -30.193603 -17.254872 36.159950 1.253735 2.068241 0.030122 0.003099 -225037.000000 0 0 1
-10.542858 -30.925573 -16.226872 36.480875 1.242242 2.031753 0.051798 -0.004746 -16346.500000 0 0 1
-10.940058 -32.235013 -16.586972 37.866985 1.243610 2.024205 0.058886 -0.006478 249519.000000 0 0 1
-12.132658 -32.707263 -15.683972 38.248574 1.215584 1.993309 0.077565 -0.012114 66058.200000 0 0 1
-11.823758 -33.216093 -14.428372 38.095774 1.228818 1.959230 0.070533 -0.010799 -278603.000000 0 0 1
-12.984158 -33.251373 -13.643472 38.215003 1.198519 1.935871 0.073010 -0.009237 -303439.000000 0 0 1
-12.665558 -33.692073 -12.157872 37.991920 1.211218 1.896539 0.055436 -0.014066 411511.000000 0 0 1
-11.993858 -32.739063 -11.279472 36.645946 1.219633 1.883672 0.060816 -0.010741 455667.000000 0 0 1
-11.675558 -33.343873 -10.045072 36.729225 1.233983 1.847816 0.066967 -0.009943 -677682.000000 0 0 1
-10.491258 -32.692893 -9.332972 35.580839 1.260274 1.836205 0.048591 -0.011721 -71681.800000 0 0 1
-9.299958 -33.110523 -9.999872 35.816105 1.296975 1.853758 0.019692 -0.010187 -57938.500000 0 0 1
-8.169058 -32.587803 -9.331072 34.867855 1.325179 1.841711 0.005901 -0.008038 948697.000000 0 0 1
-6.767258 -33.035773 -9.892572 35.142866 1.368745 1.856149 0.000044 -0.017191 765459.000000 0 0 1
-6.503058 -34.390931 -9.646772 36.305455 1.383911 1.839738 -0.004634 -0.012200 830077.000000 0 0 1
-5.283658 34.063031 -10.287272 35.972700 -1.416909 1.860819 0.000922 -0.012727 502303.000000 0 0 1
-4.630458 32.895607 -9.665072 34.597337 -1.430953 1.853923 0.000802 -0.015436 -433761.000000 0 0 1
-4.128058 33.234727 -8.390272 34.525130 -1.447220 1.816274 0.005920 -0.019590 -634913.000000 0 0 1
-3.297058 32.286177 -7.875972 33.396089 -1.469029 1.808874 0.004601 -0.014502 -726350.000000 0 0 1
-2.932058 32.629937 -6.402372 33.381135 -1.481179 1.763788 0.007428 -0.011220 -615190.000000 0 0 1
-2.107358 33.768832 -6.357672 34.426661 -1.508472 1.756535 -0.002082 -0.008275 -487260.000000 0 0 1
-1.908158 34.241963 -5.027872 34.661688 -1.515128 1.716365 0.002388 -0.009741 -398013.000000 0 0 1
-0.885658 33.501847 -4.180472 33.773281 -1.544366 1.694895 0.002863 -0.011575 370847.000000 0 0 1
0.478342 33.685409 -4.626672 34.005025 1.556597 1.707278 0.005361 -0.007860 999033.000000 0 0 1
1.377842 32.872097 -3.875472 33.128425 1.528906 1.688048 0.008061 -0.007526 -155152.000000 0 0 1
2.846442 32.974149 -4.257772 33.369528 1.484686 1.698740 0.008997 -0.000313 -358775.000000 0 0 1
3.505942 34.166561 -3.828072 34.558641 1.468541 1.681794 0.004850 0.001520 -942877.000000 0 0 1
4.853342 34.211185 -4.132072 34.799916 1.429872 1.689815 0.024459 -0.000271 -668081.000000 0 0 1
5.386042 -33.333183 -3.759272 33.974147 -1.410599 1.681674 0.023931 0.000482 -38403.300000 0 0 1
5.102542 -32.248193 -4.650072 32.978857 -1.413870 1.712269 0.025440 -0.003396 -42562.500000 0 0 1
5.805742 -31.112383 -4.173072 31.923370 -1.386313 1.701893 0.020700 -0.008282 79581.200000 0 0 1
5.765142 -29.792783 -5.002572 30.755040 -1.379651 1.734181 0.021938 -0.010931 -427785.000000 0 0 1
6.494442 -29.738953 -6.178372 31.060511 -1.355790 1.771046 0.032792 -0.005416 -446735.000000 0 0 1
6.475642 -28.512763 -6.877872 30.036922 -1.347471 1.801827 0.026982 -0.010007 199059.000000 0 0 1
6.905942 -27.098233 -6.215472 28.646786 -1.321260 1.789505 0.032645 -0.008339 114599.000000 0 0 1
5.996142 -26.606823 -5.262672 27.777193 -1.349138 1.761409 0.029491 -0.014091 -397993.000000 0 0 1
6.459442 -25.485823 -4.519272 26.677244 -1.322571 1.741023 0.033518 -0.020084 -227633.000000 0 0 1
5.483842 -25.189503 -3.364272 25.998113 -1.356438 1.700565 0.030795 -0.017391 -60867.600000 0 0 1
4.384142 -24.497123 -3.911672 25.191882 -1.393706 1.726702 0.024568 -0.023406 -451528.000000 0 0 1
3.627642 -23.875023 -2.882372 24.320456 -1.420007 1.689592 0.021853 -0.020577 747789.000000 0 1 0
2.371242 -23.073223 -3.393172 23.441630 -1.468386 1.716056 0.023040 -0.021346 1283530.000000 0 1 0
1.298542 -23.889323 -3.860772 24.234098 -1.516493 1.730790 0.016497 -0.018199 -153547.000000 0 1 0
0.157442 -23.139923 -4.205872 23.519570 -1.563993 1.750588 -0.002212 -0.019607 -107709.000000 0 1 0
-14.864558 23.574577 18.385411 33.387709 -1.008228 0.987637 0.008224 -0.008233 -56740.000000 0 0 1
-15.088158 22.750877 19.521111 33.560821 -0.985204 0.950024 0.013783 -0.003625 243088.000000 0 0 1
-15.163958 23.535777 20.678711 34.806429 -0.998443 0.934642 0.020363 -0.005711 -1068660.000000 0 0 1
-15.116458 22.833177 22.037911 35.150118 -0.986004 0.893144 0.025463 -0.008895 -68823.100000 0 0 1
-13.971158 22.031977 22.271211 34.301722 -1.005658 0.864167 0.024903 -0.011362 478323.000000 0 0 1
-12.676358 22.611277 22.285111 34.184588 -1.059835 0.860702 0.025787 -0.013799 -102005.000000 0 0 1
-12.301658 23.787977 23.244111 35.461068 -1.093533 0.855975 0.045938 -0.006608 -756813.000000 0 0 1
-12.149558 23.309077 24.570731 35.981185 -1.090304 0.819102 0.052458 -0.006193 115970.000000 0 0 1
-11.691058 24.320477 25.427791 37.077473 -1.122701 0.815092 0.060794 -0.008944 73543.500000 0 0 1
-11.141258 23.903277 26.806981 37.604634 -1.134637 0.777223 0.057105 -0.014298 408512.000000 0 0 1
-9.839058 23.337477 26.735101 36.826764 -1.171810 0.758354 0.042218 -0.011287 -83370.500000 0 0 1
-9.557658 22.567677 27.901281 37.136644 -1.170188 0.720745 0.036868 -0.009239 303536.000000 0 0 1
-8.031558 22.252277 28.074591 36.713110 -1.224416 0.700217 0.029061 -0.006881 987010.000000 0 0 1
-7.168958 23.343377 28.355481 37.421124 -1.272830 0.710954 0.021959 0.000173 108272.000000 0 0 1
-6.911058 24.266377 27.309021 37.180673 -1.293342 0.745874 0.022980 -0.001347 -806493.000000 0 0 1
-5.906758 25.348877 27.728441 38.030538 -1.341863 0.753776 0.012468 -0.005430 10463.000000 0 0 1
-4.551158 24.983877 27.748671 37.615102 -1.390608 0.741139 -0.008833 -0.002141 -571761.000000 0 0 1
-3.725958 25.919177 28.365561 38.604295 -1.428022 0.745458 0.000107 -0.002989 1851180.000000 0 0 1
-2.173058 25.488777 28.302731 38.150289 -1.485747 0.734935 0.007086 -0.003802 1538020.000000 0 0 1
-1.652058 25.538977 27.045651 37.234875 -1.506199 0.757796 0.002652 -0.001583 -103669.000000 0 0 1
-0.287558 25.141577 27.179441 37.025716 -1.559359 0.746501 0.021674 0.003133 624740.000000 0 0 1
0.326442 24.705577 25.774801 35.704516 1.557584 0.764264 0.013873 -0.003204 -92336.800000 0 0 1
-0.089358 23.463777 25.250161 34.469225 -1.566988 0.748747 0.014332 0.004758 -179553.000000 0 0 1
0.381842 23.309477 23.952991 33.424891 1.554416 0.771850 0.017488 0.012287 -254622.000000 0 0 1
-0.090158 22.078777 23.261711 32.071603 -1.566713 0.759318 -0.000173 0.016784 240021.000000 0 0 1
0.576842 20.895977 23.762361 31.648450 1.543198 0.721490 0.021701 0.013782 273087.000000 0 0 1
0.076042 19.726377 23.109411 30.383887 1.566941 0.706589 0.021053 0.017121 621857.000000 0 0 1
1.111442 18.539477 23.101711 29.641804 1.510918 0.677149 0.032805 0.014463 61036.300000 0 0 1
2.228042 18.704277 22.290211 29.183346 1.452236 0.701618 0.035495 0.008963 -625162.000000 0 0 1
3.184342 17.684177 22.541311 28.826739 1.392638 0.672995 0.026635 0.006317 -99957.400000 0 0 1
4.541742 18.161677 21.994211 28.882854 1.325749 0.705177 0.039164 -0.000838 -337685.000000 0 0 1
5.278742 19.049077 22.822211 30.192479 1.300467 0.713783 0.030868 -0.001734 -239564.000000 0 0 1
6.506142 19.243077 22.132811 30.041425 1.244759 0.742555 0.031219 -0.005911 73995.600000 0 0 1
7.652342 19.780277 23.019811 31.300629 1.201662 0.744477 0.038823 -0.007252 -280415.000000 0 0 1
7.419642 20.935477 23.768651 32.531432 1.230202 0.751543 0.029167 -0.007965 -25549.100000 0 0 1
7.040642 22.113977 23.075411 32.727255 1.262564 0.788257 0.033384 -0.014352 -306356.000000 0 0 1
5.711442 22.756377 23.464411 33.182102 1.324894 0.785350 0.032138 -0.008703 -424152.000000 0 0 1
5.523742 23.937977 22.746811 33.480679 1.344014 0.823850 0.029980 -0.013107 723866.000000 0 0 1
4.356342 24.641877 23.232711 34.146137 1.395818 0.822501 0.021837 -0.005431 529693.000000 0 0 1
4.110442 25.968577 22.449311 34.572161 1.413813 0.864072 0.030544 -0.006265 -52581.300000 0 0 1
3.757442 26.040877 21.103311 33.728258 1.427495 0.894785 0.027654 -0.005299 -262232.000000 0 0 1
2.643742 25.316877 20.654011 32.779900 1.466747 0.889138 0.024640 -0.001730 -647417.000000 0 0 1
2.245542 25.780477 19.243611 32.248907 1.483913 0.931387 0.020484 0.000599 -631839.000000 0 0 1
1.658242 27.043377 19.280311 33.253938 1.509555 0.952325 0.020896 -0.003099 119546.000000 0 0 1
1.238842 27.501077 17.987711 32.884673 1.525780 0.992027 0.028775 0.001976 -158256.000000 0 0 1
0.181842 28.596977 18.100911 33.844692 1.564438 1.006498 0.006879 0.009918 102391.000000 0 0 1
0.721142 29.873177 18.503411 35.146877 1.546661 1.016365 0.017316 0.010150 -361413.000000 0 0 1
-0.352758 30.682277 18.812411 35.992130 -1.559300 1.020803 0.002042 0.007358 -512796.000000 0 0 1
-0.078658 32.114977 19.418611 37.529461 -1.568347 1.026959 0.000732 0.017103 -155837.000000 0 0 1
0.445342 31.983477 20.724711 38.113709 1.556873 0.995885 0.003538 0.013094 -358153.000000 0 0 1
1.024442 33.174377 21.095211 39.326794 1.539926 1.004621 -0.003657 -0.000915 -376149.000000 0 0 1
1.503642 33.159877 22.556511 40.132712 1.525482 0.973936 0.004794 -0.017089 -643472.000000 0 0 1
0.486242 32.864277 23.445411 40.373066 1.556002 0.951185 0.002238 -0.004265 -203007.000000 0 0 1
0.923842 32.932177 24.793401 41.232202 1.542751 0.925655 0.011483 -0.011389 -264825.000000 0 0 1
-0.253358 32.464477 25.631051 41.363719 -1.562992 0.902499 0.009334 -0.012219 323653.000000 0 0 1
-1.342058 33.407877 25.778201 42.218515 -1.530646 0.913991 0.003388 -0.002745 625790.000000 0 0 1
-2.215658 33.161077 26.871101 42.739002 -1.504080 0.890883 0.005506 -0.001810 1708.110000 0 0 1
-1.758758 33.450277 28.362671 43.891404 -1.518266 0.868200 0.031052 -0.017955 -1243610.000000 0 0 1
-0.696358 32.631077 28.660771 43.436297 -1.549459 0.850198 0.031465 -0.024129 -636698.000000 0 0 1
-0.167358 33.035977 29.925891 44.575360 -1.565730 0.834761 0.045314 -0.029529 -790434.000000 0 0 1
1.081242 32.291577 30.393671 44.358655 1.537325 0.815945 0.044129 -0.026576 -1042960.000000 0 0 1
2.286542 32.592577 29.797601 44.219921 1.500756 0.831389 0.041638 -0.028023 -534534.000000 0 0 1
2.449342 32.043577 28.488681 42.946421 1.494507 0.845504 0.038289 -0.026472 -584417.000000 0 0 1
3.934842 31.891777 28.057871 42.659261 1.448036 0.853008 0.023991 -0.017164 164733.000000 0 0 1
4.556242 30.866177 28.758201 42.432468 1.424242 0.826111 0.026258 -0.022995 -458381.000000 0 0 1
5.915942 30.754377 28.419881 42.290894 1.380757 0.833877 0.009177 -0.023998 147323.000000 0 0 1
6.590542 29.540577 29.224061 42.072874 1.351290 0.802925 0.004011 -0.014262 296347.000000 0 0 1
6.830642 29.760277 30.605171 43.232028 1.345182 0.784236 0.006318 -0.016712 215231.000000 0 0 1
7.525642 28.671277 31.188791 43.028108 1.314107 0.759984 0.001335 -0.010520 -121662.000000 0 0 1
7.489742 28.761977 32.740272 44.218469 1.316050 0.737100 0.009856 -0.012845 243189.000000 0 0 1
6.180442 28.477377 33.242808 44.206823 1.357081 0.719730 0.024816 -0.020611 315392.000000 0 0 1
6.250142 28.286177 -34.120589 44.759208 1.353330 2.437678 0.038258 -0.021074 -37871.400000 0 0 1
6.346042 26.903077 -33.594302 43.504310 1.339146 2.453103 0.031659 -0.017989 -822041.000000 0 0 1
7.620142 26.434577 -33.809792 43.588479 1.290141 2.458555 0.008647 -0.013904 -936902.000000 0 0 1
7.571942 25.044277 -33.815182 42.755312 1.277192 2.483075 0.013412 -0.012748 754898.000000 0 0 1
8.926342 24.250577 -33.975362 42.686009 1.218099 2.491350 -0.008443 -0.002773 505013.000000 0 0 1
9.551642 24.147677 33.480314 42.370693 1.194131 0.659700 -0.023106 -0.005455 -496339.000000 0 0 1
10.758042 23.477477 33.554800 42.342083 1.141121 0.655949 -0.012087 -0.012111 -870923.000000 0 0 1
10.760942 21.940677 33.872687 41.767812 1.114813 0.624978 -0.010810 -0.012018 -755326.000000 0 0 1
10.046342 21.212077 32.865013 40.385521 1.128479 0.620166 -0.009510 -0.010377 399759.000000 0 0 1
9.583642 19.928777 33.218719 39.905960 1.122549 0.587327 -0.017899 -0.002042 -780892.000000 0 0 1
8.334142 19.773277 34.058120 40.254142 1.171907 0.562213 0.007524 -0.010247 -840338.000000 0 0 1
8.456242 20.330077 -33.386692 39.993641 1.176618 2.558566 0.018505 -0.014493 303283.000000 0 0 1
7.173342 20.717277 -32.874422 39.514428 1.237467 2.553427 0.022743 -0.021269 321540.000000 0 0 1
7.091342 21.367077 -31.431112 38.662048 1.250353 2.520032 0.024651 -0.028712 -354966.000000 0 0 1
7.486242 22.690877 -31.505962 39.541692 1.252118 2.492741 0.015476 -0.021763 -148456.000000 0 0 1
7.517842 23.380677 -30.297452 39.001406 1.259696 2.460412 0.011672 -0.028841 -157019.000000 0 0 1
8.868542 23.576177 -29.563802 38.839485 1.211004 2.435926 0.013253 -0.025675 30115.200000 0 0 1
9.439042 22.366377 -29.137322 37.925373 1.171453 2.446947 0.012510 -0.026342 153899.000000 0 0 1
10.860542 22.496077 -29.108522 38.357932 1.121023 2.432366 0.013777 -0.029015 578486.000000 0 0 1
11.557142 21.117577 -28.958042 37.657507 1.070047 2.448048 0.014396 -0.033540 -112812.000000 0 0 1
11.600142 20.297777 -30.135312 38.140531 1.051598 2.481789 0.005330 -0.024939 173314.000000 0 0 1
10.375142 19.728977 -30.576662 37.839244 1.086657 2.511660 0.009458 -0.017030 -130515.000000 0 0 1
10.552542 18.792577 -31.765892 38.387355 1.059146 2.545453 0.016510 -0.008334 -1033540.000000 0 0 1
11.211042 17.634077 -31.424422 37.737812 1.004497 2.554769 0.020449 -0.008206 -149944.000000 0 0 1
11.281442 16.756077 -32.540342 38.300273 0.978233 2.586044 0.022727 0.001202 119755.000000 0 0 1
12.480042 17.007377 -33.506582 39.594108 0.937743 2.579707 0.019110 0.012550 -187168.000000 0 0 1
12.319542 18.223277 -34.174501 40.641795 0.976337 2.569687 0.024015 0.008540 -38023.600000 0 0 1
12.832242 18.293677 33.229753 40.044245 0.959093 0.592001 0.025939 0.006858 -324657.000000 0 0 1
12.186442 17.453977 32.147261 38.556414 0.961277 0.584891 0.029856 -0.002582 -1058830.000000 0 0 1
12.561042 18.021077 30.924601 37.932439 0.962074 0.617627 0.016923 0.006209 59425.300000 0 0 1
11.804742 17.693677 29.766941 36.585365 0.982443 0.620428 0.015893 0.002274 417733.000000 0 0 1
10.274842 17.966677 29.823761 36.301936 1.051308 0.606677 0.004778 -0.004173 82169.100000 0 0 1
9.554942 16.948977 30.521151 36.195378 1.057460 0.567526 0.018656 -0.003969 -597516.000000 0 0 1
8.196542 17.262977 30.597591 36.075009 1.127507 0.558283 0.018249 -0.006637 -22339.400000 0 0 1
7.376542 16.333177 31.564611 36.297530 1.146588 0.516389 0.016201 -0.000768 -60628.900000 0 0 1
7.655942 16.599377 32.920730 37.655375 1.138652 0.506879 0.019203 -0.003579 232775.000000 0 0 1
7.247342 15.545477 33.777107 37.882434 1.134550 0.469864 0.032647 0.001189 -158020.000000 0 0 1
7.343042 15.865477 -33.452952 37.745644 1.137323 2.660032 0.029004 -0.002247 -449095.000000 0 0 1
6.435742 16.842077 -33.051702 37.649560 1.205796 2.642208 0.024373 -0.006514 -130002.000000 0 0 1
6.452242 16.903077 -31.647702 36.454389 1.206147 2.622249 0.036688 -0.015828 181101.000000 0 0 1
5.556842 18.081777 -31.081022 36.384875 1.272640 2.594863 0.035384 -0.020985 -28763.900000 0 0 1
5.546542 18.166577 -29.675062 35.233478 1.274470 2.572222 0.026925 -0.026940 245957.000000 0 0 1
4.718342 19.186877 -29.098112 35.172420 1.329666 2.545079 0.035258 -0.031087 886267.000000 0 0 1
3.168542 19.021577 -29.055272 34.872180 1.405736 2.555654 0.047435 -0.040943 -479849.000000 0 0 1
2.838042 18.234577 -27.954522 33.496412 1.416394 2.558117 0.058101 -0.035679 -371307.000000 0 0 1
1.500542 17.854377 -27.810552 33.082582 1.486950 2.569261 0.057089 -0.042547 36499.900000 0 0 1
0.387242 18.916677 -27.551382 33.422587 1.550328 2.539821 0.055462 -0.048825 -343888.000000 0 0 1
0.304442 19.510677 -26.259122 32.715451 1.555194 2.502525 0.063042 -0.046144 758927.000000 0 0 1
-0.599458 20.682977 -26.254392 33.428102 -1.541821 2.474137 0.071353 -0.038909 698032.000000 0 0 1
-1.236758 21.018777 -24.833072 32.557642 -1.512023 2.438338 0.055258 -0.032056 849405.000000 0 0 1
-2.282858 20.095777 -24.445772 31.727709 -1.457682 2.450400 0.055024 -0.031746 421895.000000 0 0 1
-2.657258 20.350277 -23.108972 30.906624 -1.440955 2.415392 0.056486 -0.026989 573970.000000 0 0 1
-3.852258 19.415677 -22.680572 30.103435 -1.374930 2.424046 0.050988 -0.026551 849524.000000 0 0 1
-5.158958 19.888077 -22.998672 30.839737 -1.316991 2.412453 0.044940 -0.019948 -31411.900000 0 0 1
-6.061358 18.950577 -22.461372 30.006294 -1.261229 2.416677 0.037095 -0.020629 -1013380.000000 0 0 1
-7.486958 19.424977 -22.380972 30.566194 -1.202914 2.392362 0.033278 -0.013947 -917747.000000 0 0 1
-7.838458 20.399377 -21.353872 30.554278 -1.203941 2.344631 0.022150 -0.014617 195917.000000 0 0 1
-7.532558 21.740477 -21.664972 31.603146 -1.237264 2.326131 0.026191 -0.015365 -93645.800000 0 0 1
-7.774458 22.713477 -20.467172 31.547573 -1.241012 2.276766 0.029135 -0.017014 -343918.000000 0 0 1
-6.815258 22.554077 -19.476972 30.569373 -1.277346 2.261578 0.035054 -0.016632 -183738.000000 0 0 1
-6.894658 23.632577 -18.535572 30.815620 -1.286931 2.216173 0.043716 -0.021950 -295614.000000 0 0 1
-6.059158 23.562177 -17.264672 29.832172 -1.319094 2.187963 0.041001 -0.018803 -67662.400000 0 0 1
-4.702858 23.879877 -17.446772 29.945872 -1.376347 2.192733 0.030072 -0.022487 -800422.000000 0 0 1
-4.034058 23.984477 -16.226572 29.237483 -1.404161 2.159150 0.025219 -0.015228 -326543.000000 0 0 1
-2.616258 24.535477 -16.387172 29.620497 -1.464566 2.157042 0.020681 -0.008877 -434549.000000 0 0 1
-2.575758 25.904977 -16.391972 30.763601 -1.471691 2.132745 0.004956 -0.017121 3584.790000 0 0 1
-1.401758 26.285477 -17.095272 31.386933 -1.517519 2.146782 0.000121 -0.014328 195500.000000 0 0 1
-1.301758 27.831377 -17.238272 32.763366 -1.524057 2.124857 -0.005912 -0.028763 -97504.100000 0 0 1
-2.394858 28.406077 -17.936972 33.680492 -1.486687 2.132422 -0.000513 -0.036502 57958.200000 0 0 1
-1.962558 29.320877 -18.870272 34.923526 -1.503962 2.141627 0.001420 -0.029410 -563895.000000 0 0 1
-3.093458 29.840777 -19.799572 35.945299 -1.467500 2.154149 0.026605 -0.033312 548875.000000 0 0 1
-3.904558 30.943277 -19.364672 36.711340 -1.445275 2.126434 0.025433 -0.030336 -487193.000000 0 0 1
-4.851258 30.525377 -18.448072 35.995343 -1.413189 2.108905 0.017045 -0.033319 -1052930.000000 0 0 1
-5.432758 31.810977 -17.704472 36.808986 -1.401646 2.072571 0.019981 -0.027554 194756.000000 0 0 1
-6.245558 32.595177 -18.565972 38.028251 -1.381481 2.080840 0.035100 -0.026837 95468.100000 0 0 1
-6.544858 33.827877 -17.973172 38.861232 -1.379682 2.051605 0.036109 -0.038675 236537.000000 0 0 1
-7.297358 -34.019332 -18.799372 39.547222 1.359492 2.066175 0.041190 -0.025215 -419310.000000 0 0 1
-8.673658 -34.032732 -18.968172 39.915546 1.321247 2.065996 0.053264 -0.028656 -744531.000000 0 0 1
-9.039658 -32.861832 -19.666372 39.349481 1.302355 2.094150 0.081895 -0.044155 -279495.000000 0 0 1
29.061342 -20.161123 -27.023112 44.511583 -0.606515 2.223206 0.019850 -0.001313 92725.100000 0 0 1
28.486542 -21.441023 -26.856192 44.636931 -0.645209 2.216372 0.028264 -0.006787 1560890.000000 0 0 1
27.034242 -21.465923 -27.029382 43.843170 -0.671088 2.235088 0.025383 0.004694 1867440.000000 0 0 1
26.295242 -22.704323 -26.478302 43.680963 -0.712244 2.222039 0.029559 0.003065 -9221.540000 0 0 1
26.722042 -24.003423 -26.981462 44.924727 -0.731855 2.215038 0.023784 0.014966 -680044.000000 0 0 1
27.798442 -24.492123 -26.267472 45.415829 -0.722252 2.187534 0.020304 0.015614 -242902.000000 0 0 1
28.406242 -25.807153 -26.837342 46.831257 -0.737493 2.181037 0.019874 0.009709 98314.600000 0 0 1
27.513642 -26.838023 -26.556582 46.717577 -0.772968 2.175416 0.023064 0.006803 -229373.000000 0 0 1
28.076942 -28.112533 -26.854152 47.955966 -0.786032 2.165152 0.025045 0.006270 676559.000000 0 0 1
27.087142 -28.934153 -27.746652 48.381558 -0.818356 2.181564 0.035721 0.006085 198793.000000 0 0 1
26.878542 -28.512073 -29.098762 48.807092 -0.814881 2.209555 0.011350 0.001014 876165.000000 0 0 1
28.002342 -28.648793 -30.033232 50.068748 -0.796809 2.214097 0.001340 0.004047 410574.000000 0 0 1
28.105442 -30.070793 -30.697752 51.347059 -0.819168 2.211611 0.019222 0.007337 -426814.000000 0 0 1
28.628742 -31.026343 -29.722542 51.630111 -0.825568 2.184235 0.026669 0.006731 366387.000000 0 0 1
29.936242 -30.898453 -29.190522 51.990187 -0.801214 2.166948 0.026038 0.008008 16987.500000 0 0 1
31.160042 -30.746903 -30.104342 53.128068 -0.778725 2.173215 0.022463 0.004695 -765938.000000 0 0 1
31.172642 -29.493433 -30.823172 52.836201 -0.757726 2.193671 0.024989 -0.010070 -590519.000000 0 0 1
32.441342 -29.148903 -31.293602 53.678569 -0.731992 2.193190 0.028635 -0.014002 -404998.000000 0 0 1
32.385442 -27.738263 -32.007752 53.317204 -0.708258 2.214706 0.011764 -0.001703 19577.700000 0 0 1
32.241742 -26.545003 -31.229622 52.148407 -0.688795 2.212874 -0.004634 -0.000761 -527499.000000 0 0 1
31.049742 -26.326863 -30.541062 50.891519 -0.703270 2.214449 0.013943 0.007919 -716006.000000 0 0 1
30.885642 -24.907723 -29.995522 49.739812 -0.678661 2.218114 0.006960 0.007206 -919172.000000 0 0 1
31.651142 -24.654123 -28.838932 49.409559 -0.661763 2.194039 0.013361 0.010481 132653.000000 0 0 1
31.493342 -23.317323 -28.365742 48.375029 -0.637322 2.197369 0.005838 0.011749 3248.750000 0 0 1
32.453642 -23.172923 -27.168992 48.253263 -0.620081 2.168868 0.004698 0.010034 -37950.200000 0 0 1
32.144642 -23.921623 -25.960682 47.743890 -0.639770 2.145694 0.017397 0.006683 -360904.000000 0 0 1
31.352642 -23.217823 -25.060072 46.368768 -0.637418 2.141770 0.036015 0.007815 -478838.000000 0 0 1
31.840142 -21.941023 -24.278372 45.657885 -0.603373 2.131457 0.026293 0.005626 -316132.000000 0 0 1
32.179142 -20.796423 -25.084102 45.795202 -0.573749 2.150463 0.027230 -0.007613 194003.000000 0 0 1
32.443942 -19.676223 -24.196972 45.002851 -0.545162 2.138475 0.020873 -0.010790 75094.300000 0 0 1
32.642242 -18.377323 -24.995172 45.033328 -0.512763 2.159204 0.013484 -0.024158 1153550.000000 0 0 1
31.394242 -18.085923 -25.685942 44.412461 -0.522653 2.187501 0.018251 -0.015849 1361680.000000 0 0 1
31.572042 -16.895823 -26.408332 44.493400 -0.491372 2.206239 0.013314 -0.015901 402408.000000 0 0 1
30.504642 -16.733023 -27.586382 44.401979 -0.501722 2.241181 0.001208 -0.006599 249303.000000 0 0 1
29.241442 -16.568823 -27.002682 43.113022 -0.515515 2.247624 0.004862 -0.000386 -384206.000000 0 0 1
28.233442 -16.273823 -27.973682 42.947543 -0.522888 2.280152 -0.007473 0.003554 -537671.000000 0 0 1
26.924442 -16.214323 -27.208872 41.571054 -0.542047 2.284337 0.000398 0.005739 -917755.000000 0 0 1
26.554442 -17.475623 -26.656982 41.486510 -0.582052 2.268612 0.002900 0.013541 -632768.000000 0 0 1
25.522842 -17.256823 -25.768852 40.165248 -0.594527 2.267341 0.004673 0.015266 -663664.000000 0 0 1
25.361142 -18.422023 -24.755272 39.942233 -0.628217 2.239255 0.018957 0.020176 -284210.000000 0 0 1
25.086542 -17.973423 -23.460572 38.765667 -0.621686 2.220800 0.015229 0.026049 -71518.200000 0 0 1
24.837942 -18.971023 -22.548272 38.538911 -0.652270 2.195773 0.021060 0.019867 -235611.000000 0 0 1
24.938242 -18.485423 -21.075272 37.520579 -0.637876 2.167234 0.021311 0.013881 135316.000000 0 0 1
24.012042 -17.567523 -20.500472 36.131224 -0.631629 2.174128 0.024783 0.012791 -97619.700000 0 0 1
23.882642 -16.273623 -21.077372 35.769638 -0.598133 2.200930 0.009121 0.019865 223045.000000 0 0 1
25.073342 -15.270423 -20.953872 36.068311 -0.547033 2.190691 -0.008675 0.019177 314980.000000 0 0 1
25.094342 -14.686623 -19.658772 35.098294 -0.529508 2.165310 -0.005402 0.012670 771090.000000 0 0 1
26.165042 -13.724623 -19.533872 35.419583 -0.483087 2.154957 -0.014186 0.016180 412237.000000 0 0 1
26.030742 -12.730223 -18.337272 34.291597 -0.454846 2.135003 -0.009197 0.016884 -340359.000000 0 0 1
26.492642 -13.315023 -17.104672 34.230392 -0.465720 2.094040 -0.020333 0.015061 266131.000000 0 0 1
26.349842 -12.295323 -16.117272 33.245385 -0.436588 2.076928 -0.024718 0.011654 7614.320000 0 0 1
27.039742 -12.635723 -14.766472 33.299517 -0.437149 2.030234 -0.024410 0.005666 -342645.000000 0 0 1
26.460742 -13.638523 -13.999172 32.896155 -0.475911 2.010373 -0.002247 -0.002413 17428.600000 0 0 1
27.076642 -13.689923 -12.724672 32.901000 -0.468117 1.967908 -0.004584 -0.004585 -23488.500000 0 0 1
26.754242 -15.015823 -11.943672 32.922875 -0.511440 1.942043 0.004879 -0.015102 1083260.000000 0 0 1
25.411642 -15.079723 -11.401172 31.672327 -0.535566 1.939035 -0.001236 -0.023889 1110630.000000 0 0 1
25.294442 -16.301623 -10.670372 31.928178 -0.572481 1.911552 0.013044 -0.024416 944704.000000 0 0 1
23.769542 -16.594923 -10.366772 30.787214 -0.609489 1.914231 0.025319 -0.030987 1013870.000000 0 0 1
23.383642 -15.984823 -9.164972 29.770892 -0.599627 1.883729 0.027307 -0.021588 698405.000000 0 0 1
21.968742 -16.067823 -8.976772 28.659780 -0.631487 1.889376 0.040008 -0.029414 459814.000000 0 0 1
21.508042 -15.676623 -7.576472 27.672284 -0.629842 1.848131 0.037595 -0.021234 -413893.000000 0 0 1
21.847842 -14.374623 -7.157872 27.114445 -0.581938 1.837950 0.026377 -0.010131 356499.000000 0 0 1
21.649142 -13.997623 -5.804272 26.425525 -0.573958 1.792248 0.034214 -0.006409 197439.000000 0 0 1
22.688942 -14.684823 -4.844172 27.457205 -0.574421 1.748151 0.029884 -0.006886 165028.000000 0 0 1
24.039842 -14.307823 -4.960772 28.411918 -0.536861 1.746298 0.010092 -0.007294 -146491.000000 0 0 1
24.818142 -15.011423 -4.042572 29.285242 -0.543983 1.709280 0.013527 -0.017101 1655.450000 0 0 1
26.322942 -14.654823 -4.186972 30.416966 -0.507997 1.708887 0.016713 -0.014852 37724.600000 0 0 1
26.616442 -13.378223 -3.662472 30.013756 -0.465749 1.693128 0.027270 -0.009332 -578042.000000 0 0 1
27.819242 -12.845623 -4.093472 30.914022 -0.432585 1.703601 0.034755 -0.006855 -905552.000000 0 0 1
28.368442 -11.619823 -3.364472 30.840046 -0.388758 1.680108 0.029422 -0.024722 -1378800.000000 0 0 1
28.880442 -11.971923 -2.075272 31.332310 -0.392972 1.637079 0.042615 -0.033208 493815.000000 0 0 1
29.496542 -10.865423 -1.414072 31.465902 -0.352939 1.615751 0.043026 -0.020523 26133.100000 0 0 1
30.907442 -10.476823 -1.898872 32.690052 -0.326819 1.628916 0.044288 -0.026441 -1013460.000000 0 0 1
30.937142 -9.971623 -3.234372 32.664984 -0.311805 1.669975 0.029481 -0.019605 -140026.000000 0 0 1
31.848342 -10.665123 -4.038272 33.828529 -0.323135 1.690456 0.048421 -0.026025 -792631.000000 0 0 1
31.502542 -10.598823 -5.494672 33.688820 -0.324547 1.734629 0.031991 -0.016575 792416.000000 0 0 1
30.315242 -11.407523 -5.801672 32.906001 -0.359907 1.748033 0.000184 -0.015878 1298820.000000 0 0 1
29.964342 -11.190623 -7.171172 32.779834 -0.357424 1.791348 0.001143 -0.010119 580468.000000 0 0 1
28.768142 -12.082023 -7.673472 32.131969 -0.397610 1.811938 -0.030063 -0.004696 613261.000000 0 0 1
29.033542 -13.444723 -7.529172 32.869371 -0.433674 1.801912 -0.027394 -0.004649 286866.000000 0 0 1
27.834742 -14.171223 -7.719472 32.174317 -0.470917 1.813086 -0.027616 -0.004891 119558.000000 0 0 1
28.124142 -15.701823 -7.711872 33.120803 -0.509196 1.805794 -0.018530 -0.015614 -155365.000000 0 0 1
28.510242 -16.055223 -8.998772 33.934967 -0.512875 1.839184 -0.013334 -0.023884 102102.000000 0 0 1
28.742142 -17.441023 -9.065972 34.820854 -0.545412 1.834192 -0.000318 -0.028508 -193121.000000 0 0 1
28.960742 -17.865923 -10.510772 35.614493 -0.552754 1.870384 0.006895 -0.031486 815466.000000 0 0 1
30.295442 -17.559723 -10.987972 36.700044 -0.525296 1.874859 0.005600 -0.018906 1152680.000000 0 0 1
30.597542 -18.001323 -12.315672 37.575697 -0.531791 1.904724 0.000265 -0.000442 -193490.000000 0 0 1
29.846642 -17.403623 -13.504472 37.095537 -0.527901 1.943404 0.000502 -0.001724 -291755.000000 0 0 1
30.408642 -16.188223 -13.921272 37.155698 -0.489196 1.954841 -0.019340 0.004617 46406.100000 0 0 1
29.619042 -15.631923 -14.940772 36.672487 -0.485613 1.990414 -0.027421 0.004791 -1216110.000000 0 0 1
30.217842 -14.396123 -15.708472 36.974619 -0.444599 2.009587 -0.024710 0.014129 11365.600000 0 0 1
31.126442 -14.726623 -16.760572 38.296809 -0.441915 2.023779 -0.023279 0.015820 302508.000000 0 0 1
32.399542 -15.032523 -16.226672 39.230243 -0.434413 1.997230 -0.010261 0.013994 -785609.000000 0 0 1
33.411142 -15.438623 -17.340972 40.686175 -0.432854 2.011099 -0.000719 0.014138 468667.000000 0 0 1
34.685742 -15.789923 -16.808372 41.652656 -0.427193 1.986175 0.015013 0.006739 1062330.000000 0 0 1
-35.416225 -16.076323 -17.807272 42.776817 0.426113 2.000150 0.030813 -0.002201 2219350.000000 0 0 1
-33.934325 -16.101823 -17.208072 41.314947 0.443040 2.000399 0.044558 -0.009382 1236640.000000 0 0 1
-33.519925 -16.920623 -16.126472 40.865094 0.467475 1.976458 0.037245 -0.008996 238451.000000 0 0 1
-34.241125 -16.696823 -14.920572 40.912859 0.453699 1.944098 0.027644 -0.010267 -377908.000000 0 0 1
-33.631025 -17.472523 -13.743072 40.313855 0.479154 1.918672 0.012987 -0.011394 -796184.000000 0 0 1
-32.329125 -17.077723 -13.426272 38.949784 0.485988 1.922723 0.045611 -0.018295 -495531.000000 0 0 1
-31.886725 -17.783823 -12.307072 38.529101 0.508750 1.895917 0.052209 -0.008072 -1045570.000000 0 0 1
-30.399825 -17.634923 -12.076872 37.161683 0.525658 1.901789 0.057614 -0.013942 -950080.000000 0 0 1
-30.069825 -16.258623 -12.026572 36.237765 0.495672 1.909092 0.047784 -0.025132 184731.000000 0 0 1
-28.764925 -16.004523 -11.526072 34.877156 0.507736 1.907604 0.061124 -0.025439 302545.000000 0 0 1
-28.670725 -15.859223 -9.950372 34.242303 0.505259 1.865637 0.053979 -0.022902 -144266.000000 0 0 1
-28.845025 -17.086323 -9.286672 34.788219 0.534775 1.841022 0.039745 -0.017579 -111073.000000 0 0 1
-29.149325 -16.827823 -7.919672 34.577160 0.523559 1.801891 0.053308 -0.020271 -135944.000000 0 0 1
-29.189825 -18.211523 -7.119572 35.133940 0.557808 1.774850 0.036737 -0.011955 -312207.000000 0 0 1
-30.206925 -19.048223 -7.556772 36.502026 0.562610 1.779328 0.033734 -0.011869 -552268.000000 0 0 1
-29.916525 -19.751623 -8.739372 36.898532 0.583529 1.809917 0.025836 -0.010302 -40718.600000 0 0 1
-31.096325 -20.623123 -9.244472 38.441577 0.585600 1.813658 0.027049 -0.012668 438878.000000 0 0 1
-32.196825 -19.852623 -9.729272 39.056637 0.552537 1.822554 0.017882 -0.014129 238420.000000 0 0 1
-33.353625 -20.663623 -9.739872 40.426658 0.554657 1.814117 0.008551 -0.014698 227889.000000 0 0 1
-34.721625 -19.986523 -9.985472 41.288763 0.522301 1.815063 0.013440 -0.023863 109001.000000 0 0 1
-34.825725 -19.554723 -11.339372 41.518666 0.511631 1.847426 0.010162 -0.026798 1289310.000000 0 0 1
34.879542 -19.600323 -11.639072 41.668011 -0.511966 1.853891 0.031093 -0.029986 1211600.000000 0 0 1
34.412942 -19.068323 -12.993672 41.432922 -0.505988 1.889786 0.024213 -0.016172 -752584.000000 0 0 1
34.853042 -19.743823 -14.143772 42.480576 -0.515414 1.910223 0.023936 -0.004817 88356.400000 0 0 1
34.120442 -19.480123 -15.340372 42.178274 -0.518764 1.943037 0.016542 0.007897 461992.000000 0 0 1
32.780242 -20.253623 -15.514272 41.538490 -0.553449 1.953566 0.018529 -0.000949 -225665.000000 0 0 1
31.790242 -19.920123 -14.572972 40.246768 -0.559757 1.941306 0.028710 -0.005781 812675.000000 0 0 1
30.603242 -20.752823 -14.692572 39.788312 -0.595893 1.949018 0.024465 -0.003784 1477380.000000 0 0 1
29.565542 -20.535623 -15.832272 39.325487 -0.607079 1.985147 0.022666 -0.000234 -219742.000000 0 0 1
28.877242 -19.300223 -15.777972 38.148894 -0.589170 1.997189 0.002753 0.005574 260149.000000 0 0 1
28.089742 -19.079623 -16.956672 37.955162 -0.596655 2.033932 0.003140 0.000119 -20438.500000 0 0 1
27.410642 -17.699123 -16.868772 36.730882 -0.573348 2.047951 0.000662 0.001441 -25661.700000 0 0 1
26.466242 -17.677023 -15.796972 35.531443 -0.588862 2.031514 0.006898 -0.002177 95811.800000 0 0 1
25.886642 -16.405423 -15.721372 34.444414 -0.564860 2.044772 0.005242 -0.006292 -679991.000000 0 0 1
24.528342 -16.495823 -14.910172 33.106872 -0.592045 2.037970 0.014273 -0.025460 1528870.000000 0 0 1
23.422142 -17.059623 -15.667372 32.940765 -0.629503 2.066468 0.021282 -0.027223 1026640.000000 0 0 1
23.047442 -16.341823 -16.854572 32.898577 -0.616775 2.108679 0.014974 -0.008889 -1118680.000000 0 0 1
22.037842 -17.022623 -17.792372 33.045494 -0.657701 2.139358 0.013270 -0.007009 2101760.000000 0 0 1
20.686342 -17.336823 -17.280272 32.048369 -0.697533 2.140276 0.016314 -0.000278 2126640.000000 0 0 1
19.877842 -17.914523 -18.323472 32.431595 -0.733495 2.171215 0.017841 -0.008853 705183.000000 0 0 1
18.401642 -18.223023 -17.960872 31.516534 -0.780521 2.177165 0.013154 -0.004178 473137.000000 0 0 1
17.562542 -17.065623 -17.838972 30.296985 -0.771049 2.200374 0.015507 -0.000945 535568.000000 0 0 1
16.233242 -17.530823 -17.565772 29.654751 -0.823810 2.204760 0.019377 -0.006893 -7236.350000 0 0 1
15.383942 -16.310323 -17.343372 28.345808 -0.814618 2.229193 0.024303 0.001784 -837348.000000 0 0 1
14.990842 -15.492823 -18.440672 28.369196 -0.801864 2.278413 0.029882 0.004570 -53015.200000 0 0 1
13.708142 -14.969823 -18.232672 27.284411 -0.829365 2.302644 0.023786 0.004838 123051.000000 0 0 1
12.916742 -14.630423 -19.533472 27.612461 -0.847527 2.356631 0.022584 0.002967 472644.000000 0 0 1
13.414142 -13.435523 -20.170672 27.700334 -0.786194 2.386451 0.019242 -0.001692 -341538.000000 0 0 1
12.586142 -13.113223 -21.210872 27.933290 -0.805905 2.433095 0.024156 0.002179 -418650.000000 0 0 1
12.686342 -11.638223 -21.687472 27.690033 -0.742336 2.470629 0.020657 0.002964 -251655.000000 0 0 1
13.893242 -11.238223 -22.338572 28.606496 -0.680143 2.466888 0.007990 0.009526 104159.000000 0 0 1
13.772842 -9.885823 -22.706972 28.337736 -0.622557 2.500258 -0.010884 0.007766 555308.000000 0 0 1
15.035842 -9.310323 -23.448872 29.370193 -0.554424 2.495413 -0.016677 0.016180 588293.000000 0 0 1
15.235042 -9.720723 -24.764472 30.657430 -0.567929 2.511173 -0.004904 0.013087 516372.000000 0 0 1
16.527942 -9.347023 -25.238852 31.583847 -0.514687 2.496604 0.001556 0.003933 215609.000000 0 0 1
21.647842 5.027277 -7.023872 23.307453 0.228185 1.876912 0.053723 0.010412 -300370.000000 0 1 0
21.689642 6.400977 -7.401772 23.794943 0.286971 1.887110 0.047541 0.004886 746592.000000 0 1 0
21.623042 7.261777 -6.316072 23.668167 0.324000 1.840929 0.051887 0.003098 -317317.000000 0 1 0
21.279642 8.758477 -6.631272 23.948024 0.390457 1.851366 0.038560 0.008131 -20719.800000 0 1 0
19.936642 8.902677 -7.093572 22.957485 0.419980 1.884924 -0.004913 0.000880 1025170.000000 0 1 0
19.561242 10.257577 -7.291672 23.260021 0.482963 1.889657 -0.000817 0.006838 210885.000000 0 1 0
19.071042 11.073477 -6.024672 22.860954 0.526065 1.837482 0.009317 0.004969 -485354.000000 0 1 0
20.155942 11.305077 -5.180872 23.683501 0.511158 1.791334 0.017420 -0.000947 66996.600000 0 1 0
19.686442 11.968877 -3.982172 23.380927 0.546263 1.741948 0.029370 -0.017443 37746.200000 0 1 0
20.767142 12.373777 -2.959972 24.354589 0.537351 1.692634 0.027121 -0.023551 -339691.000000 0 1 0
21.840242 13.197277 -3.420972 25.746211 0.543549 1.704063 0.023717 -0.023660 1335230.000000 0 0 1
22.846542 13.489977 -2.417772 26.641877 0.533376 1.661672 0.021972 -0.024881 652277.000000 0 0 1
23.668942 12.305177 -1.838672 26.739800 0.479430 1.639612 0.024283 -0.026701 -1267910.000000 0 0 1
24.768642 11.958277 -2.651272 27.631780 0.449792 1.666894 0.027496 -0.024228 -96702.400000 0 0 1
25.434442 10.883277 -2.060672 27.741719 0.404320 1.645145 0.035169 -0.024321 -736081.000000 0 0 1
26.839742 10.674377 -2.610772 29.002245 0.378529 1.660938 0.036141 -0.027137 -408106.000000 0 0 1
27.810542 11.651677 -2.358772 30.244862 0.396749 1.648865 0.024332 -0.026022 675684.000000 0 0 1
29.151642 11.146177 -2.399572 31.301972 0.365200 1.647530 0.029735 -0.022292 486395.000000 0 0 1
30.153542 12.216277 -1.977272 32.594219 0.384926 1.631497 0.014101 -0.014439 -771401.000000 0 0 1
30.017642 12.469277 -0.608072 32.510175 0.393710 1.589501 0.014598 -0.012617 -25446.700000 0 0 1
30.803642 13.492677 -0.157772 33.629475 0.412849 1.575488 0.021047 -0.008952 -531782.000000 0 0 1
32.286342 13.169577 0.183428 34.869461 0.387298 1.565536 0.035596 -0.009771 173720.000000 0 0 1
33.115442 14.304977 0.362228 36.074868 0.407762 1.560755 0.030630 -0.007614 74095.300000 0 0 1
33.867542 14.579477 -0.821372 36.881516 0.406508 1.593069 0.036395 0.001345 -452124.000000 0 0 1
33.380642 15.630277 -1.861872 36.905818 0.437921 1.621267 -0.003754 0.025654 -315255.000000 0 0 1
32.182342 15.216077 -2.466272 35.683535 0.441659 1.639967 0.014958 0.015143 -413674.000000 0 0 1
31.705742 16.159877 -3.372472 35.745899 0.471364 1.665283 0.002931 0.021082 23168.300000 0 0 1
30.323942 15.775677 -3.951772 34.409737 0.479707 1.685895 0.022455 0.001427 -538861.000000 0 0 1
30.418142 14.716177 -4.868672 34.139907 0.450601 1.713894 0.005238 0.000583 91438.600000 0 0 1
29.253542 14.562677 -5.648772 33.162478 0.461893 1.741967 0.019432 -0.009984 -47878.700000 0 0 1
28.065842 13.852677 -4.941072 31.685996 0.458497 1.727374 0.022044 -0.023444 69985.400000 0 0 1
26.962342 13.790377 -5.857472 30.845622 0.472780 1.761853 0.033508 -0.026062 463221.000000 0 0 1
25.844542 13.126377 -5.311672 29.469578 0.469946 1.752029 0.034870 -0.019344 85958.700000 0 0 1
24.718142 12.881377 -6.342972 28.585831 0.480409 1.794551 0.027070 -0.020616 -414733.000000 0 0 1
24.920942 11.720777 -7.106172 28.441654 0.439622 1.823323 0.031344 -0.012615 528607.000000 0 0 1
23.863842 11.255377 -7.957772 27.558894 0.440711 1.863723 0.032300 -0.015071 68237.900000 0 0 1
23.612342 12.160477 -9.159772 28.094863 0.475580 1.902898 0.030238 -0.003464 -186174.000000 0 0 1
23.109242 13.433077 -8.759472 28.128509 0.526545 1.887472 0.026240 -0.009533 -44187.900000 0 0 1
23.084842 14.373777 -9.802672 28.906881 0.556908 1.916769 0.021566 -0.004026 -653703.000000 0 0 1
22.351342 15.720977 -9.434672 28.909249 0.612976 1.903241 0.020057 -0.009686 321119.000000 0 0 1
21.012342 15.605977 -8.985372 27.673127 0.638816 1.901487 0.020711 -0.004975 254393.000000 0 0 1
20.847842 15.014377 -7.711272 26.824015 0.624147 1.862387 0.034812 -0.009684 -1278210.000000 0 0 1
19.471942 14.360077 -7.540072 25.342080 0.635437 1.872903 0.049757 -0.012541 -745085.000000 0 0 1
18.476142 15.308277 -7.641872 25.181529 0.691904 1.879130 0.050934 -0.015832 -335396.000000 0 0 1
17.151442 14.835777 -7.504672 23.887075 0.713131 1.890382 0.049888 -0.020366 397030.000000 0 1 0
16.400842 15.088777 -6.160972 23.121773 0.743756 1.840512 0.054175 -0.011794 120503.000000 0 1 0
16.974442 14.328177 -5.080872 22.786918 0.701061 1.795660 0.074895 -0.011889 421321.000000 0 1 0
16.376942 14.772877 -3.902172 22.397971 0.733948 1.745910 0.060281 -0.007259 -219938.000000 0 1 0
16.042642 13.615277 -2.916172 21.242557 0.703735 1.708511 0.038153 -0.003909 211466.000000 0 1 0
17.162142 12.836377 -2.441172 21.570142 0.642186 1.684213 0.043219 -0.010953 792301.000000 0 1 0
16.877242 12.175977 -1.176372 20.844174 0.624973 1.627263 0.035341 -0.009849 79936.300000 0 1 0
17.004842 13.074877 0.111628 21.450630 0.655482 1.565592 0.054898 -0.011591 95764.000000 0 1 0
15.965142 14.059877 0.041428 21.273637 0.722027 1.568849 0.045321 -0.013194 768994.000000 0 1 0
16.017342 14.963177 1.172328 21.950542 0.751385 1.517363 0.045400 -0.009803 -575116.000000 0 1 0
14.778942 15.862377 1.364028 21.723092 0.820742 1.507963 0.049984 -0.007900 -289547.000000 0 1 0
14.592542 16.875877 0.380428 22.313275 0.857831 1.553746 0.052185 -0.010975 -4345.730000 0 1 0
13.610142 17.730477 0.912428 22.370479 0.916118 1.529998 0.041047 -0.014329 -237355.000000 0 1 0
13.490942 19.160777 0.369628 23.436671 0.957330 1.555024 0.027677 -0.012825 -178101.000000 0 1 0
12.982242 19.092177 -0.961172 23.107871 0.973635 1.612403 0.030688 -0.017862 278386.000000 0 1 0
12.419242 20.353677 -1.394972 23.884215 1.022931 1.629235 0.024588 -0.017879 -546303.000000 0 1 0
10.910942 20.481977 -1.429472 23.250881 1.081325 1.632315 0.021602 -0.018274 -628456.000000 0 1 0
10.386142 20.394077 -0.120872 22.886786 1.099758 1.576078 0.023931 -0.029587 -763453.000000 0 1 0
9.001942 20.234477 -0.068872 22.146643 1.152207 1.573906 0.033087 -0.025484 -219897.000000 0 1 0
8.494342 20.131577 1.414728 21.896021 1.171519 1.506140 0.032228 -0.026286 13070.300000 0 1 0
8.431042 21.367777 2.079428 23.064874 1.194981 1.480518 0.036212 -0.018128 564587.000000 0 1 0
7.384142 21.311877 3.054028 22.760685 1.237261 1.436210 0.028101 -0.020737 216693.000000 0 1 0
6.913242 22.651577 3.622028 23.958422 1.274577 1.419035 0.021904 -0.013168 65441.900000 0 1 0
7.723842 23.221077 4.625628 24.905273 1.249686 1.383983 0.017434 -0.004810 -79502.600000 0 1 0
7.233842 24.485977 4.913228 26.000603 1.283539 1.380687 0.008842 -0.006018 -240487.000000 0 0 1
7.755642 25.019177 6.238728 26.926399 1.270202 1.336976 -0.000459 0.000607 -134849.000000 0 0 1
7.107342 24.512277 7.399328 26.572845 1.288585 1.288612 0.008681 -0.007458 -119900.000000 0 0 1
7.774342 24.805877 8.584228 27.376284 1.267085 1.251852 0.011845 -0.009514 -469217.000000 0 0 1
7.636742 23.837977 9.786228 26.876370 1.260767 1.198108 0.019117 -0.013919 -539228.000000 0 0 1
6.330842 23.865977 10.270828 26.742370 1.311502 1.176601 0.010776 -0.015563 -368375.000000 0 0 1
5.966942 22.762877 11.082028 26.010850 1.314430 1.130670 0.004521 -0.016965 -119434.000000 0 0 1
4.684642 22.926877 11.932728 26.267424 1.369241 1.099234 0.014154 -0.018154 444385.000000 0 0 1
3.534542 22.785277 11.098928 25.589999 1.416899 1.122178 0.005155 -0.020110 -16049.800000 0 0 1
2.396642 23.321377 11.733628 26.216570 1.468390 1.106755 -0.000921 -0.020319 -7936.530000 0 0 1
1.166642 23.531377 10.841828 25.935150 1.521259 1.139514 0.019960 -0.021607 -367031.000000 0 0 1
1.382342 24.605277 9.938128 26.572485 1.514675 1.187477 0.023087 -0.016227 -401590.000000 0 0 1
0.507042 24.763777 8.879828 26.312604 1.550324 1.226564 0.008303 -0.022871 48994.100000 0 0 1
-0.884958 25.410777 9.157428 27.024974 -1.535984 1.225101 0.018075 -0.025045 273281.000000 0 0 1
-1.825658 24.639877 9.843628 26.596120 -1.496838 1.191663 0.016072 -0.023394 153673.000000 0 0 1
-3.075058 25.342277 9.848428 27.361991 -1.450046 1.202602 0.025870 -0.020218 691210.000000 0 0 1
-4.317058 24.480877 10.329428 26.919276 -1.396247 1.176976 0.033857 -0.024453 682481.000000 0 0 1
-4.603958 24.606677 11.668828 27.619677 -1.385833 1.134614 0.019818 -0.010087 141592.000000 0 0 1
-5.465058 25.727177 11.862928 28.852791 -1.361484 1.147077 0.026606 -0.009916 -286006.000000 0 0 1
-6.036058 25.905977 13.297428 29.738447 -1.341882 1.107224 0.014016 0.006042 -287076.000000 0 0 1
-6.886858 24.893077 13.748728 29.259556 -1.300890 1.081632 0.018618 -0.019251 -107984.000000 0 0 1
-7.249858 25.170877 15.115728 30.242664 -1.290361 1.047412 0.007241 0.008031 -1023350.000000 0 0 1
-8.284058 24.250977 15.620128 30.012063 -1.241627 1.023405 0.010662 -0.008278 -1293260.000000 0 0 1
-9.551958 24.589477 15.153128 30.422025 -1.200280 1.049393 0.005235 -0.004137 -414935.000000 0 0 1
-10.569758 23.670677 15.549228 30.229112 -1.150829 1.030513 0.003075 -0.005601 720121.000000 0 0 1
-12.001558 24.248277 15.371828 31.117671 -1.111201 1.054123 0.000512 -0.009472 192645.000000 0 0 1
-12.317958 25.298777 16.265928 32.501394 -1.117684 1.046656 0.018674 -0.014465 -60336.000000 0 0 1
-13.529358 25.924777 15.901728 33.286672 -1.089806 1.072738 0.007743 -0.014648 -367302.000000 0 0 1
-14.028358 27.066677 16.788028 34.802841 -1.092625 1.067432 0.027627 -0.015905 -498239.000000 0 0 1
-14.937158 26.725577 17.794328 35.412050 -1.061139 1.044316 0.028677 -0.016157 -165961.000000 0 0 1
-15.419658 27.823377 18.511228 36.804507 -1.064736 1.043775 0.040580 -0.019608 -378121.000000 0 0 1
-16.665158 27.497377 19.328228 37.515512 -1.025930 1.029548 0.039924 -0.015006 313611.000000 0 0 1
-17.895058 27.461677 18.620228 37.697344 -0.993271 1.054181 0.038300 -0.021386 608568.000000 0 0 1
-19.011058 26.870577 19.298928 38.156217 -0.955051 1.040502 0.038308 -0.015656 972533.000000 0 0 1
-20.291458 26.945577 18.418028 38.432163 -0.925344 1.071014 0.043851 -0.020001 291245.000000 0 0 1
-20.985658 28.202977 18.411328 39.683533 -0.931086 1.088343 0.030934 -0.019671 244477.000000 0 0 1
-21.733158 28.314477 17.226528 39.633232 -0.916149 1.121148 0.027002 -0.021996 -55212.300000 0 0 1
-22.622658 29.620477 17.107328 41.009974 -0.918553 1.140489 0.022645 -0.023799 1270820.000000 0 0 1
-23.970158 29.418377 17.593028 41.827312 -0.887095 1.136678 0.003770 -0.017115 922049.000000 0 0 1
-24.787858 30.526377 17.333428 42.973775 -0.888772 1.155623 -0.007793 -0.008747 -348107.000000 0 0 1
-26.227958 30.332677 17.810428 43.876969 -0.857843 1.152814 -0.014557 0.001363 -20337.000000 0 0 1
-27.060808 29.409877 17.071528 43.458777 -0.826972 1.167099 0.000933 -0.004293 318020.000000 0 0 1
-28.366658 29.252777 17.574728 44.376382 -0.800776 1.163598 0.015245 -0.003375 -245853.000000 0 0 1
-28.612508 28.175077 18.634428 44.269092 -0.777695 1.136320 0.007905 -0.001375 -716629.000000 0 0 1
-28.591168 26.895177 18.085128 43.218946 -0.754842 1.139054 0.021558 -0.011000 13376.300000 0 0 1
-28.689568 25.861277 19.090728 43.085414 -0.733598 1.111753 0.014360 -0.003817 -156219.000000 0 0 1
-28.899198 24.499177 18.392328 42.114737 -0.703184 1.118847 0.020677 -0.007359 -216801.000000 0 0 1
-30.118468 24.267977 17.739128 42.552714 -0.678238 1.140793 0.034767 -0.008418 -93486.400000 0 0 1
-29.918908 23.233277 16.750328 41.418591 -0.660272 1.154456 0.039820 -0.012725 45129.100000 0 0 1
-30.446998 21.783977 17.219128 41.207520 -0.621035 1.139704 0.044993 -0.008046 215637.000000 0 0 1
-31.798488 21.533777 16.905328 41.959951 -0.595256 1.156122 0.048590 -0.003350 -173901.000000 0 0 1
-32.114228 20.159777 16.929428 41.525243 -0.560576 1.150873 0.045279 -0.001859 608229.000000 0 0 1
-33.495418 19.849077 16.240328 42.186220 -0.534954 1.175624 0.047690 -0.010119 625741.000000 0 0 1
-33.521698 19.924577 14.857328 41.730483 -0.536276 1.206780 0.051549 -0.008786 -365510.000000 0 0 1
-34.801048 19.657277 14.348728 42.466545 -0.514171 1.226130 0.060401 -0.005792 -12173.900000 0 0 1
-34.908436 19.952777 12.834228 42.206985 -0.519256 1.261826 0.068374 -0.000817 -92134.300000 0 0 1
-34.930334 21.360177 12.625828 42.846201 -0.548838 1.271678 0.054553 -0.007238 -195663.000000 0 0 1
-34.845732 21.806377 11.266828 42.622582 -0.559173 1.303277 0.034412 -0.008280 45237.000000 0 0 1
-33.659018 21.375877 10.388828 41.204191 -0.565809 1.315915 0.054485 -0.014444 -214036.000000 0 0 1
-33.997338 20.161677 9.796628 40.722060 -0.535284 1.327840 0.076781 -0.012955 723815.000000 0 0 1
-32.797308 19.527277 9.328928 39.293853 -0.537025 1.331093 0.091508 -0.014104 1084260.000000 0 0 1
-31.940218 18.680077 10.320328 38.413955 -0.529202 1.298794 0.091686 -0.017596 -159456.000000 0 0 1
-31.286188 19.336577 11.340428 38.488103 -0.553589 1.271710 0.091220 -0.017395 -186726.000000 0 0 1
-30.695818 18.322577 12.111228 37.744296 -0.538143 1.244142 0.075350 -0.021043 -246207.000000 0 0 1
-30.101668 18.774077 13.413128 37.927409 -0.557656 1.209323 0.058758 -0.006579 443411.000000 0 0 1
-29.005518 19.697977 13.341728 37.514425 -0.596569 1.207195 0.044912 -0.003274 483949.000000 0 0 1
-29.411438 21.047277 13.308628 38.537516 -0.621129 1.218193 0.046355 0.000391 55764.500000 0 0 1
-28.174698 21.924677 13.540728 38.181886 -0.661287 1.208270 0.048302 -0.011127 288127.000000 0 0 1
-27.710598 21.805277 14.909028 38.283501 -0.666698 1.170776 0.049959 -0.001556 272779.000000 0 0 1
-26.513328 22.521377 15.193328 37.960588 -0.704167 1.159018 0.044805 -0.016088 -25811.500000 0 0 1
-25.985878 22.257177 16.588428 38.023989 -0.708262 1.119356 0.047558 -0.013563 -337145.000000 0 0 1
-25.454378 20.927477 16.756928 36.968626 -0.688106 1.100361 0.056033 -0.011656 167037.000000 0 0 1
-24.895158 20.823877 18.020328 37.123240 -0.696582 1.063954 0.049076 -0.003419 -47383.200000 0 0 1
-23.974758 19.614777 18.308428 35.982316 -0.685706 1.036986 0.051548 -0.005257 92808.900000 0 0 1
-23.239258 19.759577 19.491728 36.199882 -0.704649 1.002203 0.047054 -0.005911 171670.000000 0 0 1
-22.378558 18.619577 19.665628 35.131545 -0.693967 0.976687 0.041766 -0.001209 362186.000000 0 0 1
-21.975258 18.452977 21.130528 35.635987 -0.698493 0.936073 0.034770 0.000667 267332.000000 0 0 1
-23.093158 18.147377 21.957628 36.670951 -0.666043 0.928826 0.029036 0.005557 606570.000000 0 0 1
-22.702958 18.319377 23.328128 37.352717 -0.678944 0.896259 0.035031 0.007120 480546.000000 0 0 1
-23.600258 17.461677 24.269128 38.090326 -0.637002 0.880006 0.019898 0.009957 356987.000000 0 0 1
-22.932158 16.218577 24.407228 37.210736 -0.615570 0.855397 0.016535 0.003644 830934.000000 0 0 1
-23.849158 15.251477 24.959228 37.740601 -0.568957 0.848197 0.008094 0.000727 394342.000000 0 0 1
20.068642 25.093577 33.921433 46.723673 0.896207 0.758307 0.057948 -0.008446 160378.000000 0 0 1
21.070942 24.266177 33.362799 46.323950 0.855759 0.766697 0.059036 -0.015496 -70223.000000 0 0 1
21.043742 22.913277 33.822075 45.954218 0.827904 0.743661 0.061038 -0.011391 -108286.000000 0 0 1
19.910742 22.010477 33.293818 44.602434 0.835444 0.728074 0.043024 -0.005136 -186207.000000 0 0 1
20.046242 21.705377 31.877921 43.464665 0.825115 0.747455 0.054605 -0.000131 273744.000000 0 0 1
19.006042 20.919077 31.304171 42.175687 0.833277 0.734401 0.034254 0.001613 -47017.200000 0 0 1
19.437442 20.260477 29.982251 41.075984 0.806128 0.752589 0.028514 0.015819 66225.200000 0 0 1
20.416842 19.230877 30.161271 41.187090 0.755495 0.749104 0.037120 0.006901 205720.000000 0 0 1
20.866242 18.698677 28.948831 40.287410 0.730668 0.769070 0.016647 0.008540 -506742.000000 0 0 1
21.998042 17.687277 28.936791 40.423898 0.677199 0.772979 0.027704 0.003842 -644465.000000 0 0 1
23.248942 18.251077 29.196611 41.545845 0.665545 0.791532 0.031219 0.000305 -586065.000000 0 0 1
24.242642 17.250877 29.243081 41.718776 0.618464 0.794057 0.032653 0.013571 5355.090000 0 0 1
25.677742 17.718277 29.566481 42.982096 0.604000 0.812234 0.041346 -0.002520 -192014.000000 0 0 1
26.415842 18.068677 28.432641 42.809916 0.599913 0.844426 0.035141 0.008318 -405678.000000 0 0 1
27.693642 18.510077 28.803631 44.036461 0.589193 0.857823 0.045737 0.005910 -354019.000000 0 0 1
28.708242 18.597877 27.662891 43.991814 0.574844 0.890763 0.042919 0.005985 -95698.900000 0 0 1
28.536542 19.570177 26.677231 43.692113 0.601128 0.914012 0.056079 -0.005182 93123.000000 0 0 1
29.738042 19.497977 25.936001 44.013616 0.580342 0.940639 0.057721 -0.016093 69669.700000 0 0 1
29.804542 20.586677 24.862021 43.934521 0.604472 0.969286 0.052562 -0.018142 95532.300000 0 0 1
28.732942 20.531677 23.945061 42.667291 0.620437 0.974956 0.046253 -0.020568 99380.000000 0 0 1
28.915542 21.506077 22.925611 42.710696 0.639492 1.004198 0.033329 -0.025405 -396607.000000 0 0 1
29.866742 21.116977 21.796611 42.579822 0.615435 1.033401 0.048673 -0.015136 -334461.000000 0 0 1
29.270942 20.139177 20.969811 41.256605 0.602645 1.037613 0.032247 -0.003831 249455.000000 0 0 1
30.090442 19.676877 19.883311 41.084794 0.579129 1.065624 0.045749 0.000565 361139.000000 0 0 1
31.266742 18.743977 20.275611 41.713862 0.540042 1.063216 0.049825 -0.005159 -123531.000000 0 0 1
30.826242 17.469277 20.540011 40.955157 0.515575 1.045436 0.050885 0.003458 396293.000000 0 0 1
31.911042 16.680677 21.029211 41.698769 0.481661 1.042211 0.048384 0.001820 -206346.000000 0 0 1
31.649342 15.151977 21.126111 40.958221 0.446500 1.028859 0.048383 -0.002784 242181.000000 0 0 1
30.952742 14.715677 22.309411 40.894171 0.443794 0.993763 0.041415 0.004959 253230.000000 0 0 1
29.573242 14.960977 22.385811 39.994150 0.468353 0.976740 0.032810 0.002583 -763990.000000 0 0 1
28.713742 14.210077 23.351311 39.644533 0.459549 0.940954 0.034297 0.000518 -253379.000000 0 0 1
28.384942 12.878677 23.023511 38.751094 0.425939 0.934602 0.036067 0.003371 -153163.000000 0 0 1
27.565542 12.338977 24.028071 38.593493 0.420876 0.898743 0.035791 0.012363 -127863.000000 0 0 1
26.952442 10.999377 23.639911 37.500211 0.387472 0.888736 0.039177 0.005524 -756799.000000 0 0 1
25.797742 11.075577 22.881411 36.218102 0.405527 0.886965 0.048929 0.004395 -728299.000000 0 0 1
25.341442 9.794577 22.558311 35.312885 0.368818 0.877843 0.038516 0.008453 281239.000000 0 0 1
24.049942 9.863777 21.670411 33.842289 0.389215 0.875862 0.041147 0.000429 -120516.000000 0 0 1
22.898342 9.846577 22.443211 33.540824 0.406109 0.837757 0.033513 0.000687 -495539.000000 0 0 1
21.792342 9.406477 21.687711 32.151902 0.407483 0.830456 0.020928 0.008878 20320.900000 0 0 1
20.413642 9.409677 22.371711 31.713597 0.431923 0.787767 0.015023 -0.007094 -178402.000000 0 0 1
20.136842 8.487077 23.431711 32.040099 0.398877 0.750534 0.024048 0.000186 504635.000000 0 0 1
18.745942 8.571977 23.728541 31.431398 0.428884 0.715247 0.024732 0.000918 332058.000000 0 0 1
18.373342 7.904777 25.032221 32.041805 0.406293 0.674152 0.031052 0.010983 -358850.000000 0 0 1
18.509842 6.496677 25.018551 31.792278 0.337552 0.664966 0.021127 0.010886 180407.000000 0 0 1
18.073342 5.829077 26.187631 32.348352 0.311990 0.627410 0.021362 0.003387 -190648.000000 0 0 1
18.309942 4.330077 26.193851 32.250913 0.232221 0.622901 0.024034 -0.002166 -720832.000000 0 0 1
19.649742 4.116277 25.897341 32.767795 0.206497 0.659450 0.032478 0.003662 -836494.000000 0 0 1
19.962642 2.767677 25.759991 32.706945 0.137765 0.663892 0.022236 0.008581 -644279.000000 0 0 1
21.405942 2.675577 25.267601 33.223858 0.124347 0.706674 0.034637 0.004884 -471583.000000 0 0 1
22.255542 2.744677 26.390881 34.631214 0.122706 0.704316 0.044641 -0.006758 -300237.000000 0 0 1
23.629642 2.875077 26.108861 35.331270 0.121077 0.739251 0.062358 -0.012476 55257.100000 0 0 1
24.388742 3.347377 27.348211 36.795928 0.136399 0.732896 0.062546 -0.017223 -1060880.000000 0 0 1
24.460842 2.355477 28.389811 37.548135 0.096000 0.713477 0.072168 -0.024434 264150.000000 0 0 1
25.315442 2.652977 29.496111 38.960627 0.104416 0.711972 0.066344 -0.017707 1137290.000000 0 0 1
26.842742 2.784677 29.158261 39.730233 0.103371 0.746741 0.059771 -0.020878 -421149.000000 0 0 1
27.157142 4.049377 28.495271 39.571306 0.148019 0.766851 0.058029 -0.011893 802633.000000 0 0 1
28.546042 4.195177 28.159571 40.316714 0.145917 0.797554 0.047277 -0.009941 758131.000000 0 0 1
29.238142 3.217877 27.200831 40.063810 0.109616 0.824482 0.048530 -0.014814 -716155.000000 0 0 1
28.784342 3.233377 25.871861 38.837434 0.111862 0.841751 0.040318 -0.009247 18896.200000 0 0 1
29.345942 2.203977 25.079921 38.665802 0.074963 0.865009 0.042080 0.000112 -324629.000000 0 0 1
29.043642 2.464177 23.590111 37.497982 0.084641 0.890397 0.063587 -0.017879 267595.000000 0 0 1
29.864942 3.373277 22.842211 37.749972 0.112474 0.920915 0.042601 -0.015727 -121158.000000 0 0 1
31.150642 2.870777 22.522111 38.546716 0.091898 0.946803 0.038738 -0.014891 26527.600000 0 0 1
31.943242 3.968777 21.794011 38.872880 0.123611 0.975628 0.031332 -0.017561 -489769.000000 0 0 1
31.310842 4.280977 20.548211 37.695153 0.135883 0.994269 0.023787 -0.032179 49204.800000 0 0 1
31.584142 5.564977 19.961111 37.775296 0.174405 1.014061 0.025179 -0.015266 738823.000000 0 0 1
33.110942 5.893277 19.678011 38.965232 0.176141 1.041397 0.013492 -0.015575 507443.000000 0 0 1
33.897242 6.053777 20.825311 40.241332 0.176729 1.026857 0.016933 -0.010656 -203021.000000 0 0 1
33.718342 7.224177 21.536511 40.656323 0.211060 1.012525 0.016481 -0.006569 -636429.000000 0 0 1
34.442642 7.087277 22.895011 41.960775 0.202938 0.993657 0.017339 -0.010295 9924.640000 0 0 1
33.710342 6.215077 23.753181 41.704052 0.182320 0.964819 0.023399 -0.004493 -114652.000000 0 0 1
34.437642 5.996677 24.930871 42.935529 0.172403 0.951259 0.023979 -0.006359 -57953.100000 0 0 1
33.801742 4.846877 25.780951 42.786767 0.142421 0.924110 0.033031 -0.007488 130051.000000 0 0 1
33.977342 3.586977 25.163351 42.432540 0.105180 0.935992 0.029383 -0.008689 40149.700000 0 0 1
33.356542 2.606177 25.962711 42.349893 0.077973 0.910878 0.037126 -0.009231 -6139.570000 0 0 1
33.492642 1.205477 25.365911 42.031413 0.035977 0.922914 0.025230 -0.012934 -944504.000000 0 0 1
32.567142 0.963577 24.417991 40.715912 0.029579 0.927650 0.033253 -0.012443 -996162.000000 0 0 1
32.712242 -0.364023 24.006791 40.577695 -0.011128 0.937723 0.040247 -0.005061 -139448.000000 0 0 1
31.485142 -0.885323 23.229011 39.136746 -0.028111 0.935353 0.043956 -0.006452 -139177.000000 0 0 1
30.346842 -0.907523 24.075591 38.747755 -0.029896 0.900343 0.051481 -0.006076 -337709.000000 0 0 1
29.395542 -1.719223 23.430511 37.630340 -0.058419 0.898672 0.063419 -0.012177 -1129640.000000 0 0 1
27.954842 -1.522323 23.786641 36.736834 -0.054403 0.866513 0.063527 -0.012024 -1008980.000000 0 0 1
27.431742 -0.251223 23.394511 36.053665 -0.009158 0.864684 0.051739 -0.005416 1076430.000000 0 0 1
25.983742 -0.304323 23.434911 34.992035 -0.011712 0.836963 0.057818 -0.011542 1557320.000000 0 0 1
25.241342 1.068077 23.272511 34.349322 0.042289 0.826405 0.055290 0.001885 140768.000000 0 0 1
25.336742 1.682977 21.985111 33.587617 0.066327 0.857196 0.048796 -0.009475 7248.510000 0 0 1
24.402542 2.705877 21.777711 32.818814 0.110434 0.845210 0.038106 -0.004315 -67666.300000 0 0 1
24.748642 3.483377 20.485711 32.315531 0.139832 0.884175 0.037987 -0.011707 -55307.000000 0 0 1
24.352942 2.794077 19.319611 31.210896 0.114233 0.903325 0.036476 -0.009603 243632.000000 0 0 1
23.421642 3.593777 18.602911 30.125684 0.152251 0.905223 0.030548 -0.011548 150800.000000 0 0 1
23.237842 3.223377 17.153311 29.062408 0.137833 0.939461 0.029538 -0.011332 350211.000000 0 0 1
24.484542 3.443077 16.480811 29.714722 0.139706 0.982873 0.024740 -0.008413 538476.000000 0 0 1
24.473742 3.533377 15.033311 28.938715 0.143383 1.024545 0.018884 -0.014712 -647121.000000 0 0 1
23.965642 2.325477 14.187411 27.947137 0.096731 1.038339 0.017415 -0.012861 -189930.000000 0 0 1
22.608042 1.993777 14.286311 26.817856 0.087961 1.008989 0.045087 -0.010912 -93747.300000 0 0 1
22.412842 0.672177 13.807211 26.332990 0.029982 1.018867 0.052375 -0.011348 1478200.000000 0 0 1
20.863442 0.257477 13.710011 24.966255 0.012340 0.989459 0.077650 -0.022654 1748190.000000 0 1 0
19.990842 0.937077 12.810911 23.761972 0.046841 1.001387 0.097333 -0.017303 558403.000000 0 1 0
20.156242 0.579077 11.449911 23.188572 0.028722 1.054372 0.098802 -0.015132 -721187.000000 0 1 0
20.016742 -0.881923 10.988611 22.851637 -0.044031 1.069152 0.109251 -0.010652 166466.000000 0 1 0
21.031442 -1.813823 11.378311 23.980773 -0.086031 1.076427 0.081450 -0.015501 978713.000000 0 1 0
22.245542 -1.720123 10.601011 24.702316 -0.077171 1.127244 0.090031 -0.011344 -281537.000000 0 1 0
23.320642 -2.562923 11.220311 26.006082 -0.109460 1.124697 0.073203 -0.016544 -987573.000000 0 0 1
23.666142 -2.039723 12.475111 26.830489 -0.085975 1.087207 0.065701 -0.025118 193753.000000 0 0 1
24.245742 -3.021523 13.329011 27.832502 -0.123982 1.071394 0.036720 -0.012645 8540.100000 0 0 1
24.400442 -2.471723 14.762011 28.625303 -0.100954 1.028974 0.044087 -0.019611 -48408.900000 0 0 1
25.349642 -1.447223 14.896611 29.438203 -0.057029 1.040221 0.021156 -0.018242 -212721.000000 0 0 1
25.496042 -1.010323 16.247911 30.250017 -0.039606 1.003776 0.020070 -0.031195 45252.500000 0 0 1
26.745742 -0.116923 16.425311 31.386928 -0.004372 1.020058 0.037659 -0.022080 292389.000000 0 0 1
27.938942 -0.847423 16.198811 32.306409 -0.030322 1.045567 0.039766 -0.023954 128167.000000 0 0 1
29.083442 -0.008723 16.197311 33.289631 -0.000300 1.062652 0.028005 -0.020378 162839.000000 0 0 1
30.418542 -0.775923 16.244411 34.493052 -0.025503 1.080432 0.036578 -0.018072 -169275.000000 0 0 1
30.728042 -1.403923 15.045911 34.242707 -0.045657 1.115877 0.044849 -0.016858 582018.000000 0 0 1
32.026842 -1.995223 15.196911 35.505572 -0.062218 1.128501 0.044736 -0.014819 585799.000000 0 0 1
32.493942 -2.684723 13.887211 35.438942 -0.082435 1.168141 0.047373 -0.020241 -35137.400000 0 0 1
32.741642 -1.737623 12.869311 35.222913 -0.053021 1.196769 0.045039 -0.019740 224217.000000 0 0 1
33.302942 -2.318723 11.687311 35.370265 -0.069513 1.234040 0.044432 -0.020549 95204.200000 0 0 1
32.711842 -1.733123 10.364011 34.358129 -0.052932 1.264377 0.049778 -0.021094 -391620.000000 0 0 1
33.187742 -0.439723 10.030711 34.673257 -0.013249 1.277309 0.041525 -0.009938 273579.000000 0 0 1
32.215442 0.517577 9.652711 33.634468 0.016065 1.279715 0.028247 -0.012384 -423774.000000 0 0 1
32.777042 1.933377 9.339211 34.136393 0.058917 1.293678 0.022993 -0.011624 301744.000000 0 0 1
33.513942 2.028877 8.096311 34.537674 0.060465 1.334175 0.031459 -0.009578 546015.000000 0 0 1
33.753042 3.354077 7.778011 34.799643 0.099046 1.345384 0.027119 -0.008048 62586.000000 0 0 1
34.367942 3.473077 6.323111 35.116940 0.100714 1.389750 0.032608 -0.008586 123596.000000 0 0 1
34.601242 4.811677 5.939311 35.435485 0.138175 1.402392 0.023374 -0.000592 4293.920000 0 0 1
35.121542 4.956177 4.651311 35.773190 0.140189 1.440405 0.048056 -0.012144 -229353.000000 0 0 1
35.456342 6.402377 4.349811 36.291369 0.178646 1.450649 0.058633 -0.025352 315383.000000 0 0 1
34.270742 7.176677 4.184911 35.263323 0.206428 1.451840 0.054286 -0.026614 169030.000000 0 0 1
34.599042 8.506577 3.922911 35.844732 0.241080 1.461135 0.058753 -0.037893 -719624.000000 0 0 1
33.419342 9.514877 3.835411 34.958485 0.277372 1.460862 0.056350 -0.041390 522032.000000 0 0 1
32.429942 9.322077 2.798311 33.859014 0.279906 1.488056 0.055551 -0.034468 1005100.000000 0 0 1
31.666742 8.087977 2.882311 32.810146 0.250063 1.482835 0.063912 -0.023309 -342069.000000 0 0 1
30.486442 8.013477 1.857011 31.576692 0.257039 1.511953 0.061153 -0.029495 174670.000000 0 0 1
30.899742 7.999877 0.489111 31.922270 0.253335 1.555474 0.061778 -0.031206 -117146.000000 0 0 1
29.831442 7.837877 -0.389389 30.846376 0.256932 1.583420 0.061853 -0.022813 -339326.000000 0 0 1
30.332942 7.732377 -1.845989 31.357371 0.249601 1.629700 0.044357 -0.016744 -116289.000000 0 0 1
29.294942 7.222277 -2.654589 30.288641 0.241716 1.658552 0.055289 -0.019059 829136.000000 0 0 1
29.800342 6.966477 -3.962589 30.859266 0.229648 1.699560 0.043746 -0.020612 -69165.400000 0 0 1
28.832142 6.176877 -4.890689 29.889213 0.211046 1.735163 0.056871 -0.014019 -251912.000000 0 0 1
28.739842 4.787377 -4.540289 29.487484 0.165061 1.725385 0.057041 -0.016273 1125640.000000 0 0 1
27.657142 4.232477 -5.309689 28.478486 0.151856 1.758339 0.058080 -0.013663 82500.300000 0 0 1
27.538942 2.706077 -5.169289 28.150271 0.097949 1.755476 0.068075 -0.007242 -860866.000000 0 0 1
27.130942 2.236677 -3.924689 27.504435 0.082254 1.713978 0.080233 -0.019685 462369.000000 0 0 1
26.827242 0.824677 -3.968489 27.131714 0.030731 1.717591 0.065600 -0.022632 -154860.000000 0 0 1
26.867742 0.240577 -2.585089 26.992890 0.008954 1.666713 0.074505 -0.026543 -21130.200000 0 0 1
28.116042 0.433477 -1.954589 28.187234 0.015416 1.640195 0.066684 -0.023306 213402.000000 0 0 1
27.996642 0.182977 -0.574389 28.003132 0.006536 1.591309 0.070520 -0.017656 793270.000000 0 0 1
29.311942 0.672677 0.163911 29.320118 0.022945 1.565206 0.077871 -0.017155 732682.000000 0 0 1
30.454242 -0.109723 -0.104189 30.454618 -0.003603 1.574217 0.066916 -0.010195 152776.000000 0 0 1
31.596642 0.698877 0.132211 31.604647 0.022115 1.566613 0.042568 -0.013530 -41072.500000 0 0 1
-2.604658 -21.196023 -8.284872 22.906216 1.448525 1.940873 0.010123 -0.003053 153012.000000 0 1 0
-3.280958 -21.867623 -7.246972 23.269641 1.421870 1.887499 0.009687 -0.000154 46501.500000 0 1 0
-2.668058 -23.114323 -6.996172 24.296849 1.455876 1.862877 0.008825 0.000813 162757.000000 0 1 0
-3.336158 -23.667523 -5.722372 24.576963 1.430760 1.805788 0.005792 0.001736 -277580.000000 0 1 0
-3.156658 -22.792223 -4.618472 23.468706 1.433175 1.768882 0.006887 -0.004541 -244034.000000 0 1 0
-3.614658 -23.441523 -3.423472 23.964367 1.417802 1.714144 0.002653 -0.007146 -596966.000000 0 1 0
-3.242058 -22.793923 -2.125872 23.121271 1.429511 1.662871 -0.004842 -0.011237 17853.400000 0 1 0
-1.852158 -22.801723 -1.847272 22.951284 1.489745 1.651370 0.009206 -0.014865 -425682.000000 0 1 0
-1.602958 -22.756823 -0.466872 22.817984 1.500474 1.591258 0.007268 -0.008857 2058790.000000 0 1 0
-0.028658 -22.616723 -0.166372 22.617353 1.569529 1.578152 0.009520 -0.015384 2024280.000000 0 1 0
0.602242 -21.471323 -0.737872 21.492437 -1.542755 1.605135 0.003187 -0.015859 -716474.000000 0 1 0
1.811742 -21.263823 -0.061272 21.340954 -1.485799 1.573667 0.009091 -0.015346 -377774.000000 0 1 0
2.576442 -20.095323 -0.701972 20.271971 -1.443281 1.605431 0.014962 -0.019597 -421101.000000 0 1 0
3.563942 -20.571723 -1.526572 20.933893 -1.399254 1.643785 0.020170 -0.013859 -1174510.000000 0 1 0
4.412442 -19.566123 -2.031672 20.160121 -1.348992 1.671744 0.026075 -0.016477 -23640.500000 0 1 0
5.228442 -20.236823 -3.175972 21.141249 -1.317962 1.721594 0.023788 -0.010985 -552910.000000 0 1 0
6.129142 -21.215523 -2.646072 22.241099 -1.289555 1.690051 0.028642 -0.016512 83144.300000 0 1 0
6.948042 -21.898423 -3.602072 23.254916 -1.263558 1.726318 0.022672 -0.013400 473534.000000 0 1 0
8.148642 -21.090723 -4.135772 22.985290 -1.202102 1.751713 0.028514 -0.014499 -768114.000000 0 1 0
7.813442 -20.120823 -5.125372 22.184833 -1.200394 1.803933 0.013475 -0.004930 722224.000000 0 1 0
8.977042 -19.452223 -5.729872 22.176737 -1.138427 1.832134 0.019898 -0.007053 840139.000000 0 1 0
8.619242 -18.203123 -6.564172 21.183327 -1.128570 1.885857 0.004611 -0.003175 -1034270.000000 0 1 0
9.706942 -17.772723 -7.278872 21.519209 -1.070898 1.915853 0.014017 -0.007637 -532501.000000 0 1 0
9.330342 -16.774323 -8.204172 20.874425 -1.063184 1.974715 0.008337 0.001157 -59657.200000 0 1 0
10.265342 -16.667123 -9.426472 21.726219 -1.018765 2.019586 0.015174 -0.006879 -348793.000000 0 1 0
9.823042 -17.360223 -10.613172 22.594444 -1.055876 2.059775 0.022157 -0.004247 380378.000000 0 1 0
8.848142 -16.650423 -11.381272 22.024067 -1.082340 2.113865 0.003706 -0.011534 127254.000000 0 1 0
8.351742 -17.294323 -12.636672 22.989795 -1.120907 2.152759 0.009294 -0.011613 -54177.300000 0 1 0
7.059642 -17.853623 -12.473472 22.894932 -1.194246 2.146963 0.005089 -0.009248 237710.000000 0 1 0
6.647542 -18.358423 -13.720172 23.863458 -1.223385 2.183333 0.009639 -0.005607 -168996.000000 0 1 0
5.373042 -19.207023 -13.593672 24.136429 -1.298025 2.169051 0.010604 -0.001341 -428046.000000 0 1 0
5.588142 -20.444923 -12.946372 24.836077 -1.303986 2.119138 0.015674 -0.008895 524406.000000 0 1 0
4.366542 -21.195723 -12.929772 25.209212 -1.367628 2.109354 0.017049 -0.005652 465222.000000 0 0 1
4.518842 -22.679823 -12.643072 26.356054 -1.374127 2.071112 0.022159 -0.009336 -293070.000000 0 0 1
5.067842 -23.407523 -13.706072 27.594412 -1.357582 2.090586 0.024966 -0.009121 -126198.000000 0 0 1
4.659942 -24.779423 -13.825072 28.755303 -1.384910 2.072344 0.021735 -0.004490 97436.700000 0 0 1
3.212542 -25.139783 -14.241672 29.071538 -1.443698 2.082753 0.029748 -0.005749 -424000.000000 0 0 1
2.329042 -25.004673 -13.182972 28.362807 -1.477920 2.054203 0.033920 -0.006249 -516240.000000 0 0 1
0.959442 -25.137283 -13.515672 28.556556 -1.532647 2.063824 0.024941 -0.010995 -110.284000 0 0 1
0.442742 -26.562523 -13.299972 29.709475 -1.554130 2.034952 0.012713 -0.003023 -848480.000000 0 0 1
0.649142 -27.547783 -14.301072 31.045489 -1.547236 2.049523 0.021625 -0.003227 -72731.900000 0 0 1
0.340442 -28.863473 -13.793672 31.991895 -1.559002 2.016576 0.005660 0.004276 640558.000000 0 0 1
-1.148258 -29.322753 -13.953172 32.493589 1.531657 2.014639 -0.011264 0.000945 957608.000000 0 0 1
-2.111058 -28.569273 -13.205872 31.544492 1.497038 2.002747 -0.004423 0.000557 -97826.300000 0 0 1
-3.404358 -28.992073 -13.550372 32.182954 1.453908 2.005390 -0.004417 0.006568 -239014.000000 0 0 1
-4.530858 -28.218213 -12.780772 31.307257 1.411590 1.991318 -0.013839 0.001682 290796.000000 0 0 1
-4.612358 -28.385443 -11.368472 30.923282 1.409714 1.947261 -0.010517 -0.010508 -264604.000000 0 0 1
-5.125158 -29.658483 -11.056972 32.064770 1.399680 1.922857 -0.016166 -0.008530 -755312.000000 0 0 1
-5.558258 -29.624403 -9.555472 31.619717 1.385328 1.877796 -0.005896 -0.012477 -398249.000000 0 0 1
-6.797258 -29.138423 -9.121572 31.280241 1.341620 1.866704 0.004832 -0.010660 -624402.000000 0 0 1
-6.950458 -27.733563 -9.271172 30.056846 1.325239 1.884364 0.011663 -0.011304 -170685.000000 0 0 1
-8.432158 -27.320613 -8.920172 29.951404 1.271434 1.873206 0.007515 -0.010707 1647350.000000 0 0 1
-9.477258 -27.647663 -9.881472 30.852150 1.240562 1.896826 0.017757 -0.010173 755708.000000 0 0 1
-9.607858 -29.006303 -10.269272 32.235609 1.250937 1.895016 0.017606 -0.014813 -1269650.000000 0 0 1
-10.897358 -29.298083 -11.044572 33.152868 1.214704 1.910429 0.031529 -0.007235 -376384.000000 0 0 1
-10.936858 -28.592893 -12.284972 32.986193 1.205464 1.952420 0.034540 -0.006876 -464168.000000 0 0 1
-11.992158 -29.044783 -13.039472 34.021156 1.179232 1.964136 0.043343 -0.003736 -956790.000000 0 0 1
-12.007958 -28.229483 -14.369672 33.875983 1.168613 2.008858 0.048313 -0.003044 492739.000000 0 0 1
-12.999758 -27.196173 -14.587772 33.487738 1.124903 2.021518 0.042355 -0.012537 340281.000000 0 0 1
-12.980958 -26.130893 -13.619672 32.199756 1.109739 2.007522 0.037074 -0.004296 90428.700000 0 0 1
-13.890458 -24.898523 -13.884372 31.712096 1.061921 2.023975 0.054160 -0.007872 95081.900000 0 0 1
-13.510058 -24.193623 -15.031372 31.524517 1.061516 2.067824 0.036660 -0.004364 404715.000000 0 0 1
-14.555058 -23.263923 -15.291572 31.414837 1.011730 2.079176 0.042167 -0.007324 183282.000000 0 0 1
-14.278658 -22.515323 -16.627772 31.421372 1.005626 2.128438 0.038750 -0.007261 128349.000000 0 0 1
-13.425658 -21.394223 -16.500372 30.169908 1.010375 2.149471 0.027401 -0.002630 179277.000000 0 0 1
-13.122658 -20.886823 -17.784872 30.409952 1.009846 2.195476 0.022659 0.003362 -25627.700000 0 0 1
-13.487158 -19.379423 -17.890272 29.623087 0.962792 2.219219 0.026170 0.008708 -757756.000000 0 0 1
-12.429458 -18.657623 -17.387772 28.371340 0.983126 2.230476 0.036409 0.013283 -519459.000000 0 0 1
-12.463858 -17.301423 -17.787372 27.768284 0.946513 2.266029 0.038216 0.009805 485107.000000 0 0 1
-11.092958 -16.576423 -18.018972 26.879636 0.981041 2.305487 0.042355 0.006071 461067.000000 0 0 1
-10.513258 -16.077723 -16.849472 25.552426 0.991683 2.290827 0.038920 0.011531 -85292.900000 0 0 1
-9.214958 -15.586623 -17.099772 24.905029 1.036866 2.327597 0.040635 0.008679 -257656.000000 0 1 0
-8.501758 -14.978323 -15.843272 23.401695 1.054538 2.314494 0.025264 0.011373 115547.000000 0 1 0
-8.081058 -15.847223 -14.787172 23.132194 1.099232 2.264314 0.031265 0.012482 305484.000000 0 1 0
-6.861258 -16.505523 -15.115672 23.409243 1.176834 2.272754 0.037725 0.004902 -89361.700000 0 1 0
-6.358758 -17.391123 -13.923872 23.168063 1.220264 2.215541 0.033834 0.006727 -298625.000000 0 1 0
-5.920058 -16.700123 -12.739072 21.822583 1.230125 2.194144 0.035676 -0.001385 281157.000000 0 1 0
-5.725058 -17.499223 -11.577272 21.749306 1.254611 2.132118 0.029775 -0.002947 63717.900000 0 1 0
-4.644058 -18.609323 -11.567272 22.398124 1.326236 2.113484 0.033436 -0.006982 939168.000000 0 1 0
-3.277258 -18.145523 -11.665772 21.819502 1.392113 2.134889 0.026729 -0.002172 841762.000000 0 1 0
-2.395358 -19.292723 -11.665672 22.672335 1.447270 2.111260 0.017785 0.007746 1082790.000000 0 1 0
-0.909258 -18.841623 -11.838472 22.270674 1.522576 2.131252 0.011037 0.011992 205360.000000 0 1 0
-0.707458 -18.321923 -13.163372 22.571391 1.532203 2.193444 0.014708 -0.004026 879442.000000 0 1 0
0.607942 -17.750523 -13.364572 22.227515 -1.536560 2.215877 0.023022 -0.005439 1109040.000000 0 1 0
1.801842 -18.615723 -13.785572 23.234323 -1.474305 2.205983 0.018681 -0.007906 -629783.000000 0 1 0
1.646142 -19.465523 -14.891972 24.563941 -1.486430 2.222137 0.024184 -0.005021 -63025.600000 0 1 0
0.805842 -20.569523 -14.642872 25.261994 -1.531640 2.189084 0.015084 -0.009230 -828123.000000 0 0 1
0.866342 -21.720823 -15.714772 26.823474 -1.530932 2.196736 0.021535 -0.001121 515434.000000 0 0 1
2.067542 -22.432323 -16.014472 27.639594 -1.478888 2.188793 0.023325 -0.000547 419070.000000 0 0 1
3.181842 -21.724823 -16.498572 27.464430 -1.425369 2.215204 0.025841 -0.006804 -104057.000000 0 0 1
4.517442 -22.459723 -16.667572 28.331156 -1.372309 2.199767 0.029879 -0.006012 21668.500000 0 0 1
4.613942 -23.195223 -17.855672 29.633289 -1.374442 2.217494 0.030491 -0.009937 1717270.000000 0 0 1
6.007242 -23.553023 -18.145172 30.332806 -1.321069 2.212053 0.034248 -0.012463 1767620.000000 0 0 1
6.282042 -23.378623 -19.628872 31.165954 -1.308288 2.252115 0.028023 -0.004933 -125388.000000 0 0 1
6.286742 -22.018623 -20.003572 30.405358 -1.292677 2.288818 0.040859 -0.020463 309374.000000 0 0 1
7.031942 -21.860823 -21.222972 31.269127 -1.259580 2.316814 0.013539 -0.013938 381692.000000 0 0 1
7.237342 -20.393023 -21.735572 30.670663 -1.229769 2.358417 0.019788 -0.012924 583721.000000 0 0 1
5.959242 -19.853823 -22.078372 30.284342 -1.279197 2.387709 0.037076 -0.019477 490183.000000 0 0 1
6.058842 -18.472723 -22.347872 29.620575 -1.253864 2.425644 0.042309 -0.017077 275492.000000 0 0 1
4.689242 -17.764723 -22.558472 29.093969 -1.312719 2.458091 0.047002 -0.018052 -1461190.000000 0 0 1
4.034742 -18.303423 -23.655772 30.180954 -1.353830 2.471555 0.051832 -0.016996 -323259.000000 0 0 1
2.913542 -17.588523 -24.119872 29.993551 -1.406637 2.505072 0.053228 -0.009761 -633652.000000 0 0 1
1.710842 -17.624523 -23.235572 29.213740 -1.474028 2.490405 0.039446 0.000740 -2226940.000000 0 0 1
1.890242 -16.918423 -21.999972 27.817347 -1.459531 2.483030 0.052345 -0.007682 294033.000000 0 0 1
0.863142 -15.915023 -21.719372 26.940009 -1.516615 2.508518 0.044186 -0.008417 945419.000000 0 0 1
1.335742 -15.033323 -20.575472 25.517348 -1.482177 2.508722 0.037228 -0.015273 -61134.300000 0 0 1
2.475842 -14.240823 -20.731172 25.272758 -1.398662 2.532727 0.044270 -0.008969 -416890.000000 0 0 1
2.514242 -13.342823 -19.636272 23.873322 -1.384546 2.536623 0.040427 -0.015785 -197851.000000 0 1 0
3.732642 -12.445923 -19.726672 23.621499 -1.279423 2.559138 0.047818 -0.014433 -882477.000000 0 1 0
4.979942 -13.008023 -19.406972 23.888052 -1.205173 2.519076 0.041217 -0.017434 -59301.000000 0 1 0
6.023342 -12.034823 -19.402172 23.612748 -1.106755 2.535152 0.029614 -0.013885 265284.000000 0 1 0
6.084042 -10.957323 -18.247872 22.137374 -1.063932 2.539764 0.028545 -0.012912 -528545.000000 0 1 0
5.113142 -9.913323 -18.301272 21.432563 -1.094601 2.594230 0.013160 -0.002796 30705.300000 0 1 0
5.450342 -8.743223 -19.038072 21.647133 -1.013363 2.645550 0.026812 -0.011987 -569779.000000 0 1 0
5.011442 -8.800123 -20.507072 22.871308 -1.053125 2.682892 0.043013 -0.017058 -650788.000000 0 1 0
3.619242 -8.806723 -20.563172 22.660568 -1.180874 2.707954 0.032717 -0.020718 -664977.000000 0 1 0
3.068542 -9.164323 -21.839372 23.882189 -1.247694 2.724975 0.034955 -0.022706 605514.000000 0 1 0
1.516642 -9.193223 -21.825772 23.731411 -1.407295 2.738111 0.038683 -0.018471 179999.000000 0 1 0
0.966742 -7.996623 -21.374272 22.841630 -1.450486 2.781203 0.036253 -0.020606 -42209.700000 0 1 0
-0.434858 -7.901123 -21.607872 23.011236 1.515814 2.790548 0.031006 -0.018278 589373.000000 0 1 0
-0.843558 -6.852523 -22.711672 23.737917 1.448311 2.846474 0.032066 -0.016408 -190931.000000 0 1 0
-0.539358 -7.315923 -24.014972 25.110407 1.497206 2.845128 0.031368 -0.015577 -309472.000000 0 0 1
-1.165358 -6.602723 -25.054772 25.936376 1.396099 2.880115 0.030247 -0.018050 -50098.700000 0 0 1
-0.667358 -5.162623 -25.356162 25.884996 1.442242 2.939108 0.038668 -0.020217 -22810.200000 0 0 1
-1.301258 -4.749623 -26.553132 27.005944 1.303387 2.958212 0.031641 -0.013286 28200.800000 0 0 1
-0.861558 -3.505623 -27.107072 27.346390 1.329808 3.009198 0.016932 -0.013657 -392860.000000 0 0 1
-1.251358 -2.155123 -26.377842 26.495302 1.044731 3.047396 0.025643 -0.009142 1108580.000000 0 0 1
-2.680258 -1.935523 -26.350272 26.556861 0.625431 3.016779 0.017012 -0.010069 874472.000000 0 0 1
-3.067058 -0.982023 -27.285102 27.474497 0.309870 3.024107 0.027104 -0.009162 -973958.000000 0 0 1
-4.577858 -0.966123 -27.316752 27.714529 0.207990 2.971963 0.036965 -0.009968 -699036.000000 0 0 1
-5.177058 -0.126323 -26.350002 26.854059 0.024396 2.947535 0.036181 -0.015361 -416794.000000 0 0 1
-6.565558 -0.267423 -26.284532 27.093444 0.040709 2.896619 0.037652 -0.026803 -661264.000000 0 0 1
-7.387058 0.757177 -25.502532 26.561647 -0.102144 2.858249 0.045472 -0.019098 -694685.000000 0 0 1
-7.753958 2.032777 -26.107912 27.310788 -0.256390 2.843696 0.058286 -0.024516 256661.000000 0 0 1
-8.571858 2.052977 -27.275552 28.664389 -0.235074 2.829029 0.059110 -0.030921 -356683.000000 0 0 1
-10.006958 1.701477 -26.860642 28.714601 -0.168419 2.780284 0.057989 -0.031811 -1210780.000000 0 0 1
-11.015458 2.061177 -27.772242 29.948058 -0.184978 2.758056 0.065239 -0.035477 3414.520000 0 0 1
-12.305458 1.678077 -27.383712 30.068388 -0.135533 2.715807 0.039351 -0.025340 -354295.000000 0 0 1
-13.385758 2.270077 -28.280702 31.370844 -0.167991 2.694011 0.025943 -0.021432 -1239180.000000 0 0 1
-14.666858 1.802677 -28.047352 31.702056 -0.122295 2.656683 0.017964 -0.019992 -317446.000000 0 0 1
-15.658658 2.383777 -28.878412 32.936889 -0.151074 2.639922 0.008775 -0.017247 423886.000000 0 0 1
-16.484858 3.564077 -28.202782 32.861073 -0.212926 2.602633 0.014777 -0.000535 -122269.000000 0 0 1
-15.883958 4.862577 -28.127472 32.666488 -0.297072 2.608127 0.028009 -0.003739 261874.000000 0 0 1
-15.475458 5.501177 -29.319092 33.605980 -0.341546 2.630963 0.020546 0.000712 -452877.000000 0 0 1
-16.616158 6.047677 -30.211972 35.006205 -0.349060 2.612066 0.004734 0.006969 -160613.000000 0 0 1
-17.166758 7.173777 -29.541572 34.912249 -0.395831 2.579546 0.009670 0.011186 116116.000000 0 0 1
-18.141358 7.748277 -30.387392 36.228970 -0.403653 2.565797 0.002057 0.012548 -469295.000000 0 0 1
-18.877858 8.879277 -29.702012 36.296344 -0.439651 2.529278 0.006888 0.009205 -789998.000000 0 0 1
-18.021358 9.923777 -29.318112 35.816231 -0.503356 2.529714 0.008799 0.012550 192797.000000 0 0 1
-18.701358 11.105577 -28.954402 36.213700 -0.535876 2.497330 0.035228 0.001186 -326924.000000 0 0 1
-8.333558 25.267777 30.992291 40.846430 -1.252220 0.709402 0.023261 -0.007143 -375286.000000 0 0 1
-8.995258 26.532377 30.813151 41.645312 -1.243928 0.737882 0.025710 -0.005239 338947.000000 0 0 1
-8.827158 27.326377 31.942041 42.952807 -1.258350 0.732277 0.020872 -0.011301 -379050.000000 0 0 1
-7.451458 27.985077 32.069021 43.210078 -1.310569 0.734501 0.019801 -0.014426 -478743.000000 0 0 1
-7.259258 28.958677 31.117691 43.123225 -1.325181 0.764687 0.036878 -0.005555 168420.000000 0 0 1
-6.014958 28.881477 30.451281 42.398113 -1.365468 0.769552 0.030182 -0.004491 -57158.100000 0 0 1
-5.886558 29.960777 29.405181 42.390617 -1.376792 0.804222 0.044622 -0.007113 -241289.000000 0 0 1
-5.932358 31.249477 29.989841 43.716281 -1.383190 0.814804 0.050877 -0.010116 265898.000000 0 0 1
-5.756258 32.349877 29.076411 43.875810 -1.394702 0.846381 0.050964 -0.003785 -207552.000000 0 0 1
-6.120258 33.731377 29.763531 45.399682 -1.391308 0.855834 0.043333 -0.007722 -184061.000000 0 0 1
-5.271158 34.164377 30.826301 46.316850 -1.417715 0.842562 0.042205 -0.019981 -39160.500000 0 0 1
-5.881658 -33.897532 31.747161 46.813661 1.398994 0.825540 0.043804 -0.022822 629126.000000 0 0 1
-7.175258 -34.356732 32.504911 47.837628 1.364910 0.823737 0.018906 -0.013728 679488.000000 0 0 1
-6.757258 33.561677 33.439307 47.856389 -1.372114 0.797158 0.030474 -0.018411 364862.000000 0 0 1
-6.764158 32.219777 32.942279 46.573186 -1.363863 0.785093 0.032032 -0.017922 -549096.000000 0 0 1
-6.817658 31.178477 34.045094 46.665258 -1.355519 0.753118 0.022982 -0.021828 -816379.000000 0 0 1
-5.708158 31.115977 -33.879332 46.352953 -1.389366 2.390435 0.029926 -0.029605 -539541.000000 0 0 1
-5.952458 30.405077 -32.715462 45.057762 -1.377470 2.383398 0.024506 -0.032549 744724.000000 0 0 1
-4.581758 30.198377 -31.927282 44.184679 -1.420223 2.378334 0.033628 -0.032856 2056280.000000 0 0 1
-3.653058 29.150977 -32.272922 43.642477 -1.446131 2.403100 0.046553 -0.023134 478788.000000 0 0 1
-3.269158 28.958477 -33.593742 44.472692 -1.458381 2.427029 0.034952 -0.029650 -459384.000000 0 0 1
-2.489958 27.608477 -33.804732 43.717134 -1.480852 2.454763 0.041779 -0.030249 -172161.000000 0 0 1
-1.247758 27.605577 -33.095342 43.115270 -1.525628 2.445887 0.073680 -0.020848 413193.000000 0 0 1
-0.509858 26.410677 -32.974652 42.250580 -1.551494 2.466189 0.081979 -0.019381 471034.000000 0 0 1
0.184242 25.895477 -34.265369 42.950265 1.563682 2.494420 0.078291 -0.012395 260190.000000 0 0 1
-0.876658 25.438577 33.614353 42.164137 -1.536348 0.648110 0.062241 -0.012535 935000.000000 0 0 1
-0.550958 25.327277 32.237801 41.000614 -1.549046 0.666038 0.061831 -0.008938 -327249.000000 0 0 1
-0.126758 26.596677 31.482251 41.213243 -1.566030 0.701482 0.044529 -0.015353 35944.200000 0 0 1
-1.242158 27.470377 31.199391 41.588058 -1.525609 0.722431 0.034389 -0.018570 919255.000000 0 0 1
-0.778358 28.804477 30.917501 42.263408 -1.543781 0.750214 0.035905 -0.017596 255254.000000 0 0 1
-1.997758 29.740977 30.858781 42.904325 -1.503725 0.768079 0.032254 -0.022502 -26364.800000 0 0 1
-2.691058 29.985677 32.062391 43.981582 -1.481291 0.753942 0.024568 -0.020317 -214600.000000 0 0 1
-3.355458 31.202077 31.845151 44.709533 -1.463668 0.778073 0.033538 -0.020417 -782670.000000 0 0 1
-3.030958 32.231077 32.906366 46.161217 -1.477034 0.777232 0.040903 -0.023214 -932528.000000 0 0 1
-1.735258 32.714377 32.855515 46.397483 -1.517803 0.783948 0.055218 -0.033432 -803545.000000 0 0 1
-1.281458 33.051177 34.188037 47.569363 -1.532044 0.768867 0.059312 -0.036731 -190955.000000 0 0 1
0.189442 33.488777 34.303283 47.940060 1.565140 0.773392 0.061211 -0.036248 -51501.600000 0 0 1
0.530842 -34.162432 33.791197 48.054121 -1.555259 0.790922 0.066046 -0.031176 -265086.000000 0 0 1
1.894542 -34.050232 33.525742 47.822411 -1.515214 0.793932 0.042486 -0.021564 -541180.000000 0 0 1
2.134942 -32.672332 32.869302 46.394292 -1.505545 0.783458 0.041057 -0.029251 -140813.000000 0 0 1
1.834742 -31.615132 33.759502 46.288085 -1.512828 0.753447 0.032463 -0.017766 250549.000000 0 0 1
2.131942 -30.341932 33.213712 45.036970 -1.500648 0.741470 0.008120 0.000886 -471288.000000 0 0 1
1.812242 -29.285732 34.267878 45.113477 -1.508994 0.708109 0.003765 0.006221 -608333.000000 0 0 1
0.441842 -29.071132 -34.355084 45.006641 -1.555599 2.439254 0.004251 0.002576 -469085.000000 0 0 1
0.220742 -28.319732 -33.203452 43.640866 -1.563002 2.435394 -0.005015 0.000242 267064.000000 0 0 1
-1.295858 -28.108532 -32.931722 43.315900 1.524727 2.434523 0.024084 0.004595 286236.000000 0 0 1
-1.598258 -27.386032 -31.741562 41.953259 1.512502 2.428884 0.047707 -0.004042 -1183160.000000 0 0 1
-2.865558 -26.892332 -31.860742 41.791337 1.464640 2.437774 0.038945 -0.009099 -1318230.000000 0 0 1
-3.373758 -26.161832 -30.619072 40.414741 1.442547 2.430457 0.038204 -0.017922 -297468.000000 0 0 1
-4.097558 -27.064032 -29.833842 40.488393 1.420535 2.399194 0.038918 -0.008172 -97874.300000 0 0 1
-4.706958 -26.484932 -28.692602 39.330300 1.394911 2.388430 0.046585 -0.010471 50950.000000 0 0 1
-3.707358 -26.151132 -27.546902 38.163570 1.429968 2.377212 0.049844 -0.021406 -254271.000000 0 0 1
-2.912258 -25.088832 -27.948842 37.670526 1.455236 2.406739 0.041182 -0.016574 -690210.000000 0 0 1
-2.054658 -24.816632 -26.887912 36.647601 1.488191 2.394530 0.038273 -0.012301 -1537340.000000 0 0 1
-1.131258 -23.582832 -27.072832 35.921692 1.522864 2.424413 0.038812 -0.013629 410334.000000 0 0 1
-0.138458 -23.742832 -28.047242 36.747640 1.564965 2.439108 0.010018 -0.015435 -51091.800000 0 0 1
0.770142 -24.822132 -28.021042 37.442091 -1.539780 2.416418 0.018409 -0.012478 -752451.000000 0 0 1
1.579442 -25.111132 -29.307082 38.626010 -1.507981 2.432172 -0.002416 -0.010504 39792.500000 0 0 1
2.518442 -24.106432 -29.580202 38.242006 -1.466702 2.455142 -0.014822 -0.007499 173451.000000 0 0 1
3.189842 -24.368832 -30.846742 39.440291 -1.440638 2.468845 -0.012621 -0.003143 561333.000000 0 0 1
4.273942 -23.276432 -31.163552 39.130881 -1.389202 2.492103 -0.006304 -0.000419 1183850.000000 0 0 1
5.506542 -23.156032 -30.386842 38.599016 -1.337331 2.477123 -0.006925 -0.008647 1849660.000000 0 0 1
6.604542 -24.045332 -30.533392 39.421898 -1.302737 2.456766 0.008887 -0.001188 223964.000000 0 0 1
7.156242 -24.273432 -31.945682 40.754606 -1.284101 2.471646 0.000068 0.000329 -860560.000000 0 0 1
6.270342 -25.000432 -32.783202 41.702244 -1.325056 2.475312 -0.018183 0.002722 -120353.000000 0 0 1
6.526942 -24.839332 -34.160082 42.737625 -1.313839 2.496922 -0.008904 0.006193 -14741.900000 0 0 1
6.035242 -23.502732 33.953708 41.733163 -1.319438 0.620495 0.000814 0.006153 33527.800000 0 0 1
4.624142 -23.482132 33.887857 41.487107 -1.376362 0.614904 -0.001000 0.008525 -64696.100000 0 0 1
4.215242 -22.313532 33.146238 40.178789 -1.384087 0.600650 0.017559 -0.004705 292498.000000 0 0 1
2.763642 -21.870632 33.522299 40.121152 -1.445099 0.581705 -0.003205 -0.005965 1102880.000000 0 0 1
1.717142 -22.796932 33.147279 40.266497 -1.495615 0.603776 0.004864 -0.003529 283305.000000 0 0 1
1.399442 -23.727132 34.141465 41.600179 -1.511884 0.608153 0.001181 0.005294 -187048.000000 0 0 1
0.193042 -24.659932 33.889788 41.912614 -1.562968 0.629058 0.012268 0.007692 219666.000000 0 0 1
0.349542 -25.586632 32.794733 41.596784 -1.557136 0.662599 0.012900 0.006503 -620888.000000 0 0 1
-0.868058 -26.080432 32.342921 41.557274 1.537525 0.678885 0.011900 0.005128 -390808.000000 0 0 1
-0.758458 -26.765032 30.966401 40.937272 1.542466 0.712950 0.018265 -0.014209 -139310.000000 0 0 1
-2.032058 -27.154232 30.509051 40.893566 1.496102 0.728671 0.025683 -0.014049 -26097.600000 0 0 1
-2.038158 -28.288932 29.702261 41.068748 1.498873 0.762324 0.029901 -0.016614 -389850.000000 0 0 1
-3.374158 -28.462432 28.989451 40.766202 1.452799 0.779714 0.039664 -0.010321 -31433.400000 0 0 1
-4.489958 -28.679832 29.850641 41.638363 1.415502 0.771447 0.050046 -0.012877 1324150.000000 0 0 1
-5.668958 -29.000732 29.034181 41.426600 1.377754 0.794196 0.021990 -0.007011 814922.000000 0 0 1
-6.814058 -29.569732 29.882751 42.588487 1.344310 0.793068 0.020591 -0.003879 -556574.000000 0 0 1
-7.896658 -29.964532 29.058701 42.481037 1.313121 0.817510 0.050453 -0.004943 440872.000000 0 0 1
-9.109858 -30.319432 29.726511 43.427214 1.278915 0.816860 0.037114 -0.004458 271970.000000 0 0 1
-9.094958 -31.461632 30.808421 44.963445 1.289387 0.815934 0.018892 0.007903 -997657.000000 0 0 1
-9.073358 -32.786132 30.339231 45.582071 1.300810 0.842505 0.040426 -0.000050 308247.000000 0 0 1
-10.222258 -33.268732 29.646971 45.719208 1.272689 0.865240 0.046850 -0.002033 -127490.000000 0 0 1
-10.121658 34.206177 29.101761 46.037192 -1.283104 0.886490 0.054662 -0.003925 -237054.000000 0 0 1
-10.196458 33.288577 30.195851 46.085644 -1.273565 0.856334 0.040102 -0.002032 353428.000000 0 0 1
-9.827158 31.935477 29.837421 44.796422 -1.272273 0.841873 0.042197 -0.007489 -17153.600000 0 0 1
-10.340158 30.871577 30.849661 44.851697 -1.247600 0.812322 0.041088 -0.002061 839404.000000 0 0 1
-11.778958 30.879277 30.831631 45.198043 -1.206381 0.820104 0.036794 0.006274 776160.000000 0 0 1
-12.363758 29.676877 31.287021 44.860419 -1.176051 0.798991 0.039217 0.002801 -138020.000000 0 0 1
-12.558658 29.442277 32.789735 45.822858 -1.167612 0.773348 0.040150 -0.009580 -298809.000000 0 0 1
-13.510358 30.335177 33.364609 47.073877 -1.151800 0.783042 0.036057 -0.002461 348468.000000 0 0 1
-13.641858 30.030477 -34.051872 47.407382 -1.144400 2.372126 0.030780 -0.005203 164935.000000 0 0 1
-14.967758 30.484477 -33.382772 47.620863 -1.114378 2.347611 0.022345 -0.000610 228098.000000 0 0 1
-15.051658 29.919077 -32.124782 46.408030 -1.104689 2.335363 0.017364 -0.001370 -89898.600000 0 0 1
-16.248458 30.274277 -31.467912 46.591563 -1.078215 2.312302 0.019292 0.001482 41245.400000 0 0 1
-16.209058 29.843277 -29.980702 45.301184 -1.073236 2.294025 0.023017 -0.003562 -278124.000000 0 0 1
-16.310658 28.442777 -29.801412 44.307486 -1.050124 2.308519 0.011531 -0.006127 161148.000000 0 0 1
-16.376858 28.151077 -28.409272 43.217721 -1.043905 2.288096 0.010608 -0.006960 -56942.900000 0 0 1
-16.873758 26.677177 -28.135442 42.284733 -1.006810 2.298800 -0.010631 -0.008491 333548.000000 0 0 1
-18.276558 26.574577 -28.299662 42.908177 -0.968342 2.291003 -0.006439 -0.000437 81082.500000 0 0 1
-18.770758 25.291277 -27.917222 42.087544 -0.932317 2.296034 -0.015680 -0.004120 -150320.000000 0 0 1
-20.250058 25.126877 -28.320842 42.935940 -0.892461 2.291092 0.004489 -0.007803 -511559.000000 0 0 1
-21.105358 25.647777 -27.334962 43.016796 -0.882252 2.259386 0.007816 -0.005684 -14158.800000 0 0 1
-22.417358 25.265677 -27.726862 43.699786 -0.845062 2.258138 0.021198 -0.011464 145484.000000 0 0 1
-23.505758 25.314377 -26.648652 43.628993 -0.822428 2.227869 0.044279 -0.017624 -52722.800000 0 0 1
-23.893958 26.627477 -26.254272 44.376014 -0.839452 2.203878 0.023332 -0.006576 164237.000000 0 0 1
-24.931858 26.741577 -25.287032 44.453836 -0.820406 2.175889 0.024547 0.002267 191362.000000 0 0 1
-24.638558 26.101477 -23.851472 43.095689 -0.814222 2.157302 0.012200 0.001008 -411420.000000 0 0 1
-24.679558 24.655777 -23.708072 42.178912 -0.784916 2.167699 0.020682 -0.002775 336508.000000 0 0 1
-25.967228 24.088077 -23.462172 42.485361 -0.747874 2.155847 0.018967 -0.002085 30136.200000 0 0 1
-26.680158 24.287377 -22.095672 42.307520 -0.738485 2.120299 0.016932 -0.001137 -466132.000000 0 0 1
-26.069308 23.834777 -20.896672 41.041154 -0.740652 2.105009 0.013727 0.000252 274655.000000 0 0 1
-24.891958 24.577177 -20.596772 40.594017 -0.779035 2.102943 0.018980 0.005256 55218.200000 0 0 1
-23.944358 23.993777 -19.545772 39.128900 -0.786429 2.093844 0.019717 -0.001184 -80925.400000 0 0 1
-24.452258 24.078877 -18.177972 38.834829 -0.777705 2.057918 0.016918 -0.006309 197892.000000 0 0 1
-23.479158 23.777377 -17.227472 37.595483 -0.791709 2.046802 0.027749 -0.012854 -258694.000000 0 0 1
-24.012258 23.988277 -15.758572 37.421365 -0.784899 2.005467 0.014923 -0.010843 -11879.700000 0 0 1
-24.536758 25.253977 -15.548772 38.491300 -0.799802 1.986633 0.017828 -0.019505 -27149.000000 0 0 1
-25.015258 25.378577 -14.231072 38.371327 -0.792608 1.950750 -0.012348 -0.012265 -102218.000000 0 0 1
-25.188428 26.902377 -13.750772 39.335462 -0.818289 1.927916 -0.013013 -0.009114 -906995.000000 0 0 1
-24.035058 27.620277 -13.541872 39.037751 -0.854694 1.925051 0.004868 -0.014903 -739850.000000 0 0 1
-24.235858 28.573377 -12.520172 39.504043 -0.867350 1.893291 0.009334 -0.010141 95025.700000 0 0 1
-22.886158 29.088277 -11.944872 38.891954 -0.904167 1.882972 0.023049 -0.015839 135791.000000 0 0 1
-22.210858 27.994777 -11.286672 37.475575 -0.900097 1.876720 0.027194 -0.022214 -107090.000000 0 0 1
-20.992658 28.541877 -10.844272 37.053052 -0.936638 1.867813 0.029404 -0.023384 -569498.000000 0 0 1
-20.039658 27.498477 -10.266872 35.541002 -0.941031 1.863847 0.053172 -0.024713 -102115.000000 0 0 1
-19.487358 26.516777 -11.163072 34.749256 -0.937025 1.897842 0.048039 -0.030166 251852.000000 0 0 1
-18.766558 25.545277 -10.425172 33.368085 -0.937199 1.888546 0.045748 -0.015665 -126005.000000 0 0 1
-18.196558 24.371477 -11.318972 32.453086 -0.929453 1.927065 0.039635 -0.015297 -574652.000000 0 0 1
-17.572458 23.378377 -10.567072 31.096669 -0.926237 1.917515 0.031364 -0.020768 -132155.000000 0 0 1
-16.968258 22.499077 -11.482172 30.429764 -0.924628 1.957712 0.047639 -0.009305 9998.160000 0 0 1
-16.610058 21.069777 -10.873972 28.949487 -0.903208 1.955861 0.034715 0.000068 63663.600000 0 0 1
-17.779958 20.348977 -10.515472 28.996257 -0.852674 1.941905 0.010659 0.009541 371399.000000 0 0 1
-17.439558 19.024077 -10.203072 27.751692 -0.828826 1.947283 0.027549 -0.003883 10744.300000 0 0 1
-18.670858 18.061877 -10.325672 27.954460 -0.768821 1.949132 0.016073 0.008159 387041.000000 0 0 1
-18.992058 17.463877 -11.583172 28.281711 -0.743504 1.992772 -0.000800 0.014291 69029.800000 0 0 1
-19.733558 18.311977 -12.416472 29.646427 -0.748050 2.002940 -0.004198 0.016666 -521324.000000 0 0 1
-20.302458 17.716177 -13.763272 30.256907 -0.717476 2.043034 0.011000 0.008232 93292.700000 0 0 1
-19.373958 17.426877 -14.799572 29.967877 -0.732539 2.087306 0.015128 0.006349 148658.000000 0 0 1
-20.027858 16.855677 -15.925372 30.640601 -0.699604 2.117352 0.040759 0.005476 219632.000000 0 0 1
-19.134258 16.704377 -17.201572 30.676540 -0.717701 2.166076 0.039054 -0.003007 -256034.000000 0 0 1
-18.612958 17.958577 -17.574672 31.270142 -0.767507 2.167631 0.026103 -0.004894 -206653.000000 0 0 1
-17.721058 17.873877 -18.624372 31.310998 -0.789691 2.207837 0.020480 -0.000363 -1195570.000000 0 0 1
-16.673758 18.929177 -18.854172 31.492980 -0.848663 2.212647 -0.000886 0.011438 -1340990.000000 0 0 1
-15.558358 18.740577 -18.090672 30.340471 -0.877912 2.209625 0.010457 0.010455 -1081430.000000 0 0 1
-14.659758 19.804177 -18.120372 30.585321 -0.933574 2.204897 0.011405 0.007119 -180989.000000 0 0 1
32.189939 31.420377 2.562628 45.055514 0.773301 1.513888 0.014170 -0.001242 87035.200000 0 0 1
33.335539 31.110677 1.802328 45.633111 0.750889 1.531290 0.015808 -0.004591 -18509.800000 0 0 1
33.294639 31.919677 0.584928 46.127442 0.764318 1.558115 0.015282 0.002287 -290069.000000 0 0 1
34.582929 31.825777 -0.250372 46.999168 0.743904 1.576124 0.010982 0.001683 -274138.000000 0 0 1
-35.396717 32.230677 0.447128 47.874253 -0.738616 1.561457 -0.003773 0.000157 -182841.000000 0 0 1
-34.334620 32.436577 -0.463472 47.235712 -0.756980 1.580608 -0.003508 -0.003625 -494270.000000 0 0 1
-33.339128 33.465577 0.008728 47.238146 -0.787291 1.570612 -0.005676 -0.007239 -644771.000000 0 0 1
-32.675118 33.085777 1.195728 46.516253 -0.791643 1.545088 -0.016237 0.003785 31830.100000 0 0 1
-32.233098 34.275677 1.845228 47.087148 -0.816100 1.531599 -0.011973 -0.003645 -146467.000000 0 0 1
-31.457868 33.973077 3.164928 46.408881 -0.823820 1.502547 -0.007200 0.003941 -141685.000000 0 0 1
-31.017618 -33.752732 3.749128 45.993429 0.827601 1.489191 0.005654 0.007287 -202039.000000 0 0 1
-30.338478 -33.993432 4.932628 45.829112 0.842151 1.462957 0.020750 -0.007519 -759046.000000 0 0 1
-30.134178 -32.716432 5.702128 44.843594 0.826461 1.443295 0.031861 -0.004865 -166394.000000 0 0 1
-31.171828 -32.057232 6.412728 45.171585 0.799400 1.428351 0.027207 -0.004702 271390.000000 0 0 1
-31.838718 -32.856932 7.412428 46.348960 0.801135 1.410180 0.019497 -0.016119 -652821.000000 0 0 1
-32.884148 -32.174332 8.384028 46.763733 0.774488 1.390537 0.029891 -0.017570 2112020.000000 0 0 1
-34.236810 -31.954732 7.864028 47.487967 0.750935 1.404430 0.007225 -0.005447 1265990.000000 0 0 1
-34.912259 -33.092832 7.464028 48.679699 0.758650 1.416860 0.001723 -0.012660 -394538.000000 0 0 1
34.651999 -32.938932 7.335528 48.368836 -0.760059 1.418551 -0.006585 -0.006144 877235.000000 0 0 1
34.018039 -33.011532 8.578628 48.172410 -0.770383 1.391760 -0.009991 -0.001553 -714345.000000 0 0 1
32.632809 -33.028332 8.463528 47.195363 -0.791422 1.390491 -0.012980 0.005655 -889967.000000 0 0 1
31.869689 -32.997432 9.774928 46.904764 -0.802782 1.360858 -0.018520 -0.001206 630002.000000 0 0 1
30.454869 -32.942532 9.476828 45.853242 -0.824617 1.362619 -0.013914 -0.006809 1318300.000000 0 0 1
29.584359 -32.772432 10.607828 45.406967 -0.836480 1.335001 -0.008600 -0.002035 272304.000000 0 0 1
29.622499 -31.370732 11.312728 44.604855 -0.814053 1.314375 0.000513 -0.000059 -758086.000000 0 0 1
29.052639 -30.260232 10.622828 43.273340 -0.805755 1.322779 0.010475 -0.006389 -507218.000000 0 0 1
29.725829 -29.692432 9.591628 43.095995 -0.784836 1.346352 0.014155 -0.014417 -710709.000000 0 0 1
29.296089 -28.262832 9.236528 41.741610 -0.767449 1.347671 0.016136 -0.017506 -133599.000000 0 0 1
29.940489 -27.675732 8.118828 41.572761 -0.746111 1.374241 0.021489 -0.024485 -252441.000000 0 0 1
29.303299 -26.493532 7.617328 40.232006 -0.735084 1.380311 0.022237 -0.024890 -6691.530000 0 0 1
29.497779 -26.127532 6.103628 39.875070 -0.724884 1.417123 0.020493 -0.022048 -664752.000000 0 0 1
30.760909 -25.724532 5.714528 40.504826 -0.696471 1.429241 0.026185 -0.022381 -995156.000000 0 0 1
30.734699 -25.222332 4.371328 39.998704 -0.687204 1.461291 0.021728 -0.021342 -203028.000000 0 0 1
32.147829 -24.859732 3.882828 40.823591 -0.658244 1.475540 0.033667 -0.018075 -191363.000000 0 0 1
32.904239 -26.031632 3.752128 42.123786 -0.669311 1.481604 0.025834 -0.012469 194080.000000 0 0 1
34.295459 -25.687332 3.839928 43.020491 -0.642861 1.481419 0.029311 -0.020938 516443.000000 0 0 1
35.171244 -26.904532 4.030828 44.464793 -0.653006 1.480020 0.030258 -0.017909 -312259.000000 0 0 1
34.952699 -27.489432 5.278728 44.779739 -0.666440 1.452640 0.014217 -0.007398 -271915.000000 0 0 1
35.340624 -28.863732 5.261328 45.932084 -0.684859 1.455999 0.006154 -0.004627 -1261540.000000 0 0 1
34.669339 -29.594032 6.416228 46.031922 -0.706585 1.430955 0.006637 -0.005583 964958.000000 0 0 1
33.300599 -29.939832 6.152928 45.201571 -0.732305 1.434250 0.006181 -0.001921 445737.000000 0 0 1
32.350909 -28.908132 6.142428 43.817700 -0.729257 1.430152 0.014109 -0.010138 -1474270.000000 0 0 1
30.982349 -29.445932 5.719328 43.124003 -0.759978 1.437779 0.006330 -0.016157 -1077270.000000 0 0 1
30.877989 -29.742932 4.326128 43.090691 -0.766677 1.470231 0.004309 -0.021342 216183.000000 0 0 1
29.713139 -29.217132 3.680628 41.833700 -0.776982 1.482700 0.014332 -0.018723 180402.000000 0 0 1
28.455109 -30.018232 3.967728 41.551539 -0.812124 1.475161 0.020043 -0.018079 -771016.000000 0 0 1
28.628889 -31.227332 3.274728 42.490981 -0.828782 1.493651 0.021351 -0.011771 -225667.000000 0 0 1
27.544809 -32.134032 3.460428 42.465128 -0.862146 1.489217 0.024705 -0.008453 47900.700000 0 0 1
27.649399 -33.545932 2.901128 43.568743 -0.881458 1.504160 0.022117 -0.003029 -265299.000000 0 0 1
27.339819 -33.552032 1.525128 43.307397 -0.887067 1.535573 0.025675 -0.001453 198718.000000 0 0 1
27.284379 34.087677 0.936528 43.672465 0.895801 1.549350 0.016774 0.001812 -136444.000000 0 0 1
26.878419 34.084277 -0.558972 43.410826 0.903053 1.583673 0.015151 -0.004473 -180816.000000 0 0 1
27.891979 -34.333032 -1.399472 44.256956 -0.888543 1.602423 0.019709 -0.007299 193951.000000 0 0 1
27.489869 -34.326532 -2.763972 44.064082 -0.895547 1.633564 0.019444 -0.007037 -597834.000000 0 0 1
28.562909 -33.797832 -3.707972 44.405882 -0.869148 1.654395 0.026857 -0.008743 -178866.000000 0 0 1
28.769389 -32.422532 -3.655272 43.500108 -0.845027 1.654925 0.023164 -0.014354 -318420.000000 0 0 1
29.819859 -32.115232 -4.515472 44.056800 -0.822442 1.673469 0.015123 -0.016302 -370976.000000 0 0 1
30.186029 -30.580132 -4.664272 43.221480 -0.791884 1.678922 0.015219 -0.004664 -249950.000000 0 0 1
29.196539 -29.881332 -5.404072 42.125241 -0.796989 1.699437 0.015727 -0.006324 133016.000000 0 0 1
29.276089 -28.465732 -5.401672 41.189384 -0.771365 1.702318 0.017229 -0.013451 -115550.000000 0 0 1
30.429479 -27.742132 -6.133972 41.631776 -0.739234 1.718673 0.031449 -0.017682 285669.000000 0 0 1
31.724129 -28.148532 -5.674972 42.789783 -0.725749 1.703813 0.030908 -0.014906 611943.000000 0 0 1
32.786169 -27.564432 -6.437072 43.314740 -0.699090 1.719960 0.034725 -0.022027 518167.000000 0 0 1
33.240469 -28.356032 -7.715672 44.368062 -0.706266 1.745586 0.030879 -0.018432 -425745.000000 0 0 1
32.203149 -28.277432 -8.683572 43.727113 -0.720580 1.770711 0.024597 -0.018502 243840.000000 0 0 1
32.000179 -29.375332 -9.554772 44.477132 -0.742657 1.787308 0.010774 -0.008929 312253.000000 0 0 1
31.594029 -30.731032 -8.984772 44.981165 -0.771552 1.771894 0.005545 -0.001448 -357688.000000 0 0 1
32.759219 -31.282332 -8.472572 46.081832 -0.762341 1.755708 0.013123 -0.006596 -826381.000000 0 0 1
32.492509 -32.466332 -7.677472 46.570049 -0.784995 1.736411 0.017231 -0.014778 246630.000000 0 0 1
33.733729 -33.175632 -7.073672 47.839564 -0.777057 1.719203 0.017253 -0.015529 22745.600000 0 0 1
33.482909 -34.427232 -6.376872 48.445888 -0.799303 1.702808 0.013511 -0.019306 -112085.000000 0 0 1
32.977639 -34.155632 -5.070472 47.747687 -0.802943 1.677190 0.015935 -0.016553 -293401.000000 0 0 1
32.777899 33.407777 -4.373372 47.006347 0.794915 1.663969 0.001344 -0.009223 273132.000000 0 0 1
31.900569 32.522877 -5.090172 45.839870 0.795058 1.682068 -0.002047 -0.012952 413620.000000 0 0 1
32.098309 31.239377 -4.570172 45.023179 0.771838 1.672479 -0.000154 0.001520 267534.000000 0 0 1
30.893319 30.343877 -4.943672 43.584263 0.776426 1.684469 0.000783 -0.007899 278365.000000 0 0 1
30.871859 30.178577 -6.357572 43.637564 0.774043 1.717007 -0.011650 0.002406 684257.000000 0 0 1
29.567359 29.686277 -6.708172 42.432339 0.787405 1.729553 -0.020391 0.002893 397340.000000 0 0 1
29.417449 29.500177 -8.222772 42.464818 0.786802 1.765665 -0.019441 0.005119 -79436.900000 0 0 1
29.983849 28.278977 -8.745572 42.133322 0.756145 1.779886 -0.012827 0.005496 95633.100000 0 0 1
30.053539 28.258577 -10.210672 42.497297 0.754626 1.813437 -0.016066 0.001851 218905.000000 0 0 1
31.248249 29.096377 -10.757372 44.031504 0.749754 1.817605 -0.004535 0.005494 -322718.000000 0 0 1
32.499689 28.529277 -10.368972 44.470946 0.720432 1.806125 -0.014509 0.002262 913670.000000 0 0 1
33.624739 29.241877 -10.912072 45.877923 0.715794 1.810948 -0.003514 0.001514 470101.000000 0 0 1
33.953059 30.579977 -10.200072 46.818658 0.733177 1.790421 0.003291 -0.002028 -814264.000000 0 0 1
34.592299 30.447077 -8.905672 46.935729 0.721750 1.761696 -0.007002 0.002663 179181.000000 0 0 1
34.426069 31.684877 -8.257072 47.510682 0.743958 1.745477 -0.003013 -0.001989 -798507.000000 0 0 1
35.552936 31.959777 -7.188472 48.343694 0.732226 1.720045 0.007319 -0.002814 541249.000000 0 0 1
-34.324466 32.203177 -7.795072 47.707198 -0.753523 1.734926 0.017490 -0.006940 -360790.000000 0 0 1
-33.655928 31.059677 -8.271472 46.538611 -0.745302 1.749479 0.021581 -0.009392 -1946580.000000 0 0 1
-32.210278 31.371177 -8.641972 45.785767 -0.772202 1.760683 0.037332 -0.011453 -1045580.000000 0 0 1
-31.406458 31.625777 -7.456972 45.190285 -0.788878 1.736567 0.037133 -0.013378 750871.000000 0 0 1
-30.057288 31.978877 -7.778172 44.571169 -0.816364 1.746206 0.034009 -0.017364 520109.000000 0 0 1
-29.841558 33.271777 -8.649472 45.522995 -0.839695 1.761961 0.016239 -0.013089 -1017420.000000 0 0 1
-29.936868 -34.353132 -7.985472 46.261448 0.853983 1.744281 0.012674 -0.010526 790546.000000 0 0 1
-28.778858 -34.081232 -7.168772 45.179026 0.869551 1.730145 0.031926 -0.023175 716581.000000 0 0 1
-28.885458 -32.667432 -6.605672 44.104033 0.846764 1.721137 0.021912 -0.018594 527873.000000 0 0 1
-29.909588 -32.576332 -5.603272 44.577994 0.828050 1.696826 0.021558 -0.020945 305466.000000 0 0 1
-29.548898 -33.152932 -4.349972 44.622601 0.842814 1.668435 0.030487 -0.019311 69369.800000 0 0 1
-30.701418 -33.300532 -3.308372 45.414181 0.825986 1.643710 0.039055 -0.017010 -68697.700000 0 0 1
-31.230708 -32.033332 -3.015272 44.839529 0.798084 1.638093 0.033860 -0.014408 185741.000000 0 0 1
-32.065578 -32.060032 -1.854172 45.381548 0.785312 1.611665 0.036993 -0.015197 350718.000000 0 0 1
-33.056208 -30.888932 -1.602472 45.270376 0.751518 1.606202 0.043232 -0.010834 192072.000000 0 0 1
-33.803048 -30.905832 -0.406172 45.803728 0.740655 1.579664 0.034904 -0.011393 -461370.000000 0 0 1
-34.547930 -29.730232 -0.463872 45.581371 0.710587 1.580973 0.043681 -0.011333 -349263.000000 0 0 1
-35.485079 -29.468532 0.731928 46.131561 0.693033 1.554930 0.033339 -0.009883 -774383.000000 0 0 1
34.467639 -30.301132 0.707228 45.898551 -0.721158 1.555387 0.013600 -0.005238 -161912.000000 0 0 1
33.675979 -29.966732 1.783828 45.113841 -0.727182 1.531245 0.004876 -0.002065 -680267.000000 0 0 1
32.822339 -28.739032 1.561028 43.654035 -0.719166 1.535030 0.011805 -0.001078 -1653220.000000 0 0 1
31.732929 -28.884932 0.661228 42.915677 -0.738450 1.555388 0.006139 -0.006226 75320.100000 0 0 1
31.173299 -27.618032 0.432428 41.649938 -0.724999 1.560414 0.003295 -0.003532 367857.000000 0 0 1
29.813629 -27.734632 -0.348072 40.720799 -0.749288 1.579344 -0.001176 -0.012274 639955.000000 0 0 1
28.697569 -28.309532 0.313028 40.312257 -0.778591 1.563031 -0.000185 -0.003191 334150.000000 0 0 1
28.599949 -29.704932 0.119628 41.235354 -0.804348 1.567895 0.006632 -0.004648 -252497.000000 0 0 1
28.163459 -30.223232 -1.289872 41.331441 -0.820662 1.602009 0.011014 -0.012631 1158940.000000 0 0 1
26.747929 -30.021232 -1.580472 40.239583 -0.842994 1.610083 0.018428 -0.007198 1529000.000000 0 0 1
26.523099 -30.367032 -2.925672 40.425128 -0.852863 1.643232 0.019340 -0.009333 -45971.900000 0 0 1
25.014909 -30.583932 -3.159972 39.637205 -0.885230 1.650603 0.027708 -0.009512 12984.600000 0 0 1
24.252109 -29.501032 -3.599172 38.359220 -0.882738 1.664763 0.033662 0.001311 310414.000000 0 0 1
22.861009 -29.798232 -3.450572 37.715605 -0.916382 1.662414 0.024092 -0.004522 469213.000000 0 0 1
21.938409 -28.606132 -3.690372 36.238425 -0.916559 1.672809 0.020575 -0.007236 -224089.000000 0 0 1
21.829009 -28.242932 -5.034672 36.048811 -0.912799 1.710917 0.028384 -0.016465 -23823.100000 0 0 1
21.489409 -26.890732 -5.004272 34.784320 -0.896581 1.715163 0.029642 -0.016495 -159514.000000 0 0 1
20.940409 -26.278332 -6.330672 34.192527 -0.897967 1.757019 0.041543 -0.037702 24043.100000 0 0 1
19.725609 -26.829732 -6.821372 33.992136 -0.936825 1.772843 0.044805 -0.031738 197505.000000 0 0 1
19.144509 -25.963032 -7.818572 33.192188 -0.935424 1.808585 0.055973 -0.028351 390953.000000 0 0 1
17.599609 -26.059932 -7.895472 32.422289 -0.976805 1.816790 0.056314 -0.019913 110654.000000 0 0 1
16.991309 -25.459732 -6.758272 31.346081 -0.982300 1.788104 0.045145 -0.023684 390991.000000 0 0 1
15.614309 -25.837432 -6.751972 30.934911 -1.027200 1.790831 0.037733 -0.025175 537927.000000 0 0 1
14.734409 -25.010832 -5.771772 29.596586 -1.038414 1.767069 0.031453 -0.020743 57990.100000 0 0 1
14.999609 -25.306432 -4.419972 29.747940 -1.035748 1.719929 0.034027 -0.013159 10667.100000 0 0 1
14.386709 -24.352932 -3.607272 28.514122 -1.037200 1.697644 0.030666 -0.007118 -97410.700000 0 0 1
14.241109 -24.873932 -2.152472 28.742909 -1.050819 1.645754 0.026413 -0.001304 203863.000000 0 0 1
13.333409 -25.947732 -1.997372 29.241308 -1.096125 1.639156 0.028983 -0.002055 366839.000000 0 0 1
14.072809 -27.166932 -1.998872 30.660751 -1.092843 1.636036 0.029073 -0.007299 354554.000000 0 0 1
13.182509 -28.449132 -2.144472 31.428179 -1.136879 1.639083 0.025061 -0.000724 237137.000000 0 0 1
12.286109 -28.767432 -1.097572 31.300452 -1.167162 1.605869 0.034507 -0.013293 -42675.300000 0 0 1
11.702809 -30.051832 -1.154272 32.270741 -1.199443 1.606572 0.036382 -0.013768 -48596.200000 0 0 1
12.605509 -31.207432 -0.625772 33.662951 -1.186910 1.589387 0.037468 -0.013280 -306308.000000 0 0 1
13.656009 -31.432632 -1.504272 34.303933 -1.160946 1.614662 0.031976 -0.007860 -573590.000000 0 0 1
14.207709 -32.752632 -1.316972 35.725738 -1.161506 1.607668 0.036497 -0.012817 -78194.300000 0 0 1
15.620009 -32.957032 -1.909872 36.521203 -1.128204 1.623115 0.030558 -0.005318 -41432.600000 0 0 1
16.547509 -32.126332 -1.239872 36.158797 -1.095161 1.605093 0.032160 0.003356 -392088.000000 0 0 1
17.690609 -31.921932 -2.029272 36.552502 -1.064747 1.626342 0.030156 0.004546 -798749.000000 0 0 1
18.498909 -30.821232 -1.431872 35.975106 -1.030230 1.610609 0.029448 0.003168 -550539.000000 0 0 1
17.900309 -29.527032 -1.535172 34.563325 -1.025805 1.615227 0.030380 -0.001988 473817.000000 0 0 1
18.388509 -28.676332 -0.467772 34.068873 -1.000602 1.584527 0.016028 0.006127 138236.000000 0 0 1
17.847009 -27.201732 -0.661572 32.540554 -0.990146 1.591128 0.011965 0.005853 -128894.000000 0 0 1
18.497809 -26.479732 -1.642772 32.342602 -0.961034 1.621611 0.019759 -0.002074 -74918.400000 0 0 1
17.936509 -26.748632 -2.931772 32.338877 -0.980105 1.661579 0.020077 -0.002790 98727.600000 0 0 1
31.468069 -29.089132 14.124228 45.121068 -0.746134 1.252415 -0.011433 -0.013005 72788.700000 0 0 1
32.346379 -29.785532 14.957328 46.445536 -0.744205 1.242913 0.001125 -0.006530 56248.800000 0 0 1
31.611319 -30.367832 15.990628 46.660271 -0.765338 1.221003 0.007559 -0.007153 96301.000000 0 0 1
32.591669 -30.782832 17.074128 47.972133 -0.756864 1.206901 0.002874 -0.001981 -25658.800000 0 0 1
31.798389 -31.241232 18.182828 48.143197 -0.776560 1.183505 -0.000616 -0.004225 357980.000000 0 0 1
32.419819 -31.457932 19.451628 49.183453 -0.770341 1.164194 0.002247 -0.011090 243040.000000 0 0 1
33.292819 -32.812632 19.521628 50.657424 -0.778134 1.175192 0.005580 -0.009789 -101630.000000 0 0 1
34.421019 -32.836432 18.703028 51.115957 -0.761843 1.196203 0.007454 -0.004125 -419772.000000 0 0 1
34.962169 -34.131232 18.671728 52.306096 -0.773372 1.205774 0.022342 -0.012904 -199469.000000 0 0 1
-35.062369 -34.321732 17.606728 52.128187 0.774724 1.226262 0.013400 -0.008509 52976.600000 0 0 1
-33.926958 -33.522732 17.919828 50.950292 0.779405 1.211397 0.011434 -0.003355 164355.000000 0 0 1
-33.000468 -33.551232 16.847528 49.985551 0.793674 1.227017 0.010138 0.004301 224725.000000 0 0 1
-31.707888 -32.760032 17.280528 48.756810 0.801717 1.208500 0.000429 -0.001969 465731.000000 0 0 1
-30.633298 -32.687232 16.377328 47.697704 0.817824 1.220308 0.006872 -0.008488 -45659.100000 0 0 1
-30.823148 -31.760632 15.327628 46.837382 0.800377 1.237402 0.020597 -0.006933 -463120.000000 0 0 1
-29.656598 -31.664432 14.301828 45.680328 0.818129 1.252357 0.017947 -0.008518 -248878.000000 0 0 1
-28.553338 -31.074632 14.931328 44.764611 0.827657 1.230727 0.014656 -0.012091 -846600.000000 0 0 1
-27.440128 -31.183432 14.061728 43.853156 0.849165 1.244376 0.022361 -0.007282 -270037.000000 0 0 1
-26.186508 -30.580232 14.684528 42.854628 0.862644 1.221050 0.031387 -0.008745 -537703.000000 0 0 1
-25.080078 -30.653932 13.832028 41.952340 0.885075 1.234802 0.040361 -0.010081 -817473.000000 0 0 1
-23.913158 -30.430432 14.568528 41.353263 0.904755 1.210775 0.032388 -0.009763 10427.200000 0 0 1
-22.604858 -30.480632 13.721428 40.352523 0.932684 1.223838 0.039621 -0.011173 439954.000000 0 0 1
-22.172258 -31.746632 13.303128 40.944241 0.961136 1.239881 0.025662 -0.013953 660408.000000 0 0 1
-20.825158 -31.741332 12.811828 40.066723 0.990152 1.245318 0.027754 -0.019347 768877.000000 0 0 1
-20.567358 -33.167832 12.353528 40.935693 1.015729 1.264238 0.027774 -0.012085 -296422.000000 0 0 1
-21.348958 -33.491832 11.255628 41.281594 1.003303 1.294645 0.010167 -0.007173 -171149.000000 0 0 1
-21.229758 34.030377 10.986828 41.587012 -1.013026 1.303433 0.015641 -0.000426 -280593.000000 0 0 1
-22.211858 33.432977 9.992528 41.364009 -0.984386 1.326807 0.015084 -0.001124 -562341.000000 0 0 1
-22.037158 33.771577 8.642028 41.241247 -0.992641 1.359683 0.010144 -0.005753 18844.900000 0 0 1
-23.173758 33.470477 7.840328 41.458011 -0.965214 1.380536 0.021420 -0.008357 -292766.000000 0 0 1
-22.850658 33.663977 6.346628 41.178825 -0.974450 1.416056 0.020020 -0.008753 -619600.000000 0 0 1
-21.936358 32.786277 5.720728 39.860639 -0.981131 1.426781 0.019876 -0.009451 120931.000000 0 0 1
-20.570058 32.972477 6.035228 39.328559 -1.013021 1.416731 0.014147 -0.010293 -579575.000000 0 0 1
-19.860758 34.235977 5.642128 39.979813 -1.045127 1.429199 0.011067 0.000779 -1451450.000000 0 0 1
-19.923558 -33.584832 6.544428 39.594427 1.035369 1.404748 0.009035 -0.000759 -27644.100000 0 0 1
-19.316958 -33.747632 7.816728 39.662940 1.050922 1.372419 0.010291 0.000046 -473802.000000 0 0 1
-19.171158 -32.482732 8.696028 38.707649 1.037617 1.344203 0.019274 -0.008957 76296.300000 0 0 1
-18.236058 -31.462132 8.326728 37.306219 1.045497 1.345701 0.011243 -0.015302 -36768.900000 0 0 1
-18.243058 -30.327432 9.199628 36.567683 1.029248 1.316486 0.015985 -0.015076 -44800.600000 0 0 1
-17.846158 -30.499332 10.686928 36.917544 1.041380 1.277112 0.019617 -0.006886 600996.000000 0 0 1
-16.488758 -30.937232 10.804928 36.684301 1.081118 1.271824 0.029744 -0.017903 67650.700000 0 0 1
-16.081558 -30.979132 12.131728 36.952699 1.091978 1.236289 0.045299 -0.016812 -97679.100000 0 0 1
-14.736058 -31.738032 12.192028 37.055359 1.136112 1.235529 0.051041 -0.028631 244902.000000 0 0 1
-13.692558 -31.098232 11.486228 35.868087 1.156038 1.244818 0.044707 -0.024056 -337825.000000 0 0 1
-12.735358 -32.040132 11.038528 36.202328 1.192463 1.260950 0.059805 -0.019818 189184.000000 0 0 1
-11.650358 -31.393932 10.140528 34.987714 1.215447 1.276746 0.064078 -0.015548 -33313.800000 0 0 1
-10.850758 -30.504332 10.856328 34.148398 1.229042 1.247266 0.067494 -0.021140 -790512.000000 0 0 1
-9.818858 -30.006732 10.044828 33.131745 1.254556 1.262770 0.060938 -0.018037 750015.000000 0 0 1
-8.785258 -29.187232 10.974528 32.396227 1.278425 1.225198 0.048472 -0.017826 717407.000000 0 0 1
-9.291458 -28.007132 11.539928 31.684390 1.250469 1.198007 0.047435 -0.019339 -153518.000000 0 0 1
-8.636658 -27.716132 12.789828 31.723108 1.268721 1.155817 0.044781 -0.009084 5652.060000 0 0 1
-9.256558 -26.505632 13.412228 31.114631 1.234808 1.125131 0.036021 -0.012331 52688.600000 0 0 1
-8.776258 -25.252032 12.866128 29.668588 1.236309 1.122244 0.021697 -0.009294 69889.600000 0 0 1
-9.493758 -24.782832 11.731028 29.016155 1.204962 1.154591 0.020054 -0.005575 53421.000000 0 0 1
-9.010958 -23.395232 11.226328 27.469341 1.203146 1.149783 0.010978 -0.002062 -202147.000000 0 0 1
-7.822358 -23.504532 10.502328 26.906342 1.249524 1.169807 0.003219 -0.001812 -468758.000000 0 0 1
-7.416458 -22.146332 10.122528 25.454458 1.247651 1.161818 -0.003412 0.007112 39132.700000 0 0 1
-6.239858 -22.128332 9.132428 24.738637 1.295948 1.192695 -0.008920 0.004951 377698.000000 0 1 0
-4.990258 -22.477532 9.713428 24.989854 1.352329 1.171582 -0.007514 -0.000719 516929.000000 0 1 0
-3.992658 -22.840632 8.729428 24.775769 1.397740 1.210729 -0.007586 -0.000552 788418.000000 0 1 0
-2.821458 -23.612432 9.363728 25.557523 1.451870 1.195682 0.005110 -0.002295 17259.900000 0 0 1
-2.105858 -22.960132 10.376828 25.284004 1.479334 1.147892 0.006027 0.004116 -452057.000000 0 0 1
-0.974858 -23.717632 10.738928 26.053810 1.529717 1.145948 0.016517 -0.006692 124701.000000 0 0 1
-0.088558 -23.074632 11.827028 25.929232 1.566958 1.097158 0.021844 -0.004330 105263.000000 0 0 1
-0.705458 -22.895232 13.169628 26.422120 1.539994 1.049007 0.013258 0.001932 277735.000000 0 0 1
0.181442 -22.503332 14.242028 26.632091 -1.562734 1.006561 0.020378 -0.003947 184778.000000 0 0 1
0.772042 -21.068032 14.138428 25.384113 -1.534168 0.980052 0.006116 -0.006500 -405676.000000 0 0 1
1.818142 -21.058832 13.227728 24.934972 -1.484674 1.011619 0.019334 -0.008376 -951395.000000 0 1 0
2.316842 -19.777232 12.976528 23.767561 -1.454181 0.993242 0.014381 -0.001293 470198.000000 0 1 0
3.825142 -19.686132 12.605928 23.687232 -1.378881 1.009620 0.021039 0.001266 416093.000000 0 1 0
4.125842 -20.072532 11.282728 23.392928 -1.368073 1.067502 0.021324 -0.006615 -1346940.000000 0 1 0
5.479842 -20.273332 11.109428 23.758284 -1.306807 1.084220 0.051900 -0.008215 -718429.000000 0 1 0
5.903042 -21.262032 9.997728 24.225493 -1.299984 1.145386 0.045479 -0.012375 -437346.000000 0 1 0
5.476742 -20.741632 8.710028 23.153285 -1.312642 1.185116 0.038661 -0.013271 -218378.000000 0 1 0
5.812742 -21.606632 7.617928 23.636145 -1.307993 1.242638 0.042562 -0.016388 -431352.000000 0 1 0
7.275542 -21.961332 7.326828 24.267592 -1.250887 1.264092 0.041606 -0.009344 148377.000000 0 1 0
8.152342 -20.973832 6.744328 23.491451 -1.200077 1.279601 0.038952 -0.020011 399065.000000 0 1 0
8.591542 -19.826132 7.476828 22.864669 -1.161879 1.237665 0.042179 -0.016155 -86716.600000 0 1 0
9.476742 -19.891932 8.729828 23.700369 -1.126197 1.193572 0.043022 -0.009118 299428.000000 0 1 0
8.766542 -20.156032 9.926028 24.117295 -1.160542 1.146617 0.055938 -0.010341 -5079.120000 0 1 0
9.724542 -20.053232 10.996128 24.851835 -1.119272 1.112448 0.064455 -0.000722 722365.000000 0 1 0
9.071342 -20.256032 12.341828 25.395212 -1.149745 1.063300 0.072202 -0.000988 -75528.300000 0 0 1
8.779642 -21.616232 12.607228 26.519536 -1.184991 1.075385 0.062290 -0.008281 -185985.000000 0 0 1
7.960642 -21.806132 13.724028 26.967168 -1.220765 1.036871 0.069870 -0.009135 -30267.900000 0 0 1
8.014842 -23.262732 14.257928 28.437316 -1.238998 1.045602 0.070116 -0.014744 74236.300000 0 0 1
7.257342 -24.261532 13.626128 28.756953 -1.280138 1.077153 0.063454 -0.009962 -497178.000000 0 0 1
6.955142 -25.452532 14.350728 30.035792 -1.304049 1.072662 0.062098 -0.011422 231425.000000 0 0 1
7.139142 -26.733832 13.515428 30.794999 -1.309841 1.116440 0.056126 -0.018836 1015990.000000 0 0 1
8.514042 -27.041232 13.239028 31.288800 -1.265768 1.133906 0.060625 -0.008215 739633.000000 0 0 1
8.431442 -28.034032 12.228328 31.725828 -1.278645 1.175114 0.055921 -0.018169 -12053.400000 0 0 1
9.781742 -28.357732 11.570728 32.151597 -1.238636 1.202657 0.046719 -0.009634 -396551.000000 0 0 1
10.691242 -29.087632 12.316728 33.348085 -1.218571 1.192499 0.045933 -0.010133 -265979.000000 0 0 1
11.925742 -29.169432 11.635928 33.592766 -1.182689 1.217085 0.045184 -0.002259 389405.000000 0 0 1
13.003242 -30.024232 12.378728 34.982449 -1.162092 1.209106 0.040679 -0.003086 -223299.000000 0 0 1
13.438642 -29.533932 13.631228 35.194611 -1.143772 1.173084 0.046104 -0.005770 320795.000000 0 0 1
14.454742 -30.286032 14.270528 36.466852 -1.125494 1.168721 0.051109 -0.002499 944669.000000 0 0 1
15.918342 -30.219232 13.742028 36.816287 -1.085969 1.188276 0.035840 0.005877 -95996.300000 0 0 1
16.563042 -28.984132 13.859528 36.145550 -1.051633 1.177282 0.027891 -0.003975 1242270.000000 0 0 1
17.949642 -29.129632 13.450328 36.764609 -1.018551 1.196250 0.021571 0.000460 1391370.000000 0 0 1
18.800442 -27.827132 13.485828 36.189411 -0.976624 1.188938 0.004310 -0.001654 151258.000000 0 0 1
20.100542 -27.909332 12.965128 36.756730 -0.946636 1.210311 -0.002290 -0.003676 -265748.000000 0 0 1
20.813942 -26.717432 12.967628 36.265697 -0.908967 1.205129 -0.008539 -0.016627 858671.000000 0 0 1
22.123642 -26.685932 12.054028 36.700056 -0.878599 1.236137 -0.007087 -0.006719 1427610.000000 0 0 1
23.112342 -27.540832 12.656228 38.116373 -0.872604 1.232329 -0.003631 -0.012091 392426.000000 0 0 1
24.234142 -27.780732 11.821228 38.714392 -0.853477 1.260496 -0.008060 -0.019342 -46059.400000 0 0 1
25.439842 -28.452732 12.505228 40.163718 -0.841246 1.254176 0.009172 -0.018648 682945.000000 0 0 1
26.377342 -27.559832 13.174528 40.359345 -0.807318 1.238271 0.004601 -0.015786 2155350.000000 0 0 1
27.530542 -27.220032 12.296028 40.620847 -0.779727 1.263270 -0.003382 -0.012791 1070080.000000 0 0 1
28.585142 -26.322932 12.986228 40.971322 -0.744222 1.248275 0.016329 -0.019875 -135633.000000 0 0 1
28.344242 -24.957832 13.273628 40.030971 -0.721951 1.232814 0.032477 -0.022463 -355941.000000 0 0 1
27.598242 -24.692432 14.423928 39.742029 -0.729885 1.199376 0.027017 -0.014538 -525942.000000 0 0 1
28.434242 -24.719232 15.715328 40.823010 -0.715620 1.175629 0.020128 -0.006062 -413099.000000 0 0 1
28.679742 -26.027732 16.128528 41.953544 -0.736960 1.176198 0.018089 -0.012059 65359.400000 0 0 1
29.245142 -26.035632 17.443028 42.864807 -0.727405 1.151704 0.027413 0.003662 -132999.000000 0 0 1
29.694542 -27.419432 17.953528 44.225787 -0.745585 1.152777 0.018201 0.018567 -307992.000000 0 0 1
28.681142 -28.343632 18.217928 44.247738 -0.779480 1.146449 0.000947 0.013983 -269016.000000 0 0 1
29.157342 -29.375432 19.053828 45.564405 -0.789124 1.139363 0.005811 -0.000647 26792.400000 0 0 1
28.036042 -30.071032 19.836228 45.648248 -0.820405 1.121263 0.004642 0.021618 -631407.000000 0 0 1
27.219142 -29.341232 20.745128 45.079374 -0.822900 1.092586 -0.005504 0.025121 1382600.000000 0 0 1
26.136342 -30.106332 21.363228 45.231484 -0.855868 1.078888 -0.016463 0.021245 1510740.000000 0 0 1
25.055042 -30.828332 20.494528 44.700860 -0.888343 1.094510 0.011445 0.012452 -723535.000000 0 0 1
25.464642 -32.033132 19.813728 45.465959 -0.899144 1.119878 0.006707 0.012896 -371891.000000 0 0 1
24.846442 -32.404332 18.617328 44.877515 -0.916653 1.143021 0.023835 0.017088 -571877.000000 0 0 1
25.004942 -31.480532 17.358728 43.790370 -0.899542 1.163198 0.021313 0.020527 1603560.000000 0 0 1
26.425542 -31.299632 17.039328 44.365696 -0.869634 1.176601 0.002645 0.005802 1656530.000000 0 0 1
26.593942 -30.257632 16.126328 43.391480 -0.849752 1.190014 0.005589 -0.011068 -49734.900000 0 0 1
27.886342 -30.457632 15.305128 44.040463 -0.829441 1.215867 0.013198 -0.010444 -276845.000000 0 0 1
27.798142 -31.500432 14.338728 44.391588 -0.847752 1.241893 0.025112 -0.003412 260393.000000 0 0 1
27.829242 -32.826932 14.799128 45.509212 -0.867606 1.239584 0.009946 -0.009040 34173.900000 0 0 1
26.954942 -33.824032 13.909728 45.432528 -0.897938 1.259637 0.017611 -0.012017 276718.000000 0 0 1
27.505642 -34.139632 12.694728 45.642425 -0.892601 1.288945 0.033010 -0.007528 323254.000000 0 0 1
26.705442 33.736777 12.116228 44.700713 0.901209 1.296310 0.027981 -0.010787 -72504.200000 0 0 1
27.203342 33.253677 10.761728 44.290447 0.885143 1.325359 0.027880 -0.011050 -1689240.000000 0 0 1
28.373342 32.609377 10.922128 44.583752 0.854750 1.323297 0.010745 -0.014923 -1463900.000000 0 0 1
28.845242 32.044477 9.693228 44.191121 0.837891 1.349650 0.013284 -0.016051 903370.000000 0 0 1
30.348642 31.589277 9.848828 44.899019 0.805426 1.349643 -0.008428 -0.013147 755818.000000 0 0 1
30.522642 30.648077 10.906728 44.608217 0.787449 1.323792 -0.008210 -0.006990 -54633.500000 0 0 1
31.874842 30.252877 10.957728 45.291434 0.759297 1.326433 -0.006607 -0.004380 124943.000000 0 0 1
32.238542 29.378077 12.192728 45.288604 0.739008 1.298210 -0.005100 0.002558 -20777.400000 0 0 1
31.681142 28.092077 12.078128 44.031134 0.725425 1.292925 -0.000180 0.005706 278033.000000 0 0 1
32.234742 27.252877 13.086328 44.193324 0.701847 1.270173 0.004004 -0.003055 -91354.000000 0 0 1
32.095042 25.769777 12.708528 43.077603 0.676519 1.271325 0.005363 -0.001176 47561.600000 0 0 1
32.996942 25.344677 11.701328 43.221198 0.654980 1.296644 0.007635 0.003694 -375092.000000 0 0 1
33.162442 23.955477 11.554828 42.510311 0.625581 1.295521 0.016569 0.006004 431351.000000 0 0 1
31.997642 23.211477 10.777728 40.972933 0.627578 1.304619 0.002676 0.011567 402040.000000 0 0 1
30.800542 23.032077 11.460328 40.130900 0.642080 1.281191 0.007496 0.007474 -745996.000000 0 0 1
29.716742 22.900577 10.547828 38.971501 0.656573 1.296723 0.002041 0.015921 172320.000000 0 0 1
28.532742 22.334577 11.371628 37.977160 0.664146 1.266698 -0.004731 0.019054 -116687.000000 0 0 1
28.348642 23.150077 12.522928 38.683269 0.684793 1.241127 0.006831 0.016942 -585828.000000 0 0 1
27.258842 22.779877 13.294628 37.930389 0.696126 1.212691 0.032657 0.011686 -324434.000000 0 0 1
23.565942 9.519777 25.987461 36.350074 0.383918 0.774284 0.034184 -0.002905 -54769.500000 0 0 1
23.262842 8.411777 26.862491 36.517273 0.346969 0.744229 0.041512 -0.012213 -1140730.000000 0 0 1
21.911142 8.200177 26.870031 35.627793 0.358110 0.716381 0.045162 -0.008759 -1365950.000000 0 0 1
21.485042 6.978977 27.751541 35.783532 0.314078 0.683227 0.056338 -0.013111 -169654.000000 0 0 1
21.831842 7.100577 29.110961 37.074190 0.314449 0.667764 0.055590 -0.012482 -51648.800000 0 0 1
23.161442 6.785477 29.462341 38.085754 0.284990 0.686327 0.052838 -0.016395 -182816.000000 0 0 1
23.343642 6.910277 31.004221 39.420036 0.287805 0.665660 0.052800 -0.013043 -264345.000000 0 0 1
23.401642 8.204177 31.547461 40.127144 0.337193 0.666181 0.048175 -0.006778 146179.000000 0 0 1
23.074542 8.114977 32.894622 40.991993 0.338175 0.639382 0.040663 0.004180 -36569.900000 0 0 1
23.188942 9.476477 33.618222 41.925118 0.387953 0.640389 0.050941 -0.000163 -74410.700000 0 0 1
24.503742 9.963977 33.677234 42.823712 0.386210 0.665812 0.034156 0.000104 -362575.000000 0 0 1
24.729642 10.519677 -33.805842 43.186268 0.402199 2.469935 0.040174 0.001774 281279.000000 0 0 1
25.912842 11.528577 -33.840922 44.154179 0.418603 2.444055 0.018422 -0.003494 -125827.000000 0 0 1
25.666342 12.691077 34.180296 44.588308 0.459209 0.697305 0.006455 -0.006858 249043.000000 0 0 1
25.403542 13.744077 -33.717782 44.397392 0.495930 2.433270 0.007802 -0.007207 -433640.000000 0 0 1
25.049942 15.083477 34.329074 45.094303 0.541989 0.705522 0.013227 -0.007286 -105259.000000 0 0 1
26.134042 15.582177 33.538684 45.283946 0.537651 0.736788 -0.008171 -0.002713 432492.000000 0 0 1
26.135742 16.999277 33.339318 45.646057 0.576672 0.751907 0.018861 -0.009987 -271624.000000 0 0 1
26.753642 17.901077 -34.330277 47.061384 0.589691 2.388356 0.019392 -0.005956 -47664.100000 0 0 1
26.160642 17.744377 -33.002142 45.698835 0.596003 2.377725 0.021887 -0.008745 467226.000000 0 0 1
27.041642 17.160277 -32.068712 45.322487 0.565464 2.356846 0.006293 -0.002587 -332172.000000 0 0 1
26.245142 16.790377 -30.807692 43.815958 0.569137 2.350566 0.015487 -0.007200 206220.000000 0 0 1
25.405342 15.674077 -31.045832 43.069151 0.552797 2.375805 0.012512 0.001434 177078.000000 0 0 1
24.548542 15.258977 -30.015742 41.670278 0.556139 2.375053 0.025301 -0.015359 60617.700000 0 0 1
23.956042 13.852377 -30.252502 40.999929 0.524267 2.400701 0.038108 -0.020504 -649380.000000 0 0 1
22.981442 13.906277 -31.259382 41.215048 0.544168 2.431721 0.033587 -0.018323 -16402.200000 0 0 1
22.350142 12.678377 -31.593632 40.723798 0.515999 2.458783 0.039121 -0.007814 6117.910000 0 0 1
21.435642 11.987677 -30.560632 39.206420 0.509910 2.464632 0.039469 -0.004799 -238811.000000 0 0 1
20.297642 12.796277 -30.256942 38.616338 0.562496 2.471118 0.037158 -0.005012 357922.000000 0 0 1
19.401142 12.154777 -29.392462 37.256674 0.559676 2.479843 0.030687 0.006762 -634128.000000 0 0 1
18.067442 12.805977 -29.118402 36.582877 0.616599 2.491383 0.024083 0.001065 -929081.000000 0 0 1
17.111242 12.670177 -30.128972 36.892858 0.637367 2.526398 0.011126 0.010018 -382490.000000 0 0 1
15.989742 13.397677 -29.702132 36.295816 0.697423 2.529304 0.016329 -0.001016 -236370.000000 0 0 1
14.874842 13.708677 -30.775292 36.828079 0.744622 2.560107 0.008252 0.003794 1003230.000000 0 0 1
14.087742 12.591677 -31.216392 36.489423 0.729381 2.597296 0.000218 0.006902 286134.000000 0 0 1
13.142442 11.966277 -30.329572 35.153926 0.738590 2.611509 0.011027 0.007033 -270295.000000 0 0 1
12.136542 11.258877 -31.218672 35.336433 0.747901 2.654014 0.018531 0.014263 -359589.000000 0 0 1
11.540242 12.188677 -32.108642 36.231284 0.812718 2.659903 0.030090 0.012480 -499046.000000 0 0 1
10.570542 11.559177 -32.896912 36.435666 0.830043 2.697211 0.044404 0.025976 -324878.000000 0 0 1
10.168342 12.529077 -34.084224 37.710838 0.889034 2.699436 0.047121 0.017660 392470.000000 0 0 1
11.101242 12.641077 33.596984 37.573818 0.850164 0.464246 0.038008 0.017174 335734.000000 0 0 1
10.434942 13.229377 32.509671 36.616706 0.902940 0.478173 0.045756 0.009832 157158.000000 0 0 1
11.242342 13.146877 31.179371 35.656469 0.863329 0.506520 0.038154 0.011137 -63092.200000 0 0 1
11.515942 11.813677 30.687141 34.840788 0.798160 0.493285 0.032354 0.013348 121885.000000 0 0 1
11.484342 11.892877 29.259311 33.607111 0.802872 0.514318 0.040674 0.012167 -329225.000000 0 0 1
12.075842 10.647277 28.615791 32.833732 0.722612 0.512469 0.033721 0.020717 -296262.000000 0 0 1
11.308142 9.519377 28.934221 32.491257 0.699724 0.472302 0.032392 0.009125 -205014.000000 0 0 1
11.751542 8.310777 28.397261 31.836648 0.615547 0.469117 0.030680 0.001679 -481745.000000 0 0 1
10.910742 7.054477 28.667891 31.474719 0.573955 0.425523 0.029994 -0.001247 703083.000000 0 0 1
9.724442 6.966777 27.835451 30.297080 0.621661 0.405893 0.028606 -0.011166 557133.000000 0 0 1
8.907742 5.834077 28.009021 29.964806 0.579843 0.363296 0.037518 -0.015150 -154790.000000 0 0 1
9.419942 4.517977 27.324881 29.254000 0.447210 0.365189 0.031127 -0.010674 54366.000000 0 0 1
10.523042 3.897977 27.975481 30.142266 0.354752 0.381480 0.017598 -0.006566 445117.000000 0 0 1
10.567042 2.496977 27.803291 29.848287 0.232042 0.372317 0.015201 -0.000319 -308383.000000 0 0 1
11.600642 1.833177 28.726331 31.034457 0.156728 0.388107 0.000070 -0.001396 -389739.000000 0 0 1
11.212442 1.600077 30.032641 32.097330 0.141748 0.360632 0.005519 -0.002294 -146821.000000 0 0 1
10.715142 0.272377 30.244041 32.087232 0.025414 0.340593 -0.008655 0.002282 125693.000000 0 0 1
9.500142 0.214077 31.190931 32.606329 0.022530 0.295724 0.004359 0.010065 -250683.000000 0 0 1
9.733842 0.837977 32.433611 33.873131 0.085877 0.292581 -0.004827 -0.000738 -1193120.000000 0 0 1
8.626342 0.995177 33.225523 34.341513 0.114857 0.255634 0.006358 -0.009898 -956800.000000 0 0 1
8.836642 2.103477 34.279816 35.462891 0.233691 0.259029 0.026671 -0.015919 38330.700000 0 0 1
8.848542 3.479277 33.870405 35.179630 0.374634 0.273674 0.018579 -0.008379 235903.000000 0 0 1
9.910242 3.811477 32.983557 34.650473 0.367160 0.311440 0.003027 -0.003266 -425539.000000 0 0 1
9.778142 5.179777 32.301551 34.144287 0.487148 0.330035 0.017586 -0.008274 10184.800000 0 0 1
10.061442 6.340577 33.051243 35.125777 0.562320 0.345401 0.019275 -0.007066 -71549.900000 0 0 1
10.093042 7.446477 32.182481 34.540289 0.635636 0.371628 0.026091 -0.002613 -174757.000000 0 0 1
10.076842 8.802777 32.970263 35.581876 0.718017 0.385521 0.044770 -0.001089 2275.430000 0 0 1
8.870942 9.112377 33.620201 35.945055 0.798823 0.361628 0.043979 -0.003207 -389996.000000 0 0 1
8.522542 8.306377 -34.019822 36.041336 0.772554 2.805078 0.043262 -0.006772 -589418.000000 0 0 1
7.168742 8.750177 -33.464712 35.324827 0.884416 2.815629 0.043534 -0.001618 -224103.000000 0 0 1
6.664742 7.849677 -32.519792 34.111187 0.866856 2.834932 0.045133 -0.000013 304484.000000 0 0 1
5.287442 8.055977 -32.209952 33.620482 0.989979 2.850900 0.038550 -0.002013 564775.000000 0 0 1
4.863042 7.378377 -30.920532 32.158497 0.988055 2.863221 0.033559 -0.000885 -666399.000000 0 0 1
5.247442 8.094377 -29.796642 31.319235 0.995630 2.828497 0.037740 -0.003589 34333.300000 0 0 1
4.772342 7.616177 -28.565752 29.946345 1.011043 2.836762 0.028178 -0.000945 -1891460.000000 0 0 1
3.344142 7.671577 -28.222092 29.436761 1.159719 2.853320 0.024988 0.001180 -1770540.000000 0 0 1
2.500642 6.841877 -29.046882 29.946383 1.220389 2.895875 0.020707 0.002956 -380175.000000 0 0 1
1.173942 7.080677 -28.677522 29.562043 1.406496 2.896353 0.031375 0.008141 -789224.000000 0 0 1
0.191242 6.504777 -29.695702 30.400385 1.541405 2.925860 0.031607 0.000398 -272619.000000 0 0 1
0.299842 7.285877 -30.876852 31.726234 1.529666 2.909677 0.026916 0.002761 198725.000000 0 0 1
-0.264158 6.581677 -31.972312 32.643790 -1.530683 2.938414 0.039721 -0.003649 -444471.000000 0 0 1
-0.236958 7.373077 -33.268592 34.076644 -1.538669 2.923386 0.050240 -0.007367 345967.000000 0 0 1
1.071442 7.479577 -33.819522 34.653314 1.428515 2.921783 0.039175 -0.010079 468661.000000 0 0 1
1.700842 6.347977 34.336601 34.959860 1.309011 0.189109 0.041487 -0.011764 -162132.000000 0 0 1
1.378042 6.148877 32.821150 33.420586 1.350326 0.189684 0.051227 -0.020284 -374396.000000 0 0 1
0.069642 5.677677 32.605241 33.095960 1.558531 0.172418 0.047841 -0.023476 -448278.000000 0 0 1
-0.245158 5.656677 31.213951 31.723317 -1.527484 0.179442 0.049873 -0.029073 48482.000000 0 0 1
0.497442 4.617277 30.296891 30.650747 1.463475 0.152099 0.047759 -0.029793 49070.700000 0 0 1
0.085742 4.738177 28.950091 29.335396 1.552702 0.162255 0.044430 -0.027243 199032.000000 0 0 1
0.738642 3.743377 28.171731 28.428944 1.375979 0.134620 0.041699 -0.024762 111561.000000 0 0 1
0.936142 4.092877 26.688611 27.016846 1.345940 0.156038 0.029257 -0.021680 165167.000000 0 0 1
1.830042 5.195577 26.607371 27.171589 1.232136 0.204143 0.042251 -0.022068 238005.000000 0 0 1
1.903842 5.533177 25.245121 25.914413 1.239407 0.227767 0.028580 -0.013398 -1175100.000000 0 0 1
2.415542 6.999877 24.971601 26.046381 1.238508 0.288274 0.033681 -0.008480 -40748.300000 0 0 1
3.804342 7.215277 24.969711 26.268226 1.085578 0.315739 0.034270 -0.008138 -371164.000000 0 0 1
4.457242 6.556777 23.920081 25.199774 0.973762 0.320055 0.029553 -0.011160 -388123.000000 0 0 1
6.009142 6.779577 23.749121 25.418363 0.845569 0.364424 0.031650 -0.009397 1085560.000000 0 0 1
6.855742 5.979777 24.572191 26.202128 0.717258 0.354576 0.044792 -0.012307 114513.000000 0 0 1
6.857942 4.557677 24.475291 25.823316 0.586559 0.324538 0.058039 -0.013191 -1207390.000000 0 0 1
7.011642 3.901777 23.057711 24.414033 0.507798 0.334895 0.054279 -0.015341 -524403.000000 0 1 0
6.003142 4.191077 22.146411 23.325230 0.609481 0.319280 0.032251 -0.009728 -683976.000000 0 1 0
4.785842 3.521277 22.392011 23.166912 0.634331 0.259371 0.023600 -0.009237 -418245.000000 0 1 0
3.700942 3.759977 21.348211 21.990464 0.793311 0.242278 0.011418 -0.001639 -243288.000000 0 1 0
3.308242 5.082477 21.373911 22.217563 0.993781 0.276460 0.009273 -0.007462 527307.000000 0 1 0
2.074342 5.283177 20.653711 21.419398 1.196658 0.268188 0.007470 -0.005575 565199.000000 0 1 0
1.530542 6.714477 20.648211 21.766382 1.346679 0.321924 0.014465 -0.007774 -140487.000000 0 1 0
2.358442 7.586077 19.918611 21.444390 1.269378 0.379501 0.011992 -0.008336 -143065.000000 0 1 0
1.925542 8.908977 20.233611 22.191814 1.357936 0.423247 0.017404 -0.006757 115009.000000 0 1 0
2.811742 10.051277 19.747911 22.336384 1.298029 0.486202 0.021053 -0.013893 -699158.000000 0 1 0
2.949942 10.251777 18.354011 21.229009 1.290616 0.526498 0.004293 -0.008760 -36103.100000 0 1 0
3.718942 11.413077 18.020411 21.652346 1.255797 0.587622 0.004829 -0.007211 384340.000000 0 1 0
5.256942 11.308177 18.197811 22.060613 1.135638 0.600770 0.013315 -0.004363 -229877.000000 0 1 0
5.820742 10.697777 17.049311 20.952386 1.072488 0.620278 0.014672 -0.000438 798598.000000 0 1 0
7.078942 10.019977 17.350811 21.249988 0.955733 0.615458 0.012962 0.002473 1147320.000000 0 1 0
7.001942 8.543577 17.768711 20.922404 0.884244 0.556201 0.009119 0.000270 -321180.000000 0 1 0
6.486342 8.264677 19.025411 21.733472 0.905376 0.504540 0.016781 -0.008231 -322132.000000 0 1 0
6.446842 6.833477 19.335911 21.497340 0.814503 0.452273 0.016196 -0.023618 -293696.000000 0 1 0
7.760242 6.109477 19.738411 22.071519 0.666936 0.463947 0.041533 -0.024304 253376.000000 0 1 0
8.793942 6.149877 18.769411 21.620481 0.610277 0.519372 0.036133 -0.020970 609822.000000 0 1 0
10.011742 5.467777 19.130811 22.273740 0.499872 0.537688 0.044244 -0.020880 863473.000000 0 1 0
9.960542 3.919377 19.039011 21.841654 0.374882 0.512169 0.043947 -0.025113 -331990.000000 0 1 0
9.357042 3.334277 20.197911 22.508382 0.342311 0.457067 0.058407 -0.026516 293315.000000 0 1 0
9.716942 1.944977 20.152611 22.457284 0.197553 0.457012 0.060614 -0.037789 178208.000000 0 1 0
8.901442 1.125077 21.180511 23.002511 0.125726 0.400692 0.065805 -0.033146 -4009.620000 0 1 0
9.236942 1.401277 22.525211 24.385852 0.150556 0.393168 0.055790 -0.026395 211919.000000 0 1 0
8.560642 0.441777 23.369011 24.891573 0.051560 0.351573 0.058941 -0.034375 -307597.000000 0 1 0
8.964842 0.565477 24.880551 26.452409 0.062994 0.346468 0.044079 -0.022554 -1354360.000000 0 0 1
10.240242 0.129877 25.117821 27.125345 0.012682 0.387145 0.036586 -0.021488 -903023.000000 0 0 1
10.404242 -1.283323 25.115761 27.215742 -0.122726 0.395408 0.030100 -0.024183 -310256.000000 0 0 1
11.879242 -1.747723 25.196251 27.910965 -0.146076 0.444707 0.018048 -0.015691 -100653.000000 0 0 1
11.981842 -3.140323 25.018211 27.916609 -0.256325 0.459720 0.021723 -0.008706 224704.000000 0 0 1
13.299942 -3.644423 25.195811 28.722799 -0.267453 0.500785 0.009064 -0.006526 104637.000000 0 0 1
13.296842 -5.173923 25.452771 29.179085 -0.371083 0.510920 0.013201 -0.014954 -298044.000000 0 0 1
13.000042 -5.905823 24.293761 28.179188 -0.426418 0.531363 0.021859 -0.017892 188077.000000 0 0 1
12.708542 -7.240323 24.665631 28.676169 -0.517858 0.535245 0.020587 -0.014440 -282970.000000 0 0 1
12.368142 -8.056723 23.392811 27.660537 -0.577365 0.562901 0.028111 -0.018815 24968.700000 0 0 1
12.129842 -9.419523 23.589011 28.147858 -0.660283 0.577117 0.031166 -0.011409 -157798.000000 0 0 1
12.222642 -10.019623 22.300011 27.332697 -0.686674 0.616559 0.034061 -0.015732 -87127.400000 0 0 1
11.692942 -11.422523 22.127611 27.510545 -0.773700 0.636246 0.047786 -0.008428 649919.000000 0 0 1
10.275842 -11.458723 22.298011 27.094216 -0.839768 0.604158 0.043765 -0.004244 354461.000000 0 0 1
9.627442 -12.733923 22.192711 27.337828 -0.923436 0.623577 0.036018 -0.000917 615832.000000 0 0 1
8.087442 -12.638523 22.355911 26.924445 -1.001551 0.591114 0.013817 0.001954 122580.000000 0 0 1
7.473242 -11.778623 21.473211 25.606329 -1.005412 0.576107 0.002204 -0.003911 -160660.000000 0 0 1
6.062042 -11.886423 21.575011 25.367627 -1.099183 0.553873 0.000310 -0.005510 442124.000000 0 0 1
5.221342 -10.737823 20.987511 24.146198 -1.118203 0.517245 -0.000183 -0.009244 83356.400000 0 1 0
5.396542 -9.539523 21.692511 24.304119 -1.055977 0.467840 0.010820 -0.004813 -298878.000000 0 1 0
4.793542 -8.415923 21.094011 23.211271 -1.053045 0.430438 0.012222 -0.008035 -113463.000000 0 1 0
5.152542 -7.098823 21.809011 23.506912 -0.942944 0.382404 0.016723 -0.004394 208659.000000 0 1 0
4.819742 -5.893223 21.135311 22.464669 -0.885269 0.345741 0.024404 -0.016012 -492417.000000 0 1 0
5.449342 -4.858523 21.773311 22.964704 -0.728143 0.323525 0.043275 -0.026563 -334697.000000 0 1 0
-7.897458 -15.619923 -20.671272 27.086035 1.102677 2.439002 0.024103 -0.005951 59402.900000 0 0 1
-7.488658 -14.884023 -19.510072 25.656520 1.104645 2.434776 0.015534 -0.002303 -88154.100000 0 0 1
-6.741858 -13.729623 -19.877772 25.081487 1.114339 2.485739 0.011176 -0.005702 42797.600000 0 0 1
-6.067858 -13.234923 -18.558472 23.588111 1.140918 2.476359 -0.003549 -0.000984 -439462.000000 0 1 0
-5.219058 -14.187823 -18.041272 23.537637 1.218305 2.444148 0.010622 -0.002924 -428280.000000 0 1 0
-4.655758 -13.706723 -16.806772 22.181477 1.243354 2.430569 0.031772 -0.013535 -9885.760000 0 1 0
-3.571358 -14.653723 -16.279272 22.192361 1.331740 2.394331 0.026181 -0.006234 295217.000000 0 1 0
-2.404058 -14.722123 -17.103772 22.694920 1.408929 2.424377 0.012799 -0.009892 -290917.000000 0 1 0
-1.341858 -15.268823 -16.414572 22.458310 1.483139 2.390423 0.018259 -0.012031 -612591.000000 0 1 0
-0.019858 -15.468023 -17.169572 23.109615 1.569513 2.408282 0.018795 -0.007104 -75761.600000 0 1 0
0.057542 -16.400423 -18.242572 24.530972 -1.567288 2.409317 0.028857 -0.013659 -310608.000000 0 1 0
-0.350458 -17.748723 -17.973572 25.262408 1.551053 2.362391 0.020903 -0.007885 -182924.000000 0 0 1
-0.704658 -18.483523 -19.306772 26.737401 1.532691 2.377613 0.022075 -0.018691 -1156770.000000 0 0 1
-1.931358 -18.188223 -19.814872 26.966104 1.465005 2.396178 0.018617 -0.017085 -1546560.000000 0 0 1
-2.055758 -18.690623 -21.118872 28.276709 1.461248 2.414131 0.021568 -0.012798 410956.000000 0 0 1
-3.158258 -17.913623 -21.916172 28.481416 1.396285 2.448839 0.025015 -0.009216 229847.000000 0 0 1
-3.018158 -16.517623 -22.107472 27.761150 1.390067 2.492026 0.020017 -0.000468 -532856.000000 0 0 1
-3.691758 -15.725123 -21.185172 26.640572 1.340204 2.490170 0.001496 -0.001701 -259162.000000 0 0 1
-2.849458 -14.561123 -20.597272 25.384903 1.377549 2.517337 0.022143 -0.005939 -43510.700000 0 0 1
-2.529258 -13.542523 -21.532272 25.562390 1.386159 2.572410 0.015383 -0.013024 29802.900000 0 0 1
-1.778658 -12.570023 -20.841672 24.403778 1.430230 2.594489 0.023042 -0.015971 205233.000000 0 1 0
-1.398358 -11.448323 -21.891072 24.743454 1.449253 2.656693 0.026456 -0.020156 -356997.000000 0 1 0
-2.591758 -10.830723 -22.233772 24.866893 1.335916 2.677239 0.022410 -0.016224 -278219.000000 0 1 0
-2.594258 -10.372723 -23.560572 25.873231 1.325720 2.715568 0.025811 -0.012845 -302604.000000 0 0 1
-3.415258 -9.119823 -23.886972 25.795786 1.212475 2.754480 0.016144 -0.011974 -17606.800000 0 0 1
-4.811958 -9.420123 -23.942172 26.174821 1.098533 2.725567 0.026028 -0.011805 664949.000000 0 0 1
-5.474758 -8.165723 -24.040872 25.973362 0.980175 2.753407 0.017689 -0.017191 -54674.100000 0 0 1
-6.983758 -8.151023 -23.646472 25.968590 0.862370 2.715481 0.007810 -0.017739 958805.000000 0 0 1
-7.915458 -8.540723 -24.673672 27.283484 0.823376 2.700638 0.023515 -0.012976 642056.000000 0 0 1
-8.308958 -7.426623 -25.499422 27.828296 0.729384 2.729570 0.026489 -0.018232 -307506.000000 0 0 1
-9.049058 -7.812923 -26.765672 29.314304 0.712220 2.721518 0.031632 -0.029730 -6868.850000 0 0 1
-9.625058 -6.749323 -27.494272 29.902008 0.611547 2.737550 0.038907 -0.035304 196041.000000 0 0 1
-10.354558 -7.333223 -28.576622 31.266857 0.616216 2.723731 0.046610 -0.034303 832303.000000 0 0 1
-11.345358 -6.399123 -29.389402 32.146584 0.513551 2.724402 0.048846 -0.041361 466491.000000 0 0 1
-10.604558 -5.560523 -30.207132 32.493798 0.482939 2.764197 0.032701 -0.027067 -132745.000000 0 0 1
-11.418158 -4.934123 -31.174932 33.564807 0.407894 2.761953 0.051924 -0.030817 49702.000000 0 0 1
-10.680858 -3.867523 -32.074192 34.026347 0.347412 2.801213 0.052038 -0.030174 420384.000000 0 0 1
-9.655058 -4.403923 -32.889822 34.559443 0.427937 2.829485 0.047525 -0.024662 112405.000000 0 0 1
-9.020058 -3.451423 -33.689542 35.046526 0.365451 2.862408 0.038291 -0.022733 -929356.000000 0 0 1
-7.915958 -3.996323 34.185095 35.316479 0.467515 0.253804 0.033424 -0.017350 -432174.000000 0 0 1
-6.697958 -4.013723 -33.837132 34.726418 0.539865 2.914796 0.023171 -0.017674 -667697.000000 0 0 1
-5.739358 -4.654123 34.154389 34.944576 0.681360 0.213065 0.009700 -0.013133 -56351.600000 0 0 1
-4.241758 -4.369123 -34.266586 34.803458 0.800188 2.965720 0.016611 -0.012433 359365.000000 0 0 1
-3.971758 -3.027623 34.344182 34.705391 0.651319 0.144402 0.034799 -0.020592 -363443.000000 0 0 1
-2.618358 -2.705023 -34.229330 34.435737 0.801677 3.032048 0.037972 -0.025938 -116186.000000 0 0 1
-2.443358 -1.172823 -33.879102 33.987337 0.447524 3.061765 0.051100 -0.029688 -37164.000000 0 0 1
-2.862258 -0.903823 -32.567672 32.705698 0.305864 3.049688 0.038179 -0.031350 159069.000000 0 0 1
-3.350558 0.412277 -32.385882 32.561351 -0.122432 3.037730 0.047580 -0.027916 -524264.000000 0 0 1
-3.837358 0.541277 -30.951602 31.193268 -0.140130 3.017034 0.068030 -0.023928 772842.000000 0 0 1
-4.912358 -0.323523 -30.505902 30.900582 0.065764 2.981593 0.051818 -0.027103 1699420.000000 0 0 1
-6.231658 0.263677 -30.675622 31.303305 -0.042287 2.940998 0.058118 -0.030920 1261100.000000 0 0 1
-7.401858 -0.742923 -30.540182 31.433138 0.100035 2.902663 0.053977 -0.032800 246540.000000 0 0 1
-7.746958 -1.102723 -29.204532 30.234683 0.141393 2.879802 0.044524 -0.031266 373919.000000 0 0 1
-8.862258 -2.002723 -29.232942 30.612341 0.222250 2.840253 0.051445 -0.031445 513378.000000 0 0 1
-9.165258 -2.592023 -27.817212 29.402684 0.275612 2.811701 0.047187 -0.029872 95864.800000 0 0 1
-9.853358 -1.668623 -26.959012 28.751718 0.167754 2.786599 0.046005 -0.026670 271846.000000 0 0 1
-10.354958 -2.316623 -25.835632 27.929765 0.220097 2.751888 0.041627 -0.027044 243992.000000 0 0 1
-11.366858 -1.582523 -24.923072 27.438465 0.138333 2.710061 0.048011 -0.025330 454114.000000 0 0 1
-10.714958 -0.460223 -24.318472 26.578379 0.042925 2.726235 0.047930 -0.023102 595573.000000 0 0 1
-11.609658 0.307477 -23.505572 26.218135 -0.026478 2.682689 0.052488 -0.022892 400762.000000 0 0 1
-10.866658 1.520377 -22.914072 25.405718 -0.139010 2.695004 0.052910 -0.024254 236780.000000 0 0 1
-10.744358 2.551577 -23.813272 26.249261 -0.233162 2.707371 0.035181 -0.026461 -342592.000000 0 0 1
-9.914458 3.540277 -23.302572 25.570293 -0.342970 2.717261 0.041041 -0.025320 -575976.000000 0 0 1
-9.631158 4.723177 -24.272072 26.536788 -0.455943 2.725456 0.048957 -0.029889 -216665.000000 0 0 1
-10.752358 5.476377 -24.656772 27.451053 -0.471075 2.686473 0.047085 -0.023091 46968.100000 0 0 1
-11.554258 4.876277 -25.713632 28.608912 -0.399355 2.687816 0.038980 -0.025780 386702.000000 0 0 1
-12.936158 5.582777 -25.771462 29.371412 -0.407417 2.641282 0.030435 -0.010446 146254.000000 0 0 1
-12.875258 6.930677 -26.259772 30.056317 -0.493812 2.633524 0.034714 -0.007744 -32772.100000 0 0 1
-14.176258 7.364277 -26.568132 31.001041 -0.479110 2.600231 0.039408 -0.007616 -317450.000000 0 0 1
-14.290058 8.890877 -26.698712 31.560651 -0.556563 2.579139 0.049506 -0.002261 -166541.000000 0 0 1
-13.869158 9.555577 -25.515342 30.572787 -0.603292 2.558161 0.066815 -0.012425 2174.650000 0 0 1
-14.279258 10.911677 -25.596442 31.275226 -0.652504 2.529462 0.065784 -0.008645 -15517.900000 0 0 1
-13.836058 11.664677 -24.323472 30.317198 -0.700453 2.501934 0.052725 -0.007145 -103389.000000 0 0 1
-14.643458 11.345577 -23.234172 29.714975 -0.659178 2.468506 0.054395 -0.004295 16583.600000 0 0 1
-14.197358 12.057777 -22.099072 28.901972 -0.704086 2.441250 0.037800 -0.005172 -204302.000000 0 0 1
-15.094758 11.855777 -20.879172 28.361083 -0.665789 2.398221 0.035761 -0.009555 -324836.000000 0 0 1
-16.423958 12.278777 -20.938172 29.307368 -0.641972 2.366611 0.038950 -0.013094 -294680.000000 0 0 1
-16.846758 12.877677 -19.714772 28.953757 -0.652654 2.319795 0.037177 -0.010852 -456274.000000 0 0 1
-18.291558 13.362377 -19.791872 30.080765 -0.630918 2.288900 0.046523 -0.015750 -475370.000000 0 0 1
-18.558958 14.443977 -20.647972 31.295402 -0.661353 2.291318 0.043576 -0.012468 4027.300000 0 0 1
-19.902858 14.855177 -20.506472 32.207382 -0.641183 2.261009 0.031941 -0.016409 77901.700000 0 0 1
-20.220558 16.220377 -21.177172 33.473037 -0.676064 2.255784 0.031453 -0.008592 -66188.700000 0 0 1
-20.244258 16.122077 -22.550572 34.326078 -0.672528 2.287565 0.043681 -0.012088 116492.000000 0 0 1
-20.439558 17.443777 -23.112172 35.443383 -0.706483 2.281130 0.035877 0.000555 -231707.000000 0 0 1
-20.584758 17.409377 -24.644072 36.526004 -0.702016 2.311354 0.020321 -0.000032 563963.000000 0 0 1
-19.338958 17.490177 -25.336772 36.357305 -0.735241 2.341838 0.019684 0.003381 490319.000000 0 0 1
-19.567358 17.113677 -26.684872 37.253749 -0.718605 2.369282 0.014763 0.000166 18366.300000 0 0 1
-18.743758 17.747177 -27.828302 37.956622 -0.758095 2.393754 -0.004416 0.014776 -32298.000000 0 0 1
-19.186958 19.095277 -28.038242 38.973222 -0.783003 2.373768 -0.008518 -0.003073 621824.000000 0 0 1
-18.396558 20.063377 -27.339212 38.579852 -0.828710 2.358365 -0.019256 -0.011026 -1547500.000000 0 0 1
-18.900658 21.485677 -27.413002 39.627540 -0.849318 2.334729 0.014121 -0.006444 -80916.100000 0 0 1
-19.873258 21.849277 -26.464832 39.657593 -0.832724 2.301419 0.031608 -0.004046 670169.000000 0 0 1
-21.158058 21.219277 -26.591982 40.063133 -0.786843 2.296620 0.066913 -0.014904 -267859.000000 0 0 1
-22.205758 21.692077 -25.582152 40.225470 -0.773697 2.260060 0.069282 -0.005859 -143209.000000 0 0 1
-21.965258 21.188477 -24.254772 38.983562 -0.767400 2.242320 0.034678 -0.003771 198380.000000 0 0 1
-22.964758 21.571677 -23.309672 39.192578 -0.754129 2.207747 0.037537 -0.008117 -131717.000000 0 0 1
-22.854058 21.125077 -21.860872 38.032546 -0.746105 2.183148 0.048817 -0.000785 -274874.000000 0 0 1
-21.811258 21.767677 -21.175772 37.389518 -0.784398 2.172874 0.040171 0.001344 -163253.000000 0 0 1
-20.678458 21.019777 -20.832872 36.103161 -0.793583 2.185893 0.030353 -0.001329 -460896.000000 0 0 1
-20.697258 20.252577 -19.506872 34.915060 -0.774539 2.163608 0.036778 -0.010636 -1010430.000000 0 0 1
-21.486258 19.058377 -19.663672 34.807198 -0.725588 2.171146 0.053437 -0.012875 629555.000000 0 0 1
-22.172558 18.633177 -18.485172 34.358685 -0.698877 2.138866 0.040373 -0.013141 260927.000000 0 0 1
-23.293158 19.616477 -18.010172 35.379990 -0.699923 2.104877 0.043860 -0.013462 -707529.000000 0 0 1
-24.403758 19.633477 -18.888272 36.575725 -0.677495 2.113456 0.037611 -0.005747 332797.000000 0 0 1
-25.344698 20.635077 -18.550772 37.580464 -0.683326 2.087053 0.031574 -0.007477 -372869.000000 0 0 1
-26.746518 20.499377 -19.222272 38.795572 -0.653935 2.089179 0.007707 0.005906 609761.000000 0 0 1
-27.513808 19.350177 -18.869972 38.568314 -0.612930 2.082039 0.002446 -0.001723 236103.000000 0 0 1
-27.902228 19.228677 -17.558872 38.165303 -0.603403 2.048875 0.002932 -0.003566 -960988.000000 0 0 1
-28.980158 18.154577 -17.328872 38.337032 -0.559640 2.039818 0.001758 -0.004862 -163840.000000 0 0 1
-28.422938 16.860577 -17.368572 37.333762 -0.535407 2.054684 0.020385 -0.012739 325519.000000 0 0 1
-29.246758 15.899577 -16.677572 37.233195 -0.497944 2.035236 0.007445 -0.007663 229490.000000 0 0 1
-28.531018 14.930277 -15.718672 35.833069 -0.482113 2.024908 0.027227 -0.010814 -336728.000000 0 0 1
-27.871618 15.430577 -14.549572 35.023133 -0.505626 1.999209 0.017572 -0.006626 209935.000000 0 0 1
-28.676078 15.636377 -13.380872 35.296763 -0.499209 1.959616 -0.001062 0.001181 82992.200000 0 0 1
-27.933018 16.344977 -12.204172 34.588345 -0.529428 1.931402 0.001697 -0.001220 74448.500000 0 0 1
-27.603388 17.700777 -12.366272 35.045531 -0.570202 1.931426 0.001266 0.007810 -158239.000000 0 0 1
-28.587338 18.630077 -11.953672 36.155303 -0.577562 1.907757 -0.012961 0.007907 -334906.000000 0 0 1
-28.180468 20.077777 -12.189272 36.685614 -0.619047 1.909498 0.018043 -0.003985 -140708.000000 0 0 1
-27.003688 20.375177 -11.491272 35.726690 -0.646396 1.898261 -0.003933 -0.005974 -501198.000000 0 0 1
-26.518998 21.633677 -11.797772 36.200286 -0.684289 1.902763 -0.019386 -0.005085 -206913.000000 0 0 1
-25.491578 22.117077 -10.780872 35.428983 -0.714637 1.879995 -0.009657 0.001828 -381746.000000 0 0 1
-26.024248 22.800677 -9.670372 35.925596 -0.719471 1.843336 0.006623 0.001941 -41926.000000 0 0 1
-26.272968 24.213877 -9.885072 37.071490 -0.744636 1.840711 0.002868 -0.002641 21409.700000 0 0 1
-26.996948 24.845477 -8.711872 37.709809 -0.743922 1.803926 0.010753 0.008809 -678301.000000 0 0 1
-26.137968 24.878877 -7.628872 36.882945 -0.760723 1.779140 0.004617 0.010544 -38310.300000 0 0 1
-26.789508 25.434277 -6.497972 37.507384 -0.759454 1.744920 0.022344 0.000298 172602.000000 0 0 1
-26.483668 24.664377 -5.187472 36.559897 -0.749844 1.713166 0.028502 0.003686 89627.800000 0 0 1
-26.720088 23.244577 -5.339872 35.816026 -0.715951 1.720446 0.037270 0.003193 -82642.000000 0 0 1
-26.549418 22.568377 -4.088172 35.084418 -0.704524 1.687586 0.034576 0.001060 89984.800000 0 0 1
-26.706078 21.049177 -4.277072 34.272085 -0.667492 1.695920 0.035226 0.002372 82720.100000 0 0 1
-25.792348 20.516777 -5.218472 33.367886 -0.671966 1.727833 0.019790 -0.004791 -54326.800000 0 0 1
-25.983218 20.736477 -6.629272 33.898029 -0.673564 1.767630 0.004007 0.002393 -816297.000000 0 0 1
-27.059198 19.905777 -7.368472 34.390908 -0.634246 1.786727 0.004400 -0.001339 -155356.000000 0 0 1
-26.762728 18.561977 -7.439272 33.408582 -0.606401 1.795354 -0.004917 0.003449 75202.500000 0 0 1
-27.211208 17.969777 -8.598772 33.723903 -0.583639 1.828619 -0.015021 0.001490 -334563.000000 0 0 1
-26.826418 16.509977 -8.851072 32.719681 -0.551693 1.844721 0.002259 0.005776 -21350.900000 0 0 1
-27.532158 15.494377 -8.145372 32.625796 -0.512597 1.823126 -0.003246 0.009205 239915.000000 0 0 1
-27.006988 14.168177 -8.369972 31.625481 -0.483142 1.838647 0.001903 0.004177 160912.000000 0 0 1
-27.819358 13.174177 -7.506772 31.683233 -0.442274 1.810003 -0.000429 0.000657 -599504.000000 0 0 1
-29.203608 13.242777 -7.686572 32.974312 -0.425731 1.806069 0.021403 0.004202 -678790.000000 0 0 1
-29.775298 12.194377 -6.933572 32.914216 -0.388709 1.783042 0.045701 -0.005680 -150429.000000 0 0 1
-30.293128 11.043277 -7.833072 33.181088 -0.349575 1.809116 0.034884 -0.000523 -661777.000000 0 0 1
-29.277748 10.166977 -8.176472 32.053216 -0.334231 1.828738 0.028070 0.007570 -483185.000000 0 0 1
-29.786938 8.888977 -8.278672 32.168494 -0.290005 1.831079 0.029265 0.005405 -731094.000000 0 0 1
-28.768138 7.785077 -8.560572 31.008008 -0.264285 1.850506 0.047139 -0.003788 -669396.000000 0 0 1
-28.384188 7.848077 -9.899472 31.068537 -0.269755 1.895084 0.036050 -0.009888 215750.000000 0 0 1
-27.516708 6.780477 -10.236272 30.131800 -0.241600 1.917412 0.038549 -0.018168 -169524.000000 0 0 1
-26.839648 6.921777 -11.637872 30.061899 -0.252394 1.968313 0.032295 -0.018945 -832628.000000 0 0 1
-26.064848 8.033477 -11.700272 29.678434 -0.298973 1.976031 0.043621 -0.020527 -169521.000000 0 0 1
-25.632748 8.311277 -12.992872 29.915378 -0.313548 2.020080 0.041017 -0.021558 -398000.000000 0 0 1
-31.335438 26.228077 -33.598422 52.902511 -0.696904 2.258935 0.010983 -0.007891 -51336.700000 0 0 1
-31.687568 27.557777 -33.992562 54.028024 -0.715804 2.251275 0.009981 -0.009837 310087.000000 0 0 1
-31.452358 27.806577 33.408381 53.652367 -0.723953 0.898630 0.010849 -0.014856 -129388.000000 0 0 1
-31.907118 29.280777 33.073077 54.490885 -0.742502 0.918583 0.017719 -0.016294 63271.500000 0 0 1
-31.999868 29.521977 31.678931 53.843229 -0.745143 0.941773 0.036037 -0.015859 152283.000000 0 0 1
-32.215558 30.874077 31.394131 54.558613 -0.764138 0.957678 0.046610 -0.021949 20878.200000 0 0 1
-32.200698 31.178077 29.901961 53.880281 -0.769265 0.982469 0.062767 -0.028158 335757.000000 0 0 1
-30.840518 31.122677 29.473571 52.805776 -0.789952 0.978641 0.045028 -0.026103 574205.000000 0 0 1
-30.670778 31.891577 28.281551 52.513003 -0.804909 1.002066 0.053647 -0.019158 1349350.000000 0 0 1
-29.141998 31.839877 27.857371 51.371850 -0.829610 0.997661 0.042896 -0.017340 892377.000000 0 0 1
-28.730048 30.681477 27.159831 50.044232 -0.818232 0.997128 0.046389 -0.018557 574827.000000 0 0 1
-27.395928 30.679677 26.645321 49.007679 -0.841881 0.995961 0.025484 -0.002218 447899.000000 0 0 1
-27.166418 31.398577 25.318731 48.630475 -0.857537 1.023202 0.013327 0.005549 -378682.000000 0 0 1
-27.213138 32.826877 25.443921 49.654324 -0.878627 1.032795 0.003219 0.000572 1021390.000000 0 0 1
-28.341118 33.319977 24.668181 50.219110 -0.865969 1.057317 0.003256 0.001170 695257.000000 0 0 1
-28.602008 -34.098232 24.929251 51.012076 0.872833 1.060205 0.014442 0.004502 -6981.450000 0 0 1
-29.293668 -33.983332 26.199041 51.955516 0.859376 1.042273 0.029684 -0.021333 499864.000000 0 0 1
-29.319238 -32.752932 26.871881 51.521552 0.840660 1.022111 0.010568 -0.026538 -249138.000000 0 0 1
-29.826718 -32.871232 28.308301 52.645141 0.833918 1.003067 0.032515 -0.030970 1214860.000000 0 0 1
-31.233058 -33.188232 28.460511 53.730469 0.815739 1.012561 0.035645 -0.035795 942164.000000 0 0 1
-31.455008 -33.437732 29.814401 54.739364 0.815943 0.994811 0.036560 -0.036618 -717342.000000 0 0 1
-32.899998 -33.738632 30.133991 55.935343 0.797982 1.001869 0.052405 -0.041944 -802447.000000 0 0 1
-33.116698 -34.071932 31.522721 57.020121 0.799614 0.985034 0.038722 -0.041542 -422430.000000 0 0 1
-34.511271 -34.002932 31.683721 57.888560 0.777979 0.991634 0.036202 -0.041525 -354696.000000 0 0 1
-35.015519 -34.332632 33.074963 59.150396 0.775551 0.977415 0.025281 -0.028470 -202162.000000 0 0 1
-34.715475 33.236477 33.390444 58.521358 -0.763636 0.963598 0.019907 -0.021732 -60010.500000 0 0 1
-35.293961 32.850277 -34.129496 59.073064 -0.749553 2.186766 0.016241 -0.014876 152854.000000 0 0 1
-34.889036 31.460777 -33.657662 57.791553 -0.733775 2.192471 0.003094 -0.008553 676813.000000 0 0 1
-33.776398 31.446577 -32.759602 56.594380 -0.749692 2.188113 0.009256 -0.013720 -63320.700000 0 0 1
-33.251518 30.208877 -32.413132 55.397210 -0.737489 2.195805 -0.001924 -0.005880 -72797.200000 0 0 1
-32.433808 30.342477 -31.123592 54.233715 -0.752096 2.182031 -0.000739 -0.004612 -283819.000000 0 0 1
-33.115168 30.422077 -29.887532 53.994275 -0.743038 2.157395 0.004964 -0.007522 -555620.000000 0 0 1
-33.762248 31.667377 -29.684662 54.989920 -0.753392 2.141020 -0.000726 0.004118 403534.000000 0 0 1
-34.744517 31.627977 -28.486582 54.945389 -0.738477 2.115837 0.002725 0.004235 207892.000000 0 0 1
-34.055928 31.600777 -27.263922 53.867772 -0.748022 2.101484 -0.008696 0.003389 30492.300000 0 0 1
-34.969071 31.508777 -26.183352 53.862853 -0.733393 2.078431 0.015614 0.002264 -203349.000000 0 0 1
-34.317824 31.138277 -24.844072 52.578829 -0.736861 2.062934 0.026538 -0.000661 -174150.000000 0 0 1
-33.907028 32.365477 -24.195272 52.750563 -0.762142 2.047298 0.019425 0.000480 63122.200000 0 0 1
-33.546558 32.019077 -22.854672 51.700376 -0.762105 2.028690 0.010168 -0.004427 1806340.000000 0 0 1
-34.904417 31.900177 -21.952072 52.132841 -0.740458 2.005432 0.012273 -0.006126 2188700.000000 0 0 1
35.345294 33.028077 -21.907572 53.104477 0.751520 1.996034 0.013465 -0.010254 132409.000000 0 0 1
-35.372513 34.118777 -21.110172 53.487802 -0.767359 1.976508 0.018223 -0.012093 -245138.000000 0 0 1
-35.259339 33.764977 -19.559472 52.591517 -0.763752 1.951865 0.012366 -0.011900 -208448.000000 0 0 1
-34.227133 32.890077 -19.171072 51.193592 -0.765480 1.954634 0.005408 -0.011842 -112125.000000 0 0 1
-34.258985 32.605177 -17.788872 50.529394 -0.760669 1.930557 0.015083 -0.006962 -877810.000000 0 0 1
-33.070258 31.807477 -17.375872 49.064025 -0.765937 1.932798 0.012813 -0.003452 -848756.000000 0 0 1
-32.893098 31.567877 -15.983972 48.311222 -0.764843 1.908005 0.010655 -0.000573 -303563.000000 0 0 1
-31.672398 30.885077 -15.844972 46.990339 -0.772813 1.914734 0.011524 0.004132 -510729.000000 0 0 1
-31.332478 30.585777 -14.432872 46.103381 -0.773339 1.889204 0.015607 0.003283 -276877.000000 0 0 1
-32.282478 29.760577 -13.773972 46.017091 -0.744773 1.874779 0.023826 0.000902 405810.000000 0 0 1
-31.888568 29.632877 -12.428272 45.270853 -0.748749 1.848899 0.035957 0.001522 198811.000000 0 0 1
-32.738848 28.499777 -11.760972 44.970990 -0.716286 1.835397 0.033592 -0.000322 160850.000000 0 0 1
-32.458308 28.257477 -10.363072 44.265337 -0.716320 1.807102 0.040290 0.003877 276203.000000 0 0 1
-33.333208 27.273677 -9.814472 44.173296 -0.685748 1.794847 0.041914 0.002665 -259173.000000 0 0 1
-32.633678 26.300977 -8.883472 42.844071 -0.678356 1.779656 0.042503 0.007032 -37880.000000 0 0 1
-32.302498 26.870777 -7.558872 42.692231 -0.693861 1.748790 0.049131 -0.003430 -27569.800000 0 0 1
-31.374998 27.910577 -7.444372 42.647503 -0.727028 1.746251 0.042921 -0.008334 -578005.000000 0 0 1
-30.946998 28.198777 -5.966372 42.290487 -0.738966 1.712349 0.046913 -0.011599 -280617.000000 0 0 1
-30.264258 27.179877 -5.314372 41.023330 -0.731756 1.700707 0.050880 -0.014699 -21964.600000 0 0 1
-30.036318 27.670477 -4.017172 41.036245 -0.744424 1.668847 0.039903 -0.012134 97625.700000 0 0 1
-28.997818 26.831477 -3.221172 39.638082 -0.746615 1.652151 0.039298 -0.004720 324912.000000 0 0 1
-29.598768 25.578277 -2.854172 39.223483 -0.712661 1.643628 0.026206 0.002314 82926.900000 0 0 1
-28.752348 24.851977 -2.022672 38.057975 -0.712764 1.623969 0.012607 0.007856 -363113.000000 0 0 1
-29.420278 23.595277 -1.489872 37.742676 -0.675964 1.610281 0.017110 0.000523 -20466.600000 0 0 1
-29.633018 22.619977 -2.497372 37.363297 -0.651982 1.637686 0.005807 0.014044 225240.000000 0 0 1
-30.803838 21.854077 -2.246772 37.835501 -0.617046 1.630214 0.011846 0.005989 202933.000000 0 0 1
-31.133218 20.956277 -3.477472 37.689994 -0.592454 1.663193 0.017250 0.007036 -489817.000000 0 0 1
-30.300218 19.868877 -3.668672 36.418878 -0.580395 1.671703 0.014050 -0.000371 -284925.000000 0 0 1
-30.681568 19.093277 -4.774572 36.451452 -0.556659 1.702158 0.024575 0.005247 110889.000000 0 0 1
-29.699228 17.922477 -5.121972 35.064140 -0.542964 1.717395 0.016703 0.011555 120458.000000 0 0 1
-29.804568 16.721377 -4.400472 34.456942 -0.511275 1.698855 0.025487 0.005299 40183.200000 0 0 1
-28.974958 15.789077 -5.038072 33.380014 -0.498936 1.722306 0.022841 0.000858 -308840.000000 0 0 1
-28.473898 14.649077 -4.124972 32.285813 -0.475160 1.698911 0.043024 -0.005760 393095.000000 0 0 1
-29.547378 13.869777 -3.548572 32.833072 -0.438876 1.679087 0.063923 -0.007354 571116.000000 0 0 1
-29.172308 12.662377 -3.030572 31.945950 -0.409515 1.665805 0.070000 -0.015063 -159169.000000 0 0 1
-30.277418 11.785877 -2.363972 32.576330 -0.371216 1.643427 0.083471 -0.016021 264070.000000 0 0 1
-31.132848 11.092877 -3.259972 33.210444 -0.342283 1.669116 0.071517 -0.000923 819033.000000 0 0 1
-32.086678 10.206377 -2.646972 33.774717 -0.307967 1.649248 0.068476 0.002258 700353.000000 0 0 1
-33.179128 9.783577 -3.698872 34.788713 -0.286745 1.677322 0.052578 0.002159 -48739.300000 0 0 1
-32.732338 8.909177 -4.716572 34.249459 -0.265745 1.708948 0.051767 -0.013396 -87744.200000 0 0 1
-33.644228 8.504677 -5.713872 35.169759 -0.247596 1.733985 0.054048 -0.004552 -501983.000000 0 0 1
-33.090958 7.700277 -6.923472 34.673336 -0.228632 1.771825 0.056268 -0.004942 -376282.000000 0 0 1
-32.544608 6.463077 -6.451472 33.801544 -0.196041 1.762838 0.051628 -0.006207 541104.000000 0 0 1
-32.167988 5.626877 -7.530872 33.513508 -0.173170 1.797443 0.046225 -0.003591 -7790.610000 0 0 1
-31.117678 4.540877 -7.116372 32.242397 -0.144903 1.793344 0.045134 -0.009401 100077.000000 0 0 1
-29.787728 4.963877 -6.965772 30.991463 -0.165124 1.797497 0.050560 -0.010087 -218023.000000 0 0 1
-28.961048 3.882777 -6.664472 29.970543 -0.133274 1.795038 0.042297 -0.015077 -541150.000000 0 0 1
-27.488418 4.193777 -6.378672 28.528728 -0.151398 1.796290 0.055933 -0.009990 -382081.000000 0 0 1
-26.883808 4.752977 -7.498472 28.311782 -0.174989 1.838848 0.052186 -0.010139 -589810.000000 0 0 1
-25.506628 4.766777 -7.274972 26.948756 -0.184753 1.844143 0.069213 -0.016171 -441684.000000 0 0 1
-24.573158 5.184677 -8.443872 26.495659 -0.207940 1.895142 0.056490 -0.013277 -56637.500000 0 0 1
-24.617558 4.368677 -9.634472 26.794263 -0.175633 1.938606 0.056822 -0.026073 569123.000000 0 0 1
-23.799458 4.862577 -10.693172 26.540587 -0.201541 1.985478 0.055912 -0.025783 -201840.000000 0 0 1
-23.954558 4.147977 -12.042472 27.130199 -0.171460 2.030717 0.059631 -0.030906 694820.000000 0 0 1
-25.220148 4.427777 -12.672372 28.570091 -0.173794 2.030356 0.056729 -0.018639 972060.000000 0 0 1
-25.249728 3.759577 -13.912272 29.072917 -0.147810 2.069777 0.058236 -0.022819 138061.000000 0 0 1
-26.287048 4.364377 -14.895072 30.527362 -0.164527 2.080508 0.044150 -0.018928 -400832.000000 0 0 1
-25.853038 5.544677 -15.563472 30.681341 -0.211269 2.102801 0.048294 -0.019474 183372.000000 0 0 1
-26.839018 6.295077 -16.219372 31.984823 -0.230385 2.102608 0.082681 -0.024689 -332101.000000 0 0 1
-27.682498 5.684677 -17.366372 33.169672 -0.202537 2.121822 0.043890 -0.014409 -19240.600000 0 0 1
-28.822938 4.970777 -16.906572 33.783170 -0.170779 2.094907 0.044553 -0.016167 -198811.000000 0 0 1
-29.445288 4.464177 -18.018772 34.808476 -0.150463 2.114904 0.046793 -0.008405 -905570.000000 0 0 1
-30.843308 3.937977 -17.731872 35.794365 -0.126990 2.089070 0.044984 -0.009368 -898224.000000 0 0 1
-31.167778 2.748177 -16.995472 35.606585 -0.087946 2.068390 0.038349 -0.014836 377430.000000 0 0 1
-30.482658 1.554077 -17.397572 35.132365 -0.050938 2.088862 0.049612 -0.018839 -235348.000000 0 0 1
-30.606238 0.400277 -16.395272 34.723291 -0.013078 2.062546 0.050145 -0.020087 -454953.000000 0 0 1
-29.815908 -0.779123 -16.682772 34.174702 0.026125 2.080778 0.045428 -0.002383 676974.000000 0 0 1
-30.195998 -1.957623 -15.987872 34.223422 0.064740 2.056874 0.043525 -0.016401 -279973.000000 0 0 1
-29.882428 -3.176023 -16.853372 34.454067 0.105886 2.081917 0.042983 -0.003776 -778752.000000 0 0 1
-30.834048 -3.347923 -17.862072 35.791070 0.108155 2.093316 0.048727 -0.008558 34746.900000 0 0 1
-30.528078 -4.502923 -18.623272 36.042560 0.146445 2.113791 0.055087 -0.005467 229004.000000 0 0 1
-31.524268 -4.695823 -19.797672 37.520368 0.147872 2.126630 0.067111 -0.010837 114013.000000 0 0 1
-31.417558 -5.952423 -20.361372 37.908835 0.187242 2.137808 0.070615 -0.006169 445655.000000 0 0 1
-32.387368 -6.105223 -21.423272 39.308675 0.186320 2.147187 0.079283 -0.011972 153090.000000 0 0 1
-32.188038 -7.315723 -22.361172 39.869934 0.223484 2.166212 0.084273 -0.009436 -1203520.000000 0 0 1
-31.007698 -7.183923 -23.031372 39.287787 0.227665 2.197184 0.078809 -0.013717 -1110420.000000 0 0 1
-30.906638 -8.073123 -24.144172 40.041686 0.255501 2.218023 0.070392 -0.009777 547577.000000 0 0 1
-29.580568 -7.901523 -24.961172 39.503217 0.261024 2.254769 0.052206 -0.002821 121444.000000 0 0 1
-29.569608 -6.766723 -25.818732 39.834121 0.224967 2.275957 0.056797 -0.008930 90326.600000 0 0 1
-29.556278 -7.070723 -27.235632 40.808680 0.234816 2.301506 0.042284 -0.010799 87605.800000 0 0 1
-30.984828 -7.242023 -27.793872 42.249329 0.229606 2.288762 0.048246 -0.005819 -24012.700000 0 0 1
-31.760778 -8.256523 -27.241212 42.649746 0.254330 2.263629 0.050627 -0.005453 -176833.000000 0 0 1
-33.032838 -8.417123 -27.851792 44.019753 0.249501 2.255846 0.063016 -0.006844 691301.000000 0 0 1
-33.724818 -9.744323 -27.360522 44.507453 0.281276 2.232853 0.056715 -0.009673 -435788.000000 0 0 1
-33.192598 -10.910923 -27.999432 44.774602 0.317589 2.246366 0.051231 -0.000913 373660.000000 0 0 1
-33.916098 -12.155323 -27.800892 45.507617 0.344133 2.228001 0.038356 -0.000472 1116680.000000 0 0 1
-35.330188 -12.186523 -28.514682 47.008729 0.332153 2.222551 0.027006 0.000227 798540.000000 0 0 1
34.865999 -11.207123 -28.092142 46.156321 -0.311003 2.225130 0.016949 -0.009757 124267.000000 0 0 1
33.994499 -10.824023 -29.167732 46.081906 -0.308256 2.256159 0.010603 -0.016182 -244489.000000 0 0 1
33.145229 -9.647723 -28.753602 44.927212 -0.283248 2.265300 0.001991 -0.007187 -670720.000000 0 0 1
32.003839 -10.059323 -28.047272 43.727396 -0.304539 2.267134 -0.014265 -0.007677 -269868.000000 0 0 1
31.219879 -8.891823 -27.752582 42.707742 -0.277466 2.278151 -0.029183 -0.002318 1283700.000000 0 0 1
29.903799 -9.264923 -26.927132 41.293419 -0.300445 2.281138 -0.017453 -0.000962 763850.000000 0 0 1
30.131609 -9.312523 -25.550372 40.588896 -0.299749 2.251695 -0.021191 0.006067 185761.000000 0 0 1
29.025239 -9.776723 -24.801372 39.410111 -0.324899 2.251468 -0.037044 0.012083 -140993.000000 0 0 1
29.397119 -9.818523 -23.300972 38.775370 -0.322347 2.215450 -0.045360 0.012579 -20714.700000 0 0 1
30.179639 -10.945023 -22.995772 39.489362 -0.347911 2.192386 -0.049095 0.009848 71731.900000 0 0 1
30.322129 -10.974123 -21.591872 38.808141 -0.347252 2.160813 -0.033840 0.008581 114680.000000 0 0 1
31.219609 -12.121823 -21.048872 39.555753 -0.370359 2.131913 -0.004017 0.008136 474345.000000 0 0 1
32.606659 -12.023623 -21.328572 40.775847 -0.353278 2.121244 0.008181 0.004727 -84582.700000 0 0 1
33.394459 -12.875823 -20.533472 41.262576 -0.368003 2.091660 0.039208 0.004361 531250.000000 0 0 1
34.896009 -12.891223 -20.997372 42.717733 -0.353868 2.084651 0.063396 -0.011477 260469.000000 0 0 1
-35.524804 -11.695623 -21.048372 42.916585 0.318048 2.083401 0.084276 -0.002989 86778.900000 0 0 1
35.207292 -10.810023 -22.058972 42.930272 -0.297902 2.110443 0.087065 -0.005910 -1085560.000000 0 0 1
-35.407064 -11.154123 -23.514372 43.943149 0.305184 2.135433 0.063285 -0.004591 4853.540000 0 0 1
35.287450 -12.313523 -24.209372 44.529998 -0.335738 2.145593 0.055753 -0.002491 328585.000000 0 0 1
33.899179 -12.277123 -24.502972 43.592175 -0.347472 2.167714 0.070780 -0.007140 54063.300000 0 0 1
33.349429 -13.463223 -25.333602 43.991297 -0.383693 2.184474 0.034264 -0.024112 -346948.000000 0 0 1
33.445359 -14.752623 -24.734872 44.136672 -0.415425 2.165684 0.034158 -0.034802 436917.000000 0 0 1
32.714459 -14.973523 -23.524072 42.986326 -0.429242 2.149866 0.016121 -0.022437 -154173.000000 0 0 1
-29.208388 8.795877 -19.589672 36.252622 -0.292504 2.141668 0.024661 -0.007316 1295570.000000 0 0 1
-27.853978 8.279077 -19.476272 34.981601 -0.288915 2.161274 0.030813 -0.001121 1180360.000000 0 0 1
-27.239018 8.355277 -20.767672 35.257211 -0.297628 2.200658 0.044602 -0.022207 194998.000000 0 0 1
-26.026708 7.398677 -20.932472 34.209624 -0.276966 2.229242 0.052410 -0.027123 144616.000000 0 0 1
-24.917658 7.862777 -20.206872 33.030753 -0.305661 2.229079 0.060473 -0.026852 212952.000000 0 0 1
-23.812358 6.963077 -20.121972 31.943804 -0.284483 2.252244 0.068863 -0.028418 376890.000000 0 0 1
-22.541058 7.646277 -19.606972 30.838259 -0.327035 2.259841 0.061297 -0.028812 -62227.500000 0 0 1
-21.921658 8.509577 -20.511172 31.203849 -0.370276 2.288064 0.065624 -0.030420 -878240.000000 0 0 1
-20.709458 9.052577 -20.133572 30.268656 -0.412094 2.298508 0.062446 -0.025545 -539880.000000 0 0 1
-20.145758 10.060977 -21.187172 30.918782 -0.463175 2.325747 0.052413 -0.020494 -51352.400000 0 0 1
-19.516358 9.373477 -22.271672 31.060871 -0.447754 2.370333 0.065543 -0.019088 -63958.000000 0 0 1
-18.757958 10.280277 -23.023972 31.426874 -0.501344 2.392960 0.065926 -0.017287 -392808.000000 0 0 1
-17.906858 9.498777 -24.012972 31.424595 -0.487714 2.440512 0.061055 -0.010391 -465846.000000 0 0 1
-18.588058 8.796877 -25.020572 32.387189 -0.442023 2.453636 0.063829 -0.009783 -332609.000000 0 0 1
-17.725358 7.960077 -25.731772 32.243995 -0.422087 2.494820 0.053080 -0.001469 -839160.000000 0 0 1
-18.367358 6.827277 -26.549542 32.997723 -0.355881 2.505776 0.030829 0.004395 -325891.000000 0 0 1
-18.931858 5.824077 -25.742152 32.480664 -0.298445 2.485756 0.045793 -0.000455 497040.000000 0 0 1
-19.720258 4.925877 -26.548712 33.436312 -0.244779 2.488171 0.039472 -0.001677 -200307.000000 0 0 1
-20.188458 3.713777 -25.654292 32.855877 -0.181922 2.466762 0.036153 0.001784 202268.000000 0 0 1
-19.238158 2.677177 -25.331392 31.921050 -0.138272 2.487440 0.034402 0.001481 711685.000000 0 0 1
-18.154158 3.112077 -24.517572 30.665450 -0.169775 2.497288 0.027968 -0.001135 89443.800000 0 0 1
-17.204658 1.919877 -24.120172 29.689542 -0.111131 2.519075 0.020283 -0.002253 147395.000000 0 0 1
-17.609858 0.993477 -23.061072 29.032863 -0.056356 2.488666 0.019322 0.002280 1000480.000000 0 0 1
-18.832158 0.239877 -23.294372 29.955559 -0.012737 2.461685 0.020483 0.003982 824351.000000 0 0 1
-19.216458 -0.641423 -22.098672 29.292234 0.033366 2.425568 0.022193 0.001540 3183.290000 0 0 1
-18.436958 -1.827223 -21.916272 28.698138 0.098784 2.439795 0.025866 -0.001389 471152.000000 0 0 1
-18.978258 -2.560023 -20.830072 28.295227 0.134083 2.398189 0.020990 0.006408 21872.700000 0 0 1
-18.360558 -3.973023 -20.644872 27.912466 0.213103 2.403315 0.014769 -0.004640 -192084.000000 0 0 1
-18.662358 -4.857523 -21.682772 29.017611 0.254635 2.414677 0.017695 -0.010047 276924.000000 0 0 1
-18.385058 -6.207723 -21.437472 28.915591 0.325631 2.405922 0.037988 -0.001855 -319080.000000 0 0 1
-18.595958 -6.984623 -22.775372 30.221055 0.359296 2.424358 0.012167 -0.009319 -500905.000000 0 0 1
-17.463058 -6.858323 -23.581372 30.134301 0.374226 2.469535 0.013636 0.004782 -149832.000000 0 0 1
-17.505058 -7.798423 -24.627472 31.205045 0.419102 2.480325 0.029686 -0.010513 -737052.000000 0 0 1
-16.172758 -7.806023 -25.328422 31.048688 0.449684 2.524846 0.028173 -0.013162 -1212880.000000 0 0 1
-16.085658 -8.856023 -26.292052 32.069449 0.503268 2.531941 0.037367 -0.043697 90208.100000 0 0 1
-14.828158 -8.993123 -26.940272 32.039488 0.545178 2.569640 0.051314 -0.043169 -109821.000000 0 0 1
-13.826458 -9.824723 -26.130542 31.152871 0.617787 2.565843 0.061468 -0.038338 -909298.000000 0 0 1
-13.091358 -9.040223 -25.244132 29.839160 0.604355 2.579247 0.052254 -0.022130 95236.600000 0 0 1
-12.346258 -9.831023 -24.306072 28.980411 0.672466 2.565701 0.040785 -0.015775 267579.000000 0 0 1
-11.565658 -8.957923 -23.280672 27.495427 0.659015 2.580569 0.038814 -0.011799 -56792.000000 0 0 1
-12.324358 -8.442123 -22.236072 26.788097 0.600584 2.550035 0.033058 -0.002461 -175237.000000 0 0 1
-11.471658 -7.786223 -21.327772 25.438122 0.596312 2.565170 0.029646 0.001199 -893983.000000 0 0 1
-11.889758 -7.537323 -19.859872 24.343215 0.564998 2.524956 0.018322 -0.000668 221541.000000 0 1 0
-12.940058 -6.597623 -19.546472 24.352378 0.471505 2.502524 0.016192 0.004198 1277230.000000 0 1 0
-14.250458 -7.054323 -19.894872 25.468509 0.459659 2.467311 0.015730 -0.004085 298472.000000 0 0 1
-15.378258 -6.049023 -19.489172 25.552090 0.374760 2.438310 0.018862 -0.000602 -175443.000000 0 0 1
-15.514158 -5.745623 -18.129572 24.543485 0.354685 2.401894 0.016532 0.002966 468465.000000 0 1 0
-14.995558 -4.435323 -17.918072 23.782265 0.287577 2.424047 0.011477 -0.002518 -695677.000000 0 1 0
-14.697758 -4.153223 -16.443372 22.442322 0.275395 2.393070 0.014263 -0.000710 266100.000000 0 1 0
-15.805058 -3.943723 -15.552172 22.521609 0.244529 2.333038 0.034755 -0.008888 570371.000000 0 1 0
-16.515058 -2.742623 -15.713472 22.960451 0.164566 2.324537 0.014048 -0.010687 -94046.100000 0 1 0
-17.862058 -2.595623 -14.972572 23.451403 0.144305 2.263280 0.028784 -0.012819 -129763.000000 0 1 0
-17.722058 -2.696423 -13.575672 22.486460 0.150993 2.218964 0.050013 -0.024520 384580.000000 0 1 0
-18.751158 -1.990623 -12.937972 22.868310 0.105764 2.172151 0.051875 -0.018214 -198536.000000 0 1 0
-18.222458 -0.752523 -12.112572 21.893804 0.041273 2.157047 0.042947 -0.020192 87952.700000 0 1 0
-17.581758 0.178577 -12.974372 21.851417 -0.010157 2.206513 0.037568 -0.021065 673456.000000 0 1 0
-16.820558 1.120177 -12.251472 20.839495 -0.066498 2.199253 0.043563 -0.016554 -525345.000000 0 1 0
-16.314858 2.242777 -13.245472 21.134029 -0.136612 2.248155 0.048903 -0.014849 281510.000000 0 1 0
-15.535058 1.837577 -14.358772 21.234148 -0.117739 2.313404 0.040272 -0.019878 443174.000000 0 1 0
-14.237358 1.330077 -14.096172 20.079182 -0.093151 2.349039 0.033299 -0.020355 -526824.000000 0 1 0
-13.749658 0.472677 -15.249672 20.538476 -0.034364 2.407581 0.032718 -0.018066 -306605.000000 0 1 0
-13.442358 1.118977 -16.488372 21.302946 -0.083051 2.455923 0.031082 -0.019335 504214.000000 0 1 0
-13.056258 0.149977 -17.503872 21.837443 -0.011487 2.500685 0.021263 -0.013526 14865.900000 0 1 0
-12.371858 0.805477 -18.735972 22.466604 -0.065014 2.557019 0.030279 -0.011221 23714.800000 0 1 0
-11.120958 1.389377 -18.396572 21.541586 -0.124289 2.594427 0.019177 -0.011825 37524.900000 0 1 0
-10.619958 2.043577 -19.564372 22.354516 -0.190104 2.636618 0.015349 -0.008382 -141054.000000 0 1 0
-9.218458 2.581977 -19.323172 21.564590 -0.273090 2.681610 0.016581 -0.007321 -602254.000000 0 1 0
-8.091058 1.818577 -19.680472 21.356344 -0.221090 2.742794 0.014064 -0.000475 995018.000000 0 1 0
-6.815058 2.442777 -19.389072 20.696577 -0.344172 2.784237 0.014133 0.003799 1310170.000000 0 1 0
-6.374358 3.578377 -20.376672 21.648233 -0.511531 2.797146 0.016983 0.006417 -575872.000000 0 1 0
-6.005958 3.149877 -21.667072 22.703640 -0.483023 2.838251 0.012131 0.007836 86809.800000 0 1 0
-5.617958 4.167777 -22.472672 23.536202 -0.638276 2.839826 0.009775 0.003604 -445123.000000 0 1 0
-5.227658 3.675277 -23.868872 24.709495 -0.612767 2.880002 0.022389 -0.003586 -445074.000000 0 1 0
-4.042058 2.948877 -23.758972 24.280092 -0.630283 2.934035 0.027609 -0.006883 -582091.000000 0 1 0
-3.719258 2.315677 -24.971372 25.352804 -0.556885 2.967910 0.041239 -0.012344 1451320.000000 0 0 1
-2.234358 1.704377 -24.949072 25.106841 -0.651646 3.029428 0.026570 -0.008120 1523170.000000 0 0 1
-1.211158 2.660277 -24.654372 24.827043 -1.143564 3.023584 0.016060 -0.008319 686130.000000 0 1 0
0.106642 2.126377 -24.624572 24.716440 1.520686 3.055347 0.017658 -0.011755 437002.000000 0 1 0
0.569542 1.172477 -23.500772 23.536894 1.118606 3.086184 0.019778 -0.019644 -648821.000000 0 1 0
0.175242 -0.196423 -23.712672 23.714133 -0.842325 3.130492 0.027474 -0.015768 955.019000 0 1 0
0.846642 -0.963723 -22.755372 22.791501 -0.849980 3.085279 0.026493 -0.011453 -638684.000000 0 1 0
0.455842 -2.445623 -22.781672 22.917099 -1.386520 3.032824 0.040731 -0.018450 489506.000000 0 1 0
-0.749158 -2.805423 -22.094872 22.284861 1.309846 3.010921 0.031149 -0.015219 1224620.000000 0 1 0
-1.996458 -2.719923 -22.824372 23.072403 0.937606 2.994831 0.036415 -0.019563 921330.000000 0 1 0
-2.751058 -1.402623 -22.775672 22.984058 0.471495 3.006832 0.035733 -0.017093 -1621730.000000 0 1 0
-3.214858 -1.029923 -21.548572 21.811396 0.310032 2.986196 0.026165 -0.009756 347384.000000 0 1 0
-4.118958 0.083077 -21.499872 21.891031 -0.020167 2.952268 0.020532 -0.008572 691117.000000 0 1 0
-5.454958 0.029177 -22.281772 22.939808 -0.005349 2.901495 0.018581 -0.002999 -669670.000000 0 1 0
-6.235358 -1.018523 -21.793872 22.691186 0.161916 2.859429 0.020257 0.000222 435799.000000 0 1 0
-7.642858 -0.768823 -21.885272 23.194170 0.100256 2.804039 0.019921 -0.004241 955664.000000 0 1 0
-8.566958 -1.958723 -21.527672 23.252312 0.224773 2.754020 0.018500 -0.007746 60164.800000 0 1 0
-8.639658 -2.934923 -22.534272 24.311538 0.327473 2.756853 0.041402 -0.012433 -127506.000000 0 1 0
-9.308658 -4.089623 -22.115972 24.341166 0.413950 2.710676 0.029490 -0.014303 -492813.000000 0 1 0
-10.008658 -4.878523 -23.241472 25.770899 0.453541 2.694828 0.025574 -0.012560 -187175.000000 0 0 1
-11.401058 -4.700423 -23.303972 26.365758 0.391047 2.654875 0.020231 -0.012527 -376659.000000 0 0 1
-11.939258 -5.539923 -24.355172 27.684130 0.434443 2.646137 0.017541 -0.022757 1491590.000000 0 0 1
-13.526458 -5.430923 -24.252372 28.295539 0.381802 2.600428 0.033153 -0.025428 1169390.000000 0 0 1
-13.926258 -4.107923 -24.393872 28.387967 0.286842 2.604702 0.025228 -0.029989 20140.100000 0 0 1
-15.340158 -4.004823 -24.420172 29.115354 0.255368 2.565759 0.025314 -0.032411 337350.000000 0 0 1
-15.897858 -2.605123 -24.649672 29.447154 0.162423 2.562723 0.021194 -0.022105 -378510.000000 0 0 1
-15.587558 -2.154123 -25.932792 30.333511 0.137325 2.596197 0.019689 -0.025067 277599.000000 0 0 1
-16.190258 -0.921423 -26.318362 30.913260 0.056851 2.589372 0.012250 -0.022391 336839.000000 0 0 1
-17.716058 -0.894623 -26.648102 32.012192 0.050455 2.554286 0.008825 -0.019843 90319.800000 0 0 1
-18.151858 -1.388323 -27.936792 33.344891 0.076335 2.564062 0.019554 -0.027765 -47849.700000 0 0 1
-17.714858 -0.598323 -29.027982 34.011732 0.033762 2.593404 0.005280 -0.018656 -579164.000000 0 0 1
-17.660258 -1.240523 -30.429392 35.204709 0.070129 2.614664 0.004771 -0.018442 -322202.000000 0 0 1
-18.935158 -1.648523 -30.826952 36.215450 0.086842 2.589083 0.006642 -0.016810 -307059.000000 0 0 1
-18.875058 -2.266623 -32.078272 37.288348 0.119513 2.606607 0.010506 -0.020894 -784237.000000 0 0 1
-20.241558 -2.881023 -32.444722 38.349458 0.141382 2.579287 -0.004670 -0.010790 629361.000000 0 0 1
-21.335158 -1.992223 -32.735572 39.125127 0.093107 2.562006 0.002817 -0.008991 751969.000000 0 0 1
-21.871958 -1.407923 -31.595742 38.453293 0.064282 2.535123 -0.001807 0.005049 -1212040.000000 0 0 1
-22.975258 -0.403523 -31.907392 39.320567 0.017562 2.517457 0.008762 0.008252 -56791.000000 0 0 1
-22.386158 0.799277 -32.422792 39.408329 -0.035689 2.537010 0.009605 0.003724 597434.000000 0 0 1
-23.429258 1.515377 -33.046942 40.537968 -0.064589 2.523887 0.008491 0.008131 37694.100000 0 0 1
-23.132658 2.871877 -33.713332 40.987270 -0.123516 2.536645 0.015204 0.002911 -396027.000000 0 0 1
-22.617658 3.942977 -32.908462 40.125707 -0.172597 2.532442 0.008773 -0.002984 926403.000000 0 0 1
-23.462558 4.364977 -31.804222 39.762460 -0.183937 2.497851 0.005810 -0.000144 -318788.000000 0 0 1
-24.643458 5.270277 -32.130392 40.834274 -0.210687 2.476482 0.004516 -0.007782 -390005.000000 0 0 1
-25.735728 4.464177 -32.558772 41.741229 -0.171753 2.465486 0.003978 -0.001906 246875.000000 0 0 1
-26.585878 5.149977 -33.459892 43.045273 -0.191341 2.461189 0.008769 -0.008670 226889.000000 0 0 1
-27.818618 4.349177 -33.976972 44.127378 -0.155085 2.449598 0.011202 -0.006277 80169.600000 0 0 1
-27.541878 3.221277 33.968227 43.849425 -0.116430 0.684625 0.008040 -0.002990 79025.900000 0 0 1
-28.709168 2.678677 33.398930 44.123465 -0.093035 0.712175 0.007086 -0.000842 -129266.000000 0 0 1
-28.695248 1.184777 33.080460 43.807965 -0.041265 0.714953 0.008924 0.016391 -280102.000000 0 0 1
-28.549158 0.311377 34.217859 44.564708 -0.010906 0.695358 0.002346 0.016899 235414.000000 0 0 1
-28.963068 -0.990423 34.025067 44.693908 0.034183 0.705495 0.006724 0.017063 -917095.000000 0 0 1
-28.866478 -1.859323 -33.449692 44.222308 0.064322 2.428586 -0.007563 0.016315 806647.000000 0 0 1
-27.535478 -2.200923 -33.004442 43.038817 0.079761 2.444720 0.000737 0.012000 1701720.000000 0 0 1
-26.651058 -1.121123 -32.609532 42.129768 0.042042 2.455971 -0.012106 0.019076 -297636.000000 0 0 1
-26.855378 -0.669023 -31.193662 41.166776 0.024907 2.430637 0.005322 0.012621 -891271.000000 0 0 1
-26.216628 -1.424923 -30.236832 40.045075 0.054298 2.426557 0.013350 0.004721 20603.200000 0 0 1
-26.386988 -0.982923 -28.886002 39.136177 0.037233 2.401031 0.014473 -0.000392 -383483.000000 0 0 1
-25.376248 -1.554623 -27.869452 37.723695 0.061186 2.402052 0.010687 -0.000456 -186567.000000 0 0 1
-25.412588 -2.970623 -27.596072 37.632000 0.116368 2.393980 0.010283 -0.005646 1006290.000000 0 0 1
-24.301058 -3.264523 -26.711892 36.259119 0.133537 2.398965 0.016810 -0.008288 667547.000000 0 0 1
-24.608758 -4.478723 -25.884992 35.995593 0.180027 2.373325 0.023762 -0.017711 -135356.000000 0 0 1
-25.664088 -4.328723 -24.980472 36.075022 0.167096 2.335688 0.027708 -0.012607 -307753.000000 0 0 1
-25.801278 -5.546023 -24.299372 35.873720 0.211730 2.314962 0.023799 -0.015732 331288.000000 0 0 1
-27.069158 -5.441823 -23.403672 36.195091 0.198390 2.273913 0.035228 -0.014040 235188.000000 0 0 1
-27.198148 -6.492423 -22.475072 35.875056 0.234323 2.247828 0.026621 -0.012832 91724.000000 0 0 1
-28.183738 -6.159723 -21.497472 35.977862 0.215172 2.211200 0.049665 -0.005075 83774.300000 0 0 1
-28.480188 -7.341923 -20.592972 35.903975 0.252297 2.181638 0.046265 -0.007083 -948153.000000 0 0 1
-27.418878 -7.698523 -19.795072 34.682950 0.273727 2.178208 0.032939 -0.006020 -510454.000000 0 0 1
-27.680498 -8.804723 -18.927972 34.669889 0.307964 2.148317 0.053627 0.000263 69893.400000 0 0 1
-28.532138 -8.436423 -17.672672 34.606061 0.287490 2.106773 0.050613 -0.006117 115465.000000 0 0 1
-27.778728 -7.630823 -16.787872 33.342463 0.268087 2.098439 0.028011 -0.007732 157482.000000 0 0 1
-28.561938 -6.807823 -15.940672 33.410115 0.233987 2.068172 0.030507 -0.006976 -327203.000000 0 0 1
-27.820168 -5.724423 -15.150272 32.191016 0.202933 2.060809 0.029320 -0.007803 -296060.000000 0 0 1
-27.385868 -4.618623 -15.883272 31.993683 0.167078 2.090301 0.031844 -0.005523 -13198.200000 0 0 1
-26.844548 -3.684723 -14.969872 30.956486 0.136409 2.075534 0.036309 -0.008737 -331886.000000 0 0 1
-13.788758 21.783677 -4.678872 26.202105 -1.006475 1.750328 0.043051 -0.019818 -75510.300000 0 0 1
-13.708458 20.965477 -5.800672 25.712271 -0.991713 1.798355 0.061955 -0.030400 215803.000000 0 0 1
-14.667258 19.923477 -5.694872 25.387103 -0.936199 1.797043 0.048416 -0.040782 85814.900000 0 0 1
-15.102858 19.348377 -7.058772 25.539818 -0.908013 1.850825 0.072556 -0.041124 -1010880.000000 0 0 1
-14.074358 18.713577 -7.720372 24.655419 -0.925957 1.889284 0.073436 -0.036440 -798041.000000 0 1 0
-14.370158 17.814777 -8.699272 24.485609 -0.892018 1.934011 0.059630 -0.035194 -799714.000000 0 1 0
-14.887558 16.404177 -8.310272 23.660030 -0.833827 1.929688 0.047288 -0.027685 -772214.000000 0 1 0
-16.227758 16.490877 -7.970572 24.470782 -0.793440 1.902567 0.048443 -0.018724 -777247.000000 0 1 0
-16.577458 15.420977 -7.074772 23.720688 -0.749272 1.873658 0.063812 -0.016749 -362791.000000 0 1 0
-18.052158 15.667977 -6.716972 24.829088 -0.714811 1.844738 0.062736 -0.009250 -268953.000000 0 1 0
-18.901858 15.276977 -7.797572 25.523879 -0.679737 1.881261 0.061897 -0.006680 -1378070.000000 0 0 1
-20.184358 15.643677 -7.469072 26.606766 -0.659335 1.855341 0.038673 -0.008946 -722887.000000 0 0 1
-21.132658 14.916177 -8.542672 27.240757 -0.614632 1.889777 0.038666 -0.004105 301648.000000 0 0 1
-21.469158 13.560977 -8.191872 26.682047 -0.563367 1.882855 0.064805 -0.006562 322073.000000 0 0 1
-22.064858 12.881377 -9.315472 27.194960 -0.528420 1.920420 0.053007 -0.006059 391362.000000 0 0 1
-22.582358 11.437977 -8.896472 26.831650 -0.468835 1.908760 0.048883 -0.010694 -562468.000000 0 0 1
-21.511258 10.586277 -8.585872 25.466069 -0.457330 1.914684 0.051496 -0.010478 -90535.000000 0 0 1
-21.938958 9.462877 -7.828372 25.142540 -0.407218 1.887420 0.056442 -0.010214 -837818.000000 0 0 1
-20.895558 8.482677 -7.366272 23.724294 -0.385630 1.886510 0.045141 -0.001125 -784120.000000 0 1 0
-20.492158 7.543477 -8.353072 23.379615 -0.352721 1.936151 0.030072 -0.002443 558641.000000 0 1 0
-19.614358 6.565377 -7.804572 22.107432 -0.323001 1.931603 0.037689 0.003838 1267.510000 0 1 0
-19.426858 5.212377 -8.613772 21.880785 -0.262134 1.975415 0.026703 -0.009333 -647788.000000 0 1 0
-20.480858 4.316077 -8.478472 22.582705 -0.207698 1.955669 0.040897 -0.008754 -79353.500000 0 1 0
-20.308058 3.280177 -9.445472 22.636115 -0.160138 2.001240 0.035440 -0.011478 -105662.000000 0 1 0
-21.291858 2.087377 -9.436072 23.382468 -0.097724 1.986193 0.035247 -0.010293 -54218.900000 0 1 0
-21.035658 1.177177 -8.352072 22.663666 -0.055903 1.948216 0.040833 -0.013542 215970.000000 0 1 0
-21.906258 0.061577 -8.291172 23.422883 -0.002811 1.932617 0.046075 -0.009108 -317810.000000 0 1 0
-21.576458 -1.146323 -9.122572 23.453761 0.053078 1.970299 0.019323 -0.022858 -390349.000000 0 1 0
-20.457458 -1.944323 -8.825472 22.364636 0.094758 1.976448 0.019171 -0.012724 283311.000000 0 1 0
-20.429558 -3.255323 -9.384072 22.716179 0.158015 1.996653 0.014686 -0.012284 -802139.000000 0 1 0
-21.296958 -4.226423 -8.625272 23.362756 0.195907 1.948933 0.009234 -0.015764 -528347.000000 0 1 0
-20.977658 -4.466123 -7.264972 22.644827 0.209767 1.897394 -0.000854 -0.006274 926740.000000 0 1 0
-22.028958 -5.165123 -6.549072 23.555123 0.230309 1.852541 0.017655 -0.003938 12232.400000 0 1 0
-22.140658 -6.690423 -6.837472 24.118904 0.293454 1.858228 0.019967 -0.016504 -490601.000000 0 1 0
-21.122858 -7.418523 -6.203272 23.231233 0.337751 1.841099 0.011836 -0.020155 585638.000000 0 1 0
-21.314458 -8.769823 -6.406172 23.921851 0.390337 1.841901 0.016937 -0.023278 -760204.000000 0 1 0
-20.234158 -9.605723 -5.788372 23.134310 0.443226 1.823691 0.018796 -0.021621 -1315980.000000 0 1 0
-19.014958 -9.658123 -6.430972 22.275667 0.469965 1.863664 0.015321 -0.013352 -745669.000000 0 1 0
-18.104658 -10.451623 -5.720672 21.673512 0.523553 1.837909 0.025997 -0.013137 -385067.000000 0 1 0
-17.562958 -11.610523 -6.573172 22.056027 0.584125 1.873416 0.027139 -0.004098 -536112.000000 0 1 0
-16.493058 -11.377923 -7.453472 21.378314 0.603889 1.926923 0.024728 -0.009502 341257.000000 0 1 0
-16.919058 -10.715623 -8.626272 21.805771 0.564579 1.977513 0.031783 -0.013641 -372621.000000 0 1 0
-15.898658 -10.818823 -9.761872 21.566372 0.597509 2.040524 0.036213 -0.010618 -5651.840000 0 1 0
-15.885258 -12.134523 -10.222172 22.451745 0.652329 2.043500 0.036304 -0.011918 -182462.000000 0 1 0
-14.901358 -12.278623 -11.181072 22.312136 0.689201 2.095690 0.038651 0.000838 -425122.000000 0 1 0
-14.865458 -13.687523 -11.898472 23.450027 0.744167 2.102958 0.037116 -0.002207 -412889.000000 0 1 0
-15.785658 -13.824223 -12.948072 24.656616 0.719252 2.123671 0.034191 -0.000732 24799.400000 0 1 0
-15.809958 -15.225923 -13.353772 25.692542 0.766582 2.117358 0.018001 0.002047 313121.000000 0 0 1
-16.478158 -15.296223 -14.832772 26.935390 0.748218 2.153975 0.038715 0.003033 320286.000000 0 0 1
-16.527458 -16.610423 -15.371572 28.024065 0.787902 2.151381 0.025182 0.008020 183331.000000 0 0 1
-16.670958 -16.494523 -16.748372 28.818364 0.780078 2.190962 0.025823 0.004114 -481264.000000 0 0 1
-16.780958 -17.788623 -17.502772 30.072956 0.814539 2.191995 0.021857 -0.001807 -815409.000000 0 0 1
-18.047758 -18.340223 -17.444972 31.087174 0.793435 2.166587 0.021163 -0.008267 -1054890.000000 0 0 1
-18.870358 -18.008223 -18.505872 31.982085 0.762025 2.187847 0.013160 -0.012878 471478.000000 0 0 1
-20.411658 -17.948923 -18.184572 32.702878 0.721287 2.160427 0.009526 -0.015667 847059.000000 0 0 1
-20.785758 -16.785823 -17.467872 31.920810 0.679336 2.149842 0.013289 -0.007253 162443.000000 0 0 1
-20.850758 -16.978923 -16.081172 31.331167 0.683404 2.109780 0.014101 -0.010732 -245135.000000 0 0 1
-20.868158 -15.599323 -15.250672 30.189433 0.641911 2.100371 0.020868 -0.006913 303361.000000 0 0 1
-22.171858 -15.041723 -15.157872 30.783206 0.596092 2.085650 0.035955 -0.011184 649033.000000 0 0 1
-22.068458 -13.631323 -14.956772 29.942191 0.553321 2.093843 0.041848 -0.005521 -1181140.000000 0 0 1
-23.365558 -12.926923 -14.711172 30.487263 0.505333 2.074343 0.043379 -0.009539 -1203680.000000 0 0 1
-24.061658 -13.488523 -13.600372 30.755060 0.510931 2.028864 0.052520 -0.014765 623564.000000 0 0 1
-24.880458 -12.481123 -12.994272 30.719159 0.464962 2.007552 0.071645 -0.015209 -187065.000000 0 0 1
-25.735478 -13.059123 -11.844672 31.195380 0.469579 1.960261 0.070824 -0.019564 -305489.000000 0 0 1
-26.450558 -11.981123 -11.267872 31.147139 0.425315 1.940954 0.052367 -0.022932 349721.000000 0 0 1
-27.399308 -12.510923 -10.327972 31.841989 0.428341 1.901122 0.048869 -0.024888 322668.000000 0 0 1
-28.313208 -11.402823 -9.762072 32.046219 0.382865 1.880341 0.077956 -0.032627 -146672.000000 0 0 1
-27.510188 -10.490323 -9.065172 30.806406 0.364304 1.869480 0.062899 -0.034249 39277.800000 0 0 1
-28.217818 -9.367723 -8.630872 30.959513 0.320531 1.853319 0.069934 -0.038107 -236971.000000 0 0 1
-27.256388 -8.420523 -7.889472 29.598305 0.299636 1.840610 0.044891 -0.030142 -27896.600000 0 0 1
-26.804568 -8.887523 -6.648572 29.011660 0.320160 1.802020 0.046183 -0.037702 335484.000000 0 0 1
-25.932578 -7.921623 -5.961372 27.763081 0.296467 1.787205 0.035548 -0.032026 195430.000000 0 0 1
-26.467178 -6.568523 -5.424072 27.804272 0.243261 1.767136 0.040033 -0.029264 -492565.000000 0 0 1
-27.378778 -6.669423 -4.303072 28.506054 0.238944 1.722328 0.044908 -0.027156 442532.000000 0 0 1
-26.970228 -7.127823 -3.019672 28.059178 0.258377 1.678623 0.045891 -0.017648 -590764.000000 0 0 1
-26.237218 -6.124523 -2.113672 27.025340 0.229322 1.649087 0.039039 -0.011841 -354504.000000 0 0 1
-27.082278 -5.134323 -1.706572 27.617448 0.187359 1.632629 0.045793 -0.010971 -5228.750000 0 0 1
-26.359948 -4.192823 -0.910072 26.706831 0.157739 1.604879 0.038570 -0.012265 271299.000000 0 0 1
-27.258488 -3.114223 -0.186172 27.436439 0.113755 1.577582 0.050680 -0.014450 61648.600000 0 0 1
-28.113088 -3.443923 0.864128 28.336426 0.121895 1.540296 0.051437 -0.011797 -47429.000000 0 0 1
-27.450518 -3.987123 1.989328 27.809809 0.144239 1.499202 0.045295 -0.009386 -274711.000000 0 0 1
-28.363108 -4.343523 3.187228 28.870235 0.151959 1.460172 0.044302 -0.004757 17575.500000 0 0 1
-29.015538 -5.599323 3.030328 29.705837 0.190633 1.468607 0.046518 0.003157 371255.000000 0 0 1
-30.056798 -5.718423 3.994628 30.855607 0.188007 1.440970 0.041781 0.002703 165010.000000 0 0 1
-30.867058 -7.033723 3.880628 31.895263 0.224046 1.448826 0.028932 0.003759 -475318.000000 0 0 1
-30.181488 -8.170823 4.310928 31.563724 0.264386 1.433790 0.028511 0.008132 629265.000000 0 0 1
-30.972728 -9.336723 4.015828 32.597717 0.292786 1.447289 0.044332 0.000228 445652.000000 0 0 1
-30.184058 -10.620523 4.420528 32.301918 0.338330 1.433515 0.028730 0.009865 248866.000000 0 0 1
-30.096088 -10.810323 5.824328 32.504775 0.344842 1.390640 0.017965 0.006791 222584.000000 0 0 1
-29.132028 -11.775323 6.150828 32.018213 0.384126 1.377491 0.019949 0.008658 -59684.000000 0 0 1
-29.314368 -12.104823 7.673528 32.630383 0.391604 1.333408 0.037850 -0.007214 -5145.480000 0 0 1
-28.919668 -11.057523 8.485928 32.103379 0.365202 1.303286 0.044920 -0.005029 262226.000000 0 0 1
-29.285118 -11.335623 9.790428 32.893266 0.369317 1.268574 0.047877 -0.013158 -168787.000000 0 0 1
-29.582828 -9.988623 10.500528 32.942030 0.325630 1.246378 0.032947 -0.013197 -235457.000000 0 0 1
-28.390188 -9.254423 10.633728 31.697370 0.315111 1.228685 0.050981 -0.010779 129048.000000 0 0 1
-28.491648 -8.348723 11.682928 31.905579 0.285044 1.195904 0.030408 -0.011283 -498207.000000 0 0 1
-27.502668 -7.221323 11.791928 30.783012 0.256772 1.177683 0.038330 -0.000015 -702153.000000 0 0 1
-27.711368 -6.265323 10.716728 30.364822 0.222354 1.210093 0.022101 0.000680 193697.000000 0 0 1
-26.793818 -5.191323 10.631328 29.289651 0.191380 1.199341 0.028284 -0.003846 -440336.000000 0 0 1
-26.985468 -4.281823 9.400628 28.895004 0.157360 1.239428 0.031826 -0.011191 -213194.000000 0 0 1
-26.507948 -4.826823 8.186928 28.160172 0.180116 1.275810 0.044169 -0.006081 271826.000000 0 0 1
-26.636058 -4.027123 7.101928 27.859194 0.150054 1.313029 0.043679 -0.016298 -750653.000000 0 0 1
-25.772708 -4.360223 5.938528 26.805039 0.167593 1.347398 0.032084 -0.004796 343687.000000 0 0 1
-24.375658 -4.002123 6.077028 25.438552 0.162733 1.329573 0.050060 -0.024018 1359990.000000 0 0 1
-23.733358 -4.290023 4.894228 24.609552 0.178828 1.370586 0.055209 -0.007253 -512171.000000 0 1 0
-22.243958 -3.912823 4.804828 23.090912 0.174124 1.361182 0.058753 -0.012689 -43771.600000 0 1 0
-22.150758 -2.462123 4.817128 22.801817 0.110699 1.357932 0.047465 -0.015038 -20994.900000 0 1 0
-20.822658 -2.099923 4.597528 21.427319 0.100508 1.354551 0.039633 -0.016522 -841614.000000 0 1 0
-20.420258 -0.615923 4.706628 20.964700 0.030153 1.344364 0.031267 -0.020790 -582004.000000 0 1 0
-20.780658 0.158677 3.581328 21.087599 -0.007636 1.400138 0.044058 -0.017970 1171330.000000 0 1 0
-22.046358 0.795277 3.811728 22.387578 -0.036057 1.399702 0.041673 -0.035430 261512.000000 0 1 0
-22.402758 1.930077 2.756228 22.654040 -0.085941 1.448828 0.074945 -0.019613 -504236.000000 0 1 0
-21.528758 3.005077 2.788128 21.915555 -0.138688 1.443229 0.047281 -0.015110 120015.000000 0 1 0
-21.984158 3.910477 1.833728 22.404410 -0.176036 1.488858 0.062295 -0.002200 523983.000000 0 1 0
-20.727158 4.531377 1.154528 21.248091 -0.215234 1.516434 0.046388 -0.000707 194673.000000 0 1 0
-20.906358 5.239377 -0.074272 21.553013 -0.245554 1.574242 0.051819 0.009169 241035.000000 0 1 0
-21.505958 4.614377 -1.232572 22.029933 -0.211358 1.626775 0.041894 -0.003788 -460674.000000 0 1 0
-21.025558 3.325777 -1.842972 21.366596 -0.156878 1.657158 0.041321 -0.002212 -576293.000000 0 1 0
-21.264358 2.165677 -1.063972 21.400820 -0.101495 1.620533 0.041577 -0.003533 639923.000000 0 1 0
-20.596458 1.098977 -1.718872 20.697255 -0.053307 1.653940 0.026507 -0.001642 400645.000000 0 1 0
-19.742258 0.144277 -0.762772 19.757515 -0.007308 1.609413 0.018894 -0.002640 160862.000000 0 1 0
-20.550158 -0.647623 0.086428 20.560542 0.031504 1.566593 0.022143 -0.009770 357109.000000 0 1 0
-19.851758 -1.455823 1.032028 19.931803 0.073204 1.518995 0.024050 -0.009850 -415362.000000 0 1 0
-18.887058 -2.509223 0.415528 19.057540 0.132081 1.548991 -0.002520 -0.006581 143594.000000 0 1 0
-18.120658 -3.234523 1.385128 18.459116 0.176639 1.495688 0.002021 -0.006030 678176.000000 0 1 0
-17.341258 -4.304523 0.929428 17.891673 0.243307 1.518825 -0.006639 -0.003300 -222045.000000 0 1 0
-18.202558 -5.520623 0.517428 19.028350 0.294471 1.543601 -0.017470 -0.006628 209395.000000 0 1 0
-19.002458 -6.020023 1.605328 19.997779 0.306800 1.490435 0.011914 -0.009971 773111.000000 0 1 0
-19.927658 -6.991723 1.185528 21.151861 0.337436 1.514719 0.004273 -0.011056 -235179.000000 0 1 0
-20.811658 -7.577423 2.294328 22.266710 0.349176 1.467575 0.025357 -0.001772 -144687.000000 0 1 0
-20.038558 -8.298723 3.271328 21.934315 0.392634 1.421096 0.024604 -0.006263 832220.000000 0 1 0
-20.822658 -8.614023 4.404228 22.960437 0.392248 1.377782 0.033734 -0.013063 123644.000000 0 1 0
-19.958558 -9.394223 5.411828 22.713065 0.439923 1.330213 0.025860 -0.009961 12151.300000 0 1 0
-19.555258 -10.631523 4.797428 22.769556 0.497967 1.358511 0.029939 -0.002015 124276.000000 0 1 0
-18.480558 -11.198723 5.485028 22.294123 0.544800 1.322214 0.033358 -0.008536 -437870.000000 0 1 0
-17.978258 -12.563923 5.069128 22.511463 0.609947 1.343669 0.026140 -0.003217 -174090.000000 0 1 0
-18.829458 -13.629723 5.468728 23.879380 0.626555 1.339731 0.035214 0.001684 393465.000000 0 1 0
-18.465458 -14.779423 4.661628 24.106747 0.674974 1.376196 0.036820 0.006587 223816.000000 0 1 0
-18.892258 -16.084823 5.275928 25.366796 0.705305 1.361281 0.036410 -0.003148 237403.000000 0 0 1
-18.147858 -17.199223 4.718128 25.444424 0.758567 1.384288 0.032903 -0.006150 269637.000000 0 0 1
-18.571858 -18.404423 5.279228 26.674087 0.780870 1.371565 0.041183 -0.007768 -518033.000000 0 0 1
-17.669458 -19.600323 5.090028 26.875468 0.837160 1.380252 0.038801 -0.011283 -808514.000000 0 0 1
-17.650158 -20.152923 3.807128 27.058503 0.851507 1.429628 0.040591 -0.010546 -108585.000000 0 0 1
-16.926258 -21.328023 3.691328 27.477421 0.899960 1.436049 0.034970 -0.013276 1013250.000000 0 0 1
-15.345458 -21.203823 3.592728 26.419555 0.944333 1.434386 0.040438 -0.006191 1417090.000000 0 0 1
-14.696958 -22.477423 3.811428 27.124935 0.991716 1.429816 0.033431 -0.005952 1301410.000000 0 0 1
-13.249658 -22.374123 3.702328 26.265225 1.036142 1.429366 0.026111 -0.004000 996547.000000 0 0 1
-12.599758 -23.660623 4.046828 27.110068 1.081472 1.420962 0.030120 -0.005543 -657986.000000 0 0 1
-12.696158 -24.674423 3.052528 27.916617 1.095579 1.461233 0.036163 -0.003575 96095.800000 0 0 1
-12.144858 -25.935133 3.489928 28.849753 1.132847 1.449530 0.037615 -0.007324 -37318.900000 0 0 1
17.786842 19.292877 -24.114272 35.638252 0.825992 2.313986 0.053459 -0.015289 1057850.000000 0 0 1
16.758742 19.476277 -25.149082 35.953542 0.860256 2.345478 0.038542 -0.016904 962875.000000 0 0 1
17.424942 19.464077 -26.368132 37.118153 0.840620 2.360840 0.041831 -0.019952 -232064.000000 0 0 1
16.598842 19.845777 -27.564242 37.804284 0.874256 2.387846 0.034657 -0.021816 -363921.000000 0 0 1
16.298042 21.220177 -27.739582 38.540972 0.915846 2.374228 0.036336 -0.017450 331429.000000 0 0 1
15.708942 21.463577 -29.018542 39.364093 0.938988 2.399688 0.014880 -0.017378 -198188.000000 0 0 1
15.419042 22.974477 -29.203562 40.229610 0.979705 2.383170 0.013785 -0.014231 -796950.000000 0 0 1
14.398242 23.432777 -28.366702 39.510432 1.019820 2.371656 0.014158 -0.017308 91084.500000 0 0 1
14.340742 24.841577 -28.528832 40.455594 1.047244 2.353486 0.013558 -0.005179 347881.000000 0 0 1
13.375042 25.518877 -27.490432 39.822465 1.088037 2.332734 0.017759 -0.011516 574468.000000 0 0 1
11.987842 25.305877 -27.679222 39.373025 1.128395 2.350403 0.012507 -0.019194 -83130.200000 0 0 1
11.284942 25.768677 -26.559032 38.687942 1.158023 2.327452 0.013636 -0.014792 -309487.000000 0 0 1
9.741942 25.574877 -26.609732 38.171424 1.206847 2.342157 0.016873 -0.017725 622110.000000 0 0 1
8.993542 26.428877 -25.759242 37.985628 1.242796 2.316013 0.022237 -0.010447 134011.000000 0 0 1
9.013942 27.779877 -26.223572 39.251095 1.257037 2.302446 0.019714 -0.015056 -732210.000000 0 0 1
8.393442 28.779077 -25.230662 39.182541 1.287017 2.270415 0.024290 -0.011074 -286432.000000 0 0 1
9.272142 29.026177 -24.183972 38.901878 1.261601 2.241664 0.022251 -0.007184 -68718.300000 0 0 1
8.669042 29.792877 -23.171472 38.725766 1.287638 2.212234 0.039593 -0.011399 -395396.000000 0 0 1
9.649042 30.065277 -22.023172 38.497338 1.260244 2.179824 0.032936 -0.014558 -546591.000000 0 0 1
10.595942 30.969377 -22.473272 39.704210 1.241139 2.172463 0.019149 -0.014117 -268449.000000 0 0 1
11.549642 31.232977 -21.460672 39.616330 1.216601 2.143270 0.018246 -0.011923 -222435.000000 0 0 1
12.687742 32.213577 -21.787072 40.906844 1.195591 2.132468 0.023921 -0.001688 783423.000000 0 0 1
13.792342 31.578777 -22.479472 41.143342 1.159007 2.148820 0.026717 -0.001109 1275330.000000 0 0 1
14.842342 32.564577 -22.746572 42.404639 1.143145 2.136982 0.033048 -0.000166 528230.000000 0 0 1
16.048442 31.981177 -23.479072 42.797372 1.105703 2.151497 0.033517 0.008498 -96676.600000 0 0 1
16.961842 31.337377 -22.584172 42.187441 1.074684 2.135694 0.020948 0.008431 761214.000000 0 0 1
18.177242 31.027377 -23.306472 42.852094 1.040850 2.145852 0.016156 0.019126 418671.000000 0 0 1
19.205542 30.209977 -22.532672 42.299136 1.004515 2.132582 0.006035 0.017384 -101906.000000 0 0 1
19.811142 30.860277 -21.422772 42.470852 1.000092 2.099496 0.010780 0.019113 -221580.000000 0 0 1
20.788142 30.026777 -20.891172 42.073689 0.965243 2.090402 0.016894 0.018372 -71733.200000 0 0 1
21.603342 30.567577 -19.679972 42.289272 0.955561 2.054844 0.020757 0.012997 625582.000000 0 0 1
22.620842 31.547777 -19.978672 43.659044 0.948729 2.046098 0.017150 0.013947 611613.000000 0 0 1
23.137142 32.147677 -18.788972 43.838636 0.946961 2.013732 0.018134 0.007376 297838.000000 0 0 1
24.412442 33.016177 -19.035072 45.258914 0.934108 2.004883 0.031438 0.003432 204900.000000 0 0 1
25.565942 32.266977 -19.270472 45.454662 0.900753 2.008598 0.040189 0.007043 -463033.000000 0 0 1
26.717542 32.996677 -18.895772 46.472121 0.890166 1.989531 0.044047 0.001516 540980.000000 0 0 1
28.079542 32.291277 -19.154072 46.883534 0.855050 1.991657 0.053608 -0.007408 262445.000000 0 0 1
28.337142 31.168677 -18.402672 45.968885 0.832946 1.982672 0.046930 -0.002623 41511.900000 0 0 1
29.616742 30.650877 -18.727872 46.554923 0.802556 1.984797 0.040323 -0.007414 -28468.600000 0 0 1
29.866042 29.380377 -17.957372 45.581293 0.777201 1.975736 0.032282 -0.020546 -313370.000000 0 0 1
30.183842 29.687477 -16.620472 45.482422 0.777108 1.944887 0.019644 -0.012987 37420.500000 0 0 1
30.592642 28.583477 -15.832672 44.761573 0.751459 1.932332 0.014475 -0.013949 -573940.000000 0 0 1
31.083142 29.054077 -14.428272 44.927455 0.751670 1.897736 0.013130 -0.007580 19165.200000 0 0 1
32.389642 29.582777 -14.380872 46.163179 0.740137 1.887591 -0.003545 0.003064 -57266.900000 0 0 1
32.409242 30.913777 -14.811972 47.174306 0.761786 1.890183 0.004040 -0.003193 -588353.000000 0 0 1
33.833842 31.454877 -14.869872 48.530931 0.748977 1.882205 0.009421 -0.006861 -201196.000000 0 0 1
34.495642 31.636877 -13.642772 48.754144 0.742197 1.854411 0.013666 -0.006180 -16984.500000 0 0 1
-35.316225 32.108177 -13.885572 49.708952 -0.737854 1.853900 0.022689 -0.013528 553807.000000 0 0 1
-34.466725 32.505677 -12.604772 49.025039 -0.756125 1.830826 0.019515 -0.009063 304619.000000 0 0 1
-35.022125 33.640877 -11.887672 49.995746 -0.765285 1.810869 0.019129 -0.013328 507142.000000 0 0 1
-34.261725 34.071577 -10.751372 49.500810 -0.782616 1.789737 0.010258 -0.007500 268453.000000 0 0 1
-35.087225 -33.738532 -10.013272 49.695750 0.765805 1.773677 0.015113 -0.005527 247610.000000 0 0 1
-34.301925 -32.900432 -9.174372 48.406917 0.764546 1.761476 0.009823 -0.007432 434094.000000 0 0 1
-33.691825 -33.544832 -8.002372 48.212372 0.783212 1.737550 0.006526 -0.013269 612519.000000 0 0 1
-33.162525 -32.451932 -7.004872 46.924932 0.774569 1.720635 0.011631 -0.025727 246484.000000 0 0 1
-34.259425 -31.898832 -6.293172 47.231851 0.749732 1.704434 0.010714 -0.012543 92867.600000 0 0 1
-33.930925 -30.829132 -5.434372 46.165739 0.737538 1.688784 0.030510 -0.011922 -490748.000000 0 0 1
-35.208525 -30.187632 -4.905072 46.636821 0.708772 1.676167 0.030578 -0.012207 -446208.000000 0 0 1
35.230042 -31.066332 -4.003572 47.141293 -0.722676 1.655826 0.021780 -0.014043 394682.000000 0 0 1
33.868342 -30.666732 -3.874472 45.853294 -0.735828 1.655394 0.016739 -0.009447 248358.000000 0 0 1
33.434542 -29.576932 -2.866972 44.731231 -0.724254 1.634934 0.023803 -0.010050 -562350.000000 0 0 1
34.002742 -28.361932 -3.237172 44.396677 -0.695195 1.643776 0.049100 -0.015409 78339.900000 0 0 1
33.508842 -27.330932 -2.449572 43.310770 -0.684201 1.627385 0.037924 -0.010286 -301527.000000 0 0 1
34.056742 -25.947232 -2.798572 42.906323 -0.651063 1.636068 0.042966 -0.016069 -265476.000000 0 0 1
33.679842 -25.484932 -4.049672 42.428922 -0.647764 1.666388 0.041536 -0.023624 143157.000000 0 0 1
33.293342 -24.146832 -4.171072 41.339013 -0.627488 1.671867 0.049815 -0.024494 -148194.000000 0 0 1
32.841742 -23.762832 -5.563072 40.916989 -0.626361 1.707179 0.054854 -0.028231 511650.000000 0 0 1
34.041042 -23.754532 -6.353872 41.993357 -0.609262 1.722686 0.052252 -0.035542 1087510.000000 0 0 1
33.598842 -23.603532 -7.685872 41.774173 -0.612409 1.755837 0.047376 -0.033652 267735.000000 0 0 1
34.713242 -23.594332 -8.778272 42.880762 -0.596966 1.776967 0.038361 -0.035530 85559.300000 0 0 1
35.391842 -24.772532 -9.054772 44.138982 -0.610693 1.777405 0.027793 -0.022695 -475851.000000 0 0 1
-34.614425 -24.518232 -9.850572 43.546939 0.616291 1.798977 0.040230 -0.018997 -192297.000000 0 0 1
-33.976125 -25.769532 -10.511772 43.919736 0.648894 1.812483 0.031864 -0.014381 -202804.000000 0 0 1
-33.316325 -26.628432 -9.604172 43.718315 0.674290 1.792286 0.020962 -0.014392 -355037.000000 0 0 1
-34.048725 -27.776232 -9.301572 44.914964 0.684288 1.779399 0.016075 -0.016185 -181669.000000 0 0 1
-33.201725 -29.013032 -8.902572 44.981845 0.718173 1.770026 0.015090 -0.010209 -233290.000000 0 0 1
-32.441125 -29.590232 -9.908372 45.013157 0.739472 1.792736 0.010722 -0.005404 -47356.100000 0 0 1
-31.539325 -30.530432 -9.334972 44.877367 0.769145 1.780337 -0.002109 -0.009102 4855.420000 0 0 1
-31.042025 -31.587332 -10.387772 45.489259 0.794105 1.801186 -0.001760 -0.004784 -194069.000000 0 0 1
-30.075625 -31.099032 -11.267372 44.706227 0.802126 1.825575 0.000963 0.010563 -161682.000000 0 0 1
-30.183025 -31.696132 -12.574172 45.538661 0.809846 1.850552 -0.002292 0.001314 -374318.000000 0 0 1
-30.545425 -30.745232 -13.691872 45.450629 0.788658 1.876797 -0.002968 0.001731 76740.500000 0 0 1
-29.464825 -29.893132 -14.011972 44.250544 0.792614 1.892993 -0.005835 0.010813 353104.000000 0 0 1
-29.915325 -29.077232 -15.128972 44.376772 0.771192 1.918693 -0.007594 0.012075 235953.000000 0 0 1
-28.835725 -28.085632 -15.569372 43.159091 0.772221 1.939862 -0.007764 0.010253 -175516.000000 0 0 1
-27.719725 -28.755632 -16.111472 43.067959 0.803739 1.954216 0.009076 0.003943 -507135.000000 0 0 1
-26.718325 -27.833532 -16.445872 41.940924 0.805838 1.973731 0.031416 0.007311 -782990.000000 0 0 1
-25.470525 -28.493832 -17.006272 41.831321 0.841364 1.989464 0.042254 -0.005497 -946012.000000 0 0 1
-25.597025 -29.239932 -18.172372 42.900075 0.851732 2.008210 0.031640 -0.004463 -175566.000000 0 0 1
-25.896225 -28.541232 -19.383672 43.138650 0.833948 2.036816 0.028213 0.002726 511948.000000 0 0 1
-24.705525 -27.740832 -20.065772 42.220279 0.843208 2.066060 0.040167 0.000905 790135.000000 0 0 1
-24.254325 -26.553232 -19.466172 40.893499 0.830615 2.066921 0.041654 0.002168 -732787.000000 0 0 1
-22.887925 -26.321532 -19.549772 39.985920 0.855061 2.081643 0.055846 -0.009628 -542869.000000 0 0 1
-22.441525 -25.118132 -18.718272 38.534612 0.841618 2.078020 0.049036 -0.007226 -129618.000000 0 0 1
-22.679825 -25.385232 -17.365672 38.214540 0.841625 2.042524 0.056003 -0.009128 293538.000000 0 0 1
-21.991625 -24.448132 -16.562972 36.819489 0.838246 2.037385 0.057543 -0.018264 15719.700000 0 0 1
-22.376025 -24.608232 -15.063872 36.512626 0.832872 1.996066 0.038377 -0.013997 -401634.000000 0 0 1
-23.677725 -24.162732 -14.768072 36.912982 0.795536 1.982398 0.015054 0.001720 -95441.000000 0 0 1
-24.000425 -24.282932 -13.395572 36.675913 0.791249 1.944689 0.001092 0.006128 717572.000000 0 0 1
-25.541625 -24.226032 -13.103772 37.563068 0.758970 1.927137 -0.008656 0.024857 71798.500000 0 0 1
-26.266225 -25.410432 -13.416972 38.930962 0.768839 1.922646 0.008763 0.015319 569923.000000 0 0 1
-27.526025 -25.550732 -12.768272 39.668007 0.748200 1.898509 -0.007580 0.021628 -46722.200000 0 0 1
-28.647925 -24.616332 -13.176272 40.003520 0.709852 1.906441 -0.002896 0.020652 -2037500.000000 0 0 1
-28.760625 -23.317832 -12.558872 39.097572 0.681265 1.897812 0.003680 0.016979 396636.000000 0 0 1
-29.476425 -23.300032 -11.294472 39.234121 0.668899 1.862802 0.007746 0.012333 390480.000000 0 0 1
-30.930925 -23.832732 -11.213672 40.625949 0.656502 1.850450 0.008454 0.007207 345473.000000 0 0 1
-32.009425 -23.087332 -11.836172 41.203436 0.624857 1.862163 0.026741 -0.004012 860239.000000 0 0 1
-32.094625 -23.067332 -13.239672 41.682799 0.623185 1.894024 0.028852 0.005713 -1920480.000000 0 0 1
-33.515325 -22.722432 -13.540572 42.695820 0.595788 1.893509 0.007688 -0.006615 -1098110.000000 0 0 1
-34.369125 -23.759532 -13.087672 43.784007 0.604866 1.874351 0.014160 -0.001411 -653602.000000 0 0 1
35.407742 -23.435332 -13.277372 44.488331 -0.584675 1.873861 0.031756 -0.007309 -528152.000000 0 0 1
34.467042 -24.602332 -13.007072 44.299387 -0.619923 1.868805 0.034641 0.002222 -639428.000000 0 0 1
34.402342 -25.562832 -14.045872 45.102839 -0.639041 1.887482 0.013019 0.007518 410036.000000 0 0 1
33.619242 -26.682632 -13.546572 45.008065 -0.670870 1.876518 0.013003 0.000602 462688.000000 0 0 1
33.453042 -27.877532 -14.492372 45.894354 -0.694738 1.892072 0.005818 0.000012 127577.000000 0 0 1
32.679142 -27.548232 -15.617872 45.505487 -0.700411 1.921127 0.004409 -0.001600 -200263.000000 0 0 1
32.481042 -28.638032 -16.458372 46.325296 -0.722603 1.934008 -0.002896 0.007951 -178434.000000 0 0 1
31.500142 -28.483232 -17.630972 45.982656 -0.735145 1.964300 0.007955 0.009230 16438.900000 0 0 1
30.153742 -28.339532 -17.243072 44.829687 -0.754392 1.965609 0.020402 0.005919 -114119.000000 0 0 1
29.298042 -28.298832 -18.372572 44.685015 -0.768052 1.994520 0.030138 0.006313 244374.000000 0 0 1
27.798242 -28.316832 -18.003772 43.574317 -0.794639 1.996733 0.035993 0.005334 84991.700000 0 0 1
27.429042 -27.191932 -17.217472 42.287053 -0.781057 1.990136 0.029171 0.004947 -420000.000000 0 0 1
26.207342 -27.389132 -16.560372 41.367080 -0.807444 1.982670 0.018058 0.002583 -273654.000000 0 0 1
25.898542 -26.171932 -15.719872 40.035221 -0.790649 1.974309 0.018812 -0.001085 -32320.900000 0 0 1
25.469342 -24.951332 -16.359572 39.228714 -0.775125 2.000972 0.038754 -0.013440 216449.000000 0 0 1
25.430642 -23.938032 -15.402372 38.170408 -0.755173 1.986153 0.037745 -0.014178 -173724.000000 0 0 1
24.987142 -22.521932 -15.832172 37.178655 -0.733555 2.010687 0.033264 -0.022948 167723.000000 0 0 1
23.618242 -22.230032 -16.022672 36.176259 -0.755129 2.029633 0.027294 -0.024387 7479.070000 0 0 1
23.426842 -20.834232 -15.888772 35.147336 -0.726890 2.039872 0.034797 -0.024215 -602861.000000 0 0 1
21.972942 -20.400032 -15.968072 33.969852 -0.748295 2.060162 0.036725 -0.029419 -553655.000000 0 0 1
21.162842 -21.022832 -14.948072 33.365704 -0.782079 2.035331 0.034660 -0.033691 855543.000000 0 0 1
19.906342 -20.354632 -14.757172 32.067860 -0.796532 2.049001 0.041386 -0.031421 511801.000000 0 0 1
19.913642 -19.002432 -13.935472 30.851952 -0.761988 2.039453 0.026523 -0.029666 -477904.000000 0 0 1
19.952442 -19.147332 -12.524772 30.357704 -0.764810 1.996073 0.040845 -0.037498 138222.000000 0 0 1
19.602642 -17.952132 -11.903572 29.124520 -0.741477 1.991840 0.034573 -0.036179 -241109.000000 0 0 1
18.737242 -18.134932 -10.649772 28.166961 -0.769065 1.958533 0.037487 -0.022168 259965.000000 0 0 1
19.520642 -18.522132 -9.501272 28.537677 -0.759157 1.910214 0.044815 -0.042863 417149.000000 0 0 1
18.666542 -18.544632 -8.386572 27.616621 -0.782122 1.879347 0.047878 -0.052398 -139542.000000 0 0 1
19.088642 -19.403232 -7.133272 28.137968 -0.793571 1.827104 0.048743 -0.047764 -304869.000000 0 0 1
20.191642 -18.809932 -6.506272 28.352205 -0.749986 1.802340 0.053357 -0.043804 -333246.000000 0 0 1
20.787442 -19.693132 -5.603872 29.177742 -0.758372 1.764057 0.043731 -0.034047 -989353.000000 0 0 1
22.106842 -19.159132 -5.101872 29.695352 -0.714087 1.743460 0.036970 -0.030845 -830869.000000 0 0 1
23.050942 -18.977732 -6.138572 30.482492 -0.688785 1.773563 0.021810 -0.039962 -94775.300000 0 0 1
24.082642 -18.143232 -5.643272 30.675675 -0.645657 1.755816 0.017580 -0.040511 -206712.000000 0 0 1
25.162342 -17.823732 -6.701572 31.555348 -0.616308 1.784801 0.014123 -0.044868 362604.000000 0 0 1
26.094242 -18.878032 -6.998572 32.958604 -0.626295 1.784770 0.020970 -0.047726 832373.000000 0 0 1
25.578842 -19.736232 -8.028372 33.290401 -0.657173 1.814359 0.026937 -0.050350 -197258.000000 0 0 1
26.430742 -20.993832 -8.116572 34.716046 -0.671253 1.806779 0.029568 -0.052408 498332.000000 0 0 1
27.838842 -20.844232 -8.272172 35.747895 -0.642698 1.804316 0.023404 -0.044895 450377.000000 0 0 1
28.474742 -22.111732 -8.236472 36.980794 -0.660271 1.795403 0.045992 -0.046765 -72262.200000 0 0 1
-29.951508 30.262277 3.548928 42.725790 -0.790559 1.487638 0.022609 -0.004915 102715.000000 0 0 1
-29.125298 31.265777 2.996628 42.834701 -0.820827 1.500781 0.015955 0.000565 -348912.000000 0 0 1
-28.099438 31.583277 3.909628 42.454293 -0.843705 1.478575 0.024543 -0.000616 -857576.000000 0 0 1
-27.126398 32.550377 3.322528 42.501856 -0.876038 1.492543 0.029146 -0.009479 -1406640.000000 0 0 1
-26.320418 32.015077 2.323528 41.510581 -0.882709 1.514793 0.037175 -0.019923 -385240.000000 0 0 1
-25.856538 33.091877 1.481528 42.021754 -0.907527 1.535533 0.037955 -0.022624 38321.400000 0 0 1
-24.558158 33.822077 1.898128 41.840637 -0.942769 1.525415 0.051958 -0.021192 -256840.000000 0 0 1
-23.365958 33.084777 1.686928 40.539070 -0.955891 1.529172 0.038217 -0.013634 -73107.500000 0 0 1
-22.327758 33.736877 2.409828 40.527928 -0.986156 1.511300 0.029522 -0.015728 89817.500000 0 0 1
-20.888758 33.353677 2.062128 39.408887 -1.011277 1.518446 0.028998 -0.017156 -120994.000000 0 0 1
-20.332758 33.989077 0.934028 39.617557 -1.031691 1.547218 0.029662 -0.024008 1350930.000000 0 0 1
-18.891058 33.812777 0.863528 38.741730 -1.061301 1.548505 0.026778 -0.019701 1081560.000000 0 0 1
-18.248458 34.398277 -0.397072 38.941050 -1.083044 1.580993 0.030378 -0.021068 -233703.000000 0 0 1
-18.155458 -33.118632 -0.544872 37.772495 1.069340 1.585222 0.025780 -0.013041 666593.000000 0 0 1
-17.388558 -32.382832 0.437528 36.758689 1.078013 1.558893 0.033373 -0.008867 19818.800000 0 0 1
-17.676758 -30.851032 0.325828 35.557842 1.050488 1.561633 0.028208 -0.007622 -100653.000000 0 0 1
-16.990858 -30.223832 -0.744172 34.680298 1.058659 1.592256 0.031703 -0.000957 146203.000000 0 0 1
-17.051358 -28.802032 -0.719872 33.478711 1.036266 1.592300 0.012274 0.005122 -3710.310000 0 0 1
-15.927458 -28.202032 -1.597472 32.428236 1.056690 1.620078 0.015079 0.001994 -206916.000000 0 0 1
-16.093958 -28.568032 -2.938172 32.920826 1.057757 1.660165 0.014863 -0.000670 425201.000000 0 0 1
-15.095558 -27.971532 -3.768572 32.007571 1.075914 1.688810 0.019844 0.000942 225345.000000 0 0 1
-15.460358 -28.166432 -5.262372 32.558611 1.068803 1.733136 0.029392 -0.002862 176315.000000 0 0 1
-16.579258 -27.345432 -5.542772 32.455613 1.025765 1.742418 0.029075 0.006102 27948.600000 0 0 1
-17.048558 -27.410832 -6.904572 33.010304 1.014383 1.781516 0.042402 0.004036 50797.800000 0 0 1
-17.963258 -26.226232 -7.150572 32.582581 0.970253 1.792057 0.040621 0.005841 63576.300000 0 0 1
-17.211958 -25.000132 -7.051872 31.160665 0.967847 1.799081 0.034142 0.005899 778244.000000 0 0 1
-17.973758 -23.800732 -7.199972 30.681761 0.923990 1.807671 0.026029 0.015453 1256650.000000 0 0 1
-16.908358 -22.680932 -6.747972 29.083542 0.930189 1.804950 0.035240 0.009614 2688260.000000 0 0 1
-15.729858 -22.556632 -7.611672 28.533623 0.961851 1.840828 0.042868 0.003420 559618.000000 0 0 1
-14.871958 -21.564532 -7.152672 27.154464 0.967051 1.837348 0.049495 -0.000286 168600.000000 0 0 1
-13.757758 -21.235432 -8.179272 26.591728 0.995921 1.883452 0.047599 -0.003426 106757.000000 0 0 1
-14.194258 -20.455932 -9.246372 26.559697 0.964180 1.926378 0.043840 0.003865 -359037.000000 0 0 1
-13.114958 -20.122832 -10.075772 26.047105 0.993195 1.967987 0.043657 -0.000689 -828.741000 0 0 1
-13.598858 -19.243232 -11.220472 26.098466 0.955599 2.015210 0.047229 -0.003735 -152986.000000 0 0 1
-14.236158 -19.986232 -12.236172 27.419730 0.951864 2.033372 0.034476 0.008050 -306824.000000 0 0 1
-14.562258 -19.181432 -13.359872 27.540386 0.921443 2.077275 0.021845 0.005316 192390.000000 0 0 1
-15.804058 -19.581632 -14.222172 28.904649 0.891750 2.085225 0.023264 0.002546 -707506.000000 0 0 1
-16.966858 -19.383132 -13.545872 29.104480 0.851773 2.054908 0.024474 -0.001708 -1563790.000000 0 0 1
-18.074058 -19.492032 -14.384472 30.224558 0.823126 2.066806 0.026663 -0.000131 -540348.000000 0 0 1
-19.455258 -19.405332 -13.704372 30.706413 0.784113 2.033426 0.017781 -0.009402 -20825.900000 0 0 1
-20.370058 -20.106332 -14.537072 32.101874 0.778883 2.040746 0.028771 -0.020291 26734.100000 0 0 1
-21.707158 -19.919232 -14.081772 32.653833 0.742473 2.016668 0.019640 -0.020763 237198.000000 0 0 1
-22.716358 -20.676132 -14.953872 34.163631 0.738415 2.023850 0.025095 -0.027063 -351808.000000 0 0 1
-22.683058 -20.150932 -16.224372 34.406561 0.726352 2.061843 0.031307 -0.034084 303995.000000 0 0 1
-23.360858 -21.006932 -17.130872 35.783902 0.732393 2.070005 0.041233 -0.036475 -302392.000000 0 0 1
-23.799258 -20.407032 -18.532372 36.418408 0.708812 2.104672 0.041289 -0.028185 375088.000000 0 0 1
-22.765658 -20.064432 -19.472972 36.056251 0.722413 2.141319 0.024288 -0.024474 607420.000000 0 0 1
-23.299958 -19.860432 -20.799072 37.012514 0.705875 2.167534 0.019047 -0.022338 -271909.000000 0 0 1
-22.348858 -19.053332 -21.681772 36.504797 0.705968 2.206748 0.011551 -0.016996 2982.870000 0 0 1
-21.085358 -19.696332 -21.796072 36.160843 0.751351 2.217744 0.003076 -0.009909 603353.000000 0 0 1
-20.181258 -18.873032 -22.591272 35.690897 0.751913 2.256180 0.001115 -0.005307 541078.000000 0 0 1
-18.834858 -19.559932 -22.877172 35.506448 0.804281 2.270917 0.008199 -0.002451 -98901.000000 0 0 1
-18.974458 -20.707232 -23.707172 36.753905 0.829037 2.271852 0.002952 0.006966 237742.000000 0 0 1
-17.706958 -21.340132 -23.678272 36.463656 0.878177 2.277547 0.012261 0.008946 141329.000000 0 0 1
-17.569758 -22.725832 -24.328272 37.643388 0.912663 2.273499 0.022858 0.014784 -179012.000000 0 0 1
-17.652558 -22.640232 -25.704442 38.534546 0.908557 2.301037 0.024131 0.016784 124962.000000 0 0 1
-17.444558 -23.959632 -26.239412 39.583877 0.941471 2.295457 0.019856 0.003495 -39507.700000 0 0 1
-17.403058 -23.983332 -27.759162 40.603420 0.943074 2.323570 0.027165 0.008072 973337.000000 0 0 1
-16.107058 -23.686032 -28.333022 40.289274 0.973604 2.350741 0.016550 0.005460 917141.000000 0 0 1
-16.147158 -23.832932 -29.752322 41.399759 0.975321 2.372669 0.035644 -0.001580 160858.000000 0 0 1
-14.775958 -23.795632 -30.504972 41.413939 1.015113 2.398807 0.011716 -0.003792 423110.000000 0 0 1
-14.156658 -25.085132 -30.340582 41.835700 1.057007 2.382167 0.015230 0.001255 -138992.000000 0 0 1
-12.818758 -24.963232 -30.762342 41.638987 1.096403 2.402065 0.012944 0.002968 -403887.000000 0 0 1
-11.970458 -26.162832 -30.349652 41.819697 1.141693 2.382886 0.013623 0.008712 -1106210.000000 0 0 1
-12.216858 -27.383332 -31.006422 43.133476 1.151155 2.372940 0.009283 0.015994 -60583.800000 0 0 1
-11.301958 -28.415532 -30.762592 43.376420 1.192241 2.359160 0.010038 0.014931 -101127.000000 0 0 1
-9.932658 -28.351732 -31.463962 43.502406 1.233821 2.379321 0.021538 0.009238 -273204.000000 0 0 1
-9.032658 -27.423132 -30.900962 42.290502 1.252607 2.390119 0.025831 0.004381 158650.000000 0 0 1
-7.982258 -27.218432 -31.868412 42.663277 1.285528 2.414297 0.029738 0.004176 695624.000000 0 0 1
-7.103158 -25.947732 -31.456222 41.391226 1.303594 2.434068 0.049956 -0.002965 199555.000000 0 0 1
-7.756858 -24.692332 -31.500592 40.769688 1.266418 2.453797 0.042255 -0.013992 -45410.000000 0 0 1
-8.710258 -24.529832 -30.460612 40.067820 1.229596 2.434458 0.026668 -0.015837 -139277.000000 0 0 1
-9.133958 -23.026932 -30.272872 39.116692 1.193169 2.455791 0.024329 -0.017112 181097.000000 0 0 1
-9.901058 -22.370532 -31.321992 39.743413 1.154118 2.478521 0.020529 -0.017989 457480.000000 0 0 1
-10.084158 -20.990232 -31.070282 38.828373 1.122934 2.498417 0.023743 -0.016144 222220.000000 0 0 1
-10.750558 -20.252632 -32.302782 39.613298 1.082796 2.524308 0.010033 -0.011309 309750.000000 0 0 1
-11.272558 -18.971732 -31.912122 38.799236 1.034670 2.536578 0.016404 -0.013073 265921.000000 0 0 1
-11.881758 -18.403632 -33.051872 39.652189 0.997506 2.556290 0.027500 -0.008283 -262825.000000 0 0 1
-12.704558 -17.105532 -32.837252 39.144478 0.931973 2.566006 0.033067 -0.015239 -342567.000000 0 0 1
-12.153358 -15.848432 -33.010122 38.581668 0.916599 2.597488 0.044791 -0.014780 -477573.000000 0 0 1
-11.237958 -15.424432 -32.031802 37.285938 0.941144 2.604276 0.022358 -0.008610 -5174.630000 0 0 1
-11.079858 -13.888732 -32.052582 36.647349 0.897423 2.635452 0.019431 -0.010382 -235833.000000 0 0 1
-10.438158 -13.228932 -33.138782 37.177126 0.902774 2.671167 0.030356 -0.010572 538623.000000 0 0 1
-11.122058 -13.388732 34.333421 38.493403 0.877612 0.469201 0.035561 -0.007912 320718.000000 0 0 1
-11.814258 -12.144232 33.688402 37.708984 0.799170 0.465987 0.027222 -0.004448 397443.000000 0 0 1
-12.918858 -11.629732 -34.332633 38.482168 0.732933 2.672923 0.019276 -0.004511 -284015.000000 0 0 1
-13.741258 -10.844232 33.595120 37.882075 0.668104 0.480348 0.006681 -0.015953 540669.000000 0 0 1
-14.807758 -10.174132 -34.208054 38.639017 0.602003 2.657987 0.019682 -0.011027 168554.000000 0 0 1
-14.211058 -9.217732 -33.419072 37.466720 0.575412 2.672473 0.028000 -0.004199 -158641.000000 0 0 1
-15.074458 -8.763632 -32.417472 36.809415 0.526598 2.648101 0.021779 -0.015391 -136423.000000 0 0 1
-14.404458 -7.653732 -31.558302 35.524561 0.488408 2.664539 0.020110 -0.024480 -59738.300000 0 0 1
-14.133158 -6.371832 -32.120962 35.666547 0.423555 2.691923 0.016453 -0.027930 -148783.000000 0 0 1
-15.257258 -5.629832 -32.517342 36.357344 0.353495 2.677843 0.014981 -0.025106 -502855.000000 0 0 1
-15.920658 -4.740532 -31.505322 35.616363 0.289400 2.656377 0.021310 -0.033297 -218777.000000 0 0 1
-16.670858 -5.486932 -30.555672 35.237381 0.317966 2.620223 0.045130 -0.040023 -168169.000000 0 0 1
-16.971158 -4.826932 -29.302912 34.204972 0.277102 2.599606 0.043088 -0.041955 -249654.000000 0 0 1
-15.789558 -4.545032 -28.362902 32.778372 0.280274 2.616531 0.033952 -0.044838 -114992.000000 0 0 1
-15.063158 -3.457932 -28.869702 32.746232 0.225653 2.650078 0.027630 -0.042365 -474103.000000 0 0 1
-13.759658 -3.362932 -28.357182 31.698064 0.239706 2.678338 0.037500 -0.040043 -161942.000000 0 0 1
-13.097058 -2.037932 -28.753692 31.661663 0.154364 2.709652 0.032069 -0.022706 -128070.000000 0 0 1
-12.944658 -2.004932 -30.139212 32.862684 0.153664 2.731605 0.027981 -0.025718 118181.000000 0 0 1
-13.121658 -0.704932 -30.670332 33.366812 0.053671 2.736807 0.032606 -0.028159 -61962.700000 0 0 1
-13.351758 -0.824932 -32.207372 34.874988 0.061706 2.747927 0.024952 -0.026885 -1408250.000000 0 0 1
-14.605658 -1.252932 -32.596602 35.741202 0.085575 2.718973 -0.002651 -0.017007 -604114.000000 0 0 1
-14.597758 -1.558932 -33.974542 37.010733 0.106389 2.733715 -0.003086 -0.016773 -186407.000000 0 0 1
-15.933358 -1.632932 34.009406 37.592260 0.102129 0.440141 -0.011868 -0.011478 -164711.000000 0 0 1
-15.739858 -1.937932 32.679319 36.324050 0.122506 0.451805 -0.007686 -0.005749 284333.000000 0 0 1
-16.955658 -1.892932 31.957611 36.226598 0.111180 0.490370 0.000488 0.004595 26067.400000 0 0 1
-16.804858 -1.888932 30.414491 34.799606 0.111934 0.507444 -0.001438 0.014482 32500.500000 0 0 1
-16.169058 -0.694932 29.895421 33.994964 0.042953 0.496180 -0.019864 0.017603 435589.000000 0 0 1
-16.401658 -0.477932 28.523381 32.906322 0.029131 0.522036 -0.018703 0.005046 -296160.000000 0 0 1
-15.915658 0.914068 28.065551 32.277218 -0.057369 0.516575 -0.011590 -0.000438 -468136.000000 0 0 1
-16.575758 2.058068 28.577711 33.101011 -0.123529 0.528928 -0.006708 0.001570 517768.000000 0 0 1
-17.864958 2.375068 28.037321 33.330002 -0.132171 0.571291 0.007003 -0.004782 400727.000000 0 0 1
-17.962958 2.907068 26.568951 32.202920 -0.160446 0.600509 0.003881 -0.009936 -878852.000000 0 0 1
-17.750958 4.256068 26.602221 32.262808 -0.235323 0.601394 0.001471 -0.008683 111929.000000 0 0 1
-18.154558 4.932068 25.416891 31.621695 -0.265269 0.637174 0.011941 -0.005571 -393568.000000 0 0 1
-18.029758 6.448068 25.564031 31.940091 -0.343460 0.642877 0.010853 -0.009986 1130870.000000 0 0 1
-16.686958 6.984068 25.624731 31.366520 -0.396382 0.614702 0.004652 -0.009132 719005.000000 0 0 1
-16.144958 7.206068 24.335201 30.079712 -0.419802 0.628307 0.007437 -0.002380 -534641.000000 0 0 1
-14.894858 8.055068 24.245681 29.573534 -0.495749 0.609658 0.007712 -0.002197 120210.000000 0 0 1
-13.738458 7.490068 24.877661 29.389528 -0.499143 0.561457 0.000567 0.000946 196262.000000 0 0 1
-12.601758 8.075068 24.310511 28.548414 -0.569873 0.551854 0.006188 0.004912 -47331.600000 0 0 1
-11.221058 7.899068 25.008481 28.525980 -0.613372 0.501856 0.003035 0.015227 -54324.700000 0 0 1
-10.228458 8.483068 24.216451 27.622822 -0.692388 0.501874 -0.003825 0.005759 -726918.000000 0 0 1
-9.062158 8.708068 24.945711 27.932806 -0.765475 0.466692 0.001817 -0.000661 -630938.000000 0 0 1
-8.920358 10.174068 25.500771 28.868213 -0.850962 0.487832 0.014877 -0.009386 -92995.800000 0 0 1
-9.923958 10.480068 26.496011 30.172095 -0.812646 0.498788 0.009679 -0.001465 664073.000000 0 0 1
-9.888358 11.740068 27.128361 31.169805 -0.870805 0.514902 0.011526 -0.003412 -646174.000000 0 0 1
-10.425158 13.003068 26.396451 31.217564 -0.894992 0.563175 0.020206 -0.016566 1255360.000000 0 0 1
-11.855458 12.969068 26.149421 31.504616 -0.830227 0.591655 0.023361 -0.016643 1345920.000000 0 0 1
-12.176858 12.239068 24.965081 30.353351 -0.787946 0.605036 0.013588 -0.009311 -1181330.000000 0 0 1
-13.644358 11.869068 24.843051 30.728170 -0.715928 0.629235 0.027865 -0.011359 -696886.000000 0 0 1
-14.483658 13.032068 24.742801 31.493131 -0.732692 0.667039 0.023366 -0.014719 1123910.000000 0 0 1
-15.867558 12.682068 24.512091 31.834837 -0.674280 0.691991 0.025481 0.002765 904947.000000 0 0 1
-16.339858 12.270068 23.102411 30.842615 -0.644095 0.724182 0.023415 0.005479 -505669.000000 0 0 1
-15.961058 10.958068 22.721911 29.851630 -0.601642 0.705694 0.022805 -0.002259 81180.400000 0 0 1
-15.924758 10.759068 21.322811 28.705709 -0.594175 0.733543 0.016836 0.006427 -274033.000000 0 0 1
-16.158858 9.293068 20.873711 27.985382 -0.521914 0.728943 0.014158 0.002026 274213.000000 0 0 1
-17.513158 8.942068 21.076911 28.825465 -0.472085 0.750731 0.024373 0.007253 -213039.000000 0 0 1
-17.766458 7.576068 20.849211 28.420651 -0.403077 0.747201 0.015800 0.002707 269738.000000 0 0 1
-19.266058 7.283068 21.107011 29.491185 -0.361421 0.773162 0.030320 -0.001329 215525.000000 0 0 1
-19.714358 7.582068 22.391311 30.781723 -0.367157 0.756238 0.022373 -0.001671 862585.000000 0 0 1
-21.146958 7.694068 22.504611 31.825305 -0.348949 0.785366 0.015582 0.002261 985319.000000 0 0 1
-21.478358 8.524068 23.781401 33.159231 -0.377803 0.771038 0.009706 0.000336 -1001340.000000 0 0 1
-21.329158 9.971068 23.780361 33.464320 -0.437299 0.780420 0.007855 0.003744 577857.000000 0 0 1
-20.023358 10.550068 23.688921 32.762841 -0.484926 0.762600 0.013367 0.006593 775306.000000 0 0 1
-19.024358 10.128068 24.829301 32.878536 -0.489210 0.714864 0.018753 -0.008159 -548116.000000 0 0 1
-19.309558 10.677068 26.077901 34.160148 -0.505099 0.702234 0.017582 0.000320 -73652.100000 0 0 1
-18.591558 10.044068 27.086361 34.354043 -0.495326 0.662515 0.014643 -0.005554 -153630.000000 0 0 1
-30.063388 -14.152423 20.823211 39.213575 0.439977 1.010992 0.009416 -0.006425 -152075.000000 0 0 1
-29.781588 -15.486023 21.106011 39.651274 0.479509 1.009492 0.017342 -0.003363 351272.000000 0 0 1
-30.505718 -16.405523 20.246911 40.120785 0.493417 1.041821 0.008908 0.002655 228723.000000 0 0 1
-30.162078 -16.529123 18.740111 39.168285 0.501314 1.071906 0.014520 -0.004592 -86402.600000 0 0 1
-30.537118 -15.375423 18.023011 38.649038 0.466443 1.085665 0.025657 -0.012897 189807.000000 0 0 1
-29.955768 -15.288323 16.683011 37.542026 0.471904 1.110312 0.026090 -0.015471 -1158310.000000 0 0 1
-30.438838 -14.092623 15.859911 37.103391 0.433597 1.129124 0.024799 -0.014211 -251179.000000 0 0 1
-31.689998 -14.200723 15.204411 37.908978 0.421284 1.158104 0.029170 -0.013358 302285.000000 0 0 1
-32.840378 -14.255723 16.022411 39.222872 0.409546 1.149990 0.026630 -0.018208 -793815.000000 0 0 1
-33.239248 -13.000523 16.881411 39.482189 0.372828 1.128993 0.015192 -0.021456 -1352220.000000 0 0 1
-34.480239 -13.099723 17.483411 40.818614 0.363077 1.128164 -0.004221 -0.016658 -447277.000000 0 0 1
-34.991340 -11.898923 17.978211 41.099809 0.327786 1.118060 -0.003125 -0.011589 -176117.000000 0 0 1
35.017049 -11.915623 19.001711 41.584141 -0.327990 1.096237 0.001520 0.000569 -474911.000000 0 0 1
35.467449 -12.311823 20.303411 42.681957 -0.334116 1.075047 0.003089 -0.007834 -144540.000000 0 0 1
34.665169 -11.891623 21.367811 42.422494 -0.330463 1.042931 0.010042 -0.010327 -941804.000000 0 0 1
35.279227 -12.343723 22.757711 43.759625 -0.336574 1.023873 0.003975 -0.013197 727614.000000 0 0 1
-34.577959 -11.822923 23.173211 43.271404 0.329459 1.005659 -0.003571 -0.006169 1239940.000000 0 0 1
-33.494758 -12.459623 22.454211 42.205836 0.356127 1.009816 -0.007895 -0.011345 -354169.000000 0 0 1
-32.194728 -11.662423 22.358711 40.895288 0.347543 0.992342 0.010331 -0.005803 -308229.000000 0 0 1
-32.269158 -10.457823 21.630011 40.230858 0.313401 1.003152 0.025223 -0.013911 -365456.000000 0 0 1
-31.038148 -9.798323 21.660411 39.096639 0.305785 0.983608 0.039333 -0.019062 -736300.000000 0 0 1
-31.045688 -8.356623 21.122411 38.468482 0.262940 0.989529 0.043576 -0.010215 77899.900000 0 0 1
-31.376338 -8.254623 19.712211 37.962938 0.257255 1.024825 0.037737 -0.013304 70995.600000 0 0 1
-32.738268 -8.431423 19.404011 38.979465 0.252063 1.049735 0.033814 -0.017969 -602823.000000 0 0 1
-33.040658 -8.379423 17.876511 38.489861 0.248373 1.087786 0.034528 -0.016046 -248989.000000 0 0 1
-34.381852 -8.646923 17.527011 39.548415 0.246387 1.111655 -0.013882 -0.012383 86589.900000 0 0 1
-34.653106 -8.465723 16.167211 39.164843 0.239606 1.145271 -0.011068 -0.011228 1511620.000000 0 0 1
34.903519 -8.650023 15.948211 39.337310 -0.242932 1.153356 0.000957 -0.012405 1572600.000000 0 0 1
34.363339 -9.964223 15.976511 39.183845 -0.282227 1.150827 -0.007048 -0.003196 602869.000000 0 0 1
32.951879 -9.902623 15.757111 37.844086 -0.291932 1.141348 -0.002243 -0.001068 155635.000000 0 0 1
32.125719 -11.157423 15.894611 37.539160 -0.334272 1.133586 -0.006879 -0.001801 -381008.000000 0 0 1
32.236009 -11.664823 17.233211 38.369414 -0.347198 1.104995 -0.017936 -0.007243 410988.000000 0 0 1
31.339389 -12.766623 17.338911 38.023437 -0.386841 1.097294 -0.009331 -0.005183 57228.500000 0 0 1
31.087119 -13.088223 18.796411 38.613671 -0.398493 1.062395 -0.006621 -0.008522 -174309.000000 0 0 1
31.970709 -14.011123 19.395611 39.932788 -0.413039 1.063625 0.005978 -0.008082 -121638.000000 0 0 1
31.743349 -14.075923 20.792811 40.473606 -0.417376 1.031261 0.016857 -0.013322 73583.000000 0 0 1
32.741649 -15.078223 21.516911 41.980303 -0.431569 1.032647 0.013320 -0.011405 239616.000000 0 0 1
32.656119 -14.928323 22.924311 42.600481 -0.428773 1.002587 0.019552 -0.015189 -322376.000000 0 0 1
33.103439 -16.094823 23.516711 43.679706 -0.452545 1.002271 0.016718 -0.002488 -132148.000000 0 0 1
33.590359 -15.738123 24.920201 44.687998 -0.438157 0.979246 0.021273 0.002407 -615047.000000 0 0 1
34.862969 -15.183423 24.876431 45.440068 -0.410745 0.991475 0.016683 -0.004601 -535730.000000 0 0 1
35.219376 -14.757423 26.204161 46.312461 -0.396790 0.969378 0.018697 -0.005506 -710173.000000 0 0 1
-34.681327 -13.854423 26.279911 45.665886 0.380056 0.957603 0.007965 -0.011129 -297227.000000 0 0 1
-33.492488 -14.558423 25.975711 44.815533 0.410039 0.952541 -0.010829 -0.004514 -373573.000000 0 0 1
-32.343348 -13.770423 26.099321 43.782316 0.402512 0.932142 0.011661 -0.005206 -66465.500000 0 0 1
-31.088538 -14.629123 25.808191 42.971748 0.439822 0.926564 -0.007360 -0.002174 -555399.000000 0 0 1
-30.759578 -14.893523 24.470371 42.032936 0.450921 0.949400 -0.001595 -0.004096 881173.000000 0 0 1
-29.523808 -15.633723 24.338011 41.332884 0.486991 0.941187 0.002816 -0.005898 707994.000000 0 0 1
-29.472808 -17.057123 24.844721 42.152722 0.524641 0.940483 0.002628 0.006668 -1136110.000000 0 0 1
-29.517228 -17.171123 26.257431 43.076291 0.526879 0.915295 0.001485 0.010861 82705.100000 0 0 1
-29.157838 -18.438123 26.661481 43.600211 0.563871 0.912843 0.011826 0.000344 -284218.000000 0 0 1
-28.957518 -18.474823 28.197031 44.440178 0.567891 0.883443 0.021566 -0.016227 -180670.000000 0 0 1
-27.954458 -17.582023 28.628871 43.705737 0.561436 0.856565 0.014453 -0.015892 -56313.900000 0 0 1
-27.255778 -18.007923 29.783221 44.206368 0.583861 0.831550 0.028824 -0.022614 99443.400000 0 0 1
-26.095968 -17.071123 30.154341 43.378647 0.579299 0.802178 0.020060 -0.013918 -113631.000000 0 0 1
-26.416318 -15.853523 30.743011 43.523427 0.540523 0.786460 0.020120 -0.017894 -525144.000000 0 0 1
-25.407718 -14.966423 30.389561 42.344673 0.532329 0.770344 0.008756 -0.014062 -490149.000000 0 0 1
-25.444578 -13.661323 31.183851 42.502833 0.492734 0.747061 0.020519 -0.008213 -397096.000000 0 0 1
-24.915658 -13.774423 32.425731 43.150350 0.505023 0.720525 0.019919 -0.007266 -100349.000000 0 0 1
-24.616458 -12.468623 32.927833 42.961363 0.468847 0.697497 0.031573 0.000478 -620593.000000 0 0 1
-23.946258 -12.488423 34.329734 43.679682 0.480714 0.666577 0.032154 0.001537 -103360.000000 0 0 1
-22.542158 -12.628823 34.319040 42.958498 0.510664 0.645352 0.013633 0.001757 171862.000000 0 0 1
-22.000858 -13.906023 34.061090 42.866923 0.563665 0.652485 0.016019 0.001474 -521909.000000 0 0 1
-21.947758 -14.949923 -33.534352 42.775659 0.597969 2.471813 0.015380 0.002931 -176354.000000 0 0 1
-20.958158 -14.653223 -32.558552 41.400732 0.610166 2.475795 0.015170 0.003751 202871.000000 0 0 1
-21.083158 -15.490323 -31.442202 40.903077 0.633653 2.447603 0.029200 0.001124 269812.000000 0 0 1
-19.845158 -15.578623 -30.481552 39.568280 0.665533 2.450191 0.033824 0.000093 484248.000000 0 0 1
-19.575158 -14.423123 -29.662392 38.354541 0.635004 2.454942 0.026713 0.002579 330130.000000 0 0 1
-20.397258 -14.378023 -28.508012 37.887761 0.614007 2.422545 0.034460 0.003620 -23974.600000 0 0 1
-20.067458 -13.117523 -27.619122 36.573053 0.578952 2.426720 0.030832 -0.000734 147568.000000 0 0 1
-18.762658 -13.173623 -27.071862 35.474884 0.612147 2.438935 0.040819 -0.010026 241655.000000 0 0 1
-18.302458 -11.941323 -26.550422 34.387499 0.578091 2.452928 0.029330 -0.006589 -258918.000000 0 0 1
-17.021258 -12.011923 -25.736032 33.111219 0.614542 2.461096 0.055762 -0.020894 -894925.000000 0 0 1
-17.146458 -12.778923 -24.549672 32.557461 0.640474 2.424990 0.070359 -0.021560 705336.000000 0 0 1
-15.964058 -12.875723 -23.734572 31.368221 0.678719 2.428961 0.057767 -0.021528 306816.000000 0 0 1
-14.784658 -13.742123 -24.157072 31.480092 0.748869 2.445535 0.049266 -0.015777 -593927.000000 0 0 1
-14.036358 -13.075023 -25.141092 31.623568 0.749954 2.489822 0.060510 -0.022977 -143112.000000 0 0 1
-13.245558 -14.009023 -25.862922 32.258150 0.813403 2.501011 0.057808 -0.022127 -498498.000000 0 0 1
-12.260458 -13.438723 -26.869962 32.448620 0.831214 2.546465 0.047013 -0.023602 -735284.000000 0 0 1
-12.819458 -12.744423 -27.938152 33.276105 0.782463 2.567317 0.063843 -0.033545 -342774.000000 0 0 1
-11.941458 -11.955623 -28.746742 33.345322 0.785991 2.610180 0.061104 -0.028634 -61201.900000 0 0 1
-12.668558 -10.805723 -29.546472 33.915336 0.706208 2.628404 0.037453 -0.026838 -28330.900000 0 0 1
-11.845358 -9.927723 -30.281782 33.997919 0.697551 2.669668 0.035377 -0.024261 214093.000000 0 0 1
-11.373258 -10.328723 -31.573862 35.113278 0.737304 2.688734 0.041793 -0.013339 -105884.000000 0 0 1
-10.744358 -9.140523 -32.312462 35.257419 0.704916 2.729970 0.039109 -0.005932 -64017.200000 0 0 1
-9.496558 -8.851923 -31.710512 34.265109 0.750280 2.753008 0.041313 -0.005275 99291.700000 0 0 1
-8.888458 -7.730523 -32.389542 34.465172 0.715835 2.792771 0.038121 -0.013388 -89691.200000 0 0 1
-7.405258 -7.450123 -32.114292 33.788607 0.788418 2.825468 0.032066 -0.012646 -341807.000000 0 0 1
-6.897158 -7.208423 -30.828622 32.402717 0.807461 2.828615 0.019064 -0.007792 -173375.000000 0 0 1
-7.088758 -5.919223 -30.300692 31.676800 0.695730 2.845754 0.028474 -0.020071 -214838.000000 0 0 1
-6.147858 -4.801223 -30.821102 31.792896 0.663022 2.893708 0.018211 -0.020585 -326559.000000 0 0 1
-4.813658 -4.917723 -30.411912 31.180758 0.796091 2.919063 0.022845 -0.023900 -603287.000000 0 0 1
-4.228558 -3.659023 -30.622362 31.128736 0.713317 2.960975 0.032368 -0.023724 -638193.000000 0 0 1
-2.763258 -3.638323 -30.176922 30.520806 0.921251 2.991337 0.013870 -0.011870 -1109170.000000 0 0 1
-2.012758 -4.334423 -31.161782 31.526102 1.136060 2.989419 0.012273 -0.012639 582706.000000 0 0 1
-0.590658 -4.206623 -31.082642 31.371567 1.431297 3.005770 0.015330 -0.010395 1025720.000000 0 0 1
0.121842 -2.821523 -31.248132 31.375494 -1.527640 3.051459 0.010767 -0.005599 -555449.000000 0 0 1
-0.091158 -1.956123 -30.140972 30.204518 1.524229 3.076714 0.007095 -0.012949 48352.900000 0 0 1
0.675442 -0.756323 -30.307892 30.324851 -0.841828 3.108148 0.013166 -0.006754 284406.000000 0 0 1
0.810042 0.045577 -28.972962 28.984320 0.056206 3.113597 0.012525 -0.008379 1111380.000000 0 0 1
-0.416458 0.679677 -28.536772 28.547903 -1.021070 3.113667 0.023613 -0.009559 795782.000000 0 0 1
-0.168358 2.041177 -28.604102 28.677333 -1.488502 3.070113 0.029638 -0.012067 404639.000000 0 0 1
-1.426558 2.823777 -28.143432 28.320691 -1.103001 3.029650 0.026927 -0.009208 436628.000000 0 0 1
-2.428858 2.968577 -29.145392 29.396695 -0.885062 3.010742 0.031399 -0.012778 -460209.000000 0 0 1
-3.368358 3.888277 -28.785352 29.241427 -0.856923 2.964745 0.048560 -0.014319 -1028210.000000 0 0 1
-4.516158 4.005477 -29.783422 30.389007 -0.725542 2.941621 0.062866 -0.017370 -569238.000000 0 0 1
-4.152058 4.653777 -30.974602 31.596253 -0.842312 2.942898 0.063015 -0.017009 701464.000000 0 0 1
-5.279658 4.788977 -31.845202 32.633204 -0.736703 2.921388 0.066901 -0.009253 -307709.000000 0 0 1
-4.902558 5.788477 -33.021552 33.881624 -0.868075 2.915793 0.067896 -0.003242 335826.000000 0 0 1
-4.188758 5.230677 -34.118732 34.770585 -0.895564 2.947654 0.068455 -0.009659 173431.000000 0 0 1
-2.957458 4.628577 -33.795722 34.239175 -1.002224 2.980474 0.065688 -0.011754 -1031580.000000 0 0 1
-2.450158 3.811177 33.739240 34.042101 -0.999437 0.133491 0.046084 -0.015970 -226126.000000 0 0 1
-3.191358 2.612077 33.482793 33.735814 -0.685911 0.122552 0.051454 -0.026013 170429.000000 0 0 1
-2.948958 1.911777 32.259961 32.450829 -0.575172 0.108513 0.043626 -0.022796 -381608.000000 0 0 1
-2.952558 2.770377 30.952521 31.216200 -0.753576 0.130068 0.044523 -0.018709 -107123.000000 0 0 1
-3.985458 3.735377 30.834921 31.315001 -0.753019 0.175328 0.032152 -0.013340 276051.000000 0 0 1
-3.664358 4.523077 29.662591 30.228381 -0.889899 0.193783 0.022232 -0.014347 -213041.000000 0 0 1
-4.915858 5.164277 29.078581 29.939928 -0.810038 0.240450 0.016315 -0.006741 -265586.000000 0 0 1
-4.698158 5.931977 27.950391 28.956612 -0.900949 0.264395 0.012056 -0.002518 -40608.800000 0 0 1
-5.862458 6.734477 27.767851 29.168050 -0.854513 0.311106 0.000345 0.002541 36684.000000 0 0 1
-5.932158 7.470977 26.417421 28.087117 -0.899708 0.346542 0.008471 0.004288 365059.000000 0 0 1
-5.041758 8.615177 26.273161 28.105508 -1.041317 0.363088 0.006740 -0.002281 329354.000000 0 0 1
-5.053458 9.099177 24.971911 27.054183 -1.063836 0.394905 0.019991 -0.007089 -6945.470000 0 0 1
-4.640758 10.568077 24.994001 27.530365 -1.157019 0.432620 0.033786 -0.006677 -335878.000000 0 0 1
-4.421858 11.291477 23.763781 26.678972 -1.197543 0.471846 0.041279 -0.010038 225497.000000 0 0 1
-3.894858 12.597377 23.988321 27.373406 -1.270939 0.502592 0.036093 -0.002567 190088.000000 0 0 1
-2.368158 12.734377 24.239421 27.483123 -1.386931 0.490760 0.041129 0.000690 -371182.000000 0 0 1
-1.750358 12.254677 25.398251 28.254416 -1.428924 0.453515 0.046730 -0.003519 -298899.000000 0 0 1
-2.178258 12.771177 26.642241 29.625273 -1.401862 0.452612 0.048882 -0.007212 -428332.000000 0 0 1
-1.262858 12.451477 27.879741 30.560007 -1.469720 0.421943 0.028855 -0.005613 -986046.000000 0 0 1
-0.052658 13.076677 27.846901 30.764462 -1.566769 0.439030 0.031662 -0.008040 -1682900.000000 0 0 1
0.700542 12.484477 28.884391 31.474767 1.514742 0.408545 0.026160 -0.009549 204884.000000 0 0 1
2.237442 12.595677 28.700441 31.422485 1.394994 0.419303 0.025046 -0.004681 353116.000000 0 0 1
2.749242 13.896877 28.926961 32.209480 1.375487 0.455393 0.020977 -0.004033 -61497.500000 0 0 1
4.122942 13.923377 28.586051 32.062773 1.282906 0.470007 0.016949 -0.000493 38910.300000 0 0 1
4.742242 15.341077 28.577441 32.779683 1.270993 0.511924 0.021268 -0.002374 -250656.000000 0 0 1
4.801442 15.820977 29.922171 34.186159 1.276145 0.504799 0.028139 0.003981 1220930.000000 0 0 1
3.708642 16.750577 30.296821 34.817140 1.352907 0.515250 0.004980 0.003380 1087360.000000 0 0 1
3.785042 18.185777 29.740861 35.065194 1.365594 0.558296 0.018474 0.002086 -167971.000000 0 0 1
4.812042 18.984677 30.267941 36.051657 1.322555 0.574303 0.045155 0.002352 -92465.800000 0 0 1
5.196042 19.969577 29.301701 35.838144 1.316243 0.613545 0.031694 -0.004063 -45275.800000 0 0 1
6.229842 20.968377 29.852731 37.009044 1.281996 0.632363 0.034716 -0.001631 -227482.000000 0 0 1
5.825542 21.772077 30.987201 38.316666 1.309351 0.628835 0.022893 -0.011812 78283.400000 0 0 1
6.891742 22.485177 31.584721 39.378597 1.273386 0.640029 0.003757 -0.009059 -20869.100000 0 0 1
7.232542 23.883777 30.991321 39.789527 1.276752 0.677916 -0.000795 0.002192 14224.600000 0 0 1
7.768542 23.840877 29.698441 38.868176 1.255796 0.701180 -0.005184 -0.004013 36204.600000 0 0 1
8.220542 25.102677 29.253361 39.414221 1.254326 0.734444 -0.004373 -0.004382 -241774.000000 0 0 1
8.424842 24.898377 27.761301 38.230838 1.244520 0.758092 0.016752 -0.011732 62564.400000 0 0 1
7.268742 24.631577 26.989401 37.255563 1.283842 0.760575 0.017523 -0.011302 252452.000000 0 0 1
7.673242 24.754677 25.645861 36.460703 1.270217 0.790650 0.026396 -0.012338 -170446.000000 0 0 1
28.440079 1.874177 6.584128 29.252374 0.065804 1.343771 0.029721 -0.016093 -41285.700000 0 0 1
28.961599 2.617277 7.654628 30.070213 0.090126 1.313405 0.021224 -0.007787 -264502.000000 0 0 1
28.305099 2.291577 8.832128 29.739476 0.080784 1.269264 0.019916 -0.001803 -334970.000000 0 0 1
28.686789 3.130877 10.054128 30.558465 0.108710 1.235538 0.021374 -0.003159 -352736.000000 0 0 1
28.266109 4.454177 9.943428 30.293306 0.156295 1.236358 0.019096 -0.009570 -176629.000000 0 0 1
29.198369 5.377477 9.448128 31.156527 0.182130 1.262698 0.022745 -0.013617 -244699.000000 0 0 1
28.645679 6.846577 9.596528 30.976506 0.234608 1.255813 0.029894 -0.019326 -65597.800000 0 0 1
27.754909 7.247477 8.621928 29.953273 0.255421 1.278820 0.035242 -0.016614 -448456.000000 0 0 1
28.041809 8.551077 8.229728 30.449834 0.295983 1.297121 0.040562 -0.026878 -79487.400000 0 0 1
27.434019 9.021077 6.908128 29.693896 0.317690 1.336000 0.041054 -0.025250 -933370.000000 0 0 1
26.105989 9.410077 6.935628 28.603761 0.345960 1.325883 0.034881 -0.019805 -657770.000000 0 0 1
25.721109 9.774377 5.598728 28.079524 0.363159 1.370063 0.032492 -0.026061 -372914.000000 0 0 1
24.206609 9.889577 5.396628 26.699949 0.387854 1.367273 0.012777 -0.023048 -224044.000000 0 0 1
23.746309 11.066477 6.047128 26.887207 0.436104 1.343948 0.001024 -0.011905 57483.200000 0 0 1
22.357309 11.302277 5.964228 25.751947 0.468061 1.337071 0.003106 -0.013387 117132.000000 0 0 1
21.865209 12.727477 6.438228 26.106069 0.527145 1.321607 0.011872 -0.003489 -264826.000000 0 0 1
22.248209 13.782077 5.557128 26.754628 0.554612 1.361566 0.004219 0.007614 337175.000000 0 0 1
22.060109 15.046077 6.170028 27.406242 0.598577 1.343718 0.032430 -0.007799 -192461.000000 0 0 1
21.917009 16.189377 5.119328 27.724696 0.636209 1.385082 0.033548 -0.006917 439608.000000 0 0 1
20.636609 16.397377 4.497828 26.738999 0.671426 1.401781 0.050177 -0.012255 1018450.000000 0 0 1
20.775909 17.322577 3.470828 27.271904 0.695003 1.443183 0.041087 -0.015176 -928942.000000 0 0 1
19.418109 17.473277 2.832928 26.275537 0.732729 1.462770 0.055959 -0.013712 187164.000000 0 0 1
18.501409 18.205077 3.713128 26.220494 0.777325 1.428707 0.048678 -0.015751 2259530.000000 0 0 1
17.111909 18.252777 3.281528 25.233901 0.817647 1.440383 0.057516 -0.019561 1627060.000000 0 0 1
16.276709 19.435477 3.875928 25.645504 0.873619 1.419080 0.041804 -0.020192 373109.000000 0 0 1
14.880009 19.314777 3.695128 24.660277 0.914370 1.420389 0.044400 -0.023545 560543.000000 0 1 0
14.133109 20.542977 3.951928 25.246315 0.968185 1.413615 0.038408 -0.017468 672084.000000 0 0 1
12.612109 20.318477 3.797828 24.214238 1.015280 1.413303 0.040831 -0.018632 362505.000000 0 1 0
11.894709 19.554877 4.780528 23.382275 1.024316 1.364894 0.036461 -0.019766 681556.000000 0 1 0
10.505109 19.538177 4.443328 22.623900 1.077468 1.373112 0.037383 -0.012325 680970.000000 0 1 0
9.581009 18.887077 5.511128 21.883555 1.101343 1.316217 0.037350 -0.018096 -106827.000000 0 1 0
9.389609 19.769077 6.594828 22.857667 1.127377 1.278119 0.036743 -0.014343 -370197.000000 0 1 0
8.911609 19.013677 7.615128 22.336671 1.132505 1.222896 0.040866 -0.018360 -155552.000000 0 1 0
7.977809 19.724177 8.694128 22.984266 1.186444 1.182876 0.023996 -0.019462 873564.000000 0 1 0
6.644909 20.060277 8.361228 22.726189 1.250925 1.194034 0.027154 -0.021379 91027.400000 0 1 0
6.523509 21.150177 7.404828 23.339187 1.271617 1.247947 0.022544 -0.017097 -926357.000000 0 1 0
5.228709 21.234677 6.575228 22.836036 1.329365 1.278730 0.024822 -0.013513 -175777.000000 0 1 0
3.999809 21.365977 7.227728 22.907281 1.385734 1.249791 0.023541 -0.018087 -340665.000000 0 1 0
3.774109 22.588677 7.933228 24.236921 1.405246 1.237330 0.016384 -0.015540 -775489.000000 0 1 0
3.755209 23.972077 7.162828 25.299569 1.415410 1.283750 0.013792 -0.013112 -310636.000000 0 0 1
2.884609 23.881777 6.058828 24.806645 1.450592 1.324058 0.025234 -0.020195 -138428.000000 0 1 0
2.956009 25.024177 5.329628 25.755628 1.453215 1.362360 0.015051 -0.005608 -642755.000000 0 0 1
1.767909 25.411377 4.483328 25.864335 1.501337 1.396576 0.009106 -0.007195 -1473020.000000 0 0 1
0.639509 25.842877 5.150028 26.358795 1.546055 1.374150 0.027113 -0.015484 -760472.000000 0 0 1
-0.401991 25.880277 4.169528 26.217081 -1.555265 1.411080 0.024766 -0.017112 290997.000000 0 0 1
-1.633691 26.648777 4.712028 27.111427 -1.509568 1.396107 0.022626 -0.017100 -873964.000000 0 0 1
-2.660691 26.858077 3.836728 27.260889 -1.472054 1.429586 0.041697 -0.020169 -1168200.000000 0 0 1
-3.634991 27.529577 4.596528 28.146383 -1.439516 1.406754 0.034225 -0.015984 -505509.000000 0 0 1
-4.804091 28.059477 3.752428 28.714008 -1.401229 1.439739 0.028357 -0.018383 -273011.000000 0 0 1
-4.373491 29.128677 2.938228 29.601359 -1.421766 1.471373 0.034045 -0.017069 -50755.300000 0 0 1
-5.072991 29.294877 1.735128 29.781467 -1.399327 1.512501 0.040204 -0.021547 -253984.000000 0 0 1
-4.526291 30.483677 0.843428 30.829422 -1.423391 1.543435 0.035504 -0.013058 -106985.000000 0 0 1
-4.488791 31.825277 1.336728 32.168064 -1.430676 1.529230 0.035951 -0.008752 -41364.000000 0 0 1
-3.452291 32.047177 2.251628 32.311139 -1.463485 1.501054 0.033740 -0.013092 -493781.000000 0 0 1
-2.602591 33.326877 2.056228 33.491526 -1.492862 1.509362 0.032576 -0.015820 -360535.000000 0 0 1
-1.600391 33.207777 1.083628 33.263974 -1.522640 1.538214 0.022634 -0.000612 86454.800000 0 0 1
-0.726291 34.322277 0.947328 34.343029 -1.549639 1.543209 0.016868 -0.004549 496984.000000 0 0 1
0.544109 34.291577 1.823328 34.344328 1.554931 1.517682 0.002389 -0.003492 -269201.000000 0 0 1
0.217309 34.409577 3.229428 34.561473 1.564481 1.477220 0.001532 -0.003266 142528.000000 0 0 1
1.402209 34.290877 3.979928 34.549534 1.529927 1.455345 -0.001427 -0.002987 91202.200000 0 0 1
1.172909 -34.359632 5.454828 34.809700 -1.536673 1.413444 -0.001174 -0.006008 340065.000000 0 0 1
0.293409 33.615777 6.077228 34.161957 1.562068 1.391950 -0.001344 -0.007614 -75539.400000 0 0 1
0.127109 33.793977 7.437928 34.603061 1.567035 1.354156 0.013269 -0.023818 -41692.300000 0 0 1
1.264309 33.545577 8.453928 34.617526 1.533125 1.324092 0.002875 -0.012563 -81077.700000 0 0 1
1.528109 32.156577 8.568528 33.313665 1.523311 1.310665 0.004387 -0.016223 -302394.000000 0 0 1
2.634409 31.832377 9.363728 33.285429 1.488226 1.285631 0.018724 -0.003842 -239776.000000 0 0 1
2.850909 30.291977 9.454528 31.860943 1.476958 1.269516 0.021811 -0.003883 375789.000000 0 0 1
1.862409 29.509877 10.172328 31.269437 1.507769 1.239455 0.023963 -0.014214 603987.000000 0 0 1
2.189609 28.190377 10.139428 30.038305 1.493280 1.226483 0.031413 -0.014332 -18986.600000 0 0 1
1.742509 27.492577 11.417228 29.819981 1.507500 1.177893 0.015385 -0.023290 352484.000000 0 0 1
2.578809 27.973477 12.497628 30.746649 1.478869 1.152208 0.036311 -0.015161 323909.000000 0 0 1
2.575509 27.138177 13.661628 30.491868 1.476176 1.106223 0.034658 -0.011429 1138120.000000 0 0 1
1.200609 26.961977 14.481228 30.628347 1.526296 1.078325 0.017559 -0.011321 1593910.000000 0 0 1
0.632109 28.185577 14.971928 31.921544 1.548373 1.082612 0.018837 -0.010599 360622.000000 0 0 1
-0.051291 29.113277 14.106428 32.350840 -1.569035 1.119597 0.024775 -0.015266 -314060.000000 0 0 1
-0.720791 30.244477 14.835928 33.694995 -1.546969 1.114863 0.009676 -0.007463 -350674.000000 0 0 1
-1.992891 29.931277 15.364128 33.703255 -1.504312 1.097453 -0.002757 0.000294 -527761.000000 0 0 1
-2.586291 31.142577 15.659228 34.953690 -1.487940 1.106270 -0.018699 0.004625 -260432.000000 0 0 1
-3.930391 30.832277 16.378628 35.133129 -1.444004 1.085820 -0.015681 0.012355 -166674.000000 0 0 1
-4.835291 30.143277 15.583028 34.275764 -1.411741 1.098832 -0.005758 0.003164 -113642.000000 0 0 1
-6.059191 29.929077 16.278928 34.604436 -1.371045 1.081020 -0.000553 0.004757 -154651.000000 0 0 1
-7.113791 29.227577 15.432728 33.808673 -1.332046 1.096770 -0.001292 -0.008084 -876024.000000 0 0 1
-8.298891 28.947077 16.087428 34.141034 -1.291593 1.080140 0.000112 -0.008813 -1463420.000000 0 0 1
-9.203091 28.416577 15.223028 33.525204 -1.257593 1.099460 0.010012 -0.010496 18890.200000 0 0 1
-10.561991 27.963977 15.891728 33.853902 -1.209661 1.082162 0.020028 -0.009501 249437.000000 0 0 1
-11.247591 29.061077 16.458428 35.241089 -1.201518 1.084874 0.026121 -0.019755 62894.500000 0 0 1
-11.003091 29.207677 17.857228 35.958824 -1.210519 1.051117 0.030941 -0.018180 -394464.000000 0 0 1
-11.787191 30.404677 18.368028 37.426818 -1.200958 1.057821 0.045073 -0.019401 -432673.000000 0 0 1
-13.161291 30.171177 18.530428 37.774281 -1.159460 1.058068 0.057475 -0.018074 -168541.000000 0 0 1
-13.789391 31.391577 18.894228 39.148056 -1.156901 1.067135 0.070956 -0.016572 229364.000000 0 0 1
-14.868391 31.263277 19.990528 39.976027 -1.126870 1.047125 0.068198 -0.020149 295374.000000 0 0 1
-14.241391 31.067477 21.246728 40.242127 -1.140977 1.014585 0.060639 -0.022208 217581.000000 0 0 1
-15.188991 30.695477 22.217328 40.823124 -1.111295 0.995321 0.050270 -0.021332 -167386.000000 0 0 1
-14.608991 30.724577 23.620228 41.416632 -1.126955 0.963916 0.034989 -0.010511 -658285.000000 0 0 1
-13.671191 29.699977 23.849428 40.469560 -1.139402 0.940582 0.024451 -0.007557 184880.000000 0 0 1
-13.392591 29.409977 25.230728 40.998755 -1.143481 0.907900 0.042857 -0.002943 -268167.000000 0 0 1
-12.832491 30.537677 26.132528 42.191605 -1.172983 0.902847 0.037754 -0.000204 -920572.000000 0 0 1
-13.781491 31.504377 26.495228 43.410280 -1.158430 0.914301 0.032614 0.004087 -87872.400000 0 0 1
-13.208691 32.677377 26.996128 44.396750 -1.186661 0.917175 0.029792 0.003707 99900.300000 0 0 1
-14.324191 33.690477 27.423128 45.741214 -1.168781 0.927885 0.039969 -0.001409 340163.000000 0 0 1
-15.008991 33.362877 28.626228 46.452258 -1.148050 0.906824 0.000741 -0.000080 124924.000000 0 0 1
-14.213191 33.535677 29.776428 47.045639 -1.169923 0.885469 0.030159 0.006452 -384534.000000 0 0 1
-14.730991 32.830977 31.036628 47.519969 -1.149031 0.859088 0.011527 0.002679 589623.000000 0 0 1
-15.930191 33.497577 31.500628 48.663623 -1.126889 0.866742 0.010876 0.006584 558067.000000 0 0 1
-16.481491 32.782877 32.607728 49.087886 -1.104954 0.844276 0.006023 0.007257 729233.000000 0 0 1
-17.964791 33.166277 32.923228 50.066701 -1.074380 0.853185 0.003023 0.003229 673216.000000 0 0 1
-18.193091 -34.437732 33.330428 51.262690 1.084774 0.862963 0.016499 0.003203 -8168.430000 0 0 1
-19.591791 -34.239232 33.480928 51.741046 1.051067 0.867040 0.014694 -0.008659 244933.000000 0 0 1
-19.974191 -32.736132 33.690928 51.046070 1.022942 0.849964 0.030457 -0.006481 -147645.000000 0 0 1
-19.465191 -32.119132 -33.887555 50.585558 1.025954 2.304878 0.033086 0.000061 -95194.100000 0 0 1
-20.174291 -32.398832 -32.700155 50.259193 1.013863 2.279211 0.037746 -0.004225 -47761.400000 0 0 1
-19.672791 -31.573932 -31.491855 48.740833 1.013586 2.273271 0.041572 -0.001416 75995.300000 0 0 1
-19.975091 -30.202432 -31.661055 48.100037 0.986467 2.289266 0.051723 -0.007287 -94622.800000 0 0 1
-19.396691 -29.434432 -30.665355 46.722387 0.988134 2.286742 0.046478 -0.001012 -244428.000000 0 0 1
-19.775391 -27.944532 -30.743755 46.012405 0.954944 2.302532 0.052563 -0.012769 -226620.000000 0 0 1
-21.139391 -27.649032 -30.628055 46.361844 0.918041 2.292455 0.057718 -0.011042 -375406.000000 0 0 1
-21.392791 -26.270132 -30.606255 45.656480 0.887373 2.305489 0.064613 -0.016427 274680.000000 0 0 1
-22.715491 -25.931632 -29.867255 45.612455 0.851414 2.284721 0.063060 -0.020677 226834.000000 0 0 1
-22.614591 -26.145032 -28.443455 44.766199 0.857677 2.259294 0.055534 -0.014734 410753.000000 0 0 1
-22.045291 -25.044532 -27.701855 43.366072 0.849004 2.263722 0.059472 -0.010026 -197743.000000 0 0 1
-21.836891 -25.459932 -26.223555 42.576200 0.861851 2.234350 0.051256 -0.006270 239312.000000 0 0 1
-23.022691 -25.490932 -25.431955 42.738932 0.836232 2.208129 0.043648 -0.009900 482748.000000 0 0 1
-22.746391 -25.982332 -24.144255 42.135792 0.851708 2.180971 0.042815 -0.000103 -187319.000000 0 0 1
-24.007591 -25.969932 -23.209955 42.302527 0.824642 2.151564 0.029754 0.003354 836081.000000 0 0 1
-25.149191 -26.610332 -23.772155 43.654404 0.813620 2.146653 0.030997 0.002630 67991.200000 0 0 1
-25.084491 -28.044232 -23.762155 44.501131 0.841050 2.134082 0.036263 0.002194 -1090920.000000 0 0 1
-26.412291 -28.826032 -23.611455 45.673297 0.829067 2.114097 0.006907 0.005106 386100.000000 0 0 1
-27.141291 -28.538832 -22.404955 45.311109 0.810492 2.088021 0.005358 0.010630 121928.000000 0 0 1
-28.115391 -27.538532 -22.659755 45.412669 0.775033 2.093211 0.008758 0.007860 -421849.000000 0 0 1
-28.596891 -26.923132 -21.361555 44.709655 0.755260 2.068927 0.009502 0.013097 8313.900000 0 0 1
-29.364791 -27.866932 -20.603855 45.424396 0.759232 2.041581 0.010152 0.018218 294950.000000 0 0 1
-29.823991 -27.369932 -19.350755 44.866863 0.742517 2.016722 0.006781 0.019350 -711357.000000 0 0 1
-30.930091 -28.246032 -18.723255 45.881033 0.740072 1.991149 0.005836 0.015616 -569175.000000 0 0 1
-32.219991 -28.238332 -19.255155 46.971185 0.719635 1.993180 -0.002141 0.019156 -190932.000000 0 0 1
-32.961891 -27.055132 -19.087755 46.720540 0.687296 1.991663 -0.000167 0.021902 -640795.000000 0 0 1
-33.765391 -26.955132 -17.738655 46.704825 0.673707 1.960380 0.009429 0.021585 -371994.000000 0 0 1
-33.016091 -26.640932 -16.599655 45.556010 0.678939 1.943762 0.006608 0.025402 121249.000000 0 0 1
-33.878991 -26.250132 -15.545455 45.590752 0.659198 1.918754 0.009483 0.015468 39376.900000 0 0 1
-33.516391 -26.830332 -14.176155 45.212593 0.675054 1.889720 0.048937 0.015751 -127283.000000 0 0 1
-33.939691 -28.195132 -14.078855 46.315033 0.693207 1.879664 0.031133 0.002631 264585.000000 0 0 1
-33.732791 -28.690232 -12.788255 46.093059 0.704793 1.851929 0.008996 -0.006414 169053.000000 0 0 1
-34.423091 -30.093732 -12.526155 47.407663 0.718394 1.838194 0.007772 0.001343 170362.000000 0 0 1
-33.888991 -31.011432 -13.452155 47.865782 0.741089 1.855673 -0.008329 -0.003011 48790.200000 0 0 1
-34.201891 -32.345432 -13.245155 48.902254 0.757509 1.845072 -0.009560 -0.010624 -445335.000000 0 0 1
-33.712391 -33.342932 -14.315555 49.529906 0.779888 1.864008 -0.016447 0.008922 606280.000000 0 0 1
-32.283891 -33.484632 -14.258055 48.649382 0.803653 1.868241 -0.008059 0.001081 600626.000000 0 0 1
-31.862491 -34.368932 -15.276955 49.293277 0.823224 1.885905 -0.005284 -0.008924 548686.000000 0 0 1
-30.342791 34.456077 -15.620555 48.496474 -0.848791 1.898740 -0.000916 -0.003184 575609.000000 0 0 1
-30.026191 33.543377 -16.630655 47.992801 -0.840670 1.924659 0.008681 0.001112 -41882.800000 0 0 1
-28.689791 33.059477 -16.606755 46.816850 -0.856045 1.933408 0.006012 -0.004266 -29064.500000 0 0 1
9.201542 19.932977 -9.288272 23.838288 1.138318 1.971033 0.018175 -0.020125 -723706.000000 0 1 0
7.793942 20.027477 -9.273672 23.406118 1.199667 1.978179 0.024736 -0.019229 -73096.300000 0 1 0
7.258342 20.149177 -10.601172 23.896814 1.225037 2.030433 0.034237 -0.017524 -94827.800000 0 1 0
7.404142 18.898377 -11.521372 23.339066 1.197390 2.087080 0.025285 -0.007496 -918239.000000 0 1 0
8.715342 18.603877 -11.921672 23.752636 1.132690 2.096601 0.025157 -0.005885 -341543.000000 0 1 0
8.772342 17.290777 -12.537372 23.089190 1.101292 2.144799 0.019306 -0.017861 221147.000000 0 1 0
10.021642 16.984377 -13.425172 23.856606 1.037725 2.168498 0.030229 -0.009549 549215.000000 0 1 0
9.770242 15.746677 -14.091272 23.280452 1.015466 2.220918 0.032566 -0.021510 -510638.000000 0 1 0
10.856442 15.398377 -14.858672 23.994843 0.956697 2.238576 0.033935 -0.021273 -1074680.000000 0 1 0
10.707642 14.120477 -15.715672 23.685942 0.922001 2.296286 0.029634 -0.023378 -781425.000000 0 1 0
10.532942 12.945877 -14.907272 22.377788 0.887809 2.299850 0.039176 -0.029481 576721.000000 0 1 0
11.712642 12.399977 -14.321572 22.272244 0.813896 2.269236 0.039430 -0.027829 5270.310000 0 1 0
12.734042 11.754677 -15.294872 23.114095 0.745427 2.293896 0.045165 -0.029021 -259478.000000 0 1 0
13.391442 12.663777 -16.217772 24.550318 0.757478 2.292405 0.031493 -0.019685 226615.000000 0 1 0
14.452842 11.974277 -16.830072 25.209508 0.691883 2.301788 0.041312 -0.031510 -160933.000000 0 0 1
14.959142 12.781277 -18.044372 26.697123 0.707050 2.312971 0.024732 -0.022981 -360509.000000 0 0 1
15.875942 13.789277 -17.733372 27.507494 0.715173 2.271393 0.008928 -0.013546 -473275.000000 0 0 1
16.534242 14.266277 -18.829772 28.835190 0.711897 2.282353 0.008818 -0.015437 -429635.000000 0 0 1
17.654242 15.283477 -18.509372 29.796876 0.713545 2.241050 0.002469 -0.005186 -463683.000000 0 0 1
17.308942 16.550877 -17.927272 29.915182 0.763014 2.213385 0.004379 -0.004810 279538.000000 0 0 1
16.637542 17.478777 -18.804072 30.592623 0.810051 2.232752 0.016104 -0.003986 -169261.000000 0 0 1
16.565842 18.894777 -18.132172 30.987343 0.850981 2.195859 0.018835 -0.001063 -597092.000000 0 0 1
17.720442 19.668077 -18.074172 32.055000 0.837443 2.169835 0.025143 -0.005043 -746045.000000 0 0 1
17.516542 20.942877 -17.443572 32.399253 0.874253 2.139327 0.013384 0.000110 -159347.000000 0 0 1
18.584642 22.050477 -17.623272 33.796334 0.870484 2.119352 0.028164 -0.005110 61078.400000 0 0 1
19.733542 21.892277 -16.833672 33.941965 0.837212 2.089730 0.034274 -0.007189 -529322.000000 0 0 1
19.813642 22.947577 -15.863972 34.217500 0.858557 2.052875 0.030803 -0.000149 -599873.000000 0 0 1
21.206642 23.177077 -15.307772 34.946051 0.829764 2.024214 0.030689 -0.004991 -1519700.000000 0 0 1
21.579342 22.140677 -14.373272 34.094993 0.798237 2.005967 0.041563 -0.003257 531567.000000 0 0 1
22.708842 22.557477 -13.590172 34.773899 0.782054 1.972314 0.036648 -0.005193 1860450.000000 0 0 1
24.142942 22.772677 -14.248772 36.117918 0.756199 1.976328 0.044136 -0.005965 468300.000000 0 0 1
24.200342 23.756077 -15.290972 37.199753 0.776135 1.994402 0.040204 -0.005908 -464757.000000 0 0 1
25.427642 24.427877 -15.357472 38.459565 0.765348 1.981566 0.023638 -0.004953 -409243.000000 0 0 1
25.787442 24.917777 -16.767672 39.585889 0.768248 2.008187 0.030026 -0.002085 -241000.000000 0 0 1
26.390842 23.880377 -17.547272 39.681932 0.735501 2.028844 0.024576 -0.006130 207622.000000 0 0 1
26.537142 24.312677 -18.863372 40.634382 0.741680 2.053552 0.024841 -0.006298 -649258.000000 0 0 1
27.048942 23.272677 -19.867272 40.840804 0.710496 2.078826 0.021114 -0.009373 -372414.000000 0 0 1
28.427242 23.060577 -19.951272 41.688747 0.681541 2.069830 0.012335 -0.006596 -716177.000000 0 0 1
28.692542 22.063577 -20.886672 41.788952 0.655529 2.094179 0.013070 -0.004465 -140097.000000 0 0 1
30.129742 22.084877 -21.417272 43.060919 0.632527 2.091363 0.027378 -0.010815 -546537.000000 0 0 1
30.397642 23.334677 -22.049272 44.211924 0.654700 2.092915 0.024400 -0.003761 -355821.000000 0 0 1
31.700542 23.761077 -21.762872 45.201059 0.643212 2.073125 0.038656 -0.003648 -263100.000000 0 0 1
32.082142 25.131877 -22.310072 46.460891 0.664512 2.071668 0.050167 -0.007943 -247911.000000 0 0 1
32.292542 25.139477 -23.754472 47.318882 0.661488 2.096716 0.042105 -0.007620 -40121.800000 0 0 1
31.143742 25.054377 -24.558672 46.912502 0.677464 2.121749 0.036023 -0.007811 -401097.000000 0 0 1
31.333142 25.631077 -26.003382 48.113343 0.685631 2.141781 0.046700 -0.013303 -290209.000000 0 0 1
31.031642 27.041977 -26.087342 48.731723 0.716806 2.135690 0.048568 -0.012560 656197.000000 0 0 1
29.682442 27.497577 -26.298452 48.257359 0.747206 2.147141 0.046271 -0.001359 850292.000000 0 0 1
29.109942 27.260177 -27.738502 48.579116 0.752595 2.178515 0.050881 -0.002948 -278843.000000 0 0 1
28.984342 25.880977 -28.043182 47.920112 0.728895 2.195932 0.035798 -0.010024 -72325.900000 0 0 1
28.658142 25.677977 -29.417082 48.435652 0.730606 2.223509 0.039666 -0.011665 -476085.000000 0 0 1
28.055442 24.302377 -29.606552 47.479062 0.713839 2.244098 0.037403 -0.006730 545189.000000 0 0 1
26.698542 24.198177 -29.160452 46.354028 0.736311 2.251167 0.040673 -0.005542 743805.000000 0 0 1
26.072142 22.916677 -29.456542 45.526021 0.721075 2.274474 0.054013 -0.011448 1037560.000000 0 0 1
24.570842 22.915877 -28.999972 44.383129 0.750561 2.282865 0.039597 -0.007777 617734.000000 0 0 1
24.544242 23.178377 -27.610632 43.611971 0.756785 2.256345 0.027050 0.001326 -975027.000000 0 0 1
23.267142 23.268277 -27.130382 42.647746 0.785423 2.260295 0.030221 0.001551 -1281830.000000 0 0 1
23.312642 23.464477 -25.610502 41.832509 0.788644 2.229656 0.029248 0.002217 -7513.430000 0 0 1
23.962342 22.372277 -24.943272 41.193197 0.751095 2.221214 0.030661 -0.007428 480163.000000 0 0 1
24.172842 22.503577 -23.547472 40.561321 0.749651 2.190188 0.034685 -0.001909 -10076.600000 0 0 1
24.574642 21.127777 -22.873672 39.667378 0.710121 2.185403 0.048273 -0.004219 375731.000000 0 0 1
25.903042 20.695577 -23.127672 40.424791 0.674108 2.179880 0.021394 0.001301 299239.000000 0 0 1
26.053442 19.352177 -22.718072 39.615646 0.638869 2.181522 0.050483 -0.010408 657802.000000 0 0 1
27.432642 18.700777 -23.049372 40.417106 0.598337 2.177652 0.052530 -0.010397 950455.000000 0 0 1
28.591842 18.939377 -22.261972 40.887515 0.585046 2.146552 0.048202 -0.014570 442890.000000 0 0 1
29.746442 18.412377 -22.879072 41.800938 0.554257 2.149972 0.030760 -0.009930 1007030.000000 0 0 1
31.071542 18.399877 -22.022772 42.296557 0.534648 2.118438 0.034289 -0.007992 966828.000000 0 0 1
31.819542 19.626377 -22.091772 43.424928 0.552683 2.104511 0.017149 -0.007714 -576036.000000 0 0 1
33.069142 19.467577 -21.507472 43.990068 0.532064 2.081644 0.003523 -0.009552 -616756.000000 0 0 1
33.232442 20.349677 -20.244372 43.912859 0.549446 2.049932 0.016488 -0.014962 -147851.000000 0 0 1
32.400142 20.035077 -19.135272 42.630179 0.553813 2.036293 0.009406 -0.015432 275566.000000 0 0 1
32.292642 21.170477 -18.311072 42.735222 0.580289 2.013603 -0.005063 -0.006125 -124595.000000 0 0 1
31.609342 20.860977 -16.957072 41.495460 0.583347 1.991770 0.012136 -0.015014 -613966.000000 0 0 1
32.202542 19.907477 -16.158872 41.163340 0.553691 1.974204 0.009198 -0.022487 -109353.000000 0 0 1
31.864442 19.960877 -14.788772 40.404048 0.559628 1.945527 0.021297 -0.020543 -395241.000000 0 0 1
32.486042 18.818077 -13.944872 40.049000 0.525035 1.926442 0.020219 -0.020251 243319.000000 0 0 1
33.924742 18.853577 -14.009772 41.262807 0.507245 1.917209 0.013365 -0.025378 1007250.000000 0 0 1
34.605942 17.860177 -13.233072 41.129933 0.476446 1.898361 0.017407 -0.009040 259580.000000 0 0 1
34.439442 17.935277 -11.705972 40.555877 0.480131 1.863600 0.025103 -0.014624 -391546.000000 0 0 1
35.312742 18.959777 -11.239872 41.626886 0.492738 1.844205 0.014616 -0.020863 254421.000000 0 0 1
34.978642 19.465877 -9.877472 41.230938 0.507826 1.812714 0.008006 -0.017068 -574063.000000 0 0 1
33.814042 20.447977 -9.829972 40.720236 0.543882 1.814607 0.011404 -0.022208 -968755.000000 0 0 1
32.561642 19.835877 -9.870572 39.384651 0.547142 1.824117 0.045544 -0.032208 -1130300.000000 0 0 1
31.614342 20.870277 -9.819672 39.133886 0.583479 1.824432 0.031477 -0.021799 -1201710.000000 0 0 1
30.233942 20.347777 -10.118872 37.822148 0.592382 1.841634 0.018409 -0.021701 -957942.000000 0 0 1
30.125942 20.030277 -11.508272 37.963466 0.586768 1.878783 0.029790 -0.026768 125725.000000 0 0 1
28.920742 19.304977 -11.698372 36.687101 0.588588 1.895332 0.033849 -0.025046 85360.200000 0 0 1
28.626542 18.902477 -13.142572 36.735674 0.583591 1.936665 0.042461 -0.007973 -993177.000000 0 0 1
29.500142 17.998977 -13.688172 37.169714 0.547836 1.947935 0.047701 -0.003199 -941574.000000 0 0 1
28.951542 17.112877 -14.624772 36.673237 0.533840 1.980989 0.042736 0.000981 -316298.000000 0 0 1
30.075942 16.397977 -15.386672 37.552705 0.499165 1.992960 0.041633 -0.009209 154479.000000 0 0 1
30.930742 15.662577 -14.520972 37.588373 0.468735 1.967430 0.029277 -0.006695 660361.000000 0 0 1
32.043342 15.103077 -15.234472 38.561222 0.440452 1.976943 0.028884 -0.009660 207414.000000 0 0 1
32.904742 14.177877 -14.395872 38.613151 0.406837 1.952846 0.036469 -0.010415 -308307.000000 0 0 1
33.783742 14.814677 -13.489772 39.278364 0.413262 1.921374 0.051483 -0.005816 361894.000000 0 0 1
34.387242 13.797877 -12.674772 39.160103 0.381583 1.900397 0.045941 0.006938 638675.000000 0 0 1
35.497042 14.261777 -11.649472 39.989355 0.382034 1.866397 0.067492 0.007670 448702.000000 0 0 1
-34.367325 14.525977 -12.217172 39.260366 -0.399894 1.887234 0.036634 0.001556 185196.000000 0 0 1
-33.439825 14.604977 -11.130672 38.149956 -0.411784 1.866864 0.014901 0.002707 50390.500000 0 0 1
-31.960825 14.947077 -11.447772 37.093948 -0.437450 1.884534 0.028860 -0.007124 620287.000000 0 0 1
-31.171825 14.017577 -12.231172 36.301194 -0.422594 1.914457 0.014454 0.000703 578991.000000 0 0 1
-30.699525 12.938677 -11.404472 35.212671 -0.398870 1.900618 0.037896 0.012144 -673511.000000 0 0 1
-29.670025 11.996677 -12.031672 34.190522 -0.384239 1.930397 0.043710 0.009358 -436912.000000 0 0 1
-30.119325 11.119677 -13.021572 34.646534 -0.353665 1.956100 0.035248 0.013151 77611.100000 0 0 1
-29.456025 9.887077 -12.828372 33.615158 -0.323839 1.962350 0.040314 -0.004093 -196858.000000 0 0 1
-29.484125 8.921377 -14.007672 33.839614 -0.293824 1.997578 0.044635 -0.016239 1366550.000000 0 0 1
-30.824425 8.622477 -14.533072 35.152560 -0.272757 1.997013 0.030936 0.000944 1858570.000000 0 0 1
-30.755425 7.939477 -15.780172 35.467525 -0.252633 2.031880 0.045796 -0.014100 178649.000000 0 0 1
-32.153825 7.467277 -16.266872 36.799998 -0.228191 2.028662 0.043376 -0.014592 443297.000000 0 0 1
-32.766925 6.383877 -15.560572 36.831463 -0.192416 2.006977 0.043617 -0.010004 273676.000000 0 0 1
-33.869925 5.739877 -16.123972 37.948656 -0.167873 2.009636 0.013535 -0.018734 -316902.000000 0 0 1
-34.852425 5.120577 -15.105472 38.328672 -0.145878 1.975889 0.000553 -0.019872 863190.000000 0 0 1
35.223342 4.271877 -15.667972 38.786829 0.120690 1.986628 -0.004463 -0.013763 1058230.000000 0 0 1
34.379342 3.764777 -14.629172 37.551636 0.109072 1.970966 0.010212 -0.015976 -232553.000000 0 0 1
33.397242 2.752277 -15.160772 36.780427 0.082225 1.995660 0.010956 -0.013696 -917633.000000 0 0 1
34.046642 1.507877 -15.529372 37.451421 0.044260 1.998359 0.011528 -0.013607 83849.800000 0 0 1
33.417542 0.314677 -15.195872 36.711656 0.009416 1.997558 0.017892 -0.009064 -570104.000000 0 0 1
33.160742 0.060877 -13.707272 35.882138 0.001836 1.962765 0.033912 -0.020870 55861.000000 0 0 1
34.278942 -0.260123 -12.879172 36.619484 -0.007588 1.930186 0.039331 -0.020133 425255.000000 0 0 1
33.948442 -0.230323 -11.450772 35.828340 -0.006784 1.896105 0.040789 -0.009833 -387754.000000 0 0 1
33.814442 1.208077 -10.816172 35.522747 0.035711 1.880195 0.042370 -0.013673 -368461.000000 0 0 1
32.926242 2.045677 -11.512372 34.940763 0.062049 1.906552 0.032218 -0.012823 330547.000000 0 0 1
32.858142 3.267777 -10.864572 34.761686 0.099125 1.888667 0.040346 -0.008207 252995.000000 0 0 1
31.715342 4.225077 -11.374272 33.957154 0.132439 1.912359 0.034573 -0.006931 237438.000000 0 0 1
31.908542 4.684477 -12.682772 34.654756 0.145768 1.945477 0.031810 -0.009475 1349540.000000 0 0 1
30.766142 5.475377 -13.114272 33.889813 0.176124 1.968137 0.039596 -0.009376 712957.000000 0 0 1
31.096142 6.239577 -14.404872 34.833931 0.198025 1.997124 0.012201 -0.004330 -412608.000000 0 0 1
31.040342 5.449977 -15.563972 35.148860 0.173806 2.029517 0.003665 -0.004005 74123.400000 0 0 1
31.524842 6.049677 -16.713772 36.190668 0.189597 2.050849 -0.006405 -0.002971 -827900.000000 0 0 1
30.605142 7.160377 -17.331172 35.893109 0.229826 2.074709 -0.009558 -0.000279 706721.000000 0 0 1
29.335042 6.819177 -17.871972 35.020755 0.228402 2.106359 -0.011850 0.004263 688766.000000 0 0 1
28.373642 6.364377 -16.944772 33.655522 0.220654 2.098414 -0.003626 0.008728 -1075200.000000 0 0 1
26.941842 6.242577 -17.492672 32.723481 0.227688 2.134784 0.004171 0.015632 -159881.000000 0 0 1
26.748442 5.189877 -18.434072 32.897249 0.191644 2.165608 0.012179 0.007024 821357.000000 0 0 1
25.527942 5.342177 -19.179272 32.373742 0.206291 2.204872 0.012665 0.003432 587482.000000 0 0 1
25.367242 4.117677 -20.181872 32.676600 0.160919 2.236515 0.019850 0.017640 -25822.800000 0 0 1
24.989742 2.974677 -19.401172 31.776428 0.118478 2.227554 0.023204 0.002226 103030.000000 0 0 1
24.561642 1.948877 -20.231172 31.880601 0.079180 2.258277 0.022149 0.001928 -414838.000000 0 0 1
23.520842 1.046277 -19.528772 30.589175 0.044454 2.263241 0.022101 -0.002267 304430.000000 0 0 1
22.292942 1.744377 -19.424672 29.619858 0.078089 2.286037 0.029432 -0.004937 456424.000000 0 0 1
21.213442 1.065877 -18.799272 28.364747 0.050203 2.295307 0.030992 -0.007474 386162.000000 0 0 1
19.929842 1.893277 -18.584072 27.315762 0.094713 2.319026 0.029603 -0.015131 -669548.000000 0 0 1
19.161942 1.961377 -19.804872 27.627160 0.102003 2.370088 0.027059 -0.008941 1066540.000000 0 0 1
17.910642 2.642177 -19.645872 26.715772 0.146464 2.397003 0.028094 -0.010133 782802.000000 0 0 1
16.754642 2.041377 -18.839172 25.294261 0.121242 2.411032 0.028617 -0.011154 -929460.000000 0 0 1
16.983242 2.057177 -17.456672 24.441724 0.120543 2.366300 0.031126 -0.014793 503935.000000 0 1 0
15.789442 1.886477 -16.684172 23.048360 0.118913 2.380201 0.011747 -0.008454 858851.000000 0 1 0
14.955842 3.235277 -16.455872 22.470869 0.213039 2.392519 0.024602 -0.012046 504003.000000 0 1 0
14.182342 3.686177 -17.558972 22.870160 0.254287 2.446146 0.027317 -0.005943 812086.000000 0 1 0
13.171542 4.648677 -17.259572 22.203436 0.339286 2.461219 0.021491 -0.014860 252679.000000 0 1 0
-19.409158 -21.649323 -17.041972 33.702187 0.839904 2.100947 0.034804 -0.025273 5678.420000 0 0 1
-19.011158 -22.164823 -18.317372 34.470706 0.861839 2.131036 0.035172 -0.011618 221668.000000 0 0 1
-20.048458 -22.046623 -19.274672 35.489537 0.832830 2.144931 0.033436 -0.013638 -128547.000000 0 0 1
-19.854958 -22.707223 -20.649672 36.554702 0.852312 2.171106 0.030454 -0.001890 -348909.000000 0 0 1
-19.790858 -24.142823 -20.631872 37.419622 0.884134 2.154796 0.041603 0.001360 268574.000000 0 0 1
-19.503958 -24.637023 -21.907472 38.305673 0.901166 2.179631 0.036543 0.004803 -153586.000000 0 0 1
-19.296258 -26.156353 -21.964672 39.229417 0.935196 2.165065 0.041998 0.004552 73608.100000 0 0 1
-20.500858 -26.882473 -21.883472 40.272061 0.919273 2.145267 0.047269 0.003631 184774.000000 0 0 1
-20.121558 -28.263993 -21.895272 41.026008 0.952118 2.133757 0.063102 -0.002667 586609.000000 0 0 1
-21.354358 -29.226123 -22.039072 42.378008 0.939788 2.117717 0.056921 0.001260 626623.000000 0 0 1
-22.052458 -29.175673 -23.280872 43.353544 0.923561 2.137674 0.039871 0.003704 155523.000000 0 0 1
-21.315358 -29.680883 -24.388472 43.932867 0.947992 2.159316 0.037093 -0.001455 -565904.000000 0 0 1
-21.839458 -29.356823 -25.825852 44.785707 0.931191 2.185423 0.032891 0.003479 -201341.000000 0 0 1
-23.049458 -29.968373 -26.193032 45.994084 0.915166 2.176678 0.030718 0.003062 303157.000000 0 0 1
-23.853558 -29.248353 -27.137662 46.485601 0.886644 2.194181 0.028385 0.007849 96525.600000 0 0 1
-23.472558 -29.249113 -28.656772 47.198328 0.894530 2.223273 0.038150 -0.012769 -480057.000000 0 0 1
-23.684358 -30.508173 -29.248702 48.447745 0.910657 2.218951 0.023766 -0.007413 157775.000000 0 0 1
-23.351458 -30.497283 -30.592932 49.105013 0.917329 2.243382 0.047687 -0.011833 -30096.300000 0 0 1
-23.904858 -31.765543 -31.284792 50.588834 0.925671 2.237518 0.024216 -0.006170 -202437.000000 0 0 1
-23.174358 -32.908803 -31.009202 50.809554 0.957258 2.227239 0.018539 -0.006116 -116462.000000 0 0 1
-23.968158 -34.069291 -31.235192 52.065597 0.957717 2.214197 0.013231 -0.006637 230994.000000 0 0 1
-23.155258 33.527421 -31.093332 51.254749 -0.966382 2.222627 0.024372 -0.005950 147317.000000 0 0 1
-22.356558 33.208795 -32.196852 51.373895 -0.978276 2.248128 0.019114 -0.013973 -163872.000000 0 0 1
-22.090058 31.808807 -32.154532 50.335721 -0.963796 2.263736 0.023879 -0.001448 -438136.000000 0 0 1
-21.040958 31.358997 -33.177912 50.268106 -0.979820 2.291641 0.018791 0.002620 -291363.000000 0 0 1
-21.431158 31.068027 34.231587 50.954081 -0.966939 0.834143 0.015273 -0.000162 173325.000000 0 0 1
-20.777558 29.872417 33.822590 49.679330 -0.963068 0.821917 0.006045 0.003420 -24279.200000 0 0 1
-20.832858 29.735807 32.286641 48.586556 -0.959669 0.843948 0.004163 -0.002056 -54778.800000 0 0 1
-20.244658 30.822487 31.617331 48.574968 -0.989645 0.862030 0.002661 0.004179 221356.000000 0 0 1
-20.108858 30.708707 30.216281 47.543817 -0.991036 0.882081 0.010583 0.002038 54298.600000 0 0 1
-19.569258 32.102327 29.620201 47.863050 -1.023355 0.903514 0.007603 -0.007155 -430810.000000 0 0 1
-20.503558 33.104778 29.604421 48.915682 -1.016268 0.920763 0.013766 -0.008660 -514884.000000 0 0 1
-19.953458 34.383986 29.290901 49.379711 -1.044979 0.935797 0.018190 -0.014322 266738.000000 0 0 1
-21.026858 -33.423173 29.484941 49.280817 1.009247 0.929413 0.032927 -0.021461 267279.000000 0 0 1
-21.330458 -33.123603 30.852191 50.040175 0.998675 0.906445 0.028196 -0.018041 741588.000000 0 0 1
-22.426658 -32.145753 30.830821 49.868265 0.961646 0.904288 0.037557 -0.018130 661795.000000 0 0 1
-22.028258 -30.675563 30.522371 48.557691 0.948023 0.891071 0.058566 -0.016994 -388353.000000 0 0 1
-21.871958 -30.577833 29.133761 47.562195 0.949883 0.911526 0.046169 -0.014149 -143174.000000 0 0 1
-21.746758 -29.271903 28.639201 46.367764 0.931840 0.905041 0.059913 -0.021066 180325.000000 0 0 1
-23.046658 -28.622943 28.068091 46.241096 0.892904 0.918523 0.051528 -0.016907 315137.000000 0 0 1
-24.115158 -28.383043 28.999211 47.202671 0.866516 0.909228 0.050044 -0.015690 957190.000000 0 0 1
-25.122258 -29.410633 29.020181 48.355807 0.863875 0.927122 0.026735 -0.002695 345162.000000 0 0 1
-26.177398 -29.411963 27.869131 48.239073 0.843519 0.954852 0.007376 -0.003743 -632765.000000 0 0 1
-25.705158 -29.852543 26.632061 47.552036 0.859910 0.976336 0.008254 0.006916 -204440.000000 0 0 1
-26.730278 -30.087923 25.718131 47.762047 0.844424 1.002183 0.005390 0.005485 -375243.000000 0 0 1
-26.121568 -30.201593 24.279001 46.732669 0.857711 1.024496 0.004290 0.001382 -313771.000000 0 0 1
-25.447668 -29.059653 23.808121 45.374815 0.851567 1.018435 -0.011089 0.000848 288844.000000 0 0 1
-25.157048 -29.110073 22.392711 44.516366 0.858114 1.043705 0.012191 -0.002244 380878.000000 0 0 1
-23.925358 -29.970203 21.957211 44.189986 0.897090 1.050794 0.015480 -0.007688 -30169.000000 0 0 1
-24.275458 -31.347483 21.934011 45.310742 0.911862 1.065485 0.015807 -0.016413 718209.000000 0 0 1
-23.155158 -32.171493 21.618211 45.149898 0.946944 1.071498 0.035993 -0.008761 221344.000000 0 0 1
-22.303758 -32.785053 22.739611 45.710034 0.973413 1.050110 0.033177 -0.009563 -277122.000000 0 0 1
-21.472458 -31.906963 23.426311 45.032352 0.978442 1.023699 0.063932 -0.025969 -115167.000000 0 0 1
-20.734858 -32.632553 24.394801 45.715688 1.004750 1.007921 0.068002 -0.029220 -131185.000000 0 0 1
-19.729958 -31.677793 25.095691 44.972741 1.013757 0.978798 0.081556 -0.034115 -282787.000000 0 0 1
-18.466358 -31.467713 24.491491 43.943787 1.040113 0.979622 0.083861 -0.033967 354732.000000 0 0 1
-17.628258 -30.692053 25.324631 43.521196 1.049444 0.949743 0.083231 -0.039888 490893.000000 0 0 1
-16.687958 -31.486543 26.334061 44.309966 1.083436 0.934383 0.063593 -0.031815 -134013.000000 0 0 1
-17.441758 -32.022543 27.366571 45.591527 1.072054 0.926976 0.052648 -0.020555 159049.000000 0 0 1
-16.625258 -32.751123 28.255321 46.340030 1.101068 0.915065 0.039696 -0.013165 -284428.000000 0 0 1
-16.882158 -32.272103 29.656701 46.968242 1.088825 0.887413 0.057220 -0.018465 101608.000000 0 0 1
-16.486358 -30.891543 29.791611 45.974204 1.080565 0.865831 0.061881 -0.015296 316772.000000 0 0 1
-17.081058 -30.365603 30.974921 46.618431 1.058397 0.844059 0.066505 -0.011081 170293.000000 0 0 1
-16.692858 -28.852823 31.236831 45.682343 1.046297 0.817861 0.072767 -0.019080 -60668.800000 0 0 1
-17.395558 -27.814653 30.509381 44.800476 1.011902 0.821661 0.096834 -0.021065 332630.000000 0 0 1
-17.422458 -27.717013 29.066031 43.779093 1.009624 0.844741 0.089445 -0.023203 -288213.000000 0 0 1
-16.067258 -27.484813 28.374031 42.645719 1.041787 0.842843 0.073558 -0.017590 -83524.100000 0 0 1
-15.629058 -26.098603 28.545311 41.716175 1.031225 0.817188 0.065230 -0.016838 569281.000000 0 0 1
-14.496158 -25.793263 27.732041 40.552399 1.058777 0.817760 0.049583 -0.010813 19184.600000 0 0 1
-14.664958 -24.460623 27.059781 39.314308 1.030720 0.811662 0.038629 -0.000903 143991.000000 0 0 1
-15.682158 -24.493723 26.010871 39.018431 1.001304 0.841117 0.069506 -0.013331 888534.000000 0 0 1
-15.554158 -23.505523 25.024411 37.691678 0.986224 0.844742 0.031463 -0.004342 474791.000000 0 0 1
-16.449658 -22.240223 25.433221 37.577486 0.933962 0.827361 0.042083 -0.007179 153982.000000 0 0 1
-16.249258 -21.168123 24.585961 36.284945 0.916108 0.826329 0.026513 -0.002145 -289523.000000 0 0 1
-17.044658 -20.089023 24.886431 36.241187 0.867199 0.813872 0.036041 -0.002451 -466743.000000 0 0 1
-16.605458 -18.803323 24.120071 34.800632 0.847390 0.805025 0.025017 -0.006185 39839.700000 0 0 1
-15.342258 -18.280223 24.470001 34.180877 0.872558 0.772888 0.017992 -0.005339 -250642.000000 0 0 1
-15.033558 -17.133823 23.743841 32.914217 0.850597 0.764995 0.017165 -0.003810 -206304.000000 0 0 1
-13.628558 -16.609723 24.103631 32.289402 0.883670 0.728029 0.024743 -0.010907 220007.000000 0 0 1
-12.587058 -17.451223 23.555811 31.903846 0.945937 0.740194 -0.004018 -0.003860 -212404.000000 0 0 1
-11.310358 -16.953723 23.812051 31.342729 0.982472 0.707897 0.003804 -0.011268 -362877.000000 0 0 1
-10.717358 -16.052623 22.682611 29.783373 0.982121 0.705039 0.006967 -0.008831 -268202.000000 0 0 1
-10.356258 -16.742823 21.486611 29.141871 1.016849 0.741716 0.024776 -0.008563 -587808.000000 0 0 1
-8.964058 -16.885823 21.451911 28.734471 1.082764 0.727925 0.024361 -0.010432 -672811.000000 0 0 1
-8.547758 -17.988023 20.467211 28.557658 1.127192 0.771741 0.023155 -0.014105 -166593.000000 0 0 1
-8.278558 -17.669023 19.100311 27.304775 1.132636 0.796067 0.022032 -0.017913 -301121.000000 0 0 1
-8.017458 -18.875523 18.533511 27.641563 1.169134 0.835921 0.016177 -0.015041 -80121.800000 0 0 1
-7.712158 -18.725423 17.058611 26.478577 1.180112 0.870765 0.008064 -0.018225 -651424.000000 0 0 1
-6.483058 -18.172923 16.748011 25.549580 1.228127 0.855938 0.006873 -0.016276 -873723.000000 0 0 1
-6.446558 -17.919523 15.381411 24.479689 1.225462 0.891387 0.017183 -0.016541 -27196.800000 0 1 0
-5.680958 -16.618323 15.124911 23.177680 1.241401 0.859834 0.008863 -0.018519 36342.300000 0 1 0
-6.293658 -15.475223 15.667211 22.903147 1.184534 0.817477 0.013421 -0.023589 -855111.000000 0 1 0
-5.450658 -14.436823 15.521111 21.886900 1.209790 0.782503 0.015173 -0.021823 -839158.000000 0 1 0
-5.565358 -13.406923 16.672011 22.105988 1.177332 0.716384 0.006077 -0.007992 -38192.700000 0 1 0
-5.039558 -13.783423 17.986111 23.213790 1.220270 0.684393 0.007271 -0.007456 40666.300000 0 1 0
-5.675858 -14.879423 18.659411 24.531331 1.206377 0.706504 0.017613 -0.016983 -149094.000000 0 1 0
-6.941558 -14.387123 19.387911 25.121019 1.121259 0.689160 0.038433 -0.019199 -194889.000000 0 0 1
-6.736858 -13.356523 20.360911 25.265562 1.103645 0.633643 0.029943 -0.019097 -113843.000000 0 0 1
-7.966758 -13.010223 20.971911 25.933688 1.021348 0.628901 0.033278 -0.013677 290749.000000 0 0 1
-7.827758 -11.983623 22.079611 26.313309 0.992172 0.575162 0.032634 -0.006630 -519049.000000 0 0 1
-7.365658 -10.761023 21.569211 25.204828 0.970566 0.543784 0.024046 -0.005710 174606.000000 0 0 1
-7.052058 -9.863223 22.643611 25.685556 0.950084 0.491619 0.017819 -0.012594 529396.000000 0 0 1
-5.641958 -10.088123 23.303711 26.012782 1.060866 0.460442 0.018638 -0.009947 162027.000000 0 0 1
-5.479958 -11.206423 24.127881 27.161894 1.115986 0.477168 0.019388 -0.000315 -452479.000000 0 0 1
-4.197058 -11.305423 24.671361 27.460953 1.215324 0.454647 0.014478 0.000062 -554544.000000 0 0 1
-3.867858 -12.676223 25.306791 28.567125 1.274643 0.482428 0.021849 -0.006941 160628.000000 0 0 1
-2.553058 -12.833923 25.859841 28.982047 1.374429 0.468446 0.019519 -0.001229 737912.000000 0 0 1
-2.334058 -14.011223 26.657031 30.205289 1.405727 0.489584 0.022713 -0.002941 -243310.000000 0 0 1
-2.557158 -15.378023 25.942201 30.265829 1.406018 0.541096 0.027258 -0.018216 -613343.000000 0 0 1
-1.513858 -15.675723 25.075181 29.610551 1.474521 0.560795 0.009743 -0.012849 -152376.000000 0 0 1
-1.697358 -16.967923 24.459841 29.817365 1.471095 0.608822 0.014929 -0.009839 410621.000000 0 0 1
-0.438858 -17.908323 24.598381 30.429935 1.546295 0.629433 0.003341 -0.015003 923960.000000 0 0 1
0.063142 -18.310723 25.900681 31.719581 -1.567348 0.615384 0.009661 -0.017096 464174.000000 0 0 1
1.038342 -17.434123 26.460441 31.704601 -1.511309 0.583403 0.005575 -0.011267 -149679.000000 0 0 1
1.542042 -17.682823 27.846211 33.022289 -1.483811 0.567486 0.006576 -0.004741 -229851.000000 0 0 1
2.560142 -18.706523 27.811021 33.614598 -1.434783 0.596424 0.006795 -0.014149 393116.000000 0 0 1
3.071542 -19.178223 29.042591 34.938670 -1.411987 0.589453 0.004457 -0.008591 239915.000000 0 0 1
3.955742 -18.124523 29.792791 35.096390 -1.355912 0.556925 0.017322 -0.006474 -523044.000000 0 0 1
3.278342 -17.010823 30.350261 34.946444 -1.380410 0.518670 0.005730 -0.008983 -312980.000000 0 0 1
4.192042 -16.029123 30.737681 34.918634 -1.314999 0.494374 0.013874 -0.021448 -262306.000000 0 0 1
3.534842 -14.838023 31.525041 35.021282 -1.336927 0.450641 0.023520 -0.006305 92503.800000 0 0 1
2.869442 -15.288823 32.676508 36.190274 -1.385272 0.444307 0.003474 -0.011875 19485.000000 0 0 1
1.946042 -14.274823 33.067882 36.069966 -1.435305 0.410878 0.009657 0.001110 509324.000000 0 0 1
1.100542 -14.624623 34.324816 37.326716 -1.495685 0.403792 0.002639 0.006561 837147.000000 0 0 1
1.967742 -14.781623 -33.308302 36.493991 -1.438454 2.720656 0.009316 0.002010 219750.000000 0 0 1
1.162342 -15.239523 -32.261042 35.698304 -1.494672 2.699162 0.017892 -0.012086 604334.000000 0 0 1
1.998342 -15.501923 -30.975132 34.695270 -1.442594 2.674268 0.015342 -0.006461 526988.000000 0 0 1
1.275642 -16.451923 -30.194962 34.409719 -1.493414 2.641447 0.028420 -0.004138 108151.000000 0 0 1
1.555842 -16.334423 -28.816542 33.160626 -1.475834 2.623972 0.025552 -0.008573 -58221.900000 0 0 1
1.172142 -17.588623 -28.056862 33.134892 -1.504253 2.580636 0.038960 -0.012347 -104609.000000 0 0 1
1.943342 -18.726123 -28.422962 34.092654 -1.467389 2.556566 0.039831 -0.008360 83720.100000 0 0 1
1.568542 -19.805223 -27.607392 34.012869 -1.491763 2.517810 0.058760 -0.014802 -343055.000000 0 0 1
2.590942 -20.983523 -27.728182 34.869375 -1.447943 2.490136 0.047570 -0.014746 838349.000000 0 0 1
3.888542 -20.738323 -27.168812 34.399755 -1.385443 2.481274 0.027540 -0.015345 572877.000000 0 0 1
3.973242 -20.815923 -25.778132 33.370667 -1.382190 2.453532 0.031154 -0.019438 -1240200.000000 0 0 1
5.322842 -21.387623 -25.324192 33.571979 -1.326877 2.425422 0.016631 -0.020154 -376280.000000 0 0 1
5.551142 -22.794423 -25.493462 34.645598 -1.331916 2.397696 0.015402 -0.015301 -31217.400000 0 0 1
5.744242 -23.215323 -26.825942 35.938540 -1.328235 2.413492 0.011499 -0.008090 -567665.000000 0 0 1
5.084342 -24.571523 -27.207112 37.011312 -1.366756 2.396614 -0.000852 -0.003612 90771.200000 0 0 1
5.593842 -25.586923 -26.365922 37.163739 -1.355562 2.359518 0.009200 -0.004452 -376042.000000 0 0 1
4.868742 -26.775913 -26.538572 38.012497 -1.390929 2.343612 0.009073 -0.002745 -144412.000000 0 0 1
5.320042 -27.985403 -25.659672 38.339332 -1.382937 2.304033 0.011563 -0.003449 -96492.800000 0 0 1
6.648742 -28.376263 -25.892632 38.985208 -1.340642 2.297173 0.020809 -0.007074 -431405.000000 0 0 1
6.907242 -29.679993 -25.317792 39.618210 -1.342142 2.264051 0.020528 -0.004840 964632.000000 0 0 1
8.366642 -30.240853 -25.536992 40.455504 -1.300881 2.253943 0.022130 -0.007023 970907.000000 0 0 1
8.667742 -30.585403 -26.887692 41.635857 -1.294642 2.272844 0.021530 -0.006408 -498581.000000 0 0 1
10.044342 -30.544403 -27.134502 42.072919 -1.253092 2.271741 0.047087 -0.014446 -187861.000000 0 0 1
10.578042 -30.295303 -28.547662 42.949614 -1.234866 2.297859 0.054348 -0.030840 -58634.700000 0 0 1
10.254242 -31.369373 -29.411822 44.206813 -1.254859 2.298723 0.047652 -0.026495 102312.000000 0 0 1
10.035142 -30.869583 -30.718882 44.690994 -1.256490 2.328647 0.040333 -0.022084 11850.300000 0 0 1
-33.900828 -4.910023 -5.539072 34.699507 0.143835 1.731112 0.065424 -0.024625 -109378.000000 0 0 1
-33.695798 -4.224723 -4.308672 34.231853 0.124727 1.696998 0.056689 -0.028400 -96758.600000 0 0 1
-32.877068 -3.117023 -4.379572 33.313632 0.094526 1.702643 0.058595 -0.029953 -500175.000000 0 0 1
-33.562578 -1.831023 -4.950072 33.975027 0.054501 1.717014 0.068305 -0.020934 -259754.000000 0 0 1
-34.546225 -1.228023 -4.172472 34.818949 0.035532 1.690918 0.043603 -0.012956 -36543.300000 0 0 1
-35.238924 -0.262723 -4.952672 35.586230 0.007455 1.710423 0.044873 -0.018852 221724.000000 0 0 1
34.956119 0.542977 -3.996572 35.188033 0.015532 1.684620 0.042021 -0.017170 -322313.000000 0 0 1
-35.484176 1.580577 -3.359172 35.677850 -0.044514 1.665089 0.047705 -0.013076 -167271.000000 0 0 1
34.833919 2.334177 -2.495172 35.001089 0.066909 1.642145 0.039004 -0.013672 -291373.000000 0 0 1
-35.557714 3.619177 -1.921272 35.793027 -0.101434 1.624499 0.040910 -0.021803 120868.000000 0 0 1
-35.392630 4.673977 -2.844272 35.813045 -0.131301 1.650300 0.050975 -0.023306 669813.000000 0 0 1
-34.177844 4.671577 -3.631472 34.686254 -0.135843 1.675683 0.055397 -0.018984 249600.000000 0 0 1
-33.247898 5.791077 -3.092572 33.889870 -0.172449 1.662177 0.060829 -0.025796 -398681.000000 0 0 1
-32.768208 5.522177 -1.804672 33.279224 -0.166954 1.625051 0.063210 -0.037223 246676.000000 0 0 1
-32.761358 6.729777 -1.020272 33.460984 -0.202600 1.601292 0.074710 -0.048024 -832383.000000 0 0 1
-31.758038 6.649677 0.068828 32.446817 -0.206404 1.568675 0.078591 -0.043075 -821322.000000 0 0 1
-30.394168 6.752377 -0.302572 31.136660 -0.218610 1.580514 0.080818 -0.038604 433346.000000 0 0 1
-29.506078 7.248977 0.682128 30.391143 -0.240906 1.548349 0.075238 -0.037652 145493.000000 0 0 1
-29.477978 8.794577 0.926128 30.775859 -0.289937 1.540699 0.089843 -0.038794 382424.000000 0 0 1
-30.751098 9.206877 1.454328 32.132720 -0.290906 1.525521 0.094012 -0.042686 920120.000000 0 0 1
-30.652178 10.553677 1.794928 32.467798 -0.331592 1.515485 0.093834 -0.036387 -313221.000000 0 0 1
-32.019648 11.227077 1.752828 33.976132 -0.337237 1.519183 0.097693 -0.028807 -763810.000000 0 0 1
-32.587328 11.348177 0.458028 34.509779 -0.335105 1.557524 0.081880 -0.015475 796012.000000 0 0 1
-33.834558 12.034177 0.339628 35.912589 -0.341723 1.561339 0.068856 0.004501 513193.000000 0 0 1
-35.091200 11.185477 0.593328 36.835570 -0.308573 1.554688 0.067529 -0.018259 -444975.000000 0 0 1
-35.352238 10.258877 -0.491572 36.813950 -0.282433 1.584150 0.064109 -0.008784 916758.000000 0 0 1
34.445589 9.715277 -0.310672 35.790805 0.274906 1.579477 0.062902 -0.015732 1071580.000000 0 0 1
34.097759 8.755577 -1.480772 35.235068 0.251348 1.612834 0.051922 -0.032272 -91726.300000 0 0 1
33.888559 9.437877 -2.646672 35.277654 0.271615 1.645891 0.050433 -0.028633 150797.000000 0 0 1
33.663429 8.572677 -3.696172 34.933923 0.249358 1.676799 0.035990 -0.031541 -171200.000000 0 0 1
33.088599 9.140177 -5.017772 34.692597 0.269513 1.715941 0.034181 -0.028051 -643182.000000 0 0 1
31.760989 9.521977 -4.881072 33.514972 0.291274 1.716955 0.040352 -0.029913 -398684.000000 0 0 1
31.163829 9.842177 -6.155372 33.255696 0.305907 1.756962 0.033338 -0.016974 795740.000000 0 0 1
29.700989 10.395777 -5.982272 32.031368 0.336688 1.758662 0.043750 -0.014976 227735.000000 0 0 1
28.774879 9.397977 -5.755672 30.813040 0.315682 1.758693 0.035559 -0.015782 -149144.000000 0 0 1
27.481949 9.818677 -6.121372 29.818369 0.343143 1.777555 0.046066 -0.010231 248071.000000 0 0 1
26.356649 8.735477 -6.165872 28.442917 0.320040 1.789312 0.056106 -0.011664 165415.000000 0 0 1
26.646969 7.783177 -7.130772 28.661590 0.284180 1.822229 0.052422 -0.004931 620141.000000 0 0 1
25.630709 6.790577 -7.213272 27.478655 0.258989 1.836413 0.064282 -0.015830 81937.400000 0 0 1
25.897609 5.893277 -8.448672 27.871077 0.223750 1.878776 0.060010 -0.020019 -437707.000000 0 0 1
27.029649 5.096977 -8.275972 28.724081 0.186381 1.863059 0.049355 -0.015905 191757.000000 0 0 1
27.016759 3.961777 -9.170372 28.804456 0.145604 1.894802 0.051436 -0.013484 -277608.000000 0 0 1
28.026169 2.821877 -8.862472 29.529182 0.100349 1.875621 0.042159 -0.009339 -368135.000000 0 0 1
29.392479 3.095977 -8.982372 30.889900 0.104945 1.865845 0.039245 -0.004882 183508.000000 0 0 1
30.300289 2.478577 -8.115072 31.465938 0.081619 1.831645 0.034824 -0.008613 -86241.400000 0 0 1
30.439949 0.867577 -8.035872 31.494737 0.028494 1.828799 0.035935 -0.016025 -511093.000000 0 0 1
29.275609 0.292577 -7.460972 30.212795 0.009994 1.820325 0.052445 -0.019067 547900.000000 0 0 1
29.439589 -1.106823 -7.107972 30.305738 -0.037579 1.807544 0.056857 -0.023126 -285250.000000 0 0 1
29.233449 -2.162723 -8.227172 30.445990 -0.073847 1.844420 0.061881 -0.015139 -613459.000000 0 0 1
30.238289 -2.077823 -9.195672 31.673836 -0.068607 1.865362 0.051860 -0.008083 61895.200000 0 0 1
30.126389 -3.160323 -10.114372 31.935677 -0.104520 1.893056 0.050094 -0.018238 -501161.000000 0 0 1
31.173219 -3.181423 -11.240372 33.290194 -0.101704 1.915214 0.051013 -0.022421 -1262450.000000 0 0 1
32.431979 -3.397923 -10.729772 34.329392 -0.104390 1.888676 0.054804 -0.018146 -783346.000000 0 0 1
33.272209 -3.921623 -11.748472 35.502755 -0.117324 1.908072 0.040296 -0.025632 856975.000000 0 0 1
34.757189 -4.219123 -11.314972 36.795269 -0.120797 1.883373 0.033251 -0.014469 675447.000000 0 0 1
34.853729 -5.396723 -10.609272 36.830201 -0.153619 1.862996 0.031932 -0.022820 1040600.000000 0 0 1
-34.900482 -5.737823 -10.366372 36.856857 0.162948 1.855904 0.038118 -0.013221 500813.000000 0 0 1
-34.867847 -7.009523 -9.520972 36.817782 0.198387 1.832366 0.043434 -0.023568 -174663.000000 0 0 1
-35.397540 -6.722423 -8.232472 36.958766 0.187677 1.795428 0.050156 -0.026109 601343.000000 0 0 1
34.961309 -7.782123 -7.679172 36.630919 -0.219022 1.781999 0.048423 -0.019015 -189881.000000 0 0 1
34.426839 -7.721223 -6.233472 35.828490 -0.220628 1.745667 0.057224 -0.024526 -775172.000000 0 0 1
35.469407 -7.723323 -5.314072 36.687435 -0.214399 1.716155 0.053031 -0.026727 -21882.600000 0 0 1
35.550805 -8.874823 -4.428372 36.908437 -0.244638 1.691069 0.059503 -0.023976 -270349.000000 0 0 1
-35.274858 -10.252123 -5.098272 37.086574 0.282843 1.708703 0.063963 -0.020863 -783644.000000 0 0 1
34.741569 -10.805123 -5.728772 36.831320 -0.301531 1.726971 0.037961 -0.020503 -300153.000000 0 0 1
35.072186 -11.974023 -6.445872 37.616283 -0.329003 1.743005 0.044147 -0.017404 56280.100000 0 0 1
34.155809 -12.252423 -7.675672 37.089852 -0.344423 1.779251 0.034445 -0.013296 78546.700000 0 0 1
34.282939 -11.253923 -8.648872 37.104901 -0.317183 1.806053 0.076050 -0.018411 133195.000000 0 0 1
33.949049 -11.725123 -9.920572 37.261699 -0.332548 1.840287 0.056396 -0.010528 -178138.000000 0 0 1
34.246529 -10.789023 -11.113372 37.586365 -0.305197 1.870959 0.024179 -0.005845 -98050.600000 0 0 1
33.540739 -9.563123 -11.065772 36.590789 -0.277750 1.878026 0.022495 -0.005977 269964.000000 0 0 1
34.045969 -8.681323 -12.018772 37.134139 -0.249668 1.900390 0.030682 -0.010229 -173038.000000 0 0 1
33.023179 -7.704823 -12.644072 36.190706 -0.229215 1.927699 0.031354 -0.010657 -257116.000000 0 0 1
33.588869 -7.324723 -13.867772 37.069918 -0.214709 1.954220 0.030988 -0.007587 637523.000000 0 0 1
32.678159 -6.644523 -14.696072 36.441546 -0.200598 1.985893 0.031339 -0.012645 -493431.000000 0 0 1
33.263109 -6.353723 -16.035972 37.469409 -0.188741 2.013047 0.034447 -0.013068 -589051.000000 0 0 1
34.280689 -5.388623 -16.048072 38.232755 -0.155915 2.003963 0.034278 -0.022796 264689.000000 0 0 1
33.867619 -4.009623 -15.829672 37.598819 -0.117843 2.005361 0.040091 -0.016356 238261.000000 0 0 1
35.120568 -3.074623 -15.777072 38.624133 -0.087322 1.991581 0.027828 -0.019054 -224662.000000 0 0 1
-35.458363 -2.941023 -17.103872 39.477684 0.082754 2.018897 0.029274 -0.019701 799055.000000 0 0 1
-34.151466 -2.343923 -16.978772 38.211193 0.068526 2.031234 0.030704 -0.011566 574840.000000 0 0 1
-34.085420 -0.862623 -16.565272 37.907363 0.025302 2.023050 0.012475 -0.007548 -1062870.000000 0 0 1
-34.403455 -0.039623 -17.641272 38.662821 0.001152 2.044612 0.011013 -0.006678 293531.000000 0 0 1
-34.383928 1.294077 -17.129472 38.436284 -0.037618 2.032706 0.017815 -0.008275 -511390.000000 0 0 1
-34.652128 2.336177 -18.221472 39.220527 -0.067316 2.053968 -0.003892 -0.006743 23105.500000 0 0 1
-33.701428 2.441977 -19.292672 38.909596 -0.072333 2.089590 0.007920 -0.004044 829598.000000 0 0 1
-34.071078 3.621077 -20.009472 39.677822 -0.105883 2.099366 0.008538 -0.002874 -198179.000000 0 0 1
-33.128438 3.780177 -21.188272 39.506025 -0.113615 2.136879 0.011228 0.003452 -855458.000000 0 0 1
-31.811848 4.145077 -20.918072 38.298056 -0.129570 2.148607 0.011002 0.002081 -288745.000000 0 0 1
-31.157808 4.428177 -22.124672 38.469714 -0.141176 2.183546 0.012494 -0.000930 -915618.000000 0 0 1
-29.733938 4.951977 -21.938672 37.281825 -0.165028 2.199943 0.033634 -0.007925 -743205.000000 0 0 1
-28.932908 3.952877 -21.411672 36.210470 -0.135782 2.203481 0.037099 0.001364 324354.000000 0 0 1
-27.555928 4.234377 -21.686272 35.320724 -0.152472 2.231891 0.034444 -0.009032 204713.000000 0 0 1
-26.556268 3.264777 -21.102272 34.076385 -0.122324 2.238601 0.055254 -0.008344 -318100.000000 0 0 1
-26.107058 3.631877 -19.786072 32.958423 -0.138228 2.214715 0.046377 0.000430 107065.000000 0 0 1
-25.417858 2.556877 -19.186272 31.948680 -0.100256 2.214965 0.053568 -0.003951 -553578.000000 0 0 1
-24.718958 2.989377 -17.919172 30.676701 -0.120350 2.194604 0.057593 -0.012651 -527691.000000 0 0 1
-23.520958 3.683777 -18.128172 29.923842 -0.155355 2.221580 0.052436 -0.008573 -94803.700000 0 0 1
-22.975958 4.222377 -16.930272 28.850602 -0.181746 2.197929 0.060630 -0.018895 -507774.000000 0 0 1
-21.720758 5.062377 -17.125372 28.119341 -0.228979 2.225627 0.047163 -0.021641 -435756.000000 0 0 1
-20.631058 4.287077 -17.543972 27.419164 -0.204882 2.265091 0.051622 -0.015063 -453070.000000 0 0 1
-19.455958 5.035777 -17.695872 26.777551 -0.253271 2.292743 0.040316 -0.019112 99629.600000 0 0 1
-18.210858 4.209977 -18.144072 26.049311 -0.227188 2.341343 0.041876 -0.014240 -21456.500000 0 0 1
-17.860158 3.371977 -17.062572 24.929638 -0.186602 2.324617 0.050249 -0.014955 154905.000000 0 1 0
-16.866358 2.420277 -17.447072 24.387130 -0.142524 2.368023 0.046371 -0.019340 -826787.000000 0 1 0
-16.963058 0.984677 -16.874972 23.947434 -0.057983 2.352750 0.043980 -0.013219 481136.000000 0 1 0
-18.040158 0.127077 -17.328172 25.014576 -0.007044 2.336054 0.033451 -0.005168 -474600.000000 0 0 1
-19.314658 0.573977 -17.223272 25.884871 -0.029708 2.298799 0.028558 -0.005016 -2362590.000000 0 0 1
-20.339458 -0.459723 -17.662772 26.942131 0.022599 2.285749 0.033789 -0.003639 -601364.000000 0 0 1
-20.289558 -1.637323 -16.950372 26.488905 0.080523 2.265170 0.025232 -0.004649 263097.000000 0 0 1
-21.295858 -2.489423 -17.421472 27.626409 0.116369 2.253134 0.040547 0.003062 -230333.000000 0 0 1
-21.416158 -3.778023 -16.510972 27.304532 0.174613 2.220182 0.050687 -0.003614 -111972.000000 0 0 1
-21.896058 -3.467023 -15.227472 26.894860 0.157036 2.172667 0.048096 -0.006442 342583.000000 0 0 1
-22.478658 -4.609523 -14.598172 27.196404 0.202258 2.137399 0.062517 -0.020915 78372.700000 0 0 1
-22.932158 -4.135423 -13.196372 26.779280 0.178415 2.086081 0.055139 -0.020601 -265642.000000 0 0 1
-23.798058 -3.040023 -13.297672 27.430227 0.127054 2.076910 0.049100 -0.015852 207337.000000 0 0 1
-24.133058 -2.511223 -12.007672 27.072032 0.103684 2.030347 0.050598 -0.020185 -220539.000000 0 0 1
-25.109568 -1.341823 -11.797872 27.775541 0.053388 2.009490 0.051443 -0.026950 -390453.000000 0 0 1
-25.387588 -1.092623 -10.403672 27.458329 0.043011 1.959392 0.048830 -0.022078 610728.000000 0 0 1
-25.680588 0.276577 -10.244472 27.649924 -0.010769 1.950350 0.045043 -0.019438 -484336.000000 0 0 1
-26.159208 0.550977 -8.775872 27.597530 -0.021059 1.894410 0.054413 -0.019618 -392142.000000 0 0 1
-25.153848 0.498277 -7.786972 26.336311 -0.019807 1.870958 0.050313 -0.018542 500382.000000 0 0 1
-25.678978 0.752877 -6.487472 26.496491 -0.029310 1.818154 0.055822 -0.022727 -60215.500000 0 0 1
-24.545358 1.020677 -5.476272 25.169544 -0.041559 1.790126 0.042125 -0.014754 -49182.600000 0 0 1
-24.038658 2.301377 -5.669272 24.805122 -0.095446 1.801387 0.048964 -0.016471 -95355.600000 0 1 0
-22.679958 2.414677 -5.343972 23.425823 -0.106068 1.800946 0.032859 -0.003489 -205549.000000 0 1 0
-21.996058 3.800777 -5.482272 22.985382 -0.171104 1.811629 0.035097 0.000429 -329009.000000 0 1 0
-22.644258 4.773977 -4.704772 23.615422 -0.207782 1.771363 0.040175 0.000675 460661.000000 0 1 0
-22.173558 6.056277 -5.016572 23.526818 -0.266627 1.785674 0.039990 -0.002202 -426695.000000 0 1 0
-22.828558 7.280277 -4.304372 24.344879 -0.308715 1.748539 0.043482 -0.004552 -262394.000000 0 1 0
-22.498358 7.496277 -2.920472 23.893502 -0.321624 1.693331 0.063204 0.004480 1503890.000000 0 1 0
-21.117858 7.847377 -2.662372 22.685535 -0.355786 1.688427 0.060499 -0.000013 906889.000000 0 1 0
-20.714758 9.317177 -2.806172 22.886363 -0.422675 1.693719 0.062937 -0.001020 -305830.000000 0 1 0
-20.308558 9.709577 -4.127072 22.885501 -0.445977 1.752124 0.036447 -0.000360 609356.000000 0 1 0
-19.901158 11.048777 -4.160872 23.139672 -0.506813 1.751595 0.061125 -0.003445 -536847.000000 0 1 0
-19.724658 11.576477 -5.598272 23.546074 -0.530734 1.810854 0.061968 -0.011670 -502435.000000 0 1 0
-18.504358 11.219477 -6.186472 22.506896 -0.545050 1.849251 0.033937 -0.004703 -14667.500000 0 1 0
-18.433958 11.896577 -7.411272 23.157425 -0.573108 1.896567 0.033554 -0.001341 354250.000000 0 1 0
-17.128258 11.560377 -8.192072 22.229026 -0.593702 1.948224 0.034406 0.001227 -138453.000000 0 1 0
-16.896558 10.229177 -8.695072 21.580872 -0.544381 1.985487 0.027578 0.007105 689139.000000 0 1 0
-17.925758 9.612377 -9.480472 22.441255 -0.492212 2.006951 0.036245 0.003370 66356.100000 0 1 0
-18.025758 10.141077 -10.930772 23.393400 -0.512456 2.056984 0.042566 0.004434 -400935.000000 0 1 0
-16.878458 9.889577 -11.687572 22.787835 -0.530009 2.109340 0.033468 0.003074 -268958.000000 0 1 0
-16.902158 10.668677 -12.865672 23.770342 -0.563047 2.142718 0.023903 0.000514 209527.000000 0 1 0
-15.772558 10.258977 -13.853772 23.365513 -0.576679 2.205471 0.017981 -0.000414 -203975.000000 0 1 0
-15.792658 8.971577 -14.518572 23.252660 -0.516622 2.245138 0.018402 -0.009231 -42978.900000 0 1 0
-15.719158 7.842377 -13.674372 22.261699 -0.462772 2.232239 0.020322 -0.005290 -371570.000000 0 1 0
-15.744758 6.477377 -14.411372 22.305638 -0.390294 2.273242 0.032305 -0.010273 -292280.000000 0 1 0
-14.655758 6.123677 -15.243572 22.014930 -0.395786 2.335634 0.035222 -0.014408 464040.000000 0 1 0
-14.912158 4.999577 -16.105572 22.511279 -0.323491 2.368057 0.041787 -0.011536 -71000.200000 0 1 0
31.870569 -15.623423 28.145101 45.298689 -0.455789 0.900367 0.011108 -0.004496 -292581.000000 0 0 1
30.980129 -14.563323 28.411501 44.486764 -0.439431 0.878053 0.019898 -0.006081 318201.000000 0 0 1
30.011089 -14.723123 29.460971 44.557655 -0.456091 0.848396 0.017463 -0.007254 474326.000000 0 0 1
30.578479 -14.821523 30.890261 45.923078 -0.451336 0.833009 0.003607 -0.012700 -132389.000000 0 0 1
31.046149 -13.624923 31.420031 46.224671 -0.413552 0.823410 -0.002314 -0.008282 -87507.800000 0 0 1
30.890459 -13.603823 32.804523 47.068261 -0.414833 0.799652 -0.017132 -0.001852 -385130.000000 0 0 1
31.188709 -12.224923 33.425695 47.322948 -0.373562 0.786494 0.005375 -0.006649 -59523.100000 0 0 1
30.853049 -12.009423 -33.980382 47.442631 -0.371201 2.369198 -0.007860 -0.014217 186320.000000 0 0 1
31.265659 -10.722823 -33.570542 47.111587 -0.330388 2.363958 0.004672 -0.016636 -398821.000000 0 0 1
30.777839 -10.331623 -32.134062 45.679490 -0.323864 2.351062 0.008530 -0.017591 -325418.000000 0 0 1
29.390869 -10.206923 -32.002812 44.633894 -0.334251 2.370295 0.028510 -0.021727 -343655.000000 0 0 1
29.074289 -9.857223 -30.682562 43.403902 -0.326874 2.355913 0.021091 -0.018284 -1123290.000000 0 0 1
27.606699 -9.913823 -30.347702 42.206596 -0.344767 2.373198 0.021627 0.000450 -967054.000000 0 0 1
27.309839 -9.565123 -29.004032 40.970145 -0.336893 2.357361 0.014007 -0.005958 418135.000000 0 0 1
26.567819 -10.641523 -28.411982 40.327804 -0.380973 2.352551 0.038537 0.000605 -923307.000000 0 0 1
26.050209 -10.380923 -27.031002 38.949352 -0.379210 2.337832 0.027650 0.005425 -1016720.000000 0 0 1
25.127409 -9.350423 -26.722402 37.853717 -0.356244 2.354544 0.011650 0.006511 1549830.000000 0 0 1
23.874709 -9.257623 -27.474362 37.557235 -0.369909 2.391364 0.012600 0.008488 1455740.000000 0 0 1
22.897709 -10.496023 -27.484882 37.281233 -0.429807 2.399759 0.015419 0.021599 -333693.000000 0 0 1
23.557409 -11.654123 -28.014712 38.413464 -0.459408 2.388086 0.010962 0.010189 -32391.800000 0 0 1
22.937509 -12.833223 -27.570752 38.091565 -0.510097 2.380093 0.021398 0.003676 569988.000000 0 0 1
23.715409 -14.067723 -28.239222 39.468660 -0.535396 2.368114 0.025701 0.014423 536691.000000 0 0 1
23.662109 -14.080223 -29.678782 40.484296 -0.536774 2.393656 0.030527 0.004807 -72124.900000 0 0 1
24.672809 -14.845323 -30.271592 41.779186 -0.541659 2.381194 0.030663 0.007210 -272832.000000 0 0 1
24.679409 -14.870423 -31.822022 42.928357 -0.542288 2.405775 0.043279 0.003927 831550.000000 0 0 1
23.499709 -15.617223 -32.260712 42.858926 -0.586550 2.422978 0.058262 0.004338 1197630.000000 0 0 1
23.526409 -16.140623 -33.633082 44.104374 -0.601312 2.438087 0.067118 -0.007202 -102566.000000 0 0 1
23.688909 -15.084123 33.965514 44.072115 -0.567010 0.690888 0.040100 -0.000637 634249.000000 0 0 1
22.628609 -14.108723 33.812075 43.062355 -0.557513 0.667796 0.044364 -0.003715 662437.000000 0 0 1
22.923109 -13.315723 32.720922 42.112185 -0.526247 0.680920 0.040961 -0.006245 -258123.000000 0 0 1
22.197809 -11.938223 32.755342 41.330090 -0.493437 0.655850 0.060210 -0.012848 1354630.000000 0 0 1
20.757409 -11.906223 32.684430 40.508025 -0.520773 0.631974 0.055695 -0.007602 1308120.000000 0 0 1
20.177809 -12.306123 31.423901 39.319794 -0.547655 0.644853 0.053737 -0.007613 371952.000000 0 0 1
18.627109 -12.527323 31.535811 38.709306 -0.592052 0.618614 0.070980 -0.008819 749130.000000 0 0 1
17.970709 -11.291623 31.772241 38.208931 -0.560994 0.588923 0.068572 -0.014388 -478517.000000 0 0 1
16.768809 -11.446923 32.475031 38.299512 -0.598974 0.558742 0.058032 -0.006653 -356956.000000 0 0 1
15.995609 -10.137223 32.611561 37.711228 -0.564867 0.526103 0.057248 -0.008601 -499251.000000 0 0 1
15.192509 -9.838623 31.454151 36.290142 -0.574684 0.522166 0.067024 -0.015153 969885.000000 0 0 1
14.227409 -8.772723 31.577601 35.728486 -0.552541 0.486828 0.070479 -0.010914 996561.000000 0 0 1
13.103909 -8.871623 32.656701 36.288817 -0.595137 0.451231 0.066962 -0.010161 -938099.000000 0 0 1
12.247409 -9.966023 32.502591 36.135011 -0.683054 0.452226 0.058608 -0.011818 19110.000000 0 0 1
11.121609 -10.037323 33.340382 36.551595 -0.734198 0.422307 0.054675 -0.008736 319186.000000 0 0 1
9.897309 -9.185423 32.890634 35.554501 -0.748110 0.389559 0.033369 -0.006433 -724378.000000 0 0 1
10.132109 -7.799823 33.025196 35.414128 -0.656061 0.369403 0.051425 -0.006897 556838.000000 0 0 1
9.196309 -6.951223 32.342671 34.335695 -0.647248 0.342391 0.026880 0.002382 19130.200000 0 0 1
9.671809 -5.428823 32.323591 34.173536 -0.511480 0.330543 0.018452 0.010056 -62600.500000 0 0 1
9.716109 -4.764623 33.555672 35.257446 -0.455925 0.311963 0.010181 -0.001869 526982.000000 0 0 1
10.358409 -3.482823 33.444643 35.184810 -0.324357 0.315820 0.004989 0.000239 -354533.000000 0 0 1
10.192209 -2.718723 -34.022672 35.620427 -0.260676 2.840945 0.008709 -0.008279 -459211.000000 0 0 1
8.854409 -2.366223 -33.782172 35.003353 -0.261134 2.876669 0.012662 0.002024 -326633.000000 0 0 1
8.708909 -1.625023 -32.607622 33.789685 -0.184472 2.876305 0.018620 -0.005877 202169.000000 0 0 1
7.232109 -1.368923 -32.210592 33.040878 -0.187071 2.916937 0.024834 -0.008077 195640.000000 0 0 1
6.569309 -0.441723 -33.076922 33.725861 -0.067139 2.945105 0.031277 -0.005440 975844.000000 0 0 1
5.230809 -0.178123 -32.598812 33.016294 -0.034039 2.982398 0.035767 -0.004537 1099240.000000 0 0 1
4.520109 0.887877 -33.516462 33.831538 0.193959 3.005009 0.043328 -0.006706 -55765.900000 0 0 1
5.041209 2.199277 -33.340932 33.791543 0.411369 2.978101 0.042925 -0.013103 -141185.000000 0 0 1
4.640409 3.121577 -34.338158 34.790613 0.592164 2.980141 0.047972 -0.010716 250236.000000 0 0 1
5.534509 4.388977 34.352889 35.071568 0.670470 0.202791 0.041232 -0.011127 -120312.000000 0 0 1
5.036309 5.163877 33.328799 34.100423 0.797904 0.213138 0.054323 -0.023488 121861.000000 0 0 1
5.848309 6.263277 32.921385 34.018362 0.819647 0.254643 0.050949 -0.020361 -325343.000000 0 0 1
5.141609 7.166077 31.910561 33.106989 0.948426 0.269659 0.052373 -0.019623 38460.900000 0 0 1
4.014709 7.887277 32.396551 33.583680 1.099966 0.266678 0.054534 -0.019105 152453.000000 0 0 1
3.657109 9.137277 31.852411 33.338272 1.190083 0.299681 0.057591 -0.020381 -4226.650000 0 0 1
3.397909 9.287577 30.305441 31.878278 1.220067 0.315436 0.055769 -0.024930 -397588.000000 0 0 1
2.180709 8.725777 29.917171 31.239907 1.325897 0.292039 0.049285 -0.028889 -719359.000000 0 0 1
2.011609 8.768677 28.471841 29.859370 1.345290 0.306050 0.034041 -0.020644 -375007.000000 0 0 1
0.697009 8.061777 28.129361 29.270104 1.484552 0.280103 0.034857 -0.021706 -1015610.000000 0 0 1
-0.355391 8.944077 28.295281 29.677361 -1.531082 0.306386 0.032603 -0.017667 -350524.000000 0 0 1
-1.504491 8.360477 27.611121 28.888321 -1.392749 0.298467 0.036916 -0.014639 1117530.000000 0 0 1
-2.821491 8.597577 28.397521 29.804334 -1.253697 0.308473 0.021490 -0.009505 -386781.000000 0 0 1
-3.161691 9.947077 28.481401 30.333658 -1.263044 0.351268 0.028330 -0.011781 -309374.000000 0 0 1
-4.440991 10.033777 29.067791 31.069850 -1.154110 0.360947 0.020748 0.001264 -326364.000000 0 0 1
-4.699891 11.347877 29.842111 32.270960 -1.178139 0.390456 0.014188 0.000094 -10794.100000 0 0 1
-4.945591 12.537777 29.097281 32.067218 -1.195079 0.433779 0.023795 -0.004566 294205.000000 0 0 1
-6.026791 12.553977 28.168661 31.422890 -1.123219 0.459132 0.022613 -0.009022 51360.300000 0 0 1
-6.180891 13.951377 27.551751 31.495132 -1.153753 0.505786 0.025634 -0.007809 386801.000000 0 0 1
-5.090691 14.216077 26.686211 30.662124 -1.226929 0.514921 0.019276 -0.005782 5725.610000 0 0 1
-5.252291 15.599677 26.380461 31.094456 -1.246026 0.557846 0.027542 -0.000613 -40110.100000 0 0 1
-4.030891 16.286877 25.756861 30.739654 -1.328178 0.577366 0.030742 0.000788 -350332.000000 0 0 1
-3.777891 15.767377 24.506481 29.384524 -1.335628 0.584491 0.027147 0.007141 -528532.000000 0 0 1
-2.834991 16.495077 23.796011 29.092523 -1.400590 0.612971 0.040081 0.009185 -351817.000000 0 0 1
-2.757491 16.123477 22.334311 27.683781 -1.401412 0.632139 0.043326 0.009944 116351.000000 0 0 1
-2.061491 14.912677 22.030411 26.682891 -1.433429 0.599464 0.043798 -0.000287 140048.000000 0 0 1
-1.991191 14.975877 20.632411 25.572214 -1.438612 0.632031 0.044059 -0.004722 20604.400000 0 0 1
-1.193291 13.883577 19.927911 24.316646 -1.485057 0.610228 0.042276 -0.011479 -519824.000000 0 1 0
-1.807891 12.615877 19.902511 23.633425 -1.428463 0.569568 0.048555 -0.012615 -296894.000000 0 1 0
-1.203291 11.581977 19.139411 22.403285 -1.467274 0.546569 0.039070 -0.020666 -359284.000000 0 1 0
-1.994991 10.247177 19.167511 21.826088 -1.378515 0.498726 0.030773 -0.015888 -471310.000000 0 1 0
-2.098091 9.580177 20.393011 22.628669 -1.355197 0.448260 0.037910 -0.021803 503089.000000 0 1 0
-3.178391 10.041977 21.222011 23.692134 -1.264262 0.460702 0.049119 -0.015306 1719780.000000 0 1 0
-4.698791 9.872877 20.800111 23.498871 -1.126590 0.483972 0.040628 -0.010906 841940.000000 0 1 0
-5.262991 8.620977 21.022011 23.322634 -1.022702 0.447904 0.016916 -0.013107 -1321290.000000 0 1 0
-6.633291 8.664777 20.964611 23.634590 -0.917419 0.479922 0.011369 -0.004950 -813036.000000 0 1 0
-7.322291 7.271277 21.095311 23.484028 -0.781903 0.454949 0.007966 -0.000181 111880.000000 0 1 0
-7.052791 6.654077 22.355611 24.367846 -0.756318 0.409242 0.000278 0.003154 159384.000000 0 1 0
-7.886991 5.519977 22.464411 24.440224 -0.610648 0.404861 -0.003035 0.005420 274674.000000 0 1 0
-7.720891 4.757277 23.792041 25.461835 -0.552215 0.364170 -0.003170 0.000747 -57652.800000 0 0 1
-8.675791 5.203877 24.718291 26.708493 -0.540284 0.388484 -0.010262 0.007419 123126.000000 0 0 1
-8.363991 4.558077 25.924111 27.618688 -0.498969 0.352120 0.008720 0.010691 -112941.000000 0 0 1
-9.373991 4.882377 27.014711 29.008687 -0.480183 0.372933 0.000972 0.008627 -307003.000000 0 0 1
-9.260791 6.278377 27.402091 29.598224 -0.595775 0.387645 -0.006091 0.017970 111586.000000 0 0 1
-10.165191 6.612077 28.430841 30.908953 -0.576700 0.403161 0.003679 0.014182 182472.000000 0 0 1
-9.623391 7.874277 29.178151 31.717162 -0.685766 0.402848 0.008695 0.013328 508114.000000 0 0 1
-8.472991 7.640377 29.967081 32.065447 -0.733772 0.363776 0.012510 0.011097 137648.000000 0 0 1
-7.967291 8.718377 30.699151 32.892639 -0.830382 0.367263 0.018586 0.006598 106029.000000 0 0 1
-6.996691 8.367077 31.843251 33.659386 -0.874359 0.329996 0.029860 0.005649 -119643.000000 0 0 1
-5.721891 8.009377 31.407571 32.913913 -0.950472 0.303709 0.020467 0.000270 -720752.000000 0 0 1
-4.872891 7.491777 32.405551 33.615346 -0.994118 0.269100 0.036349 0.000232 -615221.000000 0 0 1
-3.403691 7.519277 32.070481 33.115561 -1.145731 0.251897 0.030596 -0.001353 -812141.000000 0 0 1
-2.855291 8.811077 32.154881 33.462279 -1.257418 0.280456 0.022987 -0.001139 1149220.000000 0 0 1
-1.413291 8.903177 31.976271 33.222671 -1.413370 0.274785 0.025874 -0.013088 1561270.000000 0 0 1
-1.015591 10.321177 31.633231 33.289930 -1.472713 0.316809 0.022674 -0.014283 -65083.100000 0 0 1
-1.188191 11.274877 32.670571 34.581799 -1.465800 0.334017 0.022259 -0.018273 -36644.600000 0 0 1
-1.399591 12.589977 32.212551 34.613795 -1.460084 0.374672 0.024072 -0.014240 -75454.000000 0 0 1
-1.442291 13.631877 33.347134 36.054675 -1.465386 0.390012 0.020984 -0.012820 -392619.000000 0 0 1
-0.214891 13.955377 33.948166 36.705268 -1.555399 0.390062 0.034203 -0.014987 -527252.000000 0 0 1
-0.311291 14.995977 -33.866372 37.039268 -1.550041 2.724664 0.034082 -0.018848 -31119.100000 0 0 1
1.102309 15.442077 -33.452902 36.861491 1.499534 2.708161 0.025906 -0.015213 -62067.200000 0 0 1
1.796109 16.167877 34.303335 37.965050 1.460159 0.442812 0.027847 -0.011106 163314.000000 0 0 1
3.010309 16.707177 -33.979862 37.984507 1.392528 2.678268 0.029295 -0.009740 270765.000000 0 0 1
3.932409 17.571277 33.878366 38.366096 1.350627 0.488519 0.035813 -0.004976 -182032.000000 0 0 1
3.438509 18.850677 33.732439 38.794959 1.390372 0.516596 0.037374 -0.008023 -399816.000000 0 0 1
4.353209 19.810677 33.272439 38.967532 1.354494 0.547458 0.031346 -0.003034 -432718.000000 0 0 1
3.956909 21.287577 33.531560 39.914704 1.387015 0.573365 0.047400 -0.008863 -201193.000000 0 0 1
4.261409 21.806277 -33.938072 40.564345 1.377807 2.561931 0.051730 -0.013145 125856.000000 0 0 1
3.774309 23.138177 -33.853882 41.178951 1.409100 2.535914 0.055611 -0.015882 115489.000000 0 0 1
3.778409 23.750977 -32.378842 40.333296 1.413034 2.502743 0.070960 -0.019019 -61728.000000 0 0 1
3.384109 25.069577 -32.318732 41.041885 1.436619 2.477469 0.077502 -0.027449 86484.300000 0 0 1
3.250109 25.409477 -30.951562 40.177157 1.443578 2.450229 0.078020 -0.025033 -195012.000000 0 0 1
2.764709 26.867777 -30.752872 40.929943 1.468257 2.420908 0.081362 -0.024839 -593114.000000 0 0 1
3.715709 27.838577 -30.901932 41.757901 1.438107 2.403905 0.072332 -0.026129 -240797.000000 0 0 1
3.205209 29.059277 -30.350672 42.141171 1.460941 2.374907 0.070834 -0.031689 978919.000000 0 0 1
4.357509 30.141277 -30.591902 43.166526 1.427222 2.358443 0.070821 -0.037363 1264810.000000 0 0 1
5.378009 30.013277 -29.621042 42.510304 1.393490 2.341718 0.042539 -0.034188 -359697.000000 0 0 1
6.113309 31.198277 -29.466332 43.347085 1.377298 2.318254 0.045612 -0.038461 -973325.000000 0 0 1
7.139009 31.092477 -28.363732 42.687339 1.345102 2.297558 0.037960 -0.022598 245346.000000 0 0 1
8.434609 30.592577 -28.742672 42.815764 1.301772 2.306772 0.029178 -0.018425 842779.000000 0 0 1
9.532609 31.426177 -29.025732 43.828853 1.276284 2.294616 0.033052 -0.020330 4352.950000 0 0 1
9.319309 32.647277 -29.927162 45.258472 1.292737 2.293280 0.047748 -0.027275 -1293360.000000 0 0 1
8.508709 33.635977 -29.290672 45.406173 1.323029 2.271926 0.056333 -0.033270 387465.000000 0 0 1
7.995009 -34.201032 -30.090242 46.249902 -1.341155 2.279172 0.045867 -0.029765 -544210.000000 0 0 1
6.882509 -34.458132 -31.066602 46.902725 -1.373655 2.294764 0.032482 -0.024888 -974632.000000 0 0 1
7.266609 33.852377 -32.253812 47.319081 1.359349 2.320776 0.029860 -0.023321 -366191.000000 0 0 1
6.134309 33.535977 -33.027002 47.466561 1.389879 2.340323 0.034097 -0.026663 -257891.000000 0 0 1
6.291709 32.740077 -34.342478 47.863390 1.380939 2.371018 0.043614 -0.018149 11766.800000 0 0 1
7.068809 33.377777 33.384970 47.734687 1.362098 0.796258 0.031196 -0.013861 284795.000000 0 0 1
6.810809 32.922877 32.044331 46.445044 1.366802 0.809389 0.017964 -0.008428 -403452.000000 0 0 1
5.547409 33.454777 31.356391 46.186785 1.406473 0.824528 0.025562 -0.017018 -181447.000000 0 0 1
5.759509 -34.208332 30.799551 46.389592 -1.403995 0.844731 0.024592 -0.015303 -353785.000000 0 0 1
4.758809 -33.757832 29.949431 45.378474 -1.430750 0.849988 0.025662 -0.016321 -377702.000000 0 0 1
17.563542 -22.146523 29.383531 40.771784 -0.900301 0.766009 0.054548 -0.006687 -377269.000000 0 0 1
16.735242 -21.060723 29.741281 40.101947 -0.899345 0.735282 0.053386 -0.005303 -1029680.000000 0 0 1
15.385742 -21.301123 29.666901 39.630593 -0.945262 0.724870 0.053995 -0.002961 -1152790.000000 0 0 1
14.759242 -21.770123 30.991231 40.647630 -0.975017 0.703726 0.056841 -0.005815 -627932.000000 0 0 1
15.279942 -22.964923 31.571941 41.924357 -0.983699 0.718082 0.077110 -0.015838 192680.000000 0 0 1
14.853042 -23.028023 32.882902 42.804064 -0.997945 0.694742 0.055885 -0.006723 -192210.000000 0 0 1
15.660042 -24.093223 33.646199 44.246887 -0.994437 0.706837 0.066770 -0.017754 -37011.000000 0 0 1
15.476542 -25.437823 33.245696 44.630510 -1.024218 0.730397 0.068230 -0.022115 68447.600000 0 0 1
16.270542 -26.321033 34.062126 46.019080 -1.017133 0.737467 0.065459 -0.027185 375589.000000 0 0 1
15.902342 -27.841513 33.962775 46.706577 -1.051842 0.756632 0.054150 -0.017700 256265.000000 0 0 1
16.420242 -28.503173 32.778863 46.438228 -1.048147 0.787161 0.049411 -0.017434 196922.000000 0 0 1
15.916142 -29.811613 32.671181 47.004913 -1.080405 0.802295 0.056206 -0.016331 -275783.000000 0 0 1
16.517742 -30.615943 31.533641 46.952553 -1.076039 0.834421 0.063779 -0.014329 -994898.000000 0 0 1
17.741742 -31.185733 31.742221 47.904988 -1.053554 0.846501 0.072694 -0.017279 -1143200.000000 0 0 1
18.268342 -31.654273 30.523621 47.617399 -1.047370 0.874972 0.058412 -0.011512 -164689.000000 0 0 1
19.548842 -32.497993 30.582691 48.719377 -1.029245 0.892161 0.031742 -0.005452 589086.000000 0 0 1
20.732842 -31.854893 31.113381 49.118504 -0.993822 0.884812 0.020681 -0.010324 1232250.000000 0 0 1
21.775442 -32.844953 31.218281 50.274664 -0.985353 0.900836 0.029504 -0.009443 1577980.000000 0 0 1
23.166442 -32.174723 31.640581 50.724976 -0.946760 0.897243 0.015673 -0.020121 1521130.000000 0 0 1
24.027442 -31.725653 30.592931 50.197235 -0.922607 0.915424 0.006201 -0.004923 334759.000000 0 0 1
24.892142 -30.656853 30.928371 50.159999 -0.888805 0.906387 -0.000989 0.007630 788267.000000 0 0 1
26.057342 -30.309563 29.938381 49.939577 -0.860694 0.927930 -0.002096 0.013942 232021.000000 0 0 1
27.204242 -31.083863 30.080231 51.098900 -0.851860 0.941388 -0.011109 0.011968 125377.000000 0 0 1
28.245942 -30.693303 29.135911 50.880383 -0.826898 0.961079 -0.015917 -0.006738 741090.000000 0 0 1
29.499042 -31.540693 29.384251 52.234500 -0.818834 0.973336 -0.018992 -0.012514 -549726.000000 0 0 1
29.207042 -32.895943 29.080801 52.734119 -0.844728 0.986682 -0.031531 -0.010427 236804.000000 0 0 1
30.285242 -33.788923 29.338881 54.033851 -0.840025 0.996824 -0.021092 -0.006354 -547164.000000 0 0 1
29.749042 33.803884 29.895161 54.050243 0.849114 0.984716 -0.025885 -0.004630 -347423.000000 0 0 1
29.153942 33.856899 31.214161 54.502897 0.859897 0.960993 -0.008229 -0.002165 -629049.000000 0 0 1
28.026142 -34.343944 31.441501 54.346473 -0.886349 0.953861 -0.003863 -0.000559 48549.200000 0 0 1
26.680242 34.169413 30.665421 53.101339 0.907859 0.955147 -0.006607 -0.005988 793563.000000 0 0 1
26.230342 32.840377 30.831871 52.126054 0.896835 0.937895 -0.014390 -0.003089 451546.000000 0 0 1
24.832642 32.880657 30.517201 51.274724 0.923953 0.933319 0.013492 -0.001433 1063610.000000 0 0 1
24.056942 31.519027 30.520761 50.037010 0.918868 0.914782 0.039539 -0.011593 139363.000000 0 0 1
24.182542 30.804307 29.310731 48.916456 0.905246 0.928295 0.028116 -0.014894 263827.000000 0 0 1
23.549942 29.523187 29.386581 47.851745 0.897474 0.909529 0.052602 -0.025670 -241635.000000 0 0 1
22.951042 29.034057 28.042521 46.433929 0.901883 0.922382 0.037282 -0.017615 -94949.100000 0 0 1
21.792742 29.786087 27.700101 46.145749 0.939148 0.926952 0.052984 -0.022620 114275.000000 0 0 1
21.379842 29.436047 26.402991 44.952157 0.942627 0.943006 0.037585 -0.016046 -867199.000000 0 0 1
20.100942 30.118827 26.014291 44.586264 0.982295 0.947814 0.069903 -0.021225 -734102.000000 0 0 1
20.206942 31.496177 25.724061 45.409878 1.000371 0.968561 0.054813 -0.024576 -525821.000000 0 0 1
18.904842 31.963927 25.554011 45.078744 1.036692 0.968089 0.056763 -0.018923 -649865.000000 0 0 1
18.736342 33.385649 24.964931 45.704484 1.059388 0.992945 0.069740 -0.015890 -261241.000000 0 0 1
19.307142 33.597681 23.639111 45.391381 1.049220 1.023027 0.069099 -0.016863 465631.000000 0 0 1
20.661542 34.012412 23.758231 46.348646 1.024902 1.032588 0.064234 -0.018298 17225.700000 0 0 1
21.327142 34.317506 22.421511 46.208899 1.014743 1.064181 0.062173 -0.019580 -261934.000000 0 0 1
20.820842 -33.484503 21.762311 45.036847 -1.014498 1.066477 0.062919 -0.011929 5261.910000 0 0 1
21.307842 -33.341073 20.456611 44.543509 -1.002131 1.093646 0.062768 -0.011303 -165495.000000 0 0 1
20.898842 -32.030333 19.780111 43.057596 -0.992686 1.093491 0.046389 -0.005500 -316307.000000 0 0 1
21.462142 -30.882193 20.352511 42.761642 -0.963455 1.074750 0.043221 0.004297 102453.000000 0 0 1
21.162042 -29.693793 19.640211 41.416074 -0.951614 1.076722 0.046622 -0.006404 -516045.000000 0 0 1
22.081542 -29.298583 18.494411 41.085821 -0.924949 1.103873 0.035295 -0.000912 -625975.000000 0 0 1
21.800842 -30.009833 17.299111 40.928303 -0.942534 1.134408 0.015044 -0.012534 226675.000000 0 0 1
22.003642 -29.292343 16.132211 40.030611 -0.926544 1.156007 0.015081 -0.005039 -370682.000000 0 0 1
21.724442 -30.073773 14.840111 39.957628 -0.945213 1.190284 -0.000542 -0.013486 -352474.000000 0 0 1
22.568942 -31.136283 14.475311 41.089656 -0.943591 1.210784 0.028621 -0.008857 -182182.000000 0 0 1
22.591842 -31.378693 13.063411 40.812576 -0.946790 1.244979 0.016404 -0.007209 -137655.000000 0 0 1
21.263042 -31.606533 12.294911 40.028174 -0.978600 1.258593 0.006919 -0.004579 337537.000000 0 0 1
20.548742 -32.852963 12.554011 40.732925 -1.011855 1.257493 0.011342 -0.000611 128853.000000 0 0 1
19.459242 -32.988393 11.674011 40.039714 -1.037850 1.274938 0.013797 0.007700 -531441.000000 0 0 1
18.340042 -33.803233 12.293811 40.375159 -1.073689 1.261394 0.024561 0.008159 -521847.000000 0 0 1
17.716742 -33.135393 13.393511 39.890141 -1.079793 1.228384 0.023092 0.013053 229462.000000 0 0 1
18.203742 -33.519813 14.666111 40.866231 -1.073286 1.203728 0.006647 0.008698 -731262.000000 0 0 1
18.262142 -32.400013 15.756911 40.392411 -1.057537 1.170061 0.023617 -0.001470 -254699.000000 0 0 1
17.065042 -31.906423 16.299011 39.684924 -1.079662 1.147563 0.033570 -0.014253 -288292.000000 0 0 1
16.155642 -32.762833 16.955811 40.272913 -1.112677 1.136224 0.032941 -0.004345 -667427.000000 0 0 1
16.518542 -33.474823 18.336611 41.589149 -1.112393 1.114196 0.025037 -0.006670 11066.600000 0 0 1
17.368642 34.309548 18.127011 42.513567 1.102174 1.130307 0.014951 -0.000229 142756.000000 0 0 1
17.244742 33.592080 19.335111 42.422347 1.096520 1.097552 0.022506 -0.002060 145516.000000 0 0 1
18.177442 32.403007 19.548811 41.982500 1.059562 1.086437 0.022541 -0.004109 -206748.000000 0 0 1
17.633442 31.227327 18.978811 40.574370 1.056753 1.084049 0.003514 0.000163 -63996.500000 0 0 1
18.570742 30.167907 18.923511 40.163097 1.019000 1.080183 0.004861 -0.008975 -304634.000000 0 0 1
18.072042 28.808867 18.459711 38.695096 1.010539 1.073495 0.012065 -0.001049 -258952.000000 0 0 1
17.665242 28.057007 19.556711 38.493134 1.008882 1.037869 0.017222 -0.014320 -133384.000000 0 0 1
17.220042 26.765907 19.132811 37.134998 0.999105 1.029528 0.014109 -0.018138 -20854.000000 0 0 1
16.829442 25.740067 20.219811 36.805189 0.991738 0.989182 0.016870 -0.008118 -479416.000000 0 0 1
15.743742 26.000527 21.021811 36.956858 1.026331 0.965726 0.021761 -0.007255 -412001.000000 0 0 1
14.959942 24.830877 21.394611 36.029179 1.028560 0.935006 0.017758 -0.003287 906352.000000 0 0 1
13.699442 25.365357 22.154511 36.357921 1.075597 0.915562 0.029684 -0.014892 22290.200000 0 0 1
12.942442 26.298517 21.404211 36.294064 1.113460 0.940054 0.037502 -0.016854 -578934.000000 0 0 1
11.735242 26.486897 22.091511 36.432218 1.153730 0.919305 0.038896 -0.018163 -506647.000000 0 0 1
10.826342 27.473427 21.357311 36.443568 1.195416 0.944636 0.035742 -0.026386 -254949.000000 0 0 1
11.301342 28.838517 21.468511 37.686568 1.197306 0.964705 0.024169 -0.023215 69016.000000 0 0 1
10.901742 29.622927 20.367511 37.565959 1.218162 0.997767 0.031040 -0.020775 -10607.700000 0 0 1
11.373342 31.118547 20.350611 38.882699 1.220394 1.019978 0.030435 -0.022588 -112356.000000 0 0 1
10.653242 31.855537 21.321211 39.785184 1.248065 1.005213 0.028389 -0.012190 -330366.000000 0 0 1
11.175042 31.769117 22.602211 40.558825 1.232556 0.979702 0.023732 -0.013507 -19660.500000 0 0 1
10.485842 32.717667 23.630411 41.698860 1.260645 0.968311 0.020284 -0.011016 352488.000000 0 0 1
9.161642 32.358777 23.970761 41.299195 1.294890 0.951555 0.023412 -0.021114 -145419.000000 0 0 1
8.856142 33.152260 25.135231 42.535673 1.309756 0.938596 0.017241 -0.012557 351232.000000 0 0 1
7.570542 32.759217 25.985431 42.493788 1.343687 0.912827 0.042589 -0.025177 1754170.000000 0 0 1
6.313042 33.278826 25.480101 42.385968 1.383323 0.925864 0.035824 -0.025348 1025720.000000 0 0 1
5.768242 32.696667 24.328841 41.161112 1.396176 0.938419 0.037102 -0.031137 1634.780000 0 0 1
4.899642 31.386157 24.473241 40.100335 1.415938 0.914357 0.037480 -0.033239 751153.000000 0 0 1
5.762442 30.267857 24.894041 39.611390 1.382666 0.891229 0.029027 -0.022786 -73417.200000 0 0 1
5.212142 29.027117 24.781351 38.520843 1.393129 0.871965 0.026761 -0.022796 -965207.000000 0 0 1
6.293242 27.926387 24.954501 37.976507 1.349148 0.853826 0.021466 -0.025580 244914.000000 0 0 1
7.309742 27.838067 23.931661 37.431467 1.314012 0.877149 0.027426 -0.020476 1184940.000000 0 0 1
8.293942 28.902667 24.031321 38.492311 1.291344 0.896542 0.032643 -0.017388 -110364.000000 0 0 1
9.492342 28.559527 24.969351 39.105238 1.249913 0.878227 0.024004 -0.020205 -1001390.000000 0 0 1
9.150842 28.410147 26.333001 39.803283 1.259192 0.847874 0.016291 -0.014672 520750.000000 0 0 1
10.262742 28.085787 27.204271 40.425335 1.220462 0.832605 0.015965 -0.002849 610768.000000 0 0 1
11.295542 29.223927 27.309361 41.562343 1.201967 0.853871 0.015908 0.000381 -443029.000000 0 0 1
10.808942 30.285867 28.077641 42.689822 1.227990 0.853018 0.009770 -0.002645 272567.000000 0 0 1
11.751042 31.332417 27.963961 43.609523 1.211987 0.874689 0.019881 0.002754 143551.000000 0 0 1
11.156842 32.669317 28.572031 44.812056 1.241706 0.879421 0.004244 -0.003892 136727.000000 0 0 1
11.141442 32.810037 29.975461 45.816575 1.243440 0.857607 -0.003876 -0.006133 252619.000000 0 0 1
10.323142 31.871417 30.669551 45.419994 1.257560 0.829502 -0.002474 -0.007554 -441118.000000 0 0 1
10.384542 31.964177 32.210421 46.551676 1.256672 0.806640 0.000975 -0.012192 -516255.000000 0 0 1
10.045442 30.805147 32.871718 46.156450 1.255573 0.778197 0.003484 -0.014396 68955.900000 0 0 1
10.197442 30.989267 34.315277 47.348292 1.252893 0.760137 0.014855 -0.006963 -75643.900000 0 0 1
10.233442 29.585417 -33.712672 46.006136 1.237783 2.393204 0.001266 -0.010114 -177769.000000 0 0 1
11.339042 28.851567 -34.211284 46.167075 1.196328 2.405402 -0.001071 0.000396 223058.000000 0 0 1
11.365742 27.496687 -33.779622 45.014562 1.178835 2.419487 -0.001511 -0.006476 59151.000000 0 0 1
12.592742 26.695877 -34.311951 45.260988 1.130035 2.431177 -0.005530 -0.007793 335605.000000 0 0 1
12.646942 25.394107 -33.779292 44.111749 1.108729 2.443028 -0.007149 -0.011232 -243560.000000 0 0 1
12.981142 25.256507 -32.353372 43.048135 1.096034 2.421224 -0.003300 -0.005914 -368311.000000 0 0 1
12.881042 23.744687 -31.953332 41.841927 1.073744 2.439772 -0.017161 -0.013445 318950.000000 0 0 1
14.009442 22.958587 -32.357242 42.075555 1.022907 2.448114 -0.008447 -0.007357 422117.000000 0 0 1
13.762542 21.595687 -32.280412 41.204445 1.003414 2.470947 -0.013951 -0.000057 -952039.000000 0 0 1
14.815642 20.773287 -32.950172 41.674291 0.951262 2.482682 0.001652 -0.001551 -196679.000000 0 0 1
16.070942 20.918787 -32.281862 41.689201 0.915715 2.456477 0.015186 -0.007819 748994.000000 0 0 1
17.123942 20.358087 -33.130292 42.488791 0.871470 2.465050 0.023694 -0.006813 72598.900000 0 0 1
18.456142 20.533487 -32.398982 42.566975 0.838627 2.435849 0.034190 -0.009065 -539670.000000 0 0 1
18.848742 21.882987 -32.194512 43.250744 0.859754 2.410386 0.035619 -0.011587 194585.000000 0 0 1
19.899942 22.080687 -31.256472 43.133879 0.837298 2.381306 0.043233 -0.007177 446069.000000 0 0 1
19.336442 22.405387 -29.858272 42.040645 0.858788 2.360613 0.028206 -0.015364 -16360.500000 0 0 1
18.713142 23.677187 -29.793692 42.408195 0.901970 2.349765 0.026645 -0.004547 -130700.000000 0 0 1
18.630442 24.177437 -28.474002 41.742193 0.914259 2.321481 0.034736 0.000371 322441.000000 0 0 1
19.972342 24.762897 -27.862412 42.289591 0.892078 2.290083 0.026116 0.001648 589538.000000 0 0 1
20.603342 25.766677 -28.593342 43.657744 0.896292 2.284904 0.030881 0.008059 -498834.000000 0 0 1
19.921342 27.012477 -28.695932 44.158695 0.935352 2.278166 0.020618 0.009907 -470811.000000 0 0 1
20.700642 28.022397 -29.562392 45.691426 0.934555 2.274441 0.014591 0.009650 -203378.000000 0 0 1
20.771042 27.879877 -30.959732 46.553504 0.930491 2.298338 0.024481 0.010914 13813.200000 0 0 1
21.253942 26.645127 -31.515032 46.420794 0.897479 2.317058 0.028656 0.010292 -107155.000000 0 0 1
22.596342 26.031607 -31.061552 46.401070 0.855925 2.304217 0.037969 0.006037 -604911.000000 0 0 1
23.631242 26.888127 -31.415262 47.626943 0.849777 2.291098 0.037385 0.007599 -149061.000000 0 0 1
24.921042 26.488057 -30.965502 47.765446 0.815870 2.276123 0.050609 -0.008141 614345.000000 0 0 1
26.101942 27.464567 -31.163462 49.058895 0.810831 2.259097 0.035094 -0.003559 -113899.000000 0 0 1
26.130442 28.595267 -30.340702 49.204141 0.830407 2.235250 0.018276 0.007161 -157376.000000 0 0 1
27.070442 29.544847 -30.768272 50.521217 0.829076 2.225617 0.028869 -0.000611 -81733.100000 0 0 1
27.077442 30.802457 -29.926932 50.770075 0.849667 2.201187 0.016713 0.011780 -194844.000000 0 0 1
27.697642 30.701117 -28.648402 50.303568 0.836783 2.176706 0.031953 0.006160 197690.000000 0 0 1
27.125342 31.619807 -27.784782 50.075848 0.861757 2.158984 0.027723 0.008473 -641318.000000 0 0 1
27.609842 31.372987 -26.354982 49.408024 0.849112 2.133429 0.040923 0.006740 -210361.000000 0 0 1
27.423642 30.029357 -25.842932 48.183769 0.830721 2.136892 0.028175 0.015685 -377770.000000 0 0 1
26.124042 29.621057 -25.561692 47.045433 0.848048 2.145208 0.022330 0.011987 -971547.000000 0 0 1
25.568242 29.742307 -24.168172 46.069951 0.860721 2.123038 0.022379 0.015501 -290052.000000 0 0 1
25.185942 31.060607 -23.906672 46.589934 0.889466 2.109623 0.052987 0.008769 137257.000000 0 0 1
24.668142 31.103067 -22.580372 45.670464 0.900271 2.087963 0.033901 0.018617 142143.000000 0 0 1
3.063742 -25.950103 -19.690672 32.718755 -1.453278 2.216569 0.025968 -0.001476 -55730.800000 0 0 1
3.097942 -27.063923 -18.887572 33.148055 -1.456825 2.177052 0.032896 0.002358 106553.000000 0 0 1
2.827942 -26.793893 -17.523972 32.140310 -1.465641 2.147464 0.030535 0.000063 48343.200000 0 0 1
2.695342 -27.986363 -16.569072 32.634882 -1.474783 2.103322 0.038974 -0.012164 -496394.000000 0 0 1
3.925042 -28.621443 -16.427072 33.233141 -1.434510 2.087823 0.052742 -0.010830 -483131.000000 0 0 1
3.868942 -29.681733 -15.483272 33.700233 -1.441180 2.048162 0.052594 -0.015116 -49954.900000 0 0 1
5.297742 -30.139673 -15.159172 34.150643 -1.396801 2.030733 0.077879 -0.015213 -363398.000000 0 0 1
6.029842 -29.289263 -14.327672 33.158741 -1.367761 2.017609 0.060874 -0.005377 -944056.000000 0 0 1
7.296342 -29.836733 -14.113572 33.803256 -1.330961 2.001512 0.063811 -0.002344 -408382.000000 0 0 1
7.607642 -30.664533 -12.864772 34.112932 -1.327614 1.957484 0.063622 -0.005849 -431245.000000 0 0 1
7.970242 -29.843923 -11.744572 33.047231 -1.309823 1.934125 0.056799 -0.010744 -16945.500000 0 0 1
7.959542 -30.448623 -10.441672 33.158731 -1.315109 1.891147 0.053539 -0.009030 218471.000000 0 0 1
9.038642 -31.554223 -10.153372 34.357779 -1.291819 1.870795 0.056057 -0.004693 394673.000000 0 0 1
10.319342 -30.980353 -10.052872 34.166230 -1.249262 1.869450 0.056424 -0.012286 -644270.000000 0 0 1
11.361042 -31.851923 -10.314072 35.355316 -1.228180 1.866827 0.051689 -0.012326 10855.900000 0 0 1
12.627442 -31.660013 -9.429372 35.365545 -1.191286 1.840687 0.040560 -0.006048 198539.000000 0 0 1
13.450842 -30.563833 -9.729872 34.781366 -1.156214 1.854324 0.037323 -0.016572 -6517.860000 0 0 1
14.331342 -30.229583 -8.693672 34.565806 -1.128096 1.825037 0.027665 -0.012344 474525.000000 0 0 1
15.680342 -29.507593 -9.099072 34.631839 -1.082345 1.836654 0.033945 -0.015319 725164.000000 0 0 1
15.700442 -28.101833 -9.376572 33.528152 -1.061300 1.854239 0.036344 -0.018580 81971.500000 0 0 1
15.116842 -27.720753 -10.632172 33.316694 -1.071549 1.895602 0.029247 -0.018468 -457627.000000 0 0 1
14.728442 -26.255953 -10.721672 31.957101 -1.059580 1.912934 0.037570 -0.019576 -201236.000000 0 0 1
13.679742 -25.945473 -9.757272 30.911280 -1.085587 1.891942 0.027795 -0.017944 983817.000000 0 0 1
13.163042 -24.601823 -9.852072 29.590179 -1.079509 1.910227 0.019295 -0.012454 528925.000000 0 0 1
12.366742 -24.193123 -11.168872 29.376644 -1.098255 1.960804 -0.004920 0.002245 144844.000000 0 0 1
13.188842 -23.835523 -12.279272 29.880733 -1.065402 1.994284 -0.005988 -0.001625 -119089.000000 0 0 1
12.644842 -24.245523 -13.527172 30.507733 -1.090071 2.030186 0.001986 -0.001413 -211212.000000 0 0 1
13.274142 -23.666523 -14.802872 30.910066 -1.059636 2.070199 -0.004227 -0.000492 205417.000000 0 0 1
14.579042 -24.092123 -15.148672 31.975946 -1.026608 2.064343 -0.002818 -0.006221 220099.000000 0 0 1
14.978542 -23.711123 -16.480872 32.529882 -1.007387 2.102077 -0.003248 -0.013485 -314498.000000 0 0 1
16.164942 -24.494323 -17.057172 33.944430 -0.987461 2.097288 0.012785 -0.014406 280354.000000 0 0 1
17.382442 -24.435223 -16.340072 34.150071 -0.952481 2.069717 0.022431 -0.017152 204722.000000 0 0 1
18.292942 -23.419423 -16.775372 34.124979 -0.907686 2.084707 0.027527 -0.024348 910618.000000 0 0 1
19.772742 -23.792223 -16.344272 34.988090 -0.877402 2.056848 0.029105 -0.015774 786650.000000 0 0 1
20.234342 -24.775623 -17.204372 36.321488 -0.885953 2.064249 0.031324 -0.011313 -1322590.000000 0 0 1
21.494442 -25.143623 -16.800372 37.100745 -0.863484 2.040734 0.040278 -0.000619 -900513.000000 0 0 1
22.182942 -26.254713 -17.623072 38.625970 -0.869263 2.044572 0.026608 0.004811 -122144.000000 0 0 1
22.778842 -25.652503 -18.785672 39.113016 -0.844663 2.071784 0.031898 0.000900 -408811.000000 0 0 1
23.546242 -26.567763 -19.463772 40.485923 -0.845618 2.072311 0.020875 0.001267 -714968.000000 0 0 1
24.634842 -25.891073 -20.280172 41.091465 -0.810256 2.086949 0.021158 0.004040 -646091.000000 0 0 1
24.130442 -24.942223 -21.173572 40.653571 -0.801939 2.118618 0.030095 0.003138 -103771.000000 0 0 1
24.612142 -23.695023 -20.862372 40.030616 -0.766415 2.119006 0.040077 0.001569 -433841.000000 0 0 1
23.981942 -22.622123 -21.757572 39.500455 -0.756228 2.154141 0.047765 0.000158 -401358.000000 0 0 1
24.420542 -22.567023 -23.099972 40.487555 -0.745972 2.177966 0.042769 -0.003843 -176121.000000 0 0 1
23.566042 -23.181523 -24.024272 40.864495 -0.777173 2.199258 0.039020 -0.011399 -581844.000000 0 0 1
22.683042 -22.246223 -24.814272 40.313310 -0.775676 2.233862 0.042326 -0.007741 -357459.000000 0 0 1
23.333942 -21.331123 -25.671902 40.725130 -0.740587 2.252826 0.039440 0.006467 -563812.000000 0 0 1
22.429142 -20.628823 -26.465332 40.361226 -0.743611 2.285921 0.038073 0.013382 -239271.000000 0 0 1
23.061742 -19.936623 -27.714802 41.199795 -0.712846 2.308638 0.037977 0.011693 -608101.000000 0 0 1
22.194542 -19.082823 -28.334362 40.738040 -0.710155 2.339948 0.050146 0.010014 -316866.000000 0 0 1
22.827842 -18.371323 -29.378612 41.493599 -0.677647 2.357498 0.065396 0.003140 -2628.380000 0 0 1
21.840942 -17.450223 -30.122822 41.096489 -0.674112 2.393486 0.068578 0.002654 -297449.000000 0 0 1
20.731642 -18.089323 -30.691262 41.218663 -0.717439 2.410726 0.068765 -0.004379 85145.300000 0 0 1
19.916342 -17.152323 -31.397522 40.947128 -0.710971 2.444609 0.069090 -0.005197 1085110.000000 0 0 1
18.566842 -17.802123 -31.913052 40.988853 -0.764375 2.463194 0.063609 -0.012347 1001480.000000 0 0 1
18.819542 -18.423123 -33.165302 42.350016 -0.774754 2.470470 0.066506 -0.012120 1561460.000000 0 0 1
17.547142 -18.970923 -33.603362 42.390849 -0.824367 2.486027 0.062894 -0.018662 1061700.000000 0 0 1
17.743442 -19.961123 33.981991 43.220965 -0.844148 0.666098 0.077135 -0.020440 -265218.000000 0 0 1
18.566742 -21.042423 34.314590 44.328304 -0.847820 0.685502 0.084252 -0.021758 72492.800000 0 0 1
18.816342 -21.873723 33.183600 43.973467 -0.860395 0.715710 0.073504 -0.024215 -37232.900000 0 0 1
19.681442 -23.079523 33.591804 45.259615 -0.864698 0.734445 0.070402 -0.024509 92812.700000 0 0 1
18.997242 -24.024523 -34.318171 45.997932 -0.901725 2.412953 0.080504 -0.021600 174344.000000 0 0 1
19.154742 -23.737323 -32.965652 44.912124 -0.891834 2.394994 0.088783 -0.021230 -134185.000000 0 0 1
18.396342 -24.650723 -31.985362 44.375071 -0.929680 2.375746 0.077036 -0.021674 -65040.700000 0 0 1
18.780042 -25.976863 -32.061182 45.336594 -0.944831 2.356300 0.076897 -0.031828 494860.000000 0 0 1
19.998642 -26.344733 -31.390582 45.599992 -0.921488 2.330063 0.060292 -0.027887 759105.000000 0 0 1
20.337842 -27.860113 -31.581812 46.767773 -0.940220 2.312154 0.049117 -0.027339 531775.000000 0 0 1
19.338942 -28.558743 -30.817042 46.252422 -0.975562 2.300005 0.055081 -0.030611 414769.000000 0 0 1
19.431942 -29.977603 -30.963792 47.275929 -0.995677 2.284925 0.045799 -0.023732 -99801.400000 0 0 1
18.219942 -30.701963 -30.278552 46.812045 -1.035210 2.274192 0.052263 -0.022681 988026.000000 0 0 1
16.918742 -30.625773 -30.822702 46.628540 -1.066086 2.292982 0.056194 -0.026312 -3535.070000 0 0 1
16.819342 -31.274993 -32.081602 47.856500 -1.077377 2.305505 0.055694 -0.026095 -914193.000000 0 0 1
15.376442 -31.644873 -32.422052 47.843729 -1.118487 2.315380 0.060077 -0.032262 -39112.800000 0 0 1
14.641542 -30.653423 -33.160672 47.472489 -1.125190 2.344129 0.059051 -0.036475 1218960.000000 0 0 1
13.340942 -31.190803 -33.560322 47.719410 -1.166624 2.350803 0.033789 -0.015526 1467920.000000 0 0 1
12.427942 -30.219783 -34.352786 47.411000 -1.180628 2.381213 0.030212 -0.008879 -61686.600000 0 0 1
11.731742 -29.362723 -33.514922 46.076602 -1.190682 2.385284 0.045831 -0.019112 -609275.000000 0 0 1
10.792842 -28.633133 -34.231213 45.914243 -1.210330 2.412151 0.017687 -0.009564 -384128.000000 0 0 1
9.860242 -27.773353 -33.372282 44.522946 -1.229652 2.418182 0.021550 -0.009241 145782.000000 0 0 1
8.943942 -28.561593 -32.623302 44.272322 -1.267323 2.399237 0.022554 -0.007509 -202696.000000 0 0 1
7.946242 -27.783793 -32.011042 43.125268 -1.292230 2.407263 -0.005194 -0.001553 303496.000000 0 0 1
6.869842 -28.579473 -31.199812 42.865012 -1.334895 2.385995 -0.010122 -0.001578 1310890.000000 0 0 1
5.835042 -29.224823 -32.048002 43.763140 -1.373727 2.392498 -0.000887 0.000953 988478.000000 0 0 1
6.148842 -30.456433 -32.631962 45.058268 -1.371584 2.380695 -0.000661 -0.001519 223092.000000 0 0 1
4.855242 -31.274773 -32.930082 45.673571 -1.416781 2.376023 0.019199 -0.012777 155552.000000 0 0 1
4.186842 -31.797163 -31.848752 45.198808 -1.439876 2.352708 0.017091 -0.015959 -659326.000000 0 0 1
3.311642 -32.796383 -32.250932 46.116074 -1.470162 2.345274 0.031044 -0.038731 -1006850.000000 0 0 1
2.382842 -33.150713 -31.059782 45.490194 -1.499041 2.322357 0.035996 -0.048771 624894.000000 0 0 1
1.287742 -32.303883 -30.698662 44.582586 -1.530954 2.330325 0.019644 -0.038563 413476.000000 0 0 1
0.183742 -32.215573 -31.565902 45.103027 -1.565093 2.346001 0.022419 -0.010576 -435241.000000 0 0 1
-0.734558 -31.101773 -31.043882 43.949772 1.547183 2.355124 0.003227 -0.001957 -214657.000000 0 0 1
-1.280658 -31.199313 -29.741522 43.123026 1.529772 2.331857 0.002577 -0.008342 130490.000000 0 0 1
-1.971458 -30.029213 -29.315222 42.012171 1.505239 2.343089 0.015847 0.003548 160961.000000 0 0 1
-2.736358 -30.105253 -27.987332 41.195930 1.480152 2.317702 0.023355 0.000711 -195888.000000 0 0 1
-1.886958 -30.425853 -26.895952 40.653233 1.508857 2.293739 0.010002 0.001718 -308766.000000 0 0 1
-2.496858 -30.485523 -25.641642 39.913597 1.489076 2.268460 0.015280 0.002790 -97348.000000 0 0 1
-1.495958 -30.731953 -24.476372 39.316454 1.522157 2.242790 0.000899 0.007167 212127.000000 0 0 1
-2.070758 -30.697743 -23.197372 38.532551 1.503442 2.216825 0.015396 0.000787 -32724.500000 0 0 1
-1.039958 -30.882393 -22.209072 38.053207 1.537134 2.193991 0.011205 0.005236 527803.000000 0 0 1
-1.523558 -30.888663 -20.775172 37.256388 1.521512 2.162321 -0.008489 0.006539 130837.000000 0 0 1
-1.977658 -29.648073 -20.273072 35.971055 1.504191 2.169527 -0.001337 0.004050 450864.000000 0 0 1
-0.834858 -29.100513 -19.628772 35.111615 1.542115 2.164023 0.016459 -0.003521 262549.000000 0 0 1
-1.004258 -27.674023 -19.045072 33.609148 1.534523 2.173247 0.014314 -0.005075 -38336.900000 0 0 1
-1.777558 -27.593213 -17.859172 32.916487 1.506465 2.144278 0.001651 0.002059 -713.063000 0 0 1
-1.634358 -26.331603 -17.286372 31.541133 1.508808 2.150837 0.008981 -0.000823 80119.700000 0 0 1
-2.368958 -26.178783 -15.935072 30.738691 1.480551 2.115780 0.002813 0.006538 -56563.100000 0 0 1
-2.364258 -24.875223 -15.374472 29.338385 1.476036 2.122383 0.005694 0.009000 436498.000000 0 0 1
-3.239758 -24.872123 -14.238072 28.841658 1.441269 2.087094 0.000054 0.009705 364271.000000 0 0 1
-2.874958 -23.647023 -13.318072 27.291356 1.449812 2.080589 0.004387 0.003892 234350.000000 0 0 1
-1.727658 -23.847323 -12.509372 26.984514 1.498476 2.052823 0.011938 -0.003768 -164228.000000 0 0 1
-1.482558 -22.758923 -11.676372 25.622338 1.505746 2.043967 0.014485 -0.000909 262500.000000 0 0 1
-0.147458 -22.706223 -10.881472 25.179371 1.564302 2.017681 0.014655 -0.004964 319733.000000 0 0 1
0.054242 -21.365523 -10.303772 23.720376 -1.568258 2.020152 0.007906 -0.007406 -167739.000000 0 1 0
1.241042 -21.383323 -9.537572 23.446790 -1.512824 1.989718 -0.002828 -0.011555 306235.000000 0 1 0
1.872442 -19.997923 -9.264972 22.119282 -1.477437 2.002990 0.008262 -0.006486 -604877.000000 0 1 0
2.287842 -19.302923 -10.439672 22.064084 -1.452824 2.063662 0.001409 -0.002996 890227.000000 0 1 0
3.272242 -18.221623 -10.333472 21.201786 -1.393110 2.079891 0.003393 -0.002475 2030640.000000 0 1 0
4.723242 -18.534823 -9.793072 21.488437 -1.321276 2.043996 0.007485 -0.012719 789192.000000 0 1 0
4.605842 -18.998823 -8.482672 21.310203 -1.332957 1.980194 0.008480 -0.011952 -723044.000000 0 1 0
5.705542 -19.783623 -8.189672 22.158873 -1.290018 1.949363 0.009739 -0.009917 -779027.000000 0 1 0
5.364042 -20.791623 -7.101272 22.616202 -1.318311 1.890190 0.015106 -0.019501 231755.000000 0 1 0
4.481642 -21.795423 -7.623272 23.521051 -1.368000 1.900861 0.015930 -0.017789 197455.000000 0 1 0
4.186642 -22.804323 -6.691172 24.131657 -1.389228 1.851756 0.020369 -0.018351 -55804.600000 0 1 0
3.144842 -23.827123 -7.187672 25.085542 -1.439569 1.861396 0.016860 -0.019977 -135398.000000 0 0 1
3.511442 -24.563923 -8.323672 26.172505 -1.428807 1.894448 0.017975 -0.016213 121240.000000 0 0 1
2.415842 -25.188853 -8.989272 26.853707 -1.475180 1.912136 0.010690 -0.007189 416673.000000 0 0 1
2.901442 -25.727493 -10.321672 27.872193 -1.458495 1.950151 0.015474 -0.008279 34453.900000 0 0 1
3.611142 -26.931643 -10.142072 29.003713 -1.437506 1.928028 0.016262 -0.006380 -79793.800000 0 0 1
3.995942 -27.511473 -11.381072 30.039599 -1.426559 1.959370 0.029891 -0.005267 128559.000000 0 0 1
4.291442 -29.054663 -11.316572 31.474668 -1.424154 1.938577 0.041004 -0.007882 -457006.000000 0 0 1
3.178342 -29.889113 -11.317372 32.117656 -1.464857 1.930901 0.043033 -0.007120 -515656.000000 0 0 1
3.531842 -31.234463 -11.187272 33.364961 -1.458199 1.912720 0.047165 -0.011133 -583880.000000 0 0 1
2.431342 -32.185223 -11.567972 34.287286 -1.495397 1.914933 0.039092 -0.017758 -487080.000000 0 0 1
2.002742 -32.175813 -12.919072 34.730337 -1.508633 1.951940 0.042345 -0.019735 189175.000000 0 0 1
1.234442 -33.316693 -13.232872 35.869691 -1.533762 1.948638 0.022908 -0.018236 -165955.000000 0 0 1
0.787042 -33.219223 -14.727872 36.346202 -1.547108 1.988006 0.027044 -0.012434 -385890.000000 0 0 1
-0.244458 -32.326413 -14.977972 35.628589 1.563234 2.004674 0.018113 -0.009420 -438553.000000 0 0 1
-0.573158 -32.400293 -16.321672 36.283666 1.553108 2.037377 0.005441 -0.007775 -196026.000000 0 0 1
-1.751058 -31.600873 -16.909872 35.883494 1.515441 2.061497 0.001329 -0.004581 -113746.000000 0 0 1
-3.004758 -31.961893 -16.390372 36.044909 1.477061 2.042855 -0.007793 -0.004884 -383917.000000 0 0 1
-4.029858 -31.412553 -17.204472 36.041394 1.443205 2.068436 -0.012027 0.009573 -290308.000000 0 0 1
-5.400958 -31.474703 -16.558972 35.972584 1.400855 2.049154 -0.013729 0.008172 -673266.000000 0 0 1
-5.591358 -30.417303 -15.588672 34.633543 1.389004 2.037677 -0.018060 0.011683 366166.000000 0 0 1
-6.835558 -30.336693 -14.870472 34.469852 1.349174 2.016846 -0.011355 0.008271 669547.000000 0 0 1
-7.177558 -31.432853 -13.837572 35.085894 1.346300 1.976202 -0.006348 -0.003052 64094.300000 0 0 1
-7.610358 -32.666133 -14.427372 36.512229 1.341905 1.977014 0.005140 -0.005389 37710.400000 0 0 1
-8.473558 -33.365173 -13.526072 36.986356 1.322090 1.945186 0.021187 -0.005670 492007.000000 0 0 1
-8.928158 34.199235 -14.088472 38.049767 -1.315433 1.950090 0.041106 -0.012753 -23806.400000 0 0 1
-7.776558 33.408741 -14.312572 37.168112 -1.342099 1.966087 0.026900 -0.014571 -165353.000000 0 0 1
-8.033558 32.093157 -14.783172 36.236045 -1.325517 1.991024 0.036712 -0.023897 -529808.000000 0 0 1
-7.027058 -22.093523 -3.448072 23.439123 1.262854 1.718440 0.011115 0.000553 77440.500000 0 1 0
-6.865258 -20.876423 -4.109272 22.357167 1.253084 1.755648 0.009001 -0.007476 389524.000000 0 1 0
-5.785458 -20.878823 -5.054772 22.247415 1.300482 1.800005 0.003224 -0.007881 323746.000000 0 1 0
-5.961958 -19.830723 -6.206672 21.617708 1.278750 1.862005 0.009368 -0.009206 283863.000000 0 1 0
-7.136658 -19.960523 -6.988672 22.320302 1.227421 1.889260 0.026405 -0.017957 32746.800000 0 1 0
-7.081658 -19.019823 -8.022072 21.823317 1.214368 1.947215 0.016411 -0.017763 409046.000000 0 1 0
-8.106858 -19.406823 -9.164172 22.941839 1.175098 1.981716 0.022425 -0.014200 355074.000000 0 1 0
-7.683358 -20.349923 -10.055172 23.963719 1.209781 2.003801 0.040164 -0.004920 -217521.000000 0 1 0
-8.540758 -20.496023 -11.213472 24.875157 1.175974 2.038446 0.046567 -0.002110 130509.000000 0 1 0
-7.900158 -21.312623 -12.353572 25.869888 1.215819 2.068634 0.034287 0.000660 -176400.000000 0 0 1
-6.952758 -20.565723 -13.094372 25.352561 1.244784 2.113544 0.038827 0.000953 -296328.000000 0 0 1
-6.557258 -21.344323 -14.199472 26.461344 1.272735 2.137213 0.033164 0.003373 68544.700000 0 0 1
-5.461558 -20.716123 -15.073972 26.195629 1.313024 2.183936 0.027602 0.004691 1477150.000000 0 0 1
-4.052958 -20.996723 -14.763972 25.985837 1.380113 2.175058 0.021545 0.009360 2288630.000000 0 0 1
-3.024958 -20.233923 -15.397772 25.605729 1.422396 2.215975 0.024625 0.013218 436014.000000 0 0 1
-3.161258 -18.657823 -15.393572 24.394056 1.402957 2.253687 0.031518 0.005224 -760749.000000 0 1 0
-4.190158 -18.064623 -16.187772 24.615686 1.342873 2.288452 0.026997 0.001011 25220.300000 0 1 0
-4.075058 -18.096423 -17.609072 25.576670 1.349305 2.330190 0.035018 -0.005848 -1848000.000000 0 0 1
-5.343058 -17.773723 -18.339972 26.092299 1.278775 2.350246 0.017494 0.006165 -925016.000000 0 0 1
-6.185858 -18.896223 -18.123972 26.903725 1.254432 2.309947 0.015240 0.013483 -641183.000000 0 0 1
-7.462458 -18.667223 -18.633372 27.410874 1.190495 2.318259 0.012557 0.005993 -323617.000000 0 0 1
-8.568358 -19.636223 -18.150772 28.079326 1.159348 2.273667 0.033099 0.000858 124355.000000 0 0 1
-8.302558 -20.964423 -18.600172 29.230222 1.193716 2.260532 0.026377 0.010162 184595.000000 0 0 1
-9.316258 -21.873523 -18.233072 29.961451 1.168151 2.225030 0.032279 0.015398 -66129.900000 0 0 1
-8.817258 -23.317023 -18.288772 30.917742 1.209270 2.203751 0.030413 0.004703 -742744.000000 0 0 1
-8.607658 -23.693623 -19.658872 31.967965 1.222331 2.233126 0.029160 -0.006408 338160.000000 0 0 1
-7.511358 -24.564523 -19.854672 32.466048 1.274045 2.228817 0.027723 -0.012606 655643.000000 0 0 1
-6.071458 -23.982723 -19.679372 31.611885 1.322846 2.242769 0.023690 -0.008882 -586126.000000 0 0 1
-5.696658 -22.917023 -20.544772 31.300631 1.327157 2.286792 0.030076 -0.017096 -22534.000000 0 0 1
-5.442458 -21.731123 -19.922472 29.979442 1.325399 2.297671 0.034849 -0.013296 136936.000000 0 0 1
-4.269058 -21.690523 -18.862172 29.060027 1.376463 2.277166 0.027874 -0.006104 152754.000000 0 0 1
-3.045958 -22.041123 -19.468172 29.565160 1.433472 2.289598 0.024411 -0.004391 -372889.000000 0 0 1
-1.999258 -22.062223 -18.525272 28.877749 1.480424 2.267257 0.021469 0.003314 925079.000000 0 0 1
-0.716458 -22.908023 -18.919772 29.719498 1.539531 2.260893 0.022598 0.003276 1279800.000000 0 0 1
0.089942 -22.180023 -19.877672 29.783944 -1.566741 2.301502 0.028601 -0.009738 -155178.000000 0 0 1
1.411742 -22.685523 -19.804772 30.147221 -1.508646 2.287543 0.026792 -0.014903 137871.000000 0 0 1
2.252442 -22.069023 -20.953372 30.514899 -1.469085 2.327682 0.045627 -0.018470 -33352.900000 0 0 1
1.767042 -22.438023 -22.186672 31.604362 -1.492206 2.349016 0.030865 -0.024278 -250759.000000 0 0 1
1.166142 -21.364423 -22.838272 31.295129 -1.516267 2.388783 0.041344 -0.019357 -692458.000000 0 0 1
0.817242 -21.640423 -24.352972 32.589002 -1.533050 2.414749 0.048094 -0.023284 -238890.000000 0 0 1
0.237442 -20.517223 -24.962372 32.313044 -1.559224 2.453592 0.042094 -0.023439 365413.000000 0 0 1
-1.121358 -20.229623 -24.610172 31.877196 1.515422 2.452826 0.032657 -0.022524 63457.000000 0 0 1
-1.638158 -19.003723 -25.371782 31.741965 1.484807 2.496948 0.031157 -0.016868 -142561.000000 0 0 1
-1.015058 -17.777223 -25.035872 30.722221 1.513759 2.523372 0.027494 -0.008924 -124583.000000 0 0 1
-1.622758 -16.653523 -25.642792 30.619045 1.473661 2.563449 0.029206 -0.003711 -137490.000000 0 0 1
-1.042858 -15.354223 -25.147432 29.482758 1.502981 2.592415 0.023261 -0.002546 1267040.000000 0 0 1
0.264342 -15.007823 -25.697082 29.759782 -1.553185 2.612932 0.033538 -0.014390 906500.000000 0 0 1
0.882042 -13.810923 -25.289462 28.828397 -1.507017 2.640881 0.032972 -0.015398 252211.000000 0 0 1
0.270342 -12.515923 -25.787402 28.665511 -1.549200 2.689642 0.024166 -0.012043 171879.000000 0 0 1
1.171942 -11.462823 -25.443572 27.931078 -1.468912 2.716356 0.018028 -0.010472 633918.000000 0 0 1
0.676342 -10.256523 -26.051072 28.005572 -1.504949 2.765782 0.015571 -0.008618 -7425.730000 0 0 1
1.612242 -9.040223 -25.788332 27.374496 -1.394311 2.799506 0.029932 -0.015127 1406540.000000 0 0 1
2.947342 -9.023023 -26.356332 28.013533 -1.255076 2.795906 0.038205 -0.015625 882213.000000 0 0 1
3.011242 -9.012623 -27.749072 29.330973 -1.248343 2.811669 0.037080 -0.014370 395748.000000 0 0 1
4.500642 -8.805923 -28.219222 29.901916 -1.098314 2.804518 0.061499 -0.011544 197478.000000 0 0 1
4.764942 -7.446623 -28.443722 29.785940 -1.001569 2.840247 0.053427 -0.011475 579584.000000 0 0 1
6.012142 -7.196423 -29.116482 30.589277 -0.874819 2.830020 0.068352 -0.012534 -310538.000000 0 0 1
7.210042 -7.171523 -28.167912 29.947399 -0.782720 2.795129 0.078419 -0.016355 -883352.000000 0 0 1
7.715942 -8.451023 -27.803262 30.066209 -0.830835 2.751134 0.055785 -0.010777 424886.000000 0 0 1
8.491242 -9.167723 -28.762872 31.360025 -0.823687 2.731748 0.057475 -0.019114 -241938.000000 0 0 1
9.140642 -10.414623 -28.109562 31.339483 -0.850454 2.683591 0.056255 -0.017626 236303.000000 0 0 1
8.118042 -11.335723 -27.749512 31.055380 -0.949316 2.675986 0.061980 -0.020623 299188.000000 0 0 1
8.552542 -12.502823 -27.060462 31.011855 -0.970856 2.631265 0.051809 -0.016522 -268775.000000 0 0 1
9.275542 -13.617223 -27.825662 32.337778 -0.972825 2.606986 0.059523 -0.022327 -228385.000000 0 0 1
8.515642 -14.123623 -28.895112 33.270413 -1.028221 2.622950 0.060057 -0.024373 -299095.000000 0 0 1
9.120842 -15.193623 -29.593032 34.493238 -1.030151 2.602037 0.048616 -0.025420 -229481.000000 0 0 1
8.197942 -15.887923 -30.599822 35.439829 -1.094442 2.612827 0.039656 -0.022447 -257567.000000 0 0 1
7.713642 -14.978223 -31.535612 35.753913 -1.095228 2.650925 0.042912 -0.024489 553981.000000 0 0 1
6.704542 -15.528023 -32.405342 36.553749 -1.163205 2.660548 0.036685 -0.013769 -141023.000000 0 0 1
6.051542 -14.494423 -33.255812 36.778506 -1.175288 2.700343 0.034191 -0.009808 -285074.000000 0 0 1
6.838742 -13.702823 -34.151500 37.428074 -1.107889 2.720045 0.030745 -0.005221 318411.000000 0 0 1
5.986342 -12.836023 33.818458 36.664531 -1.134412 0.396611 0.020967 -0.002369 317598.000000 0 0 1
6.716742 -11.777323 32.965078 35.644303 -1.052493 0.390196 0.027031 -0.002571 -245826.000000 0 0 1
7.163442 -12.313623 31.768211 34.816080 -1.043905 0.421545 0.012786 -0.004406 103459.000000 0 0 1
7.118942 -11.283423 30.823071 33.586555 -1.007951 0.408493 0.029389 -0.001922 -215077.000000 0 0 1
7.474242 -11.712423 29.419731 32.535607 -1.002799 0.441219 0.022170 0.004424 750549.000000 0 0 1
6.469442 -12.546623 28.751901 32.030348 -1.094721 0.456398 0.021666 0.003385 786987.000000 0 0 1
6.723542 -12.459623 27.376241 30.820558 -1.075952 0.477283 0.018897 0.012747 -424476.000000 0 0 1
5.711942 -13.109523 26.438791 30.058202 -1.159890 0.495804 0.011646 -0.001005 -493501.000000 0 0 1
5.792742 -14.490023 26.451101 30.711193 -1.190484 0.533002 0.014360 0.005687 -7287.060000 0 0 1
5.375442 -15.086923 25.216751 29.872983 -1.228522 0.565852 0.000260 0.003258 36731.300000 0 0 1
3.864942 -15.367923 25.044491 29.636757 -1.324412 0.564141 -0.000273 -0.002185 -116475.000000 0 0 1
3.125542 -14.148523 25.024741 28.916904 -1.353379 0.524845 -0.010385 -0.001247 -820725.000000 0 0 1
1.809542 -14.443823 24.675241 28.649013 -1.446164 0.532984 -0.014777 -0.003504 -464601.000000 0 0 1
0.879042 -13.243223 24.523101 27.884371 -1.504517 0.496076 -0.008224 -0.002089 -417471.000000 0 0 1
1.256542 -12.501223 23.376311 26.538865 -1.470619 0.493177 -0.012531 -0.001593 294505.000000 0 0 1
0.459742 -11.316023 23.104311 25.730777 -1.530191 0.455764 0.002950 0.006599 1310990.000000 0 0 1
-0.977658 -11.627823 22.533811 25.375868 1.486914 0.477816 0.005182 -0.004702 433596.000000 0 0 1
-0.955658 -12.214023 21.248511 24.527430 1.492713 0.523017 0.008158 -0.016863 -347475.000000 0 1 0
-2.126158 -12.950723 20.977511 24.744650 1.408075 0.559050 0.020901 -0.022225 99603.000000 0 1 0
-2.119358 -13.729823 19.598211 24.022689 1.417643 0.616649 0.030619 -0.025495 -884460.000000 0 1 0
-1.057858 -14.570823 19.438811 24.316564 1.498322 0.644490 0.032385 -0.033827 -1246500.000000 0 1 0
-1.235358 -15.505623 18.390411 24.086462 1.491293 0.702055 0.039040 -0.023819 302726.000000 0 1 0
-2.242658 -16.653923 18.668411 25.117568 1.436939 0.732894 0.014477 -0.023698 266337.000000 0 0 1
-2.136558 -17.752123 17.772711 25.210553 1.451017 0.788414 0.000181 -0.014200 -133537.000000 0 0 1
-3.175558 -18.716723 17.970111 26.140481 1.402733 0.812833 0.004464 -0.007017 369608.000000 0 0 1
-2.928458 -20.150623 17.364411 26.760908 1.426478 0.864695 0.004315 0.000845 362411.000000 0 0 1
-1.974758 -20.890723 18.150611 27.744669 1.476548 0.857670 0.009078 -0.006222 56158.400000 0 0 1
-2.040158 -22.274823 17.978811 28.697868 1.479461 0.893760 0.001379 -0.011848 -427702.000000 0 0 1
-0.902358 -23.144323 18.579411 29.692902 1.531828 0.894743 0.013635 -0.005208 24469.200000 0 0 1
0.210642 -22.984123 17.724211 29.025194 -1.561632 0.913916 0.020671 -0.013421 -705014.000000 0 0 1
1.305442 -23.736623 18.207811 29.944212 -1.515855 0.917184 0.015601 -0.010299 253799.000000 0 0 1
2.576442 -23.568023 17.325111 29.364080 -1.461909 0.939725 0.013795 -0.013210 272467.000000 0 0 1
3.013342 -22.219423 17.304011 28.323343 -1.436001 0.913542 0.011457 -0.023721 -810716.000000 0 0 1
4.069242 -22.051323 16.416711 27.790789 -1.388314 0.938839 0.017545 -0.019448 -397493.000000 0 0 1
4.783142 -20.752723 16.772511 27.108505 -1.344270 0.903687 0.034508 -0.013337 -619815.000000 0 0 1
5.546742 -20.761123 17.981311 28.019959 -1.309724 0.874042 0.028327 -0.006056 -83516.800000 0 0 1
6.054842 -19.547723 18.435611 27.543535 -1.270422 0.837495 0.039513 0.004970 924055.000000 0 0 1
7.224042 -18.952623 17.545111 26.818270 -1.206633 0.857642 0.047956 -0.001952 -355258.000000 0 0 1
6.730142 -18.341323 16.440911 25.534339 -1.219112 0.871245 0.036820 -0.003890 -618939.000000 0 0 1
7.648042 -17.709423 15.599211 24.808296 -1.163127 0.890800 0.054417 -0.001159 -458244.000000 0 1 0
6.963842 -16.781823 14.582211 23.297329 -1.177457 0.894489 0.027910 -0.005516 76982.600000 0 1 0
5.970442 -17.416823 13.794111 23.005855 -1.240552 0.927806 0.029477 -0.000801 11716.500000 0 1 0
5.475542 -16.539723 12.778411 21.606290 -1.251099 0.937977 0.018042 -0.006764 -28566.100000 0 1 0
6.003242 -16.675723 11.319311 21.029632 -1.225242 1.002431 0.012645 -0.006249 352640.000000 0 1 0
7.345542 -16.245223 11.151511 21.029038 -1.146142 1.011852 0.022297 -0.003973 231446.000000 0 1 0
7.914642 -16.322123 9.842411 20.637982 -1.119299 1.073663 0.027331 -0.010888 -150473.000000 0 1 0
9.394842 -15.963923 9.824911 20.967564 -1.038872 1.083117 0.024529 -0.005105 -159996.000000 0 1 0
10.076142 -16.251823 8.595711 20.965129 -1.015800 1.148342 0.029019 -0.013353 644697.000000 0 1 0
11.484142 -15.990723 8.804111 21.566203 -0.947976 1.150275 0.032548 -0.004858 718281.000000 0 1 0
12.304042 -16.821623 7.855711 22.272598 -0.939278 1.210333 0.023726 -0.015640 -504732.000000 0 1 0
12.560042 -18.097923 8.405411 23.578388 -0.964105 1.206290 0.037041 -0.017436 123007.000000 0 1 0
13.335942 -18.891323 7.514611 24.314580 -0.956102 1.256594 0.037950 -0.013796 81980.400000 0 1 0
13.918842 -20.127023 8.229211 25.817651 -0.965764 1.246393 0.040771 -0.015236 -26960.900000 0 0 1
12.971342 -21.035523 8.724311 26.208062 -1.018231 1.231433 0.038288 -0.010869 33852.500000 0 0 1
13.705642 -22.155323 9.099111 27.595231 -1.016801 1.234774 0.041387 -0.008903 164258.000000 0 0 1
12.758142 -23.210423 9.692611 28.203557 -1.068204 1.219978 0.059473 -0.011626 275323.000000 0 0 1
12.611042 -22.866223 11.053311 28.356273 -1.066791 1.170381 0.072853 -0.014710 -205174.000000 0 0 1
11.624642 -23.612123 11.751911 28.823116 -1.113314 1.150835 0.074093 -0.008511 -49827.500000 0 0 1
11.926342 -25.096963 12.217811 30.354078 -1.127176 1.156540 0.044221 -0.015053 -678012.000000 0 0 1
12.841642 -25.093313 13.239711 31.142769 -1.097789 1.131691 0.027900 -0.010927 -616880.000000 0 0 1
12.906742 -26.285113 14.009111 32.461459 -1.114352 1.124573 0.034819 -0.009248 325861.000000 0 0 1
14.089942 -26.353223 15.028211 33.449453 -1.079809 1.104836 0.052353 -0.010989 171425.000000 0 0 1
13.903942 -25.569063 16.169111 33.294695 -1.072741 1.063705 0.055982 -0.011770 101557.000000 0 0 1
14.699042 -25.881203 17.314511 34.433861 -1.054282 1.043922 0.063109 -0.011613 -299725.000000 0 0 1
14.385042 -25.121903 18.688811 34.457381 -1.050760 0.997535 0.063362 -0.005494 13010.200000 0 0 1
14.832242 -23.786923 18.921311 33.820542 -1.013243 0.977060 0.034019 -0.010258 -72200.100000 0 0 1
16.200942 -23.725723 19.278011 34.598008 -0.971678 0.979786 0.033789 -0.002707 13633.600000 0 0 1
16.669642 -22.212223 19.499511 33.933622 -0.926993 0.958636 0.014500 -0.006109 -99280.300000 0 0 1
16.827242 -21.444223 18.340211 32.853829 -0.905456 0.978537 0.008208 -0.000932 120997.000000 0 0 1
15.659542 -20.812023 17.835111 31.566639 -0.925743 0.970365 0.014352 0.008467 -584234.000000 0 0 1
15.834942 -19.933823 16.577611 30.379596 -0.899494 0.993593 0.002749 0.015564 180096.000000 0 0 1
16.571142 -18.722523 16.886611 30.171066 -0.846279 0.976778 0.000096 0.014553 -31414.100000 0 0 1
17.957242 -18.877223 16.858711 31.032696 -0.810369 0.996485 0.000031 0.009378 -1014820.000000 0 0 1
18.797242 -17.647523 17.157711 30.970283 -0.753862 0.983628 0.007096 0.008745 -575096.000000 0 0 1
18.701942 -17.282923 18.510111 31.481522 -0.745985 0.942253 -0.001219 0.013547 348479.000000 0 0 1
19.531342 -16.149223 18.725911 31.510799 -0.690892 0.934439 0.008956 0.007361 -374809.000000 0 0 1
19.812042 -15.974423 20.185411 32.483073 -0.678570 0.900251 0.017107 0.005429 239557.000000 0 0 1
20.826842 -16.903923 20.582811 33.810532 -0.681799 0.916288 0.018126 -0.003552 188005.000000 0 0 1
21.162442 -16.630623 21.913811 34.707948 -0.666057 0.887468 0.026651 -0.002149 138027.000000 0 0 1
33.215559 -1.794223 -7.816572 34.170037 -0.053965 1.801595 0.055549 -0.016576 -608040.000000 0 0 1
34.427549 -1.246423 -8.289772 35.433459 -0.036188 1.806938 0.043671 -0.016215 -125922.000000 0 0 1
35.354162 -2.310323 -8.161472 36.357448 -0.065255 1.797204 0.047080 -0.027097 -258562.000000 0 0 1
-34.362169 -2.015223 -8.722772 35.509246 0.058579 1.818984 0.028632 -0.019072 -478366.000000 0 0 1
-33.498628 -3.045123 -8.404472 34.670823 0.090654 1.815643 0.041148 -0.017908 -639138.000000 0 0 1
-32.177098 -2.697123 -8.720472 33.446775 0.083626 1.834571 0.054568 -0.017308 -321478.000000 0 0 1
-31.153598 -3.812023 -8.394972 32.489286 0.121757 1.832154 0.053792 -0.014513 -291009.000000 0 0 1
-30.913448 -3.871723 -7.012472 31.934406 0.124595 1.792190 0.057210 -0.019895 -627897.000000 0 0 1
-29.782918 -4.593523 -6.736572 30.878861 0.153028 1.790726 0.055501 -0.021486 -849402.000000 0 0 1
-29.356848 -4.382623 -5.255772 30.143905 0.148193 1.746048 0.061868 -0.026685 -484669.000000 0 0 1
-29.047318 -3.078223 -4.916572 29.620851 0.105579 1.737552 0.062000 -0.025108 464801.000000 0 0 1
-29.092178 -2.902823 -3.500772 29.445485 0.099451 1.689968 0.068959 -0.025306 -323880.000000 0 0 1
-28.908448 -1.487923 -2.966372 29.098310 0.051425 1.672917 0.076735 -0.026248 -288816.000000 0 0 1
-27.568538 -1.060023 -3.027772 27.754555 0.038432 1.680105 0.061075 -0.017447 195343.000000 0 0 1
-27.394478 0.175377 -2.455172 27.504837 -0.006402 1.660179 0.069397 -0.022916 92318.800000 0 0 1
-25.885838 0.387877 -2.158772 25.978594 -0.014983 1.653990 0.056918 -0.015970 218468.000000 0 0 1
-25.447958 -0.440823 -1.072072 25.474344 0.017321 1.612893 0.045677 -0.016543 -326227.000000 0 0 1
-24.112958 -0.232323 -0.740372 24.125440 0.009634 1.601490 0.038167 -0.016155 -618065.000000 0 1 0
-23.624058 -1.075223 0.483428 23.653455 0.045482 1.550357 0.029782 -0.018250 -409277.000000 0 1 0
-23.508858 -2.436323 0.111128 23.635025 0.103266 1.566094 0.025342 -0.013015 338143.000000 0 1 0
-22.992158 -3.126823 1.210128 23.235334 0.135166 1.518691 0.023597 -0.011432 -589361.000000 0 1 0
-23.002858 -4.676423 1.101728 23.499238 0.200564 1.523896 0.016295 -0.001903 -614909.000000 0 1 0
-24.190158 -5.160523 1.648328 24.789347 0.210181 1.504254 0.026083 -0.002173 -99.429500 0 1 0
-24.260358 -6.564723 1.508628 25.178096 0.264266 1.510842 0.014216 0.001737 -1050700.000000 0 0 1
-25.484038 -7.125823 2.185128 26.551616 0.272655 1.488406 0.019212 0.004439 -860307.000000 0 0 1
-25.498288 -7.335223 3.573328 26.771941 0.280112 1.436924 0.025734 0.004915 162794.000000 0 0 1
-26.714538 -7.972723 3.904428 28.150939 0.290026 1.431652 0.032681 0.014673 20350.400000 0 0 1
-26.896178 -8.053423 5.418928 28.594174 0.290930 1.380132 0.041179 0.009035 -271808.000000 0 0 1
-26.148078 -9.115323 5.958528 28.325168 0.335431 1.358851 0.039939 0.015916 10324.900000 0 0 1
-26.260408 -9.250723 7.386028 28.805178 0.338695 1.311487 0.030719 0.005299 -322330.000000 0 0 1
-25.596648 -8.158623 8.191128 28.086404 0.308558 1.274855 0.040013 0.001779 1101820.000000 0 0 1
-24.148358 -8.233323 8.027628 26.746469 0.328588 1.265959 0.045862 -0.001132 1339640.000000 0 0 1
-23.650058 -6.949123 8.313928 26.014168 0.285788 1.245497 0.039885 -0.009112 -975030.000000 0 0 1
-22.279058 -6.570223 7.816128 24.507470 0.286777 1.246198 0.050319 -0.011956 -891392.000000 0 1 0
-21.242658 -7.238723 8.470028 23.987309 0.328423 1.209909 0.046384 -0.016603 -136111.000000 0 1 0
-19.986558 -6.849223 7.959528 22.577166 0.330149 1.210504 0.041366 -0.016395 137165.000000 0 1 0
-18.766158 -7.095523 8.868828 21.935616 0.361487 1.154570 0.039784 -0.013408 -71080.000000 0 1 0
-18.825358 -6.325623 10.082528 22.272516 0.324163 1.101017 0.041209 -0.003372 228608.000000 0 1 0
-17.639258 -6.502423 10.819528 21.690715 0.353177 1.048572 0.026757 -0.011335 -460912.000000 0 1 0
-17.359758 -5.231723 11.684328 21.569785 0.292714 0.998339 0.012901 -0.009774 -772591.000000 0 1 0
-18.374158 -5.003723 12.579028 22.822771 0.265877 0.987041 0.026037 -0.005300 -421440.000000 0 1 0
-18.399658 -3.668923 13.041428 22.849228 0.196820 0.963365 0.019831 0.004606 -469770.000000 0 1 0
-19.628958 -3.489123 13.908328 24.308672 0.175916 0.961665 0.026030 0.001621 -454000.000000 0 1 0
-19.525858 -4.240523 15.096528 25.042889 0.213854 0.923757 0.025107 -0.000014 135574.000000 0 0 1
-20.595258 -3.977023 15.981728 26.370381 0.190756 0.919713 0.027346 0.008595 -38477.200000 0 0 1
-20.600358 -4.997323 17.156728 27.270887 0.237987 0.890373 0.019102 0.016810 -203382.000000 0 0 1
-21.452458 -4.722123 18.238728 28.550965 0.216665 0.877842 0.016314 0.014988 396176.000000 0 0 1
-21.184858 -5.574023 19.390028 29.254762 0.257282 0.846246 0.013110 0.012254 -419102.000000 0 0 1
-21.986058 -5.067523 20.613828 30.561355 0.226532 0.830500 0.021815 0.010542 -111236.000000 0 0 1
-21.572858 -3.776523 21.039328 30.369452 0.173303 0.805460 0.007999 0.004985 485479.000000 0 0 1
-22.185758 -3.493123 22.286728 31.640291 0.156167 0.789250 0.015848 -0.001906 19052.600000 0 0 1
-22.206558 -1.954423 22.633028 31.767986 0.087785 0.777816 0.017916 0.000808 42243.700000 0 0 1
-23.214558 -1.292923 21.884028 31.929579 0.055637 0.815665 0.035839 -0.001367 132490.000000 0 0 1
-23.176758 0.098977 22.197228 32.091881 -0.004271 0.806987 0.032467 -0.007933 -744429.000000 0 0 1
-24.353658 0.882777 21.668828 32.610091 -0.036232 0.843996 0.038223 -0.014007 -1589250.000000 0 0 1
-25.457048 0.644177 22.431828 33.936163 -0.025299 0.848645 0.038348 -0.015753 -1203500.000000 0 0 1
-26.560708 1.412177 21.982428 34.506414 -0.053118 0.880127 0.036303 -0.016989 318506.000000 0 0 1
-27.692598 1.412577 23.046328 36.055632 -0.050965 0.877354 0.034649 -0.017590 -223676.000000 0 0 1
-27.312408 2.159877 24.162228 36.530069 -0.078916 0.848067 0.027355 -0.013910 338578.000000 0 0 1
-28.301648 2.123477 25.191828 37.948921 -0.074890 0.844861 0.022768 -0.010476 -15102.000000 0 0 1
-28.085508 3.083077 26.333828 38.623459 -0.109337 0.820563 0.031515 -0.002942 80840.600000 0 0 1
-26.989548 2.718777 27.159328 38.385629 -0.100396 0.784787 0.018171 -0.002675 413584.000000 0 0 1
-26.754138 3.569777 28.229128 39.056509 -0.132646 0.762985 0.017006 -0.004026 -385336.000000 0 0 1
-25.612928 3.137877 29.164928 38.941769 -0.121904 0.724340 0.038981 -0.009332 -190023.000000 0 0 1
-25.917648 2.180877 30.153428 39.820973 -0.083949 0.711743 0.029255 -0.006868 709905.000000 0 0 1
-24.770458 1.971677 30.983028 39.716635 -0.079430 0.675967 0.037939 -0.006201 609722.000000 0 0 1
-25.027058 0.791177 31.914128 40.564654 -0.031602 0.665275 0.026188 -0.002631 578.982000 0 0 1
-25.148378 -0.411723 31.142028 40.030442 0.016370 0.679386 0.022596 -0.009147 137453.000000 0 0 1
-25.638858 -1.440423 32.028428 41.051748 0.056122 0.675817 0.010608 0.002711 74189.700000 0 0 1
-26.407478 -2.641523 31.310828 41.045103 0.099698 0.703103 0.020325 0.008265 1619260.000000 0 0 1
-27.712848 -2.351723 30.731928 41.448570 0.084658 0.735572 0.014515 0.004661 1251800.000000 0 0 1
-27.631898 -1.478823 29.581428 40.506414 0.053468 0.752050 0.014092 0.009176 -81777.800000 0 0 1
-29.091648 -1.147123 29.160528 41.206507 0.039411 0.784604 0.006755 -0.005883 536697.000000 0 0 1
-29.824128 -0.512423 30.176928 42.430981 0.017180 0.779592 0.001379 0.000268 -1307810.000000 0 0 1
-31.168708 -0.452523 29.856728 43.163843 0.014517 0.806946 -0.004116 -0.002753 -608692.000000 0 0 1
-32.027558 -0.149623 31.127428 44.662105 0.004672 0.799655 -0.010116 -0.000849 -176058.000000 0 0 1
-32.009688 -1.248423 32.070528 45.328770 0.038982 0.784829 -0.001216 -0.004457 121607.000000 0 0 1
-32.907908 -0.974723 33.137028 46.711274 0.029611 0.782148 0.010592 -0.001767 22447.800000 0 0 1
-33.146358 -2.179323 34.052928 47.571340 0.065654 0.772986 0.020584 -0.002888 -133500.000000 0 0 1
-34.029838 -3.098323 33.455528 47.821562 0.090797 0.795972 0.014262 -0.009466 -159062.000000 0 0 1
-33.902578 -4.300523 34.091228 48.271017 0.126176 0.786614 0.015824 -0.002853 -583522.000000 0 0 1
-35.089694 -5.184123 33.803328 48.998232 0.146678 0.809461 0.008969 0.001685 -1039910.000000 0 0 1
34.880939 -4.824023 -34.251255 49.123310 -0.137428 2.342351 0.014960 -0.010241 -649739.000000 0 0 1
33.792209 -5.428923 33.832128 48.124832 -0.159295 0.791178 0.014129 -0.013164 117561.000000 0 0 1
32.368799 -4.983823 34.316628 47.436364 -0.152770 0.762047 0.040469 -0.013071 216361.000000 0 0 1
31.952249 -5.503623 -33.162055 46.378422 -0.170572 2.367466 0.030810 -0.011157 257807.000000 0 0 1
31.426489 -6.845323 -33.156355 46.193360 -0.214470 2.371395 0.037667 -0.014158 -733543.000000 0 0 1
30.109519 -7.146523 -33.868955 45.877686 -0.233039 2.401261 0.025834 -0.013243 -315497.000000 0 0 1
29.047159 -6.489723 -33.150255 44.551020 -0.219810 2.409978 0.020910 -0.021314 215767.000000 0 0 1
27.803269 -6.822223 -33.745155 44.252684 -0.240621 2.438052 0.023692 -0.019510 977098.000000 0 0 1
26.595329 -6.468023 -32.752855 42.683678 -0.238570 2.445478 0.024994 -0.023520 1230660.000000 0 0 1
25.355809 -7.112723 -33.030055 42.243253 -0.273488 2.468506 0.013126 -0.023492 -125270.000000 0 0 1
24.428309 -6.913923 -32.020655 40.864006 -0.275815 2.471221 0.014208 -0.025694 28380.900000 0 0 1
22.988309 -7.349523 -32.471955 40.458691 -0.309437 2.502430 0.009490 -0.025884 476795.000000 0 0 1
22.921109 -8.738023 -32.595055 40.794214 -0.364214 2.496446 0.025837 -0.021572 245264.000000 0 0 1
22.785609 -9.435823 -31.392355 39.921156 -0.392613 2.475689 0.030495 -0.017487 -519293.000000 0 0 1
22.583309 -10.933723 -31.452055 40.234114 -0.450888 2.468225 0.033350 -0.011961 -150617.000000 0 0 1
21.367909 -11.349523 -32.025555 40.137705 -0.488254 2.494586 0.035851 -0.014765 -180780.000000 0 0 1
21.273009 -12.756623 -32.076555 40.548462 -0.540171 2.483348 0.040148 -0.003449 -626600.000000 0 0 1
20.035509 -13.262723 -32.844455 40.694959 -0.584738 2.510001 0.036278 -0.003458 474446.000000 0 0 1
18.763609 -12.815023 -32.389455 39.564816 -0.599206 2.529840 0.017208 0.001393 98486.600000 0 0 1
18.466609 -11.598823 -32.941255 39.505375 -0.560823 2.556829 0.025294 -0.005618 -824802.000000 0 0 1
17.099409 -11.065823 -32.433455 38.298450 -0.574367 2.580851 0.026576 -0.003945 232236.000000 0 0 1
16.016809 -11.692723 -33.072855 38.562568 -0.630596 2.601462 0.027443 -0.002209 455808.000000 0 0 1
14.758409 -11.443023 -32.414255 37.409054 -0.659533 2.618907 0.041836 -0.012012 1400990.000000 0 0 1
13.503009 -11.807323 -33.279955 37.806078 -0.718502 2.647250 0.039643 -0.014875 -80358.200000 0 0 1
13.267009 -13.224423 -33.363555 38.262589 -0.783791 2.629994 0.040532 -0.010608 27342.700000 0 0 1
12.119009 -13.538123 -34.108355 38.646229 -0.840653 2.652116 0.032989 -0.011973 -691723.000000 0 0 1
10.796809 -13.568323 -33.388955 37.623035 -0.898661 2.662602 0.032930 -0.011573 -1056110.000000 0 0 1
10.236809 -12.311823 -33.144655 36.809529 -0.877164 2.691569 0.054444 -0.012443 -264018.000000 0 0 1
9.295809 -12.386923 -32.098455 35.639287 -0.927005 2.692055 0.053228 -0.014136 -636245.000000 0 0 1
8.163709 -11.388823 -32.113455 35.037486 -0.948872 2.730152 0.052190 -0.010938 -627517.000000 0 0 1
8.628009 -10.035423 -32.071255 34.694634 -0.860666 2.750221 0.055944 -0.007697 445743.000000 0 0 1
7.622909 -9.153123 -32.589355 34.698047 -0.876361 2.791169 0.064606 -0.010564 189830.000000 0 0 1
8.077809 -7.725323 -32.903755 34.750377 -0.763097 2.814126 0.067101 -0.009184 -302031.000000 0 0 1
8.450109 -7.070923 -31.694855 33.555419 -0.696772 2.807025 0.060728 -0.009815 75427.100000 0 0 1
9.077609 -5.908123 -32.041455 33.822533 -0.576969 2.815622 0.052229 -0.002478 -517956.000000 0 0 1
9.259809 -4.913123 -30.837455 32.570408 -0.487816 2.813919 0.056974 -0.009310 427308.000000 0 0 1
8.017709 -4.374123 -30.370955 31.714532 -0.499426 2.849472 0.059393 -0.011644 607939.000000 0 0 1
8.169909 -3.628023 -29.193055 30.531041 -0.417913 2.844447 0.065706 -0.011875 385035.000000 0 0 1
6.800109 -3.143223 -28.645255 29.608647 -0.432979 2.885798 0.056289 -0.011707 -310864.000000 0 0 1
6.154809 -2.111423 -29.456755 30.166873 -0.330472 2.924187 0.047293 -0.008341 719944.000000 0 0 1
4.919109 -1.563723 -29.018055 29.473554 -0.307785 2.965556 0.045322 -0.012765 398910.000000 0 0 1
3.736509 -2.541723 -28.926955 29.277817 -0.597341 2.986622 0.030548 -0.010567 -1012430.000000 0 0 1
3.850009 -3.427723 -27.825655 28.299098 -0.727439 2.958416 0.033419 -0.019152 -5535.040000 0 0 1
2.762409 -4.345023 -27.790655 28.263592 -1.004494 2.958399 0.035076 -0.014220 221338.000000 0 0 1
2.863309 -5.361123 -26.626855 27.311712 -1.080252 2.917178 0.040292 -0.024364 -53299.000000 0 0 1
2.764709 -4.793023 -25.312455 25.910173 -1.047596 2.926381 0.039208 -0.026085 46320.900000 0 0 1
3.171209 -5.769423 -24.405455 25.277837 -1.068216 2.878108 0.047676 -0.030268 -172157.000000 0 0 1
3.083709 -5.196523 -22.969955 23.751462 -1.035231 2.884355 0.050555 -0.034862 13407.000000 0 1 0
4.067809 -4.232623 -22.680555 23.427969 -0.805252 2.888319 0.051903 -0.030499 -169719.000000 0 1 0
3.950909 -3.778523 -21.353155 22.041873 -0.763099 2.890954 0.048158 -0.033930 -157400.000000 0 1 0
4.915309 -2.653123 -20.944455 21.676474 -0.494953 2.880970 0.054436 -0.036351 -433751.000000 0 1 0
6.255909 -3.066623 -20.858955 21.991739 -0.455774 2.819233 0.054516 -0.031261 -253667.000000 0 1 0
7.057809 -1.949523 -20.464155 21.734649 -0.269502 2.797984 0.063805 -0.021470 106522.000000 0 1 0
8.542609 -2.293423 -20.269755 22.115581 -0.262284 2.730131 0.056233 -0.018997 -919090.000000 0 1 0
9.282809 -2.458223 -21.483855 23.532306 -0.258872 2.721256 0.064772 -0.024900 707116.000000 0 1 0
10.557909 -3.073323 -21.303555 23.974074 -0.283264 2.665098 0.061632 -0.022292 916641.000000 0 1 0
11.663009 -2.351323 -20.480955 23.685946 -0.198938 2.615325 0.036711 -0.017000 -894515.000000 0 1 0
11.547809 -2.387823 -19.082955 22.432405 -0.203903 2.588087 0.044005 -0.010965 258655.000000 0 1 0
12.675509 -1.787823 -18.470355 22.472625 -0.140121 2.535543 0.032570 -0.013785 -58736.100000 0 1 0
12.718809 -0.215123 -18.447555 22.408183 -0.016912 2.537910 0.028285 -0.011530 -228872.000000 0 1 0
13.051309 0.325577 -19.672455 23.610340 0.024941 2.555690 0.027299 -0.016446 170551.000000 0 1 0
12.718909 1.674277 -19.668955 23.482795 0.130884 2.563653 0.026028 -0.020970 -204011.000000 0 1 0
13.032309 2.358377 -21.006855 24.833264 0.179026 2.579077 0.031987 -0.017509 -512924.000000 0 1 0
14.378909 2.470477 -21.368655 25.874229 0.170151 2.542533 0.032544 -0.015013 -187261.000000 0 0 1
14.459809 3.448977 -22.375655 26.863571 0.234147 2.555190 0.041322 -0.019995 443083.000000 0 0 1
15.920509 3.784477 -22.840755 28.097775 0.233379 2.519915 0.038600 -0.016268 995588.000000 0 0 1
16.531209 2.839177 -23.751355 29.076944 0.170087 2.526717 0.026717 -0.014369 166563.000000 0 0 1
17.379309 1.917677 -23.113155 28.981646 0.109898 2.493953 0.022812 -0.016908 -397837.000000 0 0 1
9.384842 27.132677 3.275728 28.896156 1.237790 1.457190 -0.002680 0.003384 149018.000000 0 0 1
9.209442 27.402777 4.636128 29.278315 1.246579 1.411780 0.000675 -0.001127 100028.000000 0 0 1
10.383742 28.004077 5.146928 30.307447 1.215718 1.400145 0.007561 -0.002997 -10884.600000 0 0 1
10.180542 28.707477 6.577128 31.161215 1.230002 1.358129 0.003873 -0.011068 47627.800000 0 0 1
10.192742 27.733177 7.585828 30.505178 1.218592 1.319486 0.003639 -0.013576 56602.000000 0 0 1
10.004842 28.325377 8.879528 31.325228 1.231264 1.283394 0.006860 -0.014726 -711283.000000 0 0 1
9.999942 27.205177 10.010028 30.664657 1.218551 1.238266 0.016119 -0.009975 -153944.000000 0 0 1
11.274942 26.764377 10.423028 30.856049 1.172092 1.226223 0.025095 -0.011040 -95562.100000 0 0 1
11.821542 25.802177 9.550128 29.945052 1.141177 1.246205 0.023226 -0.012744 497472.000000 0 0 1
13.119142 25.206477 10.239328 30.204672 1.090909 1.224945 0.026875 -0.015417 453583.000000 0 0 1
14.234942 26.056277 10.257528 31.413055 1.070786 1.238159 0.030635 -0.020041 -1023060.000000 0 0 1
15.319342 25.269877 10.536328 31.372969 1.025809 1.228298 0.042326 -0.012758 98423.900000 0 0 1
16.730042 25.921277 10.784428 32.681965 0.997649 1.234513 0.035325 -0.013241 403835.000000 0 0 1
17.286942 26.601477 9.663728 33.164207 0.994527 1.275116 0.029070 -0.016386 1733650.000000 0 0 1
18.747042 26.652677 9.732628 34.007953 0.957803 1.280552 0.029221 -0.024046 1996490.000000 0 0 1
19.452442 27.494277 10.898628 35.399335 0.955049 1.257836 0.025883 -0.017709 -475712.000000 0 0 1
19.315642 28.862177 10.710828 36.343378 0.981016 1.271642 0.027849 -0.024207 -22501.600000 0 0 1
18.030642 29.417177 10.880128 36.178054 1.020924 1.265330 0.018872 -0.012362 -43344.200000 0 0 1
18.089842 30.958177 11.283128 37.589362 1.041977 1.265927 0.008582 -0.000299 -445503.000000 0 0 1
18.580842 31.826377 10.221628 38.244577 1.042360 1.300237 0.022498 -0.022896 -65548.800000 0 0 1
17.834842 32.003477 9.033328 37.734668 1.062382 1.329058 0.039460 -0.031311 562796.000000 0 0 1
16.353542 32.481377 9.175728 37.505629 1.104373 1.323638 0.029925 -0.024975 164368.000000 0 0 1
16.338142 33.741877 9.685128 38.720161 1.119861 1.317980 0.021900 -0.019300 -556222.000000 0 0 1
15.052342 34.221577 9.943528 38.685438 1.156416 1.310843 0.025659 -0.009386 -241159.000000 0 0 1
15.039842 -33.153532 10.095528 37.779270 -1.144918 1.300285 0.022478 -0.009692 -17673.400000 0 0 1
15.341642 -32.566132 8.799028 37.058627 -1.130541 1.331071 0.022926 -0.012201 -49800.800000 0 0 1
15.476642 -31.176232 8.947628 35.938057 -1.110013 1.319176 0.041006 -0.001473 -365090.000000 0 0 1
16.209542 -30.559032 7.759328 35.451529 -1.083099 1.350139 0.026979 0.003096 -266018.000000 0 0 1
15.547642 -30.620532 6.549128 34.960510 -1.100966 1.382354 0.030351 -0.000112 -776241.000000 0 0 1
16.317742 -30.082332 5.506328 34.663166 -1.073779 1.411268 0.017566 0.012916 14680.400000 0 0 1
15.795842 -30.278732 4.040328 34.389454 -1.089955 1.453037 0.023553 -0.009078 -110484.000000 0 0 1
16.022942 -31.649832 3.631228 35.659955 -1.102156 1.468790 0.027442 -0.013826 -21187.200000 0 0 1
15.930542 -31.799832 2.262028 35.638859 -1.106379 1.507283 0.028839 -0.020421 -18790.000000 0 0 1
16.449842 -33.221732 1.781028 37.114052 -1.111034 1.522790 0.039222 -0.019384 69101.200000 0 0 1
17.855442 -33.313332 1.934828 37.846248 -1.078777 1.519651 0.044102 -0.009885 -63131.900000 0 0 1
18.314142 34.435577 1.329328 39.025426 1.082004 1.536727 0.078942 -0.014029 480119.000000 0 0 1
19.812142 34.129177 1.652028 39.497480 1.044835 1.528958 0.089569 -0.014066 544956.000000 0 0 1
20.030042 33.831477 2.992728 39.430038 1.036240 1.494824 0.077413 -0.035309 -21444.100000 0 0 1
21.315842 33.366077 3.348728 39.735050 1.002301 1.486420 0.048705 -0.022451 -80432.400000 0 0 1
21.498242 33.205077 4.848628 39.852990 0.996224 1.448831 0.053932 -0.014778 38113.600000 0 0 1
20.818242 32.132277 5.513928 38.681854 0.995905 1.427764 0.061644 -0.026872 273042.000000 0 0 1
21.732842 31.104577 5.800828 38.385684 0.960942 1.419096 0.047879 -0.023768 -14670.600000 0 0 1
21.052742 30.048977 6.669328 37.291272 0.959658 1.390985 0.051291 -0.030683 277671.000000 0 0 1
19.913142 29.534277 5.990428 36.120520 0.977570 1.404181 0.058135 -0.027275 -238595.000000 0 0 1
18.980142 29.087677 6.950928 35.421098 0.992655 1.373278 0.052657 -0.039390 327453.000000 0 0 1
17.506042 29.108677 6.419828 34.568639 1.029346 1.383999 0.063264 -0.036263 65380.400000 0 0 1
16.943142 30.382477 6.266128 35.347268 1.062090 1.392581 0.056739 -0.044863 -316777.000000 0 0 1
17.429042 31.157577 5.169928 36.073457 1.060777 1.426984 0.072491 -0.048094 -580453.000000 0 0 1
17.192842 32.637377 5.261128 37.262202 1.085952 1.429131 0.073154 -0.044195 188027.000000 0 0 1
15.875142 33.119377 5.085628 37.077984 1.123820 1.433202 0.051334 -0.039771 -144036.000000 0 0 1
15.890942 -34.401232 5.327828 38.266860 -1.138066 1.431114 0.037678 -0.037913 -882864.000000 0 0 1
14.495942 -33.848532 5.475828 37.226874 -1.166168 1.423167 0.035003 -0.036284 -1297640.000000 0 0 1
13.686642 -33.915332 4.383928 36.834668 -1.187231 1.451497 0.044305 -0.034841 -1185890.000000 0 0 1
12.624842 -33.033232 4.536928 35.653398 -1.205740 1.443199 0.042799 -0.028176 -114189.000000 0 0 1
11.548242 -33.036432 3.411128 35.162531 -1.234513 1.473633 0.038280 -0.027676 -205679.000000 0 0 1
10.635442 -31.990732 3.447128 33.888085 -1.249838 1.468899 0.027765 -0.028695 -513181.000000 0 0 1
9.984642 -31.953632 2.160128 33.546890 -1.267936 1.506360 0.031036 -0.021828 -674832.000000 0 0 1
9.192842 -30.617732 2.236028 32.046118 -1.279114 1.500964 0.038141 -0.021326 129049.000000 0 0 1
8.579042 -30.166032 1.004828 31.378323 -1.293718 1.538768 0.042724 -0.007832 -99940.200000 0 0 1
7.608742 -30.985532 0.425128 31.908885 -1.330003 1.557473 0.029267 -0.012215 -1349940.000000 0 0 1
7.976742 -31.460432 -0.990172 32.471028 -1.322481 1.601295 0.037892 -0.011160 -216868.000000 0 0 1
8.901242 -32.512032 -0.886172 33.720167 -1.303562 1.597080 0.031008 -0.015241 -331445.000000 0 0 1
9.168842 -33.096932 -2.178872 34.412528 -1.300544 1.634155 0.021436 0.002674 -375136.000000 0 0 1
10.416442 -33.972732 -2.177172 35.600406 -1.273285 1.631990 0.028699 -0.003651 -405140.000000 0 0 1
10.372242 33.985577 -1.120472 35.550785 1.274580 1.602319 0.030196 -0.008257 -317847.000000 0 0 1
11.495642 33.140277 -1.123172 35.095431 1.236905 1.602805 0.049636 -0.017849 -344190.000000 0 0 1
11.721342 32.332477 0.124228 34.391778 1.223007 1.567184 0.043370 -0.020761 -935390.000000 0 0 1
11.970742 33.065077 1.334828 35.190621 1.223440 1.532856 0.041603 -0.024440 322715.000000 0 0 1
13.278242 33.641777 1.434828 36.195851 1.194872 1.531145 0.052184 -0.023045 366202.000000 0 0 1
14.391342 32.580077 1.684128 35.656815 1.154848 1.523547 0.073856 -0.032205 -841285.000000 0 0 1
14.795142 31.939877 0.523728 35.204066 1.137004 1.555919 0.080711 -0.029087 -642779.000000 0 0 1
15.751242 30.974377 0.804828 34.758617 1.100352 1.547639 0.087508 -0.025573 -652522.000000 0 0 1
16.474342 30.409077 -0.479572 34.588234 1.074303 1.584662 0.072252 -0.014086 714305.000000 0 0 1
17.536242 31.197977 -1.018472 35.803224 1.058714 1.599247 0.053660 -0.003812 429850.000000 0 0 1
17.032142 32.325877 -1.700272 36.577960 1.085870 1.617297 0.055647 -0.007388 133947.000000 0 0 1
18.111842 32.991177 -2.633072 37.727837 1.068729 1.640644 0.039499 -0.000952 142678.000000 0 0 1
19.071842 33.592777 -1.829072 38.672411 1.054438 1.618111 0.038515 0.000784 -620984.000000 0 0 1
20.154142 34.079477 -2.583172 39.677109 1.036734 1.635947 0.037390 0.003989 -1070770.000000 0 0 1
21.089242 -33.843132 -1.804772 39.917051 -1.013531 1.616025 0.039213 0.004385 -253714.000000 0 0 1
22.188242 -34.376532 -1.054072 40.928903 -0.997628 1.596553 0.032995 0.000817 1436640.000000 0 0 1
23.156942 33.822677 -1.888072 41.033916 0.970442 1.616825 0.030880 0.006325 -124512.000000 0 0 1
23.894942 -34.447732 -3.065472 42.035838 -0.964339 1.643786 0.016423 0.003487 -788332.000000 0 0 1
22.959342 -33.972932 -4.062972 41.204360 -0.976488 1.669562 0.005487 -0.000920 151533.000000 0 0 1
23.649842 -33.439632 -5.155472 41.280782 -0.955228 1.696011 0.012881 -0.004197 -472997.000000 0 0 1
22.860642 -32.929932 -6.360872 40.588793 -0.963960 1.728160 0.019219 -0.010923 -253059.000000 0 0 1
21.954142 -31.892932 -5.959972 39.174798 -0.967918 1.723527 0.024330 -0.009094 508401.000000 0 0 1
21.182742 -31.420032 -7.047272 38.543366 -0.977611 1.754671 0.028216 -0.013543 -187032.000000 0 0 1
20.131142 -30.345532 -6.849672 37.054450 -0.985061 1.756720 0.047677 -0.016102 -189481.000000 0 0 1
18.941042 -30.759832 -6.219072 36.655248 -1.018860 1.741285 0.031956 -0.009100 -225160.000000 0 0 1
18.103842 -29.622332 -6.061472 35.241639 -1.022215 1.743653 0.040119 -0.021649 337613.000000 0 0 1
16.908442 -29.806432 -5.102872 34.646185 -1.054787 1.718619 0.038331 -0.009755 777261.000000 0 0 1
15.744142 -30.452932 -5.627172 34.740814 -1.093642 1.733489 0.039227 -0.011546 391267.000000 0 0 1
14.719442 -30.565632 -4.646272 34.241900 -1.122002 1.706906 0.032290 -0.010891 469534.000000 0 0 1
13.639942 -31.578332 -5.139972 34.780144 -1.163062 1.719124 0.025802 -0.006462 28121.900000 0 0 1
14.003542 -32.913232 -4.992572 36.115175 -1.168529 1.709481 0.023510 -0.002395 218500.000000 0 0 1
12.906942 -33.750032 -5.320472 36.523435 -1.205530 1.716989 0.022683 0.000632 106939.000000 0 0 1
13.337142 33.661677 -5.238372 36.584538 1.193560 1.714476 0.023852 0.003990 -59590.100000 0 0 1
13.478742 33.153477 -3.904572 36.001045 1.184651 1.679467 0.038313 -0.006264 3475.230000 0 0 1
13.784542 31.718877 -3.844972 34.797767 1.160835 1.681517 0.042824 -0.008150 -521649.000000 0 0 1
12.766442 30.726877 -4.347172 33.556236 1.177016 1.700710 0.036367 -0.009870 -136372.000000 0 0 1
11.649442 30.415577 -3.512872 32.759077 1.205023 1.678236 0.035026 -0.012756 116854.000000 0 0 1
11.722042 29.166877 -2.842672 31.562538 1.188657 1.660983 0.039635 -0.020506 -657961.000000 0 0 1
10.612242 28.781677 -1.903672 30.734811 1.217547 1.632775 0.038506 -0.015188 -754306.000000 0 0 1
10.472442 29.616977 -0.771572 31.423442 1.230922 1.595353 0.019030 -0.011313 138904.000000 0 0 1
9.514542 29.094677 0.163328 30.611329 1.254738 1.565461 0.002290 0.005615 445864.000000 0 0 1
8.067542 29.621077 -0.000872 30.700056 1.304888 1.570825 0.001761 0.013743 -100764.000000 0 0 1
7.174642 28.903677 0.820428 29.792133 1.327488 1.543254 -0.001122 0.010311 -322795.000000 0 0 1
5.941842 29.606077 0.870428 30.208988 1.372731 1.541979 0.004521 0.016057 -582829.000000 0 0 1
4.926242 28.802077 1.635028 29.266036 1.401398 1.514899 0.002386 0.016051 -663840.000000 0 0 1
4.629142 27.594377 0.975028 27.996952 1.404587 1.535963 0.003303 0.008134 -172181.000000 0 0 1
3.529142 27.014077 1.646428 27.293332 1.440891 1.510436 0.007996 0.000134 -131309.000000 0 0 1
2.814442 26.062477 0.699428 26.223330 1.463225 1.544121 0.017187 0.000354 -807659.000000 0 0 1
1.687542 25.528577 1.312828 25.617954 1.504788 1.519527 0.023631 -0.004952 -635550.000000 0 0 1
1.190842 24.562177 0.357628 24.593629 1.522352 1.556254 0.021393 -0.007025 -372125.000000 0 1 0
-0.156058 24.044677 0.851728 24.060264 -1.564306 1.535389 0.022365 -0.004468 -773883.000000 0 1 0
-1.210858 24.952277 0.755128 24.993050 -1.522307 1.540578 0.030001 -0.006701 -479831.000000 0 1 0
-2.380858 24.224077 1.101928 24.365727 -1.472826 1.525556 0.024003 -0.002741 -120515.000000 0 1 0
-3.633758 25.110677 1.274628 25.404232 -1.427084 1.520601 0.037660 -0.012476 -1014610.000000 0 0 1
-4.739058 24.311177 1.537128 24.816422 -1.378277 1.508817 0.030739 -0.013036 110426.000000 0 1 0
-5.853858 25.024277 2.133728 25.788271 -1.341001 1.487961 0.031154 -0.010338 654196.000000 0 0 1
-6.893158 25.449177 1.095628 26.388950 -1.306283 1.529266 0.027285 -0.007794 -875968.000000 0 0 1
-6.629658 26.671577 0.449128 27.486854 -1.327167 1.554456 0.029680 -0.009034 -123963.000000 0 0 1
-7.443358 26.871177 -0.673972 27.891181 -1.300570 1.594963 0.016580 -0.002016 -305819.000000 0 0 1
-7.084558 28.121777 -1.475472 29.037947 -1.324007 1.621630 0.011499 0.004658 29955.200000 0 0 1
-7.429658 29.326777 -0.831172 30.264675 -1.322676 1.598263 0.021663 -0.008575 -56536.800000 0 0 1
-7.317758 30.324477 -1.843672 31.249362 -1.334008 1.629829 0.023779 -0.004551 -311306.000000 0 0 1
-7.451958 31.744577 -1.325372 32.634437 -1.340224 1.611420 0.027463 -0.005013 -628140.000000 0 0 1
-7.577258 32.767177 -2.276272 33.708814 -1.343545 1.638375 0.027544 0.004234 1063200.000000 0 0 1
-6.399958 33.022477 -3.101172 33.779591 -1.379363 1.662732 0.023164 0.003508 1372430.000000 0 0 1
-5.112458 33.575077 -2.426372 34.048647 -1.419688 1.642119 0.018855 0.001308 -255096.000000 0 0 1
-5.098158 -33.952032 -2.125872 34.398416 1.421752 1.632637 0.028377 0.003904 57687.100000 0 0 1
-4.100558 -33.587232 -1.182872 33.857288 1.449311 1.605740 0.026293 0.002197 96173.000000 0 0 1
-3.906558 -32.044432 -0.890072 32.293948 1.449484 1.598361 0.036890 -0.004155 445455.000000 0 0 1
-5.102158 -31.444632 -0.386172 31.858218 1.409940 1.582918 0.045094 -0.010402 278463.000000 0 0 1
-5.513058 -30.457232 -1.336372 30.981006 1.391725 1.613945 0.050674 -0.006895 460419.000000 0 0 1
-6.986558 -30.025032 -1.044272 30.844855 1.342174 1.604658 0.077105 -0.015292 456470.000000 0 0 1
-7.159758 -29.248732 0.139928 30.112623 1.330728 1.566149 0.059097 -0.006215 201187.000000 0 0 1
-8.365958 -28.485332 0.027728 29.688452 1.285135 1.569862 0.034672 -0.004097 551755.000000 0 0 1
-8.779058 -27.664332 1.267928 29.051588 1.263506 1.527138 0.040208 0.004112 113900.000000 0 0 1
-7.678958 -26.817732 1.549328 27.938461 1.291919 1.515313 0.032111 -0.004842 -124326.000000 0 0 1
-7.328158 -26.637432 2.939728 27.783029 1.302330 1.464788 0.037626 -0.002223 -161464.000000 0 0 1
-8.158058 -25.720232 3.792328 27.248230 1.263649 1.431166 0.024459 0.003610 -510906.000000 0 0 1
-7.783858 -24.342232 3.523728 25.798244 1.261304 1.433780 0.020019 0.006715 -825564.000000 0 0 1
-8.614158 -23.362832 4.007128 25.220681 1.217550 1.411238 0.023596 0.008366 -664456.000000 0 0 1
-8.051558 -21.917432 4.053528 23.698787 1.218742 1.398907 -0.000807 0.009885 111696.000000 0 1 0
-7.114458 -21.909232 5.102028 23.593657 1.256814 1.352829 -0.002194 0.010375 -466150.000000 0 1 0
-6.474158 -20.683432 5.358428 22.325587 1.267445 1.328417 -0.016948 0.011055 153990.000000 0 1 0
-7.388258 -19.554932 6.020228 21.753733 1.209555 1.290392 -0.007757 0.008396 607695.000000 0 1 0
-7.923058 -20.008732 7.255228 22.710406 1.193760 1.245629 -0.005458 0.006707 -112442.000000 0 1 0
-8.844358 -19.094132 7.809928 22.445568 1.137022 1.215413 -0.003354 0.001722 -261145.000000 0 1 0
-26.892148 29.426377 -5.868872 40.293212 -0.830366 1.716970 0.048092 -0.001825 -323211.000000 0 0 1
-26.286228 30.181577 -4.885972 40.320790 -0.854273 1.692272 0.048132 -0.010952 -309487.000000 0 0 1
-25.323988 29.324977 -4.277372 38.981465 -0.858480 1.680746 0.035841 -0.006192 504039.000000 0 0 1
-24.240758 30.093877 -3.413072 38.793103 -0.892708 1.658892 0.027539 -0.013101 321150.000000 0 0 1
-24.721858 30.689777 -2.219072 39.470964 -0.892686 1.627046 0.027249 -0.019592 169836.000000 0 0 1
-23.976158 31.844777 -1.841072 39.904079 -0.925437 1.616950 0.035229 -0.017076 1000480.000000 0 0 1
-22.694758 31.673077 -0.925472 38.975535 -0.949061 1.594544 0.034442 -0.009112 563590.000000 0 0 1
-21.664958 31.013877 -1.580272 37.864604 -0.961040 1.612543 0.030580 -0.009648 -1126810.000000 0 0 1
-20.443058 31.144777 -0.933072 37.266425 -0.989944 1.595837 0.021586 0.002146 -385591.000000 0 0 1
-19.343658 30.240777 -1.602872 35.933980 -1.001728 1.615417 0.033306 -0.008033 -492185.000000 0 0 1
-18.162058 30.482177 -0.906572 35.494300 -1.033452 1.596340 0.033481 -0.005453 -298808.000000 0 0 1
-17.183558 29.519777 -1.382472 34.184838 -1.043640 1.611248 0.031853 -0.005847 -134716.000000 0 0 1
-15.734758 29.826777 -1.075772 33.739836 -1.085362 1.602686 0.032064 -0.004946 -740104.000000 0 0 1
-15.263758 29.445777 0.174428 33.167251 -1.092562 1.565537 0.035817 -0.001831 -112675.000000 0 0 1
-14.158558 30.214377 0.609628 33.372818 -1.132580 1.552528 0.032630 -0.002144 84766.600000 0 0 1
-13.530058 29.506277 1.835428 32.512331 -1.140856 1.514313 0.031104 -0.005921 -321304.000000 0 0 1
-14.405158 29.424477 2.952228 32.894135 -1.115533 1.480926 0.041298 -0.007261 237175.000000 0 0 1
-13.851458 28.547777 3.980528 31.979417 -1.119057 1.446001 0.039234 -0.014173 430754.000000 0 0 1
-12.826258 29.260177 4.902628 32.321922 -1.157671 1.418527 0.040546 -0.007724 -65026.600000 0 0 1
-13.293358 30.248777 5.792028 33.544739 -1.156736 1.397261 0.039952 -0.010932 -351633.000000 0 0 1
-13.363058 31.576077 5.201528 34.679618 -1.170450 1.420240 0.033683 -0.007727 -48422.700000 0 0 1
-13.278558 32.714577 6.230528 35.852241 -1.185222 1.396126 0.040675 -0.014697 486623.000000 0 0 1
-14.447858 32.943777 7.014428 36.650174 -1.157496 1.378220 0.047111 -0.014420 446496.000000 0 0 1
-14.135558 34.149977 7.768928 37.767595 -1.178343 1.363614 0.064461 -0.015584 494966.000000 0 0 1
-15.266558 -34.352732 8.735928 38.593969 1.152604 1.342463 0.052087 -0.013750 156995.000000 0 0 1
-15.310258 33.729977 9.817628 38.321028 -1.144698 1.311713 0.037360 -0.019184 830636.000000 0 0 1
-16.566058 33.816677 10.540328 39.103714 -1.115279 1.297873 0.049983 -0.022837 535162.000000 0 0 1
-16.609658 33.111277 11.932428 38.918123 -1.105844 1.259174 0.053775 -0.015538 188702.000000 0 0 1
-15.750658 33.617677 12.954328 39.319792 -1.132646 1.235064 0.068474 -0.027440 570746.000000 0 0 1
-14.406458 33.157477 12.768428 38.340541 -1.160919 1.231285 0.068786 -0.026297 220793.000000 0 0 1
-13.493658 33.238977 14.027728 38.518639 -1.185164 1.198044 0.081889 -0.028120 -157809.000000 0 0 1
-13.619358 32.204177 15.054828 38.068935 -1.170700 1.164225 0.078564 -0.026351 221157.000000 0 0 1
-13.172258 30.864077 14.787828 36.671235 -1.167417 1.155726 0.054847 -0.026106 -73568.900000 0 0 1
-14.194658 29.956077 14.049028 36.003195 -1.128288 1.169930 0.060133 -0.024486 -12180.500000 0 0 1
-14.007958 29.994677 12.671428 35.446701 -1.133883 1.205230 0.057027 -0.021456 122777.000000 0 0 1
-15.154558 29.693077 11.901628 35.397574 -1.098884 1.227888 0.040098 -0.017146 -197337.000000 0 0 1
-14.959558 29.493877 10.379228 34.661298 -1.101398 1.266683 0.032958 -0.008598 -205839.000000 0 0 1
-14.388258 28.278577 9.971428 33.258522 -1.100130 1.266297 0.023451 -0.012607 18530.200000 0 0 1
-14.305258 28.255877 8.611528 32.820625 -1.102141 1.305307 0.019525 -0.008616 -590908.000000 0 0 1
-13.377058 27.143677 8.142028 31.337159 -1.112906 1.307960 0.025817 -0.004258 124538.000000 0 0 1
-11.995658 27.381277 8.374128 31.044423 -1.157885 1.297666 0.032029 -0.006998 528756.000000 0 0 1
-11.201958 26.200377 8.267328 29.669721 -1.166768 1.288413 0.041726 -0.005863 669226.000000 0 0 1
-10.018358 26.303077 7.241428 29.062995 -1.206879 1.318980 0.047657 -0.011448 64995.200000 0 0 1
-10.499558 26.428977 5.901228 29.044036 -1.192642 1.366190 0.046829 -0.008531 917186.000000 0 0 1
-9.513158 26.191277 4.864628 28.286884 -1.222394 1.397962 0.051452 -0.005333 264336.000000 0 0 1
-9.940958 26.764277 3.456528 28.759290 -1.215162 1.450317 0.040178 -0.008939 -56129.200000 0 0 1
-9.863558 28.162777 3.250928 30.016668 -1.233913 1.462279 0.044608 -0.007827 132579.000000 0 0 1
-9.963358 28.417577 1.860628 30.170998 -1.233582 1.509088 0.031211 -0.009141 60523.200000 0 0 1
-9.514858 29.843577 1.459528 31.357644 -1.262160 1.524235 0.036440 -0.008969 607739.000000 0 0 1
-10.579458 30.724977 1.833728 32.547069 -1.239184 1.514426 0.033664 -0.006560 412261.000000 0 0 1
-10.255158 32.066377 1.488828 33.699220 -1.261265 1.526602 0.041339 -0.006926 -111327.000000 0 0 1
-10.888658 33.112677 2.461028 34.943797 -1.253098 1.500310 0.036934 -0.004445 -671953.000000 0 0 1
-12.234658 33.363477 2.298728 35.610288 -1.219315 1.506199 0.035546 -0.003501 -1123910.000000 0 0 1
-12.375458 34.401677 1.309928 36.583374 -1.225476 1.534982 0.024262 -0.002264 585558.000000 0 0 1
-13.851458 -34.306532 0.793028 37.005810 1.187056 1.549365 0.021834 -0.001043 1294160.000000 0 0 1
-14.527858 33.519477 0.120828 36.532569 -1.161819 1.567489 0.018257 -0.000417 202451.000000 0 0 1
-14.514358 33.536077 -1.292572 36.565090 -1.162339 1.606154 0.019852 -0.007292 181151.000000 0 0 1
-13.161358 33.340877 -2.041572 35.902694 -1.194823 1.627691 0.026116 -0.004770 274466.000000 0 0 1
-12.707758 31.982377 -2.090672 34.477971 -1.192588 1.631471 0.020211 -0.003099 311894.000000 0 0 1
-11.326158 31.880377 -2.404772 33.917890 -1.229434 1.641756 0.017305 -0.001848 300635.000000 0 0 1
-10.893758 30.397777 -2.612972 32.396396 -1.226681 1.651540 0.001510 -0.006657 -235402.000000 0 0 1
-11.226058 29.843777 -3.875672 32.120029 -1.211008 1.691753 0.016532 -0.008499 -259393.000000 0 0 1
-10.204158 30.003177 -4.826472 32.056362 -1.242966 1.721933 0.019652 -0.003878 -188937.000000 0 0 1
-10.371858 29.421777 -6.286772 31.823575 -1.231875 1.769655 0.022542 -0.003199 -157611.000000 0 0 1
-10.684358 28.023277 -6.283572 30.642175 -1.206542 1.777324 0.025114 0.001586 172772.000000 0 0 1
-10.414058 27.417977 -7.505172 30.274175 -1.207801 1.821315 0.030754 0.001815 239351.000000 0 0 1
-11.044758 26.003477 -7.576072 29.250032 -1.169145 1.832794 0.042236 -0.012254 632534.000000 0 0 1
-10.264058 25.096877 -6.783672 27.950355 -1.182575 1.815949 0.015119 -0.003126 384740.000000 0 0 1
-10.797558 23.804977 -6.948172 27.047020 -1.144966 1.830602 0.055345 -0.021592 149044.000000 0 0 1
-10.160358 22.720777 -5.998572 25.601747 -1.150287 1.807298 0.030482 -0.015055 768415.000000 0 0 1
-8.845658 22.189577 -6.245372 24.690640 -1.191463 1.826519 0.024539 -0.016012 888047.000000 0 1 0
-8.457358 21.028377 -5.521672 23.328275 -1.188405 1.809758 0.027539 -0.016563 -247487.000000 0 1 0
-8.226058 21.050877 -3.960172 22.945379 -1.198272 1.744256 0.015321 -0.017474 1178300.000000 0 1 0
-9.487358 21.048377 -3.226772 23.312147 -1.147327 1.709658 0.024695 -0.016674 1178080.000000 0 1 0
-10.159758 19.801177 -3.277272 22.495507 -1.096733 1.717002 0.031996 -0.017874 247606.000000 0 1 0
-11.458158 19.836277 -2.389972 23.032135 -1.046983 1.674750 0.029212 -0.017186 391834.000000 0 1 0
-11.232158 19.670677 -0.984772 22.673039 -1.051966 1.614244 0.025910 -0.020871 269940.000000 0 1 0
-11.032358 18.338777 -0.573472 21.409170 -1.029211 1.597586 0.032920 -0.028182 -365930.000000 0 1 0
-10.843258 18.202077 0.959928 21.208803 -1.033533 1.525520 0.032964 -0.022454 1148870.000000 0 1 0
-12.060358 18.264777 1.792228 21.960565 -0.987210 1.489094 0.046567 -0.020349 1511520.000000 0 1 0
-11.734458 18.419277 3.164228 22.067615 -1.003561 1.426913 0.039912 -0.014376 -375439.000000 0 1 0
-12.964858 18.417477 4.066828 22.887335 -0.957429 1.392159 0.041075 -0.015445 -102850.000000 0 1 0
-13.451558 17.137877 4.404028 22.227162 -0.905329 1.371339 0.025027 -0.022702 -295763.000000 0 1 0
-14.731558 17.192177 4.952428 23.175770 -0.862324 1.355446 0.033293 -0.024731 -468162.000000 0 1 0
-15.148758 15.806277 5.511828 22.576614 -0.806636 1.324165 0.022029 -0.024220 -729258.000000 0 1 0
-14.411058 15.316177 6.574028 22.033650 -0.815836 1.267819 0.021723 -0.019112 -461831.000000 0 1 0
-14.902958 15.850877 7.829228 23.122398 -0.816211 1.225368 0.014558 -0.015795 -974892.000000 0 1 0
-13.881958 15.782377 9.018728 22.872028 -0.849375 1.165477 0.006264 -0.005221 1197210.000000 0 1 0
-12.670058 16.542277 8.857528 22.641403 -0.917184 1.168851 0.009362 -0.015083 723491.000000 0 1 0
-11.859358 16.103477 7.764928 21.453682 -0.936026 1.200449 0.009778 -0.017735 -2000990.000000 0 1 0
-10.711958 17.048677 7.477228 21.478184 -1.009816 1.215219 0.015380 -0.028195 -704599.000000 0 1 0
-9.756258 17.073177 8.480628 21.414925 -1.051643 1.163624 0.014544 -0.022636 -442217.000000 0 1 0
-8.903358 18.201977 8.318428 21.903835 -1.115873 1.181248 0.010634 -0.027715 -1105550.000000 0 1 0
-7.762758 18.332577 9.226428 21.942442 -1.170247 1.136819 0.015472 -0.020403 -1699770.000000 0 1 0
-6.690158 17.476077 8.855828 20.702589 -1.205189 1.128778 0.006557 -0.017685 20325.500000 0 1 0
-5.517558 17.681877 9.626728 20.875012 -1.268325 1.091494 0.008529 -0.019946 273818.000000 0 1 0
-4.612658 18.825277 9.163228 21.439040 -1.330506 1.129172 0.010132 -0.020266 -1565420.000000 0 1 0
-5.170358 20.123277 9.310028 22.767422 -1.319302 1.149527 0.024865 -0.022944 -76335.200000 0 1 0
-4.568958 21.050277 8.409128 23.123646 -1.357062 1.198603 0.029369 -0.027484 1844090.000000 0 1 0
-3.061058 21.513077 8.726128 23.416402 -1.429457 1.188933 0.029240 -0.023347 1703670.000000 0 1 0
-2.026658 20.583577 8.446628 22.341364 -1.472653 1.183084 0.014610 -0.011520 -1115020.000000 0 1 0
-0.865358 21.297077 8.292428 22.870914 -1.530186 1.199767 0.012961 -0.014866 -465073.000000 0 1 0
0.463942 20.492677 8.229628 22.088274 1.548161 1.189010 0.016457 -0.006564 377564.000000 0 1 0
0.952142 20.209077 9.496628 22.349482 1.523717 1.131928 0.015208 -0.001636 -593550.000000 0 1 0
2.093142 19.375577 9.409028 21.640796 1.463184 1.121000 0.008627 -0.017459 -159709.000000 0 1 0
2.692042 19.216477 10.785028 22.199931 1.431612 1.063503 -0.002646 -0.015379 -832902.000000 0 1 0
3.711242 18.237477 10.737628 21.486637 1.370042 1.047503 0.010859 -0.017117 -233636.000000 0 1 0
4.505542 18.317377 11.904328 22.305588 1.329613 1.007835 0.008830 -0.010987 -306301.000000 0 1 0
5.930942 18.762077 11.596228 22.839968 1.264623 1.038264 0.021633 -0.013370 -435010.000000 0 1 0
6.909142 17.912777 11.052728 22.153253 1.202669 1.048443 0.024693 -0.006016 599529.000000 0 1 0
7.680442 17.091077 11.998828 22.250078 1.148455 1.001225 0.021648 -0.001616 43737.600000 0 1 0
8.888042 16.377277 11.386728 21.837355 1.073571 1.022266 0.021068 -0.001391 -705021.000000 0 1 0
9.821042 17.303477 11.001428 22.735316 1.054559 1.065700 0.032385 -0.005950 -1513970.000000 0 1 0
10.773542 16.817877 10.155928 22.406541 1.001057 1.100380 0.030923 -0.009956 -432999.000000 0 1 0
11.791542 17.868877 9.634728 23.476908 0.987498 1.147913 0.037790 0.003402 792370.000000 0 1 0
12.779542 17.254877 8.759028 23.189827 0.933317 1.183475 0.033612 0.003242 -22112.300000 0 1 0
13.383842 18.240977 8.045128 24.012175 0.937794 1.229145 0.041081 -0.005227 -72318.900000 0 1 0
14.399042 17.676877 6.997428 23.848866 0.887235 1.273007 0.050075 -0.018849 146691.000000 0 1 0
15.528842 17.089277 7.587828 24.305626 0.833201 1.253305 0.049490 -0.012659 -56371.200000 0 1 0
16.482742 16.690377 6.621428 24.374019 0.791657 1.295680 0.043757 -0.011587 644892.000000 0 1 0
17.901842 16.473677 7.255728 25.387075 0.743876 1.280951 0.031252 -0.004919 441019.000000 0 0 1
18.065542 15.325477 8.066828 25.026142 0.703522 1.242600 0.035285 -0.005187 562268.000000 0 0 1
19.285042 15.434577 8.806728 26.223987 0.674948 1.228313 0.037966 -0.004066 155259.000000 0 0 1
19.501342 14.437477 9.938328 26.220478 0.637285 1.182049 0.027306 -0.007176 -133806.000000 0 0 1
20.036242 13.245177 9.405928 25.794519 0.584112 1.197541 0.030121 -0.014216 207823.000000 0 0 1
20.096242 12.207077 10.380728 25.702747 0.545865 1.155046 0.035279 -0.021830 -633343.000000 0 0 1
21.061142 11.116477 9.959128 25.813407 0.485655 1.174708 0.032581 -0.016855 -957031.000000 0 0 1
22.422342 11.484077 10.136328 27.154937 0.473337 1.188257 0.031183 -0.031569 735104.000000 0 0 1
23.351942 10.684377 9.441728 27.360836 0.429104 1.218470 0.041992 -0.026010 -503831.000000 0 0 1
23.551442 9.289477 10.083728 27.251539 0.375698 1.191761 0.055933 -0.030087 -1765770.000000 0 0 1
22.450742 8.503677 9.846428 25.948034 0.362072 1.181576 0.054591 -0.028129 -180968.000000 0 0 1
22.603842 7.115677 10.243028 25.816393 0.304978 1.162807 0.059155 -0.019186 -933644.000000 0 0 1
23.597342 6.351777 9.402928 26.183863 0.262941 1.203481 0.054028 -0.020663 -288529.000000 0 0 1
23.182142 5.894677 8.112528 25.258108 0.249000 1.243816 0.038940 -0.018723 243878.000000 0 0 1
24.313342 5.532177 7.356328 25.997291 0.223728 1.283912 0.026416 -0.010675 384.198000 0 0 1
23.951142 5.270077 5.891328 25.221790 0.216583 1.335038 0.025707 -0.017588 -592521.000000 0 0 1
23.283742 4.036477 5.674828 24.302870 0.171654 1.335116 0.041392 -0.011077 528619.000000 0 1 0
23.210942 3.660677 4.336228 23.894587 0.156425 1.388312 0.052201 -0.014470 -464505.000000 0 1 0
22.304042 2.456877 4.109328 22.812127 0.109712 1.389670 0.048209 -0.009166 -631938.000000 0 1 0
22.825942 1.218977 4.442128 23.286091 0.053352 1.378857 0.046443 -0.015038 159372.000000 0 1 0
22.124542 0.153677 3.782328 22.446046 0.006946 1.401481 0.046263 -0.011523 -219145.000000 0 1 0
22.686742 -1.249523 4.028728 23.075533 -0.055022 1.395308 0.049331 -0.016634 -846340.000000 0 1 0
22.559842 -1.638223 5.385128 23.251448 -0.072490 1.337070 0.049691 -0.017257 608704.000000 0 1 0
22.639842 -3.062223 5.487528 23.495800 -0.134442 1.335066 0.041206 -0.021471 -816262.000000 0 1 0
22.170142 -3.540923 6.866728 23.477762 -0.158378 1.273979 0.050914 -0.022997 -356613.000000 0 1 0
22.157642 -4.950823 7.082728 23.783120 -0.219826 1.268404 0.039324 -0.023924 575045.000000 0 1 0
22.014742 -5.189623 8.469728 24.151964 -0.231507 1.212494 0.058991 -0.026109 -134401.000000 0 1 0
21.833042 -6.636223 8.943228 24.509233 -0.295080 1.197279 0.060070 -0.029511 -111144.000000 0 1 0
20.553042 -7.170423 8.725128 23.451447 -0.335671 1.189579 0.051870 -0.023290 -65990.100000 0 1 0
20.329742 -8.384123 9.391328 23.912109 -0.391156 1.167183 0.057904 -0.021012 -278842.000000 0 1 0
-26.067768 -33.096732 5.105228 42.438020 0.903648 1.450206 0.025032 -0.021317 253026.000000 0 0 1
-26.764718 -34.223832 5.674228 43.815724 0.907097 1.440930 0.031487 -0.023435 372643.000000 0 0 1
-26.913788 -34.032032 7.070928 43.960542 0.901668 1.409247 0.039680 -0.013567 -102125.000000 0 0 1
-27.604508 33.692277 7.817028 44.252507 -0.884390 1.393219 0.049532 -0.011675 -301518.000000 0 0 1
-28.994668 33.664377 7.734528 45.097716 -0.859786 1.398438 0.043001 -0.015791 -759851.000000 0 0 1
-29.541628 32.375877 7.938028 44.541189 -0.831141 1.391621 0.045576 -0.013564 427949.000000 0 0 1
-31.090188 32.377277 7.976928 45.590780 -0.805675 1.394923 0.033524 -0.012165 227158.000000 0 0 1
-31.707928 32.648477 6.755128 46.010298 -0.800012 1.423446 0.019094 -0.003917 1718440.000000 0 0 1
-33.169568 32.549077 6.839528 46.972777 -0.775957 1.424671 0.007159 0.000285 2343720.000000 0 0 1
-33.991268 32.550377 5.472228 47.380150 -0.763748 1.455042 -0.004224 0.007167 -102727.000000 0 0 1
-33.765378 31.371977 4.781128 46.337467 -0.748671 1.467432 -0.004847 0.005737 240451.000000 0 0 1
-34.274259 31.352877 3.456028 46.579737 -0.740913 1.496532 -0.004958 0.015063 -266167.000000 0 0 1
-33.752508 30.172877 2.623628 45.348845 -0.729460 1.512910 0.000287 0.009010 -96376.500000 0 0 1
-33.959858 28.942477 3.324328 44.743604 -0.705802 1.496431 0.009120 0.001679 532602.000000 0 0 1
-33.324008 27.847577 2.661528 43.509319 -0.696110 1.509587 0.000768 0.004050 -84430.500000 0 0 1
-33.610248 26.542277 3.419228 42.963151 -0.668434 1.491127 0.018203 -0.000459 -813905.000000 0 0 1
-34.866512 25.986877 3.180228 43.601666 -0.640502 1.497793 0.021304 -0.002100 -484486.000000 0 0 1
-35.079191 24.852277 4.010728 43.177208 -0.616383 1.477772 0.022077 -0.003840 473569.000000 0 0 1
34.515319 24.541577 4.094328 42.548323 0.618093 1.474419 0.031292 -0.007321 650497.000000 0 0 1
33.962859 23.771477 2.992228 41.563354 0.610676 1.498742 0.031429 -0.009784 336114.000000 0 0 1
34.368669 22.411177 3.001328 41.139692 0.577837 1.497777 0.032264 -0.006820 -1042180.000000 0 0 1
33.614019 21.495477 2.075528 39.953293 0.568944 1.518824 0.030477 -0.007744 589660.000000 0 0 1
32.223089 21.203477 2.335828 38.644159 0.581993 1.510315 0.019404 -0.017228 1367650.000000 0 0 1
31.871279 20.371177 3.458428 37.983207 0.568724 1.479619 0.012219 -0.011041 -486442.000000 0 0 1
32.180019 18.895877 3.313128 37.464445 0.530949 1.482247 0.011843 -0.013170 -1013540.000000 0 0 1
31.250419 18.212777 2.516628 36.257791 0.527677 1.501331 0.007337 -0.019428 -3991.370000 0 0 1
31.503379 16.889677 2.111328 35.807566 0.492126 1.511799 -0.003130 -0.005484 -1068150.000000 0 0 1
30.987459 15.850777 3.069328 34.941244 0.472823 1.482840 0.007028 -0.009365 520485.000000 0 0 1
29.573839 15.630177 2.936728 33.578844 0.486197 1.483227 -0.006947 -0.003291 835250.000000 0 0 1
29.106749 14.615077 3.805828 32.791579 0.465342 1.454473 -0.005963 -0.010633 1755540.000000 0 0 1
27.524259 14.597077 4.065228 31.419510 0.487620 1.441047 -0.017437 0.004161 1879080.000000 0 0 1
26.761759 14.314677 2.896928 30.487603 0.491171 1.475633 -0.007580 -0.006929 437559.000000 0 0 1
25.436209 14.827777 2.918828 29.586877 0.527781 1.471983 -0.020828 0.003579 251335.000000 0 0 1
24.630309 14.383877 1.667428 28.571461 0.528565 1.512403 0.003703 -0.007972 -755079.000000 0 0 1
24.932509 14.813877 0.354028 29.003557 0.536114 1.558590 0.016226 -0.012724 507261.000000 0 0 1
26.194269 14.399577 -0.173372 29.891765 0.502630 1.576596 0.019893 -0.013830 -226736.000000 0 0 1
26.699599 15.323177 -1.345272 30.813603 0.521015 1.614469 0.035994 -0.016437 129651.000000 0 0 1
27.218739 16.589577 -1.027172 31.892459 0.547369 1.603009 0.031696 -0.020524 790765.000000 0 0 1
28.309309 16.672777 -0.087772 32.854318 0.532255 1.573468 0.032915 -0.013667 -171512.000000 0 0 1
29.078329 17.993677 -0.142872 34.195644 0.554129 1.574974 0.051322 -0.008775 -72478.300000 0 0 1
29.998159 18.028177 -1.248972 35.020918 0.541137 1.606467 0.028008 -0.001968 634925.000000 0 0 1
30.748439 19.237177 -1.363272 36.295923 0.559053 1.608365 0.034007 0.009017 267903.000000 0 0 1
30.039279 20.325677 -2.196372 36.336146 0.594873 1.631279 0.049881 0.005117 14422.200000 0 0 1
30.914289 21.374177 -2.514772 37.667928 0.604932 1.637608 0.010859 0.013260 496091.000000 0 0 1
30.174139 22.373677 -3.203572 37.700438 0.638029 1.655873 0.037890 0.003877 156052.000000 0 0 1
31.064629 23.639277 -3.390972 39.183228 0.650486 1.657446 0.010562 0.014777 177517.000000 0 0 1
31.297919 24.380177 -2.184172 39.733153 0.661786 1.625795 0.006465 0.019420 309580.000000 0 0 1
32.458049 23.956277 -1.478072 40.368464 0.635821 1.607419 0.015114 0.026480 -30220.700000 0 0 1
32.783399 24.686677 -0.141772 41.039047 0.645433 1.574251 0.018005 0.006324 -78063.700000 0 0 1
33.544599 25.810677 -0.478972 42.328012 0.655829 1.582112 0.034506 0.007508 30983.500000 0 0 1
34.193429 26.402677 0.658228 43.205616 0.657531 1.555561 0.029593 -0.001047 275289.000000 0 0 1
34.615429 27.864377 0.285628 44.437969 0.677764 1.564369 0.016279 0.007114 301321.000000 0 0 1
35.372833 28.093277 -0.898272 45.180488 0.671197 1.590679 0.005960 0.008016 22198.800000 0 0 1
34.526229 28.366177 -1.960672 44.727450 0.687764 1.614646 0.000288 0.006306 -305512.000000 0 0 1
35.057042 27.911977 -3.310372 44.933654 0.672412 1.644536 0.004641 0.007290 107863.000000 0 0 1
-35.281829 28.858677 -4.035872 45.759359 -0.685589 1.659109 0.016935 0.005232 349931.000000 0 0 1
-34.893706 28.482377 -5.385072 45.363152 -0.684578 1.689787 0.022935 0.001526 106194.000000 0 0 1
35.084080 28.441777 -6.425272 45.619201 0.681216 1.712112 -0.001133 0.005994 259327.000000 0 0 1
34.159979 27.411977 -6.237772 44.240598 0.676238 1.712264 -0.004283 0.016350 -211703.000000 0 0 1
32.992299 27.446577 -7.039972 43.489857 0.693897 1.733388 -0.016585 0.013197 599809.000000 0 0 1
31.939749 26.346177 -6.694272 41.941411 0.689723 1.731092 -0.008301 0.009108 -143416.000000 0 0 1
32.184489 25.028777 -7.101872 41.384993 0.660973 1.743255 -0.010551 0.009825 -209921.000000 0 0 1
33.279219 24.363677 -6.509172 41.754814 0.631946 1.727325 -0.007820 0.010363 9029.260000 0 0 1
33.438919 22.847177 -6.894272 41.081454 0.599396 1.739414 -0.003101 0.008666 284065.000000 0 0 1
32.462579 22.045077 -6.236072 39.732771 0.596555 1.728398 0.005847 0.015370 533596.000000 0 0 1
32.871459 20.667877 -6.410772 39.354695 0.561290 1.734423 0.021546 -0.000641 -88901.800000 0 0 1
31.927469 19.569777 -5.872072 37.905418 0.549883 1.726337 0.039278 0.001349 784278.000000 0 0 1
30.702499 19.472177 -6.637372 36.957595 0.565203 1.751370 0.019849 -0.005932 510027.000000 0 0 1
29.680369 18.797677 -5.967472 35.635484 0.564572 1.739048 0.078430 -0.013357 378686.000000 0 0 1
28.336769 18.846277 -6.769572 34.698440 0.586905 1.767153 0.050808 -0.016670 416729.000000 0 0 1
28.360019 17.915677 -7.799772 34.439783 0.563419 1.799254 0.039518 -0.014930 991059.000000 0 0 1
27.086399 17.817977 -8.497572 33.516594 0.581853 1.827127 0.048467 -0.017010 1039320.000000 0 0 1
27.000159 16.648377 -9.519672 33.117989 0.552538 1.862357 0.050674 -0.015349 -558762.000000 0 0 1
26.047009 16.746277 -10.521472 32.704524 0.571386 1.898334 0.039638 -0.009986 -191667.000000 0 0 1
26.252189 15.698677 -11.410772 32.647077 0.538944 1.927854 0.043259 -0.003487 -80032.200000 0 0 1
25.430009 15.722777 -12.739472 32.499004 0.553750 1.973596 0.037330 -0.001730 120610.000000 0 0 1
24.026609 15.760177 -12.515372 31.341597 0.580544 1.981573 0.030415 0.000675 580978.000000 0 0 1
23.204309 15.843477 -13.672172 31.247144 0.599076 2.023668 0.032179 -0.001599 93398.800000 0 0 1
22.986109 14.555177 -14.500472 30.829825 0.564486 2.060471 0.039827 -0.000888 -452976.000000 0 0 1
24.157609 14.025677 -15.101772 31.754893 0.526026 2.066412 0.051040 -0.004279 382600.000000 0 0 1
24.277209 14.294777 -16.503672 32.651106 0.532154 2.100706 0.069508 -0.012204 270925.000000 0 0 1
25.765009 14.226277 -17.012072 33.994606 0.504496 2.094897 0.066662 -0.003810 704350.000000 0 0 1
26.258769 12.906477 -16.951972 33.815226 0.456833 2.095911 0.069638 -0.007510 92463.600000 0 0 1
27.604289 12.796677 -17.361772 35.031170 0.434086 2.089332 0.056895 0.010113 129247.000000 0 0 1
27.820219 11.333477 -17.888472 34.962977 0.386855 2.107889 0.026677 0.012842 -78669.600000 0 0 1
27.220029 11.087377 -19.162372 35.086414 0.386804 2.148555 0.036142 0.000964 122096.000000 0 0 1
27.192759 9.744277 -19.625272 34.922033 0.344086 2.167567 0.023362 0.013502 402871.000000 0 0 1
28.495569 9.196677 -20.310572 36.181427 0.312187 2.166817 0.012918 0.008217 85786.700000 0 0 1
28.671799 9.914277 -21.551872 37.213548 0.332915 2.188470 0.019485 0.002935 419508.000000 0 0 1
29.304579 9.164677 -22.603672 38.127099 0.303102 2.205390 0.005324 0.001963 361057.000000 0 0 1
30.810499 8.751777 -22.548472 39.170321 0.276762 2.184198 -0.012014 0.009798 865472.000000 0 0 1
31.759939 9.858477 -22.451772 40.124374 0.300976 2.164644 -0.011413 0.008170 387216.000000 0 0 1
33.030929 9.376577 -22.770772 41.200371 0.276596 2.156377 -0.028166 0.017612 -377870.000000 0 0 1
34.143029 10.447077 -22.744372 42.334316 0.296934 2.137977 -0.016509 0.007280 -110625.000000 0 0 1
34.237299 10.957077 -21.445572 41.858843 0.309733 2.108693 -0.015525 0.003889 487965.000000 0 0 1
35.197168 12.003977 -21.404172 42.907747 0.328679 2.093058 -0.026727 0.001062 75176.500000 0 0 1
35.066346 12.738877 -20.010372 42.336068 0.348456 2.063098 -0.037095 0.009695 -184385.000000 0 0 1
35.341108 11.886877 -18.919372 41.811893 0.324460 2.040349 -0.021126 0.006821 301119.000000 0 0 1
35.283631 12.576777 -17.703872 41.431112 0.342407 2.012310 -0.004576 0.009797 -347772.000000 0 0 1
-35.358561 11.794477 -16.484272 40.756211 -0.321962 1.987185 -0.002025 0.018754 -400776.000000 0 0 1
34.925719 10.683977 -16.180172 39.946855 0.296866 1.987822 0.000294 0.015317 182492.000000 0 0 1
35.518813 9.732377 -15.310672 39.883856 0.267442 1.964792 -0.001913 0.009347 127013.000000 0 0 1
34.598789 8.487877 -15.141472 38.708971 0.240572 1.972690 0.034479 0.010234 1033270.000000 0 0 1
33.497249 8.580377 -14.168372 37.368855 0.250760 1.959673 0.044947 0.008492 1262720.000000 0 0 1
33.797319 8.334977 -12.794372 37.086744 0.241792 1.923019 0.045877 0.004221 -559589.000000 0 0 1
32.737109 8.866977 -11.812572 35.914878 0.264508 1.905940 0.048961 0.002252 -191938.000000 0 0 1
32.821899 10.278477 -11.788172 36.357739 0.303485 1.900991 0.065209 -0.003697 577887.000000 0 0 1
31.814459 10.822777 -10.932072 35.338400 0.327904 1.885310 0.050926 0.004877 -54884.800000 0 0 1
31.922699 10.651977 -9.374672 34.934336 0.322063 1.842477 0.050198 0.001306 -299588.000000 0 0 1
33.043929 11.269877 -8.774772 35.998723 0.328686 1.817029 0.062168 0.001192 85196.500000 0 0 1
33.051619 12.687177 -8.602072 36.433085 0.366515 1.809153 0.058295 -0.004835 -481096.000000 0 0 1
32.690449 13.285577 -7.220472 36.018152 0.386016 1.772632 0.044657 -0.008878 -459333.000000 0 0 1
33.574509 12.800477 -6.262772 36.473582 0.364244 1.743359 0.061477 -0.004271 28501.500000 0 0 1
33.224029 13.156577 -4.978072 36.079258 0.377050 1.709214 0.043833 -0.005186 -155947.000000 0 0 1
34.413469 12.836877 -4.025672 36.949673 0.357033 1.679963 0.051852 0.000445 77383.200000 0 0 1
35.500823 13.677477 -4.308872 38.287703 0.367746 1.683575 0.047665 0.010810 -626148.000000 0 0 1
-34.533670 13.282477 -3.514172 37.166490 -0.367181 1.665490 0.038690 0.005469 -84223.300000 0 0 1
-33.478718 14.417977 -3.420672 36.611523 -0.406656 1.664364 0.031443 0.005188 169994.000000 0 0 1
-33.887758 15.537377 -2.663472 37.374916 -0.429896 1.642120 0.030087 0.010021 -254878.000000 0 0 1
-32.865348 16.467877 -2.707772 36.859925 -0.464504 1.644324 0.048053 0.011455 -285694.000000 0 0 1
-32.948108 17.517177 -1.609472 37.349963 -0.488653 1.613901 0.037229 0.019030 -432593.000000 0 0 1
-33.998028 18.405377 -1.760972 38.700450 -0.496190 1.616315 0.021307 0.020934 -418605.000000 0 0 1
-34.170351 19.169177 -0.594672 39.184485 -0.511241 1.585973 0.000331 0.021215 214529.000000 0 0 1
-35.240232 20.318977 -0.683372 40.684171 -0.523024 1.587594 -0.004307 0.024420 223539.000000 0 0 1
-35.034626 21.428277 -1.514772 41.096114 -0.548928 1.607664 0.001972 0.026148 -118062.000000 0 0 1
-35.217925 21.207277 -2.916472 41.213549 -0.542016 1.641620 -0.027023 0.035978 -72785.900000 0 0 1
-35.102781 22.533477 -3.695972 41.876283 -0.570680 1.659171 0.023880 -0.000510 -583890.000000 0 0 1
-33.780648 22.891177 -3.926772 40.994606 -0.595562 1.666731 0.031006 0.010045 -842257.000000 0 0 1
-33.565358 24.116677 -4.610672 41.587326 -0.623034 1.681892 0.039349 0.004540 -65768.400000 0 0 1
-32.126348 24.388377 -5.067472 40.651869 -0.649325 1.695777 0.033199 0.001056 -92537.200000 0 0 1
-31.712048 23.512677 -6.107672 39.947511 -0.638002 1.724291 0.024603 0.006175 1189460.000000 0 0 1
-30.387398 23.905377 -6.591572 39.221293 -0.666571 1.739659 0.034086 0.008208 1347700.000000 0 0 1
-29.851768 23.137377 -7.789672 38.563523 -0.659357 1.774192 0.040644 -0.012145 -386208.000000 0 0 1
-30.728138 23.237277 -8.895272 39.538783 -0.647471 1.797715 0.032432 -0.017155 40590.400000 0 0 1
-30.278198 22.546777 -10.032772 39.061272 -0.640071 1.830555 0.001249 -0.009183 267127.000000 0 0 1
-31.339518 22.553377 -11.188172 40.199445 -0.623790 1.852837 0.000104 -0.004537 210223.000000 0 0 1
-31.503718 23.842377 -11.723372 41.211414 -0.647846 1.859249 0.012741 -0.003214 92105.800000 0 0 1
-32.223768 23.754677 -12.964272 42.080022 -0.635245 1.883977 0.005418 -0.001174 -476940.000000 0 0 1
-32.469048 25.179077 -13.543472 43.262578 -0.659610 1.889202 0.015691 -0.004263 289738.000000 0 0 1
-31.360868 26.078177 -13.540872 42.975930 -0.693686 1.891338 0.012501 -0.003377 -319981.000000 0 0 1
-30.354118 25.816877 -14.503872 42.405730 -0.704798 1.919869 0.011180 -0.003806 -360699.000000 0 0 1
-29.023778 26.497477 -14.116472 41.758482 -0.739928 1.915641 0.002120 0.004488 -185170.000000 0 0 1
-28.336028 26.034177 -12.951672 40.601166 -0.743087 1.895468 -0.006175 -0.005288 53322.700000 0 0 1
-29.048848 26.141077 -11.732772 40.802567 -0.732760 1.862464 0.016782 -0.008230 -651084.000000 0 0 1
-29.138418 27.567777 -11.031272 41.601908 -0.757707 1.839169 0.027371 0.006520 -840565.000000 0 0 1
-27.871918 27.988477 -10.680672 40.917911 -0.787485 1.834882 0.016609 0.002301 -1020300.000000 0 0 1
-28.015318 29.202877 -10.048272 41.696929 -0.806150 1.814175 0.006258 -0.000710 422482.000000 0 0 1
-26.763718 30.089677 -9.802672 41.446081 -0.843832 1.809575 0.017823 -0.004064 180606.000000 0 0 1
-27.159458 31.380677 -9.346772 42.541100 -0.857382 1.792315 0.013126 -0.015256 886187.000000 0 0 1
-26.027188 32.263277 -9.075872 42.434715 -0.891976 1.786340 0.026060 -0.003496 448524.000000 0 0 1
33.665519 -25.088803 33.776209 53.885503 -0.640446 0.893338 -0.002070 0.000515 -185330.000000 0 0 1
33.362019 -23.804923 34.299994 53.443318 -0.619751 0.873951 -0.008084 -0.003282 -223710.000000 0 0 1
32.297909 -23.773223 -33.556652 52.291203 -0.634520 2.267544 -0.021643 0.005048 -366985.000000 0 0 1
31.885839 -22.353623 -33.223312 51.187690 -0.611431 2.277130 -0.027302 0.005244 -123541.000000 0 0 1
31.397999 -21.652823 -34.336639 51.319430 -0.603728 2.303762 -0.030286 0.001607 -89782.200000 0 0 1
30.890329 -20.424223 -34.010502 50.279972 -0.584198 2.313691 -0.030935 0.008660 -387857.000000 0 0 1
30.612819 -19.644823 33.483826 49.439158 -0.570532 0.826746 -0.037839 0.007541 584607.000000 0 0 1
31.785579 -19.391723 32.671881 49.535984 -0.547798 0.850565 -0.010801 -0.011018 683588.000000 0 0 1
31.423119 -18.782423 31.455871 48.266589 -0.538746 0.860958 -0.004015 -0.003991 -268283.000000 0 0 1
32.514269 -18.323323 30.449881 48.167594 -0.513185 0.886452 0.000706 -0.001643 40019.300000 0 0 1
33.389999 -17.274623 30.829151 48.618321 -0.477438 0.883945 0.000192 -0.012683 -391944.000000 0 0 1
34.500149 -17.252623 30.023941 48.880981 -0.463707 0.909392 0.030122 -0.013460 -1099940.000000 0 0 1
-35.525854 -16.271723 30.489381 49.562663 0.429507 0.908197 0.030459 -0.015625 -830595.000000 0 0 1
-34.532347 -16.119323 29.475701 48.178133 0.436728 0.912454 0.031585 -0.012250 618228.000000 0 0 1
-33.495308 -15.174123 29.711881 47.275633 0.425364 0.891196 0.019882 -0.014484 647315.000000 0 0 1
-32.505688 -15.669723 30.817541 47.453986 0.449194 0.863976 0.046987 -0.019360 -354849.000000 0 0 1
-31.228388 -15.033523 30.842751 46.394981 0.448662 0.843589 0.037685 -0.014888 321593.000000 0 0 1
-30.372048 -15.685323 31.711711 46.627494 0.476712 0.822887 0.035117 -0.020248 145329.000000 0 0 1
-29.145668 -14.828223 32.168161 45.870870 0.470633 0.793610 0.032937 -0.017747 330255.000000 0 0 1
-29.492708 -13.794123 33.132691 46.452910 0.437486 0.776667 0.043281 -0.015869 -853160.000000 0 0 1
-28.403878 -13.072223 33.514777 45.835614 0.431326 0.750724 0.033537 -0.011300 -1267020.000000 0 0 1
-28.514608 -12.449423 -33.865372 45.988416 0.411653 2.398514 0.033524 -0.002088 -91637.600000 0 0 1
-28.618778 -13.476123 -32.873242 45.621161 0.440085 2.375420 0.034662 -0.009705 235425.000000 0 0 1
-28.866808 -12.952723 -31.615712 44.728278 0.421778 2.355817 0.036016 -0.000579 -193987.000000 0 0 1
-29.168518 -14.039523 -30.507872 44.481916 0.448596 2.326566 0.036119 -0.007678 -307852.000000 0 0 1
-30.356468 -14.772423 -30.554312 45.533566 0.452896 2.306391 0.033852 -0.009266 -288481.000000 0 0 1
-30.606168 -15.347123 -29.311012 45.071134 0.464798 2.278812 0.043957 -0.007643 1102780.000000 0 0 1
-31.853838 -16.338323 -29.265802 46.239539 0.473926 2.256112 0.045911 -0.016371 724751.000000 0 0 1
-31.591888 -17.546823 -29.936572 46.926930 0.506996 2.262617 0.040573 -0.011041 71621.900000 0 0 1
-32.627198 -18.480823 -29.767572 47.876750 0.515365 2.241777 0.032890 -0.007061 -324979.000000 0 0 1
-32.521038 -19.754423 -30.643362 48.855611 0.545869 2.248779 0.029596 -0.011418 707679.000000 0 0 1
-33.636208 -20.678223 -30.578682 49.940356 0.551202 2.229768 0.016501 -0.010476 766060.000000 0 0 1
-33.386988 -21.703923 -31.487412 50.766213 0.576425 2.239849 0.010674 -0.010621 -424742.000000 0 0 1
-34.494318 -22.738523 -31.564212 51.992287 0.582813 2.223195 0.014787 -0.010788 -488974.000000 0 0 1
-34.856655 -23.299223 -30.342832 51.754494 0.589222 2.197260 -0.007234 -0.004880 144960.000000 0 0 1
35.207808 -24.241223 -30.554052 52.543094 -0.602979 2.191373 -0.001665 0.000975 434451.000000 0 0 1
-35.523493 -25.626693 -31.129972 53.737520 0.624945 2.188662 -0.001064 0.008843 -102050.000000 0 0 1
-35.374795 -25.840353 -32.499262 54.546329 0.630887 2.209070 0.004143 0.006168 -531169.000000 0 0 1
-34.520009 -26.917483 -32.731552 54.658361 0.662280 2.212847 0.005452 -0.004246 -175581.000000 0 0 1
-34.705007 -27.634963 -34.063932 55.932818 0.672470 2.225615 0.016405 -0.014601 1397620.000000 0 0 1
35.085717 -28.223263 -34.068352 56.464261 -0.677424 2.218506 0.021467 -0.005953 952843.000000 0 0 1
34.956089 -29.394353 33.853444 56.850785 -0.699184 0.932935 0.020952 -0.005164 630251.000000 0 0 1
-35.403735 -30.734883 34.274381 58.075732 0.714923 0.939531 0.026344 -0.009121 757880.000000 0 0 1
35.067771 -31.296793 -33.362452 57.639318 -0.728637 2.188070 0.030676 -0.010004 -462320.000000 0 0 1
-35.095496 -31.757463 -32.449672 57.386510 0.735509 2.171785 0.031895 -0.020047 -239225.000000 0 0 1
35.536736 -32.010283 -31.065522 57.031434 -0.733238 2.146838 0.029962 -0.016982 -220457.000000 0 0 1
34.652369 -33.077893 -30.844492 56.976454 -0.762156 2.142844 0.046323 -0.015228 -124118.000000 0 0 1
34.206529 -33.013923 -29.520042 55.959259 -0.767658 2.126484 0.044501 -0.016364 -781048.000000 0 0 1
33.277279 -34.126882 -29.175472 55.885862 -0.798002 2.120054 0.041598 -0.010505 -125782.000000 0 0 1
31.974549 -33.912773 -29.709462 55.272960 -0.814807 2.138271 0.039485 -0.010086 326086.000000 0 0 1
31.009739 34.091222 -29.140482 54.525068 0.832697 2.134644 0.045043 -0.009026 774733.000000 0 0 1
29.584769 34.396242 -29.662962 54.205640 0.860458 2.149848 0.027695 -0.001134 153100.000000 0 0 1
29.432099 34.057261 -31.034922 54.674600 0.858119 2.174420 0.017480 0.000039 -418204.000000 0 0 1
28.131869 34.195225 -31.554062 54.372551 0.882376 2.189931 0.015382 -0.007914 -137466.000000 0 0 1
27.877029 33.905205 -33.033272 54.935314 0.882662 2.215939 0.017190 -0.014556 13180.100000 0 0 1
27.683299 32.502337 -33.215712 54.092980 0.865297 2.231976 0.008780 -0.001733 -73404.700000 0 0 1
27.512469 32.219357 34.158146 54.422439 0.864036 0.892268 0.020061 -0.012969 -95176.200000 0 0 1
27.566039 30.705677 33.863863 53.380580 0.839225 0.883583 0.015602 -0.006934 426861.000000 0 0 1
28.805659 30.067447 34.172113 53.866044 0.806827 0.883576 0.017547 -0.004504 36380.700000 0 0 1
28.626609 28.707547 34.252244 53.073743 0.786810 0.869288 0.019242 -0.010317 -563264.000000 0 0 1
29.931359 27.990187 -34.299140 53.439385 0.751897 2.267682 0.027860 -0.010791 -550335.000000 0 0 1
30.624449 28.439677 -33.131502 53.332622 0.748425 2.241100 0.033913 -0.007589 310418.000000 0 0 1
31.940219 27.853167 -33.145992 53.801797 0.717151 2.234548 0.045333 -0.012645 721546.000000 0 0 1
32.689869 27.933797 -31.816642 53.490404 0.707106 2.207826 0.035991 -0.008916 -408778.000000 0 0 1
33.199679 29.216617 -31.392872 54.234139 0.721670 2.188101 0.021213 -0.009719 484284.000000 0 0 1
32.257889 30.314087 -31.309792 54.220092 0.754343 2.186407 0.030872 -0.003834 333672.000000 0 0 1
31.328149 30.173037 -30.094882 52.892032 0.766618 2.176070 0.036659 -0.003355 37632.100000 0 0 1
31.929639 30.585237 -28.865712 52.803295 0.763896 2.149173 0.024877 0.000902 231130.000000 0 0 1
30.969849 30.523337 -27.830552 51.626982 0.778137 2.140129 0.042668 -0.001840 -100687.000000 0 0 1
31.544939 30.939227 -26.472502 51.508372 0.775705 2.110574 0.057793 -0.005204 -57304.400000 0 0 1
31.819689 32.343817 -26.435572 52.511471 0.793567 2.098354 0.062948 -0.003393 267830.000000 0 0 1
32.666459 32.667457 -25.340612 52.691621 0.785413 2.072503 0.048508 -0.006325 143133.000000 0 0 1
33.102279 34.142538 -25.193072 53.816026 0.800867 2.057973 0.049399 -0.007895 -6708.570000 0 0 1
32.000579 -33.936683 -24.908872 52.878988 -0.814753 2.061282 0.057847 -0.003829 76096.300000 0 0 1
32.225689 -32.523303 -24.734272 52.038875 -0.789995 2.066106 0.046579 -0.008221 -582483.000000 0 0 1
32.632249 -31.745693 -26.077542 52.466093 -0.771628 2.090976 0.038510 -0.008139 768717.000000 0 0 1
33.974239 -31.920973 -26.518142 53.632167 -0.754249 2.087992 0.048796 -0.010601 464753.000000 0 0 1
34.993489 -31.163933 -25.856682 53.519183 -0.727577 2.075022 0.051890 -0.004894 613823.000000 0 0 1
-34.705158 -31.605863 -26.345842 53.828263 0.738693 2.082247 0.019993 -0.000653 526674.000000 0 0 1
-34.227289 -32.878603 -25.934152 54.084102 0.765303 2.070899 0.016862 -0.001610 -328891.000000 0 0 1
-34.158616 -33.152833 -24.545672 53.557552 0.770457 2.046883 0.023588 -0.001724 370445.000000 0 0 1
-32.861678 -32.700773 -23.760372 52.094008 0.782944 2.044411 0.008490 0.004017 865941.000000 0 0 1
-32.644608 -31.263173 -23.736072 51.053477 0.763785 2.054347 0.002622 0.000754 -119676.000000 0 0 1
-32.515658 -30.791653 -22.376372 50.060922 0.758173 2.034186 0.003363 0.001241 -297500.000000 0 0 1
-32.354298 -29.243173 -22.299072 48.981755 0.734934 2.043452 0.007316 0.010288 326268.000000 0 0 1
-33.507958 -28.517673 -22.707372 49.514297 0.705116 2.047218 -0.002171 0.011415 -50135.400000 0 0 1
-33.560008 -28.278253 -24.092872 50.063961 0.700193 2.072867 -0.007332 0.008942 316638.000000 0 0 1
-34.839705 -27.474423 -24.497672 50.683181 0.667748 2.075273 0.001619 0.008210 449534.000000 0 0 1
-34.896352 -26.146233 -24.044172 49.794609 0.643024 2.074722 -0.000549 0.013121 19266.300000 0 0 1
35.306207 -25.337523 -24.815872 50.043439 -0.622474 2.089652 0.010620 0.008956 591227.000000 0 0 1
-35.221134 -24.662223 -26.125562 50.312011 0.610868 2.116794 0.006331 0.008194 612533.000000 0 0 1
-34.295858 -23.568823 -25.890402 49.010287 0.602098 2.127352 0.001111 0.007942 272650.000000 0 0 1
-34.032488 -22.844523 -27.081982 49.127550 0.591173 2.154668 0.005312 -0.003020 -453368.000000 0 0 1
-32.796318 -21.963923 -27.042422 47.846682 0.590104 2.171459 0.012122 -0.016562 -791594.000000 0 0 1
-32.743078 -20.886923 -26.167642 46.830740 0.567824 2.163699 0.023691 -0.010794 597646.000000 0 0 1
-33.691428 -19.797023 -26.433972 47.178271 0.531251 2.165544 0.017167 -0.010711 1749410.000000 0 0 1
-34.896894 -19.617123 -25.375042 47.397442 0.512120 2.135739 0.024216 -0.014337 990197.000000 0 0 1
-34.550768 -19.291123 -24.014872 46.288412 0.509225 2.116254 0.019988 -0.012828 -328862.000000 0 0 1
-33.888488 -20.342123 -23.323872 45.893731 0.540615 2.103907 0.001406 -0.005150 -322.837000 0 0 1
-34.716438 -21.645923 -23.015272 46.941237 0.557525 2.083230 0.022795 0.005626 910039.000000 0 0 1
35.294502 -21.366823 -22.144672 46.825522 -0.544371 2.063397 0.016335 0.007740 385188.000000 0 0 1
34.837149 -22.505323 -21.475672 46.704614 -0.573569 2.048588 0.021900 0.020350 1060740.000000 0 0 1
33.596209 -22.266823 -20.490072 45.214596 -0.585305 2.041119 0.011981 0.021519 2392520.000000 0 0 1
32.288479 -22.209423 -21.117172 44.516731 -0.602521 2.065039 0.020368 0.019182 1847470.000000 0 0 1
31.182649 -21.960023 -20.213372 43.164576 -0.613565 2.058146 0.020166 0.016385 1389150.000000 0 0 1
29.955429 -21.312823 -20.950172 42.313991 -0.618392 2.088760 0.015357 0.012600 -184919.000000 0 0 1
29.461579 -22.177923 -21.986272 42.932983 -0.645274 2.108432 0.017025 0.021500 251075.000000 0 0 1
28.271779 -21.620423 -22.528672 42.122170 -0.652865 2.135116 0.022445 0.011683 18900.100000 0 0 1
28.363359 -20.342123 -23.368272 42.004265 -0.622175 2.160760 0.024906 -0.001474 -715710.000000 0 0 1
28.718579 -19.128523 -22.674272 41.288979 -0.587588 2.152156 0.019603 0.009272 184085.000000 0 0 1
28.853619 -18.033323 -23.564972 41.388887 -0.558595 2.176517 0.007881 0.004617 -190013.000000 0 0 1
29.410679 -16.823023 -22.686872 40.776173 -0.519580 2.160814 -0.001271 0.008415 -317069.000000 0 0 1
28.571779 -16.477223 -21.621272 39.437607 -0.523108 2.151055 -0.017406 0.008016 161433.000000 0 0 1
29.293179 -15.626123 -20.755172 39.154096 -0.490040 2.129502 -0.021329 0.007092 268220.000000 0 0 1
30.341759 -16.341423 -19.847972 39.769416 -0.494032 2.093329 -0.016728 -0.000286 400187.000000 0 0 1
31.460939 -16.788823 -20.608572 41.186994 -0.490196 2.094818 -0.009217 -0.001925 -228275.000000 0 0 1
32.316359 -17.614423 -19.856272 41.819690 -0.499044 2.065541 -0.003440 0.008455 214214.000000 0 0 1
33.528179 -18.160823 -20.689572 43.382170 -0.496416 2.067937 0.010546 -0.004736 724239.000000 0 0 1
34.426969 -17.073023 -20.936072 43.760981 -0.460378 2.069649 0.014704 -0.004526 -580290.000000 0 0 1
35.477698 -17.433223 -21.735072 45.110949 -0.456732 2.073520 0.030316 -0.007217 -607904.000000 0 0 1
-34.791171 -16.254823 -22.278672 44.395766 0.437074 2.096498 0.050575 -0.014713 -353576.000000 0 0 1
-34.022898 -15.685923 -21.298272 43.095500 0.431997 2.087723 0.062860 -0.018016 -595554.000000 0 0 1
-33.125158 -14.781623 -21.878772 42.360986 0.419719 2.113536 0.065350 -0.021332 763858.000000 0 0 1
-31.937648 -14.341223 -20.864872 40.755698 0.422054 2.108249 0.073545 -0.019109 1676270.000000 0 0 1
-30.778108 -15.168323 -20.774972 40.111961 0.457894 2.115219 0.070303 -0.028622 564168.000000 0 0 1
-31.021298 -16.402223 -20.132172 40.455632 0.486375 2.091667 0.063604 -0.028445 326950.000000 0 0 1
-29.871878 -17.480023 -20.311372 40.130190 0.529441 2.101496 0.044865 -0.032291 740863.000000 0 0 1
-30.266588 -18.756723 -19.789172 40.736867 0.554791 2.078052 0.044363 -0.032912 112644.000000 0 0 1
-29.186378 -19.671423 -19.740072 40.354429 0.593058 2.081931 0.054964 -0.033207 -112871.000000 0 0 1
-29.454948 -21.114123 -19.327572 41.072560 0.621931 2.060735 0.039867 -0.008207 -600820.000000 0 0 1
-30.228238 -21.703623 -20.303872 42.391518 0.622699 2.070267 0.030312 -0.002864 -272605.000000 0 0 1
-30.615328 -22.949823 -19.805672 43.084305 0.643257 2.048449 0.016740 0.022047 -291018.000000 0 0 1
-31.531308 -23.777623 -20.709372 44.592340 0.646117 2.053771 0.003778 0.021361 -453683.000000 0 0 1
-31.005928 -24.178523 -21.934972 45.023455 0.662304 2.079665 -0.001106 0.009211 35363.600000 0 0 1
-31.921208 -24.921323 -22.733072 46.441667 0.662870 2.082310 0.005977 0.010886 65056.200000 0 0 1
-31.574738 -24.963323 -24.249272 46.991050 0.668989 2.113018 -0.000460 0.012612 -321986.000000 0 0 1
-30.356838 -25.608333 -24.482972 46.655549 0.700753 2.123230 -0.001416 0.001866 -479959.000000 0 0 1
-30.099908 -25.652133 -25.869102 47.257241 0.705789 2.150063 -0.001393 0.010049 -101980.000000 0 0 1
-28.660568 -26.048623 -26.241352 46.782127 0.737692 2.166301 0.009012 0.000613 -150416.000000 0 0 1
-27.852008 -24.912723 -26.480012 45.799226 0.729750 2.187288 0.019414 -0.004909 816150.000000 0 0 1
-26.462908 -25.329593 -26.562382 45.248579 0.763520 2.198185 0.026966 -0.009101 1315950.000000 0 0 1
-25.526248 -24.142123 -26.906232 44.253551 0.757538 2.224337 0.040114 -0.006748 -394406.000000 0 0 1
-25.657368 -23.712023 -28.249302 44.928650 0.746015 2.250753 0.033704 -0.012844 145192.000000 0 0 1
-25.089178 -22.424523 -28.417732 44.044223 0.729375 2.272093 0.024674 -0.014590 47538.500000 0 0 1
-25.030758 -22.063123 -29.889232 44.796054 0.722466 2.301279 0.024612 -0.013826 -93186.100000 0 0 1
-24.244758 -22.943423 -30.653842 45.319609 0.757828 2.313650 0.034280 -0.018643 161358.000000 0 0 1
-24.076558 -22.497123 -32.011172 45.940356 0.751499 2.341721 0.034358 -0.020642 61194.700000 0 0 1
-23.542358 -23.671423 -32.861612 46.845111 0.788132 2.348289 0.035812 -0.027911 326080.000000 0 0 1
-24.590958 -24.599223 -33.098682 48.014162 0.785566 2.331391 0.015732 -0.027184 117011.000000 0 0 1
-24.147058 -25.741813 -33.750562 48.834637 0.817353 2.333833 0.047898 -0.018990 29829.500000 0 0 1
-19.680558 -14.554323 -11.761072 27.156500 0.636765 2.018709 0.021285 0.007086 1040.150000 0 0 1
-20.121858 -14.295923 -10.451672 26.804851 0.617717 1.971338 0.031354 -0.000207 -397117.000000 0 0 1
-19.232758 -14.613823 -9.436572 25.932830 0.649769 1.943232 0.017462 -0.007794 -637439.000000 0 0 1
-19.557158 -14.055123 -8.016172 25.382827 0.623146 1.892107 0.028029 -0.022284 -407700.000000 0 0 1
-20.696858 -14.681323 -7.465272 26.450547 0.616974 1.856919 0.049575 -0.017078 161356.000000 0 0 1
-20.894958 -14.043723 -6.248472 25.939715 0.591762 1.814073 0.042703 -0.026390 -630299.000000 0 0 1
-22.164158 -14.626523 -5.648472 27.149407 0.583316 1.780379 0.054840 -0.027777 -890552.000000 0 0 1
-22.146458 -15.979323 -5.162172 27.793027 0.625030 1.757617 0.047642 -0.025368 278427.000000 0 0 1
-21.368458 -16.160123 -3.986172 27.085976 0.647496 1.718500 0.042073 -0.023509 -108739.000000 0 0 1
-21.167258 -17.628523 -3.583372 27.778736 0.694435 1.700154 0.024737 -0.011681 -357325.000000 0 0 1
-22.330258 -18.287423 -3.186172 29.038284 0.686191 1.680741 0.030871 -0.007860 -347200.000000 0 0 1
-22.032658 -19.535323 -2.481772 29.550398 0.725392 1.654880 0.014500 0.006776 171002.000000 0 0 1
-23.256058 -20.450323 -2.220672 31.048209 0.721291 1.642381 0.007594 -0.003566 179089.000000 0 0 1
-23.597158 -21.250123 -3.364572 31.932960 0.733112 1.676356 -0.008226 -0.005866 -302519.000000 0 0 1
-24.426758 -22.313523 -3.043572 33.223834 0.740217 1.662533 0.011886 -0.002990 -231822.000000 0 0 1
-24.455258 -23.340823 -4.137972 34.058427 0.762086 1.692594 0.005417 0.009028 -976663.000000 0 0 1
-23.277658 -24.049223 -4.133372 33.723867 0.801700 1.693670 0.001570 0.012710 -1145710.000000 0 0 1
-23.118958 -24.865323 -5.271472 34.359262 0.821777 1.724827 0.002199 0.007805 235018.000000 0 0 1
-21.713358 -24.702123 -5.924672 33.418057 0.849701 1.749028 0.003091 0.008802 374709.000000 0 0 1
-21.500358 -23.417623 -6.545272 32.457526 0.828056 1.773845 -0.002694 0.015810 42296.900000 0 0 1
-21.125358 -22.452923 -5.569072 31.327768 0.815853 1.749514 -0.006601 0.014401 -818754.000000 0 0 1
-21.163758 -20.918323 -6.033572 30.362557 0.779566 1.770846 0.003253 0.017909 61597.400000 0 0 1
-20.115758 -20.529023 -6.923072 29.563718 0.795566 1.807166 -0.004880 0.014974 206881.000000 0 0 1
-20.265558 -19.210123 -7.451372 28.900598 0.758668 1.831569 -0.008758 0.019198 149772.000000 0 0 1
-19.034858 -18.764623 -8.278972 27.981749 0.778249 1.871163 0.011325 0.014587 -83845.000000 0 0 1
-18.892358 -19.593023 -9.468772 28.817796 0.803602 1.905589 -0.001179 0.009328 -872360.000000 0 0 1
-17.627058 -19.526823 -10.022972 28.150843 0.836486 1.934829 0.018166 0.008739 -675058.000000 0 0 1
-17.300758 -18.199823 -10.743872 27.312645 0.810718 1.975086 0.015202 0.009443 -503861.000000 0 0 1
-16.991558 -17.019623 -9.977472 26.037099 0.786223 1.964057 0.022052 0.001112 157152.000000 0 0 1
-15.681258 -16.956323 -9.443672 24.951987 0.824446 1.958943 0.030394 0.002697 -131605.000000 0 1 0
-15.418158 -15.701423 -8.580072 23.619312 0.794500 1.942566 0.025010 -0.003053 71429.000000 0 1 0
-15.980158 -16.025923 -7.305972 23.781776 0.786828 1.883055 0.001474 -0.001468 248693.000000 0 1 0
-16.168858 -14.840923 -6.582072 22.913067 0.742601 1.862164 0.015300 -0.006834 -340406.000000 0 1 0
-16.765458 -15.204223 -5.239172 23.231399 0.736602 1.798274 0.014754 -0.011067 -174121.000000 0 1 0
-17.204958 -14.116523 -4.494572 22.704360 0.687111 1.770073 0.021340 -0.013486 -161795.000000 0 1 0
-17.612858 -14.480523 -3.261072 23.033300 0.688106 1.712854 0.019365 -0.011843 -640190.000000 0 1 0
-18.467258 -13.371723 -2.717072 22.961382 0.626703 1.689406 0.027556 -0.010841 -880516.000000 0 1 0
-19.746558 -13.228223 -3.254072 23.989610 0.590238 1.706861 0.039758 -0.021819 41356.300000 0 1 0
-20.454158 -12.215723 -2.527372 23.957964 0.538376 1.676485 0.037848 -0.015443 211104.000000 0 1 0
-21.999258 -12.293123 -2.656772 25.340613 0.509572 1.675832 0.035764 -0.013897 105796.000000 0 0 1
-22.458658 -11.700623 -3.863872 25.616897 0.480294 1.722207 0.046622 -0.026940 623337.000000 0 0 1
-23.866058 -11.917923 -3.914972 26.962059 0.463141 1.716514 0.034389 -0.020143 315040.000000 0 0 1
-24.581658 -11.182623 -5.127272 27.488141 0.426936 1.758422 0.048941 -0.028651 313075.000000 0 0 1
-24.097958 -11.746923 -6.360272 27.552764 0.453570 1.803737 0.048991 -0.036525 507252.000000 0 0 1
-24.772958 -11.173123 -7.448272 28.178269 0.423703 1.838302 0.059317 -0.038456 -504542.000000 0 0 1
-24.034358 -11.504923 -8.745872 28.044677 0.446452 1.887941 0.074729 -0.037852 -494475.000000 0 0 1
-22.849158 -10.779423 -8.830372 26.762949 0.440805 1.907044 0.063237 -0.035293 -148433.000000 0 0 1
-22.030058 -11.151223 -9.954172 26.622523 0.468581 1.954007 0.041577 -0.027234 893763.000000 0 0 1
-20.650458 -10.387923 -9.900372 25.146923 0.466073 1.975451 0.036596 -0.023676 336581.000000 0 0 1
-20.715058 -8.998423 -10.133572 24.754283 0.409797 1.992556 0.030687 -0.026080 912291.000000 0 1 0
-19.457858 -8.366323 -9.873272 23.368464 0.406074 2.007003 0.032137 -0.019258 262581.000000 0 1 0
-19.332358 -7.033823 -10.611572 23.147790 0.348948 2.047021 0.028642 -0.023938 -118412.000000 0 1 0
-19.123058 -7.137323 -12.045772 23.700914 0.357219 2.103937 0.050705 -0.019056 306526.000000 0 1 0
-18.771858 -5.937423 -12.641772 23.397650 0.306337 2.141591 0.046979 -0.026177 -171652.000000 0 1 0
-18.015858 -6.209823 -13.950072 23.616468 0.331933 2.202713 0.048058 -0.020908 -86116.000000 0 1 0
-18.858558 -6.739623 -14.926672 24.977455 0.343232 2.211308 0.056737 -0.018512 194212.000000 0 1 0
-18.154958 -6.676323 -16.109472 25.173217 0.352391 2.265223 0.057552 -0.020255 -224776.000000 0 0 1
-18.795558 -7.441223 -17.266172 26.585061 0.376970 2.277682 0.051199 -0.012527 -712311.000000 0 0 1
-20.069058 -7.070423 -17.686472 27.668922 0.338726 2.264277 0.042221 -0.013587 -29028.000000 0 0 1
-20.440658 -7.927323 -18.742872 28.843686 0.369964 2.278129 0.054079 -0.014999 -691951.000000 0 0 1
-21.828558 -7.772823 -19.350172 30.188274 0.342085 2.266575 0.037794 -0.013143 -954333.000000 0 0 1
-21.890758 -6.586523 -20.133172 30.461979 0.292265 2.292851 0.046228 -0.015949 1262520.000000 0 0 1
-23.199058 -6.395323 -20.713372 31.751224 0.268991 2.281496 0.032590 -0.017132 1742630.000000 0 0 1
-24.334758 -5.834523 -19.763272 31.887443 0.235319 2.239262 0.046738 -0.012422 364905.000000 0 0 1
-24.398458 -4.420423 -19.667372 31.648545 0.179232 2.241364 0.045867 -0.012258 512147.000000 0 0 1
-25.476038 -4.120623 -18.772372 31.912537 0.160356 2.199683 0.055927 -0.005279 60705.800000 0 0 1
-25.451838 -2.615123 -18.423172 31.528530 0.102389 2.194855 0.039983 -0.003767 -51471.800000 0 0 1
-25.875198 -1.649123 -19.352372 32.353667 0.063648 2.211988 0.053657 -0.008472 1082060.000000 0 0 1
-27.267288 -1.721923 -19.727772 33.699481 0.063066 2.196173 0.066765 -0.002043 1041810.000000 0 0 1
-27.930048 -0.664023 -20.696772 34.769022 0.023770 2.208391 0.059315 -0.004135 84701.400000 0 0 1
-27.383898 -0.571823 -21.979072 35.118150 0.020879 2.247031 0.054032 -0.002300 -87390.600000 0 0 1
-27.949508 -1.498623 -22.839972 36.125963 0.053568 2.255226 0.051576 0.003073 -73926.700000 0 0 1
-27.283858 -1.427323 -24.295472 36.561128 0.052266 2.297643 0.040404 0.001516 -38538.200000 0 0 1
-27.507658 -0.246323 -25.140132 37.266046 0.008954 2.311236 0.037566 0.008310 346107.000000 0 0 1
-26.974678 1.031877 -24.703972 36.592134 -0.038235 2.311920 0.043984 0.013600 902828.000000 0 0 1
-25.495478 1.245477 -24.177072 35.158234 -0.048812 2.329064 0.040913 -0.001779 960261.000000 0 0 1
-24.516558 1.058177 -25.186052 35.164166 -0.043135 2.369199 0.032766 -0.002174 -402065.000000 0 0 1
-23.242858 1.080077 -24.599272 33.860319 -0.046436 2.384000 0.036584 -0.003456 23916.000000 0 0 1
-22.135058 0.482177 -25.514202 33.781175 -0.021780 2.426876 0.037091 -0.004940 20476.800000 0 0 1
-22.075958 1.160277 -26.748012 34.700869 -0.052510 2.450919 0.017189 -0.001761 78058.900000 0 0 1
-21.172958 0.530577 -27.632062 34.815320 -0.025054 2.487623 -0.001446 -0.005235 -176498.000000 0 0 1
-21.027658 1.325277 -28.904842 35.768822 -0.062942 2.511718 0.005172 0.009363 -73573.700000 0 0 1
-20.115458 2.432777 -28.870672 35.271316 -0.120356 2.529646 0.015530 0.009442 636858.000000 0 0 1
-20.124058 3.153277 -30.126502 36.366564 -0.155428 2.547063 0.004618 0.006995 -377173.000000 0 0 1
-19.540158 2.452377 -31.369652 37.038993 -0.124852 2.580992 0.004912 0.009267 822978.000000 0 0 1
-18.143458 2.105877 -31.154782 36.114266 -0.115551 2.611326 -0.006862 0.014655 1008110.000000 0 0 1
-17.646758 2.000477 -32.437762 36.981325 -0.112880 2.640668 -0.010795 0.006073 537355.000000 0 0 1
-16.095158 1.778077 -32.584792 36.386596 -0.110027 2.680386 -0.003793 -0.001171 786771.000000 0 0 1
-15.378158 2.991277 -32.364722 35.957068 -0.192116 2.690780 -0.000616 0.002008 -1397330.000000 0 0 1
-14.051458 2.794377 -32.587532 35.597742 -0.196306 2.727392 -0.002802 0.006411 -1740730.000000 0 0 1
-13.448458 4.133677 -33.007482 35.880945 -0.298206 2.738664 0.012191 0.022035 -502417.000000 0 0 1
-13.395458 5.127077 -31.969402 35.039519 -0.365546 2.719861 0.024831 0.001477 204754.000000 0 0 1
-12.756358 6.266077 -32.438902 35.415685 -0.456593 2.728659 0.034946 0.016386 -602947.000000 0 0 1
-12.359558 7.297377 -31.404932 34.529410 -0.533348 2.712906 0.046767 0.000613 -265028.000000 0 0 1
-11.217658 7.044877 -30.626902 33.368747 -0.560766 2.733380 0.064350 -0.010390 32088.400000 0 0 1
-11.342258 5.949577 -29.771782 32.409926 -0.483094 2.735321 0.053414 -0.010457 -387605.000000 0 0 1
-9.995858 5.209977 -29.549122 31.626123 -0.480474 2.777161 0.069147 -0.025830 -211401.000000 0 0 1
-9.607858 4.354777 -30.598852 32.366105 -0.425555 2.809610 0.058822 -0.024741 316458.000000 0 0 1
-10.304658 3.127377 -30.717472 32.550416 -0.294657 2.804406 0.061475 -0.024999 -326271.000000 0 0 1
-9.955258 2.415077 -32.031202 33.629417 -0.237995 2.832059 0.049232 -0.022348 -243305.000000 0 0 1
-10.566958 1.155677 -32.090622 33.805387 -0.108934 2.821720 0.055837 -0.025719 240889.000000 0 0 1
-10.341658 0.403977 -33.329762 34.899658 -0.039043 2.840513 0.052476 -0.021153 -595252.000000 0 0 1
-10.731558 0.956877 33.993883 35.660426 -0.088930 0.306928 0.040061 -0.013191 -412134.000000 0 0 1
-12.113158 1.085477 33.811932 35.932626 -0.089373 0.345278 -0.007416 -0.006216 -396070.000000 0 0 1
-12.334758 1.398077 32.427481 34.722361 -0.112863 0.365605 -0.005703 0.003629 -554235.000000 0 0 1
-13.780858 1.315577 31.947131 34.817552 -0.095176 0.408901 -0.015537 0.013613 -502840.000000 0 0 1
-14.504658 2.496377 32.257111 35.456145 -0.170439 0.428055 -0.018104 0.019611 4533.840000 0 0 1
-15.740858 2.426377 31.591691 35.379328 -0.152941 0.466957 -0.020355 0.014819 -392556.000000 0 0 1
-16.460658 3.731777 31.345321 35.600682 -0.222940 0.493944 -0.009797 0.010154 -266099.000000 0 0 1
-17.159258 4.304777 32.457341 36.965527 -0.245799 0.499038 -0.007928 0.011704 435724.000000 0 0 1
-16.405858 5.233877 33.190002 37.391468 -0.308818 0.478611 -0.012364 0.023957 -302120.000000 0 0 1
-17.180858 5.598077 -34.281231 38.752073 -0.314984 2.656495 -0.009743 0.025374 -220136.000000 0 0 1
-18.385658 6.219977 34.166673 39.294810 -0.326219 0.516616 -0.014850 0.014091 -708633.000000 0 0 1
-19.368358 5.952477 -33.629112 39.261717 -0.298168 2.599318 -0.009651 0.013272 -153345.000000 0 0 1
-20.697758 6.699977 -33.767462 40.168749 -0.313061 2.569260 -0.007020 0.007957 -205218.000000 0 0 1
-20.645358 8.006777 -33.248392 39.947401 -0.369966 2.554048 -0.009920 0.006172 195084.000000 0 0 1
-20.285158 8.993277 -34.198366 40.766345 -0.417304 2.566032 -0.010983 0.012702 -660087.000000 0 0 1
-20.170758 10.411377 -33.667402 40.604805 -0.476493 2.548379 -0.013374 0.012618 -63891.000000 0 0 1
-19.014358 10.625877 -32.845442 39.411650 -0.509601 2.556017 -0.007384 0.014944 634925.000000 0 0 1
-18.841958 12.050777 -32.643882 39.570995 -0.569009 2.540901 0.008809 0.008537 -65037.100000 0 0 1
-18.105258 12.871977 -33.692902 40.357153 -0.618039 2.558690 0.008796 0.008771 -668442.000000 0 0 1
-18.833758 12.848977 33.870302 40.828960 -0.598701 0.592467 0.011653 0.002040 66365.900000 0 0 1
-18.064758 13.042677 32.685082 39.557066 -0.625336 0.598331 0.014744 -0.000977 58959.100000 0 0 1
-18.732258 12.408577 31.407211 38.617136 -0.585055 0.621000 0.020789 -0.003818 112219.000000 0 0 1
-18.802058 10.941877 31.374241 38.178332 -0.527042 0.606266 0.006868 0.001924 79649.100000 0 0 1
-17.561558 10.329677 31.078751 37.161799 -0.531697 0.580280 0.008153 -0.002631 254767.000000 0 0 1
-17.626058 8.770277 31.146561 36.847034 -0.461705 0.563682 0.005354 0.005880 -9579.610000 0 0 1
-18.408158 8.164377 30.149461 36.256135 -0.417452 0.588871 0.011908 -0.007007 141218.000000 0 0 1
-18.525458 6.752677 30.385671 36.222648 -0.349541 0.575614 0.006553 0.001800 -314948.000000 0 0 1
-18.914358 5.883377 29.212211 35.294763 -0.301567 0.595864 0.008811 -0.005654 506434.000000 0 0 1
-20.322158 6.001677 28.978101 35.899033 -0.287164 0.631384 0.025641 -0.015119 661147.000000 0 0 1
-20.803558 4.996077 28.055721 35.282748 -0.235691 0.651511 0.015166 -0.014778 -423774.000000 0 0 1
-22.281058 5.228577 27.739171 35.961718 -0.230494 0.689832 0.013193 -0.001896 -366003.000000 0 0 1
-22.564658 6.051177 26.612251 35.411755 -0.262006 0.720450 0.029724 -0.003091 937171.000000 0 0 1
-23.983158 6.294677 26.606871 36.369498 -0.256673 0.750173 0.016333 0.000476 581305.000000 0 0 1
-24.452758 6.911377 25.292321 35.852559 -0.275457 0.787733 0.016022 -0.002845 -303287.000000 0 0 1
-24.483958 6.049477 24.136961 34.909214 -0.242228 0.807342 0.018184 -0.003576 -274994.000000 0 0 1
-25.762428 5.509877 24.003911 35.640555 -0.210698 0.831863 0.012490 0.000060 -752171.000000 0 0 1
-26.008918 4.741077 22.684011 34.835413 -0.180307 0.861662 0.017754 -0.006139 -201800.000000 0 0 1
-26.463838 5.526877 21.609111 34.609749 -0.205887 0.896478 0.021512 -0.009488 -235457.000000 0 0 1
-26.462548 4.705477 20.448911 33.772265 -0.175977 0.920410 0.027452 -0.010143 -570744.000000 0 0 1
-27.316598 5.304777 19.335811 33.885259 -0.191809 0.963528 0.033534 -0.015073 -263470.000000 0 0 1
-28.685858 5.305277 19.673511 35.186239 -0.182878 0.977466 0.032192 -0.017580 -338054.000000 0 0 1
-29.471938 5.635477 18.572511 35.288693 -0.188934 1.016551 0.029040 -0.018613 180702.000000 0 0 1
-31.001198 5.694277 18.843611 36.723027 -0.181654 1.031971 0.029399 -0.020003 313768.000000 0 0 1
-31.340748 6.821477 19.610811 37.594666 -0.214313 1.022026 0.038718 -0.020177 596237.000000 0 0 1
-32.606858 6.583177 20.246011 38.941576 -0.199217 1.024054 0.043628 -0.018512 231128.000000 0 0 1
-33.102308 7.686977 21.146611 40.025386 -0.228175 1.014164 0.039731 -0.018491 -273851.000000 0 0 1
-32.440718 7.823477 22.368611 40.174142 -0.236644 0.980278 0.031943 -0.016758 -54804.600000 0 0 1
-32.861568 8.967977 23.050811 41.129638 -0.266414 0.975876 0.032058 -0.009157 -182422.000000 0 0 1
-0.677558 32.206177 11.276228 34.129903 -1.549761 1.234078 0.017349 0.007473 -238323.000000 0 0 1
-0.680758 32.453777 12.657028 34.841232 -1.549823 1.199013 0.001581 0.003221 -62975.900000 0 0 1
-0.302958 33.775177 12.863328 36.143044 -1.561827 1.206919 -0.002174 -0.003473 -357370.000000 0 0 1
-0.178358 34.058677 14.360328 36.962743 -1.565560 1.171784 -0.011156 0.002462 -393981.000000 0 0 1
-1.332058 34.097577 15.135928 37.329820 -1.531750 1.153309 -0.013886 0.020984 -702605.000000 0 0 1
-0.915258 34.256377 16.463928 38.018390 -1.544085 1.122921 -0.023321 0.002219 185453.000000 0 0 1
-1.949858 -34.213132 17.527328 38.490877 1.513866 1.098016 -0.014893 0.013516 -298731.000000 0 0 1
-2.746358 33.702177 18.056728 38.333075 -1.489487 1.080318 -0.021159 0.013087 -319539.000000 0 0 1
-3.538058 34.159977 19.124628 39.308692 -1.467591 1.062689 -0.012371 0.012862 -79368.500000 0 0 1
-4.582358 33.132677 19.678728 38.807533 -1.433365 1.038997 -0.015183 0.008997 -96497.000000 0 0 1
-5.530258 32.980277 18.656728 38.293027 -1.404658 1.061905 -0.009791 0.003183 -772774.000000 0 0 1
-6.685658 32.452677 19.237028 38.313673 -1.367626 1.044779 0.009163 -0.016424 -114275.000000 0 0 1
-7.884058 32.201977 18.272428 37.855083 -1.330688 1.067068 0.000874 -0.021391 225706.000000 0 0 1
-8.450358 33.414977 17.755928 38.771668 -1.323098 1.095096 0.020668 -0.016270 38376.200000 0 0 1
-9.461558 33.070777 16.792528 38.277753 -1.292140 1.116643 0.043492 -0.018738 61961.100000 0 0 1
-10.494258 34.176977 16.615728 39.424328 -1.272878 1.135743 0.087080 -0.031338 -587511.000000 0 0 1
-11.514758 34.121077 17.586228 40.076339 -1.245330 1.116513 0.085764 -0.033144 -375542.000000 0 0 1
-12.419358 -33.782132 17.220028 39.899903 1.218502 1.124552 0.071749 -0.034274 261612.000000 0 0 1
-13.770258 -33.860132 18.005828 40.747250 1.184544 1.113091 0.101718 -0.035955 568195.000000 0 0 1
-13.604458 -33.375032 19.300428 40.883745 1.183735 1.079147 0.091527 -0.030512 606232.000000 0 0 1
-14.838058 -33.635032 19.971428 41.837080 1.155327 1.073146 0.069866 -0.037657 681393.000000 0 0 1
-14.798958 -33.118032 21.415928 42.124283 1.150561 1.037472 0.070240 -0.045368 -38099.100000 0 0 1
-14.842458 -31.707732 21.515928 41.092749 1.132991 1.019732 0.090885 -0.042620 60071.800000 0 0 1
-14.639558 -31.303732 22.847028 41.427370 1.133352 0.986640 0.056720 -0.038315 66020.600000 0 0 1
-14.741258 -29.788132 23.072328 40.459484 1.111261 0.963977 0.066277 -0.041186 -259840.000000 0 0 1
-14.699158 -29.451932 24.451628 41.004435 1.107877 0.931891 0.059031 -0.040373 -152376.000000 0 0 1
-14.673058 -28.026232 24.658128 40.109744 1.088489 0.908706 0.043876 -0.021738 -151353.000000 0 0 1
-15.894058 -27.178932 24.216128 39.720729 1.041633 0.915165 0.060048 -0.021826 743366.000000 0 0 1
-17.019758 -27.403732 25.129228 40.891500 1.015025 0.909001 0.085094 -0.024519 518128.000000 0 0 1
-18.083658 -26.625832 24.650128 40.541120 0.974183 0.917222 0.095891 -0.022067 -685136.000000 0 0 1
-19.244758 -26.456232 25.650928 41.572383 0.941905 0.905848 0.093126 -0.016915 -214139.000000 0 0 1
-19.909358 -27.689032 26.011228 42.891130 0.947410 0.919211 0.101609 -0.019088 515527.000000 0 0 1
-20.830558 -28.282132 25.110528 43.177885 0.935974 0.950151 0.089268 -0.021059 77498.100000 0 0 1
-22.142458 -27.570432 24.679028 43.121591 0.894154 0.961473 0.069676 -0.014620 -260122.000000 0 0 1
-21.953458 -26.268832 24.240828 41.947868 0.874650 0.954668 0.070788 -0.017884 384604.000000 0 0 1
-23.034358 -25.795032 23.407828 41.759930 0.841875 0.975767 0.043943 -0.012556 400832.000000 0 0 1
-23.197058 -24.237532 23.490328 40.955549 0.807330 0.959955 0.046013 -0.006779 -77745.200000 0 0 1
-24.094258 -23.852632 24.499128 41.829279 0.780359 0.945061 0.045994 -0.007252 444916.000000 0 0 1
-24.980158 -22.778132 24.161028 41.552459 0.739323 0.950276 0.028577 -0.001709 301255.000000 0 0 1
-25.517208 -22.019032 25.351628 42.174290 0.711941 0.925900 0.037874 -0.001748 -86135.900000 0 0 1
-26.560538 -22.741732 25.974728 43.558410 0.708096 0.931888 0.025322 -0.000785 88927.200000 0 0 1
-26.748578 -22.176932 27.272828 44.171370 0.692228 0.905322 0.015918 -0.007068 -1393110.000000 0 0 1
-27.979508 -22.600032 28.078928 45.629382 0.679440 0.907942 0.013060 -0.003612 -587111.000000 0 0 1
-29.177298 -21.911632 27.807428 45.876872 0.644129 0.919608 0.014863 -0.006760 398220.000000 0 0 1
-29.778958 -22.172332 26.506728 45.618037 0.640013 0.950768 0.013197 0.001793 -964171.000000 0 0 1
-30.957708 -23.139932 26.646528 46.945432 0.641879 0.967201 -0.004344 0.000033 -482520.000000 0 0 1
-31.559438 -23.695132 25.465428 46.967493 0.644019 0.997752 -0.016535 0.008654 175752.000000 0 0 1
-30.836798 -24.703632 24.827228 46.664428 0.675417 1.009791 -0.022165 0.005540 -571177.000000 0 0 1
-31.526908 -25.091532 23.480328 46.635359 0.672222 1.043166 -0.019427 0.006702 -89231.100000 0 0 1
-32.694358 -25.871232 23.594128 47.905371 0.669417 1.055819 -0.000002 0.002622 97650.400000 0 0 1
-33.187438 -26.210932 22.242228 47.782169 0.668481 1.086606 -0.001785 0.005922 -26313.700000 0 0 1
-34.549451 -26.911532 22.179828 49.090120 0.661759 1.101994 0.019430 -0.004211 -494647.000000 0 0 1
-34.794156 -28.170932 22.816328 50.247582 0.680595 1.099459 0.020767 -0.008632 -282661.000000 0 0 1
-33.769468 -29.107032 22.689928 50.024285 0.711381 1.100020 0.004017 0.001754 -643679.000000 0 0 1
-34.002168 -30.215132 21.603328 50.356781 0.726494 1.127405 0.013984 0.000891 -264207.000000 0 0 1
-34.116218 -29.737232 20.281928 49.594112 0.716927 1.149484 0.002111 0.006401 400410.000000 0 0 1
-34.460248 -30.750632 19.358228 50.078449 0.728573 1.173900 0.002039 -0.000492 -318442.000000 0 0 1
-34.825622 -30.324632 17.903528 49.527200 0.716421 1.200932 -0.005238 0.003048 19084.200000 0 0 1
-33.692878 -29.864332 17.151928 48.179633 0.725233 1.206813 0.006283 -0.000365 573507.000000 0 0 1
-34.032518 -29.380032 15.833128 47.666409 0.712161 1.232198 -0.012075 0.012980 -208674.000000 0 0 1
-34.763701 -30.302732 14.886528 48.460078 0.716945 1.258556 -0.009547 0.007302 175223.000000 0 0 1
-33.969058 -31.409932 14.413628 48.458574 0.746275 1.268784 0.012895 -0.006685 147742.000000 0 0 1
-34.678011 -32.244332 13.529928 49.247542 0.749048 1.292484 0.017010 -0.006037 -99387.600000 0 0 1
-34.761801 -31.699632 12.105828 48.577778 0.739356 1.318937 0.024388 -0.014190 -67586.100000 0 0 1
35.287687 -30.833832 11.904028 48.349271 -0.718141 1.322029 0.012271 -0.013417 -292812.000000 0 0 1
35.310953 -30.217332 10.665328 47.683328 -0.707823 1.345218 0.003273 -0.000420 12245.900000 0 0 1
34.202959 -29.160532 10.512428 46.159400 -0.705986 1.341038 0.016521 0.007446 79120.000000 0 0 1
34.425899 -28.242432 9.431228 45.516212 -0.687047 1.362078 0.020327 -0.019810 603080.000000 0 0 1
33.334349 -27.309232 9.395728 44.105019 -0.686370 1.356120 0.026868 -0.018614 482745.000000 0 0 1
33.358059 -26.343432 8.231128 43.295358 -0.668439 1.379516 0.025057 -0.012670 191537.000000 0 0 1
34.107909 -25.154332 8.496328 43.223576 -0.635448 1.372941 0.032587 -0.019565 308027.000000 0 0 1
34.449419 -24.412232 7.291928 42.847308 -0.616501 1.399780 0.043296 -0.027419 38418.500000 0 0 1
35.004629 -22.980932 7.526228 42.545169 -0.580939 1.392961 0.050980 -0.029162 -1262900.000000 0 0 1
34.076009 -22.141532 8.092528 41.435623 -0.576213 1.374229 0.034830 -0.023117 -657591.000000 0 0 1
34.457729 -20.800032 7.966428 41.029750 -0.543091 1.375393 0.047611 -0.021459 -186571.000000 0 0 1
33.682219 -19.785032 8.798228 40.041831 -0.531105 1.349263 0.054168 -0.019798 -89985.800000 0 0 1
33.938549 -19.888532 10.187628 40.634549 -0.530074 1.317379 0.045859 -0.023350 392486.000000 0 0 1
33.134519 -18.890432 10.845428 39.653097 -0.518154 1.293758 0.044824 -0.013550 404588.000000 0 0 1
33.564259 -18.794032 12.358828 40.404403 -0.510444 1.259936 0.037810 -0.023961 341644.000000 0 0 1
34.824189 -18.153432 12.500328 41.213219 -0.480533 1.262633 0.005857 -0.024007 324620.000000 0 0 1
35.135166 -18.290232 13.882428 41.973019 -0.479966 1.233702 0.012888 -0.014277 339150.000000 0 0 1
-34.678456 -17.524732 14.297628 41.402098 0.467918 1.218200 0.018921 -0.020530 707142.000000 0 0 1
-33.479558 -18.206432 13.969428 40.589406 0.498076 1.219448 0.017230 -0.024217 264667.000000 0 0 1
-32.362188 -17.614632 14.631428 39.644232 0.498454 1.192790 0.007285 -0.023934 340769.000000 0 0 1
-31.079018 -17.687832 13.770528 38.319606 0.517408 1.203214 0.024061 -0.021029 -20121.300000 0 0 1
-30.395428 -18.923032 13.818828 38.378681 0.556844 1.202459 0.016925 -0.019661 575373.000000 0 0 1
-29.352528 -19.021232 12.841028 37.259498 0.574987 1.218944 -0.004360 -0.012868 636409.000000 0 0 1
-28.611578 -20.386432 12.644828 37.337926 0.619082 1.225305 -0.019496 -0.010072 639516.000000 0 0 1
-29.382178 -21.308632 11.831128 38.175198 0.627454 1.255691 -0.012479 -0.008971 849419.000000 0 0 1
-28.423228 -22.199432 11.217128 37.769282 0.663067 1.269257 -0.003403 -0.008759 221961.000000 0 0 1
-28.938228 -22.947232 9.964628 38.252978 0.670441 1.307264 0.009760 -0.010432 292793.000000 0 0 1
-29.895188 -23.962032 10.236428 39.657102 0.675676 1.309717 0.007647 -0.005696 -37791.100000 0 0 1
-31.208838 -23.450232 10.152528 40.335825 0.644395 1.316360 0.011855 -0.014467 -663365.000000 0 0 1
-32.349368 -24.456632 10.227428 41.823543 0.647340 1.323754 0.026862 -0.019851 -537057.000000 0 0 1
-32.541618 -25.209732 9.055328 42.148386 0.659118 1.354264 0.031432 -0.013001 -192812.000000 0 0 1
-33.063118 -26.475932 9.378328 43.383151 0.675210 1.352902 0.036743 -0.010621 136826.000000 0 0 1
-33.263358 -27.383732 8.177728 43.854247 0.688752 1.383223 0.032745 -0.014258 248575.000000 0 0 1
-32.035828 -27.775132 7.601728 43.075962 0.714282 1.393395 0.031727 -0.016556 7643.720000 0 0 1
-32.258778 -28.632732 6.506728 43.621091 0.725919 1.421073 0.027829 -0.015731 1438120.000000 0 0 1
-30.851128 -29.056632 5.857328 42.783037 0.755453 1.433457 0.041544 -0.013753 1434620.000000 0 0 1
-30.193548 -28.012732 5.161128 41.509044 0.747949 1.446136 0.050993 -0.011778 -631925.000000 0 0 1
-28.991648 -28.551432 4.683328 40.958925 0.777748 1.456204 0.045544 -0.014694 -300860.000000 0 0 1
-28.122188 -27.422732 4.067528 39.489346 0.772806 1.467610 0.046754 -0.009585 -29335.200000 0 0 1
-28.512868 -27.060032 2.720728 39.403443 0.759261 1.501693 0.052622 -0.004498 -193470.000000 0 0 1
-27.808848 -25.916232 2.275728 38.080993 0.750185 1.511000 0.042513 0.002006 -242791.000000 0 0 1
-28.196078 -25.124432 1.004128 37.779150 0.727855 1.544214 0.044061 0.000674 -234174.000000 0 0 1
-27.875878 -25.876632 -0.172872 38.035438 0.748222 1.575341 0.038082 0.000409 -12573.700000 0 0 1
-28.068238 -25.197132 -1.404172 37.745108 0.731548 1.608006 0.039170 -0.007076 -789399.000000 0 0 1
-29.428468 -25.321132 -2.048672 38.876619 0.710518 1.623518 0.061293 -0.012326 -478633.000000 0 0 1
-30.266748 -24.228232 -1.722072 38.807845 0.675040 1.615185 0.051359 -0.004315 -940015.000000 0 0 1
-31.531498 -24.285132 -2.270672 39.864257 0.656296 1.627787 0.051051 -0.010193 -678754.000000 0 0 1
-32.262848 -22.930332 -2.221372 39.643738 0.617894 1.626859 0.039193 -0.016028 -55308.200000 0 0 1
-32.478578 -22.517132 -0.909372 39.531079 0.606210 1.593802 0.042193 -0.022054 -40721.000000 0 0 1
-33.090058 -21.261032 -0.951272 39.343212 0.571099 1.594977 0.046360 -0.007035 -398494.000000 0 0 1
-33.305878 -20.741032 0.481328 39.239057 0.556975 1.558529 0.028472 -0.012414 -366019.000000 0 0 1
-34.184099 -21.532132 1.268728 40.420230 0.562106 1.539403 0.042094 -0.013480 321749.000000 0 0 1
-34.214831 -21.128132 2.618628 40.297765 0.553198 1.505769 0.044785 -0.016826 -922219.000000 0 0 1
-35.203995 -22.037132 3.342228 41.666857 0.559306 1.490497 0.053618 -0.012383 1594730.000000 0 0 1
34.500009 -21.940232 3.032928 40.997842 -0.566434 1.496751 0.037682 -0.013463 1673590.000000 0 0 1
33.837439 -20.695032 3.315028 39.802589 -0.548906 1.487413 0.037443 -0.018161 -221314.000000 0 0 1
32.459259 -20.525032 2.647828 38.495343 -0.563854 1.501959 0.029563 -0.007813 448999.000000 0 0 1
31.477179 -21.455032 3.036028 38.214509 -0.598274 1.491266 0.023177 -0.004950 -1090520.000000 0 0 1
30.181909 -21.064732 2.772628 36.910135 -0.609333 1.495607 0.024283 -0.003880 653614.000000 0 0 1
29.027789 -22.111532 3.190928 36.629420 -0.650970 1.483572 0.013299 0.008493 1066850.000000 0 0 1
28.738759 -23.121432 2.172128 36.949087 -0.677502 1.511975 0.009125 -0.007329 -221653.000000 0 0 1
27.693599 -23.991832 2.516928 36.727080 -0.713899 1.502212 0.001736 -0.003473 -205101.000000 0 0 1
27.421589 -25.125632 1.466628 37.220854 -0.741733 1.531383 0.009900 -0.003840 506237.000000 0 0 1
26.630539 -24.769932 0.296828 36.370638 -0.749216 1.562635 0.002764 -0.007353 500571.000000 0 0 1
26.429149 -25.893532 -0.532672 37.003496 -0.775162 1.585192 0.006157 -0.009971 -151757.000000 0 0 1
25.673909 -25.409232 -1.795672 36.166326 -0.780217 1.620467 0.011641 -0.010070 -364359.000000 0 0 1
26.507849 -24.922532 -2.805672 36.492061 -0.754583 1.647757 -0.000552 -0.021040 -106074.000000 0 0 1
26.643389 -25.715932 -4.005672 37.245467 -0.767687 1.678553 0.005637 -0.022145 -601453.000000 0 0 1
25.386709 -25.880732 -4.867872 36.578593 -0.795034 1.704272 0.013914 -0.027150 -398242.000000 0 0 1
25.172009 -24.826332 -5.793772 35.826591 -0.778485 1.733227 0.010774 -0.034712 11693.700000 0 0 1
24.067109 -24.106332 -5.328572 34.478032 -0.786212 1.725968 0.021108 -0.041204 -724947.000000 0 0 1
23.585909 -23.040832 -6.378572 33.583646 -0.773708 1.761888 0.021769 -0.041984 -133627.000000 0 0 1
22.849309 -23.602732 -7.463472 33.688029 -0.801616 1.794197 0.026245 -0.041512 47096.100000 0 0 1
21.789709 -22.790532 -7.905172 32.506792 -0.807844 1.816445 0.035739 -0.042105 -347127.000000 0 0 1
22.092909 -21.434832 -8.598372 31.960611 -0.770281 1.843182 0.036878 -0.038630 -875018.000000 0 0 1
22.721609 -21.529232 -9.838372 32.811171 -0.758459 1.875330 0.042367 -0.038518 184262.000000 0 0 1
22.599009 -20.283632 -10.473672 32.122247 -0.731457 1.902926 0.044998 -0.042494 -65536.200000 0 0 1
23.373309 -20.190132 -11.830872 33.074500 -0.712458 1.936604 0.035176 -0.038242 1001260.000000 0 0 1
24.778109 -19.963832 -11.592572 33.865868 -0.678210 1.920169 0.036111 -0.030325 597783.000000 0 0 1
25.346409 -19.645132 -12.847072 34.545896 -0.659351 1.951834 0.031536 -0.028222 -595748.000000 0 0 1
26.874969 -19.744432 -12.923672 35.764897 -0.633622 1.940512 0.017879 -0.024300 -399964.000000 0 0 1
27.254329 -21.157832 -13.038572 36.884369 -0.660129 1.932105 0.024932 -0.024586 290608.000000 0 0 1
27.397799 -21.852332 -11.841672 36.991743 -0.673272 1.896649 0.031122 -0.036157 -563784.000000 0 0 1
27.686269 -23.286632 -12.247072 38.194077 -0.699298 1.897216 0.027565 -0.016144 -339310.000000 0 0 1
28.856079 -23.394132 -13.021072 39.363779 -0.681242 1.907935 0.027566 -0.019157 104969.000000 0 0 1
28.908909 -24.608532 -13.729872 40.370959 -0.705216 1.917812 0.027444 -0.008417 -232592.000000 0 0 1
-3.376258 -9.356523 -27.369302 29.120823 1.224493 2.792997 -0.000724 -0.008802 -28351.200000 0 0 1
-3.487058 -7.988223 -26.958282 28.332318 1.159205 2.828881 0.007813 -0.005319 962028.000000 0 0 1
-4.553958 -7.287023 -27.695782 28.998200 1.012240 2.840747 0.008281 -0.005398 908753.000000 0 0 1
-4.671558 -5.769223 -27.251092 28.244104 0.890146 2.875637 0.010859 -0.007228 -113948.000000 0 0 1
-5.351658 -5.637123 -26.039382 27.174746 0.811370 2.851509 0.014998 -0.012632 68613.500000 0 0 1
-5.079558 -4.339423 -25.482202 26.343408 0.706980 2.885190 0.019195 -0.009056 119083.000000 0 0 1
-5.720358 -4.173023 -24.096972 25.115746 0.630254 2.855794 0.017941 -0.006798 -3197.080000 0 0 1
-5.130258 -4.978023 -23.089772 24.171012 0.770339 2.841358 0.023714 -0.021630 420323.000000 0 1 0
-5.664258 -4.683023 -21.831372 23.035263 0.690851 2.816863 0.025242 -0.010679 -247661.000000 0 1 0
-5.033458 -5.669823 -20.813472 22.151370 0.844783 2.792262 0.026454 -0.012151 -165548.000000 0 1 0
-5.492058 -6.976323 -20.905372 22.712692 0.903883 2.739967 0.021999 -0.009885 260182.000000 0 1 0
-4.577358 -7.836523 -20.261672 22.201321 1.042146 2.720477 0.021915 -0.015575 -982977.000000 0 1 0
-5.001158 -9.306623 -20.148872 22.750865 1.077697 2.658647 0.018722 -0.014474 750000.000000 0 1 0
-6.173358 -9.561123 -19.335872 22.436608 0.997469 2.609604 0.013707 -0.005573 823466.000000 0 1 0
-7.392858 -9.195523 -19.949472 23.177433 0.893644 2.607495 0.007725 0.003728 -403257.000000 0 1 0
-8.614158 -9.251623 -18.972772 22.798296 0.821064 2.553862 0.014590 0.006923 22182.400000 0 1 0
-9.053658 -10.581623 -18.925272 23.496923 0.863059 2.507207 0.025427 0.009054 62412.100000 0 1 0
-9.733958 -10.818723 -17.686972 22.904665 0.838129 2.453092 0.019026 0.009973 -60909.600000 0 1 0
-10.504958 -12.161623 -17.698572 23.906038 0.858357 2.404371 0.031493 0.010041 -231396.000000 0 1 0
-11.652358 -12.199223 -18.513672 25.047046 0.808322 2.402613 0.037515 -0.000033 4417.110000 0 0 1
-11.429658 -12.390223 -19.892972 26.074605 0.825703 2.438622 0.042477 0.002962 -446149.000000 0 0 1
-12.701358 -12.080923 -20.780772 27.186645 0.760368 2.440867 0.053465 -0.005003 1122380.000000 0 0 1
-13.765858 -13.011623 -20.810972 28.140677 0.757239 2.403173 0.048082 0.000170 86804.300000 0 0 1
-14.431658 -13.240823 -19.596472 27.705845 0.742392 2.356474 0.036992 0.005550 -694471.000000 0 0 1
-15.668958 -14.182223 -19.672272 28.872997 0.735634 2.320385 0.034840 0.007192 251367.000000 0 0 1
-15.405258 -15.539823 -19.825972 29.527567 0.789747 2.306946 0.035573 -0.003047 -148181.000000 0 0 1
-15.999258 -16.071723 -21.011172 30.915140 0.787658 2.318068 0.039625 -0.003230 157980.000000 0 0 1
-15.494158 -17.449623 -21.488172 31.722229 0.844686 2.314999 0.032170 -0.002921 -186681.000000 0 0 1
-15.754958 -18.490823 -20.589472 31.844239 0.865118 2.273874 0.025233 0.011029 274206.000000 0 0 1
-15.312058 -19.735023 -21.181372 32.750279 0.910935 2.274117 0.027964 0.008649 -54160.600000 0 0 1
-15.821758 -20.974423 -20.403672 33.265061 0.924526 2.231112 0.021385 0.005756 -67402.700000 0 0 1
-15.387458 -22.188123 -21.047072 34.235448 0.964446 2.232896 0.021408 0.001179 269072.000000 0 0 1
-15.974458 -23.306923 -20.442272 34.875241 0.969939 2.197100 0.028145 0.010165 -188055.000000 0 0 1
-15.474358 -24.642623 -20.994572 35.881564 1.010078 2.195809 0.034080 0.008792 11260.700000 0 0 1
-15.870358 -24.943523 -22.336672 37.053671 1.004147 2.217826 0.018360 0.005517 427793.000000 0 0 1
-15.325458 -26.263213 -22.589672 37.880328 1.042573 2.209734 0.016578 0.006809 62613.800000 0 0 1
-15.614858 -26.890713 -24.013072 39.288190 1.044705 2.228376 0.019043 0.007651 -1066150.000000 0 0 1
-16.869758 -27.383713 -24.299972 40.310608 1.018658 2.217825 0.040049 0.003501 -955380.000000 0 0 1
-16.915558 -28.771603 -24.081572 41.156571 1.039302 2.195826 0.038038 0.010932 144947.000000 0 0 1
-17.818158 -29.510783 -25.171162 42.684429 1.027599 2.201488 0.047807 0.004234 -139984.000000 0 0 1
-17.406358 -29.467923 -26.543682 43.311740 1.037252 2.230461 0.035994 0.006852 -79757.100000 0 0 1
-17.365058 -28.172623 -27.118312 42.786035 1.018419 2.257268 0.060610 -0.003552 -769217.000000 0 0 1
-16.376958 -27.881343 -28.209202 42.910757 1.039708 2.288149 0.060937 -0.001416 -1324540.000000 0 0 1
-16.488058 -28.468243 -29.467922 44.166224 1.045831 2.301246 0.062955 -0.003730 389066.000000 0 0 1
-15.361158 -28.087853 -30.269052 44.058009 1.070339 2.328186 0.021738 0.012835 352887.000000 0 0 1
-15.699458 -28.292043 -31.771982 45.347233 1.064193 2.347087 0.039765 0.002545 64983.800000 0 0 1
-15.432958 -29.608493 -32.138752 46.343699 1.090306 2.337114 0.019286 0.013809 75310.900000 0 0 1
-16.265158 -29.847943 -33.234892 47.539595 1.071851 2.344933 0.031649 0.005051 -24133.400000 0 0 1
-16.282558 -31.303133 -33.748582 48.825962 1.091153 2.333947 0.025803 0.003757 -615371.000000 0 0 1
-15.081158 -31.619753 -34.359703 49.069739 1.125755 2.346505 0.016683 0.014466 -693239.000000 0 0 1
-15.174358 -32.798463 33.573519 49.327289 1.137469 0.822177 0.015175 0.009378 735185.000000 0 0 1
-13.743458 -33.253473 33.102969 48.892562 1.178882 0.827042 0.006786 0.006574 782076.000000 0 0 1
-13.074258 -34.175612 33.908474 49.886804 1.205413 0.823431 0.005718 0.009785 78504.100000 0 0 1
-11.925558 34.208288 33.259400 49.179402 -1.235355 0.828086 0.013566 0.001653 230030.000000 0 0 1
-11.129158 33.216346 34.126295 48.905908 -1.247501 0.798482 0.023940 -0.004889 -220084.000000 0 0 1
-10.472858 33.867892 -33.586782 48.834279 -1.270896 2.329210 0.022421 0.005379 -316900.000000 0 0 1
-9.570258 32.982352 -32.961162 47.601088 -1.288389 2.335670 0.022177 -0.006623 -179565.000000 0 0 1
-8.684958 33.650008 -31.901802 47.174957 -1.318212 2.313449 0.017185 -0.004107 -156005.000000 0 0 1
-9.406958 34.018097 -30.737062 46.802658 -1.301010 2.287281 0.027503 0.006101 -190087.000000 0 0 1
-9.064258 -33.632763 -30.242532 46.129538 1.307544 2.285773 0.014185 0.009139 -36018.800000 0 0 1
-10.082658 -32.993593 -29.252482 45.232122 1.274215 2.274071 0.014209 0.023278 79995.500000 0 0 1
-10.010058 -33.353453 -27.897492 44.619773 1.279229 2.246219 0.040200 0.015672 -199311.000000 0 0 1
-10.539558 34.306302 -27.536562 45.235682 -1.272730 2.225262 0.040759 0.008487 -135293.000000 0 0 1
-10.808058 34.149260 -26.006112 44.264026 -1.264276 2.198790 0.036140 -0.007043 -732306.000000 0 0 1
-9.716258 34.035076 -25.186172 43.441171 -1.292715 2.189251 0.053886 -0.014844 -935688.000000 0 0 1
-10.084958 33.984490 -23.804972 42.700453 -1.282322 2.162153 0.051059 -0.021967 735076.000000 0 0 1
-8.806358 33.981645 -22.887472 41.906330 -1.317224 2.148567 0.062118 -0.017641 958292.000000 0 0 1
-8.123058 32.724487 -22.771772 40.686973 -1.327488 2.164799 0.049519 -0.029412 32502.300000 0 0 1
-7.088258 32.732747 -21.803972 39.963600 -1.357540 2.147896 0.050263 -0.020945 187552.000000 0 0 1
-6.096558 31.546337 -21.965572 38.920763 -1.379893 2.170462 0.048000 -0.033067 907714.000000 0 0 1
-5.106558 31.737667 -23.041472 39.550802 -1.411265 2.192695 0.036656 -0.038598 1181570.000000 0 0 1
-4.213958 30.597427 -23.084272 38.559611 -1.433935 2.212629 0.037645 -0.027318 527931.000000 0 0 1
-2.783758 30.968607 -23.550172 39.005314 -1.481148 2.219016 0.034004 -0.028330 -81716.000000 0 0 1
-2.525358 30.877267 -24.991572 39.804042 -1.489191 2.249604 0.038962 -0.027978 25084.300000 0 0 1
-3.077758 31.937307 -25.757722 41.145163 -1.474724 2.247236 0.037248 -0.027191 -105551.000000 0 0 1
-2.261558 32.247087 -27.054502 42.153711 -1.500779 2.267647 0.040685 -0.021995 -778342.000000 0 0 1
-1.209358 33.143040 -26.922022 42.716729 -1.534323 2.252666 0.042874 -0.024643 -856973.000000 0 0 1
-1.504558 -34.381562 -26.643612 43.522839 1.527064 2.229605 0.013708 -0.013667 -851488.000000 0 0 1
-0.456858 -33.396263 -27.154582 43.045213 1.557117 2.253430 0.000326 -0.004606 -939762.000000 0 0 1
0.646642 -33.458163 -26.312232 42.569947 -1.551472 2.237112 -0.003310 -0.001928 -821837.000000 0 0 1
1.422342 -32.330133 -26.634452 41.912463 -1.526830 2.259424 -0.005443 0.001469 -160602.000000 0 0 1
2.540242 -31.929513 -25.649672 41.034769 -1.491406 2.246020 0.002163 -0.000409 -93284.300000 0 0 1
2.128742 -31.252293 -24.497272 39.766238 -1.502787 2.234492 -0.005358 0.006838 -164004.000000 0 0 1
3.244242 -30.661923 -23.919572 39.023384 -1.465382 2.230591 -0.009476 0.008470 -550414.000000 0 0 1
2.972642 -29.873963 -22.554672 37.550013 -1.471617 2.215119 0.000429 0.004880 -151015.000000 0 0 1
2.668942 -30.746823 -21.463072 37.591938 -1.484210 2.178457 0.012950 0.005340 439637.000000 0 0 1
2.704842 -30.082933 -20.200172 36.336565 -1.481125 2.160264 0.020722 -0.002575 -369761.000000 0 0 1
2.586042 -31.036173 -18.987572 36.475465 -1.487665 2.118300 0.026738 0.002822 -96410.000000 0 0 1
1.368942 -31.744743 -18.851072 36.945441 -1.527700 2.106261 0.032218 -0.005404 24699.600000 0 0 1
1.365642 -33.052113 -19.399872 38.349213 -1.529502 2.101191 0.032609 0.003373 -285310.000000 0 0 1
2.175442 -34.132152 -18.633772 38.948091 -1.507147 2.069658 0.014002 -0.007913 1602070.000000 0 0 1
3.618242 -33.926543 -18.679872 38.897810 -1.464549 2.071713 0.020531 -0.006755 1507260.000000 0 0 1
4.279942 33.992128 -17.832372 38.623518 1.445546 2.050704 0.019542 -0.012142 538085.000000 0 0 1
5.223542 32.990849 -18.557072 38.210554 1.413767 2.077906 0.027466 -0.007175 -739093.000000 0 0 1
6.412742 33.576191 -18.926972 39.073190 1.382078 2.076471 0.062335 -0.008193 -1402770.000000 0 0 1
7.137942 32.663877 -19.707272 38.810510 1.355651 2.103404 0.040253 -0.008829 765547.000000 0 0 1
8.611742 33.190426 -19.929572 39.660489 1.316930 2.097289 0.031382 -0.010951 834843.000000 0 0 1
9.312342 33.430537 -18.703672 39.422682 1.299125 2.065123 0.037479 -0.007180 38521.600000 0 0 1
10.507042 34.171868 -18.924672 40.450683 1.272495 2.057648 0.038467 0.002147 366012.000000 0 0 1
11.357542 34.105952 -17.631972 40.038684 1.249339 2.026811 0.033493 0.000711 -394511.000000 0 0 1
12.123242 32.960427 -17.386172 39.187265 1.218342 2.030485 0.026091 -0.010318 -310589.000000 0 0 1
12.686142 33.293506 -16.116572 39.104215 1.206741 1.995602 0.029567 -0.011568 -253534.000000 0 0 1
13.890942 32.469397 -15.645772 38.626548 1.166543 1.987832 0.023680 -0.012848 -113502.000000 0 0 1
13.605042 31.113037 -15.253672 37.226238 1.158572 1.992983 0.028080 -0.020007 -894100.000000 0 0 1
14.724342 30.306827 -15.116972 36.930108 1.118539 1.992527 0.018652 -0.015926 -721559.000000 0 0 1
14.511542 29.102727 -14.179072 35.476748 1.108244 1.981956 0.016720 -0.016957 -293202.000000 0 0 1
14.489042 29.573197 -12.813972 35.337009 1.115230 1.941876 0.022697 -0.023099 -629090.000000 0 0 1
13.231542 29.576637 -12.222672 34.630115 1.150136 1.931518 0.043522 -0.022106 -678022.000000 0 0 1
12.718542 28.219367 -11.672172 33.080714 1.147358 1.931400 0.031746 -0.019294 -585459.000000 0 0 1
12.174742 27.417147 -12.725572 32.586262 1.152897 1.971992 0.013354 -0.018632 -155602.000000 0 0 1
11.913942 26.050027 -12.344472 31.191857 1.141848 1.977691 0.029430 -0.017251 520764.000000 0 0 1
10.917042 25.832597 -11.145872 30.178392 1.170954 1.949087 0.025717 -0.016161 -375690.000000 0 0 1
9.666042 26.449717 -11.228872 30.316786 1.220425 1.950219 0.026858 -0.012608 -441560.000000 0 0 1
9.360942 26.817987 -9.914072 30.085221 1.234964 1.906605 0.017563 -0.004472 -654135.000000 0 0 1
8.263542 27.856327 -9.908372 30.699136 1.282417 1.899438 0.018418 -0.007390 -606895.000000 0 0 1
8.576942 29.150637 -10.450372 32.133065 1.284643 1.902043 0.023783 -0.013378 -317070.000000 0 0 1
7.515242 30.073297 -10.418872 32.702217 1.325914 1.895047 0.026569 -0.016112 -302714.000000 0 0 1
7.951542 31.437917 -10.905772 34.212652 1.323063 1.895222 0.047939 -0.021750 -462104.000000 0 0 1
8.794842 32.114077 -10.006472 34.767696 1.303488 1.862735 0.040062 -0.017101 -172790.000000 0 0 1
9.387442 33.312353 -10.538672 36.178731 1.296119 1.866376 0.051800 -0.014457 41197.800000 0 0 1
10.411942 33.183588 -11.675672 36.686243 1.266757 1.894687 0.051411 -0.020327 -812570.000000 0 0 1
11.705542 33.049046 -11.170072 36.797142 1.230396 1.879221 0.037761 -0.009087 -261569.000000 0 0 1
12.766142 33.338941 -12.080972 37.688318 1.205100 1.897106 0.051345 -0.009097 160283.000000 0 0 1
14.181742 33.169215 -11.557672 37.880053 1.166762 1.880853 0.038562 -0.011655 -399906.000000 0 0 1
14.452242 34.100609 -10.566472 38.514532 1.169932 1.848710 0.042150 -0.006212 -1048180.000000 0 0 1
15.814642 34.313120 -10.492672 39.212107 1.138922 1.841685 0.030417 -0.014485 -782883.000000 0 0 1
16.339642 -33.688243 -9.368572 38.596007 -1.119200 1.815980 0.030423 -0.010554 -544.898000 0 0 1
16.292442 -34.344725 -8.110272 38.868757 -1.127854 1.780999 0.028021 -0.012230 139869.000000 0 0 1
16.771442 -33.504313 -7.062372 38.127383 -1.106688 1.757103 0.026746 -0.009947 -1209680.000000 0 0 1
17.105842 -34.139913 -5.711072 38.610359 -1.106308 1.719257 0.033954 -0.005273 59148.400000 0 0 1
18.111442 33.797405 -5.764672 38.775255 1.078856 1.720018 0.026076 -0.013210 -619337.000000 0 0 1
19.382142 34.307309 -6.038072 39.863733 1.056543 1.722849 0.033130 -0.010148 -1743810.000000 0 0 1
20.249042 33.330531 -6.849572 39.596271 1.024864 1.744656 0.026707 -0.009202 -37350.000000 0 0 1
20.523642 32.078947 -6.279572 38.596785 1.001635 1.734220 0.035786 -0.000537 -169358.000000 0 0 1
21.355442 31.996047 -5.150472 38.811459 0.982259 1.703894 0.023399 0.007605 -788812.000000 0 0 1
21.684042 30.574327 -4.689272 37.775342 0.953907 1.695253 0.013784 0.006601 -189956.000000 0 0 1
22.613042 29.920817 -5.533972 37.910814 0.923617 1.717293 0.011387 0.004432 65066.800000 0 0 1
22.894842 28.590037 -5.057772 36.974925 0.895569 1.708016 0.021047 0.011221 -247265.000000 0 0 1
23.726542 27.722237 -6.000172 36.979363 0.862906 1.733774 0.006915 0.016151 186361.000000 0 0 1
25.037642 28.295977 -6.143372 38.279066 0.846416 1.731982 0.000855 0.014581 241648.000000 0 0 1
25.881542 27.509027 -6.924372 38.399840 0.815871 1.752111 -0.011895 0.017250 -195746.000000 0 0 1
26.823042 26.588767 -6.143272 38.264578 0.781012 1.732041 0.000561 0.014704 -597504.000000 0 0 1
27.898342 27.253327 -5.503472 39.387175 0.773703 1.710983 0.000771 0.007838 -95424.600000 0 0 1
28.408042 26.324177 -4.581872 38.999650 0.747343 1.688553 0.005143 0.019617 117049.000000 0 0 1
29.601742 26.723947 -3.673372 40.049047 0.734351 1.662647 0.000919 0.013625 105033.000000 0 0 1
29.207342 27.729627 -2.822972 40.372890 0.759450 1.640776 0.009043 -0.001256 353360.000000 0 0 1
30.228642 27.981937 -1.859572 41.233695 0.746821 1.615910 0.010539 -0.005163 289304.000000 0 0 1
29.965042 29.282687 -1.034872 41.910028 0.773882 1.595492 0.019320 -0.008678 -108897.000000 0 0 1
30.191642 30.404417 -1.835972 42.887465 0.788910 1.613618 0.010807 -0.001493 110521.000000 0 0 1
30.075642 31.615737 -1.059072 43.648834 0.810357 1.595062 0.025030 -0.009036 -179814.000000 0 0 1
32.391029 23.070777 19.374811 44.235990 0.618906 1.117438 0.032543 -0.003529 -250964.000000 0 0 1
32.900479 22.772377 20.672811 45.037627 0.605444 1.093914 0.043506 -0.015518 -128797.000000 0 0 1
33.747289 23.817877 21.027711 46.350140 0.614589 1.099916 0.048026 -0.017569 -152266.000000 0 0 1
33.877369 23.967177 22.519311 47.214628 0.615721 1.073608 0.051098 -0.017226 232129.000000 0 0 1
32.597479 24.266377 23.039611 46.714841 0.639924 1.055036 0.032672 -0.012943 384419.000000 0 0 1
32.670769 24.252377 24.425911 47.457161 0.638572 1.030146 0.032324 -0.011984 347798.000000 0 0 1
31.374509 24.768477 25.136101 47.219285 0.668272 1.009449 0.054821 -0.012234 349377.000000 0 0 1
31.195519 26.140977 24.891121 47.708270 0.697470 1.021912 0.037793 -0.014732 -367642.000000 0 0 1
29.889969 26.554177 25.146831 47.232380 0.726368 1.009355 0.021133 -0.016392 -420900.000000 0 0 1
29.606319 28.068877 25.401451 48.058607 0.758748 1.013903 0.007710 -0.001070 -151094.000000 0 0 1
29.689669 28.879077 24.231231 47.985728 0.771559 1.041452 0.003842 -0.006924 331804.000000 0 0 1
29.210129 30.218877 24.537311 48.667153 0.802371 1.042357 -0.007285 -0.001632 -23327.800000 0 0 1
29.364969 31.273877 23.406711 48.869530 0.816868 1.071323 0.003580 -0.002403 -169524.000000 0 0 1
30.694729 31.714377 23.274111 49.896416 0.801735 1.085525 -0.010480 -0.004468 -217274.000000 0 0 1
30.795579 32.412777 22.074511 49.862209 0.810978 1.112177 -0.006456 -0.005035 -445615.000000 0 0 1
32.231329 32.835077 21.824511 50.924554 0.794677 1.127892 0.000530 -0.021378 -570737.000000 0 0 1
32.712219 33.840077 22.635411 52.226449 0.802343 1.122524 -0.000292 -0.008862 -11171.600000 0 0 1
34.105799 34.010177 22.438211 53.135403 0.783994 1.134833 0.005822 -0.005484 124523.000000 0 0 1
34.573629 -33.600932 23.037511 53.432999 -0.771131 1.125032 0.010165 -0.002806 -331386.000000 0 0 1
33.884669 -32.459832 22.629511 52.095166 -0.763925 1.121438 0.000230 -0.003772 103282.000000 0 0 1
34.279859 -31.395832 23.465111 52.071283 -0.741513 1.103320 0.020826 -0.006386 -646629.000000 0 0 1
33.344469 -30.171132 23.313011 50.652219 -0.735478 1.092512 0.008587 -0.002903 977126.000000 0 0 1
32.000869 -30.267232 23.833971 50.082124 -0.757564 1.074812 -0.002588 0.004005 1026650.000000 0 0 1
31.118179 -30.687032 22.807111 49.297052 -0.778422 1.089818 -0.004047 0.009802 -388318.000000 0 0 1
30.392659 -32.080832 22.858711 49.753535 -0.812414 1.093433 -0.011208 0.007632 77994.000000 0 0 1
29.482479 -32.124332 23.941001 49.742948 -0.828254 1.068666 -0.021250 0.004915 147690.000000 0 0 1
29.003629 -33.447132 24.166351 50.437423 -0.856431 1.071127 -0.023012 0.000440 -152438.000000 0 0 1
28.196339 -33.583832 25.462771 50.707594 -0.872382 1.044714 -0.029618 0.003230 -134771.000000 0 0 1
27.939289 33.952577 25.604751 50.882066 0.882252 1.043478 -0.024602 -0.001411 128031.000000 0 0 1
27.141579 33.657777 26.736731 50.836641 0.892166 1.016983 -0.016008 -0.000595 -280884.000000 0 0 1
26.732199 32.157977 26.830261 49.685097 0.877273 1.000352 -0.017058 -0.009557 386031.000000 0 0 1
26.039709 31.615077 25.716601 48.362414 0.881801 1.010134 -0.019656 0.003383 1595920.000000 0 0 1
24.625909 32.004477 25.676991 47.854256 0.914962 1.004433 -0.008899 0.002890 1101440.000000 0 0 1
24.050809 31.760077 24.252201 46.640253 0.922662 1.023964 0.013404 -0.009871 -113553.000000 0 0 1
24.454909 32.657577 23.211111 46.939489 0.928046 1.053548 0.022417 -0.013387 -706465.000000 0 0 1
25.802409 32.786977 22.921711 47.604149 0.904050 1.068423 0.001932 -0.005350 -1109100.000000 0 0 1
26.025909 33.626477 21.631911 47.707730 0.912130 1.100191 0.009121 -0.008498 1047830.000000 0 0 1
27.429209 33.701477 21.290211 48.388265 0.887645 1.115212 0.012156 -0.006287 1035480.000000 0 0 1
27.519189 -34.362432 20.175211 48.426456 -0.895537 1.141077 0.001495 -0.009859 -1092640.000000 0 0 1
28.899809 -33.963432 19.703011 48.753691 -0.865774 1.154765 0.015287 -0.019390 -685667.000000 0 0 1
29.513209 33.767877 19.236311 48.798921 0.852532 1.165604 0.026482 -0.026021 -161921.000000 0 0 1
30.676539 33.954677 18.464611 49.344828 0.836075 1.187267 0.027702 -0.020762 -234892.000000 0 0 1
31.350429 32.715277 17.888411 48.714824 0.806699 1.194792 0.013134 -0.023399 576909.000000 0 0 1
32.353739 32.071977 18.710011 49.248763 0.781025 1.181099 0.012441 -0.019108 915822.000000 0 0 1
33.305999 31.334377 17.945511 49.124069 0.754906 1.196831 0.018369 -0.023194 120171.000000 0 0 1
34.356699 30.624177 18.794211 49.713634 0.728021 1.183108 0.031033 -0.027308 -102165.000000 0 0 1
35.163421 31.547277 19.502211 51.108054 0.731245 1.179283 0.054600 -0.025306 341650.000000 0 0 1
-34.966247 30.948577 20.334911 50.930948 -0.724521 1.160082 0.048991 -0.019341 804169.000000 0 0 1
-33.900688 31.982177 20.862011 51.062117 -0.756286 1.149919 0.025824 -0.014405 436583.000000 0 0 1
-33.003418 32.402577 19.801711 50.311633 -0.776212 1.166272 0.029362 -0.016459 929725.000000 0 0 1
-31.875498 33.191477 20.217311 50.263915 -0.805620 1.156853 0.030546 0.000444 440198.000000 0 0 1
-32.104798 34.442777 21.033211 51.569554 -0.820516 1.150686 0.014721 0.001719 -778365.000000 0 0 1
-32.352538 34.179177 22.364411 52.106331 -0.812846 1.127182 0.029667 0.001327 135295.000000 0 0 1
-32.226208 -33.569932 23.158111 51.978524 0.805818 1.109028 0.026406 0.000509 -30192.400000 0 0 1
-32.477088 -33.800932 24.729351 52.998161 0.805370 1.085345 0.027334 -0.008232 428863.000000 0 0 1
-33.823888 -34.055532 25.131281 54.179479 0.788811 1.088458 0.036408 -0.004430 357237.000000 0 0 1
-33.756188 34.289877 26.439311 54.902760 -0.793241 1.068355 0.049978 -0.009168 968621.000000 0 0 1
-35.150257 34.258577 27.157711 56.095739 -0.772552 1.065426 0.031318 -0.015445 680543.000000 0 0 1
-35.092402 33.542577 28.346681 56.214905 -0.762821 1.042277 0.043632 -0.016279 116219.000000 0 0 1
34.759149 33.394277 28.979701 56.242326 0.765374 1.029480 0.034757 -0.020471 343172.000000 0 0 1
34.681459 32.236377 30.003761 56.055449 0.748876 1.005991 0.027390 -0.006009 -272134.000000 0 0 1
34.521279 30.916677 29.521841 54.946326 0.730370 1.003582 0.012825 -0.000489 342968.000000 0 0 1
-35.504048 30.301377 28.853651 54.874803 -0.706501 1.017131 0.022764 -0.003616 -180964.000000 0 0 1
35.288729 28.793077 28.547511 53.752173 0.684378 1.010904 0.024458 -0.003242 -241014.000000 0 0 1
34.216549 28.599577 27.653221 52.472933 0.696216 1.015730 0.023490 0.000502 136477.000000 0 0 1
34.098329 27.375077 26.984251 51.383273 0.676463 1.017898 0.037899 -0.007579 -56379.100000 0 0 1
33.781959 26.110177 27.830971 50.965921 0.657999 0.993130 0.022268 -0.006936 -499148.000000 0 0 1
34.836169 25.737677 28.693711 51.954940 0.636308 0.985699 0.003400 -0.000331 6968.970000 0 0 1
34.666819 24.404377 29.130441 51.438746 0.613385 0.968771 -0.002936 -0.000765 98400.900000 0 0 1
35.320769 23.284977 28.223721 50.855927 0.582846 0.982465 0.005670 -0.008542 -89598.900000 0 0 1
34.688619 23.161377 26.974941 49.672901 0.588713 0.996729 0.014945 -0.005270 -191324.000000 0 0 1
35.374658 22.351077 26.081701 49.307121 0.563502 1.013417 0.007663 -0.014526 -1070700.000000 0 0 1
35.109764 20.819577 26.203771 48.505546 0.535246 1.000095 0.016217 -0.014021 650132.000000 0 0 1
33.733009 20.387177 26.182291 47.318762 0.543626 0.984455 0.057221 -0.014831 1141720.000000 0 0 1
33.388959 19.248677 26.977351 47.043721 0.522960 0.960082 0.053301 -0.014636 -364653.000000 0 0 1
33.162959 19.404477 28.509681 47.844723 0.529410 0.932436 0.028640 -0.005130 756993.000000 0 0 1
31.969719 20.139877 28.891921 47.564910 0.562163 0.917986 0.019983 -0.004502 1035460.000000 0 0 1
31.864619 21.510577 28.536451 47.878888 0.593792 0.932269 0.031998 -0.020395 -1033270.000000 0 0 1
30.958249 22.252677 29.534691 48.227511 0.623230 0.911699 0.041743 -0.026743 853442.000000 0 0 1
29.555839 22.025477 29.234391 47.045923 0.640432 0.900267 0.055285 -0.034651 1382360.000000 0 0 1
28.897749 22.848877 28.254771 46.427182 0.669032 0.916523 0.060990 -0.032515 -94476.000000 0 0 1
28.868259 24.343277 28.566891 47.350172 0.700565 0.923150 0.056222 -0.022581 -618231.000000 0 0 1
30.048549 25.034277 28.183431 48.207221 0.694617 0.946371 0.047304 -0.020378 206949.000000 0 0 1
30.220839 26.276577 28.922541 49.399099 0.715698 0.945315 0.030943 -0.013061 -127745.000000 0 0 1
30.452119 26.196377 30.460491 50.412531 0.710414 0.922004 0.025082 -0.018440 -50397.000000 0 0 1
31.721449 25.675877 30.808061 51.133528 0.680457 0.924164 -0.006565 -0.007072 -4378.700000 0 0 1
32.129839 25.752177 32.144341 52.237533 0.675657 0.907967 0.007992 -0.007195 -15587.800000 0 0 1
31.516829 24.674177 33.044270 51.904232 0.664220 0.880664 0.016600 -0.008921 -268725.000000 0 0 1
31.922329 24.882677 34.339555 53.079071 0.662100 0.867217 0.018815 -0.017423 72501.000000 0 0 1
31.510329 23.731677 -33.713622 51.891249 0.645507 2.277983 0.007720 -0.015453 -345721.000000 0 0 1
32.179849 23.506777 -32.353232 51.330721 0.630892 2.252723 -0.001431 -0.016176 -301640.000000 0 0 1
31.674539 24.473077 -31.419222 50.885906 0.657835 2.236286 0.001155 -0.017926 357771.000000 0 0 1
31.932699 24.103977 -30.098422 50.066097 0.646589 2.215765 0.004804 -0.015240 -362825.000000 0 0 1
33.351029 24.469977 -29.618042 50.875332 0.632994 2.192190 0.018410 -0.000157 -144307.000000 0 0 1
33.579589 23.902077 -28.346902 50.024444 0.618604 2.173244 0.015176 -0.005209 -311288.000000 0 0 1
34.724469 24.423077 -27.715742 50.699486 0.612963 2.149175 0.025343 0.004485 -27079.400000 0 0 1
35.188801 23.462577 -26.566172 49.945028 0.588069 2.131649 0.015073 0.004112 -273999.000000 0 0 1
-35.002179 22.479977 -26.944752 49.563309 -0.570904 2.145568 0.001023 0.006728 47053.700000 0 0 1
-35.299294 21.117577 -26.588102 48.978765 -0.539127 2.144623 -0.013380 0.020214 -6012.670000 0 0 1
-34.090630 20.199077 -26.995342 47.947078 -0.534895 2.168836 -0.012851 0.029423 -486805.000000 0 0 1
-32.975478 20.529577 -26.260022 46.887466 -0.556851 2.165260 -0.011627 0.017747 -915603.000000 0 0 1
-32.052808 19.457277 -26.350102 45.828987 -0.545579 2.183359 -0.021856 0.010932 -1207330.000000 0 0 1
-30.776428 19.604877 -25.633462 44.593880 -0.567189 2.183181 -0.002550 0.001080 -1189670.000000 0 0 1
-31.032648 19.599277 -24.247672 43.989846 -0.563310 2.154611 0.004331 -0.005773 238493.000000 0 0 1
-29.749448 19.687677 -23.670772 42.812846 -0.584614 2.156624 0.019020 -0.000592 65051.500000 0 0 1
-29.750898 20.023477 -22.199072 42.176467 -0.592400 2.125084 0.001612 0.000017 29797.600000 0 0 1
-30.487938 19.048177 -21.499272 41.887541 -0.558439 2.109777 -0.009817 0.001373 -6354.210000 0 0 1
-30.913948 19.503777 -20.253272 41.788330 -0.562835 2.076775 -0.007778 0.004618 -209451.000000 0 0 1
-31.988768 18.611877 -19.545372 41.853373 -0.526949 2.056687 -0.006004 0.004938 590128.000000 0 0 1
-32.725688 19.081077 -18.403172 42.115732 -0.527871 2.023020 -0.010864 -0.002175 87248.700000 0 0 1
-33.615518 20.098977 -18.646072 43.377966 -0.538880 2.015124 -0.017018 0.001032 -1729220.000000 0 0 1
-34.599821 20.326877 -17.549072 43.798396 -0.531167 1.983054 -0.002677 -0.009493 -754506.000000 0 0 1
-34.172559 20.902977 -16.347472 43.265900 -0.548970 1.958256 0.004944 -0.011355 -869100.000000 0 0 1
-35.261374 20.953077 -15.502372 43.848825 -0.536160 1.932151 0.007548 -0.007987 -919031.000000 0 0 1
-35.121401 21.658277 -14.130372 43.614919 -0.552586 1.900730 0.006514 -0.007394 -341372.000000 0 0 1
-35.201426 23.071477 -14.178372 44.412382 -0.580171 1.895728 0.012813 -0.011030 137782.000000 0 0 1
34.675359 23.599977 -14.593072 44.410553 0.597585 1.905612 0.009206 -0.006789 -81068.900000 0 0 1
34.592689 25.120677 -14.962872 45.294482 0.628084 1.907467 0.002484 -0.009572 -199131.000000 0 0 1
34.694009 25.909177 -13.795872 45.445416 0.641444 1.879234 0.013291 -0.005668 -31085.800000 0 0 1
34.609779 27.319077 -14.052572 46.277895 0.668211 1.879324 0.018137 0.001668 -78418.500000 0 0 1
-35.376360 28.010877 -14.839472 47.500590 -0.669719 1.888521 0.024799 0.001270 32250.500000 0 0 1
-35.085674 27.662377 -16.181872 47.519098 -0.667642 1.918281 0.026034 0.001824 224165.000000 0 0 1
-33.829558 28.141377 -16.645072 47.047152 -0.693867 1.932422 0.024843 0.002213 -180129.000000 0 0 1
-33.605538 27.840577 -18.158672 47.266979 -0.691851 1.965108 0.022459 -0.003691 -98861.800000 0 0 1
-33.389958 26.488477 -18.585072 46.496598 -0.670646 1.981995 0.023525 -0.005469 479583.000000 0 0 1
-32.093228 26.045677 -18.203072 45.163087 -0.681752 1.985646 0.013013 -0.000990 -13722.900000 0 0 1
-31.733898 24.760077 -18.864172 44.451757 -0.662576 2.009067 0.006505 -0.000042 -651482.000000 0 0 1
-31.372638 24.922777 -20.209972 44.875720 -0.671324 2.037958 0.002002 0.004366 164307.000000 0 0 1
-30.763498 23.743777 -20.681172 44.021252 -0.657318 2.059860 0.000070 0.003304 -118823.000000 0 0 1
-30.472318 23.650977 -22.169472 44.490633 -0.660026 2.092428 -0.007504 0.008300 -532343.000000 0 0 1
-31.612848 23.609377 -22.970972 45.655672 -0.641468 2.098019 0.003796 0.006858 -151532.000000 0 0 1
-31.348188 23.435177 -24.379472 46.111550 -0.641948 2.127872 0.006189 0.002935 195505.000000 0 0 1
-32.459108 24.239277 -25.129142 47.671900 -0.641427 2.126012 -0.005861 0.011515 287945.000000 0 0 1
-32.091388 25.599577 -25.133912 48.134282 -0.673342 2.120181 -0.015793 0.010503 -100857.000000 0 0 1
-32.930538 26.323577 -25.983482 49.522645 -0.674355 2.123134 0.001443 0.001866 -421764.000000 0 0 1
-32.450908 27.747877 -26.329482 50.162214 -0.707432 2.123378 0.004522 0.010407 -12415.800000 0 0 1
-31.486518 27.755877 -27.358472 50.102650 -0.722509 2.148436 -0.016934 0.006922 -438353.000000 0 0 1
-31.053278 29.066177 -27.567702 50.686556 -0.752358 2.145857 -0.010225 -0.001014 -273919.000000 0 0 1
-29.620458 29.217177 -28.077532 50.193254 -0.778544 2.164444 -0.002672 0.000654 -738847.000000 0 0 1
-28.666618 28.825177 -27.092862 48.853751 -0.788156 2.158643 -0.028365 0.007483 143149.000000 0 0 1
-27.347998 28.738277 -27.634002 48.347075 -0.810181 2.179221 0.012024 0.010657 598945.000000 0 0 1
-26.593738 30.085377 -27.641762 48.748578 -0.846924 2.173688 0.002584 -0.000532 -597439.000000 0 0 1
-25.967598 30.488977 -26.367712 47.949454 -0.865314 2.153049 -0.004038 0.002493 521788.000000 0 0 1
-26.841728 30.796877 -25.260222 48.031290 -0.853911 2.124583 -0.015669 0.008705 294937.000000 0 0 1
-26.062788 31.356977 -24.041572 47.334196 -0.877340 2.103555 -0.033884 0.008863 98037.900000 0 0 1
-25.518458 32.595077 -24.244272 47.973071 -0.906574 2.100610 -0.017834 0.009651 -364559.000000 0 0 1
-24.559758 33.003977 -23.306472 47.282511 -0.931053 2.086238 -0.005403 0.016544 -174989.000000 0 0 1
-24.096158 34.416477 -23.603672 48.189751 -0.959980 2.082665 -0.008660 0.019629 -195816.000000 0 0 1
-25.046558 -33.516632 -23.311772 47.897113 0.929034 2.079110 -0.021647 0.009326 -234907.000000 0 0 1
-24.416958 -32.260532 -23.499172 46.788256 0.922914 2.096989 -0.003136 0.002201 276748.000000 0 0 1
16.648442 8.195077 -25.222992 31.313404 0.457423 2.507318 0.029043 -0.017199 79749.200000 0 0 1
15.261742 7.892877 -25.191822 30.493379 0.477287 2.543020 0.029227 -0.019048 399413.000000 0 0 1
15.136842 6.499277 -25.456392 30.321486 0.405565 2.567250 0.025405 -0.022410 1356040.000000 0 0 1
13.584342 6.181377 -25.336462 29.405443 0.427035 2.609259 0.031470 -0.026976 1335080.000000 0 0 1
12.940042 6.352077 -24.102472 28.084208 0.456329 2.602591 0.051419 -0.032244 642077.000000 0 0 1
11.611542 5.822677 -24.142972 27.415590 0.464812 2.647985 0.055562 -0.028401 299417.000000 0 0 1
10.832142 6.037077 -22.830672 25.981170 0.508453 2.644011 0.060136 -0.032532 -350537.000000 0 0 1
11.233042 5.218677 -21.775272 25.051513 0.434915 2.624419 0.042631 -0.024616 84306.200000 0 0 1
10.754842 5.478177 -20.440872 23.738288 0.471114 2.608212 0.040826 -0.019684 -260033.000000 0 1 0
10.987442 6.865277 -19.801772 23.663603 0.558477 2.562214 0.033237 -0.027755 -328771.000000 0 1 0
10.725442 7.070277 -18.422572 22.459187 0.582820 2.532677 0.018037 -0.019473 -234073.000000 0 1 0
10.974442 8.421177 -18.107972 22.787129 0.654509 2.489240 0.019666 -0.011962 61769.400000 0 1 0
12.457042 8.702677 -17.780672 23.389459 0.609796 2.434418 0.015155 -0.011713 -44658.700000 0 1 0
12.916842 8.209977 -16.525272 22.524057 0.566187 2.394507 0.016520 -0.015083 900740.000000 0 1 0
14.344942 8.221377 -16.376972 23.271735 0.520420 2.351428 0.017546 -0.013115 397740.000000 0 1 0
14.785242 7.969077 -14.915372 22.462812 0.494350 2.296956 0.020883 -0.021191 -41160.400000 0 1 0
16.213142 7.917077 -14.890872 23.394105 0.454254 2.260777 0.018440 -0.023396 808724.000000 0 1 0
16.703142 7.959177 -13.568472 22.944431 0.444678 2.203544 0.010638 -0.023163 -124226.000000 0 1 0
17.125142 9.383377 -13.152572 23.543755 0.501252 2.163546 0.024715 -0.028856 -1021270.000000 0 1 0
16.082342 10.287977 -13.288872 23.261091 0.569105 2.178875 0.017132 -0.013881 204720.000000 0 1 0
16.570642 11.583677 -13.213472 24.152921 0.610087 2.149663 0.036408 -0.017653 279650.000000 0 1 0
15.306242 12.446277 -12.953972 23.600768 0.682708 2.151819 0.035611 -0.013535 490659.000000 0 1 0
14.808742 12.523377 -11.569772 22.583035 0.701978 2.108682 0.051634 -0.013288 610118.000000 0 1 0
15.542742 13.489477 -10.830972 23.256242 0.714792 2.055248 0.064855 -0.006992 -80204.200000 0 1 0
15.079842 14.953877 -11.005372 23.919413 0.781204 2.048907 0.057771 -0.008227 404430.000000 0 1 0
13.842642 15.274977 -10.371272 23.076112 0.834550 2.036932 0.068481 -0.015110 625901.000000 0 1 0
13.503542 16.659877 -10.554572 23.901802 0.889660 2.028156 0.053348 -0.009076 260057.000000 0 1 0
12.332942 17.226277 -9.707572 23.304142 0.949454 2.000454 0.045669 -0.005236 216588.000000 0 1 0
12.598842 17.232377 -8.356472 22.924142 0.939492 1.943921 0.050767 -0.001356 941749.000000 0 1 0
11.396842 17.442477 -7.588572 22.174635 0.992038 1.920073 0.045657 -0.002683 787012.000000 0 1 0
11.751242 17.175777 -6.167172 21.705599 0.970770 1.858893 0.036349 -0.005835 150045.000000 0 1 0
12.678342 18.075477 -5.632272 22.785648 0.959124 1.820570 0.029608 -0.005595 81260.000000 0 1 0
13.336442 17.547077 -4.493572 22.493395 0.920902 1.771923 0.037843 -0.010541 287406.000000 0 1 0
14.388442 18.526577 -3.862272 23.773483 0.910464 1.733981 0.026119 -0.012585 -36573.200000 0 1 0
15.610442 18.516377 -4.556672 24.643567 0.870344 1.756770 0.025395 -0.017726 -151023.000000 0 1 0
16.273242 19.754577 -4.444972 25.977288 0.881728 1.742752 0.012972 -0.019479 -974309.000000 0 0 1
17.615642 19.904177 -5.125572 27.069515 0.846318 1.761295 0.012787 -0.018216 -820763.000000 0 0 1
18.657742 19.128377 -4.589772 27.112214 0.797853 1.740904 0.012459 -0.028919 -125301.000000 0 0 1
18.710642 17.866077 -5.182972 26.384618 0.762312 1.768521 0.012275 -0.023665 -389249.000000 0 0 1
19.896542 17.050477 -4.611072 26.605510 0.708519 1.744989 0.029481 -0.031700 572008.000000 0 0 1
21.224542 17.397377 -4.976672 27.891167 0.686628 1.750189 0.032065 -0.034283 751264.000000 0 0 1
22.161542 16.418577 -4.521372 27.948997 0.637625 1.733283 0.037698 -0.036337 567167.000000 0 0 1
23.645042 16.778077 -4.794472 29.386712 0.617127 1.734680 0.058414 -0.033265 664211.000000 0 0 1
24.284442 17.804477 -4.006872 30.377435 0.632639 1.703085 0.066265 -0.030656 1968360.000000 0 0 1
25.725642 17.964777 -4.170172 31.653313 0.609599 1.702926 0.058105 -0.020076 1589240.000000 0 0 1
26.265342 19.243277 -3.495272 32.747349 0.632304 1.677735 0.071291 -0.019404 -225033.000000 0 0 1
26.295942 20.345777 -4.342872 33.530401 0.658512 1.700682 0.068217 -0.021227 171989.000000 0 0 1
26.140842 21.554077 -3.624372 34.074301 0.689524 1.677365 0.075863 -0.007794 -441687.000000 0 0 1
26.185042 22.850377 -4.475972 35.040413 0.717497 1.698884 0.054908 -0.002911 -258987.000000 0 0 1
27.355242 23.227277 -5.171972 36.256930 0.703970 1.713932 0.042897 0.005094 120705.000000 0 0 1
27.787242 22.284477 -6.170072 36.149669 0.675940 1.742317 0.053195 0.000624 569427.000000 0 0 1
28.815942 22.920977 -7.204672 37.518489 0.671946 1.764026 0.024163 0.006542 460796.000000 0 0 1
28.176542 23.908577 -7.972872 37.803496 0.703639 1.783295 -0.002869 0.006402 495498.000000 0 0 1
29.039442 24.977077 -8.462372 39.226972 0.710334 1.788234 -0.019093 0.005781 405244.000000 0 0 1
30.088842 24.510177 -9.530772 39.961517 0.683576 1.811616 -0.010228 -0.002190 430137.000000 0 0 1
29.505842 24.138677 -10.769272 39.613731 0.685679 1.846119 -0.010468 0.002427 553481.000000 0 0 1
30.624642 23.849677 -11.597072 40.511331 0.661664 1.861125 -0.011293 -0.001807 294294.000000 0 0 1
30.255042 23.157577 -12.922372 40.232185 0.653292 1.897787 -0.017567 -0.002054 -1275.760000 0 0 1
29.752542 24.041277 -13.892072 40.696271 0.679625 1.919160 -0.000294 0.001483 146996.000000 0 0 1
29.437842 23.310377 -15.081472 40.464936 0.669752 1.952718 0.004979 -0.003915 -30455.600000 0 0 1
29.466542 24.070177 -16.404072 41.433611 0.684940 1.977857 0.016516 -0.011177 234640.000000 0 0 1
30.777242 24.496077 -16.778872 42.764787 0.672245 1.973984 0.014793 -0.004348 252839.000000 0 0 1
30.782942 25.125977 -18.020272 43.630660 0.684560 1.996562 0.031010 -0.014927 9910.350000 0 0 1
32.172142 25.641077 -18.465072 45.094018 0.672907 1.992680 0.021677 -0.017180 13071.800000 0 0 1
33.105642 24.560877 -18.486572 45.177136 0.638293 1.992376 0.022049 -0.010976 -21215.500000 0 0 1
34.401342 25.174777 -18.573472 46.499415 0.631749 1.981696 0.028941 -0.009030 452307.000000 0 0 1
35.401642 23.954477 -18.533372 46.589475 0.594881 1.979916 0.017721 -0.014885 -90453.800000 0 0 1
35.338542 23.083477 -19.680172 46.572188 0.578628 2.007079 0.014379 -0.009950 295199.000000 0 0 1
-34.918325 23.527377 -20.722872 46.928289 -0.592913 2.028162 0.012857 -0.010188 18973.000000 0 0 1
-34.899625 22.585277 -21.982972 47.024777 -0.574369 2.057230 0.015563 -0.007176 30803.900000 0 0 1
-34.370225 21.341877 -21.599272 45.861930 -0.555675 2.061178 0.007845 -0.004509 145301.000000 0 0 1
-34.095925 20.654177 -22.781972 45.914545 -0.544649 2.089992 0.000018 0.000563 -107476.000000 0 0 1
-33.864825 19.161977 -22.573672 44.984202 -0.514921 2.096490 -0.016985 0.003413 -606999.000000 0 0 1
-34.974525 18.367077 -22.262472 45.345172 -0.483569 2.083983 -0.016568 0.003631 -119515.000000 0 0 1
-34.713325 16.993977 -22.511072 44.727604 -0.455254 2.098201 -0.031199 -0.000318 364541.000000 0 0 1
35.091142 16.203677 -22.203872 44.575322 0.432590 2.092226 -0.023910 0.001350 733606.000000 0 0 1
34.084442 16.453477 -23.178972 44.381650 0.449734 2.120301 0.012476 0.007359 1035930.000000 0 0 1
32.983742 15.509177 -23.223872 43.218168 0.439530 2.138104 0.020510 0.011239 605494.000000 0 0 1
33.305042 14.141077 -23.882872 43.354210 0.401526 2.154212 -0.007249 0.005607 -680327.000000 0 0 1
33.541642 14.142877 -25.293382 44.326267 0.399031 2.178055 -0.005808 0.014229 394884.000000 0 0 1
33.848342 12.844677 -25.717372 44.408099 0.362690 2.188438 -0.011268 0.009509 -711856.000000 0 0 1
33.614742 12.599777 -27.197902 45.038108 0.358621 2.219164 0.007789 0.013323 -941522.000000 0 0 1
32.311142 12.575477 -27.668522 44.358761 0.371161 2.244320 0.010227 0.015577 -628642.000000 0 0 1
31.869642 13.761077 -28.277912 44.773672 0.407610 2.254379 0.015726 0.016624 -200906.000000 0 0 1
32.196742 13.901077 -29.809492 46.026905 0.407578 2.275297 0.011913 0.016022 557208.000000 0 0 1
33.601242 14.098277 -30.020632 47.212745 0.397268 2.259917 0.009279 0.019848 701851.000000 0 0 1
33.974342 14.287677 -31.409732 48.424838 0.398090 2.276577 0.012513 0.013199 895336.000000 0 0 1
35.548342 14.469377 -31.561182 49.690600 0.386555 2.259004 0.022772 0.010276 1450730.000000 0 0 1
-34.767325 13.350777 -31.255592 48.620183 -0.366641 2.269012 0.015055 0.007979 280942.000000 0 0 1
-34.552725 13.238877 -29.837872 47.533749 -0.365897 2.249417 -0.000401 0.013249 -666840.000000 0 0 1
-33.584025 12.063777 -29.530222 46.319062 -0.344858 2.262096 0.003191 -0.001730 47178.500000 0 0 1
-33.988825 10.837177 -29.998502 46.611101 -0.308655 2.269978 0.002709 -0.002615 195777.000000 0 0 1
-32.913925 9.953877 -29.785852 45.492891 -0.293677 2.284630 -0.003090 -0.005815 -53155.900000 0 0 1
-33.214125 8.554877 -30.199962 45.699034 -0.252088 2.292740 -0.004178 0.003369 -712386.000000 0 0 1
-33.523225 8.459077 -31.593922 46.835227 -0.247175 2.311187 0.000778 -0.000322 217539.000000 0 0 1
-33.837725 7.209777 -32.170702 47.243270 -0.209930 2.319867 -0.005202 0.002803 -220458.000000 0 0 1
-35.041525 6.453777 -31.539602 47.584727 -0.182134 2.295361 0.004099 0.003185 -287750.000000 0 0 1
-34.789925 5.836677 -30.298612 46.501737 -0.166221 2.280434 0.008072 -0.003690 -535880.000000 0 0 1
35.198942 5.228177 -29.834662 46.437123 0.147454 2.268519 0.005733 0.000774 -1064340.000000 0 0 1
35.400542 4.536877 -28.450352 45.642132 0.127464 2.243797 -0.001555 0.010707 257580.000000 0 0 1
-34.761625 3.462777 -28.381792 45.009860 -0.099287 2.253082 0.003057 0.016378 433077.000000 0 0 1
-35.219225 2.302977 -27.800412 44.928392 -0.065297 2.237974 0.004161 0.014812 -674280.000000 0 0 1
-34.232825 1.144977 -27.775012 44.098170 -0.033434 2.252150 0.018050 0.009389 -55319.800000 0 0 1
-33.124525 1.250777 -26.908242 42.694872 -0.037742 2.252665 0.029589 0.002860 629382.000000 0 0 1
-32.098725 0.255577 -27.046142 41.974841 -0.007962 2.270959 0.021613 0.003554 733977.000000 0 0 1
-30.939725 0.546477 -26.070432 40.462732 -0.017661 2.270913 0.029493 0.002629 -106381.000000 0 0 1
-31.487125 0.422877 -24.775772 40.068151 -0.013429 2.237426 0.023465 0.003574 652863.000000 0 0 1
-30.598725 0.756177 -23.721672 38.724301 -0.024708 2.230115 0.034187 0.009594 -250296.000000 0 0 1
-31.312825 0.432877 -22.375372 38.488150 -0.013823 2.191192 0.039331 0.014757 -306842.000000 0 0 1
-31.457225 -0.905523 -21.994572 38.394507 0.028778 2.180784 0.063821 -0.001293 428397.000000 0 0 1
-32.121125 -0.983023 -20.748472 38.252217 0.030594 2.144102 0.036672 -0.003418 -331233.000000 0 0 1
-33.649725 -1.011423 -20.686072 39.512537 0.030048 2.121787 0.028508 0.003225 -741256.000000 0 0 1
-34.262925 -2.244723 -20.883272 40.188280 0.065421 2.117221 0.026973 -0.006661 996957.000000 0 0 1
35.506442 -2.183823 -20.383872 40.999741 -0.061428 2.091131 0.026640 -0.004123 840468.000000 0 0 1
34.862042 -3.575223 -20.094972 40.397427 -0.102196 2.091432 0.025604 -0.006435 -313658.000000 0 0 1
34.338242 -4.353323 -21.156672 40.566872 -0.126105 2.119435 0.023677 0.003730 -40988.900000 0 0 1
35.258342 -4.736523 -22.143472 41.903684 -0.133538 2.127555 0.029936 -0.006577 -598080.000000 0 0 1
34.615542 -5.474523 -23.306872 42.088198 -0.156853 2.157673 0.028856 -0.010277 -934261.000000 0 0 1
34.307542 -6.812523 -22.899272 41.806633 -0.196022 2.150460 0.037214 -0.007973 375716.000000 0 0 1
33.657642 -7.538323 -23.951072 41.991869 -0.220334 2.177757 0.045683 -0.007622 -168121.000000 0 0 1
32.254442 -7.167423 -24.411972 41.081205 -0.218662 2.207113 0.014698 -0.003448 -1181280.000000 0 0 1
32.141842 -6.040623 -25.285452 41.339342 -0.185770 2.228948 0.001096 -0.001065 -615073.000000 0 0 1
30.805642 -5.759423 -25.558392 40.439955 -0.184826 2.254938 -0.029887 0.002239 -638225.000000 0 0 1
30.644442 -4.667023 -26.639272 40.871919 -0.151135 2.280718 -0.018710 -0.013151 -128587.000000 0 0 1
30.937742 -5.036123 -27.931652 41.984326 -0.161367 2.298675 0.002017 -0.019629 273536.000000 0 0 1
30.794342 -3.887323 -28.805482 42.345703 -0.125571 2.318894 -0.003800 -0.008521 -149422.000000 0 0 1
30.623642 -4.279623 -30.295842 43.289268 -0.138850 2.345979 0.004394 0.000698 49645.800000 0 0 1
30.286042 -3.179323 -31.168252 43.575364 -0.104593 2.367810 -0.003246 -0.009544 228441.000000 0 0 1
29.552542 -3.560523 -32.331392 43.947116 -0.119903 2.397479 0.008249 -0.016945 -723421.000000 0 0 1
29.197442 -2.343423 -33.226692 44.294416 -0.080090 2.419059 0.026823 -0.009228 -431871.000000 0 0 1
28.266242 -1.415923 -32.671802 43.225362 -0.050051 2.427745 0.018496 -0.012945 1212620.000000 0 0 1
26.934642 -1.855423 -32.344632 42.131850 -0.068777 2.446041 0.016314 -0.019261 407494.000000 0 0 1
26.010042 -2.344223 -33.475112 42.457047 -0.089885 2.479076 0.034410 -0.027505 -1826150.000000 0 0 1
26.488242 -3.453223 -34.139155 43.347822 -0.129637 2.477641 0.039004 -0.034543 135454.000000 0 0 1
25.758242 -3.582123 33.355873 42.295779 -0.138181 0.662213 0.039203 -0.031315 -254825.000000 0 0 1
26.297442 -4.746423 32.431851 42.022719 -0.178567 0.689177 0.017006 -0.036554 408001.000000 0 0 1
27.601242 -4.574623 31.875561 42.412346 -0.164247 0.720368 0.025069 -0.029905 358744.000000 0 0 1
27.729942 -3.517323 30.972841 41.720955 -0.126168 0.734179 0.042815 -0.031840 -644871.000000 0 0 1
28.378942 -2.188923 31.422891 42.397568 -0.076980 0.736017 0.039325 -0.034213 -1356530.000000 0 0 1
29.732242 -2.255023 31.655851 43.487748 -0.075699 0.755504 0.044027 -0.029924 -1020830.000000 0 0 1
30.177942 -0.939023 31.943721 43.954422 -0.031106 0.757223 0.051057 -0.026608 -534237.000000 0 0 1
31.574642 -0.903223 32.574791 45.375002 -0.028598 0.770013 0.043743 -0.025884 -275231.000000 0 0 1
32.545142 -1.464123 31.704541 45.458859 -0.044957 0.798986 0.047016 -0.021314 -543535.000000 0 0 1
33.772842 -1.517623 32.380271 46.812285 -0.044906 0.806950 0.032471 -0.013364 -176069.000000 0 0 1
34.879742 -2.226323 31.560511 47.091600 -0.063742 0.836326 0.020556 -0.006052 -326805.000000 0 0 1
35.292842 -1.509023 30.413031 46.613456 -0.042731 0.859981 0.016886 -0.002927 -379418.000000 0 0 1
-34.870825 -2.161523 29.661851 45.830907 0.061907 0.866888 0.000603 -0.001140 -404136.000000 0 0 1
-34.587625 -1.514823 28.278231 44.701866 0.043769 0.885896 0.003788 -0.003016 584112.000000 0 0 1
-35.546025 -1.845423 27.232031 44.816392 0.051870 0.917716 0.018775 -0.014154 651148.000000 0 0 1
-35.048325 -1.341023 25.969851 43.641913 0.038243 0.933448 0.014973 -0.009097 145081.000000 0 0 1
-26.062528 14.816477 12.567828 32.507440 -0.516934 1.173839 0.054592 0.001229 -1023390.000000 0 0 1
-27.366888 14.399977 12.612328 33.397256 -0.484374 1.183544 0.037808 -0.000940 -1011620.000000 0 0 1
-28.186428 15.283677 13.327028 34.722834 -0.496862 1.176876 0.050176 -0.006960 1181310.000000 0 0 1
-29.615838 14.688777 13.700028 35.784756 -0.460424 1.177922 0.056131 -0.002782 837224.000000 0 0 1
-30.434138 15.520977 14.414328 37.079783 -0.471604 1.171535 0.053344 -0.009827 -1017020.000000 0 0 1
-31.601848 14.867077 14.818128 37.937893 -0.439729 1.169525 0.051365 -0.006998 -78421.700000 0 0 1
-32.490688 15.794277 15.690328 39.386424 -0.452480 1.161058 0.045143 -0.006259 189731.000000 0 0 1
-31.762818 16.150777 16.840828 39.412405 -0.470409 1.129295 0.027024 0.001037 101616.000000 0 0 1
-32.674428 16.325777 17.898228 40.675494 -0.463368 1.115170 0.022067 -0.005619 366784.000000 0 0 1
-31.954998 16.658477 19.264128 40.862371 -0.480550 1.079874 0.022457 -0.005519 144967.000000 0 0 1
-31.309238 15.524677 19.794628 40.163557 -0.460322 1.055434 0.025481 -0.009502 381972.000000 0 0 1
-30.249688 15.815277 20.729628 39.936000 -0.481740 1.025032 0.027140 -0.010484 493865.000000 0 0 1
-30.684458 16.340477 22.141228 41.216273 -0.489334 1.003687 0.026058 -0.017438 -275800.000000 0 0 1
-31.266088 17.634177 22.187628 42.199802 -0.513531 1.017170 0.012565 -0.009229 103387.000000 0 0 1
-31.398648 18.267977 23.474228 43.250820 -0.526935 0.997093 -0.000154 -0.009406 -131641.000000 0 0 1
-32.289418 17.500177 24.587128 44.197167 -0.496664 0.980863 -0.007962 -0.014670 1130670.000000 0 0 1
-33.603668 17.117877 24.183828 44.800511 -0.471143 1.000583 0.024761 -0.013556 448420.000000 0 0 1
-34.551959 18.172077 24.098428 45.878061 -0.484180 1.017762 0.035315 -0.020514 284651.000000 0 0 1
35.184418 17.586577 23.621428 45.882490 0.463520 1.029993 0.018884 -0.024579 851768.000000 0 0 1
34.521669 17.010577 24.752228 45.757821 0.457831 0.999242 0.033007 -0.018645 132792.000000 0 0 1
33.397219 16.199277 24.438428 44.441283 0.451615 0.988547 0.042172 -0.015081 417721.000000 0 0 1
32.836499 15.279477 25.534128 44.313540 0.435521 0.956706 0.038198 -0.016032 -441214.000000 0 0 1
32.312519 16.018177 26.606028 44.816979 0.460223 0.935197 0.039244 -0.020160 99077.400000 0 0 1
32.204989 15.269477 27.868228 45.243302 0.442741 0.907188 0.030127 -0.010731 -393862.000000 0 0 1
31.200859 14.131977 27.881928 44.165691 0.425292 0.887564 0.029976 0.001525 -668427.000000 0 0 1
31.693729 12.896177 27.261028 43.748914 0.386440 0.898065 0.033506 -0.004839 -35620.400000 0 0 1
30.813809 11.804777 27.218428 42.774834 0.365853 0.881080 0.032636 0.000486 -658601.000000 0 0 1
31.523459 10.525777 26.935328 42.778877 0.322263 0.889706 0.025447 -0.008545 -10369.600000 0 0 1
32.628549 10.238577 27.790828 44.065642 0.304061 0.888382 0.028320 -0.007666 300254.000000 0 0 1
33.074529 8.892177 27.558628 43.959905 0.262642 0.893224 0.023839 -0.002414 174116.000000 0 0 1
34.226519 8.397577 28.466228 45.302318 0.240600 0.891351 0.026773 -0.004995 1506340.000000 0 0 1
35.541067 8.995277 28.257228 46.287724 0.247890 0.914144 0.024809 -0.005556 796278.000000 0 0 1
-34.610243 8.148077 28.784728 45.747357 -0.231214 0.890259 0.032062 -0.001439 359507.000000 0 0 1
-33.254798 8.916577 29.034428 45.037595 -0.261967 0.870204 0.052207 -0.006835 557151.000000 0 0 1
-32.743608 9.292077 27.779128 43.933660 -0.276513 0.886282 0.048149 -0.005913 -701147.000000 0 0 1
-31.628748 10.110177 27.892528 43.365729 -0.309387 0.872135 0.034000 -0.001619 -461462.000000 0 0 1
-31.157098 10.614877 26.501928 42.258639 -0.328356 0.892925 0.020277 -0.000369 -373630.000000 0 0 1
-30.336388 9.676077 25.850428 41.014236 -0.308759 0.888883 0.019218 -0.004813 148155.000000 0 0 1
-29.861408 10.157077 24.601328 40.001190 -0.327865 0.908391 0.016254 -0.005066 -128299.000000 0 0 1
-28.861038 9.140077 23.978628 38.619621 -0.306700 0.900916 0.013214 -0.001203 139190.000000 0 0 1
-28.212158 9.568377 22.804028 37.516708 -0.326984 0.917463 0.010899 -0.001578 118774.000000 0 0 1
-27.295738 8.571877 22.336228 36.296576 -0.304285 0.907927 0.000909 -0.002526 -22855.800000 0 0 1
-26.401798 9.151777 21.258228 35.110144 -0.333674 0.920437 0.011910 0.002824 -1549050.000000 0 0 1
-25.286808 9.845877 21.685628 34.736586 -0.371308 0.896577 0.015819 -0.004237 -281009.000000 0 0 1
-24.506758 10.546877 20.738228 33.791891 -0.406407 0.910053 0.021549 -0.008555 242266.000000 0 0 1
-23.840058 9.737077 19.555228 32.335213 -0.387755 0.921325 0.022543 -0.014587 -360188.000000 0 0 1
-24.726258 9.224677 18.551628 32.259036 -0.357079 0.958091 0.026072 -0.007745 162244.000000 0 0 1
-24.154058 8.255477 17.753528 31.092751 -0.329337 0.963090 0.035283 -0.011740 -406351.000000 0 0 1
-24.088758 6.766677 18.331528 31.017754 -0.273849 0.938497 0.028866 -0.010360 -381718.000000 0 0 1
-22.936558 6.510577 19.128828 30.567718 -0.276577 0.894658 0.032609 -0.005433 639156.000000 0 0 1
-22.785758 5.239477 19.743928 30.601725 -0.226016 0.869524 0.031381 -0.002155 -304806.000000 0 0 1
-22.693158 4.032977 18.779728 29.730834 -0.175881 0.887106 0.032739 -0.003693 71818.400000 0 0 1
-23.946458 3.830177 18.103328 30.262742 -0.158604 0.929537 0.045667 -0.005759 954246.000000 0 0 1
-24.035658 2.799877 17.107028 29.634483 -0.115966 0.955418 0.053327 -0.003562 -215417.000000 0 0 1
-23.802658 1.336577 17.624628 29.647605 -0.056094 0.934189 0.045547 0.001643 -205276.000000 0 0 1
-22.457058 1.067477 17.933328 28.758707 -0.047498 0.897484 0.022297 0.010491 221046.000000 0 0 1
-22.520558 -0.110623 18.710028 29.278882 0.004912 0.877562 0.027995 -0.000212 -572333.000000 0 0 1
-21.245458 -0.935223 18.880328 28.437843 0.043991 0.844754 0.034230 0.014581 27416.300000 0 0 1
-20.318658 -0.346923 19.841428 28.401593 0.017072 0.797354 0.015133 0.014152 388699.000000 0 0 1
-19.358158 -1.303123 20.212628 28.017615 0.067215 0.764937 -0.004988 0.016450 157685.000000 0 0 1
-18.381358 -0.790123 21.337528 28.174256 0.042959 0.711564 -0.002762 0.013977 715999.000000 0 0 1
-18.952358 -0.878823 22.651928 29.547826 0.046337 0.697237 -0.002022 0.008152 396674.000000 0 0 1
-17.908758 -0.896323 23.614928 29.651169 0.050008 0.649436 -0.007412 0.001802 -210466.000000 0 0 1
-18.488458 -0.878723 25.052628 31.148505 0.047492 0.636306 -0.010139 0.004971 62182.900000 0 0 1
-19.132158 0.344677 25.363528 31.772107 -0.018014 0.646337 -0.006566 -0.010719 -570313.000000 0 0 1
-20.510558 0.168477 25.504328 32.728918 -0.008214 0.677313 0.035247 -0.013845 -660112.000000 0 0 1
-21.245458 1.462577 25.886728 33.520610 -0.068733 0.688401 0.031991 -0.020297 -680104.000000 0 0 1
-21.135558 2.508477 24.980428 32.818075 -0.118133 0.705667 0.025555 -0.013871 -319138.000000 0 0 1
-22.306658 3.140577 24.570228 33.333861 -0.139872 0.742035 0.026064 -0.008736 -857343.000000 0 0 1
-22.043458 4.247777 23.403128 32.429370 -0.190367 0.764592 0.028516 -0.005315 143958.000000 0 0 1
-21.279958 3.887277 22.252428 31.034144 -0.180681 0.771264 0.030753 -0.005307 1135360.000000 0 0 1
-19.902458 3.556577 22.457928 30.217803 -0.176834 0.732953 0.010869 0.000028 177370.000000 0 0 1
-19.296758 2.825477 21.224928 28.824395 -0.145389 0.743132 0.002215 0.003246 -221691.000000 0 0 1
-19.043758 3.686677 20.114228 27.943487 -0.191224 0.767256 0.011891 0.007196 134982.000000 0 0 1
-18.712758 2.844877 19.094728 26.886228 -0.150873 0.781007 0.011379 0.011190 -78115.400000 0 0 1
-18.224158 3.530077 17.778328 25.703119 -0.191334 0.806984 0.008067 0.008332 629120.000000 0 0 1
-16.968658 4.228277 17.907228 25.029632 -0.244208 0.773541 0.012593 -0.000397 747229.000000 0 0 1
-16.671858 4.818577 16.621028 24.029734 -0.281357 0.806975 0.016519 0.006295 -71305.100000 0 1 0
-15.220658 5.348577 16.516228 23.088124 -0.337924 0.773663 0.020636 0.004722 -146646.000000 0 1 0
-14.732958 6.431777 17.349928 23.652649 -0.411619 0.747295 0.014143 0.002561 -36635.500000 0 1 0
-15.430458 7.631877 17.472128 24.527940 -0.459317 0.777976 0.018530 0.001338 -615313.000000 0 1 0
-15.035558 8.545277 16.280028 23.751401 -0.516813 0.815596 0.001768 0.004480 -74379.600000 0 1 0
-15.443558 8.185177 15.011128 23.039847 -0.487363 0.861198 0.009984 0.008932 936575.000000 0 1 0
-16.819658 8.546377 14.776728 23.964414 -0.470121 0.906365 0.018455 0.007572 519217.000000 0 1 0
-17.458658 7.922577 13.515428 23.457169 -0.426002 0.956756 0.017149 0.001384 -39035.900000 0 1 0
-17.373258 6.431677 13.512528 22.930002 -0.354561 0.940611 0.026256 -0.001635 580767.000000 0 1 0
-18.162758 5.933077 12.431728 22.795505 -0.315734 0.993979 0.047798 0.000858 264553.000000 0 1 0
-17.878958 4.456877 12.270028 22.137626 -0.244301 0.983321 0.036537 -0.008545 80347.600000 0 1 0
-18.309758 3.625077 13.305228 22.921987 -0.195458 0.951507 0.023263 0.000548 121884.000000 0 1 0
-17.723558 2.388777 13.155228 22.201144 -0.133972 0.936579 0.014221 -0.006625 -356374.000000 0 1 0
-18.376558 1.444177 14.215528 23.277989 -0.078427 0.913870 0.018555 -0.001574 811476.000000 0 1 0
-19.724958 1.207277 13.788028 24.096498 -0.061129 0.961610 0.037074 0.003358 589215.000000 0 1 0
-20.437658 0.510377 14.777028 25.225362 -0.024967 0.944929 0.026930 0.005777 311474.000000 0 0 1
-21.879858 0.084477 14.362128 26.172620 -0.003861 0.989933 0.035944 0.004138 228360.000000 0 0 1
-21.924258 -0.962223 13.421328 25.724133 0.043860 1.021906 0.040449 0.000453 285283.000000 0 0 1
-23.287058 -1.284123 13.266328 26.831539 0.055087 1.053617 0.068026 -0.005364 3957.840000 0 0 1
-23.558058 -2.593623 12.386628 26.742055 0.109653 1.089206 0.061985 -0.006906 4097.550000 0 0 1
-23.068258 -3.800023 12.964828 26.733340 0.163263 1.064469 0.063763 -0.004422 242631.000000 0 0 1
-23.177258 -4.877923 12.094328 26.594213 0.207434 1.098679 0.074358 -0.012565 -226508.000000 0 0 1
-22.852758 -6.190623 12.789328 26.909836 0.264543 1.075530 0.061024 -0.014288 -22909.400000 0 0 1
-23.770558 -6.750223 13.710528 28.259220 0.276690 1.064239 0.053249 -0.009211 121403.000000 0 0 1
-24.106958 -8.129923 13.433628 28.769835 0.325266 1.084975 0.061927 -0.016486 -355842.000000 0 0 1
-24.894458 -8.657323 14.607828 30.134231 0.334679 1.064709 0.061141 -0.014931 599444.000000 0 0 1
-26.292908 -8.324223 14.517728 31.166875 0.306612 1.086251 0.056527 -0.016799 960322.000000 0 0 1
-26.973078 -8.549023 15.757828 32.387372 0.306931 1.062669 0.050776 -0.018061 -1598780.000000 0 0 1
-28.289458 -7.804223 15.852728 33.354284 0.269175 1.075511 0.043723 -0.018315 -661337.000000 0 0 1
-29.357328 -8.276923 15.037428 34.007123 0.274804 1.112763 0.040196 -0.016349 648705.000000 0 0 1
-29.717828 -9.674423 15.017328 34.673677 0.314723 1.122862 0.044723 -0.024793 -1062740.000000 0 0 1
-30.201778 -10.188123 16.380528 35.836670 0.325348 1.096077 0.047249 -0.027027 -1650520.000000 0 0 1
-29.166578 -10.508423 17.234228 35.470196 0.345812 1.063428 0.051591 -0.012055 -597833.000000 0 0 1
-29.446098 -11.251023 18.402228 36.500687 0.364971 1.042386 0.057417 -0.010188 -34745.600000 0 0 1
-28.173718 -11.401423 19.273428 35.989107 0.384537 1.005655 0.051025 -0.000130 882811.000000 0 0 1
-27.163368 -12.272523 18.692628 35.183486 0.424353 1.010674 0.046060 -0.003703 342063.000000 0 0 1
-25.977998 -12.159223 19.438828 34.649258 0.437769 0.975182 0.035662 -0.005850 -989114.000000 0 0 1
-24.832158 -12.935023 18.893328 33.777340 0.480226 0.977196 0.044672 -0.004585 -1078560.000000 0 0 1
-24.323758 -12.383623 17.685928 32.523704 0.470914 0.995855 0.036696 -0.002315 99184.100000 0 0 1
-23.137758 -13.118423 17.426728 31.798423 0.515779 0.990780 0.031162 -0.007265 67193.400000 0 0 1
-22.849458 -13.123923 15.914228 30.783075 0.521357 1.027477 0.032577 -0.011237 -430682.000000 0 0 1
-22.319058 -11.980123 15.397728 29.643780 0.492626 1.024618 0.034787 -0.011654 -287142.000000 0 0 1
-22.312558 -12.010823 14.006728 28.953385 0.493815 1.065841 0.033221 -0.017096 760730.000000 0 0 1
-21.021658 -11.258723 13.486928 27.396462 0.491703 1.056081 0.034771 -0.024564 387488.000000 0 0 1
-20.993858 -9.849523 13.666628 26.917130 0.438674 1.038249 0.037049 -0.026200 1081370.000000 0 0 1
-19.745858 -9.150323 13.388828 25.551673 0.433945 1.019267 0.031471 -0.023188 865626.000000 0 0 1
-19.257658 -9.184423 11.918828 24.439097 0.445016 1.061349 0.037843 -0.013250 -660665.000000 0 1 0
-18.571558 -10.351723 11.532328 24.187921 0.508504 1.073808 0.028566 -0.022617 200631.000000 0 1 0
-18.251258 -10.446923 10.182828 23.365286 0.519874 1.119858 0.031526 -0.016023 -429807.000000 0 1 0
-17.487658 -11.786523 9.837328 23.270439 0.593056 1.134331 0.011273 -0.007204 -557957.000000 0 1 0
-16.124458 -11.866723 9.970528 22.365792 0.634445 1.108736 0.030147 -0.010654 -843506.000000 0 1 0
-15.539258 -11.679023 11.264628 22.466863 0.644513 1.045593 0.032548 -0.010936 435808.000000 0 1 0
-14.062258 -12.217623 11.332328 21.804565 0.715321 1.024270 0.035870 -0.002957 715818.000000 0 1 0
-13.790258 -13.611423 11.136828 22.348847 0.778872 1.049139 0.038576 -0.005066 385111.000000 0 1 0
-12.426058 -13.854123 10.799328 21.516717 0.839685 1.044998 0.043218 -0.012369 540274.000000 0 1 0
-12.061658 -15.369823 10.582528 22.219472 0.905416 1.074385 0.040143 -0.016787 90882.500000 0 1 0
-12.563758 -15.963423 9.396528 22.382440 0.904012 1.137553 0.040855 -0.012763 -15113.900000 0 1 0
-12.125358 -17.301723 9.345328 23.102144 0.959522 1.154340 0.036941 -0.009984 281250.000000 0 1 0
-12.647858 -18.187923 8.173028 23.612861 0.963165 1.217358 0.029514 -0.006800 -457641.000000 0 1 0
-11.862358 -17.977523 7.056028 22.664827 0.987532 1.254214 0.025401 -0.006340 -362506.000000 0 1 0
-12.157658 -18.817923 5.961528 23.183241 0.997190 1.310726 0.015631 0.004494 -34746.800000 0 1 0
-11.427358 -18.412923 4.662828 22.166691 1.015356 1.358860 0.020241 0.000364 3371.430000 0 1 0
-11.539758 -19.405823 3.678828 22.875440 1.034317 1.409275 0.019132 0.005865 145666.000000 0 1 0
-10.841558 -19.121423 2.479028 22.120438 1.055006 1.458491 0.023262 -0.007071 -45672.500000 0 1 0
-11.185158 -20.191723 1.420928 23.126445 1.064927 1.509316 0.030856 -0.001461 -317148.000000 0 1 0
-10.759958 -21.505823 1.712528 24.108294 1.106887 1.499702 0.012822 -0.003840 -260445.000000 0 1 0
-11.024758 -22.558923 0.728328 25.119330 1.116222 1.541798 0.010846 -0.004982 275622.000000 0 0 1
-10.078358 -22.521523 -0.552472 24.679901 1.150024 1.593184 0.017189 -0.000248 64314.900000 0 1 0
-10.256558 -21.597323 -1.595672 23.962210 1.127430 1.637437 0.020763 -0.014727 674057.000000 0 1 0
-11.472358 -21.730623 -2.380072 24.688048 1.085051 1.667352 0.038520 -0.005625 1278750.000000 0 1 0
-12.504458 -20.551123 -2.218372 24.158462 1.024182 1.662752 0.040836 -0.004207 552892.000000 0 1 0
-13.133458 -20.615223 -0.905972 24.460088 1.003560 1.607844 0.032691 -0.004641 -372227.000000 0 1 0
-14.046958 -19.570323 -0.846972 24.104604 0.948245 1.605941 0.040096 -0.001610 -202445.000000 0 1 0
26.153442 -20.684323 -3.893072 33.570817 -0.669157 1.687024 0.030277 -0.025395 -1044460.000000 0 0 1
24.973342 -20.732123 -3.178072 32.612710 -0.692869 1.668400 0.032448 -0.025205 -567097.000000 0 0 1
24.923442 -21.957723 -2.441372 33.305853 -0.722222 1.644164 0.016413 -0.017457 121145.000000 0 0 1
23.545642 -22.209023 -1.743372 32.414153 -0.756194 1.624607 0.014088 -0.018707 536940.000000 0 0 1
22.654742 -22.712323 -2.724372 32.194862 -0.786667 1.655519 0.017336 -0.028011 -622870.000000 0 0 1
21.382142 -22.981623 -2.232372 31.469580 -0.821436 1.641793 0.026199 -0.020938 -385571.000000 0 0 1
20.346542 -23.659623 -3.125672 31.361271 -0.860543 1.670629 0.036420 -0.025107 -13436.600000 0 0 1
19.835242 -22.764823 -4.092472 30.470023 -0.854059 1.705515 0.039733 -0.029615 -197483.000000 0 0 1
18.874742 -23.408123 -4.930372 30.471374 -0.892206 1.733314 0.049279 -0.030081 411103.000000 0 0 1
17.921042 -22.304023 -5.522572 29.139869 -0.893931 1.761469 0.040821 -0.014717 390275.000000 0 0 1
16.897042 -21.811523 -4.636072 27.977593 -0.911684 1.737271 0.042541 -0.013432 930468.000000 0 0 1
17.372642 -20.890923 -3.604372 27.408591 -0.877089 1.702684 0.036521 -0.019677 109418.000000 0 0 1
16.209542 -20.392223 -2.700772 26.189429 -0.899180 1.674105 0.054489 -0.009551 511561.000000 0 0 1
15.585342 -21.315623 -1.794572 26.466567 -0.939456 1.638654 0.040270 -0.011684 203922.000000 0 0 1
14.631742 -20.646723 -0.997372 25.325280 -0.954274 1.610189 0.035456 -0.002434 -102066.000000 0 0 1
14.282542 -21.359923 0.360628 25.697614 -0.981414 1.556762 0.031123 -0.000849 315246.000000 0 0 1
13.536242 -22.578723 0.256428 26.326685 -1.030735 1.561056 0.037668 -0.005858 599285.000000 0 0 1
12.759942 -22.796723 1.486228 26.167070 -1.060516 1.513968 0.036144 -0.003907 476271.000000 0 0 1
11.816142 -23.986323 1.542728 26.783295 -1.113070 1.513164 0.038306 -0.006881 -176279.000000 0 0 1
12.463442 -25.210223 1.779328 28.179048 -1.111654 1.507611 0.022969 -0.002391 86048.100000 0 0 1
11.604442 -26.296443 1.472328 28.780787 -1.155206 1.519617 0.030815 -0.005825 325236.000000 0 0 1
12.098842 -27.681943 2.038328 30.279146 -1.158750 1.503428 0.026424 -0.006351 211982.000000 0 0 1
11.876742 -27.752503 3.446028 30.383112 -1.166428 1.457133 0.044364 -0.010933 24717.100000 0 0 1
12.377542 -28.948583 4.045628 31.742575 -1.166751 1.442998 0.045015 -0.013301 -29139.900000 0 0 1
12.002042 -29.101733 5.553528 31.965630 -1.179632 1.396176 0.049242 -0.006386 66948.400000 0 0 1
12.373242 -30.329513 6.099728 33.319411 -1.183446 1.386690 0.041332 -0.013893 -405616.000000 0 0 1
11.874142 -30.424363 7.422428 33.492231 -1.198694 1.347325 0.031957 -0.008568 143971.000000 0 0 1
11.934942 -31.839573 7.980828 34.926993 -1.212161 1.340259 0.026658 -0.012208 -15573.500000 0 0 1
11.686942 -31.922693 9.340428 35.254596 -1.219850 1.302652 0.017141 -0.007043 -152173.000000 0 0 1
10.943742 -33.067893 9.708828 36.159540 -1.251194 1.298961 0.013808 -0.009749 34880.400000 0 0 1
10.896642 -33.154273 11.221128 36.658646 -1.253253 1.259705 0.011910 -0.007212 351843.000000 0 0 1
12.128742 -33.580693 11.821128 37.609950 -1.224195 1.251068 0.014998 -0.006738 296162.000000 0 0 1
12.184642 -33.896543 13.172128 38.352915 -1.225714 1.220213 0.026275 -0.005885 84971.000000 0 0 1
11.211442 33.886280 13.618128 38.202484 1.251278 1.206307 0.022306 -0.011194 178401.000000 0 0 1
11.393042 32.670847 12.993628 36.959708 1.235261 1.211557 0.017495 -0.014258 -395162.000000 0 0 1
10.342242 31.779307 13.212028 35.936667 1.256167 1.194318 0.023698 -0.009484 -313125.000000 0 0 1
10.453142 30.553197 12.185828 34.514641 1.241150 1.209954 0.024841 -0.014701 -374580.000000 0 0 1
10.129242 30.737497 10.838028 34.130018 1.252463 1.247650 0.037983 -0.014647 -245292.000000 0 0 1
10.909642 31.663597 10.137828 34.991131 1.238986 1.276856 0.004640 -0.013379 -491039.000000 0 0 1
10.474642 31.922277 8.721528 34.710445 1.253736 1.316809 -0.001543 -0.013260 -37979.200000 0 0 1
9.244842 32.623447 8.697028 35.005638 1.294656 1.319720 0.008292 -0.010052 -148684.000000 0 0 1
8.653742 32.651147 7.400628 34.579676 1.311717 1.355111 0.006540 -0.008393 46713.900000 0 0 1
9.008242 33.897898 6.568728 35.684227 1.311053 1.385661 0.006868 -0.013113 -405737.000000 0 0 1
8.412642 -33.844973 6.964428 35.563436 -1.327170 1.373691 0.005977 -0.012624 -454082.000000 0 0 1
8.776242 -32.809193 6.113328 34.508525 -1.309422 1.392702 0.022120 -0.018553 -240663.000000 0 0 1
8.022142 -31.479293 6.311228 33.092782 -1.321269 1.378908 0.021920 -0.013389 -124732.000000 0 0 1
8.217542 -30.926993 7.597328 32.889607 -1.311089 1.337696 0.024411 -0.010872 229051.000000 0 0 1
7.402442 -29.747093 7.717328 31.610802 -1.326904 1.324168 0.036548 -0.011871 373187.000000 0 0 1
8.163642 -28.449153 7.429628 30.515549 -1.291349 1.324854 0.056531 -0.015862 339109.000000 0 0 1
8.928342 -27.882113 8.538728 30.496514 -1.260896 1.287012 0.047350 -0.008731 865618.000000 0 0 1
9.874142 -26.840023 8.263728 29.768686 -1.218275 1.289503 0.052592 -0.008071 394546.000000 0 0 1
9.443042 -25.613923 7.398628 28.283984 -1.217588 1.306134 0.051481 -0.010940 -353264.000000 0 0 1
9.198442 -25.961913 6.049928 28.199891 -1.230291 1.354578 0.059676 -0.013283 -145450.000000 0 0 1
8.706542 -24.835723 5.283828 26.842798 -1.233618 1.372659 0.054080 -0.010824 220423.000000 0 0 1
8.489442 -25.218243 3.777028 26.875571 -1.246074 1.429792 0.044142 -0.007438 747250.000000 0 0 1
7.369642 -26.119133 3.591528 27.375533 -1.295790 1.439222 0.048420 -0.012684 375545.000000 0 0 1
7.628742 -27.509803 3.881828 28.810684 -1.300284 1.435650 0.039000 -0.010452 -146520.000000 0 0 1
6.494942 -28.441453 3.456128 29.377633 -1.346284 1.452878 0.036685 -0.013422 -527066.000000 0 0 1
5.519542 -28.801103 4.396028 29.652890 -1.381449 1.421998 0.026592 -0.006522 -311593.000000 0 0 1
4.445842 -29.362733 3.638628 29.919478 -1.420527 1.448881 0.020527 0.000864 367583.000000 0 0 1
4.278042 -30.833103 3.928528 31.375391 -1.432928 1.445256 0.025269 -0.002696 249229.000000 0 0 1
5.391042 -31.492153 3.322428 32.122539 -1.401253 1.467181 0.022324 -0.010039 237209.000000 0 0 1
5.381742 -32.843193 3.725928 33.489117 -1.408378 1.459308 0.010874 -0.002307 125088.000000 0 0 1
6.540542 -33.676913 3.127928 34.448470 -1.378970 1.479871 0.010889 -0.008682 -52721.900000 0 0 1
6.525442 -33.944033 1.740228 34.609350 -1.380872 1.520493 0.019567 -0.005579 -211056.000000 0 0 1
7.500542 34.018874 1.372928 34.862973 1.353787 1.531405 0.008126 -0.003927 -436201.000000 0 0 1
7.343242 33.488571 -0.063572 34.284277 1.354937 1.572651 0.015271 0.001497 -386970.000000 0 0 1
6.319742 32.584527 -0.333772 33.193402 1.379226 1.580852 0.008590 0.008999 -1082190.000000 0 0 1
5.095942 33.215349 -0.533572 33.608225 1.418562 1.586673 0.004166 0.004311 -837418.000000 0 0 1
3.833842 32.413827 -0.206272 32.640421 1.453065 1.577116 0.005735 0.004631 -217163.000000 0 0 1
3.616442 31.302307 -1.065772 31.528542 1.455774 1.604606 0.013409 0.010382 327428.000000 0 0 1
2.394942 30.629817 -0.761872 30.732750 1.492765 1.595589 0.009778 0.001919 441558.000000 0 0 1
2.142342 29.420157 -1.719472 29.548128 1.498106 1.629021 0.013412 0.000549 -211317.000000 0 0 1
1.930142 29.910497 -3.064172 30.128930 1.506355 1.672674 0.022875 -0.008827 74860.200000 0 0 1
1.730542 28.844707 -3.930072 29.162602 1.510873 1.705972 0.026767 -0.014599 -224270.000000 0 0 1
1.567542 29.324807 -5.351772 29.850343 1.517393 1.751058 0.026269 -0.019763 -1020120.000000 0 0 1
0.441342 30.074767 -5.535472 30.583130 1.556123 1.752797 0.025228 -0.015293 -937539.000000 0 0 1
0.365542 30.795877 -6.792572 31.538210 1.558927 1.787873 0.015399 -0.018547 -128445.000000 0 0 1
0.287642 30.114697 -8.138772 31.196432 1.561245 1.834738 0.020079 -0.020024 -681062.000000 0 0 1
-1.017258 29.649687 -8.358972 30.822252 -1.536501 1.845435 0.024681 -0.019565 -142484.000000 0 0 1
-1.239358 29.168757 -9.660472 30.751864 -1.528333 1.890350 0.026444 -0.023510 2572.920000 0 0 1
-1.580958 30.254107 -10.707472 32.131922 -1.518588 1.910529 0.021032 -0.028746 -454701.000000 0 0 1
-0.434858 30.964107 -11.119972 32.903173 -1.556753 1.915545 0.023784 -0.028078 -81475.800000 0 0 1
-0.614758 32.308347 -11.606872 34.335502 -1.551771 1.915633 0.015788 -0.030424 -29226.000000 0 0 1
-0.872058 33.420685 -10.549272 35.056951 -1.544709 1.876452 0.007036 -0.028131 -291938.000000 0 0 1
0.206242 33.454583 -9.676272 34.826454 1.564632 1.852344 0.008159 -0.034323 -225266.000000 0 0 1
-0.175958 34.333495 -8.613272 35.397858 -1.565671 1.816591 0.004955 -0.017723 -101050.000000 0 0 1
0.929242 -34.264127 -7.551472 35.098698 -1.543683 1.787641 0.016619 -0.019435 178535.000000 0 0 1
1.859642 -33.354043 -8.103272 34.374605 -1.515099 1.808770 0.024652 -0.012370 206220.000000 0 0 1
2.851042 -32.981733 -7.123472 33.862472 -1.484568 1.782744 0.024829 -0.020746 -299529.000000 0 0 1
3.962642 -32.049933 -7.699972 33.199251 -1.447781 1.804860 0.010210 -0.011720 404808.000000 0 0 1
4.906342 -32.653753 -8.579572 34.116694 -1.421658 1.825003 0.027378 -0.007888 717012.000000 0 0 1
5.800942 -33.539263 -7.852572 34.931303 -1.399531 1.797535 0.038431 0.004206 -847576.000000 0 0 1
6.215142 34.139278 -8.710872 35.777054 1.390716 1.816745 0.035187 -0.000850 576512.000000 0 0 1
5.228442 33.091391 -8.865672 34.655114 1.414092 1.829498 0.029335 -0.006765 166392.000000 0 0 1
4.129142 33.386757 -9.703272 35.012553 1.447745 1.851609 0.034472 -0.013543 159598.000000 0 0 1
3.268142 32.128627 -9.854872 33.764596 1.469424 1.866978 0.034688 -0.027240 78177.500000 0 0 1
3.941042 31.233287 -10.741972 33.263193 1.445279 1.899629 0.027003 -0.017318 229208.000000 0 0 1
3.228542 29.998427 -10.840972 32.060190 1.463585 1.915741 0.019468 -0.028408 339357.000000 0 0 1
4.024842 28.852167 -11.528272 31.329666 1.432192 1.947618 0.017227 -0.022573 71922.500000 0 0 1
3.928142 29.202937 -12.890672 32.162265 1.437087 1.983187 0.020397 -0.020371 139026.000000 0 0 1
5.102042 28.996627 -13.665272 32.458818 1.396626 2.005348 0.028858 -0.018838 144383.000000 0 0 1
4.884942 29.308727 -15.145272 33.350314 1.405643 2.042188 0.031077 -0.013855 -11424.600000 0 0 1
3.915842 28.516277 -15.805772 32.838001 1.434330 2.072963 0.024527 -0.008644 -165190.000000 0 0 1
3.743742 28.978857 -17.174672 33.893350 1.442319 2.102180 0.042262 -0.009350 -24480.900000 0 0 1
2.618642 28.305237 -17.988372 33.639639 1.478545 2.134993 0.036308 -0.010605 16728.900000 0 0 1
2.879042 26.984247 -18.355772 32.762370 1.464505 2.165508 0.053221 -0.002349 -111046.000000 0 0 1
1.889142 26.506417 -19.254372 32.816000 1.499646 2.197820 0.027444 -0.006224 147356.000000 0 0 1
2.329342 25.359027 -20.190572 32.498697 1.479199 2.241163 0.046494 -0.002657 130365.000000 0 0 1
2.707842 24.231357 -19.432672 31.178836 1.459509 2.243707 0.045503 -0.004312 20468.300000 0 0 1
3.741642 23.410087 -19.949072 30.983827 1.412306 2.270321 0.059790 -0.004905 345860.000000 0 0 1
4.357342 22.354587 -19.039572 29.685338 1.378291 2.267091 0.056491 -0.010255 230981.000000 0 0 1
3.560742 21.168487 -18.953072 28.635689 1.404147 2.294105 0.057879 -0.005493 -93549.400000 0 0 1
4.259042 20.237087 -18.170772 27.529186 1.363366 2.291688 0.046318 -0.000115 183544.000000 0 0 1
3.402042 19.027787 -17.707172 26.214014 1.393872 2.312419 0.042640 -0.011144 -140070.000000 0 0 1
2.434542 19.341387 -16.764572 25.711226 1.445583 2.281059 0.042771 -0.009631 -359500.000000 0 0 1
1.726042 18.216787 -16.192072 24.433865 1.476328 2.295201 0.037335 -0.011876 503512.000000 0 1 0
2.513742 17.207387 -15.220772 23.110279 1.425737 2.289773 0.020193 -0.003404 22741.100000 0 1 0
3.579942 16.502587 -15.802072 23.126973 1.357174 2.323034 0.021778 -0.012359 -414793.000000 0 1 0
3.266942 15.426387 -16.688972 22.960142 1.362104 2.384545 0.026739 -0.020772 -374457.000000 0 1 0
3.134642 15.648287 -18.216072 24.218178 1.373094 2.422138 0.029758 -0.019220 -64491.400000 0 1 0
4.352742 16.007387 -18.864172 25.120506 1.305295 2.420292 0.025859 -0.014491 -150773.000000 0 0 1
4.238342 16.471487 -20.244572 26.440804 1.318946 2.442858 0.036316 -0.012362 -536558.000000 0 0 1
4.423042 15.481787 -21.401672 26.782095 1.292516 2.496599 0.013574 -0.017390 783598.000000 0 0 1
3.465642 14.436587 -21.728972 26.316800 1.335195 2.542184 0.017830 -0.015089 -315604.000000 0 0 1
2.200442 14.804487 -22.144272 26.727955 1.423243 2.547231 0.032378 -0.019375 -356698.000000 0 0 1
1.341642 13.596487 -22.664472 26.463990 1.472439 2.599105 0.035659 -0.011553 229128.000000 0 0 1
1.029142 12.483987 -21.822772 25.162322 1.488545 2.620508 0.030698 -0.008529 349546.000000 0 0 1
-0.010858 11.714987 -22.415272 25.292004 -1.569869 2.660002 0.023828 0.000691 81029.600000 0 0 1
-0.686358 10.757687 -21.393872 23.956141 -1.507081 2.674860 0.018095 -0.002104 -625839.000000 0 1 0
-1.673958 11.412887 -20.626172 23.632501 -1.425162 2.631683 0.023434 -0.002104 -139073.000000 0 1 0
-2.178758 10.688187 -19.500572 22.344052 -1.369704 2.631586 0.019299 0.000919 -10578.400000 0 1 0
-3.195958 9.598487 -19.772472 22.210263 -1.249378 2.668669 0.021798 -0.005910 -1059780.000000 0 1 0
-2.634458 8.541187 -20.424972 22.295106 -1.271613 2.729087 0.015355 -0.009519 -881479.000000 0 1 0
-3.552258 7.850887 -21.194172 22.878984 -1.145894 2.755427 0.012906 0.007940 -218676.000000 0 1 0
-2.793358 6.778587 -22.008172 23.197236 -1.179915 2.820025 0.006960 0.009782 507446.000000 0 1 0
-2.249358 5.719887 -21.200072 22.073056 -1.196121 2.859411 0.016075 0.007421 28307.600000 0 1 0
-1.912458 4.657587 -21.994972 22.563896 -1.181176 2.916557 0.018281 0.001907 -572560.000000 0 1 0
-1.360258 3.419987 -21.255972 21.572273 -1.192242 2.970138 0.013247 0.004389 451477.000000 0 1 0
0.038442 3.494187 -20.986772 21.275700 1.559795 2.976601 0.009201 0.000420 305584.000000 0 1 0
0.415642 2.462387 -20.074272 20.229002 1.403576 3.017829 0.013086 -0.003516 -788397.000000 0 1 0
1.902442 2.276687 -19.912372 20.132192 0.874711 2.993682 0.018606 -0.014316 -740503.000000 0 1 0
2.586642 1.893387 -21.092572 21.334766 0.631872 2.990771 0.024590 -0.014797 445007.000000 0 1 0
4.005842 1.893087 -20.887972 21.352703 0.441473 2.932576 0.029613 -0.017748 582270.000000 0 1 0
4.727942 1.477587 -22.160572 22.707436 0.302905 2.921682 0.035778 -0.010542 -266483.000000 0 1 0
6.113342 1.264787 -21.985672 22.854812 0.204011 2.864926 0.042181 -0.019212 -44663.600000 0 1 0
6.636042 0.632787 -23.129772 24.071224 0.095069 2.860991 0.047878 -0.020189 -478431.000000 0 1 0
8.158742 0.410487 -23.111072 24.512349 0.050270 2.801830 0.034391 -0.023266 -162482.000000 0 1 0
8.709542 1.702487 -23.166372 24.807970 0.193040 2.775764 0.039578 -0.032563 -680004.000000 0 1 0
10.100542 1.744687 -23.188372 25.352820 0.171044 2.725381 0.032391 -0.021377 -727421.000000 0 0 1
13.295142 -21.346123 22.379111 33.663665 -1.013754 0.843590 0.048342 0.003774 -34830.800000 0 0 1
12.174542 -22.146223 22.753211 34.005636 -1.068157 0.837798 0.042414 0.007134 289303.000000 0 0 1
10.933042 -21.634023 22.316011 32.947939 -1.102867 0.826695 0.037704 0.003972 247158.000000 0 0 1
10.528542 -21.535123 20.783811 31.726621 -1.116067 0.856494 0.066275 -0.002751 -502801.000000 0 0 1
11.038442 -20.314523 20.270911 30.747957 -1.073052 0.850962 0.062766 -0.000898 -118796.000000 0 0 1
10.706842 -20.201023 18.899011 29.662946 -1.083426 0.880034 0.083268 -0.005389 193134.000000 0 0 1
11.228542 -18.888923 18.276211 28.581313 -1.034467 0.877019 0.076291 -0.007088 660987.000000 0 0 1
10.397642 -17.768923 18.697811 27.811036 -1.041361 0.833463 0.081422 -0.008708 388770.000000 0 0 1
10.715442 -16.598723 18.024811 26.743824 -0.997550 0.831213 0.073807 -0.004779 30978.300000 0 0 1
9.931842 -15.352823 18.502911 26.013619 -0.996599 0.779482 0.065779 0.000500 270950.000000 0 0 1
8.558242 -15.446723 18.178311 25.343554 -1.064850 0.770912 0.048644 -0.005212 -508350.000000 0 0 1
7.828042 -14.385523 18.733511 24.883045 -1.072447 0.718396 0.034420 -0.006960 63931.500000 0 1 0
6.329242 -14.653723 18.440511 24.389410 -1.163079 0.713483 0.016025 0.000136 38798.200000 0 1 0
5.932842 -14.575923 17.060511 23.210281 -1.184244 0.745069 0.008530 -0.003787 1025630.000000 0 1 0
4.517942 -14.913823 17.009611 23.068610 -1.276648 0.741659 -0.010558 0.004690 1279880.000000 0 1 0
3.963842 -16.395523 16.855911 23.846319 -1.333584 0.785753 -0.025250 0.006308 301778.000000 0 1 0
2.616442 -16.494423 16.403711 23.409260 -1.413481 0.794368 -0.013423 0.005991 126172.000000 0 1 0
2.227242 -17.849823 16.316911 24.286176 -1.446661 0.834079 -0.010215 -0.002770 353223.000000 0 1 0
0.711242 -18.078723 16.121811 24.233424 -1.531475 0.842939 -0.009634 0.012791 224531.000000 0 1 0
0.241542 -17.733923 14.819611 23.112144 -1.557177 0.874729 -0.007221 0.010680 688618.000000 0 1 0
-1.200058 -17.775223 14.806811 23.165499 1.503386 0.877371 -0.003087 0.014832 943325.000000 0 1 0
-1.616358 -18.193223 13.361811 22.630598 1.482185 0.939203 -0.009541 0.005840 590007.000000 0 1 0
-3.004058 -18.531023 13.277211 22.993640 1.410085 0.955219 -0.009772 0.008723 360232.000000 0 1 0
-3.250858 -19.620223 12.405311 23.439559 1.406599 1.013084 0.005855 -0.002238 -235021.000000 0 1 0
-4.761758 -19.824823 12.255811 23.788712 1.335070 1.029562 0.001132 -0.007282 -187492.000000 0 1 0
-5.450258 -20.222923 13.455811 24.894392 1.307542 0.999746 0.001241 -0.009216 37089.400000 0 1 0
-5.564158 -21.631223 13.631511 26.166538 1.319026 1.022830 -0.029647 -0.000941 -253711.000000 0 0 1
-6.233858 -22.026923 14.960611 27.347142 1.294998 0.991945 -0.016681 -0.004586 230785.000000 0 0 1
-7.637658 -21.881023 14.890311 27.546948 1.234965 0.999714 -0.002595 -0.003000 -38444.600000 0 0 1
-8.353258 -22.789123 15.745011 28.931408 1.219458 0.995339 -0.003027 -0.002704 -130489.000000 0 0 1
-9.832958 -22.400823 15.716311 29.077248 1.157165 0.999763 0.010157 -0.005769 -386546.000000 0 0 1
-10.025058 -21.106023 16.298011 28.488439 1.127360 0.961742 0.000500 -0.008615 -643494.000000 0 0 1
-11.284558 -20.554623 16.040611 28.410121 1.068719 0.970837 0.020243 -0.008868 -358568.000000 0 0 1
-11.569558 -19.301123 16.820911 28.095036 1.030800 0.928901 0.017757 -0.009767 -536407.000000 0 0 1
-11.898258 -19.643323 18.135011 29.262728 1.026185 0.902397 0.021318 -0.016909 -88317.900000 0 0 1
-12.108958 -18.492423 18.916911 29.093746 0.991050 0.862942 0.021373 -0.019032 -292516.000000 0 0 1
-12.581358 -18.816123 20.376111 30.455261 0.981423 0.837866 0.021153 -0.011355 -324552.000000 0 0 1
-13.865458 -19.369923 20.340911 31.324072 0.949529 0.864041 0.034808 -0.008136 -369156.000000 0 0 1
-14.054658 -20.150623 21.510211 32.653793 0.961764 0.851660 0.023900 -0.000806 170995.000000 0 0 1
-15.443158 -20.811723 21.311811 33.553125 0.932408 0.882573 0.035155 -0.005952 -628365.000000 0 0 1
-15.360458 -21.753223 20.268911 33.466029 0.955973 0.920206 0.032371 -0.007516 183378.000000 0 0 1
-16.587958 -22.085523 19.653211 33.899548 0.926605 0.952376 0.039929 0.000841 427044.000000 0 0 1
-17.627458 -22.863723 20.533711 35.427537 0.914003 0.952562 0.048238 -0.010525 -115241.000000 0 0 1
-18.241258 -22.165323 21.589011 35.918385 0.882209 0.925973 0.043526 -0.009118 49839.500000 0 0 1
-19.116458 -22.935123 22.391311 37.320632 0.875959 0.927331 0.061719 -0.006072 -1250.670000 0 0 1
-19.844458 -22.163223 23.544011 37.938521 0.840541 0.901310 0.057479 -0.005069 386399.000000 0 0 1
-20.848558 -21.230623 23.120011 37.682046 0.794478 0.910241 0.049514 -0.001444 590187.000000 0 0 1
-21.265658 -20.376623 24.182701 38.108240 0.764052 0.883332 0.048667 -0.001815 477172.000000 0 0 1
-22.157958 -19.148523 23.730191 37.693010 0.712670 0.889803 0.045422 -0.000643 632370.000000 0 0 1
-21.535258 -18.330123 22.759111 36.300659 0.705172 0.893150 0.052441 -0.000827 164339.000000 0 0 1
-22.498958 -17.362023 22.407611 36.190385 0.657233 0.903125 0.042196 0.001913 184759.000000 0 0 1
-22.158758 -16.570523 21.092111 34.791808 0.642098 0.919475 0.042618 0.000134 -529788.000000 0 0 1
-21.023658 -15.768923 21.102811 33.704328 0.643537 0.894235 0.040453 -0.001363 -690922.000000 0 0 1
-20.773658 -15.422323 19.729911 32.537091 0.638618 0.919293 0.039522 0.004292 27259.000000 0 0 1
-19.649458 -14.411823 19.450611 31.178969 0.632822 0.897153 0.029509 -0.005006 -57032.100000 0 0 1
-19.470058 -14.210023 18.089211 30.136812 0.630473 0.927000 0.029043 -0.005784 179542.000000 0 0 1
-18.768358 -12.994823 17.775211 28.932245 0.605593 0.909204 0.036645 -0.015574 -48337.600000 0 0 1
-18.643858 -12.871323 16.234311 27.871441 0.604239 0.949031 0.027705 -0.021745 79807.200000 0 0 1
-18.226058 -11.652423 15.645211 26.697205 0.568836 0.944653 0.020608 -0.022750 912992.000000 0 0 1
-16.804458 -11.415423 15.758411 25.710488 0.596704 0.911049 0.029215 -0.024339 800592.000000 0 0 1
-16.348658 -10.237023 14.947511 24.402937 0.559439 0.911540 0.023232 -0.032456 -160338.000000 0 1 0
-16.688458 -8.995823 15.542611 24.515346 0.494393 0.884088 0.018265 -0.022806 92427.600000 0 1 0
-16.264358 -7.969223 14.677811 23.312571 0.455600 0.889746 0.008215 -0.014987 -734469.000000 0 1 0
-16.483058 -6.481723 15.135311 23.297673 0.374661 0.863674 0.011001 -0.007677 311874.000000 0 1 0
-15.852858 -6.126423 16.384911 23.607445 0.368776 0.803687 0.008975 -0.006199 879125.000000 0 1 0
-14.420158 -6.068823 16.299111 22.592755 0.398356 0.764930 0.008829 -0.004845 350454.000000 0 1 0
-13.685958 -5.987723 17.668511 23.137298 0.412418 0.701868 0.012590 -0.007448 33520.800000 0 1 0
-13.787258 -7.165423 18.518911 24.173991 0.479294 0.698096 0.021033 -0.011597 217540.000000 0 1 0
-13.212558 -8.350123 17.957911 23.807200 0.563606 0.716200 0.024052 -0.009982 -511990.000000 0 1 0
-13.168758 -9.570923 18.992011 25.014300 0.628481 0.708642 0.022663 -0.011967 -356408.000000 0 0 1
-14.375458 -10.205523 19.362211 26.185906 0.617357 0.738598 0.021698 -0.013530 -133210.000000 0 0 1
-15.132558 -9.468623 20.317811 27.045564 0.559111 0.720852 0.019574 -0.007265 -1646640.000000 0 0 1
-16.433858 -10.252323 20.536811 28.230168 0.557775 0.756158 0.010945 -0.000697 527073.000000 0 0 1
-17.436358 -10.249423 19.469511 28.073815 0.531415 0.804445 0.025361 -0.006469 1082160.000000 0 0 1
-17.810858 -8.905323 19.037411 27.549128 0.463643 0.807876 0.016098 -0.003996 -1294540.000000 0 0 1
-18.907958 -8.787823 17.958511 27.518081 0.435067 0.859775 0.028642 -0.017781 150968.000000 0 0 1
-20.181758 -9.145123 18.468511 28.844800 0.425460 0.875944 0.023051 -0.006519 -334206.000000 0 0 1
-21.117858 -9.148923 17.436011 28.873538 0.408822 0.922442 0.040245 -0.009880 -287249.000000 0 0 1
-22.580158 -9.230623 17.917011 30.266932 0.388064 0.937300 0.037850 -0.005843 -246156.000000 0 0 1
-22.979958 -8.184623 18.773411 30.781609 0.342155 0.914874 0.041818 -0.004208 1198340.000000 0 0 1
-24.398358 -8.415123 18.955411 32.021895 0.332129 0.937318 0.042313 -0.000044 982108.000000 0 0 1
-25.074808 -7.235423 19.703211 32.700365 0.280923 0.924119 0.055447 -0.005195 -148515.000000 0 0 1
-24.901358 -7.318423 21.114311 33.458199 0.285848 0.887870 0.059568 -0.011973 403386.000000 0 0 1
-25.681588 -6.340623 21.785111 34.268623 0.242053 0.881861 0.058011 -0.012070 -548490.000000 0 0 1
-25.668328 -6.441423 23.340111 35.286198 0.245871 0.848044 0.049951 -0.009355 1005250.000000 0 0 1
-24.465258 -6.036523 24.030791 34.820502 0.241907 0.809123 0.031037 -0.007961 302731.000000 0 0 1
-23.315058 -6.775223 23.839501 34.026715 0.282806 0.794543 0.031301 -0.005145 -1198560.000000 0 0 1
-22.326558 -6.654323 24.989971 34.165097 0.289662 0.750354 0.021260 0.004246 -372576.000000 0 0 1
-21.878258 -5.335223 25.073401 33.701605 0.239191 0.731786 0.010950 0.010879 -163158.000000 0 0 1
-21.084958 -5.066723 26.177541 33.992805 0.235829 0.691813 0.021213 0.003978 -208653.000000 0 0 1
-20.693358 -3.579223 26.264391 33.628026 0.171270 0.674488 0.020424 0.001920 93281.800000 0 0 1
-19.679258 -3.313423 27.234351 33.763321 0.166807 0.632376 0.011322 0.005614 -202858.000000 0 0 1
-20.066358 -3.229423 28.609671 35.094175 0.159569 0.617678 0.019931 0.008014 -7563.340000 0 0 1
-20.806058 -1.868223 28.932331 35.685600 0.089552 0.625353 0.038859 -0.000515 -524750.000000 0 0 1
-22.085758 -1.922023 28.424601 36.047646 0.086807 0.662384 0.042900 -0.005234 -1130000.000000 0 0 1
-22.837658 -0.718423 28.747491 36.721832 0.031447 0.671572 0.048473 -0.015084 616548.000000 0 0 1
-24.121658 -0.684523 27.896621 36.885558 0.028370 0.713154 0.048474 -0.014717 -482688.000000 0 0 1
-23.771058 -0.338623 26.551431 35.639253 0.014244 0.730254 0.033527 -0.020647 27792.500000 0 0 1
-24.839558 -0.064023 25.678101 35.726357 0.002577 0.768802 0.040887 -0.024603 -665597.000000 0 0 1
-25.713058 -1.208723 25.215531 36.033947 0.046974 0.795719 0.032771 -0.019833 -636504.000000 0 0 1
-26.594158 -1.572223 26.248731 37.399425 0.059050 0.792807 0.024720 -0.012944 184393.000000 0 0 1
-27.384428 -2.756623 25.993251 37.857033 0.100326 0.813972 0.028325 -0.011726 -27798.700000 0 0 1
-26.634928 -4.113323 26.080661 37.503862 0.153223 0.801802 0.031132 -0.011320 -23723.600000 0 0 1
-26.146118 -4.389423 27.385781 38.116499 0.166329 0.769188 0.028235 -0.005620 41828.100000 0 0 1
-25.115108 -5.363123 27.319311 37.495019 0.210382 0.754503 0.023765 -0.004347 14801.300000 0 0 1
-24.683758 -5.856223 28.725741 38.324293 0.232943 0.723424 0.025334 0.002971 -43125.100000 0 0 1
-25.746058 -6.264923 29.562701 39.699648 0.238696 0.730773 0.027152 0.004504 243824.000000 0 0 1
-25.220658 -6.868623 30.715231 40.332183 0.265893 0.705085 0.041369 0.008203 570003.000000 0 0 1
-26.389268 -7.490923 31.571891 41.824534 0.276587 0.715348 0.024229 0.009807 671927.000000 0 0 1
-26.944398 -8.658223 30.968891 41.952802 0.310915 0.740422 0.014849 0.005810 -324315.000000 0 0 1
-28.132408 -9.081923 31.546081 43.232730 0.312266 0.752942 0.011555 0.006873 -205509.000000 0 0 1
-29.061398 -9.915123 30.604271 43.353153 0.328794 0.787062 -0.000332 -0.006361 31129.500000 0 0 1
-28.554998 -11.130423 30.252751 43.063942 0.371673 0.791881 0.005078 -0.001848 -875869.000000 0 0 1
-29.550188 -11.871823 29.693311 43.541319 0.382015 0.820361 0.004142 0.005733 -960827.000000 0 0 1
-29.147218 -13.025723 28.798561 42.995196 0.420268 0.836845 0.004541 -0.001392 -494927.000000 0 0 1
-28.469618 -12.628523 27.645541 41.644623 0.417501 0.844849 0.005324 0.005461 -403444.000000 0 0 1
-27.605598 -13.669423 27.306551 41.165154 0.459775 0.845521 0.003691 0.001057 -480768.000000 0 0 1
-26.271568 -13.160923 26.717051 39.714052 0.464413 0.832897 0.017166 -0.003174 135381.000000 0 0 1
-25.273808 -12.585223 27.581141 39.469894 0.462010 0.797093 0.015931 -0.003456 426929.000000 0 0 1
-25.585698 -11.402623 28.344621 39.850537 0.419242 0.779488 0.015783 -0.010630 -698227.000000 0 0 1
-25.593698 -10.105623 27.405801 38.836051 0.376057 0.787415 0.013636 -0.001075 1126370.000000 0 0 1
-24.277658 -9.711823 26.924791 37.532233 0.380533 0.770765 0.020505 0.003482 1068410.000000 0 0 1
-23.716458 -10.315223 25.747921 36.494241 0.410259 0.787620 0.019586 -0.008244 -80303.600000 0 0 1
-24.405258 -10.182923 24.370761 35.961681 0.395282 0.826184 0.028128 -0.003952 -904820.000000 0 0 1
-25.519488 -11.002723 24.283761 36.905355 0.407068 0.852635 0.022886 -0.002901 -380205.000000 0 0 1
-26.240848 -10.723323 23.068611 36.547675 0.387941 0.887707 0.033463 0.001173 -689897.000000 0 0 1
-27.551808 -11.484623 22.907011 37.626185 0.394937 0.916243 0.037669 -0.008025 58014.100000 0 0 1
-28.688618 -10.933823 23.589311 38.717449 0.364126 0.915659 0.031082 -0.009512 277622.000000 0 0 1
-28.736968 -10.776823 25.008111 39.589883 0.358785 0.887079 0.021799 -0.004620 -1174460.000000 0 0 1
-30.156208 -10.642523 25.561271 40.939452 0.339268 0.896475 0.005105 -0.001740 -429671.000000 0 0 1
-30.772798 -9.395623 25.035931 40.768133 0.296332 0.909544 0.012565 -0.002809 1545690.000000 0 0 1
-32.190238 -9.231623 25.332571 41.990159 0.279288 0.923167 0.012774 -0.000432 1283770.000000 0 0 1
-32.604188 -9.058223 26.784461 43.156596 0.270990 0.901245 0.004878 0.006928 -806868.000000 0 0 1
-32.826228 -10.317323 27.410641 43.992631 0.304525 0.898130 0.002574 -0.005634 107170.000000 0 0 1
-33.110368 -10.114723 28.762521 45.009851 0.296481 0.877563 0.003253 -0.007029 -1346560.000000 0 0 1
-33.509548 -11.436323 29.499291 46.085653 0.328890 0.876172 0.014145 -0.006846 818349.000000 0 0 1
-34.744601 -12.011323 29.022221 46.837469 0.332842 0.902516 -0.002685 -0.006041 1984250.000000 0 0 1
35.197294 -11.179723 29.247271 47.108795 -0.307552 0.900976 0.012248 -0.010796 -192424.000000 0 0 1
33.911409 -11.867623 28.785911 46.037515 -0.336639 0.895318 0.011844 -0.009125 -215878.000000 0 0 1
33.808009 -11.710323 27.391391 45.059976 -0.333444 0.917399 0.015035 -0.005678 -256529.000000 0 0 1
32.683029 -12.370423 26.846451 44.067445 -0.361833 0.915729 0.022985 -0.007922 -193309.000000 0 0 1
32.453799 -11.901223 25.370181 42.878133 -0.351485 0.937654 0.027488 -0.011751 133921.000000 0 0 1
31.949889 -10.547123 25.232911 42.056355 -0.318851 0.927322 0.036235 -0.021292 210595.000000 0 0 1
31.971689 -10.161523 23.881131 41.179532 -0.307732 0.952157 0.027954 -0.019023 -441137.000000 0 0 1
31.583539 -8.659723 23.579611 40.354786 -0.267608 0.946770 0.023678 0.001930 -1051180.000000 0 0 1
30.227719 -8.475223 23.722581 39.348510 -0.273360 0.923686 0.039414 -0.005872 -1104470.000000 0 0 1
29.838019 -7.119723 23.547211 38.671294 -0.234233 0.916115 0.039829 0.003214 -912315.000000 0 0 1
28.363549 -6.950223 23.282011 37.347671 -0.240306 0.897731 0.043738 0.007514 -1010570.000000 0 0 1
28.064979 -7.448423 22.022611 36.443346 -0.259419 0.921913 0.030181 0.012279 -597123.000000 0 0 1
26.688569 -7.336023 21.819611 35.244750 -0.268250 0.903215 0.034366 -0.007723 -561387.000000 0 0 1
14.218642 -17.042223 26.523631 34.584825 -0.875477 0.696776 0.028015 -0.003036 222471.000000 0 0 1
13.509642 -18.214123 26.231181 34.674768 -0.932620 0.712864 0.008576 0.007782 984256.000000 0 0 1
14.505342 -19.281623 26.284401 35.679905 -0.925832 0.742660 0.029941 0.000591 238385.000000 0 0 1
14.057842 -20.809623 26.170641 36.270729 -0.976672 0.764778 0.018273 -0.008181 -21196.500000 0 0 1
13.329842 -21.343223 27.252121 37.093071 -1.012523 0.745578 0.014630 -0.006624 187870.000000 0 0 1
12.005242 -20.855923 27.345001 36.425876 -1.048491 0.721671 0.016808 0.000458 -420688.000000 0 0 1
11.299542 -21.196223 28.709221 37.432324 -1.081027 0.696701 0.013794 0.005074 10627.300000 0 0 1
11.789542 -20.476523 29.825421 38.050453 -1.048392 0.669972 0.015191 0.001122 -378101.000000 0 0 1
10.918142 -19.509223 30.307161 37.660850 -1.060582 0.635560 0.017263 0.002709 -312150.000000 0 0 1
10.900942 -18.156923 29.637031 36.426062 -1.030102 0.620442 0.018742 0.004244 -174394.000000 0 0 1
12.021742 -17.392423 29.921151 36.637329 -0.965997 0.615154 0.009688 0.007402 -715986.000000 0 0 1
11.664542 -16.046423 29.650061 35.674575 -0.942228 0.589667 0.013845 0.001537 -41918.500000 0 0 1
12.609042 -14.920923 30.107891 35.890207 -0.869178 0.575558 0.022811 -0.006127 -79981.700000 0 0 1
12.308342 -13.723323 29.447981 34.742027 -0.839701 0.559316 0.038456 -0.004047 127347.000000 0 0 1
12.940042 -12.566123 30.004651 35.009016 -0.770739 0.541270 0.047652 -0.005613 19446.700000 0 0 1
12.371342 -11.194923 29.448911 33.846931 -0.735520 0.515469 0.048586 -0.005855 70712.000000 0 0 1
12.565442 -10.943623 28.064531 32.638491 -0.716520 0.535801 0.050060 -0.009740 -153280.000000 0 0 1
13.927242 -10.821923 27.721761 32.856934 -0.660579 0.566637 0.060380 -0.009702 -443058.000000 0 0 1
14.347342 -9.625223 26.977121 32.035233 -0.590908 0.569617 0.054006 -0.010243 -252595.000000 0 0 1
14.475342 -8.365223 27.510541 32.192271 -0.524007 0.546075 0.046361 -0.013394 397598.000000 0 0 1
15.752242 -8.010923 28.031661 33.137321 -0.470470 0.562501 0.059945 -0.020679 -52779.100000 0 0 1
16.139842 -6.483123 27.933351 32.905888 -0.381958 0.556922 0.048907 -0.026235 -63498.900000 0 0 1
17.538942 -6.315323 27.954071 33.599522 -0.345621 0.588132 0.052967 -0.028177 63677.900000 0 0 1
17.977142 -4.973423 27.731811 33.421040 -0.269902 0.592099 0.042406 -0.022431 643291.000000 0 0 1
19.518442 -4.909723 27.479301 34.061517 -0.246430 0.632157 0.046573 -0.023614 -282509.000000 0 0 1
19.872042 -5.601423 26.253061 33.399060 -0.274746 0.666417 0.048650 -0.021192 -39345.700000 0 0 1
21.165442 -5.455123 25.734821 33.764113 -0.252247 0.704100 0.038222 -0.010086 -653041.000000 0 0 1
22.371442 -5.817923 26.574161 35.220955 -0.254424 0.715907 0.042128 -0.018039 -1256190.000000 0 0 1
22.766842 -4.731123 27.396381 35.934305 -0.204891 0.703780 0.046139 -0.021159 311031.000000 0 0 1
23.647642 -5.085623 28.482581 37.367525 -0.211832 0.704048 0.052815 -0.028320 104581.000000 0 0 1
24.141742 -3.839723 29.198721 38.080605 -0.157728 0.697016 0.054151 -0.025780 381148.000000 0 0 1
25.143842 -3.076123 28.493661 38.125635 -0.121736 0.726713 0.059294 -0.018656 485839.000000 0 0 1
25.096842 -1.729523 28.984231 38.378749 -0.068805 0.714813 0.061706 -0.024684 -518603.000000 0 0 1
26.023242 -0.781223 28.211171 38.388665 -0.030011 0.745302 0.070019 -0.022582 794791.000000 0 0 1
27.415242 -1.108523 28.343201 39.448211 -0.040413 0.769165 0.068416 -0.024045 342118.000000 0 0 1
28.164342 -0.407323 27.383911 39.284535 -0.014461 0.799499 0.061611 -0.010202 200055.000000 0 0 1
29.689742 -0.684523 27.458941 40.446790 -0.023052 0.824546 0.052343 -0.019832 185107.000000 0 0 1
30.264442 0.054477 28.491481 41.565658 0.001800 0.815565 0.040879 -0.017986 221852.000000 0 0 1
31.675642 -0.071423 28.612331 42.685090 -0.002255 0.836167 0.048769 -0.020308 672861.000000 0 0 1
32.278842 1.004977 29.619861 43.820883 0.031124 0.828570 0.044308 -0.023107 -145944.000000 0 0 1
32.184642 2.318677 29.102601 43.453295 0.071919 0.836932 0.038825 -0.016401 161039.000000 0 0 1
32.594542 3.308477 29.988341 44.414533 0.101158 0.829571 0.043610 -0.013433 -331976.000000 0 0 1
32.610442 4.739877 29.319871 44.108528 0.144338 0.843676 0.028931 -0.011485 -60401.400000 0 0 1
32.556542 5.902377 30.102031 44.731407 0.179348 0.832606 0.032678 -0.006306 1029850.000000 0 0 1
31.226342 6.247677 30.544041 44.125461 0.197470 0.806251 0.038701 -0.007236 744181.000000 0 0 1
31.260742 7.345177 31.600581 45.053106 0.230779 0.793426 0.032738 -0.006609 39514.900000 0 0 1
31.820742 6.832677 32.808451 46.212980 0.211512 0.781383 0.029106 -0.000976 217614.000000 0 0 1
31.819042 7.886977 33.755722 47.054273 0.242973 0.770764 0.028702 -0.000665 -290724.000000 0 0 1
32.067042 7.460777 -33.496202 46.967584 0.228595 2.364816 0.039138 0.002526 -73364.200000 0 0 1
31.046542 6.632677 -32.964042 45.765798 0.210473 2.374998 0.036123 -0.003620 -21174.200000 0 0 1
31.052042 5.239277 -33.288002 45.823252 0.167151 2.383929 0.045768 -0.003542 -437595.000000 0 0 1
32.084742 4.334777 -32.612232 45.954093 0.134291 2.359826 0.036982 -0.011298 -244380.000000 0 0 1
31.958942 2.993077 -32.995282 46.032827 0.093381 2.369966 0.045900 -0.018298 35398.400000 0 0 1
31.970142 2.195477 -31.812662 45.154796 0.068565 2.352549 0.026346 -0.006101 -222291.000000 0 0 1
32.111642 0.663877 -32.114412 45.419531 0.020671 2.356131 0.034322 -0.005968 563803.000000 0 0 1
33.375442 0.412877 -32.768052 46.774308 0.012370 2.346974 0.035243 0.000839 865944.000000 0 0 1
33.930142 -0.880723 -32.545182 47.023602 -0.025951 2.335195 0.033206 -0.001593 444462.000000 0 0 1
34.571642 -1.249523 -31.182572 46.573732 -0.036127 2.304374 0.028394 -0.005324 -407550.000000 0 0 1
33.633342 -1.274523 -30.133862 45.176053 -0.037876 2.301014 0.024884 -0.004037 -277259.000000 0 0 1
34.153742 -1.528523 -28.853252 44.736167 -0.044724 2.271774 0.032048 -0.005925 -519390.000000 0 0 1
33.178542 -1.190023 -27.750452 43.270306 -0.035852 2.267024 0.036487 -0.005160 -402356.000000 0 0 1
33.341842 0.158177 -27.474412 43.203551 0.004744 2.260009 0.023631 -0.001665 415780.000000 0 0 1
32.516842 0.585177 -26.402882 41.890329 0.017994 2.252718 0.014342 0.002640 -320560.000000 0 0 1
32.201342 2.081477 -26.523822 41.770470 0.064550 2.258792 0.010236 0.002825 186387.000000 0 0 1
31.286842 2.385977 -27.588722 41.781539 0.076114 2.292026 0.016526 -0.008380 698072.000000 0 0 1
30.669042 3.658577 -27.495052 41.351581 0.118731 2.298169 0.001773 0.003116 -216899.000000 0 0 1
29.706742 3.882077 -28.641972 41.447842 0.129944 2.333718 0.017826 -0.001942 -88784.800000 0 0 1
28.844842 5.029877 -28.493552 40.855931 0.172641 2.342581 0.016457 -0.004485 650512.000000 0 0 1
27.798742 5.027777 -29.442012 40.802950 0.178929 2.376858 0.019783 -0.005314 -566063.000000 0 0 1
26.678542 5.983877 -29.078502 39.913791 0.220644 2.386974 0.012260 -0.009112 -755904.000000 0 0 1
25.675542 5.343077 -28.331892 38.606710 0.205172 2.394782 0.021233 -0.010241 41788.700000 0 0 1
24.796642 6.271977 -27.695742 37.699672 0.247741 2.395934 0.024029 -0.013541 -447597.000000 0 0 1
23.516142 5.555677 -27.266032 36.432280 0.231996 2.416447 0.035129 -0.010373 -1025610.000000 0 0 1
22.744742 5.327077 -28.392412 36.767242 0.230064 2.453125 0.036743 -0.006360 -363977.000000 0 0 1
21.525042 4.695377 -28.072052 35.684929 0.214771 2.476183 0.033538 -0.001644 -259931.000000 0 0 1
20.651542 4.463077 -29.337952 36.154124 0.212840 2.517458 0.024824 0.004807 -152447.000000 0 0 1
21.053742 3.243477 -29.955692 36.757635 0.152855 2.523442 0.029265 -0.000878 -36602.400000 0 0 1
20.389642 2.858877 -31.107082 37.303636 0.139304 2.556913 0.013728 -0.003848 -432832.000000 0 0 1
20.551142 3.585677 -32.444312 38.572528 0.172737 2.570156 0.033652 0.001054 490431.000000 0 0 1
21.806842 3.280477 -33.064172 39.743419 0.149314 2.553393 0.018929 -0.001798 350181.000000 0 0 1
21.890742 3.766077 34.333148 40.891967 0.170372 0.574239 0.030792 -0.000154 -533472.000000 0 0 1
23.034842 3.205377 33.501468 40.782677 0.138266 0.606824 0.043203 0.006400 -232861.000000 0 0 1
23.134242 1.785577 33.415289 40.681236 0.077031 0.606947 0.049707 -0.013351 -227354.000000 0 0 1
24.408842 1.425077 32.941170 41.023689 0.058317 0.638519 0.050348 -0.020329 -349859.000000 0 0 1
24.523642 -0.063223 32.597251 40.792080 -0.002578 0.644987 0.043975 -0.016217 -527843.000000 0 0 1
23.926742 -0.481723 31.403801 39.483158 -0.020131 0.651175 0.052008 -0.022244 712943.000000 0 0 1
22.513942 -0.665223 31.252281 38.523047 -0.029539 0.624489 0.053806 -0.028472 693306.000000 0 0 1
21.808142 -1.709623 32.193391 38.922131 -0.078234 0.596827 0.047444 -0.031765 -584193.000000 0 0 1
22.270542 -2.990923 31.960511 39.069130 -0.133501 0.612784 0.032633 -0.032000 143146.000000 0 0 1
21.957542 -3.844723 33.031151 39.849372 -0.173341 0.593658 0.039827 -0.031533 -169484.000000 0 0 1
21.981642 -5.364823 32.695428 39.761349 -0.239380 0.605370 0.039667 -0.019241 -504093.000000 0 0 1
23.281142 -5.853823 32.655601 40.529830 -0.246334 0.633910 0.022001 -0.013216 -664235.000000 0 0 1
23.210842 -7.230723 32.367771 40.480849 -0.301995 0.644197 0.046906 -0.018016 -134530.000000 0 0 1
24.553542 -7.793323 31.877061 40.984867 -0.307344 0.679676 0.022660 -0.016783 36068.100000 0 0 1
24.959942 -7.405923 30.550511 40.139508 -0.288438 0.705776 0.040000 -0.015582 -1015480.000000 0 0 1
26.189842 -7.938123 30.231981 40.778601 -0.294298 0.735689 0.018186 -0.000933 -658561.000000 0 0 1
26.453742 -7.524923 28.738881 39.778741 -0.277136 0.763431 0.027173 -0.012017 -337998.000000 0 0 1
25.782442 -8.271323 27.773271 38.787932 -0.310440 0.772700 0.025146 -0.011215 -453560.000000 0 0 1
26.074742 -7.914823 26.466721 37.987154 -0.294705 0.799970 0.036130 -0.005503 -245521.000000 0 0 1
25.287642 -8.713523 25.414181 36.895405 -0.331835 0.810940 0.023969 -0.003978 45296.800000 0 0 1
23.916042 -8.368823 25.342231 35.836335 -0.336608 0.785315 0.027081 -0.006775 -63335.200000 0 0 1
23.246442 -9.203623 24.435071 34.959640 -0.376980 0.796867 0.044501 -0.014353 966434.000000 0 0 1
21.747042 -8.765523 24.148651 33.658960 -0.383148 0.770660 0.028808 -0.011843 693148.000000 0 0 1
20.918442 -9.093623 25.207151 33.995230 -0.410073 0.735507 0.034895 -0.008991 -245335.000000 0 0 1
19.584042 -8.826223 24.793921 32.805113 -0.423423 0.713930 0.046181 -0.010290 54891.400000 0 0 1
18.491042 -8.827223 25.850591 32.986233 -0.445387 0.670231 0.049124 -0.020842 -640236.000000 0 0 1
18.016142 -10.060623 26.382141 33.493505 -0.509287 0.663763 0.056056 -0.021824 228102.000000 0 0 1
18.877842 -10.862223 27.176981 34.827419 -0.522131 0.675598 0.055069 -0.015927 129471.000000 0 0 1
18.006142 -11.872023 27.969721 35.319561 -0.582907 0.656875 0.057087 -0.014678 487074.000000 0 0 1
17.086342 -12.654523 27.227401 34.545787 -0.637472 0.662992 0.051342 -0.013746 339874.000000 0 0 1
16.401942 -13.634823 28.014531 35.210027 -0.693533 0.650732 0.059760 -0.009221 43249.400000 0 0 1
17.183742 -14.900323 28.456941 36.429357 -0.714348 0.674284 0.062184 -0.003483 -40204.200000 0 0 1
16.296242 -15.822123 29.111911 36.924388 -0.770638 0.662561 0.055168 -0.002712 516444.000000 0 0 1
16.932842 -16.937423 29.766941 38.205604 -0.785533 0.677528 0.056063 -0.001851 -59968.100000 0 0 1
17.380742 -18.091523 28.818121 38.208343 -0.805433 0.716306 0.047599 0.002948 -38955.500000 0 0 1
18.406142 -17.699823 27.932531 37.845688 -0.765838 0.740600 0.051378 -0.002807 172378.000000 0 0 1
18.670542 -18.764223 27.069911 37.861131 -0.787901 0.774202 0.036694 0.005807 46248.000000 0 0 1
19.746342 -18.585423 25.972511 37.548732 -0.755121 0.806954 0.042558 -0.007022 -870419.000000 0 0 1
21.027842 -18.308323 26.394611 38.393232 -0.716373 0.812782 0.048437 -0.009637 -830526.000000 0 0 1
21.809642 -17.634823 25.399471 37.838877 -0.679950 0.834898 0.035714 -0.009907 945861.000000 0 0 1
23.248642 -17.441423 26.002011 38.997527 -0.643637 0.840943 0.037599 -0.019777 559934.000000 0 0 1
23.958942 -18.635023 26.207371 40.101387 -0.661051 0.858560 0.035497 -0.024685 178778.000000 0 0 1
25.369442 -18.496523 26.234791 40.914474 -0.629982 0.874722 0.029471 -0.023092 481631.000000 0 0 1
26.031142 -19.939823 26.471581 42.142158 -0.653662 0.891623 0.011144 -0.012585 114705.000000 0 0 1
25.885542 -20.446123 27.784131 43.128449 -0.668531 0.870796 0.016526 -0.006304 -387415.000000 0 0 1
26.727742 -21.518223 28.064471 44.328553 -0.677837 0.885243 0.012082 -0.004773 111489.000000 0 0 1
26.062242 -22.620723 29.022311 45.091375 -0.714823 0.871560 0.015655 0.004097 252852.000000 0 0 1
25.817542 -22.117623 30.316191 45.550040 -0.708365 0.842555 0.028396 -0.001332 -90994.000000 0 0 1
25.245142 -23.164623 31.073941 46.254802 -0.742447 0.834161 0.042592 0.005120 -567925.000000 0 0 1
24.883642 -22.889523 32.537581 46.923555 -0.743681 0.804576 0.034389 -0.004875 -99010.300000 0 0 1
24.275642 -24.001623 33.131487 47.571842 -0.779722 0.800356 0.029346 -0.006521 -80753.000000 0 0 1
24.046342 -23.768023 -34.261930 48.135489 -0.779577 2.362827 0.040326 -0.004765 -416360.000000 0 0 1
23.739842 -25.055333 -33.459962 48.072017 -0.812351 2.340661 0.028770 -0.004213 725652.000000 0 0 1
22.514142 -25.763903 -33.664982 47.999961 -0.852610 2.348092 0.047447 -0.014704 152780.000000 0 0 1
22.147042 -26.111343 33.758849 48.082778 -0.867362 0.792456 0.044573 -0.019529 699546.000000 0 0 1
20.811542 -26.969483 33.677646 47.902580 -0.913570 0.791127 0.048954 -0.025292 1218260.000000 0 0 1
21.068642 -28.351753 33.796407 48.886672 -0.931716 0.807480 0.041427 -0.017853 -432605.000000 0 0 1
19.880042 -29.053973 33.748854 48.768172 -0.970722 0.806504 0.056814 -0.016714 -267424.000000 0 0 1
20.252742 -30.575903 34.034189 50.033842 -0.985770 0.822729 0.044829 -0.015627 203985.000000 0 0 1
20.688342 -30.911733 -33.455982 50.028446 -0.980993 2.303308 0.032595 -0.021024 552828.000000 0 0 1
21.606842 -32.048133 -33.526522 51.166064 -0.977597 2.285309 0.014798 -0.004978 443081.000000 0 0 1
22.203242 -32.430933 -32.188572 50.802102 -0.970459 2.257003 0.015049 -0.003025 -471988.000000 0 0 1
23.099042 -33.536313 -32.243872 51.941480 -0.967642 2.240525 0.002466 0.002254 437679.000000 0 0 1
23.666542 -33.968663 -31.008242 51.725104 -0.962277 2.213649 -0.003394 0.011462 351126.000000 0 0 1
24.843142 -33.206833 -30.359622 51.396324 -0.928491 2.202718 -0.001661 0.003566 -418517.000000 0 0 1
25.293042 -33.726553 -29.138912 51.247386 -0.927331 2.175591 0.008204 0.005711 1652.070000 0 0 1
26.050542 -32.669803 -28.524812 50.592605 -0.897649 2.169793 0.010178 0.008504 4820.670000 0 0 1
26.422542 -32.694073 -27.040932 49.982648 -0.891090 2.142430 0.016915 0.010177 435789.000000 0 0 1
27.345042 -33.764513 -26.745802 51.020893 -0.890063 2.122587 0.016711 0.017171 203671.000000 0 0 1
28.081442 -33.328813 -25.617222 50.553133 -0.870639 2.102194 0.022692 0.010050 118047.000000 0 0 1
-26.661748 -30.987532 9.096128 41.878581 0.860294 1.351849 0.038468 -0.013643 -39665.600000 0 0 1
-26.641598 -32.216732 9.843328 42.948617 0.879838 1.339552 0.039438 -0.021435 614029.000000 0 0 1
-25.495168 -32.264632 10.721328 42.496552 0.902066 1.315753 0.029117 -0.022936 873312.000000 0 0 1
-25.385398 -33.560632 11.612528 43.653010 0.923209 1.301536 0.025724 -0.017035 131400.000000 0 0 1
-25.292858 34.122377 10.885128 43.846908 -0.932925 1.319920 0.032047 -0.010433 -103462.000000 0 0 1
-25.800018 32.980377 11.576128 43.443676 -0.906952 1.301075 0.027112 -0.011754 81658.700000 0 0 1
-25.677858 31.676977 10.839128 42.193246 -0.889616 1.310991 0.031490 -0.009959 460531.000000 0 0 1
-26.603998 31.443977 9.758928 42.328868 -0.868585 1.338153 0.034846 -0.019821 199651.000000 0 0 1
-26.348348 30.272877 9.044828 41.139901 -0.854599 1.349130 0.036836 -0.018495 -173835.000000 0 0 1
-25.293538 30.275277 7.912928 40.236425 -0.874809 1.372845 0.033488 -0.006552 297661.000000 0 0 1
-23.973758 29.954977 8.347628 39.264801 -0.895856 1.356563 0.021297 -0.007742 -237396.000000 0 0 1
-23.340358 29.587577 7.210628 38.369131 -0.902887 1.381744 0.004489 -0.002023 -946381.000000 0 0 1
-22.025958 28.833877 7.315528 37.014217 -0.918464 1.371845 0.047040 0.006074 -493128.000000 0 0 1
-22.242458 27.438577 7.500428 36.108986 -0.889609 1.361556 0.034933 -0.005974 554137.000000 0 0 1
-22.835958 26.700977 6.387828 35.710328 -0.863263 1.390949 0.019427 -0.008727 -252298.000000 0 0 1
-23.104958 25.230877 6.655428 34.852991 -0.829352 1.378659 0.025153 0.000676 -859806.000000 0 0 1
-24.229158 24.871877 7.391228 35.500600 -0.798487 1.361062 0.025751 -0.002583 -161793.000000 0 0 1
-24.343558 23.433977 7.544828 34.622024 -0.766363 1.351114 0.022907 -0.010622 -27935.800000 0 0 1
-24.829758 22.630777 6.301428 34.181529 -0.739098 1.385384 0.019733 -0.016312 -633734.000000 0 0 1
-26.209618 22.774977 6.042928 35.244299 -0.715396 1.398487 0.025021 -0.015068 206925.000000 0 0 1
-26.626888 22.441377 4.678128 35.135331 -0.700304 1.437254 0.024267 -0.016591 153857.000000 0 0 1
-26.413568 23.572677 3.597928 35.585008 -0.728626 1.469515 0.016129 -0.013660 -1185690.000000 0 0 1
-25.080488 23.909077 3.478328 34.824899 -0.761491 1.470749 0.011524 -0.011111 -710939.000000 0 0 1
-24.870558 24.803777 2.385328 35.205991 -0.784054 1.502991 0.009321 -0.002990 341675.000000 0 0 1
-23.444658 25.425777 2.335528 34.663768 -0.825914 1.503369 0.020737 -0.000019 321893.000000 0 0 1
-23.160258 26.087677 1.157328 34.904210 -0.844771 1.537633 0.010572 -0.005309 256487.000000 0 0 1
-21.827458 26.609977 1.250928 34.439710 -0.883815 1.534466 0.022944 -0.006444 211338.000000 0 0 1
-21.353158 27.290477 -0.076572 34.651600 -0.906855 1.573006 0.030334 -0.004411 66273.400000 0 0 1
-21.039758 26.412677 -1.181972 33.789022 -0.898145 1.605784 0.021838 0.005630 889322.000000 0 0 1
-19.890858 25.548377 -1.007172 32.394139 -0.909268 1.601893 0.030591 -0.002164 327613.000000 0 0 1
-19.568658 24.650277 -2.208272 31.550674 -0.899816 1.640845 0.030022 -0.013130 786417.000000 0 0 1
-20.729858 23.893677 -2.650572 31.743666 -0.856180 1.654393 0.006490 -0.013309 1116040.000000 0 0 1
-20.293158 22.901077 -3.589672 30.808397 -0.845702 1.687578 0.003957 -0.010496 -134216.000000 0 0 1
-21.484558 22.439277 -4.419572 31.378974 -0.807131 1.712111 0.008366 -0.008433 -91155.100000 0 0 1
-21.819658 23.286277 -5.506172 32.383115 -0.817902 1.741659 -0.002526 0.000102 -69824.000000 0 0 1
-22.932858 22.773377 -6.204472 32.909545 -0.781909 1.760463 -0.008909 0.014738 47326.500000 0 0 1
-23.077558 23.474877 -7.572072 33.778393 -0.793933 1.796887 -0.006377 0.007903 268947.000000 0 0 1
-22.113758 22.948877 -8.474572 32.977077 -0.803928 1.830696 -0.011723 0.006352 220872.000000 0 0 1
-22.026658 23.674477 -9.666172 33.750399 -0.821439 1.861265 -0.002938 -0.001008 89944.300000 0 0 1
-21.350558 22.878577 -10.817972 33.110484 -0.819932 1.903631 0.003218 -0.001938 17909.700000 0 0 1
-22.317558 22.193777 -11.609672 33.547304 -0.782617 1.924174 -0.010803 -0.000405 80630.700000 0 0 1
-21.720558 21.580977 -12.707272 33.151108 -0.782175 1.964178 -0.016092 0.002885 -144986.000000 0 0 1
-22.714358 21.086377 -13.756472 33.908965 -0.748247 1.988528 -0.024014 -0.007147 -72176.900000 0 0 1
-23.597958 20.017977 -13.503972 33.763002 -0.703502 1.982273 -0.019080 0.007616 -128664.000000 0 0 1
-24.594858 20.010377 -14.480472 34.856941 -0.682979 1.999207 0.000494 -0.005314 -274609.000000 0 0 1
-25.177648 18.593277 -14.827072 34.633307 -0.636090 2.013203 0.046505 -0.008817 -93832.100000 0 0 1
-24.377758 17.757977 -15.589972 33.950966 -0.629566 2.047880 0.035655 -0.015295 -56098.100000 0 0 1
-25.187128 16.652277 -15.905272 34.127224 -0.584168 2.055627 0.058951 -0.029407 -219385.000000 0 0 1
-24.746458 15.825677 -17.098972 33.988441 -0.568968 2.097958 0.069372 -0.019424 205477.000000 0 0 1
-23.563858 15.099977 -16.793372 32.638659 -0.569888 2.111249 0.063773 -0.017705 357973.000000 0 0 1
-23.162158 14.253877 -17.874772 32.544832 -0.551663 2.152245 0.070179 -0.025023 -90439.500000 0 0 1
-22.386958 12.941277 -17.583072 31.270065 -0.524140 2.167958 0.068739 -0.014264 -3811.210000 0 0 1
-21.128158 13.286877 -17.042772 30.222446 -0.561378 2.169910 0.063049 -0.022297 -120186.000000 0 0 1
-20.393458 12.076777 -16.867772 29.090607 -0.534656 2.189323 0.056348 -0.027139 162364.000000 0 0 1
-19.165758 12.345777 -15.940172 27.817864 -0.572257 2.180982 0.041432 -0.020411 111580.000000 0 0 1
-18.213258 13.240177 -16.470972 27.898351 -0.628587 2.202341 0.034337 -0.015027 92502.000000 0 0 1
-17.322358 13.709277 -15.469572 26.968797 -0.669488 2.181703 0.024685 0.001951 -283724.000000 0 0 1
-16.444158 14.812877 -16.034872 27.330364 -0.733256 2.197781 -0.002702 0.007875 -890104.000000 0 0 1
-15.672358 14.440177 -17.140772 27.348631 -0.744502 2.248173 0.008805 -0.003202 67772.400000 0 0 1
-14.911958 15.607177 -17.494772 27.785203 -0.808174 2.251891 0.000549 0.006918 383576.000000 0 0 1
-13.909858 15.341477 -18.677472 27.887148 -0.834301 2.304671 0.002756 0.002621 604620.000000 0 0 1
-12.954958 14.310777 -18.467072 26.714454 -0.835083 2.334050 0.005186 0.000366 -395720.000000 0 0 1
-12.011958 14.351577 -19.471672 27.007423 -0.873911 2.376004 0.008335 0.000730 -85840.500000 0 0 1
-11.115158 13.091677 -19.577872 26.042884 -0.866869 2.421516 0.008775 -0.008602 -45768.400000 0 0 1
-11.832958 12.031877 -20.054572 26.210128 -0.793733 2.442064 0.019707 -0.004154 -166488.000000 0 0 1
-11.007458 10.875577 -19.958072 25.254048 -0.779372 2.482082 0.011913 0.004124 -91096.000000 0 0 1
-11.371458 9.654177 -20.815172 25.608291 -0.703904 2.519789 0.020383 -0.001094 -150615.000000 0 0 1
-10.897658 9.768677 -22.147072 26.545787 -0.730823 2.557653 0.026330 0.000930 123811.000000 0 0 1
-11.455558 8.771577 -22.990172 27.142557 -0.653477 2.581142 0.023809 0.006506 -60862.100000 0 0 1
-11.103358 9.031777 -24.460672 28.340467 -0.682875 2.612173 0.031199 -0.005052 446846.000000 0 0 1
-9.700158 8.939777 -24.792072 28.083083 -0.744628 2.652611 0.033029 0.000839 743296.000000 0 0 1
-9.495958 8.253977 -26.036952 28.917542 -0.715541 2.691452 0.021471 -0.006764 -542158.000000 0 0 1
-9.268358 9.149177 -27.337832 30.281463 -0.778927 2.697012 0.045102 -0.003743 -16404.100000 0 0 1
-8.031158 9.770877 -27.626382 30.383985 -0.882815 2.712255 0.032483 -0.003030 74513.400000 0 0 1
-7.671158 10.742377 -26.732552 29.814001 -0.950668 2.682927 0.020851 0.000016 219262.000000 0 0 1
-6.238358 11.338277 -26.954782 29.900400 -1.067797 2.693986 0.016259 -0.001781 390236.000000 0 0 1
-6.125658 12.309177 -27.994092 31.188279 -1.109031 2.685054 0.022767 -0.009278 -9334.800000 0 0 1
-4.815058 12.818377 -27.921632 31.098442 -1.211467 2.685651 0.030924 -0.005006 2325.300000 0 0 1
-4.027558 12.682277 -29.259772 32.143361 -1.263296 2.714780 0.037322 -0.008481 997346.000000 0 0 1
-2.633858 13.049577 -29.256142 32.142659 -1.371637 2.714555 0.039415 -0.012655 839606.000000 0 0 1
-2.094358 12.719277 -30.521482 33.131967 -1.407601 2.741974 0.037255 -0.009847 801401.000000 0 0 1
-0.541858 12.505077 -30.514252 32.981664 -1.527492 2.752328 0.037536 -0.014102 381502.000000 0 0 1
-0.191058 11.375277 -29.756592 31.857310 -1.554002 2.776410 0.031616 0.001777 -120643.000000 0 0 1
1.195642 11.128177 -29.748662 31.784411 1.463764 2.781747 0.039094 0.001616 277716.000000 0 0 1
1.883242 10.394477 -30.949292 32.702453 1.391563 2.812669 0.040430 -0.002997 -184634.000000 0 0 1
1.882042 11.201177 -32.125722 34.074484 1.404329 2.801755 0.037023 -0.010100 178114.000000 0 0 1
2.111742 10.463777 -33.300802 34.969894 1.371657 2.831386 0.034100 -0.010076 -66211.800000 0 0 1
1.918742 11.343677 34.182325 36.066493 1.403236 0.324662 0.041785 -0.014576 299078.000000 0 0 1
3.081742 12.098777 33.850034 36.079112 1.321385 0.353355 0.035912 -0.017486 299821.000000 0 0 1
2.843842 12.931777 32.739408 35.315537 1.354331 0.384319 0.039521 -0.013915 1251190.000000 0 0 1
4.273442 13.323577 32.160191 35.072181 1.260420 0.410374 0.044826 -0.005437 1152230.000000 0 0 1
4.930542 12.195577 31.692491 34.314084 1.186598 0.393429 0.037452 -0.012495 -530880.000000 0 0 1
6.311442 12.412577 31.563821 34.499002 1.100394 0.415487 0.048656 0.002852 -137117.000000 0 0 1
7.093942 11.182177 31.075941 33.779864 1.005468 0.402832 0.047943 0.004069 -17404.400000 0 0 1
6.956442 10.879377 29.680611 32.368064 1.001898 0.410373 0.042616 -0.008440 109987.000000 0 0 1
7.864042 9.878877 29.257021 31.865477 0.898471 0.407432 0.042366 -0.008807 155876.000000 0 0 1
7.229542 9.021277 28.127801 30.410901 0.895210 0.389958 0.042621 -0.006520 235585.000000 0 0 1
6.209042 8.175777 28.627271 30.412435 0.921279 0.344331 0.049049 -0.016612 -194467.000000 0 0 1
5.705442 7.394977 27.583951 29.122364 0.913658 0.326489 0.047173 -0.017385 247508.000000 0 0 1
4.742342 6.235477 28.071891 29.144503 0.920582 0.272144 0.056557 -0.025351 376417.000000 0 0 1
5.473842 5.297577 28.804731 29.794963 0.769036 0.258537 0.056913 -0.024514 -482884.000000 0 0 1
4.640142 4.491177 29.531371 30.229182 0.769086 0.215283 0.059613 -0.022899 -1110020.000000 0 0 1
5.304642 3.431177 30.389351 31.039086 0.574140 0.204969 0.059989 -0.022472 -224596.000000 0 0 1
5.619242 2.141177 29.871101 30.470366 0.364059 0.198655 0.059255 -0.018011 -69238.300000 0 0 1
6.658042 2.151977 28.921151 29.755562 0.312616 0.237378 0.064259 -0.015031 -491574.000000 0 0 1
6.745342 0.821177 28.136771 28.945671 0.121144 0.236967 0.055070 -0.017983 38640.000000 0 0 1
7.332642 -0.266523 28.852881 29.771251 -0.036331 0.249028 0.021671 0.000273 163807.000000 0 0 1
7.371842 -1.423223 28.020041 29.008487 -0.190716 0.261800 0.034975 0.008651 -577516.000000 0 0 1
8.071942 -2.546823 28.721991 29.943201 -0.305630 0.286582 0.020369 0.021765 -395042.000000 0 0 1
9.462742 -2.407623 28.880781 30.486712 -0.249145 0.326023 0.005603 0.010483 -417978.000000 0 0 1
10.144942 -3.550823 28.501551 30.460903 -0.336683 0.360625 0.003491 0.012441 -669828.000000 0 0 1
11.645542 -3.495823 28.789461 31.251760 -0.291627 0.399615 0.000660 0.000977 -269732.000000 0 0 1
12.424842 -4.631423 28.477591 31.413372 -0.356801 0.435774 0.018767 -0.006212 260287.000000 0 0 1
12.546942 -5.627423 29.455141 32.506906 -0.421614 0.436778 0.025757 -0.006622 -309972.000000 0 0 1
11.760842 -6.967123 29.095561 32.146693 -0.534813 0.439212 0.030098 -0.001607 140319.000000 0 0 1
10.371442 -6.738323 29.024411 31.549774 -0.576164 0.402828 0.010536 0.002196 -276139.000000 0 0 1
9.785342 -7.922423 28.521041 31.176393 -0.680580 0.415714 0.020276 0.000953 311875.000000 0 0 1
8.230242 -7.897623 28.415151 30.619114 -0.764777 0.381734 0.040072 0.006403 281943.000000 0 0 1
7.647442 -7.716823 29.659201 31.586404 -0.789914 0.351125 0.043133 0.009945 120633.000000 0 0 1
6.248142 -7.549023 29.505191 31.089923 -0.879406 0.320660 0.039472 0.018175 318896.000000 0 0 1
5.436242 -6.931223 30.672241 31.912081 -0.905695 0.279664 0.036365 0.016639 37341.900000 0 0 1
5.476942 -7.737123 31.845021 33.225973 -0.954802 0.289322 0.035356 0.012055 53308.200000 0 0 1
4.997142 -7.056823 32.968170 34.083286 -0.954635 0.256505 0.030842 0.008526 16722.200000 0 0 1
5.880242 -5.918423 33.605623 34.625755 -0.788634 0.243341 0.036782 0.009687 -146010.000000 0 0 1
5.882242 -4.796623 32.796699 33.663509 -0.684086 0.227423 0.040975 0.010898 -111012.000000 0 0 1
6.549342 -3.687623 33.366098 34.202177 -0.512809 0.221565 0.027997 0.009335 -775204.000000 0 0 1
6.449642 -2.432323 32.460211 33.184023 -0.360633 0.209245 0.028960 0.004300 -173755.000000 0 0 1
5.181742 -1.844723 32.314471 32.779239 -0.342014 0.168596 0.048028 0.000384 -336768.000000 0 0 1
5.306242 -0.724023 31.510761 31.962610 -0.135610 0.168346 0.047302 -0.004480 124312.000000 0 0 1
3.984842 -0.032023 31.070761 31.325264 -0.008036 0.127558 0.058940 -0.007876 -61804.400000 0 0 1
3.305742 0.594777 32.121661 32.296792 0.178018 0.104187 0.045274 -0.004838 -239376.000000 0 0 1
2.080142 1.172177 31.704261 31.794043 0.513155 0.075169 0.036970 -0.011783 -376923.000000 0 0 1
1.055842 1.113477 32.805264 32.841132 0.811960 0.046741 0.025825 -0.011827 -574687.000000 0 0 1
1.351642 1.922677 33.959378 34.040608 0.958060 0.069097 0.027778 -0.007969 244539.000000 0 0 1
0.465442 1.476677 -33.772642 33.808114 1.265458 3.095780 0.021505 -0.019402 257682.000000 0 0 1
0.637542 2.408477 -32.553892 32.649091 1.312024 3.065209 0.029362 -0.012044 -272214.000000 0 0 1
1.875242 2.233977 -31.950802 32.083655 0.872477 3.050557 0.016551 -0.013340 -585920.000000 0 0 1
2.367442 3.391077 -31.273062 31.545342 0.961321 3.010110 0.017992 -0.007546 326333.000000 0 0 1
3.579542 3.218977 -30.308392 30.688330 0.732412 2.984073 0.014841 -0.002619 254285.000000 0 0 1
3.320742 2.484377 -29.165992 29.459371 0.642309 3.000346 0.019295 -0.005478 -138324.000000 0 0 1
4.361542 2.675077 -28.244572 28.704267 0.550165 2.962384 0.037061 -0.011789 -294705.000000 0 0 1
4.103842 2.076877 -26.856302 27.247310 0.468501 2.971977 0.032690 -0.014741 -38194.200000 0 0 1
4.085242 0.664577 -26.839512 27.156772 0.161265 2.988587 0.039008 -0.015719 65050.600000 0 0 1
3.767942 0.212077 -25.545532 25.822792 0.056225 2.994921 0.054045 -0.021722 -156467.000000 0 0 1
4.012642 -1.296323 -25.361242 25.709422 -0.312476 2.976829 0.048831 -0.023069 -170148.000000 0 0 1
5.373742 -1.460323 -25.063972 25.675131 -0.265344 2.922967 0.058623 -0.023511 -421921.000000 0 0 1
5.613842 -2.832823 -25.156362 25.930343 -0.467332 2.896651 0.063302 -0.019879 13481.300000 0 0 1
7.035742 -3.263323 -24.732672 25.920185 -0.434288 2.837723 0.066531 -0.020611 5988.660000 0 0 1
8.093242 -2.758123 -25.475722 26.872295 -0.328449 2.817780 0.067150 -0.019416 -1458050.000000 0 0 1
9.285542 -3.051323 -24.854072 26.706867 -0.317494 2.766913 0.051879 -0.017808 -786460.000000 0 0 1
-28.883258 -4.326023 18.381911 34.508719 0.148671 1.009039 0.063510 -0.012532 -933440.000000 0 0 1
-30.249418 -4.129723 18.311511 35.600468 0.135684 1.030533 0.051033 -0.002767 -1118170.000000 0 0 1
-30.925368 -5.134523 19.020911 36.667925 0.164529 1.025426 0.040099 -0.012278 854033.000000 0 0 1
-32.445588 -4.809423 19.265511 38.039540 0.147159 1.039722 0.037559 -0.012981 756967.000000 0 0 1
-33.264298 -4.911523 18.111611 38.192499 0.146592 1.076720 0.032928 -0.014028 -468351.000000 0 0 1
-34.591870 -4.814923 18.515311 39.529706 0.138304 1.083329 0.015929 -0.006499 -1189120.000000 0 0 1
35.514155 -4.991923 17.414511 39.867778 -0.139647 1.118751 0.012491 -0.011837 -257506.000000 0 0 1
34.208569 -5.139023 17.948811 38.971728 -0.149111 1.092171 0.011850 -0.005639 -304112.000000 0 0 1
33.283389 -5.228723 16.903711 37.694283 -0.155824 1.105775 0.011786 -0.003775 -347891.000000 0 0 1
31.915899 -5.730823 17.394111 36.797038 -0.177667 1.078439 0.010408 0.002713 -533706.000000 0 0 1
31.254459 -4.829123 18.290611 36.533657 -0.153298 1.046446 0.019602 -0.001044 133070.000000 0 0 1
30.061449 -5.461923 18.685311 35.814301 -0.179731 1.021922 0.024692 -0.005854 -104846.000000 0 0 1
29.431209 -4.864323 19.978611 35.902682 -0.163797 0.980670 0.032243 0.004463 265358.000000 0 0 1
28.691149 -3.625923 19.895111 35.101920 -0.125711 0.968203 0.043414 -0.007999 843240.000000 0 0 1
29.478529 -2.456923 19.601411 35.485708 -0.083154 0.985586 0.037909 -0.015553 145349.000000 0 0 1
28.613229 -1.209323 19.877611 34.861135 -0.042239 0.964054 0.059020 -0.011930 230940.000000 0 0 1
29.193959 0.076877 19.617311 35.172888 0.002633 0.979136 0.050485 -0.016550 185865.000000 0 0 1
28.212099 1.087977 19.845911 34.510381 0.038545 0.958106 0.064730 -0.020035 359657.000000 0 0 1
28.483669 2.541977 19.324911 34.514247 0.089008 0.976518 0.045370 -0.025174 -18270.700000 0 0 1
28.607529 2.543377 17.888411 33.835702 0.088673 1.013746 0.029037 -0.019224 12674.300000 0 0 1
28.225989 3.748877 17.278011 33.306009 0.132044 1.025390 0.021698 -0.017433 104868.000000 0 0 1
28.239039 3.559977 15.721711 32.515980 0.125404 1.066139 0.014530 -0.016459 -15604.700000 0 0 1
27.836379 4.752477 15.026811 31.988359 0.169099 1.081779 0.010272 -0.010592 155540.000000 0 0 1
27.598339 4.499177 13.655711 31.118955 0.161602 1.116508 0.015962 -0.007977 -502001.000000 0 0 1
26.979339 5.684177 12.943511 30.458646 0.207649 1.131886 0.019257 -0.011436 -146021.000000 0 0 1
25.871309 6.328877 13.534611 29.875827 0.239917 1.100636 0.028940 -0.013124 -24166.500000 0 0 1
25.576809 7.508277 12.856911 29.594722 0.285536 1.121388 0.048984 -0.023520 -336997.000000 0 0 1
24.367809 8.210277 13.557911 29.069154 0.324985 1.085577 0.047169 -0.029715 483244.000000 0 0 1
23.050909 7.748477 13.374511 27.753574 0.324280 1.067972 0.041725 -0.015907 485858.000000 0 0 1
22.751409 6.548677 14.007411 27.508532 0.280260 1.036539 0.049352 -0.015290 -1106330.000000 0 0 1
21.340009 5.996877 13.756111 26.088103 0.273950 1.015383 0.059820 -0.009785 -452375.000000 0 0 1
21.111109 5.627777 12.406011 25.124886 0.260521 1.054372 0.075108 -0.010859 393628.000000 0 0 1
20.046109 4.701777 12.327211 23.998194 0.230384 1.031337 0.083444 -0.009819 -322452.000000 0 1 0
19.699309 4.472877 10.924811 22.965646 0.223272 1.075034 0.082184 -0.010554 -196579.000000 0 1 0
20.701809 3.763877 10.224511 23.393852 0.179849 1.118469 0.088912 -0.016571 532779.000000 0 1 0
20.277309 3.499877 8.929011 22.430908 0.170917 1.161387 0.089700 -0.017964 273920.000000 0 1 0
21.460009 2.886477 8.113411 23.123390 0.133703 1.212291 0.077615 -0.011822 -461099.000000 0 1 0
21.909309 1.622077 8.625011 23.601690 0.073901 1.196690 0.078424 -0.006436 8210.610000 0 1 0
22.595909 0.961577 7.589911 23.855953 0.042530 1.247013 0.056529 -0.003896 315366.000000 0 1 0
24.150009 1.272877 7.560311 25.337748 0.052658 1.267800 0.041798 -0.006085 555761.000000 0 0 1
24.853409 0.682477 8.648111 26.323897 0.027453 1.236053 0.021569 0.004824 266708.000000 0 0 1
24.685109 1.399077 9.852611 26.615521 0.056616 1.191590 0.025439 -0.000007 -1088750.000000 0 0 1
25.332409 0.766477 11.081811 27.660893 0.030248 1.158591 0.015761 -0.000561 -910645.000000 0 0 1
26.711969 0.641277 11.060111 28.918274 0.024003 1.178338 0.005888 -0.002983 -724972.000000 0 0 1
27.152689 -0.045123 12.196811 29.766302 -0.001662 1.148614 0.013123 -0.011198 79970.900000 0 0 1
28.673779 -0.132723 12.453011 31.261489 -0.004629 1.161079 0.022249 -0.018673 182220.000000 0 0 1
29.261219 1.105377 12.744011 31.935100 0.037758 1.160305 0.014465 -0.008322 -170027.000000 0 0 1
30.667529 1.058577 12.752211 33.230059 0.034504 1.176937 0.019563 -0.007193 -185890.000000 0 0 1
31.355029 2.322277 13.254211 34.120447 0.073929 1.171844 0.012358 -0.004132 -561392.000000 0 0 1
31.219879 3.402877 12.303811 33.728982 0.108569 1.197395 0.010656 -0.012391 216301.000000 0 0 1
31.901449 4.572777 12.711611 34.643871 0.142371 1.195098 0.004416 -0.010807 -336832.000000 0 0 1
33.382039 4.656577 12.356911 35.898990 0.138599 1.219396 0.008304 -0.008202 -447645.000000 0 0 1
34.240469 3.669077 12.938811 36.787018 0.106749 1.211386 0.013402 -0.011658 122050.000000 0 0 1
35.541962 3.827577 12.415811 37.842222 0.107278 1.236511 0.013500 -0.004374 -75322.000000 0 0 1
-34.636971 2.729877 12.992511 37.094168 -0.078651 1.212950 0.029209 -0.001450 -915701.000000 0 0 1
-34.876637 1.384977 12.557411 37.094292 -0.039690 1.225446 0.028181 0.002878 702105.000000 0 0 1
35.038439 0.725477 12.956311 37.364215 0.020702 1.216685 0.033805 -0.002875 320937.000000 0 0 1
34.827369 0.624777 14.477611 37.721840 0.017937 1.176889 0.029315 -0.001897 -240486.000000 0 0 1
-35.324923 -0.211323 15.094011 38.415153 0.005982 1.166994 0.034242 -0.004576 463805.000000 0 0 1
35.397421 -0.378023 16.442111 39.031568 -0.010679 1.135971 0.036738 -0.011406 -433670.000000 0 0 1
-34.752562 -1.070823 17.387811 38.874454 0.030803 1.107073 0.033117 -0.009790 -1469630.000000 0 0 1
-33.567068 -0.370323 17.483411 37.849106 0.011032 1.090633 0.038015 -0.013217 -530383.000000 0 0 1
-32.605338 -1.057723 18.298811 37.404188 0.032429 1.059603 0.036105 -0.016635 176537.000000 0 0 1
-32.816118 -0.938123 19.860511 38.369487 0.028579 1.026739 0.037013 -0.023668 -677543.000000 0 0 1
-33.964048 -1.550423 20.361211 39.630030 0.045617 1.031209 0.033573 -0.022139 -293744.000000 0 0 1
-33.886198 -1.501423 21.771311 40.305318 0.044279 1.000169 0.030912 -0.016900 340381.000000 0 0 1
-34.533062 -2.766223 22.432111 41.272072 0.079933 0.996174 0.020022 -0.007134 90074.000000 0 0 1
-33.651788 -3.929323 22.323811 40.573821 0.116238 0.988190 0.025853 -0.011632 670531.000000 0 0 1
-33.980138 -5.077323 23.107111 41.404922 0.148323 0.978730 0.015918 -0.013370 -123574.000000 0 0 1
-34.088582 -4.959923 24.644231 42.355287 0.144487 0.949800 0.009432 -0.012315 152431.000000 0 0 1
-32.858988 -4.517323 25.179911 41.643093 0.136620 0.921457 0.014960 -0.015562 -276430.000000 0 0 1
-32.836588 -4.452923 26.549751 42.461268 0.134786 0.895319 0.011893 -0.016034 -172759.000000 0 0 1
-31.615838 -3.764423 27.189181 41.868647 0.118510 0.864011 0.016767 -0.014239 -364933.000000 0 0 1
-31.389808 -2.345723 27.036321 41.494398 0.074590 0.861150 0.005860 -0.009653 112343.000000 0 0 1
-30.827898 -2.039923 25.753371 40.221346 0.066075 0.875919 0.021585 -0.010186 -633847.000000 0 0 1
-30.941478 -0.551923 25.472531 40.081536 0.017836 0.882117 0.013154 -0.010267 -151175.000000 0 0 1
-32.182018 0.023877 25.136721 40.835494 -0.000742 0.907699 0.022997 -0.019615 -294490.000000 0 0 1
-32.042158 1.264677 24.525661 40.370872 -0.039449 0.917876 0.023782 -0.022300 263289.000000 0 0 1
-33.323398 2.149977 24.327251 41.314481 -0.064429 0.941184 0.026065 -0.014833 1114600.000000 0 0 1
-34.263228 1.640577 23.331911 41.485399 -0.047845 0.973496 0.021407 -0.015613 396983.000000 0 0 1
-35.212046 2.574777 22.863311 42.062437 -0.072992 0.996128 0.023451 -0.010974 -89409.700000 0 0 1
-34.743179 3.809077 22.063611 41.332801 -0.109199 1.007704 0.025486 -0.011009 -371790.000000 0 0 1
-34.116674 3.614877 20.783411 40.111905 -0.105562 1.026127 0.028951 -0.017994 -122923.000000 0 0 1
-34.963662 3.127177 19.763911 40.284601 -0.089203 1.058010 0.035729 -0.023482 -309934.000000 0 0 1
-34.160968 2.499977 18.655711 39.003297 -0.073052 1.072066 0.037131 -0.025013 -266318.000000 0 0 1
-33.416008 3.377677 17.836111 38.028478 -0.100737 1.082616 0.033575 -0.024945 -11682.800000 0 0 1
-32.833468 2.653277 16.764511 36.961132 -0.080635 1.100028 0.035040 -0.013760 -419640.000000 0 0 1
-32.056268 3.580077 15.833811 35.932309 -0.111220 1.114466 0.036117 -0.009515 -485757.000000 0 0 1
-32.741578 4.717477 15.380511 36.480483 -0.143097 1.135577 0.040933 -0.014217 -109513.000000 0 0 1
-32.029258 5.459277 14.384511 35.532960 -0.168824 1.154013 0.033180 -0.007643 -424722.000000 0 0 1
-32.602988 6.827277 14.086111 36.166076 -0.206424 1.170725 0.039602 -0.015948 -217839.000000 0 0 1
-31.827238 7.412377 13.087511 35.202263 -0.228815 1.189870 0.040558 -0.007285 -80621.700000 0 0 1
-32.102298 8.746777 12.836611 35.662897 -0.266009 1.202590 0.037794 -0.012923 -572180.000000 0 0 1
-31.343828 9.285277 11.636311 34.699505 -0.288003 1.228825 0.047508 -0.009306 -178919.000000 0 0 1
-31.646498 10.616877 11.521811 35.312477 -0.323684 1.238429 0.044332 -0.002862 216951.000000 0 0 1
-30.882378 11.184677 10.479311 34.476575 -0.347475 1.261955 0.047478 -0.018947 -143724.000000 0 0 1
-31.041018 12.720577 10.368511 35.112162 -0.388925 1.271030 0.049978 -0.018335 687378.000000 0 0 1
-30.110888 13.363477 9.454011 34.272823 -0.417693 1.291327 0.051309 -0.018473 542659.000000 0 0 1
-30.184228 14.747377 9.578811 34.933170 -0.454469 1.293035 0.055697 -0.011937 -162904.000000 0 0 1
-29.308278 15.467477 8.557711 34.226487 -0.485601 1.318083 0.055423 -0.014152 366378.000000 0 0 1
-27.915328 15.235577 8.755511 32.985562 -0.499596 1.302142 0.063498 -0.006064 660286.000000 0 0 1
-27.051328 16.117177 8.054111 32.502407 -0.537325 1.320387 0.044911 -0.017592 -359550.000000 0 0 1
-25.689108 16.300877 8.696711 31.643035 -0.565433 1.292375 0.047633 -0.007015 -945445.000000 0 0 1
-25.598888 16.923477 9.970611 32.266395 -0.584140 1.256645 0.048369 -0.007546 181499.000000 0 0 1
-25.952668 18.310577 10.102811 33.329942 -0.614433 1.262836 0.042186 -0.015668 -127676.000000 0 0 1
-25.996638 18.851977 11.529611 34.119703 -0.627420 1.226094 0.052662 -0.006070 732532.000000 0 0 1
-24.700258 19.159277 12.081411 33.513298 -0.659729 1.201997 0.040437 0.003916 896950.000000 0 0 1
-24.728458 19.632977 13.432711 34.313090 -0.671037 1.168563 0.049899 -0.006402 -140705.000000 0 0 1
-25.202598 18.765877 14.551411 34.627628 -0.640037 1.137103 0.041618 0.000801 220927.000000 0 0 1
-24.228658 17.768877 14.871511 33.524956 -0.632781 1.111190 0.050414 -0.003698 662299.000000 0 0 1
-24.756958 16.877177 15.867311 33.904537 -0.598348 1.083770 0.054553 -0.004232 -27106.400000 0 0 1
-23.785258 15.733377 16.163511 32.780127 -0.584400 1.055160 0.052526 -0.005278 309600.000000 0 0 1
-22.652358 16.123477 16.928411 32.552526 -0.618588 1.023906 0.048698 -0.001544 206966.000000 0 0 1
-21.625558 15.163377 17.119811 31.475080 -0.611517 0.995699 0.042828 -0.012821 135448.000000 0 0 1
-21.917158 13.947477 18.030911 31.622898 -0.566736 0.964065 0.038343 -0.005674 -597266.000000 0 0 1
-22.039558 14.374877 19.340811 32.656487 -0.577942 0.936948 0.031783 -0.001274 248658.000000 0 0 1
-22.319758 13.337977 20.244911 32.953447 -0.538643 0.909236 0.027950 -0.005825 -771257.000000 0 0 1
-22.333958 13.692877 21.747411 34.047767 -0.549994 0.877947 0.015909 0.001639 962968.000000 0 0 1
-21.049758 13.905877 22.388511 33.729974 -0.583804 0.844965 0.020667 0.005351 1153480.000000 0 0 1
-20.465058 15.202477 22.211611 33.812565 -0.638910 0.854091 0.023363 0.014209 -814640.000000 0 0 1
-19.041058 15.455377 22.729411 33.437355 -0.681827 0.823360 0.030363 0.009108 664537.000000 0 0 1
-18.049158 14.838977 21.866611 32.001813 -0.688097 0.818533 0.022453 0.000676 231626.000000 0 0 1
-17.789458 15.384777 20.597611 31.263681 -0.713038 0.851527 0.022794 0.007008 -681289.000000 0 0 1
-16.456558 14.842377 19.961111 29.825499 -0.733871 0.837580 0.013544 0.007202 935518.000000 0 0 1
-15.303258 14.786777 20.763511 29.731496 -0.768235 0.797682 0.013987 0.006626 -10023.900000 0 0 1
-14.774358 16.028177 21.240811 30.436100 -0.826081 0.798360 0.007301 0.001678 -477767.000000 0 0 1
-13.549858 15.731177 22.161311 30.367619 -0.859757 0.752814 0.005114 -0.001465 509080.000000 0 0 1
-12.448658 15.157577 21.465711 29.077448 -0.883212 0.740361 -0.006496 0.009983 -219316.000000 0 0 1
-11.406258 14.841677 22.341111 29.146241 -0.915542 0.697395 0.014494 0.005907 39417.000000 0 0 1
-10.195958 14.141277 21.688611 27.826770 -0.946110 0.677064 0.012262 0.006382 -1205420.000000 0 0 1
-9.891458 12.904177 22.369711 27.654343 -0.916799 0.628511 0.025419 -0.000078 797819.000000 0 0 1
-8.775958 12.136877 21.850711 26.491032 -0.944746 0.600887 0.021982 0.005373 1090060.000000 0 0 1
-7.364858 12.756477 22.134011 26.587277 -1.047203 0.587184 0.017321 0.004749 22651.400000 0 0 1
-7.117458 13.851977 21.338811 26.417425 -1.096152 0.630462 0.014589 0.007422 -924548.000000 0 0 1
-6.473158 14.935477 21.898511 27.285803 -1.161825 0.639221 0.026952 0.014310 -594697.000000 0 0 1
-7.301958 15.947277 22.755211 28.730365 -1.141408 0.656675 0.037731 0.004026 604884.000000 0 0 1
-8.280658 16.641577 21.930911 28.748500 -1.109080 0.703080 0.005992 0.000077 214237.000000 0 0 1
-7.695958 17.690077 21.178211 28.647569 -1.160449 0.738815 0.027467 0.013598 -765313.000000 0 0 1
-8.632858 18.154877 20.004011 28.359941 -1.126931 0.787863 0.025057 0.014498 1248500.000000 0 0 1
-9.780458 18.959977 20.274811 29.431379 -1.094551 0.810848 -0.000143 0.014203 -138591.000000 0 0 1
-10.726658 18.325077 21.067311 29.911557 -1.041216 0.789331 0.006256 0.003818 -1345240.000000 0 0 1
-12.093358 19.045677 21.168611 30.936988 -1.005063 0.817223 0.004835 0.001538 -57033.100000 0 0 1
-12.922058 18.784977 20.055811 30.365943 -0.968242 0.849351 0.003067 0.006218 -927892.000000 0 0 1
-14.041158 19.574577 20.202511 31.439778 -0.948543 0.872938 0.003907 0.001838 -1034760.000000 0 0 1
-14.900658 19.613077 18.958811 31.082775 -0.921097 0.914804 0.012869 0.003476 -246443.000000 0 0 1
-15.643658 18.457677 18.579011 30.505566 -0.867731 0.915951 0.014402 0.009447 170750.000000 0 0 1
-16.136558 18.635777 17.278111 30.103385 -0.857149 0.959464 0.027610 -0.004377 -1788310.000000 0 0 1
-16.772258 17.401077 16.674911 29.362540 -0.803797 0.966847 0.022085 0.001021 824120.000000 0 0 1
-17.946158 16.884377 17.346811 30.134011 -0.754923 0.957391 0.021137 0.002328 641912.000000 0 0 1
-19.031158 17.787977 17.347011 31.297219 -0.751646 0.983314 0.035228 -0.007301 -1290940.000000 0 0 1
33.939019 -9.669723 12.071728 37.297281 -0.277560 1.241199 -0.003302 -0.010983 -232980.000000 0 0 1
32.572579 -10.010823 12.035528 36.139223 -0.298176 1.231279 0.003048 -0.002033 69521.700000 0 0 1
32.471319 -11.372023 12.204028 36.505448 -0.336869 1.229926 -0.004656 -0.009535 -1065030.000000 0 0 1
31.082819 -11.936523 12.024928 35.400863 -0.366658 1.224221 0.017334 -0.000208 -886983.000000 0 0 1
30.295459 -11.646823 13.163328 35.024799 -0.367022 1.185505 0.019004 0.018269 -681462.000000 0 0 1
28.995029 -12.107023 12.985928 33.998912 -0.395548 1.178890 0.024498 0.011766 -833065.000000 0 0 1
28.385659 -12.549023 14.274828 34.161299 -0.416257 1.139702 0.027112 -0.004124 -781246.000000 0 0 1
28.139879 -11.530223 15.168328 33.983481 -0.388880 1.108121 0.028466 -0.011560 -6124.620000 0 0 1
27.448349 -12.059523 16.312928 34.131446 -0.413965 1.072483 0.030774 -0.018001 -238343.000000 0 0 1
25.910609 -12.076323 16.262028 32.888460 -0.436142 1.053583 0.034278 -0.019839 -209176.000000 0 0 1
25.350009 -10.761523 16.447128 32.077116 -0.401462 1.032426 0.029880 -0.022606 -6972.100000 0 0 1
25.456409 -9.953623 15.267928 31.308353 -0.372729 1.061385 0.038055 -0.022796 -466259.000000 0 0 1
24.968209 -8.510423 15.524228 30.607849 -0.328501 1.038866 0.075301 -0.023007 -32998.900000 0 0 1
25.816109 -7.777723 16.391628 31.553921 -0.292625 1.024554 0.039754 -0.010188 -117776.000000 0 0 1
25.456409 -6.418623 16.727628 31.129424 -0.246993 1.003496 0.049880 -0.016132 115036.000000 0 0 1
26.616959 -5.399223 16.517928 31.787672 -0.200133 1.024375 0.044088 -0.013523 329797.000000 0 0 1
26.958789 -5.101223 15.166028 31.349756 -0.187012 1.065841 0.054739 -0.011756 254364.000000 0 0 1
28.160289 -4.360523 15.098928 32.248933 -0.153626 1.083545 0.048856 -0.012557 47085.000000 0 0 1
28.411499 -3.746123 13.698028 31.762914 -0.131096 1.124909 0.045621 -0.007258 -101623.000000 0 0 1
28.860039 -4.523923 12.619228 31.821575 -0.155489 1.163028 0.033172 -0.006416 345274.000000 0 0 1
28.966279 -3.704823 11.458728 31.369946 -0.127211 1.196866 0.033581 -0.014575 -12238.800000 0 0 1
29.492779 -4.454923 10.204528 31.524637 -0.149918 1.241159 0.043930 -0.007665 1351480.000000 0 0 1
30.901379 -4.839023 10.217028 32.904392 -0.155334 1.255070 0.053644 -0.013888 1564240.000000 0 0 1
31.190779 -5.440523 9.028528 32.923826 -0.172690 1.293013 0.060424 -0.019815 -754686.000000 0 0 1
32.354979 -6.399923 9.121428 34.219938 -0.195282 1.300981 0.043671 -0.014411 98080.600000 0 0 1
33.634729 -5.745723 9.149328 35.327306 -0.169194 1.308823 0.040270 -0.014441 574822.000000 0 0 1
34.671069 -6.653023 8.831828 36.391578 -0.189585 1.325660 0.036118 -0.023551 -88536.200000 0 0 1
-35.142358 -5.948623 8.484028 36.638098 0.167683 1.337112 0.034306 -0.011346 -354599.000000 0 0 1
-35.263531 -5.240923 7.284128 36.387393 0.147542 1.369252 0.040116 -0.011428 289114.000000 0 0 1
-34.333123 -4.169123 7.196328 35.326082 0.120840 1.365649 0.037697 0.003338 35778.400000 0 0 1
-34.555959 -3.415823 5.901628 35.222313 0.098529 1.402449 0.034454 -0.005090 -453676.000000 0 0 1
-34.067858 -4.135823 4.783028 34.649694 0.120808 1.432315 0.032345 -0.000730 124081.000000 0 0 1
-34.143357 -3.362223 3.555928 34.492289 0.098157 1.467519 0.030167 0.001061 -793959.000000 0 0 1
-33.098258 -3.655923 2.469028 33.390965 0.110011 1.496786 0.050468 0.000652 -396307.000000 0 0 1
-33.234398 -4.775223 1.556428 33.611760 0.142706 1.524474 0.047600 0.001384 -157513.000000 0 0 1
-34.256076 -4.610023 0.589528 34.569909 0.133772 1.553742 0.041532 -0.004038 -623060.000000 0 0 1
-33.920228 -4.918923 -0.831772 34.285121 0.144011 1.595059 0.054400 -0.008923 -853664.000000 0 0 1
-33.825358 -6.340323 -1.080872 34.431422 0.185293 1.602194 0.055270 -0.025606 110802.000000 0 0 1
-33.373588 -6.754923 -2.386172 34.133842 0.199705 1.640760 0.052262 -0.025949 35911.400000 0 0 1
-31.815498 -6.615823 -2.473872 32.590107 0.205022 1.646778 0.048830 -0.019270 125614.000000 0 0 1
-31.218868 -7.408223 -1.454172 32.118750 0.232990 1.616087 0.045232 -0.017772 226497.000000 0 0 1
-30.121258 -6.696323 -0.870072 30.868883 0.218755 1.598986 0.048527 -0.020011 239305.000000 0 0 1
-29.304338 -7.550523 0.134928 30.261738 0.252174 1.566338 0.034830 -0.009489 -64517.600000 0 0 1
-28.756718 -8.695523 -0.509572 30.046973 0.293641 1.587756 0.034166 -0.005380 505705.000000 0 0 1
-28.214998 -9.618523 0.415328 29.812323 0.328546 1.556864 0.037384 0.005570 -157683.000000 0 0 1
-27.982048 -10.992023 -0.200872 30.064263 0.374305 1.577478 0.029737 0.003782 40686.800000 0 0 1
-26.948858 -10.916323 -1.183872 29.099976 0.384874 1.611490 0.026702 -0.002162 554004.000000 0 0 1
-26.568768 -12.226223 -1.713272 29.297018 0.431281 1.629309 0.029076 0.010062 -304742.000000 0 0 1
-27.545598 -13.098723 -2.572272 30.609689 0.443880 1.654930 0.024329 0.002805 -396647.000000 0 0 1
-28.337598 -14.012923 -1.860972 31.667723 0.459237 1.629596 0.037188 -0.004511 -29812.900000 0 0 1
-28.899038 -14.926023 -2.725472 32.639987 0.476751 1.654395 0.040615 -0.008508 -82641.700000 0 0 1
-29.745608 -16.004623 -1.954272 33.834425 0.493622 1.628588 0.042063 -0.003378 600433.000000 0 0 1
-28.923558 -16.836923 -1.164772 33.487473 0.527167 1.605586 0.022735 0.006019 291708.000000 0 0 1
-29.767908 -17.384123 -0.190572 34.472777 0.528563 1.576325 0.025922 0.016472 246654.000000 0 0 1
-30.044418 -18.914723 -0.263672 35.503567 0.561871 1.578223 0.025815 0.002591 479155.000000 0 0 1
-28.906158 -19.728123 0.098228 34.996777 0.598876 1.567990 0.040520 -0.003324 709658.000000 0 0 1
-29.093348 -21.113523 -0.042772 35.947261 0.627778 1.571986 0.052551 -0.007650 -175883.000000 0 0 1
-29.951428 -21.825123 1.006428 37.073399 0.629719 1.543646 0.054025 -0.004410 -702193.000000 0 0 1
-29.351248 -21.996723 2.249428 36.747945 0.643137 1.509546 0.056407 -0.004483 -46736.600000 0 0 1
-30.298098 -22.373523 3.225028 37.801456 0.636066 1.485378 0.058045 -0.009703 -2736.270000 0 0 1
-29.573248 -22.626423 4.565428 37.514999 0.653094 1.448798 0.041066 -0.010739 183030.000000 0 0 1
-29.048588 -21.436323 5.194928 36.473602 0.635743 1.427881 0.032156 -0.010579 312572.000000 0 0 1
-28.427498 -21.671623 6.457928 36.324739 0.651357 1.392063 0.021081 -0.013034 106388.000000 0 0 1
-27.993908 -20.376623 7.072328 35.339545 0.629203 1.369311 0.021735 -0.011304 346117.000000 0 0 1
-27.039738 -20.567623 8.121428 34.930389 0.650279 1.336146 0.017249 -0.015667 187568.000000 0 0 1
-26.405048 -19.318223 8.430228 33.785929 0.631628 1.318613 0.022200 -0.015387 32163.000000 0 0 1
-25.488618 -19.340523 9.661828 33.422692 0.649103 1.277531 0.021642 -0.010756 -396126.000000 0 0 1
-25.988048 -19.788623 10.875928 34.427518 0.650789 1.249383 0.016790 -0.007688 -651240.000000 0 0 1
-24.992658 -19.902723 11.858528 34.078967 0.672507 1.215389 0.025149 -0.000028 -352302.000000 0 0 1
-24.693758 -18.633623 12.739528 33.455779 0.646431 1.180149 0.021072 -0.003927 -298627.000000 0 0 1
-23.861158 -17.687623 12.074428 32.062418 0.637892 1.184682 0.019632 -0.006775 -11900.400000 0 0 1
-23.580158 -16.480223 12.754428 31.468985 0.609989 1.153488 0.015797 0.001486 7562.290000 0 0 1
-22.582558 -16.558523 13.906928 31.265944 0.632691 1.109851 0.029369 0.007736 -570683.000000 0 0 1
-23.124058 -17.299223 14.986928 32.536029 0.642287 1.092096 0.021393 -0.007084 278018.000000 0 0 1
-22.305558 -17.250223 16.188828 32.514400 0.658285 1.049624 0.037145 -0.008950 264956.000000 0 0 1
-22.863958 -18.144223 17.284528 33.922386 0.670810 1.036156 0.031670 0.011864 305655.000000 0 0 1
-23.982958 -17.508323 17.877228 34.660048 0.630599 1.028869 0.029472 0.005605 -68477.400000 0 0 1
-24.722358 -18.285223 18.769128 36.025331 0.636827 1.022776 0.022782 0.007874 387483.000000 0 0 1
-25.823008 -17.477923 19.553228 36.805356 0.595009 1.010709 0.025865 0.005058 263896.000000 0 0 1
-25.322728 -16.649423 20.572828 36.629019 0.581622 0.974413 0.031504 0.005098 36194.300000 0 0 1
-26.280568 -15.725623 21.084428 37.182207 0.539223 0.967868 0.029909 -0.002836 135467.000000 0 0 1
-25.730748 -14.823823 22.239228 37.099870 0.522670 0.927992 0.030574 -0.002199 -435770.000000 0 0 1
-24.642558 -14.080823 21.830528 35.806384 0.519127 0.915136 0.026828 -0.001978 -498937.000000 0 0 1
-23.916658 -13.442723 22.855828 35.708573 0.512059 0.876213 0.024349 -0.003577 -365003.000000 0 0 1
-22.688858 -12.714523 22.306828 34.264237 0.510782 0.861864 0.026620 -0.001524 -358524.000000 0 0 1
-23.054158 -11.681523 21.369128 33.534934 0.468993 0.879911 0.030754 0.001742 1533060.000000 0 0 1
-21.834258 -11.019223 20.934828 32.193557 0.467381 0.862843 0.026544 0.002325 538543.000000 0 0 1
-21.623258 -9.631623 21.623128 32.060772 0.419046 0.830588 0.025179 -0.002769 -20973.400000 0 0 1
-21.103158 -9.636923 22.953428 32.635462 0.428377 0.790728 0.024955 -0.006422 783779.000000 0 0 1
-19.746058 -10.068723 23.029828 31.963400 0.471545 0.766264 0.012425 -0.007760 278253.000000 0 0 1
-19.091858 -10.148323 24.495428 32.672825 0.488570 0.723159 0.016945 -0.001835 324438.000000 0 0 1
-19.510258 -11.250823 25.233628 33.822583 0.523082 0.728673 0.025096 -0.002563 -9156.560000 0 0 1
-18.824258 -11.332823 26.460228 34.393738 0.541913 0.693000 0.025341 0.003271 -581334.000000 0 0 1
-19.014758 -12.640823 27.226328 35.533426 0.586702 0.697863 0.025690 -0.014485 -607352.000000 0 0 1
-20.213458 -12.796423 27.894228 36.748065 0.564377 0.708918 0.025841 -0.007398 -919875.000000 0 0 1
-21.217358 -13.372123 27.096628 36.921771 0.562362 0.746761 0.020102 -0.004754 334532.000000 0 0 1
-22.451558 -13.922623 27.912728 38.432177 0.555081 0.757894 0.007626 -0.009122 276729.000000 0 0 1
-22.251158 -15.125223 28.633628 39.290852 0.597006 0.754286 0.006413 -0.007471 332081.000000 0 0 1
-21.474758 -15.001823 29.865628 39.726259 0.609772 0.720031 0.013607 -0.011264 106683.000000 0 0 1
-21.859558 -15.949423 30.957128 41.116519 0.630337 0.718320 0.000177 -0.009873 -722827.000000 0 0 1
-21.666258 -17.309923 30.650328 41.334039 0.674091 0.735452 0.009368 -0.004296 -66238.000000 0 0 1
-21.787958 -18.104423 31.827428 42.608337 0.693322 0.727294 0.014120 -0.005461 -417665.000000 0 0 1
-23.151458 -18.307323 32.515028 43.913268 0.669083 0.737075 0.019842 -0.001107 -357145.000000 0 0 1
-23.582558 -17.154923 33.235028 44.215331 0.628906 0.720216 0.020132 0.000891 214967.000000 0 0 1
-24.953558 -17.417623 33.527228 45.278346 0.609383 0.737028 0.026335 -0.011747 184454.000000 0 0 1
-25.680978 -16.434323 -34.264955 45.865965 0.569272 2.414435 0.021452 -0.010647 -32989.900000 0 0 1
-25.109348 -16.253423 -32.977555 44.521593 0.574479 2.404922 0.027137 -0.013890 -48422.700000 0 0 1
-25.731738 -15.182523 -32.264055 43.972725 0.533057 2.394590 0.042124 -0.008614 49060.400000 0 0 1
-25.133778 -14.863423 -30.833355 42.465561 0.534052 2.383399 0.033876 -0.001636 -63820.500000 0 0 1
-25.634738 -15.675223 -29.817255 42.331089 0.548821 2.352348 0.025096 0.004877 169571.000000 0 0 1
-25.153338 -15.297023 -28.542655 41.004542 0.546391 2.340727 0.019756 0.011305 -514796.000000 0 0 1
-26.090958 -15.903623 -27.495955 41.105849 0.547409 2.303533 0.009816 0.011300 -224770.000000 0 0 1
-27.243158 -15.186123 -27.171755 41.365593 0.508529 2.287454 0.029953 0.002459 -30403.700000 0 0 1
-26.939098 -13.976323 -26.486955 40.281651 0.478584 2.288351 0.021271 -0.002556 -1089370.000000 0 0 1
-26.341648 -14.060223 -25.080855 38.995148 0.490293 2.269439 0.011334 -0.000143 99498.000000 0 0 1
-24.924258 -14.066523 -25.247955 38.164708 0.513809 2.293683 -0.005761 -0.004096 406382.000000 0 0 1
-24.185958 -14.313223 -24.083655 37.011503 0.534367 2.279312 -0.013939 -0.002158 -149822.000000 0 0 1
-23.429458 -15.671423 -24.136455 37.109318 0.589531 2.278927 -0.014656 -0.002515 -709365.000000 0 0 1
-22.594958 -15.737823 -25.248555 37.359078 0.608386 2.312893 0.010080 0.005686 -179412.000000 0 0 1
-22.068358 -16.993223 -25.395755 37.692525 0.656195 2.310083 0.016286 -0.000390 -52843.800000 0 0 1
-21.189658 -17.235123 -26.683555 38.184593 0.682843 2.344521 0.022723 0.002386 122052.000000 0 0 1
-21.896358 -17.359923 -27.901755 39.488294 0.670349 2.355454 0.033723 0.002542 196151.000000 0 0 1
-22.629858 -18.553823 -28.021855 40.516406 0.686747 2.334522 0.025344 -0.007103 -444055.000000 0 0 1
-23.355558 -18.698423 -29.377355 41.930205 0.675106 2.347070 0.018181 -0.005716 -141281.000000 0 0 1
-22.487358 -18.876923 -30.483455 42.323286 0.698335 2.374963 0.025586 -0.008130 507221.000000 0 0 1
-23.163758 -18.575323 -31.693955 43.429357 0.675906 2.388799 0.016611 -0.004973 -358352.000000 0 0 1
-22.468858 -19.142623 -32.960355 44.245617 0.705632 2.411242 0.019033 -0.010412 267206.000000 0 0 1
-21.206958 -18.524523 -33.274155 43.589705 0.717986 2.439278 0.022909 -0.005913 681457.000000 0 0 1
-20.096558 -19.332223 -32.963155 43.176105 0.766015 2.439447 0.034602 -0.012606 -209048.000000 0 0 1
-19.657058 -20.370123 -34.006855 44.247124 0.803211 2.447394 0.034127 -0.013469 -718981.000000 0 0 1
-18.969858 -19.954823 33.590028 43.432021 0.810697 0.686620 0.026588 -0.011823 96082.200000 0 0 1
-18.668158 -21.062323 32.729728 43.166615 0.845586 0.710220 0.033918 -0.020104 390099.000000 0 0 1
-19.898258 -21.603423 31.884728 43.350714 0.826462 0.744383 0.041230 -0.021307 718635.000000 0 0 1
-20.799258 -22.207923 32.801428 44.740749 0.818141 0.747862 0.042524 -0.020615 -35386.600000 0 0 1
-22.045758 -22.668723 32.299128 45.200886 0.799329 0.774789 0.053960 -0.019563 272432.000000 0 0 1
-21.980058 -23.947723 31.401128 45.195655 0.828215 0.802680 0.062977 -0.016661 -696374.000000 0 0 1
-21.587058 -25.087493 32.090828 46.099941 0.860255 0.800826 0.072138 -0.013093 -185480.000000 0 0 1
-21.812158 -26.240643 31.362128 46.345708 0.877297 0.827525 0.070694 -0.005485 -189693.000000 0 0 1
-21.326958 -27.453733 32.173828 47.367729 0.910342 0.824076 0.091404 -0.007134 -290359.000000 0 0 1
-21.986658 -27.622213 33.369028 48.578717 0.898513 0.813573 0.054065 -0.009366 -361081.000000 0 0 1
-21.419458 -28.674543 34.047128 49.398679 0.929228 0.810368 0.054104 -0.021380 -723423.000000 0 0 1
-22.529858 -29.500253 -34.051055 50.371954 0.918574 2.313107 0.045556 -0.025139 -500115.000000 0 0 1
-23.452458 -30.151583 33.870628 51.052474 0.909728 0.845380 0.038111 -0.020997 120424.000000 0 0 1
-24.506558 -29.346353 33.355828 50.738457 0.875028 0.853424 0.028248 -0.015372 7895.280000 0 0 1
-25.728518 -29.221313 34.352928 51.922687 0.848876 0.847823 0.006744 -0.015865 -780015.000000 0 0 1
-26.678458 -28.306483 33.958028 51.634724 0.814998 0.853090 0.013798 -0.010110 -769944.000000 0 0 1
-27.518928 -28.110313 -33.682455 51.787922 0.796029 2.278897 0.013127 0.000374 -455615.000000 0 0 1
-28.819228 -27.373223 -34.039955 52.331250 0.759671 2.279001 0.011040 -0.002746 -688214.000000 0 0 1
-29.480068 -28.019553 33.679828 52.806255 0.760003 0.879158 0.006573 -0.002948 -770701.000000 0 0 1
-30.609358 -27.328343 33.233328 52.803647 0.728829 0.890047 0.008312 -0.007774 -132146.000000 0 0 1
