# x y z rho theta phi s1 s2 stress_xx np intf bulk
-0.762200 -10.805387 -14.319038 17.954726 1.500374 2.493950 0.012591 -0.002378 -1584450.000000 1 0 0
2.082900 -13.551087 -13.005638 18.897541 -1.418283 2.329827 0.011351 0.003727 -218795.000000 1 0 0
2.074900 -11.163187 -14.629938 18.519099 -1.387024 2.481592 0.002335 0.000992 262945.000000 1 0 0
-5.623100 -6.341087 -16.424538 18.482264 0.845338 2.665222 0.031829 -0.007790 -485287.000000 1 0 0
4.558400 -13.992987 -11.467438 18.657032 -1.255874 2.232731 0.006656 0.000541 75772.100000 1 0 0
14.119600 -10.635487 -7.910038 19.366088 -0.645573 1.991549 0.055030 -0.004291 -73646.800000 1 0 0
7.035600 10.847513 -10.977038 16.960648 0.995412 2.274710 0.028457 -0.008729 851757.000000 1 0 0
5.736100 -4.163887 -12.543638 14.407764 -0.627904 2.627251 0.009775 -0.008165 2433460.000000 1 0 0
13.721300 0.467613 -10.111038 17.050684 0.034066 2.205575 0.032034 0.000227 1425860.000000 1 0 0
14.221800 5.085813 -10.395238 18.335377 0.343435 2.173595 0.031777 -0.003270 669283.000000 1 0 0
4.061800 4.284513 -13.552738 14.782827 0.812076 2.730762 0.008528 0.001548 2020470.000000 1 0 0
10.363200 -4.984087 -13.700138 17.886610 -0.448284 2.443304 0.034622 -0.004976 -1268110.000000 1 0 0
2.551700 -7.506587 -11.986538 14.371399 -1.243122 2.557214 0.000571 -0.002732 1650150.000000 1 0 0
-5.583100 -2.064987 -15.139538 16.267784 0.354260 2.766969 0.016870 -0.004201 235486.000000 1 0 0
10.740100 0.001113 -9.722638 14.487216 0.000104 2.306513 0.009566 0.002203 1432430.000000 1 0 0
-1.585900 -9.478687 -16.821338 19.373126 1.405020 2.622525 0.028618 -0.011878 1879260.000000 1 0 0
8.646000 1.717913 -18.020638 20.061105 0.196140 2.686653 0.047741 -0.004300 1016640.000000 1 0 0
16.506000 -5.850287 -8.658338 19.535627 -0.340619 2.029970 0.097888 -0.011047 -1260730.000000 1 0 0
10.103700 7.629813 -9.987938 16.126305 0.646789 2.238720 0.033855 -0.005367 1636930.000000 1 0 0
13.837100 -2.367187 -10.595638 17.587963 -0.169435 2.217347 0.052258 -0.008133 -1820770.000000 1 0 0
7.230000 -1.841687 -13.705238 15.604431 -0.249424 2.643073 0.014407 -0.006598 597321.000000 1 0 0
-2.826500 6.652513 -13.822738 15.598498 -1.169030 2.659784 0.006753 -0.001445 392349.000000 1 0 0
11.210300 1.843913 -13.984738 18.017873 0.163024 2.459348 0.027581 -0.001589 874399.000000 1 0 0
-2.416100 10.764513 -12.957838 17.018163 -1.350005 2.436285 0.006907 -0.004360 -1215190.000000 1 0 0
2.826700 -0.997787 -15.280538 15.571791 -0.339333 2.947879 0.011551 -0.003283 481810.000000 1 0 0
-9.167700 0.295313 -15.243438 17.790344 -0.032201 2.599901 0.022565 -0.000611 -414210.000000 1 0 0
2.325000 -1.815487 -18.026738 18.266497 -0.662957 2.979393 0.033148 -0.010486 1162650.000000 1 0 0
0.963100 7.907713 -13.170538 15.392289 1.449601 2.597618 0.005062 -0.003723 1088440.000000 1 0 0
9.444500 -9.084787 -9.914538 16.432589 -0.765987 2.218487 0.027332 -0.005170 454064.000000 1 0 0
3.895800 7.242313 -13.517338 15.822351 1.077273 2.595036 0.007713 -0.003574 1714900.000000 1 0 0
-2.757900 9.145113 -15.487138 18.195894 -1.277899 2.588937 0.007325 -0.002820 90561.000000 1 0 0
5.526900 -7.580187 -15.168738 17.835259 -0.940790 2.587716 0.021287 -0.008229 636598.000000 1 0 0
4.150200 7.292613 -16.394038 18.416592 1.053410 2.668531 0.023392 -0.003033 172516.000000 1 0 0
-0.273000 5.106713 -13.483638 14.420872 -1.517388 2.779079 0.009309 -0.002156 2821920.000000 1 0 0
8.768800 4.311613 -16.622438 19.281787 0.456985 2.610156 0.039370 -0.006788 -449098.000000 1 0 0
5.312300 0.327413 -14.441238 15.390812 0.061555 2.788485 0.006851 -0.000017 -137979.000000 1 0 0
6.259500 7.911613 -11.653238 15.413401 0.901457 2.428047 0.008132 -0.003776 243057.000000 1 0 0
2.732900 -8.333487 -14.934638 17.319329 -1.253906 2.610611 0.012044 -0.008124 -221401.000000 1 0 0
4.042700 11.443613 -13.910338 18.460694 1.231210 2.424183 0.023913 -0.013594 -1533020.000000 1 0 0
0.586300 -4.433987 -13.759538 14.468202 -1.439330 2.827313 0.005407 -0.005146 -654408.000000 1 0 0
8.514400 -0.142887 -11.670938 14.447360 -0.016780 2.511249 0.001566 -0.000360 -170577.000000 1 0 0
-0.934900 -5.021587 -16.293338 17.075223 1.386727 2.837802 0.013286 -0.011760 -648235.000000 1 0 0
4.482100 0.962913 -11.704538 12.570308 0.211619 2.768284 0.005196 -0.002013 1202100.000000 1 0 0
-2.887500 -7.146287 -15.523338 17.331506 1.186798 2.680735 0.005875 -0.006806 4078280.000000 1 0 0
11.408700 -3.732487 -11.427838 16.573635 -0.316186 2.331621 0.023049 -0.002817 -907388.000000 1 0 0
6.524100 -6.991887 -12.478638 15.721538 -0.819994 2.487711 0.018632 -0.005900 -2453830.000000 1 0 0
3.394200 -3.907987 -14.577438 15.469152 -0.855643 2.800397 0.013650 -0.007077 2336220.000000 1 0 0
-0.620300 -1.602187 -18.399738 18.479777 1.201409 3.048488 0.034794 -0.011356 345600.000000 1 0 0
14.869900 2.915013 -8.521138 17.384505 0.193580 2.083066 0.019141 -0.001984 -421224.000000 1 0 0
6.935700 4.304613 -14.340238 16.500790 0.555462 2.624103 0.018213 0.000892 1885630.000000 1 0 0
10.151400 -9.602187 -13.961338 19.752769 -0.757602 2.355767 0.052664 -0.017258 -886834.000000 1 0 0
9.130500 -3.083587 -15.601238 18.337753 -0.325697 2.588248 0.051776 -0.010878 -391254.000000 1 0 0
-5.362600 -2.155087 -18.036838 18.940154 0.382120 2.831505 0.018698 0.001923 -1444710.000000 1 0 0
4.997600 -9.017687 -11.111038 15.157501 -1.064734 2.393575 -0.000788 -0.001864 1179020.000000 1 0 0
-2.573500 3.908113 -17.299038 17.920742 -0.988468 2.877417 0.016581 0.007979 1730430.000000 1 0 0
9.395600 9.306413 -14.563038 19.671520 0.780629 2.404329 0.073981 -0.011570 12644.400000 1 0 0
9.718700 10.043713 -11.731438 18.247080 0.801843 2.269103 0.045621 -0.013890 243655.000000 1 0 0
12.095800 -5.939687 -9.667138 16.584385 -0.456465 2.193097 0.039143 -0.004943 -160571.000000 1 0 0
8.121500 6.856513 -13.695838 17.336278 0.701142 2.481622 0.025656 -0.003512 107367.000000 1 0 0
3.958400 -4.222987 -17.522838 18.454062 -0.817727 2.822557 0.037290 -0.012535 -535538.000000 1 0 0
9.325400 -7.369687 -12.372438 17.156707 -0.668787 2.376247 0.030309 -0.010142 -437225.000000 1 0 0
12.148500 -8.675287 -8.954138 17.407563 -0.620129 2.111083 0.048621 -0.005039 513347.000000 1 0 0
-2.952400 -2.569487 -13.852438 14.394755 0.716164 2.866225 0.009254 -0.006559 -1194050.000000 1 0 0
-0.487200 6.145213 -17.705838 18.748272 -1.491681 2.806556 0.021635 -0.000500 3362980.000000 1 0 0
1.114500 -8.449787 -17.393938 19.369824 -1.439657 2.685980 0.031823 -0.012220 976461.000000 1 0 0
-0.026900 8.504313 -16.035338 18.150927 -1.567633 2.653960 0.007968 -0.001959 -864660.000000 1 0 0
1.759600 3.424213 -15.031438 15.516622 1.096115 2.890862 0.017013 -0.001869 2395170.000000 1 0 0
-1.918600 -0.545787 -15.796538 15.921983 0.277150 3.015982 0.014615 -0.007227 722223.000000 1 0 0
14.146300 -4.256087 -8.307438 16.948322 -0.292248 2.083073 0.055176 -0.005049 594837.000000 1 0 0
0.526700 0.707213 -14.591838 14.618458 0.930661 3.081235 0.011260 -0.002830 949045.000000 1 0 0
8.767700 2.739213 -12.603638 15.595754 0.302813 2.511793 0.012933 0.000104 1778340.000000 1 0 0
5.897200 1.050013 -17.162338 18.177606 0.176206 2.805794 0.030891 0.000267 -328500.000000 1 0 0
15.321100 1.497213 -12.478438 19.816386 0.097413 2.251967 0.076179 -0.011662 535612.000000 1 0 0
8.783300 -11.216087 -11.970638 18.607610 -0.906447 2.269623 0.039871 -0.006086 982867.000000 1 0 0
-4.578000 0.693213 -15.050738 15.746852 -0.150281 2.843143 0.013913 -0.003589 433474.000000 1 0 0
2.329500 5.105313 -17.349338 18.234317 1.142725 2.828762 0.029174 -0.001344 1938300.000000 1 0 0
5.900400 -11.569887 -12.405938 17.960632 -1.099197 2.333294 0.010893 -0.003941 -1488040.000000 1 0 0
12.723800 7.202813 -8.691638 17.009414 0.515112 2.107132 0.018436 -0.006619 1025920.000000 1 0 0
-4.985200 3.646913 -15.714238 16.884593 -0.631587 2.767077 0.007046 0.002400 1502510.000000 1 0 0
-0.682000 -4.395687 -19.155338 19.665050 1.416871 2.913416 0.034586 -0.015043 -1634530.000000 1 0 0
9.774000 4.526813 -10.319138 14.916693 0.433734 2.334754 0.007085 0.002139 -437369.000000 1 0 0
13.352700 3.657113 -12.813938 18.864413 0.267330 2.317557 0.057587 -0.006196 -414877.000000 1 0 0
-6.260400 5.889513 -17.071238 19.112984 -0.754882 2.675153 0.009762 0.003449 -485601.000000 1 0 0
-10.194100 3.047313 -15.530538 18.825605 -0.290474 2.540943 0.022041 0.003492 -830051.000000 1 0 0
10.453600 13.618813 -8.381438 19.104929 0.916135 2.024954 0.091105 -0.017330 865818.000000 1 0 0
7.416000 13.476913 -12.463038 19.797767 1.067743 2.251728 0.063131 -0.013681 403244.000000 1 0 0
5.209800 15.153213 -11.306538 19.611213 1.239648 2.185277 0.037477 -0.010824 709258.000000 1 0 0
14.391100 9.478713 -9.677038 19.763472 0.582433 2.082476 0.091119 -0.021535 255618.000000 1 0 0
8.495300 -17.097987 -2.111538 19.208588 -1.109664 1.680946 0.034241 -0.014436 941325.000000 1 0 0
0.796100 -15.993687 -0.056838 16.013589 -1.521062 1.574346 0.005245 -0.009902 1591840.000000 1 0 0
-9.105200 -11.656587 7.568562 16.615168 0.907674 1.097839 0.012041 -0.008446 191141.000000 1 0 0
2.140800 -15.909887 -2.586038 16.260231 -1.437042 1.730515 0.012050 -0.011062 1394330.000000 1 0 0
-1.262800 -11.168987 -9.426238 14.669523 1.458211 2.268648 -0.003498 -0.000699 29737.100000 1 0 0
-4.762600 -12.731187 -12.876438 18.723465 1.212824 2.329135 0.020017 -0.006689 442981.000000 1 0 0
-8.229500 -17.910687 -1.412938 19.761421 1.140092 1.642357 0.045042 -0.024263 -700759.000000 1 0 0
-11.443600 -7.099387 -8.838438 16.108236 0.555271 2.151594 0.014319 -0.006680 1143050.000000 1 0 0
-13.488700 -11.551887 -4.571338 18.338164 0.708205 1.822733 0.029295 -0.002514 -929482.000000 1 0 0
-5.693400 -13.299287 9.849762 17.501533 1.166304 0.973034 0.011926 -0.011388 1719690.000000 1 0 0
0.220900 -13.964187 -3.720538 14.453018 -1.554979 1.831151 0.004488 -0.005563 -862528.000000 1 0 0
-14.540400 -11.655787 1.961262 18.738387 0.675724 1.465939 0.000233 -0.001256 -121039.000000 1 0 0
-3.821600 -16.506687 -7.437438 18.503806 1.343286 1.984432 0.019498 -0.018670 -485582.000000 1 0 0
0.699300 -15.328387 -9.189638 17.885690 -1.525207 2.110403 0.006952 0.000008 464872.000000 1 0 0
4.593900 -14.130787 -2.574938 15.080231 -1.256475 1.742386 0.010508 -0.005278 225214.000000 1 0 0
-3.374500 -18.062687 -2.457938 18.538861 1.386104 1.703771 0.022984 -0.024847 236810.000000 1 0 0
-0.848100 -13.501587 0.686562 13.545608 1.508064 1.520089 0.007389 -0.003703 1325330.000000 1 0 0
-8.373800 -11.489087 -10.511938 17.681077 0.940970 2.207478 0.024957 -0.003305 2351970.000000 1 0 0
-3.576700 -14.092287 -0.390638 14.544344 1.322239 1.597658 0.004006 -0.005072 4870910.000000 1 0 0
-1.403300 -14.974087 -7.263038 16.701624 1.477354 2.020690 0.009427 -0.006777 -124126.000000 1 0 0
-14.135600 -7.859087 -1.829938 16.276643 0.507421 1.683462 0.005903 -0.001947 1124410.000000 1 0 0
-10.696200 -7.338087 -11.631838 17.422855 0.601299 2.301803 0.030662 -0.008232 -1305160.000000 1 0 0
-9.451000 -14.652787 6.881562 18.745172 0.997946 1.194895 -0.000674 -0.003689 451714.000000 1 0 0
-2.424600 -14.444087 -12.254338 19.096574 1.404486 2.267514 0.017264 -0.005647 183720.000000 1 0 0
2.470800 -17.812487 -4.831238 18.620698 -1.432964 1.833254 0.031678 -0.016083 -625752.000000 1 0 0
-6.523000 -9.770087 -9.258438 14.957366 0.982113 2.238251 0.010557 -0.003939 -228552.000000 1 0 0
-10.829600 -15.373287 0.600462 18.814323 0.957095 1.538876 0.022735 -0.014359 1943230.000000 1 0 0
-12.502900 -11.033287 4.080662 17.167054 0.723039 1.330796 0.008214 -0.003910 183572.000000 1 0 0
-16.887500 -8.982587 -1.686338 19.202038 0.488847 1.658730 -0.000962 -0.003835 208659.000000 1 0 0
-1.339300 -19.243787 -4.012038 19.703134 1.501312 1.775855 0.045513 -0.028111 -750379.000000 1 0 0
3.416600 -14.161687 -8.712938 16.974741 -1.334064 2.109808 0.012098 -0.003622 -619917.000000 1 0 0
-4.219500 -8.088287 -13.010938 15.890534 1.089955 2.530089 0.009890 -0.002890 1115320.000000 1 0 0
5.600500 -16.627887 1.292662 17.593271 -1.245917 1.497255 0.025416 -0.011694 3600570.000000 1 0 0
-2.695900 -13.799687 -3.221238 14.424826 1.377867 1.796007 0.002924 -0.004123 -1420440.000000 1 0 0
-0.366700 -13.934387 3.682862 14.417527 1.544486 1.312490 0.004538 -0.002113 -3069670.000000 1 0 0
1.259600 -16.086587 7.078462 17.620144 -1.492655 1.157396 0.019578 -0.009890 850983.000000 1 0 0
-5.421100 -10.425087 -14.515638 18.675506 1.091273 2.461088 0.021227 -0.009953 250872.000000 1 0 0
-0.261400 -17.328687 -5.891938 18.304826 1.555713 1.898510 0.029291 -0.017889 -433010.000000 1 0 0
-6.378500 -13.321387 -1.262038 14.823540 1.124239 1.656037 0.010233 -0.006783 1926290.000000 1 0 0
-1.608200 -17.782187 -0.240538 17.856381 1.480603 1.584267 0.011894 -0.014561 1308910.000000 1 0 0
-9.469400 -9.775687 -4.839538 14.444886 0.801312 1.912438 0.014967 -0.001208 2616060.000000 1 0 0
-0.813300 -16.667687 4.911062 17.395165 1.522040 1.284581 0.005653 -0.003826 3792370.000000 1 0 0
-6.773600 -9.995187 -6.367638 13.650357 0.975204 2.056105 0.010930 -0.003616 2143430.000000 1 0 0
-5.948800 -14.669187 -8.418738 17.928983 1.185532 2.059589 0.015258 -0.014158 -507858.000000 1 0 0
-5.631400 -12.327487 -10.164938 16.941239 1.142288 2.214312 0.016950 -0.006636 1413500.000000 1 0 0
-10.546800 -12.345487 -8.627638 18.387011 0.863809 2.059209 0.040915 -0.015815 -739965.000000 1 0 0
4.014900 -16.980887 6.464062 18.607902 -1.338624 1.216018 0.049463 -0.013392 179809.000000 1 0 0
-6.581800 -14.495787 -4.042538 16.425287 1.144580 1.819468 0.020338 -0.017892 -1419430.000000 1 0 0
-2.732200 -12.337487 -7.095538 14.492245 1.352858 2.082438 0.003473 -0.001614 1942970.000000 1 0 0
-7.033500 -12.814887 4.389662 15.263046 1.068833 1.279076 0.003093 -0.005790 1186420.000000 1 0 0
2.627400 -16.327487 2.390862 16.709467 -1.411245 1.427219 0.018889 -0.010705 3791620.000000 1 0 0
-6.163700 -12.028287 7.253162 15.338815 1.097251 1.078259 0.005087 -0.006096 1592230.000000 1 0 0
-11.237000 -12.901887 -0.926838 17.134407 0.854260 1.624915 0.027770 -0.005235 462927.000000 1 0 0
-14.117100 -8.754587 4.655962 17.251472 0.555097 1.297520 0.006928 -0.002780 -659347.000000 1 0 0
-7.959500 -15.570587 4.465162 18.048116 1.098238 1.320797 -0.003268 -0.004338 2186180.000000 1 0 0
-16.367800 -9.329387 1.167162 18.876033 0.518057 1.508924 -0.008611 0.001379 -1582960.000000 1 0 0
-6.487300 -16.966687 2.392762 18.321540 1.205593 1.439824 0.005069 -0.012340 2157240.000000 1 0 0
-11.468500 -14.941087 -4.541638 19.374959 0.916138 1.807406 0.055961 -0.014976 -534391.000000 1 0 0
-10.153200 -10.132287 -12.367138 18.939293 0.784367 2.282320 0.031260 -0.005972 870408.000000 1 0 0
-4.221800 -16.087387 -4.487638 17.226912 1.314154 1.834338 0.010925 -0.014543 49122.800000 1 0 0
-11.754800 -8.345687 0.019962 14.416179 0.617393 1.569412 0.002617 -0.000005 2516640.000000 1 0 0
-9.519400 -11.139987 3.495462 15.064413 0.863681 1.336628 0.002194 -0.001168 2291080.000000 1 0 0
-14.104900 -13.022487 -0.487938 19.203423 0.745518 1.596208 0.020046 -0.001747 973345.000000 1 0 0
5.649700 -14.798387 -6.974138 17.307512 -1.206097 1.985539 0.009394 -0.014716 1036580.000000 1 0 0
-7.344100 -10.528687 -1.263838 12.899083 0.961728 1.668933 0.012056 0.001234 2131510.000000 1 0 0
-11.634200 -8.208987 -5.981338 15.444044 0.614468 1.968488 0.011510 -0.003087 150528.000000 1 0 0
-14.434600 -6.678087 -9.207738 18.377622 0.433319 2.095585 0.034031 -0.015030 1222820.000000 1 0 0
-3.699800 -16.374787 1.403962 16.846165 1.348583 1.487359 0.008485 -0.014444 1569690.000000 1 0 0
-7.831600 -15.418387 0.196462 17.294485 1.100818 1.559436 0.020321 -0.015623 993980.000000 1 0 0
0.990700 -18.509387 3.665162 18.894769 -1.517323 1.375581 0.015010 -0.009932 897419.000000 1 0 0
-14.068400 -8.716787 -4.576238 17.171028 0.554707 1.840566 0.016121 -0.007320 -575833.000000 1 0 0
-3.238100 -14.383387 11.329162 18.593467 1.349360 0.915608 0.002006 -0.014900 1193050.000000 1 0 0
-10.827500 -12.123987 -3.727238 16.676874 0.841826 1.796198 0.033713 -0.007075 -19819.000000 1 0 0
-9.885600 -10.742187 0.550762 14.609004 0.826900 1.533087 0.004770 0.001488 1968960.000000 1 0 0
-0.069600 -13.305587 -11.078038 17.313764 1.565565 2.265086 0.002581 -0.003307 -354763.000000 1 0 0
-5.732100 -12.759187 -6.182538 15.293057 1.148564 1.986978 0.005346 -0.009157 1826960.000000 1 0 0
1.817400 -15.846587 9.994762 18.823191 -1.456608 1.011038 0.022919 -0.012562 -412774.000000 1 0 0
-8.866500 -15.834487 -5.172138 18.870528 1.060347 1.848435 0.056946 -0.023394 181117.000000 1 0 0
-3.302500 -15.384787 5.943762 16.820418 1.359345 1.209630 0.000898 -0.003389 -476599.000000 1 0 0
-17.331700 -5.471087 -6.575138 19.327521 0.305770 1.917921 0.016644 -0.012852 248281.000000 1 0 0
18.738400 5.645913 -2.961338 19.793269 0.292651 1.720974 0.013436 -0.005456 -85072.500000 1 0 0
12.927000 -12.383287 -5.835538 18.828346 -0.763920 1.885920 0.040374 -0.001675 -1918600.000000 1 0 0
11.056900 -13.502587 -1.565138 17.522116 -0.884653 1.660239 0.025652 -0.008828 1776500.000000 1 0 0
18.801500 -2.745487 4.516962 19.530413 -0.145000 1.337405 0.093305 -0.012905 -586207.000000 1 0 0
8.805300 -16.912687 4.978462 19.706785 -1.090779 1.315402 0.077591 -0.020902 698916.000000 1 0 0
18.094100 -0.943687 6.672262 19.308186 -0.052107 1.217954 0.112902 -0.016743 -1562650.000000 1 0 0
18.107700 -4.187887 -5.049938 19.259519 -0.227280 1.836103 0.096531 -0.007057 -211032.000000 1 0 0
5.442800 -11.721587 14.653162 19.538035 -1.136082 0.722762 0.011494 -0.005095 -68071.800000 1 0 0
16.010300 -8.922587 -0.756338 18.344326 -0.508433 1.612038 0.040043 -0.005469 -436702.000000 1 0 0
13.870600 -12.622487 -1.354238 18.803050 -0.738322 1.642881 0.033833 -0.002526 237686.000000 1 0 0
11.425400 -1.791887 13.878162 18.065270 -0.155566 0.694735 0.056151 -0.011535 -1381610.000000 1 0 0
16.961100 -6.095587 -1.414738 18.078622 -0.345012 1.649131 0.050512 -0.007780 -920155.000000 1 0 0
17.704000 3.800513 -1.028538 18.136521 0.211460 1.627538 0.013357 0.003959 281207.000000 1 0 0
9.800200 -11.056287 9.451462 17.538971 -0.845551 1.001685 0.028535 -0.004966 1392220.000000 1 0 0
9.130900 -11.038087 4.338362 14.967768 -0.879678 1.276729 0.016306 -0.005358 -660602.000000 1 0 0
14.125900 -10.141887 6.753562 18.655013 -0.622681 1.200358 0.055738 -0.010047 188003.000000 1 0 0
16.328000 -0.470687 -4.743738 17.009649 -0.028819 1.853429 0.038054 -0.002515 -814240.000000 1 0 0
15.889000 -0.408187 -1.772638 15.992785 -0.025684 1.681864 0.032207 -0.002759 1807940.000000 1 0 0
13.019400 -5.072787 -0.308638 13.976165 -0.371537 1.592881 0.012549 -0.003138 505594.000000 1 0 0
14.359700 -7.470987 1.080962 16.222981 -0.479735 1.504115 0.031919 -0.003821 1526390.000000 1 0 0
15.587600 2.433513 3.652462 16.193694 0.154868 1.343290 0.033235 -0.004113 623380.000000 1 0 0
16.025400 -7.063387 5.028962 18.220739 -0.415145 1.291164 0.063847 -0.012575 -954016.000000 1 0 0
13.827800 -12.048787 3.239862 18.624661 -0.716756 1.395951 0.035513 -0.005370 44071.400000 1 0 0
13.996700 -0.934587 9.145062 16.745543 -0.066673 0.993072 0.067663 -0.016474 -419296.000000 1 0 0
14.295900 -2.681987 -1.537338 14.626319 -0.185450 1.676098 0.018815 -0.004645 1202880.000000 1 0 0
15.099300 1.912613 8.910662 17.636520 0.125998 1.041137 0.075734 -0.014973 -1643800.000000 1 0 0
14.397500 -10.145587 -2.916338 17.852898 -0.613858 1.734885 0.045096 -0.003319 -17795.000000 1 0 0
7.300500 -12.574587 6.159262 15.790948 -1.044782 1.170110 0.012765 -0.001687 1283580.000000 1 0 0
12.514600 -4.594687 7.069662 15.089946 -0.351867 1.083203 0.019961 -0.005991 1825690.000000 1 0 0
14.996600 -8.964487 -5.597538 18.346456 -0.538777 1.880842 0.067128 -0.004097 464659.000000 1 0 0
14.360500 -4.501687 4.697162 15.765547 -0.303775 1.268264 0.022805 -0.008257 1444760.000000 1 0 0
17.149800 -4.212687 0.989262 17.687312 -0.240871 1.514837 0.040669 -0.009545 -725580.000000 1 0 0
10.324500 -14.466387 1.148562 17.809852 -0.950942 1.506261 0.046548 -0.012178 1456500.000000 1 0 0
16.472500 -2.482187 8.538962 18.719465 -0.149561 1.097128 0.110820 -0.019367 1640680.000000 1 0 0
16.095200 -2.547887 3.223062 16.611301 -0.156998 1.375530 0.038477 -0.004063 2339350.000000 1 0 0
7.897800 -15.248887 2.699662 17.383669 -1.092911 1.414866 0.035702 -0.012259 4190210.000000 1 0 0
16.697000 -7.056987 7.871062 19.762198 -0.399878 1.161146 0.095274 -0.014892 -275137.000000 1 0 0
10.393600 -8.546187 5.124662 14.398833 -0.688164 1.206911 0.009444 -0.006430 1356570.000000 1 0 0
11.017200 -11.884587 2.246762 16.360624 -0.823254 1.433034 0.028520 -0.009293 871755.000000 1 0 0
12.365300 -7.184287 11.914262 18.613550 -0.526335 0.876187 0.057155 -0.020441 61465.800000 1 0 0
15.271500 -9.780687 4.271662 18.631362 -0.569635 1.339466 0.048660 -0.011111 344902.000000 1 0 0
7.399400 -10.188587 7.800262 14.812242 -0.942673 1.016189 0.008445 -0.002309 -72353.500000 1 0 0
15.331400 -3.238387 -4.332738 16.257662 -0.208166 1.840561 0.052370 -0.002274 939839.000000 1 0 0
11.916700 -8.970387 9.753262 17.821383 -0.645264 0.991687 0.049651 -0.010457 -706691.000000 1 0 0
17.025000 -6.630487 2.438562 18.432595 -0.371384 1.438111 0.058612 -0.009165 732336.000000 1 0 0
17.477700 3.989313 1.950762 18.033027 0.224407 1.462407 0.030972 0.001147 223331.000000 1 0 0
14.844600 -4.954687 8.865462 17.986313 -0.322144 1.055376 0.076374 -0.014721 555165.000000 1 0 0
12.975100 -12.671687 6.064562 19.123383 -0.773568 1.248097 0.044109 -0.005862 -131405.000000 1 0 0
18.387000 0.942613 -1.244638 18.453168 0.051220 1.638296 0.051193 -0.005596 -140343.000000 1 0 0
11.707600 -2.070787 10.972962 16.179059 -0.175065 0.825459 0.033396 -0.006554 1895950.000000 1 0 0
5.840600 -12.344387 10.587262 17.279659 -1.128868 0.911323 0.007826 -0.002268 -2008570.000000 1 0 0
10.796500 -4.922887 11.044262 16.210334 -0.427808 0.821246 0.032873 -0.011723 460200.000000 1 0 0
17.925300 1.292313 4.962362 18.644342 0.071970 1.301390 0.077529 -0.003980 -220505.000000 1 0 0
12.424500 -7.719587 7.193362 16.300450 -0.555948 1.113751 0.030942 -0.010814 -902691.000000 1 0 0
10.674100 -7.896987 14.274262 19.494957 -0.636959 0.749246 0.058277 -0.019106 -584381.000000 1 0 0
14.135900 -0.243787 3.692562 14.612259 -0.017244 1.315323 0.012229 0.000929 1545690.000000 1 0 0
11.731500 -7.609387 2.566262 14.216770 -0.575411 1.389292 0.009069 -0.003029 1249600.000000 1 0 0
9.313500 5.994713 3.632362 11.656411 0.571904 1.253900 0.006483 0.001100 2185830.000000 1 0 0
-4.068700 14.840513 -9.974538 18.338118 -1.303210 2.145902 0.018474 -0.008931 504130.000000 1 0 0
8.898000 -6.314787 9.251562 14.305325 -0.617197 0.867518 0.013781 -0.007428 220973.000000 1 0 0
5.844500 -10.482787 -8.479638 14.695280 -1.062188 2.185886 0.000652 -0.004302 431552.000000 1 0 0
5.421900 0.991613 0.505262 5.534942 0.180891 1.479383 0.001997 0.000883 4389070.000000 1 0 0
-0.566900 9.922513 11.047462 14.860150 -1.513726 0.732614 0.010744 -0.002547 -1318820.000000 1 0 0
-6.237400 -5.241987 1.004662 8.209320 0.698901 1.448108 0.010204 -0.002223 2760970.000000 1 0 0
-1.089000 3.878213 -10.907138 11.627215 -1.297046 2.787812 0.011354 -0.002461 2168100.000000 1 0 0
10.909200 5.698713 1.314362 12.377945 0.481388 1.464410 0.005164 0.001462 1345970.000000 1 0 0
-10.261100 -1.975087 -13.600138 17.150945 0.190157 2.486460 0.024248 -0.007260 3052260.000000 1 0 0
7.261000 10.854313 -6.041338 14.388746 0.981214 2.004093 0.007202 0.001408 486209.000000 1 0 0
-12.438200 -2.926687 -9.645738 16.009828 0.231095 2.217412 0.017870 -0.004572 -477292.000000 1 0 0
-3.861900 -8.572987 2.545762 9.741215 1.147549 1.306387 0.010646 -0.000689 -1117130.000000 1 0 0
8.029900 -6.527887 -5.963938 11.944085 -0.682586 2.093612 0.002267 -0.006776 2047010.000000 1 0 0
14.363800 3.156113 -4.240138 15.305508 0.216290 1.851502 0.017917 -0.002291 1966040.000000 1 0 0
-2.478200 -4.950687 9.811162 11.265419 1.106687 0.513746 0.003270 -0.004136 2485000.000000 1 0 0
3.589200 -1.818087 -4.634338 6.137172 -0.468869 2.426643 0.001050 -0.003890 -2392420.000000 1 0 0
-4.040700 8.406213 -3.542038 9.976859 -1.122724 1.933738 0.000673 -0.000430 1184760.000000 1 0 0
5.888200 0.073113 11.864062 13.245082 0.012416 0.460718 0.013143 -0.006120 2163780.000000 1 0 0
7.217200 4.719113 12.517862 15.200489 0.579091 0.603213 0.022450 -0.006891 2333560.000000 1 0 0
1.282000 -14.392087 12.407862 19.045491 -1.481954 0.861255 0.003066 -0.012299 -834178.000000 1 0 0
2.941000 8.747713 -9.215338 13.042025 1.246466 2.355461 0.002162 0.001221 867934.000000 1 0 0
-4.417100 -8.911687 -4.596238 10.956931 1.110633 2.003671 0.012846 -0.002478 3151640.000000 1 0 0
5.720500 -6.469987 -4.096038 9.558367 -0.846802 2.013661 0.000383 -0.005575 1609380.000000 1 0 0
-3.169000 3.461413 8.603562 9.800266 -0.829471 0.499357 0.002669 0.000393 845235.000000 1 0 0
-3.860000 3.105413 -11.030038 12.091523 -0.677486 2.719448 0.006201 -0.003516 184797.000000 1 0 0
3.157200 -6.121487 8.576962 11.000217 -1.094623 0.676596 0.005821 -0.006032 405113.000000 1 0 0
-5.120400 -8.658887 10.414462 14.479497 1.036764 0.768066 0.007906 -0.009750 957772.000000 1 0 0
-13.306700 -2.584187 6.558662 15.058630 0.191814 1.120156 0.023197 -0.003790 699459.000000 1 0 0
3.971900 -5.876287 -8.346438 10.953071 -0.976415 2.437220 -0.001764 -0.005588 1351210.000000 1 0 0
2.910200 -0.558287 12.398562 12.747756 -0.189535 0.234600 0.008616 -0.004341 2835700.000000 1 0 0
1.538700 -1.415587 -7.557238 7.841131 -0.743750 2.871681 0.004442 -0.005897 957703.000000 1 0 0
3.664800 -3.484287 3.408362 6.098192 -0.760154 0.977721 0.003597 -0.003675 1407880.000000 1 0 0
1.533200 0.420013 -11.881138 11.987016 0.267386 3.008583 0.008545 -0.004437 -591223.000000 1 0 0
4.133000 3.616513 -10.667038 11.997773 0.718849 2.666138 0.000909 -0.001291 1446850.000000 1 0 0
2.837100 3.288213 3.341862 5.479920 0.858913 0.914941 -0.003199 0.001915 -1501960.000000 1 0 0
-5.312900 0.871813 2.586762 5.973132 -0.162644 1.122905 0.006143 -0.002950 2984720.000000 1 0 0
-9.397600 -9.280787 5.751462 14.405805 0.779144 1.160102 0.008679 -0.002973 -1112410.000000 1 0 0
-3.076700 3.927513 -0.557238 5.020155 -0.906278 1.682026 0.004096 -0.004005 119394.000000 1 0 0
-15.831600 -6.509587 4.938262 17.815743 0.390104 1.289933 0.038166 -0.009395 2079880.000000 1 0 0
1.013600 6.656013 -8.132038 10.557459 1.419674 2.450052 0.003989 -0.000236 1017130.000000 1 0 0
-1.643100 6.469013 -9.462538 11.579618 -1.322061 2.527284 0.007004 -0.001521 836361.000000 1 0 0
2.131900 -0.352187 5.218962 5.648592 -0.163720 0.392540 0.003951 -0.000692 3368810.000000 1 0 0
-3.407000 -0.527487 -6.249938 7.137760 0.153605 2.637506 0.012852 -0.006960 300935.000000 1 0 0
1.906200 -1.154287 -2.423738 3.292489 -0.544486 2.398148 0.007169 -0.004426 897743.000000 1 0 0
2.443300 -8.591487 -7.685638 11.783565 -1.293725 2.281324 -0.003251 -0.002815 2306690.000000 1 0 0
-2.524900 14.005013 -5.607338 15.295678 -1.392427 1.946144 0.005701 -0.001042 753090.000000 1 0 0
6.848600 -5.070987 -8.199638 11.825916 -0.637355 2.336940 0.003184 -0.007492 3593500.000000 1 0 0
-14.227400 -4.990387 -2.205138 15.237635 0.337351 1.716023 -0.000430 -0.000629 -588803.000000 1 0 0
-2.877700 6.915113 -6.878738 10.169414 -1.176448 2.313680 0.002904 -0.001161 -825014.000000 1 0 0
-5.643900 -1.078887 -8.125638 9.952065 0.188881 2.526080 0.016852 -0.008910 713726.000000 1 0 0
-5.655300 -10.601887 3.489962 12.512484 1.080768 1.288129 0.006854 -0.002052 -2928180.000000 1 0 0
8.203100 -7.565087 6.697562 13.014558 -0.744958 1.030231 0.006564 -0.007195 298925.000000 1 0 0
8.850100 -5.925587 13.191762 16.954628 -0.589996 0.679221 0.035551 -0.012166 -215662.000000 1 0 0
-4.847300 9.472213 -0.751238 10.666935 -1.097802 1.641281 0.001854 0.000148 897472.000000 1 0 0
2.769700 6.586413 12.257762 14.188192 1.172729 0.527753 0.009531 -0.005432 680162.000000 1 0 0
6.079700 -2.838387 10.955462 12.846841 -0.436788 0.549521 0.016067 -0.006082 -680400.000000 1 0 0
-9.712500 -6.472687 -1.168438 11.730029 0.587838 1.670573 0.005927 -0.000192 -1017030.000000 1 0 0
0.950700 -13.274487 6.296262 14.722729 -1.499300 1.128898 0.005768 -0.005060 -153880.000000 1 0 0
-0.495800 -3.208287 8.723762 9.308219 1.417472 0.356252 0.003165 -0.004389 1370920.000000 1 0 0
4.248300 0.744313 3.363462 5.469454 0.173442 0.908469 -0.002509 0.003171 1338280.000000 1 0 0
-10.252000 5.568013 8.327962 14.333919 -0.497542 0.950843 -0.001638 -0.006577 246180.000000 1 0 0
9.349500 7.956513 0.070362 12.276978 0.705080 1.565065 0.004116 0.000039 315333.000000 1 0 0
4.307000 2.868213 8.285662 9.768781 0.587501 0.558261 0.000847 0.000979 4120360.000000 1 0 0
1.393200 2.644813 -9.782538 10.229081 1.085965 2.845027 0.010087 -0.004975 1959270.000000 1 0 0
-1.346500 -10.158387 3.048262 10.691014 1.439014 1.281661 0.007867 -0.001841 -909497.000000 1 0 0
-9.952500 9.490313 9.044062 16.459446 -0.761631 0.989060 0.011378 -0.016082 407504.000000 1 0 0
9.831400 -2.042987 -7.664438 12.632254 -0.204886 2.222744 0.009413 -0.002879 696188.000000 1 0 0
-5.279000 -1.839187 6.662262 8.696907 0.335246 0.698124 0.002814 -0.003138 1232140.000000 1 0 0
3.200800 -7.758287 -5.020138 9.779464 -1.179505 2.109862 -0.004703 -0.005296 3296580.000000 1 0 0
-5.076800 4.898713 -13.080838 14.862019 -0.767548 2.646979 -0.000387 -0.003561 1487970.000000 1 0 0
-5.717400 9.634913 5.475662 12.470088 -1.035241 1.116196 0.004516 -0.001187 1976790.000000 1 0 0
-0.419800 -1.829587 -9.351338 9.537880 1.345250 2.943491 0.010002 -0.007783 -1230260.000000 1 0 0
-16.736800 0.052713 6.421662 17.926545 -0.003150 1.204435 0.042482 -0.011372 -75532.400000 1 0 0
-6.012200 -2.891387 4.062062 7.810699 0.448267 1.023871 0.001516 -0.002910 2466750.000000 1 0 0
1.015700 -5.610387 -5.096438 7.647337 -1.391697 2.300211 0.004402 -0.004023 1293200.000000 1 0 0
-7.051600 1.350613 -8.510738 11.134715 -0.189241 2.440818 0.008881 -0.005231 -739000.000000 1 0 0
7.997400 1.981313 4.838162 9.554675 0.242855 1.039831 0.001853 0.001275 -592656.000000 1 0 0
0.581000 -8.088787 -0.563838 8.129203 -1.499092 1.640212 0.004237 -0.000085 895662.000000 1 0 0
5.359400 5.438013 -3.445938 8.376732 0.792679 1.994753 -0.001500 0.002514 486138.000000 1 0 0
-0.717700 -0.352487 -1.223438 1.461555 0.456529 2.562720 0.006108 -0.004742 666169.000000 1 0 0
8.952300 6.405013 -6.358438 12.712105 0.621027 2.094612 0.006468 -0.002199 1291590.000000 1 0 0
-14.935000 -7.199487 2.457062 16.760787 0.449189 1.423670 -0.003684 -0.001067 707704.000000 1 0 0
-6.462200 6.876213 8.860162 12.943910 -0.816427 0.816873 0.001673 -0.000305 1197270.000000 1 0 0
-9.482800 -3.163387 -9.625238 13.877166 0.321983 2.337275 0.013695 -0.003586 293440.000000 1 0 0
14.857700 3.479113 -1.274938 15.312770 0.230018 1.654153 0.012240 -0.002694 -54912.700000 1 0 0
12.062000 1.685613 -5.846638 13.509860 0.138847 2.018358 0.010074 0.000086 660060.000000 1 0 0
1.651700 -9.369887 12.721762 15.886035 -1.396311 0.642143 -0.002537 -0.007819 -2030780.000000 1 0 0
-3.629500 6.384713 7.917862 10.799554 -1.053885 0.747831 0.001556 -0.000012 446791.000000 1 0 0
-4.116600 13.099213 -12.378838 18.487061 -1.266306 2.304459 0.013760 -0.013004 -584663.000000 1 0 0
-10.308300 7.762913 6.507762 14.452503 -0.645466 1.103711 0.001164 -0.007188 569463.000000 1 0 0
8.075300 -9.199687 -7.193838 14.198451 -0.850394 2.102107 0.004928 -0.005179 479069.000000 1 0 0
5.861000 -3.714787 -0.310238 6.946021 -0.564913 1.615475 0.004448 -0.004558 -564684.000000 1 0 0
-1.611800 -4.421487 4.199662 6.307504 1.221229 0.842204 0.004848 -0.002229 805660.000000 1 0 0
9.977100 -2.056487 -2.624838 10.519574 -0.203274 1.822980 0.006135 -0.002985 -786029.000000 1 0 0
13.482900 7.131913 1.440362 15.320816 0.486546 1.476644 0.012628 -0.004172 -157480.000000 1 0 0
5.487600 -3.632387 -3.254938 7.341840 -0.584714 2.030119 0.002730 -0.006467 -2538300.000000 1 0 0
-12.208400 -6.024587 1.928662 13.749924 0.458417 1.430065 0.003974 0.000102 917891.000000 1 0 0
3.809000 -5.719987 -0.272938 6.877588 -0.983317 1.610492 0.005385 -0.003062 -1222580.000000 1 0 0
-5.284700 3.713413 -8.691738 10.828842 -0.612517 2.502516 0.006185 -0.005495 1731800.000000 1 0 0
-1.693000 -9.234887 7.251862 11.863342 1.389483 0.913115 0.004094 -0.004365 2392580.000000 1 0 0
-7.343500 -7.425487 2.564862 10.753761 0.790949 1.329967 0.009836 -0.002172 -4367830.000000 1 0 0
-5.858700 13.078013 -8.579238 16.702159 -1.149623 2.110242 0.014246 -0.011563 1789030.000000 1 0 0
9.183600 -13.713087 -4.122038 17.011127 -0.980699 1.815547 0.017797 -0.005165 1624230.000000 1 0 0
-6.507100 -5.094187 -6.744738 10.666986 0.664206 2.255315 0.013234 -0.003741 2529590.000000 1 0 0
3.501700 0.446213 -6.291638 7.214272 0.126745 2.630294 0.001191 -0.004475 439293.000000 1 0 0
-3.601000 5.703913 5.005362 8.399731 -1.007664 0.932416 0.004100 0.001288 1653480.000000 1 0 0
-2.569300 -10.801887 -2.937838 11.485337 1.337279 1.829461 0.007540 -0.001461 1050200.000000 1 0 0
-12.625100 -0.505387 1.832462 12.767399 0.040009 1.426772 0.003604 -0.000623 823154.000000 1 0 0
8.451100 -11.888087 -6.034338 15.784832 -0.952800 1.963066 0.015625 -0.008362 -308461.000000 1 0 0
6.140400 3.868713 0.946762 7.319003 0.562217 1.441076 -0.000739 0.002709 -919403.000000 1 0 0
3.398000 -4.800187 -10.902538 12.387636 -0.954795 2.646900 0.001045 -0.006397 1321830.000000 1 0 0
-7.641700 4.274913 8.712762 12.352436 -0.510046 0.787883 0.000166 -0.000672 1530000.000000 1 0 0
8.200400 8.724213 4.137462 12.667953 0.816338 1.238083 0.011494 -0.001788 -1102450.000000 1 0 0
0.169900 10.685813 -6.482438 12.499499 1.554898 2.116028 0.001220 0.002862 1626310.000000 1 0 0
5.416000 8.062013 3.335462 10.269100 0.979253 1.239990 0.003376 0.000356 3785180.000000 1 0 0
7.992800 6.667613 -3.804638 11.082292 0.695251 1.921233 0.002028 0.001044 1123730.000000 1 0 0
10.527100 2.630813 -8.348938 13.691084 0.244893 2.226615 0.006392 0.001734 1235050.000000 1 0 0
3.335800 -12.478387 -0.280238 12.919606 -1.309578 1.592489 0.003951 -0.006365 -1721790.000000 1 0 0
0.642100 2.123113 5.227062 5.678211 1.277109 0.401317 0.002479 -0.000083 2548970.000000 1 0 0
-4.959800 13.303313 1.389862 14.265675 -1.213934 1.473215 0.002009 0.002134 2266220.000000 1 0 0
8.180800 4.100913 -8.110538 12.227993 0.464675 2.295985 0.001414 0.000999 1614460.000000 1 0 0
-13.922900 -0.569187 -3.610738 14.394741 0.040859 1.824341 0.005272 -0.002013 -281509.000000 1 0 0
-8.563900 0.024113 -0.437838 8.575119 -0.002816 1.621878 0.005425 -0.001034 -2193.480000 1 0 0
1.886900 -3.845987 -1.144338 4.434131 -1.114685 1.831826 0.005366 -0.002920 -788130.000000 1 0 0
8.122200 -5.532087 -0.310638 9.832121 -0.597933 1.602396 0.004129 -0.003484 2434640.000000 1 0 0
-2.325200 -1.249387 7.326462 7.787462 0.493059 0.345807 0.005694 -0.002723 1908580.000000 1 0 0
-5.893100 8.786013 -11.754738 15.814441 -0.979981 2.408774 0.001206 -0.003741 -1776470.000000 1 0 0
-6.283400 9.213213 -8.927538 14.285145 -0.972254 2.245867 0.009994 -0.003672 1469350.000000 1 0 0
-1.683700 14.045713 -8.435838 16.470588 -1.451493 2.108513 0.018325 -0.003498 -636998.000000 1 0 0
-1.493300 7.238613 9.838362 12.305317 -1.367354 0.644299 0.002170 -0.002414 -564487.000000 1 0 0
10.090700 2.411213 -4.068438 11.143983 0.234556 1.944514 0.004501 -0.001048 -1471650.000000 1 0 0
-3.002100 -7.483787 -6.989738 10.671275 1.189301 2.284986 0.012185 -0.003503 2452490.000000 1 0 0
-5.508100 -5.069287 -1.659938 7.667609 0.743936 1.789011 0.010955 -0.000714 452234.000000 1 0 0
5.583500 7.453613 -8.814838 12.823151 0.927872 2.328721 -0.002667 0.002917 363698.000000 1 0 0
-9.541600 5.343213 -7.411438 13.210658 -0.510482 2.166413 0.003737 -0.000520 357250.000000 1 0 0
-0.487300 6.202913 -5.401338 8.239420 -1.492397 2.285705 0.006004 0.000475 -2004210.000000 1 0 0
-8.256100 2.839613 -6.396738 10.823348 -0.331267 2.203110 0.005031 -0.001571 1492230.000000 1 0 0
3.651500 1.364613 -1.990238 4.376833 0.357642 2.042855 0.000805 -0.003073 2819010.000000 1 0 0
-6.876800 12.355913 -3.523838 14.573140 -1.062931 1.815021 0.010639 -0.001944 2174140.000000 1 0 0
-6.556200 3.163713 -2.298738 7.633940 -0.449593 1.876664 0.004138 -0.002038 -1265160.000000 1 0 0
12.059000 4.040913 -0.799238 12.743125 0.323335 1.633557 0.003122 0.000168 1113740.000000 1 0 0
2.194500 12.393513 -5.569738 13.763611 1.395544 1.987416 0.001553 0.000625 -769608.000000 1 0 0
-9.195600 -1.370287 -4.290938 10.239575 0.147927 2.003200 0.007584 -0.000624 -1340200.000000 1 0 0
-1.161500 5.738013 3.439462 6.789976 -1.371073 1.039618 0.003424 0.000513 705052.000000 1 0 0
11.661700 2.664113 12.020562 16.958380 0.224596 0.782962 0.060659 -0.003702 109885.000000 1 0 0
-7.065100 -2.288487 -5.792138 9.418157 0.313250 2.233178 0.014414 -0.004120 838380.000000 1 0 0
7.563600 -7.321987 10.833362 15.105670 -0.769168 0.771061 0.013071 -0.004924 30230.400000 1 0 0
-5.466900 -1.961087 -10.899738 12.350593 0.344422 2.652006 0.015602 -0.005859 -171867.000000 1 0 0
0.837400 -6.106087 4.430662 7.590540 -1.434505 0.947508 0.004271 -0.002329 1391830.000000 1 0 0
-4.781800 -9.297087 7.316562 12.760623 1.095748 0.960183 0.001469 -0.005892 948275.000000 1 0 0
-8.864400 9.232813 1.673862 12.908301 -0.805753 1.440757 0.002212 -0.003956 755405.000000 1 0 0
-8.183200 7.203813 -9.181238 14.253239 -0.721834 2.270709 0.006328 -0.002053 -33063.300000 1 0 0
-1.139200 -10.672887 -0.119938 10.734183 1.464461 1.581970 0.006634 -0.000635 162131.000000 1 0 0
-3.948800 10.351013 7.684862 13.483086 -1.206349 0.964335 0.007452 0.001435 1136000.000000 1 0 0
-7.570900 12.005313 1.886762 14.318029 -1.008159 1.438637 0.000630 -0.007100 402083.000000 1 0 0
-8.082400 -8.226587 -2.824538 11.873497 0.794239 1.810985 0.015825 -0.002732 274875.000000 1 0 0
5.410200 4.686213 -8.048438 10.770711 0.713813 2.414714 0.000923 0.001477 886712.000000 1 0 0
-9.005600 -0.142687 -10.280338 13.667719 0.015843 2.422133 0.012188 -0.004591 -1782180.000000 1 0 0
-15.262900 -2.280187 -1.575938 15.512542 0.148297 1.672563 0.001344 -0.003484 -1014600.000000 1 0 0
-7.156900 -5.787787 8.742762 12.694707 0.680023 0.811111 0.011209 -0.007074 -1021670.000000 1 0 0
8.072500 3.396813 -1.011738 8.816303 0.398298 1.685807 -0.000398 0.001985 1587890.000000 1 0 0
11.812700 7.224813 -5.833538 15.025577 0.548916 1.969518 0.011608 -0.003480 782198.000000 1 0 0
3.648000 13.280813 -9.585838 16.780232 1.302726 2.178834 0.002895 0.000299 787122.000000 1 0 0
-9.768400 5.391513 -0.458738 11.166938 -0.504327 1.611888 -0.000782 -0.001402 1295770.000000 1 0 0
11.314200 -1.252587 -5.136038 12.488354 -0.110260 1.994639 0.016690 -0.004935 -522443.000000 1 0 0
10.633500 1.695813 -1.344538 10.851492 0.158147 1.695019 0.005210 -0.000655 2311230.000000 1 0 0
14.655600 5.100113 4.836162 16.253806 0.334890 1.268681 0.027273 -0.006254 1098750.000000 1 0 0
0.861200 -0.866587 10.295562 10.367798 -0.788516 0.118114 0.006286 -0.002792 2782090.000000 1 0 0
-7.942400 1.319313 -12.682038 15.021864 -0.164607 2.575939 0.007070 -0.003542 93066.100000 1 0 0
3.212400 -11.483387 -7.808438 14.253399 -1.298026 2.150564 -0.007247 -0.001274 157504.000000 1 0 0
2.868600 5.035913 -6.784538 8.922962 1.053008 2.434642 0.001319 0.000861 -1381450.000000 1 0 0
6.483400 7.974213 0.581062 10.293696 0.888151 1.514318 0.003447 -0.000898 216184.000000 1 0 0
-9.076400 -5.447587 6.799862 12.581549 0.540561 0.999809 0.006967 -0.003948 -1169310.000000 1 0 0
-0.258100 -6.831987 -11.821538 13.656186 1.533036 2.617252 -0.002839 -0.000733 2586570.000000 1 0 0
6.429900 -13.198887 -4.560638 15.373797 -1.117478 1.871979 0.006894 -0.008125 1128780.000000 1 0 0
-3.261000 -0.284187 9.951362 10.475900 0.086928 0.317788 0.003090 -0.000908 664799.000000 1 0 0
8.637200 8.395813 6.987862 13.925556 0.771227 1.045116 0.008574 -0.001251 933344.000000 1 0 0
-7.966000 5.703013 -2.583638 10.131965 -0.621330 1.828643 0.001824 -0.002767 621676.000000 1 0 0
-5.459600 5.805513 -6.435838 10.243595 -0.816095 2.250136 0.004443 -0.001498 -988143.000000 1 0 0
3.377500 -13.555287 2.543562 14.199402 -1.326604 1.390693 0.008166 -0.006916 -1752380.000000 1 0 0
-11.242600 -7.035087 6.525262 14.780648 0.559140 1.113556 0.019833 -0.005506 -2158150.000000 1 0 0
-12.926600 -3.705687 -6.756438 15.049205 0.279184 2.036394 0.012732 -0.005887 -1727640.000000 1 0 0
6.127900 0.453113 -7.293138 9.536579 0.073808 2.441456 -0.001518 0.000018 -331470.000000 1 0 0
-1.436100 2.229513 -2.511438 3.652456 -0.998557 2.328978 0.006667 -0.005302 3301450.000000 1 0 0
7.666400 0.953513 -4.949038 9.174740 0.123740 2.140544 0.001394 -0.000326 170480.000000 1 0 0
3.683500 -4.500987 10.858862 12.318357 -0.884950 0.491727 0.007676 -0.005685 -129839.000000 1 0 0
6.103200 -2.575887 2.101562 6.949878 -0.399374 1.263599 0.006167 -0.003107 -1360560.000000 1 0 0
-6.386200 7.672313 1.163162 10.049920 -0.876627 1.454798 0.002977 -0.003224 1731610.000000 1 0 0
6.084400 -3.411387 7.988462 10.605329 -0.511004 0.717807 0.008801 -0.006736 -414673.000000 1 0 0
6.846300 -2.228287 -7.874838 10.670059 -0.314660 2.400945 0.003068 -0.004363 -431457.000000 1 0 0
12.153600 -8.059387 -5.898638 15.730786 -0.585548 1.955165 0.034253 -0.007272 1494270.000000 1 0 0
5.601800 -9.528887 9.967962 14.884223 -1.039340 0.836992 -0.000880 -0.001113 2724890.000000 1 0 0
-6.719900 7.550813 -4.472538 11.053300 -0.843558 1.987375 0.004898 -0.002813 1446490.000000 1 0 0
-1.288500 -7.531487 9.718662 12.362682 1.401355 0.666276 0.003684 -0.007718 -1514680.000000 1 0 0
10.237000 -9.220587 0.770862 13.798899 -0.733208 1.514903 0.009907 -0.004824 1354050.000000 1 0 0
11.222800 6.082813 9.860262 16.129991 0.496684 0.913094 0.019923 -0.008082 1923180.000000 1 0 0
-15.273700 -4.277787 -5.011938 16.634449 0.273079 1.876851 0.004431 -0.007745 1212780.000000 1 0 0
-4.692600 -4.551687 7.831062 10.201170 0.770156 0.695610 0.005161 -0.005104 -327760.000000 1 0 0
2.883500 10.918513 -11.191538 15.899026 1.312599 2.351689 0.001468 -0.001843 -822045.000000 1 0 0
9.893100 -1.410187 1.503762 10.105610 -0.141589 1.421437 0.006010 -0.001198 -242275.000000 1 0 0
-1.588200 -2.635387 0.636962 3.142191 1.028435 1.366669 0.007400 -0.005091 634392.000000 1 0 0
1.575400 3.017013 0.829962 3.503297 1.089569 1.331614 -0.001971 0.000236 -371726.000000 1 0 0
-8.990300 -2.414387 4.266862 10.240160 0.262364 1.141007 0.003425 -0.001713 2424960.000000 1 0 0
9.870200 4.926413 -2.673838 11.350762 0.462943 1.808596 0.002582 0.000904 1611600.000000 1 0 0
2.552600 8.319713 2.572762 9.074828 1.273100 1.283349 0.000217 -0.000426 1432730.000000 1 0 0
-8.194700 -0.070187 2.487362 8.564170 0.008565 1.276112 0.003632 -0.002396 955306.000000 1 0 0
7.049800 2.061213 13.862862 15.688442 0.284450 0.487225 0.037188 -0.011300 543704.000000 1 0 0
6.800800 4.358413 3.730262 8.897275 0.569929 1.138167 -0.001179 0.002543 84053.500000 1 0 0
-0.347200 3.430913 7.731862 8.466014 -1.469942 0.419525 -0.000043 0.001689 -177911.000000 1 0 0
2.723900 -10.140187 9.280562 14.013274 -1.308367 0.846953 0.000931 -0.007267 1593310.000000 1 0 0
1.349800 -4.527487 6.890962 8.354966 -1.281052 0.600993 0.002676 -0.004633 -531857.000000 1 0 0
-0.229000 10.847013 -1.978038 11.028271 -1.549688 1.751133 0.005504 -0.000124 2044970.000000 1 0 0
8.746300 5.512713 8.122362 13.147643 0.562395 0.904879 0.010088 -0.001281 63690.100000 1 0 0
2.533200 11.395313 -2.973638 12.046277 1.352051 1.820226 0.003644 -0.002832 1001170.000000 1 0 0
1.494500 2.457013 -6.689838 7.281784 1.024326 2.735595 0.006831 -0.004368 2606810.000000 1 0 0
-13.687100 -2.364787 3.609362 14.351182 0.171086 1.316564 0.007334 0.002032 1032730.000000 1 0 0
-0.865700 -10.631187 -5.359938 11.937358 1.489545 2.036448 0.001800 -0.001395 -536720.000000 1 0 0
-5.693800 2.824413 0.444362 6.371352 -0.460483 1.500996 0.007858 -0.003164 648330.000000 1 0 0
3.633100 7.291113 -5.072238 9.596215 1.108516 2.127707 -0.000970 0.001333 -1394470.000000 1 0 0
2.879300 9.800613 -6.587438 12.154700 1.285049 2.143571 0.000072 0.002573 1263920.000000 1 0 0
-12.249500 1.663213 -2.554738 12.623123 -0.134953 1.774590 0.004518 0.000617 913189.000000 1 0 0
-2.578800 9.646913 -5.890038 11.593347 -1.309585 2.103719 0.002215 0.000218 138218.000000 1 0 0
-1.318200 3.317113 1.737162 3.969713 -1.192539 1.117864 0.002082 -0.001510 513404.000000 1 0 0
12.923600 3.714013 9.639562 16.544923 0.279841 0.948836 0.043657 -0.006904 -168418.000000 1 0 0
-2.514400 -9.489287 11.611662 15.205244 1.311776 0.701831 -0.001133 -0.012850 1817940.000000 1 0 0
-0.411100 -8.887187 -7.610138 11.707489 1.524572 2.278411 0.001525 -0.002129 997236.000000 1 0 0
2.311200 7.550313 -0.471138 7.910174 1.273747 1.630393 -0.000408 0.000832 946813.000000 1 0 0
-11.867100 -1.269487 -5.569638 13.170442 0.106570 2.007428 0.006980 0.001128 -816710.000000 1 0 0
-6.233300 -7.173787 -10.924838 14.479963 0.855432 2.425657 0.012441 -0.002404 557669.000000 1 0 0
-4.731700 -2.293387 -1.384638 5.437447 0.451321 1.828281 0.008887 -0.003108 -763955.000000 1 0 0
-10.522900 3.655613 4.574362 12.042414 -0.334353 1.181158 -0.000623 -0.002387 3169360.000000 1 0 0
6.650400 9.278613 -3.599838 11.969934 0.948920 1.876265 -0.001164 0.003111 421776.000000 1 0 0
1.236100 -2.683287 -11.523038 11.895730 -1.139108 2.890615 0.005642 -0.005756 -1364170.000000 1 0 0
1.230100 8.793213 7.563662 11.663735 1.431806 0.865215 -0.000859 0.004143 1106220.000000 1 0 0
10.414400 0.465213 10.504762 14.799533 0.044641 0.781577 0.024823 -0.005713 640189.000000 1 0 0
-5.256500 -0.836287 -3.979838 6.645998 0.157773 2.212839 0.012702 -0.005544 -264906.000000 1 0 0
11.744800 5.666313 5.539062 14.167873 0.449512 1.169123 0.011501 -0.000757 3394140.000000 1 0 0
10.001500 -3.515787 3.703462 11.229710 -0.338034 1.234714 0.008705 -0.007120 -916635.000000 1 0 0
7.363100 -1.676387 -3.437538 8.297119 -0.223858 1.997975 0.002770 -0.001604 -4557480.000000 1 0 0
2.319700 9.224113 10.518162 14.180867 1.324423 0.735173 0.005193 -0.001282 2640520.000000 1 0 0
2.512000 -10.799387 6.363862 12.784195 -1.342254 1.049746 -0.001896 -0.001831 1750800.000000 1 0 0
5.995000 -7.559987 -1.285838 9.733797 -0.900344 1.703284 -0.000022 -0.005841 1621570.000000 1 0 0
-0.229600 -5.586387 -2.328438 6.056572 1.529719 1.965406 0.007795 -0.000920 1009160.000000 1 0 0
7.783100 -5.123187 2.703762 9.702268 -0.582150 1.288384 0.005273 -0.006116 2425190.000000 1 0 0
-2.650400 -12.407187 4.726162 13.538815 1.360341 1.214205 0.007194 -0.003132 -829621.000000 1 0 0
4.972200 -10.295587 -1.158538 11.491914 -1.120886 1.671781 0.000062 -0.004680 -114106.000000 1 0 0
1.001200 0.233013 1.100062 1.505600 0.228663 0.751528 0.000675 -0.001396 -1187760.000000 1 0 0
-1.611300 8.552313 2.426362 9.034688 -1.384574 1.298898 0.002960 0.000995 1475940.000000 1 0 0
-7.487800 0.672813 -3.038238 8.108682 -0.089614 1.954858 0.006563 -0.000321 -127080.000000 1 0 0
4.470300 -6.333487 12.930862 15.076598 -0.956175 0.540060 0.015909 -0.011865 -148637.000000 1 0 0
-5.192000 12.994413 8.373062 16.307048 -1.190672 1.031581 0.015480 -0.008222 2691810.000000 1 0 0
0.529000 6.144213 8.231362 10.285257 1.484911 0.642990 -0.000926 0.003548 552650.000000 1 0 0
7.994900 -0.589987 -0.751738 8.051808 -0.073662 1.664295 0.003861 -0.001490 3333180.000000 1 0 0
2.578700 -9.174287 -2.458538 9.841831 -1.296787 1.823275 -0.004362 -0.001449 1600410.000000 1 0 0
-7.224400 12.137513 4.704262 14.887621 -1.033904 1.249302 0.006280 -0.008753 292338.000000 1 0 0
-15.008700 0.144713 0.167862 15.010337 -0.009642 1.559613 0.006057 -0.002737 378671.000000 1 0 0
6.895000 -0.507587 3.965962 7.970415 -0.073484 1.049984 0.002034 0.001673 978941.000000 1 0 0
-4.200300 -5.035087 5.120162 8.319295 0.875543 0.907832 0.006521 -0.003453 668835.000000 1 0 0
2.890400 5.113413 6.950962 9.100400 1.056314 0.701603 -0.002339 0.003531 299945.000000 1 0 0
2.140900 -7.187587 1.783662 7.708846 -1.281303 1.337302 0.003220 -0.001332 1926700.000000 1 0 0
-2.535900 6.436013 -1.819938 7.152988 -1.195458 1.828055 0.005415 -0.000479 1399090.000000 1 0 0
2.774200 -3.795687 -6.554538 8.066312 -0.939643 2.519364 0.000234 -0.006388 -1158370.000000 1 0 0
-5.133600 0.917013 -12.217138 13.283570 -0.176765 2.738158 0.008494 -0.001682 -543193.000000 1 0 0
-7.512300 6.325713 -11.936838 15.457600 -0.699859 2.453142 0.003035 -0.004802 1886050.000000 1 0 0
-1.031500 11.387413 -9.100238 14.613402 -1.480460 2.243026 0.005792 0.003384 2516270.000000 1 0 0
4.615000 5.898813 -0.694338 7.521724 0.906904 1.663239 0.000167 0.000597 -60940.300000 1 0 0
-2.672000 13.339413 3.486062 14.043937 -1.373104 1.319948 0.004522 0.004402 1507070.000000 1 0 0
1.454600 -7.803687 10.216462 12.937909 -1.386512 0.660553 0.000052 -0.007422 -1690520.000000 1 0 0
13.086600 -0.177487 -1.067638 13.131277 -0.013562 1.652191 0.011780 -0.003466 -135635.000000 1 0 0
-1.032400 3.138213 -5.422738 6.349829 -1.252971 2.594417 0.007585 -0.005529 -67154.800000 1 0 0
6.574800 1.082813 7.379762 9.942905 0.163226 0.734429 0.004788 0.001434 1496450.000000 1 0 0
5.556000 -6.187087 6.907662 10.810410 -0.839088 0.877622 0.002697 -0.004281 981851.000000 1 0 0
12.309000 -4.820987 2.635962 13.479677 -0.373299 1.373977 0.008743 -0.002815 -953427.000000 1 0 0
4.382000 -9.210187 13.861662 17.209739 -1.126714 0.634354 0.006251 -0.004713 1392520.000000 1 0 0
-2.703000 -4.330387 -1.460938 5.309689 1.012777 1.849538 0.013166 -0.003922 2183490.000000 1 0 0
-9.323200 -5.184287 -7.591638 13.093199 0.507486 2.189298 0.011595 -0.003290 1484580.000000 1 0 0
-10.600200 -3.178587 7.847462 13.566514 0.291329 0.953977 0.007262 -0.004063 954755.000000 1 0 0
12.052000 -0.591787 1.630462 12.176178 -0.049063 1.436487 0.007319 -0.002023 300663.000000 1 0 0
-7.677300 4.664313 4.416862 10.010266 -0.545950 1.113824 0.003498 -0.003372 2043030.000000 1 0 0
-1.089700 10.599113 7.022362 12.760964 -1.468346 0.988073 0.003517 0.004387 3091230.000000 1 0 0
7.490300 -9.939387 1.887562 12.588045 -0.924997 1.420280 0.005218 -0.006048 3481560.000000 1 0 0
-4.260100 -1.765487 1.657062 4.900128 0.392878 1.225828 0.006554 -0.000650 2555500.000000 1 0 0
6.758200 -14.932387 -0.895738 16.414987 -1.145793 1.625392 0.020811 -0.014165 -898763.000000 1 0 0
-10.538300 1.639713 2.417062 10.935567 -0.154358 1.347928 -0.000800 0.000698 1632210.000000 1 0 0
-3.047800 8.305413 -11.363938 14.401669 -1.219088 2.480091 0.002274 -0.002106 -117961.000000 1 0 0
-1.272600 -5.173887 -6.883338 8.704537 1.329618 2.482872 0.006655 -0.004597 -1305380.000000 1 0 0
12.839200 -0.484787 6.430562 14.367748 -0.037740 1.106751 0.018747 -0.008924 1437160.000000 1 0 0
6.077200 -13.250687 3.732962 15.048191 -1.140787 1.320112 0.015511 -0.004766 2446480.000000 1 0 0
-5.611600 3.533413 -4.951338 8.275918 -0.561945 2.212153 0.005826 -0.003728 2109140.000000 1 0 0
-4.430100 8.037613 3.393662 9.784986 -1.067054 1.216614 0.004652 -0.001340 512726.000000 1 0 0
13.969400 6.107513 -3.994838 15.760856 0.412164 1.827058 0.021365 -0.003096 518725.000000 1 0 0
-6.664800 -8.508187 5.274162 12.026038 0.906297 1.116799 0.010649 -0.003447 365221.000000 1 0 0
1.690200 11.239913 2.745562 11.693183 1.421540 1.333783 0.003414 0.000173 1894750.000000 1 0 0
-7.509100 7.283113 5.949562 12.034434 -0.770122 1.053677 0.003487 -0.004440 -1061420.000000 1 0 0
-17.505400 -4.067487 5.317962 18.742044 0.228305 1.283099 0.053462 -0.009306 1283870.000000 1 0 0
7.586900 -12.987687 -8.518838 17.286170 -1.042105 2.086115 0.017911 -0.005360 -870266.000000 1 0 0
-2.430900 12.805113 -2.818038 13.334974 -1.383190 1.783729 0.002093 0.001184 2431780.000000 1 0 0
-5.564600 13.870713 -5.796738 16.030085 -1.189276 1.940797 0.017745 -0.003904 2499610.000000 1 0 0
-5.709400 2.471713 7.488862 9.735999 -0.408560 0.693219 0.004431 -0.002648 13466.700000 1 0 0
-7.488900 5.002113 1.469462 9.124915 -0.588882 1.409054 0.004668 -0.001484 930158.000000 1 0 0
10.691600 -5.621787 -5.017338 13.080079 -0.484084 1.964473 0.016326 -0.005987 2887960.000000 1 0 0
-9.565900 -0.799587 6.809562 11.769279 0.083393 0.953800 0.001335 -0.001812 1715980.000000 1 0 0
-11.325400 -4.500887 -2.523338 12.445477 0.378276 1.774963 0.005233 0.000636 -140974.000000 1 0 0
6.598700 -4.315787 13.528962 15.658916 -0.579207 0.527679 0.031382 -0.014835 -98642.900000 1 0 0
0.138100 10.315313 -11.768438 15.649949 1.557409 2.421856 0.005270 0.000700 -1263810.000000 1 0 0
-11.766000 -3.250887 1.470062 12.295044 0.269570 1.450944 0.000596 -0.000670 2768300.000000 1 0 0
5.189300 5.942413 5.464862 9.597178 0.852950 0.964992 0.000220 0.002254 -4436600.000000 1 0 0
-7.199400 0.014913 8.149962 10.874441 -0.002071 0.723550 0.001545 -0.002574 1301150.000000 1 0 0
1.685800 2.038613 9.617962 9.975122 0.879846 0.268406 0.003307 -0.001386 1377610.000000 1 0 0
10.660600 -4.950887 -2.017438 11.926010 -0.434772 1.740777 0.004581 -0.002934 1927100.000000 1 0 0
-9.669700 -2.366287 -1.688938 10.097273 0.239995 1.738853 0.007831 -0.001022 -443684.000000 1 0 0
-2.017400 -5.211287 -9.922038 11.387461 1.201441 2.628667 0.007750 -0.005000 1561660.000000 1 0 0
7.659700 -1.565387 6.571262 10.212880 -0.201591 0.871827 0.005272 -0.003591 2063170.000000 1 0 0
1.603400 -11.784787 -2.630438 12.180776 -1.435570 1.788461 0.000310 -0.000850 -3287280.000000 1 0 0
-0.742100 -1.493187 4.758162 5.041867 1.109559 0.337063 0.007266 -0.003239 3752170.000000 1 0 0
7.623400 1.480413 9.972262 12.639377 0.191806 0.661643 0.011348 -0.001988 1564490.000000 1 0 0
-3.924700 10.792113 -8.084138 14.043727 -1.222001 2.184184 0.010937 0.001110 4129180.000000 1 0 0
-9.712300 12.566813 6.316962 17.092618 -0.912829 1.192247 0.013036 -0.014618 1501500.000000 1 0 0
-2.531600 -2.453987 -11.032938 11.582607 0.769832 2.832282 0.013041 -0.008311 -1650340.000000 1 0 0
1.150900 -11.813187 11.060262 16.223604 -1.473678 0.820660 -0.006005 -0.007593 395300.000000 1 0 0
1.403700 3.420613 -1.999038 4.203228 1.181387 2.066438 0.000793 -0.001613 1251610.000000 1 0 0
-1.879300 -9.420087 -12.026738 15.391954 1.373882 2.467647 -0.002797 -0.000664 2169960.000000 1 0 0
1.356000 -2.617987 1.573262 3.341817 -1.092888 1.080621 0.008335 -0.003794 3103870.000000 1 0 0
-1.001900 -2.238987 -6.568038 7.011134 1.150041 2.784169 0.009304 -0.008772 572261.000000 1 0 0
1.806500 5.814513 4.118062 7.350540 1.269563 0.976122 -0.003444 0.004058 -1828530.000000 1 0 0
-11.085600 8.549113 3.638862 14.464411 -0.656926 1.316491 -0.004429 -0.007196 1629790.000000 1 0 0
-16.392500 -1.612987 3.971062 16.943586 0.098082 1.334226 0.028417 -0.005777 141338.000000 1 0 0
-12.291400 0.187913 6.797062 14.046846 -0.015287 1.065707 0.000751 0.000792 807329.000000 1 0 0
-5.144200 2.968713 4.725862 7.590114 -0.523410 0.898692 0.004517 -0.000912 2050370.000000 1 0 0
5.231400 -5.986287 4.039462 8.917422 -0.852591 1.100685 0.001599 -0.005046 512407.000000 1 0 0
9.919200 3.430713 6.368262 12.276607 0.332987 1.025430 0.001992 0.004121 445509.000000 1 0 0
-12.195100 5.800013 3.230462 13.885118 -0.443939 1.335988 -0.001183 -0.001153 1519210.000000 1 0 0
-5.040200 12.238413 -1.367038 13.306058 -1.180130 1.673716 0.002798 0.004079 1101410.000000 1 0 0
-1.704100 -12.121587 10.378662 16.048472 1.431128 0.867537 0.005390 -0.010212 1882010.000000 1 0 0
5.266200 6.336913 13.971362 16.219996 0.877416 0.532843 0.019285 -0.010879 1837620.000000 1 0 0
12.988400 -3.615887 -5.773238 14.666405 -0.271518 1.975381 0.014539 -0.006600 837100.000000 1 0 0
3.565900 -2.561887 6.374862 7.740657 -0.622995 0.603145 0.001433 -0.001002 1811800.000000 1 0 0
7.338400 -11.790287 -0.615538 13.901146 -1.014061 1.615090 0.005625 -0.005514 -1394010.000000 1 0 0
-6.110900 -6.631987 -4.136638 9.921599 0.826268 2.000864 0.014402 -0.000934 -1270300.000000 1 0 0
0.411400 -8.883387 5.115462 10.259228 -1.524518 1.048790 0.004883 -0.002770 2150560.000000 1 0 0
-10.298900 2.442513 -0.390938 10.591792 -0.232860 1.607714 0.002020 0.000566 -1648090.000000 1 0 0
-1.926900 8.937013 -0.433638 9.152660 -1.358438 1.618192 0.005141 -0.000607 1668840.000000 1 0 0
-3.591200 2.332513 -6.558338 7.832569 -0.576029 2.563152 0.011661 -0.006837 497824.000000 1 0 0
-12.733700 3.020913 6.541562 14.630963 -0.232931 1.107271 0.000536 -0.002945 253519.000000 1 0 0
11.367400 1.640713 7.981862 13.986416 0.143345 0.963454 0.013483 -0.007104 -1577410.000000 1 0 0
5.949300 2.648613 -3.276738 7.290153 0.418853 2.036973 -0.000943 0.000187 2347300.000000 1 0 0
10.537300 -2.414987 6.460462 12.593824 -0.225294 1.032136 0.010510 -0.007555 3525210.000000 1 0 0
-0.927600 10.993213 4.104062 11.770918 -1.486616 1.214654 0.006928 0.003181 915271.000000 1 0 0
-1.527000 -12.233287 7.496562 14.428564 1.446615 1.024456 0.001447 -0.003743 -558848.000000 1 0 0
8.008100 8.708213 -7.907138 14.229739 0.827256 2.159973 0.007193 0.001310 1280010.000000 1 0 0
-4.715600 -5.967587 -8.800438 11.631711 0.902058 2.428879 0.013909 -0.004609 129120.000000 1 0 0
-8.520300 -5.286087 -11.660238 15.378537 0.555292 2.431367 0.015616 -0.002839 3046940.000000 1 0 0
6.101800 -0.591087 -9.956738 11.692646 -0.096570 2.589709 0.002454 -0.001636 -1334460.000000 1 0 0
-11.192900 -5.422487 -5.392238 13.555833 0.451137 1.979892 0.005843 -0.004503 -1281330.000000 1 0 0
3.790800 8.917513 -2.728938 10.066743 1.168844 1.845316 0.003726 -0.000616 737748.000000 1 0 0
11.705500 -10.289587 -3.997938 16.089681 -0.721113 1.821905 0.023221 -0.006845 95984.800000 1 0 0
4.106400 -11.165387 3.915762 12.524439 -1.218371 1.252815 0.002544 -0.001788 862174.000000 1 0 0
-0.980400 0.869413 3.191562 3.450091 -0.725471 0.389587 0.005956 -0.002356 -891858.000000 1 0 0
-10.581700 -5.122687 4.517262 12.594441 0.450853 1.203952 0.011109 -0.003623 4324250.000000 1 0 0
4.711300 -8.542487 2.702362 10.122904 -1.066792 1.300564 0.000652 -0.002017 3910350.000000 1 0 0
-3.675500 -5.660787 2.603262 7.234002 0.994919 1.202673 0.007666 -0.001629 1030470.000000 1 0 0
10.111800 5.106313 12.422362 16.811841 0.467628 0.739352 0.032741 -0.000198 611724.000000 1 0 0
1.717900 -12.268587 -5.328138 13.485491 -1.431677 1.976975 -0.003164 -0.001292 296440.000000 1 0 0
9.976400 -10.736987 -1.668538 14.751117 -0.822101 1.684152 0.012036 -0.008282 -448136.000000 1 0 0
9.606700 -4.550787 -9.257938 14.096374 -0.442395 2.287311 0.017694 -0.006170 2737860.000000 1 0 0
-7.399400 -3.074287 -13.116338 15.370123 0.393778 2.593204 0.017199 -0.004599 2672320.000000 1 0 0
0.379400 6.184613 -2.481838 6.674796 1.509527 1.951768 0.002328 -0.001005 1505300.000000 1 0 0
-5.873900 -9.471987 1.008562 11.190998 1.015704 1.480551 0.011065 -0.000455 358757.000000 1 0 0
-9.002200 -4.157887 0.510062 9.929139 0.432685 1.519404 0.004870 -0.001943 3833730.000000 1 0 0
1.896600 3.799013 12.087362 12.811475 1.107761 0.337820 0.005686 -0.005442 1391770.000000 1 0 0
6.674100 4.273013 9.727162 12.546710 0.569482 0.683645 0.004325 0.001657 1591960.000000 1 0 0
-8.430700 9.749913 -3.596638 13.381828 -0.857833 1.842912 0.005515 -0.001507 2015270.000000 1 0 0
16.425900 2.137513 -6.042138 17.631976 0.129403 1.920565 0.041699 -0.000753 -57443.900000 1 0 0
-11.019600 2.679113 -5.102738 12.435722 -0.238495 1.993611 0.002559 0.001744 2486190.000000 1 0 0
-13.805500 3.952013 1.544162 14.442807 -0.278808 1.463676 -0.001556 0.004674 -550070.000000 1 0 0
-17.490700 10.395013 3.474262 20.641012 -0.536230 1.401673 0.045906 -0.024585 481951.000000 1 0 0
-14.374200 2.763713 -1.087538 14.677823 -0.189951 1.644958 0.004287 0.002066 1037990.000000 1 0 0
-14.368000 5.153413 5.245562 16.140416 -0.344380 1.239789 0.004154 -0.004804 135818.000000 1 0 0
-17.504200 7.574913 3.161762 19.333212 -0.408415 1.406518 0.037893 -0.007765 -2598290.000000 1 0 0
-15.126500 12.651913 -3.384138 20.008356 -0.696550 1.740750 0.042591 -0.007054 -1062910.000000 1 0 0
-8.673600 12.443813 -9.656638 17.981393 -0.962072 2.137715 0.022830 -0.017742 2926860.000000 1 0 0
-12.556400 8.673613 -10.042838 18.268918 -0.604506 2.152829 0.011157 0.000476 -291998.000000 1 0 0
-13.901900 -3.536987 -12.258238 18.868956 0.249139 2.277922 0.027384 -0.002112 -2119080.000000 1 0 0
-14.819200 5.712013 -7.690538 17.645968 -0.367898 2.021750 0.017765 0.006199 412467.000000 1 0 0
-11.131000 13.396013 -8.419138 19.345134 -0.877485 2.021065 0.028629 -0.016651 1711040.000000 1 0 0
-11.031300 13.470813 3.851962 17.832274 -0.884634 1.353069 0.008841 -0.013483 23577.700000 1 0 0
-15.244400 3.252613 3.159062 15.904430 -0.210212 1.370839 0.006785 0.002390 -198952.000000 1 0 0
-11.171000 9.365913 -12.587738 19.260393 -0.697729 2.283069 0.025553 -0.012145 -125974.000000 1 0 0
-13.277100 11.408313 -9.184138 19.768141 -0.709838 2.053971 0.028869 -0.016334 393738.000000 1 0 0
-8.986300 14.578313 -3.645438 17.509141 -1.018394 1.780533 0.017842 -0.006891 442352.000000 1 0 0
-16.698700 8.221913 -4.095638 19.058350 -0.457524 1.787386 0.030793 0.001159 -532559.000000 1 0 0
-17.001500 6.696613 0.433462 18.277952 -0.375223 1.547079 0.030864 0.001478 -1057430.000000 1 0 0
-10.493000 2.762513 -12.555538 16.594459 -0.257430 2.428910 0.013017 -0.004927 791206.000000 1 0 0
-16.907600 0.873413 2.371562 17.095441 -0.051612 1.431623 0.029903 -0.005967 562272.000000 1 0 0
-12.740400 1.207513 -7.033038 14.602723 -0.094496 2.073304 0.008377 -0.000478 474848.000000 1 0 0
-12.402000 8.988413 -5.488138 16.270244 -0.627148 1.914856 0.008416 0.002952 -2189720.000000 1 0 0
-9.719600 13.877513 1.174462 16.983385 -0.959812 1.501588 0.018458 -0.011345 543325.000000 1 0 0
-12.319900 11.109613 2.688862 16.805756 -0.733788 1.410109 0.003025 -0.009533 455766.000000 1 0 0
-12.625600 6.860213 -3.646138 14.824393 -0.497729 1.819301 0.000605 0.004568 -687402.000000 1 0 0
-15.958800 3.556513 -9.398638 18.859122 -0.219273 2.092503 0.031863 -0.001060 -1419720.000000 1 0 0
-15.127200 5.762213 -4.652738 16.842899 -0.363948 1.850679 0.012285 0.008366 1806050.000000 1 0 0
-17.963100 5.068613 7.543762 20.131372 -0.275018 1.186694 0.048945 -0.020600 -354617.000000 1 0 0
-15.759200 10.129313 -2.093538 18.850419 -0.571266 1.682086 0.019049 0.000450 -1278890.000000 1 0 0
-8.893800 9.894913 -8.453338 15.762865 -0.838631 2.136822 0.008984 -0.006398 -1008880.000000 1 0 0
-16.988700 4.223913 -1.225438 17.548763 -0.243690 1.640684 0.017264 0.003511 253623.000000 1 0 0
-10.245700 5.408013 -4.535938 12.441693 -0.485665 1.943973 0.001442 0.000226 536147.000000 1 0 0
-18.222000 2.534213 6.132462 19.392540 -0.138188 1.249046 0.065322 -0.023727 -595322.000000 1 0 0
-10.430800 10.010613 -5.833638 15.589910 -0.764845 1.954323 0.004499 -0.004833 652735.000000 1 0 0
-15.442200 0.431313 -5.883138 16.530544 -0.027924 1.934668 0.012295 0.001276 -651037.000000 1 0 0
-16.429500 -4.184087 -8.921438 19.157952 0.249368 2.055197 0.034621 -0.017347 -223454.000000 1 0 0
-10.060700 9.588513 -1.028238 13.936088 -0.761372 1.644646 -0.000899 -0.001176 -586403.000000 1 0 0
-17.393200 -3.085487 -3.364938 17.982393 0.175570 1.759030 0.018364 -0.006928 -926553.000000 1 0 0
-12.005400 5.011513 -11.586738 17.421177 -0.395448 2.298417 0.010623 0.001468 960049.000000 1 0 0
-16.479800 7.014513 5.918962 18.863227 -0.402415 1.251622 0.034274 -0.013237 144951.000000 1 0 0
-12.136400 5.971713 -8.815638 16.145249 -0.457267 2.148403 0.008733 0.001465 1728400.000000 1 0 0
-14.654800 8.390913 -0.069138 16.887136 -0.520007 1.574890 0.015591 -0.000562 1679940.000000 1 0 0
-15.002400 11.897613 3.928062 19.546224 -0.670487 1.368456 0.020903 -0.023139 1394450.000000 1 0 0
-17.209700 4.026713 -4.002538 18.122045 -0.229844 1.793498 0.017432 0.002314 -863955.000000 1 0 0
-13.871000 13.431613 -0.837038 19.326498 -0.769306 1.614120 0.026326 -0.010915 -539718.000000 1 0 0
-10.060900 6.735013 -13.099438 17.837528 -0.589909 2.395542 0.004567 -0.006195 823095.000000 1 0 0
-15.819600 -1.208587 -8.401638 17.952937 0.076250 2.057801 0.007866 -0.007000 -1076900.000000 1 0 0
-11.536000 11.886613 -0.114338 16.564539 -0.800366 1.577699 0.014314 -0.010759 1234260.000000 1 0 0
-12.020700 7.319013 -0.907238 14.102775 -0.546914 1.635171 -0.001156 0.003824 2107230.000000 1 0 0
-11.506300 0.125713 -11.764238 16.456247 -0.010925 2.367249 0.016279 -0.005863 93923.700000 1 0 0
-19.125500 -1.230087 -4.698938 19.732661 0.064228 1.811236 0.028620 -0.011417 631680.000000 1 0 0
-18.002600 1.469913 -5.107138 18.770645 -0.081469 1.846351 0.013638 0.000940 -230268.000000 1 0 0
-13.317400 -0.101587 -9.536938 16.380374 0.007628 2.192250 0.012314 -0.004675 -759104.000000 1 0 0
-6.196500 11.232313 -13.259238 18.449089 -1.066674 2.372718 0.008591 -0.011997 -630678.000000 1 0 0
16.503300 5.857013 7.015362 18.864750 0.341033 1.189766 0.060767 -0.014512 -927087.000000 1 0 0
14.739200 10.024413 -5.424438 18.632160 0.597258 1.866207 0.061974 -0.027917 1290160.000000 1 0 0
2.251600 16.766013 4.290662 17.452183 1.437300 1.322397 0.020022 -0.008211 2699860.000000 1 0 0
-3.993900 18.149413 -5.869938 19.488679 -1.354192 1.876744 0.019614 -0.008513 447768.000000 1 0 0
5.383500 14.483313 5.651362 16.452547 1.214919 1.220161 0.015502 -0.006275 553398.000000 1 0 0
9.950500 6.025013 15.262062 19.189678 0.544453 0.651250 0.052646 -0.000081 -910291.000000 1 0 0
4.568300 12.673713 -1.126738 13.518946 1.224838 1.654238 0.007076 -0.003760 2193230.000000 1 0 0
3.420700 13.583013 13.004862 19.113499 1.324090 0.822485 0.027335 -0.013979 164488.000000 1 0 0
-0.765900 12.366413 9.318462 15.503177 -1.508941 0.925960 0.010894 0.002217 2063290.000000 1 0 0
-7.862200 13.829413 8.277362 17.932696 -1.053851 1.091022 0.024229 -0.019791 765027.000000 1 0 0
11.288700 12.716313 -4.203038 17.515847 0.844800 1.813117 0.072951 -0.012352 626366.000000 1 0 0
-5.979300 16.052213 0.756462 17.146364 -1.214227 1.526664 0.005594 0.002871 -785656.000000 1 0 0
3.172300 10.546813 6.822362 12.955438 1.278622 1.016198 0.002259 0.004989 1336490.000000 1 0 0
-1.372000 15.541813 2.329262 15.775164 -1.482747 1.422601 0.008469 -0.000180 -1827400.000000 1 0 0
9.977200 8.892013 9.479462 16.385134 0.727950 0.953858 0.021009 -0.003181 2453360.000000 1 0 0
7.171100 12.173313 6.165862 15.415320 1.038442 1.159298 0.014733 -0.007364 -218376.000000 1 0 0
11.838100 13.879013 -1.637738 18.315289 0.864592 1.660335 0.072994 -0.009302 1078910.000000 1 0 0
9.609500 15.778513 -1.201438 18.513439 1.023768 1.635737 0.055942 -0.007599 479484.000000 1 0 0
10.040000 13.690413 2.980362 17.236924 0.938030 1.397017 0.038110 -0.013018 2168680.000000 1 0 0
-6.134300 14.478713 6.183362 16.896649 -1.170047 1.196141 0.002447 -0.004790 58420.500000 1 0 0
-1.102400 18.210113 -6.197238 19.267311 -1.510332 1.898263 0.033262 -0.007787 863784.000000 1 0 0
-3.607600 15.695713 5.407862 16.988677 -1.344874 1.246838 0.003182 0.000618 1746280.000000 1 0 0
7.127900 12.215213 10.601662 17.675226 1.042578 0.927541 0.025055 -0.002829 2946290.000000 1 0 0
1.466000 14.542713 6.280662 15.908689 1.470329 1.164952 0.010965 0.000902 -729292.000000 1 0 0
17.362500 7.667713 -1.474038 19.037411 0.415867 1.648302 0.021469 -0.008300 -416830.000000 1 0 0
1.939400 16.181813 -3.214138 16.611533 1.451515 1.765513 0.012964 -0.009393 1212430.000000 1 0 0
6.657300 11.110713 0.590962 12.965987 1.030981 1.525203 0.012390 -0.003785 1349450.000000 1 0 0
12.701700 9.348013 3.169062 16.086065 0.634458 1.372493 0.031177 -0.008793 -902755.000000 1 0 0
5.951200 14.379713 -3.347138 15.918425 1.178398 1.782646 0.014669 -0.001152 1065650.000000 1 0 0
3.021800 16.472213 1.531462 16.816969 1.389365 1.479604 0.023003 -0.016107 -1564610.000000 1 0 0
2.649200 18.916213 -2.608838 19.278159 1.431652 1.706539 0.025568 -0.025964 -710869.000000 1 0 0
3.988000 11.886313 10.665562 16.460340 1.247086 0.865900 0.019185 -0.007144 2519670.000000 1 0 0
8.006900 11.472713 3.357962 14.387825 0.961476 1.335235 0.014534 -0.002740 1000230.000000 1 0 0
0.721300 12.394413 0.278162 12.418499 1.512666 1.548395 0.006145 0.000178 -397330.000000 1 0 0
11.875100 9.797213 -4.577638 16.061076 0.689813 1.859818 0.043470 -0.008709 1485730.000000 1 0 0
-1.340100 16.469313 9.982362 19.304965 -1.489606 1.027351 0.012121 -0.005029 250593.000000 1 0 0
7.886200 14.799313 -8.007838 18.583253 1.081195 2.016305 0.039782 -0.001569 -358840.000000 1 0 0
14.462900 7.565813 -1.395938 16.381869 0.481971 1.656112 0.019121 -0.003135 1013500.000000 1 0 0
12.593700 8.366213 5.966862 16.254176 0.586374 1.194910 0.025060 -0.009818 -259777.000000 1 0 0
-3.067600 14.216013 10.211262 17.770061 -1.358270 0.958641 0.019266 -0.011893 2720210.000000 1 0 0
-4.769600 17.130613 -3.146638 18.058470 -1.299248 1.745938 0.023821 -0.003577 -39034.100000 1 0 0
-7.290000 16.370513 -1.822938 18.012799 -1.151847 1.672172 0.015921 -0.002342 904391.000000 1 0 0
8.240500 11.146113 -1.817838 13.980208 0.934168 1.701195 0.013364 -0.002258 -1528560.000000 1 0 0
8.442900 12.877713 -4.176138 15.954880 0.990480 1.835628 0.041025 -0.002025 2095590.000000 1 0 0
2.515100 14.842813 -7.330638 16.744345 1.402942 2.023944 0.004222 -0.001747 -704033.000000 1 0 0
11.394500 11.360713 9.566062 18.719240 0.783913 1.034416 0.034405 -0.010770 1185200.000000 1 0 0
8.525500 15.714413 1.514062 17.942110 1.073708 1.486310 0.026143 -0.010429 265238.000000 1 0 0
6.024800 9.856313 7.745562 13.908229 1.022136 0.980142 0.009163 0.003032 2811870.000000 1 0 0
14.428800 11.456813 2.570262 18.602556 0.671086 1.432186 0.045370 -0.013292 1798330.000000 1 0 0
12.085600 12.624513 1.047662 17.508217 0.807204 1.510922 0.047929 -0.009496 2662620.000000 1 0 0
5.251200 15.852613 8.205762 18.606853 1.250921 1.114075 0.027134 -0.005371 -1392350.000000 1 0 0
11.600700 14.868813 5.044262 19.521845 0.908244 1.309440 0.050263 -0.021875 -834306.000000 1 0 0
5.854400 16.874813 1.753062 17.947327 1.236858 1.472962 0.020007 -0.016009 -146634.000000 1 0 0
-0.763800 16.146813 -4.230138 16.709190 -1.523528 1.826744 0.009742 -0.005127 1727770.000000 1 0 0
16.013900 6.480013 2.596562 17.469336 0.384508 1.421608 0.013117 -0.007022 1614200.000000 1 0 0
7.637300 16.699213 -3.118338 18.625684 1.141851 1.739010 0.044888 -0.012607 -828988.000000 1 0 0
14.948400 8.186913 7.489562 18.616491 0.501059 1.156760 0.054777 -0.012338 -683087.000000 1 0 0
2.107400 12.929813 8.649362 15.698174 1.409229 0.987260 0.011040 0.000324 885264.000000 1 0 0
15.933400 7.344013 -5.907538 18.512341 0.431897 1.895590 0.025951 -0.014217 -1004110.000000 1 0 0
-3.189500 17.047613 0.615062 17.354317 -1.385841 1.535347 0.004775 0.001096 2964570.000000 1 0 0
-3.014700 18.522513 4.627562 19.328379 -1.409452 1.329030 0.006091 -0.000320 -1149470.000000 1 0 0
-1.155600 19.127013 0.838562 19.180230 -1.510452 1.527062 0.011679 -0.011473 685298.000000 1 0 0
6.803200 16.773413 -6.016638 19.074351 1.185477 1.891707 0.036397 -0.007445 -615973.000000 1 0 0
10.970700 10.082413 0.809562 14.922021 0.743231 1.516517 0.022570 -0.004860 -1077780.000000 1 0 0
9.189200 8.661513 14.372362 19.131858 0.755846 0.720878 0.053892 -0.009432 1487800.000000 1 0 0
6.214700 12.312313 -8.436238 16.167426 1.103352 2.119761 0.021893 -0.001430 574502.000000 1 0 0
6.339700 8.921613 13.351562 17.264159 0.952992 0.686658 0.026516 -0.011676 1624100.000000 1 0 0
16.641600 9.501813 2.876162 19.377812 0.518798 1.421820 0.029217 -0.008751 -1021600.000000 1 0 0
2.446400 14.693713 -0.704938 14.912646 1.405817 1.618085 0.009910 -0.008273 13492.600000 1 0 0
9.038400 12.856113 8.238262 17.743767 0.958031 1.087963 0.028009 -0.012202 2224650.000000 1 0 0
7.237300 9.325113 10.564662 15.841348 0.910794 0.840750 0.020047 -0.004758 1881790.000000 1 0 0
4.178300 15.799513 -5.230438 17.159263 1.312258 1.880543 0.024167 -0.007441 1980470.000000 1 0 0
0.215900 16.356213 -8.143538 18.272645 1.557597 2.032717 0.015840 -0.005120 1427320.000000 1 0 0
-2.540600 15.706513 -1.984238 16.033914 -1.410431 1.694867 -0.001142 0.002362 -509076.000000 1 0 0
13.467700 10.522913 7.607662 18.707944 0.663262 1.152008 0.055172 -0.017851 1741160.000000 1 0 0
-1.045800 15.795913 7.052262 17.330290 -1.504686 1.151703 0.013738 -0.002215 3015110.000000 1 0 0
13.459800 13.310613 6.535862 20.026386 0.779825 1.238344 0.062097 -0.023760 656742.000000 1 0 0
5.222600 17.271413 4.630162 18.628356 1.277154 1.319609 0.024783 -0.014626 1899800.000000 1 0 0
10.742400 9.429413 -1.826238 14.410001 0.720400 1.697872 0.019056 -0.001872 1259680.000000 1 0 0
3.199000 12.604113 4.789062 13.857575 1.322239 1.217927 0.003902 0.002836 1759640.000000 1 0 0
-0.348500 18.050813 3.492862 18.388948 -1.551492 1.379692 0.013358 -0.007018 3428260.000000 1 0 0
-7.728100 15.868013 -5.974738 18.633703 -1.117583 1.897203 0.034185 -0.009497 -282692.000000 1 0 0
-12.452000 -9.114287 8.245962 17.496240 0.631851 1.080033 0.030980 -0.010837 -1011350.000000 1 0 0
-13.257000 -11.724587 6.854462 18.978873 0.724133 1.201282 0.029644 -0.004145 57676.800000 1 0 0
-6.593800 -12.167187 12.359362 18.554581 1.074168 0.841817 0.026577 -0.011707 -1112890.000000 1 0 0
-1.768500 -10.605387 14.421562 17.988420 1.405562 0.640640 0.003844 -0.012358 -402776.000000 1 0 0
-8.825200 2.866813 11.085862 14.456801 -0.314091 0.696914 -0.000507 -0.001876 1226010.000000 1 0 0
0.538300 9.997713 15.202862 18.203600 1.517006 0.582378 0.016111 -0.014828 -372272.000000 1 0 0
1.078200 -6.730387 16.585362 17.931393 -1.411947 0.389933 0.012627 -0.020457 1962550.000000 1 0 0
6.067000 2.416913 17.850862 19.007978 0.379101 0.350723 0.053526 -0.022437 1471550.000000 1 0 0
-5.041900 -2.983387 17.626962 18.575014 0.534308 0.320872 0.026535 -0.017910 -767097.000000 1 0 0
-4.298800 8.149713 12.936962 15.882773 -1.085408 0.618881 0.001534 -0.003560 846667.000000 1 0 0
0.128000 -4.857587 18.556762 19.182438 -1.544452 0.256109 0.024497 -0.025802 212262.000000 1 0 0
-11.605300 1.973913 11.232562 16.271133 -0.168475 0.808842 0.005526 -0.008627 405119.000000 1 0 0
-3.390100 -6.182387 14.342962 15.982341 1.069222 0.456897 0.012757 -0.011943 793971.000000 1 0 0
-7.472000 -2.268187 14.599362 16.556474 0.294718 0.491149 0.014553 -0.005193 2146520.000000 1 0 0
-6.129800 -1.160987 10.590662 12.291642 0.187183 0.532354 0.002860 -0.004274 1223830.000000 1 0 0
-3.924200 2.439913 11.119562 12.041477 -0.556266 0.393850 -0.000391 0.001761 1564600.000000 1 0 0
-6.376800 6.280513 13.448062 16.154219 -0.777791 0.587228 -0.009051 -0.001795 671541.000000 1 0 0
-8.979300 5.491313 12.488662 16.332453 -0.548871 0.700293 -0.004765 -0.003647 -451119.000000 1 0 0
-12.320000 -2.185287 15.752162 20.116871 0.175551 0.671270 0.036543 -0.012527 1402340.000000 1 0 0
-3.432900 -7.602287 16.962062 18.902146 1.146645 0.457042 0.023617 -0.014936 -1144610.000000 1 0 0
-0.571400 -5.407187 14.326862 15.323940 1.465513 0.362725 0.010592 -0.007999 2298010.000000 1 0 0
-14.331900 -2.180587 13.627762 19.896588 0.150991 0.816289 0.044724 -0.016197 882364.000000 1 0 0
-6.471000 1.465513 12.172762 13.863539 -0.222717 0.499042 0.004372 -0.002873 3392530.000000 1 0 0
2.111900 -2.247987 14.529862 14.853634 -0.816601 0.209175 0.011669 -0.009783 1236430.000000 1 0 0
-12.520800 3.945413 9.327962 16.104273 -0.305260 0.953021 -0.002042 -0.004031 -1091230.000000 1 0 0
-9.082700 -3.067787 12.523462 15.771615 0.325731 0.653352 0.006494 -0.004522 749511.000000 1 0 0
-7.170900 -7.175587 15.325062 18.378476 0.785725 0.584733 0.030112 -0.015522 -99959.700000 1 0 0
-3.123600 5.999513 19.340762 20.489414 -1.090772 0.336430 0.029805 -0.016623 142113.000000 1 0 0
0.646400 5.429613 16.233662 17.129807 1.452303 0.324893 0.010444 -0.013109 1028950.000000 1 0 0
3.519700 1.419413 16.765162 17.189347 0.383328 0.222618 0.023079 -0.019957 701324.000000 1 0 0
-11.813100 11.298013 7.774662 18.100823 -0.763114 1.126835 0.014113 -0.025543 -522923.000000 1 0 0
0.632000 -9.409187 15.498262 18.141894 -1.503729 0.546632 -0.005246 -0.003535 196249.000000 1 0 0
-2.487600 -3.652587 18.983862 19.491448 0.972901 0.228715 0.025371 -0.021901 1663910.000000 1 0 0
-12.786100 2.429713 13.872662 19.022056 -0.187789 0.753508 0.007600 -0.014221 -81847.200000 1 0 0
-5.456100 -0.563387 15.763262 16.690322 0.102893 0.334863 0.015183 -0.004062 903099.000000 1 0 0
-4.454100 -6.031787 11.665762 13.867641 0.934736 0.571257 0.007237 -0.006993 1030770.000000 1 0 0
2.458700 1.774713 13.978862 14.303964 0.625214 0.213611 0.009466 -0.008128 258514.000000 1 0 0
0.097000 3.304113 14.229362 14.608262 1.541447 0.228255 0.007551 -0.009436 -184192.000000 1 0 0
-13.048600 7.181513 12.212062 19.260700 -0.503125 0.884029 0.015633 -0.008590 973036.000000 1 0 0
0.961000 1.388313 18.240662 18.318643 0.965320 0.092303 0.017543 -0.015806 1728280.000000 1 0 0
-1.976800 6.357413 12.570762 14.224925 -1.269330 0.487058 0.002501 -0.002455 188837.000000 1 0 0
-13.511300 -2.714387 10.917262 17.581517 0.198258 0.900841 0.037942 -0.010304 -258206.000000 1 0 0
-2.527400 3.539113 13.468862 14.153562 -0.950647 0.312319 0.000595 0.000104 2312.970000 1 0 0
3.517400 6.068013 16.397162 17.834231 1.045465 0.404191 0.011967 -0.015976 1822130.000000 1 0 0
-3.784300 12.432713 12.367862 17.940382 -1.275324 0.810154 0.018675 -0.012818 834533.000000 1 0 0
3.691600 -1.506887 17.004262 17.465495 -0.387550 0.230327 0.036935 -0.023159 236637.000000 1 0 0
-15.826100 0.343313 9.203362 18.310794 -0.021689 1.044170 0.040778 -0.009083 86841.200000 1 0 0
-4.679000 4.535213 15.160462 16.501539 -0.769795 0.405944 0.009030 -0.002461 911419.000000 1 0 0
-7.988000 -8.157287 10.476862 15.495616 0.795883 0.828316 0.018071 -0.013042 4287810.000000 1 0 0
-2.721000 -0.409587 14.716162 14.971206 0.149406 0.184847 0.012391 -0.003880 2217210.000000 1 0 0
-1.799300 0.867513 17.233662 17.349039 -0.449257 0.115393 0.014343 -0.011418 1047960.000000 1 0 0
-0.868800 -2.543887 14.370762 14.620019 1.241692 0.184920 0.009307 -0.006705 2219980.000000 1 0 0
5.293500 -8.168987 16.471962 19.133191 -0.995829 0.533740 0.029967 -0.013890 1178330.000000 1 0 0
-4.509600 10.024413 10.610662 15.277811 -1.148057 0.803051 0.006821 -0.004709 -412575.000000 1 0 0
-6.233400 2.117713 15.178162 16.544382 -0.327502 0.409247 0.008551 -0.002421 -812011.000000 1 0 0
-4.871400 6.791613 17.223362 19.144209 -0.948576 0.451796 0.013683 -0.006911 4018.660000 1 0 0
-4.374000 9.314913 15.659862 18.738483 -1.131788 0.581379 0.016112 -0.004857 -934150.000000 1 0 0
-4.423800 -9.857287 18.423162 21.357645 1.148953 0.530404 0.038678 -0.020784 -958582.000000 1 0 0
-6.851300 -4.137587 11.129062 13.708244 0.543291 0.623480 0.009064 -0.002797 998290.000000 1 0 0
-2.326600 -0.862387 19.576462 19.733085 0.354964 0.126076 0.026941 -0.017521 -452437.000000 1 0 0
-5.669700 -4.514787 15.239262 16.874949 0.672481 0.443931 0.017163 -0.010019 2798440.000000 1 0 0
-12.914900 -0.054887 9.727062 16.168283 0.004250 0.925276 0.016026 -0.003398 347098.000000 1 0 0
-14.488400 8.815813 10.446262 19.918752 -0.546627 1.018735 0.016483 -0.017988 -1647570.000000 1 0 0
-8.519100 10.636913 12.737462 18.653737 -0.895507 0.819157 0.016818 -0.021151 -906032.000000 1 0 0
-10.547600 7.226613 10.815462 16.746642 -0.600685 0.868688 0.011375 -0.007805 -2242400.000000 1 0 0
-9.976900 -6.594187 14.750362 18.989339 0.584031 0.681275 0.049120 -0.021085 -334334.000000 1 0 0
-0.662700 -13.365287 14.426762 19.677437 1.521253 0.747835 -0.001339 -0.016466 457635.000000 1 0 0
3.862500 -5.656487 16.964562 18.295111 -0.971677 0.383735 0.037821 -0.023348 1120580.000000 1 0 0
-7.399200 9.350013 10.410562 15.828794 -0.901348 0.853038 0.006739 -0.008226 789906.000000 1 0 0
-10.294700 -6.766587 11.744662 17.020712 0.581482 0.809277 0.035520 -0.020143 1905850.000000 1 0 0
-10.935900 -4.059087 10.642662 15.790388 0.355409 0.831191 0.021747 -0.006533 -245334.000000 1 0 0
-10.139300 -10.198887 9.769062 17.385548 0.788328 0.974107 0.020600 -0.015078 1169000.000000 1 0 0
-9.939600 -3.646087 15.180562 18.507811 0.351584 0.608993 0.030053 -0.021117 1351430.000000 1 0 0
5.630500 -3.375587 15.980762 17.276627 -0.540065 0.389779 0.043131 -0.025589 42362.500000 1 0 0
-11.307900 0.466313 15.389162 19.102679 -0.041214 0.634105 0.015772 -0.008287 -194977.000000 1 0 0
-3.095300 3.063213 18.766062 19.264715 -0.780188 0.228021 0.021229 -0.016113 386290.000000 1 0 0
0.488200 7.298913 14.020562 15.814191 1.504009 0.480895 0.003088 -0.010136 711982.000000 1 0 0
-13.065900 -7.394787 12.243562 19.372801 0.515015 0.886668 0.042149 -0.025269 -1623300.000000 1 0 0
-1.631200 -1.128587 12.099962 12.261468 0.605252 0.162486 0.007483 -0.002939 -457626.000000 1 0 0
2.031600 -4.874487 13.142162 14.163489 -1.175907 0.382083 0.012253 -0.010068 1295140.000000 1 0 0
-14.722600 -4.131587 8.651862 17.569282 0.273592 1.055902 0.051690 -0.012397 208561.000000 1 0 0
8.177000 0.861513 16.291562 18.248850 0.104971 0.467396 0.060123 -0.021921 622956.000000 1 0 0
-1.284600 11.433813 13.436762 17.689795 -1.458915 0.708134 0.016417 -0.008882 1977860.000000 1 0 0
2.754500 -12.301387 -13.703938 18.620132 -1.350512 2.397901 0.008870 0.003313 -55820.800000 1 0 0
0.753000 -10.686987 -13.903638 17.552489 -1.500453 2.485067 0.004297 0.001974 -2979450.000000 1 0 0
3.204000 -14.335987 -12.238338 19.119703 -1.350916 2.265412 0.008454 -0.001568 -1091580.000000 1 0 0
-5.205400 -10.466087 -16.097138 19.893542 1.109264 2.513524 0.021969 -0.010842 203491.000000 1 0 0
-1.045700 -12.276387 -14.851238 19.296695 1.485822 2.449052 0.019337 -0.008195 -375829.000000 1 0 0
5.727400 -14.931187 -11.987438 19.986048 -1.204519 2.214035 0.012859 0.001884 56533.700000 1 0 0
1.915700 -11.813487 -16.061838 20.030253 -1.410034 2.501230 0.016917 -0.001703 -899512.000000 1 0 0
1.344700 -14.434587 -14.106038 20.227354 -1.477906 2.342524 0.024714 0.012132 -679370.000000 1 0 0
-0.981700 -10.579187 -15.849438 19.081080 1.478266 2.551046 0.019846 -0.010243 -768677.000000 1 0 0
-6.080000 -5.667587 -15.074538 17.214228 0.750306 2.637685 0.027868 -0.005666 78967.800000 1 0 0
-6.362400 -7.744687 -16.592838 19.385113 0.883072 2.598197 0.029028 -0.002730 449320.000000 1 0 0
4.936200 -12.453887 -11.520538 17.668847 -1.193433 2.281049 0.002614 0.001911 -411941.000000 1 0 0
-1.803300 -15.562887 -13.239938 20.512223 1.455439 2.272429 0.021952 -0.001490 216949.000000 1 0 0
15.908600 -7.346887 -8.728938 19.576891 -0.432639 2.032953 0.082535 -0.002875 713279.000000 1 0 0
19.383300 -3.570487 -4.266338 20.165870 -0.182162 1.783970 0.105442 -0.014600 1114020.000000 1 0 0
15.101000 -11.565887 -8.810438 20.962675 -0.653601 2.004563 0.069517 -0.009578 720428.000000 1 0 0
18.084100 -3.519787 -6.494738 19.534717 -0.192231 1.909719 0.112591 -0.003980 672322.000000 1 0 0
9.872700 -9.163087 -15.462638 20.506719 -0.748138 2.424969 0.091643 -0.024705 103457.000000 1 0 0
1.036200 2.018013 -15.330038 15.496973 1.096427 2.994681 0.009815 -0.001583 308296.000000 1 0 0
4.787200 -4.331087 -13.884738 15.312137 -0.735418 2.706379 0.011433 -0.005577 1092850.000000 1 0 0
13.001900 -5.380687 -8.517538 16.448393 -0.392379 2.115113 0.038771 -0.005347 -44954.700000 1 0 0
2.959200 0.974013 -12.157838 12.550641 0.317979 2.890746 0.005623 -0.002536 -3227960.000000 1 0 0
0.560900 6.368913 -12.904538 14.401555 1.482955 2.681591 0.010509 -0.003970 483302.000000 1 0 0
3.167500 -1.182887 -16.845838 17.181809 -0.357407 2.943512 0.023192 -0.003155 -22666.400000 1 0 0
13.304200 4.230013 -11.359338 17.998036 0.307838 2.253822 0.037006 -0.004180 505468.000000 1 0 0
-3.875900 9.509813 -16.588338 19.509795 -1.183782 2.587270 0.012030 0.001222 55360.800000 1 0 0
-0.285200 -5.053087 -17.758238 18.465374 1.514415 2.863952 0.023621 -0.011103 504206.000000 1 0 0
-0.458800 -8.616387 -17.614238 19.614128 1.517599 2.686086 0.029803 -0.006857 -426084.000000 1 0 0
5.600200 -10.007987 -12.214438 16.754538 -1.060633 2.387689 0.007222 -0.005042 566559.000000 1 0 0
1.857000 -9.756087 -17.948338 20.512741 -1.382704 2.636201 0.050399 -0.014596 -501991.000000 1 0 0
10.934100 8.827213 -14.657638 20.305679 0.679183 2.377267 0.086177 -0.019368 -202086.000000 1 0 0
11.077700 -3.747987 -12.943738 17.444288 -0.326246 2.406852 0.025284 -0.003899 692344.000000 1 0 0
4.890800 7.434013 -12.285138 15.169347 0.988891 2.514720 0.000546 -0.002073 -610965.000000 1 0 0
9.573400 -5.844887 -12.610638 16.877230 -0.548129 2.414633 0.023091 -0.008760 -1415540.000000 1 0 0
-3.305000 0.191213 -15.835238 16.177588 -0.057791 2.935500 0.018052 -0.005135 -2958800.000000 1 0 0
-0.836700 10.756413 -12.941038 16.848471 -1.493166 2.446640 0.005386 -0.002386 -1695630.000000 1 0 0
6.676800 -5.418787 -12.315338 15.020335 -0.681765 2.532052 0.016096 -0.009034 -121059.000000 1 0 0
17.953200 -5.972687 -8.019538 20.550021 -0.321163 1.971694 0.098667 -0.009059 -427381.000000 1 0 0
13.259400 4.889813 -13.828238 19.772257 0.353307 2.345320 0.071654 -0.014412 322322.000000 1 0 0
14.293400 0.702613 -11.601238 18.422369 0.049117 2.252010 0.043223 -0.000798 -289111.000000 1 0 0
15.231200 6.122013 -11.236538 19.892920 0.382177 2.171049 0.057208 -0.010014 1026060.000000 1 0 0
8.272300 1.470613 -11.671138 14.380859 0.175938 2.517638 -0.000167 0.001265 785012.000000 1 0 0
10.050600 1.262613 -9.019038 13.562883 0.124971 2.298263 0.001513 0.000512 260784.000000 1 0 0
-0.049600 -5.734487 -13.018638 14.225742 1.562147 2.726668 0.001162 -0.004337 -80926.400000 1 0 0
10.573300 -5.847787 -9.202938 15.188329 -0.505198 2.221720 0.025402 -0.008225 -680073.000000 1 0 0
10.238800 8.588813 -11.277838 17.486863 0.697985 2.271731 0.047413 -0.014958 901434.000000 1 0 0
8.405700 8.022813 -14.714838 18.749608 0.762096 2.473182 0.053528 -0.011152 918336.000000 1 0 0
8.609700 10.582613 -10.766438 17.379149 0.887835 2.238906 0.051613 -0.012768 -1070630.000000 1 0 0
7.025800 1.787513 -18.010838 19.415132 0.249136 2.758920 0.035762 -0.001555 -69743.700000 1 0 0
12.093400 2.720513 -12.970038 17.940831 0.221275 2.378836 0.035307 -0.003806 -1153020.000000 1 0 0
2.575300 -0.866087 -19.300038 19.490350 -0.324423 3.001733 0.048375 -0.013159 -407269.000000 1 0 0
10.279100 -1.971787 -15.436138 18.649992 -0.189523 2.545749 0.054164 -0.013728 -105031.000000 1 0 0
8.301200 -0.810887 -13.119038 15.545952 -0.097374 2.575285 0.008205 -0.002812 293849.000000 1 0 0
0.603100 4.509113 -14.695138 15.383203 1.437834 2.841374 0.010702 -0.001197 809924.000000 1 0 0
3.996300 -7.683287 -15.617238 17.857812 -1.091176 2.635268 0.027406 -0.011099 -1369560.000000 1 0 0
11.542800 -5.749187 -14.417938 19.343379 -0.462107 2.411883 0.067720 -0.009621 -1135980.000000 1 0 0
-5.893600 4.374413 -16.837338 18.367525 -0.638510 2.730515 0.011609 0.003945 122393.000000 1 0 0
11.337500 7.955313 -9.035238 16.536670 0.611854 2.148827 0.041013 -0.010852 -173515.000000 1 0 0
9.511100 6.075513 -13.417838 17.533148 0.568448 2.442279 0.026821 -0.000566 -223203.000000 1 0 0
12.139400 0.506713 -10.293438 15.924090 0.041717 2.273662 0.011172 0.004466 -1691310.000000 1 0 0
5.497500 -7.166087 -13.640338 16.359527 -0.916406 2.556726 0.017284 -0.006939 -1139370.000000 1 0 0
8.690400 -10.230287 -10.726338 17.182437 -0.866606 2.244982 0.027839 -0.006588 15278.200000 1 0 0
10.072500 4.739413 -15.821738 19.345405 0.439795 2.528470 0.060005 -0.013491 -907423.000000 1 0 0
9.943500 -0.376087 -11.047638 14.868253 -0.037804 2.408391 0.005720 0.000378 -1426010.000000 1 0 0
-1.757100 5.482613 -14.021138 15.157136 -1.260653 2.751969 0.010335 -0.003383 587151.000000 1 0 0
1.337300 -0.577687 -14.967138 15.037863 -0.407768 3.044569 0.012118 -0.004925 -1791490.000000 1 0 0
11.486200 -10.493287 -13.925238 20.879514 -0.740254 2.300881 0.085565 -0.022994 -487265.000000 1 0 0
9.448500 -7.785087 -10.855138 16.362022 -0.689175 2.296197 0.028108 -0.007383 -82606.900000 1 0 0
14.051900 -1.040387 -9.753338 17.136683 -0.073904 2.176268 0.033769 -0.000834 575376.000000 1 0 0
3.950500 11.291613 -12.352138 17.195415 1.234245 2.372208 0.014261 -0.005601 -198136.000000 1 0 0
-1.380100 2.815313 -17.263538 17.545952 -1.115010 2.961932 0.016778 0.003531 481025.000000 1 0 0
6.007100 -0.469587 -17.680338 18.678868 -0.078013 2.813139 0.024534 -0.001518 -13794.900000 1 0 0
6.246100 -6.426587 -16.077738 18.406750 -0.799639 2.633080 0.026497 -0.009954 369523.000000 1 0 0
-1.788500 -5.324087 -19.851638 20.630855 1.246714 2.865877 0.041799 -0.018492 -561849.000000 1 0 0
0.010400 -4.244487 -15.232938 15.813228 -1.568346 2.869846 0.006635 -0.007532 -41817.000000 1 0 0
0.503500 0.827413 -12.989238 13.025300 1.024134 3.067163 0.009870 -0.004720 168216.000000 1 0 0
15.500200 0.554713 -13.703638 20.696705 0.035772 2.294436 0.097215 -0.025271 546267.000000 1 0 0
-0.244700 6.960713 -16.368538 17.788773 -1.535656 2.739288 0.015111 0.000420 -284803.000000 1 0 0
-4.988200 -0.610687 -18.257338 18.936353 0.121820 2.872988 0.021665 -0.004108 -373298.000000 1 0 0
10.388300 -8.264487 -13.124138 18.667124 -0.672026 2.350490 0.031542 -0.018905 76201.200000 1 0 0
4.122700 8.680613 -17.193638 19.696977 1.127404 2.631927 0.042402 -0.014967 -74512.600000 1 0 0
9.120400 0.564413 -17.026638 19.323733 0.061806 2.649034 0.036974 -0.005345 -478971.000000 1 0 0
3.256200 4.908413 -18.637738 19.546372 0.985065 2.835486 0.037666 -0.000362 -573992.000000 1 0 0
1.447800 -8.176087 -15.833638 17.878720 -1.395536 2.658610 0.015702 -0.010399 -329315.000000 1 0 0
4.518300 7.674313 -14.905138 17.362985 1.038685 2.603023 0.015827 -0.006660 574535.000000 1 0 0
-5.664900 -0.462787 -15.248538 16.273389 0.081513 2.784803 0.011572 -0.002141 -500095.000000 1 0 0
2.882100 3.285113 -13.911938 14.582198 0.850653 2.837222 0.009281 -0.000561 -185896.000000 1 0 0
-2.374500 -10.315187 -17.941638 20.831316 1.344543 2.608584 0.040983 -0.010672 -169485.000000 1 0 0
6.228000 -8.994587 -15.334938 18.837487 -0.965178 2.521914 0.020485 -0.013715 139536.000000 1 0 0
-1.901500 5.343513 -17.621638 18.511914 -1.228918 2.830200 0.017421 0.007633 1268590.000000 1 0 0
9.951200 -12.277687 -11.773438 19.707405 -0.889679 2.211066 0.051466 -0.004658 -282787.000000 1 0 0
10.884600 3.709413 -9.505138 14.919179 0.328451 2.261538 0.009819 0.001548 -1262150.000000 1 0 0
4.939700 -0.390687 -10.986638 12.052365 -0.078927 2.717896 0.003968 -0.003702 -423023.000000 1 0 0
6.237300 9.527213 -11.535238 16.209054 0.991136 2.362646 0.016536 -0.008191 615378.000000 1 0 0
10.939900 -9.537887 -9.550138 17.374056 -0.717040 2.152775 0.049556 -0.005762 -514736.000000 1 0 0
3.247800 -2.337387 -14.456738 15.000295 -0.623814 2.871565 0.008429 -0.004450 -873.468000 1 0 0
9.376400 -4.455587 -14.782038 18.063161 -0.443605 2.529335 0.045150 -0.008476 -378879.000000 1 0 0
-4.045900 -6.550887 -16.537538 18.242083 1.017528 2.705857 0.017969 -0.007719 421576.000000 1 0 0
5.972000 -7.738987 -11.202138 14.867569 -0.913566 2.424107 0.008985 -0.005524 623159.000000 1 0 0
5.387600 6.429813 -16.916838 18.882483 0.873364 2.681252 0.029895 -0.005642 -1335650.000000 1 0 0
9.308000 1.341413 -19.428238 21.584594 0.143129 2.690790 0.069061 -0.013007 468879.000000 1 0 0
13.081700 5.874613 -9.587338 17.249899 0.422081 2.160110 0.015788 -0.003328 985341.000000 1 0 0
-1.568400 -0.865687 -17.355438 17.447651 0.504343 3.038736 0.022211 -0.007103 214529.000000 1 0 0
-0.557300 -0.543687 -19.625538 19.640976 0.773034 3.101942 0.043702 -0.012809 -281600.000000 1 0 0
2.791400 6.440713 -16.579038 18.003867 1.161833 2.741077 0.014892 -0.000465 111750.000000 1 0 0
7.641900 3.728913 -15.633338 17.796199 0.453966 2.643436 0.026557 -0.001074 -44972.500000 1 0 0
3.024300 -9.858587 -14.623738 17.893905 -1.273142 2.527414 0.013553 -0.008351 541820.000000 1 0 0
8.961300 -10.481387 -13.386838 19.219048 -0.863422 2.341360 0.044350 -0.010027 -421978.000000 1 0 0
3.815000 0.159913 -14.870538 15.352938 0.041892 2.890250 0.010031 -0.002828 -2633890.000000 1 0 0
-1.270100 -2.915587 -18.971138 19.235849 1.159961 2.975502 0.043595 -0.010965 181372.000000 1 0 0
9.139600 10.098713 -13.228938 18.987393 0.835211 2.341614 0.064670 -0.019044 -58282.300000 1 0 0
4.727200 2.166713 -10.738138 11.930997 0.429776 2.690612 -0.001149 -0.001518 -153.858000 1 0 0
-0.447600 7.143213 -18.989138 20.293181 -1.508217 2.781147 0.034604 -0.002694 150940.000000 1 0 0
0.780600 -1.831287 -17.706338 17.817894 -1.167861 3.029633 0.029097 -0.007828 -2702300.000000 1 0 0
-4.515400 -2.374887 -14.038238 14.936568 0.484194 2.793008 0.013962 -0.006882 -3657190.000000 1 0 0
10.096200 6.098613 -10.524538 15.807980 0.543392 2.299327 0.019342 0.001934 -76237.000000 1 0 0
8.228000 5.657313 -17.335638 20.005737 0.602334 2.619011 0.059614 -0.016088 -123109.000000 1 0 0
11.510900 0.262113 -13.757438 17.939806 0.022767 2.444741 0.026252 0.006039 343956.000000 1 0 0
6.879400 12.025713 -12.062038 18.369450 1.051176 2.287146 0.045098 -0.013210 -277487.000000 1 0 0
-0.966400 0.489113 -15.045538 15.084475 -0.468531 3.069727 0.014394 -0.003919 -1260600.000000 1 0 0
-4.412700 -3.104787 -18.898838 19.653949 0.613140 2.863496 0.032176 -0.004805 -159040.000000 1 0 0
5.761900 -11.938287 -13.956838 19.248780 -1.121133 2.381942 0.015202 -0.002046 90192.200000 1 0 0
2.135700 -4.649187 -13.935538 14.845046 -1.140177 2.789733 0.005907 -0.007067 -2002420.000000 1 0 0
11.673600 2.122913 -15.489938 19.511993 0.179890 2.487939 0.059906 -0.007946 367491.000000 1 0 0
9.648000 2.087913 -13.779838 16.950729 0.213122 2.519970 0.021081 -0.002867 -419589.000000 1 0 0
-2.208800 -4.147687 -16.404738 17.064511 1.081459 2.862612 0.010594 -0.010645 -2506250.000000 1 0 0
-2.975700 10.123913 -14.284238 17.759163 -1.284920 2.505344 0.010103 -0.007206 -31260.900000 1 0 0
3.431500 5.716513 -13.686638 15.224250 1.030172 2.688283 0.010857 0.000085 -224803.000000 1 0 0
-5.114700 -2.669787 -16.524138 17.502430 0.481079 2.805666 0.018109 -0.005182 344811.000000 1 0 0
-4.322500 6.128513 -13.666238 15.588738 -0.956516 2.639700 0.000271 0.001303 -708310.000000 1 0 0
5.916100 -1.118287 -14.183338 15.408371 -0.186820 2.740143 0.009810 -0.000561 -1586600.000000 1 0 0
6.774500 -2.947987 -12.607038 14.612388 -0.410444 2.611507 0.010069 -0.007158 1135170.000000 1 0 0
2.905500 -3.311087 -18.321638 18.843770 -0.850549 2.905638 0.039930 -0.015330 283461.000000 1 0 0
7.349900 -11.917387 -12.003038 18.442290 -1.018161 2.279491 0.023792 -0.003547 -2755760.000000 1 0 0
-6.229400 -5.504287 -17.590538 19.455838 0.723679 2.700127 0.051744 -0.008430 272990.000000 1 0 0
0.474100 8.759713 -11.891238 14.776972 1.516726 2.505990 0.006987 -0.002913 30749.200000 1 0 0
0.405200 8.572113 -14.487038 16.838040 1.523562 2.606802 0.004778 -0.001016 192852.000000 1 0 0
7.782300 -2.436087 -15.078538 17.142375 -0.303367 2.645830 0.021404 -0.011345 -457347.000000 1 0 0
14.178600 1.521913 -8.983738 16.853975 0.106929 2.132979 0.018070 -0.001458 403759.000000 1 0 0
2.764200 10.729013 -14.618838 18.342927 1.318642 2.493065 0.012214 -0.005661 289203.000000 1 0 0
6.138500 1.039813 -15.588738 16.786040 0.167799 2.761615 0.019633 -0.000214 79803.500000 1 0 0
16.633300 -5.393187 -10.219338 20.253099 -0.313545 2.099693 0.120875 -0.019130 247847.000000 1 0 0
4.857800 -4.114387 -11.197338 12.880481 -0.702730 2.624634 0.003004 -0.006020 519452.000000 1 0 0
8.912100 -3.362187 -17.196038 19.657913 -0.360751 2.635745 0.049235 -0.006533 564491.000000 1 0 0
13.389500 -9.654087 -8.964238 18.783974 -0.624694 2.068294 0.068392 -0.004440 -410515.000000 1 0 0
2.304100 -7.568787 -13.594438 15.729087 -1.275288 2.614527 0.004022 -0.004339 -32156.200000 1 0 0
-6.875500 -2.398787 -18.425538 19.812298 0.335685 2.765223 0.021148 -0.006991 -1160170.000000 1 0 0
-1.434800 -6.445987 -15.696138 17.028745 1.351779 2.743349 0.004171 -0.008953 1055240.000000 1 0 0
1.515000 -7.294587 -18.352538 19.807117 -1.366019 2.755966 0.050166 -0.016060 -333845.000000 1 0 0
5.384900 10.817113 -14.459938 18.844015 1.108900 2.445493 0.042672 -0.027862 -763763.000000 1 0 0
5.325800 -3.417187 -17.475038 18.585432 -0.570468 2.794174 0.025775 -0.008661 -982608.000000 1 0 0
3.911400 12.975013 -14.306638 19.706088 1.278004 2.383285 0.029032 -0.009745 -351.386000 1 0 0
9.142700 10.375913 -15.722038 20.938745 0.848496 2.420158 0.090486 -0.021748 309314.000000 1 0 0
2.576000 3.883013 -16.336938 16.988500 0.985057 2.863741 0.020728 -0.000596 500123.000000 1 0 0
16.736500 1.796513 -11.697638 20.498113 0.106932 2.178117 0.111674 -0.007054 1264630.000000 1 0 0
10.072700 -3.789587 -10.606138 15.109944 -0.359843 2.348901 0.021270 -0.002750 -1113030.000000 1 0 0
14.688300 -2.443087 -11.970038 19.104885 -0.164820 2.247906 0.090847 -0.015260 317377.000000 1 0 0
-2.652900 -8.663587 -15.911838 18.310713 1.273650 2.623955 0.013765 -0.004822 426089.000000 1 0 0
13.936200 8.201913 -8.808038 18.413869 0.531945 2.069557 0.051426 -0.013244 -329269.000000 1 0 0
-8.372200 -0.082687 -16.602438 18.594126 0.009876 2.674511 0.017737 0.000134 -75131.600000 1 0 0
-3.431500 3.978113 -15.943238 16.786525 -0.859036 2.823277 0.009251 0.002724 -289640.000000 1 0 0
15.087400 3.956213 -9.686438 18.360510 0.256446 2.126533 0.023717 -0.006021 183412.000000 1 0 0
5.410000 1.082813 -13.022538 14.143093 0.197540 2.740846 0.005904 -0.000499 484699.000000 1 0 0
7.869000 -7.633187 -12.912838 16.938952 -0.770188 2.437681 0.030049 -0.010136 -3829770.000000 1 0 0
3.315100 -6.127187 -11.829238 13.728189 -1.074852 2.609358 0.002961 -0.004452 -1192150.000000 1 0 0
-3.502200 3.573413 -18.563538 19.226015 -0.795462 2.878317 0.027098 0.003844 -665846.000000 1 0 0
0.801500 5.149313 -17.873838 18.618054 1.416384 2.857896 0.029142 -0.006781 1167270.000000 1 0 0
6.181400 7.145113 -10.264638 13.950812 0.857588 2.397605 0.000912 -0.000821 197567.000000 1 0 0
9.656400 3.790213 -11.733938 15.661963 0.374031 2.417649 0.019209 0.000131 250894.000000 1 0 0
4.491900 1.676813 -17.593138 18.234785 0.357277 2.875524 0.023988 0.002341 -565955.000000 1 0 0
2.579400 8.092513 -13.208438 15.703659 1.262238 2.570121 0.005495 -0.005485 550967.000000 1 0 0
14.451200 -3.575187 -9.726038 17.782434 -0.242528 2.149509 0.065947 -0.003869 241340.000000 1 0 0
-1.341200 9.408013 -16.140338 18.730191 -1.429191 2.609463 0.007008 -0.002212 -2002370.000000 1 0 0
-5.168200 2.022613 -15.675738 16.629192 -0.373034 2.801320 0.013610 -0.002265 460565.000000 1 0 0
4.506100 4.338113 -12.005538 13.537249 0.766406 2.661284 0.002402 -0.003218 361521.000000 1 0 0
9.216600 3.198613 -17.673638 20.187479 0.334044 2.637215 0.047923 -0.006404 921803.000000 1 0 0
-4.388000 14.330313 -13.381038 20.091406 -1.273657 2.299641 0.028066 -0.015043 -120049.000000 1 0 0
15.530900 -4.851987 -7.845138 18.063688 -0.302802 2.020062 0.071989 -0.004040 -236763.000000 1 0 0
0.995400 9.288113 -16.983538 19.382994 1.464035 2.638733 0.008916 0.000993 -498204.000000 1 0 0
0.409700 -3.125087 -12.837838 13.219081 -1.440439 2.900844 0.004401 -0.004486 144847.000000 1 0 0
7.456000 3.527313 -13.030738 15.421868 0.441884 2.577272 0.008182 0.000907 -330760.000000 1 0 0
-2.920400 7.592613 -15.110238 17.160880 -1.203604 2.647722 0.005225 -0.002106 -138343.000000 1 0 0
12.181800 -5.051887 -11.022038 17.187296 -0.393121 2.266974 0.042824 -0.006369 -1246860.000000 1 0 0
0.607100 -4.300887 -20.087438 20.551676 -1.430566 2.928640 0.061048 -0.018337 -884521.000000 1 0 0
3.319200 -4.414687 -16.082038 17.004073 -0.926110 2.810771 0.026227 -0.012378 552185.000000 1 0 0
-5.614000 4.027613 -14.294838 15.877061 -0.622324 2.691359 -0.000030 -0.000220 755457.000000 1 0 0
12.480100 -7.460987 -9.904638 17.593211 -0.538823 2.168784 0.047460 -0.003957 368021.000000 1 0 0
-2.060800 -1.911687 -14.992338 15.253578 0.747879 2.956252 0.010830 -0.005888 463937.000000 1 0 0
7.036600 5.893713 -14.247238 16.947961 0.697239 2.569272 0.024270 -0.003144 -990284.000000 1 0 0
4.160400 -5.624487 -18.233338 19.529424 -0.933924 2.775224 0.052394 -0.019938 84100.100000 1 0 0
7.614000 7.420213 -12.350838 16.296495 0.772509 2.430858 0.019583 -0.006157 -362984.000000 1 0 0
12.333500 -2.547387 -11.002738 16.723177 -0.203678 2.288868 0.022882 -0.002690 -2226030.000000 1 0 0
7.458000 -0.740987 -10.709038 13.071126 -0.099030 2.530967 -0.000146 -0.002365 -2694390.000000 1 0 0
5.372300 4.054513 -14.457138 15.947085 0.646507 2.705880 0.008274 0.003114 -629278.000000 1 0 0
14.687000 2.850013 -13.039138 19.845646 0.191668 2.287665 0.061269 -0.013188 -639757.000000 1 0 0
-6.557100 6.758613 -15.774638 18.371544 -0.800530 2.603417 0.006527 0.002996 594239.000000 1 0 0
-11.289900 3.629213 -16.583338 20.387255 -0.311024 2.520799 0.049797 -0.015036 321015.000000 1 0 0
-5.049200 6.568213 -17.927238 19.748968 -0.915414 2.708699 0.014099 0.012462 441062.000000 1 0 0
-10.143900 1.473613 -15.595838 18.662809 -0.144262 2.560137 0.035413 -0.009953 -597865.000000 1 0 0
-7.570800 5.943113 -17.984338 20.397893 -0.665530 2.650199 0.011659 0.000698 -270836.000000 1 0 0
-8.810300 3.785513 -15.721538 18.415164 -0.405819 2.593899 0.009358 0.009624 -1430160.000000 1 0 0
9.010300 13.420213 -12.255938 20.285355 0.979526 2.219529 0.098788 -0.029419 -499403.000000 1 0 0
14.260900 9.293413 -11.256138 20.406897 0.577549 2.155060 0.085452 -0.016746 270726.000000 1 0 0
8.129600 15.999813 -9.036138 20.093188 1.100685 2.037239 0.059810 -0.010407 -427887.000000 1 0 0
7.044800 13.720513 -14.005938 20.833819 1.096447 2.308066 0.075457 -0.015486 35628.400000 1 0 0
4.747600 15.883813 -12.642338 20.848596 1.280353 2.222307 0.051489 -0.016568 92161.800000 1 0 0
11.015400 11.022713 -11.624238 19.441249 0.785730 2.211695 0.095985 -0.023328 864009.000000 1 0 0
15.948300 9.672813 -9.249738 20.819924 0.545193 2.031159 0.097895 -0.024728 688197.000000 1 0 0
13.513600 10.713513 -9.199838 19.545684 0.670332 2.060862 0.113609 -0.026580 -283913.000000 1 0 0
10.333500 12.026913 -8.342338 17.917100 0.860987 2.055117 0.066807 -0.004466 462621.000000 1 0 0
5.348400 16.210913 -10.113738 19.841542 1.252116 2.105662 0.043670 -0.010862 -308530.000000 1 0 0
6.692500 14.563413 -11.554638 19.758346 1.140036 2.195427 0.047344 -0.007039 -20825.000000 1 0 0
10.444400 14.141513 -9.898638 20.175503 0.934655 2.083605 0.089098 -0.015780 -589945.000000 1 0 0
8.485400 -18.441187 -1.242338 20.337718 -1.139548 1.631920 0.067542 -0.017048 -265472.000000 1 0 0
7.499900 -17.210187 -3.361038 19.071854 -1.159828 1.747952 0.028661 -0.013673 -154610.000000 1 0 0
4.405800 -18.355987 5.750162 19.733669 -1.335233 1.275118 0.059086 0.001674 -54065.900000 1 0 0
10.022000 -16.789187 -2.626138 19.728504 -1.032636 1.704307 0.048540 -0.016978 800801.000000 1 0 0
-9.572200 -12.364687 -9.924538 18.520501 0.912014 2.136331 0.040407 -0.008975 290914.000000 1 0 0
-5.209300 -7.105487 -12.155438 15.012642 0.938175 2.514403 0.010177 -0.001758 683659.000000 1 0 0
-10.855900 -9.513487 -5.590338 15.479305 0.719590 1.940296 0.013593 -0.001282 -751097.000000 1 0 0
-4.458400 -11.545187 -13.890438 18.604111 1.202269 2.413782 0.013099 -0.008602 322541.000000 1 0 0
-2.937500 -15.391787 7.494062 17.369426 1.382216 1.124695 -0.000058 -0.005486 278880.000000 1 0 0
-4.685500 -12.109687 -11.425738 17.295835 1.201615 2.292422 0.012986 -0.004541 350393.000000 1 0 0
-14.360300 -12.783287 -4.037038 19.645059 0.727364 1.777770 0.052123 -0.009506 80208.000000 1 0 0
-3.141600 -12.251787 -3.227138 13.053366 1.319785 1.820613 0.008351 -0.003036 593989.000000 1 0 0
-2.234200 -17.327587 -1.639238 17.547764 1.442565 1.664349 0.010086 -0.020154 -647824.000000 1 0 0
-5.760700 -12.135387 3.732662 13.942240 1.127591 1.299767 0.002213 -0.001434 58113.500000 1 0 0
-8.829600 -10.912287 -11.937738 18.426867 0.890505 2.275547 0.023940 -0.001419 507241.000000 1 0 0
-9.664100 -12.269287 -7.327638 17.251797 0.903621 2.009478 0.034555 -0.007974 -352687.000000 1 0 0
-10.903300 -15.066187 6.317162 19.641244 0.944345 1.243349 0.037235 -0.017033 -222660.000000 1 0 0
-9.242700 -15.458287 0.889162 18.032658 1.031913 1.521468 0.018121 -0.013831 -1407270.000000 1 0 0
-15.002200 -7.674787 -8.085338 18.690668 0.472867 2.018156 0.039875 -0.013050 -522092.000000 1 0 0
-2.412100 -16.449387 5.203762 17.420668 1.425196 1.267454 0.001760 -0.005350 1229910.000000 1 0 0
4.360300 -15.734787 5.506562 17.231307 -1.300468 1.245524 0.033516 -0.008085 -241182.000000 1 0 0
4.426900 -14.324187 -9.908538 17.971057 -1.271057 2.154791 0.012464 -0.009374 -735945.000000 1 0 0
-7.430800 -13.936287 -0.213438 15.795013 1.080944 1.584310 0.014329 -0.008680 917491.000000 1 0 0
3.042100 -14.875787 9.673262 18.003205 -1.369078 1.003555 0.022374 -0.014828 -681436.000000 1 0 0
2.462500 -17.220687 10.531762 20.335534 -1.428763 1.026403 0.047022 -0.016132 -121043.000000 1 0 0
-8.103700 -17.230687 -5.176138 19.732180 1.131185 1.836222 0.054873 -0.020154 -340600.000000 1 0 0
-6.483600 -9.189287 -7.746538 13.656095 0.956348 2.173970 0.009598 -0.004898 589554.000000 1 0 0
-6.045000 -13.133887 -4.680638 15.197019 1.139443 1.883883 0.006715 -0.010255 305740.000000 1 0 0
2.333100 -19.431287 -4.616338 20.107930 -1.451299 1.802440 0.033482 -0.023129 142487.000000 1 0 0
-5.346000 -12.818487 8.354762 16.207880 1.175675 1.029234 0.005492 -0.007125 1094940.000000 1 0 0
2.171800 -17.427987 3.509762 17.910049 -1.446820 1.373554 0.021083 -0.009790 333395.000000 1 0 0
-17.396700 -10.337887 -2.466938 20.386340 0.536176 1.692103 0.024409 -0.008858 589401.000000 1 0 0
-3.272100 -15.447287 2.624862 16.006724 1.362058 1.406067 0.000616 -0.005394 -307949.000000 1 0 0
-10.351200 -10.485087 -13.956838 20.294771 0.791824 2.329121 0.053246 -0.015264 -2142.520000 1 0 0
6.089700 -14.424987 -5.489538 16.592158 -1.171331 1.908002 0.001065 -0.010592 311440.000000 1 0 0
-7.155800 -12.516987 -10.656938 17.929048 1.051455 2.207310 0.020761 -0.008094 -838664.000000 1 0 0
-7.400300 -14.217987 3.850662 16.484635 1.090892 1.335027 0.004612 -0.007445 894878.000000 1 0 0
3.298300 -14.940387 -3.094338 15.609896 -1.353517 1.770347 0.011405 -0.009491 -222605.000000 1 0 0
-7.535800 -11.450187 7.792462 15.767610 0.988722 1.053874 0.008651 -0.010076 -1362110.000000 1 0 0
-12.738100 -12.344987 -1.000738 17.766805 0.769727 1.627152 0.021191 0.000608 -250797.000000 1 0 0
-1.880600 -13.591487 4.005962 14.293806 1.433303 1.286733 -0.000546 0.000120 -1845670.000000 1 0 0
-3.036800 -13.934987 5.277262 15.207087 1.356225 1.216398 -0.001234 -0.000954 -154855.000000 1 0 0
-14.347600 -10.231987 -4.356038 18.152748 0.619497 1.813127 0.022196 -0.007022 468787.000000 1 0 0
-6.206300 -8.709987 -10.364738 14.893281 0.951697 2.340516 0.011769 -0.002490 140779.000000 1 0 0
0.826500 -19.241187 2.229362 19.387533 -1.527868 1.455552 0.020046 -0.019147 10405.800000 1 0 0
6.432000 -13.908687 -7.996338 17.284780 -1.137642 2.051748 0.010861 -0.006282 -2933430.000000 1 0 0
-3.800200 -16.780387 -5.847538 18.171863 1.348086 1.898417 0.013872 -0.017821 -428560.000000 1 0 0
-3.610900 -13.777387 -13.114438 19.360875 1.314473 2.314975 0.024704 -0.004527 -669943.000000 1 0 0
-8.119000 -14.665187 -4.343738 17.316291 1.065175 1.824351 0.024509 -0.021421 -1364420.000000 1 0 0
-4.469500 -14.320287 10.265862 18.177870 1.268267 0.970672 0.010042 -0.005162 1623070.000000 1 0 0
-0.234400 -12.231087 -9.945238 15.765855 1.551634 2.253391 -0.000431 -0.001260 -61356.600000 1 0 0
2.454000 -17.067987 6.767862 18.524099 -1.427997 1.196783 0.034049 -0.015020 -1796380.000000 1 0 0
-2.837900 -19.133987 -3.465338 19.651252 1.423553 1.748065 0.026673 -0.025829 -738134.000000 1 0 0
0.793800 -15.301487 -3.168838 15.646314 -1.518965 1.774736 0.006750 -0.010269 -588962.000000 1 0 0
6.082300 -17.984187 0.523862 18.992098 -1.244670 1.543210 0.032228 -0.014039 -264397.000000 1 0 0
-6.821000 -16.613187 3.910462 18.379764 1.181205 1.356399 -0.000838 -0.007976 775828.000000 1 0 0
-5.159200 -13.641987 -9.345838 17.322409 1.209236 2.140667 0.013947 -0.010152 104656.000000 1 0 0
5.763300 -15.071987 -2.131038 16.276417 -1.205567 1.702101 0.017203 -0.009311 -1053670.000000 1 0 0
-8.810800 -10.383187 -0.575638 13.629825 0.867136 1.613043 0.007705 0.001615 807366.000000 1 0 0
-7.132400 -18.447887 -2.393838 19.923005 1.201874 1.691242 0.034464 -0.033046 -1036540.000000 1 0 0
7.971900 -15.914687 -1.145638 17.836505 -1.106417 1.635071 0.022600 -0.012747 -189836.000000 1 0 0
-8.012400 -10.243787 -9.534038 16.125496 0.907021 2.203392 0.020870 -0.004096 -784622.000000 1 0 0
-9.032000 -15.547787 -6.767438 19.212208 1.044525 1.930767 0.058401 -0.015677 303155.000000 1 0 0
-11.538300 -10.554487 -11.612538 19.477695 0.740897 2.209552 0.054322 -0.009160 1090250.000000 1 0 0
6.646700 -16.276587 2.444362 17.750515 -1.183104 1.432651 0.039553 -0.012082 588496.000000 1 0 0
-2.083000 -11.250387 -6.096938 12.964673 1.387720 2.060397 0.007787 -0.002426 -1045900.000000 1 0 0
-12.321100 -15.253087 -3.242038 19.874028 0.891331 1.734658 0.045361 -0.018933 -277620.000000 1 0 0
-0.410800 -19.869087 -2.898138 20.083540 1.550124 1.715606 0.047035 -0.021100 -912099.000000 1 0 0
-5.734300 -15.671487 -4.681038 17.331758 1.220022 1.844277 0.014339 -0.016319 -2690140.000000 1 0 0
2.042100 -16.017287 -1.014138 16.178755 -1.443987 1.633521 0.004558 -0.011746 -84854.800000 1 0 0
-13.153300 -11.938587 5.246362 18.521973 0.737025 1.283614 0.018755 -0.003480 220170.000000 1 0 0
2.250900 -15.194487 -8.937438 17.771235 -1.423727 2.097765 0.017535 -0.001291 -1967900.000000 1 0 0
-11.376800 -16.829787 0.203962 20.315386 0.976366 1.560756 0.064726 -0.027413 662428.000000 1 0 0
-7.641200 -16.525287 -0.952938 18.231323 1.137683 1.623089 0.034623 -0.019159 533818.000000 1 0 0
-2.803400 -14.439887 -1.763938 14.814887 1.379039 1.690145 0.001907 -0.004628 423568.000000 1 0 0
-1.823200 -10.437187 -13.262438 16.975017 1.397858 2.467529 0.004868 -0.002245 -1249670.000000 1 0 0
1.466100 -19.563587 4.783062 20.193094 -1.495996 1.331657 0.037380 -0.012518 -272557.000000 1 0 0
-17.371300 -9.484087 2.381462 19.934426 0.499738 1.451046 0.029905 -0.006259 -270723.000000 1 0 0
-2.581600 -15.673287 -8.026838 17.797379 1.407549 2.038696 0.006475 -0.011703 -706448.000000 1 0 0
-10.527600 -12.163287 0.292962 16.089181 0.857359 1.552587 0.007551 -0.000246 707662.000000 1 0 0
-6.725600 -11.610787 -6.595038 14.951207 1.045771 2.027625 0.012757 -0.003444 -32217.900000 1 0 0
-2.042300 -13.665687 -6.673538 15.344644 1.422447 2.020735 0.001354 -0.004371 256167.000000 1 0 0
-14.103600 -14.579287 -0.832338 20.301722 0.801981 1.611806 0.047232 -0.007362 -561710.000000 1 0 0
-9.601700 -11.257887 -4.266638 15.399249 0.864629 1.851538 0.020933 -0.003184 651619.000000 1 0 0
9.325200 -14.935687 -5.148538 18.345068 -1.012660 1.855267 0.020503 -0.007814 -26753.300000 1 0 0
-5.452700 -10.944087 -9.362538 15.400068 1.108564 2.224278 0.010799 -0.005194 -302475.000000 1 0 0
-10.365100 -16.059987 -4.635638 19.668442 0.997662 1.808724 0.069629 -0.021266 -923407.000000 1 0 0
2.343700 -17.260387 -3.345038 17.737056 -1.435837 1.760523 0.020815 -0.017160 759053.000000 1 0 0
-0.146000 -14.582187 -8.115238 16.688876 1.560784 2.078608 0.005204 -0.004304 -1092420.000000 1 0 0
-0.569400 -18.398487 -7.060938 19.715105 1.539858 1.937081 0.037507 -0.016354 -31236.700000 1 0 0
-1.816700 -10.130887 -10.572138 14.754842 1.393359 2.369597 -0.000699 -0.001619 476449.000000 1 0 0
-4.942200 -17.254487 2.020862 18.061742 1.291835 1.458675 0.011929 -0.012675 723357.000000 1 0 0
0.362400 -12.769887 -2.674238 13.051931 -1.542425 1.777150 -0.001123 -0.001184 -1570380.000000 1 0 0
2.698900 -14.875687 3.107762 15.434646 -1.391318 1.368061 0.012197 -0.005319 -822503.000000 1 0 0
-9.414600 -13.040987 6.818262 17.469709 0.945507 1.169849 0.001362 -0.005779 -418577.000000 1 0 0
-0.949500 -17.818987 -4.554838 18.416416 1.517561 1.820715 0.034423 -0.024149 -366383.000000 1 0 0
-9.633600 -17.677087 -2.206338 20.252249 1.071818 1.679956 0.065682 -0.026729 626825.000000 1 0 0
1.410600 -16.172187 1.358462 16.290330 -1.483793 1.487309 0.006150 -0.013645 334069.000000 1 0 0
-0.447400 -17.995187 4.139862 18.470662 1.545939 1.344744 0.013251 -0.010494 75055.400000 1 0 0
-17.254000 -9.235187 -0.133738 19.570567 0.491448 1.577630 -0.004858 -0.004436 736079.000000 1 0 0
-14.632800 -7.236387 -10.688738 19.512387 0.459264 2.150520 0.048993 -0.021510 448563.000000 1 0 0
2.928500 -12.664087 -8.852538 15.726495 -1.343546 2.168694 -0.003294 0.000024 497315.000000 1 0 0
-11.611500 -15.016087 2.004462 19.087369 0.912568 1.465587 0.028424 0.000949 139835.000000 1 0 0
-2.212000 -15.511087 10.805562 19.032785 1.429144 0.967046 0.013622 -0.003954 -84270.200000 1 0 0
-6.862100 -15.731687 1.446362 17.224005 1.159481 1.486724 0.015318 -0.015973 -1036020.000000 1 0 0
-12.567300 -15.203087 -5.719038 20.537241 0.880028 1.852999 0.067473 -0.015347 1187580.000000 1 0 0
1.028000 -13.668387 -5.124638 14.633643 -1.495728 1.928576 0.003215 -0.003999 746122.000000 1 0 0
6.180500 -16.249187 -7.356938 18.877478 -1.207337 1.971124 0.031675 -0.018397 284772.000000 1 0 0
-6.613400 -12.877687 5.959862 15.655409 1.096364 1.180254 0.005867 -0.006087 -86972.300000 1 0 0
-2.452300 -13.520787 0.612162 13.755006 1.391374 1.526277 0.005436 -0.002952 356931.000000 1 0 0
-4.184700 -15.461487 0.178662 16.018777 1.306476 1.559643 0.006559 -0.011348 378298.000000 1 0 0
-17.723300 -7.653187 -2.249838 19.435751 0.407629 1.686814 0.009571 -0.005265 1262720.000000 1 0 0
1.133400 -12.860087 -11.956738 17.596307 -1.482890 2.317881 0.000909 0.001223 -1849980.000000 1 0 0
1.313000 -17.223187 -5.773038 18.212361 -1.494709 1.893345 0.030478 -0.014642 -1172620.000000 1 0 0
-12.860600 -6.427487 -9.048538 16.987751 0.463473 2.132526 0.023797 -0.008116 -862958.000000 1 0 0
-11.424000 -13.710987 -8.624238 19.821111 0.876136 2.020950 0.060089 -0.018315 367765.000000 1 0 0
-4.238100 -9.844687 3.538062 11.287038 1.164280 1.251959 0.009750 -0.001497 -3956000.000000 1 0 0
-6.996100 -14.234387 9.717662 18.600971 1.113978 1.021101 0.010704 -0.007847 -1011200.000000 1 0 0
-5.190100 -15.971187 -8.004938 18.603628 1.256595 2.015609 0.017482 -0.018815 -1387930.000000 1 0 0
-0.179300 -13.479487 2.151062 13.651219 1.557495 1.412564 0.003673 -0.004657 534209.000000 1 0 0
-10.959300 -13.436687 -4.581538 17.934361 0.886600 1.829121 0.050729 -0.014058 -898580.000000 1 0 0
-9.750800 -10.534687 6.664762 15.826458 0.824022 1.136122 0.012146 -0.004805 -464687.000000 1 0 0
-15.483400 -8.053687 -4.930138 18.135706 0.479637 1.846108 0.026394 -0.008062 57837.000000 1 0 0
-14.452500 -7.322387 5.360662 17.065427 0.468955 1.251262 0.020823 -0.005814 877382.000000 1 0 0
-1.597800 -19.376887 -0.128538 19.443077 1.488523 1.577407 0.011478 -0.015018 -776921.000000 1 0 0
-15.463500 -12.451387 -1.180138 19.888429 0.677911 1.630169 0.028873 0.006507 1266650.000000 1 0 0
-4.263700 -12.261787 -6.655138 14.588400 1.236152 2.044510 0.002819 -0.002935 -270588.000000 1 0 0
-7.234100 -18.379787 2.158762 19.869802 1.195828 1.461936 0.015965 -0.012878 -253207.000000 1 0 0
-2.440400 -11.888987 -8.631738 14.893303 1.368343 2.188999 0.001499 -0.001911 -121459.000000 1 0 0
-1.339100 -20.350587 -5.157038 21.036507 1.505089 1.818468 0.062880 -0.024297 -131831.000000 1 0 0
-5.152200 -8.968787 -13.950938 17.367009 1.049369 2.503614 0.009732 -0.003284 -139067.000000 1 0 0
-8.487000 -18.888287 -0.214138 20.708511 1.148503 1.581137 0.053557 -0.030908 -168115.000000 1 0 0
-17.071000 -7.391487 5.516862 19.403322 0.408615 1.282493 0.053963 -0.011366 253290.000000 1 0 0
-3.483100 -14.677287 -4.251338 15.672543 1.337794 1.845498 0.004797 -0.008683 -2514170.000000 1 0 0
-2.907000 -15.069287 -10.842738 18.790929 1.380228 2.185871 0.016436 -0.008923 -216209.000000 1 0 0
-0.041000 -16.582687 6.342462 17.754267 1.568324 1.205489 0.018989 -0.009831 -866231.000000 1 0 0
-11.053800 -11.598087 3.789462 16.463965 0.809422 1.338547 0.008955 -0.000709 -117080.000000 1 0 0
-0.135900 -14.684487 -0.167338 14.686069 1.561542 1.582191 0.008293 -0.006404 850620.000000 1 0 0
-7.187000 -9.494587 -2.485438 12.164603 0.922857 1.776563 0.014398 -0.000014 -227195.000000 1 0 0
-11.233000 -14.472887 -0.671238 18.332902 0.910774 1.607418 0.038231 -0.011819 -613682.000000 1 0 0
0.298800 -14.782587 -10.629438 18.209863 -1.550586 2.194097 0.003631 0.002795 -402170.000000 1 0 0
-1.311500 -13.979987 -3.906838 14.574754 1.477257 1.842170 -0.000506 -0.003390 -4533420.000000 1 0 0
-11.417200 -8.087087 -7.552838 15.899648 0.616291 2.065796 0.013057 -0.005653 879917.000000 1 0 0
-0.086800 -17.324187 -0.256838 17.326308 1.565786 1.585620 0.006133 -0.011162 -441923.000000 1 0 0
-12.709000 -9.500687 4.540162 16.504387 0.641935 1.292115 0.007498 -0.004514 -732997.000000 1 0 0
4.083300 -16.826087 1.823162 17.410182 -1.332722 1.465886 0.021285 -0.012766 2037010.000000 1 0 0
-3.624200 -17.996087 -8.017538 20.031847 1.372066 1.982575 0.045325 -0.025894 201962.000000 1 0 0
-13.222000 -11.205787 2.684862 17.538513 0.703047 1.417108 0.000183 -0.002895 -997406.000000 1 0 0
-8.465900 -12.102587 4.212062 15.358566 0.960398 1.292988 0.005106 -0.006374 -311302.000000 1 0 0
-8.266300 -9.627987 -5.926738 14.005573 0.861348 2.007737 0.014024 -0.004612 329379.000000 1 0 0
3.905100 -17.518387 -5.413038 18.746857 -1.351468 1.863711 0.012387 -0.002000 -1395970.000000 1 0 0
-2.498100 -12.991187 11.437562 17.487975 1.380823 0.857904 0.001355 -0.009135 18002.800000 1 0 0
0.330700 -16.909387 -9.260338 19.281872 -1.551242 2.071749 0.033369 -0.007483 -264718.000000 1 0 0
-6.997300 -10.622787 -14.206638 19.069200 0.988325 2.411338 0.022355 -0.012779 -197220.000000 1 0 0
-4.370000 -18.930887 -1.541538 19.489785 1.343931 1.649974 0.026029 -0.026360 -922924.000000 1 0 0
-2.419800 -17.185987 0.967662 17.382461 1.430915 1.515099 0.010347 -0.018081 -723871.000000 1 0 0
4.092400 -14.548587 -7.325838 16.795149 -1.296590 2.022154 0.011813 -0.009119 240706.000000 1 0 0
-0.930200 -15.902187 -6.090038 17.053838 1.512368 1.935965 0.011140 -0.009586 -561716.000000 1 0 0
-9.397400 -15.137787 8.436962 19.714108 1.015230 1.128556 0.017974 -0.010403 -405924.000000 1 0 0
-7.005000 -11.956287 -1.847138 13.979798 1.040821 1.703313 0.012624 -0.001883 942329.000000 1 0 0
-7.358800 -15.077787 -9.085038 19.079558 1.116750 2.067086 0.039701 -0.021027 235710.000000 1 0 0
-4.904400 -13.128887 -0.632238 14.029274 1.213291 1.615877 0.010876 -0.004528 2417740.000000 1 0 0
-6.284300 -13.936587 -7.090338 16.852115 1.147177 2.005056 0.010346 -0.014072 814647.000000 1 0 0
5.728300 -15.379787 0.294362 16.414564 -1.214258 1.552862 0.019424 -0.010924 1156540.000000 1 0 0
-14.179500 -12.923587 1.055762 19.214368 0.739093 1.515822 -0.003754 -0.000062 959991.000000 1 0 0
0.911700 -15.260587 11.161862 18.928916 -1.511125 0.940143 0.014618 -0.011752 108509.000000 1 0 0
-9.212700 -10.721887 1.991862 14.275861 0.860961 1.430813 0.006509 -0.000532 136908.000000 1 0 0
-9.374500 -8.842687 -3.544438 13.365531 0.756213 1.839200 0.011415 0.001478 -300817.000000 1 0 0
-12.012700 -7.328287 -12.504738 18.824910 0.547773 2.297307 0.045480 -0.002892 -1350440.000000 1 0 0
-13.264700 -8.419087 -0.572738 15.721365 0.565543 1.607235 0.004701 -0.003590 692333.000000 1 0 0
-11.196500 -9.800187 0.431462 14.885948 0.718994 1.541808 0.002314 0.002610 1336820.000000 1 0 0
-15.620600 -12.115287 3.048462 20.001911 0.659683 1.417792 0.028802 -0.006414 108804.000000 1 0 0
-10.466900 -12.639387 -2.287338 16.569309 0.879144 1.709285 0.029853 -0.008065 475363.000000 1 0 0
-3.419800 -8.995487 -12.036538 15.410778 1.207502 2.467137 0.006598 0.000907 -1004410.000000 1 0 0
-0.291600 -15.516287 3.951662 16.014238 1.552005 1.321462 0.005012 -0.006362 -558079.000000 1 0 0
-15.633900 -7.897787 1.219462 17.557932 0.467776 1.501287 -0.009972 0.000503 312858.000000 1 0 0
-6.217900 -13.334487 -13.206438 19.770706 1.134469 2.302288 0.029472 -0.011643 -14802.200000 1 0 0
-15.254500 -10.458687 1.135562 18.530338 0.601005 1.509477 -0.000819 0.000570 496528.000000 1 0 0
-9.779200 -8.531887 -12.225238 17.829254 0.717385 2.326340 0.019300 -0.012202 883337.000000 1 0 0
-13.155600 -11.725587 -6.155038 18.666647 0.727988 1.906819 0.040546 -0.005333 -196292.000000 1 0 0
-12.176200 -11.312587 -3.700438 17.027264 0.748648 1.789869 0.025732 -0.000606 -2256660.000000 1 0 0
-11.429900 -11.052387 -8.746638 18.146668 0.768608 2.073729 0.038053 -0.019413 102756.000000 1 0 0
-13.195700 -8.459687 -5.863538 16.735408 0.570089 1.928759 0.016383 -0.006254 -1786580.000000 1 0 0
-13.414800 -8.080487 -3.265738 15.997380 0.542150 1.776384 0.008404 -0.004020 269219.000000 1 0 0
-4.319300 -17.031887 -3.220438 17.863727 1.322432 1.752065 0.016171 -0.021827 541300.000000 1 0 0
-15.313700 -8.874687 -1.809538 17.791681 0.525229 1.672679 0.001947 -0.003706 -2795700.000000 1 0 0
-9.377300 -15.970287 3.772562 18.900160 1.039863 1.369842 0.009574 -0.003804 -168864.000000 1 0 0
4.787500 -16.892687 7.839262 19.228548 -1.294631 1.150875 0.054773 -0.034962 -88561.300000 1 0 0
-8.290900 -15.416687 6.024462 18.512358 1.077378 1.239331 0.001327 -0.005834 523381.000000 1 0 0
0.965200 -16.015287 8.643762 18.224589 -1.510602 1.076638 0.020125 -0.011206 444724.000000 1 0 0
-11.070000 -7.828787 -10.150338 16.937065 0.615547 2.213419 0.024725 -0.006536 734674.000000 1 0 0
-4.878900 -15.690287 5.772662 17.415866 1.269324 1.232946 0.005158 -0.010452 -565364.000000 1 0 0
-1.355400 -13.335887 -11.964738 17.967692 1.469509 2.299500 0.003566 -0.002411 -2168190.000000 1 0 0
-6.306200 -14.364287 -2.471038 15.881024 1.157111 1.727028 0.016694 -0.013270 426096.000000 1 0 0
-17.543000 -6.875387 -7.289138 20.202954 0.373518 1.939917 0.047289 -0.020463 -423801.000000 1 0 0
-17.439400 -4.172387 -10.144438 20.602212 0.234836 2.085636 0.061280 -0.020909 495302.000000 1 0 0
-15.298900 -5.359887 -9.088238 18.584424 0.336982 2.081767 0.026173 -0.017543 611978.000000 1 0 0
-15.989700 -5.450887 -5.778738 17.854313 0.328545 1.900392 0.010825 -0.012467 -1185250.000000 1 0 0
-15.265600 -4.286187 -12.211538 20.013286 0.273726 2.227073 0.056069 -0.020246 -1908770.000000 1 0 0
-18.652900 -5.318087 -5.569038 20.179864 0.277739 1.850395 0.040737 -0.014958 1733530.000000 1 0 0
-17.415300 -4.343387 -7.634838 19.505088 0.244414 1.972979 0.032722 -0.019900 1503500.000000 1 0 0
12.306800 -7.808187 8.753762 17.001572 -0.565374 1.029929 0.046080 -0.009738 206054.000000 1 0 0
16.083400 -3.319487 1.810362 16.521869 -0.203534 1.461002 0.036681 -0.006993 365203.000000 1 0 0
12.148800 -2.124187 12.486662 17.550562 -0.173098 0.779211 0.067936 -0.011506 641673.000000 1 0 0
9.834700 -10.029887 5.304262 15.015164 -0.795224 1.209742 0.009925 -0.002397 20641.000000 1 0 0
16.925700 -1.833387 7.201062 18.485018 -0.107899 1.170640 0.093815 -0.015748 -486603.000000 1 0 0
5.198100 -12.797587 9.160162 16.574288 -1.184975 0.985228 0.010691 0.001027 61582.700000 1 0 0
15.267500 -9.065687 -2.130238 17.883544 -0.535841 1.690197 0.040427 -0.005494 186827.000000 1 0 0
11.226400 -8.502287 6.503562 15.511842 -0.648187 1.138162 0.017064 -0.009079 -1793900.000000 1 0 0
20.086700 -3.064987 3.613362 20.637975 -0.151420 1.394806 0.123640 -0.017147 318123.000000 1 0 0
13.716600 -8.597587 6.869162 17.585477 -0.559894 1.169496 0.047181 -0.008703 -1382060.000000 1 0 0
8.292900 -10.962487 8.850462 16.348669 -0.923161 0.998746 0.009798 -0.002385 -371543.000000 1 0 0
17.045900 0.197313 -0.828338 17.067155 0.011575 1.619349 0.036984 -0.003287 -427655.000000 1 0 0
12.519300 -12.417887 2.446462 17.802302 -0.781331 1.432936 0.030965 -0.007306 -1171010.000000 1 0 0
10.304600 -11.809587 3.607162 16.082995 -0.853349 1.344588 0.026278 -0.003525 -214406.000000 1 0 0
16.270500 3.009913 2.392662 16.718659 0.182924 1.427190 0.024929 -0.001890 -448208.000000 1 0 0
18.283200 -3.152487 0.439262 18.558193 -0.170746 1.547125 0.056557 -0.011325 1044690.000000 1 0 0
13.399900 -11.679987 -0.177738 17.776698 -0.716928 1.580795 0.032918 -0.004259 -1167690.000000 1 0 0
16.995600 -7.643587 -0.849338 18.654656 -0.422637 1.616342 0.044444 -0.006939 650176.000000 1 0 0
10.168000 -5.507587 9.715862 15.103632 -0.496417 0.872022 0.025879 -0.012835 -697664.000000 1 0 0
11.503800 -13.352487 5.993762 18.615894 -0.859637 1.242987 0.045660 -0.005101 461201.000000 1 0 0
13.105600 -1.754787 10.160462 16.675461 -0.133104 0.915611 0.052614 -0.008361 1356800.000000 1 0 0
15.711200 -1.949587 -1.345238 15.888749 -0.123458 1.655564 0.027641 -0.005002 59217.800000 1 0 0
10.455200 -12.436587 8.983762 18.565771 -0.871737 1.065704 0.050767 -0.015400 -51868.100000 1 0 0
14.569400 1.251513 3.275862 14.985492 0.085690 1.350415 0.017019 -0.002146 1182360.000000 1 0 0
15.152100 -5.754287 5.268762 17.042822 -0.362945 1.256499 0.051619 -0.010647 -257568.000000 1 0 0
14.496600 -3.282587 -3.002238 15.163780 -0.222683 1.770101 0.024967 -0.006291 808872.000000 1 0 0
14.218000 0.670813 9.430562 17.074455 0.047146 0.985652 0.070731 -0.012529 397813.000000 1 0 0
15.476800 -3.369487 4.442162 16.450458 -0.214367 1.297369 0.042126 -0.005747 48606.500000 1 0 0
18.241600 4.768613 -4.206238 19.318076 0.255692 1.790290 0.006966 -0.012040 466593.000000 1 0 0
18.424200 -5.766687 -5.080038 19.962780 -0.303336 1.828102 0.107999 -0.011211 726690.000000 1 0 0
17.333900 0.049913 5.760862 18.266201 0.002880 1.249935 0.086492 -0.006943 565185.000000 1 0 0
17.174600 -6.660387 4.025562 18.855577 -0.369949 1.355646 0.079468 -0.017105 -232080.000000 1 0 0
9.707800 -6.653687 14.293562 18.515367 -0.600857 0.688840 0.045685 -0.015696 -965409.000000 1 0 0
8.649000 -12.205387 5.321462 15.877488 -0.954308 1.229024 0.021245 -0.006660 -345965.000000 1 0 0
16.962100 -10.177287 -0.495038 19.787245 -0.540421 1.595817 0.049021 -0.002862 136309.000000 1 0 0
14.973300 -8.799087 0.418462 17.372356 -0.531290 1.546706 0.036161 -0.007528 -223944.000000 1 0 0
10.090700 -12.956187 1.529462 16.493158 -0.909096 1.477930 0.028912 -0.011557 274278.000000 1 0 0
16.868200 -8.299187 8.882762 20.792213 -0.457229 1.129385 0.102423 -0.018188 350877.000000 1 0 0
19.166900 0.172313 -2.426138 19.320608 0.008990 1.696701 0.084988 -0.000667 36339.400000 1 0 0
13.581800 -1.213687 7.616862 15.619056 -0.089125 1.061384 0.038420 -0.012137 -204963.000000 1 0 0
12.860500 -9.795887 -3.028538 16.447611 -0.650949 1.755985 0.027599 -0.005668 -2155220.000000 1 0 0
8.923500 -15.234387 1.402362 17.711070 -1.040923 1.491533 0.042858 -0.010715 836777.000000 1 0 0
11.496500 -8.175887 11.052062 17.921013 -0.618179 0.906240 0.058449 -0.016055 -398487.000000 1 0 0
14.028300 -3.855587 -0.508638 14.557385 -0.268221 1.605744 0.017965 -0.005667 -1077950.000000 1 0 0
7.170000 -13.184687 10.820562 18.502146 -1.072716 0.946129 0.026239 0.001909 -545961.000000 1 0 0
15.522800 -6.681987 1.831162 16.998806 -0.406489 1.462864 0.034154 -0.008613 -497676.000000 1 0 0
15.935300 -6.107187 -2.636138 17.267911 -0.365983 1.724057 0.058379 -0.007284 -84818.000000 1 0 0
11.395100 -8.526787 3.861062 14.746599 -0.642403 1.305881 0.011209 -0.007320 643776.000000 1 0 0
10.928300 -14.512287 -0.351538 18.170244 -0.925354 1.590144 0.044943 -0.016340 937321.000000 1 0 0
13.719700 -12.832587 4.648062 19.352259 -0.752001 1.328243 0.041196 -0.004124 500107.000000 1 0 0
12.904300 -11.129887 6.480362 18.231578 -0.711703 1.207404 0.038453 -0.003740 -205683.000000 1 0 0
10.972100 -10.480987 1.528362 15.250375 -0.762510 1.470410 0.016126 -0.008381 570981.000000 1 0 0
13.966700 -7.448087 11.851262 19.773596 -0.489912 0.928110 0.075396 -0.023922 624565.000000 1 0 0
15.479500 -1.794487 -5.040738 16.378160 -0.115412 1.883647 0.042472 -0.001453 -498194.000000 1 0 0
13.046300 -11.472987 -7.141738 18.784030 -0.721320 1.960812 0.054461 0.002417 -233529.000000 1 0 0
17.737800 -5.300387 1.965762 18.616870 -0.290373 1.465009 0.080596 -0.010389 364370.000000 1 0 0
10.704600 -9.802787 9.125862 17.145391 -0.741451 1.009525 0.031671 -0.008513 -780892.000000 1 0 0
16.550900 1.980813 9.571762 19.221720 0.119114 1.049545 0.110292 -0.018277 -188485.000000 1 0 0
18.103800 3.752813 0.501062 18.495465 0.204399 1.543702 0.013818 0.000457 854443.000000 1 0 0
13.339400 -3.979587 5.825162 15.090037 -0.289927 1.174475 0.016336 -0.009536 -838649.000000 1 0 0
12.218200 -6.175187 6.682562 15.233974 -0.467965 1.116687 0.017865 -0.010054 34413.100000 1 0 0
16.655400 -10.104187 3.501862 19.792927 -0.545303 1.392935 0.051010 -0.012545 201267.000000 1 0 0
16.391300 -8.131687 -5.513638 19.110187 -0.460521 1.863475 0.076576 -0.007012 1117470.000000 1 0 0
13.947500 -0.333387 5.301662 14.924862 -0.023898 1.207643 0.023287 -0.004686 478399.000000 1 0 0
18.317900 -4.136687 5.146762 19.471692 -0.222102 1.303297 0.107025 -0.012808 95458.400000 1 0 0
13.831300 -13.392087 7.202462 20.555493 -0.769266 1.212808 0.078294 -0.013533 -68091.500000 1 0 0
15.012500 -13.643287 -0.853938 20.303784 -0.737653 1.612867 0.038398 -0.001973 478207.000000 1 0 0
17.894200 -5.997787 8.046762 20.516486 -0.323412 1.167764 0.115145 -0.014882 -520441.000000 1 0 0
14.366600 3.329713 9.108262 17.333396 0.227747 1.017523 0.049047 -0.012366 -703388.000000 1 0 0
18.743200 3.804013 2.893262 19.342932 0.200235 1.420656 0.060753 -0.004137 -174818.000000 1 0 0
14.729900 -10.549187 8.177262 19.877698 -0.621499 1.146830 0.061906 -0.019981 -665198.000000 1 0 0
15.021300 -4.837787 10.498162 18.954024 -0.311572 0.983785 0.096329 -0.017812 253111.000000 1 0 0
17.866100 -7.836887 1.889062 19.600583 -0.413372 1.474269 0.084418 -0.016018 -326495.000000 1 0 0
18.440500 -5.704087 -1.955338 19.401340 -0.299989 1.671751 0.062263 -0.008976 598332.000000 1 0 0
14.340800 -12.864587 -5.374138 20.000937 -0.731190 1.842834 0.053231 -0.007203 -1877070.000000 1 0 0
15.430700 -1.535787 9.308762 18.086409 -0.099201 1.030159 0.120756 -0.016958 -1341010.000000 1 0 0
13.100300 -9.950887 10.274262 19.395836 -0.649612 1.012532 0.055696 -0.021459 -775872.000000 1 0 0
16.640000 2.239813 4.783962 17.458312 0.133800 1.293224 0.055236 -0.004119 -725259.000000 1 0 0
14.951900 2.512413 -0.040438 15.161569 0.166478 1.573463 0.013271 0.001625 -1210340.000000 1 0 0
15.096500 -9.743187 -6.990438 19.279529 -0.573130 1.941835 0.068113 -0.003909 1368580.000000 1 0 0
16.099100 0.044513 -3.293038 16.432501 0.002765 1.772560 0.026332 -0.000559 -215556.000000 1 0 0
12.244200 2.480713 13.516262 18.405534 0.199897 0.746075 0.083279 -0.009094 98648.700000 1 0 0
17.778800 -2.872487 9.437862 20.332490 -0.160184 1.088092 0.121797 -0.027880 1054120.000000 1 0 0
7.769000 -18.061287 4.638762 20.201127 -1.164575 1.339100 0.079237 -0.021589 -657513.000000 1 0 0
6.863200 -11.128187 6.642262 14.664914 -1.018159 1.100741 0.012136 -0.004838 27596.900000 1 0 0
17.952900 2.398213 -1.750138 18.196731 0.132797 1.667124 0.027551 0.000328 484217.000000 1 0 0
17.637300 -2.257787 3.572562 18.136569 -0.127320 1.372519 0.058322 -0.009206 -570337.000000 1 0 0
12.614200 -13.466287 -1.939438 18.553176 -0.818058 1.675522 0.027906 -0.001909 120566.000000 1 0 0
15.072900 -8.182187 4.388362 17.703056 -0.497330 1.320298 0.042802 -0.007741 -191587.000000 1 0 0
12.240400 -2.617387 15.010662 19.544771 -0.210659 0.695062 0.079032 -0.025080 434375.000000 1 0 0
12.168000 -13.741787 -6.245238 19.388139 -0.846065 1.898761 0.033413 -0.011397 -35531.700000 1 0 0
10.754800 -12.022687 -1.129438 16.170539 -0.841005 1.640699 0.018831 -0.010529 -1719250.000000 1 0 0
13.221500 -7.923287 2.086762 15.554456 -0.539885 1.436232 0.021898 -0.005106 -1134450.000000 1 0 0
8.851800 -7.765387 9.983562 15.437846 -0.720112 0.867554 0.016630 -0.003075 -1011770.000000 1 0 0
15.730400 -3.845687 8.168262 18.137124 -0.239772 1.103626 0.098224 -0.018302 -421170.000000 1 0 0
10.376100 -17.364487 5.084562 20.857651 -1.032182 1.324541 0.091165 -0.020300 1309910.000000 1 0 0
15.323700 -6.358587 8.347162 18.572089 -0.393328 1.104651 0.073421 -0.011542 -65599.300000 1 0 0
16.539400 -4.959287 -0.343138 17.270322 -0.291316 1.590666 0.034378 -0.007093 -847448.000000 1 0 0
14.069900 -10.468087 3.453062 17.873627 -0.639654 1.376381 0.035181 -0.009799 387903.000000 1 0 0
14.980200 -10.089487 -4.434838 18.597632 -0.592733 1.811579 0.055338 -0.004472 318094.000000 1 0 0
13.758700 -6.458587 -0.063138 15.199314 -0.438884 1.574950 0.024257 -0.005224 -126909.000000 1 0 0
17.862900 -0.878987 -4.940238 18.554292 -0.049168 1.840306 0.079770 -0.005959 -545293.000000 1 0 0
14.523100 0.318413 -1.446738 14.598454 0.021921 1.670061 0.013933 -0.002160 -2448630.000000 1 0 0
4.849600 -12.790187 11.749762 18.032315 -1.208379 0.861111 0.005089 -0.002382 -935662.000000 1 0 0
11.896300 -7.335287 13.427762 19.381258 -0.552538 0.805401 0.059780 -0.023415 -347275.000000 1 0 0
12.142500 -5.685287 11.458862 17.637128 -0.437897 0.863605 0.048599 -0.016380 444769.000000 1 0 0
13.368200 -4.562087 8.399762 16.434032 -0.328871 1.034309 0.042335 -0.011701 -1146300.000000 1 0 0
15.289100 -1.180787 3.117262 15.648263 -0.077078 1.370247 0.033718 -0.000063 226661.000000 1 0 0
15.315600 -10.454087 5.702362 19.400321 -0.598937 1.272459 0.066797 -0.009984 481035.000000 1 0 0
13.741300 -7.979887 -5.624238 16.856274 -0.526125 1.910978 0.051175 -0.004923 -289301.000000 1 0 0
9.887300 -2.153187 13.814062 17.123762 -0.214425 0.632218 0.050254 -0.009385 -1229830.000000 1 0 0
9.882000 -9.042487 13.509762 19.024567 -0.741066 0.781125 0.060003 -0.017603 -331765.000000 1 0 0
20.213600 6.245813 -3.314538 21.414620 0.299685 1.726200 0.111727 -0.014744 974390.000000 1 0 0
11.132700 -3.493687 10.542762 15.725542 -0.304089 0.836018 0.023866 -0.006346 741749.000000 1 0 0
10.212400 -13.955687 -2.874138 17.530401 -0.939063 1.735492 0.018976 -0.004843 1048740.000000 1 0 0
15.021700 -12.583687 2.337662 19.734875 -0.697310 1.452064 0.040958 -0.009637 -479780.000000 1 0 0
11.457500 -0.222387 14.250362 18.286513 -0.019407 0.677276 0.072511 -0.017014 593093.000000 1 0 0
19.115100 -1.722187 5.743162 20.033394 -0.089853 1.280037 0.137533 -0.011879 497887.000000 1 0 0
18.800700 -0.293487 7.975262 20.424428 -0.015609 1.169647 0.115808 -0.017679 -10731.900000 1 0 0
19.318000 0.962613 0.070862 19.342098 0.049789 1.567133 0.086726 -0.007887 25130.600000 1 0 0
18.502500 0.813013 3.555062 18.858472 0.043912 1.381149 0.067142 -0.007835 134023.000000 1 0 0
16.791100 -3.917087 -4.225238 17.752105 -0.229185 1.811116 0.067492 -0.008967 -328465.000000 1 0 0
11.080500 -8.243387 15.803762 20.987848 -0.639621 0.718193 0.087509 -0.023890 386610.000000 1 0 0
16.680000 -7.571587 6.393462 19.401744 -0.426119 1.234990 0.081759 -0.009365 399321.000000 1 0 0
19.035500 2.028913 5.843362 20.015285 0.106185 1.274537 0.093736 -0.003964 39112.800000 1 0 0
15.214200 1.821613 7.361362 16.999406 0.119164 1.122938 0.060851 -0.011527 -215099.000000 1 0 0
8.842600 -15.731787 3.900962 18.463428 -1.058722 1.357912 0.055101 -0.019324 832233.000000 1 0 0
11.513500 -15.128787 2.053562 19.122186 -0.920272 1.463197 0.059831 -0.010150 1013220.000000 1 0 0
8.376300 -16.134187 6.305762 19.241544 -1.091935 1.236911 0.064939 -0.011490 -158924.000000 1 0 0
14.561100 -11.666587 -2.434938 18.816583 -0.675482 1.700564 0.040479 -0.003209 754733.000000 1 0 0
13.741300 -4.919687 3.298862 14.963593 -0.343803 1.348511 0.016227 -0.003854 -1769230.000000 1 0 0
-1.182100 10.298913 -5.761738 11.860127 -1.456517 2.078083 0.000753 0.001929 -2594140.000000 1 0 0
8.333800 -1.768987 -8.057438 11.726203 -0.209162 2.328329 0.002955 -0.004037 -4246680.000000 1 0 0
3.053800 -10.148587 7.724262 13.114257 -1.278506 0.940979 0.000792 -0.006221 647739.000000 1 0 0
-6.402000 1.353713 8.398562 10.646783 -0.208382 0.661884 0.000978 -0.002738 -45870.100000 1 0 0
7.107400 -6.206687 -7.187838 11.861834 -0.717850 2.221773 0.000616 -0.004759 -434461.000000 1 0 0
-11.398600 -4.523587 -4.088738 12.927053 0.377792 1.892616 0.005552 -0.001991 178001.000000 1 0 0
2.164300 -3.208087 2.851162 4.806780 -0.977295 0.935825 0.004361 -0.002376 1285380.000000 1 0 0
-3.598500 -4.224287 8.895862 10.484758 0.865224 0.557734 0.003482 -0.004629 -1798250.000000 1 0 0
-4.838600 -1.100587 -2.436338 5.528028 0.223654 2.027202 0.009448 -0.002604 -20697.400000 1 0 0
4.987600 -5.090487 -3.654538 8.009048 -0.795607 2.044630 0.004397 -0.005132 477842.000000 1 0 0
2.684600 14.332313 -8.852738 17.058524 1.385631 2.116433 0.012769 -0.001966 -34181.600000 1 0 0
5.606500 -5.596687 13.730662 15.852029 -0.784522 0.523296 0.027385 -0.014254 -632504.000000 1 0 0
-4.748300 -0.843487 9.803262 10.925281 0.175806 0.457181 0.005613 -0.002169 -1769280.000000 1 0 0
-1.025800 12.033013 -2.729538 12.381278 -1.485753 1.793079 0.001615 0.000093 783965.000000 1 0 0
3.066000 9.436813 -10.619338 14.533552 1.256657 2.390110 0.005254 -0.000724 -332048.000000 1 0 0
-10.693200 2.598313 1.148462 11.064119 -0.238368 1.466808 -0.000349 0.001074 2260.480000 1 0 0
5.794900 -9.035487 -0.773238 10.761913 -1.000527 1.642708 -0.000034 -0.004647 125026.000000 1 0 0
-6.913800 5.483213 9.434362 12.917950 -0.670509 0.751992 -0.000049 -0.001698 454617.000000 1 0 0
-5.711300 -1.785487 5.153662 7.897287 0.302997 0.859804 0.003530 -0.004356 176575.000000 1 0 0
6.634800 -3.717687 -7.366938 10.588368 -0.510741 2.340271 0.002782 -0.005749 269625.000000 1 0 0
6.262900 4.735113 11.204962 13.681973 0.647367 0.611203 0.011641 -0.003470 836931.000000 1 0 0
3.868900 -9.737187 3.301162 10.985393 -1.192592 1.265575 -0.002137 -0.001257 1213570.000000 1 0 0
-6.719800 6.602313 -5.785138 11.055048 -0.776579 2.121519 0.004100 -0.003248 290701.000000 1 0 0
-11.182000 8.345013 5.242162 14.904920 -0.641122 1.211403 -0.000182 -0.007204 660927.000000 1 0 0
-9.122500 -5.516387 5.206162 11.864007 0.543869 1.116511 0.006799 -0.003854 223860.000000 1 0 0
3.195000 9.871013 -8.140338 13.187495 1.257763 2.236073 0.001071 0.002175 693341.000000 1 0 0
-8.052900 -8.499087 6.092562 13.198598 0.812348 1.090991 0.008182 -0.004896 -1041370.000000 1 0 0
-7.804300 -5.654987 -7.598038 12.272578 0.627045 2.238401 0.011492 -0.003567 297435.000000 1 0 0
9.200900 -1.661187 6.990062 11.673777 -0.178622 0.928815 0.007557 -0.005984 1009860.000000 1 0 0
-4.013700 -0.398187 -4.826438 6.289901 0.098883 2.445466 0.012414 -0.006871 -1289530.000000 1 0 0
9.155700 1.194413 -4.508138 10.275056 0.129723 2.024999 0.000781 0.000204 -3241380.000000 1 0 0
-1.938900 -10.593387 10.674162 15.163011 1.389771 0.789838 -0.002496 -0.009285 -147237.000000 1 0 0
-12.982300 0.254813 -2.690338 13.260580 -0.019625 1.775097 0.003832 -0.000804 -885621.000000 1 0 0
-9.856700 -5.019687 -6.087438 12.625716 0.471033 2.073899 0.007884 -0.004894 -1583410.000000 1 0 0
-5.648300 8.231013 -0.159238 9.983899 -0.969377 1.586747 0.002777 -0.001256 605954.000000 1 0 0
6.228700 9.576513 0.467762 11.433508 0.994130 1.529873 0.008817 -0.002638 346819.000000 1 0 0
-0.410200 -12.109487 0.034962 12.116483 1.536935 1.567911 0.006175 -0.000095 -397716.000000 1 0 0
6.110400 4.625313 2.366362 8.020609 0.647939 1.271304 0.000262 0.001435 97330.800000 1 0 0
3.452200 -7.436287 -8.252238 11.632518 -1.136166 2.359459 -0.002449 -0.006112 900026.000000 1 0 0
-6.508400 -9.930887 4.623162 12.741876 0.990656 1.199491 0.008575 -0.002842 -2682220.000000 1 0 0
-0.078900 6.396213 -9.228538 11.228699 -1.558461 2.535483 0.008384 -0.001701 -1674350.000000 1 0 0
-17.417400 -2.766187 4.391262 18.174180 0.157502 1.326760 0.053497 -0.007052 747323.000000 1 0 0
-8.351700 0.861013 -9.224638 12.473419 -0.102731 2.403188 0.009053 -0.004384 -355563.000000 1 0 0
-10.030500 -5.911487 -11.854738 16.615999 0.532553 2.365210 0.020597 -0.000516 1082870.000000 1 0 0
2.175700 9.425213 6.420562 11.609992 1.343932 0.984811 -0.000855 0.003956 -826008.000000 1 0 0
-11.351200 1.640413 -1.239638 11.535918 -0.143521 1.678463 0.003458 0.000512 -1799560.000000 1 0 0
-5.945800 -5.377987 -3.147838 8.613023 0.735297 1.944939 0.016597 -0.002346 616973.000000 1 0 0
-6.798000 -8.271087 1.306662 10.785687 0.882844 1.449350 0.011690 -0.000965 -1052540.000000 1 0 0
0.077400 11.218313 -7.968038 13.760312 1.563897 2.188371 0.003057 0.003127 380958.000000 1 0 0
-2.973100 9.204913 -4.421438 10.635735 -1.258383 1.999526 0.004134 -0.001314 203615.000000 1 0 0
3.479900 -4.775587 9.320362 11.035627 -0.941077 0.565034 0.006928 -0.006440 -1003740.000000 1 0 0
-8.968200 1.570813 -0.442138 9.115457 -0.173395 1.619320 0.003551 -0.000281 -1585490.000000 1 0 0
2.544300 3.530813 -10.440938 11.311644 0.946379 2.746668 0.004787 -0.002566 -490699.000000 1 0 0
-13.673900 0.380013 1.013562 13.716678 -0.027784 1.496836 0.004091 -0.001675 -295187.000000 1 0 0
9.453700 -12.475187 -4.970938 16.422940 -0.922322 1.878302 0.024638 -0.005176 -2236340.000000 1 0 0
-4.745500 9.492913 -8.483538 13.586964 -1.107229 2.245144 0.006838 -0.002382 684567.000000 1 0 0
-2.359600 7.230213 8.488262 11.397117 -1.255341 0.730602 0.001910 0.000261 -749943.000000 1 0 0
-10.705400 -1.171887 -4.517238 11.678371 0.109033 1.967959 0.005326 0.000010 -3833060.000000 1 0 0
2.744100 -7.120487 9.724762 12.361327 -1.202956 0.665337 0.003590 -0.006689 -2334460.000000 1 0 0
-16.086900 -6.533187 3.354462 17.683984 0.385770 1.379951 0.022142 -0.002981 363806.000000 1 0 0
-10.838000 -0.077787 6.142962 12.458101 0.007177 1.055159 -0.000545 -0.000358 -183692.000000 1 0 0
-8.468200 9.899113 9.367162 16.045142 -0.863147 0.947394 0.006720 -0.012463 -1185440.000000 1 0 0
0.423600 -6.028187 -3.691838 7.081535 -1.500642 2.119209 0.004971 -0.001420 -29202.600000 1 0 0
4.891100 1.436313 -3.000438 5.915106 0.285629 2.102787 -0.000323 -0.000129 1196310.000000 1 0 0
0.336800 5.386513 3.748862 6.571295 1.508351 0.963693 0.000795 0.003008 -2765480.000000 1 0 0
6.130500 -11.265487 -1.463038 12.908706 -1.072429 1.684378 -0.001935 -0.006406 -2996220.000000 1 0 0
6.219100 -13.444587 5.292462 15.730361 -1.137536 1.227653 0.019335 -0.006562 617046.000000 1 0 0
8.253600 -8.097787 -6.032338 13.041670 -0.775869 2.051658 0.003481 -0.006535 729063.000000 1 0 0
-13.152800 -1.322587 -4.711938 14.033808 0.100219 1.913204 0.005773 -0.001044 -3564160.000000 1 0 0
-6.816300 -1.450687 -7.129438 9.969721 0.209697 2.367577 0.012436 -0.005349 -209272.000000 1 0 0
-5.803800 12.806613 -4.619838 14.799877 -1.145295 1.888256 0.009112 -0.002597 433391.000000 1 0 0
-4.428600 6.899613 -6.768638 10.631633 -1.000163 2.260944 0.006022 -0.000931 -3689630.000000 1 0 0
-9.402500 -3.674087 -8.123238 12.957350 0.372512 2.248391 0.010010 -0.002964 709157.000000 1 0 0
-2.206000 -6.386287 9.158962 11.381462 1.238201 0.635582 0.001744 -0.005209 -640882.000000 1 0 0
7.478700 -5.940787 9.996662 13.825959 -0.671293 0.762610 0.014519 -0.006773 1213390.000000 1 0 0
9.734000 -4.961887 12.223262 16.394487 -0.471416 0.729404 0.034105 -0.009546 -375730.000000 1 0 0
-6.558500 2.776213 -9.139638 11.586815 -0.400430 2.479645 0.005702 -0.005547 790634.000000 1 0 0
7.409500 5.483013 8.983562 12.871228 0.637069 0.798256 0.008523 -0.000524 -222964.000000 1 0 0
12.856100 3.304213 11.187062 17.359363 0.251570 0.870506 0.054980 -0.004517 71157.100000 1 0 0
-7.472800 -7.282087 -3.922838 11.147206 0.772473 1.930410 0.014150 -0.004625 -2853330.000000 1 0 0
2.384500 1.448313 -5.844838 6.476541 0.545833 2.696250 0.003198 -0.002848 -452518.000000 1 0 0
12.682900 6.879313 -7.145738 16.101008 0.496996 2.030639 0.009835 -0.003518 654504.000000 1 0 0
0.909400 -7.863787 0.978462 7.976436 -1.455664 1.447818 0.000692 0.000003 1236960.000000 1 0 0
-10.342000 -5.988287 -8.573038 14.707601 0.524855 2.193088 0.011473 -0.002647 69692.800000 1 0 0
-6.750500 0.250013 3.110862 7.437017 -0.037019 1.139230 0.005069 -0.002936 1350670.000000 1 0 0
10.835700 -7.828687 1.263162 13.427446 -0.625661 1.476584 0.006593 -0.004611 -138539.000000 1 0 0
6.285900 1.096113 10.747462 12.498877 0.172641 0.535773 0.011417 -0.002628 -227381.000000 1 0 0
-13.018600 5.294013 1.942362 14.187435 -0.386226 1.433458 -0.002193 0.002524 217463.000000 1 0 0
2.010000 7.367113 3.772062 8.517212 1.304445 1.111993 -0.002685 0.003273 198795.000000 1 0 0
10.304500 -9.470087 -0.842138 14.020501 -0.743227 1.630897 0.007384 -0.005427 725081.000000 1 0 0
6.888500 -11.614587 -9.027238 16.243186 -1.035473 2.160068 0.004022 -0.006477 468677.000000 1 0 0
10.367200 3.574913 12.000462 16.256381 0.332061 0.740398 0.030701 -0.006050 -937265.000000 1 0 0
-11.117200 -3.043187 -1.887438 11.679707 0.267191 1.733108 0.003627 0.000393 187952.000000 1 0 0
12.399400 0.999413 6.950362 14.249613 0.080428 1.061277 0.013536 -0.007493 -718557.000000 1 0 0
-9.629400 8.961313 3.068162 13.507187 -0.749477 1.341646 0.000527 -0.006625 778088.000000 1 0 0
-6.669500 7.676613 -8.890038 13.507235 -0.855484 2.289180 0.005935 -0.003139 -315231.000000 1 0 0
8.595700 5.522413 12.207462 15.918707 0.571058 0.696858 0.026189 -0.003217 -922979.000000 1 0 0
1.261600 4.842313 -2.738038 5.704076 1.315926 2.071467 0.001563 -0.000447 811020.000000 1 0 0
1.189500 0.503013 9.520462 9.607660 0.400072 0.134831 0.005341 -0.002470 850201.000000 1 0 0
2.499500 12.614113 -4.000838 13.467370 1.375179 1.872426 0.003925 -0.001049 358437.000000 1 0 0
1.985300 0.587213 13.058762 13.221857 0.287581 0.157230 0.011647 -0.006424 441376.000000 1 0 0
-12.211900 -1.792587 0.905662 12.375948 0.145749 1.497552 -0.000620 0.000748 310365.000000 1 0 0
3.158700 8.718513 -1.206638 9.351248 1.223208 1.700192 0.002617 0.000912 316708.000000 1 0 0
3.730400 -2.829087 -5.832838 7.479413 -0.648847 2.465226 0.000729 -0.005557 -1592460.000000 1 0 0
-7.655000 -7.221587 9.224062 13.994058 0.756272 0.851120 0.010023 -0.007750 -466607.000000 1 0 0
-7.184600 10.777413 -3.559638 13.432875 -0.982816 1.838995 0.012332 0.000251 578102.000000 1 0 0
0.414200 0.530313 2.508762 2.597437 0.907719 0.262052 0.002564 -0.001277 -2077990.000000 1 0 0
-7.055100 4.585413 -1.884338 8.622713 -0.576335 1.791106 0.004322 -0.001931 -787442.000000 1 0 0
-6.829600 -3.820487 -5.882838 9.790166 0.510032 2.215414 0.013593 -0.003327 245763.000000 1 0 0
2.972800 -6.109187 13.432062 15.052574 -1.117917 0.468286 0.012306 -0.012085 -891431.000000 1 0 0
-5.463000 -0.548987 -11.622138 12.853788 0.100156 2.700253 0.013644 -0.006278 -679306.000000 1 0 0
11.878000 2.462913 -0.682538 12.149843 0.204454 1.627003 0.002410 0.000627 -937398.000000 1 0 0
6.185300 -10.791187 10.777562 16.457931 -1.050330 0.856805 0.007215 -0.003215 525367.000000 1 0 0
-8.212000 6.280613 -10.463838 14.709689 -0.652912 2.362223 0.004220 -0.003501 596057.000000 1 0 0
2.879800 8.001813 11.432562 14.248710 1.225335 0.639561 0.009802 -0.003699 990784.000000 1 0 0
-6.091000 -10.089387 -0.418338 11.792838 1.027658 1.606278 0.015132 0.001996 66885.100000 1 0 0
11.235200 4.346413 6.251362 13.572050 0.369125 1.092119 0.007749 -0.000920 10515.100000 1 0 0
-8.071400 10.619013 1.385262 13.410067 -0.920869 1.467312 -0.000199 -0.002659 886814.000000 1 0 0
4.417600 -2.553887 -3.535338 6.207749 -0.524173 2.176699 0.003199 -0.005169 -4940740.000000 1 0 0
6.405400 6.365313 6.298662 11.009973 0.782259 0.961748 0.004426 0.001034 -5119100.000000 1 0 0
-0.463800 10.554313 -10.320338 14.768819 -1.526880 2.344504 0.004814 0.002833 -267770.000000 1 0 0
13.963700 6.518913 -2.479038 15.608548 0.436775 1.730297 0.013583 -0.001968 543317.000000 1 0 0
1.292500 9.550913 -6.399038 11.568846 1.436286 2.156909 0.002094 0.001771 44261.000000 1 0 0
0.555200 7.401713 7.214362 10.350875 1.495927 0.799618 -0.003219 0.005020 376535.000000 1 0 0
12.191500 6.362213 1.962862 13.891121 0.480980 1.429018 0.009796 -0.002761 -1269490.000000 1 0 0
-6.926400 6.739013 -3.130038 10.158074 -0.771687 1.884026 0.000874 -0.001919 210969.000000 1 0 0
0.992200 9.784413 11.210462 14.912869 1.469736 0.720114 0.009955 -0.006374 -1495190.000000 1 0 0
-3.754200 13.668413 -10.982238 17.931232 -1.302744 2.229970 0.013399 -0.009506 -465497.000000 1 0 0
-10.102100 -5.490987 -2.330938 11.731864 0.497877 1.770812 0.007514 0.000397 -356788.000000 1 0 0
-4.003100 3.953013 -12.405638 13.621710 -0.779103 2.715834 0.003445 -0.004367 -767859.000000 1 0 0
-3.226200 8.457113 2.459062 9.379665 -1.206359 1.305527 0.004402 0.000237 -968758.000000 1 0 0
7.062300 8.826713 7.123962 13.361803 0.895991 1.008466 0.010908 0.001640 801338.000000 1 0 0
-1.284000 -2.280387 -8.110838 8.522589 1.057980 2.829481 0.010814 -0.007746 -1333510.000000 1 0 0
0.890100 -1.360587 4.871062 5.135243 -0.991472 0.322155 0.005952 -0.002520 1742190.000000 1 0 0
2.763200 -8.835187 -6.124638 11.099865 -1.267684 2.155289 -0.005461 -0.004309 350157.000000 1 0 0
5.344200 3.906313 8.931162 11.116897 0.631194 0.637836 0.004729 0.001813 -93676.300000 1 0 0
5.951300 -7.463287 -2.871538 9.968167 -0.897637 1.863008 -0.000904 -0.006596 541384.000000 1 0 0
1.772400 2.216313 -8.285838 8.758342 0.896234 2.811619 0.006603 -0.004389 110492.000000 1 0 0
-5.557900 10.886913 -0.712438 12.244293 -1.098774 1.629015 0.001500 0.001259 378358.000000 1 0 0
-5.423200 3.459113 -3.381538 7.267143 -0.567777 2.054791 0.004522 -0.001998 317581.000000 1 0 0
1.984100 13.685213 -6.404038 15.239207 1.426818 2.004500 -0.002476 0.003175 207663.000000 1 0 0
-5.310000 -2.594987 2.649562 6.476900 0.454565 1.149352 0.001022 -0.002569 1188660.000000 1 0 0
10.617000 -3.384387 -1.975538 11.317133 -0.308587 1.746257 0.003467 -0.002683 260590.000000 1 0 0
2.269400 -3.263687 7.000062 8.050012 -0.963199 0.516462 0.003527 -0.003448 -1312870.000000 1 0 0
-3.005100 9.905513 -11.704038 15.624799 -1.276245 2.417451 0.003950 -0.003081 -2261220.000000 1 0 0
0.512600 -2.041987 9.213262 9.450749 -1.324849 0.224655 0.005412 -0.003383 401161.000000 1 0 0
9.381300 2.694413 5.078262 11.002608 0.279683 1.091054 0.001923 -0.000197 -1351350.000000 1 0 0
13.432100 2.114813 -5.061838 14.509168 0.156163 1.927163 0.012971 -0.001114 -400365.000000 1 0 0
-6.520300 3.761113 7.744962 10.800218 -0.523209 0.771147 0.001042 -0.001775 -843755.000000 1 0 0
10.573500 0.037313 1.790762 10.724137 0.003529 1.403026 0.003931 0.000208 1484750.000000 1 0 0
15.326200 6.425813 -4.771338 17.290146 0.397007 1.850382 0.020827 -0.008349 -286551.000000 1 0 0
8.054300 -4.970287 -9.257238 13.239032 -0.552896 2.345128 0.008501 -0.004457 349562.000000 1 0 0
4.398500 5.649613 -2.218838 7.495877 0.909273 1.871307 0.000859 0.000400 -61260.600000 1 0 0
-1.514900 -10.462087 1.421962 10.666403 1.426997 1.437086 0.007334 -0.000566 -616003.000000 1 0 0
-2.892000 12.290513 -12.931038 18.072967 -1.339697 2.368122 0.013350 -0.007225 -724452.000000 1 0 0
8.360200 4.364113 -9.648338 13.491807 0.481101 2.367600 0.005001 0.001551 -1988370.000000 1 0 0
4.027000 7.692213 -9.055838 12.545720 1.088513 2.377235 0.002347 -0.000654 -2867780.000000 1 0 0
-1.647900 -4.892187 -2.521938 5.745367 1.245890 2.025228 0.010589 -0.002145 -601139.000000 1 0 0
-3.267800 -9.054587 7.005962 11.905778 1.224444 0.941655 0.005669 -0.004032 -1650690.000000 1 0 0
1.041500 7.178313 -1.403938 7.388095 1.426712 1.761986 0.001333 0.000382 578860.000000 1 0 0
0.334200 -0.972587 -2.189738 2.419208 -1.239817 2.702521 0.009341 -0.002569 -1465360.000000 1 0 0
4.346300 -6.774487 7.754562 11.176637 -1.000371 0.804018 0.001458 -0.004971 -844561.000000 1 0 0
-13.909600 3.945813 6.086162 15.687185 -0.276414 1.172368 -0.000226 0.000895 -989693.000000 1 0 0
4.246100 6.271413 12.713262 14.798210 0.975635 0.537272 0.012938 -0.005070 -1293710.000000 1 0 0
8.188700 10.128613 -7.157838 14.861974 0.890911 2.073300 0.025898 -0.001862 356492.000000 1 0 0
12.597200 5.289713 9.544762 16.666523 0.397553 0.961012 0.028665 -0.007152 613089.000000 1 0 0
7.565400 3.967013 0.373462 8.550552 0.482947 1.527106 0.001121 0.003594 -2585450.000000 1 0 0
-10.841400 -7.605587 -1.037938 13.283758 0.611753 1.649012 0.004502 0.001256 -959789.000000 1 0 0
10.314400 6.702413 0.311662 12.304727 0.576243 1.545465 0.006110 -0.001545 -830232.000000 1 0 0
14.642400 3.661713 4.100162 15.640311 0.245050 1.305543 0.024753 -0.003109 827234.000000 1 0 0
2.080200 5.654613 8.250162 10.216019 1.218285 0.630774 -0.003050 0.002881 907863.000000 1 0 0
4.295800 0.159813 11.951062 12.700682 0.037185 0.345288 0.011273 -0.002147 -304975.000000 1 0 0
-1.608900 -1.421587 -0.405138 2.184858 0.723667 1.757306 0.013905 -0.007389 -431385.000000 1 0 0
3.055100 -5.200587 -9.426338 11.190871 -1.039654 2.572377 -0.002552 -0.005002 205444.000000 1 0 0
-3.953000 -5.319087 -1.381938 6.769686 0.931679 1.776378 0.012282 -0.002921 -876949.000000 1 0 0
-1.170700 -8.654487 8.607262 12.261959 1.436342 0.792667 0.002972 -0.005495 -450197.000000 1 0 0
3.786900 8.586913 -6.041338 11.161248 1.155445 2.142753 0.001389 0.002345 107401.000000 1 0 0
-14.315000 -1.832187 -2.744938 14.690501 0.127299 1.758752 0.002123 -0.002587 -916721.000000 1 0 0
8.888100 -10.445287 -6.505838 15.179864 -0.865769 2.013721 0.005849 -0.006405 815489.000000 1 0 0
14.744500 6.213113 1.633562 16.083270 0.398805 1.469052 0.010522 -0.003543 -949270.000000 1 0 0
-5.809800 0.401013 -8.600238 10.386467 -0.068914 2.546370 0.012395 -0.008536 -714935.000000 1 0 0
-7.938800 -4.565387 -12.960538 15.869558 0.521889 2.526451 0.018469 -0.005809 810397.000000 1 0 0
0.819200 -10.562487 12.043262 16.039868 -1.493394 0.721474 -0.002936 -0.009616 -398977.000000 1 0 0
0.265000 11.687613 3.322562 12.153598 1.548127 1.293890 0.004466 0.002567 -1161800.000000 1 0 0
5.161200 -13.100087 -3.611438 14.535912 -1.195489 1.821875 0.005981 -0.008599 -247470.000000 1 0 0
-7.440000 1.637013 -6.996338 10.343218 -0.216578 2.313685 0.008003 -0.002592 487402.000000 1 0 0
1.506600 2.782813 4.003662 5.103254 1.074584 0.668857 0.000022 0.000324 -1842210.000000 1 0 0
17.209500 5.542013 2.037562 18.194297 0.311545 1.458572 0.018569 -0.003871 582586.000000 1 0 0
2.723000 -8.044387 -3.540538 9.201212 -1.244406 1.965777 -0.002590 -0.001709 254680.000000 1 0 0
-0.256600 -9.450987 -0.690538 9.479654 1.543652 1.643705 0.006444 0.000683 -719989.000000 1 0 0
0.708500 11.921213 -5.643538 13.208589 1.511434 2.012259 0.001920 0.001474 -1903860.000000 1 0 0
6.089000 -4.966787 7.776262 11.055095 -0.684240 0.790613 0.006138 -0.004610 -955700.000000 1 0 0
-6.078400 -1.945287 -9.411338 11.371208 0.309733 2.545697 0.015933 -0.007870 -115377.000000 1 0 0
2.208200 -1.201787 11.127362 11.407831 -0.498409 0.222203 0.004545 -0.004053 280471.000000 1 0 0
18.031400 2.187213 -5.839838 19.079282 0.120711 1.881872 0.059023 -0.002097 260323.000000 1 0 0
-8.940700 4.772013 7.876062 12.835131 -0.490274 0.910143 0.001941 -0.005287 -56369.800000 1 0 0
11.398600 -6.999587 -4.974538 14.271241 -0.550704 1.926842 0.022518 -0.006141 -127202.000000 1 0 0
10.817200 0.482813 8.964562 14.057321 0.044604 0.879268 0.010217 -0.003740 287788.000000 1 0 0
-8.479500 -7.328287 -1.537738 11.312398 0.712701 1.707152 0.011382 -0.001869 -1990700.000000 1 0 0
10.331100 -10.460587 -3.170638 15.040228 -0.791626 1.783200 0.015311 -0.007918 587856.000000 1 0 0
7.649200 -13.615887 -3.638738 16.035680 -1.058950 1.799705 0.009440 -0.013798 -1725560.000000 1 0 0
1.749100 -1.156887 -11.701438 11.887868 -0.584360 2.964260 0.006878 -0.004499 298735.000000 1 0 0
-11.878800 -2.621287 -6.390138 13.740848 0.217189 2.054484 0.009543 -0.002263 -640141.000000 1 0 0
2.852300 -12.099187 -6.386338 13.975380 -1.339280 2.045383 -0.005346 -0.001320 -129700.000000 1 0 0
-5.504300 1.454013 1.151962 5.808484 -0.258260 1.371149 0.005831 -0.002675 623334.000000 1 0 0
0.041100 6.826913 -3.945738 7.885257 1.564776 2.094851 0.004707 -0.001484 1195570.000000 1 0 0
5.620900 -11.676487 3.621962 13.455611 -1.122150 1.298256 0.003203 -0.006914 -1116450.000000 1 0 0
-4.295200 -9.167087 1.125962 10.185873 1.132627 1.460028 0.013410 -0.001237 141440.000000 1 0 0
7.137900 -6.160487 -4.720938 10.544594 -0.712031 2.035001 0.003459 -0.006955 -924040.000000 1 0 0
-6.898000 -6.034987 2.173362 9.419500 0.718767 1.337968 0.008465 -0.002011 -265851.000000 1 0 0
-6.130000 -0.624487 7.156262 9.443462 0.101524 0.710861 0.003087 -0.002106 35099.300000 1 0 0
4.232900 -4.995787 3.254362 7.312058 -0.867875 1.109546 0.001634 -0.003652 -188850.000000 1 0 0
-2.462100 10.653013 -8.799638 14.035037 -1.343667 2.248462 0.002024 0.001145 2083180.000000 1 0 0
-2.322800 -4.829787 2.834162 6.062567 1.122519 1.084352 0.005968 -0.002746 -519084.000000 1 0 0
15.258600 5.071313 6.313162 17.274232 0.320872 1.196662 0.037947 -0.012987 931193.000000 1 0 0
6.900700 0.272913 0.098462 6.906796 0.039528 1.556540 0.004472 -0.000206 4400940.000000 1 0 0
-9.860900 9.091613 0.475662 13.420918 -0.744830 1.535347 -0.005598 -0.003721 -2128250.000000 1 0 0
7.094300 10.328213 -2.501438 12.777256 0.968926 1.767842 0.001844 0.000554 -561134.000000 1 0 0
1.687400 -4.196887 -5.384538 7.032384 -1.188515 2.442890 0.003095 -0.004308 236474.000000 1 0 0
0.910800 -8.110487 -7.916338 11.370047 -1.458966 2.340949 -0.002191 -0.003290 -480426.000000 1 0 0
-10.499100 0.185613 -10.520838 14.864508 -0.017677 2.357151 0.011590 -0.004622 -5065660.000000 1 0 0
5.836500 -2.426787 0.566162 6.346224 -0.394048 1.481465 0.003279 -0.002695 -95415.900000 1 0 0
-3.482900 5.322713 -1.211038 6.475221 -0.991371 1.758931 0.004414 -0.003859 1011500.000000 1 0 0
-0.445500 4.605813 -5.139538 6.915695 -1.474371 2.408592 0.005446 -0.001570 -699883.000000 1 0 0
3.995200 -9.658487 10.108062 14.540320 -1.178581 0.802133 -0.000421 -0.005075 -858308.000000 1 0 0
7.396600 -13.432587 -0.603838 15.346293 -1.067457 1.610154 0.012664 -0.007583 1059750.000000 1 0 0
13.010600 0.002413 0.525462 13.021207 0.000185 1.530431 0.004555 -0.003579 373123.000000 1 0 0
9.292300 2.377313 -0.763638 9.621933 0.250465 1.650244 0.002571 0.001698 520705.000000 1 0 0
-0.730100 -5.740587 4.498962 7.329941 1.444293 0.909958 0.003864 -0.001487 138340.000000 1 0 0
11.540800 -3.662687 3.365662 12.567140 -0.307314 1.299672 0.009018 -0.004138 -1689280.000000 1 0 0
1.608600 -8.096787 11.797062 14.398480 -1.374679 0.610560 0.003500 -0.008261 237708.000000 1 0 0
9.439800 -5.747187 -6.007038 12.578731 -0.546883 2.068666 0.006615 -0.008821 -125952.000000 1 0 0
3.185300 6.258113 -0.179638 7.024413 1.099985 1.596373 -0.001866 0.001637 -1912660.000000 1 0 0
6.431600 -1.364087 11.503562 13.249835 -0.208994 0.519225 0.015030 -0.003144 390807.000000 1 0 0
-4.861500 -7.605087 -3.841838 9.809753 1.002020 1.973204 0.015413 -0.002058 496730.000000 1 0 0
-3.435000 -8.542987 -5.868038 10.918595 1.188494 2.138189 0.010993 -0.000950 454654.000000 1 0 0
9.832600 5.194813 2.386462 11.373711 0.486050 1.359403 0.002520 0.000989 -31636.000000 1 0 0
8.812300 -1.568987 0.272862 8.955043 -0.176199 1.540321 0.003213 0.000045 1156070.000000 1 0 0
-3.855900 9.791413 9.151862 13.946193 -1.195642 0.854989 0.004232 -0.000372 420455.000000 1 0 0
-14.363700 -3.528387 -6.126738 16.009445 0.240877 1.963508 0.010371 -0.004881 -1029880.000000 1 0 0
10.522400 6.292913 -6.008238 13.653592 0.538984 2.026449 0.005018 -0.002445 -261255.000000 1 0 0
-1.760600 4.429213 2.758862 5.507174 -1.192449 1.046091 0.002626 -0.000924 303290.000000 1 0 0
7.056500 -3.715487 2.650362 8.403776 -0.484649 1.249942 0.004989 -0.004582 -1853120.000000 1 0 0
8.481900 -11.169787 -1.532238 14.108668 -0.921331 1.679614 0.007737 -0.009099 -2793260.000000 1 0 0
4.551700 0.389013 1.773662 4.900528 0.085258 1.200456 0.001203 0.001426 509063.000000 1 0 0
-10.967100 2.320613 3.796762 11.835452 -0.208522 1.244227 -0.000296 -0.000435 188127.000000 1 0 0
-0.810700 -3.023787 4.347262 5.357164 1.308849 0.624106 0.005835 -0.003237 453643.000000 1 0 0
8.681800 -8.685887 -8.579438 14.980822 -0.785633 2.180586 0.014501 -0.007000 -442668.000000 1 0 0
12.185500 -4.689087 1.031662 13.097262 -0.367342 1.491945 0.005858 -0.002352 257702.000000 1 0 0
2.915600 4.885013 3.500462 6.679619 1.032699 1.019196 -0.004224 0.001236 -1164560.000000 1 0 0
6.068500 7.410213 2.038262 9.792470 0.884614 1.361117 0.000288 -0.000692 237345.000000 1 0 0
-1.582100 -1.397387 -10.287938 10.502257 0.723482 2.939223 0.013343 -0.007288 -69957.900000 1 0 0
-0.871800 -8.584387 6.049562 10.537976 1.469587 0.959325 0.001965 -0.003279 330798.000000 1 0 0
-4.248900 -0.300287 2.327462 4.853906 0.070557 1.070708 0.006126 -0.002995 647356.000000 1 0 0
-8.498300 6.321113 -7.966138 13.252809 -0.639527 2.215661 0.003341 -0.003509 -1329800.000000 1 0 0
6.451700 11.145813 -9.515838 16.012644 1.046077 2.207154 0.011846 -0.001517 150364.000000 1 0 0
-11.140300 -5.813087 3.161362 12.957333 0.480941 1.324326 0.003856 -0.001840 1077190.000000 1 0 0
1.621900 -6.268487 3.001662 7.136838 -1.317610 1.136704 0.001826 -0.003269 704595.000000 1 0 0
10.049500 2.194613 7.321562 12.625927 0.215005 0.952211 0.008959 -0.001887 -1202570.000000 1 0 0
-4.037100 -2.519687 -10.583138 11.603871 0.557975 2.719016 0.015407 -0.009067 -2920290.000000 1 0 0
-8.411200 11.810013 5.740062 15.594006 -0.951923 1.193838 0.011184 -0.009325 919530.000000 1 0 0
6.830600 5.877213 -3.004938 9.498862 0.710515 1.892673 0.001569 0.002006 -2174240.000000 1 0 0
4.036000 -9.792487 -2.325338 10.843860 -1.179858 1.786913 -0.005477 -0.004228 -1727250.000000 1 0 0
8.574100 -12.794787 -7.327538 17.056218 -0.980404 2.014858 0.016939 -0.006712 17615.900000 1 0 0
-1.141200 9.467713 3.643262 10.208491 -1.450839 1.205865 0.005266 0.001808 -127007.000000 1 0 0
0.549300 -13.150587 4.742762 13.990477 -1.529051 1.224943 0.004490 -0.002993 -898739.000000 1 0 0
-11.160000 -6.957487 -5.088738 14.101329 0.557470 1.939996 0.005081 -0.002672 252636.000000 1 0 0
3.534200 10.344613 -3.423738 11.455286 1.241583 1.874314 0.004573 -0.001300 -1170760.000000 1 0 0
11.792800 -8.169987 -7.465038 16.172372 -0.605874 2.050585 0.043141 -0.006258 249098.000000 1 0 0
11.754200 -4.649287 -5.786938 13.902005 -0.376658 2.000132 0.018791 -0.008340 926475.000000 1 0 0
1.406400 -10.233087 -2.828738 10.709612 -1.434215 1.838099 -0.003003 0.000950 -133482.000000 1 0 0
2.481500 -12.042587 -3.948538 12.914050 -1.367580 1.881528 -0.003496 -0.001592 -1783560.000000 1 0 0
-7.617100 -5.716287 7.275662 11.984632 0.643792 0.918412 0.007860 -0.004430 -2412850.000000 1 0 0
-7.232900 -0.889687 9.495462 11.969552 0.122391 0.654584 0.002206 -0.002363 -424982.000000 1 0 0
16.151800 2.642613 -7.569838 18.032373 0.162174 2.004012 0.047363 -0.002382 196380.000000 1 0 0
-2.039500 6.326413 -5.625238 8.707834 -1.258937 2.273126 0.002771 0.000730 -887748.000000 1 0 0
7.681200 1.101413 8.473262 11.489565 0.142420 0.741473 0.009621 -0.003577 -1095770.000000 1 0 0
7.827400 8.228313 -3.669638 11.934805 0.810363 1.883333 0.003617 0.003070 -230929.000000 1 0 0
8.043900 0.583913 4.068362 9.033097 0.072464 1.103601 0.001394 0.001402 80648.100000 1 0 0
-7.072000 5.903913 5.261762 10.609218 -0.695621 1.051855 0.004035 -0.005738 432856.000000 1 0 0
-6.038300 -2.075487 -4.572238 7.853285 0.331070 2.192237 0.012991 -0.003957 -658069.000000 1 0 0
-15.205600 -2.362087 3.181262 15.713375 0.154111 1.366931 0.016910 -0.001786 -1373470.000000 1 0 0
1.156200 1.223713 -10.543738 10.677298 0.813759 2.983258 0.010580 -0.005695 439934.000000 1 0 0
1.493200 -9.128687 9.398962 13.187231 -1.408660 0.777411 -0.000452 -0.006751 -885727.000000 1 0 0
-0.204500 -6.839887 -1.277138 6.961103 1.540907 1.755309 0.005891 0.000048 921404.000000 1 0 0
-0.421000 -10.272987 -8.399438 13.276372 1.529838 2.255780 -0.001560 -0.001246 -243534.000000 1 0 0
-4.357000 6.477113 3.806262 8.684703 -0.978645 1.117121 0.004708 0.000390 68664.100000 1 0 0
10.789600 -1.179987 -8.622738 13.862159 -0.108930 2.242134 0.014134 -0.000205 366814.000000 1 0 0
3.136200 -1.037287 6.237962 7.058603 -0.319421 0.487004 0.001115 0.000311 530017.000000 1 0 0
1.976600 -12.201287 6.821762 14.117889 -1.410192 1.066490 0.002683 -0.004485 -153580.000000 1 0 0
2.978400 -5.028787 -1.389538 6.007527 -1.036080 1.804210 0.006590 -0.002316 -784670.000000 1 0 0
-1.111500 9.571613 -1.679938 9.781278 -1.455189 1.743403 0.005089 -0.000718 101396.000000 1 0 0
4.650800 -2.549187 2.677262 5.941045 -0.501397 1.103316 0.003422 -0.000195 -2465360.000000 1 0 0
17.643700 6.765513 -2.737138 19.093565 0.366160 1.714646 0.011040 -0.006721 51779.300000 1 0 0
-7.178000 3.498413 -5.416438 9.648854 -0.453501 2.166819 0.003804 -0.003440 695688.000000 1 0 0
-13.767000 -6.135787 2.268362 15.242167 0.419262 1.421420 -0.003171 -0.001161 -76718.400000 1 0 0
6.743600 -6.057387 3.547062 9.733947 -0.731843 1.197807 0.003085 -0.005064 -18988.500000 1 0 0
-4.614000 1.965513 3.565962 6.153724 -0.402708 0.952706 0.006779 -0.003946 1086410.000000 1 0 0
6.955300 -11.966787 -5.416738 14.863419 -1.044302 1.943821 0.008577 -0.008854 -184877.000000 1 0 0
3.054400 -12.189487 3.314962 12.996227 -1.325275 1.312875 0.005364 -0.003331 -327378.000000 1 0 0
3.219000 11.318113 -6.196038 13.298592 1.293702 2.055467 -0.000952 0.004641 -606822.000000 1 0 0
-5.535100 -8.281187 6.357362 11.816575 0.981598 1.002729 0.006808 -0.002768 -1017340.000000 1 0 0
-3.905100 6.565313 6.336762 9.925104 -1.034203 0.878303 0.005977 -0.000774 629024.000000 1 0 0
4.282200 4.340113 -7.010938 9.291236 0.792115 2.425803 0.001124 0.000395 -1746120.000000 1 0 0
-0.252600 -2.780887 1.540762 3.189214 1.480210 1.066586 0.006833 -0.003408 287333.000000 1 0 0
-13.243800 -1.030987 6.513462 14.794809 0.077690 1.114916 0.012152 0.000307 -448384.000000 1 0 0
-0.446800 -9.248687 -6.040338 11.055475 1.522524 2.148816 0.000910 -0.000782 452724.000000 1 0 0
2.171700 -1.562287 -3.972038 4.788957 -0.623617 2.548858 0.000365 -0.003495 -1224990.000000 1 0 0
11.364000 -1.930687 1.081862 11.577498 -0.168288 1.477215 0.006564 -0.004255 826259.000000 1 0 0
0.553500 -4.261087 -1.886338 4.692707 -1.441623 1.984466 0.007733 -0.003727 -1552900.000000 1 0 0
1.146800 -7.338787 -11.188738 13.429848 -1.415784 2.555530 -0.004952 -0.002363 685912.000000 1 0 0
-4.528800 4.096013 -10.010538 11.725964 -0.735261 2.593859 0.004758 -0.003741 -371227.000000 1 0 0
-1.109700 5.824413 -2.112738 6.294354 -1.382527 1.913098 0.003310 -0.001464 -2291060.000000 1 0 0
-11.384900 1.699013 -3.885138 12.148946 -0.148141 1.896306 0.003554 0.000482 89585.000000 1 0 0
-1.709500 -11.261687 4.150762 12.123399 1.420149 1.221352 0.008455 -0.000693 -716690.000000 1 0 0
-3.598000 -5.350487 -9.711238 11.656821 0.978792 2.555476 0.007994 -0.000713 -1151260.000000 1 0 0
-12.854000 -3.744287 -8.344738 15.775920 0.283450 2.128164 0.018713 -0.006171 190917.000000 1 0 0
11.389400 4.439413 0.595262 12.238511 0.371669 1.522139 0.005325 0.001992 124108.000000 1 0 0
-8.886600 -2.352287 -3.056638 9.687515 0.258766 1.891805 0.009546 -0.001957 -30369.300000 1 0 0
-2.454700 -6.093587 -6.368238 9.149416 1.187850 2.340645 0.008884 -0.003058 -252280.000000 1 0 0
-0.013100 2.721213 -1.922538 3.331865 -1.565982 2.185866 0.003704 -0.003504 -877660.000000 1 0 0
7.911500 6.039013 -5.266838 11.260599 0.651972 2.057509 0.001381 0.002157 -1064370.000000 1 0 0
-9.756400 -0.958487 -0.939638 9.848297 0.097928 1.666353 0.005179 -0.001147 267262.000000 1 0 0
6.243700 0.571513 -8.881138 10.871294 0.091280 2.526872 0.000810 -0.000360 365837.000000 1 0 0
-4.219800 2.506713 7.956562 9.348647 -0.536023 0.552734 0.002388 -0.000055 -2552200.000000 1 0 0
-10.149600 -3.428887 1.405662 10.804977 0.325796 1.440333 0.003028 -0.001668 1357470.000000 1 0 0
-1.786800 -8.105887 -7.865438 11.435173 1.353834 2.329290 0.002879 -0.003197 378090.000000 1 0 0
-9.386600 -9.773087 4.258162 14.203994 0.805567 1.266328 0.002345 -0.003563 -497468.000000 1 0 0
-1.129400 -10.696887 7.425562 13.070497 1.465604 0.966581 0.005964 -0.006462 297494.000000 1 0 0
9.516900 3.854413 -3.812438 10.952742 0.384815 1.926319 0.002534 -0.000106 -777551.000000 1 0 0
12.753300 -0.732187 3.052062 13.133843 -0.057349 1.336271 0.009800 -0.002777 -296584.000000 1 0 0
6.384300 11.916813 -6.888838 15.173194 1.078968 2.042061 0.007821 0.005037 252918.000000 1 0 0
-11.893000 -0.047187 -6.587538 13.595637 0.003968 2.076626 0.007373 -0.000098 416969.000000 1 0 0
-7.617200 -6.596387 -11.410038 15.222452 0.713702 2.418183 0.016531 -0.005305 -2060230.000000 1 0 0
4.123900 6.020013 6.659562 9.879113 0.970187 0.831044 -0.000878 0.003234 -2832430.000000 1 0 0
-4.249100 -1.320487 -7.373438 8.611976 0.301307 2.598635 0.013054 -0.008740 -394266.000000 1 0 0
9.587000 9.284713 0.918562 13.377601 0.769382 1.502078 0.014086 -0.002728 -1362730.000000 1 0 0
-8.941500 3.769813 4.871562 10.857902 -0.398995 1.105525 0.001627 -0.004034 637590.000000 1 0 0
-7.091600 7.849913 -12.112138 16.081537 -0.836107 2.423665 0.003217 -0.006453 -1201330.000000 1 0 0
11.267600 -3.598487 7.298062 13.898547 -0.309128 1.017969 0.013517 -0.006019 124696.000000 1 0 0
11.872100 7.003113 6.441762 15.214685 0.532945 1.133611 0.014085 -0.007659 173584.000000 1 0 0
-10.029600 -0.982987 -14.830538 17.930533 0.097697 2.544744 0.021311 -0.000469 380722.000000 1 0 0
1.786800 -12.970687 11.957862 17.731944 -1.433901 0.830687 0.000053 -0.008981 107241.000000 1 0 0
2.975200 2.992413 13.038162 13.704014 0.788283 0.313007 0.004961 -0.004945 -30660.400000 1 0 0
-2.594900 -1.399887 10.883562 11.275864 0.494728 0.264556 0.006954 -0.002565 -756940.000000 1 0 0
2.569900 -10.067387 -8.335138 13.320330 -1.320864 2.246883 -0.007959 -0.001153 -1014820.000000 1 0 0
13.884600 3.613713 -7.500938 16.189661 0.254619 2.052530 0.013305 -0.001962 -2858870.000000 1 0 0
7.363400 -1.596487 5.031362 9.059968 -0.213509 0.982025 0.000812 -0.001417 576770.000000 1 0 0
-1.311800 8.758913 10.291862 13.577989 -1.422134 0.710584 0.004116 -0.001697 -357773.000000 1 0 0
-12.218900 -4.737087 0.927762 13.137818 0.369845 1.500120 0.000951 0.000448 -13416.500000 1 0 0
-4.929600 4.875313 -5.325238 8.742300 -0.779861 2.225765 0.005678 -0.003914 -678908.000000 1 0 0
-11.290300 0.266013 2.163162 11.498735 -0.023557 1.381547 0.000458 0.002241 -2497220.000000 1 0 0
-1.376800 2.313413 -4.116938 4.919008 -1.033959 2.562473 0.007866 -0.006436 773469.000000 1 0 0
3.047500 -9.776187 13.176762 16.687964 -1.268616 0.660645 0.002566 -0.005812 -3682390.000000 1 0 0
8.823900 4.659713 -1.495638 10.090147 0.485857 1.719572 0.001821 -0.000256 -882785.000000 1 0 0
4.012500 2.270813 3.710662 5.918256 0.514995 0.893119 -0.004554 0.002117 -42688.700000 1 0 0
-5.557500 -3.203887 7.427762 9.814395 0.522959 0.712357 0.003885 -0.003407 659009.000000 1 0 0
1.968500 -5.870987 7.538562 9.755685 -1.247283 0.687657 0.003171 -0.005064 -327459.000000 1 0 0
-5.915800 -6.223887 -9.763138 13.002013 0.810771 2.420212 0.012932 -0.003402 -1157340.000000 1 0 0
-11.700700 -5.799287 5.511462 14.174425 0.460150 1.171433 0.011645 -0.004181 -1127290.000000 1 0 0
10.519800 6.181613 4.646562 13.056380 0.531265 1.206936 0.007253 -0.000842 -483055.000000 1 0 0
1.537600 -3.657487 0.354562 3.983357 -1.172830 1.481668 0.008800 -0.004068 -503325.000000 1 0 0
8.814500 4.337013 7.068162 12.102231 0.457253 0.947102 0.005875 0.004122 -318937.000000 1 0 0
-8.024500 12.045513 3.406062 14.869037 -0.983130 1.339673 0.005195 -0.009374 -262660.000000 1 0 0
-6.270800 13.195413 -7.072038 16.231315 -1.127164 2.021616 0.022546 -0.009215 317831.000000 1 0 0
4.623700 -6.898587 -0.825738 8.345714 -0.980325 1.669900 0.004912 -0.004322 -619284.000000 1 0 0
-1.817500 -8.133087 11.095362 13.876507 1.350939 0.644203 0.000340 -0.008905 -157305.000000 1 0 0
11.463800 8.794913 -5.746338 15.549585 0.654412 1.949320 0.030987 -0.008366 402576.000000 1 0 0
-3.332900 -2.884387 -1.954838 4.821753 0.713383 1.988235 0.013156 -0.003261 -710700.000000 1 0 0
-2.007300 5.968613 4.791362 7.912695 -1.246370 0.920367 0.000611 0.002123 932227.000000 1 0 0
0.492100 -11.377287 -5.709138 12.738881 -1.527570 2.035509 -0.005124 -0.003161 -901134.000000 1 0 0
-8.967300 6.226313 -1.497138 11.019114 -0.606914 1.707085 0.002478 -0.002674 -1191780.000000 1 0 0
2.944700 -0.061087 3.876562 4.868544 -0.020742 0.649731 -0.001376 0.000747 62388.100000 1 0 0
-10.117000 3.909413 -1.050838 10.896856 -0.368745 1.667381 0.003580 -0.000803 96929.300000 1 0 0
6.605300 5.515013 13.735962 16.208701 0.695684 0.559645 0.031839 -0.008405 -423881.000000 1 0 0
-8.780200 -1.610087 5.666262 10.573118 0.181362 1.005209 0.001261 -0.001846 -28724.000000 1 0 0
13.015700 -1.677587 -1.493438 13.208069 -0.128183 1.684109 0.012540 -0.004416 -396246.000000 1 0 0
4.993100 -5.664787 5.552162 9.372692 -0.848337 0.936791 0.004963 -0.007246 168743.000000 1 0 0
-9.052100 -1.207487 3.231362 9.687117 0.132610 1.230705 0.001757 -0.000417 112293.000000 1 0 0
1.943700 5.388813 5.649162 8.045515 1.224629 0.792383 -0.000708 0.002709 -608151.000000 1 0 0
9.251200 3.093013 -7.466938 12.284405 0.322653 2.224132 0.002854 0.000162 -481606.000000 1 0 0
2.387900 -2.377087 -1.555638 3.711148 -0.783129 2.003338 0.005253 -0.003742 -6556.180000 1 0 0
-6.185900 0.437513 -3.880938 7.315631 -0.070610 2.129986 0.008116 -0.001535 -2309760.000000 1 0 0
-4.020300 4.122613 5.060462 7.665965 -0.797962 0.849817 0.003478 -0.000741 1335650.000000 1 0 0
-6.428100 1.736313 -12.510538 14.172114 -0.263817 2.652495 0.005526 -0.002947 -3061620.000000 1 0 0
-0.068100 3.189813 6.177462 6.952739 -1.549450 0.476745 0.000674 0.001593 1173010.000000 1 0 0
-8.902200 9.312213 -2.081438 13.049861 -0.807905 1.730979 0.002986 0.000071 -189567.000000 1 0 0
-1.388000 -3.733787 -6.155438 7.331925 1.214886 2.567231 0.010257 -0.004613 598217.000000 1 0 0
-3.361400 7.066613 -3.093038 8.414447 -1.126799 1.947209 0.003503 -0.001245 1082690.000000 1 0 0
7.130900 -0.422487 -4.383238 8.380991 -0.059178 2.121160 0.001456 -0.000472 -313324.000000 1 0 0
-5.141100 -10.827087 6.937662 13.848750 1.127481 1.046089 0.001881 -0.004888 799154.000000 1 0 0
9.730900 8.280113 -1.415438 12.855122 0.705022 1.681127 0.007361 0.001873 19875.500000 1 0 0
13.637800 4.597713 -4.248438 15.005925 0.325164 1.857839 0.005202 -0.006480 951279.000000 1 0 0
4.740000 1.147213 -6.942838 8.484498 0.237462 2.529238 -0.001497 -0.000827 -1506930.000000 1 0 0
9.129500 -4.863987 3.511162 10.924028 -0.489524 1.243571 0.006522 -0.005749 -896672.000000 1 0 0
-8.866000 -3.337387 -0.810038 9.507906 0.360020 1.656096 0.005008 -0.000950 -551119.000000 1 0 0
-8.616600 -4.233587 -10.444938 14.186818 0.456687 2.398297 0.012425 -0.005636 10658.800000 1 0 0
10.491800 -1.095687 10.816962 15.109105 -0.104055 0.772851 0.028289 -0.007738 134976.000000 1 0 0
2.232400 -11.519887 9.938662 15.377529 -1.379382 0.868057 -0.002924 -0.008502 233927.000000 1 0 0
-6.304000 -10.570487 2.035462 12.474723 1.033045 1.406897 0.012186 -0.000960 -715335.000000 1 0 0
-3.733400 -1.461787 6.605862 7.727387 0.373195 0.545508 0.006941 -0.004100 -1233410.000000 1 0 0
4.748700 -7.496287 3.886262 9.687492 -1.006127 1.158010 -0.000765 -0.002354 308839.000000 1 0 0
11.554800 -9.415387 -5.314638 15.824294 -0.683728 1.913307 0.025348 -0.005847 433363.000000 1 0 0
11.470800 1.212813 11.405462 16.221428 0.105339 0.791033 0.050036 -0.006350 -442107.000000 1 0 0
-10.239100 -3.491187 4.360962 11.663856 0.328604 1.187600 0.008834 -0.000965 654831.000000 1 0 0
1.975200 8.677713 9.019362 12.670951 1.346992 0.778719 0.003429 0.000703 -265898.000000 1 0 0
6.641600 8.676813 4.134862 11.683108 0.917485 1.209039 0.005315 -0.000422 -2110090.000000 1 0 0
-4.309300 3.599513 0.456062 5.633343 -0.695892 1.489750 0.008501 -0.004885 -67513.200000 1 0 0
4.844800 6.934713 4.324862 9.500882 0.960990 1.098192 0.000696 0.001187 -1304700.000000 1 0 0
-8.344900 13.062813 1.023962 15.534573 -1.002315 1.504833 0.002940 -0.003932 29544.200000 1 0 0
8.748500 8.183913 -9.264138 15.143875 0.752067 2.229057 0.015599 -0.002758 -122398.000000 1 0 0
7.035000 1.986713 6.134662 9.543182 0.275237 0.872607 0.000853 0.002487 -433950.000000 1 0 0
11.582800 -6.123387 3.066162 13.455797 -0.486313 1.340908 0.008724 -0.003711 -853715.000000 1 0 0
11.360700 4.753513 -2.088638 12.490949 0.396282 1.738798 0.002974 -0.000895 213985.000000 1 0 0
-4.030100 14.315313 -5.936338 16.012808 -1.296375 1.950585 0.009876 -0.001297 -1583340.000000 1 0 0
7.132400 -3.009087 6.939362 10.396176 -0.399233 0.839961 0.006410 -0.005501 -1360000.000000 1 0 0
-7.977800 -0.457787 0.943562 8.046439 0.057320 1.453261 0.005299 -0.001512 268030.000000 1 0 0
-3.169400 1.139913 10.646162 11.166255 -0.345256 0.306410 0.003286 0.000735 77576.700000 1 0 0
7.106200 -1.227787 -1.936238 7.466897 -0.171088 1.833104 0.005135 -0.002463 -1182800.000000 1 0 0
-7.888400 5.297513 2.991062 9.961775 -0.591381 1.265838 0.002735 -0.002867 812590.000000 1 0 0
9.494600 -2.249087 2.834962 10.160848 -0.232593 1.288035 0.005450 -0.004497 -1658090.000000 1 0 0
0.258800 3.453913 1.588362 3.810431 1.496007 1.140824 0.000664 0.000191 -3177600.000000 1 0 0
-7.606000 -3.143887 3.999062 9.150287 0.391956 1.118489 0.004515 -0.002497 -136170.000000 1 0 0
-2.295600 8.379413 -6.868938 11.075498 -1.303400 2.239784 0.004313 -0.000743 -120829.000000 1 0 0
4.468800 9.706013 7.364962 12.977655 1.139315 0.967317 0.003451 0.004717 1246020.000000 1 0 0
-11.845800 -3.174387 6.824762 14.034853 0.261824 1.062978 0.017617 -0.004920 -240155.000000 1 0 0
-4.813300 2.307113 -5.555438 7.704124 -0.446968 2.376184 0.008910 -0.005033 -885340.000000 1 0 0
-2.699900 2.928913 -1.744138 4.348564 -0.826062 1.983496 0.007235 -0.003986 1735090.000000 1 0 0
2.374500 5.211413 11.444762 12.797642 1.143267 0.463962 0.006446 -0.004965 309292.000000 1 0 0
-0.738900 1.667713 4.537262 4.890193 -1.153727 0.382247 0.005094 -0.002210 906102.000000 1 0 0
5.080100 1.547013 7.774362 9.414954 0.295602 0.599273 0.000379 0.003532 784723.000000 1 0 0
3.482300 -8.067287 1.801462 8.969548 -1.163301 1.368579 0.002577 -0.001148 1433000.000000 1 0 0
4.969100 6.454313 -4.677838 9.393204 0.914688 2.092090 0.001746 0.001016 -1318970.000000 1 0 0
-4.088300 2.953313 -7.933038 9.400498 -0.625590 2.575300 0.011776 -0.009760 692510.000000 1 0 0
-8.807200 -2.274487 -12.855638 15.748254 0.252731 2.525810 0.021559 -0.005758 3136390.000000 1 0 0
-7.899700 8.127213 1.193262 11.396523 -0.799593 1.465900 0.004978 -0.002404 -2161390.000000 1 0 0
7.395800 1.013313 -6.515538 9.908426 0.136164 2.288392 -0.001038 0.000490 53319.000000 1 0 0
8.994800 8.840013 5.494062 13.756343 0.776719 1.159952 0.012185 -0.001699 497539.000000 1 0 0
9.434000 -1.134287 -1.422538 9.607839 -0.119660 1.719403 0.004534 -0.002317 1145590.000000 1 0 0
5.454700 0.171913 4.245762 6.914463 0.031506 0.909626 -0.002679 0.003555 -739765.000000 1 0 0
-4.198700 -7.228587 -8.039438 11.598022 1.044579 2.336679 0.009932 -0.005630 -190620.000000 1 0 0
-2.325700 7.400213 -0.634738 7.782990 -1.266295 1.652442 0.005392 -0.001723 251665.000000 1 0 0
13.520500 -3.274987 -7.235238 15.680501 -0.237647 2.050387 0.031970 -0.001185 1004970.000000 1 0 0
-4.746300 -5.003987 1.588962 7.077574 0.811821 1.344360 0.007996 -0.001423 630126.000000 1 0 0
-8.962300 1.303613 2.622462 9.428655 -0.144442 1.288942 0.001739 -0.000657 67751.900000 1 0 0
-1.052800 11.175213 10.291262 15.228389 -1.476865 0.828754 0.008922 -0.003453 428876.000000 1 0 0
-8.629500 0.352013 7.458262 11.411304 -0.040769 0.858484 -0.001177 -0.002781 927753.000000 1 0 0
-6.280500 12.854213 -2.161838 14.468899 -1.116315 1.720771 0.006545 -0.001158 283146.000000 1 0 0
-13.095000 -0.867887 3.336362 13.541180 0.066179 1.321846 0.005941 -0.001113 544059.000000 1 0 0
-6.765500 12.676513 8.651462 16.772411 -1.080551 1.028838 0.021554 -0.012696 1641790.000000 1 0 0
-8.072000 0.747513 -14.159038 16.315463 -0.092342 2.621613 0.010249 -0.000169 97064.200000 1 0 0
7.338700 2.869513 3.735362 8.720295 0.372733 1.128127 -0.000235 0.003732 -398599.000000 1 0 0
-1.617900 0.656813 -2.080138 2.715876 -0.385639 2.443264 0.007579 -0.005284 927582.000000 1 0 0
-6.283700 9.620213 -10.470438 15.545529 -0.992191 2.309776 0.005386 -0.003781 107830.000000 1 0 0
-10.356200 13.611513 5.276262 17.898690 -0.920393 1.271566 0.006597 -0.009507 773372.000000 1 0 0
-5.701200 8.284313 2.462462 10.353610 -0.968039 1.330659 0.004094 -0.002495 -654156.000000 1 0 0
-2.277600 -10.740187 -1.325238 11.058722 1.361829 1.690922 0.007501 -0.000261 758286.000000 1 0 0
-2.248600 -12.428887 8.877662 15.438468 1.391815 0.958149 0.003173 -0.005084 374741.000000 1 0 0
-14.775700 -6.400987 -1.653838 16.187314 0.408804 1.673144 0.004108 -0.003475 745145.000000 1 0 0
-2.620800 -9.231487 3.291062 10.144951 1.294177 1.240415 0.007312 -0.001983 -397660.000000 1 0 0
4.690800 -2.752287 7.516262 9.277547 -0.530614 0.626378 0.002791 -0.001740 -559473.000000 1 0 0
-15.113700 -1.377787 -0.324238 15.179834 0.090910 1.592158 0.007537 -0.005686 247705.000000 1 0 0
5.366500 8.715713 -2.836138 10.621048 1.018893 1.841106 0.001027 0.002097 -1450350.000000 1 0 0
-5.600500 -5.678887 8.506462 11.660843 0.792348 0.753221 0.007075 -0.004987 -2419490.000000 1 0 0
3.438100 3.593013 7.134562 8.696680 0.807427 0.608725 0.000041 0.003146 793058.000000 1 0 0
3.247600 2.252813 9.370062 10.169569 0.606476 0.399174 0.005580 -0.002575 446563.000000 1 0 0
10.003000 -3.312687 5.269662 11.781478 -0.319802 1.107070 0.010023 -0.006775 15603.900000 1 0 0
6.378800 9.893813 -5.066538 12.815867 0.998138 1.977227 -0.000439 0.001164 419545.000000 1 0 0
-4.642700 12.079913 -8.676238 15.580632 -1.203869 2.161398 0.010934 -0.003830 -799480.000000 1 0 0
-3.300200 -7.153587 2.117262 8.157691 1.138556 1.308249 0.009346 -0.002181 1014560.000000 1 0 0
-7.413500 -4.133787 0.977162 8.544181 0.508661 1.456180 0.008497 -0.001039 3640030.000000 1 0 0
-1.985600 -3.976887 -10.949938 11.817757 1.107721 2.755976 0.009775 -0.005928 -909957.000000 1 0 0
-5.338500 8.318913 -4.461838 10.844902 -1.000256 1.994811 0.007108 -0.002732 -952639.000000 1 0 0
-10.970600 -3.215387 -10.162938 15.296343 0.285106 2.297491 0.016820 -0.001323 -1877760.000000 1 0 0
4.779100 -11.315087 -7.691538 14.492438 -1.171159 2.130255 -0.001662 -0.003720 -2418080.000000 1 0 0
-9.360300 -3.978887 7.266862 12.500162 0.401939 0.950420 0.005919 -0.004113 -497668.000000 1 0 0
-5.768200 -9.651187 -5.181838 12.380185 1.032094 2.002654 0.012030 -0.003781 1106700.000000 1 0 0
4.869300 4.414513 -9.538438 11.583601 0.736450 2.538249 0.001737 0.002967 132008.000000 1 0 0
-3.366800 -7.139887 -13.993038 16.066065 1.130168 2.627967 0.006072 -0.003881 -168411.000000 1 0 0
0.693100 -0.889687 -8.803138 8.875087 -0.908968 3.014173 0.009442 -0.009029 -689211.000000 1 0 0
-7.687000 2.224413 -2.917338 8.517561 -0.281679 1.920382 0.004512 -0.001416 -510737.000000 1 0 0
-2.393900 7.444613 -12.539138 14.777788 -1.259678 2.583964 0.003131 -0.003411 -82321.700000 1 0 0
-9.803400 8.770613 7.643762 15.213724 -0.729851 1.044395 0.002005 -0.012724 -527143.000000 1 0 0
-10.843200 -3.314387 -14.263438 18.221027 0.296646 2.469951 0.032308 0.001560 -248431.000000 1 0 0
-3.377000 4.826913 7.993762 9.929927 -0.960326 0.635092 0.002943 -0.000313 -74362.800000 1 0 0
8.734800 -2.363887 -3.557538 9.723208 -0.264298 1.945376 0.003714 -0.001235 -4872370.000000 1 0 0
2.002300 -8.377187 -1.208838 8.697572 -1.336180 1.710233 0.000344 0.000943 -582388.000000 1 0 0
-13.662700 -2.982387 5.058762 14.871284 0.214916 1.223699 0.024026 -0.005081 269158.000000 1 0 0
6.954900 2.741113 -1.976338 7.732415 0.375433 1.829256 0.001291 -0.000543 1069420.000000 1 0 0
-11.051700 4.439713 9.071262 14.971270 -0.381990 0.919885 0.001421 -0.003972 -2809590.000000 1 0 0
-1.751100 -2.609587 7.902062 8.504050 0.979782 0.378523 0.003426 -0.004433 -264230.000000 1 0 0
2.856500 12.013113 -10.076338 15.937599 1.337350 2.255233 -0.001121 0.001924 377214.000000 1 0 0
3.710000 -4.989287 -7.002038 9.364060 -0.931408 2.415473 -0.002381 -0.007091 -412309.000000 1 0 0
8.329400 -13.803487 -9.704238 18.817210 -1.027861 2.112633 0.024006 0.001089 611401.000000 1 0 0
-6.262100 -5.875387 -0.466338 8.599508 0.753548 1.625051 0.012372 -0.001551 -160664.000000 1 0 0
-1.127000 -4.058587 9.895262 10.754462 1.299938 0.402441 0.002007 -0.003639 932185.000000 1 0 0
2.817100 3.263013 1.757362 4.655279 0.858607 1.183703 -0.003719 0.001921 -688984.000000 1 0 0
-9.217700 13.211013 7.732762 17.868757 -0.961596 1.123252 0.016034 -0.024958 -288881.000000 1 0 0
4.081300 -11.057587 -0.054538 11.786866 -1.217213 1.575423 0.000621 -0.003070 119417.000000 1 0 0
-12.507300 -1.396787 -9.162138 15.566899 0.111217 2.200080 0.013258 -0.002256 -358231.000000 1 0 0
-4.218900 0.869213 -13.526438 14.195745 -0.203185 2.833295 0.008837 -0.003069 214770.000000 1 0 0
3.964100 -3.129687 4.929562 7.057592 -0.668310 0.797530 0.000506 0.001091 -88717.600000 1 0 0
1.800300 -1.169487 1.109162 2.416406 -0.576099 1.093912 0.001523 -0.001349 551952.000000 1 0 0
8.282500 -8.954087 7.387662 14.260190 -0.824341 1.026213 0.012625 -0.004677 -1094930.000000 1 0 0
-0.083000 2.274313 -6.374438 6.768519 -1.534318 2.798674 0.008462 -0.006598 290540.000000 1 0 0
-3.692800 -9.739987 -3.429438 10.966547 1.208403 1.888850 0.013184 -0.000887 599419.000000 1 0 0
-9.518700 2.314213 -5.555438 11.261622 -0.238496 2.086684 0.002489 0.000318 309842.000000 1 0 0
9.096400 -7.621687 5.332762 13.010494 -0.697415 1.148472 0.007148 -0.006796 1236530.000000 1 0 0
-5.524300 -4.234487 4.741562 8.422065 0.653990 0.972794 0.004216 -0.003332 -347632.000000 1 0 0
-0.123600 -12.452687 10.387362 16.216719 1.560871 0.875603 0.004519 -0.008941 -1292370.000000 1 0 0
-14.194200 -8.397587 3.180762 16.796191 0.534236 1.380272 0.001163 -0.003492 -915422.000000 1 0 0
10.928100 -1.191887 -3.566338 11.556934 -0.108637 1.884505 0.013267 -0.003035 -570098.000000 1 0 0
-13.718800 2.900713 2.804662 14.299851 -0.208372 1.373384 -0.000347 0.001448 -1325770.000000 1 0 0
-6.365700 6.067713 1.051862 8.856958 -0.761436 1.451754 0.004603 -0.002289 704855.000000 1 0 0
7.363800 -6.870187 -0.755038 10.099262 -0.750734 1.645628 0.005210 -0.007499 899146.000000 1 0 0
-6.913300 7.871313 9.997462 14.481040 -0.850106 0.808778 0.000337 -0.004208 501608.000000 1 0 0
-12.678500 -5.045587 -1.954338 13.784838 0.378750 1.713050 0.001728 -0.000717 -3172850.000000 1 0 0
-9.424900 -5.673687 0.213862 11.002963 0.541881 1.551358 0.005770 -0.001787 -883539.000000 1 0 0
-1.779300 1.798313 2.162762 3.328270 -0.790713 0.863454 0.005895 -0.002785 63114.100000 1 0 0
-7.168300 7.387013 7.530862 12.754073 -0.800423 0.939159 0.002757 -0.004778 -396647.000000 1 0 0
5.596200 7.158913 -0.479438 9.099305 0.907307 1.623510 0.003052 -0.000508 -874798.000000 1 0 0
-0.014600 -4.197587 7.573962 8.659379 1.567318 0.506074 0.003455 -0.004082 -1753170.000000 1 0 0
6.606100 0.654313 13.199862 14.775149 0.098725 0.465978 0.024394 -0.007229 785234.000000 1 0 0
5.737300 6.221613 -7.800838 11.509916 0.825874 2.315494 -0.003311 0.002720 -523915.000000 1 0 0
10.045500 5.375913 9.069862 14.562792 0.491376 0.898466 0.013111 -0.003949 -693416.000000 1 0 0
-1.229800 -5.057687 -8.507938 9.973847 1.332271 2.592550 0.009234 -0.004802 732840.000000 1 0 0
9.987800 -3.586587 -8.028738 13.307155 -0.344756 2.218479 0.015830 -0.006911 511687.000000 1 0 0
8.196200 -5.723787 1.260762 10.076157 -0.609615 1.445344 0.002592 -0.003643 1207260.000000 1 0 0
15.775600 3.163913 -5.025638 16.856362 0.197931 1.873545 0.022849 -0.001011 -188584.000000 1 0 0
-6.936200 3.518113 1.188062 7.867623 -0.469399 1.419210 0.005375 -0.002546 624738.000000 1 0 0
-1.799900 3.841713 0.319262 4.254448 -1.132652 1.495684 0.004968 -0.004075 -1397180.000000 1 0 0
-2.628000 10.038513 6.876662 12.448558 -1.314751 0.985548 0.003429 0.003201 716773.000000 1 0 0
5.495500 -5.776887 -8.779338 11.859583 -0.810355 2.404274 -0.000644 -0.007362 -524581.000000 1 0 0
-1.265200 -0.972087 6.207562 6.409330 0.655127 0.251583 0.006135 -0.002817 -141340.000000 1 0 0
-5.752000 5.012513 -7.830538 10.932892 -0.716809 2.369191 0.004696 -0.003013 -109254.000000 1 0 0
6.871100 -1.254387 2.602762 7.453849 -0.180571 1.214097 0.001586 0.000677 -1246400.000000 1 0 0
8.826500 7.519313 3.323162 12.061947 0.705597 1.291678 0.007337 -0.001912 422475.000000 1 0 0
-5.256300 -4.882887 -7.745638 10.557755 0.748586 2.394466 0.015316 -0.005928 1119280.000000 1 0 0
-2.239200 7.835813 -10.024738 12.919341 -1.292450 2.459013 0.004525 -0.000754 933988.000000 1 0 0
-2.768700 -2.343487 1.686262 4.000139 0.702413 1.135642 0.004244 -0.000396 -59263.900000 1 0 0
6.007000 -2.018387 -9.235338 11.200420 -0.324154 2.540208 0.001176 -0.004062 1214980.000000 1 0 0
1.233800 -7.502787 5.128162 9.171266 -1.407810 0.977430 0.001927 -0.002628 681295.000000 1 0 0
1.776500 11.700013 1.251662 11.900123 1.420110 1.465421 0.005521 0.001729 476026.000000 1 0 0
-1.089800 7.037713 2.504662 7.549199 -1.417165 1.232608 0.003128 0.001290 569443.000000 1 0 0
8.669000 7.921113 -6.738838 13.539111 0.740348 2.091777 0.011571 -0.000363 -136015.000000 1 0 0
3.775900 -11.079387 5.428562 12.902694 -1.242337 1.136546 0.007069 -0.002210 428593.000000 1 0 0
7.998100 -7.056087 12.364062 16.328747 -0.722905 0.711787 0.024370 -0.008093 259648.000000 1 0 0
-8.657600 0.063813 -3.984838 9.530847 -0.007371 2.002148 0.007112 -0.000246 -172197.000000 1 0 0
-3.169100 -5.155187 11.221262 12.748955 1.019609 0.494574 0.006953 -0.007055 706806.000000 1 0 0
-8.235400 0.131413 -11.638738 14.258307 -0.015956 2.525734 0.012251 -0.003921 -1353630.000000 1 0 0
1.411800 -4.890987 5.311062 7.356786 -1.289782 0.764213 0.003471 -0.005258 -912358.000000 1 0 0
6.671700 3.778113 -7.702838 10.868277 0.515263 2.358514 -0.000989 0.000709 -756430.000000 1 0 0
16.210200 4.313513 -1.260438 16.821584 0.260072 1.645796 0.014584 0.002003 -1189810.000000 1 0 0
7.888200 7.395913 0.204762 10.815043 0.753200 1.551862 0.003305 -0.000523 -3240370.000000 1 0 0
5.536400 -10.328987 13.924962 18.200117 -1.078760 0.699595 0.008718 -0.006015 498043.000000 1 0 0
-5.152000 -9.243087 8.919862 13.839859 1.062297 0.870420 0.003482 -0.012505 581329.000000 1 0 0
-12.594200 -3.269387 2.849062 13.319907 0.253988 1.355236 0.003888 -0.000907 174378.000000 1 0 0
-2.094700 -1.311487 -5.869238 6.368338 0.559388 2.743051 0.011697 -0.007718 -472291.000000 1 0 0
-2.481600 13.013113 -4.401538 13.959692 -1.382359 1.891573 0.003114 0.002602 550672.000000 1 0 0
4.104600 -0.411087 -5.085738 6.548394 -0.099820 2.460109 -0.001742 -0.002272 -571659.000000 1 0 0
-8.755400 3.950013 -7.404238 12.127753 -0.423811 2.227514 0.006915 -0.001621 500967.000000 1 0 0
-4.587800 7.943313 -11.401738 14.633652 -1.047035 2.464097 0.001857 -0.002340 -2003010.000000 1 0 0
-10.131200 -6.449687 7.479662 14.148675 0.566909 1.013790 0.007202 -0.002693 -1653350.000000 1 0 0
8.026900 5.250213 4.173162 10.459978 0.579236 1.160409 0.002229 0.002687 -1897920.000000 1 0 0
-6.644100 -7.547787 3.955762 10.805610 0.848989 1.195999 0.009577 -0.003035 -1467250.000000 1 0 0
-4.098200 11.899413 8.026862 14.927216 -1.239116 1.003050 0.005611 -0.000474 58672.300000 1 0 0
-7.375300 10.024813 -8.071538 14.833801 -0.936507 2.146150 0.011060 -0.005855 -1888410.000000 1 0 0
13.109900 5.385813 4.733462 14.942627 0.389799 1.248468 0.013760 -0.001261 -556657.000000 1 0 0
5.160300 3.896113 -3.770838 7.485160 0.646704 2.098760 0.003439 0.000712 337236.000000 1 0 0
-2.839600 -4.198887 5.132962 7.213964 0.976172 0.779121 0.006229 -0.002359 -1598130.000000 1 0 0
12.462000 -2.335587 -5.095938 13.664735 -0.185267 1.952957 0.014317 -0.005065 -1886340.000000 1 0 0
-5.288800 9.754213 7.035562 13.138311 -1.073956 1.005697 0.005723 0.001555 229828.000000 1 0 0
1.753500 3.816513 -0.524738 4.232716 1.140111 1.695088 -0.000958 0.000432 439040.000000 1 0 0
-0.112200 9.610913 7.831162 12.397957 -1.559123 0.887117 0.002208 0.002449 -52718.600000 1 0 0
-5.631100 2.094813 5.930462 8.442032 -0.356145 0.791903 0.004933 -0.002239 749423.000000 1 0 0
8.951200 1.043213 10.776862 14.048239 0.116021 0.696437 0.023364 -0.004934 -269164.000000 1 0 0
0.413500 -2.949487 -10.162138 10.589594 -1.431510 2.856495 0.007103 -0.006595 -2234940.000000 1 0 0
1.124200 10.613713 -2.780038 11.029204 1.465270 1.825606 0.004453 -0.000371 -116090.000000 1 0 0
2.352900 -4.303087 11.688262 12.675494 -1.070418 0.397285 0.009823 -0.006693 -782859.000000 1 0 0
6.629500 -2.958687 9.438962 11.907900 -0.419765 0.655630 0.012105 -0.005323 534993.000000 1 0 0
-10.588500 -8.223987 5.733962 14.581790 0.660365 1.166657 0.006785 -0.001437 -1411230.000000 1 0 0
-2.936700 0.901913 -6.759838 7.425165 -0.297974 2.715036 0.012791 -0.008750 904851.000000 1 0 0
11.051900 2.733813 -5.218738 12.524115 0.242494 2.000603 0.004295 -0.001172 -2564400.000000 1 0 0
-1.987500 -3.990887 -0.078038 4.459083 1.108742 1.588298 0.007582 -0.002963 672333.000000 1 0 0
-1.334300 -6.438787 -10.684738 12.545994 1.366460 2.589913 0.002247 -0.002106 1013750.000000 1 0 0
0.296200 6.847713 -6.674538 9.567046 1.527568 2.342921 0.005249 0.000209 -1744590.000000 1 0 0
2.013800 3.857513 -6.187138 7.564157 1.089668 2.528643 0.002970 -0.001722 -1637130.000000 1 0 0
1.670300 -14.679487 6.544562 16.158853 -1.457499 1.153802 0.011999 -0.007877 -131525.000000 1 0 0
-1.716800 5.313313 -10.543138 11.930485 -1.258272 2.654536 0.005571 -0.000186 -155882.000000 1 0 0
13.638700 4.331213 -0.826338 14.333749 0.307495 1.628478 0.008137 -0.001114 -1242730.000000 1 0 0
-2.401300 3.324213 -6.166638 7.405678 -0.945216 2.554745 0.009886 -0.005001 -995267.000000 1 0 0
5.756100 7.807313 14.280662 17.263375 0.935492 0.596649 0.026895 -0.012821 358707.000000 1 0 0
15.968900 0.638213 -5.811038 17.005330 0.039945 1.919541 0.031909 -0.005481 15715.600000 1 0 0
6.236900 -8.215187 10.608862 14.796491 -0.921439 0.771329 0.003086 -0.001709 743783.000000 1 0 0
0.004300 -5.869487 -6.321338 8.626135 -1.570064 2.393242 0.004421 -0.003753 -1751050.000000 1 0 0
8.612900 5.531713 -7.595438 12.746473 0.570914 2.209164 0.003083 -0.000175 -357030.000000 1 0 0
-15.980000 -0.805387 5.281062 16.849293 0.050357 1.251994 0.031419 -0.009879 -342613.000000 1 0 0
-0.439400 3.981013 -12.350238 12.983448 -1.460867 2.827994 0.009410 -0.001700 771839.000000 1 0 0
-11.342300 3.622913 5.982962 13.325506 -0.309173 1.105166 0.000019 -0.001818 345432.000000 1 0 0
5.120800 -9.717787 -9.694138 14.650402 -1.085821 2.293877 -0.005086 -0.002132 -87418.700000 1 0 0
1.459600 11.139413 -11.785138 16.282090 1.440508 2.380104 0.003584 -0.000627 -3443380.000000 1 0 0
5.898400 2.324913 1.166762 6.446524 0.375462 1.388803 0.000247 0.002127 -415614.000000 1 0 0
5.711500 4.522913 4.909762 8.785427 0.669780 0.977794 -0.001704 0.002844 377684.000000 1 0 0
0.464200 -1.630487 -6.362538 6.584517 -1.293435 2.881195 0.007262 -0.007023 -459820.000000 1 0 0
12.617300 6.652213 -4.603338 14.987959 0.485193 1.882978 0.011485 -0.008314 -191304.000000 1 0 0
7.558600 3.203113 12.873762 15.268468 0.400829 0.567663 0.024811 -0.005224 -340758.000000 1 0 0
-2.452400 -0.220687 8.550062 8.897557 0.089746 0.280400 0.001577 -0.001058 901222.000000 1 0 0
2.367400 -15.113687 13.292762 20.266367 -1.415419 0.855419 0.013480 -0.013197 -482673.000000 1 0 0
18.822100 4.734913 -1.659938 19.479380 0.246448 1.656115 0.010291 0.000253 773975.000000 1 0 0
-0.271800 -13.208087 7.270562 15.079406 1.550221 1.067687 -0.000181 -0.005272 -1816520.000000 1 0 0
4.456300 1.564013 -0.622438 4.763630 0.337536 1.701836 0.001744 -0.000821 230795.000000 1 0 0
2.875300 -0.520687 -7.386338 7.943328 -0.179148 2.764882 -0.000188 -0.004100 824180.000000 1 0 0
7.336000 -11.284087 0.937162 13.491693 -0.994337 1.501278 0.003026 -0.004588 444859.000000 1 0 0
-11.720600 -7.351887 1.233362 13.890424 0.560224 1.481887 0.003755 0.001442 210306.000000 1 0 0
0.159100 -6.944987 9.947162 12.132773 -1.547892 0.609632 0.000950 -0.007814 -2229380.000000 1 0 0
-4.701600 -7.179487 10.578362 13.621740 0.991008 0.681578 0.006008 -0.005684 -941728.000000 1 0 0
11.955000 0.768613 -1.717838 12.102221 0.064204 1.713221 0.004083 -0.002579 1456210.000000 1 0 0
6.536600 -9.432387 -7.491738 13.704860 -0.964787 2.149153 -0.002815 -0.006833 -777659.000000 1 0 0
-10.951900 4.903213 3.699162 12.556648 -0.420943 1.271762 -0.001297 -0.002694 177070.000000 1 0 0
6.127300 -8.988687 2.023062 11.064948 -0.972480 1.386927 0.002301 -0.004446 3149630.000000 1 0 0
11.595900 -1.359687 5.912662 13.087139 -0.116723 1.102024 0.012655 -0.007886 -237644.000000 1 0 0
-6.505500 3.598113 4.219862 8.548402 -0.505211 1.054522 0.003975 -0.004259 -971982.000000 1 0 0
9.433300 6.322213 -3.244538 11.810358 0.590446 1.849095 0.004977 -0.000272 -550149.000000 1 0 0
-2.255100 6.479113 10.986762 12.952734 -1.235854 0.558182 0.000816 -0.001399 109378.000000 1 0 0
1.756200 9.651513 2.883262 10.224927 1.390805 1.284935 0.000267 0.000324 -542034.000000 1 0 0
2.774800 6.119913 -5.625138 8.763277 1.145114 2.267768 0.000181 0.000518 -2595820.000000 1 0 0
11.986700 0.110413 -5.651538 13.252662 0.009211 2.011356 0.012299 0.000150 366078.000000 1 0 0
-2.556200 -12.467587 6.332562 14.215351 1.368571 1.109093 0.008140 -0.002835 -506745.000000 1 0 0
10.938600 1.899013 -2.870538 11.467310 0.171893 1.823811 0.003755 -0.001078 73774.200000 1 0 0
-8.900300 5.310213 0.856162 10.399362 -0.537940 1.488375 0.001784 -0.001862 -1046820.000000 1 0 0
1.249000 -10.121187 5.616962 11.642538 -1.448013 1.067345 -0.001235 -0.003394 8320.400000 1 0 0
9.623000 -5.455887 -0.883638 11.097281 -0.515773 1.650507 0.005602 -0.003914 419409.000000 1 0 0
-7.984200 8.543013 -4.536038 12.542176 -0.819197 1.940847 0.010671 -0.004812 -73040.900000 1 0 0
-7.470700 -0.021587 -1.580538 7.636094 0.002890 1.779286 0.005716 -0.001721 -1638020.000000 1 0 0
4.093000 8.830813 2.746662 10.113360 1.136780 1.295754 0.001663 -0.000629 1895480.000000 1 0 0
-1.272500 -10.530587 -3.834638 11.279050 1.450541 1.917691 0.005962 -0.000197 -744593.000000 1 0 0
3.078100 7.924313 -3.728538 9.282857 1.200297 1.984123 0.003485 -0.000263 -278008.000000 1 0 0
-4.428900 1.672413 -11.009538 11.984242 -0.361060 2.735491 0.007888 -0.005065 -877219.000000 1 0 0
1.378800 2.743913 11.020662 11.440504 1.105156 0.271752 0.004357 -0.001650 469617.000000 1 0 0
2.194400 5.570413 -8.099538 10.072111 1.195526 2.505049 0.002839 0.000407 -308458.000000 1 0 0
15.538500 6.150013 4.079562 17.202048 0.376873 1.331359 0.022165 -0.008471 -93234.800000 1 0 0
-4.532600 9.029413 4.591162 11.097456 -1.105565 1.144268 0.006525 0.000898 47401.100000 1 0 0
-0.811500 -8.241587 -12.423338 14.930560 1.472649 2.553634 -0.004070 -0.001454 857212.000000 1 0 0
14.300500 -4.150887 -5.076738 15.732369 -0.282499 1.899371 0.039354 -0.002297 -222042.000000 1 0 0
-6.073800 -6.214087 -5.701038 10.392678 0.796814 2.151441 0.012751 -0.002520 688403.000000 1 0 0
-8.924500 2.520113 -12.287538 15.394196 -0.275216 2.495086 0.008502 -0.004572 182675.000000 1 0 0
10.554900 5.391613 13.930562 18.290324 0.472263 0.704963 0.039378 -0.003269 764955.000000 1 0 0
-0.470400 10.955513 5.615762 12.319956 -1.527885 1.097496 0.004409 0.003637 574483.000000 1 0 0
0.422100 11.129613 -0.613338 11.154490 1.532889 1.625810 0.005328 -0.000113 -238713.000000 1 0 0
-1.488100 -0.585287 3.615762 3.953573 0.374727 0.416389 0.006553 -0.002390 513620.000000 1 0 0
-4.847000 6.848113 8.746262 12.119701 -0.954864 0.764604 0.002651 0.000477 -1180480.000000 1 0 0
3.457100 -8.690187 -11.384038 14.733201 -1.192174 2.453847 -0.001892 -0.001048 157812.000000 1 0 0
6.690000 -3.845787 11.976662 14.247337 -0.521726 0.572361 0.022695 -0.009468 -866918.000000 1 0 0
-2.489600 -1.908787 -12.507038 12.894479 0.654106 2.895834 0.009037 -0.007476 822677.000000 1 0 0
-16.104800 -4.942287 5.306062 17.661967 0.297759 1.265660 0.040519 -0.008950 1793000.000000 1 0 0
-9.043300 7.278113 5.694762 12.929908 -0.677665 1.114715 -0.000717 -0.003738 -4142640.000000 1 0 0
-12.915600 1.497813 6.132462 14.375787 -0.115454 1.130085 0.001670 -0.000719 353287.000000 1 0 0
-3.396900 3.599413 10.166962 11.307600 -0.814336 0.453027 -0.000167 0.000503 755838.000000 1 0 0
2.085400 -12.169187 -1.178638 12.402709 -1.401078 1.665971 0.003247 -0.001191 -2969110.000000 1 0 0
10.218900 -5.347787 -3.535038 12.063218 -0.482132 1.868204 0.013925 -0.002189 437687.000000 1 0 0
3.005300 -13.315487 1.013762 13.688014 -1.348816 1.496666 0.000799 -0.004350 372925.000000 1 0 0
10.159400 -1.722587 -6.150538 12.000410 -0.167959 2.108922 0.010279 -0.001137 -58494.600000 1 0 0
12.104800 -5.463287 -1.573938 13.373517 -0.423961 1.688760 0.013754 -0.004173 -673690.000000 1 0 0
1.458900 0.938213 5.925162 6.173830 0.571507 0.284784 0.002546 -0.000735 630274.000000 1 0 0
-10.868200 11.532713 6.553862 17.148596 -0.815054 1.178641 0.008913 -0.018340 -798595.000000 1 0 0
4.846100 -13.946887 2.947962 15.056255 -1.236379 1.373727 0.010946 -0.008404 -2598710.000000 1 0 0
5.304400 -3.385787 -1.696938 6.517654 -0.568105 1.834192 0.004650 -0.004145 -1579730.000000 1 0 0
2.189600 -2.937087 -7.786838 8.605561 -0.930181 2.701850 -0.001864 -0.005231 366029.000000 1 0 0
-2.884500 14.955213 -8.934738 17.658094 -1.380260 2.101320 0.015451 -0.005439 -1877050.000000 1 0 0
-2.431100 6.067713 -8.150738 10.448059 -1.189720 2.465654 0.006738 -0.001678 63189.400000 1 0 0
2.536600 -3.537987 -11.332238 12.139659 -0.948777 2.774819 0.000611 -0.004760 -1984350.000000 1 0 0
14.632600 2.754913 -2.719238 15.135943 0.186094 1.751431 0.016378 -0.000723 447948.000000 1 0 0
-3.588500 13.043413 2.189562 13.704092 -1.302319 1.410334 0.001888 0.003576 148537.000000 1 0 0
8.008300 -4.871887 13.951262 16.807910 -0.546540 0.591614 0.038161 -0.017409 -2154160.000000 1 0 0
-11.636800 7.254213 2.893462 14.014666 -0.557438 1.362841 -0.005795 -0.001306 836990.000000 1 0 0
-2.244100 11.916513 4.034462 12.779521 -1.384658 1.249605 0.005024 0.003525 251400.000000 1 0 0
1.871100 1.465913 0.648762 2.463901 0.664568 1.304348 -0.002999 -0.000255 -1079210.000000 1 0 0
-6.951600 8.617013 5.224662 12.242334 -0.891965 1.129878 0.003184 -0.004249 -137090.000000 1 0 0
-1.282100 9.263313 1.010862 9.406093 -1.433264 1.463120 0.004352 0.002411 378421.000000 1 0 0
4.702800 12.731513 -8.535838 16.033349 1.216960 2.132206 0.014225 -0.008452 -2410400.000000 1 0 0
8.913600 6.857213 7.251462 13.381230 0.655738 0.998085 0.007813 -0.001584 -1208130.000000 1 0 0
7.389100 -13.741287 2.908162 15.870701 -1.077422 1.386514 0.024295 -0.008987 356732.000000 1 0 0
4.146900 -13.436987 -1.188138 14.112444 -1.271452 1.655087 0.000932 -0.001094 -2649830.000000 1 0 0
12.138500 -11.676287 -4.614638 17.463497 -0.765992 1.838217 0.027178 -0.001244 -816441.000000 1 0 0
2.807500 -0.027687 -1.851638 3.363240 -0.009861 2.153822 0.004248 -0.004495 693726.000000 1 0 0
-13.532300 -3.205987 -10.759238 17.583023 0.232625 2.229270 0.021497 -0.006260 -7578.390000 1 0 0
-6.662000 13.650513 4.913162 15.964270 -1.116762 1.257959 0.009101 -0.007725 608681.000000 1 0 0
7.344900 -4.208387 -0.651038 8.490107 -0.520305 1.647554 0.002095 -0.003392 -988769.000000 1 0 0
11.715400 2.066113 -7.410938 14.015756 0.174564 2.127933 0.012230 0.000584 -1202610.000000 1 0 0
-7.463300 -4.507687 9.682762 13.029811 0.543341 0.733070 0.012119 -0.004952 374909.000000 1 0 0
0.864400 2.921813 8.635762 9.157541 1.283157 0.339198 0.003833 0.000244 -1085390.000000 1 0 0
1.547300 7.944613 -8.897838 12.028406 1.378443 2.403473 0.003084 0.000008 920247.000000 1 0 0
-8.631100 -2.128887 -5.516838 10.462483 0.241826 2.126213 0.011993 -0.002716 -426641.000000 1 0 0
6.581000 -0.473787 7.127562 9.712681 -0.071869 0.746838 0.003283 -0.000413 1063300.000000 1 0 0
-10.941200 6.489913 7.205162 14.619959 -0.535377 1.055457 -0.000679 -0.004945 251664.000000 1 0 0
-6.113500 10.999213 4.823862 13.476914 -1.063501 1.204741 0.003966 -0.001599 113716.000000 1 0 0
6.194800 -1.127787 -6.967238 9.390945 -0.180082 2.406711 0.000403 -0.002247 -678236.000000 1 0 0
4.536000 -5.752587 11.417962 13.566038 -0.903098 0.570451 0.011637 -0.009369 -1272950.000000 1 0 0
-8.912000 -7.385187 2.717662 11.889088 0.691985 1.340173 0.007891 -0.001186 -2214800.000000 1 0 0
-1.383500 12.848213 -9.450438 16.009417 -1.463529 2.202233 0.017608 0.000442 343612.000000 1 0 0
-4.725100 9.217413 -2.332538 10.617345 -1.097098 1.792294 0.001525 -0.001061 983382.000000 1 0 0
-3.336500 9.713413 -0.283538 10.274387 -1.239929 1.598396 0.005117 -0.001527 -474894.000000 1 0 0
-3.588100 10.728613 -6.523438 13.058823 -1.248048 2.093867 0.011385 0.000828 685895.000000 1 0 0
4.913700 -4.806987 0.348862 6.882824 -0.774421 1.520089 0.004266 -0.004775 -1199160.000000 1 0 0
-2.305100 2.815013 -10.799438 11.395861 -0.884661 2.816632 0.011855 -0.002017 20939.700000 1 0 0
-3.745200 12.046513 -2.293638 12.822082 -1.269374 1.750646 0.001491 0.002231 -21845.200000 1 0 0
-0.200000 0.368913 0.078862 0.426985 -1.074013 1.385036 0.003120 -0.003716 -1636870.000000 1 0 0
-4.844600 -1.735087 0.149062 5.148096 0.343916 1.541838 0.004727 -0.002266 260004.000000 1 0 0
2.596900 2.494913 -2.465738 4.364441 0.765371 2.171182 -0.003291 -0.002220 566269.000000 1 0 0
6.095800 -9.605687 8.437962 14.164293 -1.005321 0.932634 0.004603 -0.001837 -848429.000000 1 0 0
-4.160700 -5.431387 6.651362 9.542117 0.917104 0.799517 0.008204 -0.004832 81446.800000 1 0 0
-6.297400 5.289813 -12.118238 14.645514 -0.698660 2.545324 -0.002389 -0.001584 241757.000000 1 0 0
-12.972000 3.097113 8.077462 15.591994 -0.234366 1.026225 0.002384 -0.007471 756062.000000 1 0 0
4.775300 -7.293687 -5.090538 10.095293 -0.991112 2.099308 -0.002655 -0.007460 1388040.000000 1 0 0
-5.950800 2.447513 -1.042538 6.518376 -0.390202 1.731425 0.005287 -0.002972 -870294.000000 1 0 0
-6.907000 -2.725687 -14.548738 16.334069 0.375866 2.669677 0.018229 -0.003692 -481421.000000 1 0 0
2.795300 -6.091587 0.891962 6.761414 -1.140583 1.438491 0.004116 -0.002005 232112.000000 1 0 0
4.774600 -7.931887 12.995562 15.956073 -1.028944 0.619001 0.010502 -0.008107 2964.190000 1 0 0
-10.036900 -1.707087 8.061862 12.986421 0.168469 0.901044 0.005575 -0.001796 -129714.000000 1 0 0
-4.695100 13.214713 -0.143538 14.024736 -1.229414 1.581031 -0.000451 0.004886 392424.000000 1 0 0
6.834100 2.212613 -4.530638 8.492777 0.313111 2.133494 -0.000394 0.001856 -958427.000000 1 0 0
5.039000 4.546113 -0.025538 6.786701 0.734021 1.574559 -0.001452 0.001301 -87259.400000 1 0 0
-5.993500 12.126513 1.787862 13.644443 -1.111761 1.439386 0.003376 -0.001927 -740400.000000 1 0 0
6.676000 -7.243687 6.511562 11.808489 -0.826159 0.986718 0.003066 -0.004784 -2084600.000000 1 0 0
-0.419000 4.998213 7.684662 9.176694 -1.487162 0.578268 -0.003109 0.002491 -766222.000000 1 0 0
-5.803600 -3.468887 -1.590738 6.945891 0.538736 1.801866 0.008026 -0.001182 -221858.000000 1 0 0
2.276000 -6.526187 -5.261438 8.686427 -1.235237 2.221452 -0.001128 -0.003076 -1595830.000000 1 0 0
-14.397800 -4.865687 -3.806038 15.667083 0.325897 1.816184 -0.001036 -0.005723 -256004.000000 1 0 0
-12.430700 -5.153287 -6.339938 14.875264 0.392996 2.011092 0.010103 -0.010490 -1397170.000000 1 0 0
-14.839000 -3.796487 -1.321638 15.373873 0.250472 1.656869 0.001445 -0.003404 322339.000000 1 0 0
11.884900 2.874213 8.829162 15.081977 0.237282 0.945409 0.018782 -0.004566 -1982380.000000 1 0 0
8.823400 -6.472487 7.656962 13.355693 -0.632896 0.960255 0.010952 -0.008805 37913.600000 1 0 0
-8.885900 -1.648487 -9.764638 13.305070 0.183432 2.394847 0.013421 -0.004836 75233.600000 1 0 0
-8.934900 5.038813 -3.659938 10.891154 -0.513488 1.913513 0.002606 -0.003507 267040.000000 1 0 0
-4.235600 -6.203987 4.050862 8.534591 0.971760 1.076241 0.003715 -0.001759 -1176370.000000 1 0 0
-0.098100 -9.245687 3.621162 9.930013 1.560186 1.197520 0.003323 -0.001641 1304080.000000 1 0 0
8.056800 -10.358187 3.360862 13.546197 -0.909727 1.320074 0.006969 -0.006215 -240864.000000 1 0 0
-0.069100 6.555213 9.676962 11.688421 -1.560255 0.595425 0.000651 -0.002618 -654489.000000 1 0 0
0.013900 3.460613 -9.829038 10.420462 1.566780 2.803063 0.009799 -0.002597 -120962.000000 1 0 0
4.530400 -3.121087 10.944162 12.249097 -0.603252 0.465790 0.011225 -0.007584 -2014640.000000 1 0 0
8.682300 -9.159087 1.151762 12.672717 -0.812115 1.479786 0.003924 -0.005996 -219231.000000 1 0 0
-0.297300 -0.651187 11.404362 11.426806 1.142508 0.062687 0.008912 -0.002571 -1485590.000000 1 0 0
10.963600 6.021713 11.419662 16.937244 0.502264 0.830870 0.024901 -0.002900 266173.000000 1 0 0
-6.324200 -2.871487 -11.913238 13.790076 0.426215 2.613757 0.014640 -0.005218 238254.000000 1 0 0
-1.729200 2.888113 8.262262 8.921676 -1.031311 0.386886 0.001544 -0.000371 -1364590.000000 1 0 0
-1.871300 13.472013 -6.927038 15.263707 -1.432777 2.041848 0.008800 -0.002733 -21709.000000 1 0 0
7.664500 3.034613 9.839262 12.836063 0.376994 0.697372 0.010406 -0.000298 363231.000000 1 0 0
6.436000 8.482513 -8.017838 13.328948 0.921727 2.216218 0.000756 0.001264 -961384.000000 1 0 0
6.754200 -3.041387 -3.952138 8.395752 -0.423100 2.060915 0.002476 -0.002765 -2370830.000000 1 0 0
2.003200 7.938713 1.074862 8.257803 1.323623 1.440263 0.000480 -0.000319 872413.000000 1 0 0
-17.671600 6.048613 6.283962 19.706835 -0.329780 1.246257 0.047066 -0.020201 -396279.000000 1 0 0
-14.946200 2.776413 -10.385938 18.411005 -0.183667 2.170158 0.034353 -0.001581 -306800.000000 1 0 0
-18.334900 0.097213 -4.329938 18.839490 -0.005302 1.802703 0.031160 -0.007853 122323.000000 1 0 0
-13.177900 7.798213 0.118762 15.312847 -0.534342 1.563041 -0.000688 0.001988 388058.000000 1 0 0
-12.844400 -4.614387 -12.850738 18.746004 0.344894 2.326112 0.041392 0.004508 -602525.000000 1 0 0
-17.297900 -0.704987 -8.733638 19.390482 0.040733 2.038019 0.028092 -0.013956 -415758.000000 1 0 0
-16.709800 -2.216787 -2.191638 16.998084 0.131894 1.700091 0.017496 -0.008243 -911972.000000 1 0 0
-15.389100 4.004213 1.775362 16.000314 -0.254554 1.459609 0.006535 0.003575 -872273.000000 1 0 0
-13.231900 5.917013 4.458862 15.164949 -0.420505 1.272362 -0.003286 -0.001710 -460065.000000 1 0 0
-10.102200 14.168513 2.702662 17.609815 -0.951396 1.416713 0.017984 -0.011718 432699.000000 1 0 0
-12.005500 2.501613 -6.376138 13.821912 -0.205433 2.050264 0.005747 0.002056 896386.000000 1 0 0
-15.974300 10.627113 4.025762 19.604096 -0.587030 1.363972 0.021298 -0.017790 1133370.000000 1 0 0
-12.844500 1.138213 -8.657538 15.531571 -0.088384 2.162066 0.009186 -0.001213 506918.000000 1 0 0
-12.495100 14.151313 3.752462 19.247550 -0.847473 1.374582 0.028284 -0.025242 84526.700000 1 0 0
-10.464900 11.146813 -1.032938 15.324247 -0.816941 1.638253 0.005119 -0.005782 50964.200000 1 0 0
-17.144300 5.616113 8.820762 20.081673 -0.316563 1.116039 0.050117 -0.022168 347470.000000 1 0 0
-11.843400 12.137713 -9.093538 19.242730 -0.797670 2.063001 0.022178 -0.025199 -778991.000000 1 0 0
-17.162400 -0.586087 2.974262 17.428073 0.034136 1.399298 0.029379 -0.004317 1183100.000000 1 0 0
-13.197900 14.894213 -0.609238 19.909629 -0.845709 1.601401 0.034633 -0.011598 -74464.000000 1 0 0
-16.717000 4.670413 -10.308338 20.187439 -0.272435 2.106715 0.061417 -0.005411 494806.000000 1 0 0
-11.882600 7.557713 -9.090638 16.761710 -0.566493 2.144023 0.005047 -0.001157 89097.000000 1 0 0
-14.842600 13.532213 -2.087138 20.193556 -0.739250 1.674338 0.040649 -0.014264 91917.500000 1 0 0
-11.955300 10.516213 -5.559538 16.865006 -0.721445 1.906728 0.014898 -0.006256 1460200.000000 1 0 0
-17.764600 2.807613 -0.878538 18.006542 -0.156749 1.619606 0.043841 -0.001158 181137.000000 1 0 0
-9.551800 15.314713 0.542662 18.057459 -1.013132 1.540740 0.024399 -0.011547 -209208.000000 1 0 0
-8.256500 13.164313 -3.801138 15.997425 -1.010625 1.810700 0.011488 -0.004043 229615.000000 1 0 0
-18.047300 11.590313 2.571562 21.602160 -0.570886 1.451471 0.102710 -0.012243 -226139.000000 1 0 0
-8.063800 15.527513 -7.494838 19.034210 -1.091810 1.975511 0.047590 -0.020060 -567007.000000 1 0 0
-6.354500 15.207713 -5.517638 17.380982 -1.175000 1.893838 0.018311 -0.006033 -1149910.000000 1 0 0
-17.392300 5.272613 -0.102438 18.174241 -0.294351 1.576433 0.047663 0.002986 603443.000000 1 0 0
-5.432000 12.238413 -12.263038 18.156748 -1.153070 2.312301 0.004469 -0.013543 -896574.000000 1 0 0
-11.214600 3.620613 -11.455538 16.434885 -0.312284 2.342037 0.013690 -0.003093 167338.000000 1 0 0
-11.966200 11.014513 1.142562 16.303831 -0.744009 1.500659 0.004685 -0.007701 218483.000000 1 0 0
-12.964200 0.196813 -11.099038 17.067451 -0.015180 2.278781 0.018057 -0.006752 473558.000000 1 0 0
-14.142200 -2.258587 -13.246138 19.508030 0.158368 2.317209 0.039579 -0.002349 129027.000000 1 0 0
-18.787100 -2.415687 -3.693938 19.298597 0.127881 1.763395 0.024791 -0.011454 288465.000000 1 0 0
-18.173400 4.737613 -5.109938 19.463528 -0.255014 1.836449 0.043413 -0.001676 169694.000000 1 0 0
-8.396700 15.384213 -2.382438 17.687696 -1.071184 1.705902 0.024653 -0.006244 -194992.000000 1 0 0
-16.166600 9.181313 -5.287838 19.329167 -0.516496 1.847897 0.035390 0.002421 -283342.000000 1 0 0
-18.347900 1.545413 2.065062 18.528309 -0.084030 1.459110 0.072977 -0.011020 599768.000000 1 0 0
-15.739200 -2.784087 -8.772838 18.232835 0.175078 2.072769 0.010950 -0.008202 -321595.000000 1 0 0
-9.787100 10.431913 -7.223538 16.024720 -0.817279 2.038429 0.013825 -0.009850 336605.000000 1 0 0
-14.214000 11.902813 -7.974138 20.181716 -0.697134 1.976992 0.042924 -0.013688 6356.490000 1 0 0
-11.094100 6.491113 -3.791138 13.400983 -0.529389 1.857613 -0.000176 0.001072 -1600950.000000 1 0 0
-13.126800 4.868113 -12.762138 18.944223 -0.355130 2.309959 0.024976 -0.005834 641208.000000 1 0 0
-17.605700 9.093513 2.645562 19.991290 -0.476768 1.438071 0.034464 -0.020229 739711.000000 1 0 0
-13.559200 8.723113 -6.531638 17.395600 -0.571676 1.955707 0.009656 0.001707 -900384.000000 1 0 0
-15.729900 6.972413 -3.852638 17.631992 -0.417234 1.791076 0.007752 0.006442 -1874890.000000 1 0 0
-14.899300 -0.357787 -9.365338 17.601895 0.024009 2.131833 0.016895 -0.009121 -162284.000000 1 0 0
-9.837800 5.954513 -5.991138 12.966583 -0.544285 2.051095 0.006065 0.000589 160533.000000 1 0 0
-12.844300 12.198213 -1.014338 17.742642 -0.759604 1.627997 0.017498 -0.010365 141465.000000 1 0 0
-10.671700 3.373213 -14.042638 17.957156 -0.306152 2.468677 0.016470 -0.002581 242406.000000 1 0 0
-10.961200 6.189113 -11.905938 17.326408 -0.514012 2.328363 0.006039 -0.005260 -565195.000000 1 0 0
-5.885200 11.601613 -14.777138 19.687479 -1.101346 2.419744 0.022140 -0.016258 -168465.000000 1 0 0
-15.738500 13.200413 3.413862 20.823202 -0.697917 1.406108 0.035078 -0.028933 -396681.000000 1 0 0
-15.175700 11.075513 -3.208538 19.059475 -0.630460 1.739945 0.030659 0.000055 126106.000000 1 0 0
-18.146000 7.672213 -4.535038 20.216497 -0.400010 1.797045 0.034641 0.001138 59258.200000 1 0 0
-4.176400 16.263913 -10.750338 19.938078 -1.319438 2.140267 0.032662 -0.010834 -118286.000000 1 0 0
-15.693700 4.304413 -4.372138 16.850395 -0.267693 1.833268 0.012273 0.008086 -789368.000000 1 0 0
-18.826100 -1.715687 -6.171638 19.886044 0.090882 1.886358 0.034171 -0.012540 619172.000000 1 0 0
-10.951900 8.510213 -5.924538 15.082042 -0.660592 1.974493 0.005121 0.001230 -442969.000000 1 0 0
-11.452700 13.595313 -6.867538 19.056756 -0.870731 1.939464 0.028310 -0.006125 178674.000000 1 0 0
-9.581600 10.365213 -4.506138 14.817219 -0.824663 1.879806 -0.000619 -0.002910 -791233.000000 1 0 0
-11.121700 6.217913 -0.182638 12.743156 -0.509787 1.585129 -0.003678 0.000580 -149754.000000 1 0 0
-14.631400 9.256513 -1.391638 17.369444 -0.564079 1.651002 0.015585 -0.000032 -94685.400000 1 0 0
-18.587200 3.291413 4.794862 19.475834 -0.175263 1.322043 0.061721 -0.019905 207990.000000 1 0 0
-14.768600 13.147113 0.456462 19.777930 -0.727378 1.547715 0.017339 -0.016099 -198602.000000 1 0 0
-16.996900 2.471713 -8.833638 19.314170 -0.144409 2.045827 0.045433 -0.009659 -92780.200000 1 0 0
-9.198800 8.444313 -9.017538 15.402609 -0.742660 2.196238 0.009915 -0.001463 -2379310.000000 1 0 0
-17.543600 4.758313 -2.623538 18.365795 -0.264856 1.714136 0.021939 0.005700 751024.000000 1 0 0
-13.511500 5.847413 -4.497538 15.394179 -0.408436 1.867279 0.005468 0.006485 -156609.000000 1 0 0
-12.208800 9.655413 3.252162 15.901521 -0.669141 1.364824 -0.001805 -0.003144 1421890.000000 1 0 0
-17.591700 2.488713 -4.027038 18.217537 -0.140538 1.793690 0.027121 0.004919 836307.000000 1 0 0
-11.263300 1.396913 -12.679738 17.017317 -0.123393 2.411493 0.018177 -0.002743 -118957.000000 1 0 0
-11.246800 11.941713 3.516362 16.776765 -0.815357 1.359633 0.004138 -0.013961 117022.000000 1 0 0
-16.559900 13.144113 -3.906938 21.500283 -0.670907 1.753527 0.064488 -0.008604 101911.000000 1 0 0
-11.177400 4.156913 -4.618438 12.788439 -0.356053 1.940288 -0.001689 0.001297 -523460.000000 1 0 0
-11.551100 14.768213 -9.145238 20.860571 -0.907029 2.024612 0.048793 -0.022862 203822.000000 1 0 0
-15.652100 7.156113 -0.240038 17.212083 -0.428824 1.584743 0.016527 0.005122 -1402020.000000 1 0 0
-12.878600 8.403613 -4.077138 15.909183 -0.578148 1.829964 0.000618 0.004121 746045.000000 1 0 0
-19.218800 2.014513 -6.047138 20.248171 -0.104439 1.874075 0.067471 -0.007266 982523.000000 1 0 0
-13.119200 9.825413 -9.146838 18.770104 -0.642818 2.079802 0.025803 -0.005572 692712.000000 1 0 0
-16.668500 11.007213 -1.054838 20.002758 -0.583624 1.623555 0.027633 -0.005282 772575.000000 1 0 0
-10.618900 6.252813 -14.543238 19.062122 -0.532172 2.438644 0.022836 -0.011919 -117261.000000 1 0 0
-13.996000 12.879513 -4.482538 19.541316 -0.743879 1.802245 0.035457 -0.005365 -27589.700000 1 0 0
-18.110000 7.705413 -0.113638 19.681423 -0.402276 1.576570 0.070850 -0.004657 -314973.000000 1 0 0
-12.819000 6.658113 -2.103938 14.597390 -0.479042 1.715431 -0.002013 0.005942 501664.000000 1 0 0
-13.832900 8.074713 -10.856538 19.349795 -0.528372 2.166471 0.016880 -0.002198 315749.000000 1 0 0
-15.040000 1.314613 -0.899038 15.124090 -0.087186 1.630276 0.005076 0.002169 -453024.000000 1 0 0
-13.407600 2.743913 -2.370938 13.889354 -0.201866 1.742338 0.004091 0.003658 219072.000000 1 0 0
-11.422500 9.229713 -11.015438 18.357587 -0.679618 2.214358 0.017444 -0.006704 11764.300000 1 0 0
-15.219600 4.248113 -8.190038 17.797737 -0.272194 2.048986 0.005470 0.003874 283634.000000 1 0 0
-18.533600 10.356113 4.698262 21.744357 -0.509555 1.353011 0.094659 -0.039349 608937.000000 1 0 0
-15.414600 6.024813 -6.229338 17.683691 -0.372595 1.930786 0.017788 0.009266 736538.000000 1 0 0
-7.790900 11.192613 -12.990538 18.834192 -0.962709 2.331915 0.010077 -0.017220 -422498.000000 1 0 0
-16.744500 9.127013 -2.777438 19.271607 -0.499054 1.715421 0.032112 -0.001587 -59216.800000 1 0 0
-20.747500 -0.939987 -4.679238 21.289378 0.045275 1.792398 0.070926 -0.018591 2033340.000000 1 0 0
-15.414500 4.409413 4.280162 16.594262 -0.278616 1.309917 0.017432 -0.002845 104510.000000 1 0 0
-7.060400 12.635713 -9.571738 17.353060 -1.061248 2.155063 0.018395 -0.012008 1235750.000000 1 0 0
-17.205700 1.392213 5.798662 18.209856 -0.080740 1.246718 0.052047 -0.016077 -415851.000000 1 0 0
-10.501500 14.192913 -3.320138 17.965066 -0.933783 1.756676 0.033166 -0.014029 -478087.000000 1 0 0
-10.025600 8.347213 -13.076538 18.471180 -0.694299 2.357377 0.005764 -0.007878 189411.000000 1 0 0
-13.840900 11.587813 2.854662 18.275586 -0.697025 1.413953 0.018381 -0.017267 280470.000000 1 0 0
-16.860700 6.736113 2.016662 18.268151 -0.380089 1.460179 0.023283 -0.002692 654036.000000 1 0 0
-9.520100 13.201013 -8.488238 18.356177 -0.946007 2.051517 0.033909 -0.017222 1037410.000000 1 0 0
-5.716300 9.746113 -13.003538 17.226573 -1.040347 2.426227 0.007167 -0.006583 -211181.000000 1 0 0
-15.988900 1.842113 3.239862 16.417522 -0.114706 1.372151 0.014815 0.000660 -461474.000000 1 0 0
-18.681100 -4.917887 4.565262 19.849704 0.257414 1.338727 0.059107 -0.006387 1024240.000000 1 0 0
-5.331100 14.506013 -9.046738 17.907778 -1.218609 2.100392 0.013441 -0.012033 -356453.000000 1 0 0
-15.491800 -0.871187 -6.845338 16.959172 0.056176 1.986284 0.011456 -0.003627 826434.000000 1 0 0
-9.145000 10.892613 -9.668038 17.197413 -0.872395 2.167816 0.012704 -0.011806 495615.000000 1 0 0
-16.745000 1.229413 -6.050538 17.847003 -0.073288 1.916674 0.011721 0.000374 -2094680.000000 1 0 0
-11.170500 8.596013 -1.414638 14.165900 -0.655882 1.670825 0.001076 0.002083 -1962110.000000 1 0 0
-10.796900 10.897213 -12.823138 19.993879 -0.790022 2.267057 0.031521 -0.016055 -206033.000000 1 0 0
-14.033000 11.841513 -10.511538 21.157480 -0.700903 2.090731 0.047402 -0.014916 130252.000000 1 0 0
-13.230400 5.871013 -7.646838 16.370291 -0.417646 2.056823 0.007935 0.005763 -349722.000000 1 0 0
-8.914400 15.355013 -5.054238 18.460452 -1.044799 1.848125 0.026447 -0.010696 -200826.000000 1 0 0
-8.622400 6.047613 -13.020538 16.746756 -0.611654 2.461471 0.004205 -0.006737 -1047050.000000 1 0 0
-16.464100 7.513213 4.369562 18.617412 -0.428113 1.333883 0.031359 -0.004880 522915.000000 1 0 0
-12.699700 5.276813 -10.149438 17.092052 -0.393803 2.206583 0.008051 0.001003 544198.000000 1 0 0
-12.499400 9.052013 -13.424838 20.454834 -0.626781 2.286722 0.042899 -0.017520 -731695.000000 1 0 0
-10.815100 5.189913 -8.393338 14.640687 -0.447420 2.181310 0.002422 0.001000 -499823.000000 1 0 0
-17.751400 -4.489487 -2.659438 18.502441 0.247715 1.715030 0.013227 -0.006860 531001.000000 1 0 0
-9.194700 13.134813 -11.027438 19.459451 -0.960053 2.173277 0.042102 -0.018970 355410.000000 1 0 0
-15.102100 6.207113 6.163562 17.452541 -0.389962 1.209848 0.022280 -0.011646 97934.300000 1 0 0
-16.359400 -3.196187 -4.565438 17.282616 0.192943 1.838133 0.004403 -0.005748 -527686.000000 1 0 0
-11.289200 -1.321487 -12.545638 16.928834 0.116527 2.405475 0.020596 -0.004310 238084.000000 1 0 0
-15.493600 6.893513 -8.625138 19.025383 -0.418627 2.041315 0.015226 0.006364 648425.000000 1 0 0
-15.002200 9.292513 1.210462 17.688472 -0.554569 1.502311 0.019503 -0.008682 -329641.000000 1 0 0
-19.527600 5.252313 7.895662 21.708419 -0.262750 1.198544 0.087412 -0.034579 308869.000000 1 0 0
-16.304900 0.571913 0.939262 16.341942 -0.035062 1.513289 0.020407 -0.004597 -802790.000000 1 0 0
-17.495100 3.583813 7.146362 19.235195 -0.202051 1.190145 0.044421 -0.018182 1082040.000000 1 0 0
-15.422700 3.934013 -1.368238 15.975238 -0.249754 1.656549 0.006120 0.002926 -1142600.000000 1 0 0
-10.916700 13.281613 0.322662 17.195340 -0.882819 1.552031 0.016730 -0.015942 -1348980.000000 1 0 0
-13.459500 3.197413 0.195662 13.835457 -0.233235 1.556654 0.002158 0.002188 -72171.900000 1 0 0
-15.150300 0.167613 -4.337638 15.759911 -0.011063 1.849628 0.010371 0.000002 75319.000000 1 0 0
-18.964200 7.016513 3.412162 20.506467 -0.354369 1.403624 0.063140 -0.010365 -110201.000000 1 0 0
-14.184800 1.316713 -6.412938 15.622678 -0.092560 1.993787 0.008433 0.001571 -495486.000000 1 0 0
-14.247900 12.174313 5.351962 19.489999 -0.707080 1.292622 0.015986 -0.021972 737003.000000 1 0 0
17.854200 5.671713 6.262162 19.752353 0.307586 1.248196 0.065202 -0.012999 -1264790.000000 1 0 0
18.458300 7.529613 -0.308538 19.937379 0.387320 1.586272 0.031562 -0.007446 15093.800000 1 0 0
16.679700 5.308813 8.507062 19.461911 0.308142 1.118410 0.074035 -0.007102 332207.000000 1 0 0
11.705800 12.473213 10.699562 20.176407 0.817126 1.011841 0.037273 -0.008331 663183.000000 1 0 0
-2.380700 16.409013 -0.587538 16.591222 -1.426717 1.606216 0.000575 0.003520 -211120.000000 1 0 0
14.992800 12.683913 3.436262 19.936740 0.702167 1.397573 0.056432 -0.020394 370637.000000 1 0 0
13.814500 11.774813 6.683362 19.343060 0.705858 1.218006 0.062815 -0.014475 883033.000000 1 0 0
-0.724600 15.846813 8.642262 18.064751 -1.525103 1.071959 0.012481 -0.000575 -100893.000000 1 0 0
0.752900 12.894413 9.485862 16.025427 1.512473 0.937350 0.008821 -0.000434 25147.400000 1 0 0
0.633200 15.479013 -3.815738 15.954957 1.529912 1.812294 0.009528 -0.003566 -389325.000000 1 0 0
5.388500 10.260113 13.444462 17.749913 1.087201 0.711416 0.030581 -0.014448 720758.000000 1 0 0
-1.548500 16.543813 -2.897438 16.866854 -1.477468 1.743436 0.004284 0.000944 -785281.000000 1 0 0
8.506700 9.990013 3.292862 13.528017 0.865420 1.324916 0.014212 -0.005334 214906.000000 1 0 0
12.427100 13.607013 -4.909638 19.070610 0.830689 1.831174 0.097767 -0.019486 341203.000000 1 0 0
2.399400 11.574413 7.800062 14.162102 1.366390 0.987510 0.008857 0.003330 223839.000000 1 0 0
-0.406900 14.940213 -8.541038 17.214089 -1.543568 2.089973 0.016259 -0.006881 -1925910.000000 1 0 0
2.293500 15.966013 0.214962 16.131334 1.428123 1.557470 0.018122 -0.009525 -374994.000000 1 0 0
1.817900 13.289713 5.325262 14.431897 1.434850 1.192872 0.007282 0.003334 1193030.000000 1 0 0
17.430600 9.191213 -1.959838 19.802656 0.485251 1.669927 0.020638 -0.012822 332589.000000 1 0 0
-7.352500 14.799913 7.142262 18.003016 -1.109717 1.162849 0.016708 -0.013776 -1284350.000000 1 0 0
8.556600 15.899013 -0.038538 18.055346 1.077070 1.572931 0.038713 -0.010294 -409332.000000 1 0 0
15.739800 10.639113 2.145762 19.119004 0.594393 1.458327 0.043008 -0.006259 422757.000000 1 0 0
14.280000 7.461913 8.771362 18.344899 0.481519 1.072265 0.047206 -0.010033 -663265.000000 1 0 0
4.221200 18.600513 -2.571538 19.246050 1.347636 1.704811 0.040400 -0.022357 -679793.000000 1 0 0
-0.462400 17.548313 -4.948438 18.238535 -1.544452 1.845558 0.022753 -0.006573 427636.000000 1 0 0
1.237200 13.591013 -0.635038 13.661976 1.480016 1.617295 0.006532 -0.003250 442245.000000 1 0 0
10.254100 14.573213 4.300762 18.330893 0.957641 1.333971 0.038846 -0.020670 -866533.000000 1 0 0
-1.721700 15.239513 -5.150638 16.178260 -1.458297 1.894804 0.009007 -0.005239 -263655.000000 1 0 0
15.124400 8.714613 -6.203238 18.524905 0.522732 1.912252 0.050982 -0.023388 581204.000000 1 0 0
-2.618700 18.498113 0.875462 18.703054 -1.430165 1.523971 0.013498 -0.006762 -372731.000000 1 0 0
-3.944700 19.332613 3.585362 20.054062 -1.369516 1.391045 0.020303 -0.007927 169644.000000 1 0 0
1.730900 17.624613 -2.582638 17.896732 1.472901 1.715610 0.018431 -0.018910 -145325.000000 1 0 0
2.935200 12.071513 3.319862 12.859172 1.332274 1.309668 0.003435 0.001314 531850.000000 1 0 0
-2.737400 16.156913 1.833562 16.489425 -1.402964 1.459370 0.008762 -0.001007 -1353210.000000 1 0 0
11.670900 12.672813 -2.667638 17.433485 0.826532 1.724418 0.053205 -0.004459 231663.000000 1 0 0
7.091000 11.614713 4.681662 14.391032 1.022678 1.239448 0.013366 -0.003507 260217.000000 1 0 0
7.000300 15.805613 1.817462 17.381737 1.153863 1.466043 0.018453 -0.012907 -2488640.000000 1 0 0
5.525200 12.171613 10.299362 16.874622 1.144670 0.914299 0.020831 -0.000097 1056690.000000 1 0 0
-1.421700 14.176413 3.016762 14.563405 -1.470844 1.362139 0.004692 0.001761 -784973.000000 1 0 0
4.534600 16.111213 1.459862 16.800743 1.296438 1.483794 0.019176 -0.015461 -4114170.000000 1 0 0
7.416100 13.062413 11.964362 19.203414 1.054433 0.898182 0.039799 -0.005625 514022.000000 1 0 0
0.531900 17.162113 -9.505538 19.625909 1.539814 2.076401 0.026056 -0.005074 388362.000000 1 0 0
9.818500 9.613413 15.457162 20.681985 0.774844 0.726697 0.055118 -0.015107 -433644.000000 1 0 0
13.428600 7.465913 -0.132238 15.365046 0.507416 1.579403 0.009495 -0.001812 898766.000000 1 0 0
12.434300 13.508813 -0.231738 18.361741 0.826793 1.583417 0.064419 -0.011097 402597.000000 1 0 0
9.360100 12.326613 3.420262 15.851027 0.921344 1.353310 0.023348 -0.004183 558344.000000 1 0 0
-0.793700 12.684613 0.729962 12.730366 -1.508306 1.513425 0.005944 0.001331 40080.700000 1 0 0
15.951800 7.367513 -0.863938 17.592230 0.432674 1.619925 0.018657 -0.002525 -2181070.000000 1 0 0
-4.420000 18.525613 -2.383138 19.194116 -1.336586 1.695277 0.023528 -0.002515 206483.000000 1 0 0
11.452900 9.133113 -3.215338 14.997369 0.673184 1.786867 0.026427 -0.005239 8744.560000 1 0 0
14.865700 9.728413 7.761162 19.387281 0.579476 1.158928 0.060889 -0.016141 350058.000000 1 0 0
4.405000 13.612313 4.701662 15.060037 1.257828 1.253294 0.010036 0.002243 -579504.000000 1 0 0
2.156600 15.825113 5.609362 16.927790 1.435354 1.233041 0.011230 -0.000256 146944.000000 1 0 0
6.055100 18.388813 5.534262 20.135559 1.252697 1.292362 0.039855 -0.021478 601187.000000 1 0 0
10.656800 16.960713 -0.955838 20.053598 1.009811 1.618479 0.081933 -0.017614 -931497.000000 1 0 0
9.889600 13.469213 -4.493838 17.303713 0.937460 1.833512 0.071860 -0.008986 -236549.000000 1 0 0
16.451600 8.024813 2.319462 18.450817 0.453826 1.444752 0.010395 -0.007146 -245372.000000 1 0 0
3.799600 13.955113 -0.478538 14.471045 1.304967 1.603871 0.006044 -0.007524 -961859.000000 1 0 0
5.555700 13.243013 -2.271638 14.539723 1.173577 1.727676 0.006572 -0.001798 -106211.000000 1 0 0
-6.301300 16.793913 -3.029638 18.191224 -1.211839 1.738120 0.017141 -0.002091 -1524200.000000 1 0 0
18.165900 9.853113 2.482862 20.814619 0.496987 1.451227 0.046708 -0.016284 158905.000000 1 0 0
7.899300 12.881713 9.392862 17.792226 1.020714 1.014647 0.034913 -0.003996 413366.000000 1 0 0
-2.615400 15.662513 6.680362 17.227358 -1.405338 1.172578 0.006789 0.000100 632183.000000 1 0 0
11.400000 15.809113 6.296762 20.482609 0.946047 1.258316 0.057941 -0.027836 -281088.000000 1 0 0
13.533100 12.004213 1.336762 18.139263 0.725601 1.497035 0.048425 -0.011177 296902.000000 1 0 0
17.464400 7.663313 -5.571638 19.868940 0.413498 1.855027 0.027873 -0.004151 -236514.000000 1 0 0
9.523400 9.249613 8.012162 15.506296 0.770815 1.027800 0.016950 -0.001659 21125.900000 1 0 0
-2.150900 14.126413 -1.940938 14.420443 -1.419696 1.705802 -0.000085 0.001172 713351.000000 1 0 0
10.866700 11.645213 0.694662 15.942983 0.819967 1.527211 0.028446 -0.002932 366688.000000 1 0 0
11.735300 9.706213 -0.573038 15.239954 0.691046 1.608406 0.022796 -0.003600 -1176940.000000 1 0 0
-0.399500 16.130413 11.237862 19.663147 -1.546034 0.962441 0.021060 -0.004072 -510057.000000 1 0 0
2.241000 19.867213 -1.403338 20.042395 1.458472 1.640872 0.042717 -0.037571 -251521.000000 1 0 0
9.070700 14.281913 1.912562 17.026701 1.004954 1.458232 0.026344 -0.011897 -576932.000000 1 0 0
8.275700 11.603113 -5.125738 15.145713 0.951246 1.916042 0.030655 -0.001072 -1173570.000000 1 0 0
10.579800 10.151813 10.245962 17.887739 0.764757 0.960888 0.017278 -0.002182 224722.000000 1 0 0
-5.145100 15.691013 5.841462 17.515782 -1.253943 1.230786 -0.002279 -0.000508 185132.000000 1 0 0
14.329400 9.091613 -1.869638 17.072922 0.565382 1.680525 0.029288 -0.006405 -596909.000000 1 0 0
12.324100 9.617713 6.931762 17.100677 0.662674 1.153435 0.030483 -0.012813 -942979.000000 1 0 0
3.182400 12.981013 9.795062 16.570383 1.330380 0.938351 0.015318 -0.006101 -964178.000000 1 0 0
8.351800 12.472613 -2.628738 15.239058 0.980758 1.744164 0.030918 -0.003459 -467337.000000 1 0 0
9.413200 16.883213 2.222462 19.457404 1.062177 1.456325 0.034136 -0.017745 252449.000000 1 0 0
9.270200 14.291713 -7.513038 18.618147 0.995377 1.986171 0.079831 -0.015528 -1649630.000000 1 0 0
6.350700 11.360113 7.266262 14.905775 1.061043 1.061595 0.010005 -0.001462 -848613.000000 1 0 0
5.299100 16.897913 -5.525438 18.551291 1.266914 1.873232 0.048697 -0.007242 -1190440.000000 1 0 0
-4.211300 17.195213 -4.626538 18.297958 -1.330613 1.826416 0.017117 -0.004659 254796.000000 1 0 0
-0.386300 18.707013 -0.531438 18.718547 -1.550149 1.599191 0.015441 -0.011156 -157312.000000 1 0 0
6.427600 15.766713 -2.681938 17.236475 1.183696 1.727028 0.029827 -0.001198 -71456.400000 1 0 0
-1.231000 20.722813 0.786762 20.774247 -1.511463 1.532915 0.010904 -0.013664 -30272.600000 1 0 0
-1.517200 18.834213 4.353862 19.390348 -1.490414 1.344328 0.011595 -0.003164 -1217290.000000 1 0 0
7.149400 13.813113 -4.232138 16.119150 1.093183 1.836464 0.031608 0.002380 -361212.000000 1 0 0
-0.941700 11.966913 7.773062 14.300850 -1.492266 0.996149 0.004557 0.007138 521683.000000 1 0 0
7.728700 10.784213 10.976162 17.219413 0.948971 0.879639 0.027404 -0.004804 249219.000000 1 0 0
1.542700 16.103413 -7.287838 17.742954 1.475288 1.994068 0.016470 -0.003813 -398296.000000 1 0 0
8.955900 7.205513 14.948762 18.857175 0.677512 0.655512 0.047297 -0.002891 -61657.500000 1 0 0
11.306000 11.242513 -4.792338 16.648911 0.782583 1.862774 0.064578 -0.010301 -192133.000000 1 0 0
-3.430500 16.991413 4.512862 17.912073 -1.371578 1.316107 0.001777 0.000963 -384853.000000 1 0 0
3.899500 15.290713 -6.703138 17.144797 1.321095 1.972484 0.026665 -0.009404 -987742.000000 1 0 0
-4.486100 14.009613 9.430962 17.473906 -1.260898 1.000696 0.021136 -0.012650 1134500.000000 1 0 0
6.069500 17.957813 0.566562 18.964253 1.244864 1.540917 0.026497 -0.013220 78262.400000 1 0 0
9.691400 10.611513 -2.067238 14.518985 0.830686 1.713664 0.030624 -0.002889 -1440520.000000 1 0 0
7.322400 18.092613 -2.399338 19.665122 1.186230 1.693111 0.057233 -0.012581 190081.000000 1 0 0
3.471200 10.372813 10.385662 15.083317 1.247867 0.811305 0.009534 -0.002290 1196550.000000 1 0 0
-0.202400 18.674313 2.067162 18.789468 -1.559958 1.460556 0.014182 -0.011913 664416.000000 1 0 0
-0.991900 17.137913 -7.407038 18.696421 -1.512983 1.978143 0.032196 -0.006849 546998.000000 1 0 0
10.166900 8.626313 13.085262 18.681627 0.703605 0.794790 0.036760 -0.008131 229113.000000 1 0 0
3.674200 11.322413 5.544162 13.131432 1.257011 1.134920 0.004031 0.002573 577249.000000 1 0 0
13.176400 13.828713 8.035262 20.722361 0.809549 1.172598 0.062011 -0.027262 -314708.000000 1 0 0
-0.558800 17.276213 6.597762 18.501629 -1.538463 1.206166 0.015062 -0.004813 -378140.000000 1 0 0
12.278000 13.468913 5.457362 19.024818 0.831620 1.279854 0.045887 -0.024900 -352066.000000 1 0 0
4.758400 14.617813 -4.384938 15.985947 1.256094 1.848658 0.015304 -0.002885 -705233.000000 1 0 0
3.630900 17.497313 4.742362 18.488629 1.366188 1.311395 0.020281 -0.010835 495479.000000 1 0 0
7.043200 11.651613 2.082462 13.773286 1.027087 1.419019 0.015503 -0.003552 822181.000000 1 0 0
6.500500 8.583013 11.796862 15.971555 0.922596 0.739780 0.022057 -0.008313 690738.000000 1 0 0
-5.625600 14.753513 1.632162 15.873799 -1.206509 1.467793 0.006083 0.001587 195600.000000 1 0 0
6.758900 13.699813 5.969562 16.401319 1.112477 1.198271 0.018545 -0.005261 327597.000000 1 0 0
5.813600 15.842513 4.907762 17.574678 1.219091 1.287781 0.015207 -0.013441 666420.000000 1 0 0
1.080000 17.878213 4.212562 18.399527 1.510461 1.339798 0.027666 -0.012928 291042.000000 1 0 0
7.115500 18.066713 -6.884938 20.601913 1.195606 1.911541 0.048023 -0.008753 139708.000000 1 0 0
-2.542700 18.804113 -5.886238 19.867254 -1.436391 1.871590 0.034796 -0.003273 -1533890.000000 1 0 0
13.484300 9.829913 -4.436038 17.266498 0.629918 1.830626 0.043290 -0.016726 -39349.100000 1 0 0
-1.495600 18.076213 9.806962 20.619476 -1.488246 1.075132 0.017946 -0.003269 -89338.600000 1 0 0
3.396900 11.743313 -1.683038 12.340055 1.289219 1.707611 0.006176 -0.003406 339770.000000 1 0 0
4.326900 13.896013 -10.906638 18.187248 1.268935 2.213905 0.013514 -0.012050 -550290.000000 1 0 0
11.476100 13.543113 2.243662 17.892758 0.867828 1.445070 0.046784 -0.010703 965625.000000 1 0 0
15.935600 6.422413 -7.211738 18.633301 0.383110 1.968210 0.024674 -0.005647 167586.000000 1 0 0
2.366600 15.985313 2.905462 16.418670 1.423816 1.392899 0.018923 -0.009331 115865.000000 1 0 0
13.551300 10.608513 3.600462 17.582423 0.664190 1.364561 0.044341 -0.012360 -827507.000000 1 0 0
-5.110400 19.294613 -5.799138 20.785290 -1.311880 1.853551 0.024307 -0.013390 -79998.400000 1 0 0
5.378300 11.962613 0.086362 13.116314 1.148281 1.564212 0.010212 -0.003011 927286.000000 1 0 0
5.099600 15.251113 9.708262 18.784374 1.248108 1.027657 0.032222 -0.009383 -258639.000000 1 0 0
7.780900 9.327913 13.928462 18.481191 0.875575 0.717189 0.037200 -0.013820 23483.200000 1 0 0
-5.137200 13.493813 6.901662 16.003336 -1.207031 1.124903 0.005532 -0.001788 -1320160.000000 1 0 0
-4.795200 17.003813 0.367862 17.670850 -1.295927 1.549977 0.012609 -0.003145 -558104.000000 1 0 0
-0.805000 16.534613 3.414462 16.902663 -1.522149 1.367389 0.014806 -0.003488 -1555530.000000 1 0 0
7.735700 16.804613 -4.735338 19.096060 1.139384 1.821385 0.052441 -0.015409 295460.000000 1 0 0
2.836800 16.372113 -4.554138 17.228862 1.399230 1.838307 0.008351 -0.008329 292615.000000 1 0 0
9.297300 14.451813 8.029662 18.967608 0.999124 1.133672 0.026809 -0.010038 214170.000000 1 0 0
12.825900 10.865413 9.047262 19.089627 0.702835 1.077041 0.043772 -0.016528 679638.000000 1 0 0
3.753300 12.218313 12.207762 17.674951 1.272760 0.808365 0.028088 -0.011241 434484.000000 1 0 0
-3.479900 19.038813 6.086462 20.288695 -1.390013 1.266111 0.014900 -0.006314 73100.700000 1 0 0
-2.759500 15.766113 10.272862 19.018855 -1.397524 1.000192 0.021598 -0.014085 -148240.000000 1 0 0
2.018400 14.278613 7.744562 16.368597 1.430368 1.077950 0.013573 0.004113 -190265.000000 1 0 0
4.309400 17.106013 7.997962 19.368893 1.324009 1.145130 0.029093 -0.009163 -200479.000000 1 0 0
-1.973000 13.396913 9.393262 16.480394 -1.424575 0.964332 0.014175 -0.004608 -955976.000000 1 0 0
5.677300 17.701113 3.129462 18.850853 1.260430 1.404012 0.014283 -0.019485 710441.000000 1 0 0
7.030900 15.382913 -6.777238 18.220827 1.142088 1.951905 0.029977 -0.000707 -303784.000000 1 0 0
11.032800 7.639013 9.437762 16.405747 0.605601 0.957860 0.014328 -0.005389 813204.000000 1 0 0
8.967800 15.992013 -2.639538 18.523852 1.059724 1.713777 0.069373 -0.022172 -810096.000000 1 0 0
14.507400 11.254113 -6.409038 19.447249 0.659778 1.906634 0.090002 -0.026370 394014.000000 1 0 0
11.205600 6.586813 16.096662 20.689468 0.531411 0.679301 0.076319 -0.018447 114698.000000 1 0 0
8.592200 8.487613 10.235362 15.831238 0.779275 0.867770 0.020535 -0.003495 1299020.000000 1 0 0
16.391200 9.504013 4.483562 19.470491 0.525452 1.338436 0.043712 -0.013515 80063.400000 1 0 0
-3.482500 14.339413 4.473462 15.419418 -1.332547 1.276445 0.003059 0.003703 -617365.000000 1 0 0
4.509500 14.741713 12.734562 19.995568 1.273935 0.880366 0.027979 -0.003614 -498197.000000 1 0 0
16.021600 10.433313 -4.528838 19.648309 0.577220 1.803383 0.063117 -0.032560 452279.000000 1 0 0
14.796300 14.072613 5.963662 21.272851 0.760335 1.286647 0.071232 -0.024424 674090.000000 1 0 0
6.226500 9.511813 9.317862 14.699198 0.991189 0.884207 0.013030 -0.001232 805714.000000 1 0 0
10.473200 12.144313 8.496862 18.148524 0.859150 1.083561 0.030716 -0.010554 1339700.000000 1 0 0
7.934800 11.419613 -0.298838 13.908915 0.963542 1.592283 0.008542 -0.003029 -448634.000000 1 0 0
7.065600 13.646513 -8.731938 17.674749 1.093043 2.087520 0.036207 -0.000800 -393882.000000 1 0 0
2.604000 15.164913 -2.206538 15.544266 1.400743 1.713229 0.011799 -0.010245 261624.000000 1 0 0
11.861300 13.994213 -7.705538 19.897330 0.867705 1.968460 0.092693 -0.023799 -85612.300000 1 0 0
-8.109800 14.698713 9.602062 19.339613 -1.066622 1.051238 0.040230 -0.029144 216681.000000 1 0 0
11.451300 9.785313 2.279262 15.234161 0.707110 1.420617 0.028049 -0.006276 -1284960.000000 1 0 0
12.147100 8.579513 4.452562 15.523704 0.614943 1.279887 0.024122 -0.009278 478226.000000 1 0 0
14.128900 7.963813 6.139962 17.342066 0.513266 1.208898 0.031664 -0.011362 -2118910.000000 1 0 0
16.328100 7.458913 7.228462 19.351819 0.428506 1.187986 0.065427 -0.013587 -594099.000000 1 0 0
13.585700 8.402913 2.308062 16.140240 0.553920 1.427304 0.025378 -0.009460 -2336980.000000 1 0 0
-4.186900 17.229513 -7.154238 19.119869 -1.332410 1.954307 0.029744 -0.017012 -150064.000000 1 0 0
2.339500 19.712313 -3.979838 20.245683 1.452667 1.768662 0.029701 -0.023591 396898.000000 1 0 0
-0.095800 14.748013 6.283262 16.030984 -1.564301 1.168052 0.010714 0.002911 -959867.000000 1 0 0
6.768000 16.325713 8.069462 19.428097 1.177801 1.142469 0.040958 -0.001747 -857664.000000 1 0 0
12.722100 15.062513 -2.246638 19.843853 0.869434 1.684255 0.108233 -0.016347 -276654.000000 1 0 0
12.545600 15.680213 4.023262 20.480425 0.896000 1.373066 0.057484 -0.020633 -536163.000000 1 0 0
2.795600 18.042813 1.384262 18.310507 1.417076 1.495125 0.025099 -0.023252 -400933.000000 1 0 0
10.346300 14.373213 -1.215238 17.751394 0.946884 1.639309 0.061038 -0.002541 158628.000000 1 0 0
-6.560800 15.588013 -0.600138 16.923074 -1.172414 1.606266 0.008905 -0.001115 -410802.000000 1 0 0
-4.006000 15.842513 -2.526438 16.535300 -1.323124 1.724188 0.009282 -0.000987 -1613820.000000 1 0 0
-7.015000 16.886613 1.607662 18.356266 -1.177070 1.483103 0.012236 -0.003683 -701668.000000 1 0 0
-0.038100 19.389713 -6.444938 20.432808 -1.568831 1.891697 0.044321 -0.017329 542696.000000 1 0 0
4.782200 14.788013 7.103562 17.088457 1.258027 1.142091 0.022563 -0.002576 -512327.000000 1 0 0
8.615000 12.240313 6.813762 16.445998 0.957510 1.143610 0.025000 -0.010351 -1033680.000000 1 0 0
-7.550200 17.440913 -5.760138 19.858756 -1.162252 1.865081 0.036371 -0.013098 189930.000000 1 0 0
-8.011500 17.739313 -1.304938 19.508209 -1.146593 1.637738 0.046474 -0.007393 347595.000000 1 0 0
-13.834600 -9.048087 9.048062 18.844932 0.579195 1.069991 0.057875 -0.022500 19764.800000 1 0 0
-12.549400 -12.941687 7.581962 19.556606 0.800786 1.172669 0.033136 -0.009257 -314916.000000 1 0 0
-3.912000 -14.761787 12.703962 19.864661 1.311743 0.876915 0.013409 -0.017304 372824.000000 1 0 0
-1.959100 -14.084387 15.060862 20.713222 1.432586 0.756688 0.022975 -0.012693 -428648.000000 1 0 0
-7.285600 -13.523787 12.838562 20.020026 1.076651 0.874623 0.038112 -0.015225 -198591.000000 1 0 0
-9.896600 -11.531587 8.942062 17.631808 0.861551 1.038916 0.018357 -0.010574 565414.000000 1 0 0
-10.659600 -10.564487 11.224462 18.740971 0.780917 0.928637 0.052229 -0.023760 242615.000000 1 0 0
-5.926900 -12.150487 10.902762 17.367576 1.116963 0.892117 0.017488 -0.010331 607854.000000 1 0 0
-12.462600 -10.394287 7.293862 17.792078 0.695154 1.148397 0.019509 -0.006603 -450027.000000 1 0 0
-7.654400 -10.995687 12.472562 18.304638 0.962674 0.821139 0.032469 -0.021606 -560331.000000 1 0 0
-14.791800 -11.593887 7.408862 20.201653 0.664788 1.195288 0.051986 -0.002493 1152590.000000 1 0 0
-11.139000 -9.143387 9.134162 17.061998 0.687322 1.005873 0.026829 -0.012128 -590613.000000 1 0 0
-5.434500 -11.885187 13.420462 18.732332 1.141930 0.772120 0.028701 -0.017413 -710946.000000 1 0 0
3.983900 -12.382287 14.703162 19.630982 -1.259514 0.724279 0.003009 -0.005543 -702286.000000 1 0 0
6.493200 -12.747887 14.016862 20.028546 -1.099693 0.795617 0.027413 -0.008244 -87030.400000 1 0 0
6.798100 -8.052187 15.873962 19.053465 -0.869647 0.586058 0.033671 -0.021063 211703.000000 1 0 0
0.585800 -1.803587 14.324862 14.449836 -1.256748 0.131615 0.004784 -0.008534 34606.000000 1 0 0
-0.078500 -6.233087 15.588962 16.789082 1.558203 0.380396 0.010762 -0.014001 15440.900000 1 0 0
-1.466000 -4.726887 18.474362 19.125759 1.270062 0.261739 0.020596 -0.025001 -1162690.000000 1 0 0
-5.216900 12.840513 12.992062 18.997065 -1.184884 0.817704 0.026216 -0.011962 378541.000000 1 0 0
-4.009200 8.888113 11.577962 15.136758 -1.147049 0.699925 0.001959 0.001588 -320269.000000 1 0 0
-0.732700 -3.980987 14.984162 15.521282 1.388783 0.263844 0.008709 -0.009472 19045.500000 1 0 0
-4.750000 9.112213 14.114462 17.458893 -1.090271 0.629300 0.017090 -0.012611 505318.000000 1 0 0
-13.540000 -2.490787 16.796062 21.717351 0.181924 0.686619 0.058465 -0.011766 382388.000000 1 0 0
-0.218200 0.735413 17.326462 17.343434 -1.282366 0.044244 0.011188 -0.011201 -297115.000000 1 0 0
-3.276400 -7.379887 15.406662 17.394331 1.152974 0.482734 0.013309 -0.012899 356054.000000 1 0 0
-7.407700 5.490813 12.550162 15.573362 -0.637865 0.633647 -0.007764 0.000144 -2199020.000000 1 0 0
-10.039100 10.424813 13.208762 19.594174 -0.804244 0.831028 0.023861 -0.018595 199070.000000 1 0 0
-5.549800 2.321613 11.110662 12.634753 -0.396202 0.496252 0.000899 -0.001009 886163.000000 1 0 0
-7.203700 -7.314887 16.937262 19.805850 0.793056 0.544928 0.034550 -0.023337 24029.000000 1 0 0
-4.679700 2.792713 18.526062 19.310976 -0.538042 0.286092 0.014709 -0.012311 384653.000000 1 0 0
1.044600 -8.340987 16.564362 18.575288 -1.446208 0.469617 0.010535 -0.010677 587014.000000 1 0 0
-15.220000 -3.504587 13.884362 20.897513 0.226317 0.844102 0.075105 -0.028550 484730.000000 1 0 0
-14.259600 2.383513 13.186262 19.567699 -0.165620 0.831350 0.020221 -0.008689 278095.000000 1 0 0
-5.599300 1.015913 16.099862 17.076000 -0.179483 0.339757 0.012506 -0.007151 362129.000000 1 0 0
4.649300 5.698713 15.305962 16.981277 0.886465 0.447935 0.019294 -0.011547 538517.000000 1 0 0
-1.040500 -11.930787 13.896262 18.344820 1.483805 0.711316 -0.002472 -0.013600 -320980.000000 1 0 0
-5.806000 -3.981787 16.739962 18.160137 0.601136 0.398105 0.023390 -0.016435 -440498.000000 1 0 0
-12.893500 -1.635087 9.910762 16.344389 0.126141 0.919308 0.018746 -0.003848 -463928.000000 1 0 0
-14.612900 10.375313 10.177562 20.609870 -0.617413 1.054319 0.023480 -0.016872 275078.000000 1 0 0
-3.515200 -3.329887 17.792662 18.439729 0.758332 0.265699 0.021625 -0.018016 -1759580.000000 1 0 0
-7.995300 9.377113 11.857562 17.101370 -0.864772 0.804642 0.003346 -0.008231 -77786.600000 1 0 0
-4.762200 10.801213 16.166262 20.017312 -1.155540 0.630702 0.030143 -0.011142 224060.000000 1 0 0
-12.607000 12.649113 8.175262 19.641065 -0.787066 1.141498 0.023870 -0.029102 154201.000000 1 0 0
-12.589100 3.015313 10.610762 16.738155 -0.235089 0.884176 0.005704 -0.005168 -241678.000000 1 0 0
-10.187100 -3.441587 13.596062 17.334198 0.325799 0.669150 0.023031 -0.013212 -1065670.000000 1 0 0
-4.301100 -6.514687 17.743362 19.384723 0.987273 0.414477 0.028448 -0.018692 -800099.000000 1 0 0
0.784100 -3.563487 17.827862 18.197415 -1.354211 0.201877 0.026309 -0.027433 -640915.000000 1 0 0
-5.935800 1.887513 13.618162 14.975004 -0.307877 0.428974 0.004961 -0.000831 -862156.000000 1 0 0
-10.593100 8.728813 10.319462 17.172572 -0.689210 0.926136 0.013775 -0.013710 -124023.000000 1 0 0
4.554400 2.448413 17.382862 18.135632 0.493268 0.289130 0.030166 -0.021105 -1587870.000000 1 0 0
0.508700 -5.352787 13.106162 14.166248 -1.476046 0.389318 0.008103 -0.008681 -66315.000000 1 0 0
-4.066200 5.751613 20.630162 21.799509 -0.955410 0.329021 0.045924 -0.017056 -154447.000000 1 0 0
-10.822300 10.816313 8.941762 17.722018 -0.785121 1.041928 0.018344 -0.022327 560867.000000 1 0 0
0.667400 4.173313 13.062962 13.729637 1.412218 0.312907 0.008984 -0.006633 -2022030.000000 1 0 0
-3.130000 7.135413 13.377162 15.480939 -1.157415 0.527426 0.000067 0.001266 -192327.000000 1 0 0
0.563800 8.877913 14.087362 16.661002 1.507376 0.563241 0.008536 -0.010519 -248075.000000 1 0 0
-4.247200 -6.712887 13.099662 15.320010 1.006684 0.545113 0.011800 -0.011835 84230.100000 1 0 0
-5.215400 8.191713 16.417962 19.074958 -1.003851 0.534138 0.020217 -0.004046 402409.000000 1 0 0
1.589600 -10.635287 15.716762 19.043444 -1.422430 0.600044 -0.004631 -0.007479 -850039.000000 1 0 0
-15.187300 -0.943787 14.176262 20.796904 0.062063 0.820778 0.050037 -0.012255 542897.000000 1 0 0
-13.760700 -5.432287 8.437362 17.031021 0.375988 1.052488 0.047002 -0.013847 222373.000000 1 0 0
-14.156000 -1.874787 12.065362 18.694387 0.131671 0.869249 0.036230 -0.014256 182056.000000 1 0 0
9.535900 1.268813 17.050662 19.577240 0.132279 0.513678 0.076319 -0.019311 14947.300000 1 0 0
4.918700 -6.788287 17.112562 19.055556 -0.943759 0.455513 0.036576 -0.015132 -836988.000000 1 0 0
-6.137100 -2.664287 11.136962 12.992088 0.409577 0.540967 0.005084 -0.003410 413557.000000 1 0 0
0.705700 -6.207387 18.008062 19.060954 -1.457595 0.333929 0.022544 -0.024513 -618639.000000 1 0 0
-8.536300 12.063713 11.937662 18.997615 -0.954987 0.891331 0.020517 -0.023530 410382.000000 1 0 0
-6.673600 -5.737187 14.848762 17.260880 0.710089 0.535026 0.026905 -0.012689 373718.000000 1 0 0
-3.969400 -9.096287 17.097262 19.769040 1.159330 0.525944 0.028764 -0.020451 9117.970000 1 0 0
2.550600 -6.197387 16.199862 17.531363 -1.180364 0.392253 0.021729 -0.021083 60867.800000 1 0 0
2.214500 5.160413 16.117662 17.067891 1.165431 0.335255 0.011279 -0.013455 -666311.000000 1 0 0
0.886800 -8.830187 14.022662 16.594989 -1.470704 0.564243 -0.000932 -0.008462 -328946.000000 1 0 0
-9.918200 -2.924587 11.146062 15.203901 0.286744 0.747920 0.002606 -0.006526 -50392.500000 1 0 0
-1.242900 10.167013 12.466662 16.134764 -1.449152 0.687778 0.003324 -0.006759 -269331.000000 1 0 0
-12.356200 -3.720387 11.339462 17.178485 0.292461 0.849849 0.033046 -0.009429 -215815.000000 1 0 0
-1.747000 6.656813 19.839762 20.999555 -1.314146 0.333902 0.027080 -0.017015 -850465.000000 1 0 0
0.397800 -13.210087 15.610562 20.453711 -1.540692 0.702523 -0.006270 -0.016501 -901168.000000 1 0 0
4.225000 -8.677787 15.370362 18.149452 -1.117704 0.560711 0.015682 -0.011745 117097.000000 1 0 0
4.483500 -4.450087 16.127462 17.320510 -0.781658 0.373326 0.041696 -0.022406 -1009030.000000 1 0 0
8.186400 1.693713 14.930862 17.111880 0.204015 0.510411 0.042043 -0.009028 300218.000000 1 0 0
-6.269200 -0.118887 11.819562 13.379800 0.018961 0.487752 0.004203 -0.002249 433685.000000 1 0 0
-3.415500 -11.014087 18.707062 21.975666 1.270097 0.552410 0.051492 -0.016137 -921891.000000 1 0 0
3.182200 -1.664287 13.507262 13.976493 -0.481877 0.259856 0.012342 -0.008187 617005.000000 1 0 0
-2.800600 9.194413 15.922362 18.598446 -1.275126 0.543097 0.013811 0.005597 -1137550.000000 1 0 0
-3.268900 3.841313 14.832662 15.666820 -0.865731 0.327789 0.008127 -0.002558 -86418.700000 1 0 0
-4.470900 -8.880087 19.715262 22.080227 1.104373 0.467068 0.051740 -0.031233 37976.100000 1 0 0
-5.682400 -2.923987 19.104462 20.144970 0.475235 0.322806 0.031092 -0.024310 -1036340.000000 1 0 0
-6.578600 -8.722087 11.071562 15.554172 0.924583 0.778729 0.019715 -0.013780 137138.000000 1 0 0
-11.657700 2.277713 12.786062 17.452029 -0.192952 0.748603 0.008508 -0.012905 -586166.000000 1 0 0
-11.613100 -7.683287 11.660362 18.162077 0.584490 0.873670 0.039103 -0.019536 -146773.000000 1 0 0
-11.120600 -7.338487 15.539262 20.469240 0.583304 0.708787 0.068879 -0.038121 -459211.000000 1 0 0
0.099800 5.582713 17.721862 18.580663 1.552922 0.305223 0.012042 -0.014453 -361711.000000 1 0 0
-2.176800 -0.103787 13.219762 13.398184 0.047643 0.163380 0.008247 -0.002254 32329.300000 1 0 0
-5.950000 -10.315087 18.189462 21.740746 1.047592 0.579652 0.064690 -0.032049 125614.000000 1 0 0
0.486600 2.575113 19.193462 19.371550 1.384036 0.135701 0.021480 -0.015910 -336151.000000 1 0 0
-0.625400 11.006613 14.816262 18.467763 -1.514037 0.639696 0.021818 -0.008888 -415592.000000 1 0 0
-12.831600 -2.185787 14.241762 19.293921 0.168725 0.740476 0.031881 -0.016396 430350.000000 1 0 0
-13.770600 8.547513 11.837462 20.070249 -0.555507 0.939983 0.021623 -0.014756 126464.000000 1 0 0
-18.034500 -0.777987 6.961862 19.347247 0.043112 1.202703 0.080185 -0.023298 550927.000000 1 0 0
-1.989300 -7.539087 17.660962 19.305562 1.312812 0.415754 0.024747 -0.022253 -1787520.000000 1 0 0
5.804000 2.723113 14.677362 16.016451 0.438688 0.411822 0.031310 -0.013182 -1428720.000000 1 0 0
-14.108300 -7.009787 11.089362 19.265388 0.461129 0.957446 0.060376 -0.024575 526687.000000 1 0 0
3.065200 7.574913 16.181062 18.127369 1.186287 0.467647 0.022768 -0.029780 -725134.000000 1 0 0
1.081500 2.175513 14.691362 14.890890 1.109452 0.163886 0.011391 -0.011205 -1467190.000000 1 0 0
-14.373700 0.536713 9.794262 17.401692 -0.037323 0.972986 0.026857 -0.005405 -2426670.000000 1 0 0
-9.725500 -5.193287 15.504062 19.024498 0.490466 0.618149 0.040821 -0.018238 58906.800000 1 0 0
-2.563000 -0.171087 18.139762 18.320731 0.066654 0.140671 0.021520 -0.015116 -8602.860000 1 0 0
6.733700 3.844813 17.399762 19.049331 0.518808 0.419223 0.059020 -0.026754 -364043.000000 1 0 0
-4.289900 -0.716587 14.694662 15.324811 0.165512 0.287765 0.016264 -0.002036 -776014.000000 1 0 0
5.214100 -9.249287 17.635062 20.584741 -1.057473 0.541948 0.037498 -0.007395 -197878.000000 1 0 0
1.942000 6.819513 13.597562 15.335280 1.293369 0.480671 0.013403 -0.006634 -1486860.000000 1 0 0
-3.653300 -0.888587 20.454262 20.796947 0.238595 0.181786 0.033364 -0.017901 -1208870.000000 1 0 0
-10.629100 1.522313 16.446462 19.641316 -0.142254 0.578397 0.014486 -0.010530 -482235.000000 1 0 0
-3.749300 7.084213 18.313262 19.990470 -1.084026 0.412554 0.020873 -0.011103 -205578.000000 1 0 0
-12.618600 1.187513 14.818162 19.499158 -0.093832 0.707578 0.019104 -0.013837 349910.000000 1 0 0
-16.252500 -4.642587 8.564262 18.948455 0.278244 1.101816 0.073949 -0.017762 -600995.000000 1 0 0
-2.351000 0.753913 15.715862 15.908611 -0.310318 0.155824 0.012704 -0.002547 293517.000000 1 0 0
-13.655900 -8.677187 12.951362 20.724743 0.566055 0.895764 0.067998 -0.035695 587409.000000 1 0 0
6.113600 -3.151487 14.493862 16.043067 -0.475961 0.443082 0.032465 -0.019682 483804.000000 1 0 0
-15.717500 0.282813 7.613162 17.466540 -0.017992 1.119790 0.039890 -0.012254 133362.000000 1 0 0
-14.145200 5.974013 12.431062 19.756184 -0.399611 0.890242 0.032821 -0.017893 565545.000000 1 0 0
0.343100 9.346313 16.648062 19.095268 1.534103 0.511845 0.014390 -0.023416 -545245.000000 1 0 0
-10.437400 -5.578087 10.707362 15.959385 0.490813 0.835357 0.027084 -0.013019 238106.000000 1 0 0
-3.114200 -11.038687 15.085162 18.950276 1.295826 0.650074 0.014732 -0.014952 -2204990.000000 1 0 0
-3.515300 2.683513 12.551162 13.307526 -0.652010 0.338774 0.000625 0.000716 -1544880.000000 1 0 0
-12.358600 -7.782787 7.346962 16.348841 0.562005 1.104717 0.030274 -0.010919 -524433.000000 1 0 0
-8.241000 -1.871887 13.267262 15.730171 0.223353 0.567165 0.008698 -0.001907 -105254.000000 1 0 0
-9.905400 6.455313 9.594362 15.226286 -0.577567 0.889091 0.002479 -0.006648 -377125.000000 1 0 0
-18.162800 -3.655887 6.733262 19.712677 0.198630 1.222209 0.080301 -0.017665 631101.000000 1 0 0
-1.297300 -0.031587 20.507862 20.548878 0.024343 0.063193 0.029662 -0.018959 -783290.000000 1 0 0
-2.685900 2.640813 20.256262 20.603497 -0.776934 0.183852 0.033583 -0.012584 -730255.000000 1 0 0
-3.986300 11.373513 11.231062 16.473741 -1.233685 0.820637 0.013537 -0.008087 -102238.000000 1 0 0
-4.123100 -4.873887 14.895862 16.206216 0.868654 0.404892 0.014321 -0.011971 1084910.000000 1 0 0
-0.057400 -14.209887 13.271062 19.443386 1.566757 0.819552 -0.001527 -0.017502 -404921.000000 1 0 0
-12.135500 0.308213 8.410162 14.768080 -0.025392 0.964920 0.004705 -0.002401 -758574.000000 1 0 0
-7.817100 2.036813 15.355762 17.350939 -0.254891 0.484280 0.005631 -0.003672 -837447.000000 1 0 0
3.486900 -2.197287 18.428662 18.883911 -0.562298 0.220024 0.042712 -0.023711 -373609.000000 1 0 0
-2.185800 4.822413 12.624162 13.689516 -1.145236 0.397123 -0.001047 -0.000053 -476333.000000 1 0 0
-10.348800 -6.194087 13.217862 17.893469 0.539339 0.739660 0.031581 -0.021646 -1015770.000000 1 0 0
2.267900 -3.791187 14.306062 14.972637 -1.031699 0.299513 0.015784 -0.011445 -340537.000000 1 0 0
6.902300 1.173313 17.209262 18.578942 0.168379 0.386384 0.055663 -0.015955 -48546.700000 1 0 0
-1.948100 -5.928987 13.771162 15.119288 1.253337 0.425496 0.005862 -0.008286 -2643160.000000 1 0 0
-12.690700 3.835113 14.575362 19.702871 -0.293473 0.738085 -0.000910 -0.008802 209171.000000 1 0 0
-13.212500 -6.199887 13.320762 19.759844 0.438742 0.831006 0.045903 -0.041116 -623570.000000 1 0 0
-9.561600 6.908013 11.981662 16.813835 -0.625651 0.777589 0.002070 -0.004793 -591480.000000 1 0 0
-1.328200 -2.555687 12.800162 13.120205 1.091510 0.221328 0.005754 -0.003733 838855.000000 1 0 0
0.003800 6.657313 15.389962 16.768147 1.570226 0.408269 0.005472 -0.010024 776563.000000 1 0 0
-16.660900 -0.898387 9.828462 19.364694 0.053870 1.038463 0.066582 -0.011038 724752.000000 1 0 0
-1.249600 2.649113 13.711262 14.020628 -1.130040 0.210460 0.002340 -0.001476 -1932950.000000 1 0 0
-11.239900 -3.345687 15.996962 19.835114 0.289310 0.632593 0.036312 -0.022349 -902957.000000 1 0 0
-5.112300 -1.495587 16.992862 17.808137 0.284605 0.303759 0.025067 -0.011734 278448.000000 1 0 0
-11.971400 6.712513 11.174062 17.698359 -0.511031 0.887489 0.013762 -0.007479 -3041600.000000 1 0 0
-2.858800 4.625613 18.601762 19.380262 -1.017220 0.284400 0.030164 -0.012534 40789.100000 1 0 0
5.048700 -2.012187 16.386862 17.264631 -0.379260 0.320246 0.039962 -0.024634 -1171630.000000 1 0 0
-8.078800 -4.216287 12.144162 15.183042 0.481010 0.643750 0.015154 -0.006663 -2013910.000000 1 0 0
-11.745800 -0.819787 16.190662 20.019326 0.069681 0.628770 0.039279 -0.010607 -101617.000000 1 0 0
2.146700 1.942413 17.329762 17.569915 0.735481 0.165528 0.015449 -0.019213 -1881730.000000 1 0 0
-8.882500 -7.512387 11.652362 16.465488 0.702022 0.784582 0.022331 -0.016321 477022.000000 1 0 0
-7.089700 7.026113 14.676062 17.748716 -0.780894 0.597259 -0.006429 -0.005798 -885362.000000 1 0 0
-5.714300 3.504213 15.757862 17.124338 -0.550095 0.402198 0.004973 -0.003256 36093.200000 1 0 0
-9.482900 4.233513 11.703162 15.646470 -0.419887 0.725791 0.000264 -0.005540 317658.000000 1 0 0
-10.283600 0.067713 14.196962 17.530281 -0.006584 0.626894 0.011079 -0.005597 -156884.000000 1 0 0
8.223700 -0.682687 15.851162 17.870496 -0.082825 0.479985 0.054707 -0.020068 211501.000000 1 0 0
-8.621200 -7.442287 14.749562 18.634975 0.712139 0.657539 0.043957 -0.019086 -1404740.000000 1 0 0
-0.056000 4.185213 15.551062 16.104492 -1.557417 0.262921 0.007920 -0.012777 20265.700000 1 0 0
-8.014400 3.129713 9.758162 13.009513 -0.372300 0.722615 -0.002642 0.000652 -1000680.000000 1 0 0
-2.201300 -9.633087 13.211462 16.498024 1.346139 0.642182 -0.001103 -0.011225 555074.000000 1 0 0
-6.094800 10.237713 10.540662 15.907951 -1.033819 0.846507 0.017139 -0.008900 -1232160.000000 1 0 0
-8.619100 -2.777287 15.609562 18.046070 0.311720 0.525678 0.019306 -0.012358 1413410.000000 1 0 0
4.083700 5.762613 17.850962 19.197426 0.954286 0.376758 0.021052 -0.021555 -212640.000000 1 0 0
-6.883200 -0.929387 15.188562 16.701336 0.134211 0.428904 0.010311 -0.000921 -586712.000000 1 0 0
-0.912700 -9.847787 15.568262 18.444042 1.478380 0.565948 -0.000490 -0.007601 -234448.000000 1 0 0
-4.336600 5.754613 16.171962 17.704633 -0.925004 0.419160 0.013701 -0.006474 275752.000000 1 0 0
3.879700 0.022813 17.326662 17.755726 0.005880 0.220285 0.034570 -0.021892 -154219.000000 1 0 0
1.450800 0.282513 19.307262 19.363754 0.192322 0.076405 0.018705 -0.013170 -370512.000000 1 0 0
-6.305000 6.403813 17.878862 20.010386 -0.793173 0.465763 0.004299 -0.002749 296320.000000 1 0 0
-12.171900 0.481713 11.018262 16.425264 -0.039555 0.835493 0.015842 -0.005919 -2721.720000 1 0 0
-5.395000 5.113913 13.914962 15.776067 -0.758657 0.490644 -0.001856 0.000489 -697553.000000 1 0 0
-8.738200 -9.438087 9.888762 16.224094 0.823885 0.915353 0.021535 -0.013676 -461718.000000 1 0 0
6.854900 -3.593687 17.029362 18.705705 -0.482860 0.426587 0.047816 -0.023132 -40679.800000 1 0 0
-16.588300 1.672913 9.603662 19.240599 -0.100509 1.048196 0.051347 -0.016102 231920.000000 1 0 0
-4.117100 -9.553787 11.300862 15.360170 1.163906 0.744060 0.006461 -0.012987 1166260.000000 1 0 0
-11.176300 -3.879387 9.124762 14.940569 0.334096 0.913805 0.019608 -0.004803 -173359.000000 1 0 0
3.502700 -5.007287 18.374262 19.363763 -0.960392 0.321067 0.029687 -0.031399 -830223.000000 1 0 0
2.440300 -1.689587 15.990762 16.263893 -0.605586 0.183526 0.017028 -0.017647 548145.000000 1 0 0
-3.191400 -4.312887 20.271362 20.969362 0.933746 0.258739 0.030963 -0.024937 -912858.000000 1 0 0
-6.261000 -3.332387 14.299262 15.961636 0.489110 0.460452 0.014700 -0.005069 1416030.000000 1 0 0
-9.567900 5.352613 13.941662 17.735984 -0.510058 0.666377 0.008159 -0.006718 -28859.800000 1 0 0
-5.836500 -5.208787 11.767762 14.130690 0.728628 0.586685 0.009749 -0.004733 625770.000000 1 0 0
6.202500 2.391813 19.437562 20.542896 0.368049 0.329532 0.074282 -0.029512 136177.000000 1 0 0
-2.848700 11.874113 13.566962 18.253003 -1.335338 0.732847 0.021453 -0.020582 969403.000000 1 0 0
3.447100 1.328813 15.142762 15.586901 0.367933 0.239294 0.017218 -0.014370 -814745.000000 1 0 0
-5.567200 7.268913 12.490362 15.486767 -0.917202 0.632557 -0.010757 -0.009582 -183581.000000 1 0 0
-1.944900 -1.738987 15.258262 15.479705 0.729561 0.169349 0.010999 -0.006230 766322.000000 1 0 0
-7.571000 10.880313 14.005462 19.283522 -0.962865 0.757885 0.037920 -0.020587 392148.000000 1 0 0
-10.129000 2.095513 10.632462 14.833646 -0.204005 0.771623 -0.004492 -0.002258 -1060530.000000 1 0 0
-13.598500 5.112313 9.375062 17.290076 -0.359601 0.997717 0.006891 -0.006466 -267398.000000 1 0 0
0.517300 -4.747687 20.099162 20.658762 -1.462266 0.233285 0.040080 -0.031728 -238448.000000 1 0 0
-14.489900 -2.996087 7.565062 16.618180 0.203897 1.098168 0.038485 -0.007101 771719.000000 1 0 0
-2.185400 2.345513 17.687462 17.975642 -0.820721 0.179303 0.011717 -0.011148 -383084.000000 1 0 0
-6.169000 -8.273987 14.691462 17.954233 0.930124 0.612396 0.019220 -0.013109 -9712.910000 1 0 0
-8.043100 1.935113 12.125762 14.678904 -0.236106 0.598703 -0.001724 -0.003882 1553210.000000 1 0 0
-14.612100 -3.559187 10.120662 18.127578 0.238925 0.978459 0.040809 -0.013207 344699.000000 1 0 0
-0.528700 6.851013 12.905962 14.621209 -1.493778 0.489245 0.002311 -0.005968 -2039090.000000 1 0 0
-1.673400 -2.288187 19.280862 19.488142 0.939357 0.145981 0.023642 -0.023439 310646.000000 1 0 0
-12.897700 10.228013 7.351562 18.027989 -0.670465 1.150768 0.008006 -0.024332 -85984.100000 1 0 0
-19.532400 1.940213 6.894962 20.804316 -0.099008 1.232988 0.090106 -0.033630 963872.000000 1 0 0
-16.408600 8.352813 6.866562 19.650988 -0.470862 1.213838 0.041187 -0.012037 102738.000000 1 0 0
-12.292900 7.393513 13.611462 19.775018 -0.541482 0.811631 0.014934 -0.013860 -101872.000000 1 0 0
-15.968900 8.219813 10.443062 20.775674 -0.475369 1.044125 0.043222 -0.015396 -531796.000000 1 0 0
1.948700 10.739613 15.034062 18.578475 1.391300 0.627974 0.034676 -0.029312 -507321.000000 1 0 0
2.028200 14.291213 12.589662 19.153380 1.429818 0.853556 0.022322 -0.015649 -601778.000000 1 0 0
-3.157000 13.748413 11.736262 18.350078 -1.345083 0.876850 0.008966 -0.015092 -25171.000000 1 0 0
9.145800 4.869313 16.063962 19.115615 0.489238 0.572853 0.057002 0.001931 -52346.100000 1 0 0
-0.392900 12.600713 12.802662 17.967763 -1.539626 0.777692 0.016938 -0.014537 -335499.000000 1 0 0
3.562800 13.431713 14.623962 20.173367 1.311514 0.759886 0.031604 -0.014148 -104989.000000 1 0 0
-2.712900 -4.169587 -13.645538 14.523980 0.993971 2.792016 0.004363 -0.008260 -632842.000000 1 0 0
5.921800 -11.579687 16.186762 20.764588 -1.098074 0.676870 0.021706 -0.006645 279074.000000 1 0 0
7.690300 -13.490487 7.432662 17.215644 -1.052687 1.124377 0.005840 -0.003180 -237639.000000 1 0 0
-0.314500 15.517113 1.145062 15.562483 -1.550531 1.497151 0.009069 -0.004853 -1871890.000000 1 0 0
-13.679700 8.243313 9.183962 18.423669 -0.542325 1.048944 0.004408 -0.008220 304264.000000 1 0 0
-15.288200 -9.787487 5.037062 18.838682 0.569454 1.300125 0.019217 -0.004391 -1176700.000000 1 0 0
9.733900 -11.149587 11.070162 18.482710 -0.853084 0.928611 0.040373 -0.008431 121913.000000 1 0 0
-5.984100 -10.368087 -16.632438 20.492552 1.047336 2.517739 0.036063 -0.010726 9271.730000 1 0 0
-1.952200 -12.546387 -14.940038 19.606827 1.416436 2.437164 0.024421 -0.005614 -14091.600000 1 0 0
5.357000 -15.464887 -12.680538 20.704015 -1.237334 2.229975 0.021442 -0.005045 211496.000000 1 0 0
1.058700 -12.178487 -16.248538 20.333504 -1.484082 2.496596 0.026030 -0.006543 139417.000000 1 0 0
0.417600 -14.228987 -14.132838 20.059301 -1.541456 2.352589 0.025950 0.006336 278522.000000 1 0 0
-6.287100 -6.304587 -14.400838 16.931024 0.786787 2.587844 0.018609 -0.008210 -64338.200000 1 0 0
-6.244400 -8.072087 -17.476738 20.238268 0.912374 2.613062 0.027366 -0.003373 -173763.000000 1 0 0
-2.357200 -16.324387 -13.113838 21.071658 1.427390 2.242531 0.027705 -0.011018 276141.000000 1 0 0
16.590000 -7.924887 -9.051538 20.492981 -0.445641 2.028277 0.106593 -0.009354 -17100.500000 1 0 0
19.324100 -3.838487 -3.356838 19.985574 -0.196085 1.739559 0.121109 -0.020500 177709.000000 1 0 0
16.038400 -11.422087 -8.755438 21.548829 -0.618848 1.989205 0.085409 -0.005917 208776.000000 1 0 0
18.451500 -2.644087 -6.467138 19.730000 -0.142330 1.904751 0.178565 -0.001092 -234859.000000 1 0 0
9.320800 -9.764987 -15.948138 20.894387 -0.808667 2.439162 0.086652 -0.010039 102912.000000 1 0 0
-4.551600 10.105313 -16.286038 19.699479 -1.147596 2.544057 0.012863 0.004148 469971.000000 1 0 0
2.766100 -9.573987 -18.155638 20.710860 -1.289537 2.639597 0.054731 -0.011766 384599.000000 1 0 0
11.532200 9.565213 -14.643038 20.950024 0.692433 2.344726 0.114099 -0.027585 288627.000000 1 0 0
18.513200 -5.380187 -8.507138 21.072645 -0.282823 1.986360 0.093431 -0.011129 96608.300000 1 0 0
12.371700 5.223113 -13.887038 19.318118 0.399482 2.372959 0.067697 -0.008688 97446.300000 1 0 0
16.118700 6.036713 -10.908638 20.377752 0.358346 2.135684 0.060165 -0.018420 318083.000000 1 0 0
3.510700 -0.726787 -19.389838 19.718495 -0.204137 2.958760 0.053250 -0.004124 280546.000000 1 0 0
10.372100 -1.620987 -14.558238 17.948547 -0.155029 2.516843 0.040570 -0.011730 48033.900000 1 0 0
12.216000 -6.054087 -13.821038 19.414008 -0.460111 2.363011 0.063749 -0.007892 400188.000000 1 0 0
10.325500 6.520813 -13.620338 18.293457 0.563278 2.410652 0.052636 0.009621 498255.000000 1 0 0
10.616300 5.168913 -16.471538 20.266600 0.453100 2.519641 0.075335 -0.021496 272007.000000 1 0 0
11.922300 -10.642587 -14.755938 21.751864 -0.728746 2.316346 0.095920 -0.012759 201403.000000 1 0 0
-1.357400 2.296613 -18.059138 18.255121 -1.036988 2.994930 0.017274 0.002460 342550.000000 1 0 0
6.496900 -0.975887 -17.042938 18.265372 -0.149093 2.773662 0.028412 0.003121 146914.000000 1 0 0
6.645000 -5.707287 -15.602338 17.893074 -0.709629 2.630021 0.017394 -0.014931 229690.000000 1 0 0
-2.571500 -4.800587 -19.976238 20.705273 1.079026 2.875440 0.059994 -0.032667 101315.000000 1 0 0
16.037800 -0.193687 -13.472538 20.946547 -0.012076 2.269449 0.106539 -0.018372 27971.200000 1 0 0
-4.044000 -0.506887 -18.272238 18.721260 0.124693 2.922134 0.020948 -0.013772 134404.000000 1 0 0
4.450300 8.553913 -18.076238 20.487191 1.091069 2.651563 0.059020 -0.015480 263830.000000 1 0 0
9.596600 -0.163487 -17.408738 19.879276 -0.017034 2.637727 0.061240 -0.006362 22530.800000 1 0 0
4.158500 4.705913 -18.420238 19.461344 0.847074 2.813020 0.039867 -0.003853 419438.000000 1 0 0
-2.835700 -11.044587 -17.544438 20.924421 1.319475 2.565260 0.048165 -0.029433 271603.000000 1 0 0
6.023600 -9.227187 -16.233038 19.619793 -0.992448 2.545224 0.027112 -0.011782 199213.000000 1 0 0
10.224600 -12.453887 -10.880838 19.443106 -0.883383 2.164729 0.040495 0.002872 208108.000000 1 0 0
6.205800 6.890913 -16.773838 19.166593 0.837662 2.636563 0.055351 -0.022637 276381.000000 1 0 0
8.888300 1.621613 -20.233038 22.158685 0.180459 2.721613 0.078994 -0.014922 139489.000000 1 0 0
-1.355800 -0.491587 -20.137638 20.189213 0.347838 3.070099 0.050656 -0.017121 235975.000000 1 0 0
-0.810400 6.827713 -19.808438 20.967800 -1.452656 2.807498 0.035271 -0.003049 24125.600000 1 0 0
8.907700 6.051313 -17.869738 20.863678 0.596722 2.599246 0.089228 -0.030200 232835.000000 1 0 0
12.341400 0.029713 -13.358938 18.187146 0.002408 2.395765 0.035356 0.001829 91328.800000 1 0 0
-4.471900 -3.016987 -19.842838 20.563033 0.593512 2.876149 0.031024 -0.010313 267941.000000 1 0 0
6.135700 -11.358987 -14.610438 19.497136 -1.075537 2.417896 0.020144 -0.005817 27876.300000 1 0 0
11.056700 1.754713 -16.111438 19.619074 0.157389 2.534330 0.045708 -0.005751 -246352.000000 1 0 0
-2.766700 -4.239587 -17.168138 17.898986 0.992604 2.854843 0.010851 -0.009010 194416.000000 1 0 0
-6.706500 -4.722987 -17.336738 19.179318 0.613566 2.699665 0.032675 -0.016133 -3937.140000 1 0 0
2.934800 10.138413 -15.343038 18.622817 1.289025 2.539026 0.008954 -0.019130 123185.000000 1 0 0
17.073300 -6.033587 -10.765938 21.066731 -0.339694 2.107190 0.124327 -0.016559 13822.100000 1 0 0
9.705100 -3.081887 -17.637538 20.365897 -0.307482 2.618009 0.053292 -0.013176 136204.000000 1 0 0
-7.148100 -1.783887 -19.096338 20.468213 0.244565 2.773389 0.011830 0.005270 502069.000000 1 0 0
1.914800 -7.530087 -19.181438 20.695319 -1.321787 2.756728 0.067898 -0.024015 267402.000000 1 0 0
5.332700 10.108113 -15.090038 18.929366 1.085340 2.493400 0.038340 -0.012290 312523.000000 1 0 0
6.129000 -3.837487 -17.759238 19.175023 -0.559404 2.754910 0.050755 -0.020742 597731.000000 1 0 0
4.651600 13.320613 -14.791638 20.441837 1.234832 2.379795 0.040230 -0.015097 9779.700000 1 0 0
9.550200 11.223213 -15.586038 21.449742 0.865761 2.384201 0.115878 -0.026225 -30150.200000 1 0 0
17.394700 1.136913 -11.882438 21.096457 0.065267 2.169102 0.141861 -0.007976 96609.000000 1 0 0
14.521100 -3.179887 -12.545938 19.451853 -0.215581 2.271786 0.104034 -0.011338 18299.900000 1 0 0
-8.520100 0.506913 -17.332538 19.320092 -0.059426 2.684014 0.021562 -0.011034 444163.000000 1 0 0
-3.613800 4.341513 -19.111238 19.928565 -0.876619 2.854203 0.033810 0.001051 178877.000000 1 0 0
4.321400 2.575813 -17.337638 18.052784 0.537517 2.859180 0.027072 0.005724 387603.000000 1 0 0
-5.101100 14.221513 -13.999238 20.597362 -1.226402 2.318098 0.028806 -0.019011 302891.000000 1 0 0
0.897000 9.166013 -17.920438 20.148512 1.473245 2.666866 0.016598 -0.009891 307081.000000 1 0 0
1.336100 -4.849587 -19.823238 20.451514 -1.301958 2.893082 0.058304 -0.012779 486892.000000 1 0 0
3.821500 -6.344387 -17.714238 19.200243 -1.028655 2.745576 0.051845 -0.032973 1092.830000 1 0 0
-6.657700 7.653413 -16.077638 19.010265 -0.854862 2.578737 0.005674 0.005101 -57224.300000 1 0 0
-11.831700 2.955413 -16.976938 20.903111 -0.244779 2.518663 0.060898 -0.022755 348966.000000 1 0 0
-4.431000 6.998513 -17.348338 19.224406 -1.006369 2.696132 0.007751 0.015030 298614.000000 1 0 0
-8.372500 6.152013 -17.519438 20.368523 -0.633694 2.606307 0.020449 -0.003419 334998.000000 1 0 0
-8.592900 4.298713 -14.952238 17.773191 -0.463858 2.570444 0.000329 -0.013193 401009.000000 1 0 0
9.421300 13.174813 -13.076538 20.816639 0.950008 2.250005 0.107615 -0.046327 503441.000000 1 0 0
14.911100 9.784613 -11.744538 21.354478 0.580719 2.153137 0.142798 -0.028987 15560.100000 1 0 0
8.447300 15.725313 -9.888238 20.406362 1.077850 2.076664 0.070622 -0.014934 81269.600000 1 0 0
7.750300 13.581713 -14.626738 21.411949 1.052243 2.322810 0.098064 -0.031384 44424.100000 1 0 0
4.860500 15.346613 -13.417638 20.956527 1.264076 2.265634 0.027805 -0.008095 155343.000000 1 0 0
10.959000 11.776913 -11.049438 19.516287 0.821357 2.172642 0.099149 -0.033945 332081.000000 1 0 0
16.107100 10.600313 -9.119138 21.329885 0.582058 2.012554 0.105909 -0.045445 281357.000000 1 0 0
12.604900 10.502913 -9.019938 18.723087 0.694683 2.073453 0.085509 -0.047298 313915.000000 1 0 0
10.566800 11.683513 -7.487938 17.442218 0.835545 2.014514 0.071852 -0.013810 126764.000000 1 0 0
5.847600 17.005213 -10.263038 20.705112 1.239592 2.089410 0.072014 -0.009233 137109.000000 1 0 0
11.181700 13.951913 -10.466938 20.718183 0.895175 2.100416 0.133510 -0.043944 -30860.300000 1 0 0
8.312000 -19.237887 -1.729838 21.028028 -1.162958 1.653153 0.054064 -0.019457 241783.000000 1 0 0
7.840600 -17.114087 -4.242638 19.296812 -1.141196 1.792469 0.027906 -0.004776 78810.300000 1 0 0
3.645500 -18.799587 5.392862 19.894650 -1.379260 1.296291 0.068285 -0.015671 -214669.000000 1 0 0
10.620000 -16.785887 -1.888038 19.952821 -1.006697 1.665563 0.059318 -0.045153 437629.000000 1 0 0
-3.581700 -14.947187 8.032362 17.342601 1.335607 1.089241 0.017957 -0.026862 4330.590000 1 0 0
-14.978300 -13.126887 -4.671338 20.456931 0.719619 1.801179 0.039231 0.000153 196577.000000 1 0 0
-9.097000 -13.027987 -7.254538 17.467461 0.961235 1.999088 0.036886 -0.004933 154213.000000 1 0 0
-11.528200 -15.438787 6.927962 20.475649 0.929408 1.225632 0.039940 -0.007525 260895.000000 1 0 0
-14.492600 -8.473287 -8.156938 18.664611 0.529066 2.023087 0.040710 -0.014236 -47193.000000 1 0 0
4.008800 -14.913087 5.828462 16.505805 -1.308193 1.209897 0.025767 -0.019502 -112388.000000 1 0 0
2.823200 -13.995587 9.390662 17.088927 -1.371747 0.989010 0.014742 -0.010740 286006.000000 1 0 0
3.257900 -17.543787 10.125162 20.516268 -1.387187 1.054666 0.038259 -0.012160 316476.000000 1 0 0
-8.608800 -18.033487 -5.123138 20.629218 1.125409 1.821766 0.061814 -0.016165 -100077.000000 1 0 0
1.941500 -19.775687 -3.822238 20.235037 -1.472934 1.760830 0.039561 -0.024717 -72539.900000 1 0 0
-17.943100 -10.741787 -1.803038 20.990278 0.539432 1.656801 0.014147 -0.006918 -64626.400000 1 0 0
-3.990600 -14.895987 2.911762 15.693746 1.309045 1.384179 0.001785 -0.003717 129660.000000 1 0 0
-11.235800 -10.751787 -14.177938 21.044193 0.763389 2.310030 0.072635 -0.010954 -178177.000000 1 0 0
1.045300 -20.163287 2.294662 20.320341 -1.519001 1.457631 0.029102 -0.016568 242837.000000 1 0 0
7.009400 -18.176387 0.602162 19.490390 -1.202737 1.539896 0.058169 -0.022161 150956.000000 1 0 0
-6.840900 -17.878887 -3.096638 19.391794 1.205358 1.731171 0.005672 -0.061405 203485.000000 1 0 0
-8.904000 -16.281187 -7.357538 19.962255 1.070345 1.948269 0.069521 -0.010575 -124212.000000 1 0 0
-12.009300 -11.276287 -12.012138 20.387972 0.753929 2.200837 0.064983 -0.006769 321256.000000 1 0 0
-13.255900 -15.110887 -3.333338 20.375695 0.850698 1.735129 0.056398 -0.014826 141701.000000 1 0 0
-0.299800 -20.802087 -2.757838 20.986242 1.556385 1.702589 0.053582 -0.023271 317379.000000 1 0 0
-11.945400 -16.898187 -0.553938 20.701405 0.955452 1.597558 0.067250 -0.019155 119997.000000 1 0 0
0.702100 -19.908287 5.230162 20.595811 -1.535544 1.314042 0.041971 -0.020658 256377.000000 1 0 0
-18.224600 -9.069287 2.332962 20.489771 0.461758 1.456689 0.049095 0.000213 -163942.000000 1 0 0
-14.960600 -14.956687 -0.672038 21.165389 0.785267 1.602553 0.068553 -0.014463 81821.200000 1 0 0
10.231200 -15.217587 -5.195838 19.059096 -0.978885 1.846909 0.023750 -0.005612 45936.900000 1 0 0
0.040000 -19.126287 -7.098638 20.401155 -1.568705 1.926183 0.054086 -0.019078 124890.000000 1 0 0
-10.154600 -18.446587 -2.403638 21.193630 1.067580 1.684454 0.067910 0.024250 511297.000000 1 0 0
-14.916000 -6.601487 -11.336238 19.863962 0.416664 2.178147 0.075089 -0.022208 91011.500000 1 0 0
-12.469000 -14.611387 1.946162 19.306894 0.864346 1.469823 0.053544 -0.032200 301895.000000 1 0 0
-1.712300 -15.275387 10.032762 18.355537 1.459167 0.992522 -0.002294 -0.035921 429971.000000 1 0 0
-12.210600 -15.293187 -6.594938 20.651236 0.897011 1.895838 0.049940 0.000505 114247.000000 1 0 0
5.485200 -16.875887 -7.519438 19.272388 -1.256536 1.971609 0.028600 -0.012356 106948.000000 1 0 0
-18.018700 -7.603587 -3.151338 19.809569 0.399313 1.730557 0.031032 -0.009840 42940.000000 1 0 0
-12.329500 -13.480587 -8.795838 20.275837 0.829967 2.019512 0.084981 -0.039722 83350.700000 1 0 0
-7.807400 -13.895187 10.077262 18.856906 1.058879 1.006990 0.022419 -0.005366 606093.000000 1 0 0
-15.606700 -8.073487 -5.871838 18.526434 0.477399 1.893302 0.030274 -0.008529 -120448.000000 1 0 0
-0.738200 -19.732987 -0.319938 19.749381 1.533404 1.586997 0.013828 -0.011886 177356.000000 1 0 0
-15.228900 -12.029087 -1.998038 19.509241 0.668543 1.673391 0.030335 0.021655 221846.000000 1 0 0
-6.636100 -19.103787 2.302462 20.354209 1.236466 1.457434 0.014478 -0.018786 221335.000000 1 0 0
-2.185400 -20.752687 -5.313538 21.533315 1.465876 1.820131 0.070663 -0.026021 129122.000000 1 0 0
-9.048000 -18.357687 0.339162 20.469148 1.112867 1.554226 0.058741 -0.070142 47393.700000 1 0 0
-17.786700 -7.581587 4.921862 19.951739 0.402929 1.321535 0.055472 -0.011226 85966.500000 1 0 0
-2.653400 -15.974987 -10.708838 19.414426 1.406202 2.155068 0.018184 -0.005755 27340.100000 1 0 0
-3.239800 -18.643387 -7.438138 20.332193 1.398737 1.945321 0.028056 -0.013095 144848.000000 1 0 0
4.510700 -17.370887 -4.696138 18.551222 -1.316737 1.826725 0.016449 -0.018099 459645.000000 1 0 0
0.913800 -17.415687 -9.813638 20.011214 -1.518374 2.083353 0.045234 -0.002238 -343439.000000 1 0 0
-7.490200 -9.820587 -14.333138 18.920515 0.919214 2.430340 0.017005 -0.021305 509249.000000 1 0 0
-4.894300 -19.571887 -2.007138 20.274159 1.325754 1.669959 0.037796 -0.028396 308771.000000 1 0 0
-8.956400 -15.966887 8.580362 20.218338 1.059596 1.132514 0.007972 -0.008839 236706.000000 1 0 0
-7.372100 -15.226587 -10.023238 19.663726 1.119901 2.105670 0.042831 -0.016279 293423.000000 1 0 0
-12.653000 -7.927487 -12.139338 19.243362 0.559699 2.253422 0.057976 -0.020479 170724.000000 1 0 0
-15.327900 -12.955287 3.382062 20.352453 0.701706 1.403847 0.038904 -0.008698 163950.000000 1 0 0
-6.118500 -14.278887 -13.232138 20.406179 1.165965 2.276327 0.012572 -0.008352 465399.000000 1 0 0
-13.752700 -11.411087 -6.823638 19.128819 0.692610 1.935551 0.050358 -0.017190 131574.000000 1 0 0
-10.858700 -10.306387 -8.605938 17.268328 0.759309 2.092509 0.004292 -0.008678 173249.000000 1 0 0
-10.165100 -15.497487 4.013962 18.963471 0.990271 1.357515 0.011314 0.014778 608605.000000 1 0 0
5.296500 -17.629887 8.155362 20.133945 -1.278948 1.153757 0.072325 -0.037413 292394.000000 1 0 0
-5.035300 -16.597587 5.538562 18.207411 1.276246 1.261705 0.005200 0.005169 407904.000000 1 0 0
-18.153000 -7.421787 -6.807638 20.759535 0.388109 1.904906 0.056135 -0.025357 3394.830000 1 0 0
-17.155500 -3.467587 -10.714638 20.521667 0.199440 2.120123 0.068422 -0.022337 -65623.900000 1 0 0
-15.849000 -4.271987 -12.961138 20.914870 0.263286 2.239169 0.060117 -0.019330 441097.000000 1 0 0
-19.506500 -5.585987 -5.888738 21.127803 0.278902 1.853257 0.071938 -0.015181 15429.000000 1 0 0
5.379200 -13.665387 8.818562 17.130254 -1.195787 1.030028 0.027560 -0.003173 199653.000000 1 0 0
19.975200 -2.965587 2.675262 20.370575 -0.147387 1.439086 0.095509 -0.013191 -17108.100000 1 0 0
17.881900 -2.543687 -0.169738 18.062710 -0.141301 1.580194 0.044765 -0.012087 196423.000000 1 0 0
14.064300 -11.279287 0.370562 18.032309 -0.675947 1.550245 0.028497 -0.003113 -18127.600000 1 0 0
11.330200 -13.630187 5.101962 18.444116 -0.877284 1.290524 0.041610 -0.004500 345006.000000 1 0 0
10.208300 -12.770087 8.129262 18.258406 -0.896426 1.109361 0.047849 -0.030177 -269477.000000 1 0 0
17.748000 5.163713 -4.915138 19.126265 0.283130 1.830696 0.012874 0.002733 -45446.600000 1 0 0
19.340600 -5.908887 -5.286338 20.902610 -0.296511 1.826476 0.118442 -0.007954 -63524.400000 1 0 0
17.860100 -9.994287 -0.745138 20.479848 -0.510174 1.607188 0.060961 -0.010605 267875.000000 1 0 0
17.667400 -8.771187 8.680662 21.550513 -0.460813 1.156217 0.143680 -0.027256 25510.100000 1 0 0
20.020500 0.535713 -2.630638 20.199694 0.026752 1.701399 0.120042 -0.003955 79496.600000 1 0 0
7.309400 -13.214687 11.759762 19.140200 -1.065556 0.909170 0.025223 -0.000975 227826.000000 1 0 0
16.404900 -6.196287 -3.457138 17.873626 -0.361144 1.765444 0.069551 -0.005276 228909.000000 1 0 0
14.552800 -6.784887 12.196462 20.163639 -0.436265 0.921189 0.093121 -0.029444 518623.000000 1 0 0
16.854600 1.120613 9.837062 19.547406 0.066389 1.043451 0.150079 -0.036122 453856.000000 1 0 0
16.554800 -10.220987 2.564462 19.624129 -0.553118 1.439742 0.027536 -0.007778 234890.000000 1 0 0
16.410800 -7.320287 -6.007438 18.947038 -0.419577 1.893429 0.085040 -0.001399 338932.000000 1 0 0
17.806400 -4.143987 5.947262 19.225255 -0.228655 1.256291 0.095443 -0.017673 102389.000000 1 0 0
13.457700 -13.290187 8.069862 20.563594 -0.779136 1.167520 0.074261 -0.021012 138849.000000 1 0 0
15.465300 -14.086287 -1.561938 20.977098 -0.738767 1.645325 0.049474 -0.007760 331067.000000 1 0 0
18.755500 -6.368587 7.894862 21.322676 -0.327343 1.191511 0.160899 -0.029854 276979.000000 1 0 0
19.601100 3.576513 2.554462 20.087803 0.180479 1.443286 0.078220 -0.002948 351620.000000 1 0 0
15.647900 -10.304987 8.186762 20.446823 -0.582365 1.158851 0.096720 -0.039586 81474.200000 1 0 0
14.241100 -4.585187 10.977662 18.556452 -0.311488 0.937777 0.083197 -0.012435 -313374.000000 1 0 0
18.764200 -7.638087 1.651662 20.326425 -0.386575 1.489450 0.089498 -0.021328 68241.900000 1 0 0
19.174300 -5.918787 -1.391438 20.115216 -0.299404 1.640025 0.077344 -0.014341 305240.000000 1 0 0
14.625700 -13.674587 -5.780638 20.840374 -0.751803 1.851859 0.064996 -0.009399 403863.000000 1 0 0
13.976400 -9.583987 10.254462 19.807739 -0.601082 1.026636 0.065098 -0.020960 472167.000000 1 0 0
14.224000 2.360413 0.550762 14.429035 0.164447 1.532617 0.003219 -0.000636 -173186.000000 1 0 0
13.149800 2.206613 13.602262 19.047517 0.166257 0.775426 0.080132 -0.009706 33933.800000 1 0 0
18.106600 -3.761187 9.365362 20.729339 -0.204812 1.102023 0.126189 -0.019134 208517.000000 1 0 0
6.905100 -17.823687 4.954562 19.746187 -1.201189 1.317174 0.066107 -0.035315 390435.000000 1 0 0
13.167800 -2.435587 15.108062 20.188525 -0.182898 0.725227 0.096016 -0.011684 373179.000000 1 0 0
11.485400 -13.655087 -6.900138 19.130805 -0.871487 1.939795 0.034462 -0.007118 204294.000000 1 0 0
10.764400 -17.712987 4.290662 21.166766 -1.024725 1.366674 0.081122 -0.026145 598488.000000 1 0 0
18.509100 -0.194287 -5.067438 19.191234 -0.010496 1.838015 0.106898 -0.009065 334615.000000 1 0 0
4.214200 -13.409287 11.409762 18.103898 -1.266295 0.888937 0.005630 -0.013085 -22625.600000 1 0 0
9.592400 -2.764587 14.478662 17.586606 -0.280602 0.603635 0.062922 -0.015701 467917.000000 1 0 0
9.009200 -9.256787 13.817462 18.914968 -0.798952 0.751737 0.046800 -0.019456 415476.000000 1 0 0
20.866700 5.559313 -3.246538 21.837242 0.260372 1.720019 0.144962 -0.012922 444283.000000 1 0 0
14.897400 -13.374687 1.826462 20.103500 -0.731591 1.479818 0.043111 -0.010072 222995.000000 1 0 0
11.490800 -0.132687 15.195562 19.051540 -0.011547 0.647486 0.075147 -0.017356 40411.100000 1 0 0
19.711200 -0.055187 7.845762 21.215334 -0.002800 1.191986 0.159800 -0.024175 137211.000000 1 0 0
20.073400 1.478813 -0.184838 20.128647 0.073537 1.579979 0.110715 -0.004668 159278.000000 1 0 0
17.942900 0.336813 2.952862 18.187372 0.018769 1.407717 0.058952 -0.002627 -110985.000000 1 0 0
10.297400 -8.341487 16.332662 21.032657 -0.680844 0.681644 0.069188 -0.016175 165550.000000 1 0 0
19.558800 2.616813 5.311362 20.435384 0.133002 1.307867 0.108976 -0.010332 154453.000000 1 0 0
15.530300 2.595613 6.910262 17.195323 0.165602 1.157240 0.067014 -0.008995 34769.100000 1 0 0
11.581900 -16.064287 1.903162 19.895319 -0.946133 1.474991 0.048001 -0.006158 264270.000000 1 0 0
8.953900 -16.162387 7.059462 19.779562 -1.064890 1.205842 0.059115 -0.004716 243454.000000 1 0 0
6.129200 6.634513 7.166862 11.530298 0.824967 0.900054 0.007290 0.000788 -1262940.000000 1 0 0
18.383900 2.945913 -6.289838 19.652182 0.158893 1.896587 0.074576 -0.005896 331589.000000 1 0 0
14.324400 4.368313 -7.127138 16.585135 0.295997 2.014991 0.016444 -0.006283 350016.000000 1 0 0
-10.817800 -4.079587 -13.701038 17.927250 0.360626 2.440686 0.035580 -0.007055 -556643.000000 1 0 0
7.673000 -14.027687 -10.353338 19.048426 -1.070267 2.145430 0.017395 -0.002293 108836.000000 1 0 0
1.955200 -15.891287 13.650162 21.040027 -1.448376 0.864828 0.008259 -0.019307 381549.000000 1 0 0
-9.415200 -8.134187 2.420462 12.675552 0.712533 1.378661 0.007379 -0.000700 485217.000000 1 0 0
-14.029200 2.964613 -10.223838 17.610629 -0.208254 2.190199 0.024027 0.001334 192971.000000 1 0 0
-13.213000 -5.247687 -13.455338 19.574670 0.378056 2.328679 0.055424 0.006037 125650.000000 1 0 0
-18.048300 -1.250687 -8.529538 20.001460 0.069186 2.011356 0.069186 -0.027960 566024.000000 1 0 0
-12.817700 14.336013 4.626662 19.779300 -0.841255 1.334695 0.040041 -0.041936 273684.000000 1 0 0
-17.411800 6.427413 9.236262 20.731400 -0.353624 1.109041 0.052337 -0.023492 83177.600000 1 0 0
-13.783000 15.488113 -0.153638 20.733460 -0.843585 1.578207 0.049253 -0.027405 153697.000000 1 0 0
-16.124900 5.294313 -10.711538 20.069360 -0.317242 2.133797 0.040932 -0.005612 -6024.420000 1 0 0
-18.343500 2.987913 -0.147238 18.585836 -0.161469 1.578718 0.075799 -0.005605 -356580.000000 1 0 0
-9.995900 15.414413 -0.291238 18.374084 -0.995492 1.586647 0.025062 -0.012358 4910.530000 1 0 0
-18.647600 12.116613 3.086462 22.451538 -0.576212 1.432887 0.151934 -0.037782 30786.200000 1 0 0
-8.991700 15.658813 -7.650938 19.610863 -1.049544 1.971578 0.069263 -0.043218 126959.000000 1 0 0
-14.946300 -1.826087 -12.983738 19.882252 0.121574 2.282377 0.039869 -0.022486 187823.000000 1 0 0
-19.104400 4.560413 -5.044138 20.278531 -0.234325 1.822178 0.089873 -0.008754 20141.900000 1 0 0
-16.825200 9.616713 -5.816138 20.233537 -0.519250 1.862360 0.043073 0.012078 -73488.600000 1 0 0
-19.101000 1.190513 2.522662 19.303610 -0.062247 1.439738 0.084554 -0.020550 416065.000000 1 0 0
-14.862600 11.254413 -7.726438 20.180598 -0.648113 1.963692 0.049564 -0.012463 -130717.000000 1 0 0
-12.773000 4.737813 -13.634038 19.273905 -0.355192 2.356586 0.034032 -0.016152 -68976.600000 1 0 0
-14.225100 9.400013 -6.561238 18.269197 -0.583933 1.938145 0.021445 0.001131 4865.900000 1 0 0
-6.402900 12.308813 -15.143738 20.538667 -1.091129 2.399903 0.035480 -0.010053 -88852.400000 1 0 0
-15.183000 13.876713 3.044362 20.793143 -0.740477 1.423856 0.043652 -0.032810 14940.700000 1 0 0
-18.863900 8.289913 -4.460538 21.082357 -0.414054 1.783984 0.089140 -0.008839 244638.000000 1 0 0
-4.907300 16.406513 -11.340238 20.539140 -1.280159 2.155711 0.029376 -0.003785 43914.700000 1 0 0
-19.454800 -2.357887 -6.479638 20.640606 0.120610 1.890122 0.044878 -0.014829 -49168.300000 1 0 0
-12.262300 13.289113 -6.475938 19.206830 -0.825563 1.914704 0.060062 -0.021857 63380.700000 1 0 0
-19.486400 3.148113 4.523762 20.250798 -0.160170 1.345509 0.094638 -0.019271 18028.600000 1 0 0
-14.998700 12.225413 0.458362 19.355408 -0.683880 1.547113 0.013404 -0.021468 43138.800000 1 0 0
-17.340200 2.688313 -7.974738 19.274492 -0.153809 1.997361 0.028308 -0.014877 101673.000000 1 0 0
-16.742700 14.070313 -3.800838 22.197705 -0.698885 1.742871 0.054697 0.036433 310851.000000 1 0 0
-10.838700 15.386713 -9.257538 20.974517 -0.957110 2.027922 0.047835 -0.014951 67396.300000 1 0 0
-19.163800 1.743713 -6.956038 20.461629 -0.090740 1.917666 0.065347 -0.017420 119428.000000 1 0 0
-16.911700 10.543213 -0.262338 19.930724 -0.557467 1.583959 0.028448 -0.004428 5526.940000 1 0 0
-11.523400 6.436313 -14.768738 19.807335 -0.509378 2.412261 0.025773 -0.014689 349113.000000 1 0 0
-13.948500 12.106613 -5.032838 19.143150 -0.714824 1.836829 0.040541 -0.015572 283755.000000 1 0 0
-18.981600 7.542313 0.227262 20.426436 -0.378219 1.559670 0.094378 -0.012293 114147.000000 1 0 0
-14.576400 8.654513 -10.739538 20.067629 -0.535800 2.135502 0.020381 0.007748 272135.000000 1 0 0
-18.491100 11.112413 5.271462 22.207990 -0.541125 1.331141 0.085185 -0.047521 11301.800000 1 0 0
-8.253100 11.581413 -13.723738 19.763193 -0.951653 2.338395 0.016180 -0.027443 292552.000000 1 0 0
-21.084600 -0.605687 -5.502038 21.799075 0.028719 1.825954 0.080052 -0.014668 191717.000000 1 0 0
-10.755500 13.550313 -3.972238 17.750224 -0.899881 1.796493 0.022118 0.003107 302750.000000 1 0 0
-18.471800 -5.166887 3.672762 19.529293 0.272747 1.381605 0.031603 -0.006310 -170643.000000 1 0 0
-11.564000 11.453613 -12.889238 20.761595 -0.780602 2.240586 0.050965 -0.024161 172749.000000 1 0 0
-14.975500 11.747213 -10.439038 21.707974 -0.665174 2.072460 0.048002 0.001173 204802.000000 1 0 0
-12.831100 9.747013 -13.981138 21.333392 -0.649642 2.285461 0.066631 -0.021894 243240.000000 1 0 0
-18.090800 -5.251387 -3.114138 19.093244 0.282515 1.734630 -0.010278 -0.004517 -365024.000000 1 0 0
-9.359700 12.470113 -11.685838 19.485033 -0.926930 2.213965 0.031922 -0.018587 -99234.600000 1 0 0
-15.459500 7.728813 -8.173938 19.119204 -0.463599 2.012550 0.007525 0.005579 19679.900000 1 0 0
-14.723600 8.983313 2.064362 17.370835 -0.547835 1.451674 0.018569 -0.005297 -63417.300000 1 0 0
-19.647400 6.186813 8.017862 22.103916 -0.305063 1.199595 0.089125 -0.029354 212422.000000 1 0 0
-18.974100 6.095313 3.644062 20.259529 -0.310831 1.389943 0.061459 -0.009919 199244.000000 1 0 0
-14.785700 12.752613 5.880062 20.391694 -0.711704 1.278287 0.035549 -0.028477 107003.000000 1 0 0
18.477100 6.369913 6.426362 20.573700 0.331987 1.253122 0.073305 -0.008922 135201.000000 1 0 0
18.279800 8.058413 0.460162 19.982514 0.415208 1.547766 0.037949 -0.000859 54855.000000 1 0 0
15.903900 5.341513 9.054262 19.064245 0.324024 1.075907 0.048690 0.007971 -41314.500000 1 0 0
12.369300 13.097513 10.430462 20.816795 0.813985 1.045973 0.065053 -0.016563 136233.000000 1 0 0
15.758100 12.432713 3.939862 20.455136 0.667981 1.376975 0.066758 -0.018326 241788.000000 1 0 0
5.447000 10.653813 14.307062 18.651154 1.098172 0.696508 0.037691 -0.009650 214909.000000 1 0 0
12.183300 14.491013 -5.157838 19.622068 0.871698 1.836781 0.070880 0.015979 225336.000000 1 0 0
18.136000 9.314913 -2.583938 20.551371 0.474480 1.696861 0.052414 -0.021941 -87556.200000 1 0 0
14.751100 7.742313 9.547162 19.201215 0.483340 1.050409 0.059863 -0.008268 180682.000000 1 0 0
4.630600 19.085913 -1.865038 19.727973 1.332777 1.665475 0.034249 -0.027877 598508.000000 1 0 0
-4.714400 18.844013 3.318362 19.706190 -1.325648 1.401598 0.012507 -0.024213 279325.000000 1 0 0
8.182700 12.816413 12.468562 19.664233 1.002580 0.883987 0.077926 -0.004857 15273.400000 1 0 0
-0.140400 17.122313 -10.175638 19.918256 -1.562597 2.106993 0.025428 0.002516 18844.700000 1 0 0
10.732300 9.415013 15.625062 21.165238 0.720108 0.740336 0.064758 -0.017790 131069.000000 1 0 0
-1.475100 12.259913 0.222162 12.350334 -1.451053 1.552807 0.000227 0.006232 370275.000000 1 0 0
-4.927300 19.185513 -2.841038 20.010840 -1.319405 1.713253 0.027022 0.002459 164735.000000 1 0 0
6.041600 18.248813 6.473762 20.283730 1.251086 1.245953 0.042944 -0.020622 202802.000000 1 0 0
11.330300 17.107613 -1.609538 20.582438 0.985826 1.649076 0.092906 -0.014743 490783.000000 1 0 0
18.715800 10.166413 3.191262 21.536510 0.497607 1.422069 0.067996 -0.017714 343945.000000 1 0 0
11.603800 16.729513 6.179062 21.276879 0.964370 1.276139 0.059257 -0.014708 -236809.000000 1 0 0
17.911600 8.012613 -6.333438 20.618919 0.420641 1.883010 0.033615 0.007489 396375.000000 1 0 0
0.468400 15.811913 11.019262 19.278489 1.541182 0.962362 0.014828 0.002888 384923.000000 1 0 0
1.390000 20.274613 -1.514338 20.378549 1.502345 1.645175 0.036917 -0.021204 217934.000000 1 0 0
14.249400 9.735613 -1.175838 17.297692 0.599382 1.638825 0.034568 -0.013403 13411.800000 1 0 0
10.166500 17.083713 1.679362 19.950720 1.033988 1.486521 0.062560 -0.025492 286203.000000 1 0 0
0.120700 17.903813 -0.513638 17.911586 1.564055 1.599477 0.015614 -0.004495 117515.000000 1 0 0
-0.482400 21.016213 1.292762 21.061461 -1.547847 1.509377 0.022110 -0.018188 296674.000000 1 0 0
5.506700 17.734413 -0.165438 18.570421 1.269726 1.579705 0.022014 -0.020599 -19803.000000 1 0 0
6.706500 18.593813 -2.920738 19.980934 1.224635 1.717498 0.045740 -0.025689 -56421.400000 1 0 0
10.291400 9.477313 12.681762 18.882782 0.744241 0.834424 0.039392 -0.006059 173325.000000 1 0 0
12.883800 14.732513 8.044862 21.160318 0.852241 1.180799 0.074796 -0.027930 213420.000000 1 0 0
0.099900 17.683913 7.147662 19.074062 1.565147 1.186689 0.018324 0.003274 271595.000000 1 0 0
6.852500 18.008713 -7.795938 20.785744 1.207204 1.955260 0.048798 -0.012658 32067.500000 1 0 0
-1.957000 18.418713 9.050462 20.615278 -1.464943 1.116292 0.065941 -0.013248 161072.000000 1 0 0
15.864400 6.779713 -8.089038 19.054559 0.403863 2.009228 0.045402 -0.003661 -267837.000000 1 0 0
-5.529900 19.516213 -6.622138 21.338114 -1.294685 1.886350 0.035456 -0.016894 304394.000000 1 0 0
4.203900 15.227113 10.023962 18.708756 1.301426 1.005353 0.024884 -0.011255 121790.000000 1 0 0
8.793400 14.830613 7.318962 18.730674 1.035597 1.169353 0.027877 -0.012829 72339.300000 1 0 0
-3.011200 19.815613 6.368162 21.030438 -1.419989 1.263160 0.023674 0.000731 130151.000000 1 0 0
4.588400 17.894213 8.448862 20.313531 1.319786 1.141839 0.030942 -0.006714 41071.200000 1 0 0
14.841800 12.090913 -6.108538 20.094363 0.683612 1.879677 0.084820 -0.023979 155853.000000 1 0 0
11.960200 6.959313 15.655762 20.894528 0.526984 0.723829 0.084292 -0.015470 342211.000000 1 0 0
17.095900 9.218313 5.052962 20.069367 0.494523 1.316283 0.055832 -0.018329 25714.100000 1 0 0
5.408300 14.435513 12.763262 20.013360 1.212330 0.879240 0.032755 -0.021870 358665.000000 1 0 0
15.802900 10.344913 -3.608638 19.229434 0.579617 1.759578 0.062832 -0.036125 264942.000000 1 0 0
15.607600 13.589813 6.069562 21.566636 0.716399 1.285509 0.082885 -0.024723 313775.000000 1 0 0
12.617500 14.276313 -8.206538 20.745161 0.847000 1.977504 0.150619 -0.040859 575282.000000 1 0 0
-8.668400 15.465513 9.551962 20.138601 -1.059928 1.076615 0.051343 -0.027853 169238.000000 1 0 0
-3.921800 17.637813 -7.970038 19.748278 -1.352004 1.986224 0.013008 0.031818 64628.900000 1 0 0
2.188100 19.125113 -4.711038 19.817962 1.456882 1.810810 0.040097 -0.041383 79634.500000 1 0 0
7.054100 17.014713 8.657562 20.352252 1.177777 1.131408 0.045135 0.003193 395497.000000 1 0 0
13.354200 15.380413 -1.612738 20.432638 0.855796 1.649808 0.114505 -0.022198 220095.000000 1 0 0
13.292900 15.947313 4.545462 21.252746 0.875930 1.355255 0.087901 -0.036318 171465.000000 1 0 0
2.157200 18.250913 0.712262 18.391755 1.453145 1.532059 0.020460 -0.030159 -76912.600000 1 0 0
-7.656300 17.349213 1.081162 18.994290 -1.155196 1.513845 0.017357 0.000922 260544.000000 1 0 0
-0.081800 20.067513 -5.780738 20.883695 -1.566720 1.851265 0.053034 -0.004674 304928.000000 1 0 0
-7.519800 17.898713 -6.591938 20.502804 -1.173057 1.898124 0.049577 -0.018451 52840.900000 1 0 0
-7.476000 18.523413 -1.336838 20.019854 -1.187193 1.637622 0.047800 -0.007451 103696.000000 1 0 0
-14.600800 -8.898487 8.506562 19.097854 0.547341 1.109153 0.060661 -0.027739 438646.000000 1 0 0
-13.088700 -13.719187 7.666462 20.452501 0.808913 1.186570 0.039030 -0.005398 -29424.700000 1 0 0
-3.469600 -15.529987 13.045462 20.576751 1.350993 0.884094 0.020641 -0.005729 152116.000000 1 0 0
-1.844700 -14.968987 15.387762 21.546617 1.448180 0.775371 0.019254 -0.008937 412559.000000 1 0 0
-6.834900 -14.021887 13.510262 20.636287 1.117243 0.857031 0.011154 -0.004133 173014.000000 1 0 0
-9.964900 -10.440987 11.860662 18.681240 0.808725 0.882921 0.054569 -0.027414 -67832.800000 1 0 0
-7.469000 -10.359987 13.153762 18.334032 0.946150 0.770661 0.036202 -0.014913 309526.000000 1 0 0
-14.854800 -11.541487 8.355262 20.583523 0.660529 1.152811 0.043800 0.008866 279083.000000 1 0 0
-4.565100 -12.183787 13.180662 18.520655 1.212301 0.778919 0.026288 -0.025546 353342.000000 1 0 0
3.640300 -12.602187 13.845262 19.072445 -1.289588 0.758411 0.001792 -0.000305 481648.000000 1 0 0
6.431800 -13.578087 14.474562 20.862536 -1.128418 0.804035 0.027472 -0.008664 270020.000000 1 0 0
7.406600 -8.017687 16.602762 19.869391 -0.824996 0.581582 0.057833 -0.019517 403598.000000 1 0 0
-5.152400 13.606413 13.550362 19.882002 -1.208808 0.820933 0.018642 -0.010948 405236.000000 1 0 0
-13.598300 -1.792587 17.437562 22.185484 0.131069 0.666501 0.069218 -0.020511 280590.000000 1 0 0
-10.356700 11.057313 13.842362 20.521608 -0.818104 0.830474 0.017233 0.030781 423814.000000 1 0 0
-7.495700 -8.172887 17.221662 20.483340 0.828591 0.572103 0.049828 -0.025621 134547.000000 1 0 0
-4.979100 1.892213 18.481862 19.234113 -0.363174 0.280599 0.020311 -0.007568 618109.000000 1 0 0
-15.492000 -3.471887 14.794062 21.700699 0.220466 0.820669 0.075037 -0.032414 110941.000000 1 0 0
-14.494200 3.210213 12.781462 19.589616 -0.217964 0.859969 0.027152 -0.000365 357820.000000 1 0 0
-13.763200 10.798713 10.140462 20.220456 -0.665285 1.045470 -0.037905 0.009780 -83505.000000 1 0 0
-4.747800 11.490913 15.513062 19.880588 -1.178981 0.675632 0.033506 -0.010542 240809.000000 1 0 0
-13.497300 12.587813 7.849362 20.055988 -0.750546 1.168674 0.032028 -0.047579 88297.500000 1 0 0
-3.944400 -6.344787 18.607362 20.051148 1.014591 0.381802 0.035013 -0.022069 270909.000000 1 0 0
0.336300 -2.732987 17.938662 18.148771 -1.448360 0.152312 0.012724 -0.025507 -170835.000000 1 0 0
-4.708800 6.420713 20.834762 22.304386 -0.938019 0.365037 0.044227 -0.019948 399020.000000 1 0 0
2.060200 -10.606187 16.541462 19.757418 -1.378940 0.578602 0.002770 -0.003714 348130.000000 1 0 0
-14.906600 -0.207187 13.645962 20.210441 0.013898 0.829569 0.026434 -0.015283 142622.000000 1 0 0
-14.101000 -6.218087 8.848762 17.770858 0.415317 1.049578 0.042310 -0.001351 178451.000000 1 0 0
9.922100 2.049013 16.670262 19.507541 0.203647 0.546103 0.063121 -0.010999 388033.000000 1 0 0
-7.688100 12.448413 11.750462 18.765480 -1.017538 0.894160 0.026635 -0.021134 138150.000000 1 0 0
-1.643500 7.599513 19.783462 21.256506 -1.357812 0.374470 0.034308 -0.024098 525786.000000 1 0 0
1.130800 -13.814387 15.599562 20.867734 -1.489122 0.726439 -0.012488 -0.002184 564437.000000 1 0 0
-2.888000 -11.203487 17.939962 21.347152 1.318512 0.572791 0.033122 -0.025673 406043.000000 1 0 0
-2.528200 8.789013 16.737162 19.072785 -1.290704 0.500086 0.026216 -0.016019 559097.000000 1 0 0
-4.998000 -9.280587 20.396662 22.959379 1.076791 0.476991 0.093810 -0.039057 164732.000000 1 0 0
-6.617800 -2.782687 19.191062 20.489887 0.398040 0.357966 0.032721 -0.023472 56125.200000 1 0 0
-10.729000 -7.997087 16.100762 20.935601 0.640532 0.693425 0.079081 -0.037804 128815.000000 1 0 0
-0.552800 6.273013 17.733462 18.818394 -1.482900 0.341220 0.019429 -0.019349 -71495.800000 1 0 0
-6.210700 -11.031887 18.755762 22.628608 1.058044 0.593744 0.088708 -0.036658 531294.000000 1 0 0
0.201600 3.366013 18.751162 19.051949 1.510975 0.177929 0.015539 -0.016035 95338.500000 1 0 0
-18.653500 -0.280187 7.482762 20.100331 0.015019 1.189342 0.086501 -0.026496 221051.000000 1 0 0
-1.467000 -8.310187 17.473362 19.404372 1.396066 0.449911 0.024933 -0.021312 273597.000000 1 0 0
5.068900 3.009713 14.148162 15.327185 0.535819 0.394793 0.036072 -0.021203 -497742.000000 1 0 0
-14.694400 -7.721387 10.860062 19.836485 0.483811 0.991448 0.099587 0.005952 137304.000000 1 0 0
3.623400 8.171513 16.665762 18.911644 1.153429 0.492310 0.033678 -0.026995 258847.000000 1 0 0
6.168000 4.245813 16.750362 18.347909 0.602872 0.420389 0.061954 -0.062100 142274.000000 1 0 0
6.017300 -9.468387 18.092662 21.288557 -1.004672 0.555044 0.048481 0.002847 288123.000000 1 0 0
-4.498100 -0.701787 20.061962 20.572013 0.154771 0.223144 0.031715 -0.013020 763308.000000 1 0 0
-11.020800 2.378213 16.575362 20.046360 -0.212534 0.597310 0.032673 -0.025307 2599.860000 1 0 0
-16.816200 -3.990887 8.964362 19.469760 0.233013 1.092323 0.069317 -0.018007 312706.000000 1 0 0
-13.256700 -8.717087 13.812462 21.035964 0.581672 0.854479 0.074524 -0.042486 126115.000000 1 0 0
-14.761000 6.315413 13.068762 20.701790 -0.404278 0.887585 0.043152 -0.017893 363509.000000 1 0 0
1.211900 9.212113 17.008162 19.380642 1.439992 0.499995 0.023212 -0.029772 87005.000000 1 0 0
-3.829300 -10.450187 14.873462 18.576593 1.219557 0.642407 0.023686 -0.021183 557710.000000 1 0 0
-18.891900 -3.069087 6.570162 20.235865 0.161048 1.240124 0.148559 -0.024381 -289341.000000 1 0 0
-0.505200 -0.506987 20.729162 20.741514 0.787163 0.034514 0.034370 -0.031146 366659.000000 1 0 0
-1.790500 2.324713 20.284562 20.495698 -0.914490 0.143661 0.028226 -0.019825 106068.000000 1 0 0
-8.223800 1.963213 16.211062 18.283425 -0.234338 0.480739 0.006379 0.002959 411329.000000 1 0 0
2.613900 -2.235487 18.801362 19.113374 -0.707523 0.180936 0.020208 -0.019781 -72425.400000 1 0 0
-12.473000 4.528613 13.963562 19.263051 -0.348274 0.759924 0.007065 -0.015021 214664.000000 1 0 0
-13.747400 -5.479287 13.009262 19.704174 0.379272 0.849673 0.075783 -0.029668 45290.900000 1 0 0
-16.642800 -0.825787 10.775462 19.843772 0.049578 0.996773 0.038288 -0.009356 177457.000000 1 0 0
-7.293900 7.937213 14.501162 18.068869 -0.827610 0.639240 0.004847 -0.009829 5055.570000 1 0 0
-9.782500 0.801313 13.860462 16.983869 -0.081730 0.616174 0.021582 -0.010113 202879.000000 1 0 0
8.169500 -0.885187 14.924662 17.037306 -0.107932 0.503293 0.062507 -0.022213 -12673.600000 1 0 0
3.799200 6.318113 18.567062 19.977193 1.029408 0.377977 0.023670 -0.018842 -99955.700000 1 0 0
2.134600 0.609813 19.879862 20.003432 0.278268 0.111210 0.032647 -0.020734 243922.000000 1 0 0
-7.049400 6.687713 17.361362 19.895639 -0.759075 0.510252 0.006407 -0.015152 537535.000000 1 0 0
7.536200 -2.943187 16.905662 18.741880 -0.372325 0.446356 0.047133 -0.011808 339810.000000 1 0 0
-16.299400 2.470513 9.176062 18.867273 -0.150426 1.062891 0.044262 -0.019163 51669.100000 1 0 0
4.212100 -4.997087 19.005962 20.098240 -0.870432 0.331199 0.059758 -0.034670 31599.300000 1 0 0
-3.520200 -3.602887 20.810162 21.411105 0.797006 0.237483 0.030114 -0.021650 382567.000000 1 0 0
-9.480100 6.048213 14.582662 18.414864 -0.567886 0.656888 -0.001844 -0.004240 -154743.000000 1 0 0
6.722000 3.111413 19.776562 21.118205 0.433505 0.358370 0.094694 -0.042283 111233.000000 1 0 0
-7.789400 11.743313 14.337362 20.103236 -0.985125 0.776762 0.049698 -0.024966 225429.000000 1 0 0
-14.484800 4.780713 9.291762 17.860613 -0.318793 1.023667 0.015517 -0.015937 267845.000000 1 0 0
1.423300 -5.017487 20.193162 20.855808 -1.294390 0.252755 0.056706 -0.034686 252383.000000 1 0 0
-6.383600 -8.351787 13.769262 17.323258 0.918181 0.652048 0.024293 -0.006963 343457.000000 1 0 0
-12.971300 10.125613 6.410062 17.659886 -0.662810 1.199340 -0.004500 -0.026353 113028.000000 1 0 0
-19.448000 2.081713 7.830562 21.068364 -0.106634 1.189985 0.064906 -0.036432 -35166.500000 1 0 0
-15.721600 8.987513 6.700062 19.308934 -0.519326 1.216434 0.019821 -0.020502 6548.450000 1 0 0
-11.900200 8.253513 13.704762 19.938800 -0.606391 0.812974 -0.014874 -0.019002 174148.000000 1 0 0
-16.550100 8.966013 10.354262 21.482689 -0.496487 1.067881 0.061365 -0.030363 107799.000000 1 0 0
2.179800 10.575013 14.127462 17.781102 1.367516 0.652578 0.028821 -0.066934 273155.000000 1 0 0
1.547400 14.650313 13.326062 19.864794 1.465564 0.835458 0.028248 -0.023432 727508.000000 1 0 0
8.517300 5.214913 16.686862 19.447135 0.549395 0.539311 0.054530 -0.014623 36095.500000 1 0 0
-0.699900 13.470313 13.031062 18.754940 -1.518884 0.802645 0.021308 -0.010152 111594.000000 1 0 0
3.807100 12.522913 14.754062 19.723075 1.275664 0.725661 0.039169 -0.018394 64242.400000 1 0 0
-3.540200 -4.632187 -13.581338 14.779815 0.918230 2.736108 0.003598 -0.010374 214348.000000 1 0 0
5.152900 -11.694287 16.732762 21.054549 -1.155758 0.652227 -0.013700 0.003218 353937.000000 1 0 0
8.606400 -13.703187 7.567062 17.863591 -1.010001 1.133378 0.024265 -0.000803 -244114.000000 1 0 0
-0.669900 15.063313 0.389962 15.083244 -1.526353 1.544939 0.008524 -0.002944 -263730.000000 1 0 0
-14.180600 7.667513 8.618162 18.279849 -0.495678 1.079854 0.010761 -0.009975 76784.200000 1 0 0
-16.075800 -9.745187 4.507562 19.331791 0.544968 1.335462 0.033076 -0.006761 256187.000000 1 0 0
9.316500 -10.472487 11.589662 18.187644 -0.843748 0.879901 0.029451 0.000970 98630.800000 1 0 0
-26.504960 5.952913 30.969150 41.195126 -0.220930 0.720058 0.072730 -0.030626 29021.000000 0 0 1
-25.325840 5.255813 30.614570 40.078344 -0.204623 0.701511 0.068592 -0.030236 -580225.000000 0 0 1
-24.368100 5.301313 31.589048 40.246443 -0.214214 0.668277 0.053075 -0.014607 678857.000000 0 0 1
-23.006600 4.611213 31.094020 38.953884 -0.197809 0.646451 0.054941 -0.021661 1032650.000000 0 0 1
-22.976900 3.195713 31.126320 38.820077 -0.138197 0.640479 0.034077 -0.025356 97214.400000 0 0 1
-21.639300 2.758513 30.952430 37.867158 -0.126793 0.613922 0.050767 -0.021871 263251.000000 0 0 1
-21.218900 1.570513 31.810386 38.270209 -0.073880 0.589525 0.044351 -0.021861 -87510.600000 0 0 1
-21.822300 0.336213 31.464019 38.292432 -0.015406 0.606449 0.042033 -0.015329 153834.000000 0 0 1
-21.717300 -0.518787 32.541361 39.126084 0.023884 0.588625 0.028814 -0.012931 -92213.500000 0 0 1
-22.506700 -1.834787 32.328226 39.433897 0.081342 0.609721 0.040224 -0.030034 -538074.000000 0 0 1
-22.018700 -2.657387 31.264420 38.332086 0.120107 0.616996 0.088839 -0.039809 135699.000000 0 0 1
-22.203900 -4.044787 31.449768 38.709965 0.180190 0.622461 0.092898 -0.039360 -432942.000000 0 0 1
-23.662000 -4.542287 31.323830 39.518413 0.189658 0.655671 0.072265 -0.024254 351417.000000 0 0 1
-24.591700 -4.023987 32.292851 40.789366 0.162194 0.657213 0.058691 -0.018894 299946.000000 0 0 1
-24.483000 -4.565187 33.596300 41.820684 0.184346 0.637911 0.051987 -0.020130 151577.000000 0 0 1
-25.644160 -3.879087 -33.034308 41.999236 0.150128 2.475991 0.060545 -0.014380 840647.000000 0 0 1
-25.717620 -4.494187 -31.789218 41.135728 0.173004 2.454020 0.069996 -0.028888 -1625.990000 0 0 1
-26.907600 -4.096887 -31.152808 41.367873 0.151097 2.423509 0.084357 -0.024488 -186482.000000 0 0 1
-27.034320 -4.602687 -29.698968 40.423606 0.168636 2.396011 0.076786 -0.026223 -380624.000000 0 0 1
-27.264620 -5.961987 -29.771888 40.807722 0.215282 2.388482 0.077097 -0.022636 412809.000000 0 0 1
-27.054760 -6.658187 -28.584538 39.917006 0.241305 2.368994 0.068562 -0.021957 -276771.000000 0 0 1
-27.171480 -8.192087 -28.562808 40.264546 0.292829 2.359413 0.071582 -0.017564 -35034.000000 0 0 1
-28.536410 -8.561387 -28.624838 41.315922 0.291472 2.336200 0.087247 -0.016539 11508.700000 0 0 1
-28.803860 -9.791187 -28.024648 41.363155 0.327672 2.315191 0.081328 -0.015808 -581544.000000 0 0 1
-30.244860 -10.153587 -27.724288 42.266808 0.323891 2.286217 0.120599 -0.019008 -461022.000000 0 0 1
-30.395440 -11.092987 -26.687168 41.942128 0.349936 2.260470 0.135815 -0.023707 -166961.000000 0 0 1
-31.762680 -11.220187 -26.352548 42.769349 0.339568 2.234648 0.132536 -0.030381 -42942.400000 0 0 1
-32.030010 -11.818687 -24.977338 42.302132 0.353489 2.202414 0.135459 -0.022150 -170247.000000 0 0 1
-31.360680 -11.100087 -23.971238 41.003957 0.340189 2.195193 0.151272 -0.020233 185895.000000 0 0 1
-31.503930 -11.736887 -22.660438 40.543157 0.356624 2.163881 0.163933 -0.028020 44621.900000 0 0 1
-30.708250 -10.986887 -21.521438 39.075320 0.343591 2.154081 0.170157 -0.030901 210579.000000 0 0 1
-30.623600 -11.488287 -20.213838 38.449771 0.358898 2.124358 0.185798 -0.031129 -112308.000000 0 0 1
-29.786210 -12.606487 -20.039938 38.049191 0.400372 2.125492 0.163784 -0.036163 -209438.000000 0 0 1
-29.440740 -12.861987 -18.550838 37.098807 0.411888 2.094440 0.149405 -0.048780 73613.700000 0 0 1
-28.657970 -11.814987 -18.022838 35.856602 0.391044 2.097442 0.138538 -0.052501 74210.900000 0 0 1
-28.334520 -11.975387 -16.687838 34.996269 0.399873 2.067860 0.129941 -0.054144 -33012.200000 0 0 1
-27.838780 -10.690787 -15.924938 33.806719 0.366659 2.061287 0.126390 -0.047334 -414842.000000 0 0 1
-26.524910 -10.318187 -16.266738 32.781742 0.370988 2.090028 0.108293 -0.051958 75888.900000 0 0 1
-26.210560 -9.135487 -15.605638 31.843155 0.335376 2.082976 0.096129 -0.047757 -413077.000000 0 0 1
-24.724000 -8.756787 -15.585138 30.509901 0.340395 2.106937 0.101764 -0.046122 -330726.000000 0 0 1
-24.017500 -9.216087 -14.462638 29.511769 0.366397 2.082959 0.100776 -0.044357 340663.000000 0 0 1
-22.704700 -8.653287 -14.517638 28.304498 0.364128 2.109367 0.135746 -0.061441 170216.000000 0 0 1
-21.818100 -8.981187 -13.298638 27.084036 0.390500 2.084050 0.126387 -0.039686 -203431.000000 0 0 1
-21.043300 -10.121987 -13.665038 27.055653 0.448339 2.100261 0.112507 -0.030537 -68846.400000 0 0 1
-19.890900 -10.273687 -12.889638 25.832912 0.476762 2.093197 0.134977 -0.032831 -625790.000000 0 0 1
-19.019300 -11.413687 -13.392838 25.910889 0.540501 2.113999 0.126422 -0.023411 123648.000000 0 0 1
-18.098700 -11.073187 -14.444038 25.667268 0.549067 2.168495 0.146920 -0.025437 562778.000000 0 0 1
-18.753900 -10.962287 -15.691138 26.797245 0.528970 2.196355 0.124084 -0.039140 -924957.000000 0 0 1
-17.901700 -10.899487 -16.908538 26.928950 0.546903 2.249641 0.127065 -0.040275 -728474.000000 0 0 1
-18.651300 -10.984987 -18.113738 28.224962 0.532267 2.267591 0.084521 -0.021493 628845.000000 0 0 1
-18.010600 -10.320487 -19.201038 28.276740 0.520347 2.317250 0.089738 -0.031366 63664.000000 0 0 1
-18.832300 -10.615687 -20.487038 29.783671 0.513297 2.329335 0.092239 -0.026669 252821.000000 0 0 1
-20.078500 -9.951687 -20.569038 30.418211 0.460153 2.313400 0.079699 -0.033642 299605.000000 0 0 1
-20.917400 -10.674687 -21.481838 31.826969 0.471874 2.311703 0.075305 -0.016514 576839.000000 0 0 1
-22.148100 -9.798187 -21.878838 32.637806 0.416511 2.305480 0.068738 -0.021000 204001.000000 0 0 1
-21.770000 -8.765687 -22.723938 32.667224 0.382789 2.340077 0.059753 -0.026977 263970.000000 0 0 1
-22.811300 -8.255287 -23.509038 33.781357 0.347232 2.340493 0.067565 -0.027786 13252.600000 0 0 1
-22.091000 -7.488287 -24.657138 33.942027 0.326819 2.383936 0.052829 -0.033919 339552.000000 0 0 1
-21.405900 -8.382087 -25.570168 34.384669 0.373225 2.409310 0.057758 -0.028802 487360.000000 0 0 1
-20.853700 -7.546087 -26.600718 34.632621 0.347200 2.446638 0.044830 -0.032495 -520845.000000 0 0 1
-19.786100 -8.248587 -27.424958 34.808868 0.394980 2.478143 0.061420 -0.036029 -793519.000000 0 0 1
-20.215700 -9.276587 -28.243298 35.950153 0.430214 2.474500 0.063279 -0.030542 -119107.000000 0 0 1
-19.164300 -9.952187 -28.914458 36.088257 0.478975 2.500120 0.041390 -0.025555 -133751.000000 0 0 1
-19.531700 -11.120287 -29.910758 37.413922 0.517574 2.497184 0.054075 -0.018473 -436630.000000 0 0 1
-20.011800 -10.714887 -31.143988 38.538668 0.491587 2.511755 0.062141 -0.015469 160360.000000 0 0 1
-19.900700 -11.820087 -32.060138 39.542443 0.535962 2.516276 0.057908 -0.017515 39251.200000 0 0 1
-20.610400 -11.612987 -33.442128 40.963716 0.513113 2.525918 0.070851 -0.020923 55414.500000 0 0 1
-19.935100 -10.750687 33.140559 40.140779 0.494579 0.599517 0.070154 -0.025427 -32869.900000 0 0 1
-20.431100 -10.730087 31.773286 39.269662 0.483591 0.628169 0.086132 -0.028991 -78660.400000 0 0 1
-19.991000 -11.898287 30.874390 38.657953 0.536869 0.645738 0.103258 -0.029728 379046.000000 0 0 1
-18.600000 -11.726187 30.528180 37.622244 0.562502 0.624185 0.112104 -0.033364 1045830.000000 0 0 1
-18.181100 -12.748387 29.613330 37.013823 0.611523 0.643399 0.114493 -0.032440 -64766.900000 0 0 1
-18.251600 -14.223387 30.000470 37.887384 0.661988 0.656992 0.105924 -0.021695 -641143.000000 0 0 1
-19.497100 -14.917087 29.858470 38.654685 0.653091 0.688120 0.100053 -0.026951 288880.000000 0 0 1
-19.674600 -16.120787 30.504550 39.717720 0.686441 0.695031 0.097503 -0.030034 -199954.000000 0 0 1
-19.829300 -16.056287 32.071885 40.983062 0.680643 0.672022 0.060465 -0.029155 -546250.000000 0 0 1
-18.673400 -15.717787 32.763486 40.855731 0.699668 0.640275 0.078853 -0.024557 -458957.000000 0 0 1
-19.041800 -15.390587 -33.389498 41.404335 0.679753 2.508878 0.059031 -0.020802 -52516.500000 0 0 1
-17.843900 -15.005987 -32.525588 40.018725 0.699222 2.519669 0.060753 -0.020143 -368032.000000 0 0 1
-17.328000 -13.758787 -32.906908 39.653858 0.671084 2.549642 0.054989 -0.012693 -426389.000000 0 0 1
-16.138400 -13.363787 -32.262648 38.469692 0.691626 2.565598 0.056652 -0.012741 76139.700000 0 0 1
-16.169300 -12.949887 -30.782608 37.104108 0.675285 2.549237 0.061380 -0.013154 -327019.000000 0 0 1
-16.566100 -14.045487 -29.988448 37.027266 0.703242 2.514781 0.057908 -0.019264 -283772.000000 0 0 1
-16.986100 -13.691787 -28.706328 36.056149 0.678424 2.491712 0.044575 -0.017795 -62645.000000 0 0 1
-17.274500 -14.950287 -27.892918 36.054602 0.713398 2.455346 0.050520 -0.024336 -189658.000000 0 0 1
-16.182600 -15.709287 -27.473138 35.544783 0.770558 2.454221 0.078869 -0.042722 -605235.000000 0 0 1
-15.560100 -16.559287 -28.397978 36.369931 0.816497 2.466756 0.079915 -0.041059 1406910.000000 0 0 1
-14.132300 -17.108687 -27.874008 35.628492 0.880383 2.469229 0.137141 -0.034243 2127610.000000 0 0 1
-13.008800 -16.268987 -28.190178 35.051319 0.896295 2.505216 0.110467 -0.037449 26035.600000 0 0 1
-11.860800 -16.736587 -27.557158 34.353877 0.954272 2.501693 0.157439 -0.047328 446021.000000 0 0 1
-10.474800 -16.112787 -27.936688 33.908729 0.994356 2.539018 0.139290 -0.054694 902164.000000 0 0 1
-10.214500 -14.838487 -27.442028 32.826538 0.967912 2.560696 0.122376 -0.033432 -439588.000000 0 0 1
-8.892600 -14.490687 -27.766118 32.557882 1.020381 2.592164 0.152863 -0.038690 164338.000000 0 0 1
-8.513700 -12.961887 -27.809768 31.841432 0.989638 2.632902 0.114952 -0.038615 254989.000000 0 0 1
-9.436900 -12.342787 -28.713848 32.647888 0.918037 2.645609 0.147727 -0.041290 335323.000000 0 0 1
-9.095800 -11.048887 -29.148678 32.472403 0.882049 2.685192 0.113535 -0.041018 -270952.000000 0 0 1
-7.864100 -10.738487 -30.040488 32.857117 0.938701 2.724515 0.107419 -0.027306 -344391.000000 0 0 1
-6.651000 -11.044587 -29.375598 32.080282 1.028764 2.728018 0.114065 -0.034698 571474.000000 0 0 1
-5.467600 -10.761387 -30.125228 32.453528 1.100709 2.760496 0.118815 -0.034523 444165.000000 0 0 1
-5.200900 -9.224587 -30.438158 32.227688 1.057413 2.806781 0.110556 -0.033656 -1336010.000000 0 0 1
-3.953100 -8.955387 -31.005168 32.513788 1.155099 2.835773 0.124379 -0.051940 -327312.000000 0 0 1
-3.990200 -7.610187 -31.388078 32.543019 1.087880 2.874379 0.132758 -0.049424 598170.000000 0 0 1
-2.676300 -6.995087 -31.985298 32.850466 1.205382 2.911580 0.132833 -0.058832 266240.000000 0 0 1
-2.133300 -7.496287 -33.153688 34.057486 1.293545 2.910700 0.146436 -0.058828 74064.400000 0 0 1
-1.133800 -6.587887 -33.656588 34.314016 1.400362 2.945528 0.184139 -0.059460 377022.000000 0 0 1
-0.420900 -7.129587 32.555557 33.329754 1.511829 0.215958 0.173377 -0.055251 -596409.000000 0 0 1
-1.158700 -7.016487 31.409906 32.204905 1.407134 0.222656 0.184544 -0.051788 -651294.000000 0 0 1
-0.444800 -7.642987 30.377540 31.327433 1.512665 0.246884 0.149340 -0.045969 -269373.000000 0 0 1
-0.650600 -7.077487 28.962050 29.821376 1.479129 0.240646 0.135074 -0.032996 194278.000000 0 0 1
0.038100 -5.840487 28.664370 29.253357 -1.564273 0.201007 0.147829 -0.051496 150283.000000 0 0 1
-0.043200 -5.395887 27.337930 27.865389 1.562790 0.194879 0.136448 -0.037927 -1003350.000000 0 0 1
-1.112100 -4.423887 27.002260 27.384843 1.324514 0.167351 0.104891 -0.023491 -1090660.000000 0 0 1
-2.385500 -4.945887 27.267910 27.815308 1.121392 0.198719 0.057392 -0.005942 -1060170.000000 0 0 1
-3.321800 -4.091187 26.658460 27.174357 0.888817 0.195167 0.042494 -0.012851 579169.000000 0 0 1
-4.778100 -4.583687 27.030220 27.829359 0.764634 0.240226 0.028492 -0.007395 876058.000000 0 0 1
-5.224400 -5.808587 26.478160 27.606648 0.838298 0.286911 0.028259 -0.002238 -243100.000000 0 0 1
-6.612700 -6.018787 26.606520 28.068853 0.738414 0.324212 0.015031 -0.005995 459298.000000 0 0 1
-7.010300 -7.527387 26.419830 28.351601 0.820952 0.371280 0.023867 -0.005647 369639.000000 0 0 1
-6.240900 -8.325887 27.294560 29.210653 0.927565 0.364213 0.010461 -0.003287 203921.000000 0 0 1
-6.759800 -9.652387 27.358610 29.788539 0.959853 0.406710 0.025992 -0.007471 248005.000000 0 0 1
-5.871900 -10.357187 28.383600 30.779527 1.055041 0.397172 0.012803 -0.003075 -62941.500000 0 0 1
-6.229700 -11.696387 28.509120 31.438584 1.081396 0.435120 0.042917 -0.002886 48235.200000 0 0 1
-5.569800 -12.268287 29.624370 32.544383 1.144621 0.426846 0.049443 -0.002258 -58467.200000 0 0 1
-5.569400 -13.818487 29.539260 33.083783 1.187672 0.467135 0.098124 -0.027993 731734.000000 0 0 1
-6.912200 -14.314387 29.608390 33.605609 1.120934 0.492708 0.097948 -0.031168 517639.000000 0 0 1
-6.830800 -15.714687 29.484070 34.101637 1.160758 0.526455 0.145003 -0.041043 174653.000000 0 0 1
-6.989900 -16.361087 30.856080 35.617995 1.167041 0.523037 0.146549 -0.031775 -6901.380000 0 0 1
-8.294800 -16.312087 31.396356 36.340323 1.100367 0.527727 0.140355 -0.033829 -89170.500000 0 0 1
-8.371700 -16.783787 32.730998 37.723986 1.108112 0.520352 0.170951 -0.045992 432338.000000 0 0 1
-9.855700 -16.829387 33.235170 38.534915 1.041014 0.530668 0.184715 -0.039915 690436.000000 0 0 1
-10.640200 -17.899887 32.807355 38.857977 1.034484 0.565560 0.184883 -0.036382 157457.000000 0 0 1
-11.327600 -17.635887 31.552053 37.879693 0.999850 0.586371 0.160223 -0.039197 301696.000000 0 0 1
-12.132000 -18.929187 31.082120 38.361410 1.000834 0.626227 0.144613 -0.037805 218384.000000 0 0 1
-13.182200 -19.397587 31.895932 39.590242 0.973907 0.634022 0.137928 -0.040190 132246.000000 0 0 1
-13.380900 -20.822487 31.778508 40.280244 0.999628 0.661722 0.127043 -0.034225 24259.100000 0 0 1
-12.737600 -21.650187 32.943058 41.427312 1.038997 0.651457 0.140432 -0.032803 -569196.000000 0 0 1
-11.358600 -21.820187 32.813416 41.010470 1.090841 0.643296 0.154026 -0.040520 -434739.000000 0 0 1
-10.796800 -22.656787 -33.581618 41.924050 1.126095 2.499778 0.162234 -0.050558 298743.000000 0 0 1
-11.122900 -24.168187 -33.538988 42.809858 1.139469 2.470980 0.174964 -0.037066 -127664.000000 0 0 1
-10.496800 -24.924787 32.901123 42.590043 1.172201 0.688016 0.153914 -0.034811 -19798.400000 0 0 1
-10.852200 -26.253217 33.161934 43.665954 1.178820 0.708335 0.156618 -0.041312 -740590.000000 0 0 1
-10.225400 -27.238967 32.077909 43.307186 1.211678 0.736675 0.124597 -0.031673 1345200.000000 0 0 1
-8.848500 -27.027537 31.694846 42.583412 1.254406 0.731310 0.160107 -0.041254 1418110.000000 0 0 1
-7.893800 -27.227747 32.754893 43.319110 1.288615 0.713417 0.134525 -0.042278 1202680.000000 0 0 1
-6.356000 -26.993887 32.424310 42.666199 1.339548 0.707555 0.151134 -0.048973 1643220.000000 0 0 1
-5.870700 -25.709257 32.770420 42.063422 1.346296 0.677613 0.163695 -0.056044 -249730.000000 0 0 1
-4.742600 -25.306657 32.024118 41.090915 1.385540 0.677172 0.233046 -0.045660 -162521.000000 0 0 1
-4.174200 -23.995787 32.535272 40.641920 1.398564 0.642609 0.245952 -0.058829 -167269.000000 0 0 1
-3.282800 -24.267687 33.611470 41.586396 1.436338 0.629652 0.218116 -0.062693 -17007.700000 0 0 1
-2.843900 -23.012587 -33.378638 40.642348 1.447840 2.534443 0.202706 -0.052540 -38096.500000 0 0 1
35.405976 -15.738287 2.133462 38.805006 -0.418279 1.515790 0.212505 -0.063823 -266885.000000 0 0 1
36.108106 -15.724587 3.326762 39.523731 -0.410719 1.486525 0.162846 -0.055531 -57231.000000 0 0 1
35.502436 -16.533787 4.278962 39.396682 -0.435840 1.461969 0.121585 -0.051048 -364522.000000 0 0 1
36.325316 -16.628187 5.583562 40.338584 -0.429286 1.431933 0.087703 -0.035122 -1066860.000000 0 0 1
37.479026 -17.366887 5.392962 41.657775 -0.433922 1.440973 0.117069 -0.038373 -1112160.000000 0 0 1
-37.391720 -16.926187 6.411562 41.542083 0.425074 1.415838 0.104326 -0.028018 -556923.000000 0 0 1
-36.089030 -17.730487 6.500162 40.731319 0.456662 1.410525 0.121735 -0.032580 -355934.000000 0 0 1
-36.362450 -19.093787 6.672962 41.609241 0.483522 1.409729 0.093839 -0.028911 1221740.000000 0 0 1
-35.133116 -19.792687 7.036562 40.934087 0.513045 1.398038 0.073533 -0.015411 1166840.000000 0 0 1
-35.293964 -21.287687 7.326362 41.862932 0.542735 1.394882 0.084962 -0.016486 -270634.000000 0 0 1
-35.351928 -22.079587 6.156262 42.132725 0.558287 1.424155 0.108782 -0.025004 194781.000000 0 0 1
-35.428267 -23.477787 6.497662 42.995211 0.585241 1.419090 0.114145 -0.026182 -31360.600000 0 0 1
-34.736740 -24.349787 5.410762 42.764817 0.611384 1.443933 0.127617 -0.019938 221004.000000 0 0 1
-35.395650 -24.314287 4.148262 43.142145 0.601899 1.474494 0.127324 -0.017790 160592.000000 0 0 1
-34.822361 -25.238037 3.205262 43.125735 0.627154 1.496404 0.130734 -0.017405 187517.000000 0 0 1
-35.284167 -25.125607 1.715562 43.349876 0.618796 1.531211 0.120958 -0.017894 -296334.000000 0 0 1
-36.574890 -25.615117 1.404062 44.674693 0.610959 1.539363 0.103854 -0.019650 118042.000000 0 0 1
-36.969390 -25.227647 0.102262 44.756904 0.598811 1.568512 0.100525 -0.018573 -3953.290000 0 0 1
-37.685610 -23.832387 0.153062 44.589363 0.563903 1.567364 0.103045 -0.011489 1046380.000000 0 0 1
36.569466 -23.958687 0.047962 43.718953 -0.579991 1.569699 0.092076 -0.016515 1433220.000000 0 0 1
35.972856 -22.738487 0.424662 42.558965 -0.563690 1.560818 0.103598 -0.023163 -181021.000000 0 0 1
34.436916 -22.813087 0.433362 41.310119 -0.585085 1.560306 0.076120 -0.021798 -118011.000000 0 0 1
34.011556 -22.992887 -0.901938 41.064246 -0.594458 1.592762 0.085439 -0.031297 285593.000000 0 0 1
32.599526 -22.839287 -0.985738 39.816250 -0.611130 1.595556 0.082064 -0.025058 293088.000000 0 0 1
31.912156 -22.680287 -2.288938 39.217603 -0.617878 1.629195 0.087352 -0.021941 -245890.000000 0 0 1
32.281396 -21.453987 -2.897338 38.868453 -0.586566 1.645408 0.134047 -0.030431 114182.000000 0 0 1
31.797776 -21.268787 -4.203638 38.485457 -0.589531 1.680241 0.141087 -0.041217 -107169.000000 0 0 1
31.796526 -19.847687 -4.711438 37.777604 -0.558031 1.695837 0.152358 -0.046295 250576.000000 0 0 1
30.806046 -19.042387 -4.083538 36.445854 -0.553650 1.683076 0.175737 -0.046120 105180.000000 0 0 1
30.774216 -17.619787 -4.320438 35.723598 -0.519991 1.692034 0.172942 -0.046169 -110172.000000 0 0 1
29.909206 -16.950887 -3.214838 34.528660 -0.515608 1.664038 0.177013 -0.038069 -264803.000000 0 0 1
30.413006 -16.737987 -1.919038 34.767713 -0.503117 1.626020 0.175047 -0.034450 -170901.000000 0 0 1
30.954046 -17.873487 -1.232138 35.764964 -0.523651 1.605254 0.158238 -0.029233 -482398.000000 0 0 1
30.075106 -19.068787 -0.905338 35.622328 -0.565073 1.596214 0.148402 -0.027450 -423661.000000 0 0 1
29.047806 -18.789687 0.030662 34.595206 -0.574160 1.569910 0.127098 -0.011210 409897.000000 0 0 1
28.203606 -19.956787 0.106662 34.550371 -0.615806 1.567709 0.110164 -0.010173 -477277.000000 0 0 1
26.998806 -19.681787 0.993062 33.425954 -0.629917 1.541083 0.111096 -0.009890 -1080890.000000 0 0 1
26.270206 -20.834587 1.298162 33.554269 -0.670512 1.532098 0.089764 -0.005770 35859.900000 0 0 1
25.423106 -20.631987 2.422462 32.831106 -0.681741 1.496944 0.076163 0.006228 1336800.000000 0 0 1
23.948406 -20.076187 2.263162 31.332113 -0.697668 1.498502 0.046941 0.000150 731098.000000 0 0 1
23.844706 -18.714987 1.807962 30.365926 -0.665447 1.511222 0.099610 -0.024646 195610.000000 0 0 1
23.654106 -17.832787 2.906862 29.765330 -0.645991 1.472981 0.119608 -0.032375 -66944.200000 0 0 1
23.216806 -16.373087 2.570762 28.525548 -0.614224 1.480553 0.121940 -0.019179 408163.000000 0 0 1
21.855606 -16.189487 2.203962 27.287808 -0.637553 1.489941 0.095240 -0.016398 -50401.100000 0 0 1
21.695306 -14.912487 1.661662 26.378584 -0.602192 1.507762 0.102776 -0.027928 -228021.000000 0 0 1
20.260606 -14.554287 1.276762 24.978982 -0.622938 1.519661 0.052930 -0.016822 -585952.000000 0 1 0
19.324406 -14.531787 2.334062 24.291014 -0.644774 1.474560 0.057682 -0.017201 325580.000000 0 1 0
18.440406 -13.414387 2.292062 22.918287 -0.628909 1.470619 0.073441 -0.026219 -107586.000000 0 1 0
19.126206 -12.068287 2.547562 22.758413 -0.562889 1.458622 0.091027 -0.022250 -893039.000000 0 1 0
19.908506 -11.588987 1.506862 23.085144 -0.527163 1.505476 0.089839 -0.024734 125421.000000 0 1 0
20.305606 -10.242187 1.710462 22.806703 -0.467163 1.495728 0.105395 -0.026568 245151.000000 0 1 0
21.249206 -9.587987 0.634862 23.320834 -0.423865 1.543570 0.116719 -0.026856 153657.000000 0 1 0
20.585506 -9.199487 -0.534938 22.553930 -0.420266 1.594517 0.121787 -0.022061 934250.000000 0 1 0
21.491906 -8.524587 -1.434638 23.165250 -0.377608 1.632767 0.114842 -0.012436 -61199.500000 0 1 0
20.855806 -8.104087 -2.789138 22.548174 -0.370620 1.694811 0.124434 -0.013366 35551.700000 0 1 0
21.751406 -7.636487 -3.807038 23.365212 -0.337637 1.734462 0.136971 -0.014686 902443.000000 0 1 0
22.788506 -8.539287 -4.236438 24.701879 -0.358524 1.743151 0.122170 -0.013630 -306627.000000 0 1 0
22.385606 -9.632987 -5.228538 24.924835 -0.406369 1.782138 0.104234 -0.014907 -125189.000000 0 1 0
21.830906 -9.133787 -6.465238 24.531894 -0.396257 1.837491 0.110600 -0.023220 475747.000000 0 1 0
20.436006 -8.888687 -6.356838 23.174307 -0.410270 1.848664 0.112422 -0.008373 -180627.000000 0 1 0
19.791906 -8.933287 -7.777538 23.065413 -0.423985 1.914732 0.114489 -0.005710 -218277.000000 0 1 0
19.669006 -10.209487 -8.474038 23.725782 -0.478783 1.936028 0.108925 -0.003405 1046160.000000 0 1 0
20.908206 -10.660687 -9.038138 25.149379 -0.471521 1.938398 0.110572 -0.005982 434384.000000 0 0 1
20.755806 -12.043587 -9.688538 25.878934 -0.525772 1.954524 0.088910 -0.010379 98099.800000 0 0 1
19.800906 -12.035187 -10.742038 25.540419 -0.546142 2.004892 0.111664 -0.012358 246745.000000 0 0 1
19.608906 -13.376387 -11.185138 26.240127 -0.598651 2.011152 0.111840 -0.007320 -145531.000000 0 0 1
18.432506 -13.625287 -12.135838 25.936158 -0.636552 2.057723 0.118945 -0.016518 -172719.000000 0 0 1
18.388906 -15.037387 -12.453038 26.820757 -0.685466 2.053647 0.119065 -0.020427 11994.000000 0 0 1
17.464206 -15.324387 -13.463138 26.853145 -0.720229 2.095968 0.121644 -0.022365 -419166.000000 0 0 1
17.441406 -16.842787 -13.861838 27.929065 -0.767939 2.090154 0.103015 -0.024000 -362698.000000 0 0 1
16.721306 -17.610287 -12.953338 27.522959 -0.811286 2.060810 0.095211 -0.018067 86706.200000 0 0 1
16.680606 -19.004787 -13.325438 28.583069 -0.850436 2.055787 0.094296 -0.028577 -413531.000000 0 0 1
15.707406 -19.752387 -12.419638 28.126976 -0.898980 2.028129 0.080467 -0.024469 870790.000000 0 0 1
14.313006 -19.589387 -12.746038 27.405615 -0.939794 2.054531 0.063271 -0.022627 1139130.000000 0 0 1
13.444506 -20.322687 -11.850638 27.096198 -0.986343 2.023451 0.046547 -0.011906 249759.000000 0 0 1
11.966906 -20.189187 -12.229638 26.464583 -1.035733 2.051173 0.031781 -0.010549 -282624.000000 0 0 1
11.180406 -20.752687 -11.222538 26.107870 -1.076635 2.015126 0.032055 -0.016673 475911.000000 0 0 1
9.758406 -20.589187 -11.405738 25.480031 -1.128199 2.034914 0.011856 -0.008630 1090260.000000 0 0 1
8.923406 -21.263787 -10.313938 25.261693 -1.173464 1.991369 0.003629 -0.001443 -510259.000000 0 0 1
8.932606 -22.680587 -10.373838 26.491829 -1.195608 1.973151 0.028282 -0.008978 -121949.000000 0 0 1
8.293006 -23.362487 -9.321138 26.485154 -1.229700 1.930437 0.031254 -0.024513 -205125.000000 0 0 1
8.445806 -24.880987 -9.489338 27.936404 -1.243553 1.917369 0.042162 -0.013932 -513122.000000 0 0 1
9.733006 -25.319687 -9.235338 28.655007 -1.203806 1.898948 0.017029 -0.004040 -1112140.000000 0 0 1
9.875806 -26.714467 -9.437638 30.004388 -1.216698 1.890770 0.019051 -0.000858 -272190.000000 0 0 1
11.261006 -27.348657 -9.323138 31.010969 -1.180196 1.876160 0.006870 0.012486 -89561.000000 0 0 1
11.658906 -27.191397 -7.958738 30.637292 -1.165735 1.833583 0.014301 0.003845 157225.000000 0 0 1
13.064806 -27.202087 -7.717438 31.148058 -1.123043 1.821170 0.037359 0.004561 262316.000000 0 0 1
13.424506 -27.227207 -6.185138 30.980544 -1.112720 1.771793 0.040263 -0.007937 -93757.700000 0 0 1
12.989706 -28.337567 -5.421038 31.640762 -1.140986 1.742977 0.046673 -0.001933 1018750.000000 0 0 1
11.555706 -28.535307 -5.361438 31.249690 -1.186020 1.743217 0.052151 -0.008059 1138060.000000 0 0 1
11.142206 -29.786997 -4.497538 32.119181 -1.212848 1.711285 0.065903 -0.019781 32645.500000 0 0 1
11.334306 -31.086817 -5.119338 33.482298 -1.221173 1.724295 0.072896 -0.015491 -174399.000000 0 0 1
10.444706 -31.522047 -6.138638 33.770019 -1.250835 1.753590 0.076972 -0.014719 243033.000000 0 0 1
10.645606 -33.002067 -6.400438 35.262316 -1.258760 1.753317 0.080187 -0.014057 85777.000000 0 0 1
10.194306 33.798558 -5.365838 35.707963 1.277854 1.721638 0.080892 -0.015234 -95690.700000 0 0 1
10.748706 32.526370 -5.483838 34.692534 1.251633 1.729532 0.082685 -0.014046 -87705.300000 0 0 1
10.406006 31.549138 -4.319038 33.500554 1.252198 1.700081 0.104637 -0.013878 1320360.000000 0 0 1
9.030606 31.107278 -4.440938 32.694594 1.288257 1.707048 0.115958 -0.021217 679176.000000 0 0 1
8.790706 30.097068 -3.522738 31.551857 1.286623 1.682679 0.088801 -0.019584 -691266.000000 0 0 1
7.484506 29.336428 -3.607738 30.490320 1.320998 1.689398 0.085311 -0.017369 -386012.000000 0 0 1
7.168306 28.687738 -4.855638 29.965783 1.325937 1.733553 0.070190 -0.021375 -21177.200000 0 0 1
6.478706 29.558948 -5.740338 30.800268 1.355029 1.758265 0.090883 -0.022969 -213870.000000 0 0 1
6.331706 29.087238 -7.213438 30.629913 1.356460 1.808532 0.109420 -0.029044 153438.000000 0 0 1
5.349606 28.083938 -7.464938 29.547439 1.382565 1.826207 0.120768 -0.037453 86569.500000 0 0 1
5.621506 26.818208 -6.947538 28.268107 1.364173 1.819113 0.103179 -0.031697 -478020.000000 0 0 1
4.719106 25.666248 -7.409338 27.127929 1.388963 1.847437 0.103661 -0.036336 -277950.000000 0 0 1
3.403706 25.582838 -6.904338 26.715851 1.438527 1.832199 0.099972 -0.036264 198874.000000 0 0 1
2.448906 26.151108 -7.841438 27.411051 1.477424 1.860918 0.093397 -0.032562 640732.000000 0 0 1
1.885606 25.242038 -8.972838 26.855685 1.496234 1.911461 0.107048 -0.037564 -101515.000000 0 0 1
2.900406 24.948848 -9.941738 27.012877 1.455062 1.947693 0.097841 -0.039429 236643.000000 0 0 1
2.567806 24.088918 -11.025038 26.616180 1.464600 1.997885 0.113085 -0.034446 -519411.000000 0 0 1
2.273906 22.608858 -10.806738 25.161810 1.470558 2.014724 0.118934 -0.035244 -425530.000000 0 0 1
1.050906 22.412058 -10.168538 24.633390 1.523940 1.996317 0.144243 -0.036724 -502203.000000 0 1 0
0.770206 21.041458 -10.010638 23.314138 1.534208 2.014603 0.091781 -0.033358 -77481.100000 0 1 0
-0.481794 20.622758 -9.176138 22.577240 -1.547438 1.989343 0.105364 -0.022076 12982.200000 0 1 0
-1.700894 20.824358 -9.838038 23.094023 -1.489299 2.010862 0.106622 -0.025412 -1111560.000000 0 1 0
-2.658394 20.197158 -9.023138 22.280244 -1.439926 1.987757 0.088412 -0.026189 -427792.000000 0 1 0
-3.981194 20.112958 -9.834238 22.739684 -1.375381 2.018027 0.088944 -0.028327 -52903.500000 0 1 0
-4.951994 19.362958 -9.127438 21.971721 -1.320417 1.999198 0.065185 -0.036811 -430510.000000 0 1 0
-6.002894 19.098558 -9.999638 22.378168 -1.266262 2.034035 0.063437 -0.028065 -600718.000000 0 1 0
-7.002694 17.984458 -9.570038 21.542147 -1.199483 2.031130 0.061161 -0.026667 -195953.000000 0 1 0
-8.019694 18.430858 -8.730038 21.914050 -1.160383 1.980542 0.071353 -0.021978 -595182.000000 0 1 0
-9.251494 18.456458 -9.400638 22.684862 -1.106141 1.998081 0.070267 -0.029936 -1032410.000000 0 1 0
-10.429994 18.654058 -8.488238 22.995844 -1.060973 1.948859 0.087664 -0.040741 -708607.000000 0 1 0
-10.653994 17.515658 -7.760338 21.920965 -1.024329 1.932656 0.079038 -0.036781 190691.000000 0 1 0
-11.462694 17.857758 -6.598438 22.222337 -1.000144 1.872270 0.088903 -0.030652 382765.000000 0 1 0
-11.908294 16.687658 -5.618238 21.256763 -0.951002 1.838278 0.068057 -0.036136 893697.000000 0 1 0
-12.835894 17.193458 -4.582638 21.940277 -0.929502 1.781214 0.073226 -0.026979 916120.000000 0 1 0
-13.340094 16.160758 -3.733738 21.285418 -0.880721 1.747122 0.068188 -0.025356 -607032.000000 0 1 0
-14.486794 16.771558 -2.929538 22.354743 -0.858361 1.702222 0.056034 -0.017722 35965.000000 0 1 0
-15.662294 16.804158 -3.764538 23.277863 -0.820554 1.733232 0.098439 -0.033395 -263887.000000 0 1 0
-16.766194 17.234758 -3.080738 24.241144 -0.799178 1.698228 0.106641 -0.029210 248880.000000 0 1 0
-18.173694 17.115558 -3.786438 25.250002 -0.755422 1.721322 0.115175 -0.044177 1020810.000000 0 0 1
-18.284194 18.105158 -4.796938 26.174780 -0.780478 1.755104 0.103561 -0.039768 187810.000000 0 0 1
-19.590794 18.235958 -5.338538 27.291928 -0.749597 1.767674 0.094398 -0.040199 353302.000000 0 0 1
-19.590694 19.162758 -6.555938 28.177773 -0.774356 1.805612 0.097768 -0.023948 -1732.810000 0 0 1
-19.421194 20.568758 -6.184338 28.956910 -0.814087 1.786025 0.104680 -0.027585 78035.000000 0 0 1
-19.234594 21.374358 -7.281738 29.662375 -0.838041 1.818819 0.094391 -0.016134 -32290.200000 0 0 1
-19.187094 22.888188 -6.886938 30.650345 -0.873136 1.797425 0.100783 -0.019605 208460.000000 0 0 1
-17.886394 23.360668 -6.572938 30.147096 -0.917346 1.790591 0.095192 -0.024304 248392.000000 0 0 1
-17.833794 24.058468 -5.311538 30.414906 -0.932907 1.746332 0.105503 -0.031515 -757681.000000 0 0 1
-16.467494 24.652788 -5.085338 30.079876 -0.981887 1.740673 0.085027 -0.033500 -1156170.000000 0 0 1
-16.213494 25.222418 -3.780738 30.221544 -0.999485 1.696226 0.079834 -0.032099 1040610.000000 0 0 1
-14.903494 25.799578 -3.542838 30.004734 -1.046962 1.689148 0.095612 -0.040519 983459.000000 0 0 1
-14.489394 27.028778 -4.405938 30.982409 -1.078709 1.713488 0.106612 -0.040244 -177410.000000 0 0 1
-15.398294 28.113808 -4.371638 32.351273 -1.069711 1.706341 0.131585 -0.044350 6408.270000 0 0 1
-14.964194 29.129328 -5.216238 33.161031 -1.096236 1.728753 0.116324 -0.041617 -329832.000000 0 0 1
-15.713194 30.454318 -4.954838 34.625429 -1.094463 1.714388 0.118316 -0.037364 377859.000000 0 0 1
-17.069494 30.295888 -5.373538 35.186409 -1.057704 1.724113 0.148777 -0.037141 95870.900000 0 0 1
-17.790394 31.482658 -5.216738 36.535876 -1.056445 1.714070 0.145912 -0.032419 -175681.000000 0 0 1
12.937000 -8.203587 18.528220 24.040793 -0.565129 0.690859 0.124509 -0.035303 254774.000000 0 1 0
13.605000 -9.412787 18.945320 25.151973 -0.605244 0.717831 0.135936 -0.034686 -17114.000000 0 0 1
14.018900 -10.198687 17.890520 24.912115 -0.628942 0.769663 0.144522 -0.039104 20513.000000 0 1 0
14.639900 -11.537387 18.456220 26.231089 -0.667429 0.790344 0.186668 -0.048820 797702.000000 0 0 1
15.970800 -11.402187 19.016020 27.325544 -0.620020 0.801115 0.172444 -0.043025 1083260.000000 0 0 1
16.335500 -12.472287 19.782520 28.526384 -0.652090 0.804486 0.164779 -0.044865 -408671.000000 0 0 1
16.874400 -13.735087 19.065620 28.929152 -0.683195 0.851248 0.155105 -0.039521 -940174.000000 0 0 1
16.022100 -14.390687 18.162120 28.172010 -0.731807 0.870183 0.168748 -0.051952 -120420.000000 0 0 1
16.469500 -15.626487 17.610120 28.732349 -0.759139 0.911068 0.172541 -0.056484 -176129.000000 0 0 1
15.815500 -15.984087 16.206020 27.717434 -0.790700 0.946302 0.153574 -0.059482 564417.000000 0 0 1
14.390200 -16.083787 16.266420 27.025219 -0.840916 0.924921 0.191097 -0.056895 430330.000000 0 0 1
13.863900 -16.107787 14.946620 25.982109 -0.860126 0.957867 0.208238 -0.062021 -28721.700000 0 0 1
13.319900 -17.430887 14.335320 26.206048 -0.918297 0.991992 0.146516 -0.045610 108620.000000 0 0 1
14.399400 -18.282787 14.016220 27.167213 -0.903666 1.028710 0.145847 -0.051165 308028.000000 0 0 1
13.878200 -19.408687 13.316120 27.324359 -0.950040 1.061761 0.115947 -0.049213 430857.000000 0 0 1
14.967200 -20.443087 12.855120 28.411107 -0.938824 1.101265 0.115551 -0.038777 297881.000000 0 0 1
15.627800 -21.113287 13.930020 29.732885 -0.933605 1.083198 0.097986 -0.031719 97505.600000 0 0 1
16.217900 -22.318187 13.510320 30.718895 -0.942396 1.115415 0.077513 -0.024406 -768171.000000 0 0 1
17.167400 -22.991887 14.458620 32.130954 -0.929428 1.104042 0.089352 -0.027774 -50995.400000 0 0 1
18.376100 -22.227787 14.510020 32.284613 -0.879975 1.104657 0.063762 -0.027894 12030.300000 0 0 1
19.257200 -22.719687 15.501020 33.575371 -0.867697 1.090910 0.084624 -0.032483 -1014270.000000 0 0 1
20.649400 -22.199487 15.363920 33.989189 -0.821558 1.101764 0.051688 -0.031896 -886584.000000 0 0 1
21.559600 -22.899387 14.526020 34.643954 -0.815524 1.138128 0.056557 -0.030434 30045.000000 0 0 1
22.756300 -22.105487 14.443620 34.858570 -0.770892 1.143569 0.058526 -0.024780 179636.000000 0 0 1
23.820000 -22.984387 13.804420 35.864139 -0.767547 1.175687 0.053328 -0.030235 -358166.000000 0 0 1
24.331900 -23.993887 14.709020 37.203538 -0.778404 1.164330 0.042212 -0.033527 589501.000000 0 0 1
25.335700 -24.789387 14.051520 38.129472 -0.774500 1.193379 0.055243 -0.043232 450573.000000 0 0 1
25.843100 -26.042887 14.756020 39.545390 -0.789249 1.188404 0.049294 -0.042568 -527174.000000 0 0 1
26.599800 -25.798277 15.888820 40.318173 -0.770103 1.165723 0.070654 -0.032822 -94459.100000 0 0 1
26.920200 -27.042577 16.537320 41.587030 -0.787666 1.161836 0.103969 -0.024510 -252371.000000 0 0 1
27.454200 -26.839207 17.940820 42.378640 -0.774071 1.133661 0.083560 -0.011415 44017.800000 0 0 1
26.452800 -26.272417 18.776820 41.743975 -0.781977 1.104245 0.083293 -0.012703 398175.000000 0 0 1
26.910600 -26.100257 20.135520 42.554001 -0.770113 1.077904 0.089922 -0.013686 -27216.800000 0 0 1
25.761900 -25.656287 21.062220 42.018301 -0.783344 1.045739 0.073967 -0.020402 -267653.000000 0 0 1
24.997300 -26.766147 21.380020 42.407510 -0.819557 1.042391 0.085130 -0.022851 -521825.000000 0 0 1
24.119500 -26.432087 22.452570 42.243620 -0.831113 1.010423 0.088190 -0.016709 279306.000000 0 0 1
23.225200 -27.670337 22.794320 42.715787 -0.872516 1.007912 0.104916 -0.016155 302796.000000 0 0 1
24.003200 -28.798887 23.278050 44.129323 -0.875973 1.015146 0.100504 -0.016251 771702.000000 0 0 1
23.651400 -30.049387 22.647580 44.443979 -0.903981 1.036105 0.109613 -0.023290 -209728.000000 0 0 1
24.584100 -31.126077 23.205390 45.953245 -0.902292 1.041440 0.092228 -0.010590 -45789.200000 0 0 1
24.370600 -31.365527 24.562030 46.701346 -0.910246 1.016978 0.086854 -0.010046 391213.000000 0 0 1
25.591800 -31.766467 25.165780 47.930837 -0.892636 1.018030 0.081593 -0.011939 -613854.000000 0 0 1
25.499500 -32.283197 26.644230 49.013715 -0.902263 0.996067 0.089100 -0.021495 -161796.000000 0 0 1
24.909500 -33.529527 26.837340 49.648315 -0.931847 0.999707 0.087747 -0.011165 -220242.000000 0 0 1
23.558200 -33.576997 26.443900 48.802493 -0.958986 0.998153 0.081486 -0.007775 -966997.000000 0 0 1
22.905000 32.818005 27.042590 48.300747 0.961454 0.976556 0.117444 -0.026560 -321480.000000 0 0 1
22.589800 33.012072 28.418260 49.068253 0.970693 0.953101 0.086755 -0.009266 -201680.000000 0 0 1
21.952300 31.941128 28.962200 48.383346 0.968663 0.929046 0.089889 -0.023988 -383978.000000 0 0 1
21.564400 32.195711 30.456250 49.286614 0.980634 0.904674 0.071339 -0.027908 -203828.000000 0 0 1
22.673000 32.103210 31.306500 50.247169 0.955886 0.898160 0.066885 -0.006686 -327110.000000 0 0 1
22.444700 32.456723 32.667626 51.228676 0.965780 0.879310 0.058480 -0.005797 -547465.000000 0 0 1
23.666500 32.278525 33.558450 52.231944 0.938137 0.873054 0.033936 0.007744 -236879.000000 0 0 1
23.764200 30.891468 -33.568488 51.437957 0.915070 2.281809 0.041340 0.010882 -529663.000000 0 0 1
24.965200 30.544578 -32.953648 51.402095 0.885573 2.266721 0.008656 0.028845 -454136.000000 0 0 1
25.126800 29.058668 -32.821358 50.527258 0.857834 2.277825 0.035636 0.014368 -53595.900000 0 0 1
25.418900 28.474038 33.394490 50.715710 0.842027 0.852020 0.048499 0.008203 213778.000000 0 0 1
25.130000 27.098078 33.415860 49.824115 0.823063 0.835676 0.071617 -0.009836 -189715.000000 0 0 1
25.363600 26.410088 32.081774 48.683110 0.805608 0.851319 0.137352 -0.018453 -489162.000000 0 0 1
26.679500 25.946178 31.961547 49.056502 0.771464 0.861203 0.128215 -0.024486 -58818.400000 0 0 1
26.887000 25.143038 30.827520 48.014780 0.751892 0.873637 0.163860 -0.044070 715722.000000 0 0 1
28.362300 24.574918 30.893950 48.608464 0.713975 0.882053 0.136983 -0.026169 848459.000000 0 0 1
28.562800 23.553228 31.878982 48.855477 0.689569 0.859896 0.140450 -0.027962 304610.000000 0 0 1
29.254000 24.068088 33.001161 50.240880 0.688447 0.854151 0.121376 -0.028566 -952052.000000 0 0 1
29.095100 23.214988 -33.132138 49.831708 0.673459 2.298130 0.120862 -0.036943 483592.000000 0 0 1
27.845900 23.473768 -32.462698 48.787690 0.700409 2.298809 0.120911 -0.042090 1737740.000000 0 0 1
26.645500 22.978988 -33.097608 48.305985 0.711647 2.325628 0.116798 -0.036707 245539.000000 0 0 1
26.393900 21.452858 -32.970258 47.369832 0.682495 2.340633 0.113004 -0.034679 -647105.000000 0 0 1
26.017900 21.052158 -31.710098 46.104824 0.680290 2.329226 0.091371 -0.050637 139879.000000 0 0 1
25.935500 19.640758 -31.634708 45.378015 0.648152 2.342193 0.099519 -0.048321 -265864.000000 0 0 1
25.666800 18.963858 -30.309668 44.012368 0.636325 2.330439 0.108215 -0.042712 623813.000000 0 0 1
24.364900 19.186458 -29.736018 42.965094 0.667050 2.335187 0.099313 -0.037161 987702.000000 0 0 1
24.306000 18.426458 -28.567488 41.790159 0.648667 2.323471 0.112359 -0.033123 185827.000000 0 0 1
23.047100 18.842758 -27.763808 40.706847 0.685367 2.321349 0.105172 -0.029827 -28196.500000 0 0 1
22.895400 18.311658 -26.468428 39.498023 0.674617 2.305167 0.106318 -0.024333 -22050.600000 0 0 1
23.553200 18.998458 -25.440828 39.533914 0.678764 2.269883 0.098322 -0.022079 -201963.000000 0 0 1
23.732400 18.315358 -24.083838 38.454004 0.657273 2.247598 0.126147 -0.018729 502827.000000 0 0 1
24.509600 17.070258 -24.148438 38.409130 0.608354 2.250697 0.136939 -0.023635 705332.000000 0 0 1
24.636400 16.410658 -22.898038 37.424351 0.587620 2.229192 0.138223 -0.024404 -410369.000000 0 0 1
25.736200 15.319558 -22.828638 37.658831 0.536922 2.222065 0.158087 -0.028682 -1643610.000000 0 0 1
27.003700 15.852258 -22.670738 38.658198 0.530836 2.197454 0.171563 -0.037104 -508573.000000 0 0 1
27.984100 14.820058 -22.879338 39.066713 0.487037 2.196475 0.163833 -0.040209 372230.000000 0 0 1
28.167400 13.851458 -21.676538 38.146266 0.457030 2.175171 0.153413 -0.032329 -864459.000000 0 0 1
27.143100 12.874958 -21.683438 37.049749 0.442907 2.195987 0.162587 -0.023713 -157676.000000 0 0 1
26.811700 12.610558 -20.350538 35.944928 0.439638 2.172635 0.128257 -0.028260 -13595.500000 0 0 1
25.384600 11.993258 -20.373338 34.688457 0.441375 2.198544 0.144749 -0.025200 854455.000000 0 0 1
24.346000 12.999658 -20.404138 34.322699 0.490441 2.207414 0.152496 -0.028130 309020.000000 0 0 1
23.089700 12.461658 -20.775338 33.467026 0.494906 2.240521 0.137255 -0.031430 238105.000000 0 0 1
22.019200 13.569458 -20.600038 33.065646 0.552287 2.243374 0.111189 -0.026056 -447847.000000 0 0 1
22.225400 14.662558 -21.504138 34.225531 0.583178 2.250171 0.115175 -0.020471 287066.000000 0 0 1
21.383000 15.814458 -21.284438 34.064014 0.636799 2.245718 0.080289 -0.014410 265695.000000 0 0 1
20.045800 15.683958 -22.064938 33.685043 0.663921 2.285027 0.071964 -0.006383 -75773.300000 0 0 1
19.082000 14.820558 -21.505038 32.345607 0.660357 2.298092 0.051136 -0.009803 -230499.000000 0 0 1
18.190000 14.466958 -22.520038 32.362340 0.671884 2.340429 0.053907 -0.009249 -409107.000000 0 0 1
17.036800 13.577858 -21.999838 30.961325 0.672892 2.361088 0.048506 -0.011760 920373.000000 0 0 1
15.860300 13.686158 -22.827138 30.982871 0.711947 2.399072 0.042530 -0.010012 -316533.000000 0 0 1
14.794900 12.965658 -22.377438 29.795085 0.719600 2.420439 0.055110 -0.015190 -1028830.000000 0 0 1
13.507900 13.197558 -23.167438 29.889280 0.773778 2.457683 0.054783 -0.021189 -348069.000000 0 0 1
12.972400 14.512758 -22.995038 30.127646 0.841383 2.439131 0.088574 -0.023361 15550.300000 0 0 1
12.333300 14.939958 -24.185538 30.987947 0.880684 2.466233 0.081696 -0.029571 -472981.000000 0 0 1
11.883600 16.419658 -24.146938 31.526175 0.944313 2.443288 0.084827 -0.041085 743849.000000 0 0 1
13.012200 17.297158 -23.909738 32.251893 0.925842 2.405867 0.063593 -0.029134 1137310.000000 0 0 1
14.097600 17.310858 -24.850838 33.406171 0.887349 2.409683 0.058237 -0.032396 44131.100000 0 0 1
13.787200 17.878158 -26.196968 34.583183 0.913880 2.430281 0.086731 -0.042581 -503909.000000 0 0 1
14.907000 17.708858 -27.033008 35.589406 0.871093 2.433464 0.067854 -0.042276 -16262.700000 0 0 1
14.544800 17.553058 -28.392618 36.411561 0.878847 2.465094 0.106435 -0.043332 -663487.000000 0 0 1
15.657500 17.794958 -29.406878 37.770125 0.849207 2.463188 0.101378 -0.040525 -488637.000000 0 0 1
16.644100 16.778558 -29.349238 37.681877 0.789421 2.463657 0.063967 -0.033972 -82309.500000 0 0 1
17.676800 17.246358 -30.210138 39.019976 0.773073 2.456282 0.067512 -0.028462 -102940.000000 0 0 1
18.936600 16.341458 -30.133098 39.161737 0.711968 2.448780 0.081696 -0.025372 289372.000000 0 0 1
20.055100 16.851758 -30.890438 40.501950 0.698820 2.438259 0.097859 -0.028600 987389.000000 0 0 1
21.136900 15.911258 -30.897588 40.676745 0.645273 2.433477 0.120596 -0.027126 30252.800000 0 0 1
22.442500 16.457258 -31.454568 41.998774 0.632732 2.417258 0.128232 -0.027025 -469447.000000 0 0 1
22.493100 16.776758 -32.842028 43.197199 0.640848 2.434543 0.135776 -0.037589 652502.000000 0 0 1
23.815400 17.176458 -33.220108 44.337113 0.624835 2.417743 0.142914 -0.039931 496765.000000 0 0 1
23.787300 17.802758 32.865912 44.305101 0.642486 0.735033 0.111527 -0.028403 4456.820000 0 0 1
25.024100 18.325558 32.427441 44.872827 0.632087 0.763165 0.096518 -0.024154 -34899.100000 0 0 1
25.064200 18.737858 31.070850 44.098970 0.641960 0.788978 0.108300 -0.026800 -25761.600000 0 0 1
26.091900 19.870158 30.768550 44.970147 0.650849 0.817291 0.143433 -0.036789 602789.000000 0 0 1
27.440100 19.464458 30.911540 45.687499 0.616969 0.827679 0.116243 -0.027199 394034.000000 0 0 1
28.349900 20.563058 30.707090 46.577694 0.627525 0.850954 0.119729 -0.039604 902177.000000 0 0 1
29.781900 20.375658 31.298780 47.767590 0.600017 0.856309 0.140629 -0.030920 372858.000000 0 0 1
29.850100 19.956558 32.635539 48.521862 0.589312 0.833087 0.109887 -0.033141 186016.000000 0 0 1
31.189300 20.005758 33.095383 49.682061 0.570327 0.841770 0.110375 -0.019858 214118.000000 0 0 1
31.274000 19.473758 -32.903908 49.395926 0.556931 2.299799 0.080727 -0.006471 -78684.800000 0 0 1
30.562400 20.288158 -31.946468 48.644079 0.586034 2.287283 0.061229 -0.026602 292260.000000 0 0 1
30.538300 19.693358 -30.634348 47.527670 0.572763 2.271242 0.087501 -0.036225 -344791.000000 0 0 1
31.658500 20.186058 -29.716668 47.883378 0.567622 2.240310 0.100409 -0.048070 -783055.000000 0 0 1
32.869900 19.553958 -29.964058 48.586339 0.536653 2.235363 0.101669 -0.050501 -578892.000000 0 0 1
33.456100 19.220458 -28.659728 48.063673 0.521457 2.209664 0.120857 -0.054760 1317330.000000 0 0 1
34.940600 18.665458 -28.812468 48.983703 0.490636 2.199634 0.071935 -0.039201 1531450.000000 0 0 1
35.823200 19.508658 -29.557698 50.374070 0.498674 2.197853 0.076269 -0.033188 465945.000000 0 0 1
36.987000 19.889158 -28.822568 50.934833 0.493377 2.172286 0.051321 -0.020268 48606.700000 0 0 1
-37.770707 20.663258 -29.696388 52.301740 -0.500592 2.174615 0.059788 -0.019200 -184713.000000 0 0 1
-36.941307 19.962358 -30.628148 51.973448 -0.495428 2.200993 0.044422 -0.015487 775953.000000 0 0 1
-35.920407 20.850358 -31.106268 51.890394 -0.525928 2.213624 0.045401 -0.009523 620262.000000 0 0 1
-34.878907 20.272758 -32.088388 51.547915 -0.526506 2.242725 0.046993 -0.017259 69792.600000 0 0 1
-33.955207 19.274458 -31.743958 50.320370 -0.516288 2.253428 0.054122 -0.009014 166519.000000 0 0 1
-33.214007 18.876358 -32.895248 50.414130 -0.516804 2.281676 0.067170 -0.010646 81902.900000 0 0 1
-32.320307 17.667458 -32.629448 49.207948 -0.500257 2.295740 0.062086 -0.005774 342388.000000 0 0 1
-33.192907 16.566658 -32.290678 49.182427 -0.462929 2.287031 0.068907 -0.009744 588078.000000 0 0 1
-32.557807 15.320458 -32.474478 48.469773 -0.439821 2.304998 0.067018 -0.008687 -90409.200000 0 0 1
-33.467607 14.064558 -32.347778 48.623772 -0.397835 2.298647 0.069542 -0.016466 -496958.000000 0 0 1
-32.869907 12.869258 -32.666618 48.095286 -0.373176 2.317477 0.074751 -0.023677 -545711.000000 0 0 1
-33.797107 11.819258 -32.681978 48.477324 -0.336418 2.310637 0.090404 -0.027195 -491927.000000 0 0 1
-33.293907 10.414258 -32.899178 47.950985 -0.303156 2.326911 0.097641 -0.023986 -356599.000000 0 0 1
-32.992707 10.120958 33.223824 47.903810 -0.297650 0.804387 0.071050 -0.022503 -59860.800000 0 0 1
-33.104407 8.750058 32.921093 47.500144 -0.258407 0.805052 0.105256 -0.032423 -47725.500000 0 0 1
-32.066007 8.213058 31.906506 45.975083 -0.250739 0.803772 0.115788 -0.028498 -525067.000000 0 0 1
-30.863407 7.905858 32.510675 45.519188 -0.250764 0.775288 0.075271 -0.021961 -565869.000000 0 0 1
-29.952307 7.271558 31.587604 44.133808 -0.238164 0.773137 0.078680 -0.020173 326622.000000 0 0 1
21.942700 -4.056287 -31.464808 38.574210 -0.182795 2.524727 0.103218 -0.067940 -260532.000000 0 0 1
23.127100 -4.049587 -32.240828 39.883993 -0.173344 2.512166 0.093949 -0.063620 331654.000000 0 0 1
24.124800 -3.159887 -31.733348 39.987451 -0.130239 2.487471 0.100067 -0.059830 269966.000000 0 0 1
23.914200 -1.691687 -32.117828 40.078743 -0.070622 2.500375 0.092247 -0.052199 -498107.000000 0 0 1
24.755500 -0.735087 -31.485498 40.058853 -0.029685 2.475078 0.093585 -0.046547 212193.000000 0 0 1
24.701100 0.501513 -32.132758 40.532826 0.020300 2.486118 0.070583 -0.044639 152151.000000 0 0 1
25.613800 1.669713 -31.551478 40.673707 0.065096 2.458654 0.076302 -0.037972 227442.000000 0 0 1
26.955400 1.521813 -31.928148 41.812871 0.056397 2.439661 0.083501 -0.040381 -1044040.000000 0 0 1
27.791200 2.428213 -31.298578 41.926698 0.087152 2.413593 0.093820 -0.038773 -513227.000000 0 0 1
29.276100 2.365013 -31.675258 43.197283 0.080608 2.393915 0.098955 -0.041104 14306.100000 0 0 1
29.785800 2.777113 -32.946858 44.501704 0.092967 2.404388 0.098035 -0.035893 120510.000000 0 0 1
29.584000 1.789613 33.590320 44.796488 0.060419 0.722972 0.089862 -0.033823 -406360.000000 0 0 1
30.134100 2.089613 32.171354 44.129656 0.069233 0.753909 0.076745 -0.039275 52539.800000 0 0 1
29.428400 3.121313 31.448980 43.183465 0.105670 0.755010 0.059395 -0.029332 437549.000000 0 0 1
29.706700 4.476613 31.866576 43.795054 0.149568 0.755936 0.079347 -0.030754 -118931.000000 0 0 1
29.086100 5.546013 30.964870 42.843700 0.188414 0.763037 0.081173 -0.027997 -195519.000000 0 0 1
29.526000 6.816813 31.395242 43.633873 0.226899 0.767692 0.098651 -0.036998 -16918.800000 0 0 1
29.092100 7.838313 30.588430 42.935318 0.263181 0.777841 0.096889 -0.034019 -425803.000000 0 0 1
29.649900 9.208713 30.919080 43.816738 0.301136 0.787463 0.100544 -0.028293 -40137.000000 0 0 1
31.012900 9.451813 30.665650 44.626437 0.295828 0.813219 0.088366 -0.029330 -272262.000000 0 0 1
31.354300 10.799013 30.803310 45.260963 0.331694 0.822254 0.088551 -0.017117 -692329.000000 0 0 1
32.784700 11.138213 30.469150 46.122288 0.327504 0.849156 0.091300 -0.024036 -331042.000000 0 0 1
33.817500 10.596413 31.347798 47.313758 0.303651 0.846576 0.107479 -0.041198 1277350.000000 0 0 1
35.162300 10.905713 30.981150 48.116043 0.300746 0.871233 0.116781 -0.043397 589821.000000 0 0 1
35.628900 12.355213 31.097750 48.878828 0.333799 0.881206 0.110678 -0.038629 -1068410.000000 0 0 1
35.941300 12.728313 32.395154 50.032319 0.340360 0.866517 0.120297 -0.031801 51338.000000 0 0 1
36.141800 14.123213 32.546467 50.645507 0.372526 0.872867 0.133621 -0.017025 -68449.900000 0 0 1
34.992600 15.111113 32.224196 49.912189 0.407648 0.868964 0.120238 -0.021944 -1210740.000000 0 0 1
34.880800 15.349513 30.869740 49.043028 0.414554 0.889961 0.104669 -0.032517 647887.000000 0 0 1
33.759300 16.173213 30.526950 48.302773 0.446767 0.886676 0.086242 -0.023782 1285020.000000 0 0 1
32.312200 15.711813 30.915040 47.399146 0.452587 0.860277 0.079530 -0.021076 -335916.000000 0 0 1
31.589700 15.091113 29.863390 46.016007 0.445667 0.864556 0.082742 -0.014054 -335361.000000 0 0 1
30.411300 14.555113 30.384390 45.386228 0.446389 0.837311 0.082224 -0.021171 -340737.000000 0 0 1
29.407600 14.036613 29.320070 43.834917 0.445333 0.838102 0.094679 -0.016037 -130516.000000 0 0 1
29.808500 12.811713 28.675520 43.300948 0.405930 0.846995 0.103218 -0.017535 -248655.000000 0 0 1
28.908900 12.378413 27.709870 41.914037 0.404567 0.848497 0.108954 -0.027279 -519909.000000 0 0 1
28.854900 10.883113 27.379080 41.239077 0.360669 0.844760 0.105101 -0.021015 178753.000000 0 0 1
30.041600 10.173513 27.066040 41.696146 0.326526 0.864362 0.105315 -0.024267 -160877.000000 0 0 1
29.663500 8.907413 26.689410 40.885081 0.291715 0.859533 0.106609 -0.020124 491852.000000 0 0 1
30.815600 7.882713 26.380900 41.324209 0.250433 0.878394 0.102201 -0.028521 422440.000000 0 0 1
31.331700 8.030013 25.056980 40.914652 0.250890 0.911677 0.107963 -0.028167 -268671.000000 0 0 1
32.297600 7.097913 24.703380 41.276777 0.216327 0.929192 0.123443 -0.027630 -230296.000000 0 0 1
32.946000 7.438613 23.359740 41.066402 0.222059 0.965716 0.126712 -0.028173 164201.000000 0 0 1
33.526100 8.784213 23.236700 41.726562 0.256251 0.980171 0.112960 -0.038197 744550.000000 0 0 1
32.585300 9.815913 22.916590 41.028332 0.292592 0.978153 0.123728 -0.042055 200922.000000 0 0 1
32.068700 9.826613 21.433720 39.804123 0.297340 1.002164 0.129426 -0.034185 -241408.000000 0 0 1
33.086100 10.228613 20.559720 40.274268 0.299831 1.035039 0.128336 -0.042467 271375.000000 0 0 1
32.600100 10.109313 19.230220 39.176091 0.300698 1.057713 0.146285 -0.050479 -1032390.000000 0 0 1
33.424800 10.903313 18.226520 39.601837 0.315321 1.092526 0.157453 -0.076705 1146570.000000 0 0 1
34.695200 10.319813 17.822720 40.347302 0.289108 1.113267 0.164544 -0.068228 961356.000000 0 0 1
35.745900 10.458713 18.746020 41.696131 0.284640 1.104494 0.148029 -0.060283 -1081810.000000 0 0 1
37.066900 9.958213 18.183420 42.470670 0.262458 1.128362 0.173163 -0.050278 -661994.000000 0 0 1
37.117700 8.526913 18.093520 42.164053 0.225808 1.127276 0.154697 -0.043790 941524.000000 0 0 1
-37.293807 8.103613 17.634020 42.041114 -0.213965 1.137960 0.169567 -0.048325 429488.000000 0 0 1
-37.230307 6.618313 17.176420 41.532243 -0.175929 1.144427 0.162050 -0.042649 -70762.300000 0 0 1
37.618700 6.360713 16.078120 41.402068 0.167500 1.171966 0.165311 -0.042297 170599.000000 0 0 1
-37.822007 5.066213 15.547320 41.205459 -0.133156 1.183904 0.176186 -0.035565 618237.000000 0 0 1
36.677200 4.050013 15.699920 40.101211 0.109978 1.168527 0.177537 -0.037251 688768.000000 0 0 1
36.548800 3.427213 16.954820 40.435461 0.093497 1.138116 0.172621 -0.026218 233878.000000 0 0 1
35.367500 2.631913 16.930220 39.299101 0.074279 1.125413 0.141805 -0.025862 230527.000000 0 0 1
35.045500 1.649013 18.094320 39.475445 0.047019 1.094637 0.153746 -0.034848 185829.000000 0 0 1
35.848200 0.482613 18.176720 40.196014 0.013462 1.101564 0.171083 -0.026992 79932.100000 0 0 1
35.261000 -0.362287 19.114620 40.110324 -0.010274 1.074069 0.160770 -0.022175 -211420.000000 0 0 1
36.114300 -1.559887 19.455320 41.051010 -0.043166 1.077047 0.151126 -0.027417 -197922.000000 0 0 1
35.519900 -2.252687 20.547620 41.096747 -0.063336 1.047219 0.158217 -0.021132 298492.000000 0 0 1
35.928900 -3.626287 20.669920 41.608670 -0.100589 1.050924 0.113447 -0.018052 -368633.000000 0 0 1
35.215000 -4.319187 21.777520 41.629460 -0.122042 1.020280 0.109559 -0.017757 -565196.000000 0 0 1
35.701100 -3.987887 23.028950 42.670884 -0.111241 1.000730 0.109330 -0.016861 -138369.000000 0 0 1
34.879900 -4.391187 24.079860 42.611379 -0.125236 0.970237 0.092428 -0.018786 -197351.000000 0 0 1
35.340000 -3.895387 25.473340 43.737635 -0.109783 0.949103 0.068776 -0.009655 611488.000000 0 0 1
34.470500 -4.317287 26.556750 43.727741 -0.124597 0.918113 0.073230 -0.008775 665851.000000 0 0 1
34.975800 -3.813687 27.774360 44.824835 -0.108609 0.902538 0.077668 -0.005509 -127995.000000 0 0 1
34.199600 -4.412887 28.922620 45.006712 -0.128324 0.872872 0.070634 -0.007329 -159123.000000 0 0 1
34.525600 -5.779687 29.077850 45.507617 -0.165865 0.877642 0.071843 -0.017016 175827.000000 0 0 1
33.653900 -6.407087 29.994040 45.533265 -0.188130 0.851669 0.070215 -0.029090 -101345.000000 0 0 1
34.156100 -7.779887 30.298350 46.315827 -0.223954 0.857714 0.074417 -0.021686 -717429.000000 0 0 1
35.340500 -7.801787 31.001420 47.654033 -0.217276 0.862485 0.085179 -0.025654 -926517.000000 0 0 1
36.002100 -9.024387 30.831170 48.250925 -0.245602 0.877630 0.086266 -0.008584 -482299.000000 0 0 1
37.267700 -9.189387 31.638577 49.742596 -0.241755 0.881433 0.112079 -0.008828 -542508.000000 0 0 1
36.921500 -9.300387 33.007682 50.390490 -0.246763 0.856563 0.083963 -0.017885 19836.300000 0 0 1
-37.723807 -8.960087 -33.601658 51.307311 0.233197 2.284860 0.052979 -0.021199 -346372.000000 0 0 1
37.602600 -8.942987 -32.105648 50.246444 -0.233491 2.263947 0.070982 -0.028655 -291236.000000 0 0 1
36.950300 -7.798387 -31.539208 49.202247 -0.207998 2.266612 0.064016 -0.038324 399332.000000 0 0 1
37.563400 -6.493287 -31.554918 49.486207 -0.171171 2.262241 0.052239 -0.029838 -219651.000000 0 0 1
36.866500 -5.526387 -30.586088 48.220209 -0.148795 2.257899 0.068393 -0.017049 -191597.000000 0 0 1
37.065300 -5.844987 -29.243828 47.573121 -0.156406 2.232819 0.070904 -0.003510 102176.000000 0 0 1
36.742600 -4.833987 -28.341438 46.654294 -0.130812 2.223678 0.076212 -0.017760 -598021.000000 0 0 1
37.303300 -5.123287 -26.973268 46.317831 -0.136487 2.192415 0.075712 -0.028790 -372260.000000 0 0 1
-37.013007 -4.947087 -27.042368 46.105596 0.132871 2.197566 0.081568 -0.026170 -564613.000000 0 0 1
-36.600107 -4.786387 -25.697178 44.975797 0.130037 2.178953 0.087246 -0.027823 -721844.000000 0 0 1
-35.114007 -4.555187 -25.516898 43.644648 0.129005 2.195246 0.123968 -0.026148 -1367660.000000 0 0 1
-34.776007 -4.003687 -24.249838 42.584678 0.114623 2.176633 0.144110 -0.032052 -79728.200000 0 0 1
-33.387607 -3.885787 -24.069038 41.341870 0.115863 2.192222 0.160820 -0.030331 52620.500000 0 0 1
-32.533007 -2.882887 -24.880038 41.057568 0.088383 2.221793 0.152241 -0.025626 -693268.000000 0 0 1
-32.311707 -3.289087 -26.177628 41.714898 0.101443 2.249182 0.154323 -0.023255 -312527.000000 0 0 1
-31.548407 -2.354987 -26.868478 41.506181 0.074509 2.274881 0.141038 -0.022751 -208559.000000 0 0 1
-30.923307 -2.978887 -28.130548 41.910051 0.096035 2.306640 0.130626 -0.020418 -449173.000000 0 0 1
-31.840107 -3.196087 -29.142928 43.281840 0.100044 2.309499 0.148548 -0.023481 -619731.000000 0 0 1
-31.338307 -4.012387 -30.186578 43.696890 0.127342 2.333415 0.123922 -0.013044 -436079.000000 0 0 1
-32.450107 -4.216987 -31.280398 45.268706 0.129229 2.333659 0.118057 -0.018249 150041.000000 0 0 1
-33.456907 -5.088987 -30.839258 45.785612 0.150949 2.309808 0.110445 -0.014739 346569.000000 0 0 1
-34.428507 -4.610887 -29.901838 45.833419 0.133134 2.281547 0.121991 -0.020657 -4127.170000 0 0 1
-35.559307 -3.583087 -30.284038 46.844698 0.100425 2.273754 0.133622 -0.028531 -64100.600000 0 0 1
-35.141107 -2.310887 -30.783838 46.774804 0.065666 2.289127 0.155447 -0.024495 -29792.600000 0 0 1
-34.449607 -1.434887 -29.906288 45.642309 0.041628 2.285286 0.166127 -0.020863 202.989000 0 0 1
-34.205607 -0.093587 -30.538848 45.854700 0.002736 2.299619 0.157882 -0.024104 213658.000000 0 0 1
-35.450407 0.538013 -30.746578 46.929446 -0.015175 2.285199 0.172465 -0.020232 132906.000000 0 0 1
-35.262007 1.725113 -31.478878 47.300158 -0.048884 2.298977 0.165035 -0.017511 -409465.000000 0 0 1
-36.542007 2.477113 -31.819138 48.517130 -0.067685 2.286082 0.160801 -0.018259 -419039.000000 0 0 1
-37.196907 1.974113 -32.964408 49.740921 -0.053022 2.295244 0.175163 -0.016802 -212344.000000 0 0 1
37.380300 2.739413 -33.271818 50.117912 0.073154 2.296779 0.155697 -0.021008 -385823.000000 0 0 1
36.721600 2.453713 32.787205 49.289932 0.066720 0.843047 0.129930 -0.017412 75350.500000 0 0 1
37.363000 2.824713 31.559680 48.989654 0.075458 0.870805 0.143930 -0.022466 61921.400000 0 0 1
-37.598507 1.774813 31.009510 48.768713 -0.047169 0.881689 0.133867 -0.017905 -276572.000000 0 0 1
-37.438107 1.905313 29.523500 47.716655 -0.050848 0.903677 0.141909 -0.018703 304811.000000 0 0 1
-36.552707 3.007413 29.242490 46.907016 -0.082091 0.897695 0.145943 -0.024071 479191.000000 0 0 1
-36.331207 3.180513 27.805440 45.860819 -0.087320 0.919396 0.130245 -0.020131 27689.500000 0 0 1
-35.643807 4.509713 27.472230 45.227668 -0.125853 0.917986 0.119759 -0.018968 -168090.000000 0 0 1
-35.214507 4.676813 26.154220 44.113233 -0.132037 0.936155 0.119609 -0.017512 83977.200000 0 0 1
-34.836407 6.027013 25.952330 43.856853 -0.171313 0.937567 0.121228 -0.021917 -344786.000000 0 0 1
-34.010407 6.178013 24.655900 42.459263 -0.179691 0.951214 0.120772 -0.019583 107075.000000 0 0 1
-32.790907 5.448013 24.746450 41.440454 -0.164640 0.930844 0.097700 -0.009384 801423.000000 0 0 1
-31.822507 5.679813 23.703320 40.084655 -0.176624 0.938087 0.089793 -0.008770 579466.000000 0 0 1
-32.163207 5.187513 22.292720 39.475911 -0.159910 0.970706 0.099652 -0.016874 -323586.000000 0 0 1
-31.943907 3.811013 22.137820 39.051506 -0.118742 0.968073 0.083225 -0.010961 -250324.000000 0 0 1
-32.660707 3.342513 21.037420 38.993169 -0.101985 1.000935 0.111030 -0.016643 -231299.000000 0 0 1
-32.408907 1.855913 20.622120 38.458465 -0.057203 1.004846 0.093673 -0.011197 287929.000000 0 0 1
-31.210907 1.494313 19.902520 37.046781 -0.047841 1.003651 0.091192 -0.010269 763385.000000 0 0 1
-31.268007 1.966613 18.550320 36.409754 -0.062813 1.036207 0.107350 -0.020598 601343.000000 0 0 1
-29.923307 1.613513 17.798520 34.853910 -0.053869 1.034843 0.119180 -0.030168 460464.000000 0 0 1
-29.683707 0.228313 17.728320 34.575539 -0.007691 1.032421 0.119688 -0.024731 -4550.780000 0 0 1
-28.526707 -0.279487 17.115420 33.268434 0.009797 1.030414 0.131892 -0.027999 -289057.000000 0 0 1
-28.331707 -0.030187 15.609820 32.347380 0.001065 1.067212 0.162723 -0.029574 -351789.000000 0 0 1
-28.148907 1.316713 15.260720 32.046595 -0.046743 1.074463 0.168755 -0.033590 202479.000000 0 0 1
-28.116807 1.422413 13.843620 31.372343 -0.050546 1.113785 0.196930 -0.038422 -139179.000000 0 0 1
-27.287607 2.648713 13.391620 30.511713 -0.096763 1.116421 0.184347 -0.035841 606673.000000 0 0 1
-25.903207 2.523913 13.742720 29.431422 -0.097130 1.084969 0.170211 -0.043344 632239.000000 0 0 1
-25.149207 3.446113 12.982320 28.511383 -0.136179 1.098044 0.164864 -0.048461 450730.000000 0 0 1
-23.598607 3.305313 13.017820 27.152955 -0.139159 1.070796 0.140414 -0.044977 331943.000000 0 0 1
-22.939107 3.919113 14.089820 27.204505 -0.169215 1.026376 0.127734 -0.031599 607883.000000 0 0 1
-21.544007 4.133713 13.889120 25.964196 -0.189569 1.006367 0.107599 -0.029352 305195.000000 0 0 1
-21.107207 4.921613 15.123320 26.428229 -0.229079 0.961560 0.105207 -0.031241 -549304.000000 0 0 1
-21.581607 6.234313 15.135620 27.087256 -0.281216 0.977891 0.101338 -0.015713 435023.000000 0 0 1
-21.372207 6.868313 16.374120 27.785909 -0.310942 0.940609 0.093745 -0.007387 -192099.000000 0 0 1
-21.667007 8.372713 16.285820 28.368811 -0.368751 0.959323 0.112098 -0.008446 290991.000000 0 0 1
-20.584507 9.103013 15.643020 27.409685 -0.416371 0.963424 0.084983 -0.010082 1264490.000000 0 0 1
-20.632707 10.510713 15.772620 28.017124 -0.471155 0.972829 0.082419 -0.005235 -159142.000000 0 0 1
-20.137707 11.047113 17.140420 28.659378 -0.501751 0.929701 0.085755 -0.005033 -425530.000000 0 0 1
-21.013507 10.635413 18.170120 29.746138 -0.468534 0.913676 0.107989 -0.016012 551146.000000 0 0 1
-20.397007 10.721913 19.457420 30.159385 -0.483965 0.869573 0.105425 -0.016384 119005.000000 0 0 1
-12.877200 -32.712631 -19.995138 40.444333 1.195779 2.087925 0.155051 -0.060681 -73959.900000 0 0 1
-13.902600 -33.073631 -19.111738 40.649796 1.172868 2.060264 0.167905 -0.053326 -822323.000000 0 0 1
-15.053000 -32.317331 -19.335338 40.556849 1.134892 2.067746 0.150013 -0.072063 -306438.000000 0 0 1
-16.216200 -32.865031 -18.462338 41.035757 1.112428 2.037459 0.144591 -0.052731 -711445.000000 0 0 1
-16.727400 33.579713 -18.976438 42.041744 -1.108638 2.039098 0.128517 -0.058425 -106124.000000 0 0 1
-17.514000 32.837113 -18.065238 41.368696 -1.080818 2.022711 0.147720 -0.062303 738994.000000 0 0 1
-18.981200 33.367113 -17.879438 42.347663 -1.053589 2.006674 0.147467 -0.055817 -203545.000000 0 0 1
-18.999700 -33.127931 -17.080738 41.835393 1.050071 1.991370 0.169267 -0.053908 -456159.000000 0 0 1
-20.239900 -32.936631 -16.466738 42.019385 1.019776 1.973475 0.127652 -0.047826 -299628.000000 0 0 1
-20.489600 -33.717131 -15.185238 42.275999 1.024741 1.938199 0.140127 -0.044080 -278639.000000 0 0 1
-20.402600 32.554813 -15.314138 41.359458 -1.010964 1.950095 0.146159 -0.048878 78642.700000 0 0 1
-21.035600 31.901413 -14.238538 40.779071 -0.987846 1.927474 0.146933 -0.047473 -31952.500000 0 0 1
-21.085800 30.350113 -14.377538 39.654180 -0.963601 1.941824 0.150076 -0.047022 -475459.000000 0 0 1
-19.878500 29.722713 -14.100238 38.437107 -0.981319 1.946405 0.189431 -0.053678 -533489.000000 0 0 1
-19.928100 28.360113 -14.136338 37.433424 -0.958274 1.958042 0.185642 -0.050906 -87218.200000 0 0 1
-18.762900 27.627213 -13.436138 35.997766 -0.974204 1.953305 0.174583 -0.050794 412521.000000 0 0 1
-17.482600 27.828813 -14.023838 35.731669 -1.009885 1.974119 0.200590 -0.055694 124502.000000 0 0 1
-16.559600 26.864813 -13.575238 34.354412 -1.018402 1.977030 0.200725 -0.065042 1715720.000000 0 0 1
-15.034600 27.278013 -13.860238 34.091574 -1.067062 1.989481 0.170159 -0.064891 1661110.000000 0 0 1
-14.759100 27.289613 -15.274038 34.581068 -1.075019 2.028275 0.142554 -0.052993 827379.000000 0 0 1
-13.437400 27.795113 -15.576538 34.579771 -1.120480 2.038068 0.156202 -0.051620 835404.000000 0 0 1
-13.247500 28.003513 -17.055138 35.363410 -1.128927 2.074054 0.176894 -0.061624 -118644.000000 0 0 1
-13.163000 26.848313 -17.819538 34.808511 -1.114961 2.108227 0.134029 -0.057405 626263.000000 0 0 1
-13.900600 26.920913 -19.099538 35.815564 -1.094155 2.133263 0.111462 -0.054535 382200.000000 0 0 1
-13.354500 25.983813 -20.203038 35.519910 -1.096047 2.175819 0.082408 -0.031353 -448088.000000 0 0 1
-12.188400 26.471713 -20.790938 35.799048 -1.139302 2.190468 0.056471 -0.023320 -500972.000000 0 0 1
-11.365000 25.373113 -21.144338 34.929087 -1.149678 2.221002 0.066220 -0.024760 -262589.000000 0 0 1
-10.116200 25.815413 -21.893238 35.328274 -1.197321 2.239168 0.079641 -0.025532 -456680.000000 0 0 1
-10.425400 26.045013 -23.270938 36.449530 -1.190045 2.263270 0.072268 -0.024083 414342.000000 0 0 1
-9.217000 26.400313 -23.910438 36.791829 -1.234902 2.278229 0.065879 -0.028829 -97406.700000 0 0 1
-9.521200 27.149613 -25.241968 38.274165 -1.233504 2.290955 0.058233 -0.025760 -390296.000000 0 0 1
-10.282400 26.395913 -26.111438 38.526344 -1.199335 2.315502 0.057962 -0.023045 -545371.000000 0 0 1
-10.666100 27.070213 -27.241978 39.858343 -1.195459 2.323302 0.065897 -0.021028 -164652.000000 0 0 1
-11.797200 26.267113 -27.916628 40.105776 -1.148671 2.340712 0.056755 -0.017371 249339.000000 0 0 1
-12.316100 26.830013 -29.146088 41.485303 -1.140449 2.349791 0.074091 -0.013231 847142.000000 0 0 1
-13.684200 26.421113 -29.335348 41.783911 -1.092910 2.349100 0.069568 -0.005273 787275.000000 0 0 1
-14.109800 26.771713 -30.797368 43.177413 -1.085750 2.364956 0.074076 -0.011212 35228.300000 0 0 1
-13.446200 26.114913 -31.920418 43.378590 -1.095311 2.397727 0.079675 -0.008487 247274.000000 0 0 1
-13.224400 24.741013 -31.817158 42.418558 -1.079921 2.418974 0.065490 -0.009583 301061.000000 0 0 1
-12.364600 24.248013 -33.044888 42.811378 -1.099243 2.452576 0.062248 -0.003832 401750.000000 0 0 1
-13.011900 24.392013 33.147485 43.162897 -1.080749 0.695142 0.076920 -0.003341 268306.000000 0 0 1
-12.222400 23.870213 32.078074 41.811207 -1.097567 0.696313 0.075922 -0.008391 -495201.000000 0 0 1
-12.854700 23.957713 30.690930 41.001812 -1.078332 0.724960 0.092192 -0.001756 -760473.000000 0 0 1
-13.989600 23.175913 30.546490 40.815683 -1.027714 0.725149 0.090442 -0.008661 -397618.000000 0 0 1
-14.432700 22.982413 29.208130 39.869901 -1.010051 0.748683 0.098790 -0.007316 -414373.000000 0 0 1
-15.659400 22.107313 29.060530 39.729895 -0.954498 0.750347 0.090102 -0.010972 -463911.000000 0 0 1
-15.440100 20.683113 29.335950 39.074107 -0.929534 0.721558 0.065444 -0.011674 631154.000000 0 0 1
-16.658400 19.965113 29.625600 39.418070 -0.875443 0.720351 0.063810 -0.014907 705768.000000 0 0 1
-16.407500 18.454613 29.831870 38.726210 -0.844051 0.691441 0.053680 -0.023939 17653.700000 0 0 1
-16.113100 17.861213 28.590330 37.363912 -0.836807 0.699467 0.068659 -0.026696 374316.000000 0 0 1
-15.338200 16.653013 28.718960 36.569959 -0.826474 0.667591 0.050566 -0.036417 323465.000000 0 0 1
-14.956900 15.980413 27.348680 35.029028 -0.818470 0.674942 0.055807 -0.029978 -775211.000000 0 0 1
-13.985400 16.632813 26.677150 34.408026 -0.871649 0.683578 0.038663 -0.023101 -1188710.000000 0 0 1
-13.419000 15.884513 25.629150 33.003646 -0.869338 0.681617 0.032591 -0.018590 416749.000000 0 0 1
-12.204400 16.651913 25.017360 32.436121 -0.938321 0.689945 0.038733 -0.017023 214681.000000 0 0 1
-12.530200 17.610513 24.010090 32.305116 -0.952382 0.732913 0.036361 -0.022204 -146447.000000 0 0 1
-13.123900 18.832113 24.395480 33.496637 -0.962161 0.754964 0.035680 -0.018241 164283.000000 0 0 1
-12.194300 19.810513 25.169370 34.273234 -1.019024 0.746052 0.038329 -0.016867 397469.000000 0 0 1
-11.722700 19.459413 26.495840 34.901576 -1.028601 0.708776 0.052866 -0.018581 996429.000000 0 0 1
-12.767500 19.665113 27.495230 36.134657 -0.994951 0.706082 0.059487 -0.014013 646648.000000 0 0 1
-12.418400 19.167213 28.858940 36.802679 -0.995900 0.669466 0.059373 -0.014901 521033.000000 0 0 1
-11.256500 19.865113 29.367710 37.199381 -1.055262 0.660855 0.065738 -0.019661 782070.000000 0 0 1
-11.218100 19.775713 30.766660 38.255875 -1.054793 0.636412 0.066092 -0.024581 -565592.000000 0 0 1
-10.155800 20.679413 31.355366 38.909349 -1.114289 0.633675 0.047405 -0.017858 -424681.000000 0 0 1
-8.845400 20.167013 31.285060 38.258392 -1.157457 0.613339 0.049398 -0.024917 -266004.000000 0 0 1
-7.990300 21.098713 31.925462 39.092656 -1.208777 0.615194 0.060975 -0.023875 718790.000000 0 0 1
-6.670200 20.396213 32.444540 38.899168 -1.254728 0.584356 0.053084 -0.021418 218423.000000 0 0 1
-6.824600 19.432313 33.485580 39.312518 -1.233054 0.551425 0.053735 -0.026223 -87063.300000 0 0 1
-5.605200 19.070113 -33.366868 38.838581 -1.284921 2.604337 0.053287 -0.023405 38227.200000 0 0 1
-4.737400 18.094513 33.293359 38.187723 -1.314730 0.511862 0.040926 -0.025558 -400031.000000 0 0 1
-5.139000 16.751813 33.518300 37.822071 -1.273138 0.481697 0.046997 -0.022928 127018.000000 0 0 1
-4.873700 15.982313 32.357639 36.417085 -1.274811 0.476667 0.046674 -0.014533 -114802.000000 0 0 1
-5.456000 14.568713 32.358188 35.903589 -1.212463 0.448146 0.067186 -0.017996 -413604.000000 0 0 1
-4.774000 13.734413 33.217592 36.260635 -1.236267 0.412607 0.069938 -0.011128 -241640.000000 0 0 1
-5.396400 12.492313 33.312014 35.984293 -1.163030 0.387815 0.078890 -0.014271 -329434.000000 0 0 1
-4.350800 11.451913 33.694620 35.852520 -1.207720 0.348717 0.075192 -0.021860 -143015.000000 0 0 1
-4.349300 11.043613 -32.399778 34.505412 -1.195621 2.790440 0.109881 -0.041495 -57502.900000 0 0 1
-3.503700 9.907113 -32.276018 33.943603 -1.230869 2.826837 0.127293 -0.041406 84017.300000 0 0 1
-3.559400 9.202013 -30.928898 32.464490 -1.201715 2.832794 0.142295 -0.042012 81345.500000 0 0 1
-4.764300 8.505213 -30.694728 32.205645 -1.060184 2.834067 0.145109 -0.038402 -110012.000000 0 0 1
-5.359700 8.854913 -29.481228 31.245459 -1.026504 2.803945 0.168481 -0.039822 -331409.000000 0 0 1
-6.578800 8.000813 -29.141398 30.927572 -0.882625 2.800072 0.147811 -0.039651 -589957.000000 0 0 1
-6.270600 6.719913 -28.647568 30.085891 -0.819972 2.831131 0.142406 -0.027078 579176.000000 0 0 1
-7.367900 5.924613 -28.132378 29.678573 -0.677243 2.817380 0.150760 -0.052204 246425.000000 0 0 1
-7.010100 5.330913 -26.705898 28.120547 -0.650163 2.823052 0.132686 -0.052143 -115907.000000 0 0 1
-7.177200 6.097413 -25.533438 27.214833 -0.704235 2.788240 0.087622 -0.033824 456739.000000 0 0 1
-6.155300 7.089913 -25.340248 27.023745 -0.855844 2.786755 0.108576 -0.034335 152395.000000 0 0 1
-6.383800 7.999213 -24.189638 26.265546 -0.897243 2.741345 0.063129 -0.016952 -124558.000000 0 0 1
-6.320500 7.284713 -22.967938 24.910680 -0.856151 2.744041 0.045272 -0.011629 -580338.000000 0 1 0
-7.552000 7.374213 -22.330338 24.699306 -0.773488 2.700036 0.049276 -0.013729 -637784.000000 0 1 0
-7.479100 7.651513 -20.816138 23.405004 -0.796793 2.666802 0.036526 -0.008295 -182513.000000 0 1 0
-7.048000 8.964013 -20.564438 23.514335 -0.904493 2.635301 0.028988 -0.002782 -172313.000000 0 1 0
-6.979300 9.350013 -19.178438 22.448739 -0.929572 2.595040 0.030696 0.001415 -539596.000000 0 1 0
-8.211700 9.420413 -18.281038 22.144357 -0.853843 2.541954 0.033952 -0.003320 -944170.000000 0 1 0
-7.882300 9.602813 -16.934038 21.002532 -0.883481 2.508642 0.018974 0.002003 -86132.800000 0 1 0
-8.909300 9.933713 -16.015938 20.846212 -0.839710 2.446962 0.025194 -0.011099 -86810.400000 0 1 0
-9.534300 11.311213 -16.255338 21.979137 -0.870435 2.403243 0.052118 -0.017486 102394.000000 0 1 0
-8.660400 12.381313 -15.850338 21.898235 -0.960424 2.380116 0.037873 -0.014286 748123.000000 0 1 0
-9.189800 13.678113 -16.240138 23.136234 -0.979206 2.348907 0.065786 -0.017755 880619.000000 0 1 0
-8.027200 14.708613 -15.988838 23.160790 -1.071223 2.332756 0.074115 -0.019715 712777.000000 0 1 0
-7.497200 14.759313 -14.624538 22.088967 -1.100798 2.294380 0.063910 -0.018636 682925.000000 0 1 0
-8.446400 15.051613 -13.605738 21.977462 -1.059424 2.238363 0.058922 -0.037727 26474.000000 0 1 0
-7.706400 15.946413 -12.547838 21.705413 -1.120623 2.187191 0.043750 -0.029402 440775.000000 0 1 0
-7.346600 17.290813 -12.844138 22.757782 -1.169023 2.170484 0.053435 -0.028317 273156.000000 0 1 0
-6.309300 17.506413 -13.787538 23.159836 -1.224887 2.208462 0.073502 -0.024742 42836.900000 0 1 0
-6.254700 18.953413 -14.216838 24.504523 -1.252045 2.189736 0.103676 -0.014703 78371.000000 0 1 0
-5.936700 19.856613 -13.172338 24.556873 -1.280277 2.136964 0.112375 -0.026935 -4775.400000 0 1 0
-5.930200 21.209513 -13.600038 25.883813 -1.298158 2.124013 0.104037 -0.018624 -468463.000000 0 0 1
-5.377900 22.223313 -12.593738 26.103634 -1.333367 2.074248 0.114074 -0.016836 -539483.000000 0 0 1
-5.591900 23.629213 -12.746938 27.424323 -1.338419 2.054210 0.097044 -0.017562 1372520.000000 0 0 1
-6.993900 24.009613 -12.836838 28.109795 -1.287344 2.045042 0.092747 -0.019369 1375950.000000 0 0 1
-7.881200 23.959513 -11.557138 27.744171 -1.253007 2.000455 0.051261 -0.026097 -316644.000000 0 0 1
-8.074900 22.619813 -11.095938 26.457132 -1.227914 2.003573 0.059778 -0.020149 34514.800000 0 0 1
-8.674700 22.548513 -9.789538 26.067622 -1.203538 1.955780 0.062608 -0.024077 -55643.500000 0 0 1
-7.778900 22.941913 -8.617038 25.711788 -1.243892 1.912550 0.067517 -0.022726 -283364.000000 0 0 1
-7.811100 24.298713 -8.460738 26.889121 -1.259768 1.890887 0.051616 -0.017145 -43278.000000 0 0 1
-7.084100 24.713613 -7.305038 26.726592 -1.291634 1.847644 0.058023 -0.019263 199224.000000 0 0 1
-7.009300 26.238013 -7.159938 28.086088 -1.309749 1.828570 0.057821 -0.020980 348314.000000 0 0 1
-5.955600 26.902213 -7.846938 28.649131 -1.352931 1.848240 0.051339 -0.016628 -25980.900000 0 0 1
-6.102100 26.905413 -9.271538 29.104953 -1.347771 1.895001 0.048579 -0.019877 -83614.400000 0 0 1
-5.270400 27.891713 -10.118938 30.134991 -1.384039 1.913237 0.044669 -0.014833 -2836.110000 0 0 1
-5.735800 29.210613 -10.118238 31.441025 -1.376903 1.898444 0.032747 -0.013296 -158446.000000 0 0 1
-6.474300 29.496213 -11.289538 32.239678 -1.354727 1.928555 0.042174 -0.015851 -377153.000000 0 0 1
-7.545500 30.578913 -11.120238 33.401560 -1.328874 1.910201 0.058799 -0.019611 -456581.000000 0 0 1
-8.587700 30.034813 -10.335738 32.903892 -1.292302 1.890325 0.086418 -0.015272 -388295.000000 0 0 1
-9.681000 30.905813 -10.364938 34.004750 -1.267236 1.880534 0.095219 -0.032597 793415.000000 0 0 1
-10.915100 30.616913 -9.411238 33.839418 -1.228338 1.852627 0.111431 -0.032332 1257540.000000 0 0 1
-11.783700 29.547213 -9.752438 33.271661 -1.191317 1.868280 0.120662 -0.045830 208673.000000 0 0 1
-13.024800 29.625013 -9.067638 33.608167 -1.156578 1.843986 0.170748 -0.041770 464020.000000 0 0 1
-14.038500 28.573713 -9.562838 33.241306 -1.114126 1.862599 0.182825 -0.050744 -31759.000000 0 0 1
-13.944700 27.298913 -9.019538 31.953676 -1.098534 1.856955 0.130565 -0.044258 -319020.000000 0 0 1
-15.067600 26.509313 -9.304638 31.880285 -1.053945 1.866969 0.160225 -0.039430 -215315.000000 0 0 1
-15.124500 25.078213 -8.667338 30.541612 -1.028106 1.858538 0.124310 -0.033575 -472231.000000 0 0 1
-14.318800 24.110313 -9.240038 29.524796 -1.034884 1.889103 0.110214 -0.029598 -347407.000000 0 0 1
-14.593300 22.766713 -8.805038 28.439697 -1.000779 1.885573 0.102401 -0.027703 -771704.000000 0 0 1
-13.642900 21.710113 -9.228538 27.251122 -1.009747 1.916276 0.098052 -0.020322 -797851.000000 0 0 1
-13.788800 21.417513 -10.587938 27.585237 -0.998785 1.964733 0.090396 -0.020559 -17461.700000 0 0 1
-13.007200 20.337013 -10.981938 26.521394 -1.001779 1.997726 0.081240 -0.023047 -337965.000000 0 0 1
-13.249400 19.860413 -12.419338 26.911384 -0.982476 2.050470 0.089026 -0.016391 501099.000000 0 0 1
-14.557400 19.291213 -12.516838 27.216540 -0.924349 2.048677 0.108308 -0.020866 382495.000000 0 0 1
-14.753000 18.713313 -13.773438 27.523566 -0.903188 2.094884 0.108685 -0.023721 -814744.000000 0 0 1
-16.218200 18.476213 -14.049938 28.316095 -0.850389 2.089992 0.107843 -0.017990 -633900.000000 0 0 1
-16.848900 19.671313 -14.514038 29.690121 -0.862528 2.081568 0.103460 -0.026300 550218.000000 0 0 1
-18.238200 19.446313 -14.794838 30.490626 -0.817446 2.077418 0.103462 -0.028352 428576.000000 0 0 1
-18.980400 20.598313 -15.442638 31.984702 -0.826254 2.074661 0.110055 -0.035677 -419704.000000 0 0 1
-19.474900 21.525313 -14.541538 32.466401 -0.835366 2.035206 0.113561 -0.040700 30308.400000 0 0 1
-19.911500 22.653813 -15.273238 33.807320 -0.849735 2.039548 0.125472 -0.037335 24554.700000 0 0 1
-20.635000 23.777813 -14.456138 34.643435 -0.856044 2.001251 0.129742 -0.027300 339277.000000 0 0 1
-21.924800 23.396713 -14.000738 34.987480 -0.817864 1.982492 0.149236 -0.035306 532741.000000 0 0 1
-22.502400 24.317213 -13.049038 35.608458 -0.824141 1.945997 0.153955 -0.039990 140126.000000 0 0 1
-26.291450 -0.514687 3.598762 26.541597 0.019574 1.434788 0.189459 -0.050495 -268522.000000 0 0 1
-26.792680 -0.090787 4.836862 27.225929 0.003388 1.392192 0.210809 -0.048859 -495382.000000 0 0 1
-28.180580 -0.072887 4.722062 28.573559 0.002586 1.404775 0.234945 -0.050689 -780960.000000 0 0 1
-28.829880 0.473213 5.998962 29.451205 -0.016413 1.365669 0.235237 -0.046006 -315984.000000 0 0 1
-29.046650 1.869613 5.836562 29.686172 -0.064277 1.372898 0.251866 -0.051539 237722.000000 0 0 1
-29.502140 2.542413 7.022662 30.432843 -0.085965 1.337938 0.278748 -0.043828 622504.000000 0 0 1
-28.337200 3.080513 7.960762 29.594936 -0.108284 1.298451 0.277768 -0.049402 843894.000000 0 0 1
-27.520580 2.067513 8.564762 28.896576 -0.074985 1.269882 0.252268 -0.059311 226399.000000 0 0 1
-26.648670 2.558913 9.510062 28.410226 -0.095731 1.229466 0.249444 -0.067867 -875186.000000 0 0 1
-25.658370 1.540113 10.056362 27.601709 -0.059952 1.197874 0.222475 -0.066322 -288265.000000 0 0 1
-24.762300 1.023313 9.069462 26.390790 -0.041302 1.219985 0.222900 -0.063318 478438.000000 0 0 1
-25.210940 -0.190887 8.608162 26.640728 0.007571 1.241771 0.186784 -0.057782 -838047.000000 0 0 1
-24.138100 -0.986087 7.899762 25.417051 0.040829 1.254756 0.172162 -0.055717 -431367.000000 0 0 1
-23.146200 -1.465087 8.778062 24.798134 0.063213 1.208972 0.178570 -0.072854 -273282.000000 0 1 0
-22.025300 -1.938987 8.116662 23.553210 0.087808 1.218973 0.196500 -0.058065 622813.000000 0 1 0
-20.724400 -2.200187 9.012762 22.706199 0.105768 1.162627 0.151246 -0.042246 1122400.000000 0 1 0
-20.067300 -0.983787 9.375862 22.171404 0.048985 1.134174 0.130486 -0.046755 551634.000000 0 1 0
-20.639600 -0.260487 10.502562 23.159550 0.012620 1.100122 0.144760 -0.049206 -545897.000000 0 1 0
-20.099900 1.174713 10.727762 22.813829 -0.058377 1.081244 0.099352 -0.035516 -332467.000000 0 1 0
-20.531900 2.168113 9.822662 22.863603 -0.105207 1.126724 0.109768 -0.036752 467611.000000 0 1 0
-21.930500 2.290013 9.658162 24.072206 -0.104044 1.157952 0.148339 -0.047445 -699947.000000 0 1 0
-22.200000 3.750913 9.207862 24.324763 -0.167379 1.182579 0.139664 -0.055015 -409248.000000 0 1 0
-22.460800 4.669113 10.251462 25.127289 -0.204959 1.150555 0.134898 -0.048832 592619.000000 0 0 1
-22.723800 5.933213 9.726762 25.420150 -0.255399 1.178144 0.114927 -0.042107 -289236.000000 0 0 1
-22.870400 6.938413 10.893162 26.265143 -0.294554 1.143141 0.113782 -0.038804 -142307.000000 0 0 1
-24.020900 6.656713 11.645962 27.512614 -0.270338 1.133717 0.129605 -0.032370 172226.000000 0 0 1
-24.049000 7.506613 12.800062 28.258543 -0.302555 1.100711 0.120584 -0.018982 434168.000000 0 0 1
-24.957190 6.896313 13.961162 29.416569 -0.269598 1.076285 0.138600 -0.022989 582503.000000 0 0 1
-26.342180 7.004813 13.724062 30.517663 -0.259902 1.104357 0.144203 -0.027762 94232.800000 0 0 1
-27.139380 6.279413 14.657862 31.477451 -0.227375 1.086413 0.140569 -0.039204 937029.000000 0 0 1
-28.667720 6.485813 14.347362 32.707044 -0.222495 1.116686 0.154073 -0.034177 637214.000000 0 0 1
-29.053460 5.610713 13.277462 32.432617 -0.190768 1.149015 0.194896 -0.031743 -358798.000000 0 0 1
-30.302060 5.942213 12.760062 33.411733 -0.193642 1.178941 0.225020 -0.033467 -726272.000000 0 0 1
-30.775390 5.012513 11.637862 33.281973 -0.161456 1.213573 0.262064 -0.039557 -338626.000000 0 0 1
-31.437140 3.843513 11.974362 33.859293 -0.121657 1.209325 0.219540 -0.037000 -49008.200000 0 0 1
-31.592230 2.901313 10.938662 33.558024 -0.091579 1.238767 0.230321 -0.029410 -490634.000000 0 0 1
-32.752850 2.001513 11.336762 34.717106 -0.061034 1.238148 0.183016 -0.016532 -513398.000000 0 0 1
-32.428150 0.878313 12.120262 34.630292 -0.027078 1.213236 0.167203 -0.017981 116416.000000 0 0 1
-33.613620 0.228913 12.541362 35.877759 -0.006810 1.213697 0.133563 -0.023405 94736.100000 0 0 1
-33.403660 -0.721387 13.736862 36.125148 0.021593 1.180722 0.106690 -0.025067 -125188.000000 0 0 1
-33.202610 -2.068487 13.377662 35.856015 0.062219 1.188455 0.126722 -0.018756 248087.000000 0 0 1
-33.332340 -2.894487 14.517462 36.471628 0.086620 1.161408 0.109007 -0.015051 -187029.000000 0 0 1
-33.245800 -4.373587 14.192762 36.412168 0.130802 1.170403 0.115242 -0.015150 -512692.000000 0 0 1
-34.414944 -4.802487 13.568562 37.303594 0.138651 1.198524 0.104006 -0.026280 -255251.000000 0 0 1
-34.325486 -6.082287 12.893962 37.168367 0.175374 1.216525 0.120993 -0.029875 -1310270.000000 0 0 1
-35.614914 -6.347887 12.153862 38.163256 0.176385 1.246681 0.119546 -0.033415 -623253.000000 0 0 1
-36.744920 -6.688687 12.930062 39.523590 0.180059 1.237512 0.115001 -0.040902 303386.000000 0 0 1
-37.425450 -5.559187 13.442762 40.153166 0.147462 1.229417 0.127227 -0.039406 -514334.000000 0 0 1
36.856076 -5.321487 12.874762 39.401117 -0.143395 1.237922 0.143794 -0.032675 392281.000000 0 0 1
35.810856 -5.972687 13.579362 38.761959 -0.165263 1.212876 0.138221 -0.038064 52612.100000 0 0 1
34.567286 -5.685187 12.988762 37.362100 -0.163008 1.215738 0.151321 -0.034213 -288589.000000 0 0 1
33.375296 -6.591387 13.245562 36.507556 -0.194984 1.199507 0.145820 -0.027946 -363377.000000 0 0 1
32.919886 -6.466787 14.539362 36.564071 -0.193970 1.161852 0.144081 -0.025928 -207446.000000 0 0 1
31.796966 -7.277287 14.760262 35.803230 -0.224992 1.145862 0.125291 -0.032605 -187900.000000 0 0 1
31.276806 -7.367087 16.214662 35.992052 -0.231328 1.103463 0.102902 -0.020536 73959.700000 0 0 1
32.104666 -8.061087 17.126762 37.269514 -0.246002 1.093321 0.097562 -0.016204 44240.600000 0 0 1
31.465496 -8.040287 18.398662 37.326055 -0.250174 1.055357 0.073838 -0.017043 -578607.000000 0 0 1
32.355986 -8.596787 19.539962 38.763703 -0.259694 1.042481 0.080020 -0.017838 82206.500000 0 0 1
33.488586 -7.820387 19.856862 39.710689 -0.229413 1.047153 0.083219 -0.013480 -433042.000000 0 0 1
34.606146 -8.083687 19.067162 40.329741 -0.229476 1.078351 0.069078 -0.008679 -989711.000000 0 0 1
35.930216 -7.488487 19.567162 41.592447 -0.205476 1.080996 0.054078 -0.013431 -158194.000000 0 0 1
36.387466 -8.000087 20.749662 42.645018 -0.216415 1.062640 0.053863 -0.016890 814190.000000 0 0 1
37.770066 -7.645787 20.974262 43.874316 -0.199731 1.072359 0.060897 -0.013435 940954.000000 0 0 1
-37.432450 -8.316187 22.287262 44.351655 0.218615 1.044294 0.059984 -0.017229 -125519.000000 0 0 1
37.684806 -7.810587 23.467662 45.076391 -0.204367 1.023220 0.051435 -0.011979 6958.990000 0 0 1
37.701976 -8.823287 24.452762 45.795490 -0.229890 1.007524 0.037150 -0.018824 -328632.000000 0 0 1
37.080266 -8.324087 25.804662 45.936011 -0.220827 0.974294 0.066423 -0.019122 706106.000000 0 0 1
-37.742020 -7.496787 26.623262 46.791666 0.196080 0.965538 0.040514 -0.021477 284800.000000 0 0 1
37.301576 -6.988387 27.780962 47.032191 -0.185201 0.938895 0.049838 -0.016436 -474232.000000 0 0 1
-37.725810 -6.119087 28.858762 47.890585 0.160799 0.924044 0.060191 -0.015476 31610.300000 0 0 1
-36.942930 -6.840787 29.811362 47.961378 0.183098 0.900051 0.050553 -0.014749 -41544.900000 0 0 1
-35.545965 -6.694487 29.631762 46.758669 0.186153 0.884448 0.052500 -0.023724 493689.000000 0 0 1
-34.722616 -7.183887 30.881362 47.020494 0.204015 0.854277 0.049833 -0.021913 245536.000000 0 0 1
-34.738825 -8.602087 30.977862 47.332967 0.242739 0.857319 0.046807 -0.020837 -3617.890000 0 0 1
-34.190259 -9.086887 32.154262 47.806295 0.259769 0.833087 0.043089 -0.015329 -486122.000000 0 0 1
-34.302276 -10.618587 32.294762 48.294432 0.300204 0.838330 0.053343 -0.019861 585423.000000 0 0 1
-35.666900 -11.035687 32.464362 49.475741 0.300067 0.855068 0.050033 -0.020809 665799.000000 0 0 1
-35.835982 -12.414087 32.627162 50.028580 0.333477 0.860352 0.055788 -0.016246 -153321.000000 0 0 1
-37.323940 -12.702387 32.854662 51.321106 0.328033 0.876066 0.070373 -0.020687 -316064.000000 0 0 1
-37.658940 -14.044387 32.892962 51.936379 0.356960 0.884945 0.079477 -0.031661 321772.000000 0 0 1
36.665796 -14.258787 33.151762 51.446408 -0.370888 0.870566 0.081770 -0.033770 216508.000000 0 0 1
36.297446 -15.748287 33.155962 51.622000 -0.409358 0.873322 0.071500 -0.018617 -87400.000000 0 0 1
36.878056 -16.403287 -33.186197 52.253062 -0.418520 2.258941 0.083085 -0.035184 250573.000000 0 0 1
36.489656 -17.765687 -33.165797 52.412639 -0.453088 2.255938 0.085691 -0.046181 -293995.000000 0 0 1
36.929596 -18.690387 -32.034997 52.338959 -0.468523 2.229469 0.092689 -0.035465 -211250.000000 0 0 1
36.108706 -18.498687 -30.893997 50.994893 -0.473443 2.221599 0.099359 -0.033654 -336512.000000 0 0 1
36.568356 -19.105587 -29.745197 50.863001 -0.481456 2.195442 0.095229 -0.034722 -2049030.000000 0 0 1
35.660846 -19.085887 -28.520197 49.491097 -0.491414 2.184953 0.089525 -0.028989 592264.000000 0 0 1
34.407226 -19.795887 -28.606697 48.929311 -0.522090 2.195249 0.074798 -0.020947 762449.000000 0 0 1
33.539956 -19.158487 -29.499597 48.602495 -0.518984 2.223022 0.052675 -0.011625 -1381140.000000 0 0 1
32.171076 -19.874087 -29.748597 48.113787 -0.553378 2.237370 0.038719 -0.003623 604996.000000 0 0 1
31.351816 -19.390387 -30.800997 48.037744 -0.553895 2.266836 0.029550 0.002262 384015.000000 0 0 1
30.098606 -20.066287 -30.741997 47.472648 -0.588015 2.275191 0.031745 0.004505 238221.000000 0 0 1
29.085706 -19.550087 -31.785097 47.312542 -0.591792 2.307448 0.028583 0.012357 72701.700000 0 0 1
29.424406 -19.745887 -33.149097 48.523792 -0.591046 2.322866 0.023335 0.010476 16944.400000 0 0 1
28.345406 -19.263387 33.536962 47.950682 -0.596899 0.796231 0.066848 0.002210 328619.000000 0 0 1
28.668106 -19.432887 32.016462 47.165148 -0.595710 0.824647 0.064585 -0.001801 259892.000000 0 0 1
29.577106 -18.532787 31.398462 46.948193 -0.559744 0.838217 0.045849 -0.011031 119638.000000 0 0 1
29.513206 -18.628287 30.045762 46.052038 -0.563034 0.860009 0.045014 -0.023417 -96204.300000 0 0 1
28.381406 -17.818087 29.392062 44.574451 -0.560616 0.850786 0.044786 -0.015214 -149799.000000 0 0 1
28.476606 -16.410587 29.610662 44.238171 -0.522798 0.837468 0.052910 -0.024917 287079.000000 0 0 1
27.434906 -15.762887 28.908362 42.858325 -0.521500 0.830496 0.039256 -0.018443 -88907.200000 0 0 1
27.227006 -14.362887 29.389362 42.559804 -0.485423 0.808557 0.050545 -0.022926 -383915.000000 0 0 1
28.269306 -13.453787 29.174762 42.793980 -0.444195 0.820645 0.060375 -0.026331 -157910.000000 0 0 1
28.017506 -12.154487 29.589362 42.523435 -0.409315 0.801212 0.091159 -0.025119 -470641.000000 0 0 1
29.375306 -11.500987 29.792062 43.390647 -0.373174 0.813993 0.104710 -0.031513 -35795.900000 0 0 1
30.054606 -11.104287 28.580362 42.935086 -0.353914 0.842412 0.098023 -0.033061 255388.000000 0 0 1
31.423746 -10.874387 28.868962 44.035452 -0.333157 0.855840 0.099821 -0.025439 111193.000000 0 0 1
32.156306 -10.088487 27.780562 43.675682 -0.304008 0.881409 0.107977 -0.030965 -208593.000000 0 0 1
31.842386 -8.732787 27.762362 43.138705 -0.267669 0.871655 0.098485 -0.023282 -13684.300000 0 0 1
32.308736 -8.219187 26.525262 42.602805 -0.249111 0.898713 0.093224 -0.020831 149155.000000 0 0 1
32.077236 -6.682687 26.461062 42.116448 -0.205393 0.891452 0.085954 -0.016364 91778.200000 0 0 1
30.751306 -6.272387 26.208562 40.888560 -0.201211 0.875028 0.089591 -0.013159 -260756.000000 0 0 1
30.686106 -4.873087 25.969362 40.494343 -0.157489 0.874594 0.100748 -0.008758 -235724.000000 0 0 1
29.235406 -4.401687 25.926162 39.322381 -0.149438 0.850878 0.085580 -0.006343 -260358.000000 0 0 1
28.588506 -4.844187 24.733362 38.111783 -0.167851 0.864568 0.096859 -0.013602 149603.000000 0 0 1
27.230106 -4.428687 24.719962 37.042792 -0.161228 0.840171 0.104064 -0.018410 -114511.000000 0 0 1
26.513606 -4.915587 23.491562 35.762939 -0.183317 0.854138 0.099305 -0.022635 -346368.000000 0 0 1
27.016206 -4.319987 22.291962 35.291206 -0.158561 0.887107 0.112753 -0.018662 403999.000000 0 0 1
26.257006 -4.717087 21.156662 34.048284 -0.177754 0.900303 0.121782 -0.016452 318991.000000 0 0 1
26.642006 -3.819587 19.990462 33.526173 -0.142397 0.931957 0.150206 -0.018372 247935.000000 0 0 1
25.919906 -2.603087 20.095062 32.900290 -0.100092 0.913742 0.136279 -0.012083 272446.000000 0 0 1
26.364606 -1.649187 19.143662 32.623489 -0.062472 0.943688 0.150759 -0.019395 -13687.100000 0 0 1
25.206306 -0.665887 18.882062 31.501326 -0.026411 0.928038 0.117892 -0.024202 -182996.000000 0 0 1
24.139306 -1.296987 18.220762 30.271842 -0.053678 0.924912 0.115677 -0.023622 -701884.000000 0 0 1
23.201306 -0.368887 17.782562 29.234503 -0.015898 0.916913 0.119298 -0.024186 -587957.000000 0 0 1
21.931906 -1.033987 17.271862 27.935548 -0.047110 0.904250 0.125982 -0.033996 -853234.000000 0 0 1
22.103306 -1.749287 16.040362 27.366208 -0.078977 0.944513 0.150837 -0.027012 77766.600000 0 0 1
20.938306 -2.319587 15.471062 26.137079 -0.110332 0.937357 0.157952 -0.036564 -301963.000000 0 0 1
21.310706 -3.143387 14.216062 25.809368 -0.146447 0.987462 0.186213 -0.043612 -288484.000000 0 0 1
20.268506 -3.866587 13.599462 24.712511 -0.188503 0.988065 0.194296 -0.047373 262354.000000 0 1 0
20.631006 -4.438887 12.376962 24.464900 -0.211925 1.040363 0.204342 -0.045649 -785490.000000 0 1 0
19.658006 -5.457787 11.855562 23.596165 -0.270816 1.044382 0.206202 -0.046592 -586370.000000 0 1 0
19.672706 -6.649287 12.581362 24.280013 -0.325941 1.026077 0.203700 -0.053104 1569460.000000 0 1 0
18.378006 -7.285087 12.462162 23.369405 -0.377401 1.008337 0.189227 -0.033736 842914.000000 0 1 0
18.493906 -8.784887 12.675562 24.080462 -0.443461 1.016455 0.203849 -0.053187 -399881.000000 0 1 0
19.247606 -9.384287 11.647162 24.376045 -0.453643 1.072634 0.196455 -0.061437 451958.000000 0 1 0
19.003406 -10.788687 11.575162 24.728720 -0.516349 1.083673 0.224605 -0.065196 -224981.000000 0 1 0
19.560806 -11.384487 10.301062 24.866515 -0.527083 1.143673 0.220200 -0.064409 164902.000000 0 1 0
18.851406 -10.899287 9.177362 23.630360 -0.524212 1.171932 0.180504 -0.057081 645315.000000 0 1 0
19.539606 -11.345887 8.025462 23.977769 -0.526078 1.229505 0.191973 -0.064854 330154.000000 0 1 0
18.857906 -10.787187 6.757962 22.752012 -0.519595 1.269219 0.149708 -0.043618 177413.000000 0 1 0
19.191906 -9.392487 6.570962 22.354543 -0.455130 1.272447 0.133903 -0.040835 591052.000000 0 1 0
19.705006 -9.186287 5.273262 22.371464 -0.436236 1.332843 0.109440 -0.035035 -252397.000000 0 1 0
20.161506 -7.762087 5.043662 22.185014 -0.367505 1.341445 0.134329 -0.033487 -169915.000000 0 1 0
20.980206 -7.665687 3.861762 22.668150 -0.350308 1.399601 0.139092 -0.029870 963416.000000 0 1 0
21.261306 -6.283087 3.615162 22.463074 -0.287339 1.409155 0.152371 -0.027532 -561831.000000 0 1 0
21.990406 -5.966987 2.348262 22.906270 -0.264965 1.468100 0.172505 -0.026523 -409307.000000 0 1 0
21.241706 -5.836487 1.145562 22.058716 -0.268148 1.518841 0.132267 -0.035347 360986.000000 0 1 0
21.992006 -5.272487 0.111762 22.615480 -0.235304 1.565854 0.156410 -0.023557 -102683.000000 0 1 0
-25.379370 -14.277987 -0.085038 29.120106 0.512452 1.573717 0.167177 -0.034935 -139764.000000 0 0 1
-24.095600 -14.140587 -0.719038 27.947650 0.530697 1.596527 0.120505 -0.019868 1221140.000000 0 0 1
-23.042500 -14.943987 -0.177238 27.464722 0.575348 1.577250 0.114177 -0.011500 693741.000000 0 0 1
-22.572400 -14.451487 1.246462 26.831183 0.569475 1.524324 0.148289 -0.033479 -1148650.000000 0 0 1
-23.516900 -14.758487 2.226662 27.853466 0.560445 1.490769 0.147677 -0.011727 -85720.000000 0 0 1
-23.000500 -14.487687 3.525162 27.410634 0.562105 1.441834 0.159813 -0.010909 514287.000000 0 0 1
-23.803100 -15.229287 4.667862 28.641014 0.569173 1.407088 0.193129 -0.009111 268859.000000 0 0 1
-23.622400 -16.645887 4.599662 29.261925 0.613850 1.412952 0.242060 -0.037085 183564.000000 0 0 1
-24.389700 -17.326687 5.569662 30.431771 0.617678 1.386738 0.236210 -0.035374 -38364.800000 0 0 1
-24.309100 -18.841487 5.367862 31.220953 0.659360 1.398006 0.171973 -0.028571 283293.000000 0 0 1
-24.951200 -19.603787 6.411362 32.372464 0.665951 1.371428 0.169777 -0.035256 110826.000000 0 0 1
-25.257750 -20.928687 6.079962 33.360603 0.691941 1.387522 0.162847 -0.043645 144760.000000 0 0 1
-26.044600 -21.679487 7.161662 34.635397 0.694186 1.362521 0.143427 -0.033036 -248855.000000 0 0 1
-25.215210 -21.996987 8.227962 34.458288 0.717338 1.329687 0.143745 -0.028665 -744752.000000 0 0 1
-25.846420 -22.512887 9.333162 35.524293 0.716574 1.304950 0.134833 -0.027820 -723550.000000 0 0 1
-24.953400 -23.063787 10.439162 35.546963 0.746066 1.272730 0.120273 -0.037442 -552661.000000 0 0 1
-24.242700 -22.052087 11.038262 34.581010 0.738115 1.245911 0.131039 -0.041710 -64866.000000 0 0 1
-23.536500 -22.467387 12.224962 34.759171 0.762163 1.211405 0.148659 -0.048531 37244.100000 0 0 1
-23.752200 -21.662387 13.545862 34.884329 0.739414 1.172002 0.108683 -0.033130 63241.900000 0 0 1
-25.079650 -22.024087 13.930762 36.167878 0.720620 1.175405 0.087347 -0.028896 571880.000000 0 0 1
-25.496250 -21.300987 15.096862 36.492548 0.695989 1.144285 0.075101 -0.010675 -151699.000000 0 0 1
-26.876480 -21.794287 15.588862 37.951927 0.681355 1.147517 0.039146 -0.007751 -425584.000000 0 0 1
-27.953360 -21.295087 14.843362 38.147037 0.651015 1.171132 0.040839 -0.004273 -249267.000000 0 0 1
-28.520980 -22.198787 13.960462 38.744379 0.661388 1.202183 0.035715 -0.010628 174184.000000 0 0 1
-29.658080 -23.153087 14.484562 40.317114 0.662841 1.203315 0.033176 -0.007030 -49041.700000 0 0 1
-29.188420 -24.070287 15.480962 40.877901 0.689593 1.182392 0.022758 -0.001603 603351.000000 0 0 1
-30.191330 -25.044987 15.874462 42.317447 0.692497 1.186261 0.001026 0.007505 284118.000000 0 0 1
-30.010700 -26.461507 15.299562 42.836084 0.722632 1.205565 0.018766 -0.000007 -191150.000000 0 0 1
-30.563460 -26.601487 13.999662 42.869042 0.716201 1.238126 0.030367 -0.007337 101514.000000 0 0 1
-31.876100 -27.133057 13.974762 44.131423 0.705193 1.248588 0.044071 -0.017520 -258251.000000 0 0 1
-32.458500 -27.423877 12.590162 44.318568 0.701520 1.282746 0.080584 -0.031816 -61850.500000 0 0 1
-31.787450 -28.494257 11.913462 44.320370 0.730822 1.298646 0.070714 -0.033408 245139.000000 0 0 1
-32.355400 -28.691997 10.658362 44.538784 0.725461 1.329146 0.095436 -0.030718 71555.400000 0 0 1
-31.711300 -29.920907 9.962862 44.722766 0.756357 1.346142 0.087159 -0.038468 147064.000000 0 0 1
-32.069510 -31.150087 10.573062 45.940952 0.770856 1.338570 0.079017 -0.029721 29537.400000 0 0 1
-31.603620 -32.320697 9.924962 46.280894 0.796615 1.354667 0.099566 -0.036072 -355300.000000 0 0 1
-31.790490 -33.634127 10.710862 47.503814 0.813570 1.343367 0.095012 -0.038757 403255.000000 0 0 1
-33.166290 33.685375 10.844762 48.500682 -0.793163 1.345290 0.075446 -0.029867 543218.000000 0 0 1
-33.367640 32.374973 11.317762 47.850078 -0.770300 1.332008 0.103838 -0.039057 610563.000000 0 0 1
-34.754521 32.062013 12.010962 48.786398 -0.745123 1.322044 0.108492 -0.031010 825352.000000 0 0 1
-35.928988 31.857223 11.280262 49.325644 -0.725402 1.340065 0.058401 -0.025683 64181.200000 0 0 1
-36.503430 32.964321 10.630662 50.320551 -0.734496 1.357934 0.089324 -0.025264 -733484.000000 0 0 1
37.771756 32.703869 10.164562 50.985948 0.713612 1.370091 0.085788 -0.014870 -419651.000000 0 0 1
37.688816 31.963719 8.941662 50.220310 0.703387 1.391793 0.056638 -0.012424 248241.000000 0 0 1
36.339246 31.703358 8.608162 48.987183 0.717371 1.394156 0.054613 -0.007499 -68305.200000 0 0 1
36.185306 30.981678 7.211362 48.179295 0.708080 1.420554 0.053286 -0.009320 3187.900000 0 0 1
36.664366 29.630678 7.218562 47.690255 0.679697 1.418849 0.076847 -0.018954 294050.000000 0 0 1
36.628356 29.030938 5.925862 47.112075 0.670201 1.444680 0.096715 -0.021675 -8545.510000 0 0 1
37.158806 27.579078 5.922162 46.652485 0.638487 1.443511 0.108706 -0.028641 75864.800000 0 0 1
36.129676 26.630418 6.239662 45.315185 0.635180 1.432663 0.117078 -0.035166 407530.000000 0 0 1
35.843536 26.445128 7.619562 45.190282 0.635643 1.401376 0.113442 -0.028471 -269202.000000 0 0 1
34.570506 25.613848 7.802762 43.727248 0.637662 1.391394 0.111707 -0.031585 -566953.000000 0 0 1
34.639496 24.354848 7.201962 42.952550 0.612800 1.402328 0.133902 -0.039281 19035.900000 0 0 1
33.475446 23.588368 7.452962 41.624070 0.613838 1.390771 0.132691 -0.040664 -389839.000000 0 0 1
33.623046 22.193558 6.841362 40.864012 0.583422 1.402586 0.130499 -0.042497 141088.000000 0 0 1
34.610846 21.274458 7.287762 41.274989 0.551141 1.393300 0.138704 -0.036279 724921.000000 0 0 1
35.962336 21.651158 6.963762 42.550631 0.541926 1.406399 0.153034 -0.036586 420258.000000 0 0 1
36.955756 20.495058 6.964962 42.828565 0.506356 1.407447 0.115912 -0.031638 -149940.000000 0 0 1
36.746246 19.666958 5.873662 42.090091 0.491417 1.430790 0.145154 -0.044068 -153635.000000 0 0 1
37.731146 18.668858 5.772462 42.491022 0.459468 1.434524 0.157877 -0.041112 -190845.000000 0 0 1
37.421206 17.586058 4.798062 41.624962 0.439319 1.455271 0.153394 -0.050130 -125282.000000 0 0 1
37.814966 17.770758 3.436062 41.923478 0.439312 1.488744 0.169321 -0.051034 197969.000000 0 0 1
37.150526 16.730658 2.711362 40.834152 0.423143 1.504348 0.151575 -0.043692 -489158.000000 0 0 1
-37.841320 16.121858 1.429162 41.157288 -0.402750 1.536065 0.178337 -0.034359 -193553.000000 0 0 1
-36.680670 15.383858 1.661962 39.810762 -0.397117 1.529038 0.172876 -0.056339 250517.000000 0 0 1
-35.540747 16.244258 1.876762 39.122153 -0.428710 1.522806 0.193919 -0.056847 800570.000000 0 0 1
-34.186935 15.416058 2.012962 37.556003 -0.423631 1.517172 0.188197 -0.050076 911305.000000 0 0 1
-34.014732 14.670358 3.213262 37.182610 -0.407190 1.484270 0.195436 -0.050196 416248.000000 0 0 1
-32.650060 14.275058 3.326762 35.789259 -0.412170 1.477708 0.197721 -0.055534 31852.300000 0 0 1
-32.284830 13.519158 4.661362 35.310143 -0.396562 1.438398 0.213419 -0.039185 -133367.000000 0 0 1
-32.581410 12.141358 4.639662 35.078303 -0.356706 1.438142 0.242847 -0.046600 406152.000000 0 0 1
-32.224660 11.554958 5.901462 34.738639 -0.344294 1.400087 0.210949 -0.035204 -37381.100000 0 0 1
-32.409600 10.017858 5.983762 34.446263 -0.299786 1.396198 0.249082 -0.046326 -193652.000000 0 0 1
-33.715830 9.603658 6.286962 35.616195 -0.277492 1.393347 0.255774 -0.029777 -184012.000000 0 0 1
-34.043625 8.247758 5.931062 35.527052 -0.237690 1.403066 0.285394 -0.027127 886905.000000 0 0 1
-35.589356 7.935758 5.985662 36.951410 -0.219392 1.408092 0.251633 -0.011882 847151.000000 0 0 1
-36.115830 7.861958 7.305762 37.676753 -0.214343 1.375654 0.232544 -0.018010 66652.300000 0 0 1
-37.445440 7.390858 7.172462 38.835937 -0.194872 1.385044 0.179361 -0.015925 299738.000000 0 0 1
37.607376 6.692658 8.391662 39.109160 0.176118 1.354545 0.156707 -0.020181 186292.000000 0 0 1
37.148786 7.523058 9.529862 39.082566 0.199809 1.324474 0.184594 -0.034465 286968.000000 0 0 1
-37.549960 8.087158 10.315462 39.771980 -0.212130 1.308432 0.197918 -0.039934 -307420.000000 0 0 1
37.554006 8.930058 11.458762 40.266022 0.233457 1.282232 0.174556 -0.044292 45676.100000 0 0 1
36.932686 8.182358 12.499662 39.839877 0.218026 1.251659 0.157272 -0.045804 481046.000000 0 0 1
36.439106 9.051258 13.470162 39.889585 0.243467 1.226339 0.170382 -0.053787 -511548.000000 0 0 1
35.877036 8.444758 14.768862 39.706359 0.231173 1.189685 0.188745 -0.062001 6391.990000 0 0 1
34.521136 8.055058 14.566562 38.324633 0.229235 1.180910 0.189852 -0.055140 245768.000000 0 0 1
34.041266 7.580958 15.779762 38.278971 0.219123 1.145895 0.186716 -0.049411 1005130.000000 0 0 1
32.494096 7.276058 15.823762 36.867312 0.220286 1.127180 0.176486 -0.039723 228445.000000 0 0 1
31.607686 8.352858 15.844362 36.329875 0.258360 1.119508 0.142802 -0.038854 -261717.000000 0 0 1
30.301206 8.078058 16.271262 35.329479 0.260533 1.092173 0.143359 -0.033130 -73702.000000 0 0 1
30.055706 7.398358 17.646662 35.629845 0.241356 1.052642 0.139146 -0.054670 -1084120.000000 0 0 1
30.194806 8.311058 18.755562 36.504398 0.268597 1.031201 0.160757 -0.060878 -59456.000000 0 0 1
29.238406 8.110758 19.764362 36.211860 0.270597 0.993455 0.162502 -0.045348 -381882.000000 0 0 1
29.511906 6.927958 20.702562 36.708926 0.230576 0.971617 0.161714 -0.037433 742451.000000 0 0 1
28.367506 6.810158 21.580162 36.287698 0.235610 0.933908 0.130946 -0.031910 771723.000000 0 0 1
28.495606 5.690158 22.435362 36.711346 0.197093 0.913310 0.123879 -0.028223 224181.000000 0 0 1
27.234406 5.485558 23.319462 36.271222 0.198761 0.872493 0.142827 -0.026534 1265740.000000 0 0 1
26.024206 5.333558 22.552262 34.846960 0.202147 0.866917 0.077226 -0.025540 615914.000000 0 0 1
24.969206 6.215958 22.895362 34.442662 0.243985 0.843653 0.123971 -0.016943 21981.400000 0 0 1
23.597706 5.630958 22.540762 33.115636 0.234243 0.822122 0.120181 -0.021033 -740895.000000 0 0 1
23.351506 5.516758 21.172462 32.000009 0.231995 0.847793 0.107136 -0.020148 1407120.000000 0 0 1
22.001106 5.332158 20.656362 30.645813 0.237774 0.831138 0.060116 -0.016241 87796.800000 0 0 1
21.368206 3.958458 20.975162 30.203096 0.183173 0.803112 0.096256 -0.021532 964842.000000 0 0 1
20.051806 3.802458 20.380762 28.842834 0.187406 0.786094 0.075351 -0.021932 1509120.000000 0 0 1
18.973906 4.537358 20.934662 28.615674 0.234729 0.750159 0.095078 -0.025105 -226617.000000 0 0 1
17.595606 4.226858 20.300062 27.194929 0.235755 0.728063 0.135762 -0.029973 211487.000000 0 0 1
16.805606 3.222658 20.924962 27.030870 0.189461 0.685483 0.127169 -0.028624 362918.000000 0 0 1
15.774006 2.793058 20.049562 25.663308 0.175251 0.674124 0.146190 -0.034608 52934.300000 0 0 1
14.799006 1.720958 20.598562 25.421900 0.115769 0.626186 0.150398 -0.036516 -288897.000000 0 0 1
15.382706 0.471758 20.711762 25.803629 0.030658 0.639040 0.113153 -0.040174 253612.000000 0 0 1
14.638806 -0.374942 21.564462 26.066477 -0.025607 0.596535 0.123866 -0.045853 -216941.000000 0 0 1
15.066506 -1.827142 21.386262 26.224230 -0.120682 0.617177 0.098997 -0.039335 -166799.000000 0 0 1
14.691806 -2.457542 20.145962 25.054909 -0.165739 0.636683 0.109184 -0.034980 206107.000000 0 0 1
15.010306 -3.831742 20.184362 25.444056 -0.249936 0.654612 0.101640 -0.027902 -421682.000000 0 0 1
14.597406 -4.569742 18.884662 24.302207 -0.303387 0.680790 0.105865 -0.034907 42965.900000 0 1 0
13.192806 -4.528942 18.777962 23.391736 -0.330684 0.638886 0.121188 -0.034467 -208661.000000 0 1 0
12.683506 -4.920942 17.516262 22.178964 -0.370101 0.660364 0.116930 -0.032301 945734.000000 0 1 0
11.125006 -4.819442 17.387862 21.197418 -0.408802 0.608892 0.111125 -0.027955 685775.000000 0 1 0
10.454606 -5.753042 18.167962 21.736401 -0.503064 0.581151 0.107865 -0.023957 60359.600000 0 1 0
9.048906 -5.685742 17.940762 20.882560 -0.560994 0.537236 0.093210 -0.035004 365034.000000 0 1 0
8.112506 -6.408242 18.899662 21.542412 -0.668565 0.500540 0.085275 -0.035788 -199010.000000 0 1 0
8.125606 -7.787442 18.705462 21.830346 -0.764151 0.541656 0.082909 -0.036611 26744.500000 0 1 0
9.092906 -8.456442 19.490762 23.110217 -0.749147 0.567248 0.120136 -0.031551 138460.000000 0 1 0
9.214906 -9.969242 19.072862 23.410988 -0.824699 0.618590 0.134713 -0.037796 124155.000000 0 1 0
9.576006 -10.093142 17.699162 22.512924 -0.811684 0.666197 0.114976 -0.020704 9754.230000 0 1 0
9.977606 -11.411542 17.390962 23.069926 -0.852338 0.716914 0.118336 -0.030601 227895.000000 0 1 0
9.804506 -11.837442 15.892862 22.109646 -0.879058 0.768692 0.101435 -0.026148 367553.000000 0 1 0
10.355506 -13.106142 15.529662 22.807408 -0.902105 0.821800 0.083826 -0.021518 -179272.000000 0 1 0
9.871406 -13.476642 14.273062 21.972365 -0.938601 0.863749 0.058319 -0.004933 -674494.000000 0 1 0
10.578506 -14.700842 13.708762 22.714526 -0.947047 0.922883 0.081061 -0.018098 756370.000000 0 1 0
11.909806 -14.459342 13.209062 22.921505 -0.881785 0.956634 0.067681 -0.017961 537962.000000 0 1 0
11.961006 -13.705542 12.027762 21.807673 -0.853263 0.986589 0.026694 -0.015918 -63758.700000 0 1 0
13.375106 -13.153342 11.604662 22.058378 -0.777039 1.016802 0.083902 -0.031807 825454.000000 0 1 0
14.116506 -14.041542 10.774762 22.639261 -0.782736 1.074772 0.092699 -0.036599 -227229.000000 0 1 0
15.316106 -13.443442 10.342362 22.853308 -0.720375 1.101169 0.111889 -0.051607 610956.000000 0 1 0
16.316206 -14.439642 9.599362 23.809023 -0.724459 1.155805 0.099379 -0.058393 602637.000000 0 1 0
16.949506 -15.427642 10.424762 25.178832 -0.738428 1.143921 0.098166 -0.049337 135299.000000 0 0 1
16.082006 -16.424042 10.902162 25.440857 -0.795920 1.127932 0.123528 -0.044652 -228421.000000 0 0 1
16.623006 -17.210642 12.102362 26.814132 -0.802765 1.102527 0.114748 -0.041401 80406.500000 0 0 1
17.673006 -18.145942 11.824762 27.954165 -0.798601 1.134037 0.131807 -0.054088 182805.000000 0 0 1
18.217606 -18.601442 13.025562 29.112885 -0.795823 1.106923 0.106035 -0.044098 -792353.000000 0 0 1
19.515906 -19.353542 12.790662 30.315528 -0.781221 1.135237 0.092433 -0.045055 -756303.000000 0 0 1
20.530006 -18.561042 12.267862 30.273650 -0.735072 1.153563 0.108573 -0.045815 -286345.000000 0 0 1
21.779706 -19.261342 12.289762 31.565696 -0.724113 1.170882 0.092848 -0.044459 1011650.000000 0 0 1
22.819106 -18.601242 11.320462 31.541570 -0.683917 1.203701 0.148806 -0.047275 -141436.000000 0 0 1
22.813106 -18.976242 9.950762 31.297815 -0.693840 1.247243 0.125902 -0.044359 364416.000000 0 0 1
21.726906 -18.581842 9.068162 29.992914 -0.707532 1.263646 0.133908 -0.051662 684833.000000 0 0 1
21.380306 -17.070942 9.024962 28.809451 -0.673790 1.252168 0.200362 -0.057194 -31536.800000 0 0 1
22.520506 -16.342842 8.609862 29.127159 -0.627758 1.270717 0.197790 -0.047352 -186475.000000 0 0 1
22.308806 -14.939542 8.689762 28.220289 -0.590079 1.257784 0.223065 -0.059604 -185329.000000 0 0 1
-36.087340 24.725513 8.223262 44.511450 -0.600695 1.384984 0.145267 -0.028720 -35509.900000 0 0 1
-35.099393 23.998713 8.897162 43.440363 -0.599727 1.364523 0.147450 -0.037112 -271989.000000 0 0 1
-34.033021 24.822813 9.281862 43.134343 -0.630169 1.353915 0.151993 -0.033988 -905825.000000 0 0 1
-32.920060 24.088113 9.981762 41.995275 -0.631696 1.330812 0.169031 -0.041651 -834498.000000 0 0 1
-32.123760 23.402413 9.076862 40.767614 -0.629604 1.346266 0.163157 -0.036514 -497076.000000 0 0 1
-31.491510 22.294313 9.641462 39.770710 -0.616039 1.325930 0.160284 -0.037700 -152666.000000 0 0 1
-30.723300 21.480513 8.585062 38.458249 -0.610162 1.345669 0.134467 -0.039508 290961.000000 0 0 1
-31.574440 20.775313 7.668662 38.566401 -0.581964 1.370619 0.141900 -0.041874 433774.000000 0 0 1
-30.794060 19.838013 6.951962 37.284725 -0.572298 1.383243 0.142275 -0.042765 113916.000000 0 0 1
-31.625370 18.918513 6.029362 37.342032 -0.539100 1.408623 0.149610 -0.042083 449025.000000 0 0 1
-32.502660 17.934313 6.618062 37.707576 -0.504209 1.394372 0.169810 -0.045370 542701.000000 0 0 1
-33.495270 17.444413 5.772362 38.204199 -0.480151 1.419123 0.150182 -0.045645 131535.000000 0 0 1
-34.357258 16.247813 6.298962 38.523883 -0.441740 1.406551 0.145252 -0.040057 440120.000000 0 0 1
-35.414216 16.554113 7.207662 39.751173 -0.437264 1.388468 0.120692 -0.033017 259171.000000 0 0 1
-36.111180 15.385513 7.510562 39.964233 -0.402768 1.381740 0.132294 -0.034641 -858445.000000 0 0 1
-37.042500 15.606413 8.661362 41.118440 -0.398742 1.358562 0.112729 -0.027223 -1191100.000000 0 0 1
37.645046 16.475813 8.318562 41.926130 0.412547 1.371061 0.128787 -0.034146 -527441.000000 0 0 1
36.783646 16.698613 9.411462 41.478379 0.426149 1.341902 0.126800 -0.029722 30693.400000 0 0 1
35.747386 17.804513 9.221362 40.986703 0.462098 1.343869 0.095770 -0.023417 1241610.000000 0 0 1
34.396516 17.457513 8.793662 39.562780 0.469659 1.346653 0.094915 -0.036766 1352500.000000 0 0 1
33.625306 18.644213 9.026162 39.493537 0.506268 1.340211 0.085467 -0.033790 85560.800000 0 0 1
32.165846 18.655313 8.539162 38.152060 0.525563 1.345065 0.077068 -0.038585 -65041.300000 0 0 1
31.714676 20.003813 8.489862 38.445429 0.562719 1.348132 0.083559 -0.040813 663127.000000 0 0 1
30.386406 20.251213 7.980562 37.378265 0.587857 1.355632 0.046380 -0.031700 863655.000000 0 0 1
30.104906 20.103513 6.493262 36.777970 0.588774 1.393313 0.038837 -0.020013 -536939.000000 0 0 1
30.093406 18.792113 6.019962 35.986060 0.558211 1.402720 0.063266 -0.027310 79614.300000 0 0 1
29.811806 18.637113 4.636262 35.462384 0.558714 1.439684 0.057960 -0.030760 -386201.000000 0 0 1
28.341306 18.684213 4.195662 34.204284 0.582855 1.447822 0.086157 -0.028823 -460851.000000 0 0 1
27.460506 17.729113 4.863162 33.046198 0.573292 1.423097 0.098802 -0.037066 1573630.000000 0 0 1
26.036106 17.860513 4.696862 31.920797 0.601261 1.423119 0.111134 -0.029865 1300790.000000 0 0 1
25.443806 19.225113 5.210662 32.313205 0.647070 1.408834 0.112884 -0.020550 -1023920.000000 0 0 1
25.744706 20.369413 4.440062 33.127285 0.669357 1.436361 0.085139 -0.028608 35382.100000 0 0 1
25.239606 21.583513 4.916362 33.571660 0.707473 1.423824 0.087602 -0.023271 -324054.000000 0 0 1
26.138506 22.724413 4.409362 34.915082 0.715641 1.444170 0.038874 -0.013957 -64971.000000 0 0 1
27.409106 22.645013 5.017862 35.905914 0.690505 1.430587 0.040233 -0.022769 -224974.000000 0 0 1
28.265706 23.631113 4.504662 37.116999 0.696330 1.449133 0.061095 -0.019104 -702051.000000 0 0 1
29.575406 23.776013 5.292662 38.314693 0.677122 1.432217 0.071999 -0.029186 -184469.000000 0 0 1
30.634106 22.852413 5.120062 38.560294 0.640923 1.437622 0.054561 -0.032290 477121.000000 0 0 1
31.217026 22.729713 3.790762 38.800934 0.629350 1.472943 0.062283 -0.034133 -68917.200000 0 0 1
32.210056 23.861213 3.370062 40.226888 0.637587 1.486922 0.104392 -0.044882 -221084.000000 0 0 1
31.498356 25.048413 3.109362 40.363815 0.671825 1.493687 0.078202 -0.043204 -87231.200000 0 0 1
32.338376 26.026313 2.533262 41.587942 0.677668 1.509845 0.130588 -0.036494 -867319.000000 0 0 1
31.765406 27.390513 2.839962 42.039822 0.711577 1.503191 0.103836 -0.024541 -547374.000000 0 0 1
30.562706 27.617213 2.220662 41.251919 0.734814 1.516939 0.118873 -0.029209 -574277.000000 0 0 1
29.406406 27.093813 2.873862 40.088284 0.744490 1.499046 0.092517 -0.023947 -73999.200000 0 0 1
28.052706 27.626613 2.313662 39.440298 0.777746 1.512100 0.062800 -0.013075 318740.000000 0 0 1
27.783206 28.996413 2.596462 40.242268 0.806762 1.506231 0.041167 -0.010386 -904816.000000 0 0 1
26.505206 29.355213 2.234862 39.613749 0.836374 1.514350 0.037174 -0.014841 -827311.000000 0 0 1
26.148406 30.796713 2.711262 40.491081 0.866845 1.503787 0.044573 -0.021635 -153538.000000 0 0 1
25.958406 30.859313 4.133562 40.536680 0.871442 1.468648 0.023674 -0.025108 -577915.000000 0 0 1
27.121306 31.053813 4.863962 41.515812 0.852893 1.453367 0.032866 -0.028259 -673895.000000 0 0 1
26.944506 31.038213 6.426662 41.601431 0.855883 1.415693 0.033542 -0.030817 -54195.100000 0 0 1
26.477106 29.791713 6.975962 40.462913 0.844237 1.397527 0.044653 -0.036864 877684.000000 0 0 1
27.448506 28.724813 6.889962 40.323776 0.808115 1.399088 0.066572 -0.041428 638670.000000 0 0 1
26.751606 27.381413 7.222062 38.955723 0.797032 1.384326 0.072781 -0.041618 1217860.000000 0 0 1
25.597406 27.008713 6.421962 37.761612 0.812220 1.399900 0.044689 -0.041011 1025050.000000 0 0 1
24.956006 25.816213 6.804562 36.545604 0.802339 1.383510 0.055818 -0.037620 -181969.000000 0 0 1
23.699806 25.488713 5.973362 35.313402 0.821751 1.400826 0.063423 -0.021364 -345207.000000 0 0 1
23.857306 25.226413 4.582762 35.022060 0.813284 1.439566 0.051134 -0.027691 144147.000000 0 0 1
24.162206 26.407413 3.822062 35.996831 0.829767 1.464418 0.041428 -0.021165 -181952.000000 0 0 1
24.205606 26.176713 2.262462 35.724647 0.824501 1.507423 0.048056 -0.012559 -534882.000000 0 0 1
25.196406 25.337313 1.770962 35.776733 0.788187 1.521276 0.040791 0.003208 -334923.000000 0 0 1
25.347006 25.629813 0.426962 36.049138 0.790946 1.558952 0.052915 -0.007459 -709652.000000 0 0 1
26.494006 24.876913 -0.212438 36.343339 0.753930 1.576642 0.070544 -0.015676 -1333360.000000 0 0 1
27.735506 25.539113 -0.156438 37.703171 0.744194 1.574946 0.078418 -0.009706 -535869.000000 0 0 1
28.864806 24.921713 -0.660538 38.140597 0.712219 1.588116 0.079764 -0.009629 -289193.000000 0 0 1
29.369006 23.743413 0.141762 37.766497 0.679873 1.567043 0.066960 -0.017054 -1378720.000000 0 0 1
28.562706 22.616913 0.001762 36.432855 0.669742 1.570748 0.059917 -0.019455 -464793.000000 0 0 1
28.911706 21.536113 0.830062 36.060781 0.640224 1.547776 0.059572 -0.021977 -70767.500000 0 0 1
27.738606 20.635013 1.315062 34.597159 0.639592 1.532776 0.059013 -0.024816 99901.000000 0 0 1
27.460906 19.577413 0.446462 33.727968 0.619344 1.557559 0.083849 -0.035169 -807309.000000 0 0 1
26.339306 18.978513 0.923462 32.477620 0.624378 1.542359 0.090645 -0.030670 -1149340.000000 0 0 1
25.703506 17.862513 0.020262 31.300799 0.607325 1.570149 0.092733 -0.025079 952752.000000 0 0 1
24.335606 17.579113 0.392262 30.023338 0.625577 1.557731 0.097875 -0.020249 1153830.000000 0 0 1
23.756106 16.629013 -0.480938 29.001861 0.610719 1.587380 0.117030 -0.043830 210053.000000 0 0 1
22.234206 16.440213 -0.228938 27.653082 0.636690 1.579075 0.104871 -0.024965 -335757.000000 0 0 1
21.684206 15.636713 -1.261938 26.763858 0.624754 1.617965 0.116031 -0.031439 1298690.000000 0 0 1
20.288906 15.334013 -1.011838 25.451827 0.647192 1.610562 0.124627 -0.031531 1090600.000000 0 0 1
19.252006 16.370213 -1.473938 25.313951 0.704675 1.629056 0.148624 -0.029351 -648526.000000 0 0 1
19.320806 17.583513 -0.713338 26.133931 0.738357 1.598095 0.128795 -0.024846 -380797.000000 0 0 1
18.330806 18.461713 -1.112538 26.040181 0.788956 1.613533 0.111337 -0.023401 -493456.000000 0 0 1
18.320206 19.897713 -0.558538 27.052928 0.826651 1.591444 0.103409 -0.021004 -435449.000000 0 0 1
17.993506 19.907713 0.832862 26.847290 0.835860 1.539769 0.107558 -0.021447 101320.000000 0 0 1
17.915106 21.230913 1.399562 27.814771 0.869900 1.520458 0.112690 -0.025806 -352388.000000 0 0 1
16.826306 22.215813 0.965762 27.885473 0.922575 1.536156 0.101295 -0.031422 -176987.000000 0 0 1
15.541206 21.814013 1.420462 26.821595 0.951769 1.517812 0.087238 -0.029887 -234579.000000 0 0 1
14.610306 22.687913 0.841062 26.998330 0.998673 1.539639 0.078208 -0.036352 256103.000000 0 0 1
13.167806 22.548513 1.421562 26.150476 1.042242 1.516409 0.083670 -0.038386 486686.000000 0 0 1
13.021006 23.247513 2.661662 26.778310 1.060229 1.471236 0.076955 -0.017615 93940.800000 0 0 1
11.726106 23.110613 3.219562 26.114509 1.101254 1.447196 0.075936 -0.025589 301018.000000 0 0 1
11.624506 23.505113 4.692462 26.639044 1.111516 1.393723 0.096952 -0.026396 88659.400000 0 0 1
12.362606 22.624913 5.517462 26.365946 1.070709 1.359973 0.096079 -0.036067 241224.000000 0 0 1
11.619006 22.299513 6.681262 26.017472 1.090456 1.311088 0.085140 -0.033868 -467030.000000 0 0 1
12.293806 21.232313 7.536762 25.666156 1.045951 1.272758 0.099770 -0.037265 -377787.000000 0 0 1
13.456206 21.573813 8.214562 26.720365 1.013112 1.258308 0.124657 -0.041063 -201634.000000 0 0 1
14.626006 21.365813 7.436962 26.939310 0.970514 1.291100 0.117969 -0.036048 -554415.000000 0 0 1
15.970806 21.564813 8.129762 28.039273 0.933341 1.276630 0.134948 -0.040381 -332771.000000 0 0 1
16.223406 20.403713 8.988462 27.573590 0.899038 1.238747 0.146046 -0.046586 554799.000000 0 0 1
17.552306 20.357313 9.504062 28.510188 0.859256 1.230935 0.126172 -0.051750 429024.000000 0 0 1
17.833306 21.139613 10.829862 29.701784 0.870032 1.197572 0.098249 -0.046392 -71205.200000 0 0 1
17.107406 20.516413 11.862462 29.228489 0.875759 1.152885 0.113024 -0.055428 42907.300000 0 0 1
17.104606 21.340813 13.018262 30.289817 0.895143 1.126536 0.105810 -0.052609 216870.000000 0 0 1
18.143306 20.921713 14.107662 31.079314 0.856401 1.099632 0.119969 -0.042208 813150.000000 0 0 1
19.516406 21.123313 13.779762 31.889909 0.824918 1.123972 0.122749 -0.045205 409356.000000 0 0 1
20.339006 20.588613 14.855862 32.530951 0.791497 1.096549 0.109020 -0.047725 678333.000000 0 0 1
21.781906 21.134013 14.674562 33.711136 0.770303 1.120421 0.113419 -0.045788 202507.000000 0 0 1
22.506906 20.660713 13.533562 33.415314 0.742656 1.153806 0.114196 -0.051462 436007.000000 0 0 1
23.729506 21.408413 13.497762 34.692927 0.734021 1.171181 0.140432 -0.049798 430936.000000 0 0 1
24.736406 20.874313 12.444962 34.677137 0.700925 1.203728 0.137098 -0.045722 75997.700000 0 0 1
24.446206 21.258913 11.071462 34.236467 0.715775 1.241495 0.142180 -0.040068 -105015.000000 0 0 1
25.473606 20.883113 10.205062 34.484088 0.686695 1.270362 0.156911 -0.060597 -585252.000000 0 0 1
25.319406 21.376013 8.759162 34.274322 0.701149 1.312369 0.128882 -0.047404 -188402.000000 0 0 1
25.744506 22.706013 8.559762 35.378131 0.722767 1.326421 0.097041 -0.037323 423591.000000 0 0 1
27.129506 22.939413 8.389862 36.505021 0.701906 1.338896 0.074250 -0.038895 -201038.000000 0 0 1
27.634206 24.113313 9.270262 37.829076 0.717463 1.323218 0.105263 -0.043506 -124310.000000 0 0 1
28.984506 24.459913 9.045862 38.989955 0.700940 1.336658 0.101788 -0.037496 227401.000000 0 0 1
29.401006 25.587013 9.842562 40.199383 0.716149 1.323438 0.113252 -0.033833 251697.000000 0 0 1
30.657106 26.198513 9.184762 41.359160 0.707139 1.346856 0.108202 -0.043345 223179.000000 0 0 1
30.325506 26.898613 8.006262 41.319147 0.725584 1.375796 0.107433 -0.046176 306144.000000 0 0 1
31.533716 27.376913 7.465162 42.421684 0.714954 1.393900 0.114968 -0.037049 -241301.000000 0 0 1
31.309986 28.325713 6.305762 42.689857 0.735398 1.422543 0.150489 -0.025233 -46325.300000 0 0 1
31.243796 29.710813 6.645662 43.624214 0.760254 1.417862 0.135843 -0.028019 126368.000000 0 0 1
31.248876 30.457613 5.506862 43.982769 0.772576 1.445262 0.135929 -0.018129 2350.540000 0 0 1
31.226556 32.003913 5.836062 45.093324 0.797692 1.441010 0.080683 -0.012246 77354.700000 0 0 1
30.065206 32.362313 6.548262 44.655522 0.822178 1.423626 0.081671 -0.021617 -43147.000000 0 0 1
30.123806 33.746113 6.727762 45.732993 0.842051 1.423151 0.053304 -0.006911 -591125.000000 0 0 1
28.768906 -33.439331 7.200662 44.695507 -0.860335 1.408986 0.060857 -0.024269 -839914.000000 0 0 1
27.857006 -33.469631 6.150562 43.977931 -0.876664 1.430481 0.052529 -0.022518 -267845.000000 0 0 1
26.585606 -32.986631 6.583762 42.874914 -0.892437 1.416629 0.047929 -0.033926 99230.400000 0 0 1
25.519406 -33.009231 5.510562 42.085814 -0.912675 1.439483 0.046542 -0.024234 -652314.000000 0 0 1
25.900706 -32.185931 4.443862 41.551518 -0.893183 1.463643 0.027534 0.000618 74621.800000 0 0 1
25.131806 -32.363331 3.255462 41.104634 -0.910517 1.491514 0.040997 -0.011914 73282.000000 0 0 1
25.737906 -31.548431 2.070662 40.768014 -0.886482 1.519983 0.050084 -0.002636 40179.500000 0 0 1
25.733006 -30.121831 2.219062 39.679170 -0.863813 1.514842 0.054961 0.003576 -192314.000000 0 0 1
26.143506 -29.527131 1.046662 39.451615 -0.846103 1.544263 0.039059 0.006078 -418783.000000 0 0 1
26.384206 -27.992831 1.108362 38.483157 -0.814972 1.541991 0.039899 0.003706 -221011.000000 0 0 1
25.250406 -27.155131 1.138062 37.098239 -0.821728 1.540115 0.043144 0.009377 -260524.000000 0 0 1
24.742106 -26.949431 -0.186938 36.585224 -0.828074 1.575906 0.054095 0.002321 -21403.700000 0 0 1
23.594506 -25.916331 -0.292838 35.049147 -0.832259 1.579152 0.040714 0.009495 -21.396800 0 0 1
23.921506 -24.529231 -0.153738 34.262885 -0.797941 1.575283 0.046459 -0.001648 -127960.000000 0 0 1
24.065706 -24.028331 1.160862 34.027438 -0.784621 1.536674 0.035190 0.007156 -737777.000000 0 0 1
22.742006 -23.577531 1.715462 32.803074 -0.803434 1.518477 0.029553 0.003620 -691499.000000 0 0 1
22.760206 -22.890131 2.931362 32.412621 -0.788244 1.480234 0.037821 0.001650 -121951.000000 0 0 1
21.520706 -22.928131 3.633662 31.655071 -0.817052 1.455753 0.043792 -0.002328 221277.000000 0 0 1
21.596606 -22.348731 5.053862 31.486834 -0.802512 1.409592 0.053130 -0.012345 4985.730000 0 0 1
21.637306 -20.925931 5.146162 30.537691 -0.768686 1.401470 0.089821 -0.012030 983552.000000 0 0 1
20.470206 -20.270931 4.573762 29.169492 -0.780507 1.413347 0.062545 -0.007233 468769.000000 0 0 1
20.303006 -18.844531 5.141562 28.173819 -0.748160 1.387274 0.077541 -0.013949 162418.000000 0 0 1
19.946006 -18.721531 6.513362 28.120505 -0.753742 1.337050 0.122496 -0.026317 672675.000000 0 0 1
18.519906 -18.631731 6.700562 27.111360 -0.788408 1.321059 0.088020 -0.020446 891601.000000 0 0 1
20.532800 -25.885377 -12.410338 35.293981 -0.900203 1.930106 0.123782 -0.037469 184780.000000 0 0 1
20.190200 -24.549887 -12.614638 34.197518 -0.882536 1.948596 0.155896 -0.037971 86152.100000 0 0 1
18.828400 -24.381387 -13.011038 33.440212 -0.913210 1.970433 0.137537 -0.036332 734504.000000 0 0 1
18.459100 -22.881487 -13.201338 32.226947 -0.891967 1.992852 0.131169 -0.040040 73625.200000 0 0 1
18.322800 -22.104387 -12.010838 31.122165 -0.878667 1.967007 0.145258 -0.046830 -839167.000000 0 0 1
19.514600 -21.799487 -11.354738 31.384189 -0.840647 1.940992 0.129610 -0.047741 -1236920.000000 0 0 1
19.626900 -22.410487 -9.882838 31.386551 -0.851519 1.891121 0.145420 -0.033877 408512.000000 0 0 1
18.681200 -21.873687 -8.954738 30.126944 -0.863956 1.872590 0.126109 -0.039065 725229.000000 0 0 1
17.311600 -22.071487 -9.311438 29.555793 -0.905676 1.891302 0.116895 -0.019209 -141472.000000 0 0 1
16.291300 -21.340187 -8.382238 28.126001 -0.918768 1.873419 0.090153 -0.027455 -539570.000000 0 0 1
16.227900 -19.931887 -8.394438 27.038703 -0.887476 1.886473 0.073580 -0.029752 569168.000000 0 0 1
15.353000 -19.492487 -7.335638 25.874374 -0.903640 1.858248 0.069931 -0.032261 821531.000000 0 0 1
13.813300 -19.556887 -7.522338 25.097104 -0.955845 1.875205 0.042513 -0.014397 63633.100000 0 0 1
13.352000 -20.891787 -7.496338 25.902466 -1.002120 1.864403 0.046591 -0.016679 -1058020.000000 0 0 1
12.001000 -21.022687 -7.774838 25.424899 -1.052079 1.881571 0.038749 -0.017564 -747870.000000 0 0 1
11.409100 -22.427387 -7.513038 26.260255 -1.100203 1.860950 0.031068 -0.012240 -163144.000000 0 0 1
11.389600 -22.653787 -6.129138 26.086076 -1.104937 1.807972 0.040335 -0.014522 -33481.800000 0 0 1
10.805500 -23.856687 -5.824538 26.829565 -1.145505 1.789633 0.028324 -0.010107 -157153.000000 0 0 1
11.433600 -24.516687 -4.578638 27.436455 -1.134421 1.738462 0.048958 -0.015025 139005.000000 0 0 1
10.545600 -25.424027 -3.934638 27.804176 -1.177606 1.712785 0.051110 -0.019942 -543885.000000 0 0 1
11.065300 -25.801817 -2.681938 28.202259 -1.165663 1.666037 0.061757 -0.024023 -247031.000000 0 0 1
10.198400 -26.644397 -1.737238 28.582324 -1.205240 1.631614 0.063111 -0.018326 539176.000000 0 0 1
9.212300 -25.885677 -0.988638 27.493856 -1.228889 1.606763 0.061287 -0.014842 -117437.000000 0 0 1
8.591900 -26.765707 -0.131138 28.111225 -1.260183 1.575461 0.068352 -0.025005 -229109.000000 0 0 1
7.733900 -25.934197 0.855162 27.076319 -1.280980 1.539208 0.075247 -0.023808 -431200.000000 0 0 1
6.597700 -25.369717 0.295262 26.215250 -1.316370 1.559533 0.072889 -0.027582 -1137320.000000 0 0 1
5.792800 -24.892487 1.338362 25.592648 -1.342153 1.518478 0.088601 -0.025223 840493.000000 0 0 1
4.324300 -24.615687 0.820162 25.006085 -1.396898 1.537992 0.066153 -0.031743 1168510.000000 0 0 1
3.534000 -25.802227 0.627262 26.050672 -1.434678 1.546715 0.053059 -0.029489 147666.000000 0 0 1
2.166100 -25.438647 0.670662 25.539509 -1.485851 1.544534 0.048746 -0.028085 70083.900000 0 0 1
1.212900 -26.256787 -0.186638 26.285449 -1.524635 1.577897 0.073239 -0.034013 -198492.000000 0 0 1
0.729400 -27.412057 0.473062 27.425839 -1.544194 1.553547 0.071852 -0.026038 531863.000000 0 0 1
1.628200 -28.565847 0.334562 28.614167 -1.513860 1.559104 0.060706 -0.022543 342286.000000 0 0 1
1.188700 -29.661867 1.256262 29.712246 -1.530743 1.528503 0.100784 -0.028953 48955.100000 0 0 1
1.290800 -29.369507 2.678762 29.519652 -1.526874 1.479926 0.088879 -0.025712 -173282.000000 0 0 1
0.701900 -30.409027 3.387662 30.605193 -1.547718 1.459880 0.118463 -0.037801 -240957.000000 0 0 1
0.875200 -30.342807 4.922562 30.751968 -1.541961 1.410032 0.118502 -0.033370 -1218320.000000 0 0 1
2.170700 -30.376867 5.386362 30.926993 -1.499459 1.395740 0.055153 -0.013715 -1030050.000000 0 0 1
2.316700 -30.416677 6.782362 31.249668 -1.494778 1.352017 0.063130 -0.020202 693583.000000 0 0 1
3.746500 -30.735507 7.364562 31.826788 -1.449500 1.337285 0.068638 -0.014984 906776.000000 0 0 1
3.999700 -32.139517 7.038462 33.143417 -1.446985 1.356803 0.062053 -0.016999 280921.000000 0 0 1
5.229400 -32.588707 7.609462 33.871438 -1.411686 1.344205 0.048286 -0.014250 481327.000000 0 0 1
5.421000 33.584449 7.284262 34.790270 1.410763 1.359859 0.036480 -0.007580 -317716.000000 0 0 1
5.552400 33.263457 5.917362 34.238894 1.405399 1.397098 0.038892 -0.009424 -43914.400000 0 0 1
5.424800 31.844584 5.748262 32.810798 1.402064 1.394693 0.042209 -0.012440 -1022580.000000 0 0 1
5.752200 31.303548 4.405462 32.131106 1.389068 1.433254 0.046160 -0.013632 852628.000000 0 0 1
7.121100 31.274798 3.977762 32.320978 1.346919 1.447413 0.064831 -0.010651 24521.700000 0 0 1
7.875100 30.342278 4.679162 31.694882 1.316857 1.422623 0.059771 -0.022196 -998062.000000 0 0 1
9.274700 30.180758 4.050462 31.832443 1.272651 1.443207 0.055935 -0.015173 -277287.000000 0 0 1
10.113400 31.243428 4.435462 33.137682 1.257744 1.436544 0.062552 -0.021428 901826.000000 0 0 1
11.392600 31.129168 3.737762 33.358466 1.219958 1.458512 0.056469 -0.023896 1619630.000000 0 0 1
12.657600 31.583958 4.517662 34.324488 1.189635 1.438797 0.064174 -0.030994 269373.000000 0 0 1
13.137200 30.579638 5.409762 33.718923 1.165031 1.409663 0.074533 -0.030873 284190.000000 0 0 1
14.431300 30.982518 5.855362 34.676564 1.134891 1.401127 0.099090 -0.026208 429046.000000 0 0 1
15.116800 29.960648 6.777562 34.235849 1.103511 1.371513 0.089545 -0.030523 -22987.000000 0 0 1
14.433600 29.859668 8.008662 34.118429 1.120532 1.333854 0.087648 -0.027082 216285.000000 0 0 1
15.040000 28.865128 8.830262 33.724927 1.090456 1.305876 0.073669 -0.036797 257310.000000 0 0 1
14.733400 29.067968 10.345362 34.191319 1.101676 1.263406 0.048525 -0.020051 -40874.700000 0 0 1
15.621200 29.964728 10.975062 35.529689 1.090239 1.256762 0.051109 -0.031411 -299194.000000 0 0 1
15.167400 30.232678 12.250162 35.974036 1.105798 1.223318 0.035377 -0.021871 -237743.000000 0 0 1
16.105900 30.918098 13.258862 37.297804 1.090552 1.207362 0.037981 -0.018759 1359200.000000 0 0 1
17.379600 30.229548 13.493962 37.389344 1.049021 1.201559 0.031026 -0.018358 1433970.000000 0 0 1
18.187900 30.975628 14.427462 38.709700 1.039865 1.188869 0.039766 -0.013674 -145636.000000 0 0 1
19.307700 30.071398 14.903362 38.719329 1.000022 1.175689 0.063164 -0.019037 -839393.000000 0 0 1
20.368600 29.773218 14.061262 38.717482 0.970804 1.199122 0.055685 -0.036290 -550059.000000 0 0 1
20.881900 28.508468 14.398662 38.158982 0.938602 1.183881 0.049831 -0.025715 -633972.000000 0 0 1
22.299600 28.263268 13.895962 38.589924 0.902801 1.202429 0.090599 -0.028490 -160373.000000 0 0 1
23.327100 28.745468 14.755262 39.851891 0.889079 1.191516 0.108822 -0.032469 474732.000000 0 0 1
24.577900 28.837178 14.057062 40.413574 0.864969 1.215541 0.119715 -0.030180 184636.000000 0 0 1
25.728100 28.982018 15.053862 41.575368 0.844804 1.200291 0.130708 -0.035428 -470710.000000 0 0 1
26.068100 27.805438 15.742062 41.237128 0.817635 1.179113 0.130912 -0.027259 -175770.000000 0 0 1
26.798000 28.137428 16.910062 42.376855 0.809775 1.160327 0.111704 -0.030177 234783.000000 0 0 1
27.684000 26.895538 17.342862 42.314875 0.770953 1.148504 0.073492 -0.015528 116492.000000 0 0 1
26.997700 25.763998 17.837962 41.362450 0.762020 1.124908 0.080705 -0.017956 -65199.400000 0 0 1
26.845800 25.816448 19.246362 41.923840 0.765854 1.093838 0.106030 -0.015659 70528.400000 0 0 1
26.252200 24.523408 19.877462 41.057143 0.751364 1.065415 0.114842 -0.020870 -218364.000000 0 0 1
27.118300 23.432048 19.831562 40.960394 0.712605 1.065388 0.082263 -0.021194 -122519.000000 0 0 1
26.483100 22.215058 20.234762 40.053826 0.697979 1.041195 0.090852 -0.022689 -201893.000000 0 0 1
27.467500 21.046758 20.281262 40.109340 0.653815 1.040662 0.063504 -0.023355 -499415.000000 0 0 1
26.899700 19.765058 20.237762 39.036116 0.633682 1.025774 0.065138 -0.006821 -414475.000000 0 0 1
27.794300 18.688258 20.273962 39.151087 0.591946 1.026473 0.079253 -0.019054 -206306.000000 0 0 1
28.330600 18.302958 21.672662 40.091463 0.573593 0.999669 0.115678 -0.013367 -222776.000000 0 0 1
27.383400 17.745058 22.491062 39.630613 0.574984 0.967309 0.089907 -0.007315 83973.500000 0 0 1
28.075100 17.488858 23.722862 40.704368 0.557110 0.948615 0.132267 -0.008772 1238110.000000 0 0 1
27.053600 16.716058 24.640362 40.230228 0.553468 0.911597 0.110762 -0.006969 818140.000000 0 0 1
26.651400 15.496758 24.107662 39.135993 0.526677 0.907145 0.106531 -0.010951 675484.000000 0 0 1
25.431000 15.001258 24.688762 38.487770 0.532946 0.874383 0.094678 -0.014916 693542.000000 0 0 1
24.846600 13.747158 24.071862 37.226233 0.505359 0.867629 0.093043 -0.015311 356597.000000 0 0 1
23.681200 13.186358 24.691662 36.665480 0.508070 0.831956 0.067992 -0.026612 327143.000000 0 0 1
23.207500 12.214858 23.767662 35.393397 0.484491 0.834527 0.080337 -0.023504 -697949.000000 0 0 1
21.860100 11.611958 24.081262 34.534167 0.488290 0.799149 0.083764 -0.033029 -423523.000000 0 0 1
20.734700 12.466358 24.075862 34.131876 0.541325 0.787841 0.101754 -0.042353 -762643.000000 0 0 1
19.548200 11.813558 23.834662 33.011867 0.543597 0.764104 0.106152 -0.042125 -560589.000000 0 0 1
18.339400 12.800558 23.789362 32.651517 0.609370 0.754544 0.107673 -0.052728 52088.400000 0 0 1
18.110300 13.182558 25.168662 33.693090 0.629209 0.727262 0.134233 -0.040839 -93013.300000 0 0 1
17.095800 14.139758 25.272562 33.628879 0.691042 0.720443 0.153348 -0.045053 -407723.000000 0 0 1
16.636900 14.370458 26.707162 34.591458 0.712434 0.688698 0.142938 -0.036450 -373829.000000 0 0 1
15.930600 13.314658 27.321262 34.314945 0.696187 0.649822 0.144390 -0.032814 -103172.000000 0 0 1
15.958800 13.334558 28.737562 35.473105 0.696052 0.626435 0.118657 -0.033639 498898.000000 0 0 1
17.339400 13.045258 29.450862 36.581235 0.645002 0.634984 0.124055 -0.025366 1282260.000000 0 0 1
18.308300 14.066658 29.123562 37.165125 0.655124 0.670315 0.151385 -0.049328 1188920.000000 0 0 1
19.666700 13.678858 29.394562 37.920054 0.607722 0.683809 0.124974 -0.029231 554020.000000 0 0 1
20.689400 14.818458 29.172962 38.713042 0.621539 0.717321 0.141894 -0.036328 -408473.000000 0 0 1
20.861200 15.329358 27.849762 38.023520 0.633719 0.748905 0.143974 -0.052996 192872.000000 0 0 1
21.254700 14.375058 26.828562 37.123797 0.594658 0.763127 0.115258 -0.047100 -269669.000000 0 0 1
21.046900 15.158458 25.512562 36.381886 0.624170 0.793656 0.097948 -0.040691 -182246.000000 0 0 1
21.888800 16.272058 25.253362 37.170307 0.639261 0.823857 0.093967 -0.034408 120191.000000 0 0 1
21.817600 16.799958 23.989262 36.520281 0.656190 0.854130 0.080699 -0.024838 -644252.000000 0 0 1
22.860400 17.860458 23.794662 37.520391 0.663224 0.883850 0.080817 -0.025583 -602676.000000 0 0 1
23.006900 18.348658 22.445962 37.010970 0.673232 0.919186 0.083745 -0.030823 -266507.000000 0 0 1
24.106300 19.208758 22.264262 38.023511 0.672808 0.945251 0.092539 -0.023728 -122950.000000 0 0 1
24.190000 20.607758 22.948162 39.197626 0.705603 0.945364 0.105297 -0.035136 7990.230000 0 0 1
23.198300 21.545558 22.448462 38.811153 0.748477 0.954028 0.097548 -0.029779 623237.000000 0 0 1
23.202300 22.853488 23.098462 39.927028 0.777825 0.953887 0.116610 -0.027134 -111585.000000 0 0 1
22.323600 23.932738 22.449762 39.687666 0.820172 0.969562 0.114921 -0.042741 -81897.700000 0 0 1
22.909100 24.438058 21.286162 39.688112 0.817679 1.004706 0.126559 -0.041347 133644.000000 0 0 1
22.204800 25.565658 20.842762 39.762755 0.855637 1.019047 0.128153 -0.039134 -34102.200000 0 0 1
22.824700 26.047078 19.490562 39.740397 0.851238 1.058194 0.128421 -0.041530 -65901.600000 0 0 1
22.524900 25.374548 18.285462 38.543442 0.844820 1.076501 0.122561 -0.041517 -283928.000000 0 0 1
22.955100 26.029288 17.156062 38.714221 0.848074 1.111691 0.120834 -0.054716 -182143.000000 0 0 1
22.648500 25.287818 15.831762 37.457615 0.840401 1.134420 0.091950 -0.031472 885569.000000 0 0 1
21.230700 25.258588 15.548862 36.476101 0.871824 1.130425 0.085776 -0.034452 670591.000000 0 0 1
21.130900 24.794848 14.192462 35.534847 0.865009 1.159939 0.094242 -0.029812 -747795.000000 0 0 1
19.713100 24.684368 13.661962 34.417634 0.896906 1.162609 0.080118 -0.032109 -606359.000000 0 0 1
19.026800 25.909258 13.592662 34.900848 0.937378 1.170746 0.063832 -0.032027 45504.000000 0 0 1
18.065700 26.081858 14.632062 34.938947 0.965018 1.138685 0.077554 -0.027883 -500047.000000 0 0 1
16.586900 25.967008 14.270362 33.956648 1.002357 1.137073 0.071856 -0.030929 -373166.000000 0 0 1
15.967900 24.667928 14.048162 32.570406 0.996312 1.124845 0.080309 -0.031833 183385.000000 0 0 1
15.731600 23.868118 15.241162 32.395421 0.988047 1.080970 0.104191 -0.037815 241012.000000 0 0 1
14.808300 24.422208 16.405162 32.937202 1.025724 1.049420 0.115767 -0.042390 278141.000000 0 0 1
15.284500 25.620498 16.960762 34.317536 1.032900 1.053847 0.107400 -0.039847 2024.440000 0 0 1
14.266300 26.187128 17.754062 34.705903 1.071967 1.033800 0.091739 -0.040366 208208.000000 0 0 1
14.707100 27.619728 18.234362 36.216572 1.081499 1.043173 0.094799 -0.040083 24375.500000 0 0 1
14.785300 28.652058 17.344962 36.611381 1.094408 1.077242 0.084684 -0.028272 327548.000000 0 0 1
15.477100 29.698448 18.039062 38.038746 1.090379 1.076709 0.074491 -0.021871 6951.710000 0 0 1
15.452500 31.030628 17.229662 38.710991 1.108769 1.109528 0.046826 -0.013985 -516118.000000 0 0 1
14.161200 31.507118 17.021862 38.509503 1.148391 1.112950 0.054166 -0.016500 -408568.000000 0 0 1
14.228100 32.835691 16.584962 39.442139 1.161906 1.136813 0.042038 -0.014658 793898.000000 0 0 1
12.793000 33.498849 16.576262 39.504508 1.205996 1.137787 0.043432 -0.014895 677172.000000 0 0 1
12.587600 -32.840567 16.158762 38.704729 -1.204774 1.140117 0.065948 -0.021198 -230363.000000 0 0 1
13.351600 -31.836637 16.815062 38.400299 -1.173697 1.117547 0.053776 -0.016268 -164666.000000 0 0 1
13.307800 -31.726317 18.372962 39.002852 -1.173631 1.080296 0.053574 -0.016135 249375.000000 0 0 1
14.281200 -32.611807 18.999162 40.354067 -1.158038 1.080586 0.061309 -0.013537 820698.000000 0 0 1
14.019400 -32.718517 20.356862 41.005448 -1.165977 1.051300 0.054432 -0.018877 -1276840.000000 0 0 1
15.066500 -33.234797 21.255962 42.229931 -1.145172 1.043338 0.065670 -0.014740 -507182.000000 0 0 1
16.195000 -32.351647 21.303262 41.984950 -1.106675 1.038629 0.081567 -0.014239 460393.000000 0 0 1
17.386800 -32.938107 21.796962 43.154689 -1.085108 1.041311 0.092631 -0.013040 227558.000000 0 0 1
18.598900 -32.018387 21.566362 42.850952 -1.044553 1.043397 0.105404 -0.021039 -106627.000000 0 0 1
18.559700 -30.716177 22.218362 42.209022 -1.027271 1.016448 0.107128 -0.019778 -2514.250000 0 0 1
19.640200 -29.931367 21.772962 41.900907 -0.990093 1.024379 0.108449 -0.021655 -35961.100000 0 0 1
-4.980300 13.299313 18.457020 23.288124 -1.212483 0.655816 0.038874 -0.009733 -131105.000000 0 1 0
-4.734600 14.294813 17.488420 23.078193 -1.250957 0.710877 0.046218 -0.026591 -328827.000000 0 1 0
-5.913100 15.019913 17.357520 23.703292 -1.195747 0.749128 0.046911 -0.025353 -416362.000000 0 1 0
-5.713100 16.465213 17.019420 24.359873 -1.236814 0.797265 0.059090 -0.032657 -243884.000000 0 1 0
-5.315200 17.114513 18.197420 25.540243 -1.269674 0.777742 0.059473 -0.019822 92041.300000 0 0 1
-4.902300 18.450313 18.043520 26.268141 -1.311094 0.813585 0.058305 -0.017165 -199821.000000 0 0 1
-4.283700 19.074513 19.332120 27.493963 -1.349884 0.790992 0.050936 -0.015091 930074.000000 0 0 1
-5.224200 19.314813 20.440320 28.603513 -1.306641 0.774732 0.048056 -0.013669 1253430.000000 0 0 1
-4.473500 19.974113 21.463420 29.658992 -1.350467 0.761686 0.044616 -0.009021 653561.000000 0 0 1
-5.433500 20.295313 22.645000 30.890431 -1.309209 0.747964 0.041833 -0.007017 433138.000000 0 0 1
-5.844300 19.205113 23.467100 30.881985 -1.275390 0.707643 0.044253 -0.006426 -11025.300000 0 0 1
-6.518000 19.506213 24.689030 32.132926 -1.248311 0.694552 0.036072 -0.012482 556492.000000 0 0 1
-5.628300 20.338013 25.709990 33.261331 -1.300815 0.687288 0.037679 -0.014211 -251548.000000 0 0 1
-5.422800 21.665013 25.297490 33.745260 -1.325533 0.723247 0.049945 -0.017457 698516.000000 0 0 1
-4.254900 22.291213 25.872950 34.415286 -1.382187 0.720029 0.056471 -0.010253 1118790.000000 0 0 1
-2.854300 21.801813 25.434490 33.621115 -1.440616 0.712846 0.061088 -0.008398 -460085.000000 0 0 1
-2.476800 20.615313 26.105360 33.355892 -1.451226 0.671915 0.073988 -0.001270 376617.000000 0 0 1
-1.089700 20.390213 25.843110 32.936524 -1.517405 0.668691 0.066632 -0.002070 549975.000000 0 0 1
-0.536000 19.082213 26.422000 32.596630 -1.542715 0.625664 0.063140 0.006563 -195696.000000 0 0 1
-1.056700 17.912013 25.750480 31.385412 -1.511871 0.608581 0.066372 0.002614 -168486.000000 0 0 1
-0.565500 16.664013 26.185040 31.042962 -1.536874 0.567012 0.049907 0.011551 -691774.000000 0 0 1
0.894700 16.422513 25.803950 30.599727 1.516370 0.567451 0.051022 0.018546 -549358.000000 0 0 1
1.149200 16.194213 24.415580 29.320535 1.499951 0.586807 0.049984 0.004054 -140929.000000 0 0 1
0.847700 14.869113 24.034710 28.275014 1.513847 0.554747 0.052984 0.008692 -229563.000000 0 0 1
1.009000 14.630413 22.550700 26.899836 1.501939 0.576600 0.062635 -0.012103 36849.300000 0 0 1
2.330400 14.667113 22.054520 26.588660 1.413227 0.592637 0.064770 -0.019729 -175869.000000 0 0 1
2.505100 13.786713 20.937220 25.193574 1.391053 0.589796 0.055818 -0.022726 -491962.000000 0 0 1
3.987600 13.632813 20.628620 25.045849 1.286234 0.603006 0.058300 -0.029399 -689536.000000 0 0 1
4.475900 14.661113 19.853820 25.082984 1.274493 0.657495 0.064625 -0.037746 -2108.110000 0 0 1
5.887900 14.647513 20.073220 25.537251 1.188591 0.666425 0.077852 -0.030626 235242.000000 0 0 1
6.658400 15.593413 19.170320 25.592773 1.167232 0.724166 0.090257 -0.038635 -395163.000000 0 0 1
6.709400 15.028113 17.876020 24.298402 1.150893 0.744116 0.092165 -0.053064 63564.900000 0 1 0
6.972600 16.082013 16.953620 24.385929 1.161693 0.802068 0.088127 -0.037297 -287524.000000 0 1 0
6.979400 15.559213 15.523020 23.060037 1.149132 0.832327 0.081502 -0.031436 576346.000000 0 1 0
8.026400 14.743813 14.956720 22.483474 1.072270 0.842992 0.082169 -0.029727 463551.000000 0 1 0
8.479300 13.621213 15.681320 22.435235 1.013992 0.796855 0.088674 -0.028779 -406386.000000 0 1 0
9.698600 12.961213 15.031620 22.090846 0.928398 0.822426 0.097365 -0.028509 -447501.000000 0 1 0
10.865500 13.736513 15.040620 23.086168 0.901571 0.861237 0.088655 -0.027468 -913839.000000 0 1 0
11.765500 13.140613 14.167920 22.623719 0.840554 0.894073 0.098324 -0.017172 -44350.000000 0 1 0
13.198600 13.751213 14.208320 23.773415 0.805901 0.930222 0.090551 -0.007742 -354052.000000 0 1 0
13.923000 13.340113 15.349920 24.646067 0.764021 0.898462 0.077646 -0.018470 201860.000000 0 1 0
15.226000 13.887113 15.491120 25.780958 0.739441 0.926202 0.082384 -0.012074 1113150.000000 0 0 1
16.311800 13.367913 14.447320 25.563665 0.686533 0.970181 0.097205 -0.014995 57812.000000 0 0 1
17.648400 13.718913 14.792620 26.804780 0.660774 0.986197 0.101109 -0.032115 860468.000000 0 0 1
18.503400 13.406513 13.692320 26.638131 0.627009 1.030941 0.107951 -0.020212 141009.000000 0 0 1
19.963300 13.896513 13.760720 27.946446 0.608106 1.055956 0.104174 -0.033065 92598.500000 0 0 1
20.757300 13.203013 14.684920 28.650165 0.566517 1.032633 0.086757 -0.027202 460228.000000 0 0 1
22.080600 13.758713 14.742020 29.902880 0.557241 1.055266 0.107080 -0.037695 887216.000000 0 0 1
22.927100 13.237813 15.944720 30.905108 0.523626 1.028709 0.117990 -0.029699 289722.000000 0 0 1
23.520300 11.940413 15.841620 30.769058 0.469760 1.029957 0.122415 -0.026227 391702.000000 0 0 1
24.278100 11.586013 16.959520 31.800742 0.445259 1.008293 0.113902 -0.030738 -294745.000000 0 0 1
24.560400 10.060613 17.043120 31.541990 0.388778 0.999966 0.127789 -0.032195 -774680.000000 0 0 1
23.457400 9.409513 17.569720 30.781222 0.381482 0.963324 0.101675 -0.029327 -77449.300000 0 0 1
23.440500 7.999513 17.273520 30.196419 0.328875 0.961807 0.078458 -0.025344 -582140.000000 0 0 1
22.004700 7.495213 17.334420 28.997710 0.328293 0.930060 0.136477 -0.012775 -523797.000000 0 0 1
21.789700 6.187213 16.851620 28.232069 0.276669 0.931169 0.132350 -0.032667 955036.000000 0 0 1
20.504300 5.676513 17.282020 27.410169 0.270081 0.888603 0.146804 -0.025690 735682.000000 0 0 1
20.293000 4.155613 17.065120 26.838280 0.201988 0.881687 0.145161 -0.018425 -460831.000000 0 0 1
20.052100 3.923813 15.708620 25.772927 0.193239 0.915366 0.162422 -0.026460 244757.000000 0 0 1
20.084900 2.515913 15.382720 25.423633 0.124615 0.920960 0.149997 -0.040533 327635.000000 0 0 1
19.129000 1.460313 16.058420 25.018473 0.076192 0.873872 0.164405 -0.036393 225687.000000 0 0 1
19.623100 1.157913 17.353620 26.221269 0.058939 0.847560 0.150843 -0.036954 18912.000000 0 0 1
18.604100 1.019513 18.298720 26.115036 0.054746 0.794423 0.147936 -0.030346 -444060.000000 0 0 1
19.060700 0.202713 19.554220 27.307854 0.010635 0.772647 0.128613 -0.033107 13554.700000 0 0 1
19.323000 -1.188787 19.323820 27.353273 -0.061444 0.786321 0.131705 -0.032068 -246871.000000 0 0 1
18.195300 -1.994187 19.459420 26.715440 -0.109163 0.754818 0.101822 -0.029508 -599045.000000 0 0 1
18.503800 -3.413887 18.969420 26.718610 -0.182445 0.781340 0.088632 -0.034872 -120814.000000 0 0 1
18.141000 -3.498987 17.603820 25.519273 -0.190538 0.809550 0.114826 -0.043022 312975.000000 0 0 1
18.259900 -4.811587 17.148320 25.507650 -0.257649 0.833510 0.134923 -0.040685 -291784.000000 0 0 1
17.783300 -4.869887 15.685920 24.207636 -0.267293 0.865875 0.138284 -0.040682 727149.000000 0 1 0
16.357900 -4.719987 15.511420 23.031789 -0.280915 0.831892 0.126256 -0.035470 1128440.000000 0 1 0
15.898900 -4.676887 14.150520 21.791868 -0.286094 0.864069 0.125305 -0.035676 131156.000000 0 1 0
16.177900 -3.419887 13.385420 21.274152 -0.208326 0.890290 0.122358 -0.031194 -663023.000000 0 1 0
15.289300 -2.416487 13.657620 20.642982 -0.156754 0.847831 0.118806 -0.021350 -174888.000000 0 1 0
15.803600 -1.188687 13.063120 20.538059 -0.075075 0.881435 0.124597 -0.024836 579041.000000 0 1 0
14.821500 0.049113 13.078320 19.766682 0.003314 0.847800 0.121223 -0.019284 -204771.000000 0 1 0
15.224700 1.226013 12.364320 19.651234 0.080355 0.890288 0.120761 -0.020966 175423.000000 0 1 0
16.242200 1.955313 13.025920 20.911884 0.119808 0.898358 0.146094 -0.033363 -52946.200000 0 1 0
16.373000 3.414913 12.639320 20.963997 0.205622 0.923658 0.123785 -0.031881 -277767.000000 0 1 0
15.377900 4.306313 13.068620 20.635236 0.273039 0.884966 0.109703 -0.020140 -210926.000000 0 1 0
15.374500 5.523713 12.349620 20.479252 0.344916 0.923501 0.118814 -0.027481 -190044.000000 0 1 0
14.317600 6.546913 12.760520 20.265404 0.428878 0.889668 0.084358 -0.015934 -312428.000000 0 1 0
14.459600 7.772013 12.023820 20.348378 0.493194 0.938625 0.057219 -0.020704 148249.000000 0 1 0
13.492900 8.790113 12.219120 20.214632 0.577402 0.921697 0.042634 -0.010260 -214616.000000 0 1 0
13.690200 9.655113 13.504120 21.517529 0.614246 0.892346 0.043475 -0.013290 -16694.600000 0 1 0
13.335100 9.022613 14.711320 21.809525 0.594852 0.830460 0.057040 -0.019657 511865.000000 0 1 0
13.925600 9.725813 15.784920 23.187874 0.609660 0.822024 0.089536 -0.024778 -593763.000000 0 1 0
13.413300 9.255313 17.180820 23.680330 0.603990 0.758990 0.074428 -0.022075 1513610.000000 0 1 0
12.084000 9.759113 17.555020 23.440181 0.679362 0.724353 0.066104 -0.030143 1539640.000000 0 1 0
11.545100 9.226613 18.803820 23.916592 0.674241 0.666120 0.093881 -0.021397 41390.600000 0 1 0
12.226400 9.429413 20.181420 25.410400 0.656953 0.653075 0.134085 -0.027125 29041.700000 0 0 1
13.537300 8.868913 20.274520 25.941709 0.579985 0.673664 0.169485 -0.037996 403662.000000 0 0 1
14.263400 9.358313 21.393020 27.362089 0.580656 0.673170 0.152919 -0.023919 409622.000000 0 0 1
15.749500 8.953613 21.126620 27.830703 0.516937 0.708848 0.140912 -0.029567 182574.000000 0 0 1
16.439800 9.826613 20.260520 27.880424 0.538751 0.757300 0.140265 -0.027835 -77743.100000 0 0 1
17.532200 9.093813 19.738420 27.922763 0.478489 0.785700 0.118867 -0.023786 110157.000000 0 0 1
18.515800 9.947613 18.875420 28.250157 0.493002 0.839073 0.120345 -0.024237 27192.100000 0 0 1
19.127100 10.966013 19.625120 29.516855 0.520573 0.843465 0.112486 -0.032451 162977.000000 0 0 1
20.132300 11.625313 18.854820 29.932619 0.523670 0.889361 0.110739 -0.035113 183511.000000 0 0 1
21.096400 12.322113 19.814320 31.456317 0.528636 0.889372 0.103027 -0.032484 -867188.000000 0 0 1
20.578400 13.562213 20.160520 31.841023 0.582712 0.885165 0.084155 -0.026938 532560.000000 0 0 1
21.317400 14.420913 21.103120 33.282668 0.594770 0.884007 0.092385 -0.024626 337479.000000 0 0 1
22.675600 14.997813 20.635620 34.131306 0.584353 0.921539 0.066853 -0.021389 -550413.000000 0 0 1
23.677500 14.077513 20.407720 34.282290 0.536404 0.933176 0.039880 -0.016482 1586.520000 0 0 1
24.922900 14.792713 20.587420 35.550206 0.535655 0.953162 0.047533 -0.015710 728843.000000 0 0 1
26.176000 13.887413 20.492620 36.027638 0.487780 0.965747 0.045805 -0.027569 -109804.000000 0 0 1
26.453100 13.449813 19.199720 35.345342 0.470377 0.996548 0.071121 -0.045988 550123.000000 0 0 1
27.460600 12.432113 19.307720 35.797068 0.425118 1.001112 0.095929 -0.049275 187660.000000 0 0 1
27.860600 11.751413 18.041620 35.210919 0.399151 1.032834 0.132979 -0.054074 -280344.000000 0 0 1
28.491200 12.569113 17.065320 35.509945 0.415476 1.069482 0.135537 -0.066823 449013.000000 0 0 1
28.927800 11.835213 15.923420 35.077702 0.388352 1.099606 0.176794 -0.072601 519680.000000 0 0 1
27.753700 11.538413 14.904020 33.548959 0.394004 1.110463 0.165933 -0.059826 413497.000000 0 0 1
27.322300 12.733513 14.365220 33.391765 0.436119 1.126079 0.185732 -0.054477 107581.000000 0 0 1
26.267600 12.493113 13.435420 32.040212 0.443945 1.138089 0.184844 -0.048033 195700.000000 0 0 1
25.960500 13.735013 12.605320 31.960792 0.486635 1.165382 0.167859 -0.045818 74309.700000 0 0 1
25.027300 14.622513 13.215320 31.856370 0.528767 1.143029 0.154308 -0.047854 379577.000000 0 0 1
25.304900 15.994213 12.913120 32.602170 0.563660 1.163551 0.157729 -0.045737 393597.000000 0 0 1
24.081800 16.911213 13.241120 32.268398 0.612228 1.147966 0.141940 -0.050056 839620.000000 0 0 1
22.962900 16.763113 12.362520 31.002075 0.630583 1.160627 0.157205 -0.064980 9564.200000 0 0 1
21.871900 17.465713 12.844720 30.796396 0.673854 1.140560 0.130931 -0.053616 -892885.000000 0 0 1
20.997300 18.227613 11.839720 30.221043 0.714905 1.168241 0.151298 -0.048155 53261.400000 0 0 1
19.889300 17.504213 11.375720 28.833812 0.721701 1.165243 0.136205 -0.046734 -42235.400000 0 0 1
18.663200 17.760313 12.045720 28.440168 0.760615 1.133440 0.117849 -0.042304 -23226.100000 0 0 1
17.423900 17.176713 11.349820 26.971284 0.778254 1.136457 0.115665 -0.030427 -217648.000000 0 0 1
17.355300 15.715513 11.305220 25.999842 0.735855 1.120959 0.111227 -0.024409 349467.000000 0 0 1
16.121000 15.292013 10.740820 24.679901 0.759014 1.120530 0.110521 -0.027614 219610.000000 0 1 0
16.090000 13.987213 9.938520 23.522424 0.715599 1.134581 0.108039 -0.033873 -104493.000000 0 1 0
16.300700 12.839413 10.798320 23.391602 0.667171 1.090962 0.107593 -0.021071 338401.000000 0 1 0
16.426100 11.681613 10.005020 22.502828 0.618178 1.110056 0.088373 -0.019573 -129793.000000 0 1 0
16.688100 10.321213 10.742420 22.370063 0.553895 1.069898 0.082158 -0.028808 -916824.000000 0 1 0
17.148500 9.293513 9.902920 21.874832 0.496637 1.100996 0.064369 -0.025757 450586.000000 0 1 0
17.667300 8.164913 10.611720 22.167722 0.432910 1.071621 0.063259 -0.021508 1266270.000000 0 1 0
18.986300 8.406313 11.495020 23.733545 0.416814 1.065192 0.085736 -0.023746 733154.000000 0 1 0
18.704900 9.030713 12.769020 24.381857 0.449793 1.019596 0.088734 -0.023895 -314677.000000 0 1 0
19.887300 9.216113 13.460120 25.721903 0.433955 1.020084 0.108927 -0.027249 -1046180.000000 0 0 1
19.563900 9.621113 14.914920 26.415277 0.457049 0.970809 0.086780 -0.010694 220595.000000 0 0 1
18.749900 8.764013 15.706920 25.982187 0.437243 0.921625 0.088234 -0.016119 1373780.000000 0 0 1
17.335100 8.867213 15.423520 24.839850 0.472819 0.900883 0.083874 -0.021044 347603.000000 0 1 0
16.675200 7.472813 15.740720 24.117950 0.421306 0.859712 0.113500 -0.025798 -686176.000000 0 1 0
16.850900 7.241613 17.080920 25.062953 0.405884 0.820958 0.160400 -0.029925 297512.000000 0 0 1
16.316900 5.985913 17.444520 24.624859 0.351610 0.783552 0.146368 -0.010191 793901.000000 0 1 0
14.763800 5.705413 17.469420 23.573336 0.368768 0.736138 0.133074 -0.026487 595915.000000 0 1 0
14.263200 4.419513 17.477620 22.987783 0.300473 0.707021 0.135314 -0.026165 153623.000000 0 1 0
14.229400 3.803713 16.199920 21.894782 0.261206 0.737877 0.153739 -0.024907 -252036.000000 0 1 0
14.164800 2.299813 16.414920 21.803218 0.160957 0.718389 0.157527 -0.026745 -519756.000000 0 1 0
15.316200 1.687113 16.890920 22.863410 0.109710 0.739545 0.135466 -0.021135 -425519.000000 0 1 0
15.197300 0.213013 16.866420 22.704172 0.014016 0.733438 0.143367 -0.018376 -69458.900000 0 1 0
14.152100 -0.635087 17.646320 22.629138 -0.044846 0.676442 0.131580 -0.032856 713608.000000 0 1 0
12.780900 -0.367587 17.341420 21.545565 -0.028753 0.635337 0.128834 -0.029655 600023.000000 0 1 0
11.991900 -1.154287 18.238520 21.858217 -0.095960 0.583751 0.103899 -0.033755 117742.000000 0 1 0
-26.197960 13.787013 28.591220 41.156685 -0.484436 0.802805 0.100364 -0.015825 -64200.500000 0 0 1
-25.228240 13.986213 29.621570 41.346290 -0.506205 0.772130 0.084510 -0.019185 62783.100000 0 0 1
-24.497300 12.810413 29.745600 40.608191 -0.481824 0.748806 0.059435 -0.012547 179341.000000 0 0 1
-23.300900 13.121913 30.719310 40.728278 -0.512883 0.716285 0.066676 -0.018228 440919.000000 0 0 1
-23.805900 13.274113 32.022873 42.052198 -0.508658 0.705168 0.058608 -0.017567 134044.000000 0 0 1
-22.726200 13.367213 32.898696 42.160251 -0.531687 0.675611 0.047597 -0.016391 -280493.000000 0 0 1
-23.208900 13.498713 -33.107438 42.625940 -0.526794 2.460201 0.053431 -0.017646 103554.000000 0 0 1
-24.005100 12.388213 -32.746448 42.450472 -0.476418 2.451840 0.044390 -0.017271 304772.000000 0 0 1
-24.640200 12.608313 -31.496758 41.930357 -0.472961 2.420627 0.040634 -0.019101 573473.000000 0 0 1
-25.620640 11.506313 -30.910278 41.764312 -0.422108 2.404034 0.037564 -0.025023 449258.000000 0 0 1
-24.991360 10.436713 -30.194988 40.561440 -0.395597 2.410471 0.052075 -0.027643 505501.000000 0 0 1
-24.444600 9.424313 -31.083818 40.651690 -0.367977 2.441275 0.044690 -0.025302 -178349.000000 0 0 1
-23.642800 8.347713 -30.369788 39.382615 -0.339413 2.451437 0.054260 -0.014359 17398.400000 0 0 1
-24.419400 7.505413 -29.482058 39.010641 -0.298190 2.427586 0.056882 -0.014660 478223.000000 0 0 1
-23.572600 6.855713 -28.553638 37.656056 -0.283027 2.431459 0.057292 -0.009172 -234811.000000 0 0 1
-24.195000 5.869613 -27.551058 37.133694 -0.237998 2.406759 0.058267 -0.012765 -430355.000000 0 0 1
-24.790700 4.722113 -28.099288 37.768336 -0.188224 2.409819 0.070114 -0.022417 25856.400000 0 0 1
-25.268900 3.901113 -27.102798 37.259867 -0.153175 2.385321 0.104361 -0.019924 -816421.000000 0 0 1
-26.124750 2.759113 -27.703848 38.178770 -0.105223 2.382753 0.105610 -0.014474 1543220.000000 0 0 1
-27.552260 3.007513 -27.840048 39.284099 -0.108726 2.358429 0.117237 -0.026335 1391100.000000 0 0 1
-27.950420 3.995213 -28.753758 40.298466 -0.141978 2.365306 0.112067 -0.028575 -549491.000000 0 0 1
-29.347800 3.783313 -29.390778 41.706411 -0.128206 2.352806 0.131479 -0.039321 -625311.000000 0 0 1
-30.427330 3.986113 -28.481458 41.867708 -0.130263 2.318931 0.119586 -0.039834 692574.000000 0 0 1
-31.660130 3.864413 -29.218378 43.255187 -0.121458 2.312423 0.126666 -0.034282 722688.000000 0 0 1
-32.102510 5.150413 -29.927308 44.189837 -0.159081 2.314807 0.120974 -0.043277 -1033980.000000 0 0 1
-31.279320 5.399813 -31.055848 44.407427 -0.170947 2.345269 0.122861 -0.045645 167002.000000 0 0 1
-31.385920 6.653613 -31.713018 45.111662 -0.208901 2.350388 0.112147 -0.042831 -757389.000000 0 0 1
-30.887080 7.905313 -30.918468 44.412356 -0.250564 2.340842 0.080326 -0.036997 530818.000000 0 0 1
-29.453200 8.026713 -30.824998 43.383172 -0.266063 2.361046 0.042661 -0.037435 1213980.000000 0 0 1
-28.826840 7.521913 -29.659688 42.038827 -0.255243 2.353968 0.034756 -0.039858 -386300.000000 0 0 1
-29.062470 8.471113 -28.435648 41.532795 -0.283622 2.324927 0.030595 -0.030886 736656.000000 0 0 1
-30.397060 8.576713 -27.883518 42.131127 -0.275007 2.294050 0.037345 -0.032484 1126170.000000 0 0 1
-30.978960 7.449013 -27.280288 41.945177 -0.235974 2.278880 0.044813 -0.021503 -939629.000000 0 0 1
-32.345220 7.797013 -26.711758 42.667607 -0.236543 2.247265 0.043239 -0.015530 -826399.000000 0 0 1
-32.433060 8.577913 -25.503768 42.141739 -0.258560 2.220801 0.009742 -0.006507 -54844.700000 0 0 1
-32.258620 7.857513 -24.302138 41.145510 -0.238926 2.202647 0.025100 -0.011821 -175028.000000 0 0 1
-31.702090 8.664113 -23.152838 40.201285 -0.266783 2.184529 0.030423 -0.006648 -472471.000000 0 0 1
-32.573010 9.679313 -22.712138 40.872134 -0.288847 2.159986 0.040560 -0.008849 -105476.000000 0 0 1
-31.973590 10.535513 -21.751138 40.080164 -0.318303 2.144434 0.045532 -0.014259 -735700.000000 0 0 1
-32.791700 11.670113 -21.218938 40.764329 -0.341909 2.118265 0.039004 -0.006622 116853.000000 0 0 1
-33.850830 11.137313 -20.345238 41.034707 -0.317856 2.089559 0.056618 -0.015842 1009880.000000 0 0 1
-34.383009 12.100713 -19.466938 41.322878 -0.338401 2.061326 0.046653 -0.016333 -485611.000000 0 0 1
-33.403280 12.673713 -18.413538 40.192792 -0.362636 2.046687 0.062529 -0.013369 -395544.000000 0 0 1
-32.908450 11.839913 -17.361038 39.045554 -0.345364 2.031564 0.105885 -0.007956 357010.000000 0 0 1
-33.757930 11.397013 -16.279338 39.172779 -0.325595 1.999374 0.105284 0.002583 -50380.300000 0 0 1
-34.102926 12.429913 -15.183738 39.345371 -0.349518 1.966989 0.093051 0.010990 -247152.000000 0 0 1
-35.007355 13.374413 -15.709438 40.634669 -0.364933 1.967740 0.055093 -0.000941 59144.600000 0 0 1
-35.327285 14.340313 -14.736438 40.875718 -0.385606 1.939620 0.034641 -0.000741 -378172.000000 0 0 1
-36.076780 15.538213 -15.261138 42.141102 -0.406687 1.941363 0.023067 -0.004979 -73611.500000 0 0 1
-37.366530 15.167813 -15.706838 43.278458 -0.385599 1.942201 0.031441 -0.008498 380627.000000 0 0 1
37.526346 16.271513 -16.111238 43.960901 0.409134 1.946030 0.029737 -0.011741 -67917.000000 0 0 1
37.220266 16.317613 -17.645538 44.305505 0.413171 1.980426 0.026808 -0.009650 1183410.000000 0 0 1
36.124146 15.389313 -17.967538 43.181215 0.402727 1.999944 0.065043 -0.023212 1657350.000000 0 0 1
34.822416 15.960013 -18.076138 42.356457 0.429756 2.011706 0.115575 -0.027126 545011.000000 0 0 1
33.729986 14.871613 -18.353538 41.179233 0.415262 2.032751 0.119942 -0.035089 99157.400000 0 0 1
33.763646 14.471513 -19.726938 41.696050 0.404926 2.063617 0.114613 -0.026053 98321.000000 0 0 1
33.192626 13.207113 -20.003138 40.942689 0.378689 2.081240 0.062143 -0.017188 -111224.000000 0 0 1
33.729386 11.923813 -19.287138 40.642865 0.339802 2.065251 0.078467 -0.013866 -148826.000000 0 0 1
33.425976 11.957313 -17.906038 39.760526 0.343540 2.037950 0.111625 -0.023063 254445.000000 0 0 1
34.061706 10.830813 -17.303838 39.710567 0.307866 2.021667 0.103841 -0.035958 10777.900000 0 0 1
33.850826 10.684113 -15.749538 38.833963 0.305728 1.988389 0.082886 -0.031075 -84188.100000 0 0 1
32.625356 10.014113 -15.433238 37.455055 0.297814 1.995496 0.100617 -0.030947 538582.000000 0 0 1
32.338886 9.975313 -14.051438 36.643599 0.299202 1.964339 0.089640 -0.014763 -259465.000000 0 0 1
31.647706 11.199013 -13.436838 36.159975 0.340114 1.951522 0.109890 -0.029401 -1036770.000000 0 0 1
30.274206 11.121013 -13.658638 35.025175 0.352041 1.971391 0.092509 -0.032123 -658536.000000 0 0 1
29.624906 12.205213 -13.007238 34.580204 0.390801 1.956431 0.132522 -0.029607 -643058.000000 0 0 1
28.121406 12.002813 -13.001638 33.225346 0.403412 1.972858 0.128698 -0.016500 -1465750.000000 0 0 1
27.685506 10.842713 -12.305438 32.178805 0.373278 1.963197 0.127757 -0.030478 1139500.000000 0 0 1
26.277406 10.499413 -12.311438 30.859541 0.380127 1.981169 0.139295 -0.014346 1106900.000000 0 0 1
25.754806 10.158613 -13.766838 30.919788 0.375700 2.032243 0.112864 -0.034084 -771950.000000 0 0 1
26.232606 9.001113 -14.455438 31.275060 0.330539 2.051275 0.113750 -0.032617 321843.000000 0 0 1
27.577806 8.989813 -14.905938 32.611948 0.315118 2.045494 0.104671 -0.031692 387292.000000 0 0 1
28.600006 8.245013 -14.010938 32.897522 0.280677 2.010749 0.100629 -0.030827 -414075.000000 0 0 1
28.406106 6.849413 -13.941638 32.375772 0.236608 2.015975 0.109937 -0.042348 372143.000000 0 0 1
27.402606 6.390613 -13.033838 31.010058 0.229117 2.004583 0.121851 -0.039964 76827.800000 0 0 1
27.147306 4.888613 -13.070838 30.524115 0.178168 2.013311 0.136604 -0.043069 -278934.000000 0 0 1
26.416606 4.492813 -11.931838 29.332426 0.168463 1.989723 0.165424 -0.043206 349553.000000 0 0 1
26.174006 3.123313 -12.060438 28.987719 0.118767 1.999897 0.180294 -0.044482 -39578.300000 0 0 1
25.266006 2.460913 -10.948738 27.646013 0.097094 1.977989 0.227643 -0.030960 160713.000000 0 0 1
25.814906 2.551713 -9.602638 27.661006 0.098526 1.925331 0.229383 -0.028423 497108.000000 0 0 1
25.370806 1.491113 -8.778838 26.888087 0.058705 1.903390 0.270338 -0.017741 -351973.000000 0 0 1
26.415306 1.088013 -7.710238 27.539062 0.041165 1.854564 0.309588 -0.008527 -230843.000000 0 0 1
26.262106 -0.113387 -6.926238 27.160336 -0.004317 1.828657 0.267765 -0.006966 242695.000000 0 0 1
26.689206 -1.255687 -7.672538 27.798531 -0.047014 1.850432 0.219768 -0.006602 -273521.000000 0 0 1
26.827506 -2.571387 -6.996938 27.843927 -0.095557 1.824811 0.198392 -0.010983 -894052.000000 0 0 1
28.024606 -2.635987 -6.315038 28.847993 -0.093784 1.791491 0.192973 -0.017149 -333299.000000 0 0 1
28.225706 -3.896387 -5.663738 29.050822 -0.137177 1.767013 0.186349 -0.030648 -725691.000000 0 0 1
29.628106 -4.101687 -5.114838 30.344853 -0.137565 1.740162 0.137708 -0.018607 -564498.000000 0 0 1
30.612506 -4.401187 -6.095838 31.522297 -0.142792 1.765404 0.133873 -0.015563 -599624.000000 0 0 1
31.738326 -4.901687 -5.489138 32.580339 -0.153230 1.740084 0.199556 -0.025831 -1060020.000000 0 0 1
32.808666 -5.252187 -6.544538 33.864805 -0.158738 1.765275 0.216734 -0.038917 -265546.000000 0 0 1
32.480896 -6.301687 -7.423938 33.909213 -0.191631 1.791520 0.203282 -0.031286 -130832.000000 0 0 1
33.180526 -6.202587 -8.632138 34.841544 -0.184802 1.821158 0.209279 -0.034978 -186223.000000 0 0 1
32.424596 -6.968887 -9.808038 34.584931 -0.211705 1.858335 0.184570 -0.033492 168607.000000 0 0 1
31.163026 -6.601187 -10.266638 33.468100 -0.208742 1.882582 0.147896 -0.034997 -104055.000000 0 0 1
30.119306 -6.988187 -9.375138 32.309450 -0.227983 1.865198 0.140692 -0.027474 -351279.000000 0 0 1
28.908106 -6.037687 -9.448438 31.006536 -0.205898 1.880445 0.125733 -0.025921 -47766.300000 0 0 1
28.054306 -6.242787 -10.552138 30.616402 -0.218958 1.922669 0.110121 -0.027683 1295610.000000 0 0 1
26.804506 -5.500387 -10.506438 29.310767 -0.202394 1.937403 0.150311 -0.018969 1446200.000000 0 0 1
25.533406 -6.387087 -10.502138 28.338042 -0.245116 1.950454 0.179661 -0.010371 -662451.000000 0 0 1
25.436006 -7.158687 -9.292038 28.010341 -0.274343 1.908940 0.163742 -0.018133 632579.000000 0 0 1
24.142506 -7.656087 -8.994138 26.876956 -0.307089 1.912021 0.146209 -0.009756 293241.000000 0 0 1
23.145306 -6.682387 -8.290138 25.477164 -0.281071 1.902226 0.165593 -0.008932 -157071.000000 0 0 1
22.993006 -5.568887 -9.090338 25.344133 -0.237623 1.937646 0.191682 -0.004318 135473.000000 0 0 1
22.967306 -4.387087 -8.366538 24.834304 -0.188741 1.914413 0.235679 -0.013359 -196001.000000 0 1 0
23.026606 -3.117987 -9.267838 25.016779 -0.134589 1.950306 0.270490 -0.019709 -274538.000000 0 0 1
24.264706 -2.936187 -9.900238 26.370663 -0.120421 1.955653 0.233600 -0.024545 303819.000000 0 0 1
24.167906 -1.893887 -10.860538 26.563618 -0.078204 1.991990 0.248802 -0.031109 -536517.000000 0 0 1
25.409406 -1.843587 -11.733238 28.048273 -0.072428 2.002395 0.181321 -0.031535 -533115.000000 0 0 1
26.438006 -1.005887 -11.278538 28.760831 -0.038029 1.973763 0.187483 -0.039393 -365028.000000 0 0 1
27.621106 -1.281687 -11.969238 30.130232 -0.046369 1.979315 0.149637 -0.033524 -436687.000000 0 0 1
28.716106 -0.248087 -11.576238 30.962648 -0.008639 1.953983 0.109835 -0.011875 -751668.000000 0 0 1
29.986106 -0.691187 -11.998438 32.304904 -0.023046 1.951326 0.094822 -0.018810 440756.000000 0 0 1
31.028886 0.261413 -11.758138 33.183037 0.008425 1.933006 0.114635 -0.017294 244010.000000 0 0 1
31.037776 1.504213 -12.639938 33.546598 0.048426 1.957122 0.115231 -0.017305 -847877.000000 0 0 1
31.276666 1.204413 -13.997838 34.287314 0.038489 1.991334 0.097418 -0.021124 371924.000000 0 0 1
31.280956 2.387913 -14.766138 34.673321 0.076190 2.010714 0.094685 -0.024287 -200856.000000 0 0 1
31.422066 2.226013 -16.302338 35.469249 0.070724 2.048362 0.088379 -0.019817 137013.000000 0 0 1
30.361106 1.597313 -17.033638 34.849577 0.052562 2.081483 0.084687 -0.019917 88793.000000 0 0 1
30.558506 1.641513 -18.418238 35.717620 0.053665 2.112577 0.066043 -0.014823 -514769.000000 0 0 1
29.388006 1.024613 -19.165138 35.099961 0.034851 2.148398 0.047006 -0.012830 -391587.000000 0 0 1
29.093006 -0.359087 -18.891038 34.690103 -0.012342 2.146667 0.063488 -0.014851 57107.100000 0 0 1
28.576506 -0.939887 -20.040038 34.915659 -0.032878 2.182125 0.030616 -0.014958 -344240.000000 0 0 1
28.509406 -2.470587 -20.027538 34.928389 -0.086443 2.181432 0.050239 -0.027044 126453.000000 0 0 1
27.482106 -2.960687 -19.164638 33.635029 -0.107318 2.177037 0.053508 -0.020927 453699.000000 0 0 1
27.236606 -4.373087 -19.339038 33.689093 -0.159200 2.182233 0.055922 -0.019870 188834.000000 0 0 1
28.113806 -5.247487 -18.365638 33.988511 -0.184528 2.141647 0.043410 -0.015898 207412.000000 0 0 1
29.501706 -5.136487 -18.591338 35.247298 -0.172380 2.126398 0.051064 -0.018653 -180757.000000 0 0 1
30.199006 -5.548487 -17.444738 35.314085 -0.181704 2.087467 0.069030 -0.026498 -996132.000000 0 0 1
31.683086 -5.270987 -17.428338 36.542417 -0.164856 2.067960 0.106333 -0.028031 -688414.000000 0 0 1
32.421796 -6.154287 -18.294238 37.732311 -0.187588 2.076980 0.085627 -0.024357 -414408.000000 0 0 1
33.714866 -5.692887 -18.499238 38.875738 -0.167276 2.066733 0.120058 -0.028285 -728803.000000 0 0 1
34.601256 -6.761387 -19.178138 40.134328 -0.192977 2.069000 0.105112 -0.016114 -263114.000000 0 0 1
34.875736 -7.866287 -18.313538 40.169405 -0.221840 2.044188 0.126436 -0.022081 -18740.500000 0 0 1
35.531766 -8.846487 -19.033438 41.267887 -0.244013 2.050162 0.107340 -0.013506 -166733.000000 0 0 1
36.391306 -9.768487 -18.092438 41.798168 -0.262247 2.018451 0.126092 -0.015792 9605.500000 0 0 1
35.628456 -10.365287 -17.008638 40.818131 -0.283112 2.000601 0.120523 -0.019893 700604.000000 0 0 1
36.408446 -10.992287 -15.995338 41.258407 -0.293214 1.968917 0.142017 -0.023912 -639096.000000 0 0 1
37.564516 -10.266587 -15.288038 41.835628 -0.266790 1.944892 0.161514 -0.022307 -424789.000000 0 0 1
-37.725410 -10.955487 -14.078238 41.730397 0.282627 1.914909 0.154058 -0.027652 357844.000000 0 0 1
-37.017890 -12.180587 -14.249938 41.493995 0.317887 1.921354 0.140597 -0.021721 -270087.000000 0 0 1
-35.500611 -12.124187 -14.587338 40.250214 0.329101 1.941656 0.137911 -0.029524 158052.000000 0 0 1
-35.320764 -11.784887 -15.934438 40.501189 0.322038 1.975157 0.151097 -0.020434 329983.000000 0 0 1
-33.974766 -12.163787 -16.223038 39.565508 0.343805 1.993283 0.168329 -0.027692 318370.000000 0 0 1
-33.584990 -11.743887 -17.690238 39.734305 0.336387 2.032209 0.193335 -0.031071 85622.100000 0 0 1
-33.727470 -10.361587 -18.006938 39.612556 0.298063 2.042693 0.191478 -0.035956 -176906.000000 0 0 1
-35.004262 -9.988687 -18.455338 40.812642 0.277969 2.040023 0.176782 -0.031870 -226494.000000 0 0 1
-35.207450 -8.471187 -18.365238 40.603048 0.236120 2.040152 0.186709 -0.035334 140507.000000 0 0 1
-36.462420 -8.075987 -18.888538 41.851004 0.217969 2.039050 0.191009 -0.033681 142052.000000 0 0 1
-36.816480 -6.811187 -18.430438 41.731601 0.182935 2.028225 0.174792 -0.038813 -110074.000000 0 0 1
26.123700 27.089913 -26.978188 46.304792 0.803553 2.192747 0.066942 0.000352 33800.200000 0 0 1
26.256800 25.995813 -26.124528 45.251440 0.780403 2.186238 0.077385 -0.017365 -20924.600000 0 0 1
27.403200 25.270313 -26.502468 45.737347 0.744928 2.188849 0.076438 -0.021248 -264232.000000 0 0 1
27.873000 24.301013 -25.414388 44.870196 0.717042 2.172925 0.098591 -0.034580 -381188.000000 0 0 1
28.480100 25.006913 -24.357638 45.052817 0.720554 2.142001 0.092596 -0.031426 36027.400000 0 0 1
28.784900 24.155013 -23.282838 44.205494 0.698165 2.125505 0.110000 -0.033143 54700.600000 0 0 1
29.588600 24.839013 -22.142138 44.527925 0.698354 2.091239 0.098425 -0.025113 46853.300000 0 0 1
28.896000 25.908313 -21.545038 44.389280 0.730937 2.077578 0.099579 -0.020435 22450.800000 0 0 1
29.418500 26.256413 -20.256838 44.330428 0.728664 2.045361 0.072952 -0.016048 87391.800000 0 0 1
28.607500 27.385213 -19.606938 44.190168 0.763572 2.030513 0.082563 -0.008835 69292.500000 0 0 1
27.436000 26.963413 -18.948238 42.881178 0.776711 2.028487 0.104425 -0.013256 476060.000000 0 0 1
26.588500 28.112413 -18.632038 42.946582 0.813250 2.019549 0.097823 -0.007656 1028790.000000 0 0 1
25.492300 27.858413 -17.549938 41.640712 0.829719 2.005852 0.099433 -0.005169 619204.000000 0 0 1
24.481000 26.920713 -17.915338 40.558643 0.832826 2.028305 0.113080 -0.014077 826829.000000 0 0 1
23.389700 26.969913 -16.974838 39.529728 0.856372 2.014646 0.098672 -0.007266 180309.000000 0 0 1
22.306600 25.935313 -17.220938 38.298637 0.860476 2.037169 0.099354 -0.007998 -650508.000000 0 0 1
21.738800 26.233813 -18.451138 38.745747 0.878825 2.067137 0.092603 -0.011638 -383089.000000 0 0 1
20.910700 25.184013 -18.876438 37.786397 0.877841 2.093883 0.096429 -0.006413 -102407.000000 0 0 1
20.088900 25.453013 -20.126338 38.163979 0.902642 2.126292 0.077424 -0.003655 -341038.000000 0 0 1
19.249300 26.547413 -19.985538 38.402115 0.943428 2.118149 0.060055 -0.004145 -471746.000000 0 0 1
18.254400 26.405213 -20.991438 38.354907 0.965921 2.149925 0.061591 -0.005381 267412.000000 0 0 1
16.999200 27.292713 -20.898038 38.348311 1.013746 2.147130 0.062789 -0.005969 62788.400000 0 0 1
16.213000 27.152513 -19.743338 37.281627 1.032506 2.128893 0.070155 -0.001296 -282784.000000 0 0 1
15.229400 28.156613 -19.670638 37.572111 1.074981 2.121801 0.070154 -0.010976 65972.600000 0 0 1
14.588700 28.223513 -18.239538 36.634377 1.093721 2.091949 0.069662 -0.006170 -26716.400000 0 0 1
13.713300 27.167913 -17.950738 35.332409 1.103347 2.103719 0.074550 -0.005340 -266541.000000 0 0 1
13.428000 27.126613 -16.544438 34.494677 1.111147 2.071021 0.092575 -0.004993 255459.000000 0 0 1
12.456100 25.933713 -16.263538 33.048670 1.123028 2.085307 0.100262 -0.009071 910631.000000 0 0 1
13.167100 24.691413 -16.318838 32.393562 1.080891 2.098751 0.094127 -0.014683 671038.000000 0 0 1
12.181000 23.655613 -16.171338 31.136425 1.095276 2.116910 0.117537 -0.018770 927403.000000 0 0 1
12.844200 22.285513 -16.367338 30.487823 1.047950 2.137493 0.114049 -0.026245 120633.000000 0 0 1
13.216900 22.084613 -17.661638 31.214581 1.031505 2.172216 0.104977 -0.017565 -299352.000000 0 0 1
14.181600 21.054913 -17.838438 31.026392 0.978041 2.183332 0.101945 -0.020282 -60416.500000 0 0 1
13.692400 19.624813 -17.939538 29.907226 0.961610 2.214097 0.101149 -0.021992 -163997.000000 0 0 1
13.382000 19.113413 -16.641938 28.659285 0.959979 2.190363 0.120850 -0.038503 140657.000000 0 0 1
12.884400 17.784113 -16.627438 27.545492 0.943823 2.218850 0.106519 -0.033673 767040.000000 0 0 1
14.099300 16.784513 -16.516038 27.446123 0.872126 2.216502 0.120622 -0.034388 605115.000000 0 0 1
14.628700 16.532113 -15.232338 26.820398 0.846406 2.174795 0.128800 -0.042071 -214954.000000 0 0 1
15.722100 15.682613 -15.438038 27.045551 0.784141 2.178296 0.133898 -0.040149 -1291650.000000 0 0 1
16.083400 14.954313 -14.147638 26.123991 0.749036 2.143085 0.185960 -0.047718 -959480.000000 0 0 1
16.912000 15.554513 -13.169738 26.483969 0.743611 2.091248 0.166369 -0.046823 1598030.000000 0 0 1
18.191500 16.115313 -13.566438 27.833114 0.724954 2.079930 0.130259 -0.032937 631139.000000 0 0 1
19.201500 15.148413 -14.272238 28.317288 0.667947 2.099033 0.117664 -0.027982 -1033860.000000 0 0 1
19.673500 14.055413 -13.526838 27.705173 0.620348 2.080871 0.137430 -0.035263 -271574.000000 0 0 1
20.834000 14.371813 -12.847938 28.384398 0.603864 2.040521 0.129684 -0.023104 -1205490.000000 0 0 1
21.520500 13.105213 -12.299638 28.038538 0.546985 2.024913 0.146632 -0.045410 -436020.000000 0 0 1
20.908900 12.526713 -11.178938 26.815467 0.539764 2.000811 0.225876 -0.053761 184952.000000 0 0 1
21.644700 11.432613 -10.626838 26.685715 0.485948 1.980374 0.241111 -0.030829 -154168.000000 0 0 1
21.583600 10.079513 -11.354938 26.389069 0.436900 2.015610 0.182417 -0.023529 -489232.000000 0 0 1
22.260400 9.986413 -12.594338 27.456715 0.421704 2.047326 0.155650 -0.013717 257069.000000 0 0 1
22.025100 8.839913 -13.447838 27.278076 0.381675 2.086320 0.141470 -0.023814 -131015.000000 0 0 1
22.465500 7.469813 -12.851038 26.937817 0.321002 2.068106 0.157392 -0.004944 -79078.100000 0 0 1
21.415800 6.838113 -12.129838 25.544652 0.309070 2.065588 0.153227 -0.023992 203083.000000 0 0 1
21.748500 6.050613 -11.052238 25.134819 0.271346 2.026081 0.165024 -0.013420 -512331.000000 0 0 1
22.233400 4.584513 -11.389138 25.397919 0.203349 2.035802 0.190886 -0.028894 833305.000000 0 0 1
21.227700 3.720113 -12.046238 24.689397 0.173486 2.080492 0.165544 -0.040437 1489900.000000 0 1 0
20.786900 4.130813 -13.376538 25.061736 0.196166 2.133818 0.126914 -0.042980 91408.000000 0 0 1
19.713000 3.168113 -14.006738 24.389096 0.159349 2.182549 0.121196 -0.045153 323043.000000 0 1 0
20.198800 1.828113 -14.291438 24.810859 0.090260 2.184642 0.148459 -0.072322 279002.000000 0 1 0
20.083600 0.959213 -13.218738 24.062546 0.047725 2.152381 0.189537 -0.080853 -1001420.000000 0 1 0
21.197600 -0.092787 -13.178538 24.960383 -0.004377 2.127014 0.222684 -0.076532 -535833.000000 0 1 0
22.542400 0.261713 -12.948938 25.998140 0.011609 2.092170 0.265843 -0.058923 379460.000000 0 0 1
23.137900 0.829213 -14.093338 27.104837 0.035823 2.117596 0.174514 -0.048558 -620689.000000 0 0 1
23.770500 -0.179087 -15.122838 28.173906 -0.007534 2.137398 0.138632 -0.033089 48392.500000 0 0 1
22.748800 -0.811687 -15.901038 27.767062 -0.035665 2.180541 0.156827 -0.039013 209407.000000 0 0 1
23.290200 -1.717887 -16.808638 28.773510 -0.073627 2.194654 0.104967 -0.026868 -71141.600000 0 0 1
22.269600 -2.320987 -17.798038 28.602311 -0.103847 2.242421 0.117325 -0.031512 340872.000000 0 0 1
21.281600 -3.148287 -17.175838 27.528669 -0.146869 2.244552 0.147835 -0.027197 690586.000000 0 0 1
20.443900 -3.824987 -18.097938 27.570254 -0.184958 2.286873 0.131280 -0.014140 -438740.000000 0 0 1
19.780300 -5.062087 -17.550838 26.924281 -0.250538 2.280830 0.128334 -0.015657 -44674.700000 0 0 1
20.639300 -6.128187 -17.140538 27.519692 -0.288627 2.243172 0.132776 -0.016839 272524.000000 0 0 1
19.790900 -7.136387 -16.696038 26.858247 -0.346077 2.241625 0.137816 -0.006352 -215408.000000 0 0 1
20.431900 -8.244787 -15.851238 27.142233 -0.383542 2.194452 0.162808 -0.011627 -182635.000000 0 0 1
21.147800 -9.085087 -16.741938 28.461566 -0.405760 2.199664 0.143394 -0.015237 425537.000000 0 0 1
21.889600 -10.048987 -15.988838 28.909854 -0.430376 2.156827 0.128874 -0.017228 -271512.000000 0 0 1
22.493300 -11.163887 -16.870438 30.252150 -0.460700 2.162361 0.110722 -0.012604 255983.000000 0 0 1
23.588800 -10.746887 -17.694438 31.385031 -0.427495 2.169759 0.096092 -0.007793 519351.000000 0 0 1
23.949100 -11.692787 -18.679038 32.545155 -0.454191 2.182108 0.086904 -0.016122 -591937.000000 0 0 1
23.172300 -11.504187 -20.012338 32.707728 -0.460814 2.229198 0.098324 -0.012381 934466.000000 0 0 1
21.793600 -11.888887 -20.035538 31.901872 -0.499399 2.249824 0.094898 -0.023435 581428.000000 0 0 1
21.591100 -13.270587 -19.875338 32.207346 -0.551109 2.235856 0.087435 -0.015081 -122977.000000 0 0 1
20.078700 -13.666987 -19.767338 31.315944 -0.597635 2.253925 0.093409 -0.021572 800771.000000 0 0 1
19.436100 -13.366987 -21.028238 31.601030 -0.602450 2.298865 0.089509 -0.009555 -423816.000000 0 0 1
18.038700 -13.405187 -20.883238 30.679038 -0.639093 2.319515 0.094515 -0.009083 -227297.000000 0 0 1
17.407000 -12.820887 -22.163038 30.960928 -0.634828 2.368621 0.085537 -0.016467 -363299.000000 0 0 1
17.504700 -13.644087 -23.310738 32.186428 -0.662086 2.380730 0.078039 -0.012204 205880.000000 0 0 1
17.056100 -12.967287 -24.458238 32.515634 -0.650043 2.422190 0.097190 -0.022077 -78434.500000 0 0 1
17.168700 -13.784987 -25.792658 33.912407 -0.676515 2.434982 0.090859 -0.031052 -9299.630000 0 0 1
16.049200 -14.670887 -25.885668 33.806502 -0.740561 2.442927 0.097298 -0.028738 511553.000000 0 0 1
16.060500 -15.505087 -27.020098 35.049010 -0.767804 2.451086 0.090046 -0.031642 -66030.400000 0 0 1
17.090600 -16.665987 -27.085658 36.103692 -0.772820 2.419189 0.078497 -0.028306 693592.000000 0 0 1
18.473900 -16.301887 -26.989878 36.544357 -0.723022 2.401715 0.077952 -0.018678 700093.000000 0 0 1
19.255900 -17.515587 -27.038958 37.532529 -0.738106 2.375195 0.096677 -0.022243 386301.000000 0 0 1
20.758900 -17.264487 -26.792408 38.037187 -0.693754 2.352337 0.070953 -0.010311 137715.000000 0 0 1
21.081100 -16.847587 -25.470168 37.107727 -0.674241 2.327302 0.079838 -0.014380 869308.000000 0 0 1
22.493500 -16.661987 -25.225478 37.681615 -0.637553 2.304247 0.071047 -0.005577 1019790.000000 0 0 1
22.845800 -15.770587 -23.983138 36.685595 -0.604190 2.283323 0.088562 -0.007720 30247.800000 0 0 1
22.553500 -14.401887 -24.053538 35.981209 -0.568295 2.302990 0.086329 -0.005876 -426377.000000 0 0 1
21.218800 -14.010387 -24.239838 35.129733 -0.583569 2.332298 0.111431 -0.012858 -320708.000000 0 0 1
21.015400 -12.595887 -23.658738 34.059350 -0.539952 2.338706 0.119376 0.000409 41739.300000 0 0 1
21.480900 -11.466887 -24.493938 34.537973 -0.490334 2.359143 0.134300 -0.018805 387444.000000 0 0 1
21.600900 -10.295587 -23.724638 33.696535 -0.444776 2.351906 0.128883 -0.019659 -95924.600000 0 0 1
21.984800 -9.113787 -24.662238 34.272708 -0.392986 2.374006 0.147759 -0.032475 -110909.000000 0 0 1
21.879400 -7.869887 -24.057838 33.457777 -0.345285 2.373232 0.142877 -0.035029 25361.700000 0 0 1
21.827900 -6.881687 -25.030138 33.916407 -0.305407 2.400891 0.120521 -0.035255 -345932.000000 0 0 1
21.161500 -5.650487 -24.325338 32.733151 -0.260930 2.408548 0.126252 -0.040519 -345247.000000 0 0 1
19.811000 -5.964287 -24.121438 31.778801 -0.292428 2.432636 0.140749 -0.044390 -768725.000000 0 0 1
19.159800 -5.279587 -23.043938 30.430167 -0.268883 2.429924 0.144772 -0.041999 213430.000000 0 0 1
19.643700 -5.498987 -21.543838 29.669020 -0.272950 2.383486 0.134599 -0.031162 -583246.000000 0 0 1
19.206500 -6.602787 -20.843138 29.101939 -0.331122 2.369155 0.134017 -0.037867 -240899.000000 0 0 1
19.491400 -7.913387 -21.284938 29.926325 -0.385663 2.362064 0.121214 -0.035030 -233406.000000 0 0 1
19.323200 -8.933687 -20.182238 29.334614 -0.433060 2.329527 0.113529 -0.030515 1003750.000000 0 0 1
17.918400 -9.097387 -19.918938 28.294798 -0.469798 2.351781 0.125305 -0.032132 725869.000000 0 0 1
17.551100 -10.132387 -19.038538 27.805976 -0.523567 2.324978 0.124570 -0.021712 90323.100000 0 0 1
16.033000 -10.377387 -18.976238 26.922943 -0.574441 2.352987 0.136566 -0.024216 -258072.000000 0 0 1
15.359700 -9.627387 -18.006238 25.550569 -0.559889 2.352838 0.148196 -0.020473 853998.000000 0 0 1
13.941300 -9.634087 -18.277138 24.924471 -0.604692 2.393961 0.111982 -0.028248 464805.000000 0 1 0
13.262600 -8.617487 -17.374938 23.495662 -0.576205 2.403117 0.130024 -0.021702 -95198.700000 0 1 0
11.975100 -8.216887 -17.827038 22.993989 -0.601380 2.457972 0.121326 -0.029003 -17805.700000 0 1 0
11.679400 -6.922487 -17.368838 22.045538 -0.535041 2.478126 0.129710 -0.031540 251309.000000 0 1 0
10.165500 -6.633487 -17.561638 21.348341 -0.578165 2.536805 0.113610 -0.031579 382380.000000 0 1 0
9.769600 -6.523087 -18.928238 22.277207 -0.588712 2.586152 0.100719 -0.038449 -260494.000000 0 1 0
8.398700 -6.244087 -19.030738 21.718558 -0.639302 2.638806 0.093040 -0.041404 -169302.000000 0 1 0
7.984400 -5.861087 -20.493738 22.761729 -0.633226 2.691391 0.103176 -0.047408 -30637.600000 0 1 0
8.062600 -6.921987 -21.398838 23.892043 -0.709426 2.680680 0.101173 -0.043511 222978.000000 0 1 0
7.386100 -6.600187 -22.613738 24.688015 -0.729266 2.728741 0.114596 -0.043300 149942.000000 0 1 0
7.444700 -7.749687 -23.678338 26.002786 -0.805468 2.715549 0.099587 -0.043664 -180755.000000 0 0 1
6.576800 -8.821187 -23.364238 25.825477 -0.930137 2.701465 0.102041 -0.036226 120649.000000 0 0 1
6.186100 -9.479887 -24.582738 27.063760 -0.992631 2.710062 0.078032 -0.023324 -104756.000000 0 0 1
5.332200 -10.720287 -24.280338 27.071973 -1.109236 2.683462 0.083492 -0.030824 180548.000000 0 0 1
6.072400 -11.780587 -23.656938 27.116545 -1.094859 2.630922 0.067967 -0.033664 255267.000000 0 0 1
5.317300 -12.966787 -23.747138 27.574224 -1.181639 2.608438 0.090266 -0.037737 -1123220.000000 0 0 1
5.782900 -14.099687 -22.814838 27.436471 -1.181576 2.552691 0.096768 -0.033052 -227674.000000 0 0 1
6.815700 -14.855487 -23.457638 28.590209 -1.140648 2.533043 0.085163 -0.028272 1287790.000000 0 0 1
8.118400 -14.242487 -23.610638 28.744027 -1.052718 2.534676 0.083635 -0.031177 459121.000000 0 0 1
8.911300 -13.676487 -22.424338 27.736411 -0.993312 2.512361 0.090305 -0.021468 -867647.000000 0 0 1
9.416500 -14.644187 -21.530238 27.688876 -0.999344 2.461600 0.081101 -0.007447 298230.000000 0 0 1
8.458100 -15.226287 -20.656738 27.019994 -1.063745 2.441059 0.087540 -0.007509 112377.000000 0 0 1
9.154100 -15.659987 -19.338638 26.514442 -1.041812 2.388186 0.082750 -0.003318 493234.000000 0 0 1
10.117300 -16.697587 -19.429138 27.543794 -1.026040 2.353771 0.078736 -0.009118 216812.000000 0 0 1
10.797900 -17.054187 -18.192838 27.173871 -1.006356 2.304328 0.068777 0.004827 150861.000000 0 0 1
9.953800 -17.725587 -17.035938 26.523532 -1.059129 2.268285 0.046046 -0.003046 -54710.000000 0 0 1
9.473600 -19.056187 -17.192538 27.358193 -1.109439 2.250322 0.045194 -0.006303 413713.000000 0 0 1
8.679800 -19.358687 -18.330438 28.037522 -1.149301 2.283369 0.063677 -0.004055 -735103.000000 0 0 1
7.168200 -19.178187 -18.269938 27.440419 -1.213106 2.299367 0.068655 -0.009862 -518818.000000 0 0 1
6.725100 -17.861687 -17.949138 26.199969 -1.210703 2.325513 0.079154 -0.009591 486076.000000 0 0 1
5.305000 -17.751387 -17.841138 25.720828 -1.280395 2.337334 0.076216 -0.008369 646393.000000 0 0 1
4.845400 -16.320587 -17.600738 24.487251 -1.282196 2.372830 0.056370 0.003631 -88445.900000 0 1 0
5.074300 -15.869987 -16.300738 23.309206 -1.261328 2.345251 0.026584 0.004462 105424.000000 0 1 0
4.578700 -14.559687 -16.142338 22.215401 -1.266111 2.384198 0.015017 0.010420 38113.200000 0 1 0
10.968900 29.583813 -17.838638 36.245493 1.215736 2.085367 0.097816 -0.026723 524970.000000 0 0 1
9.902100 29.362313 -18.798738 36.243476 1.245535 2.116102 0.125359 -0.035977 879599.000000 0 0 1
8.877200 28.603013 -18.153838 35.021406 1.269863 2.115733 0.120935 -0.033098 -452449.000000 0 0 1
7.758500 28.066313 -18.971238 34.753707 1.301097 2.148231 0.134424 -0.036824 -606248.000000 0 0 1
7.075600 29.078313 -19.654238 35.803652 1.332106 2.151898 0.146850 -0.046214 -239593.000000 0 0 1
6.307300 28.515813 -20.723838 35.810768 1.353115 2.187935 0.129629 -0.046209 550902.000000 0 0 1
5.177700 29.384813 -21.359238 36.694589 1.396383 2.192082 0.123896 -0.049147 680013.000000 0 0 1
3.989900 29.411913 -20.577238 36.116515 1.435963 2.176993 0.118601 -0.042889 292209.000000 0 0 1
2.969300 30.221113 -21.149938 37.006112 1.472858 2.179160 0.122140 -0.054460 -16213.200000 0 0 1
1.575500 29.995013 -20.497538 36.363884 1.518319 2.169629 0.113658 -0.046735 322734.000000 0 0 1
0.930700 28.760713 -20.911438 35.571521 1.538448 2.199220 0.118750 -0.060818 48830.000000 0 0 1
0.531600 28.589813 -22.263938 36.240074 1.552204 2.232353 0.156574 -0.069087 -995156.000000 0 0 1
-0.312900 27.354713 -22.432338 35.377790 -1.559358 2.257614 0.155519 -0.063273 -281989.000000 0 0 1
-1.605700 27.503313 -21.886438 35.185603 -1.512480 2.242127 0.156760 -0.058307 -194838.000000 0 0 1
-2.223000 26.225713 -21.922838 34.254060 -1.486234 2.265304 0.163721 -0.070416 -195941.000000 0 0 1
-3.293700 26.057213 -20.833838 33.524255 -1.445061 2.241396 0.123015 -0.065651 -410099.000000 0 0 1
-4.536700 26.623413 -21.166638 34.313472 -1.402015 2.235544 0.112847 -0.060130 -805292.000000 0 0 1
-5.490200 26.055913 -20.341838 33.508854 -1.363126 2.223150 0.091787 -0.053514 -208099.000000 0 0 1
-6.827300 26.875913 -20.362338 34.402784 -1.322028 2.204186 0.078787 -0.059376 776260.000000 0 0 1
-7.848500 26.217713 -19.593938 33.658429 -1.279928 2.192155 0.078715 -0.044558 408710.000000 0 0 1
-8.627000 27.124613 -18.797138 34.110148 -1.262863 2.154444 0.084485 -0.052409 308680.000000 0 0 1
-9.773900 26.432213 -18.016338 33.448161 -1.216617 2.139612 0.105887 -0.050094 -118032.000000 0 0 1
-9.445700 25.531813 -16.985638 32.087484 -1.216453 2.128635 0.102937 -0.056377 -899354.000000 0 0 1
-10.604300 25.032113 -16.388938 31.743585 -1.170088 2.113311 0.077184 -0.046750 -419014.000000 0 0 1
-10.563900 24.317213 -15.040338 30.481710 -1.160973 2.086816 0.073498 -0.033890 -326474.000000 0 0 1
-9.980400 23.008413 -15.046638 29.247167 -1.161519 2.111180 0.073887 -0.030244 -39995.700000 0 0 1
-10.154900 22.358213 -13.841938 28.188844 -1.144463 2.084083 0.093110 -0.025479 -617395.000000 0 0 1
-9.558500 20.972613 -13.743838 26.834838 -1.143162 2.108499 0.101439 -0.016145 -250631.000000 0 0 1
-10.221100 19.885513 -14.466338 26.630424 -1.096014 2.145071 0.088583 -0.014913 27109.000000 0 0 1
-10.472500 20.009613 -15.870838 27.603286 -1.088625 2.183354 0.100340 -0.009920 38653.800000 0 0 1
-9.292000 19.959413 -16.867338 27.734934 -1.135091 2.224540 0.107987 -0.011684 45510.500000 0 0 1
-8.777600 18.672113 -17.182738 26.850337 -1.131361 2.265223 0.109451 -0.014334 85549.900000 0 0 1
-7.731600 18.726613 -18.142838 27.196071 -1.179247 2.301122 0.113521 -0.018973 122494.000000 0 0 1
-7.036500 17.391013 -18.347438 26.240964 -1.186326 2.345061 0.102403 -0.017146 -166369.000000 0 0 1
-7.940900 16.349313 -18.691338 26.071518 -1.118652 2.370179 0.116544 -0.028182 -194991.000000 0 0 1
-7.594500 15.414813 -19.734138 26.167329 -1.113025 2.425158 0.112903 -0.035384 -229465.000000 0 0 1
-6.434200 14.411313 -19.642438 25.197426 -1.150883 2.464730 0.087349 -0.027918 -230633.000000 0 0 1
-6.539300 13.403113 -18.648338 23.878158 -1.116880 2.467028 0.070513 -0.023292 359496.000000 0 1 0
-5.292100 12.761913 -18.371538 22.986652 -1.177700 2.496803 0.060079 -0.014771 363185.000000 0 1 0
-4.528000 13.315113 -17.203238 22.220406 -1.243000 2.456261 0.040997 -0.006478 -220379.000000 0 1 0
-3.886500 14.557013 -17.465238 23.066124 -1.309897 2.429783 0.044938 -0.014856 -104524.000000 0 1 0
-3.164800 15.073113 -16.351638 22.463098 -1.363839 2.386099 0.034292 -0.008248 202358.000000 0 1 0
-2.399000 16.347213 -16.709338 23.498693 -1.425084 2.361823 0.072391 -0.010008 158477.000000 0 1 0
-3.219000 17.473313 -16.975738 24.573448 -1.388615 2.333414 0.071047 -0.013679 290802.000000 0 1 0
-2.411800 18.646013 -16.885438 25.270707 -1.442164 2.302559 0.090798 -0.016616 452120.000000 0 0 1
-3.180300 19.894113 -17.359638 26.594118 -1.412276 2.282021 0.098678 -0.016568 287216.000000 0 0 1
-3.660500 19.857013 -18.674238 27.503225 -1.388500 2.317174 0.102712 -0.019289 -143108.000000 0 0 1
-4.265900 21.066913 -19.100838 28.755082 -1.371005 2.297299 0.129193 -0.023320 -11468.700000 0 0 1
-3.261000 22.231913 -19.337638 29.645174 -1.425154 2.281415 0.121895 -0.036182 -224005.000000 0 0 1
-2.432600 22.085913 -20.484038 30.220869 -1.461096 2.315578 0.137930 -0.032883 321024.000000 0 0 1
-1.228300 22.840113 -20.452238 30.683441 -1.517070 2.300376 0.126782 -0.042372 1034850.000000 0 0 1
-0.060700 22.201213 -19.615838 29.625642 -1.568062 2.294445 0.134933 -0.039102 -152962.000000 0 0 1
-0.296600 22.224913 -18.243938 28.755452 -1.557452 2.258095 0.127481 -0.027640 -156169.000000 0 0 1
0.799200 21.786013 -17.431338 27.912733 1.534129 2.245280 0.124673 -0.024356 72572.700000 0 0 1
0.586300 21.938013 -15.920838 27.112603 1.544077 2.198406 0.135105 -0.025365 590419.000000 0 0 1
-0.447900 21.051913 -15.412838 26.094813 -1.549524 2.202657 0.124482 -0.016087 497063.000000 0 0 1
-0.537600 21.148713 -14.007538 25.372588 -1.545382 2.155646 0.137512 -0.019326 182299.000000 0 0 1
-1.521600 20.178613 -13.331638 24.232711 -1.495532 2.153341 0.107638 -0.013299 -143426.000000 0 1 0
-1.080900 18.855813 -13.442738 23.182262 -1.513534 2.189368 0.083724 -0.007696 -106523.000000 0 1 0
-1.962000 17.874413 -12.951138 22.160236 -1.461468 2.194976 0.069318 -0.007672 -27983.700000 0 1 0
-1.404000 16.422013 -13.212738 21.124161 -1.485509 2.246543 0.041436 0.000676 -68007.700000 0 1 0
-0.429200 16.154413 -12.199838 20.248095 -1.544234 2.217448 0.033165 -0.003165 182113.000000 0 1 0
-0.031200 14.824913 -12.045638 19.101739 -1.568692 2.253128 0.024707 -0.003777 366027.000000 0 1 0
0.790300 14.191413 -13.219738 19.410880 1.515165 2.319989 0.017363 -0.000606 134611.000000 0 1 0
-0.019500 13.846213 -14.362338 19.949806 -1.569388 2.374489 0.025858 -0.013092 165678.000000 0 1 0
0.579000 12.829113 -15.084838 19.810950 1.525695 2.436327 0.020437 -0.019656 -1059610.000000 0 1 0
0.075200 12.553313 -16.532838 20.758759 1.564806 2.492160 0.025041 -0.015007 -55073.300000 0 1 0
0.140900 13.731713 -17.313238 22.098145 1.560536 2.471027 0.035570 -0.020817 -60716.600000 0 1 0
-0.032100 13.446313 -18.701838 23.033956 -1.568409 2.518238 0.049612 -0.022970 -150320.000000 0 1 0
-0.686900 14.637413 -19.492238 24.385919 -1.523903 2.496965 0.052807 -0.013959 26110.400000 0 1 0
0.207600 15.700413 -19.641438 25.146216 1.557575 2.467205 0.058524 -0.020865 -46232.700000 0 0 1
-0.503800 16.888513 -20.063438 26.230083 -1.540974 2.441685 0.100699 -0.029345 115589.000000 0 0 1
0.422300 18.052213 -20.353038 27.208581 1.547407 2.415896 0.117120 -0.033090 -24564.600000 0 0 1
1.176700 18.003213 -21.557838 28.111220 1.505529 2.444757 0.131590 -0.050445 68619.800000 0 0 1
1.952700 19.172013 -21.698938 29.021079 1.469295 2.415382 0.136806 -0.052209 -43571.800000 0 0 1
2.698000 19.116413 -23.048538 30.065787 1.430587 2.444331 0.163016 -0.061955 57643.000000 0 0 1
3.668500 18.086013 -23.136938 29.595264 1.370675 2.468309 0.150769 -0.059619 -97071.400000 0 0 1
4.034000 17.934013 -24.503138 30.631777 1.349543 2.497967 0.155417 -0.071116 155857.000000 0 0 1
5.105800 16.839113 -24.714138 30.338318 1.276397 2.522866 0.124438 -0.058153 164842.000000 0 0 1
6.450600 17.240013 -24.519738 30.660167 1.212758 2.497635 0.114675 -0.040872 163474.000000 0 0 1
7.364500 16.184313 -24.795338 30.511910 1.143760 2.519472 0.121774 -0.040102 13041.000000 0 0 1
8.042800 16.138013 -26.145078 31.759837 1.108449 2.537842 0.104616 -0.044776 73724.400000 0 0 1
9.284000 16.897713 -26.221318 32.546626 1.068396 2.507575 0.076141 -0.033465 1216140.000000 0 0 1
9.882600 16.847013 -27.533208 33.757446 1.040282 2.524594 0.095964 -0.041338 381576.000000 0 0 1
10.374000 15.484013 -28.117988 33.734193 0.980502 2.556238 0.092657 -0.046633 82431.400000 0 0 1
11.532000 14.928313 -27.474918 33.327356 0.913055 2.539929 0.103943 -0.040075 597216.000000 0 0 1
11.616200 13.530013 -27.683838 32.930112 0.861359 2.569343 0.097096 -0.028893 469119.000000 0 0 1
10.661000 12.638813 -26.765978 31.461311 0.870081 2.588223 0.086229 -0.025571 852567.000000 0 0 1
9.290300 12.772313 -27.101938 31.368084 0.941931 2.613952 0.091155 -0.027244 -129719.000000 0 0 1
8.470500 11.955213 -26.292278 30.099176 0.954376 2.633187 0.118302 -0.025786 -804709.000000 0 0 1
6.995300 12.089313 -26.550198 29.999979 1.046235 2.657306 0.118482 -0.042542 -1097410.000000 0 0 1
6.481700 13.223113 -25.844508 29.745618 1.115036 2.623673 0.138691 -0.037984 -647961.000000 0 0 1
5.094000 13.258113 -25.718308 29.379547 1.203969 2.637020 0.163553 -0.048006 -366658.000000 0 0 1
4.354300 13.989813 -26.890588 30.623170 1.269053 2.642699 0.171562 -0.037662 -337136.000000 0 0 1
4.347800 13.285613 -28.110838 31.394747 1.254525 2.680124 0.173038 -0.054571 298723.000000 0 0 1
3.987000 14.226013 -29.146738 32.677331 1.297545 2.672449 0.157275 -0.064716 -1585.480000 0 0 1
4.051100 13.552313 -30.544868 33.661040 1.280328 2.707911 0.183939 -0.055077 -581135.000000 0 0 1
5.351100 13.332713 -30.984108 34.152752 1.189126 2.707427 0.166538 -0.053608 -669487.000000 0 0 1
5.326700 12.742413 -32.257798 35.090004 1.174845 2.737062 0.166278 -0.054398 -918743.000000 0 0 1
6.402500 11.674213 -32.352168 34.984883 1.069159 2.751167 0.168143 -0.044628 -21625.800000 0 0 1
7.735700 12.181813 -32.360828 35.432483 1.005024 2.722134 0.163780 -0.036187 464160.000000 0 0 1
8.272000 12.453013 -31.063718 34.474021 0.984464 2.693041 0.152045 -0.039402 -668182.000000 0 0 1
8.617200 11.297913 -30.063008 33.251819 0.919201 2.700068 0.155189 -0.039012 -675414.000000 0 0 1
9.645700 10.465913 -30.474498 33.634356 0.826159 2.704657 0.129505 -0.039932 -466643.000000 0 0 1
9.666000 9.286813 -29.720218 32.603187 0.765394 2.717893 0.119059 -0.040114 53735.900000 0 0 1
10.774600 8.291413 -30.141768 33.066081 0.655886 2.717862 0.083259 -0.030782 -861239.000000 0 0 1
11.981300 8.523413 -29.536338 32.993869 0.618331 2.679692 0.077102 -0.029813 -863666.000000 0 0 1
12.841400 7.387413 -29.693728 33.184227 0.522045 2.678812 0.050140 -0.021161 24117.700000 0 0 1
14.104700 7.567713 -28.809578 32.957619 0.492449 2.634459 0.045989 -0.005926 827015.000000 0 0 1
14.953200 6.427713 -28.471598 32.795512 0.405976 2.622270 0.042820 0.003455 1285060.000000 0 0 1
15.833500 5.999713 -29.564478 34.069850 0.362208 2.621475 0.035134 0.000328 114854.000000 0 0 1
16.600500 4.686913 -29.137168 33.860276 0.275173 2.607070 0.052723 -0.008555 -48995.800000 0 0 1
17.471400 5.037313 -28.098388 33.468549 0.280705 2.567243 0.037572 -0.013273 -207709.000000 0 0 1
18.307900 3.978613 -27.743878 33.477326 0.213989 2.547642 0.048852 -0.013477 -176246.000000 0 0 1
19.026000 4.164513 -26.392348 32.800730 0.215487 2.505843 0.070699 -0.009882 -502686.000000 0 0 1
20.022600 5.130213 -26.380078 33.513163 0.250825 2.476980 0.105884 -0.014417 -292569.000000 0 0 1
20.476500 5.352313 -25.067538 32.807252 0.255668 2.440419 0.123045 -0.023261 -437830.000000 0 0 1
21.584500 6.396813 -24.977738 33.625842 0.288115 2.408060 0.125873 -0.020678 -732297.000000 0 0 1
21.201700 7.704113 -25.421958 33.987371 0.348538 2.415813 0.125547 -0.009946 646071.000000 0 0 1
22.162100 8.593013 -26.089188 35.293686 0.369888 2.402682 0.135890 -0.025585 7279.810000 0 0 1
22.016300 8.643813 -27.677348 36.406985 0.374119 2.434449 0.146834 -0.031267 604454.000000 0 0 1
20.734600 8.972913 -28.228028 36.156028 0.408417 2.466627 0.110185 -0.013513 791310.000000 0 0 1
19.784000 7.906413 -28.190568 35.335905 0.380193 2.494414 0.102495 -0.010762 441148.000000 0 0 1
18.473600 8.325513 -28.963838 35.348154 0.423412 2.531138 0.082418 0.006555 159029.000000 0 0 1
18.574300 8.570513 -30.364168 36.612034 0.432308 2.548739 0.061601 0.002367 795512.000000 0 0 1
17.505600 9.399613 -30.904618 36.740906 0.492768 2.570203 0.046138 0.004073 406567.000000 0 0 1
17.160100 9.052313 -32.349258 37.721186 0.485421 2.601359 0.023542 0.006216 -149297.000000 0 0 1
16.545600 7.772413 -32.513308 37.299899 0.439162 2.629402 0.032422 0.005335 483853.000000 0 0 1
15.188400 8.006113 -32.861658 37.076595 0.485108 2.660129 0.036417 0.000934 175746.000000 0 0 1
14.323500 6.818513 -33.325178 36.908295 0.444294 2.697308 0.053960 -0.013029 37504.900000 0 0 1
14.187100 5.825113 -32.301328 35.757259 0.389604 2.698314 0.049711 -0.011782 366008.000000 0 0 1
13.447600 4.703913 -32.843348 35.800143 0.336493 2.732314 0.061815 -0.024018 346483.000000 0 0 1
13.213300 3.460913 -31.907348 34.708041 0.256172 2.737113 0.073445 -0.025836 535771.000000 0 0 1
14.435000 2.758513 -31.630058 34.877488 0.188822 2.706641 0.057035 -0.029156 595683.000000 0 0 1
14.437200 1.890913 -30.484738 33.783540 0.130234 2.695999 0.084344 -0.028359 453852.000000 0 0 1
13.389700 0.690213 -30.611778 33.419177 0.051502 2.728776 0.090786 -0.022418 649833.000000 0 0 1
13.742100 -0.432787 -31.349238 34.231672 -0.031483 2.728282 0.080714 -0.032946 102598.000000 0 0 1
14.667000 -1.326087 -30.716198 34.064119 -0.090168 2.694521 0.080861 -0.035628 369039.000000 0 0 1
15.099700 -2.510487 -31.507358 35.028804 -0.164754 2.689351 0.081424 -0.041802 -36193.000000 0 0 1
14.164800 -3.563987 -31.478158 34.701844 -0.246492 2.707147 0.090703 -0.040282 -88577.500000 0 0 1
14.683900 -4.643587 -32.144008 35.642911 -0.306285 2.694793 0.097483 -0.041287 -23990.600000 0 0 1
13.718700 -5.871687 -32.086788 35.387023 -0.404414 2.706281 0.109449 -0.042634 218172.000000 0 0 1
13.766300 -6.547487 -30.933088 34.485309 -0.443952 2.683716 0.126106 -0.037790 -7330.520000 0 0 1
13.367300 -7.868187 -31.082668 34.737952 -0.532006 2.678724 0.151595 -0.043602 -110142.000000 0 0 1
13.535300 -8.673687 -29.790058 33.850920 -0.569894 2.646736 0.128786 -0.043345 2177070.000000 0 0 1
14.961100 -8.718587 -29.368938 34.093735 -0.527639 2.608850 0.138993 -0.045508 2144100.000000 0 0 1
15.296600 -9.328987 -28.194138 33.405470 -0.547648 2.575490 0.147045 -0.045935 47856.800000 0 0 1
15.361700 -10.881987 -28.218928 33.922078 -0.616331 2.553274 0.118611 -0.037623 -259725.000000 0 0 1
14.038600 -11.348187 -28.326398 33.589410 -0.679815 2.574215 0.090147 -0.035934 -69941.700000 0 0 1
13.997700 -12.713187 -28.716648 34.383231 -0.737346 2.559281 0.089069 -0.039035 215687.000000 0 0 1
-10.472300 -3.294187 -17.740038 20.862160 0.304762 2.587437 0.044971 0.001104 356099.000000 0 1 0
-11.267400 -2.706287 -18.764138 22.053825 0.235722 2.588366 0.055183 -0.008403 907282.000000 0 1 0
-12.362500 -3.581387 -19.142838 23.067423 0.281978 2.549661 0.068597 -0.013526 645542.000000 0 1 0
-13.293100 -3.082287 -20.287938 24.450101 0.227845 2.549490 0.076058 -0.033185 171068.000000 0 1 0
-14.015500 -1.958587 -19.842238 24.371802 0.138845 2.522056 0.065924 -0.032370 -345519.000000 0 1 0
-15.051900 -1.529187 -20.675638 25.619917 0.101247 2.509875 0.060884 -0.029239 -20652.100000 0 0 1
-15.641000 -0.165287 -20.304338 25.630731 0.010567 2.485181 0.058504 -0.025446 -169504.000000 0 0 1
-15.003100 0.920813 -20.888938 25.734970 -0.061298 2.517844 0.066772 -0.026641 -162596.000000 0 0 1
-15.632400 2.158013 -20.527038 25.891857 -0.137180 2.486184 0.075995 -0.016310 203493.000000 0 0 1
-15.074400 3.419813 -21.308638 26.324717 -0.223086 2.514017 0.107592 -0.035306 931502.000000 0 0 1
-13.775000 3.824513 -20.828638 25.262813 -0.270820 2.540076 0.101387 -0.038080 728651.000000 0 0 1
-13.300700 4.849513 -21.637338 25.857316 -0.349627 2.562204 0.118365 -0.043085 -592029.000000 0 0 1
-12.128300 5.589813 -21.011338 24.896145 -0.431873 2.575419 0.085699 -0.035163 -623247.000000 0 1 0
-12.422500 6.268613 -19.777338 24.181752 -0.467335 2.528482 0.097348 -0.035582 860704.000000 0 1 0
-11.253700 6.489213 -18.955738 22.979897 -0.523058 2.540792 0.068935 -0.025690 717815.000000 0 1 0
-11.612700 7.083013 -17.579138 22.227235 -0.547694 2.483047 0.088226 -0.025088 39465.700000 0 1 0
-11.991800 8.440713 -17.514138 22.842810 -0.613321 2.444519 0.089160 -0.035307 -227643.000000 0 1 0
-13.059500 8.647613 -16.651338 22.860421 -0.584883 2.386768 0.108024 -0.030704 -631393.000000 0 1 0
-13.700800 10.054113 -16.827238 23.915540 -0.633074 2.351263 0.124143 -0.031152 -164260.000000 0 1 0
-13.000600 11.129013 -16.252238 23.600970 -0.707989 2.330389 0.078618 -0.009127 -331004.000000 0 1 0
-13.832400 12.210813 -16.253338 24.588824 -0.723213 2.292954 0.101132 -0.025750 -717938.000000 0 1 0
-13.302100 13.400513 -15.554938 24.463764 -0.789084 2.259887 0.101349 -0.016774 -363298.000000 0 1 0
-13.157900 13.264513 -14.140438 23.431382 -0.789433 2.218658 0.101215 -0.023236 195234.000000 0 1 0
-12.643800 14.487613 -13.625038 23.566890 -0.853252 2.187248 0.092974 -0.020001 -701778.000000 0 1 0
-13.211300 14.894713 -12.212338 23.356630 -0.845222 2.121004 0.071913 -0.023727 507482.000000 0 1 0
-14.541600 15.344913 -12.049538 24.333431 -0.812270 2.088844 0.068481 -0.017653 323304.000000 0 1 0
-15.565300 14.459713 -12.450838 24.624891 -0.748593 2.100897 0.071832 -0.015044 -669114.000000 0 1 0
-16.908600 14.693913 -11.719638 25.281649 -0.715433 2.052809 0.045397 -0.015324 331365.000000 0 0 1
-17.876600 13.674413 -12.016838 25.514051 -0.652990 2.061208 0.045902 -0.021315 363648.000000 0 0 1
-18.993300 13.765313 -11.150338 25.972280 -0.627142 2.014533 0.133697 -0.031115 -227088.000000 0 0 1
-20.266700 13.284913 -11.856938 26.978047 -0.580235 2.025842 0.126309 -0.035421 -502106.000000 0 0 1
-20.584700 11.904813 -11.554638 26.437930 -0.524336 2.023110 0.145660 -0.035338 1144120.000000 0 0 1
-21.880700 11.599113 -12.105038 27.565131 -0.487442 2.025441 0.183257 -0.030169 396882.000000 0 0 1
-22.336700 10.261913 -11.522138 27.147647 -0.430659 2.009123 0.181301 -0.030529 150659.000000 0 0 1
-21.539000 9.109313 -11.959238 26.266547 -0.400109 2.043509 0.158501 -0.035736 990256.000000 0 0 1
-21.751900 8.031713 -11.149638 25.728739 -0.353713 2.019007 0.143582 -0.030046 -39208.000000 0 0 1
-20.615500 6.991813 -11.365438 24.557229 -0.326979 2.051964 0.145618 -0.030814 -8242.100000 0 1 0
-20.610100 6.263913 -12.558438 24.934458 -0.295053 2.098624 0.148529 -0.029466 522172.000000 0 1 0
-19.425700 5.487213 -12.629438 23.811133 -0.275299 2.129869 0.138152 -0.035517 85880.600000 0 1 0
-19.582200 4.386213 -13.641238 24.264889 -0.220353 2.167816 0.153026 -0.044390 -473200.000000 0 1 0
-20.284900 3.376813 -13.016138 24.337212 -0.164957 2.135096 0.142561 -0.045145 688150.000000 0 1 0
-21.039400 2.559913 -13.965538 25.381997 -0.121077 2.153417 0.137342 -0.046799 224357.000000 0 0 1
-21.871700 1.403813 -13.415238 25.696509 -0.064096 2.120066 0.156617 -0.047852 90791.600000 0 0 1
-22.809100 0.930313 -14.368538 26.973606 -0.040764 2.132571 0.136810 -0.040923 280393.000000 0 0 1
-23.459600 -0.274687 -14.030238 27.336347 0.011708 2.109758 0.127549 -0.046704 -357208.000000 0 0 1
-24.713000 -0.511987 -14.883038 28.853065 0.020714 2.112763 0.141111 -0.038250 664824.000000 0 0 1
-25.927600 0.066713 -14.321338 29.620021 -0.002573 2.075447 0.180328 -0.045409 1359640.000000 0 0 1
-27.046570 -0.495587 -15.023138 30.942806 0.018321 2.077746 0.177712 -0.026762 589141.000000 0 0 1
-28.427400 -0.183887 -14.395638 31.865111 0.006469 2.039542 0.164189 -0.032642 50981.900000 0 0 1
-28.686580 -0.820487 -13.210738 31.592985 0.028594 2.002209 0.176362 -0.031066 -12492.400000 0 0 1
-29.899680 -0.422687 -12.613738 32.454213 0.014136 1.969976 0.197690 -0.038068 23867.800000 0 0 1
-30.175940 -0.964187 -11.209838 32.205240 0.031941 1.926313 0.186164 -0.038511 -225855.000000 0 0 1
-30.455610 -2.367287 -10.927638 32.443205 0.077573 1.914338 0.196619 -0.028460 702420.000000 0 0 1
-29.535630 -3.315687 -11.480838 31.861527 0.111793 1.939424 0.191291 -0.036701 167793.000000 0 0 1
-29.949880 -4.756287 -11.015438 32.263873 0.157493 1.919221 0.188401 -0.045333 -335655.000000 0 0 1
-31.064600 -5.288787 -11.662538 33.600528 0.168634 1.925267 0.173030 -0.034800 -307198.000000 0 0 1
-31.382000 -6.538287 -11.165138 33.944653 0.205407 1.905958 0.180753 -0.039616 99158.500000 0 0 1
-30.556620 -7.777987 -11.702838 33.632730 0.249250 1.926190 0.180859 -0.047004 570570.000000 0 0 1
-29.175460 -7.740987 -11.381738 32.259484 0.259350 1.931378 0.123789 -0.033002 317136.000000 0 0 1
-28.434270 -8.820787 -11.905038 32.063124 0.300803 1.951205 0.115240 -0.040231 -710668.000000 0 0 1
-27.081070 -9.041487 -11.252438 30.687949 0.322231 1.946227 0.127056 -0.048474 -1160230.000000 0 0 1
-26.201450 -8.041387 -11.699838 29.800438 0.297781 1.974260 0.116523 -0.046052 222868.000000 0 0 1
-24.876500 -8.119187 -11.193538 28.461496 0.315479 1.975000 0.142027 -0.042616 148217.000000 0 0 1
-24.577800 -7.873987 -9.684338 27.565456 0.310038 1.929779 0.164108 -0.040870 -697806.000000 0 0 1
-24.745300 -6.508587 -9.303038 27.225688 0.257198 1.919522 0.151978 -0.032847 201244.000000 0 0 1
-26.064050 -6.036387 -9.179438 28.284886 0.227586 1.901317 0.157764 -0.040952 -472144.000000 0 0 1
-26.150220 -4.568287 -8.649738 27.919908 0.172949 1.885785 0.158731 -0.038015 -273454.000000 0 0 1
-25.878290 -4.487187 -7.273338 27.252930 0.171689 1.840953 0.157391 -0.033942 346639.000000 0 0 1
-25.908270 -3.166787 -6.847338 26.984311 0.121627 1.827354 0.205734 -0.043258 -46865.300000 0 0 1
-25.686650 -2.959787 -5.323238 26.398886 0.114721 1.773835 0.193698 -0.040785 -137652.000000 0 0 1
-24.333700 -3.083587 -4.976438 25.028033 0.126049 1.770965 0.128435 -0.032014 -255279.000000 0 0 1
-24.146900 -2.857087 -3.597938 24.580092 0.117773 1.717700 0.102318 -0.024192 188353.000000 0 1 0
-22.708400 -3.168487 -3.107438 23.137997 0.138634 1.705504 0.084606 -0.014447 -4045.810000 0 1 0
-22.537900 -4.552287 -2.986138 23.186144 0.199302 1.699945 0.100763 -0.015699 304310.000000 0 1 0
-21.177800 -4.773087 -2.681838 21.874045 0.221678 1.693709 0.064637 -0.012514 -356373.000000 0 1 0
-21.015500 -6.321887 -2.769138 22.119802 0.292209 1.696314 0.080132 -0.012689 -269899.000000 0 1 0
-21.522200 -6.952587 -1.614638 22.674890 0.312460 1.642065 0.079338 -0.012263 430289.000000 0 1 0
-22.367500 -8.045487 -1.887838 23.845311 0.345286 1.650049 0.109413 -0.017561 -47441.900000 0 1 0
-22.668800 -8.937387 -0.613338 24.374732 0.375548 1.595962 0.124761 -0.030865 534575.000000 0 1 0
-21.516000 -9.676687 -0.151838 23.592363 0.422641 1.577232 0.077145 -0.019409 958736.000000 0 1 0
-21.777200 -10.500287 0.916862 24.193865 0.449281 1.532891 0.044644 -0.015488 -156552.000000 0 1 0
-20.480500 -10.908987 1.659462 23.263936 0.489427 1.499404 0.065603 -0.018558 -196162.000000 0 1 0
-19.882400 -11.927287 0.882262 23.202336 0.540340 1.532762 0.064190 -0.005313 368600.000000 0 1 0
-18.879700 -12.581487 1.649762 22.747717 0.587820 1.498208 0.046689 -0.015553 10725.300000 0 1 0
-18.293800 -13.845087 0.987462 22.963550 0.647851 1.527782 0.047257 -0.008037 193228.000000 0 1 0
-19.199800 -14.971087 1.054662 24.369614 0.662272 1.527505 0.087800 -0.009162 801320.000000 0 1 0
-18.639500 -16.263687 0.721162 24.747900 0.717434 1.541652 0.070851 -0.017851 375721.000000 0 1 0
-17.444400 -16.774187 1.595262 24.253357 0.765814 1.504974 0.086661 -0.018481 59014.200000 0 1 0
-16.178400 -16.386287 1.088362 23.052886 0.791782 1.523567 0.077684 -0.008924 637802.000000 0 1 0
-15.018600 -16.907987 1.744362 22.682177 0.844508 1.493816 0.084590 -0.015346 783422.000000 0 1 0
-14.787800 -16.713587 3.197862 22.544386 0.846456 1.428469 0.079530 -0.021642 -788157.000000 0 1 0
-14.501400 -15.335787 3.532762 21.399939 0.813356 1.404954 0.047291 -0.020425 159038.000000 0 1 0
-13.754200 -15.123387 4.726062 20.981671 0.832776 1.343600 0.017141 -0.017679 -80058.400000 0 1 0
-14.388700 -15.564987 6.103362 22.057981 0.824648 1.290442 0.101822 -0.021373 -973282.000000 0 1 0
-15.437700 -14.805587 6.594762 22.383451 0.764500 1.271731 0.083029 -0.017212 -230916.000000 0 1 0
-15.697900 -14.983787 7.983662 23.123079 0.762127 1.218272 0.098589 -0.020569 -730569.000000 0 1 0
-16.659200 -16.066887 8.424362 24.630138 0.767301 1.221715 0.101255 -0.017441 -768242.000000 0 1 0
-16.367100 -17.394887 8.073462 25.211998 0.815831 1.244831 0.111955 -0.017435 8721.810000 0 0 1
-17.187100 -18.386987 8.692462 26.627741 0.819115 1.238257 0.131862 -0.035022 70085.100000 0 0 1
-16.814000 -18.718687 10.123962 27.121844 0.838951 1.188257 0.142519 -0.039458 182370.000000 0 0 1
-15.515000 -19.246987 10.321962 26.790010 0.892347 1.175273 0.103005 -0.030707 178685.000000 0 0 1
-15.246700 -19.475887 11.704862 27.363768 0.906600 1.128794 0.110466 -0.036971 530171.000000 0 0 1
-13.902800 -20.275187 11.896762 27.311243 0.969729 1.120092 0.097321 -0.027123 426013.000000 0 0 1
-12.780400 -19.468087 11.723962 26.072904 0.989880 1.104411 0.083600 -0.028255 -1803000.000000 0 0 1
-11.631900 -20.197987 11.709262 26.083838 1.048290 1.105253 0.081423 -0.025288 -641935.000000 0 0 1
-10.371200 -19.472887 12.253462 25.236926 1.081412 1.063819 0.081922 -0.022076 338237.000000 0 0 1
-9.720400 -18.645787 11.251062 23.848227 1.090239 1.079490 0.073815 -0.021904 570122.000000 0 1 0
-8.643900 -17.964087 11.929562 23.232302 1.122320 1.031549 0.065627 -0.012884 233103.000000 0 1 0
-7.643900 -17.258587 11.040962 21.867576 1.153859 1.041529 0.039528 -0.008731 -305417.000000 0 1 0
-6.845500 -18.117287 10.278162 21.925728 1.209535 1.082897 0.033502 -0.012402 -350906.000000 0 1 0
-6.107600 -17.395887 9.314762 20.656341 1.233147 1.102979 0.023783 -0.008537 -205453.000000 0 1 0
-5.075100 -18.105387 8.439262 20.610260 1.297501 1.148924 0.022800 -0.014569 -337100.000000 0 1 0
-3.998000 -18.500787 9.232162 21.059343 1.357970 1.116992 0.036874 -0.004346 -1410170.000000 0 1 0
-2.856000 -18.615987 8.461262 20.647146 1.418567 1.148558 0.037564 -0.016675 152172.000000 0 1 0
-1.618700 -19.039487 9.350462 21.273302 1.485982 1.115710 0.036576 -0.015343 1122600.000000 0 1 0
-0.455900 -19.345087 8.585162 21.169441 1.547234 1.153221 0.037072 -0.016051 253246.000000 0 1 0
0.689300 -19.642287 9.381162 21.778447 -1.535718 1.125468 0.058581 -0.015642 334188.000000 0 1 0
1.875200 -19.998387 8.463862 21.796532 -1.477302 1.171997 0.072135 -0.040685 -6932.100000 0 1 0
1.974600 -21.345787 7.995762 22.879551 -1.478553 1.213789 0.073640 -0.028036 -148912.000000 0 1 0
2.527400 -22.301387 8.905062 24.146216 -1.457949 1.193081 0.094558 -0.038761 -119.373000 0 1 0
2.249400 -23.732887 8.333662 25.253903 -1.476299 1.234498 0.097587 -0.031479 137577.000000 0 0 1
2.190300 -24.712287 9.338762 26.508621 -1.482395 1.210778 0.111071 -0.038478 -129939.000000 0 0 1
1.831200 -25.939747 8.773262 27.444378 -1.500319 1.245411 0.127943 -0.042244 -695341.000000 0 0 1
1.733100 -27.093837 9.815062 28.868929 -1.506917 1.223893 0.138819 -0.045738 622267.000000 0 0 1
0.689000 -26.968437 10.789762 29.054952 -1.545254 1.190326 0.117492 -0.046945 -144746.000000 0 0 1
-0.602300 -27.252517 10.310062 29.143778 1.548699 1.209202 0.104425 -0.038884 -889869.000000 0 0 1
-1.531000 -27.415557 11.476762 29.760255 1.515010 1.174894 0.099703 -0.044957 -540123.000000 0 0 1
-1.306600 -28.595637 12.224162 31.126320 1.525136 1.167201 0.102648 -0.051864 -179826.000000 0 0 1
-1.683700 -28.380757 13.557662 31.497816 1.511540 1.125825 0.095860 -0.057981 -296516.000000 0 0 1
-1.357000 -29.644427 14.402162 32.985690 1.525052 1.118960 0.091829 -0.055526 147961.000000 0 0 1
-1.622800 -29.314297 15.707862 33.297123 1.515494 1.079524 0.109544 -0.061304 -35967.100000 0 0 1
-1.451400 -30.375817 16.588562 34.640687 1.523051 1.071423 0.123445 -0.058824 -31850.200000 0 0 1
-1.699900 -30.011247 18.056962 35.065916 1.514215 1.029855 0.134128 -0.058338 227464.000000 0 0 1
-3.080200 -29.938027 18.370462 35.259707 1.468271 1.022769 0.134571 -0.055909 28381.500000 0 0 1
-3.233900 -29.372367 19.663062 35.494085 1.461138 0.983657 0.125150 -0.052975 22567.900000 0 0 1
-4.689600 -29.320247 20.163962 35.892263 1.412196 0.974247 0.135345 -0.048211 -189594.000000 0 0 1
-5.528000 -28.410707 19.432162 34.861669 1.378623 0.979536 0.102154 -0.043761 707075.000000 0 0 1
-6.735800 -28.082567 20.124462 35.199368 1.335387 0.962186 0.100132 -0.037835 468440.000000 0 0 1
-6.526200 -26.951977 21.136862 34.867854 1.333227 0.919524 0.140122 -0.040373 -449227.000000 0 0 1
-5.558000 -27.274867 22.127362 35.558823 1.369771 0.899151 0.159202 -0.037490 172418.000000 0 0 1
-5.611400 -26.358217 23.171862 35.541224 1.361038 0.860615 0.177951 -0.038873 -329268.000000 0 0 1
-4.556500 -26.690387 24.264562 36.358044 1.401709 0.840114 0.205586 -0.037941 125397.000000 0 0 1
-4.729400 -27.893327 25.003662 37.756960 1.402841 0.847010 0.200717 -0.040449 -1163.780000 0 0 1
-3.827000 -28.859597 24.540362 38.075604 1.438958 0.870405 0.208345 -0.031439 -109345.000000 0 0 1
-4.165200 -30.269287 25.139162 39.567108 1.434050 0.882328 0.213062 -0.031798 140895.000000 0 0 1
-3.998500 -30.375517 26.559362 40.547006 1.439913 0.856579 0.206112 -0.038312 -21530.100000 0 0 1
-4.291500 -31.665457 26.964362 41.811421 1.436091 0.869898 0.168889 -0.031381 -189597.000000 0 0 1
-3.937800 -31.881897 28.456562 42.915469 1.447907 0.845865 0.188022 -0.033096 -289212.000000 0 0 1
-2.567900 -31.706137 28.699362 42.843046 1.489982 0.836760 0.201248 -0.042985 -273859.000000 0 0 1
-2.275100 -31.832757 30.050162 43.835062 1.499447 0.815468 0.195123 -0.054834 112222.000000 0 0 1
-29.444890 2.993913 -10.224938 31.313167 -0.101330 1.903435 0.227522 -0.044666 512167.000000 0 0 1
-30.333610 2.770513 -11.344838 32.503985 -0.091082 1.927331 0.217969 -0.068044 400462.000000 0 0 1
-31.156170 3.868013 -11.598938 33.469446 -0.123517 1.924690 0.184018 -0.054785 42805.500000 0 0 1
-32.039990 3.755413 -12.901138 34.743395 -0.116678 1.951233 0.192314 -0.041900 64484.000000 0 0 1
-33.282810 3.170813 -12.603938 35.730362 -0.094982 1.931306 0.183116 -0.047136 -493517.000000 0 0 1
-33.919190 2.760813 -13.770638 36.711906 -0.081215 1.955301 0.209707 -0.045019 211262.000000 0 0 1
-35.194160 1.897413 -13.489438 37.738495 -0.053861 1.936327 0.193600 -0.046710 569166.000000 0 0 1
-34.813688 0.585113 -13.099438 37.201217 -0.016805 1.930636 0.197703 -0.043332 -122841.000000 0 0 1
-35.915268 -0.141887 -12.642438 38.075686 0.003951 1.909256 0.174629 -0.042152 -309317.000000 0 0 1
-35.607804 -1.548387 -12.184238 37.666549 0.043457 1.900197 0.181110 -0.037927 -52095.300000 0 0 1
-35.104417 -2.376787 -13.207538 37.582021 0.067603 1.929897 0.181247 -0.029299 190636.000000 0 0 1
-34.636329 -3.609287 -12.666438 37.055916 0.103830 1.919649 0.184579 -0.033101 134399.000000 0 0 1
-34.660568 -4.746687 -13.717438 37.577309 0.136101 1.944478 0.197061 -0.032338 -10427.500000 0 0 1
-34.553226 -6.076387 -13.285238 37.514604 0.174076 1.932785 0.187746 -0.039402 195928.000000 0 0 1
-34.681901 -6.929887 -14.435138 38.199880 0.197216 1.958307 0.188218 -0.036816 -455250.000000 0 0 1
-34.788782 -8.440187 -14.028438 38.448579 0.238014 1.944281 0.161889 -0.038008 1468710.000000 0 0 1
-33.569770 -9.085387 -13.516738 37.311874 0.264310 1.941492 0.155643 -0.042415 2312250.000000 0 0 1
-32.505310 -9.318687 -14.460138 36.776742 0.279194 1.974892 0.167970 -0.043167 398980.000000 0 0 1
-31.344680 -10.269687 -14.119838 35.879316 0.316615 1.975272 0.143915 -0.047259 -115570.000000 0 0 1
-31.806470 -11.586487 -13.904438 36.595514 0.349340 1.960538 0.127389 -0.047413 -191956.000000 0 0 1
-30.779390 -12.458087 -13.580038 35.874674 0.384598 1.959016 0.140677 -0.048148 -753694.000000 0 0 1
-31.035270 -13.932187 -14.037738 36.801521 0.421951 1.962155 0.155883 -0.037933 -235406.000000 0 0 1
-31.047470 -14.122387 -15.463638 37.450118 0.426892 1.996446 0.155898 -0.039520 178403.000000 0 0 1
-31.085390 -15.376787 -16.060838 38.219074 0.459369 2.004496 0.180329 -0.043717 -738868.000000 0 0 1
-29.921610 -16.260287 -15.686138 37.493394 0.497785 2.002447 0.132024 -0.035820 -556447.000000 0 0 1
-28.722660 -15.736787 -16.210138 36.543211 0.501220 2.030395 0.130785 -0.042181 -388703.000000 0 0 1
-27.579230 -16.518787 -15.934738 35.880359 0.539653 2.030974 0.138027 -0.039339 84047.600000 0 0 1
-26.274540 -15.843287 -16.351938 34.767040 0.542615 2.060460 0.128208 -0.044836 -188296.000000 0 0 1
-26.289890 -15.699287 -17.757138 35.396919 0.538329 2.096310 0.132354 -0.043385 1245260.000000 0 0 1
-24.922900 -15.619287 -18.256738 34.618226 0.559824 2.126303 0.092043 -0.028637 687420.000000 0 0 1
-24.807400 -15.336787 -19.738838 35.217125 0.553719 2.165773 0.115585 -0.029650 56128.300000 0 0 1
-25.465750 -16.189987 -20.652038 36.566744 0.566296 2.170959 0.118656 -0.033472 88712.000000 0 0 1
-26.856840 -16.046087 -20.824138 37.582064 0.538555 2.158075 0.117461 -0.039177 133776.000000 0 0 1
-27.583640 -17.289087 -21.468138 38.995521 0.559884 2.153793 0.128917 -0.038599 97882.600000 0 0 1
-27.187020 -17.301687 -22.824438 39.489713 0.566752 2.187053 0.123947 -0.027142 213955.000000 0 0 1
-27.825970 -18.384087 -23.450738 40.770043 0.583847 2.183639 0.121344 -0.028744 -306710.000000 0 0 1
-27.386050 -18.594687 -24.873238 41.405750 0.596482 2.215197 0.102597 -0.032129 958018.000000 0 0 1
-26.054370 -19.133387 -25.007438 40.869165 0.633419 2.229244 0.101121 -0.026484 613326.000000 0 0 1
-25.920280 -20.506387 -24.767038 41.301078 0.669311 2.213886 0.090181 -0.025047 485513.000000 0 0 1
-24.413000 -20.952087 -24.576038 40.484147 0.709255 2.223144 0.079911 -0.006514 1157850.000000 0 0 1
-23.705600 -20.698287 -25.788208 40.686684 0.717775 2.257284 0.066684 -0.017336 590134.000000 0 0 1
-22.341000 -21.127387 -25.632118 40.031141 0.757486 2.265691 0.059905 -0.011500 1117540.000000 0 0 1
-21.415300 -20.975487 -26.861368 40.250705 0.775023 2.301443 0.048440 -0.011413 -92376.100000 0 0 1
-21.788500 -21.951787 -27.867678 41.632045 0.789131 2.304171 0.080919 -0.009976 85560.900000 0 0 1
-22.252300 -21.515987 -29.134408 42.507838 0.768577 2.325934 0.081325 -0.016708 84476.500000 0 0 1
-21.236200 -21.687587 -30.312388 42.897185 0.795914 2.355519 0.080415 -0.022253 331743.000000 0 0 1
-21.119600 -22.993687 -30.811558 43.864556 0.827856 2.349595 0.084011 -0.026994 41491.900000 0 0 1
-20.310100 -22.959987 -31.977138 44.296710 0.846562 2.377319 0.084328 -0.024760 167283.000000 0 0 1
-19.967900 -24.359487 -32.605008 45.334184 0.884148 2.373468 0.087440 -0.019998 41429.700000 0 0 1
-19.299100 -24.348087 33.581490 45.749329 0.900564 0.746556 0.093396 -0.025250 -351267.000000 0 0 1
-20.050500 -23.912687 32.497769 45.054902 0.873024 0.765130 0.098376 -0.024096 -661085.000000 0 0 1
-19.237200 -23.780887 31.184870 43.681765 0.890631 0.775729 0.096044 -0.016084 122720.000000 0 0 1
-18.537000 -22.577987 30.994490 42.591599 0.883369 0.755814 0.069925 -0.024290 -291644.000000 0 0 1
-17.715400 -22.542787 29.863750 41.398747 0.904739 0.765020 0.076883 -0.028240 4641.300000 0 0 1
-16.916300 -21.238487 29.719650 40.255337 0.898198 0.740282 0.060177 -0.026473 -146529.000000 0 0 1
-17.762500 -20.107587 29.588660 39.941336 0.847244 0.736531 0.076500 -0.028915 269064.000000 0 0 1
-17.079500 -18.857487 29.407040 38.885578 0.834833 0.713241 0.076113 -0.026503 37487.000000 0 0 1
-16.365400 -18.187887 30.610670 39.187226 0.838094 0.674308 0.077599 -0.028507 143292.000000 0 0 1
-15.850200 -16.959387 30.266000 38.142895 0.819192 0.654274 0.085185 -0.021464 -83685.300000 0 0 1
-15.284200 -16.209087 31.355567 38.464437 0.814757 0.617751 0.081251 -0.021406 138774.000000 0 0 1
-14.749800 -14.796387 30.963610 37.352842 0.786975 0.593570 0.095828 -0.032394 -260537.000000 0 0 1
-13.598900 -14.957687 30.161470 36.309459 0.832945 0.590472 0.109981 -0.038201 -358558.000000 0 0 1
-13.065400 -13.739487 29.863230 35.373588 0.810541 0.565681 0.088127 -0.036439 -708083.000000 0 0 1
-11.549300 -13.780087 29.717800 34.733626 0.873243 0.544104 0.107239 -0.037745 -206561.000000 0 0 1
-10.938200 -12.522787 29.402390 33.778173 0.852837 0.514670 0.108052 -0.035131 -479110.000000 0 0 1
-9.619000 -12.410987 29.846870 33.725264 0.911462 0.484302 0.079579 -0.026732 -287890.000000 0 0 1
-9.179600 -10.894787 29.896270 33.117192 0.870633 0.444695 0.054105 -0.013512 -344008.000000 0 0 1
-9.845600 -10.165787 30.923960 34.008387 0.801397 0.429188 0.056231 -0.011851 128097.000000 0 0 1
-9.716100 -8.755087 30.838110 33.496913 0.733417 0.401117 0.034786 -0.008125 193618.000000 0 0 1
-10.581100 -7.975987 31.915429 34.556775 0.645926 0.393520 0.020316 -0.010166 33930.700000 0 0 1
-11.905200 -7.833887 31.463294 34.540447 0.581994 0.425308 0.055306 -0.018550 52230.300000 0 0 1
-12.825200 -7.217787 32.376337 35.564159 0.512603 0.426633 0.056300 -0.019781 341134.000000 0 0 1
-12.552200 -5.759387 32.869591 35.653027 0.430177 0.397763 0.037965 -0.022370 -575093.000000 0 0 1
-12.517200 -4.917487 31.737055 34.468865 0.374335 0.400809 0.045093 -0.022360 209626.000000 0 0 1
-12.858400 -3.597387 32.130126 34.794032 0.272795 0.393852 0.047073 -0.027551 -267379.000000 0 0 1
-12.283800 -2.456387 31.253190 33.670276 0.197366 0.381216 0.060627 -0.029755 655815.000000 0 0 1
-10.857100 -2.329587 31.376833 33.283769 0.211363 0.340144 0.063105 -0.032896 711354.000000 0 0 1
-10.447300 -1.245487 30.576310 32.335864 0.118656 0.331408 0.066766 -0.026912 -328445.000000 0 0 1
-8.947500 -0.938987 30.719980 32.010259 0.104561 0.284893 0.064171 -0.033389 -136572.000000 0 0 1
-8.631400 -0.427887 32.011819 33.157816 0.049533 0.263677 0.088172 -0.057162 -218846.000000 0 0 1
-7.297000 0.030413 31.994505 32.816086 -0.004168 0.224237 0.116580 -0.054056 -14880.800000 0 0 1
-6.867300 0.573313 33.394970 34.098571 -0.083291 0.203498 0.155043 -0.072629 -232760.000000 0 0 1
-7.450300 1.787213 -33.642998 34.504383 -0.235436 2.917677 0.160790 -0.065528 303418.000000 0 0 1
-6.850500 2.963413 33.217151 34.045416 -0.408276 0.221032 0.165509 -0.063551 758542.000000 0 0 1
-7.848600 4.174613 33.463000 34.623696 -0.488835 0.259662 0.148655 -0.060854 1558900.000000 0 0 1
-9.147600 3.916513 32.890022 34.362352 -0.404533 0.293791 0.104889 -0.046826 489135.000000 0 0 1
-9.961600 5.054613 32.896903 34.741745 -0.469558 0.327348 0.091482 -0.025612 -879217.000000 0 0 1
-11.247900 4.773313 32.151432 34.394976 -0.401340 0.363182 0.073948 -0.026652 -590371.000000 0 0 1
-12.065500 5.925813 32.163659 34.859612 -0.456532 0.395867 0.080651 -0.022518 -124305.000000 0 0 1
-13.046600 6.045813 31.157130 34.315192 -0.433942 0.432385 0.046841 -0.016494 -77549.600000 0 0 1
-13.663100 7.441013 31.377430 35.022737 -0.498693 0.460307 0.059881 -0.019804 -232396.000000 0 0 1
-14.475300 7.518313 32.534601 36.394500 -0.479038 0.464730 0.051154 -0.014032 -552329.000000 0 0 1
-15.282200 8.617413 32.412384 36.856046 -0.513441 0.496129 0.055385 -0.006630 -460495.000000 0 0 1
-16.169500 8.777713 33.661690 38.361574 -0.497342 0.500204 0.040305 -0.004827 256984.000000 0 0 1
-15.458200 9.226013 -32.679828 37.310139 -0.538090 2.638088 0.045502 -0.008567 194714.000000 0 0 1
-16.446800 9.577513 -31.719458 36.991216 -0.527328 2.601160 0.055556 -0.004889 -71704.400000 0 0 1
-15.846300 9.880813 -30.315328 35.605545 -0.557549 2.589486 0.086803 -0.014466 578242.000000 0 0 1
-15.004000 11.055113 -30.280248 35.555998 -0.635007 2.589867 0.082249 -0.016959 1090890.000000 0 0 1
-13.640600 10.768013 -30.653918 35.237463 -0.668250 2.625845 0.094227 -0.023977 665202.000000 0 0 1
-12.685100 11.982213 -30.634308 35.255440 -0.756911 2.623821 0.104838 -0.027309 20473.800000 0 0 1
-12.950800 12.736313 -31.778218 36.603170 -0.777048 2.622324 0.097962 -0.028900 540169.000000 0 0 1
-12.243800 14.036813 -31.835528 36.884192 -0.853518 2.612214 0.102821 -0.036336 385979.000000 0 0 1
-12.532100 15.093113 -30.720798 36.450282 -0.877840 2.573286 0.110077 -0.039464 -1111900.000000 0 0 1
-13.730700 15.683013 -30.985698 37.344378 -0.851675 2.549418 0.090459 -0.032471 -1018930.000000 0 0 1
-13.918600 16.734913 -30.044548 37.100669 -0.877017 2.514627 0.084500 -0.024219 -26104.600000 0 0 1
-15.310600 17.398413 -30.117908 38.002732 -0.849142 2.485726 0.065473 -0.029893 -375565.000000 0 0 1
-15.548000 18.217313 -31.263328 39.382820 -0.864289 2.487880 0.064603 -0.028940 553224.000000 0 0 1
-16.905100 18.511413 -31.589668 40.328178 -0.830722 2.470777 0.053430 -0.028778 724649.000000 0 0 1
-17.577600 19.612513 -30.694058 40.444381 -0.840060 2.432450 0.034865 -0.020389 -257787.000000 0 0 1
-16.812800 20.816813 -30.798808 40.799223 -0.891405 2.426278 0.047400 -0.021448 506016.000000 0 0 1
-17.412800 22.018713 -30.273238 41.285570 -0.901679 2.393907 0.027806 -0.017639 520828.000000 0 0 1
-18.784400 22.492613 -30.854248 42.552979 -0.874995 2.381945 0.041085 -0.017345 677140.000000 0 0 1
-19.927600 21.807013 -30.371858 42.368678 -0.830400 2.370066 0.039211 -0.016445 574596.000000 0 0 1
-21.070300 22.003113 -31.207028 43.611617 -0.807051 2.368232 0.071046 -0.026507 570448.000000 0 0 1
-22.427600 21.579213 -30.548538 43.610468 -0.766122 2.346875 0.086399 -0.029715 -126385.000000 0 0 1
-23.113000 22.616613 -29.810478 43.981662 -0.774544 2.315554 0.124130 -0.028403 713822.000000 0 0 1
-23.938400 23.469113 -30.598828 45.388705 -0.775499 2.310611 0.133130 -0.024508 194071.000000 0 0 1
-25.221590 22.835113 -31.250708 46.197162 -0.735779 2.313747 0.137919 -0.032303 -326109.000000 0 0 1
-25.013660 21.897613 -32.319878 46.365539 -0.719071 2.342095 0.130928 -0.028973 -146816.000000 0 0 1
-26.232040 21.593113 -32.943748 47.325184 -0.688703 2.340767 0.138916 -0.027637 -259269.000000 0 0 1
-26.192150 20.605513 33.314436 47.121838 -0.666582 0.785570 0.131957 -0.021856 -86762.900000 0 0 1
-25.640690 19.334713 33.694030 46.546362 -0.646097 0.761385 0.125956 -0.030129 411878.000000 0 0 1
-25.490280 18.423213 32.617766 45.311013 -0.625835 0.767190 0.108925 -0.037348 -189040.000000 0 0 1
-24.966710 17.030913 33.096380 44.819181 -0.598642 0.740039 0.090692 -0.026789 -14358.000000 0 0 1
-25.965390 16.095113 33.498420 45.336501 -0.554900 0.739384 0.087982 -0.019705 541762.000000 0 0 1
-26.424420 15.354513 32.361614 44.511629 -0.526386 0.756799 0.094700 -0.024446 -237391.000000 0 0 1
-27.265930 14.102413 32.697238 44.848840 -0.477326 0.753857 0.066276 -0.018234 42703.100000 0 0 1
-28.591090 14.415813 33.074027 46.034307 -0.467007 0.769204 0.078103 -0.014737 -289184.000000 0 0 1
-29.560200 13.434613 32.869521 46.202811 -0.426576 0.779282 0.078382 -0.015264 -135577.000000 0 0 1
-29.631120 12.220713 -33.632568 46.459647 -0.391174 2.380248 0.063360 -0.017823 -446935.000000 0 0 1
-28.532950 11.317713 -33.715758 45.595748 -0.377619 2.403049 0.056897 -0.025566 -145062.000000 0 0 1
-28.789090 9.976113 -33.559448 45.327377 -0.333575 2.404431 0.070614 -0.022967 -655377.000000 0 0 1
-27.540960 9.115013 -33.167678 44.064530 -0.319615 2.422960 0.056807 -0.029918 319478.000000 0 0 1
-26.643070 8.773213 33.242824 43.496067 -0.318104 0.700885 0.048619 -0.019181 335327.000000 0 0 1
-25.768360 9.843913 32.956527 42.977247 -0.364907 0.696898 0.040107 -0.022301 -1008460.000000 0 0 1
-24.512900 9.541713 32.130529 41.524661 -0.371207 0.686026 0.042607 -0.015342 -154126.000000 0 0 1
-24.720600 9.325913 30.761890 40.550889 -0.360744 0.709635 0.050312 -0.021377 -704831.000000 0 0 1
-23.446600 9.142813 30.273510 39.367747 -0.371806 0.693532 0.051878 -0.018128 -619422.000000 0 0 1
-23.304800 8.974013 28.755310 38.085621 -0.367571 0.715116 0.068834 -0.023025 7308.950000 0 0 1
-23.555100 10.181813 28.041240 38.010830 -0.408000 0.741114 0.083650 -0.023740 243537.000000 0 0 1
-23.679500 10.019813 26.622610 37.011873 -0.400297 0.768003 0.075644 -0.021085 -787532.000000 0 0 1
-23.911600 11.350213 25.782900 36.950642 -0.443182 0.798522 0.080025 -0.019860 602857.000000 0 0 1
-25.122940 12.075313 26.004930 38.121277 -0.448047 0.820079 0.098203 -0.019758 216770.000000 0 0 1
-26.253020 11.482913 25.418240 38.303594 -0.412321 0.845176 0.104114 -0.017337 -546873.000000 0 0 1
-27.579800 12.229213 25.574180 39.550446 -0.417362 0.867649 0.122572 -0.013101 -147113.000000 0 0 1
-27.691920 13.424813 24.869390 39.567090 -0.451407 0.891125 0.129279 -0.019072 -448700.000000 0 0 1
-28.937620 14.054513 24.966820 40.721706 -0.452129 0.910807 0.132415 -0.024825 -45747.800000 0 0 1
-28.986100 15.492213 24.272450 40.857735 -0.490842 0.934684 0.147389 -0.025646 401700.000000 0 0 1
-28.084250 16.352813 24.978160 40.988390 -0.527286 0.915498 0.158163 -0.026231 444958.000000 0 0 1
-27.860810 17.588713 24.415670 41.008689 -0.563122 0.933060 0.131276 -0.025011 -269637.000000 0 0 1
-23.829900 -8.404387 31.458493 40.350151 0.339062 0.676709 0.087833 -0.017515 -1035830.000000 0 0 1
-22.783500 -8.215087 30.607480 39.030672 0.346062 0.669406 0.098262 -0.028290 -847467.000000 0 0 1
-23.091100 -8.513887 29.257830 38.232262 0.353244 0.699343 0.101816 -0.029368 67157.300000 0 0 1
-21.925200 -8.192487 28.286470 36.714516 0.357592 0.691259 0.132676 -0.036174 -277925.000000 0 0 1
-21.555400 -6.828787 28.202460 36.147564 0.306799 0.675805 0.127702 -0.034075 625522.000000 0 0 1
-20.223600 -6.555387 28.624620 35.655799 0.313459 0.638813 0.122478 -0.033148 340118.000000 0 0 1
-18.962200 -6.863087 27.790250 34.336060 0.347268 0.627734 0.131402 -0.035232 -476949.000000 0 0 1
-18.489200 -8.194287 27.669500 34.272410 0.417179 0.631165 0.133967 -0.038295 228331.000000 0 0 1
-18.061100 -8.827687 28.850040 35.163280 0.454622 0.608582 0.123628 -0.035323 -1444050.000000 0 0 1
-16.686600 -8.573587 29.417010 34.889963 0.474627 0.567706 0.110247 -0.038531 -347922.000000 0 0 1
-15.577600 -9.114487 28.685330 33.890761 0.529393 0.561597 0.105819 -0.033428 689594.000000 0 0 1
-14.332400 -8.605487 29.168470 33.619515 0.540730 0.520430 0.092651 -0.035539 1190060.000000 0 0 1
-13.084900 -9.460187 28.757800 32.980613 0.625986 0.511603 0.076881 -0.031089 473710.000000 0 0 1
-12.604700 -9.398287 27.444990 31.629634 0.640690 0.520243 0.097931 -0.035756 -435653.000000 0 0 1
-11.653400 -10.341687 27.090100 31.251012 0.725832 0.521937 0.089064 -0.033205 -331562.000000 0 0 1
-11.079800 -10.172987 25.649580 29.734704 0.742756 0.530381 0.073759 -0.031462 648929.000000 0 0 1
-12.138900 -10.303887 24.698330 29.385890 0.703816 0.572623 0.081192 -0.034444 543057.000000 0 0 1
-11.645800 -9.952487 23.398910 27.967582 0.707158 0.579669 0.086337 -0.035471 643576.000000 0 0 1
-12.625400 -10.466087 22.282220 27.666533 0.692158 0.634471 0.112007 -0.044154 -355634.000000 0 0 1
-12.802300 -11.890487 22.408670 28.415332 0.748489 0.662248 0.097345 -0.035491 281417.000000 0 0 1
-13.990100 -12.415187 21.833420 28.749922 0.725825 0.708367 0.101635 -0.032879 326984.000000 0 0 1
-15.324800 -11.945387 22.450490 29.691182 0.662103 0.713412 0.113430 -0.036114 -1417010.000000 0 0 1
-16.411600 -12.713587 22.026420 30.267790 0.659104 0.755807 0.080756 -0.015043 500544.000000 0 0 1
-17.500700 -12.432487 22.971210 31.440702 0.617671 0.751567 0.082522 -0.011131 945056.000000 0 0 1
-18.850900 -13.073087 22.565390 32.178547 0.606350 0.793639 0.100469 -0.013662 -120454.000000 0 0 1
-18.799700 -14.498887 22.655020 32.816100 0.656950 0.808806 0.083596 -0.008655 1137350.000000 0 0 1
-20.156600 -14.985387 22.573030 33.769691 0.639295 0.838686 0.093169 -0.001767 1381150.000000 0 0 1
-20.962900 -15.007987 23.917460 35.167140 0.621338 0.822886 0.095819 -0.009237 -248849.000000 0 0 1
-20.582100 -16.081087 24.767840 35.995418 0.663243 0.811952 0.085152 -0.010464 169497.000000 0 0 1
-21.403100 -16.145487 25.918340 37.289808 0.646281 0.802305 0.092059 -0.020780 -248110.000000 0 0 1
-20.864200 -17.012387 27.054700 38.166647 0.684053 0.782920 0.093969 -0.027883 -119849.000000 0 0 1
-20.830000 -18.394387 26.785460 38.596674 0.723383 0.803789 0.093761 -0.023640 189634.000000 0 0 1
-20.594500 -19.137987 27.996760 39.676373 0.748757 0.787487 0.087310 -0.025574 -246707.000000 0 0 1
-20.615700 -20.625587 27.783500 40.278342 0.785638 0.809601 0.088096 -0.020504 -466083.000000 0 0 1
-21.892600 -21.175287 27.747280 41.201824 0.768744 0.831933 0.090340 -0.021883 -454391.000000 0 0 1
-21.731700 -22.474487 27.223040 41.454352 0.802199 0.854363 0.097614 -0.012922 -355239.000000 0 0 1
-23.000200 -23.155687 26.740690 42.193122 0.788767 0.884380 0.096562 -0.003713 -479125.000000 0 0 1
-23.826200 -23.574487 27.800730 43.546812 0.780088 0.878365 0.086993 -0.007833 476430.000000 0 0 1
-25.025340 -24.180887 27.289750 44.223449 0.768238 0.905760 0.063510 -0.001334 825584.000000 0 0 1
-25.820170 -25.093007 28.272630 45.778617 0.771117 0.905116 0.045145 -0.003864 -4783.170000 0 0 1
-26.580990 -24.453187 29.291340 46.502581 0.743729 0.889389 0.045308 0.004227 458083.000000 0 0 1
-27.258490 -25.454887 30.072580 47.909672 0.751196 0.892210 0.030237 0.010436 247874.000000 0 0 1
-28.309500 -24.862987 31.037370 48.815103 0.720671 0.881732 0.032439 -0.001345 -380267.000000 0 0 1
-29.411300 -24.295687 30.412240 48.787389 0.690434 0.897760 0.023579 0.002363 -680128.000000 0 0 1
-30.210640 -23.537087 31.291630 49.455469 0.661866 0.885731 0.041507 -0.014362 -281433.000000 0 0 1
-31.394250 -23.017087 30.425730 49.407594 0.632638 0.907382 0.053670 -0.018836 23093.600000 0 0 1
-32.331020 -24.069887 30.141700 50.330671 0.639961 0.928703 0.054320 -0.018363 218199.000000 0 0 1
-33.335820 -23.640587 29.258720 50.261586 0.616850 0.949452 0.042409 -0.016861 176289.000000 0 0 1
-34.737996 -24.236687 29.563310 51.653990 0.609180 0.961448 0.054298 -0.022288 170084.000000 0 0 1
-34.847926 -25.611497 29.410950 52.300389 0.633800 0.973575 0.057684 -0.023935 -277409.000000 0 0 1
-36.050780 -26.018127 30.007850 53.638352 0.625147 0.977077 0.069377 -0.020313 -38262.200000 0 0 1
-36.020340 -27.559047 30.258390 54.520970 0.653093 0.982450 0.075033 -0.025537 198860.000000 0 0 1
-35.186656 -27.945327 31.353121 54.791060 0.671196 0.961573 0.066159 -0.022936 105858.000000 0 0 1
-34.950270 -29.394687 31.405695 55.424604 0.699271 0.968376 0.072202 -0.025798 346150.000000 0 0 1
-33.961892 -29.980257 32.462861 55.732067 0.723209 0.949019 0.076770 -0.024551 302208.000000 0 0 1
-34.440020 -29.804467 -33.673228 56.641924 0.713368 2.207431 0.082113 -0.024953 42392.400000 0 0 1
-33.408020 -30.064887 -32.737548 55.603420 0.732777 2.200331 0.077785 -0.025865 346332.000000 0 0 1
-33.820840 -29.617177 -31.294198 54.775480 0.719231 2.178907 0.085919 -0.030865 182897.000000 0 0 1
-33.908100 -28.206617 -31.028688 53.927284 0.693865 2.183865 0.067145 -0.026946 523349.000000 0 0 1
-32.624810 -27.562087 -30.915028 52.723674 0.701479 2.197354 0.071643 -0.022437 540845.000000 0 0 1
-32.678810 -26.037017 -30.693948 51.845437 0.672759 2.204369 0.066355 -0.021157 -94858.000000 0 0 1
-33.421980 -25.643037 -29.565448 51.465618 0.654450 2.182753 0.061469 -0.029991 -60514.800000 0 0 1
-33.339590 -24.252087 -29.372228 50.620350 0.628897 2.189826 0.069555 -0.028318 267721.000000 0 0 1
-32.200930 -23.839187 -28.391638 49.104907 0.637281 2.187297 0.072085 -0.030285 279820.000000 0 0 1
-31.859760 -22.461087 -28.555298 48.321318 0.614073 2.203028 0.077930 -0.026211 -78140.700000 0 0 1
-30.721430 -22.135087 -27.809158 46.979971 0.624359 2.204256 0.092037 -0.025168 -260691.000000 0 0 1
-30.345450 -20.693787 -28.035508 46.206806 0.598502 2.222749 0.103236 -0.028275 -215942.000000 0 0 1
-29.905780 -20.337787 -29.291898 46.540268 0.597219 2.251562 0.102441 -0.023309 141907.000000 0 0 1
-29.615750 -18.964587 -29.285768 45.764664 0.569565 2.265192 0.099297 -0.031345 -332390.000000 0 0 1
-29.155860 -18.496187 -30.701208 46.203217 0.565323 2.297597 0.102010 -0.020857 -411575.000000 0 0 1
-30.055460 -18.285987 -31.731668 47.377281 0.546579 2.304689 0.088083 -0.024675 -224208.000000 0 0 1
-30.864090 -17.106587 -31.539668 47.328406 0.506104 2.300167 0.104103 -0.022499 262915.000000 0 0 1
-31.515360 -16.566987 -32.856468 48.448225 0.483980 2.316075 0.095574 -0.028843 1213330.000000 0 0 1
-32.661500 -17.153187 -33.525908 49.849694 0.483589 2.308432 0.090831 -0.031166 1800980.000000 0 0 1
-33.964947 -16.755787 -33.066998 50.277236 0.458294 2.288549 0.098143 -0.031574 724309.000000 0 0 1
-35.090469 -17.379687 33.550510 51.565796 0.459866 0.862376 0.098479 -0.036117 -135379.000000 0 0 1
-35.354897 -18.758287 33.656500 52.293423 0.487804 0.871592 0.094405 -0.041015 430994.000000 0 0 1
-36.314360 -19.199887 32.678653 52.490597 0.486354 0.898784 0.101306 -0.044879 18174.500000 0 0 1
-36.654150 -20.654487 32.942807 53.435598 0.513146 0.906512 0.091895 -0.042121 520286.000000 0 0 1
-35.575682 -21.585187 32.691232 52.917541 0.545361 0.904884 0.092284 -0.033509 345623.000000 0 0 1
-35.937387 -22.936287 33.059696 53.949167 0.568056 0.911206 0.090721 -0.036138 -298554.000000 0 0 1
-34.676037 -23.862887 33.143866 53.575935 0.602740 0.903794 0.088863 -0.034346 535083.000000 0 0 1
-33.729390 -23.648887 -33.308128 52.975211 0.611488 2.250740 0.076263 -0.043958 -373096.000000 0 0 1
-33.020730 -22.465987 -33.506058 52.131997 0.597423 2.268834 0.077363 -0.035087 -1924770.000000 0 0 1
-31.737620 -22.370187 -32.678578 50.750284 0.613972 2.270393 0.070026 -0.027192 -239777.000000 0 0 1
-30.717340 -23.270387 -33.125848 50.817199 0.648325 2.280835 0.056134 -0.019679 24279.600000 0 0 1
-29.455790 -23.071787 -32.559988 49.599433 0.664455 2.286911 0.063796 -0.021519 -203586.000000 0 0 1
-29.211360 -23.641587 -31.161728 48.818864 0.680403 2.263101 0.076171 -0.011287 -616994.000000 0 0 1
-29.244240 -25.040787 -31.140208 49.517463 0.708119 2.250900 0.074036 -0.017416 4370.230000 0 0 1
-28.739400 -25.414357 -29.888308 48.632845 0.724075 2.232638 0.069311 -0.018195 -53831.500000 0 0 1
-28.294010 -26.892667 -29.619028 49.000545 0.760011 2.219888 0.074337 -0.018725 113828.000000 0 0 1
-29.310400 -27.872187 -29.755828 50.213222 0.760252 2.205066 0.057483 -0.011047 100001.000000 0 0 1
-28.962260 -29.057587 -29.100888 50.299280 0.787041 2.187752 0.056502 -0.007242 -153099.000000 0 0 1
-29.783330 -30.272897 -29.488448 51.701679 0.793550 2.177738 0.063998 0.002386 -303296.000000 0 0 1
-29.429080 -30.673827 -30.778558 52.481178 0.806105 2.197488 0.079435 -0.020187 167718.000000 0 0 1
-29.797240 -31.998297 -31.077328 53.642957 0.821001 2.188711 0.100296 -0.018296 -285880.000000 0 0 1
-29.276310 -32.515327 -32.423988 54.457909 0.837769 2.208554 0.084236 -0.031815 160326.000000 0 0 1
-27.882330 -32.308147 -32.598058 53.701714 0.858796 2.223103 0.085399 -0.032132 -48644.100000 0 0 1
-27.513310 -32.844687 33.590510 54.443347 0.873499 0.905896 0.095672 -0.035927 -519545.000000 0 0 1
-26.017680 -32.815567 33.282087 53.492789 0.900433 0.899273 0.098383 -0.038774 -317644.000000 0 0 1
-25.813340 -33.449577 32.058530 53.037271 0.913546 0.921717 0.091580 -0.033243 -112479.000000 0 0 1
-24.610200 33.488262 32.068870 52.493219 -0.937036 0.913581 0.081640 -0.025263 -84633.500000 0 0 1
-24.474600 32.701196 30.756200 51.130403 -0.928300 0.925388 0.079278 -0.030433 -308036.000000 0 0 1
-25.576760 31.847665 30.657200 51.071600 -0.894170 0.926947 0.083494 -0.043641 -148669.000000 0 0 1
-25.399440 30.852938 29.655720 49.764416 -0.882043 0.932383 0.079105 -0.040352 -337237.000000 0 0 1
-26.740160 30.241928 29.249470 49.851197 -0.846775 0.943775 0.081114 -0.036756 -507096.000000 0 0 1
-27.459620 29.591058 30.265040 50.454277 -0.822741 0.927482 0.082974 -0.042498 -111623.000000 0 0 1
-28.605220 29.033668 29.661560 50.408538 -0.792831 0.941689 0.078460 -0.046263 -265073.000000 0 0 1
-29.304950 28.051508 30.616690 50.823704 -0.763548 0.924280 0.081009 -0.047869 -324584.000000 0 0 1
-28.597760 26.845578 30.787450 49.863655 -0.753806 0.905322 0.079330 -0.048327 310172.000000 0 0 1
-29.418860 25.726368 31.128130 49.962745 -0.718539 0.898190 0.087411 -0.037393 4600.300000 0 0 1
-30.364080 25.188098 30.072850 49.606390 -0.692493 0.919486 0.084548 -0.032518 166952.000000 0 0 1
-29.704220 24.694128 28.888200 48.235555 -0.693557 0.928671 0.080347 -0.030814 -182199.000000 0 0 1
-30.556510 23.750398 28.341120 47.968748 -0.660721 0.938716 0.072615 -0.023915 79704.700000 0 0 1
-29.958040 23.262828 27.010170 46.563855 -0.660255 0.951985 0.081082 -0.034443 62257.600000 0 0 1
-28.776590 22.513958 27.016890 45.440982 -0.663898 0.934092 0.080802 -0.028624 -212561.000000 0 0 1
-28.318190 22.080558 25.746840 44.185639 -0.662259 0.948753 0.079311 -0.022171 -52598.700000 0 0 1
-26.899000 21.473458 25.757720 42.989833 -0.673703 0.928347 0.096854 -0.024040 -68795.200000 0 0 1
-26.761710 20.288558 26.575460 42.826041 -0.648677 0.901360 0.111427 -0.029393 618671.000000 0 0 1
-25.397130 19.880958 26.658120 41.844021 -0.664167 0.880088 0.097110 -0.021094 257899.000000 0 0 1
-25.116510 18.717758 27.613900 41.757886 -0.640446 0.848265 0.119637 -0.029584 556559.000000 0 0 1
-23.831400 18.081458 27.654920 40.739040 -0.649061 0.824627 0.095498 -0.019126 858064.000000 0 0 1
-23.994400 16.910458 28.459620 40.885753 -0.613918 0.800878 0.094322 -0.017149 407350.000000 0 0 1
-22.674400 16.083758 28.452840 39.779138 -0.616964 0.773785 0.079260 -0.017728 209768.000000 0 0 1
-21.622900 16.534958 29.267600 39.969327 -0.652841 0.749174 0.111628 -0.016764 -244878.000000 0 0 1
-20.584600 15.556158 29.296210 39.038286 -0.647151 0.722056 0.084065 -0.019734 882820.000000 0 0 1
-19.474700 16.071258 30.326090 39.461640 -0.689941 0.694310 0.070132 -0.027559 608959.000000 0 0 1
-19.899600 15.922558 31.696828 40.671991 -0.674829 0.677203 0.064272 -0.023069 819800.000000 0 0 1
-18.806300 16.239358 32.578614 40.972671 -0.712283 0.651574 0.057333 -0.027287 -363505.000000 0 0 1
-19.051100 16.204858 -33.346088 41.683371 -0.704842 2.498067 0.048851 -0.033077 -358982.000000 0 0 1
-19.839900 17.181958 -32.701158 41.930980 -0.713727 2.465271 0.063538 -0.033293 -607.989000 0 0 1
-21.192400 17.020058 -33.076668 42.811986 -0.676641 2.453727 0.068568 -0.032159 -921907.000000 0 0 1
-22.138900 17.725258 -32.077588 42.816905 -0.675130 2.417620 0.085894 -0.028995 -301631.000000 0 0 1
-22.207000 17.230858 -30.766348 41.672791 -0.659885 2.401319 0.083907 -0.026668 286458.000000 0 0 1
-23.161300 17.950358 -30.003338 41.938783 -0.659320 2.368004 0.097769 -0.026367 -282396.000000 0 0 1
-23.305700 17.350858 -28.561268 40.742533 -0.639965 2.347621 0.095287 -0.022416 90381.800000 0 0 1
-23.881800 16.064958 -28.379948 40.420845 -0.592158 2.349155 0.098846 -0.024230 -506257.000000 0 0 1
-25.184100 15.908458 -28.840238 41.461757 -0.563393 2.340032 0.113910 -0.023814 -515822.000000 0 0 1
-26.151570 15.078658 -27.932678 41.127911 -0.523026 2.317422 0.107099 -0.017945 344939.000000 0 0 1
-25.979170 13.679358 -28.030148 40.592257 -0.484662 2.333017 0.078481 -0.013662 115610.000000 0 0 1
-27.037580 13.040958 -27.338378 40.601530 -0.449410 2.309505 0.061608 -0.012844 198261.000000 0 0 1
-27.022910 11.487758 -27.286098 40.084129 -0.401965 2.319542 0.071950 -0.015201 -151136.000000 0 0 1
-25.920670 11.072858 -26.521138 38.702198 -0.403718 2.325759 0.062306 -0.013567 11471.500000 0 0 1
-25.202300 10.010358 -27.191718 38.402510 -0.378090 2.357560 0.052673 -0.008029 -224090.000000 0 0 1
-24.030500 9.591558 -26.314118 36.903872 -0.379766 2.364628 0.093579 -0.014535 -324148.000000 0 0 1
-24.447400 8.840658 -25.174988 36.188571 -0.346989 2.340136 0.081519 -0.013604 134468.000000 0 0 1
-23.309300 8.249858 -24.529438 34.829255 -0.340172 2.352200 0.127370 -0.010678 564763.000000 0 0 1
-23.590400 7.208758 -23.393138 33.995766 -0.296568 2.329690 0.120185 -0.007983 95873.300000 0 0 1
-24.246900 6.036158 -23.818038 34.520231 -0.243986 2.332249 0.117812 -0.024588 178389.000000 0 0 1
-24.075000 5.029458 -22.842338 33.565958 -0.205946 2.319270 0.111157 -0.021327 -111994.000000 0 0 1
36.068406 24.118213 -9.494438 44.415791 0.589395 1.786221 0.046397 0.011777 276632.000000 0 0 1
36.797416 23.696913 -8.331338 44.553392 0.572134 1.758900 0.060156 0.000760 -695603.000000 0 0 1
-37.633810 23.294913 -8.686638 45.104483 -0.554265 1.764596 0.078195 -0.000410 -586928.000000 0 0 1
-36.808770 22.755213 -7.486238 43.917298 -0.553695 1.742095 0.126755 -0.001985 -245619.000000 0 0 1
-37.270920 21.577013 -6.883338 43.612720 -0.524778 1.729288 0.082988 -0.011901 -875112.000000 0 0 1
-36.421250 21.101413 -5.958938 42.512187 -0.525113 1.711430 0.166487 -0.025898 -1253010.000000 0 0 1
-36.985900 19.993213 -5.114838 42.353831 -0.495569 1.691856 0.116064 -0.013825 -318352.000000 0 0 1
-37.332440 18.890513 -5.931738 42.258113 -0.468442 1.711631 0.075874 -0.002314 312555.000000 0 0 1
37.846506 17.833013 -5.149138 42.153149 0.440338 1.693255 0.083925 -0.024700 -185282.000000 0 0 1
36.988126 16.963213 -6.079138 41.143991 0.429993 1.719092 0.069908 -0.011485 -237811.000000 0 0 1
35.698126 17.402413 -6.415938 40.228901 0.453588 1.730966 0.066530 -0.012132 -46215.800000 0 0 1
35.078486 16.428113 -7.220138 39.401948 0.437988 1.755081 0.081849 -0.008239 -434436.000000 0 0 1
33.805076 16.744513 -7.980938 38.559788 0.459901 1.779279 0.061082 -0.013049 -497250.000000 0 0 1
33.356696 15.629213 -8.689238 37.847646 0.438171 1.802447 0.072131 -0.015256 25720.400000 0 0 1
32.754136 15.995313 -9.891138 37.769274 0.454280 1.835769 0.047809 -0.017743 -438448.000000 0 0 1
32.290196 14.807113 -10.838438 37.139993 0.429953 1.866932 0.065154 -0.024297 1417010.000000 0 0 1
31.124676 13.985213 -10.429738 35.680682 0.422296 1.867435 0.068943 -0.022783 1654890.000000 0 0 1
31.109966 13.395313 -9.139838 35.082774 0.406587 1.834359 0.088720 -0.019584 -536925.000000 0 0 1
30.106706 12.252313 -9.117438 33.758860 0.386494 1.844268 0.099478 -0.013341 -592307.000000 0 0 1
30.622706 11.176913 -9.795838 34.038683 0.349964 1.862710 0.102352 -0.016950 708859.000000 0 0 1
29.679806 10.089613 -9.874138 32.866241 0.327693 1.875944 0.144974 -0.020137 23843.000000 0 0 1
30.362006 8.748813 -10.116938 33.177486 0.280550 1.880665 0.140014 -0.019401 297065.000000 0 0 1
31.297516 8.311913 -9.089338 33.633889 0.259585 1.844442 0.132480 -0.026395 841857.000000 0 0 1
31.501796 6.897013 -9.233838 33.543937 0.215539 1.849673 0.159602 -0.034440 -143499.000000 0 0 1
32.656026 6.356613 -8.348238 34.300374 0.192250 1.816652 0.180552 -0.027410 648581.000000 0 0 1
33.980716 6.691213 -8.768138 35.725924 0.194425 1.818757 0.143500 -0.025857 564587.000000 0 0 1
34.923376 6.170813 -7.858438 36.324595 0.174891 1.788860 0.149545 -0.026504 -719744.000000 0 0 1
36.361996 6.282713 -8.312038 37.825352 0.171093 1.792352 0.137915 -0.022557 -779580.000000 0 0 1
36.736546 5.450713 -9.351538 38.297981 0.147298 1.817469 0.137470 -0.024650 696651.000000 0 0 1
-37.576750 5.577813 -9.631338 39.190392 -0.147362 1.819098 0.127720 -0.021042 -204338.000000 0 0 1
-37.162210 4.601613 -10.757338 38.960558 -0.123198 1.850539 0.131644 -0.029072 776487.000000 0 0 1
-35.778776 4.487213 -11.158538 37.746111 -0.124764 1.870902 0.161999 -0.038332 1265470.000000 0 0 1
-35.190085 5.611913 -11.799438 37.537480 -0.158143 1.890555 0.166988 -0.038367 -590206.000000 0 0 1
-34.307988 6.520113 -10.945638 36.597226 -0.187807 1.874529 0.153049 -0.021556 -902407.000000 0 0 1
-35.010496 7.433313 -10.139938 37.199561 -0.209210 1.846872 0.138471 -0.020583 208571.000000 0 0 1
-35.180309 8.675813 -10.714838 37.785337 -0.241785 1.858313 0.138864 -0.026063 21303.500000 0 0 1
-36.250040 9.611913 -10.050838 38.826198 -0.259191 1.832646 0.133709 -0.020717 504674.000000 0 0 1
-35.709179 10.304713 -8.930138 38.224076 -0.280941 1.806602 0.118003 -0.011432 -146046.000000 0 0 1
-36.691720 10.867313 -8.133638 39.122077 -0.287948 1.780228 0.110818 -0.015638 -398422.000000 0 0 1
-36.116460 11.871213 -7.114538 38.677397 -0.317568 1.755795 0.123236 -0.026037 22573.800000 0 0 1
-35.547853 13.022013 -7.717938 38.636631 -0.351142 1.771906 0.122294 -0.022603 17399.500000 0 0 1
-35.094008 13.877413 -6.721838 38.332168 -0.376565 1.747065 0.146877 -0.025008 -59500.100000 0 0 1
-34.307790 15.131813 -7.165238 38.175082 -0.415395 1.759610 0.114916 -0.015754 435877.000000 0 0 1
-35.141271 16.078613 -7.812738 39.426763 -0.429108 1.770275 0.083157 -0.008847 381173.000000 0 0 1
-34.383725 17.256213 -7.874138 39.268556 -0.465144 1.772685 0.078017 -0.009320 193331.000000 0 0 1
-34.936132 18.177613 -8.950738 40.386565 -0.479763 1.794279 0.074805 -0.007818 243981.000000 0 0 1
-34.306766 17.941513 -10.211438 40.039051 -0.481857 1.828682 0.056334 -0.004281 493541.000000 0 0 1
-35.064727 18.599313 -11.258938 41.258129 -0.487693 1.847192 0.048757 -0.010050 234672.000000 0 0 1
-34.489986 18.438213 -12.701838 41.120111 -0.490940 1.884828 0.012811 0.011902 -16333.100000 0 0 1
-33.375350 19.268513 -12.968938 40.661812 -0.523582 1.895414 0.029068 0.005309 579.715000 0 0 1
-33.393550 19.561713 -14.375438 41.284901 -0.529908 1.926448 -0.001969 0.007787 -676796.000000 0 0 1
-32.539230 20.756713 -14.849538 41.353977 -0.567821 1.938082 0.026329 0.006806 20875.800000 0 0 1
-31.164880 20.561913 -14.548338 40.071139 -0.583219 1.942349 0.042734 0.006547 356924.000000 0 0 1
-30.497510 21.796913 -14.337338 40.134310 -0.620531 1.936101 0.046967 -0.002284 14036.200000 0 0 1
-29.716540 22.480113 -15.499438 40.356670 -0.647639 1.964987 0.056912 -0.008212 -807387.000000 0 0 1
-30.486210 22.928413 -16.585338 41.595608 -0.644838 1.980926 0.049204 0.007058 -225921.000000 0 0 1
-29.837950 23.589713 -17.648438 41.931435 -0.668979 2.005220 0.062545 0.006279 -395381.000000 0 0 1
-29.219520 25.002613 -17.403138 42.211139 -0.707783 1.995760 0.075994 0.002832 212649.000000 0 0 1
-30.147700 26.000413 -17.006238 43.291078 -0.711669 1.974508 0.100510 -0.014637 224724.000000 0 0 1
-29.512620 27.221113 -17.247438 43.697344 -0.745030 1.976540 0.101821 -0.025010 979444.000000 0 0 1
-30.419670 28.540413 -16.886738 45.000816 -0.753536 1.955467 0.111214 -0.031648 648696.000000 0 0 1
-30.482770 28.899413 -15.528638 44.782965 -0.758741 1.924904 0.100673 -0.035590 444770.000000 0 0 1
-29.257330 29.373113 -14.975338 44.079836 -0.787373 1.917428 0.087954 -0.026577 158796.000000 0 0 1
-29.310430 30.033813 -13.607038 44.116695 -0.797587 1.884341 0.101882 -0.019737 -375696.000000 0 0 1
-30.232030 31.077513 -13.616238 45.444355 -0.799188 1.875095 0.087001 -0.019979 -67895.300000 0 0 1
-30.236830 31.894013 -12.397138 45.663804 -0.812064 1.845734 0.082195 -0.022159 -566122.000000 0 0 1
-29.098870 32.887213 -12.296638 45.601758 -0.846438 1.843829 0.080631 -0.033213 -401087.000000 0 0 1
-29.203760 -33.822531 -13.333238 46.632590 0.858551 1.860764 0.074253 -0.045490 -118298.000000 0 0 1
-28.256330 -32.803931 -13.191738 45.260801 0.859738 1.866550 0.096276 -0.045709 -375544.000000 0 0 1
-28.375350 -31.895431 -14.432038 45.063985 0.843736 1.896797 0.079909 -0.037057 -1181.740000 0 0 1
-27.908350 -32.626631 -15.534538 45.658460 0.863184 1.917962 0.070808 -0.036766 -87525.900000 0 0 1
-28.202940 -31.941131 -16.742838 45.781703 0.847472 1.945192 0.070556 -0.020527 -227443.000000 0 0 1
-27.236710 -32.383831 -17.837238 45.920780 0.871516 1.969729 0.068279 -0.020669 -231048.000000 0 0 1
-27.471090 -33.651031 -18.435538 47.190272 0.886164 1.972149 0.073879 -0.013428 -129606.000000 0 0 1
-27.084180 32.854713 -17.737738 46.126049 -0.881376 1.965516 0.065481 -0.039739 -506942.000000 0 0 1
-27.322750 31.498013 -18.516438 45.623634 -0.856262 1.988707 0.088301 -0.049437 480021.000000 0 0 1
-28.667320 31.105413 -18.763738 46.275694 -0.826165 1.988297 0.108559 -0.042388 394417.000000 0 0 1
-29.265050 31.830513 -19.860838 47.582325 -0.827364 2.001378 0.119797 -0.033388 458147.000000 0 0 1
-30.800820 31.578913 -20.034338 48.448870 -0.797871 1.997108 0.121043 -0.037959 639598.000000 0 0 1
-31.145570 30.237913 -20.384438 47.957307 -0.770613 2.009818 0.119436 -0.042366 721296.000000 0 0 1
-32.575950 30.162313 -20.354438 48.839132 -0.746946 2.000680 0.136069 -0.037281 592625.000000 0 0 1
-33.001550 28.696313 -20.720538 48.393403 -0.715732 2.013262 0.129296 -0.034147 872962.000000 0 0 1
-34.440226 28.584213 -20.871438 49.384242 -0.692748 2.007146 0.127665 -0.031221 1451110.000000 0 0 1
-34.788303 27.500613 -21.703938 49.371760 -0.668929 2.025952 0.122381 -0.023783 205105.000000 0 0 1
-36.251280 26.958513 -21.709438 50.122016 -0.639429 2.018761 0.104958 -0.025019 303740.000000 0 0 1
-36.972870 27.560513 -22.753938 51.422920 -0.640567 2.029166 0.101955 -0.021243 -311115.000000 0 0 1
37.621856 26.754513 -23.090438 51.617598 0.618165 2.034581 0.090685 -0.013271 127884.000000 0 0 1
36.766516 27.253213 -24.241038 51.789403 0.637878 2.057901 0.105279 -0.017455 1071.910000 0 0 1
37.520026 27.277713 -25.433618 52.902693 0.628629 2.072320 0.123724 -0.028053 -154359.000000 0 0 1
36.638816 27.457413 -26.508338 52.905618 0.643122 2.095607 0.129845 -0.024689 229848.000000 0 0 1
37.349936 27.750713 -27.875488 54.241706 0.639001 2.110536 0.132930 -0.026453 508080.000000 0 0 1
-37.671610 26.606513 -28.376038 54.150312 -0.614925 2.122365 0.094248 -0.007305 -5466.140000 0 0 1
-36.832170 26.876413 -29.484818 54.298295 -0.630382 2.144820 0.075515 -0.005702 -553295.000000 0 0 1
-36.451870 25.488013 -30.158988 53.739578 -0.610205 2.166639 0.066327 -0.008526 121588.000000 0 0 1
-35.627635 24.585113 -29.448148 52.354079 -0.604022 2.168179 0.063287 -0.006245 608594.000000 0 0 1
-34.276646 25.079113 -29.533828 51.731010 -0.631665 2.178412 0.048668 -0.005403 204390.000000 0 0 1
-33.236280 24.454813 -28.593948 50.202610 -0.634342 2.176780 0.036681 -0.003657 74938.200000 0 0 1
-32.801470 23.146313 -29.028318 49.541210 -0.614507 2.196839 0.042953 -0.004318 217010.000000 0 0 1
-33.336840 22.162713 -28.172808 48.951383 -0.586717 2.184044 0.027044 -0.000979 -8797.110000 0 0 1
-33.061410 20.701313 -28.699328 48.427809 -0.559424 2.205105 0.031235 -0.007788 404761.000000 0 0 1
-31.664010 20.458413 -28.866608 47.480915 -0.573635 2.224288 0.090690 -0.017927 558277.000000 0 0 1
-31.454270 19.146513 -29.252568 47.028426 -0.546799 2.242115 0.077468 -0.017705 1207420.000000 0 0 1
-29.919720 18.761213 -29.417558 45.962654 -0.560073 2.265336 0.097458 -0.021163 1143290.000000 0 0 1
-29.186330 19.315113 -30.528598 46.442554 -0.584616 2.288081 0.105436 -0.021719 322379.000000 0 0 1
-27.867570 18.853713 -30.678218 45.532593 -0.594811 2.310087 0.113481 -0.025864 12366.300000 0 0 1
-27.831090 17.479213 -31.319818 45.398497 -0.560787 2.332129 0.111407 -0.023397 -653322.000000 0 0 1
-28.265070 16.393413 -30.578968 44.751888 -0.525575 2.323069 0.080402 -0.015766 80514.600000 0 0 1
-28.207210 15.178713 -31.350438 44.820643 -0.493672 2.345444 0.059503 -0.014754 -253873.000000 0 0 1
-28.723760 14.014013 -30.487908 44.169667 -0.453912 2.332624 0.055958 -0.014555 -35413.200000 0 0 1
-30.103960 14.245513 -30.230088 44.978232 -0.441987 2.307844 0.053109 -0.016244 181362.000000 0 0 1
-30.875600 13.088613 -30.093128 45.057861 -0.400951 2.302150 0.043988 -0.014156 -523026.000000 0 0 1
-30.782300 12.191913 -28.850538 43.915217 -0.377113 2.287576 0.029804 -0.020188 -606800.000000 0 0 1
-31.293950 12.688513 -27.644928 43.641170 -0.385206 2.256813 0.022215 -0.018062 139023.000000 0 0 1
-31.300930 11.645113 -26.726928 42.774824 -0.356171 2.245708 0.021386 -0.012407 -27548.800000 0 0 1
-31.220030 12.012613 -25.260298 41.917488 -0.367311 2.217576 0.016838 -0.011446 459899.000000 0 0 1
-29.914860 12.538013 -25.036438 40.974674 -0.396882 2.228148 0.037776 -0.014860 277788.000000 0 0 1
-29.798030 13.133913 -23.766738 40.314763 -0.415147 2.201272 0.038019 -0.008721 119098.000000 0 0 1
-28.355860 13.543213 -23.398938 39.178869 -0.445581 2.210844 0.068064 -0.004101 -207303.000000 0 0 1
-27.744800 14.615213 -24.136138 39.571853 -0.484836 2.226771 0.085541 -0.009117 1785770.000000 0 0 1
-26.317580 14.802913 -23.892338 38.504352 -0.512369 2.240189 0.087493 -0.013189 1797570.000000 0 0 1
-25.846540 15.245513 -22.517938 37.517021 -0.532921 2.214555 0.101677 -0.013741 -342874.000000 0 0 1
-26.626250 16.357713 -22.091438 38.269618 -0.550901 2.186163 0.124969 -0.013436 447061.000000 0 0 1
-26.406830 16.498413 -20.717038 37.399385 -0.558440 2.157886 0.120988 -0.005724 231639.000000 0 0 1
-27.753450 16.557313 -19.946338 37.977033 -0.537905 2.123771 0.108820 -0.012048 216937.000000 0 0 1
-28.576820 15.405613 -20.232938 38.253619 -0.494432 2.128119 0.101881 -0.009245 -205852.000000 0 0 1
-29.854900 15.792313 -19.817838 39.159404 -0.486553 2.101431 0.087035 -0.007446 -507255.000000 0 0 1
-30.983350 14.812713 -20.300038 39.893308 -0.445963 2.104654 0.040655 -0.009622 312314.000000 0 0 1
-31.485350 14.853713 -21.618938 40.979734 -0.440806 2.126513 0.031357 -0.006413 171454.000000 0 0 1
-32.291480 15.952013 -21.975538 42.191595 -0.458837 2.118644 0.014874 -0.001281 -161624.000000 0 0 1
-32.888770 16.044713 -23.419738 43.446383 -0.453879 2.140104 0.013223 -0.010299 -674011.000000 0 0 1
-34.009294 15.245613 -23.548638 44.086270 -0.421421 2.134297 0.020048 -0.006246 -556065.000000 0 0 1
-34.559718 15.366913 -24.849838 45.255172 -0.418394 2.152089 0.019622 -0.012716 428180.000000 0 0 1
-35.810837 14.474313 -25.136598 46.084383 -0.384112 2.147719 0.027031 -0.009981 252298.000000 0 0 1
-35.631397 13.060913 -25.294698 45.607079 -0.351348 2.158705 0.028490 -0.013080 28582.600000 0 0 1
-35.279280 12.310813 -24.137138 44.483538 -0.335742 2.144336 0.022436 -0.008970 -169963.000000 0 0 1
-35.273493 10.798113 -24.348638 44.200393 -0.297067 2.154202 0.034857 -0.014130 -258197.000000 0 0 1
-36.519230 10.155013 -24.452938 45.107922 -0.271221 2.143729 0.045751 -0.006451 -297893.000000 0 0 1
-36.428230 9.189813 -25.429348 45.366512 -0.247116 2.165824 0.044363 -0.008683 -55947.400000 0 0 1
-37.753980 8.688113 -26.025968 46.671162 -0.226187 2.162343 0.078928 -0.007141 315584.000000 0 0 1
37.087506 7.956613 -25.134608 45.503179 0.211333 2.156001 0.065831 0.005039 516017.000000 0 0 1
36.119536 7.210013 -25.863608 45.005904 0.197026 2.182999 0.084140 -0.000060 263252.000000 0 0 1
35.125106 6.389613 -25.033438 43.603592 0.179943 2.182318 0.090126 0.001912 -8807.790000 0 0 1
35.771646 5.246813 -24.541738 43.697101 0.145637 2.167155 0.077811 0.004252 -48346.700000 0 0 1
34.920266 4.268813 -24.036638 42.607602 0.121641 2.170187 0.084207 0.000816 -406000.000000 0 0 1
35.682186 3.366613 -23.074838 42.626291 0.094071 2.142813 0.082362 -0.006878 327990.000000 0 0 1
36.470476 2.359013 -23.725538 43.572488 0.064593 2.146598 0.085287 -0.007534 711299.000000 0 0 1
37.379956 1.719813 -22.818038 43.827865 0.045977 2.118383 0.116116 -0.014165 336090.000000 0 0 1
-37.772880 0.387713 -23.375338 44.422373 -0.010264 2.124930 0.135433 -0.024300 478198.000000 0 0 1
36.966016 -0.650887 -23.600038 43.861963 -0.017606 2.138921 0.096244 -0.037198 570318.000000 0 0 1
37.618736 -1.807487 -24.140338 44.734687 -0.048011 2.140798 0.113970 -0.034805 407340.000000 0 0 1
-23.632600 28.621113 26.764950 45.760578 -0.880577 0.946051 0.054865 -0.025932 261672.000000 0 0 1
-24.884400 29.030713 26.179580 46.339898 -0.862152 0.970427 0.048940 -0.029452 1167610.000000 0 0 1
-25.233220 28.414113 24.932160 45.449861 -0.844621 0.990150 0.046391 -0.010385 -178449.000000 0 0 1
-25.919050 27.042313 24.968930 45.017012 -0.806604 0.982848 0.051630 -0.020412 -592062.000000 0 0 1
-27.196550 26.927413 25.541570 46.012061 -0.780426 0.982306 0.059910 -0.021922 -236426.000000 0 0 1
-27.360780 26.904713 26.950590 46.891473 -0.776994 0.958505 0.060687 -0.027306 -1107980.000000 0 0 1
-26.796420 25.611813 27.627010 46.230562 -0.762799 0.930302 0.073834 -0.023792 -469502.000000 0 0 1
-25.449860 25.617313 27.973670 45.677876 -0.788677 0.911688 0.080372 -0.020275 -706107.000000 0 0 1
-25.116880 26.397613 29.114020 46.640303 -0.810255 0.896658 0.072628 -0.022593 205353.000000 0 0 1
-23.704400 26.085013 29.694300 46.087721 -0.833175 0.870689 0.101364 -0.012335 -135069.000000 0 0 1
-22.566900 26.555913 29.009630 45.343579 -0.866425 0.876593 0.101449 -0.020200 982.904000 0 0 1
-21.416700 26.353313 29.815170 45.189784 -0.888374 0.850275 0.130415 -0.019112 196945.000000 0 0 1
-20.699700 24.967813 29.659960 43.949773 -0.878588 0.830021 0.130896 -0.009770 -737139.000000 0 0 1
-20.117900 24.819013 28.397910 42.745229 -0.889635 0.844169 0.117156 -0.019868 27673.000000 0 0 1
-20.893300 24.189813 27.361890 42.075529 -0.858389 0.862812 0.125346 -0.027679 23067.000000 0 0 1
-20.775900 22.628313 27.324010 41.113017 -0.828050 0.843828 0.125267 -0.005882 99253.200000 0 0 1
-21.245900 21.925213 28.474740 41.748223 -0.801132 0.820222 0.100120 -0.007462 118983.000000 0 0 1
-20.905600 20.556213 28.456970 40.858306 -0.776972 0.800317 0.105834 -0.008582 -10486.200000 0 0 1
-21.109000 19.848813 29.822170 41.580369 -0.754640 0.770995 0.106973 -0.010207 -46197.800000 0 0 1
-20.117300 20.131513 30.767820 41.912318 -0.785751 0.746456 0.095788 -0.020470 50211.200000 0 0 1
-20.594000 19.670313 32.019760 42.852061 -0.762462 0.726933 0.088166 -0.019081 -175168.000000 0 0 1
-19.604300 20.086913 33.105164 43.402357 -0.797557 0.703241 0.104869 -0.018764 -489438.000000 0 0 1
-19.583900 21.497513 33.357080 44.253441 -0.831946 0.717010 0.071000 -0.014801 294563.000000 0 0 1
-18.728000 22.193813 32.448525 43.545495 -0.869890 0.730016 0.092166 -0.012522 434789.000000 0 0 1
-17.225500 22.251013 32.861656 43.263309 -0.912021 0.708139 0.096850 -0.001986 -3687.170000 0 0 1
-16.495200 21.079713 32.743307 42.291490 -0.906808 0.685300 0.110531 -0.017730 -84180.100000 0 0 1
-15.187700 21.327913 33.254427 42.324970 -0.951993 0.666981 0.084088 -0.016152 -312372.000000 0 0 1
-14.322700 20.072313 33.088398 41.265962 -0.951031 0.640440 0.066286 -0.022060 -700639.000000 0 0 1
-12.956300 20.184113 33.350480 41.079419 -1.000132 0.623476 0.048697 -0.022438 -279257.000000 0 0 1
-12.629100 20.125413 -32.695868 40.417153 -1.010387 2.513178 0.063761 -0.021226 26163.800000 0 0 1
-11.120600 20.172213 -32.341188 39.705647 -1.066969 2.522704 0.054587 -0.019170 161318.000000 0 0 1
-10.505000 21.406713 -32.282998 40.134703 -1.114589 2.505404 0.060126 -0.018193 272690.000000 0 0 1
-9.170800 21.272513 -31.785498 39.331175 -1.163762 2.511801 0.058372 -0.021547 409252.000000 0 0 1
-8.249700 22.479313 -31.988758 39.958200 -1.219066 2.499018 0.053404 -0.024317 -131129.000000 0 0 1
-8.457100 23.621713 -31.171508 40.014632 -1.226993 2.463870 0.060236 -0.022165 -29221.900000 0 0 1
-8.090100 23.390113 -29.811348 38.746143 -1.237799 2.448700 0.054717 -0.033734 -59187.700000 0 0 1
-7.861600 24.633213 -28.968878 38.830347 -1.261868 2.412887 0.062527 -0.031019 -573805.000000 0 0 1
-6.692300 25.277213 -29.321868 39.287356 -1.311978 2.413348 0.081607 -0.023496 -808857.000000 0 0 1
-6.350200 26.293613 -28.470818 39.271703 -1.333823 2.381788 0.087767 -0.020508 -291423.000000 0 0 1
-4.890500 26.694013 -28.733908 39.523725 -1.389600 2.384745 0.100114 -0.028240 -1111590.000000 0 0 1
-3.954200 25.662413 -28.514498 38.565163 -1.417913 2.402953 0.114022 -0.021714 -664772.000000 0 0 1
-2.762600 25.791513 -29.196888 39.054992 -1.464090 2.415213 0.118548 -0.020575 190624.000000 0 0 1
-1.818800 27.056213 -28.942988 39.661610 -1.503674 2.388750 0.134495 -0.032370 -565903.000000 0 0 1
-1.293200 27.122213 -27.638398 38.744908 -1.523152 2.365053 0.154102 -0.054903 -42881.700000 0 0 1
-0.383200 28.160613 -27.540928 39.391239 -1.557189 2.345024 0.153841 -0.048609 -820503.000000 0 0 1
0.215800 28.472113 -26.123338 38.641126 1.563217 2.313185 0.162863 -0.060772 1659730.000000 0 0 1
1.385600 27.723813 -25.597208 37.759062 1.520859 2.315711 0.208521 -0.075710 1727190.000000 0 0 1
2.576900 27.936413 -26.336638 38.479892 1.478815 2.324612 0.206223 -0.077925 -770337.000000 0 0 1
3.782900 28.201213 -25.457668 38.179990 1.437453 2.300677 0.195588 -0.080160 -579184.000000 0 0 1
4.242400 27.065413 -24.766538 36.931233 1.415315 2.305830 0.204263 -0.071868 -638917.000000 0 0 1
5.526200 27.303213 -24.299538 36.965821 1.371093 2.288095 0.161735 -0.060110 -420551.000000 0 0 1
6.157800 26.040513 -23.592938 35.674270 1.338592 2.293404 0.147919 -0.053500 1244290.000000 0 0 1
7.472500 26.278013 -23.033938 35.734221 1.293746 2.271284 0.135378 -0.052209 617689.000000 0 0 1
8.071200 25.108713 -22.516338 34.678195 1.259778 2.277452 0.121053 -0.038541 971536.000000 0 0 1
9.602700 25.305913 -22.242738 35.033420 1.208117 2.258676 0.109309 -0.012151 443316.000000 0 0 1
9.837800 25.995613 -20.977938 34.822810 1.209013 2.217325 0.111720 -0.016087 775063.000000 0 0 1
11.196900 26.415513 -20.735038 35.399036 1.169878 2.196603 0.128624 -0.022459 768544.000000 0 0 1
12.053900 25.319813 -20.129538 34.519382 1.126479 2.193382 0.093693 0.000340 -644043.000000 0 0 1
12.577000 24.435313 -21.051538 34.618387 1.095453 2.224465 0.083670 -0.009050 -220400.000000 0 0 1
12.735000 23.101713 -20.518238 33.419567 1.066988 2.231863 0.060857 -0.000031 10216.900000 0 0 1
12.962900 21.973213 -21.528638 33.381749 1.037806 2.271718 0.061075 -0.014592 907763.000000 0 0 1
11.824900 21.754213 -22.390238 33.382583 1.072905 2.305970 0.065136 -0.027342 956886.000000 0 0 1
12.168000 20.691213 -23.272638 33.433549 1.039191 2.340728 0.058385 -0.021420 185664.000000 0 0 1
11.389900 20.779713 -24.612438 34.165749 1.069393 2.375151 0.068568 -0.027063 784282.000000 0 0 1
9.982000 20.554613 -24.478738 33.486431 1.118708 2.390589 0.067825 -0.031130 538346.000000 0 0 1
9.354900 20.515513 -25.744488 34.222494 1.142971 2.422294 0.068921 -0.031122 -744301.000000 0 0 1
7.872500 20.143813 -25.591078 33.506011 1.198233 2.439939 0.095167 -0.042362 -205181.000000 0 0 1
6.953900 21.196013 -25.411838 33.814039 1.253785 2.421155 0.112275 -0.046938 -109808.000000 0 0 1
7.046400 21.853413 -24.159338 33.330122 1.258882 2.381613 0.122660 -0.051928 -377018.000000 0 0 1
5.699100 22.116613 -23.425838 32.716880 1.318599 2.368876 0.149147 -0.055773 501846.000000 0 0 1
4.807400 23.005413 -24.056638 33.631562 1.364793 2.367849 0.148170 -0.053474 -5551.790000 0 0 1
3.450400 22.840313 -23.681438 33.081652 1.420864 2.368634 0.180307 -0.055342 218682.000000 0 0 1
2.620900 23.844213 -24.517738 34.300658 1.461318 2.367119 0.165712 -0.047377 -925015.000000 0 0 1
1.244500 23.683913 -24.388138 34.018492 1.518298 2.370154 0.200077 -0.071903 -897847.000000 0 0 1
0.675200 24.500413 -25.372458 35.277298 1.543245 2.373488 0.201407 -0.067021 -142867.000000 0 0 1
-0.860100 24.398113 -25.388308 35.221782 -1.535558 2.375770 0.204292 -0.064040 -49663.900000 0 0 1
-1.385800 23.250613 -26.028808 34.928646 -1.511264 2.411630 0.216235 -0.065476 362427.000000 0 0 1
-2.763200 23.411413 -26.371458 35.372070 -1.453312 2.412148 0.198006 -0.046539 513211.000000 0 0 1
-3.294700 22.112113 -26.970778 35.031750 -1.422885 2.449473 0.184183 -0.048658 -570008.000000 0 0 1
-2.605200 21.724413 -28.126508 35.634782 -1.451446 2.480463 0.208625 -0.061428 51986.000000 0 0 1
-3.067400 20.435813 -28.664538 35.336768 -1.421809 2.516966 0.167128 -0.054387 1104380.000000 0 0 1
-4.472300 20.534413 -29.411748 36.148507 -1.356350 2.521177 0.134318 -0.042302 819087.000000 0 0 1
-4.426500 20.919913 -30.795958 37.491702 -1.362279 2.534670 0.127008 -0.041579 -15395.500000 0 0 1
-4.278500 22.330913 -30.901318 38.364915 -1.381495 2.507244 0.148446 -0.043952 -395923.000000 0 0 1
-3.815900 22.594313 -32.286408 39.591366 -1.403487 2.524374 0.121356 -0.036300 -605933.000000 0 0 1
-2.555400 22.102113 -32.603968 39.472170 -1.455689 2.542768 0.119593 -0.036799 -271461.000000 0 0 1
-2.153200 22.443813 33.513950 40.392399 -1.475152 0.592210 0.109102 -0.020852 -470840.000000 0 0 1
-0.914200 21.704213 33.056950 39.555917 -1.528700 0.581387 0.121053 -0.015578 -377777.000000 0 0 1
-1.244800 20.343413 32.900173 38.701749 -1.509683 0.554630 0.106097 -0.016450 552057.000000 0 0 1
-0.138900 19.616313 32.360806 37.842315 -1.563716 0.544959 0.112954 -0.007495 467334.000000 0 0 1
-0.612000 18.190813 31.977791 36.794828 -1.537166 0.517449 0.084711 0.002980 -130150.000000 0 0 1
-1.347800 18.239313 30.823190 35.840734 -1.497035 0.535518 0.070867 -0.000821 -356953.000000 0 0 1
-1.692700 16.960413 30.377730 34.832849 -1.471323 0.511319 0.057866 0.001688 -343581.000000 0 0 1
-2.663500 16.982713 29.209540 33.892537 -1.415228 0.531933 0.064682 0.007313 -1215070.000000 0 0 1
-3.955300 17.349913 29.493050 34.445666 -1.346655 0.542890 0.049810 -0.003656 -738486.000000 0 0 1
-4.518300 18.447613 28.732540 34.442537 -1.330599 0.584085 0.061953 -0.007911 1125470.000000 0 0 1
-6.045600 18.719513 29.003250 35.045085 -1.258413 0.595981 0.047387 -0.014630 744101.000000 0 0 1
-6.873900 17.877813 28.278300 34.154487 -1.203729 0.595349 0.047718 -0.009808 99930.600000 0 0 1
-8.253000 18.178513 28.528740 34.820388 -1.144623 0.610587 0.055276 -0.019470 923499.000000 0 0 1
-9.268000 17.404113 27.532430 33.864933 -1.081474 0.621498 0.057584 -0.020087 596039.000000 0 0 1
-9.623900 16.095813 27.832180 33.560765 -1.031913 0.592930 0.066923 -0.025294 161207.000000 0 0 1
-10.157700 15.945213 29.131750 34.728772 -1.003588 0.575654 0.070725 -0.028499 -959930.000000 0 0 1
-10.563400 14.484013 29.492580 34.513539 -0.940666 0.546166 0.070281 -0.029682 -122603.000000 0 0 1
-9.549100 13.523213 29.707770 34.009032 -0.955970 0.508397 0.076633 -0.022362 -75994.400000 0 0 1
-8.909500 13.497713 30.965500 34.934649 -0.987371 0.481322 0.074439 -0.017483 -63319.600000 0 0 1
-9.720800 13.047313 32.232200 36.105970 -0.930476 0.467470 0.107380 -0.027692 -76914.400000 0 0 1
-10.049700 11.681013 32.183510 35.682221 -0.860327 0.446537 0.121139 -0.026060 167263.000000 0 0 1
-10.752600 11.305313 33.348370 36.817690 -0.810450 0.437602 0.131419 -0.023957 -233920.000000 0 0 1
-11.242400 9.825413 33.332753 36.524003 -0.718241 0.421134 0.120319 -0.026838 -114389.000000 0 0 1
-10.247300 8.810613 33.487730 36.111801 -0.710155 0.383569 0.136564 -0.025995 161106.000000 0 0 1
-10.009100 8.347813 -32.670908 35.174655 -0.695145 2.762011 0.156263 -0.036222 -462373.000000 0 0 1
-9.176300 9.176413 -31.723118 34.274878 -0.785404 2.753282 0.133247 -0.043199 -539295.000000 0 0 1
-9.823700 10.255413 -31.000678 34.098690 -0.806895 2.712025 0.117194 -0.034966 844392.000000 0 0 1
-8.845600 10.953913 -30.217768 33.336862 -0.891481 2.705566 0.117045 -0.036881 887693.000000 0 0 1
-7.778400 11.853413 -30.932848 34.027166 -0.990064 2.711827 0.098088 -0.035340 84145.300000 0 0 1
-8.348400 13.013013 -31.447918 35.042915 -1.000390 2.684664 0.091355 -0.033759 -138640.000000 0 0 1
-7.416900 14.027113 -31.735108 35.480803 -1.084411 2.677952 0.067156 -0.031432 -502673.000000 0 0 1
-8.054500 15.374913 -32.023188 36.424546 -1.088233 2.644904 0.069938 -0.027593 -32690.000000 0 0 1
-8.504500 15.570413 -33.356318 37.781057 -1.070878 2.652767 0.071557 -0.029483 30209.300000 0 0 1
-8.958200 16.876513 -33.564338 38.621637 -1.082807 2.624086 0.076030 -0.025220 -1060720.000000 0 0 1
-9.581000 17.057913 32.467577 37.906616 -1.059034 0.542318 0.096386 -0.029395 765697.000000 0 0 1
-10.760800 16.296013 32.190730 37.651003 -0.987191 0.545290 0.081510 -0.029216 1001220.000000 0 0 1
-11.915600 16.620113 32.967779 38.795414 -0.948792 0.555218 0.063636 -0.035700 -740760.000000 0 0 1
-13.255000 16.175813 32.398444 38.561784 -0.884318 0.573200 0.074757 -0.045596 -516977.000000 0 0 1
-13.455100 14.780713 32.226828 37.921995 -0.832312 0.555155 0.072608 -0.047397 697858.000000 0 0 1
-14.709500 14.246513 32.669905 38.557169 -0.769410 0.559895 0.067567 -0.035576 384314.000000 0 0 1
-14.741100 12.698113 32.667964 38.022862 -0.711080 0.537158 0.068249 -0.032061 -176701.000000 0 0 1
-14.763000 12.087513 31.370078 36.716971 -0.686082 0.546449 0.046386 -0.033584 264493.000000 0 0 1
-13.509200 11.798313 30.756710 35.604409 -0.717897 0.527942 0.061730 -0.024936 51126.600000 0 0 1
-13.591600 11.144113 29.363090 34.221542 -0.686774 0.539376 0.054228 -0.022635 -205131.000000 0 0 1
-14.220400 9.864513 29.296960 34.027052 -0.606477 0.533583 0.047825 -0.020758 164492.000000 0 0 1
-14.597400 9.528113 27.985650 32.970679 -0.578290 0.557077 0.046144 -0.015870 -45124.000000 0 0 1
-15.478000 8.289613 28.012310 33.060183 -0.491700 0.559892 0.052435 -0.014807 -76410.800000 0 0 1
-14.723900 7.131813 28.282760 32.673698 -0.451065 0.524424 0.046049 -0.017396 193832.000000 0 0 1
-15.475200 5.993313 27.923020 32.482252 -0.369497 0.536233 0.060646 -0.011598 5069.170000 0 0 1
-14.554600 4.803713 27.835090 31.775845 -0.318791 0.503327 0.068929 -0.009932 188345.000000 0 0 1
-13.535800 4.727513 26.827940 30.418837 -0.336015 0.490810 0.065084 -0.021491 142774.000000 0 0 1
-13.943200 4.564313 25.480440 29.402358 -0.316356 0.522424 0.071309 -0.015786 -499708.000000 0 0 1
-12.837600 4.380713 24.422940 27.936976 -0.328850 0.506978 0.054482 -0.009468 269236.000000 0 0 1
-12.021100 3.186813 24.523280 27.496435 -0.259141 0.469331 0.061929 -0.015228 515937.000000 0 0 1
-11.586100 2.644213 23.292630 26.149115 -0.224380 0.471778 0.060911 -0.019101 -474954.000000 0 0 1
-10.631500 1.480913 23.518740 25.852525 -0.138404 0.428170 0.052967 -0.018493 147699.000000 0 0 1
-9.302400 1.983413 23.642460 25.484005 -0.210070 0.382492 0.031985 -0.031061 615311.000000 0 0 1
-8.332700 1.054713 24.134230 25.554009 -0.125906 0.334909 0.033616 -0.021102 1250040.000000 0 0 1
-6.875400 1.641413 24.083900 25.099793 -0.234351 0.285483 0.054123 -0.032375 187515.000000 0 0 1
-6.269700 1.714013 22.753080 23.663255 -0.266860 0.278254 0.047245 -0.027795 147349.000000 0 1 0
-4.898800 1.991513 22.592850 23.203475 -0.386124 0.229923 0.047055 -0.026474 28861.100000 0 1 0
-4.340500 3.263413 23.282430 23.907350 -0.644685 0.229146 0.060958 -0.025868 -836293.000000 0 1 0
-4.300100 3.030213 24.673750 25.228298 -0.613863 0.210058 0.071838 -0.025609 -36775.800000 0 0 1
-3.858000 4.203013 25.395350 26.028317 -0.828172 0.220987 0.073953 -0.020656 221206.000000 0 0 1
4.019500 -23.949087 12.769062 27.436546 -1.404511 1.086706 0.151977 -0.035918 266768.000000 0 0 1
3.767200 -25.202887 13.386162 28.784833 -1.422420 1.087114 0.167661 -0.048777 -40044.400000 0 0 1
2.455300 -25.604827 13.030562 28.834549 -1.475197 1.101893 0.123530 -0.044190 278391.000000 0 0 1
1.901700 -26.798937 13.911962 30.254622 -1.499953 1.092993 0.110630 -0.029698 -99035.900000 0 0 1
1.748000 -26.325957 15.240262 30.469281 -1.504495 1.046985 0.157867 -0.046248 -21171.800000 0 0 1
1.456900 -27.428967 16.049262 31.812727 -1.517731 1.042003 0.164519 -0.051953 -61470.100000 0 0 1
1.148700 -26.989567 17.486162 32.179529 -1.528261 0.996322 0.154892 -0.058132 425570.000000 0 0 1
2.286000 -26.597527 18.261762 32.344183 -1.485059 0.970839 0.184880 -0.056621 263166.000000 0 0 1
2.094000 -26.876647 19.578462 33.317490 -1.493042 0.942666 0.183425 -0.055485 143688.000000 0 0 1
3.167500 -26.297757 20.516962 33.504489 -1.450926 0.911748 0.152638 -0.048358 -132728.000000 0 0 1
2.925600 -24.923887 20.832962 32.615511 -1.453950 0.877932 0.147372 -0.036636 120651.000000 0 0 1
4.008900 -24.200087 21.411762 32.560390 -1.406631 0.853166 0.115273 -0.036242 185526.000000 0 0 1
3.612900 -22.907087 22.199462 32.103018 -1.414365 0.807223 0.134307 -0.030667 142186.000000 0 0 1
2.839300 -21.883887 21.579462 30.864855 -1.441773 0.796575 0.137548 -0.031709 463221.000000 0 0 1
3.575900 -21.191387 20.591662 29.763711 -1.403628 0.806765 0.114161 -0.022807 579114.000000 0 0 1
2.615600 -20.203887 19.827462 28.428272 -1.442052 0.798955 0.080253 -0.022845 562241.000000 0 0 1
2.485000 -18.896987 20.441762 27.948827 -1.440044 0.750424 0.071345 -0.023200 -183837.000000 0 0 1
1.527400 -18.149387 19.766962 26.878727 -1.486837 0.744521 0.074643 -0.035955 -248040.000000 0 0 1
1.330500 -16.735987 20.443362 26.453630 -1.491464 0.687555 0.082859 -0.040684 288202.000000 0 0 1
2.408500 -15.846387 20.164062 25.758459 -1.419960 0.671622 0.042294 -0.024391 326437.000000 0 0 1
2.197700 -14.665287 20.966662 25.680760 -1.422046 0.615587 0.060565 -0.019918 80158.000000 0 0 1
3.190300 -13.578487 20.554062 24.839943 -1.340029 0.596227 0.008292 -0.002073 -591768.000000 0 1 0
3.185200 -13.027287 19.230262 23.444800 -1.330999 0.608973 -0.003334 -0.004750 -45307.400000 0 1 0
1.994000 -12.610787 18.552362 22.521059 -1.413976 0.602752 0.000834 -0.001740 494908.000000 0 1 0
1.256300 -11.393387 19.223262 22.381272 -1.460974 0.537680 -0.000746 -0.009102 -359030.000000 0 1 0
1.780700 -10.128087 18.990862 21.596339 -1.396757 0.496289 0.003641 -0.002862 -404261.000000 0 1 0
1.479700 -9.268987 20.065062 22.151982 -1.412492 0.437554 0.023267 -0.015772 616079.000000 0 1 0
0.005100 -8.758487 20.167662 21.987399 -1.570214 0.409708 0.038320 -0.024949 529392.000000 0 1 0
-0.247200 -8.008087 21.381662 22.833441 1.539937 0.358516 0.049311 -0.027714 -675036.000000 0 1 0
-1.513600 -7.448687 21.257462 22.575509 1.370322 0.343398 0.052345 -0.029356 -619952.000000 0 1 0
-2.079500 -6.749387 22.452162 23.536740 1.271923 0.304757 0.044261 -0.025592 -339363.000000 0 1 0
-2.237600 -7.677387 23.469262 24.794261 1.287199 0.328398 0.051346 -0.015836 -31134.400000 0 1 0
-2.437500 -7.141887 24.739162 25.864533 1.241896 0.296072 0.056186 -0.013118 -22273.000000 0 0 1
-2.808700 -8.245687 25.770162 27.202599 1.242496 0.325966 0.057124 -0.007733 269588.000000 0 0 1
-1.717500 -9.132287 25.942762 27.556766 1.384899 0.343951 0.076797 -0.004691 64304.600000 0 0 1
-2.033700 -10.180187 26.785062 28.726498 1.373622 0.369753 0.083831 -0.009223 14265.600000 0 0 1
-0.807400 -11.080387 27.120262 29.307601 1.498057 0.388796 0.115499 -0.017166 151026.000000 0 0 1
0.033300 -10.402687 28.026862 29.895183 -1.567595 0.355409 0.119077 -0.021737 -217403.000000 0 0 1
1.236400 -11.113687 28.231762 30.365689 -1.460002 0.377129 0.150959 -0.033376 157916.000000 0 0 1
2.297300 -10.370287 29.064062 30.944145 -1.352790 0.350379 0.188745 -0.048277 328158.000000 0 0 1
1.748600 -10.099387 30.347462 32.031604 -1.399357 0.325714 0.187198 -0.052787 -216278.000000 0 0 1
2.755600 -9.580087 31.144762 32.701186 -1.290719 0.309767 0.251234 -0.075131 -357500.000000 0 0 1
2.388700 -9.335887 32.651762 34.044122 -1.320308 0.286986 0.238725 -0.085310 -539258.000000 0 0 1
1.859300 -10.498587 33.217062 34.886251 -1.395514 0.310590 0.228407 -0.079829 -174619.000000 0 0 1
2.159400 -10.681087 -32.890197 34.648430 -1.371315 2.821655 0.193817 -0.080763 -138036.000000 0 0 1
3.618900 -11.084687 -32.542897 34.568871 -1.255229 2.797533 0.171095 -0.058629 381124.000000 0 0 1
4.627200 -10.081087 -32.742597 34.570464 -1.140485 2.814954 0.159108 -0.068394 245632.000000 0 0 1
4.916200 -9.230687 -31.614597 33.299510 -1.081416 2.822120 0.170411 -0.063104 -340614.000000 0 0 1
3.844000 -8.202787 -31.196897 32.485511 -1.132565 2.858989 0.160923 -0.050883 -325283.000000 0 0 1
3.708200 -7.263487 -32.240397 33.255859 -1.098763 2.893837 0.201366 -0.064273 -93057.300000 0 0 1
3.057100 -6.113487 -31.817097 32.543021 -1.107102 2.929980 0.171531 -0.036055 -118251.000000 0 0 1
3.190900 -4.983287 -32.821997 33.351139 -1.001256 2.963223 0.182720 -0.039140 -40879.600000 0 0 1
2.365800 -5.052687 33.513862 33.975073 -1.132889 0.164959 0.190494 -0.054950 -425373.000000 0 0 1
2.479600 -3.852987 32.752362 33.071304 -0.998967 0.138994 0.201545 -0.036673 -87263.400000 0 0 1
1.563000 -3.766787 31.554862 31.817306 -1.177475 0.128529 0.210838 -0.038522 417358.000000 0 0 1
0.206700 -3.462387 31.916162 32.104084 -1.511168 0.108252 0.187821 -0.041656 609337.000000 0 0 1
-0.568800 -3.573787 30.710762 30.923233 1.412961 0.117293 0.182455 -0.037256 400.653000 0 0 1
-2.097000 -3.602687 30.693262 30.975040 1.043668 0.134987 0.147433 -0.035373 -552257.000000 0 0 1
-2.689400 -2.366287 30.464462 30.674348 0.721574 0.117049 0.131038 -0.038110 68544.700000 0 0 1
-4.052700 -2.655887 30.163462 30.550164 0.580118 0.159278 0.091403 -0.030979 8086.840000 0 0 1
-4.801000 -1.525487 29.502762 29.929745 0.307655 0.169117 0.046308 -0.022478 -386121.000000 0 0 1
-4.472900 -1.412687 28.100162 28.488973 0.305918 0.165402 0.055090 -0.020814 -20860.100000 0 0 1
-5.386200 -0.633387 27.361662 27.893957 0.117057 0.195672 0.039261 -0.022155 34550.100000 0 0 1
-5.669900 0.858213 27.725862 28.312677 -0.150223 0.203952 0.070865 -0.028289 -113003.000000 0 0 1
-6.615000 1.010313 28.753962 29.522352 -0.151559 0.228653 0.061104 -0.029784 -301282.000000 0 0 1
-6.978400 2.411513 28.739762 29.673007 -0.332721 0.251465 0.072509 -0.031415 -217931.000000 0 0 1
-8.304300 2.728713 29.470662 30.739668 -0.317476 0.288339 0.062618 -0.036993 -349304.000000 0 0 1
-9.388600 2.191613 28.788662 30.360106 -0.229327 0.323150 0.054604 -0.029205 -1447250.000000 0 0 1
-10.580200 2.679313 29.267862 31.236630 -0.248024 0.356934 0.059833 -0.027611 198176.000000 0 0 1
-11.813000 2.335813 28.285162 30.741720 -0.195214 0.402485 0.062546 -0.012726 820790.000000 0 0 1
-12.258600 1.017013 28.439362 30.985559 -0.082774 0.408227 0.069356 -0.012803 50123.100000 0 0 1
-12.438500 0.466813 27.110862 29.831745 -0.037512 0.430416 0.070736 -0.010457 -913260.000000 0 0 1
-12.530300 -1.072787 27.099762 29.875682 0.085407 0.434491 0.074614 -0.015921 -669982.000000 0 0 1
-11.519600 -1.892887 27.649962 30.013407 0.162863 0.399505 0.076780 -0.021996 843870.000000 0 0 1
-10.192600 -1.646787 27.132262 29.030340 0.160183 0.363614 0.066806 -0.017067 346925.000000 0 0 1
-9.922600 -2.271387 25.732162 27.672393 0.225033 0.376694 0.063439 -0.014659 -767897.000000 0 0 1
-10.662900 -1.707787 24.663762 26.924248 0.158813 0.412696 0.054583 -0.018433 271582.000000 0 0 1
-10.621300 -2.529387 23.443262 25.861097 0.233788 0.435861 0.058125 -0.012243 -206273.000000 0 0 1
-9.467400 -2.229287 22.469162 24.483966 0.231257 0.408521 0.039672 -0.015484 -8771.200000 0 1 0
-8.205200 -2.612787 22.957362 24.519226 0.308279 0.358853 0.041826 -0.020503 -264772.000000 0 1 0
-7.201400 -2.019787 22.139562 23.368780 0.273446 0.325787 0.030520 -0.023703 690656.000000 0 1 0
-5.741700 -2.264887 22.647462 23.473482 0.375724 0.266075 0.032904 -0.021990 457276.000000 0 1 0
-5.190900 -3.559587 22.583062 23.443779 0.601088 0.271812 0.033636 -0.021391 -53639.800000 0 1 0
-5.682300 -4.490487 23.558362 24.646489 0.668773 0.298255 0.040419 -0.017351 -280233.000000 0 1 0
-5.559600 -5.965687 23.130762 24.526123 0.820618 0.338941 0.053084 -0.018891 -536681.000000 0 1 0
-6.342100 -6.495687 22.086862 23.879817 0.797361 0.389978 0.047437 -0.026155 -43165.600000 0 1 0
-5.986500 -5.898487 20.807962 22.441070 0.777993 0.383858 0.041797 -0.028604 -445201.000000 0 1 0
-7.147800 -5.955487 19.803362 21.879945 0.694655 0.439200 0.045278 -0.028505 111074.000000 0 1 0
-8.002500 -4.799687 20.005862 22.075133 0.540253 0.436440 0.039475 -0.027680 -371490.000000 0 1 0
-8.974400 -4.738687 19.017562 21.556035 0.485814 0.490201 0.045767 -0.025794 -419543.000000 0 1 0
-9.635400 -3.352787 18.995062 21.561412 0.334861 0.492878 0.041174 -0.032358 -216587.000000 0 1 0
-8.771100 -2.323287 18.659762 20.748893 0.258933 0.452599 0.033168 -0.025888 -178385.000000 0 1 0
-9.479600 -1.105587 18.693262 20.988644 0.116103 0.472052 0.030066 -0.017304 -454754.000000 0 1 0
-8.568900 0.013813 18.232862 20.146054 -0.001612 0.439337 0.021503 -0.016524 24254.100000 0 1 0
-7.459000 0.351113 19.086362 20.495101 -0.047038 0.372928 0.024877 -0.012062 759249.000000 0 1 0
-7.799900 1.040213 20.265462 21.739582 -0.132580 0.370374 0.041113 -0.009653 -450709.000000 0 1 0
-7.833100 2.556013 20.088862 21.712969 -0.315416 0.389231 0.036010 -0.015362 558404.000000 0 1 0
-8.902100 2.970913 19.225662 21.393919 -0.322109 0.454112 0.025561 -0.017508 600558.000000 0 1 0
-8.521900 4.215013 18.709262 20.986319 -0.459326 0.470155 0.016837 -0.019308 69253.500000 0 1 0
-9.400200 4.733813 17.563262 20.475373 -0.466513 0.539871 0.013745 -0.013283 -7036.080000 0 1 0
-10.711300 5.135313 17.902562 21.484997 -0.447056 0.585820 0.017947 -0.006890 175170.000000 0 1 0
-11.515200 5.639613 16.852962 21.176104 -0.455417 0.650389 0.016691 0.002040 75648.700000 0 1 0
-11.500800 7.164113 16.845662 21.618724 -0.557104 0.677382 0.019639 0.004426 -326732.000000 0 1 0
-10.198000 7.647913 16.582562 20.915811 -0.643464 0.655367 0.005389 -0.000592 181288.000000 0 1 0
-10.163800 9.057913 16.483162 21.378570 -0.727928 0.690366 -0.004846 -0.004316 417126.000000 0 1 0
-8.779400 9.654513 16.856662 21.317470 -0.832836 0.658773 0.001395 -0.000958 334765.000000 0 1 0
-8.803800 10.143013 18.192962 22.613524 -0.855964 0.635935 0.024209 0.019520 -207126.000000 0 1 0
-8.499200 11.541513 18.291362 23.238263 -0.936055 0.664666 0.060162 0.008306 14959.000000 0 1 0
-9.347500 12.660013 17.597162 23.607452 -0.934794 0.729651 0.071107 -0.004676 142471.000000 0 1 0
-9.033800 12.861613 16.241262 22.601089 -0.958472 0.769002 0.062836 -0.025806 -76568.900000 0 1 0
-9.697500 14.034013 15.768762 23.230344 -0.966136 0.824669 0.068816 -0.038837 -171586.000000 0 1 0
-9.191300 14.493513 14.424162 22.418706 -1.005633 0.871867 0.070381 -0.034001 -780270.000000 0 1 0
-7.940600 15.070213 14.466662 22.348350 -1.085856 0.866726 0.065691 -0.023968 -1046950.000000 0 1 0
-7.670600 15.518913 13.171862 21.752534 -1.111740 0.920362 0.053261 -0.034714 -58658.400000 0 1 0
-6.639500 16.652913 13.329162 22.339853 -1.191412 0.931471 0.029575 -0.025147 -235423.000000 0 1 0
-5.297400 16.289013 13.477762 21.795515 -1.256372 0.904125 0.024808 -0.027237 -411509.000000 0 1 0
-4.445200 17.427013 13.622462 22.561739 -1.321047 0.922554 0.016260 -0.026476 286297.000000 0 1 0
-2.943500 17.089013 13.579862 22.025240 -1.400225 0.906432 0.026076 -0.029180 -154966.000000 0 1 0
-2.389500 16.485313 14.745562 22.246502 -1.426852 0.846210 0.031913 -0.032367 -311146.000000 0 1 0
-2.631200 15.127613 14.989962 21.458491 -1.398586 0.797419 0.032754 -0.031549 -342651.000000 0 1 0
-1.566300 14.475313 15.907862 21.564973 -1.463011 0.741182 0.036635 -0.030341 -12796.000000 0 1 0
-0.293000 14.456313 15.313662 21.061317 -1.550531 0.756710 0.031597 -0.035719 38441.900000 0 1 0
0.696300 13.757913 16.113662 21.199413 1.520229 0.707330 0.039779 -0.030878 820838.000000 0 1 0
1.691600 14.691013 16.872762 22.436075 1.456156 0.719649 0.046322 -0.031486 -202426.000000 0 1 0
0.933200 15.469013 17.727562 23.546288 1.510542 0.718367 0.034294 -0.032316 -476590.000000 0 1 0
1.697800 16.385413 18.497362 24.769269 1.467548 0.727579 0.043954 -0.028982 -450435.000000 0 1 0
0.890300 17.538313 19.113162 25.955693 1.520077 0.743097 0.052980 -0.025288 136780.000000 0 0 1
0.357100 18.505113 18.219662 25.971577 1.551501 0.793264 0.034708 -0.026061 855032.000000 0 0 1
-0.713000 18.085913 17.315462 25.048629 -1.531394 0.807546 0.040308 -0.023097 299368.000000 0 0 1
-1.270300 19.234113 16.471862 25.355216 -1.504848 0.863680 0.032939 -0.020977 -566372.000000 0 0 1
-1.991200 20.190213 17.144862 26.562302 -1.472492 0.869173 0.030701 -0.016860 -341594.000000 0 0 1
-2.669400 20.942113 16.165362 26.589786 -1.444014 0.917315 0.028357 -0.017726 -429334.000000 0 0 1
-3.424500 22.165613 16.686962 27.955255 -1.417512 0.931144 0.031654 -0.008957 307457.000000 0 0 1
-4.587600 21.874113 17.479562 28.373544 -1.364065 0.907076 0.045610 -0.011858 495672.000000 0 0 1
-4.984200 22.992113 18.231362 29.763435 -1.357321 0.911523 0.050347 -0.014794 256900.000000 0 0 1
-6.142600 22.614913 19.205362 30.298709 -1.305578 0.884253 0.046105 -0.016347 60298.600000 0 0 1
-7.432500 22.533513 18.647962 30.178598 -1.252191 0.904702 0.033216 -0.020698 -484845.000000 0 0 1
-8.242400 21.956613 19.633162 30.585798 -1.211680 0.873817 0.016105 -0.016497 -304040.000000 0 0 1
-9.746500 22.012413 19.305862 30.858660 -1.153969 0.894868 0.027023 -0.019975 -112278.000000 0 0 1
-10.352600 23.248713 19.540862 32.086201 -1.151860 0.915983 0.037496 -0.020297 -1120350.000000 0 0 1
-11.424200 23.437613 18.728462 32.102793 -1.117255 0.947899 0.040750 -0.023565 -782730.000000 0 0 1
-12.073900 24.867113 18.866462 33.467832 -1.118786 0.971914 0.049628 -0.022787 252523.000000 0 0 1
-12.774000 25.097213 20.091362 34.593468 -1.099990 0.951104 0.051066 -0.024642 104044.000000 0 0 1
-13.484000 26.306913 20.068962 35.730032 -1.097147 0.974377 0.054404 -0.016918 -515010.000000 0 0 1
-14.298400 26.640413 21.325162 36.998897 -1.078207 0.956513 0.080044 -0.024046 701315.000000 0 0 1
-15.634000 26.089713 21.211262 37.081164 -1.030936 0.961827 0.081480 -0.030210 1373730.000000 0 0 1
-16.412200 26.458013 22.382662 38.345408 -1.015576 0.947504 0.071884 -0.021434 112686.000000 0 0 1
-17.880300 26.029913 22.417562 38.727362 -0.968907 0.953471 0.096185 -0.016570 -145061.000000 0 0 1
-17.968700 24.646713 22.550062 37.932044 -0.940838 0.934170 0.105760 -0.019200 -687895.000000 0 0 1
-19.308500 24.350613 22.752962 38.515812 -0.900377 0.938816 0.119522 -0.017580 -637935.000000 0 0 1
28.676400 23.554313 23.275980 43.805397 0.687644 1.010603 0.111665 -0.027711 11933.500000 0 0 1
28.595000 22.844713 24.494830 44.040341 0.674073 0.981001 0.129439 -0.044787 125907.000000 0 0 1
28.075800 21.564813 24.330800 42.956717 0.654980 0.968662 0.130002 -0.031800 -128307.000000 0 0 1
27.451500 20.893913 25.591000 42.953926 0.650581 0.932562 0.146928 -0.043641 345913.000000 0 0 1
26.150000 21.375013 25.887910 42.554642 0.685261 0.916822 0.144839 -0.037551 200101.000000 0 0 1
25.638700 20.838413 27.097130 42.729812 0.682480 0.883887 0.138671 -0.044613 -396473.000000 0 0 1
24.192300 21.234113 27.367020 42.250547 0.720370 0.866193 0.160912 -0.044821 -651585.000000 0 0 1
24.031500 22.608313 27.746860 43.110754 0.754893 0.871580 0.181234 -0.059741 224188.000000 0 0 1
23.096400 22.719713 28.819460 43.361162 0.777177 0.843788 0.207624 -0.044972 10494.500000 0 0 1
22.879000 24.170513 29.357700 44.379465 0.812841 0.847959 0.192856 -0.035644 -304958.000000 0 0 1
21.917400 24.923213 28.651740 43.845880 0.849481 0.858644 0.174929 -0.047661 -273523.000000 0 0 1
21.452800 26.032213 29.310470 44.687833 0.881540 0.855430 0.141226 -0.042023 -347858.000000 0 0 1
20.121100 25.782713 30.033380 44.402825 0.908115 0.827954 0.135825 -0.037491 -1859150.000000 0 0 1
19.071000 25.730013 29.105260 43.276469 0.932953 0.833157 0.142065 -0.039915 108914.000000 0 0 1
17.801900 26.000113 29.697780 43.299788 0.970423 0.815006 0.117490 -0.035032 619542.000000 0 0 1
17.143600 25.006613 30.673640 43.128945 0.969826 0.779582 0.076074 -0.032449 -1095290.000000 0 0 1
17.966600 24.822113 31.800071 44.160849 0.944266 0.766855 0.093149 -0.031042 -1325.300000 0 0 1
17.269400 24.139513 32.851868 44.274073 0.949810 0.734731 0.085809 -0.028257 99939.000000 0 0 1
17.992300 24.007013 -33.241198 44.777637 0.927641 2.407385 0.111789 -0.035934 -36934.600000 0 0 1
18.252200 25.271013 -32.673758 45.159068 0.945288 2.379693 0.103400 -0.042815 43594.300000 0 0 1
18.598700 25.160513 -31.338248 44.283731 0.934242 2.356991 0.081051 -0.023532 -16704.400000 0 0 1
18.852500 26.503613 -30.642438 44.685762 0.952515 2.326405 0.081371 -0.025019 806966.000000 0 0 1
17.593000 27.206713 -30.569948 44.544816 0.996785 2.327150 0.101083 -0.018884 1053160.000000 0 0 1
17.823700 28.494413 -30.127708 45.136401 1.011826 2.301618 0.102974 -0.018434 -43696.100000 0 0 1
17.469300 28.632613 -28.649918 44.111459 1.022970 2.277709 0.118197 -0.027085 87593.600000 0 0 1
18.264300 27.790713 -27.810018 43.350957 0.989370 2.267260 0.096465 -0.025909 225973.000000 0 0 1
17.890100 27.886513 -26.439668 42.388316 1.000397 2.244326 0.077119 -0.015039 -280143.000000 0 0 1
18.604000 26.977313 -25.445298 41.489124 0.967073 2.231029 0.067990 -0.012500 -1490010.000000 0 0 1
19.913600 27.328613 -25.336558 42.253352 0.941085 2.213840 0.073282 -0.010051 -1689640.000000 0 0 1
20.591300 26.594613 -24.322338 41.507243 0.911945 2.196883 0.073482 -0.012533 1365720.000000 0 0 1
22.168400 26.617813 -24.395138 42.368251 0.876349 2.184364 0.074817 -0.011326 1143340.000000 0 0 1
22.828600 26.211913 -23.243938 41.814950 0.854279 2.160213 0.072768 -0.010805 -186196.000000 0 0 1
24.192400 25.913613 -23.447038 42.503543 0.819736 2.155136 0.085363 -0.007557 68447.600000 0 0 1
24.978100 25.684313 -22.147738 42.120206 0.799337 2.124478 0.116290 -0.012932 37719.700000 0 0 1
24.586700 24.535713 -21.427238 40.812174 0.784360 2.123536 0.118648 -0.014992 186013.000000 0 0 1
25.352100 24.588713 -20.256538 40.714385 0.770114 2.091543 0.122404 -0.019420 -67224.900000 0 0 1
24.710600 23.720513 -19.206038 39.270197 0.764958 2.081824 0.117846 -0.021177 -293679.000000 0 0 1
24.923700 22.369213 -19.555638 38.781381 0.731436 2.099313 0.115686 -0.021099 364185.000000 0 0 1
24.789700 21.520013 -18.425038 37.644684 0.714910 2.082251 0.126230 -0.020820 -599397.000000 0 0 1
24.659600 19.980713 -18.785938 36.881381 0.680966 2.105238 0.126080 -0.025393 686313.000000 0 0 1
23.668100 19.463013 -19.707738 36.433265 0.688210 2.142335 0.122618 -0.025853 2382940.000000 0 0 1
22.274700 19.788013 -19.355038 35.529498 0.726348 2.146899 0.115530 -0.031053 1507560.000000 0 0 1
21.243900 19.677613 -20.498438 35.478130 0.747141 2.186798 0.087037 -0.019573 -50245.000000 0 0 1
21.313300 20.394913 -21.710438 36.627208 0.763382 2.205254 0.092679 -0.013982 -248772.000000 0 0 1
21.389200 21.831313 -21.545538 37.394041 0.795627 2.184838 0.093566 -0.015173 16018.000000 0 0 1
20.967500 22.604613 -22.830538 38.364542 0.822953 2.208180 0.083049 -0.012797 1304970.000000 0 0 1
19.537000 22.511113 -23.000538 37.649294 0.856012 2.228013 0.074697 -0.009827 789867.000000 0 0 1
19.105300 22.905313 -24.316338 38.483115 0.875606 2.254760 0.079961 -0.011034 -209565.000000 0 0 1
17.588500 22.889113 -24.577538 37.912033 0.915609 2.276117 0.068309 -0.013990 -40221.100000 0 0 1
17.001400 23.941113 -23.806338 37.801670 0.953301 2.252053 0.067907 -0.021065 519533.000000 0 0 1
15.584100 23.960013 -24.008538 37.327688 0.994125 2.269444 0.068700 -0.018025 739730.000000 0 0 1
14.825400 25.048913 -23.245038 37.250132 1.036385 2.244680 0.074361 -0.015878 -6618.500000 0 0 1
15.097600 26.359613 -23.739638 38.553043 1.050651 2.234154 0.071834 -0.013491 -78189.200000 0 0 1
14.066200 27.246513 -23.372438 38.555173 1.094228 2.222080 0.089549 -0.015792 121052.000000 0 0 1
14.268500 28.664213 -24.004038 40.017759 1.108926 2.214091 0.090285 -0.023639 74821.000000 0 0 1
13.915500 28.652313 -25.385888 40.731309 1.118680 2.243691 0.096931 -0.041160 -268096.000000 0 0 1
13.619200 29.913113 -25.962398 41.884640 1.143550 2.239354 0.125042 -0.049372 -87881.700000 0 0 1
14.578500 31.121013 -25.785408 42.964374 1.132709 2.214495 0.130294 -0.044715 -715308.000000 0 0 1
15.791000 30.930413 -26.406278 43.627258 1.098758 2.220902 0.103315 -0.035621 -1022440.000000 0 0 1
16.604500 32.079413 -26.380958 44.729779 1.093163 2.201589 0.097254 -0.040413 51406.800000 0 0 1
17.950600 32.023013 -27.120748 45.642441 1.059887 2.207067 0.090893 -0.013243 664513.000000 0 0 1
18.907800 31.171613 -26.452238 45.043260 1.025559 2.198469 0.049683 -0.007874 656280.000000 0 0 1
20.227600 31.236513 -26.985678 45.968493 0.996136 2.198203 0.059059 0.003009 577211.000000 0 0 1
21.222700 30.422013 -26.087208 45.348035 0.961676 2.183726 0.039529 0.007868 -604132.000000 0 0 1
21.483700 31.080913 -24.822738 45.207752 0.965988 2.152061 0.038985 0.005779 727104.000000 0 0 1
22.580900 32.022213 -24.742538 46.341260 0.956613 2.134027 0.029629 0.002929 1549940.000000 0 0 1
24.027700 31.476913 -25.085138 46.876333 0.918810 2.135463 0.015666 0.011406 486202.000000 0 0 1
24.271300 31.039513 -26.473368 47.469849 0.907160 2.162394 0.018406 0.014394 -784357.000000 0 0 1
25.415100 31.562013 -27.034868 48.713161 0.892866 2.159136 0.015237 0.033232 -1187670.000000 0 0 1
25.555200 31.191313 -28.523448 49.391835 0.884394 2.186451 0.013701 0.026467 627681.000000 0 0 1
24.541800 31.802213 -29.362908 49.758025 0.913551 2.201996 0.031302 0.015414 1369160.000000 0 0 1
23.324200 31.023413 -29.420168 48.703355 0.926128 2.219393 0.028235 0.006889 112977.000000 0 0 1
22.306100 31.536013 -30.412638 49.163104 0.955173 2.237765 0.035369 0.006258 -1133540.000000 0 0 1
21.787900 32.788113 -29.994538 49.491871 0.984291 2.221881 0.061925 -0.000859 -236999.000000 0 0 1
20.840900 33.348013 -30.840258 49.975540 1.012232 2.235857 0.070502 -0.010535 322691.000000 0 0 1
19.359200 32.849513 -30.664898 48.930615 1.038259 2.248110 0.079620 -0.019455 246956.000000 0 0 1
19.076900 31.484113 -31.169478 48.236022 1.026034 2.273374 0.100952 -0.028637 46033.500000 0 0 1
19.385900 31.116813 -32.502118 48.994458 1.013634 2.296128 0.115999 -0.033790 -515161.000000 0 0 1
18.742100 31.982013 -33.630668 50.051347 1.040720 2.307599 0.135056 -0.038773 -721606.000000 0 0 1
19.050300 33.343713 -33.624058 51.042085 1.051724 2.289955 0.115452 -0.026104 -117119.000000 0 0 1
18.453700 -33.581631 32.820182 50.452248 -1.068324 0.862528 0.106212 -0.023291 -165740.000000 0 0 1
16.927700 -33.417831 32.826417 49.808354 -1.101925 0.851235 0.120719 -0.026325 -762344.000000 0 0 1
16.140100 33.099413 32.473089 49.097612 1.117098 0.848114 0.135481 -0.031570 184151.000000 0 0 1
14.754400 33.352413 32.622452 48.931587 1.154298 0.841030 0.124033 -0.037918 290222.000000 0 0 1
14.089400 -33.727931 31.362444 48.163134 -1.175094 0.861670 0.099278 -0.037241 -642576.000000 0 0 1
14.642700 -32.484531 30.971710 47.211230 -1.147311 0.855257 0.108168 -0.025646 523479.000000 0 0 1
13.959900 -32.151331 29.745650 45.971629 -1.161165 0.867096 0.089507 -0.022340 448045.000000 0 0 1
14.422400 -30.738531 29.157500 44.755142 -1.132094 0.861250 0.090318 -0.015249 158419.000000 0 0 1
14.153700 -29.695831 30.158120 44.628263 -1.126025 0.828797 0.085682 -0.020388 510446.000000 0 0 1
14.578800 -28.417131 29.721430 43.628410 -1.096780 0.821341 0.093679 -0.026696 -325113.000000 0 0 1
14.075000 -27.411531 30.777530 43.551740 -1.096431 0.785989 0.105445 -0.023508 583088.000000 0 0 1
12.661700 -27.191931 30.801820 42.993859 -1.135011 0.772134 0.085587 -0.023833 431921.000000 0 0 1
12.241700 -26.171431 29.882860 41.566674 -1.133280 0.768558 0.082939 -0.021836 -302712.000000 0 0 1
12.718500 -24.705631 30.177670 41.022192 -1.095378 0.744182 0.095795 -0.018045 -136329.000000 0 0 1
12.080300 -24.199031 31.341672 41.398396 -1.107784 0.711973 0.099928 -0.021299 142859.000000 0 0 1
12.484500 -22.904131 31.643388 41.009340 -1.071741 0.689421 0.099289 -0.020056 -160404.000000 0 0 1
11.686300 -22.306331 32.810994 41.360650 -1.088212 0.654602 0.088153 -0.021163 -612401.000000 0 0 1
11.757000 -22.865431 -33.295548 42.067191 -1.095867 2.484031 0.092853 -0.020118 121036.000000 0 0 1
13.020300 -23.064431 -32.680028 42.065193 -1.056875 2.460508 0.090454 -0.020377 185388.000000 0 0 1
13.687200 -21.748131 -32.244808 41.231642 -1.009075 2.468729 0.087238 -0.022627 -322904.000000 0 0 1
14.066400 -20.892631 -33.331238 41.777232 -0.978236 2.494488 0.074269 -0.022483 -93224.900000 0 0 1
14.979400 -19.939831 -32.896458 41.281428 -0.926508 2.492914 0.063912 -0.025017 -344310.000000 0 0 1
15.018900 -18.758831 33.587540 41.298716 -0.895671 0.621024 0.049486 -0.024206 -474906.000000 0 0 1
15.856800 -19.010831 32.485884 40.843390 -0.875610 0.651167 0.068285 -0.012991 209364.000000 0 0 1
15.754000 -18.040731 31.481117 39.556507 -0.852961 0.650383 0.051200 -0.010532 -283456.000000 0 0 1
16.507000 -16.715131 31.655633 39.420246 -0.791663 0.638434 0.060321 -0.012097 -965566.000000 0 0 1
16.099800 -15.817431 32.619607 39.666528 -0.776552 0.605275 0.056799 -0.015158 295603.000000 0 0 1
16.768400 -14.572831 32.403972 39.288218 -0.715459 0.600991 0.079923 -0.028001 1359780.000000 0 0 1
18.283800 -14.396831 32.864933 40.269963 -0.667016 0.616140 0.084893 -0.018785 1070810.000000 0 0 1
19.149800 -15.278131 32.216159 40.472423 -0.673411 0.650134 0.090791 -0.018234 -372537.000000 0 0 1
20.504500 -15.032131 32.557037 41.308113 -0.632606 0.662997 0.097317 -0.016488 288300.000000 0 0 1
21.448200 -15.850331 31.640770 41.381114 -0.636427 0.700347 0.112737 -0.020563 -245479.000000 0 0 1
21.458100 -15.327131 30.316610 40.180441 -0.620247 0.715887 0.091348 -0.005485 526381.000000 0 0 1
22.386200 -16.030031 29.487640 40.343832 -0.621428 0.751144 0.080654 -0.009322 -22415.200000 0 0 1
22.671100 -15.323331 28.119480 39.236315 -0.594366 0.771781 0.063717 -0.002979 -226892.000000 0 0 1
23.566800 -14.241431 28.237460 39.440672 -0.543576 0.772816 0.047158 -0.008657 208364.000000 0 0 1
23.607000 -13.469731 27.053700 38.348752 -0.518508 0.787717 0.041407 -0.009029 298817.000000 0 0 1
24.450700 -12.153031 27.168070 38.518008 -0.461279 0.787902 0.024683 -0.012677 490886.000000 0 0 1
23.728200 -11.243631 27.993200 38.380542 -0.442510 0.753412 0.040052 -0.017319 785429.000000 0 0 1
24.587300 -10.213531 28.539270 39.030008 -0.393710 0.750697 0.039614 -0.018299 457104.000000 0 0 1
23.903200 -8.843631 28.543720 38.266392 -0.354360 0.728879 0.054328 -0.023279 247693.000000 0 0 1
22.841500 -8.722831 29.456780 38.282160 -0.364793 0.692793 0.065792 -0.027382 -346553.000000 0 0 1
21.970700 -7.664431 29.173200 37.316629 -0.335648 0.673289 0.082770 -0.032157 938017.000000 0 0 1
20.697400 -7.529131 30.122080 37.315009 -0.348891 0.631339 0.076605 -0.026318 593182.000000 0 0 1
20.895500 -7.086531 31.488327 38.449390 -0.326969 0.611208 0.083726 -0.030510 229647.000000 0 0 1
21.332700 -8.182431 32.368303 39.619986 -0.366257 0.614661 0.092707 -0.036007 -138744.000000 0 0 1
21.265700 -7.661431 -33.651648 40.538389 -0.345796 2.550116 0.119181 -0.057108 358415.000000 0 0 1
19.925000 -7.633631 -33.175798 39.445045 -0.365869 2.570043 0.110428 -0.067929 363167.000000 0 0 1
19.885500 -7.063931 -31.871148 38.224368 -0.341327 2.556736 0.119693 -0.072999 212574.000000 0 0 1
18.457900 -6.908331 -31.275248 36.967016 -0.358135 2.579293 0.121700 -0.067667 334483.000000 0 0 1
18.439500 -5.988731 -30.206468 35.893046 -0.314030 2.570977 0.124388 -0.066028 -229480.000000 0 0 1
17.190600 -5.945231 -29.588608 34.732524 -0.332966 2.590397 0.116978 -0.058954 -368901.000000 0 0 1
17.189100 -4.807831 -28.563938 33.682027 -0.272733 2.583085 0.110626 -0.054392 12872.800000 0 0 1
18.032700 -4.887231 -27.408938 33.170969 -0.264663 2.543290 0.115419 -0.054521 64274.100000 0 0 1
17.774100 -5.822831 -26.372638 32.331719 -0.316584 2.524716 0.125321 -0.057554 -712984.000000 0 0 1
16.390800 -5.805931 -25.716288 31.043432 -0.340428 2.547036 0.141966 -0.052787 -145045.000000 0 0 1
16.043800 -4.580331 -25.092938 30.133677 -0.278092 2.554800 0.141224 -0.044843 -201324.000000 0 0 1
14.679800 -4.563931 -24.725638 29.114999 -0.301425 2.585342 0.102894 -0.038894 60542.000000 0 0 1
14.249100 -3.475931 -23.724838 27.892416 -0.239267 2.587891 0.110658 -0.036145 28952.000000 0 0 1
14.272900 -2.256031 -24.405938 28.362919 -0.156767 2.607022 0.088462 -0.035677 94764.300000 0 0 1
14.124600 -1.188031 -23.508138 27.450834 -0.083913 2.598999 0.093501 -0.033022 49089.700000 0 0 1
14.619800 0.149969 -24.090238 28.179791 0.010258 2.596109 0.081526 -0.031364 221542.000000 0 0 1
13.745300 0.670969 -25.115038 28.638237 0.048776 2.640328 0.071564 -0.028672 494929.000000 0 0 1
14.314500 1.815969 -25.728748 29.498663 0.126188 2.630479 0.074984 -0.013572 -349032.000000 0 0 1
13.546400 2.324969 -26.937118 30.241011 0.169974 2.669784 0.064196 -0.014838 -473331.000000 0 0 1
12.543600 3.225969 -26.533548 29.525886 0.251725 2.687487 0.070903 -0.029044 4862.290000 0 0 1
11.761400 3.591969 -27.664068 30.274303 0.296406 2.723292 0.081272 -0.029579 -326981.000000 0 0 1
10.620400 4.541969 -27.315298 29.657173 0.404125 2.741526 0.080895 -0.028240 -533328.000000 0 0 1
11.062600 5.787969 -26.836098 29.598275 0.482036 2.706137 0.069269 -0.032052 -334003.000000 0 0 1
10.033300 6.714969 -26.766578 29.363372 0.589802 2.717867 0.068941 -0.036958 -445618.000000 0 0 1
8.841300 5.167013 -31.139578 32.780176 0.528883 2.823877 0.099776 -0.044646 -132991.000000 0 0 1
8.803400 4.325713 -30.004938 31.567514 0.456719 2.825639 0.083291 -0.024263 554261.000000 0 0 1
8.373400 2.967713 -30.372678 31.645232 0.340608 2.857038 0.071772 -0.016606 -127231.000000 0 0 1
8.203900 1.957213 -29.242038 30.434051 0.234193 2.860789 0.078693 -0.018310 233467.000000 0 0 1
9.431200 1.472313 -28.690158 30.236409 0.154861 2.820405 0.093776 -0.028081 417157.000000 0 0 1
9.246400 0.359313 -27.910888 29.404807 0.038840 2.821463 0.099180 -0.027963 37799.700000 0 0 1
10.469500 -0.324487 -27.245618 29.189715 -0.030984 2.774565 0.096004 -0.031298 267141.000000 0 0 1
11.288100 -1.113487 -28.116818 30.318584 -0.098324 2.758142 0.090514 -0.029196 819968.000000 0 0 1
12.489200 -1.493087 -27.418678 30.166096 -0.118986 2.711492 0.091627 -0.032190 614016.000000 0 0 1
13.024300 -2.892387 -27.861868 30.891455 -0.218530 2.695009 0.081413 -0.033244 173620.000000 0 0 1
12.101800 -3.950987 -27.573898 30.370771 -0.315569 2.709065 0.088490 -0.025120 340760.000000 0 0 1
12.631600 -5.277487 -27.755288 30.947782 -0.395757 2.683376 0.098936 -0.035330 -9256.320000 0 0 1
11.824600 -6.322687 -26.949468 30.101019 -0.491026 2.679902 0.085733 -0.048552 130698.000000 0 0 1
12.130400 -6.325087 -25.559968 28.990780 -0.480640 2.650162 0.116462 -0.038324 -77042.400000 0 0 1
11.457800 -7.296687 -24.802638 28.278856 -0.567062 2.640532 0.128834 -0.039769 -85676.000000 0 0 1
11.388700 -6.895287 -23.327138 26.858943 -0.544417 2.622975 0.138808 -0.043465 206708.000000 0 0 1
12.693600 -6.955287 -22.766838 26.978369 -0.501258 2.575294 0.131096 -0.044004 83267.900000 0 0 1
12.720600 -6.655287 -21.365338 25.740711 -0.482027 2.549942 0.152488 -0.051427 364049.000000 0 0 1
14.127500 -6.673187 -20.705438 25.939022 -0.441288 2.495156 0.159251 -0.045415 667778.000000 0 0 1
14.860900 -5.456587 -20.823538 26.157990 -0.351895 2.491567 0.141264 -0.041196 332854.000000 0 0 1
16.054600 -5.512287 -20.043738 26.265699 -0.330735 2.438915 0.155547 -0.035325 397909.000000 0 0 1
16.630900 -4.160487 -19.563238 26.011858 -0.245135 2.422023 0.156899 -0.028874 -702520.000000 0 0 1
17.423800 -3.446287 -20.392638 27.043028 -0.195272 2.425050 0.142508 -0.029399 -522949.000000 0 0 1
17.737200 -2.167287 -19.880738 26.731052 -0.121586 2.409432 0.151861 -0.017585 -165846.000000 0 0 1
18.705100 -1.354687 -20.767338 27.982106 -0.072297 2.407091 0.100495 -0.017503 -160175.000000 0 0 1
19.985600 -1.907187 -20.850538 28.944887 -0.095140 2.375108 0.144420 -0.029618 -380366.000000 0 0 1
20.838600 -1.141787 -21.697138 30.105095 -0.054737 2.375627 0.136811 -0.021344 682744.000000 0 0 1
22.223900 -1.849187 -21.895838 31.252983 -0.083016 2.347034 0.086075 -0.024914 -874562.000000 0 0 1
22.980100 -1.734787 -20.728538 30.996238 -0.075348 2.303314 0.072222 -0.018495 1699470.000000 0 0 1
24.368600 -2.216887 -20.886638 32.171337 -0.090723 2.277370 0.059934 -0.023810 2245120.000000 0 0 1
25.284000 -1.414487 -21.873238 33.462217 -0.055886 2.283220 0.070489 -0.030808 -1595560.000000 0 0 1
25.076000 -1.564687 -23.282938 34.254185 -0.062317 2.318165 0.082732 -0.033845 -159548.000000 0 0 1
25.935500 -0.793787 -24.058138 35.384661 -0.030597 2.318427 0.084638 -0.031432 184898.000000 0 0 1
27.333100 -1.408087 -24.368938 36.645958 -0.051470 2.298267 0.094437 -0.040564 -1038600.000000 0 0 1
28.157200 -1.543187 -23.239938 36.541812 -0.054751 2.260077 0.070064 -0.029157 111902.000000 0 0 1
29.339300 -2.292287 -23.480438 37.648108 -0.077972 2.244240 0.062351 -0.030627 680309.000000 0 0 1
30.429700 -1.707887 -24.431538 39.061280 -0.056067 2.246526 0.070152 -0.033715 -965616.000000 0 0 1
30.054900 -1.657487 -25.788978 39.637301 -0.055093 2.279202 0.093469 -0.036967 -191959.000000 0 0 1
30.838300 -0.730087 -26.458808 40.639910 -0.023670 2.279770 0.087991 -0.037767 -769414.000000 0 0 1
30.308300 -0.336687 -27.869948 41.175726 -0.011108 2.314277 0.097761 -0.046234 153120.000000 0 0 1
28.988000 0.160013 -28.014208 40.312847 0.005520 2.339105 0.100194 -0.039979 308433.000000 0 0 1
28.604000 1.402813 -27.388328 39.626723 0.049003 2.333887 0.086738 -0.035238 -772757.000000 0 0 1
27.177800 1.786313 -27.802188 38.920244 0.065633 2.366473 0.096281 -0.034041 188673.000000 0 0 1
26.089800 1.234713 -27.057788 37.607527 0.047290 2.373847 0.102183 -0.034650 452035.000000 0 0 1
24.863300 1.604013 -27.661528 37.227902 0.064424 2.408386 0.091240 -0.031830 -567044.000000 0 0 1
23.681000 1.295413 -26.769238 35.763948 0.054648 2.416590 0.093871 -0.029688 -650692.000000 0 0 1
23.647800 2.096013 -25.587248 34.904426 0.088404 2.393615 0.108509 -0.034171 604774.000000 0 0 1
22.523400 1.755113 -24.780338 33.532807 0.077767 2.402363 0.105939 -0.025407 200960.000000 0 0 1
22.556800 2.305913 -23.335438 32.537196 0.101873 2.370562 0.095386 -0.021945 -187966.000000 0 0 1
22.287400 3.721213 -23.142238 32.344069 0.165439 2.368138 0.117623 -0.033592 402882.000000 0 0 1
22.511600 4.082613 -21.753538 31.569864 0.179406 2.330988 0.110250 -0.029947 -274603.000000 0 0 1
22.030200 5.458413 -21.224238 31.073981 0.242878 2.322690 0.118704 -0.018772 -68933.000000 0 0 1
22.844000 6.535413 -21.673938 32.160839 0.278646 2.310303 0.123220 -0.021520 280809.000000 0 0 1
22.614800 7.789013 -21.026838 31.846912 0.331696 2.291944 0.126839 -0.024187 -422155.000000 0 0 1
23.053500 7.962113 -19.544738 31.254694 0.332549 2.246361 0.112790 -0.031372 -721168.000000 0 0 1
24.420000 8.176913 -19.356638 32.216110 0.323110 2.215344 0.111024 -0.036351 -268738.000000 0 0 1
24.783900 8.472613 -18.018138 31.791196 0.329404 2.173370 0.118010 -0.041333 -128383.000000 0 0 1
24.428400 9.831113 -17.396638 31.560110 0.382613 2.154625 0.111714 -0.038348 -852090.000000 0 0 1
23.081100 10.041213 -17.131038 30.447259 0.410344 2.168380 0.117085 -0.042588 -900366.000000 0 0 1
22.763000 11.417213 -16.942038 30.586591 0.464902 2.157842 0.079683 -0.036338 -34216.000000 0 0 1
21.265200 11.630413 -16.535238 29.340916 0.500477 2.169480 0.080237 -0.031729 419428.000000 0 0 1
20.452000 11.380513 -17.642538 29.309717 0.507782 2.216718 0.073860 -0.033028 -149178.000000 0 0 1
20.024700 10.037313 -17.758338 28.584871 0.464644 2.241133 0.077715 -0.029185 -611679.000000 0 0 1
19.128600 9.835313 -19.009838 28.705586 0.474918 2.294594 0.092473 -0.010329 611305.000000 0 0 1
19.928200 9.931013 -20.205138 30.066689 0.462318 2.307717 0.101357 -0.015840 603477.000000 0 0 1
19.091700 9.750613 -21.299838 30.220036 0.472191 2.352973 0.087693 -0.018980 49643.200000 0 0 1
19.887100 9.947013 -22.617938 31.717676 0.463787 2.364709 0.103905 -0.014373 104834.000000 0 0 1
20.036100 11.323113 -22.934638 32.490857 0.514389 2.354461 0.101737 -0.016957 175569.000000 0 0 1
21.038600 11.514713 -23.902238 33.860424 0.500778 2.354496 0.113322 -0.016862 -101931.000000 0 0 1
21.080000 13.014913 -24.292838 34.697210 0.553120 2.346387 0.145534 -0.014404 345924.000000 0 0 1
21.958200 13.308713 -25.417148 36.129155 0.544888 2.351118 0.151110 -0.012832 356743.000000 0 0 1
22.017100 14.716813 -25.618378 36.846147 0.589220 2.339605 0.156048 -0.011783 -24995.700000 0 0 1
20.872100 15.389113 -26.407568 37.011201 0.635327 2.365280 0.121625 -0.015138 743430.000000 0 0 1
19.601100 15.311313 -25.742558 35.795513 0.663138 2.373383 0.090425 -0.018758 8200.510000 0 0 1
18.585800 15.824513 -26.577358 36.086052 0.705324 2.398677 0.084766 -0.022135 45222.400000 0 0 1
17.184900 15.337713 -26.163568 34.858263 0.728662 2.419721 0.067645 -0.023810 -179986.000000 0 0 1
17.040900 13.944813 -26.359408 34.346302 0.685809 2.445666 0.086277 -0.015706 -121698.000000 0 0 1
15.715300 13.493813 -26.229488 33.422144 0.709490 2.473160 0.050638 -0.019201 -262867.000000 0 0 1
15.567700 11.954513 -26.264538 32.788559 0.654862 2.499806 0.040319 -0.016754 1223550.000000 0 0 1
14.174400 11.554713 -26.167658 31.924463 0.683930 2.531638 0.046301 -0.023970 1235470.000000 0 0 1
14.099700 10.186513 -25.876228 31.179252 0.625643 2.549757 0.056932 -0.024787 -365370.000000 0 0 1
12.696800 9.588313 -25.725708 30.248249 0.646805 2.587705 0.077368 -0.038361 -203011.000000 0 0 1
11.995600 10.013113 -24.576438 29.123155 0.695563 2.575270 0.101385 -0.045815 21491.700000 0 0 1
10.909700 9.170013 -24.239238 28.118524 0.698975 2.610073 0.115348 -0.044925 -18670.900000 0 0 1
10.046800 9.796313 -23.131538 27.055018 0.772775 2.596311 0.121694 -0.043984 -257161.000000 0 0 1
9.459400 11.007913 -23.536938 27.652158 0.860912 2.589024 0.126663 -0.048109 -409997.000000 0 0 1
8.931300 11.780613 -22.515938 26.935450 0.922109 2.560607 0.136759 -0.042407 -622491.000000 0 0 1
9.844700 12.649813 -21.691538 26.971443 0.909460 2.505193 0.122780 -0.043489 -403617.000000 0 0 1
10.422500 11.856113 -20.612638 25.962989 0.849659 2.488032 0.147009 -0.044664 418973.000000 0 0 1
11.278800 12.683813 -19.788238 26.070382 0.843965 2.432620 0.175022 -0.049520 333059.000000 0 0 1
12.294800 11.810813 -18.992038 25.521656 0.765323 2.410064 0.171051 -0.048218 1128690.000000 0 0 1
13.433500 11.208413 -19.687238 26.337707 0.695346 2.415076 0.135081 -0.040098 1050400.000000 0 0 1
13.081500 10.204513 -20.585638 26.439104 0.662471 2.463237 0.127615 -0.045826 -604815.000000 0 0 1
14.230100 9.441413 -21.319038 27.315516 0.585795 2.466219 0.129292 -0.039110 -44004.000000 0 0 1
14.832400 8.538613 -20.435638 26.655643 0.522340 2.444409 0.146421 -0.047987 -41899.800000 0 0 1
15.488400 7.522713 -21.147838 27.271098 0.452142 2.458251 0.102135 -0.039766 -402918.000000 0 0 1
16.094000 6.506613 -20.165638 26.608379 0.384198 2.430835 0.157987 -0.047547 391972.000000 0 0 1
17.072300 7.071213 -19.252838 26.685900 0.392681 2.376706 0.129637 -0.025331 639594.000000 0 0 1
17.337400 6.056313 -18.320738 25.940582 0.336070 2.354995 0.133870 -0.040198 -481334.000000 0 0 1
18.493800 6.293513 -17.350438 26.127890 0.328011 2.297030 0.164153 -0.025980 109189.000000 0 0 1
19.777700 5.965913 -17.866038 27.311991 0.292968 2.283850 0.135566 -0.037054 1329010.000000 0 0 1
20.818500 6.149713 -16.871938 27.493476 0.287228 2.231497 0.122508 -0.054461 1931040.000000 0 0 1
22.164400 5.307313 -16.987338 28.425303 0.235027 2.211317 0.130682 -0.052398 806017.000000 0 0 1
23.198600 5.608113 -16.080538 28.778632 0.237193 2.163694 0.117975 -0.057147 326952.000000 0 0 1
23.814200 4.458613 -15.597938 28.814771 0.185082 2.142800 0.178940 -0.066352 468987.000000 0 0 1
25.114200 3.944213 -16.346838 30.224145 0.155779 2.142248 0.068848 -0.016816 365915.000000 0 0 1
25.682000 2.824813 -15.699438 30.232715 0.109552 2.116812 0.087201 -0.028388 465328.000000 0 0 1
26.832000 2.390113 -16.427638 31.552118 0.088842 2.118409 0.061089 -0.027370 400767.000000 0 0 1
27.570000 1.202113 -15.738638 31.768769 0.043575 2.089106 0.076753 -0.037846 -374220.000000 0 0 1
26.927600 -0.040787 -15.864338 31.253392 -0.001515 2.103198 0.092252 -0.037020 -195090.000000 0 0 1
27.820200 -1.121087 -15.698138 31.963290 -0.040276 2.084183 0.099700 -0.027696 -185944.000000 0 0 1
27.234300 -2.543287 -16.081238 31.729822 -0.093115 2.102286 0.080808 -0.025406 -193627.000000 0 0 1
26.452100 -3.016387 -15.041338 30.578653 -0.113542 2.085056 0.086909 -0.024418 -39737.000000 0 0 1
26.076100 -4.374787 -15.285338 30.540846 -0.166222 2.094959 0.081362 -0.026606 -927599.000000 0 0 1
25.365600 -5.089587 -14.106538 29.467134 -0.198020 2.069994 0.100681 -0.032260 -64680.300000 0 0 1
24.159500 -4.596587 -13.615038 28.110128 -0.188013 2.076412 0.146192 -0.019135 -248002.000000 0 0 1
23.065600 -4.677287 -14.520438 27.653970 -0.200069 2.123601 0.155523 -0.031224 97297.800000 0 0 1
21.752300 -4.197487 -13.762338 26.080326 -0.190624 2.126676 0.174437 -0.034234 213294.000000 0 0 1
20.971500 -5.153087 -13.118538 25.267650 -0.240945 2.116691 0.181045 -0.034406 127286.000000 0 0 1
21.581200 -5.835587 -12.050738 25.397294 -0.264086 2.065180 0.207100 -0.022972 -501723.000000 0 0 1
21.029900 -7.268487 -12.040938 25.299640 -0.332773 2.066821 0.167636 -0.008886 869829.000000 0 0 1
19.666200 -7.395087 -11.597538 23.998950 -0.359674 2.075162 0.163857 -0.000777 965098.000000 0 1 0
19.254600 -8.629387 -12.003338 24.275215 -0.421333 2.088020 0.152247 -0.018089 -633823.000000 0 1 0
17.930700 -9.094587 -11.389438 23.107159 -0.469397 2.086212 0.156544 -0.029305 503136.000000 0 1 0
16.838100 -8.277887 -11.854338 22.193926 -0.456918 2.134269 0.140129 -0.017067 295299.000000 0 1 0
15.547500 -8.818987 -11.853338 21.447632 -0.515974 2.156354 0.130637 -0.021394 85540.200000 0 1 0
14.511300 -7.817787 -12.419038 20.638026 -0.494156 2.216493 0.102440 -0.015270 -303042.000000 0 1 0
14.675000 -7.607887 -13.766638 21.511762 -0.478279 2.265241 0.107649 -0.007699 369249.000000 0 1 0
15.569000 -6.557287 -14.157338 22.041370 -0.398627 2.268302 0.104604 -0.002528 76071.600000 0 1 0
15.041500 -5.516487 -15.151438 22.050951 -0.351519 2.328301 0.089077 -0.007920 -62833.600000 0 1 0
14.225400 -4.508187 -14.564838 20.852344 -0.306898 2.344060 0.106558 -0.013555 152984.000000 0 1 0
13.773300 -3.439887 -15.386838 20.935410 -0.244744 2.396415 0.089053 -0.020038 241408.000000 0 1 0
14.812600 -2.286887 -15.669638 21.683647 -0.153179 2.378422 0.125243 -0.022251 -586045.000000 0 1 0
15.805700 -2.610087 -16.601338 23.070265 -0.163659 2.374021 0.122244 -0.019179 -363786.000000 0 1 0
16.955000 -1.834287 -16.424038 23.676690 -0.107766 2.337382 0.134871 -0.030140 580882.000000 0 1 0
17.984200 -2.316587 -15.302138 23.726640 -0.128107 2.271734 0.165514 -0.035706 69505.400000 0 1 0
17.507000 -2.158187 -13.970438 22.501688 -0.122657 2.240638 0.146124 -0.026548 267677.000000 0 1 0
18.483900 -2.679087 -13.081838 22.802775 -0.143939 2.181806 0.146308 -0.021532 -72847.900000 0 1 0
18.067300 -2.672387 -11.613838 21.643711 -0.146848 2.137189 0.146247 -0.014561 -295052.000000 0 1 0
18.059200 -1.427087 -10.913338 21.148811 -0.078859 2.113001 0.148905 -0.017754 515878.000000 0 1 0
17.613600 -1.701287 -9.602338 20.133012 -0.096291 2.067972 0.128604 -0.013655 -871418.000000 0 1 0
17.566400 -0.495887 -8.637538 19.581404 -0.028222 2.027631 0.116150 -0.015407 279179.000000 0 1 0
18.831200 0.000813 -8.186138 20.533557 0.000043 1.980864 0.134186 -0.013073 1140220.000000 0 1 0
19.739100 0.590213 -9.088338 21.738866 0.029892 2.002115 0.153739 -0.008929 -244858.000000 0 1 0
19.260700 1.951313 -9.657538 21.634468 0.100966 2.033530 0.153513 -0.015134 -612911.000000 0 1 0
19.356600 3.057213 -8.818738 21.489408 0.156648 1.993663 0.135013 -0.009344 577985.000000 0 1 0
18.779200 4.190313 -9.492138 21.455017 0.219539 2.029092 0.127933 -0.023957 -122218.000000 0 1 0
18.743700 5.466213 -8.652638 21.355887 0.283760 1.987955 0.107641 -0.017729 -482967.000000 0 1 0
18.312100 6.462213 -9.565738 21.647091 0.339250 2.028506 0.106834 -0.016641 596345.000000 0 1 0
18.563700 7.794413 -9.123738 22.104444 0.397521 1.996274 0.114595 -0.009396 -489399.000000 0 1 0
-27.376250 -28.900727 5.492462 40.185547 0.812480 1.433690 0.135642 -0.020207 89495.900000 0 0 1
-27.766320 -27.712847 6.062562 39.695404 0.784434 1.417469 0.119022 -0.015654 702243.000000 0 0 1
-26.666690 -26.735407 6.037662 38.240655 0.786685 1.412247 0.136796 -0.019519 579428.000000 0 0 1
-26.972250 -25.630697 7.065162 37.872832 0.759900 1.383147 0.112208 -0.015872 398427.000000 0 0 1
-28.177950 -24.900387 6.754262 38.205316 0.723727 1.393074 0.100250 -0.018255 260519.000000 0 0 1
-29.351670 -25.530197 7.183662 39.559025 0.715879 1.388190 0.099401 -0.012448 -824888.000000 0 0 1
-29.681180 -25.442557 8.733262 40.057035 0.708656 1.351010 0.090896 -0.009286 -212106.000000 0 0 1
-28.935120 -26.352087 9.571262 40.289983 0.738712 1.330944 0.091636 -0.010703 259599.000000 0 0 1
-29.308840 -26.251757 10.914862 40.832549 0.730431 1.300198 0.062813 -0.017423 -113901.000000 0 0 1
-28.406960 -27.235607 11.724462 41.063325 0.764350 1.281246 0.056554 -0.021077 1529790.000000 0 0 1
-27.059940 -26.796547 12.023762 39.935775 0.780508 1.264974 0.059002 -0.015196 956485.000000 0 0 1
-27.026760 -26.016877 13.232362 39.779631 0.766362 1.231693 0.044586 -0.015323 -257137.000000 0 0 1
-25.608880 -25.496337 13.621262 38.618865 0.783196 1.210331 0.077409 -0.020646 380844.000000 0 0 1
-24.850700 -26.589397 14.120462 39.037684 0.819186 1.200691 0.080279 -0.028217 -351525.000000 0 0 1
-23.643300 -26.141547 14.687162 38.185060 0.835537 1.175988 0.099230 -0.033671 46332.700000 0 0 1
-22.763900 -27.286607 15.280962 38.681544 0.875516 1.164679 0.092022 -0.034571 -251354.000000 0 0 1
-23.400200 -27.907297 16.374862 39.931475 0.873018 1.148261 0.092433 -0.022434 441131.000000 0 0 1
-22.663600 -29.040277 16.859462 40.511948 0.908109 1.141578 0.086129 -0.017626 -109903.000000 0 0 1
-23.500700 -29.951357 17.749962 42.005093 0.905499 1.134521 0.088160 -0.021455 685689.000000 0 0 1
-24.616400 -30.578827 17.051262 42.799268 0.893005 1.161024 0.073342 -0.025366 991888.000000 0 0 1
-25.217470 -31.604377 17.779062 44.168456 0.897331 1.156519 0.077573 -0.019675 -69389.700000 0 0 1
-26.250330 -32.397447 16.941562 45.007676 0.889831 1.184873 0.069846 -0.029580 174436.000000 0 0 1
-25.609840 -33.295457 16.011562 44.953548 0.915139 1.206620 0.070978 -0.029107 304405.000000 0 0 1
-26.501080 33.479753 15.387862 45.387084 -0.901226 1.224904 0.076078 -0.032723 -845051.000000 0 0 1
-25.882780 32.718181 14.182162 44.062812 -0.901517 1.243100 0.087126 -0.039990 -154678.000000 0 0 1
-24.720400 31.979318 14.440162 42.921943 -0.912729 1.227675 0.067058 -0.030947 527184.000000 0 0 1
-23.539000 32.794180 14.454662 42.877500 -0.948237 1.226945 0.058472 -0.029707 -234061.000000 0 0 1
-22.204100 32.020911 14.407262 41.544313 -0.964497 1.216647 0.064538 -0.034247 -12085.000000 0 0 1
-21.967300 31.465518 13.166762 40.570983 -0.961321 1.240275 0.056082 -0.024654 125361.000000 0 0 1
-20.936100 30.484678 13.184362 39.261473 -0.969002 1.228332 0.064318 -0.023736 195246.000000 0 0 1
-20.886900 29.754798 11.826662 38.229315 -0.958751 1.256275 0.066534 -0.024373 210645.000000 0 0 1
-20.223300 30.552398 10.829162 38.206042 -0.986086 1.283416 0.053400 -0.016993 155959.000000 0 0 1
-20.693200 30.231928 9.498362 37.847019 -0.970561 1.317117 0.071489 -0.021542 296355.000000 0 0 1
-19.864300 30.919588 8.369362 37.691611 -0.999747 1.346882 0.065217 -0.019145 -192953.000000 0 0 1
-18.582200 30.366608 8.292162 36.553919 -1.021652 1.341957 0.071476 -0.024485 -730574.000000 0 0 1
-17.896500 30.864868 7.157862 36.389006 -1.045337 1.372801 0.088961 -0.030396 36439.300000 0 0 1
-17.368100 29.780828 6.217462 35.031492 -1.042823 1.392369 0.104414 -0.034859 57360.700000 0 0 1
-18.424000 28.984178 5.683862 34.811386 -1.004570 1.406786 0.099325 -0.023636 215902.000000 0 0 1
-18.842500 27.914088 6.488262 34.297721 -0.977035 1.380475 0.075655 -0.020994 147908.000000 0 0 1
-20.057300 27.128248 5.925662 34.254205 -0.934145 1.396931 0.079860 -0.012973 182327.000000 0 0 1
-19.676500 26.228828 4.872462 33.149011 -0.927176 1.423275 0.094001 -0.023539 443051.000000 0 0 1
-20.732400 25.386298 4.412962 33.072205 -0.885969 1.436963 0.107341 -0.023874 -203597.000000 0 0 1
-20.356900 24.617528 3.106462 32.094800 -0.879851 1.473854 0.120517 -0.033820 -908216.000000 0 0 1
-20.085400 25.471928 1.972162 32.498182 -0.903088 1.510074 0.115026 -0.031849 -280854.000000 0 0 1
-18.957500 26.285338 1.842562 32.460758 -0.945971 1.514003 0.114556 -0.029753 -280652.000000 0 0 1
-17.573900 25.573818 1.935162 31.090304 -0.968724 1.508513 0.119716 -0.037967 -451328.000000 0 0 1
-17.313900 24.445348 1.099162 29.975896 -0.954542 1.534120 0.158609 -0.045799 122476.000000 0 0 1
-17.024000 24.768978 -0.261238 30.056398 -0.968637 1.579488 0.129925 -0.042850 -175965.000000 0 0 1
-16.526700 23.519168 -1.045038 28.764130 -0.958267 1.607136 0.123704 -0.048050 -19680.900000 0 0 1
-17.558700 22.592758 -1.284438 28.642459 -0.910124 1.615655 0.132410 -0.058556 161704.000000 0 0 1
-17.103100 21.387258 -1.913338 27.451625 -0.896247 1.640551 0.124508 -0.050717 -231459.000000 0 0 1
-16.153400 20.441858 -1.156638 26.079488 -0.902052 1.615161 0.121694 -0.055021 98575.200000 0 0 1
-16.702800 19.536258 -0.159838 25.703588 -0.863427 1.577015 0.137500 -0.055344 -473749.000000 0 0 1
-15.751200 18.658658 0.294862 24.419926 -0.869693 1.558721 0.156999 -0.060034 -523659.000000 0 1 0
-16.371200 17.672258 1.270062 24.123390 -0.823597 1.518123 0.131493 -0.051064 -32396.700000 0 1 0
-16.796000 16.551158 0.539762 23.586814 -0.778056 1.547910 0.108177 -0.053464 -571.246000 0 1 0
-17.314700 15.547658 1.355562 23.310214 -0.731679 1.512610 0.126924 -0.071767 -293481.000000 0 1 0
-17.886700 14.355058 0.605662 22.942723 -0.676297 1.544394 0.114904 -0.065826 -672261.000000 0 1 0
-19.080100 14.690858 -0.037138 24.080550 -0.656152 1.572339 0.164587 -0.070801 -496496.000000 0 1 0
-19.687200 13.490558 -0.424938 23.869679 -0.600755 1.588600 0.179597 -0.060008 498428.000000 0 1 0
-20.988100 13.763858 -1.316338 25.133183 -0.580437 1.623195 0.184808 -0.048476 1371760.000000 0 0 1
-21.912300 12.682258 -1.599938 25.368255 -0.524666 1.633907 0.194569 -0.054513 1178210.000000 0 0 1
-22.647300 12.292758 -0.426438 25.771961 -0.497292 1.587344 0.192521 -0.057287 127433.000000 0 0 1
-24.093500 12.887158 -0.285938 27.325032 -0.491162 1.581261 0.211837 -0.063462 498376.000000 0 0 1
-24.035800 14.282258 -0.017338 27.958950 -0.536150 1.571416 0.222034 -0.067883 1031090.000000 0 0 1
-25.384480 14.760658 0.113662 29.364294 -0.526693 1.566926 0.213676 -0.060246 811260.000000 0 0 1
-25.384630 16.222958 0.543162 30.130696 -0.568664 1.552768 0.203244 -0.062837 1642.750000 0 0 1
-25.005720 16.407758 1.909362 29.969088 -0.580694 1.507042 0.187720 -0.057922 48379.200000 0 0 1
-24.902000 17.737858 2.375262 30.665666 -0.618938 1.493262 0.158145 -0.053571 859882.000000 0 0 1
-26.264450 18.459258 2.681262 32.214200 -0.612618 1.487468 0.166097 -0.049573 266718.000000 0 0 1
-27.125380 17.971458 3.689062 32.747041 -0.585135 1.457903 0.167924 -0.058348 982017.000000 0 0 1
-28.425140 18.566658 3.842762 34.168351 -0.578606 1.458092 0.148850 -0.055031 1515900.000000 0 0 1
-29.438830 18.349958 2.636662 34.789620 -0.557394 1.494935 0.140482 -0.050449 686900.000000 0 0 1
-30.760810 18.860358 2.920562 36.200417 -0.550018 1.490031 0.128003 -0.047864 1154490.000000 0 0 1
-31.445830 19.100358 1.679662 36.830492 -0.545847 1.525175 0.122579 -0.043682 -227214.000000 0 0 1
-32.797830 19.798558 1.761062 38.350774 -0.543102 1.524860 0.137255 -0.050543 -799731.000000 0 0 1
-33.856740 18.996758 2.202262 38.884517 -0.511319 1.514130 0.167729 -0.043710 -265378.000000 0 0 1
-35.017027 19.738158 2.518862 40.275697 -0.513280 1.508215 0.167740 -0.046639 76359.900000 0 0 1
-35.175318 20.287558 3.928662 40.796108 -0.523153 1.474347 0.155634 -0.051513 -726553.000000 0 0 1
-34.288061 21.329758 4.209862 40.599909 -0.556493 1.466918 0.145874 -0.049790 68242.800000 0 0 1
-34.286361 21.626158 5.569762 40.917814 -0.562724 1.434252 0.162648 -0.046371 23861.100000 0 0 1
-33.188330 22.643658 5.957062 40.616340 -0.598733 1.423599 0.137829 -0.040190 -304410.000000 0 0 1
-33.549190 23.931848 5.595062 41.588294 -0.619620 1.435853 0.118861 -0.037845 729802.000000 0 0 1
-32.466150 24.874688 5.693762 41.294309 -0.653772 1.432473 0.104282 -0.038674 386497.000000 0 0 1
-32.941770 26.310538 5.513262 42.518239 -0.673947 1.440762 0.098801 -0.035478 -194396.000000 0 0 1
-33.786680 26.739918 6.551062 43.583017 -0.669496 1.419912 0.114427 -0.031196 -122225.000000 0 0 1
-34.401113 27.944728 6.208862 44.753708 -0.682208 1.431613 0.097720 -0.024941 -515577.000000 0 0 1
-35.348757 28.424138 7.301462 45.943200 -0.677239 1.411196 0.099579 -0.019165 -813114.000000 0 0 1
-34.743864 28.854018 8.551362 45.965381 -0.693051 1.383667 0.104034 -0.025175 547310.000000 0 0 1
-35.704182 29.350848 9.480762 47.182049 -0.688046 1.368479 0.117384 -0.021142 948542.000000 0 0 1
-36.960950 28.528448 9.983362 47.745698 -0.657341 1.360147 0.107924 -0.018508 379475.000000 0 0 1
-36.662990 27.266608 10.483662 46.878032 -0.639463 1.345252 0.133964 -0.028214 -1041790.000000 0 0 1
-37.670000 26.590298 11.104462 47.427649 -0.614658 1.334468 0.123405 -0.033049 -1068440.000000 0 0 1
-37.152850 25.364578 11.917762 46.537395 -0.599027 1.311821 0.152958 -0.034408 114928.000000 0 0 1
-36.115500 25.699408 12.820162 46.142664 -0.618462 1.289254 0.170871 -0.045175 -80591.400000 0 0 1
-35.725029 24.515628 13.431662 45.361914 -0.601425 1.270189 0.174830 -0.042769 -273827.000000 0 0 1
-34.493936 24.609018 14.341662 44.733865 -0.619683 1.244434 0.185880 -0.045331 -180818.000000 0 0 1
-34.651403 25.591188 15.371962 45.737576 -0.636121 1.228034 0.184096 -0.045394 -227490.000000 0 0 1
-33.435800 25.882928 16.023362 45.217550 -0.658753 1.208565 0.200187 -0.041766 -176273.000000 0 0 1
-33.535130 27.094398 16.969562 46.332250 -0.679564 1.195812 0.203647 -0.047515 -27489.600000 0 0 1
-33.603660 28.355228 16.282662 46.886565 -0.700892 1.216130 0.209697 -0.043881 89760.600000 0 0 1
-33.601030 29.437338 17.211962 47.873142 -0.719444 1.203029 0.185211 -0.043480 -12401.800000 0 0 1
-33.382510 30.821848 16.494762 48.336895 -0.745536 1.222554 0.142253 -0.036335 252650.000000 0 0 1
-32.126830 31.000248 15.860962 47.378462 -0.767554 1.229434 0.140392 -0.034990 -24438.400000 0 0 1
-32.034260 32.196479 15.104962 47.864046 -0.787924 1.249728 0.105866 -0.020203 809348.000000 0 0 1
-30.564520 32.556477 14.599662 46.981530 -0.816945 1.254811 0.131693 -0.030121 1573180.000000 0 0 1
-29.936750 31.677718 13.639862 45.669822 -0.813646 1.267505 0.130612 -0.031397 382914.000000 0 0 1
-29.547060 30.353898 14.055162 44.631104 -0.798867 1.250426 0.146144 -0.033491 -43555.200000 0 0 1
-30.595910 29.266528 13.687362 44.497003 -0.763195 1.258125 0.183139 -0.035414 191936.000000 0 0 1
-30.799400 29.060608 12.304762 44.096816 -0.756359 1.288002 0.194106 -0.043668 324450.000000 0 0 1
-31.822510 28.075288 12.051062 44.114873 -0.722919 1.294105 0.185857 -0.041342 639786.000000 0 0 1
-32.150420 28.003968 10.619662 43.939151 -0.716577 1.326689 0.165515 -0.026206 -765274.000000 0 0 1
-31.101060 27.388978 9.993262 42.629770 -0.722018 1.334175 0.143598 -0.016217 -708506.000000 0 0 1
-31.019710 27.711198 8.633662 42.481443 -0.729124 1.366137 0.133461 -0.020424 253103.000000 0 0 1
-29.899720 26.882388 7.962562 40.988516 -0.732309 1.375290 0.132719 -0.023671 265730.000000 0 0 1
-29.671420 27.277778 6.599762 40.841489 -0.743392 1.408490 0.126526 -0.035175 -160769.000000 0 0 1
-28.662380 26.509188 5.971862 39.495977 -0.746391 1.419012 0.105281 -0.019568 86384.000000 0 0 1
-28.412200 27.051568 4.540962 39.492541 -0.760871 1.455559 0.091694 -0.018597 -19388.400000 0 0 1
-27.742210 28.308718 4.461362 39.886307 -0.795505 1.458710 0.095765 -0.026713 289711.000000 0 0 1
-27.444020 28.617138 3.101462 39.771018 -0.806321 1.492734 0.101453 -0.029695 -411742.000000 0 0 1
-26.241420 29.524408 2.861162 39.604154 -0.844201 1.498489 0.106611 -0.032474 534501.000000 0 0 1
-24.920800 29.029148 3.156362 38.388805 -0.861403 1.488483 0.102066 -0.026033 1186910.000000 0 0 1
-23.944300 30.018658 2.849562 38.504147 -0.897492 1.496722 0.102874 -0.025783 731239.000000 0 0 1
-22.455700 29.667008 3.072162 37.334006 -0.922878 1.488415 0.079471 -0.025047 786819.000000 0 0 1
-21.438900 30.434858 2.442262 37.307796 -0.957111 1.505287 0.085730 -0.029097 700746.000000 0 0 1
-20.132500 29.944708 2.774662 36.189803 -0.978888 1.494051 0.096738 -0.034260 1170290.000000 0 0 1
-18.930400 30.738948 2.188562 36.166736 -1.018808 1.510246 0.083428 -0.032651 346621.000000 0 0 1
-18.712100 31.953151 2.848062 37.138363 -1.041025 1.494033 0.100177 -0.032759 -650208.000000 0 0 1
-17.528900 32.547875 2.442762 37.048530 -1.076781 1.504814 0.092644 -0.026990 -717396.000000 0 0 1
-17.098400 33.747138 3.309962 37.976051 -1.101833 1.483526 0.105372 -0.038859 -162232.000000 0 0 1
-17.992700 -32.818447 3.400262 37.581239 1.069298 1.480195 0.114459 -0.042520 -76767.300000 0 0 1
-17.595500 -31.836527 4.330562 36.632224 1.065896 1.452302 0.104723 -0.048893 -241605.000000 0 0 1
-18.701500 -30.848017 4.705062 36.379718 1.025797 1.441101 0.136648 -0.042858 -143336.000000 0 0 1
-18.911700 -29.916527 3.675462 35.583142 1.007073 1.467320 0.148861 -0.038992 178703.000000 0 0 1
-19.738800 -28.867977 4.167762 35.218611 0.971052 1.452179 0.176672 -0.044822 185182.000000 0 0 1
-20.226200 -27.847837 3.123462 34.559473 0.942629 1.480294 0.150022 -0.053282 592624.000000 0 0 1
-19.170300 -26.903857 2.887962 33.161095 0.951698 1.483597 0.154661 -0.053587 503127.000000 0 0 1
-19.609000 -25.864077 2.019362 32.519858 0.922096 1.508660 0.127687 -0.050033 -199486.000000 0 0 1
-18.576500 -24.758387 1.910762 31.011532 0.927096 1.509143 0.131010 -0.040375 376980.000000 0 0 1
-17.417900 -25.215147 1.204162 30.669804 0.966291 1.531524 0.154304 -0.043057 45248.500000 0 0 1
-16.424600 -24.203187 1.151162 29.272631 0.974569 1.531461 0.136069 -0.037196 152111.000000 0 0 1
-15.167000 -24.584187 0.338162 28.888311 1.018013 1.559090 0.133181 -0.037600 -358767.000000 0 0 1
-15.168500 -24.648087 -1.069638 28.961279 1.019128 1.607738 0.115186 -0.034294 -62137.300000 0 0 1
-15.458300 -23.465887 -1.788638 28.156813 0.988290 1.634363 0.116015 -0.039885 -160089.000000 0 0 1
-15.616600 -23.687887 -3.289538 28.562480 0.987935 1.686222 0.064284 -0.028548 -253957.000000 0 0 1
-14.462500 -24.106687 -3.957238 28.389364 1.030423 1.710643 0.100059 -0.030310 -513567.000000 0 0 1
-14.678100 -24.050987 -5.353938 28.680329 1.022844 1.758574 0.075560 -0.032330 -51840.800000 0 0 1
-13.480200 -24.493587 -6.215438 28.640588 1.067680 1.789552 0.095395 -0.036214 55357.000000 0 0 1
-13.092600 -25.862437 -6.118438 29.626291 1.102169 1.778814 0.079812 -0.040165 -45318.400000 0 0 1
-12.101900 -26.273787 -7.039538 29.771177 1.139156 1.809512 0.092942 -0.038112 22982.400000 0 0 1
24.752000 12.394213 27.364780 38.924404 0.464236 0.791156 0.106548 -0.028884 -8855.980000 0 0 1
25.584300 11.356113 27.891060 39.514921 0.417745 0.787193 0.099007 -0.034669 241336.000000 0 0 1
25.072400 10.575713 28.983440 39.755638 0.399163 0.753878 0.093210 -0.033299 -184069.000000 0 0 1
24.892200 11.236813 30.387790 40.857134 0.424033 0.732123 0.112101 -0.045456 84079.700000 0 0 1
23.919200 12.266713 30.297300 40.503417 0.473866 0.725725 0.109603 -0.038673 164652.000000 0 0 1
24.057800 13.112713 31.415741 41.685367 0.499035 0.717214 0.108308 -0.038552 -580063.000000 0 0 1
22.796500 13.952713 31.657139 41.431064 0.549236 0.701164 0.103417 -0.036624 -1079390.000000 0 0 1
21.855500 13.107613 32.230334 41.088525 0.540228 0.669049 0.120601 -0.021236 -504763.000000 0 0 1
21.000700 13.845313 33.079598 41.556972 0.582870 0.650129 0.116230 -0.021431 -264596.000000 0 0 1
19.853200 13.133013 -33.653818 41.221415 0.584421 2.525973 0.102728 -0.012124 -161093.000000 0 0 1
18.797700 12.739613 32.953758 40.020013 0.595617 0.603363 0.089499 -0.007209 -107622.000000 0 0 1
17.695500 12.472313 -33.668758 40.028422 0.613960 2.570149 0.063984 -0.002333 629722.000000 0 0 1
16.306900 12.230113 33.098784 38.871843 0.643499 0.551986 0.054824 0.002445 762112.000000 0 0 1
16.347900 11.115413 32.244204 37.821884 0.597128 0.549994 0.045762 0.009443 -454766.000000 0 0 1
15.122600 10.751513 31.652410 36.690096 0.618042 0.530219 0.082997 -0.006010 -17571.900000 0 0 1
15.204800 9.629713 30.675310 35.565320 0.564570 0.530595 0.096239 -0.004445 -13835.800000 0 0 1
15.371400 8.351413 31.269230 35.830027 0.497691 0.510070 0.064069 -0.008467 -58691.700000 0 0 1
15.903200 7.489113 30.301690 35.031286 0.440113 0.525667 0.065652 -0.021703 -2799.010000 0 0 1
16.223400 6.101113 30.822340 35.361546 0.359707 0.512269 0.087869 -0.031244 1010190.000000 0 0 1
15.059100 5.236213 31.020630 34.877986 0.334634 0.474756 0.094769 -0.023507 950220.000000 0 0 1
15.482900 3.927713 31.356747 35.190805 0.248440 0.471144 0.088818 -0.027506 407120.000000 0 0 1
14.330400 2.943913 31.707625 34.919915 0.202613 0.432287 0.075141 -0.032466 431605.000000 0 0 1
14.916800 1.661613 31.928300 35.280139 0.110935 0.439432 0.068666 -0.039032 122376.000000 0 0 1
13.964800 0.824413 32.492647 35.376085 0.058967 0.406547 0.072225 -0.036541 -385956.000000 0 0 1
14.676200 -0.446487 32.873600 36.003664 -0.030413 0.420064 0.056523 -0.038618 -73135.900000 0 0 1
14.974700 -1.376687 31.819528 35.194023 -0.091676 0.441487 0.048805 -0.040524 -166883.000000 0 0 1
15.494600 -2.511087 32.404812 36.006389 -0.160665 0.451087 0.083601 -0.049715 -600145.000000 0 0 1
15.880300 -3.620187 31.418957 35.389837 -0.224137 0.478262 0.090825 -0.050439 -871010.000000 0 0 1
16.273800 -4.841987 32.050433 36.269983 -0.289192 0.487167 0.105834 -0.050517 503990.000000 0 0 1
17.490900 -4.976887 32.814587 37.516638 -0.277215 0.506047 0.081564 -0.044690 219175.000000 0 0 1
18.782000 -4.717087 32.047075 37.443684 -0.246060 0.543558 0.100279 -0.047832 -1169040.000000 0 0 1
18.986000 -3.341887 31.828988 37.211838 -0.174234 0.544578 0.104389 -0.057055 421083.000000 0 0 1
20.087900 -3.117687 30.934150 37.015745 -0.153974 0.581386 0.113827 -0.061373 461855.000000 0 0 1
20.135800 -1.574187 30.546210 36.619660 -0.078020 0.584210 0.107338 -0.056408 20130.700000 0 0 1
20.486000 -0.790787 31.644282 37.704935 -0.038582 0.574874 0.102806 -0.054047 280851.000000 0 0 1
19.976400 0.556613 31.449214 37.261501 0.027856 0.566073 0.090523 -0.042958 -164693.000000 0 0 1
20.998200 1.609313 31.025060 37.497582 0.076491 0.596355 0.096245 -0.038138 -430083.000000 0 0 1
21.457200 1.384313 29.711000 36.675214 0.064426 0.626455 0.104523 -0.041001 762849.000000 0 0 1
22.567400 2.229613 29.319200 37.065809 0.098478 0.658348 0.083859 -0.036661 630798.000000 0 0 1
22.259200 3.778613 29.137850 36.861419 0.168152 0.659220 0.059480 -0.016080 -267100.000000 0 0 1
21.941100 4.417413 30.384560 37.737871 0.198675 0.634872 0.054805 -0.024269 -24417.800000 0 0 1
21.329700 5.622813 30.199800 37.397862 0.257750 0.630848 0.058120 -0.020088 -422457.000000 0 0 1
20.804300 6.227413 31.505861 38.265113 0.290845 0.603495 0.068531 -0.019408 -218905.000000 0 0 1
19.685900 5.510613 31.960870 37.939409 0.272941 0.569040 0.067683 -0.009564 -161995.000000 0 0 1
19.325400 5.979413 33.245075 38.916057 0.300065 0.546639 0.055724 -0.012393 312959.000000 0 0 1
18.213100 5.061713 -33.596098 38.549134 0.271075 2.629077 0.062041 -0.011740 251338.000000 0 0 1
18.599500 3.710513 -33.515338 38.509573 0.196910 2.626632 0.056765 -0.012053 378797.000000 0 0 1
17.493000 2.970213 -33.001038 37.468597 0.168190 2.648272 0.055275 -0.015808 256030.000000 0 0 1
17.506500 1.485013 -33.187148 37.550894 0.084624 2.654700 0.067900 -0.032649 145347.000000 0 0 1
18.670200 0.834613 -32.659708 37.628838 0.044673 2.621843 0.049814 -0.030558 578087.000000 0 0 1
18.713400 -0.570187 -32.843218 37.804675 -0.030460 2.623491 0.066405 -0.034388 118986.000000 0 0 1
19.620300 -1.307487 -31.783518 37.374560 -0.066541 2.587551 0.080699 -0.038165 82497.400000 0 0 1
19.187700 -1.355787 -30.408588 35.981776 -0.070542 2.577569 0.090240 -0.044662 390739.000000 0 0 1
19.334000 -0.093487 -29.773718 35.500515 -0.004835 2.565659 0.078129 -0.034378 -338228.000000 0 0 1
18.868900 -0.049287 -28.326318 34.035542 -0.002612 2.553963 0.092482 -0.035795 -110284.000000 0 0 1
17.475600 -0.261787 -28.184078 33.163344 -0.014979 2.586509 0.107138 -0.039217 295957.000000 0 0 1
17.015800 -0.603587 -26.903438 31.838605 -0.035457 2.577351 0.101443 -0.027608 -65472.300000 0 0 1
17.720100 -1.807487 -26.170748 31.657179 -0.101651 2.544000 0.121215 -0.031476 41966.100000 0 0 1
19.034300 -1.515087 -25.701838 32.018503 -0.079430 2.502636 0.124459 -0.030050 477329.000000 0 0 1
19.883500 -2.647987 -25.545948 32.480161 -0.132396 2.475933 0.109962 -0.030363 -2823.690000 0 0 1
20.748000 -3.009787 -26.717608 33.961285 -0.144059 2.476254 0.136381 -0.054800 -804578.000000 0 0 1
21.872800 -2.192787 -26.903868 34.742565 -0.099918 2.456527 0.132064 -0.046717 -621052.000000 0 0 1
22.398100 -2.508087 -28.151228 36.061850 -0.111513 2.466481 0.137301 -0.053637 464424.000000 0 0 1
23.772900 -1.823487 -28.476718 37.140266 -0.076555 2.444535 0.115175 -0.053855 1102320.000000 0 0 1
24.920200 -2.481987 -27.938638 37.519916 -0.099270 2.410784 0.105554 -0.057842 -373166.000000 0 0 1
26.090800 -1.908687 -28.404108 38.615622 -0.073025 2.397289 0.073014 -0.053732 -962297.000000 0 0 1
27.360800 -2.589187 -27.937438 39.189510 -0.094350 2.364393 0.083402 -0.044948 -818645.000000 0 0 1
27.627600 -3.803987 -28.605708 39.950483 -0.136828 2.368894 0.110102 -0.055979 -214377.000000 0 0 1
28.973300 -4.177687 -28.515718 40.866262 -0.143204 2.343092 0.098793 -0.049820 -289790.000000 0 0 1
29.155500 -5.458187 -27.691088 40.578705 -0.185067 2.321843 0.086831 -0.033240 -111696.000000 0 0 1
28.913400 -5.265887 -26.313718 39.447763 -0.180152 2.301041 0.066970 -0.022238 254031.000000 0 0 1
28.921300 -6.470687 -25.682478 39.216082 -0.220109 2.284842 0.044592 -0.014071 -240347.000000 0 0 1
28.990000 -6.336187 -24.137538 38.251642 -0.215181 2.253663 0.027598 -0.007235 581233.000000 0 0 1
30.266300 -5.875287 -23.638838 38.850516 -0.191735 2.224910 0.024454 -0.003443 861228.000000 0 0 1
30.276700 -5.578287 -22.266038 37.994372 -0.182200 2.196953 0.033167 -0.014636 -530399.000000 0 0 1
31.624700 -5.233487 -21.636538 38.673645 -0.164001 2.164536 0.041397 -0.019695 -484145.000000 0 0 1
32.245700 -4.087887 -22.152938 39.335082 -0.126100 2.169032 0.062669 -0.031997 -253541.000000 0 0 1
33.434900 -3.671387 -21.541238 39.942415 -0.109369 2.140411 0.087560 -0.033559 66116.000000 0 0 1
33.971600 -2.418787 -22.251138 40.682100 -0.071080 2.149515 0.098455 -0.041629 -384320.000000 0 0 1
33.140000 -1.357687 -21.960638 39.779046 -0.040945 2.155636 0.073303 -0.034676 -54903.500000 0 0 1
33.637000 -0.116387 -22.387138 40.406005 -0.003460 2.158023 0.084890 -0.032268 -382219.000000 0 0 1
32.583900 0.919313 -22.069838 39.365384 0.028206 2.165956 0.074726 -0.024226 -505559.000000 0 0 1
31.596100 1.060313 -23.055938 39.128175 0.033546 2.200916 0.061324 -0.023534 301801.000000 0 0 1
30.500300 1.857713 -22.647838 38.034773 0.060833 2.208623 0.053369 -0.010871 -276274.000000 0 0 1
29.370000 1.945613 -23.666638 37.768930 0.066148 2.248000 0.058836 -0.016414 -1090650.000000 0 0 1
28.267800 2.548713 -23.074638 36.578728 0.089920 2.253407 0.066191 -0.012659 -211539.000000 0 0 1
27.367400 2.863413 -24.148538 36.610458 0.104249 2.291093 0.093619 -0.021037 -233137.000000 0 0 1
26.232000 3.792513 -23.750838 35.589370 0.143581 2.301451 0.098885 -0.017707 -576108.000000 0 0 1
26.654100 5.079913 -23.364838 35.807293 0.188328 2.281697 0.080846 -0.013518 230873.000000 0 0 1
25.582300 5.981213 -23.153538 35.018785 0.229677 2.293180 0.113898 -0.023399 -71690.300000 0 0 1
26.078700 7.377313 -22.592138 35.283538 0.275683 2.265688 0.125799 -0.017812 -235550.000000 0 0 1
26.876000 8.115413 -23.456038 36.583672 0.293252 2.266807 0.121416 -0.016034 -190998.000000 0 0 1
27.248400 9.318613 -22.819238 36.742747 0.329519 2.240883 0.144859 -0.024003 272382.000000 0 0 1
28.434300 10.051913 -23.542938 38.259905 0.339802 2.233616 0.176263 -0.020556 5572.100000 0 0 1
28.224000 10.469513 -24.868838 39.046946 0.355210 2.261261 0.193028 -0.022091 285746.000000 0 0 1
27.255400 11.498413 -25.056938 38.767518 0.399222 2.273572 0.199762 -0.021110 173470.000000 0 0 1
27.174300 11.920913 -26.534798 39.807616 0.413403 2.300402 0.192023 -0.019205 -342731.000000 0 0 1
26.411700 11.184113 -27.476418 39.719212 0.400560 2.334729 0.156470 -0.015057 313487.000000 0 0 1
26.919000 9.854513 -27.856978 39.971930 0.350928 2.341881 0.144591 -0.029779 68249.600000 0 0 1
27.814300 9.921413 -29.148398 41.493359 0.342633 2.349677 0.134438 -0.029003 -1103070.000000 0 0 1
28.965400 10.618813 -28.796468 42.201779 0.351389 2.321772 0.132615 -0.035857 -76733.800000 0 0 1
29.816100 10.912213 -29.917538 43.624939 0.350843 2.326485 0.135483 -0.042935 835297.000000 0 0 1
30.662800 9.710713 -30.538608 44.352135 0.306701 2.330282 0.108449 -0.039503 -321827.000000 0 0 1
29.949500 8.982913 -31.540658 44.412593 0.291397 2.360541 0.105968 -0.034573 415008.000000 0 0 1
30.545500 7.727713 -31.914798 44.847513 0.247791 2.362611 0.098924 -0.028383 -17677.900000 0 0 1
29.477800 6.925713 -32.716308 44.578728 0.230761 2.394842 0.104060 -0.033049 1013480.000000 0 0 1
28.338700 6.680313 -31.884288 43.177730 0.231505 2.401555 0.100434 -0.034211 428006.000000 0 0 1
27.277600 5.952013 -32.480458 42.830761 0.214834 2.431566 0.057216 -0.030489 413526.000000 0 0 1
25.962300 5.974913 -31.653728 41.372686 0.226200 2.441974 0.094509 -0.027565 -89046.700000 0 0 1
25.559300 7.329213 -31.551818 41.261512 0.279260 2.441340 0.086785 -0.019743 402435.000000 0 0 1
24.457700 7.610413 -30.681038 39.967782 0.301669 2.445954 0.092430 -0.021649 960273.000000 0 0 1
23.006700 7.449313 -31.212138 39.484150 0.313136 2.482418 0.107226 -0.021916 260692.000000 0 0 1
22.701100 8.454313 -32.178418 40.277363 0.356506 2.496295 0.108941 -0.021958 491716.000000 0 0 1
21.307000 8.483613 -32.493218 39.771462 0.378920 2.526983 0.093743 -0.011721 548441.000000 0 0 1
21.121100 9.500813 -33.581788 40.793416 0.422709 2.537849 0.099716 -0.003434 -305680.000000 0 0 1
21.742900 9.053313 32.737246 40.329189 0.394547 0.623653 0.083207 -0.009768 -402675.000000 0 0 1
21.757400 9.998713 31.682438 39.713167 0.430771 0.647189 0.079826 -0.016761 -526470.000000 0 0 1
20.512600 10.201413 30.804950 38.389850 0.461505 0.639450 0.077002 -0.019364 -68377.100000 0 0 1
20.175200 9.234413 29.810160 37.161253 0.429248 0.639852 0.060327 -0.023732 -153026.000000 0 0 1
21.149400 9.074413 28.811380 36.874622 0.405307 0.673997 0.078871 -0.024036 -884910.000000 0 0 1
21.202400 10.163513 27.688670 36.324939 0.446997 0.704015 0.093974 -0.026519 103445.000000 0 0 1
20.190600 10.176713 26.689790 34.979576 0.466868 0.702838 0.082290 -0.019053 -56662.400000 0 0 1
18.909900 10.503213 27.172700 34.731217 0.507006 0.672332 0.101644 -0.047202 -245204.000000 0 0 1
17.794500 9.542813 26.641820 33.428971 0.492248 0.648538 0.116460 -0.037251 -132627.000000 0 0 1
17.550600 9.711013 25.251870 32.248787 0.505385 0.671269 0.113158 -0.032516 854808.000000 0 0 1
16.223000 9.301613 24.852060 31.101939 0.520601 0.645080 0.139220 -0.035135 1095100.000000 0 0 1
15.971200 7.782713 24.747270 30.464360 0.453433 0.622651 0.126719 -0.028307 -246767.000000 0 0 1
15.994900 7.033413 25.935460 31.272253 0.414279 0.592863 0.104780 -0.030363 29033.400000 0 0 1
15.927300 5.649013 25.667530 30.731293 0.340833 0.582255 0.116751 -0.024943 -155398.000000 0 0 1
16.335400 4.853413 26.914720 31.855974 0.288803 0.564441 0.081412 -0.023310 -35061.400000 0 0 1
17.713700 4.962413 27.255260 32.882365 0.273144 0.593709 0.092458 -0.016951 284418.000000 0 0 1
18.024400 4.128813 28.339410 33.838562 0.225183 0.578125 0.090741 -0.025097 -494582.000000 0 0 1
18.207100 2.631913 28.062420 33.554804 0.143560 0.580268 0.086180 -0.026675 -238746.000000 0 0 1
17.044900 1.917613 27.648120 32.536509 0.112033 0.555272 0.082331 -0.038811 294112.000000 0 0 1
16.193300 1.571613 28.709640 32.999036 0.096750 0.515565 0.067961 -0.039845 -401268.000000 0 0 1
16.318700 0.047213 28.924980 33.210792 0.002893 0.513661 0.083093 -0.042605 -630081.000000 0 0 1
15.545100 -0.747987 28.057790 32.085031 -0.048080 0.506429 0.082226 -0.036666 103934.000000 0 0 1
16.203500 -1.257087 26.900940 31.429194 -0.077426 0.543465 0.098120 -0.035529 -550339.000000 0 0 1
17.419600 -2.220387 27.141300 32.326812 -0.126781 0.574266 0.097568 -0.028875 430088.000000 0 0 1
18.595400 -1.651087 27.704840 33.407681 -0.088558 0.592950 0.100400 -0.046500 62651.500000 0 0 1
19.300400 -0.885887 26.739150 32.988974 -0.045868 0.625709 0.098908 -0.036647 -2479190.000000 0 0 1
20.683100 -0.506687 27.076670 34.076288 -0.024493 0.652465 0.113663 -0.029965 -1773170.000000 0 0 1
21.648600 -1.474487 26.804030 34.486114 -0.068005 0.680527 0.096679 -0.027882 473562.000000 0 0 1
22.952900 -0.990187 27.196500 35.601485 -0.043113 0.701438 0.095011 -0.031854 808714.000000 0 0 1
24.141700 -1.718187 26.568270 35.939488 -0.071051 0.738840 0.095711 -0.032066 -509138.000000 0 0 1
24.300300 -1.303087 25.194880 35.028340 -0.053573 0.768043 0.103106 -0.008660 261397.000000 0 0 1
23.609400 -2.182587 24.327750 33.970677 -0.092184 0.772541 0.119520 -0.005806 37500.400000 0 0 1
23.677200 -1.664087 22.904740 32.984938 -0.070167 0.803211 0.122958 -0.032102 521302.000000 0 0 1
22.675900 -0.624187 22.811710 32.170797 -0.027519 0.782602 0.103905 -0.017365 780844.000000 0 0 1
22.542300 -0.302687 21.412120 31.092214 -0.013427 0.811150 0.093311 0.000725 -8810.480000 0 0 1
-31.623450 -26.818731 -10.166138 42.692357 0.703369 1.811232 0.045215 0.011844 -46010.500000 0 0 1
-31.468780 -25.626331 -9.393438 41.656088 0.683425 1.798252 0.045447 0.016043 -412633.000000 0 0 1
-32.100470 -25.794731 -8.169438 41.982712 0.676909 1.766636 0.066767 0.011961 -942653.000000 0 0 1
-32.250840 -24.482831 -7.282638 41.140765 0.649324 1.748752 0.104689 0.002344 855623.000000 0 0 1
-31.042380 -23.916431 -6.734638 39.761544 0.656458 1.740992 0.109214 0.001531 -257728.000000 0 0 1
-30.358970 -24.770431 -5.911838 39.625638 0.684372 1.720548 0.119961 -0.009047 -611255.000000 0 0 1
-29.077070 -24.060831 -5.420838 38.128534 0.691277 1.713452 0.118159 -0.014153 -360212.000000 0 0 1
-29.304100 -23.090231 -4.434238 37.570621 0.667351 1.689096 0.137804 -0.007931 261499.000000 0 0 1
-29.976010 -21.857931 -4.742338 37.400804 0.630043 1.697936 0.149941 -0.008765 87773.900000 0 0 1
-29.854330 -20.720931 -3.711438 36.529615 0.606734 1.672573 0.151897 -0.013712 608722.000000 0 0 1
-28.527250 -20.180931 -3.736738 35.143096 0.615693 1.677327 0.168191 -0.025313 754339.000000 0 0 1
-28.322200 -19.145731 -2.786038 34.299680 0.594434 1.652112 0.204149 -0.026114 115770.000000 0 0 1
-27.215220 -18.151831 -3.189938 32.868418 0.588215 1.668001 0.190083 -0.025849 251182.000000 0 0 1
-27.747370 -17.382231 -4.260338 33.018313 0.559639 1.700187 0.181259 -0.037606 509353.000000 0 0 1
-26.893050 -16.276431 -4.516738 31.757823 0.544255 1.713505 0.146519 -0.039523 163673.000000 0 0 1
-27.456060 -15.368931 -5.638138 31.966043 0.510309 1.748103 0.170507 -0.048938 250418.000000 0 0 1
-28.690500 -14.740931 -5.356238 32.697540 0.474620 1.735350 0.155838 -0.031662 30966.300000 0 0 1
-29.042030 -13.714231 -6.242338 32.718289 0.441178 1.762764 0.180504 -0.052111 219399.000000 0 0 1
-30.350030 -12.979831 -5.811638 33.516794 0.404131 1.745072 0.170768 -0.049111 -354733.000000 0 0 1
-31.487750 -13.695231 -6.116938 34.877711 0.410258 1.747091 0.168241 -0.045630 -317083.000000 0 0 1
-32.621350 -12.822031 -6.217838 35.598013 0.374506 1.746365 0.160291 -0.046459 -102678.000000 0 0 1
-33.726280 -13.447831 -7.051838 36.986951 0.379415 1.762628 0.121562 -0.040211 -791897.000000 0 0 1
-34.574735 -14.329631 -6.309738 37.954755 0.392904 1.737815 0.124604 -0.028304 315192.000000 0 0 1
-35.022288 -15.293731 -7.182738 38.885095 0.411727 1.756580 0.130430 -0.037170 -1316970.000000 0 0 1
-36.033760 -16.287831 -6.651738 40.099513 0.424529 1.737447 0.136727 -0.034858 414547.000000 0 0 1
-37.410500 -15.888331 -6.590938 41.175540 0.401619 1.731557 0.098617 -0.034672 846401.000000 0 0 1
-37.647680 -15.059831 -5.475338 40.916081 0.380524 1.705018 0.129549 -0.036682 -1370570.000000 0 0 1
36.572006 -14.966531 -5.171138 39.852846 -0.388442 1.700919 0.156166 -0.034628 -1068460.000000 0 0 1
35.913156 -14.254831 -6.241738 39.139677 -0.377853 1.730954 0.179674 -0.049813 857364.000000 0 0 1
34.489316 -14.220331 -6.283238 37.831334 -0.391074 1.737655 0.175894 -0.038287 627916.000000 0 0 1
33.768926 -13.544931 -5.114938 36.741912 -0.381460 1.710463 0.199727 -0.050387 -937267.000000 0 0 1
33.605626 -14.345731 -3.971338 36.754723 -0.403466 1.679057 0.188639 -0.045403 504137.000000 0 0 1
32.931456 -13.622931 -2.913938 35.756903 -0.392240 1.652380 0.230570 -0.050094 -605997.000000 0 0 1
32.734606 -14.451731 -1.580938 35.817682 -0.415748 1.614949 0.231323 -0.055057 50012.000000 0 0 1
33.949926 -14.678031 -0.879338 36.997504 -0.408074 1.594566 0.253983 -0.048529 181956.000000 0 0 1
34.965046 -15.398931 -1.550338 38.237221 -0.414850 1.611353 0.212652 -0.049830 -1016950.000000 0 0 1
34.752846 -16.916731 -1.995638 38.702954 -0.453010 1.622382 0.174505 -0.045219 -765487.000000 0 0 1
34.973866 -17.876931 -0.974238 39.290013 -0.472529 1.595595 0.147022 -0.041479 314812.000000 0 0 1
34.628946 -19.243631 -1.335238 39.639174 -0.507216 1.604488 0.129187 -0.034415 -90469.400000 0 0 1
35.634556 -19.999331 -2.232438 40.924059 -0.511427 1.625374 0.107739 -0.030061 -70108.900000 0 0 1
35.991766 -19.311931 -3.376238 40.984837 -0.492470 1.653268 0.081628 -0.029206 39419.000000 0 0 1
37.047286 -19.944031 -4.068638 42.270789 -0.493847 1.667197 0.083575 -0.018893 -19134.900000 0 0 1
37.348006 -19.200831 -5.371738 42.336758 -0.474869 1.698020 0.106244 -0.028651 759770.000000 0 0 1
36.227086 -19.352831 -6.304038 41.553276 -0.490639 1.723094 0.090400 -0.035398 1243520.000000 0 0 1
36.159766 -18.360331 -7.298638 41.205589 -0.469833 1.748863 0.109567 -0.039001 -353239.000000 0 0 1
35.003926 -18.415731 -8.303338 40.414842 -0.484313 1.777723 0.111714 -0.038424 -297765.000000 0 0 1
35.041876 -19.626931 -9.110138 41.184270 -0.510564 1.793846 0.116006 -0.035233 323727.000000 0 0 1
34.091496 -19.569931 -10.147438 40.597818 -0.521114 1.823425 0.113301 -0.048407 -391886.000000 0 0 1
33.981166 -20.835531 -11.030238 41.358254 -0.550032 1.840764 0.112307 -0.039640 -119510.000000 0 0 1
33.734986 -21.940231 -10.163638 41.505693 -0.576635 1.818185 0.099646 -0.042567 238894.000000 0 0 1
33.481946 -23.068431 -10.988638 42.118208 -0.603292 1.834751 0.085641 -0.038345 -185921.000000 0 0 1
32.811016 -24.233031 -10.191838 42.043741 -0.636142 1.815646 0.109694 -0.033922 712479.000000 0 0 1
31.511186 -23.870131 -9.682338 40.699947 -0.648292 1.810995 0.117535 -0.041733 752415.000000 0 0 1
30.932526 -24.953831 -8.958938 40.740366 -0.678824 1.792512 0.078188 -0.028579 -1264510.000000 0 0 1
29.549206 -24.637831 -8.503138 39.401544 -0.695008 1.788315 0.070107 -0.029670 -1245270.000000 0 0 1
28.671806 -24.585931 -9.607538 38.972366 -0.708829 1.819886 0.070137 -0.030586 -1204870.000000 0 0 1
27.391906 -24.262931 -9.200938 37.731467 -0.724897 1.817133 0.098679 -0.036590 -781940.000000 0 0 1
26.524806 -23.847831 -10.417038 37.159105 -0.732305 1.854941 0.192763 -0.056467 -306257.000000 0 0 1
26.144206 -24.962431 -11.215038 37.847319 -0.762279 1.871637 0.152326 -0.050200 38010.100000 0 0 1
25.261906 -24.529331 -12.228738 37.274576 -0.770686 1.905058 0.152758 -0.042432 -296194.000000 0 0 1
24.424206 -25.663531 -12.797938 37.668898 -0.810136 1.917445 0.144054 -0.042600 -638975.000000 0 0 1
25.078306 -26.566031 -13.641038 38.996838 -0.814197 1.928152 0.129462 -0.035022 7238.660000 0 0 1
24.539106 -27.906631 -13.590238 39.568199 -0.849520 1.921399 0.134312 -0.024019 -186962.000000 0 0 1
25.397606 -28.959431 -14.296438 41.086192 -0.850831 1.926193 0.116378 -0.020408 -335655.000000 0 0 1
25.378306 -28.743931 -15.676038 41.424753 -0.847504 1.958887 0.117073 -0.020450 356209.000000 0 0 1
25.689506 -29.917331 -16.386238 42.702532 -0.861283 1.964628 0.121203 -0.018193 -376926.000000 0 0 1
25.378006 -29.896531 -17.913438 43.113073 -0.866964 1.999288 0.112945 -0.010338 -806289.000000 0 0 1
24.027706 -29.946931 -18.210238 42.494260 -0.894628 2.013666 0.118529 -0.014765 -777967.000000 0 0 1
23.822106 -29.844131 -19.589838 42.917673 -0.897143 2.044799 0.103927 -0.012619 -306635.000000 0 0 1
22.375306 -29.509031 -19.942838 42.061313 -0.922034 2.064780 0.077149 -0.010301 -447857.000000 0 0 1
22.257106 -29.479231 -21.365538 42.671889 -0.924097 2.095196 0.037858 -0.002149 -565144.000000 0 0 1
20.968506 -29.255131 -21.842238 42.102545 -0.948919 2.116227 0.038916 -0.009520 -833582.000000 0 0 1
20.901606 -29.355531 -23.328238 42.928208 -0.952051 2.145307 0.030116 -0.009961 -304672.000000 0 0 1
21.685006 -28.391831 -24.048938 43.066077 -0.918537 2.163276 0.047349 -0.011047 303052.000000 0 0 1
21.603206 -28.604431 -25.414558 43.941003 -0.923950 2.187537 0.030732 -0.012113 -466755.000000 0 0 1
22.117806 -27.449131 -26.264348 43.959847 -0.892544 2.211129 0.042665 -0.014235 105057.000000 0 0 1
21.263706 -26.288931 -26.257118 42.809921 -0.890684 2.231081 0.071009 -0.030559 577762.000000 0 0 1
20.145506 -26.497131 -27.126488 42.939326 -0.920742 2.254592 0.081723 -0.037415 -230823.000000 0 0 1
19.357606 -25.225531 -27.398128 41.972631 -0.916264 2.282021 0.081701 -0.035926 -330398.000000 0 0 1
18.502406 -24.881531 -26.307278 40.663282 -0.931391 2.274380 0.068714 -0.020736 -23179.600000 0 0 1
17.893306 -23.644631 -26.612118 39.842739 -0.922983 2.302219 0.061667 -0.019225 449006.000000 0 0 1
16.619006 -23.422831 -25.690578 38.533443 -0.953709 2.300580 0.071526 -0.017351 379867.000000 0 0 1
15.613706 -24.368331 -26.031208 38.925919 -1.000960 2.303305 0.119675 -0.029790 142387.000000 0 0 1
14.278706 -24.105831 -25.640198 37.978840 -1.036033 2.311921 0.098445 -0.020677 670688.000000 0 0 1
13.968506 -24.329831 -24.125638 37.001436 -1.049616 2.281041 0.079990 -0.020850 -379282.000000 0 0 1
14.657506 -23.396531 -23.291438 36.121064 -1.011132 2.271579 0.056937 -0.011607 -132480.000000 0 0 1
14.859806 -23.805931 -21.928138 35.614315 -1.012768 2.234085 0.066496 -0.022429 569746.000000 0 0 1
16.083906 -23.029831 -21.293138 35.248587 -0.961149 2.219413 0.036932 -0.020151 742569.000000 0 0 1
15.924806 -21.637731 -21.247238 34.252533 -0.936333 2.239936 0.026545 -0.017082 300544.000000 0 0 1
17.028506 -21.081331 -20.525938 33.995686 -0.891346 2.219032 0.022488 -0.020360 193699.000000 0 0 1
16.708306 -19.693031 -19.879938 32.591332 -0.867210 2.226827 0.050898 -0.011866 289411.000000 0 0 1
15.986506 -19.700531 -18.652338 31.489507 -0.889097 2.204750 0.059196 -0.017515 118426.000000 0 0 1
14.583406 -19.718931 -18.842638 30.928256 -0.934008 2.225894 0.046386 -0.017780 -153523.000000 0 0 1
13.833606 -19.743231 -17.492838 29.785286 -0.959617 2.198513 0.055373 -0.012872 -315124.000000 0 0 1
13.982806 -18.564131 -16.766638 28.657739 -0.925240 2.195756 0.084623 -0.014220 31345.400000 0 0 1
13.458606 -18.663531 -15.492638 27.739562 -0.946037 2.163377 0.073015 -0.012395 -389100.000000 0 0 1
13.320006 -17.291831 -14.792638 26.367634 -0.914425 2.166408 0.080506 -0.011460 257151.000000 0 0 1
12.114206 -16.554531 -14.994438 25.409441 -0.939061 2.201995 0.061378 -0.023647 264809.000000 0 0 1
12.272206 -15.245231 -14.514438 24.365817 -0.893022 2.208919 0.059345 -0.027328 207207.000000 0 1 0
10.929606 -14.531731 -14.226438 23.087205 -0.925940 2.234711 0.068959 -0.023688 439044.000000 0 1 0
10.044206 -14.372031 -15.327838 23.289139 -0.960828 2.289160 0.093345 -0.013759 -175708.000000 0 1 0
8.811806 -13.786731 -15.013938 22.206761 -1.002086 2.313250 0.085613 -0.014882 -229416.000000 0 1 0
8.227306 -13.165931 -16.313738 22.520399 -1.012274 2.380957 0.070484 -0.006371 -80454.200000 0 1 0
8.845206 -11.960431 -16.846438 22.474254 -0.934024 2.418236 0.074828 -0.006453 742572.000000 0 1 0
10.038006 -12.308431 -17.590138 23.699621 -0.886652 2.407161 0.105565 -0.010592 708394.000000 0 1 0
10.617506 -11.147231 -18.419538 24.005658 -0.809732 2.445416 0.119202 -0.016979 -339550.000000 0 1 0
9.759306 -10.901231 -19.513138 24.389413 -0.840613 2.498201 0.114416 -0.024175 185589.000000 0 1 0
10.079106 -9.714031 -20.154638 24.538953 -0.766956 2.534539 0.124174 -0.034063 -149985.000000 0 1 0
9.718606 -9.699231 -21.657438 25.643148 -0.784400 2.576558 0.114045 -0.037622 106698.000000 0 0 1
10.698506 -10.262031 -22.525538 26.966038 -0.764578 2.559529 0.113351 -0.034947 -319052.000000 0 0 1
10.203006 -10.452231 -23.809338 27.932688 -0.797464 2.591321 0.120063 -0.031696 20079.800000 0 0 1
11.245806 -11.076231 -24.770838 29.372529 -0.777802 2.574253 0.130706 -0.031313 61022.100000 0 0 1
11.434906 -12.433831 -24.489738 29.750706 -0.827225 2.537759 0.117844 -0.033059 -67256.400000 0 0 1
12.520406 -12.975631 -25.212498 30.996736 -0.803251 2.520756 0.107695 -0.043090 -27934.000000 0 0 1
12.743506 -14.511431 -25.063938 31.641422 -0.850174 2.485078 0.093768 -0.033245 -560033.000000 0 0 1
11.740006 -15.255831 -25.632458 32.056061 -0.914905 2.497448 0.086457 -0.032721 -880211.000000 0 0 1
11.608906 -16.481131 -24.904838 32.041307 -0.957140 2.461116 0.071816 -0.030734 372326.000000 0 0 1
10.534106 -17.462131 -25.487318 32.641949 -1.027987 2.466765 0.072088 -0.029921 455161.000000 0 0 1
10.653806 -17.876331 -26.835038 33.958594 -1.033343 2.481978 0.079326 -0.043957 -256128.000000 0 0 1
9.546306 -18.703731 -27.072298 34.261799 -1.098867 2.481866 0.080526 -0.042335 -153002.000000 0 0 1
9.774006 -19.527331 -28.282088 35.731280 -1.106725 2.484091 0.085770 -0.040409 -773519.000000 0 0 1
10.749206 -20.498431 -28.124388 36.424063 -1.087826 2.452995 0.079630 -0.044142 -517819.000000 0 0 1
10.534106 -21.685931 -28.902398 37.637689 -1.118607 2.446370 0.089691 -0.039874 -39841.600000 0 0 1
11.687706 -22.712531 -28.786968 38.485726 -1.095543 2.415826 0.086050 -0.028031 -9661.500000 0 0 1
11.795506 -23.841131 -29.655048 39.836609 -1.111354 2.410458 0.090742 -0.027023 -157411.000000 0 0 1
12.462006 -24.987731 -29.188088 40.393475 -1.108169 2.378344 0.127607 -0.031557 -213817.000000 0 0 1
11.594606 -25.892931 -28.293568 40.067503 -1.149781 2.354839 0.130727 -0.033192 71283.000000 0 0 1
11.139006 -25.315031 -27.102078 38.722744 -1.156276 2.346055 0.138495 -0.037572 -322103.000000 0 0 1
10.525206 -26.262031 -26.251598 38.595604 -1.189621 2.318792 0.136545 -0.031489 -140044.000000 0 0 1
9.499006 -25.659431 -25.309008 37.271751 -1.216244 2.317250 0.116379 -0.024825 -439918.000000 0 0 1
10.071706 -24.718031 -24.373738 36.145532 -1.183872 2.310843 0.120298 -0.024846 -144138.000000 0 0 1
9.561406 -23.429831 -24.560438 35.264609 -1.183338 2.341251 0.089900 -0.021226 -344967.000000 0 0 1
10.617906 -22.318331 -24.514338 34.810927 -1.126738 2.352112 0.079852 -0.020504 -77714.600000 0 0 1
11.047106 -21.844131 -23.243638 33.756056 -1.102580 2.330321 0.069075 -0.022181 78634.300000 0 0 1
12.157106 -20.978131 -23.432338 33.718714 -1.045577 2.339127 0.064405 -0.022082 201504.000000 0 0 1
12.883406 -20.446731 -22.168538 32.794741 -1.008541 2.313088 0.050715 -0.007894 243090.000000 0 0 1
12.172806 -19.552131 -21.263238 31.346265 -1.013938 2.316289 0.039147 -0.004502 -64992.600000 0 0 1
11.831006 -18.241431 -21.662638 30.691895 -0.995421 2.354362 0.045198 -0.006844 523477.000000 0 0 1
13.022606 -17.209631 -21.585038 30.523328 -0.923018 2.356277 0.068251 -0.011742 -208759.000000 0 0 1
14.028906 -17.527931 -22.459938 31.756691 -0.895827 2.356398 0.065489 -0.012754 -1537610.000000 0 0 1
14.951106 -16.516431 -22.240338 31.479529 -0.835101 2.355339 0.076590 -0.006481 -232553.000000 0 0 1
16.269306 -16.576031 -23.087438 32.748816 -0.794736 2.353199 0.048531 -0.007548 355400.000000 0 0 1
17.329906 -17.191831 -22.384938 33.120540 -0.781399 2.312931 0.049849 0.000156 -505545.000000 0 0 1
18.524406 -16.615131 -22.832138 33.771626 -0.731117 2.313218 0.062665 -0.000832 -114938.000000 0 0 1
19.751206 -16.887731 -21.910738 33.990970 -0.707403 2.271302 0.065466 -0.008193 195345.000000 0 0 1
20.062006 -18.246131 -21.895538 34.854268 -0.738032 2.250037 0.067117 -0.015725 971859.000000 0 0 1
21.454206 -18.443131 -21.563538 35.572718 -0.710070 2.222047 0.072137 -0.028754 1118420.000000 0 0 1
21.806706 -19.925631 -21.305738 36.421116 -0.740354 2.195656 0.088134 -0.035852 -186498.000000 0 0 1
21.236706 -20.510031 -20.178138 35.760542 -0.767993 2.170329 0.090593 -0.038846 72573.800000 0 0 1
21.563506 -21.898231 -20.149838 36.749603 -0.793100 2.151127 0.107304 -0.041117 -142815.000000 0 0 1
-16.833100 12.910313 28.218980 35.303545 -0.654267 0.644626 0.060126 -0.032332 -42805.800000 0 0 1
-18.124100 13.396413 27.910990 35.874368 -0.636520 0.679288 0.055086 -0.029046 -63318.900000 0 0 1
-18.244700 13.469313 26.517070 34.891926 -0.635944 0.707518 0.054589 -0.025808 103292.000000 0 0 1
-19.513600 14.097213 25.889530 35.352225 -0.625622 0.749057 0.073305 -0.023750 161940.000000 0 0 1
-19.528400 15.428513 26.273950 36.190025 -0.668648 0.758309 0.072790 -0.019973 451271.000000 0 0 1
-20.535400 16.153413 25.504750 36.512022 -0.666525 0.797455 0.082624 -0.017123 425650.000000 0 0 1
-20.594000 17.654513 25.760350 37.408426 -0.708697 0.811206 0.081147 -0.007139 64220.300000 0 0 1
-19.460400 18.365713 25.304820 36.828529 -0.756466 0.813309 0.079680 -0.018235 106338.000000 0 0 1
-18.515800 18.685313 26.308730 37.203832 -0.789955 0.785335 0.080262 -0.019133 -160673.000000 0 0 1
-17.250700 19.325913 25.722100 36.506219 -0.842073 0.788944 0.079040 -0.012276 -326777.000000 0 0 1
-17.367000 20.688213 25.549530 37.180551 -0.872451 0.813204 0.093421 -0.010218 89548.700000 0 0 1
-16.218400 21.365713 25.080330 36.722652 -0.921506 0.818981 0.111613 -0.020510 64574.100000 0 0 1
-16.479300 22.892713 24.974080 37.674240 -0.946873 0.846117 0.111076 -0.016267 51808.000000 0 0 1
-15.979400 23.581913 26.058860 38.607151 -0.975254 0.829866 0.107666 -0.008510 53416.100000 0 0 1
-16.298800 24.938313 25.761070 39.385316 -0.991919 0.857833 0.104501 -0.007377 245222.000000 0 0 1
-15.712800 25.950313 26.849240 40.511635 -1.026346 0.846306 0.084463 -0.001241 1958490.000000 0 0 1
-14.263100 26.170513 26.850480 40.115833 -1.071795 0.837498 0.083155 -0.000011 1716470.000000 0 0 1
-13.857700 27.008113 27.920120 41.243268 -1.096728 0.827169 0.091409 0.004726 -280077.000000 0 0 1
-12.346200 27.053013 28.134760 40.937256 -1.142657 0.813079 0.103525 -0.004602 -183343.000000 0 0 1
-11.692900 27.648713 27.048990 40.408206 -1.170698 0.837404 0.079341 -0.000915 -294929.000000 0 0 1
-10.289300 27.627213 27.171310 40.092552 -1.214278 0.826146 0.076521 0.000522 362267.000000 0 0 1
-9.483800 28.117813 25.906710 39.391770 -1.245491 0.853077 0.069669 -0.002037 1808620.000000 0 0 1
-8.031800 28.043713 25.992090 39.071069 -1.291860 0.842966 0.071415 -0.008108 1700000.000000 0 0 1
-7.403600 28.576913 24.808170 38.560324 -1.317294 0.871917 0.086217 -0.009642 549732.000000 0 0 1
-5.872900 28.289513 24.890680 38.135725 -1.366104 0.859671 0.101728 -0.018181 -100560.000000 0 0 1
-5.221100 28.889513 25.979330 39.201906 -1.392000 0.846370 0.113876 -0.023395 329655.000000 0 0 1
-3.801100 28.893513 25.911380 38.995937 -1.439992 0.844021 0.118804 -0.020656 653670.000000 0 0 1
-3.110400 29.891913 24.959100 39.066069 -1.467115 0.877736 0.125484 -0.015492 -505214.000000 0 0 1
-3.072400 29.461613 23.579680 37.860634 -1.466887 0.898477 0.130900 -0.013962 -126946.000000 0 0 1
-2.943200 30.605513 22.802060 38.279157 -1.474925 0.932687 0.124832 -0.014081 -333699.000000 0 0 1
-3.300600 30.272113 21.333520 37.180827 -1.462194 0.959686 0.136751 -0.021692 -116031.000000 0 0 1
-4.652400 30.240413 20.980220 37.098478 -1.418146 0.969723 0.124572 -0.021187 -367507.000000 0 0 1
-5.301500 29.010713 21.361420 36.414800 -1.390048 0.943925 0.135340 -0.015252 -19724.100000 0 0 1
-6.706700 28.906913 20.716120 36.190428 -1.342820 0.961342 0.093105 -0.017964 -98797.900000 0 0 1
-6.587400 28.741313 19.341020 35.263749 -1.345491 0.990266 0.072392 -0.018528 -1782.300000 0 0 1
-7.596800 27.894313 18.872520 34.525007 -1.304903 0.992458 0.044729 -0.015987 -1019310.000000 0 0 1
-7.124000 26.396513 18.668720 33.106622 -1.307192 0.971699 0.034744 -0.016978 501589.000000 0 0 1
-6.103000 26.165713 17.671820 32.158737 -1.341649 0.989009 0.046305 -0.018124 633385.000000 0 0 1
-4.832700 26.426513 18.255120 32.480225 -1.389922 0.973949 0.072864 -0.012429 85361.800000 0 0 1
-3.729000 26.814313 17.173720 32.060092 -1.432615 1.005492 0.064829 -0.014285 705314.000000 0 0 1
-3.281700 25.831913 16.262620 30.700653 -1.444433 1.012531 0.057454 -0.009300 -79087.300000 0 0 1
-2.449500 26.247913 15.207320 30.433790 -1.477744 1.047561 0.063324 -0.011219 -26052.000000 0 0 1
-1.874800 25.042313 14.415120 28.955622 -1.496070 1.049696 0.046611 -0.015625 628753.000000 0 0 1
-0.809800 24.385613 15.149020 28.719449 -1.537600 1.015161 0.046842 -0.012145 696368.000000 0 0 1
-0.334500 23.193713 14.485120 27.347375 -1.556375 1.012583 0.042684 -0.023017 720695.000000 0 0 1
1.004600 22.586513 15.042420 27.155740 1.526348 0.983717 0.038245 -0.019531 1019620.000000 0 0 1
2.178000 23.353513 14.833320 27.751714 1.477803 1.006879 0.044210 -0.020488 -551081.000000 0 0 1
3.297200 22.734713 15.354720 27.631615 1.426771 0.981599 0.046844 -0.025187 -475526.000000 0 0 1
4.513200 23.680413 15.270920 28.536502 1.382467 1.006127 0.081824 -0.039781 -621459.000000 0 0 1
5.744500 23.113813 15.520920 28.427920 1.327201 0.993244 0.090797 -0.039537 -1399830.000000 0 0 1
6.762400 24.046413 15.428520 29.359824 1.296654 1.017496 0.106045 -0.043170 -213166.000000 0 0 1
8.206700 23.469513 15.581920 29.342192 1.234411 1.010967 0.131085 -0.046811 605738.000000 0 0 1
8.728100 22.692513 14.524020 28.320965 1.203614 1.032311 0.118953 -0.047898 -81487.300000 0 0 1
8.979600 23.386513 13.309720 28.367426 1.204189 1.082423 0.122528 -0.050290 -660634.000000 0 0 1
9.556600 22.509313 12.209320 27.332495 1.169297 1.107727 0.107646 -0.047254 -951877.000000 0 0 1
10.864100 22.085313 12.343320 27.534474 1.113638 1.105949 0.106674 -0.041836 -810498.000000 0 0 1
11.124400 21.048513 11.402820 26.397282 1.084600 1.124121 0.094992 -0.050786 956155.000000 0 0 1
12.622200 20.555613 11.398020 26.678981 1.020109 1.129371 0.139547 -0.051232 1060680.000000 0 0 1
12.721200 19.721113 12.562920 26.619132 0.997905 1.079294 0.130328 -0.041737 62726.500000 0 0 1
13.984100 19.084313 12.633020 26.820874 0.938425 1.080356 0.116550 -0.041138 51417.600000 0 0 1
14.403600 18.776113 14.124120 27.558971 0.916426 1.032696 0.118595 -0.035873 45510.700000 0 0 1
15.671100 18.145113 14.206620 27.868559 0.858429 1.035876 0.127094 -0.036537 297998.000000 0 0 1
16.138700 17.918313 15.511520 28.672824 0.837605 0.999190 0.117180 -0.042276 -18464.400000 0 0 1
17.459100 17.127013 15.490620 28.950200 0.775797 1.006196 0.094341 -0.038270 -100006.000000 0 0 1
18.179300 17.058713 16.687420 29.999277 0.753608 0.980917 0.090745 -0.042662 418919.000000 0 0 1
19.339600 16.229413 16.568620 30.198231 0.698179 0.990033 0.087824 -0.037709 406320.000000 0 0 1
20.013500 16.013213 17.915620 31.271914 0.674814 0.960759 0.088714 -0.035774 -365905.000000 0 0 1
20.630000 17.074213 18.620720 32.616819 0.691369 0.963203 0.103463 -0.025201 -14256.500000 0 0 1
19.754000 18.029313 19.160320 32.899765 0.739783 0.949137 0.085081 -0.019740 -295524.000000 0 0 1
20.282500 18.871413 20.379120 34.392130 0.749374 0.936573 0.069278 -0.022321 -112744.000000 0 0 1
19.315900 19.791213 20.799820 34.603882 0.797552 0.925940 0.108744 -0.038371 475466.000000 0 0 1
19.970100 20.726713 21.667620 36.026203 0.803987 0.925493 0.091420 -0.029320 71443.500000 0 0 1
18.895500 21.649313 22.179520 36.299639 0.853214 0.913458 0.112959 -0.034954 -48819.200000 0 0 1
18.001400 21.095413 23.140530 36.118569 0.864371 0.875410 0.122490 -0.033536 108531.000000 0 0 1
17.277500 22.143613 23.719340 36.762191 0.908216 0.869498 0.106014 -0.040993 -122982.000000 0 0 1
16.600500 21.735013 25.075020 37.104502 0.918542 0.828754 0.119325 -0.037788 -9165.690000 0 0 1
15.419300 20.990713 24.931180 36.054523 0.937239 0.807253 0.134134 -0.040730 -470426.000000 0 0 1
14.754700 20.901813 26.176690 36.603362 0.956118 0.773966 0.129246 -0.038545 749287.000000 0 0 1
13.500700 19.941113 26.254090 35.625751 0.975654 0.742262 0.152823 -0.035442 712562.000000 0 0 1
13.750200 18.514513 26.230460 34.926956 0.932002 0.721207 0.152945 -0.043424 -244.857000 0 0 1
14.279100 17.981413 25.000570 33.944844 0.899661 0.742906 0.163584 -0.048313 331984.000000 0 0 1
13.316300 18.026313 23.747360 32.652855 0.934557 0.756464 0.169751 -0.042512 141708.000000 0 0 1
13.194900 19.281313 23.036980 32.811231 0.970661 0.792445 0.167177 -0.038485 638013.000000 0 0 1
14.345200 19.568713 22.204820 32.890323 0.938220 0.829673 0.159093 -0.036725 777552.000000 0 0 1
14.847600 18.588913 21.092120 31.794283 0.896828 0.845452 0.164610 -0.042134 -195619.000000 0 0 1
13.928500 18.225713 20.070920 30.479855 0.918255 0.851975 0.149834 -0.033635 325720.000000 0 0 1
14.551500 17.342013 19.124720 29.635224 0.872671 0.869331 0.120850 -0.030081 346557.000000 0 0 1
13.479000 16.652913 18.248420 28.142633 0.890345 0.865281 0.130240 -0.023190 221161.000000 0 0 1
12.847500 17.372713 17.195020 27.614093 0.934035 0.898620 0.148989 -0.036495 36255.200000 0 0 1
11.921200 16.512013 16.580320 26.261542 0.945476 0.887499 0.126556 -0.031220 149331.000000 0 0 1
11.242100 17.222813 15.311020 25.640543 0.992494 0.930864 0.114688 -0.027483 615189.000000 0 0 1
10.186200 18.132813 15.660720 26.034895 1.058973 0.925384 0.118415 -0.036826 438546.000000 0 0 1
9.562000 18.580713 14.485420 25.426406 1.095522 0.964656 0.104155 -0.020379 -416676.000000 0 0 1
8.407100 19.537413 14.730320 25.872228 1.164439 0.965083 0.107621 -0.026608 -209393.000000 0 0 1
7.180600 18.909513 15.060220 25.217869 1.207881 0.930785 0.061324 -0.025529 -555906.000000 0 0 1
6.242300 19.892913 15.325920 25.876208 1.266732 0.936913 0.077739 -0.032528 -217101.000000 0 0 1
4.870700 19.340613 15.778420 25.431115 1.324089 0.901496 0.053188 -0.036174 87923.600000 0 0 1
3.966400 18.855613 14.817920 24.307144 1.363463 0.915226 0.040064 -0.030770 -44963.200000 0 1 0
2.769400 18.441113 15.474320 24.232186 1.421735 0.878138 0.023925 -0.031798 -211812.000000 0 1 0
1.654400 18.212513 14.497220 23.336711 1.480206 0.900498 0.029812 -0.027330 -854804.000000 0 1 0
1.015500 19.324913 13.932420 23.845248 1.518296 0.946798 0.028128 -0.019694 -239635.000000 0 1 0
0.241600 18.938713 12.815720 22.868667 1.558040 0.975921 0.021545 -0.024764 -168547.000000 0 1 0
-0.507000 20.162813 12.159720 23.551112 -1.545656 1.028257 0.017413 -0.017702 747457.000000 0 1 0
-1.675900 20.561713 12.901020 24.331646 -1.489470 1.011941 0.022033 -0.024018 845583.000000 0 1 0
-2.782900 20.601213 11.990820 23.998631 -1.436525 1.047606 0.024658 -0.031330 202234.000000 0 1 0
-4.092000 21.264313 12.418020 24.962426 -1.380685 1.050118 0.027280 -0.026085 -203897.000000 0 1 0
-4.757400 20.530213 13.409920 24.978961 -1.343089 1.004099 0.034619 -0.028833 -313972.000000 0 1 0
-5.777200 21.345313 13.939620 26.140227 -1.306475 1.008343 0.033716 -0.024901 -445313.000000 0 0 1
-6.611900 20.689113 15.056320 26.428194 -1.261471 0.964647 0.038392 -0.032790 -798545.000000 0 0 1
-7.417300 19.592913 14.658520 25.568942 -1.208899 0.960276 0.054307 -0.036654 184250.000000 0 0 1
-8.127600 18.989813 15.741420 25.970430 -1.166389 0.919612 0.053403 -0.026136 434828.000000 0 0 1
-9.303600 19.789513 16.381620 27.322871 -1.131331 0.927849 0.042886 -0.016284 -47649.500000 0 0 1
-10.496600 19.857313 15.618020 27.357158 -1.084530 0.963203 0.039551 -0.031442 363317.000000 0 0 1
-11.612000 19.456613 16.431120 27.988928 -1.032722 0.943377 0.038899 -0.023064 611320.000000 0 0 1
-12.919600 19.327313 15.598920 27.996204 -0.981551 0.979811 0.050072 -0.031175 -256300.000000 0 0 1
-13.339200 20.513713 15.044620 28.724333 -0.994240 1.019539 0.048203 -0.021424 18489.500000 0 0 1
-14.273100 20.104313 14.031920 28.368990 -0.953422 1.053397 0.043402 -0.028004 648000.000000 0 0 1
-15.339500 21.251313 13.763220 29.603122 -0.945579 1.087247 0.035747 -0.029190 581613.000000 0 0 1
-16.479000 21.227813 14.604820 30.585589 -0.910679 1.072982 0.029609 -0.028743 320798.000000 0 0 1
-17.525400 22.027813 14.066720 31.468029 -0.898742 1.107369 0.057547 -0.036765 546882.000000 0 0 1
-18.822600 22.083013 14.899520 32.618177 -0.864936 1.096418 0.125359 -0.045738 -803383.000000 0 0 1
-19.631800 20.963813 15.043720 32.422254 -0.818198 1.088298 0.124540 -0.042087 -31907.200000 0 0 1
-20.745900 21.163013 15.872020 33.618247 -0.795351 1.079096 0.126663 -0.038177 274152.000000 0 0 1
-21.838400 22.235113 15.643520 34.871704 -0.794399 1.105596 0.115738 -0.041301 -828742.000000 0 0 1
-22.661700 22.052713 14.519220 34.794864 -0.771780 1.140345 0.123094 -0.038481 165170.000000 0 0 1
-23.511500 23.150013 14.221820 35.930126 -0.777651 1.163837 0.142291 -0.042694 184306.000000 0 0 1
-22.848800 24.342013 13.458520 35.996292 -0.817030 1.187601 0.130452 -0.033670 369484.000000 0 0 1
-21.738300 24.972713 14.099420 35.985883 -0.854531 1.168205 0.105377 -0.040899 281442.000000 0 0 1
-21.233700 26.017413 13.313220 36.125028 -0.886295 1.193367 0.080026 -0.023962 378029.000000 0 0 1
-19.762500 26.376313 13.724820 35.702059 -0.927774 1.176210 0.058758 -0.020793 674356.000000 0 0 1
-18.818300 25.594413 12.998820 34.324506 -0.936802 1.182401 0.066488 -0.016488 -4165.850000 0 0 1
-17.523100 26.094913 13.256120 34.113462 -0.979445 1.171696 0.023983 -0.014048 -326043.000000 0 0 1
-16.450800 25.626613 12.283520 32.836519 -1.000107 1.187391 0.041054 -0.017458 -115422.000000 0 0 1
-15.149900 26.105513 12.570220 32.695990 -1.044963 1.176176 0.030531 -0.016472 -111167.000000 0 0 1
-14.233900 25.633513 11.623820 31.540357 -1.063905 1.193360 0.039288 -0.017380 -14773.200000 0 0 1
-12.817800 26.219913 11.881220 31.511002 -1.116102 1.184187 0.045308 -0.012449 179254.000000 0 0 1
-11.761400 25.516413 11.198320 30.245996 -1.138886 1.191527 0.033508 -0.014308 773384.000000 0 0 1
-10.459900 25.902313 11.608520 30.250572 -1.187000 1.176947 0.049366 -0.016565 440491.000000 0 0 1
-9.980600 27.267113 10.920820 31.022124 -1.219912 1.211054 0.068258 -0.022916 -941785.000000 0 0 1
-8.684400 27.623313 11.293020 31.080517 -1.266194 1.198938 0.087163 -0.023047 -287621.000000 0 0 1
-8.437900 28.953313 10.868920 32.056605 -1.287219 1.224885 0.094695 -0.029257 -87872.700000 0 0 1
-7.139300 29.638613 11.355420 32.532485 -1.334421 1.214241 0.103499 -0.030345 278539.000000 0 0 1
-5.930000 29.097113 10.879620 31.625512 -1.369749 1.219608 0.104651 -0.029116 85165.000000 0 0 1
-4.805500 29.712713 11.512620 32.225434 -1.410453 1.205472 0.133423 -0.038077 520174.000000 0 0 1
-3.464700 29.270713 10.879420 31.418794 -1.452977 1.217203 0.119800 -0.031155 94156.000000 0 0 1
-3.155500 29.898913 9.638320 31.572130 -1.465647 1.260565 0.137689 -0.044226 798843.000000 0 0 1
-1.743200 29.983213 9.391920 31.468079 -1.512722 1.267719 0.117348 -0.044507 1028560.000000 0 0 1
-1.447400 30.765913 8.104620 31.848411 -1.523785 1.313492 0.122614 -0.053114 22714.100000 0 0 1
-1.834500 30.132113 6.913320 30.969398 -1.509989 1.345669 0.136216 -0.046200 -110844.000000 0 0 1
-1.840300 31.012613 5.788620 31.601851 -1.511525 1.386583 0.139970 -0.043541 -131498.000000 0 0 1
12.293200 -33.421031 -26.366238 44.308765 -1.218328 2.208133 0.206951 -0.064219 -268395.000000 0 0 1
12.901200 -33.316731 -25.113638 43.670818 -1.201348 2.183482 0.191298 -0.057261 420084.000000 0 0 1
14.027900 -32.446331 -25.296258 43.467771 -1.162724 2.191926 0.178850 -0.049981 125126.000000 0 0 1
14.912300 -32.340431 -24.061638 42.979561 -1.138747 2.164988 0.150875 -0.044123 -533995.000000 0 0 1
14.303600 -31.536931 -23.072538 41.611453 -1.144993 2.158529 0.154354 -0.047136 187781.000000 0 0 1
14.724600 -31.838931 -21.728138 41.263100 -1.137620 2.125364 0.099766 -0.037490 -893460.000000 0 0 1
16.100300 -31.397331 -21.285838 41.207997 -1.096968 2.113609 0.054798 -0.027736 -547296.000000 0 0 1
17.082800 -32.270531 -21.818438 42.535321 -1.083936 2.109413 0.068000 -0.028235 13942.800000 0 0 1
18.402900 -32.078831 -21.347338 42.701604 -1.049957 2.094301 0.042594 -0.029805 -33433.800000 0 0 1
19.300300 -33.255431 -21.695538 44.148858 -1.044939 2.084513 0.022707 -0.017291 -366074.000000 0 0 1
20.661100 -33.045131 -21.382638 44.453110 -1.012025 2.072609 0.027747 -0.002194 117244.000000 0 0 1
21.419000 33.486813 -21.668238 45.273091 1.001749 2.069869 0.031358 0.002311 -226271.000000 0 0 1
22.908300 33.595513 -21.276438 45.892652 0.972331 2.052865 0.060276 0.003397 -308307.000000 0 0 1
23.714000 -33.485331 -22.236538 46.669956 -0.954594 2.067424 0.052408 0.007911 -597116.000000 0 0 1
25.059800 -33.533231 -21.838638 47.216494 -0.929017 2.051633 0.053762 0.005133 25029.300000 0 0 1
25.947100 -32.745531 -22.875338 47.631953 -0.900715 2.071738 0.073128 0.006116 63969.800000 0 0 1
25.904900 -31.310631 -22.847138 46.619858 -0.879599 2.082970 0.080959 0.004185 -745544.000000 0 0 1
24.749400 -30.710931 -23.338638 45.829970 -0.892479 2.105102 0.053519 0.009291 -484168.000000 0 0 1
24.673500 -29.228731 -23.192338 44.732370 -0.869707 2.115856 0.053289 -0.002932 -549060.000000 0 0 1
25.392700 -28.648131 -24.267538 45.325689 -0.845566 2.135782 0.045402 -0.004888 -137426.000000 0 0 1
25.401100 -27.230631 -24.127438 44.371798 -0.820145 2.145703 0.061851 -0.004159 403046.000000 0 0 1
26.085800 -26.471831 -25.322108 44.971502 -0.792743 2.168892 0.059783 -0.005731 688404.000000 0 0 1
25.281000 -26.480631 -26.486758 45.187400 -0.808570 2.197100 0.049620 -0.006479 334527.000000 0 0 1
26.124400 -25.906131 -27.521378 45.946035 -0.781203 2.213040 0.054460 -0.005882 47353.800000 0 0 1
25.349700 -25.388331 -28.764298 45.984340 -0.786160 2.246599 0.056801 -0.010226 511041.000000 0 0 1
24.550600 -24.197631 -28.612818 44.799003 -0.778158 2.263595 0.067054 -0.018787 337217.000000 0 0 1
23.409500 -24.406731 -27.803728 43.780595 -0.806251 2.258895 0.055983 -0.013738 -888956.000000 0 0 1
22.505100 -23.223531 -27.447948 42.416999 -0.801108 2.274568 0.053095 -0.014769 -191338.000000 0 0 1
22.046200 -22.557131 -28.573848 42.559651 -0.796853 2.306870 0.064987 -0.022536 221865.000000 0 0 1
21.423800 -21.299031 -28.204388 41.329353 -0.782478 2.321878 0.053550 -0.011985 90447.600000 0 0 1
20.384700 -20.735931 -29.204418 41.211805 -0.793939 2.358368 0.076392 -0.025195 229722.000000 0 0 1
19.117700 -21.370531 -29.084658 40.842422 -0.840982 2.363308 0.071985 -0.029114 66317.200000 0 0 1
18.341300 -21.005131 -30.203938 41.108353 -0.852997 2.396079 0.064617 -0.034749 -1024850.000000 0 0 1
17.054900 -21.791431 -30.175038 40.942265 -0.906729 2.399439 0.084076 -0.042058 -1007180.000000 0 0 1
17.185300 -23.140831 -30.617688 42.050867 -0.932022 2.386358 0.072888 -0.025889 607508.000000 0 0 1
16.173400 -23.946731 -29.991818 41.647737 -0.976778 2.374787 0.091320 -0.034583 404186.000000 0 0 1
16.441500 -25.404531 -30.345198 42.854920 -0.996401 2.357588 0.110218 -0.032182 1709170.000000 0 0 1
15.330000 -26.327331 -29.964788 42.732023 -1.043505 2.347911 0.134794 -0.039911 1683120.000000 0 0 1
15.685500 -27.697531 -30.322788 43.962025 -1.055514 2.331939 0.161201 -0.036283 165941.000000 0 0 1
14.925300 -28.693831 -29.426858 43.726886 -1.091153 2.309012 0.166974 -0.049835 -152587.000000 0 0 1
15.384200 -28.916131 -28.112678 43.164093 -1.081856 2.280090 0.200373 -0.061056 -110246.000000 0 0 1
15.291400 -27.817931 -27.240118 41.829275 -1.068187 2.279989 0.162404 -0.057603 -351281.000000 0 0 1
16.409000 -27.823331 -26.197858 41.589912 -1.037943 2.252232 0.106818 -0.032760 -458679.000000 0 0 1
16.428900 -28.922831 -25.217018 41.741310 -1.054220 2.219465 0.111408 -0.039737 -387294.000000 0 0 1
17.259900 -28.746131 -24.115838 41.301548 -1.030064 2.194317 0.128268 -0.041757 -1687240.000000 0 0 1
16.894700 -27.694331 -23.008038 39.771556 -1.023026 2.187691 0.121200 -0.034297 547550.000000 0 0 1
15.696400 -27.989431 -22.304138 39.080172 -1.059701 2.178188 0.109205 -0.039155 661532.000000 0 0 1
14.473800 -28.017531 -23.042538 39.056773 -1.093959 2.201825 0.140030 -0.041409 -405894.000000 0 0 1
13.211300 -28.013431 -22.146338 38.075597 -1.130121 2.191541 0.113326 -0.031253 100103.000000 0 0 1
12.959000 -26.715631 -21.721538 36.789752 -1.119162 2.202380 0.079106 -0.028439 -539756.000000 0 0 1
11.611200 -26.441031 -21.463438 35.980929 -1.157014 2.209958 0.071277 -0.027214 -410231.000000 0 0 1
11.231400 -24.962031 -21.345638 34.711434 -1.147993 2.233113 0.061708 -0.023413 -318503.000000 0 0 1
11.638700 -24.305531 -20.153838 33.651083 -1.124212 2.212931 0.036664 -0.022539 -10498.200000 0 0 1
11.174300 -22.977031 -19.995738 32.444391 -1.118149 2.234842 0.037515 -0.024213 -291585.000000 0 0 1
11.562100 -22.291531 -18.694738 31.306353 -1.092319 2.210746 0.027701 -0.023210 -180533.000000 0 0 1
10.668000 -22.667031 -17.667838 30.655392 -1.130912 2.185036 0.032014 -0.027583 233884.000000 0 0 1
10.890200 -21.955631 -16.472238 29.529322 -1.110346 2.162561 0.027313 -0.020217 107526.000000 0 0 1
10.004000 -22.383031 -15.243338 28.869352 -1.150485 2.127053 0.024194 -0.013775 370081.000000 0 0 1
10.262500 -23.770631 -14.950038 29.897583 -1.163239 2.094443 0.029001 -0.015371 72398.600000 0 0 1
9.554800 -24.175531 -13.793138 29.427898 -1.194412 2.058626 0.015823 -0.012856 64079.300000 0 0 1
9.714300 -25.672831 -13.497538 30.588322 -1.209058 2.027804 0.034142 -0.014943 -391860.000000 0 0 1
11.017500 -26.021431 -13.152238 31.168599 -1.170281 2.006414 0.037749 -0.013613 -801046.000000 0 0 1
11.299900 -27.330531 -13.493238 32.507125 -1.178746 1.998833 0.042652 -0.020427 -496126.000000 0 0 1
12.613800 -27.823531 -12.848338 33.141162 -1.145160 1.968915 0.058542 -0.028289 758797.000000 0 0 1
13.876600 -27.311531 -13.267938 33.384397 -1.100701 1.979510 0.068096 -0.022251 468437.000000 0 0 1
14.261600 -27.796631 -14.514538 34.448770 -1.096748 2.005715 0.068812 -0.032430 -1401410.000000 0 0 1
15.552000 -27.251931 -15.108838 34.825414 -1.052218 2.019552 0.062319 -0.028941 -106308.000000 0 0 1
16.660500 -27.996631 -14.572938 35.689692 -1.033995 1.991413 0.116281 -0.031511 434418.000000 0 0 1
17.838600 -27.561331 -15.236038 36.193639 -0.996369 2.005299 0.138878 -0.035169 970430.000000 0 0 1
19.220100 -28.251131 -14.982138 37.309558 -0.973394 1.984019 0.124010 -0.033075 871085.000000 0 0 1
19.343400 -29.526631 -15.568938 38.579540 -0.990832 1.986195 0.095819 -0.024292 -255350.000000 0 0 1
20.679100 -29.958331 -15.493738 39.562390 -0.966636 1.973197 0.106043 -0.015955 53900.500000 0 0 1
21.007000 -30.962931 -16.639238 40.949498 -0.974676 1.989236 0.095984 -0.019628 -165024.000000 0 0 1
20.305100 -32.149831 -16.517338 41.457583 -1.007481 1.980585 0.076350 -0.008814 -141815.000000 0 0 1
20.626300 -33.060731 -17.589138 42.753175 -1.012995 1.994798 0.071913 -0.013147 -85160.000000 0 0 1
20.566300 33.071113 -17.330138 42.626341 1.014443 1.989481 0.051794 -0.005567 -207257.000000 0 0 1
21.466900 32.664013 -16.307838 42.352227 0.989374 1.966061 0.079897 -0.007712 160662.000000 0 0 1
21.357300 31.276913 -16.044938 41.131735 0.971676 1.971522 0.074028 -0.009959 -347074.000000 0 0 1
22.250800 30.717613 -14.941538 40.766646 0.943904 1.946056 0.082896 -0.009461 578547.000000 0 0 1
23.626300 30.502213 -15.307838 41.508035 0.911751 1.948506 0.090365 -0.006880 1322360.000000 0 0 1
24.600700 30.327113 -14.268338 41.575398 0.889276 1.921109 0.093044 -0.011955 712161.000000 0 0 1
24.468100 29.093513 -13.378438 40.300162 0.871541 1.909187 0.083875 -0.004084 -1139660.000000 0 0 1
24.480700 27.831113 -14.062538 39.643795 0.849358 1.933413 0.102122 0.001035 115336.000000 0 0 1
24.248700 26.722113 -13.222938 38.430676 0.833886 1.922047 0.045737 0.001595 241918.000000 0 0 1
22.797500 26.648113 -12.667038 37.286751 0.863117 1.917415 0.053057 -0.001372 -446500.000000 0 0 1
21.892900 26.138313 -13.621738 36.715967 0.873558 1.950885 0.069447 -0.006891 -918582.000000 0 0 1
20.556300 26.267413 -13.300438 35.908775 0.906769 1.950231 0.081770 -0.007535 -682671.000000 0 0 1
19.846300 27.613313 -13.551938 36.606362 0.947615 1.950028 0.085890 -0.016058 -602755.000000 0 0 1
19.920700 28.201413 -14.854838 37.587501 0.955806 1.977089 0.082299 -0.014012 537613.000000 0 0 1
18.984800 27.684613 -15.834338 37.115855 0.969696 2.011548 0.068588 -0.006746 172788.000000 0 0 1
19.015200 28.398613 -17.201838 38.261760 0.980778 2.037095 0.063184 0.000305 -164885.000000 0 0 1
18.456400 29.658413 -17.085738 38.886792 1.014142 2.025695 0.058933 -0.004387 -185586.000000 0 0 1
18.383600 30.116013 -18.420238 39.802464 1.022746 2.051938 0.048545 0.000561 -445229.000000 0 0 1
17.368700 31.190513 -18.764138 40.331287 1.062703 2.054714 0.035331 -0.004584 -354206.000000 0 0 1
17.689300 32.380413 -18.145638 41.117717 1.070801 2.027854 0.054907 -0.018680 143694.000000 0 0 1
16.815300 33.392513 -18.674838 41.791911 1.104301 2.034041 0.054158 -0.015916 275107.000000 0 0 1
16.898500 -32.977631 -17.916138 41.159100 -1.097260 2.021157 0.044254 -0.019805 870674.000000 0 0 1
15.898100 -31.957631 -18.305538 40.113994 -1.109171 2.044672 0.033456 -0.019620 1059460.000000 0 0 1
15.513600 -31.231231 -17.090038 38.834662 -1.109765 2.026475 0.046805 -0.024463 -66626.400000 0 0 1
14.382300 -30.211231 -17.240038 37.640244 -1.126485 2.046564 0.063539 -0.030387 132454.000000 0 0 1
13.107700 -30.771031 -17.498838 37.747550 -1.168100 2.052823 0.062507 -0.023566 46617.200000 0 0 1
12.126300 -29.799231 -17.778838 36.757699 -1.184327 2.075647 0.054077 -0.023953 1009750.000000 0 0 1
10.699500 -30.355531 -18.164738 36.958021 -1.231920 2.084604 0.078184 -0.025372 -174216.000000 0 0 1
10.134300 -30.933331 -16.991938 36.719218 -1.254199 2.051895 0.079496 -0.020253 295001.000000 0 0 1
9.019600 -31.791831 -17.263538 37.284091 -1.294352 2.052204 0.109345 -0.014833 736552.000000 0 0 1
7.689300 -31.106131 -17.723938 36.617683 -1.328459 2.076047 0.111169 -0.007651 -284973.000000 0 0 1
7.727600 -30.684031 -19.077038 36.948058 -1.324083 2.113345 0.103391 -0.004450 -261849.000000 0 0 1
7.449700 -31.767931 -19.960538 38.250785 -1.340455 2.119795 0.125231 -0.020763 -685256.000000 0 0 1
7.556800 -31.388531 -21.426438 38.748386 -1.334542 2.156713 0.131942 -0.016346 58360.600000 0 0 1
8.799600 -30.906131 -21.933238 38.906154 -1.293416 2.169712 0.134517 -0.021384 793454.000000 0 0 1
9.844900 -31.820331 -22.288938 40.078078 -1.270747 2.160528 0.142999 -0.025748 634217.000000 0 0 1
9.406800 -32.861631 -23.397938 41.422678 -1.291997 2.171058 0.158966 -0.043590 -385497.000000 0 0 1
8.521900 -33.831431 -22.898538 41.731662 -1.324037 2.151616 0.174270 -0.052912 -165935.000000 0 0 1
8.214200 32.814313 -23.862738 41.396649 1.325513 2.185163 0.176081 -0.066607 82619.500000 0 0 1
7.124100 31.779613 -23.375438 40.088748 1.350270 2.193326 0.172810 -0.074607 1472490.000000 0 0 1
5.766700 32.263313 -23.419338 40.282026 1.393925 2.191225 0.175530 -0.067932 874997.000000 0 0 1
5.391200 33.043813 -22.287138 40.220333 1.409068 2.158109 0.139522 -0.055482 -190067.000000 0 0 1
4.152300 -33.783231 -22.728138 40.928188 -1.448500 2.159541 0.126926 -0.044157 618893.000000 0 0 1
2.925300 33.172013 -22.610138 40.251189 1.482838 2.167267 0.117678 -0.048472 -314401.000000 0 0 1
1.864100 -33.634031 -22.763438 40.655837 -1.515430 2.165068 0.111127 -0.038169 -1112840.000000 0 0 1
0.538300 33.465913 -22.284938 40.210392 1.554713 2.158208 0.091793 -0.042774 -511548.000000 0 0 1
0.410400 33.498113 -20.895538 39.483104 1.558546 2.128486 0.080962 -0.035675 -122861.000000 0 0 1
-0.898500 33.099013 -20.553138 38.971573 -1.543657 2.126320 0.082088 -0.043659 130638.000000 0 0 1
-1.332500 33.260113 -19.110138 38.382393 -1.530755 2.091958 0.092289 -0.034484 59041.300000 0 0 1
-0.652900 32.405913 -18.207538 37.176390 -1.550651 2.082612 0.089920 -0.047878 -81238.600000 0 0 1
-1.306500 32.288613 -16.932038 36.482262 -1.530355 2.053434 0.063133 -0.032176 126992.000000 0 0 1
-0.567200 31.375413 -15.944938 35.199138 -1.552720 2.040915 0.052828 -0.031153 603281.000000 0 0 1
0.600500 31.977513 -15.339938 35.471618 1.552020 2.018012 0.043240 -0.023324 318407.000000 0 0 1
1.298900 30.989613 -14.644238 34.300102 1.528907 2.011907 0.043542 -0.012140 228535.000000 0 0 1
2.441900 31.466613 -13.725038 34.416381 1.493349 1.980997 0.060835 -0.020471 27623.100000 0 0 1
3.543700 32.040513 -14.350838 35.285958 1.460643 1.989636 0.072659 -0.026752 275834.000000 0 0 1
4.625100 32.363013 -13.459738 35.354218 1.428844 1.961361 0.088299 -0.033084 1141420.000000 0 0 1
5.958400 32.863413 -14.104038 36.255073 1.391437 1.970367 0.102649 -0.042084 551490.000000 0 0 1
6.799400 31.784013 -14.434338 35.564103 1.360048 1.988725 0.104637 -0.030423 -18679.800000 0 0 1
8.019700 32.236813 -15.025238 36.459368 1.326971 1.995564 0.096746 -0.022819 850973.000000 0 0 1
9.090300 31.116713 -15.268938 35.833279 1.286570 2.010985 0.089772 -0.023774 190551.000000 0 0 1
9.532000 30.635213 -14.064038 35.031022 1.269146 1.983922 0.073724 -0.025021 -638847.000000 0 0 1
10.513800 29.664513 -14.274638 34.558481 1.230186 1.996605 0.073785 -0.026145 -44274.300000 0 0 1
9.996600 28.250613 -13.900738 33.034220 1.230692 2.005121 0.086661 -0.023779 -32285.800000 0 0 1
9.175000 27.704713 -14.897338 32.766789 1.250993 2.042773 0.097499 -0.027674 -128757.000000 0 0 1
8.692800 26.450113 -14.515638 31.398678 1.253268 2.051385 0.083856 -0.022643 -579771.000000 0 0 1
8.009400 25.777013 -15.715238 31.234174 1.269535 2.098027 0.084867 -0.023113 13406.200000 0 0 1
8.837200 25.136913 -16.660038 31.424789 1.232730 2.129581 0.100679 -0.025763 378408.000000 0 0 1
7.974100 24.471013 -17.592038 31.175256 1.255788 2.170375 0.093619 -0.019826 738456.000000 0 0 1
8.796600 23.447313 -18.448438 31.104687 1.211881 2.205710 0.106279 -0.015840 317611.000000 0 0 1
8.084700 22.465113 -19.228438 30.655775 1.225349 2.248797 0.120457 -0.020528 -436333.000000 0 0 1
8.909600 21.446613 -19.687138 30.445387 1.177058 2.273965 0.107241 -0.015742 -362032.000000 0 0 1
8.342300 20.491713 -20.724238 30.314985 1.184179 2.323521 0.095950 -0.029277 319498.000000 0 0 1
7.276800 19.611213 -20.328838 29.168702 1.215491 2.341918 0.114287 -0.030028 1008100.000000 0 0 1
6.538700 19.035713 -21.445138 29.411000 1.239927 2.387881 0.114459 -0.025316 545678.000000 0 0 1
25.739300 -12.587987 -9.539438 30.198838 -0.454855 1.892188 0.123611 -0.020096 -265200.000000 0 0 1
26.261400 -12.120387 -8.376838 30.112063 -0.432400 1.852704 0.132600 -0.026574 318592.000000 0 0 1
25.285700 -12.199887 -7.358838 29.023376 -0.449535 1.827143 0.107651 -0.010467 -490903.000000 0 0 1
25.752800 -11.496687 -6.081138 28.850663 -0.419877 1.783169 0.099065 -0.014391 -279896.000000 0 0 1
25.988100 -10.106487 -6.079938 28.539237 -0.370891 1.785479 0.113240 -0.029751 1107020.000000 0 0 1
26.922100 -9.544987 -7.037538 29.418246 -0.340714 1.812362 0.086101 -0.020884 -483684.000000 0 0 1
27.049300 -8.001887 -6.682538 28.988810 -0.287623 1.803410 0.115132 -0.018687 -156124.000000 0 0 1
27.555700 -7.680687 -5.387738 29.109058 -0.271834 1.756958 0.122731 -0.034973 584483.000000 0 0 1
28.818300 -8.186387 -4.992338 30.371611 -0.276778 1.735921 0.137367 -0.044978 -332586.000000 0 0 1
29.173800 -8.139087 -3.536138 30.493599 -0.272068 1.687021 0.157356 -0.064095 -591446.000000 0 0 1
29.731900 -6.886587 -3.123538 30.678452 -0.227609 1.672788 0.183307 -0.043988 604013.000000 0 0 1
30.202500 -6.984087 -1.770538 31.050012 -0.227248 1.627849 0.243255 -0.046352 -248025.000000 0 0 1
31.006300 -5.741187 -1.338638 31.561746 -0.183088 1.613222 0.235439 -0.056475 -805815.000000 0 0 1
30.197600 -4.658487 -0.979238 30.570499 -0.153060 1.602834 0.237068 -0.048461 -111211.000000 0 0 1
30.874400 -3.443787 -0.711038 31.074005 -0.111083 1.593680 0.220933 -0.030551 182520.000000 0 0 1
31.738200 -3.367687 0.611862 31.922234 -0.105713 1.551628 0.196080 -0.034286 573060.000000 0 0 1
31.017800 -3.539387 1.822262 31.272221 -0.113617 1.512492 0.246764 -0.054739 477054.000000 0 0 1
31.977400 -3.401287 2.858662 32.284591 -0.105967 1.482135 0.178662 -0.041233 282205.000000 0 0 1
31.428100 -3.839587 4.192262 31.938111 -0.121568 1.439154 0.203814 -0.044175 -47301.400000 0 0 1
31.343100 -5.260987 4.237962 32.062879 -0.166301 1.438232 0.179294 -0.045298 -84028.700000 0 0 1
31.512300 -5.643987 5.542762 32.490027 -0.177225 1.399359 0.171899 -0.042138 312864.000000 0 0 1
32.276600 -7.024887 5.583062 33.500724 -0.214304 1.403360 0.127778 -0.037495 648886.000000 0 0 1
33.655600 -7.000187 5.244662 34.773675 -0.205071 1.419396 0.146283 -0.050325 199144.000000 0 0 1
34.168800 -8.319487 5.170462 35.545104 -0.238835 1.424816 0.146135 -0.047131 188766.000000 0 0 1
35.641400 -8.448387 5.645562 37.061530 -0.232743 1.417872 0.206818 -0.057739 318089.000000 0 0 1
36.551300 -8.015887 4.643462 37.706945 -0.215887 1.447337 0.227595 -0.058105 -596510.000000 0 0 1
-37.850107 -8.006487 5.122762 39.025339 0.208458 1.439149 0.249357 -0.058800 11380.700000 0 0 1
-36.787107 -7.705487 3.993562 37.797014 0.206476 1.464941 0.275429 -0.061081 420162.000000 0 0 1
-36.448107 -8.863487 3.221962 37.648465 0.238551 1.485111 0.339622 -0.071319 -213829.000000 0 0 1
-35.460107 -8.567987 2.296962 36.552778 0.237079 1.507915 0.347265 -0.078132 -474898.000000 0 0 1
-35.051007 -9.725987 1.358262 36.400725 0.270671 1.533474 0.360954 -0.069814 99663.500000 0 0 1
-34.166107 -10.687087 1.887162 35.848264 0.303156 1.518129 0.355038 -0.067503 89938.600000 0 0 1
-33.746207 -11.588887 0.886762 35.691667 0.330795 1.545949 0.380523 -0.068610 -256021.000000 0 0 1
-33.079707 -12.906887 1.383762 35.535468 0.372008 1.531846 0.237652 -0.047590 216249.000000 0 0 1
-31.863007 -12.760587 2.094762 34.387088 0.380923 1.509841 0.256562 -0.041268 50750.900000 0 0 1
-30.789607 -12.956787 1.197562 33.426223 0.398322 1.534962 0.276294 -0.030848 -661094.000000 0 0 1
-29.461907 -13.304987 1.889462 32.382043 0.424183 1.512414 0.269708 -0.038396 151165.000000 0 0 1
-28.723207 -12.132587 2.319562 31.266638 0.399664 1.496542 0.245071 -0.054724 877490.000000 0 0 1
-27.394207 -12.493687 2.712162 30.230623 0.427891 1.480960 0.216031 -0.031576 497685.000000 0 0 1
-26.705807 -11.344887 3.471762 29.222589 0.401709 1.451711 0.189963 -0.035516 637489.000000 0 0 1
-25.368007 -11.704887 3.846662 28.201719 0.432297 1.433972 0.157934 -0.023363 674122.000000 0 0 1
-24.798007 -10.843487 4.788762 27.485534 0.412219 1.395674 0.158114 -0.023836 941425.000000 0 0 1
-23.382907 -11.289687 5.349762 26.511079 0.449808 1.367608 0.141045 -0.008357 955805.000000 0 0 1
-23.417507 -12.370687 6.261362 27.214301 0.486004 1.338640 0.145698 -0.014045 -170286.000000 0 0 1
-22.192007 -12.665887 6.888762 26.464408 0.518628 1.307460 0.123446 -0.005576 20606.700000 0 0 1
-21.813207 -12.008487 8.295962 26.245813 0.503238 1.249194 0.146080 -0.012046 -350327.000000 0 0 1
-21.626507 -10.578587 8.328362 25.474966 0.454929 1.237750 0.139166 -0.009773 1034070.000000 0 0 1
-22.805807 -9.760987 8.495662 26.221326 0.404413 1.240844 0.176635 -0.026690 362382.000000 0 0 1
-23.504407 -9.726087 9.931762 27.307394 0.392345 1.198557 0.123745 -0.007932 -327502.000000 0 0 1
-24.069007 -10.955987 10.299062 28.379947 0.427162 1.199419 0.118714 -0.017679 6127.770000 0 0 1
-25.359107 -11.217487 9.788162 29.406197 0.416470 1.231461 0.113832 -0.016628 -396845.000000 0 0 1
-26.482307 -10.670987 10.696662 30.489360 0.383045 1.212336 0.106553 -0.012367 -703881.000000 0 0 1
-26.646907 -11.298987 11.972762 31.322065 0.401046 1.178570 0.102776 -0.009274 501072.000000 0 0 1
-27.968807 -11.106387 12.470962 32.575004 0.378003 1.177930 0.092036 -0.010321 456088.000000 0 0 1
-28.225907 -11.804987 13.871262 33.592729 0.396124 1.145134 0.082607 -0.001507 -187845.000000 0 0 1
-28.163607 -13.206287 13.758062 34.012924 0.438470 1.154370 0.074218 -0.011605 249083.000000 0 0 1
-28.234007 -13.949487 14.979362 34.873035 0.458890 1.126813 0.070305 -0.001719 -435011.000000 0 0 1
-27.926907 -15.462187 14.848962 35.206292 0.505654 1.135400 0.075105 -0.004061 111248.000000 0 0 1
-29.057307 -16.262787 15.155962 36.585632 0.510245 1.143667 0.067228 -0.003565 23966.900000 0 0 1
-28.705807 -17.618587 15.408662 37.038693 0.550479 1.141737 0.055436 -0.001924 -446856.000000 0 0 1
-29.836407 -18.514487 15.894662 38.543970 0.555381 1.145734 0.036112 0.006603 -332962.000000 0 0 1
-29.883707 -18.401487 17.317362 39.134916 0.551934 1.112407 0.050656 0.009550 -210671.000000 0 0 1
-30.401307 -19.512487 18.023462 40.371051 0.570611 1.108008 0.052602 0.012041 102122.000000 0 0 1
-29.468307 -20.745587 18.303962 40.420236 0.613403 1.100847 0.021627 0.012070 -405586.000000 0 0 1
-28.312107 -20.483687 19.012362 39.782241 0.626321 1.072522 0.030760 0.014737 -93798.500000 0 0 1
-27.495507 -21.644887 19.223162 39.925355 0.666897 1.068457 0.023489 0.019050 266175.000000 0 0 1
-26.031507 -21.475987 19.664562 39.058320 0.689800 1.043190 0.031741 0.020602 -379837.000000 0 0 1
-25.160907 -21.112787 18.626762 37.759466 0.698138 1.054916 0.041195 0.007419 -169588.000000 0 0 1
-23.881707 -21.167787 19.230162 37.258693 0.725228 1.028475 0.068574 0.012064 -537544.000000 0 0 1
-22.664507 -20.959087 18.354262 35.914372 0.746324 1.034383 0.081828 -0.001501 -550772.000000 0 0 1
-22.509207 -21.876487 17.335562 35.857590 0.771144 1.066198 0.079952 -0.015776 1083030.000000 0 0 1
-21.256807 -21.683387 16.628462 34.619746 0.795332 1.069780 0.094968 -0.018961 915857.000000 0 0 1
-21.060907 -22.715687 15.475862 34.627540 0.823181 1.107473 0.095989 -0.016153 -678145.000000 0 0 1
-20.996007 -24.085087 15.949862 35.711648 0.853814 1.107802 0.098522 -0.021649 466933.000000 0 0 1
-19.858907 -24.512987 16.698262 35.694462 0.889904 1.083984 0.111678 -0.024358 468728.000000 0 0 1
-18.525507 -24.682187 15.925362 34.727826 0.926936 1.094404 0.111406 -0.032220 566967.000000 0 0 1
-17.650607 -23.542487 15.847862 33.420762 0.927465 1.076750 0.120638 -0.033317 541512.000000 0 0 1
-16.400507 -23.816987 15.249862 32.692258 0.967759 1.085504 0.127858 -0.034477 318380.000000 0 0 1
-15.460107 -22.594187 15.077262 31.254376 0.970718 1.067398 0.119407 -0.033267 320612.000000 0 0 1
-16.067707 -21.620787 14.191362 30.447075 0.931687 1.085920 0.127330 -0.034159 160284.000000 0 0 1
-17.021207 -20.737787 14.757462 30.619601 0.883511 1.067905 0.107383 -0.032429 -274739.000000 0 0 1
-16.613907 -19.658287 15.802262 30.202344 0.869133 1.020179 0.108462 -0.027662 -426449.000000 0 0 1
-15.950707 -18.634287 15.109362 28.808931 0.862837 1.018706 0.110985 -0.031018 -80888.700000 0 0 1
-15.850407 -17.561187 16.017462 28.569035 0.836557 0.975616 0.105589 -0.026469 -309596.000000 0 0 1
-15.152907 -16.319187 15.353162 27.048956 0.822439 0.967201 0.105151 -0.024479 631003.000000 0 0 1
-15.921807 -15.575687 14.341162 26.491034 0.774410 0.998744 0.107350 -0.023082 491510.000000 0 0 1
-16.064607 -16.186087 13.061862 26.280663 0.789165 1.050642 0.131383 -0.023495 -275325.000000 0 0 1
-16.952907 -15.374187 12.123462 25.898745 0.736601 1.083646 0.115732 -0.015813 684460.000000 0 0 1
-18.339907 -15.399787 12.498662 27.013370 0.698476 1.089776 0.110781 -0.018539 472036.000000 0 0 1
-19.102807 -14.517487 11.743362 26.712940 0.649849 1.115628 0.138796 -0.018251 -287296.000000 0 0 1
-20.621607 -14.813187 11.818162 28.006251 0.622925 1.135165 0.124566 -0.019403 189864.000000 0 0 1
-21.158407 -15.987087 11.186662 28.782052 0.647069 1.171611 0.136202 -0.030669 211462.000000 0 0 1
-21.192907 -15.983687 9.782562 28.289858 0.646184 1.217708 0.159914 -0.034539 200861.000000 0 0 1
-22.198607 -17.014087 9.141762 29.424974 0.653945 1.254888 0.158004 -0.022392 493028.000000 0 0 1
-21.628607 -18.295887 9.184562 29.780737 0.702116 1.257279 0.160934 -0.011257 -107862.000000 0 0 1
-22.557707 -19.272087 8.803362 30.947740 0.707012 1.282354 0.156453 -0.020994 -13566.100000 0 0 1
-21.970907 -20.711487 8.772662 31.442742 0.755900 1.288039 0.163610 -0.023769 -46974.500000 0 0 1
-20.787307 -20.827987 8.034662 30.503655 0.786376 1.304251 0.184308 -0.022734 -605644.000000 0 0 1
-20.360107 -22.148587 8.073162 31.149154 0.827447 1.308626 0.172947 -0.033505 689213.000000 0 0 1
-18.942507 -22.334087 7.435362 30.214477 0.867381 1.322156 0.177437 -0.045273 745678.000000 0 0 1
-17.796707 -21.893187 8.124162 29.360456 0.888246 1.290434 0.149040 -0.048028 -787292.000000 0 0 1
-16.639707 -22.329387 7.536762 28.849335 0.930379 1.306484 0.153242 -0.043344 -433951.000000 0 0 1
-15.314007 -21.877887 8.192662 27.933500 0.960086 1.273128 0.108430 -0.031778 137829.000000 0 0 1
-14.104307 -22.263587 7.625462 27.436225 1.006098 1.289154 0.103813 -0.021632 -373477.000000 0 0 1
-12.944907 -21.750487 8.237962 26.618007 1.033947 1.256141 0.093651 -0.023952 342041.000000 0 0 1
-11.695207 -21.999087 7.353562 25.977154 1.082172 1.283794 0.084398 -0.020631 87908.000000 0 0 1
-11.259107 -23.322987 7.460862 26.951691 1.121046 1.290309 0.072771 -0.015900 -971589.000000 0 0 1
-10.088107 -23.517687 6.743862 26.463771 1.165578 1.313121 0.080142 -0.028876 -289693.000000 0 0 1
-9.762107 -25.003277 6.642662 27.651176 1.198564 1.328193 0.106350 -0.022175 -80858.700000 0 0 1
-10.743307 -25.685227 5.913062 28.462498 1.174642 1.361523 0.106380 -0.029657 -496680.000000 0 0 1
-10.827107 -27.074937 6.159862 29.803059 1.190381 1.362610 0.127716 -0.029977 -311477.000000 0 0 1
-9.921107 -27.978597 5.352462 30.164202 1.230033 1.392408 0.162520 -0.036403 -324029.000000 0 0 1
-8.534107 -27.833897 5.579162 29.642602 1.273288 1.381453 0.153708 -0.038220 340342.000000 0 0 1
-7.642107 -28.903147 5.237162 30.351632 1.312308 1.397379 0.170470 -0.034690 462269.000000 0 0 1
-7.809107 -30.193027 5.980562 31.754813 1.317703 1.381329 0.200553 -0.047810 -471400.000000 0 0 1
-7.560107 -30.077977 7.369462 31.877090 1.324547 1.337502 0.187223 -0.046357 88391.300000 0 0 1
-7.269107 -31.362947 7.929162 33.156386 1.343044 1.329312 0.222234 -0.052662 -237568.000000 0 0 1
-7.377107 -31.255507 9.476862 33.483419 1.339012 1.283843 0.191287 -0.058995 -723221.000000 0 0 1
-6.444107 -30.571747 10.244362 32.880164 1.363051 1.253955 0.175395 -0.054564 -313747.000000 0 0 1
-6.542107 -30.877107 11.607362 33.629239 1.362008 1.218390 0.149039 -0.044058 -196749.000000 0 0 1
-5.561107 -30.047487 12.464862 33.002275 1.387790 1.183488 0.120427 -0.036445 130107.000000 0 0 1
-5.927107 -28.695567 12.468762 31.843935 1.367109 1.168472 0.108698 -0.034324 97134.300000 0 0 1
-5.199107 -27.937217 13.471362 31.448313 1.386801 1.128114 0.080024 -0.035495 -205890.000000 0 0 1
-5.904107 -27.455647 14.774662 31.732659 1.358980 1.086486 0.094108 -0.031046 -251716.000000 0 0 1
-6.520107 -28.355987 15.665862 33.045317 1.344787 1.076886 0.089660 -0.028683 81951.000000 0 0 1
-5.731107 -29.474427 16.100062 34.070506 1.378749 1.078613 0.067960 -0.040029 -47492.000000 0 0 1
-6.561107 -30.641127 16.675362 35.496401 1.359854 1.081759 0.075471 -0.036547 20794.100000 0 0 1
-7.413107 -31.199617 15.700562 35.705432 1.337520 1.115504 0.087651 -0.033999 -89495.200000 0 0 1
-7.682107 -32.630557 15.786862 37.053920 1.339580 1.130673 0.093387 -0.040481 379557.000000 0 0 1
-6.524107 -33.598977 15.351762 37.511755 1.379007 1.149162 0.093811 -0.043296 301209.000000 0 0 1
-6.159107 -33.479557 13.961062 36.793023 1.388864 1.181596 0.102069 -0.041832 427700.000000 0 0 1
-5.079107 33.283182 13.722762 36.357691 -1.419362 1.183769 0.135212 -0.048399 1179150.000000 0 0 1
-3.930107 33.782198 12.761462 36.325439 -1.454980 1.211827 0.153166 -0.056553 717684.000000 0 0 1
-4.499107 -33.758857 11.495662 35.945133 1.438305 1.245266 0.165641 -0.053783 25677.600000 0 0 1
-3.592107 -33.254627 10.551862 35.072998 1.463195 1.265208 0.167476 -0.055336 -681009.000000 0 0 1
-4.207107 -33.014627 9.207462 34.531763 1.444048 1.300894 0.179826 -0.061216 -1030130.000000 0 0 1
-4.439107 33.536962 8.332662 34.840590 -1.439197 1.329290 0.188100 -0.067215 764741.000000 0 0 1
-5.287107 32.428710 8.746062 34.001005 -1.409180 1.310642 0.207815 -0.067390 664999.000000 0 0 1
-6.719107 32.656595 9.299662 34.613340 -1.367878 1.298781 0.216532 -0.056918 127736.000000 0 0 1
-7.647107 33.100274 8.328962 34.978250 -1.343751 1.330368 0.201762 -0.051158 -781909.000000 0 0 1
-8.937107 33.228008 8.849362 35.528630 -1.308051 1.319069 0.158200 -0.049689 -488813.000000 0 0 1
-9.988107 33.338380 7.745462 35.653920 -1.279709 1.351810 0.156578 -0.057679 -329272.000000 0 0 1
-10.228107 -33.044417 7.146362 35.321638 1.270623 1.367067 0.161378 -0.046314 -64085.000000 0 0 1
-11.165107 -33.211537 6.114762 35.567627 1.246485 1.398019 0.149380 -0.036496 -307858.000000 0 0 1
-11.546607 -31.939947 5.408962 34.391005 1.223905 1.412862 0.127957 -0.045469 615640.000000 0 0 1
-12.391007 -31.091537 6.245462 34.047415 1.191555 1.386317 0.124751 -0.041051 611633.000000 0 0 1
-13.060807 -30.033697 5.545762 33.216910 1.160594 1.403055 0.111731 -0.036686 -400880.000000 0 0 1
-14.163707 -29.354467 6.343362 33.204421 1.121242 1.378575 0.080883 -0.029024 -473415.000000 0 0 1
-15.223407 -30.279967 6.566062 34.521612 1.104947 1.379429 0.097216 -0.032676 -195719.000000 0 0 1
-16.065907 -29.756447 7.551262 34.649402 1.075730 1.351100 0.090908 -0.037456 -392450.000000 0 0 1
35.438936 -12.101687 -12.481938 39.473634 -0.329065 1.892528 0.161619 -0.034303 -404433.000000 0 0 1
34.200646 -12.381487 -11.852338 38.255239 -0.347347 1.885803 0.176957 -0.036974 401198.000000 0 0 1
33.946856 -13.764687 -11.686738 38.450429 -0.385219 1.879625 0.171652 -0.040979 -178997.000000 0 0 1
34.721916 -14.528287 -10.598938 39.102686 -0.396283 1.845284 0.149303 -0.038680 -155567.000000 0 0 1
36.105986 -14.605587 -10.835738 40.427449 -0.384397 1.842143 0.158243 -0.042073 -129284.000000 0 0 1
36.876986 -14.715587 -9.643938 40.859101 -0.379683 1.809074 0.131623 -0.031549 204727.000000 0 0 1
-37.387650 -15.140787 -10.036238 41.566885 0.384781 1.814654 0.107956 -0.035838 -153301.000000 0 0 1
-36.658550 -14.081087 -10.635338 40.684601 0.366738 1.835278 0.116297 -0.042272 -291393.000000 0 0 1
-35.337041 -14.527087 -10.799538 39.703561 0.390039 1.846272 0.103839 -0.047099 -177282.000000 0 0 1
-34.336099 -13.414687 -11.199538 38.527279 0.372453 1.865745 0.105987 -0.054033 -101376.000000 0 0 1
-34.045549 -12.518087 -10.148338 37.666838 0.352343 1.843591 0.115569 -0.049907 541171.000000 0 0 1
-33.371990 -11.358187 -10.692738 36.837926 0.328053 1.865299 0.125008 -0.043749 -246493.000000 0 0 1
-33.713280 -10.033987 -10.045538 36.581129 0.289278 1.848980 0.135269 -0.039735 -86270.400000 0 0 1
-33.173170 -9.799387 -8.723838 35.673415 0.287232 1.817849 0.140710 -0.036332 352798.000000 0 0 1
-33.782330 -8.666887 -8.133038 35.812108 0.251135 1.799898 0.189095 -0.049954 -76087.600000 0 0 1
-33.475420 -8.525487 -6.631338 35.174740 0.249378 1.760457 0.181062 -0.047748 -837183.000000 0 0 1
-32.185680 -8.120587 -6.313238 33.789331 0.247146 1.758742 0.167139 -0.054709 -641746.000000 0 0 1
-31.999800 -7.803887 -4.932738 33.304951 0.239204 1.719451 0.206986 -0.049184 -236299.000000 0 0 1
-31.697310 -8.931687 -3.937638 33.166240 0.274659 1.689801 0.179806 -0.047245 -96587.400000 0 0 1
-32.714190 -9.928787 -3.889738 34.408271 0.294666 1.684085 0.187001 -0.050160 401598.000000 0 0 1
-32.482180 -10.767587 -2.783638 34.333389 0.320093 1.651962 0.204134 -0.047685 -143749.000000 0 0 1
-33.312510 -12.055187 -2.821538 35.538879 0.347220 1.650273 0.221145 -0.050022 -23218.600000 0 0 1
-34.661681 -11.781587 -2.492438 36.694007 0.327651 1.638774 0.250752 -0.060120 270562.000000 0 0 1
-35.432868 -12.972487 -2.544938 37.818650 0.350958 1.638140 0.277107 -0.064247 99549.800000 0 0 1
-36.961250 -12.718187 -2.527538 39.169819 0.331405 1.635369 0.288705 -0.059857 35807.200000 0 0 1
-37.546170 -12.417787 -1.287138 39.567323 0.319409 1.603332 0.330223 -0.068934 566542.000000 0 0 1
36.743766 -12.437887 -1.383738 38.816493 -0.326396 1.606452 0.305335 -0.071883 328039.000000 0 0 1
36.052386 -11.648487 -0.236338 37.888226 -0.312511 1.577034 0.323985 -0.088480 -15100.400000 0 0 1
36.299426 -12.264287 0.978562 38.327779 -0.325823 1.545262 0.326377 -0.073802 156476.000000 0 0 1
35.763706 -11.556287 2.085262 37.642247 -0.312539 1.515371 0.327689 -0.063121 278218.000000 0 0 1
36.322816 -12.175287 3.390862 38.458842 -0.323427 1.482513 0.265159 -0.063997 -172686.000000 0 0 1
35.528616 -11.863087 4.481162 37.723947 -0.322263 1.451727 0.217030 -0.063721 -270618.000000 0 0 1
35.974306 -12.443687 5.712662 38.491954 -0.333022 1.421834 0.200994 -0.053692 -564301.000000 0 0 1
35.028656 -12.328787 6.898862 37.770359 -0.338422 1.387112 0.155611 -0.048182 21975.300000 0 0 1
34.434386 -11.041187 7.195862 36.870248 -0.310287 1.374368 0.157173 -0.037399 233767.000000 0 0 1
33.992366 -10.925287 8.522462 36.707972 -0.310976 1.336489 0.119156 -0.034632 -764717.000000 0 0 1
33.245966 -9.644187 8.811162 35.720319 -0.282337 1.321553 0.127804 -0.046850 493732.000000 0 0 1
31.878766 -9.709087 8.337762 34.351716 -0.295638 1.325630 0.130843 -0.041836 947577.000000 0 0 1
31.089016 -8.707087 8.991262 33.513923 -0.273073 1.299185 0.150592 -0.030324 467569.000000 0 0 1
29.578606 -8.942787 8.680062 32.096898 -0.293602 1.296954 0.140585 -0.023306 155100.000000 0 0 1
29.217006 -8.450187 7.426862 31.308104 -0.281539 1.331295 0.152803 -0.030932 1031390.000000 0 0 1
28.051806 -9.158787 6.896262 30.304218 -0.315584 1.341217 0.173310 -0.041206 985310.000000 0 0 1
27.242306 -8.405587 5.830962 29.099781 -0.299281 1.369052 0.180755 -0.040157 -278380.000000 0 0 1
26.377806 -7.429387 6.353462 28.130960 -0.274541 1.342978 0.198545 -0.042289 688827.000000 0 0 1
25.417906 -6.908887 5.408762 26.889726 -0.265400 1.368269 0.227011 -0.049009 260232.000000 0 0 1
25.961606 -5.782487 4.580262 26.989275 -0.219155 1.400264 0.230019 -0.049374 -234964.000000 0 0 1
26.950906 -6.091387 3.617162 27.866471 -0.222283 1.440626 0.218289 -0.049125 292302.000000 0 0 1
27.331606 -4.961987 2.838362 27.923007 -0.179592 1.468971 0.229726 -0.053044 56129.900000 0 0 1
27.707906 -5.312687 1.447962 28.249766 -0.189440 1.519518 0.226750 -0.059236 -204134.000000 0 0 1
26.621306 -5.608287 0.601662 27.212292 -0.207633 1.548685 0.205867 -0.052800 -39256.700000 0 0 1
26.983006 -5.561487 -0.761038 27.560695 -0.203264 1.598413 0.204927 -0.057879 2130.130000 0 0 1
25.845006 -5.992187 -1.747638 26.588059 -0.227826 1.636574 0.163721 -0.042593 22868.600000 0 0 1
24.718906 -5.178687 -1.810438 25.320363 -0.206516 1.642359 0.191607 -0.036177 -147197.000000 0 0 1
24.207006 -5.118487 -3.157238 24.942859 -0.208377 1.697716 0.188841 -0.031019 -13131.800000 0 1 0
22.904906 -4.301387 -3.292738 23.536754 -0.185631 1.711154 0.156696 -0.024081 -208132.000000 0 1 0
23.022006 -2.868787 -3.285338 23.431520 -0.123972 1.711470 0.181411 -0.023095 -39890.000000 0 1 0
23.683006 -2.262387 -4.368038 24.188488 -0.095239 1.752376 0.203702 -0.019659 -258279.000000 0 1 0
22.821206 -1.459587 -5.377138 23.491519 -0.063870 1.801741 0.203934 -0.008686 -19136.600000 0 1 0
22.268506 -0.304787 -4.769238 22.775533 -0.013686 1.781760 0.182453 -0.002175 147858.000000 0 1 0
21.609606 0.487613 -5.722338 22.359741 0.022561 1.829597 0.191047 0.006693 -284539.000000 0 1 0
21.377806 1.948613 -5.271338 22.104178 0.090900 1.811594 0.178757 0.005630 -13159.300000 0 1 0
22.558106 2.724213 -5.164438 23.301522 0.120182 1.794287 0.233165 -0.003459 497671.000000 0 1 0
23.234306 2.633213 -3.902038 23.706385 0.112851 1.736147 0.249276 -0.001936 -112366.000000 0 1 0
24.156206 3.844913 -3.735438 24.743871 0.157845 1.722340 0.281424 -0.018594 -154374.000000 0 1 0
23.497306 5.085013 -3.538638 24.300262 0.213122 1.716937 0.219267 -0.012594 531089.000000 0 1 0
24.415506 6.070913 -3.092338 25.348284 0.243708 1.693095 0.224294 -0.011220 27713.900000 0 0 1
23.934506 7.528413 -3.321938 25.309541 0.304744 1.702429 0.205854 -0.010459 256551.000000 0 0 1
22.895806 7.910313 -2.415038 24.343858 0.332653 1.670165 0.223015 -0.018957 589365.000000 0 1 0
22.289906 9.131913 -2.809638 24.251306 0.388830 1.686912 0.181353 -0.013338 290489.000000 0 1 0
21.268006 9.549913 -1.672238 23.373603 0.422045 1.642401 0.127354 -0.013871 203879.000000 0 1 0
21.919706 9.618013 -0.420638 23.940690 0.413488 1.588367 0.103627 -0.026682 720624.000000 0 1 0
20.988606 9.957013 0.587162 23.238082 0.442959 1.545526 0.058213 -0.030642 -101610.000000 0 1 0
21.636806 10.108313 2.024862 23.967258 0.437050 1.486211 0.086727 -0.035117 -303739.000000 0 1 0
22.608706 11.121913 2.197162 25.291858 0.457171 1.483814 0.113616 -0.047590 315927.000000 0 0 1
22.357906 12.475413 1.953862 25.677412 0.508954 1.494630 0.124536 -0.041924 -555949.000000 0 0 1
21.198906 13.238113 2.683762 25.136504 0.558219 1.463825 0.105367 -0.026955 879206.000000 0 0 1
19.853006 12.773513 2.413162 23.730315 0.571725 1.468929 0.124534 -0.025882 1876050.000000 0 1 0
18.838106 13.497913 3.138762 23.386315 0.621729 1.436176 0.115333 -0.028455 354710.000000 0 1 0
18.819806 13.402813 4.678362 23.573451 0.618844 1.371011 0.111062 -0.028947 -916463.000000 0 1 0
18.186306 12.227213 5.069462 22.493241 0.591914 1.343466 0.068981 -0.022788 336300.000000 0 1 0
18.218706 12.236513 6.464662 22.878928 0.591442 1.284335 0.073587 -0.032943 -225173.000000 0 1 0
18.642706 10.897413 7.101962 22.731959 0.528975 1.253055 0.061300 -0.023255 335096.000000 0 1 0
19.881306 10.434613 6.560562 23.392060 0.483326 1.286522 0.068761 -0.020225 748997.000000 0 1 0
20.174406 9.143213 7.124462 23.267208 0.425519 1.259596 0.092095 -0.023170 -106398.000000 0 1 0
20.935106 8.251313 6.163562 23.331359 0.375442 1.303448 0.093892 -0.026948 -188597.000000 0 1 0
20.203006 7.879113 5.003962 22.254921 0.371854 1.344010 0.055925 -0.021124 894647.000000 0 1 0
21.010006 7.025013 4.173962 22.543139 0.322679 1.384567 0.070524 -0.023584 274803.000000 0 1 0
20.406806 6.589313 2.854062 21.633364 0.312329 1.438482 0.061287 -0.020989 -905219.000000 0 1 0
21.445006 6.110013 2.081362 22.395370 0.277561 1.477725 0.073199 -0.017300 107405.000000 0 1 0
21.038806 5.864313 0.764062 21.854183 0.271838 1.535827 0.070633 -0.005015 -511652.000000 0 1 0
22.096206 5.055113 0.007562 22.667081 0.224907 1.570463 0.164211 -0.016467 -134450.000000 0 1 0
22.214506 3.744413 0.427762 22.531930 0.166987 1.551810 0.153717 -0.012325 1161730.000000 0 1 0
23.459406 3.204413 -0.054038 23.677308 0.135754 1.573079 0.213302 -0.015572 751043.000000 0 1 0
23.409806 1.706413 -0.128838 23.472270 0.072764 1.576285 0.241718 -0.019489 279212.000000 0 1 0
22.438306 1.174213 -1.057838 22.493896 0.052283 1.617841 0.175799 -0.017140 1074550.000000 0 1 0
22.580806 -0.244687 -1.362538 22.623200 -0.010836 1.631060 0.204985 -0.028878 -999556.000000 0 1 0
22.553206 -1.365987 -0.221338 22.595619 -0.060493 1.580592 0.228050 -0.026797 -677436.000000 0 1 0
23.535806 -1.497687 0.735362 23.594872 -0.063549 1.539625 0.242641 -0.026210 -423504.000000 0 1 0
24.803806 -1.848187 0.210862 24.873461 -0.074375 1.562319 0.249400 -0.039729 -589093.000000 0 1 0
25.913406 -1.582387 1.226062 25.990610 -0.060989 1.523606 0.268490 -0.036505 -548330.000000 0 0 1
25.984306 -0.212287 1.421262 26.024012 -0.008170 1.516156 0.259410 -0.030720 521191.000000 0 0 1
26.772706 0.179613 2.563162 26.895722 0.006709 1.475352 0.254350 -0.033078 -101524.000000 0 0 1
26.594206 1.675413 3.009562 26.816343 0.062916 1.458331 0.224169 -0.027928 159760.000000 0 0 1
27.131806 2.717213 2.170362 27.353768 0.099816 1.491369 0.259803 -0.028632 620289.000000 0 0 1
28.552806 2.703613 2.016562 28.751327 0.094407 1.500601 0.254533 -0.024543 559638.000000 0 0 1
29.006906 3.876713 1.081262 29.284785 0.132861 1.533866 0.296961 -0.034058 -149011.000000 0 0 1
28.665706 3.583913 -0.290038 28.890332 0.124379 1.580836 0.357113 -0.028172 213745.000000 0 0 1
29.247906 4.412413 -1.330338 29.608769 0.149733 1.615742 0.357268 -0.021965 686216.000000 0 0 1
30.692406 3.909613 -1.675438 30.985738 0.126698 1.624894 0.312337 -0.020053 106979.000000 0 0 1
31.692306 4.274013 -0.775638 31.988608 0.134051 1.595046 0.254892 -0.016660 344137.000000 0 0 1
32.998726 4.010913 -1.325638 33.268013 0.120954 1.610654 0.220064 -0.009892 1432230.000000 0 0 1
34.158076 4.316113 -0.290038 34.430904 0.125691 1.579220 0.136219 -0.000422 494962.000000 0 0 1
34.201916 3.502713 0.859462 34.391550 0.102057 1.545803 0.157141 -0.008644 62938.800000 0 0 1
33.444246 4.001013 1.952962 33.739291 0.119066 1.512880 0.153924 0.001696 33009.800000 0 0 1
33.413406 3.125113 3.229062 33.714224 0.093257 1.474872 0.164588 -0.004763 351664.000000 0 0 1
32.475876 2.019913 3.088262 32.684858 0.062117 1.476169 0.199498 -0.018496 752484.000000 0 0 1
32.534476 1.094413 4.195462 32.822123 0.033626 1.442621 0.180724 -0.021659 37462.600000 0 0 1
33.671276 0.064013 4.030362 33.911690 0.001901 1.451666 0.163928 -0.014080 8188.230000 0 0 1
34.976976 0.577713 4.101162 35.221331 0.016515 1.454092 0.141907 -0.009096 -335856.000000 0 0 1
35.937126 -0.412187 3.903362 36.150839 -0.011469 1.462611 0.114235 -0.014190 -627269.000000 0 0 1
37.380686 0.048713 4.137462 37.608997 0.001303 1.460561 0.168597 -0.027484 -480790.000000 0 0 1
-37.764070 0.677313 3.054162 37.893425 -0.017933 1.490110 0.127975 -0.012550 -370709.000000 0 0 1
-36.455190 0.197313 2.877162 36.569084 -0.005412 1.492037 0.150017 -0.012191 -42089.300000 0 0 1
-35.666519 0.805513 1.683562 35.715316 -0.022581 1.523640 0.162547 -0.021720 -135253.000000 0 0 1
-35.061376 2.047813 1.936262 35.174462 -0.058340 1.515721 0.171430 -0.043005 -239937.000000 0 0 1
-34.197379 2.471513 0.942562 34.299527 -0.072147 1.543313 0.211058 -0.024001 -588948.000000 0 0 1
-33.455420 3.720013 1.417662 33.691444 -0.110738 1.528706 0.245748 -0.023460 -297912.000000 0 0 1
-32.628540 3.404613 2.510762 32.901625 -0.103968 1.494411 0.253254 -0.035236 85481.800000 0 0 1
-31.845550 4.450613 3.027962 32.297300 -0.138857 1.476906 0.256774 -0.031535 -223782.000000 0 0 1
-32.233990 4.681213 4.550262 32.888429 -0.144218 1.431997 0.269786 -0.028197 265396.000000 0 0 1
-33.457740 5.351413 4.848662 34.228169 -0.158602 1.428661 0.270766 -0.006689 1463050.000000 0 0 1
-34.675701 4.573813 4.732162 35.294722 -0.131145 1.436316 0.257243 -0.005530 526365.000000 0 0 1
-34.897711 3.569413 5.985462 35.586749 -0.101928 1.401800 0.221470 -0.007240 -733354.000000 0 0 1
-35.428043 4.258513 7.079962 36.378662 -0.119628 1.374928 0.227785 -0.014686 422093.000000 0 0 1
-34.994840 3.602013 8.281862 36.141424 -0.102569 1.339590 0.187296 -0.015044 506945.000000 0 0 1
-35.911552 2.355013 8.667562 37.017730 -0.065484 1.334456 0.166404 -0.018281 258567.000000 0 0 1
-35.666036 1.156213 7.917662 36.552597 -0.032406 1.352456 0.162535 -0.028428 27432.300000 0 0 1
-36.607820 0.146113 8.153762 37.505169 -0.003991 1.351643 0.149178 -0.024008 -183138.000000 0 0 1
-36.463500 -0.702887 9.490162 37.684799 0.019274 1.316226 0.155828 -0.022034 -528759.000000 0 0 1
-35.341226 -1.524887 9.419962 36.606874 0.043121 1.310541 0.141717 -0.031282 -296394.000000 0 0 1
-35.254636 -2.491287 10.441362 36.852652 0.070548 1.283535 0.117889 -0.023302 -28877.800000 0 0 1
-34.005920 -3.402487 10.407262 35.725210 0.099724 1.275196 0.120387 -0.021049 -32045.700000 0 0 1
-34.039098 -4.293687 9.298362 35.546526 0.125477 1.306135 0.143230 -0.035353 491190.000000 0 0 1
-32.875280 -5.130887 9.266362 34.539478 0.154822 1.299186 0.170173 -0.038898 538032.000000 0 0 1
-32.984720 -6.288687 8.277562 34.584063 0.188394 1.329104 0.177481 -0.033684 -64840.100000 0 0 1
-33.851460 -7.307887 8.657462 35.697034 0.212618 1.325828 0.187611 -0.042755 -325496.000000 0 0 1
-34.208105 -8.267587 7.674062 36.019976 0.237138 1.356101 0.200597 -0.051585 203233.000000 0 0 1
-35.217162 -9.286287 8.266262 37.347218 0.257818 1.347613 0.201595 -0.056236 524555.000000 0 0 1
-36.387790 -8.668187 8.845462 38.437624 0.233858 1.338590 0.199641 -0.050579 590765.000000 0 0 1
-37.402790 -9.641887 8.840562 39.624364 0.252292 1.345793 0.207229 -0.060277 -301400.000000 0 0 1
8.222100 -23.575387 10.685062 27.158283 -1.235229 1.166430 0.169931 -0.044563 -49264.600000 0 0 1
7.612800 -24.187187 9.588962 27.109462 -1.265867 1.209259 0.157313 -0.043712 -541366.000000 0 0 1
6.373400 -24.737987 9.957262 27.417791 -1.318644 1.199131 0.158870 -0.045484 99763.000000 0 0 1
5.898700 -25.751627 8.897062 27.876489 -1.345620 1.245953 0.132183 -0.034503 -181387.000000 0 0 1
5.302100 -25.217527 7.756362 26.910910 -1.363560 1.278425 0.135698 -0.025079 -298735.000000 0 0 1
5.239500 -26.173817 6.745362 27.532180 -1.373227 1.323277 0.115663 -0.020771 -308815.000000 0 0 1
4.609400 -25.695477 5.384362 26.655120 -1.393299 1.367396 0.100826 -0.013453 2089860.000000 0 0 1
3.151000 -25.541457 5.287062 26.272568 -1.448048 1.368174 0.080679 -0.022612 1483080.000000 0 0 1
2.568600 -26.809557 5.040162 27.399877 -1.475279 1.385794 0.075358 -0.020889 -719008.000000 0 0 1
1.046900 -26.752677 4.923462 27.222090 -1.531684 1.388933 0.095425 -0.031023 -378846.000000 0 0 1
0.309500 -26.422947 6.134462 27.127468 -1.559084 1.342689 0.094524 -0.029166 -213216.000000 0 0 1
-1.085800 -26.446987 6.045762 27.150936 1.529764 1.346242 0.094775 -0.029952 19459.600000 0 0 1
-1.647400 -27.867967 6.161262 28.588436 1.511751 1.353576 0.123629 -0.037718 -715678.000000 0 0 1
-1.397000 -28.463117 7.466662 29.459322 1.521755 1.314544 0.111135 -0.042404 -24205.300000 0 0 1
-1.856200 -29.800267 7.535962 30.794352 1.508589 1.323566 0.161473 -0.043494 -81093.400000 0 0 1
-1.497200 -30.549337 8.837762 31.837236 1.521826 1.289510 0.145293 -0.049212 -44764.900000 0 0 1
-0.117100 -30.596997 9.138462 31.932764 1.566969 1.280560 0.123151 -0.038773 78397.900000 0 0 1
0.086500 -30.978527 10.513462 32.714056 -1.568004 1.243616 0.126039 -0.030414 -354081.000000 0 0 1
1.566300 -30.986477 10.905062 32.886706 -1.520291 1.232803 0.092954 -0.030417 -392323.000000 0 0 1
2.188600 -32.178217 10.397262 33.887028 -1.502886 1.258945 0.108687 -0.022179 1039540.000000 0 0 1
3.571500 -32.235317 10.827762 34.192275 -1.460452 1.248577 0.099516 -0.021421 747304.000000 0 0 1
3.914000 -32.829527 12.266562 35.264228 -1.452134 1.215522 0.122584 -0.024538 -696354.000000 0 0 1
3.263600 -32.177717 13.337962 34.985108 -1.469718 1.179652 0.139753 -0.034567 46638.300000 0 0 1
3.796900 -32.597277 14.575462 35.908815 -1.454840 1.152831 0.142375 -0.038277 -215861.000000 0 0 1
3.232300 -31.766747 15.753262 35.605326 -1.469394 1.112477 0.163104 -0.060225 -34720.100000 0 0 1
3.675000 -30.419647 15.803162 34.476085 -1.450569 1.094624 0.170393 -0.058442 993392.000000 0 0 1
5.075500 -30.226577 16.064462 34.604531 -1.404433 1.088031 0.143771 -0.049089 830833.000000 0 0 1
5.760300 -29.000977 15.394962 33.335305 -1.374724 1.090749 0.158631 -0.044159 249141.000000 0 0 1
6.075000 -29.068967 13.992362 32.828290 -1.364776 1.130477 0.139023 -0.032957 424073.000000 0 0 1
4.916400 -28.831897 13.188762 32.084150 -1.401901 1.147171 0.130049 -0.024335 -19726.300000 0 0 1
5.194800 -28.864377 11.653762 31.558649 -1.392730 1.192570 0.106131 -0.020832 8185.320000 0 0 1
5.584200 -30.048717 11.040562 32.496195 -1.387054 1.224146 0.090650 -0.022083 732221.000000 0 0 1
6.996400 -30.313097 11.206762 33.066977 -1.343964 1.225037 0.096698 -0.020438 606707.000000 0 0 1
7.432600 -31.672257 10.569962 34.206717 -1.340295 1.256652 0.075333 -0.015148 -127814.000000 0 0 1
7.173000 -32.783077 11.419562 35.448391 -1.355389 1.242801 0.051733 -0.015760 -53683.700000 0 0 1
7.379600 33.636867 10.796162 36.089533 1.354828 1.266995 0.062122 -0.016981 -90254.500000 0 0 1
7.206300 32.508128 11.871662 35.350325 1.352647 1.228311 0.061674 -0.014649 1537780.000000 0 0 1
5.887600 32.401142 12.496562 35.223030 1.391048 1.208113 0.080661 -0.012778 1062570.000000 0 0 1
5.752500 31.129408 13.062462 34.245572 1.388065 1.179448 0.090948 -0.013046 552764.000000 0 0 1
4.855400 30.988588 14.352862 34.494523 1.415376 1.141654 0.101260 -0.026805 336978.000000 0 0 1
5.213500 31.922470 15.357062 35.805921 1.408908 1.127525 0.094977 -0.032371 11063.600000 0 0 1
4.459100 31.854349 16.580762 36.187080 1.431716 1.094832 0.139155 -0.039888 -538739.000000 0 0 1
5.178800 32.340963 17.805162 37.279775 1.412013 1.072865 0.173206 -0.034989 -758290.000000 0 0 1
5.450100 33.707558 17.656962 38.440491 1.410496 1.093553 0.206572 -0.043915 98869.200000 0 0 1
6.000600 -33.447447 18.866262 38.867399 -1.393281 1.063975 0.166850 -0.034846 -395447.000000 0 0 1
5.554600 -32.029227 19.124562 37.715697 -1.399081 1.039012 0.158218 -0.051700 728784.000000 0 0 1
4.122600 -32.023357 19.168462 37.548917 -1.442763 1.035038 0.187804 -0.054268 635278.000000 0 0 1
3.503400 -30.862357 19.684962 36.773042 -1.457763 1.005922 0.164628 -0.045294 -773121.000000 0 0 1
2.073800 -30.599207 19.210762 36.189300 -1.503127 1.011204 0.189060 -0.045319 613400.000000 0 0 1
0.999300 -31.470707 19.640762 37.110154 -1.539054 1.013073 0.219314 -0.054911 756718.000000 0 0 1
0.707300 -31.293627 21.026362 37.708079 -1.548198 0.979294 0.196478 -0.050403 -840019.000000 0 0 1
-0.307300 -32.294697 21.587362 38.846571 1.561281 0.981582 0.220196 -0.045324 529235.000000 0 0 1
-1.666500 -32.090917 21.169662 38.480628 1.518912 0.988267 0.207046 -0.046485 367776.000000 0 0 1
-2.411200 -33.262317 21.394962 39.622468 1.498432 1.000394 0.198566 -0.030314 -960064.000000 0 0 1
-3.600800 -33.131697 22.272262 40.084021 1.462540 0.981665 0.194019 -0.031497 -463067.000000 0 0 1
-4.731600 -32.616517 21.548462 39.377169 1.426734 0.991742 0.162489 -0.038442 725487.000000 0 0 1
-5.851800 -32.344557 22.419062 39.787288 1.391812 0.972213 0.138467 -0.030827 -65603.500000 0 0 1
-7.008100 -31.734037 21.676462 39.064454 1.353446 0.982566 0.084845 -0.024011 -853004.000000 0 0 1
-7.806300 -32.732277 21.077462 39.706418 1.336680 1.011214 0.081346 -0.022513 -69093.600000 0 0 1
-8.856600 -32.087507 20.357362 39.018837 1.301488 1.021917 0.076123 -0.024727 489314.000000 0 0 1
-9.954800 -33.118647 19.908762 39.903654 1.278808 1.048443 0.074134 -0.028163 311987.000000 0 0 1
-10.694700 -33.586777 21.004362 41.032078 1.262527 1.033400 0.079343 -0.025645 -16378.500000 0 0 1
-12.076800 -33.787227 20.734762 41.440996 1.227512 1.046800 0.080871 -0.024787 717975.000000 0 0 1
-12.841500 33.503415 22.036262 42.106766 -1.204778 1.020027 0.081255 -0.018377 9256.600000 0 0 1
-13.005100 -33.171607 23.031262 42.425548 1.197158 0.996954 0.092893 -0.021188 521025.000000 0 0 1
-11.841000 -33.093927 23.858662 42.481208 1.227190 0.974443 0.081959 -0.019627 301329.000000 0 0 1
-11.734300 -31.778297 24.617562 41.875748 1.217072 0.942371 0.076815 -0.022547 -57116.400000 0 0 1
-12.622100 -31.665697 25.715562 42.700397 1.191493 0.924502 0.091728 -0.022512 56352.300000 0 0 1
-13.313000 -30.460177 25.716062 42.028254 1.158753 0.912367 0.112248 -0.025059 -463961.000000 0 0 1
-14.210700 -30.281767 26.945962 42.953629 1.132023 0.892681 0.084006 -0.018259 -184743.000000 0 0 1
-13.527000 -30.030087 28.165762 43.337005 1.147570 0.863312 0.070115 -0.015630 -62440.200000 0 0 1
-14.434900 -29.730117 29.165462 44.078003 1.118791 0.847741 0.074189 -0.017322 -445910.000000 0 0 1
-13.751800 -29.350557 30.487062 44.497507 1.132635 0.815999 0.055931 -0.011054 -519327.000000 0 0 1
-14.635300 -28.932957 31.488062 45.197412 1.102492 0.800039 0.062273 -0.013443 -76640.000000 0 0 1
-14.129000 -28.534287 32.770462 45.691764 1.111029 0.771010 0.057952 -0.011535 9379.010000 0 0 1
-13.399500 -29.577507 -33.687497 46.789133 1.145425 2.374578 0.061152 -0.011193 1364530.000000 0 0 1
-11.993000 -29.774757 33.484862 46.385387 1.187886 0.764276 0.064895 -0.012500 1066830.000000 0 0 1
-11.419100 -30.795987 -33.186397 46.691815 1.215714 2.361366 0.074611 -0.012993 102902.000000 0 0 1
-9.888900 -30.886817 -33.353297 46.521266 1.260943 2.370210 0.080576 -0.021816 -437611.000000 0 0 1
-9.128200 -29.982377 -32.654797 45.261493 1.275260 2.376719 0.123319 -0.034764 -495343.000000 0 0 1
-7.825500 -30.524007 -32.582697 45.327537 1.319830 2.372911 0.133343 -0.042995 396621.000000 0 0 1
-6.862900 -29.679587 -31.634097 43.916892 1.343557 2.375056 0.155992 -0.042223 440817.000000 0 0 1
-7.092800 -29.757827 -30.259997 43.029101 1.336811 2.350748 0.172959 -0.052786 -296247.000000 0 0 1
-6.186100 -28.904917 -29.640697 41.860876 1.359961 2.357567 0.169157 -0.052381 -172209.000000 0 0 1
-6.369900 -28.872557 -28.089897 40.782870 1.353654 2.330583 0.163427 -0.041173 59732.800000 0 0 1
-5.894000 -30.043927 -27.399697 41.086740 1.377077 2.300803 0.140289 -0.045146 -130301.000000 0 0 1
-6.909900 -30.495657 -26.549597 41.019665 1.347972 2.274755 0.151068 -0.044205 -97000.000000 0 0 1
-6.606000 -31.759377 -25.709197 41.391546 1.365719 2.240970 0.128191 -0.045365 261668.000000 0 0 1
-5.785100 -31.556627 -24.563197 40.405924 1.389485 2.224223 0.089821 -0.037707 82387.300000 0 0 1
-5.517300 -32.729887 -23.859097 40.877165 1.403796 2.194047 0.093727 -0.044457 -121972.000000 0 0 1
-4.590500 -32.508217 -22.643997 39.882420 1.430513 2.174589 0.121428 -0.051982 -37776.100000 0 0 1
-5.153300 -31.934567 -21.466097 38.822241 1.410805 2.156676 0.131719 -0.041369 -50318.200000 0 0 1
-5.192200 -30.560297 -21.470797 37.707901 1.402503 2.176569 0.113069 -0.026662 -181457.000000 0 0 1
-6.032000 -30.075727 -20.236197 36.748307 1.372862 2.153963 0.145594 -0.047208 -435343.000000 0 0 1
-7.409500 -30.162297 -20.425897 37.173675 1.329912 2.152529 0.169332 -0.054897 -506569.000000 0 0 1
-8.070800 -28.904547 -20.689197 36.450700 1.298509 2.174377 0.166230 -0.050862 227385.000000 0 0 1
-7.977800 -28.327677 -22.126797 36.819801 1.296281 2.215483 0.205709 -0.082613 -61522.000000 0 0 1
-6.675500 -27.891517 -22.512597 36.459787 1.335877 2.236311 0.211902 -0.051498 138655.000000 0 0 1
-6.599600 -27.407627 -23.869797 36.939138 1.334500 2.273381 0.274431 -0.066688 -430457.000000 0 0 1
-5.159600 -27.154567 -24.379497 36.855825 1.383026 2.293591 0.241717 -0.061111 -231223.000000 0 0 1
-4.530300 -26.030757 -23.869897 35.607526 1.398486 2.305492 0.220595 -0.061595 -46087.000000 0 0 1
-4.077600 -26.094057 -22.501097 34.696196 1.415784 2.276432 0.154547 -0.043374 -690021.000000 0 0 1
-2.591600 -26.585217 -22.323797 34.811522 1.473621 2.266957 0.128015 -0.030661 711862.000000 0 0 1
-1.618500 -25.616187 -22.681497 34.252867 1.507697 2.294518 0.128349 -0.035482 206404.000000 0 0 1
-1.526500 -24.464287 -21.915697 32.880531 1.508480 2.300334 0.147033 -0.042796 -1196180.000000 0 0 1
-0.978400 -23.235587 -22.698197 32.497045 1.528713 2.344053 0.148950 -0.047296 652912.000000 0 0 1
-1.841900 -22.701887 -23.755797 32.910578 1.489839 2.377237 0.232542 -0.058536 641167.000000 0 0 1
-3.116700 -22.257987 -23.305197 32.376905 1.431675 2.374324 0.232302 -0.060832 -624384.000000 0 0 1
-4.107000 -22.029387 -24.393897 33.124365 1.386480 2.398580 0.224001 -0.066847 -582941.000000 0 0 1
-3.747000 -20.888587 -25.200497 32.945988 1.393304 2.441688 0.234352 -0.057461 -49137.300000 0 0 1
-4.565000 -20.783987 -26.335697 33.858267 1.354589 2.461989 0.297771 -0.062293 -105965.000000 0 0 1
-4.013600 -21.353587 -27.686397 35.194051 1.385005 2.476206 0.255468 -0.053182 -391666.000000 0 0 1
-4.976000 -21.437787 -28.677097 36.148516 1.342722 2.487028 0.265425 -0.049142 150398.000000 0 0 1
-4.379200 -22.025587 -29.869397 37.369570 1.374532 2.496921 0.279449 -0.044745 501752.000000 0 0 1
-5.527500 -22.193687 -30.871097 38.420537 1.326705 2.503956 0.295969 -0.057394 118578.000000 0 0 1
-5.899000 -20.999387 -31.568697 38.371279 1.296941 2.536970 0.311017 -0.067515 15558.600000 0 0 1
-6.750200 -21.373087 -32.655597 39.607601 1.264883 2.540076 0.289812 -0.060680 227517.000000 0 0 1
-6.531000 -20.594287 33.554162 39.908149 1.263702 0.572065 0.249998 -0.052177 576294.000000 0 0 1
-5.273200 -20.911987 32.951362 39.381596 1.323784 0.579531 0.250464 -0.058665 242641.000000 0 0 1
-5.028600 -20.165987 31.751262 37.948603 1.326420 0.579583 0.233605 -0.047982 316685.000000 0 0 1
-3.497500 -20.125687 31.489262 37.534642 1.398732 0.575466 0.189022 -0.059449 -856425.000000 0 0 1
-3.094400 -21.406187 30.994262 37.794767 1.427234 0.609267 0.249440 -0.058483 441035.000000 0 0 1
-2.003200 -21.423187 30.060862 36.967839 1.477561 0.621231 0.219049 -0.045196 785446.000000 0 0 1
-0.646500 -20.842787 30.534962 36.975987 1.539788 0.599168 0.161265 -0.050393 -987625.000000 0 0 1
-0.577300 -19.447587 30.484262 36.163962 1.541120 0.568061 0.127251 -0.050690 61677.500000 0 0 1
0.481600 -18.902687 31.262762 36.536335 -1.545324 0.543967 0.126899 -0.044358 160051.000000 0 0 1
0.047700 -18.593387 32.701962 37.618275 -1.568231 0.516991 0.124670 -0.048364 341213.000000 0 0 1
-0.971700 -17.582387 32.798962 37.227092 1.515587 0.492717 0.137092 -0.047550 305602.000000 0 0 1
-1.564500 -17.655087 -33.377897 37.791980 1.482412 2.653440 0.146979 -0.054171 -766560.000000 0 0 1
-2.848500 -16.883287 -33.281397 37.427406 1.403653 2.666445 0.148781 -0.055522 -746422.000000 0 0 1
-2.699800 -15.478587 -33.270197 36.793771 1.398112 2.700380 0.149157 -0.041981 -68155.600000 0 0 1
-3.883100 -14.860387 -32.801297 36.219258 1.315206 2.703663 0.172390 -0.052919 112739.000000 0 0 1
-3.803800 -13.325687 -32.998497 35.790273 1.292742 2.744001 0.143633 -0.059471 -617547.000000 0 0 1
-2.811900 -12.738787 -32.216997 34.757997 1.353545 2.756849 0.151820 -0.055276 -263284.000000 0 0 1
-2.639100 -11.336087 -32.541397 34.560299 1.342065 2.798097 0.142454 -0.052403 -260899.000000 0 0 1
-2.033400 -10.890987 33.569162 35.350204 1.386217 0.318784 0.130497 -0.055262 -678881.000000 0 0 1
-2.883600 -10.871987 32.462362 34.355788 1.311534 0.333545 0.105586 -0.040486 -189154.000000 0 0 1
-2.229500 -10.653587 31.180962 33.026080 1.364501 0.335847 0.109511 -0.025063 -4906.660000 0 0 1
-1.422700 -11.814187 30.661362 32.889484 1.450950 0.370202 0.111571 -0.036637 -323481.000000 0 0 1
-2.232400 -12.917287 30.370062 33.078400 1.399664 0.407477 0.101791 -0.030288 -201646.000000 0 0 1
-1.447500 -14.088987 30.446762 33.579757 1.468416 0.435404 0.114949 -0.032649 -321044.000000 0 0 1
-2.059100 -15.501287 30.519162 34.292113 1.438735 0.473504 0.089629 -0.017481 -221215.000000 0 0 1
-2.540700 -15.994087 29.229262 33.415800 1.413260 0.505951 0.124205 -0.020707 268534.000000 0 0 1
-2.814300 -17.362687 29.390362 34.251665 1.410105 0.539295 0.141550 -0.020714 -226256.000000 0 0 1
-2.667400 -18.380487 28.297662 33.848412 1.426681 0.580823 0.159460 -0.033377 38573.300000 0 0 1
-3.632000 -18.352787 27.257862 33.060660 1.375422 0.601513 0.166497 -0.043506 -32710.700000 0 0 1
-3.713800 -19.647587 26.654062 33.320549 1.383980 0.643620 0.192886 -0.039651 297681.000000 0 0 1
-4.604400 -19.638187 25.379262 32.418603 1.340495 0.671545 0.174043 -0.045995 -472551.000000 0 0 1
-5.061300 -20.859787 24.848662 32.836008 1.332762 0.712469 0.197062 -0.036792 -272421.000000 0 0 1
-4.096100 -21.700987 24.252162 32.800582 1.384239 0.738644 0.219035 -0.052159 -163489.000000 0 0 1
-31.318190 -33.509731 -0.203538 45.866901 0.819191 1.575234 0.134465 -0.033472 1115310.000000 0 0 1
-30.161490 -32.674131 0.095562 44.467106 0.825364 1.568647 0.147013 -0.018377 934262.000000 0 0 1
-30.562400 -31.745731 1.042262 44.078771 0.804387 1.547149 0.123645 -0.025207 85272.400000 0 0 1
-29.801430 -30.401431 1.134462 42.587079 0.795364 1.544155 0.146417 -0.030256 125240.000000 0 0 1
-28.453490 -30.585331 1.543362 41.802459 0.821492 1.533868 0.166984 -0.033041 -37314.800000 0 0 1
-27.807830 -29.327731 1.511262 40.443481 0.811994 1.533420 0.177998 -0.030348 -722523.000000 0 0 1
-26.301220 -29.298131 1.523662 39.401221 0.839248 1.532116 0.171841 -0.033301 -756030.000000 0 0 1
-25.670720 -29.651331 2.752962 39.316232 0.857228 1.500718 0.145413 -0.025502 205025.000000 0 0 1
-24.286700 -29.349131 2.820662 38.199103 0.879505 1.496888 0.142794 -0.023534 300847.000000 0 0 1
-23.579300 -30.105331 3.942662 38.442931 0.906367 1.468057 0.142074 -0.033738 -233362.000000 0 0 1
-24.122700 -29.848531 5.204262 38.728850 0.891093 1.436012 0.140412 -0.025208 -432077.000000 0 0 1
-23.425100 -30.453631 6.225062 38.921850 0.915117 1.410169 0.124874 -0.027872 -355378.000000 0 0 1
-24.004400 -30.184331 7.605762 39.308430 0.898952 1.376079 0.114079 -0.017144 -213334.000000 0 0 1
-23.725500 -28.894331 8.129862 38.260638 0.883314 1.356678 0.134489 -0.033223 75520.000000 0 0 1
-24.377900 -28.656131 9.363862 38.770321 0.865893 1.326863 0.089570 -0.026432 -64513.700000 0 0 1
-23.817700 -27.428631 10.116662 37.708878 0.855744 1.299186 0.110708 -0.031882 208914.000000 0 0 1
-22.460800 -27.547531 10.483462 37.057482 0.886767 1.283983 0.107459 -0.044495 -183572.000000 0 0 1
-22.101800 -26.396931 11.264062 36.223841 0.873729 1.254596 0.129473 -0.047708 225118.000000 0 0 1
-20.735400 -26.529631 11.970662 35.736185 0.907380 1.229220 0.118361 -0.051656 -60982.700000 0 0 1
-20.556100 -27.621631 12.885262 36.763266 0.931016 1.212699 0.107523 -0.039115 -231030.000000 0 0 1
-19.247000 -27.596531 13.412262 36.220220 0.961789 1.191467 0.114496 -0.049303 36925.800000 0 0 1
-18.994000 -28.681231 14.461362 37.316432 0.985861 1.172842 0.110618 -0.049734 -63631.000000 0 0 1
-18.814400 -29.954431 13.893862 38.003803 1.009970 1.196528 0.101740 -0.040911 35490.400000 0 0 1
-18.627200 -31.022931 14.884062 39.127103 1.030058 1.180564 0.106121 -0.033852 100323.000000 0 0 1
-18.415300 -32.390731 14.199562 39.873679 1.053833 1.206691 0.093045 -0.037927 61954.000000 0 0 1
-18.386000 -33.378931 15.187262 41.022567 1.067319 1.191553 0.091872 -0.023166 77195.800000 0 0 1
-18.323600 32.992013 14.555862 40.448738 -1.063820 1.202679 0.078909 -0.026533 -230945.000000 0 0 1
-18.052300 31.787513 15.550662 39.725994 -1.054310 1.168592 0.076901 -0.018075 -157038.000000 0 0 1
-18.982700 31.607213 16.599762 40.434032 -1.029950 1.147751 0.081485 -0.026116 43441.900000 0 0 1
-18.855500 30.410813 17.277862 39.735022 -1.015782 1.120950 0.048985 -0.013368 119028.000000 0 0 1
-19.767000 30.364513 18.536362 40.698092 -0.993725 1.097907 0.056533 -0.014205 380634.000000 0 0 1
-19.236600 31.224413 19.558162 41.563595 -1.018640 1.080871 0.066576 -0.015598 43689.800000 0 0 1
-20.122100 31.344213 20.620262 42.574098 -1.000086 1.065190 0.070060 -0.006406 -245106.000000 0 0 1
-19.695300 32.483013 21.618862 43.708422 -1.025738 1.053404 0.065352 -0.007038 1256870.000000 0 0 1
-18.500000 32.220713 22.414462 43.391617 -1.049590 1.027965 0.057747 -0.011597 889652.000000 0 0 1
-18.418200 32.938813 23.612362 44.516729 -1.060945 1.011706 0.060373 -0.016452 -278715.000000 0 0 1
-19.221900 32.429413 24.826162 45.138527 -1.035739 0.988433 0.062165 -0.016950 6526.420000 0 0 1
-20.603600 32.678413 24.622662 45.811161 -1.008255 1.003348 0.054852 -0.015491 -130222.000000 0 0 1
-21.352500 31.845413 25.492062 46.042424 -0.980141 0.984038 0.049133 -0.016642 829515.000000 0 0 1
-22.897900 31.937613 25.209962 46.689047 -0.948780 1.000413 0.072214 -0.019447 865738.000000 0 0 1
-23.258600 31.361013 23.915162 45.786577 -0.932667 1.021229 0.066177 -0.005174 382705.000000 0 0 1
-24.587200 31.709613 23.565962 46.533692 -0.911245 1.039759 0.056279 -0.014814 144682.000000 0 0 1
-24.997770 31.461913 22.134862 45.876929 -0.899393 1.067308 0.050015 -0.015550 -9513.930000 0 0 1
-24.406900 32.379513 21.207462 45.759000 -0.924883 1.088901 0.045106 -0.014744 206730.000000 0 0 1
-24.508500 31.770513 19.968162 44.819188 -0.913725 1.109033 0.037910 -0.005310 131831.000000 0 0 1
-23.850700 32.606013 18.822662 44.567932 -0.939253 1.134775 0.041892 -0.005107 136340.000000 0 0 1
-22.530200 33.076313 18.964762 44.286732 -0.972828 1.128267 0.049424 0.000588 -26555.500000 0 0 1
-22.108700 -33.813431 17.878262 44.178898 0.991724 1.154169 0.062277 -0.001362 1057330.000000 0 0 1
-20.810000 -32.939531 18.132062 42.974882 1.007348 1.135232 0.063899 -0.000044 1221800.000000 0 0 1
-21.137900 -31.939631 19.089762 42.794508 0.986165 1.108416 0.081125 -0.014134 310616.000000 0 0 1
-19.936500 -31.278431 19.380562 41.849856 1.003338 1.089310 0.085126 -0.021522 -264011.000000 0 0 1
-20.048200 -30.066331 20.345462 41.471104 0.982702 1.058025 0.075263 -0.005450 138978.000000 0 0 1
-20.875900 -28.965431 19.942662 40.896322 0.946301 1.061412 0.103622 -0.015419 415127.000000 0 0 1
-21.276800 -28.239631 21.072462 41.160997 0.925099 1.033340 0.107169 -0.006374 160480.000000 0 0 1
-22.240800 -27.110531 20.556762 40.647442 0.883755 1.040565 0.097961 -0.017933 -229767.000000 0 0 1
-21.560200 -26.073631 19.921362 39.262414 0.879869 1.038643 0.101272 -0.007191 560736.000000 0 0 1
-22.398100 -24.992531 19.463862 38.796178 0.840089 1.045239 0.089171 0.007330 734675.000000 0 0 1
-23.510200 -25.207631 18.347262 39.048383 0.820226 1.081664 0.074113 -0.014552 362431.000000 0 0 1
-24.809200 -25.306731 18.888062 40.158261 0.795325 1.081120 0.064976 -0.008743 151696.000000 0 0 1
-25.669130 -25.656831 17.781862 40.414995 0.785159 1.115218 0.044800 -0.005276 -583414.000000 0 0 1
-27.119430 -25.924131 18.146362 41.675107 0.762868 1.120287 0.027207 0.005972 -673284.000000 0 0 1
-27.450580 -27.075531 18.868762 42.926087 0.778520 1.115683 0.029420 -0.003805 -66943.200000 0 0 1
-27.631780 -28.173031 18.004062 43.374892 0.795097 1.142765 0.043593 -0.005309 -1247450.000000 0 0 1
-28.465260 -29.274131 18.655062 44.891615 0.799406 1.142240 0.052541 -0.009547 -253738.000000 0 0 1
-29.821540 -28.910331 18.744162 45.568357 0.769885 1.146871 0.016575 -0.001769 -518751.000000 0 0 1
-30.559320 -29.273831 17.648562 45.850856 0.763917 1.175683 0.016872 0.000331 -1256770.000000 0 0 1
-32.022870 -28.819931 17.690562 46.572617 0.732804 1.181163 0.008219 -0.000095 -176815.000000 0 0 1
-32.183720 -27.446231 17.372162 45.726136 0.706117 1.181089 0.006140 0.003790 -545428.000000 0 0 1
-33.472100 -26.994531 17.650362 46.482486 0.678679 1.181302 0.033459 0.011944 -437682.000000 0 0 1
-33.937160 -25.665831 16.936962 45.796576 0.647505 1.191970 0.038391 -0.001790 -190870.000000 0 0 1
-34.087431 -25.759631 15.540062 45.464328 0.647135 1.221956 0.054325 -0.019726 134727.000000 0 0 1
-34.610607 -24.591931 14.878062 44.989042 0.617759 1.233747 0.071519 -0.022034 173333.000000 0 0 1
-33.580040 -23.477831 14.519362 43.469984 0.610162 1.230243 0.059609 -0.010754 -10841.100000 0 0 1
-33.055520 -22.725531 15.571862 43.030223 0.602284 1.200510 0.045831 0.002456 104918.000000 0 0 1
-32.866740 -21.357831 15.294062 42.074789 0.576257 1.198777 0.049004 0.004380 -862686.000000 0 0 1
-34.083167 -20.539231 15.635462 42.754999 0.542344 1.196413 0.077308 -0.006360 -622910.000000 0 0 1
-34.168355 -20.242831 17.012362 43.204967 0.534845 1.166079 0.067847 -0.000866 97137.400000 0 0 1
-35.162105 -19.271131 17.284962 43.663716 0.501357 1.163786 0.081000 -0.007389 26734.800000 0 0 1
-35.585479 -18.962931 18.728662 44.459891 0.489607 1.135975 0.085846 -0.004053 96176.100000 0 0 1
-36.732250 -19.682931 19.152662 45.863934 0.491914 1.139997 0.089898 0.005007 352107.000000 0 0 1
-37.101980 -19.355331 20.475362 46.587833 0.480840 1.115754 0.093043 0.008374 -191109.000000 0 0 1
37.206256 -19.794131 21.010162 47.090764 -0.488927 1.108323 0.093506 0.008794 275863.000000 0 0 1
36.933606 -21.152331 21.275362 47.583121 -0.520113 1.107253 0.110915 -0.006789 184156.000000 0 0 1
37.699596 -21.691531 22.354862 48.903189 -0.522119 1.096037 0.079470 0.002642 -126012.000000 0 0 1
37.195836 -23.051931 22.917762 49.397830 -0.554811 1.088356 0.073569 0.005831 -145558.000000 0 0 1
36.051336 -22.883031 23.713062 48.843027 -0.565569 1.063867 0.106083 -0.016781 -59547.000000 0 0 1
35.857606 -23.916131 24.655862 49.655420 -0.588216 1.051189 0.111837 -0.034203 -517689.000000 0 0 1
34.730596 -23.748431 25.672362 49.287650 -0.599764 1.022929 0.121139 -0.040266 30227.500000 0 0 1
33.417336 -24.036731 25.257862 48.295366 -0.623555 1.020444 0.138715 -0.037398 579628.000000 0 0 1
32.418396 -23.809031 26.286162 48.049815 -0.633461 0.991948 0.106031 -0.037652 1047020.000000 0 0 1
31.063016 -24.487331 25.928462 47.295089 -0.667573 0.990553 0.100116 -0.034585 121956.000000 0 0 1
30.110006 -23.677431 25.282962 45.896202 -0.666371 0.987387 0.092958 -0.025958 843213.000000 0 0 1
28.884506 -24.433331 25.084862 45.393311 -0.702108 0.985302 0.090032 -0.020363 998944.000000 0 0 1
27.756106 -23.622231 24.401062 43.861407 -0.705112 0.980843 0.074144 -0.014981 -162215.000000 0 0 1
27.828306 -23.132931 23.071862 42.916872 -0.693521 1.003215 0.077860 -0.021123 -371644.000000 0 0 1
28.867406 -22.208331 22.860462 43.001603 -0.655753 1.010286 0.093587 -0.014590 -264222.000000 0 0 1
28.838306 -21.611031 21.483662 41.955122 -0.643108 1.033212 0.094731 -0.019390 276900.000000 0 0 1
27.846806 -20.594431 21.458462 40.743598 -0.636787 1.016117 0.072061 -0.008935 55245.000000 0 0 1
27.818706 -20.025731 20.155162 39.763562 -0.623935 1.039240 0.056859 -0.007529 76839.700000 0 0 1
26.790406 -18.865031 19.955062 38.364303 -0.613520 1.023774 0.048108 -0.007423 76325.700000 0 0 1
26.881206 -17.642231 20.659962 38.218864 -0.580794 0.999682 0.047606 -0.010865 -159424.000000 0 0 1
26.741806 -17.713531 22.020262 38.907394 -0.585037 0.969192 0.049461 -0.012757 -450502.000000 0 0 1
26.963206 -16.324931 22.603862 38.787271 -0.544419 0.948669 0.053030 -0.015507 -741991.000000 0 0 1
26.058006 -15.329031 22.256962 37.541593 -0.531747 0.936189 0.025473 -0.014617 -664637.000000 0 0 1
26.091206 -14.243331 23.206362 37.711520 -0.499694 0.907947 0.016943 -0.017211 362352.000000 0 0 1
24.858806 -13.276131 23.159262 36.476942 -0.490524 0.882915 0.021629 -0.013429 290473.000000 0 0 1
23.677206 -13.950531 23.517862 36.170668 -0.532438 0.862960 0.044397 -0.011402 -535707.000000 0 0 1
22.599806 -13.040831 23.451662 35.082687 -0.523361 0.838649 0.056181 -0.012090 234611.000000 0 0 1
21.221606 -13.711731 23.696362 34.639366 -0.573644 0.817444 0.074463 -0.010118 193242.000000 0 0 1
20.762906 -14.655831 22.778762 34.128634 -0.614652 0.840033 0.094079 -0.018146 -535759.000000 0 0 1
19.412206 -14.956731 22.973862 33.590711 -0.656480 0.817654 0.109814 -0.019561 -201300.000000 0 0 1
18.870706 -16.139131 22.093462 33.236970 -0.707533 0.843670 0.128672 -0.026650 44596.000000 0 0 1
19.349706 -17.389031 22.535762 34.418746 -0.732081 0.856941 0.121815 -0.024209 -91883.100000 0 0 1
19.026306 -18.473831 21.720962 34.279483 -0.770667 0.884543 0.136700 -0.028815 67873.500000 0 0 1
19.657606 -19.821131 22.165262 35.645442 -0.789540 0.899724 0.122951 -0.020981 -270120.000000 0 0 1
18.928306 -20.282431 23.256962 36.201437 -0.819919 0.873129 0.123511 -0.020417 144347.000000 0 0 1
19.236306 -21.607331 23.688062 37.390326 -0.843384 0.884683 0.117344 -0.021749 -368659.000000 0 0 1
18.759306 -22.741731 22.758862 37.243304 -0.881065 0.913364 0.114199 -0.019104 54465.200000 0 0 1
19.511806 -22.941631 21.555662 37.036139 -0.866013 0.949589 0.114902 -0.011087 494609.000000 0 0 1
20.753606 -23.616731 21.827662 38.274129 -0.849837 0.963928 0.107701 -0.018234 437975.000000 0 0 1
21.467906 -24.038431 20.504862 38.199038 -0.841825 1.004168 0.097987 -0.016676 -194243.000000 0 0 1
20.775306 -24.954631 19.724062 37.991915 -0.876536 1.024923 0.089208 -0.019060 -343881.000000 0 0 1
21.572206 -25.281331 18.640362 38.104709 -0.864398 1.059638 0.089671 -0.018309 -432371.000000 0 0 1
20.828506 -25.996131 17.554562 37.653528 -0.895315 1.085791 0.081046 -0.021608 -231776.000000 0 0 1
20.310406 -27.214431 18.007062 38.436859 -0.929661 1.083222 0.095164 -0.032151 153231.000000 0 0 1
19.399606 -27.833531 17.099862 37.992834 -0.962095 1.103940 0.110439 -0.039391 369118.000000 0 0 1
18.516106 -28.878731 17.841062 38.666921 -1.000655 1.091220 0.096481 -0.017431 -151206.000000 0 0 1
17.624906 -28.323831 18.763162 38.274443 -1.014167 1.058446 0.109854 -0.027528 276638.000000 0 0 1
16.727806 -29.405931 19.195562 38.897273 -1.053590 1.054694 0.112398 -0.030678 441633.000000 0 0 1
15.468806 -28.867031 19.921562 38.333511 -1.078871 1.024308 0.091657 -0.019619 -14573.800000 0 0 1
14.620806 -28.358231 18.898162 37.082311 -1.094766 1.036045 0.101210 -0.026246 -720040.000000 0 0 1
13.320006 -28.207131 19.379862 36.723887 -1.129618 1.014884 0.075380 -0.023134 -682751.000000 0 0 1
12.351006 -27.808631 18.271662 35.492548 -1.152824 1.030019 0.098759 -0.038304 -584351.000000 0 0 1
12.072406 -28.925231 17.447462 35.872356 -1.175410 1.062859 0.088842 -0.033908 392211.000000 0 0 1
11.159106 -28.486231 16.439062 34.730876 -1.197434 1.077732 0.140516 -0.034725 23903.700000 0 0 1
10.756906 -29.512631 15.347162 34.960575 -1.221276 1.116328 0.113966 -0.033239 201136.000000 0 0 1
9.820106 -30.503131 15.804162 35.730198 -1.259337 1.112613 0.117937 -0.043507 163709.000000 0 0 1
9.382206 -31.150431 14.680962 35.691817 -1.278248 1.146888 0.083744 -0.026961 117466.000000 0 0 1
8.459206 -32.347331 15.001062 36.646144 -1.315013 1.149056 0.080858 -0.028621 121122.000000 0 0 1
9.148506 -33.481631 15.371862 37.960623 -1.304068 1.153881 0.083750 -0.027027 -582653.000000 0 0 1
8.235006 33.181213 15.614062 37.584667 1.327529 1.142373 0.080682 -0.017328 63079.400000 0 0 1
8.962506 31.981213 16.331662 37.011453 1.297562 1.113794 0.088976 -0.018181 307883.000000 0 0 1
9.967406 31.286313 15.619762 36.361512 1.262376 1.126781 0.064488 -0.019374 -79457.900000 0 0 1
10.534006 30.413913 16.585162 36.208272 1.237373 1.094997 0.097334 -0.019552 -854524.000000 0 0 1
11.713706 29.650313 16.066862 35.700084 1.194554 1.103974 0.032476 -0.034044 -856833.000000 0 0 1
11.400306 28.533013 15.266562 34.309878 1.190680 1.109665 0.083323 -0.019771 -270361.000000 0 0 1
12.639406 28.008113 14.836262 34.122187 1.146881 1.120982 0.079479 -0.037889 63599.900000 0 0 1
12.661906 26.913313 13.728762 32.758651 1.131051 1.138356 0.073494 -0.038498 -247151.000000 0 0 1
12.162406 25.694813 14.147562 31.753756 1.128703 1.109019 0.092023 -0.036331 22370.300000 0 0 1
12.478506 24.674713 13.192462 30.636508 1.102583 1.125625 0.090511 -0.037597 -204057.000000 0 0 1
-9.498600 -8.987287 19.114020 23.159026 0.757746 0.599996 0.097807 -0.050595 9556.170000 0 1 0
-9.683600 -9.178487 17.705820 22.170088 0.758625 0.645772 0.094101 -0.048772 -105164.000000 0 1 0
-9.376800 -10.493687 17.342920 22.334250 0.841547 0.681678 0.096306 -0.048540 41640.000000 0 1 0
-9.772300 -10.771787 15.863920 21.521924 0.834011 0.742020 0.091252 -0.042286 -376898.000000 0 1 0
-11.135200 -10.745987 15.553120 21.940111 0.767612 0.782873 0.104347 -0.040278 -233101.000000 0 1 0
-11.520400 -11.303887 14.291920 21.558211 0.775912 0.846050 0.101011 -0.039556 91116.000000 0 1 0
-11.542500 -12.863587 14.227620 22.385852 0.839475 0.882059 0.076248 -0.032944 -221084.000000 0 1 0
-10.233800 -13.384187 14.055520 21.941394 0.918005 0.875525 0.079846 -0.026972 68790.100000 0 1 0
-10.037300 -14.758987 14.391620 22.928014 0.973565 0.892218 0.083692 -0.024503 22854.500000 0 1 0
-9.982500 -15.000187 15.932620 24.052117 0.983608 0.846751 0.117031 -0.031110 210024.000000 0 1 0
-11.268300 -14.912187 16.545020 24.961683 0.923693 0.846222 0.142926 -0.032230 211748.000000 0 1 0
-11.242100 -14.974187 17.960420 25.945863 0.926806 0.806226 0.170825 -0.033930 484464.000000 0 0 1
-12.613500 -14.588987 18.631120 26.815249 0.857892 0.802660 0.116140 -0.034793 -43105.300000 0 0 1
-13.029600 -13.231387 18.370320 26.121040 0.793082 0.790800 0.120025 -0.033611 207269.000000 0 0 1
-14.059200 -13.180387 17.386820 25.955447 0.753147 0.836760 0.139334 -0.045026 -6927.240000 0 0 1
-15.471600 -13.522187 17.878320 27.237002 0.718264 0.854762 0.093951 -0.031626 -952169.000000 0 0 1
-15.736600 -14.856287 18.247420 28.307564 0.756631 0.870280 0.103848 -0.018654 -23364.000000 0 0 1
-16.809800 -14.794687 19.176220 29.481852 0.721724 0.862631 0.103001 -0.015784 -177682.000000 0 0 1
-17.424100 -16.115687 19.657720 30.817862 0.746407 0.879070 0.093442 -0.016168 -123695.000000 0 0 1
-18.567800 -16.431587 18.892820 31.172086 0.724438 0.919672 0.081749 -0.000951 -87357.000000 0 0 1
-18.964900 -17.738787 19.168820 32.276550 0.752005 0.934907 0.093463 -0.010427 123434.000000 0 0 1
-20.156300 -18.211387 18.293820 32.750495 0.734750 0.978122 0.088229 -0.006883 -3032.310000 0 0 1
-19.806300 -18.402687 16.896020 31.881404 0.748680 1.012237 0.093685 -0.008806 312785.000000 0 0 1
-20.053700 -17.274087 16.061620 30.959984 0.711070 1.025365 0.084417 -0.006505 -70984.400000 0 0 1
-19.703500 -17.550087 14.563520 30.138507 0.727658 1.066468 0.101638 -0.028906 282435.000000 0 0 1
-20.648300 -18.409087 13.928720 30.971859 0.728129 1.104342 0.115329 -0.030726 572303.000000 0 0 1
-20.214200 -18.511487 12.544820 30.144014 0.741458 1.141575 0.154770 -0.042028 346453.000000 0 0 1
-20.507000 -19.888087 11.949120 30.965376 0.770078 1.174628 0.162573 -0.051353 -177112.000000 0 0 1
-19.675000 -20.818287 12.577620 31.284233 0.813625 1.157049 0.147725 -0.048899 -80620.500000 0 0 1
-19.493200 -22.002587 11.837420 31.689481 0.845798 1.187970 0.138779 -0.046623 -313293.000000 0 0 1
-18.500600 -23.020187 12.422820 32.039471 0.893822 1.172623 0.129397 -0.042298 -329568.000000 0 0 1
-18.451800 -24.229587 11.708720 32.628759 0.919950 1.203764 0.142806 -0.059515 -676545.000000 0 0 1
-17.516600 -24.303287 10.714720 31.816447 0.946279 1.227315 0.131730 -0.054253 -956646.000000 0 0 1
-17.829000 -25.487567 9.695720 32.580612 0.960394 1.268627 0.126813 -0.056092 51911.100000 0 0 1
-18.953000 -25.172057 8.903720 32.743318 0.925417 1.295404 0.125478 -0.053153 -262277.000000 0 0 1
-19.270200 -26.208787 8.000420 33.499968 0.936798 1.329647 0.148697 -0.050636 -131023.000000 0 0 1
-20.636700 -26.044847 7.336520 34.029869 0.900736 1.353500 0.141275 -0.046913 -173762.000000 0 0 1
-20.661700 -24.980827 6.466020 33.056875 0.879747 1.373924 0.160535 -0.050492 -774528.000000 0 0 1
-21.838200 -24.971347 5.737720 33.665956 0.852232 1.399529 0.173736 -0.042210 -589763.000000 0 0 1
-21.933200 -23.682187 4.874820 32.644680 0.823721 1.420906 0.179532 -0.044090 -316502.000000 0 0 1
-23.010300 -23.658887 3.980420 33.242452 0.799295 1.450769 0.182492 -0.046591 339.546000 0 0 1
-22.884500 -22.470387 3.213420 32.232665 0.776268 1.470936 0.178171 -0.039856 240194.000000 0 0 1
-23.317600 -22.615087 1.715820 32.528398 0.770105 1.518023 0.142229 -0.037004 683798.000000 0 0 1
-22.321800 -23.310187 0.922820 32.287446 0.807055 1.542211 0.148176 -0.050455 806557.000000 0 0 1
-22.709600 -23.243287 -0.442780 32.498806 0.797011 1.584421 0.128919 -0.050764 -216236.000000 0 0 1
-21.880000 -24.095487 -1.423380 32.578412 0.833549 1.614501 0.145891 -0.048704 285811.000000 0 0 1
-20.559800 -23.526387 -1.570680 31.283595 0.852587 1.621025 0.141618 -0.048171 806417.000000 0 0 1
-19.773900 -24.036987 -2.627280 31.235980 0.882399 1.655006 0.127137 -0.041984 146209.000000 0 0 1
-19.459200 -25.572837 -2.703080 32.248056 0.920335 1.654716 0.143891 -0.039924 -1021190.000000 0 0 1
-20.549500 -26.386147 -3.011780 33.579481 0.909117 1.660608 0.174520 -0.043598 -644540.000000 0 0 1
-20.125100 -27.652807 -3.325580 34.362143 0.941670 1.667728 0.164655 -0.035486 -510027.000000 0 0 1
-21.260200 -28.580137 -3.736180 35.815910 0.931223 1.675303 0.172277 -0.038246 -397606.000000 0 0 1
-21.843200 -28.189377 -4.973280 36.006942 0.911565 1.709359 0.149256 -0.033890 -316605.000000 0 0 1
-22.736400 -29.148737 -5.435580 37.364934 0.908362 1.716787 0.152293 -0.050458 -537520.000000 0 0 1
-23.428700 -28.759617 -6.732380 37.700723 0.887193 1.750334 0.139970 -0.013578 -60211.700000 0 0 1
-22.545200 -28.474277 -7.832280 37.153938 0.901091 1.783196 0.167796 -0.019243 38776.600000 0 0 1
-23.129200 -28.630537 -9.052580 37.902727 0.891287 1.811965 0.161503 -0.020956 -439993.000000 0 0 1
-23.987200 -27.437867 -9.494480 37.661220 0.852399 1.825648 0.125102 -0.015260 -150787.000000 0 0 1
-23.254800 -26.301157 -9.905380 36.478119 0.846794 1.845792 0.122334 -0.017531 166640.000000 0 0 1
-23.007600 -25.304997 -8.942180 35.350461 0.832915 1.826533 0.110790 -0.019798 -94288.600000 0 0 1
-22.568100 -23.897687 -9.398880 34.187096 0.814005 1.849308 0.081604 -0.017743 -136642.000000 0 0 1
-23.563200 -23.185287 -10.078480 34.559480 0.777314 1.866724 0.098528 -0.020804 -96695.200000 0 0 1
-23.134300 -21.838787 -10.359280 33.458080 0.756600 1.885589 0.096391 -0.016491 360191.000000 0 0 1
-24.260500 -20.757587 -10.380980 33.574008 0.707743 1.885145 0.111073 -0.006995 -8117.100000 0 0 1
-25.144360 -20.817187 -11.467980 34.599258 0.691527 1.908638 0.102739 -0.003846 112307.000000 0 0 1
-26.225690 -19.916087 -11.607880 34.916761 0.649497 1.909690 0.105686 -0.003798 -1381.510000 0 0 1
-25.964470 -18.380187 -11.534780 33.838382 0.616007 1.918648 0.108277 -0.018416 -1313340.000000 0 0 1
-25.159220 -17.879187 -12.579480 33.330091 0.617832 1.957806 0.130354 -0.015541 317417.000000 0 0 1
-24.980470 -16.438387 -12.585680 32.444472 0.582013 1.969164 0.105460 -0.029681 176529.000000 0 0 1
-23.924400 -15.954987 -11.535380 30.983923 0.588158 1.952285 0.086260 -0.025728 -226513.000000 0 0 1
-24.424900 -16.105687 -10.258280 31.003245 0.582952 1.908030 0.129999 -0.033528 1286940.000000 0 0 1
-23.383300 -16.614587 -9.346180 30.169095 0.617760 1.885772 0.121505 -0.037076 890781.000000 0 0 1
-24.002100 -17.140887 -8.059380 30.575553 0.620154 1.837537 0.113557 -0.037161 -54115.600000 0 0 1
-24.983190 -18.122287 -8.223680 31.940663 0.627557 1.831197 0.128578 -0.029490 118740.000000 0 0 1
-25.667710 -18.459687 -7.015880 32.385397 0.623482 1.789165 0.140474 -0.027391 308908.000000 0 0 1
-26.449160 -19.789587 -7.048480 33.776721 0.642356 1.781020 0.147858 -0.025323 486239.000000 0 0 1
-27.485450 -19.890687 -8.026080 34.864127 0.626443 1.803090 0.138618 -0.023645 339416.000000 0 0 1
-28.037600 -21.193387 -8.148280 36.078541 0.647261 1.798610 0.135483 -0.008821 131640.000000 0 0 1
-27.089980 -22.284187 -8.720680 36.145570 0.688370 1.814466 0.113298 -0.005731 -274689.000000 0 0 1
-27.716030 -23.540287 -8.840580 37.422978 0.704110 1.809285 0.118389 0.002892 -286477.000000 0 0 1
-26.845510 -24.646187 -9.053480 37.551051 0.742712 1.814293 0.098286 0.010884 -43715.700000 0 0 1
-27.388590 -26.046387 -8.660180 38.775609 0.760285 1.796037 0.109189 -0.012013 -97919.700000 0 0 1
-27.478810 -26.244157 -7.225180 38.678728 0.762420 1.758700 0.138081 -0.035153 91083.000000 0 0 1
-27.553130 -27.613467 -6.998080 39.631448 0.786492 1.748306 0.141680 -0.035611 -150429.000000 0 0 1
-27.358250 -28.014827 -5.504380 39.542415 0.797255 1.710452 0.173933 -0.046837 117308.000000 0 0 1
-28.598360 -28.059847 -4.810680 40.352991 0.775894 1.690295 0.141789 -0.038526 323789.000000 0 0 1
-28.474470 -28.333567 -3.421780 40.314948 0.782918 1.655775 0.139203 -0.040217 -214396.000000 0 0 1
-28.367620 -29.853747 -3.004080 41.291556 0.810918 1.643614 0.142631 -0.020303 -7835.240000 0 0 1
-27.204650 -30.567677 -3.378080 41.059558 0.843544 1.653162 0.189315 -0.046544 9411.540000 0 0 1
-27.036460 -31.823427 -2.682980 41.843746 0.866548 1.634959 0.182808 -0.048581 -260664.000000 0 0 1
-26.094890 -31.802677 -1.448080 41.163703 0.883665 1.605982 0.208547 -0.051335 -1269030.000000 0 0 1
-24.827400 -31.618587 -1.962080 40.249032 0.905136 1.619564 0.203472 -0.057465 -1302100.000000 0 0 1
-23.884500 -31.673577 -0.897380 39.679845 0.924687 1.593414 0.166008 -0.040715 64882.300000 0 0 1
-23.078900 -30.329627 -0.793780 38.120231 0.920333 1.591621 0.194211 -0.035767 -386111.000000 0 0 1
-23.780200 -29.150187 -0.560680 37.623738 0.886506 1.585699 0.187761 -0.048047 -339437.000000 0 0 1
-24.221700 -28.408917 -1.712380 37.372310 0.864790 1.616632 0.214573 -0.056747 -47208.100000 0 0 1
-24.744400 -26.974007 -1.475880 36.634145 0.828482 1.611094 0.159379 -0.046019 982290.000000 0 0 1
-26.116720 -26.923057 -1.044280 37.523654 0.800599 1.598630 0.180723 -0.047610 717977.000000 0 0 1
-26.710160 -25.679507 -0.685180 37.058591 0.765728 1.589286 0.174147 -0.061587 133936.000000 0 0 1
-26.204480 -24.914087 0.516320 36.161486 0.760160 1.556518 0.175730 -0.042857 -481278.000000 0 0 1
-26.490380 -25.553997 1.721020 36.847102 0.767408 1.524072 0.158601 -0.044940 -239174.000000 0 0 1
-26.043250 -24.869587 2.830820 36.121473 0.762350 1.492346 0.161681 -0.036033 -24643.000000 0 0 1
-26.915110 -23.652487 3.276520 35.980535 0.720967 1.479606 0.169364 -0.037223 6150.190000 0 0 1
-26.779570 -22.508887 2.463320 35.069407 0.698967 1.500497 0.156584 -0.042627 -17455.200000 0 0 1
-27.743320 -21.489187 2.685420 35.195006 0.659042 1.494421 0.136693 -0.038443 144071.000000 0 0 1
-27.625080 -20.215987 1.821020 34.280422 0.631750 1.517650 0.143459 -0.030192 356113.000000 0 0 1
-26.499830 -19.427287 2.204020 32.932024 0.632603 1.503820 0.121339 -0.029293 82499.500000 0 0 1
-26.182450 -18.419387 1.291220 32.038442 0.613072 1.530483 0.100505 -0.025096 -1613380.000000 0 0 1
-24.869500 -17.850087 1.653920 30.657024 0.622540 1.516821 0.114085 -0.029685 -1787320.000000 0 0 1
-23.847700 -18.732887 1.203820 30.349350 0.665850 1.531120 0.131998 -0.038410 -550191.000000 0 0 1
-22.657200 -18.181787 1.721820 29.101388 0.676247 1.511595 0.147246 -0.029830 -827646.000000 0 0 1
-21.490900 -19.142587 1.552120 28.821979 0.727670 1.516918 0.137722 -0.039618 -693903.000000 0 0 1
-21.088400 -19.419787 0.279220 28.669264 0.744229 1.561057 0.073521 -0.028858 -418793.000000 0 0 1
-19.991700 -20.288687 0.316820 28.485071 0.792771 1.559674 0.112089 -0.026684 -277042.000000 0 0 1
-19.527100 -20.578287 -1.125180 28.390836 0.811603 1.610438 0.115938 -0.034948 -195577.000000 0 0 1
-18.956500 -19.524787 -1.823380 27.274364 0.800165 1.637699 0.125353 -0.041415 -93610.700000 0 0 1
-18.816200 -19.906587 -3.148280 27.572328 0.813550 1.685228 0.113728 -0.037243 130431.000000 0 0 1
-18.006600 -18.922287 -4.046480 26.432264 0.810189 1.724489 0.122038 -0.027284 1077960.000000 0 0 1
-16.589200 -18.845487 -3.814080 25.394904 0.848987 1.721558 0.156658 -0.045045 958752.000000 0 0 1
-15.950600 -18.314387 -4.962780 24.788457 0.854275 1.772364 0.155327 -0.030030 -393363.000000 0 1 0
-14.458400 -17.973887 -4.893080 23.580674 0.893371 1.779819 0.179375 -0.044351 -279479.000000 0 1 0
-13.645900 -19.097487 -5.175180 24.035538 0.950379 1.787809 0.149393 -0.047134 778424.000000 0 1 0
-12.442600 -18.727987 -5.885580 23.242113 0.984375 1.826813 0.144021 -0.054646 1724150.000000 0 1 0
-11.242700 -19.785787 -5.901880 23.509740 1.054072 1.824551 0.133087 -0.061402 1089190.000000 0 1 0
-11.526100 -20.938387 -6.642580 24.807073 1.067587 1.841874 0.116821 -0.049998 -423466.000000 0 1 0
-10.342400 -21.664587 -6.825380 24.958072 1.125402 1.847799 0.124459 -0.045162 -97694.300000 0 1 0
-10.416900 -22.982787 -7.592480 26.350826 1.145245 1.863070 0.107647 -0.033396 -326550.000000 0 0 1
-10.761200 -22.747587 -8.958580 26.711651 1.128924 1.912806 0.106582 -0.034877 113711.000000 0 0 1
-10.576400 -23.889287 -9.823980 27.911805 1.154008 1.930466 0.126961 -0.028935 -403818.000000 0 0 1
-11.138800 -23.678887 -11.214380 28.469718 1.131099 1.975673 0.158273 -0.038837 -67783.800000 0 0 1
-10.538200 -22.666787 -11.944680 27.704012 1.135606 2.016567 0.137250 -0.033659 -85897.800000 0 0 1
-11.417500 -22.510787 -13.029680 28.405411 1.101404 2.047333 0.141728 -0.040965 -160001.000000 0 0 1
-11.170800 -21.262987 -13.997680 27.799936 1.087064 2.098458 0.124700 -0.025519 -303862.000000 0 0 1
-11.306800 -20.057387 -13.339480 26.609852 1.057479 2.095895 0.126626 -0.029340 210662.000000 0 0 1
-10.887500 -19.005887 -14.251180 26.131543 1.050580 2.147619 0.121754 -0.013962 39468.700000 0 0 1
-10.412700 -17.754287 -13.485680 24.606962 1.040370 2.150819 0.122026 -0.008051 136359.000000 0 1 0
-11.452800 -17.167487 -12.694580 24.228941 0.982479 2.122270 0.134976 -0.021717 507945.000000 0 1 0
-11.028400 -16.244887 -11.665280 22.838579 0.974383 2.106877 0.120756 -0.024629 -80811.500000 0 1 0
-10.529200 -14.815487 -12.038780 21.801260 0.952933 2.155804 0.110880 -0.018159 44570.700000 0 1 0
-11.517900 -13.873787 -12.409580 21.889305 0.877915 2.173564 0.103818 -0.020988 102139.000000 0 1 0
-11.874600 -13.961887 -13.782980 22.932748 0.866011 2.215570 0.127307 -0.018595 -246279.000000 0 1 0
-13.201400 -13.306187 -14.182480 23.504772 0.789351 2.218538 0.132730 -0.021446 -272978.000000 0 1 0
-13.094000 -11.927887 -14.133380 22.660091 0.738828 2.244279 0.097605 -0.008755 -77961.100000 0 1 0
-14.236800 -11.302987 -14.696380 23.375790 0.671027 2.250678 0.120579 -0.022019 127530.000000 0 1 0
-14.392900 -9.856787 -14.133680 22.451564 0.600477 2.251730 0.099657 -0.025103 470362.000000 0 1 0
-13.264500 -9.030387 -14.417480 21.572171 0.597719 2.302767 0.077657 -0.013700 286948.000000 0 1 0
-13.252400 -8.492487 -15.775080 22.284559 0.569899 2.357307 0.078744 -0.012810 -106181.000000 0 1 0
-12.173800 -7.393387 -15.930180 21.369001 0.545784 2.412052 0.059289 0.000334 -460651.000000 0 1 0
-10.881700 -7.913987 -15.940480 20.860045 0.628798 2.440539 0.050014 -0.002580 -878518.000000 0 1 0
-9.995400 -6.845187 -15.977280 20.050887 0.600475 2.492837 0.039385 0.009344 -295130.000000 0 1 0
11.962100 21.679213 15.372520 29.144373 1.066590 1.015187 0.142045 -0.041892 15663.100000 0 0 1
12.693400 21.959213 16.561220 30.291970 1.046677 0.992355 0.156236 -0.044103 -48851.300000 0 0 1
13.275200 20.776113 17.023320 29.961162 1.002218 0.966504 0.149416 -0.041932 -708658.000000 0 0 1
14.438400 20.991513 17.959320 31.171272 0.968291 0.956786 0.167023 -0.050078 -966272.000000 0 0 1
15.635700 21.371713 17.341820 31.653814 0.939171 0.990994 0.143857 -0.043663 401618.000000 0 0 1
16.719000 21.032713 18.254220 32.482557 0.899170 0.974031 0.137787 -0.049569 668194.000000 0 0 1
18.162500 21.376513 17.898720 33.274553 0.866507 1.002840 0.105201 -0.039673 -577550.000000 0 0 1
18.567400 22.742313 18.061020 34.469720 0.886120 1.019294 0.109329 -0.043489 287020.000000 0 0 1
19.876000 23.112913 17.660820 35.230196 0.860553 1.045698 0.105482 -0.039247 1155920.000000 0 0 1
21.110500 22.585913 18.497720 36.026967 0.819150 1.031606 0.102162 -0.042092 391048.000000 0 0 1
21.537800 21.252513 18.153020 35.285667 0.778731 1.030420 0.107054 -0.032686 -243271.000000 0 0 1
22.847500 21.079613 18.602620 36.227280 0.745174 1.031540 0.113347 -0.038264 -299432.000000 0 0 1
23.510600 19.693713 18.416120 35.773512 0.697282 1.030025 0.095332 -0.033460 -7036.110000 0 0 1
23.557200 19.355013 17.051020 34.932728 0.687784 1.060873 0.092159 -0.036410 -83633.900000 0 0 1
23.290200 17.997613 16.799620 33.890629 0.657906 1.052154 0.075469 -0.023506 -432528.000000 0 0 1
24.196200 16.896713 17.372920 34.245779 0.609598 1.038746 0.084642 -0.030249 -71576.000000 0 0 1
25.460900 16.907813 16.737920 34.846658 0.586203 1.069765 0.109052 -0.045113 36443.600000 0 0 1
26.087100 15.661113 16.880520 34.795965 0.540669 1.064286 0.096305 -0.034916 495666.000000 0 0 1
27.504600 15.475813 16.203820 35.476296 0.512513 1.096457 0.205794 -0.060355 328461.000000 0 0 1
28.436600 16.455413 16.628220 36.822799 0.524588 1.102268 0.182385 -0.059470 89352.700000 0 0 1
29.458200 15.912013 17.434020 37.748149 0.495254 1.090715 0.180182 -0.065713 -191404.000000 0 0 1
30.693200 15.338013 16.708820 38.164274 0.463424 1.117631 0.163122 -0.074259 -926665.000000 0 0 1
31.523100 16.348713 16.195820 39.029359 0.478437 1.142892 0.206263 -0.060571 -99024.500000 0 0 1
32.591000 15.823313 15.424020 39.375766 0.451990 1.168303 0.186193 -0.058867 3918.590000 0 0 1
32.291500 15.329713 14.026720 38.399088 0.443227 1.196854 0.144000 -0.058277 -535264.000000 0 0 1
32.283500 16.291813 12.978820 38.420012 0.467359 1.226203 0.148926 -0.036616 59922.600000 0 0 1
31.620700 15.831713 11.812420 37.283308 0.464188 1.248412 0.138961 -0.032888 1225930.000000 0 0 1
30.075800 16.135613 11.645820 36.062957 0.492418 1.241972 0.136419 -0.043136 994810.000000 0 0 1
29.611200 17.451113 11.412220 36.216064 0.532546 1.250219 0.144399 -0.041758 191944.000000 0 0 1
30.120100 18.521713 12.235520 37.416336 0.551324 1.237658 0.168223 -0.045354 -471897.000000 0 0 1
29.528200 18.622713 13.663720 37.488895 0.562670 1.197729 0.173585 -0.050713 -749203.000000 0 0 1
28.200300 19.038913 13.562320 36.628864 0.593840 1.191504 0.185113 -0.043381 139141.000000 0 0 1
27.433200 18.916413 14.794620 36.459456 0.603674 1.152961 0.167845 -0.046458 530335.000000 0 0 1
27.962000 19.833513 15.997320 37.830622 0.616942 1.134190 0.152609 -0.048290 -274365.000000 0 0 1
27.766300 21.230313 15.951320 38.420544 0.652784 1.142659 0.135787 -0.044965 588858.000000 0 0 1
26.408300 21.578013 16.254720 37.778630 0.685076 1.126013 0.110823 -0.032107 593684.000000 0 0 1
26.092700 23.080813 16.176520 38.408759 0.724224 1.136064 0.105482 -0.030095 -58326.300000 0 0 1
25.930800 23.509413 14.808820 38.005263 0.736461 1.170543 0.124176 -0.047461 48513.200000 0 0 1
26.073800 24.890713 14.652220 38.911158 0.762188 1.184721 0.131668 -0.046582 -542108.000000 0 0 1
25.678300 25.361713 13.229420 38.439682 0.779196 1.219452 0.130424 -0.048772 725845.000000 0 0 1
24.262400 25.400213 12.967720 37.443246 0.808305 1.217140 0.121760 -0.051420 787980.000000 0 0 1
23.964400 25.761913 11.615920 37.052641 0.821531 1.251922 0.099433 -0.054417 -88889.800000 0 0 1
23.416500 24.584313 10.806020 35.629917 0.809722 1.262658 0.106798 -0.049301 -168114.000000 0 0 1
22.106700 24.178313 11.206820 34.624988 0.830126 1.241198 0.101570 -0.048776 276794.000000 0 0 1
21.731700 22.914913 10.739220 33.357021 0.811894 1.243010 0.115887 -0.047437 -154752.000000 0 0 1
21.517500 22.758813 9.194120 32.641970 0.813426 1.285267 0.131917 -0.041169 -538625.000000 0 0 1
20.409000 23.331413 8.549020 32.155371 0.852112 1.301694 0.130736 -0.034608 -260949.000000 0 0 1
20.624700 23.319913 7.147820 31.941946 0.846653 1.345110 0.112230 -0.039127 -646849.000000 0 0 1
19.427200 23.433313 6.244120 31.072903 0.878596 1.368468 0.109973 -0.032791 -959746.000000 0 0 1
18.618900 22.284513 5.943220 29.640932 0.874776 1.368921 0.113460 -0.028488 1070710.000000 0 0 1
17.715600 22.400613 4.831620 28.965057 0.901658 1.403204 0.131481 -0.037549 1088330.000000 0 0 1
16.472100 23.365413 4.940920 29.011813 0.956737 1.399655 0.112557 -0.025964 421725.000000 0 0 1
16.812300 24.726513 4.723120 30.271467 0.973667 1.414131 0.109599 -0.033486 146480.000000 0 0 1
15.664900 25.448113 5.089820 30.313393 1.019012 1.402091 0.107975 -0.034864 28236.000000 0 0 1
15.610800 26.865213 4.588820 31.408502 1.044406 1.424170 0.098417 -0.037672 -272473.000000 0 0 1
15.181700 26.880713 3.283020 31.045692 1.056676 1.464850 0.089521 -0.028175 172076.000000 0 0 1
14.798500 28.216113 2.862020 31.989620 1.087765 1.481209 0.091979 -0.027867 -71112.600000 0 0 1
14.325000 28.173813 1.387820 31.636931 1.100411 1.526915 0.088949 -0.034003 -280379.000000 0 0 1
15.288300 27.849213 0.405820 31.772244 1.068747 1.558023 0.099946 -0.034306 -253741.000000 0 0 1
15.438400 26.434513 0.306120 30.614072 1.042206 1.560797 0.088759 -0.030113 352801.000000 0 0 1
16.417400 25.892213 -0.779780 30.668319 1.005703 1.596225 0.093318 -0.031829 264921.000000 0 0 1
16.003100 26.367813 -2.021180 30.910289 1.025306 1.636232 0.090812 -0.030402 -211309.000000 0 0 1
17.008400 26.324913 -3.026780 31.487269 0.997171 1.667072 0.091563 -0.021292 -35215.800000 0 0 1
16.607600 26.892113 -4.375880 31.908407 1.017562 1.708369 0.099012 -0.018913 -156134.000000 0 0 1
15.674700 26.139313 -5.133880 30.908197 1.030627 1.737671 0.125292 -0.023650 -255656.000000 0 0 1
15.616300 26.541613 -6.476380 31.468548 1.038972 1.778082 0.117498 -0.020712 615210.000000 0 0 1
14.284100 26.152213 -7.191180 30.654312 1.070882 1.807593 0.127241 -0.027946 577388.000000 0 0 1
14.252700 24.798813 -7.619380 29.600262 1.049163 1.831136 0.166243 -0.034283 -779765.000000 0 0 1
12.934500 24.596213 -7.999180 28.918193 1.086665 1.851065 0.124968 -0.029574 -448745.000000 0 0 1
12.563400 23.144813 -8.415780 27.646821 1.073485 1.880108 0.157446 -0.039390 -185467.000000 0 0 1
13.113100 22.819213 -9.629580 28.024965 1.049224 1.921552 0.154668 -0.041600 -316475.000000 0 0 1
12.551200 21.664213 -10.205080 27.037278 1.045698 1.957832 0.164728 -0.039723 84027.600000 0 0 1
12.773200 21.532213 -11.718680 27.642690 1.035382 2.008581 0.148001 -0.037394 -28011.800000 0 0 1
12.392400 20.212113 -12.143580 26.637710 1.020787 2.044156 0.158106 -0.037508 -101656.000000 0 0 1
12.736600 19.896713 -13.498680 27.208721 1.001387 2.089916 0.152662 -0.039478 279286.000000 0 0 1
14.156300 19.284513 -13.574780 27.505780 0.937565 2.086934 0.137643 -0.044925 16447.200000 0 0 1
15.215000 20.166113 -13.327180 28.561899 0.924432 2.056247 0.128991 -0.035602 266632.000000 0 0 1
16.496000 19.518613 -13.435780 28.872382 0.869129 2.054827 0.125264 -0.030933 890388.000000 0 0 1
17.653500 20.486813 -13.100480 30.049595 0.859549 2.021903 0.131797 -0.020754 -219204.000000 0 0 1
17.877400 21.635613 -13.985780 31.357666 0.880226 2.033097 0.120083 -0.021504 316453.000000 0 0 1
16.835900 22.610913 -14.064680 31.504224 0.930765 2.033577 0.120420 -0.026722 77747.800000 0 0 1
17.293300 23.903313 -14.778580 32.997470 0.944493 2.035178 0.120727 -0.026618 -26461.600000 0 0 1
17.405700 23.828013 -16.211480 33.668155 0.939911 2.073171 0.107928 -0.029906 446356.000000 0 0 1
16.227000 24.129913 -16.995480 33.681071 0.978777 2.099715 0.093070 -0.018812 558821.000000 0 0 1
16.536300 24.104213 -18.488280 34.587263 0.969505 2.134760 0.084043 -0.004886 64928.000000 0 0 1
16.863300 22.791313 -18.911180 34.080017 0.933790 2.159045 0.085054 -0.001246 -93219.600000 0 0 1
17.070600 22.791213 -20.288780 34.963972 0.927936 2.189865 0.080974 0.003918 -128897.000000 0 0 1
17.265200 21.357713 -20.911680 34.518653 0.890965 2.221578 0.082655 0.004071 -353498.000000 0 0 1
16.202500 20.456913 -20.843380 33.398395 0.900934 2.244754 0.080426 0.001928 -290495.000000 0 0 1
16.547700 19.261413 -21.534380 33.295013 0.861036 2.274145 0.070812 0.001325 512430.000000 0 0 1
15.357700 18.237613 -21.596580 32.169578 0.870913 2.306806 0.072686 0.001025 -49591.500000 0 0 1
15.175300 17.572013 -20.361980 30.881638 0.858456 2.290758 0.077688 -0.005227 -63987.200000 0 0 1
14.376200 16.423613 -20.318480 29.820309 0.851775 2.320421 0.076060 -0.016558 540840.000000 0 0 1
12.851200 16.565113 -20.638480 29.419435 0.910987 2.348332 0.089533 -0.030062 -82297.100000 0 0 1
12.132800 17.285613 -19.672680 28.861940 0.958795 2.320761 0.094783 -0.029345 -605702.000000 0 0 1
10.835200 17.510013 -20.150780 28.810693 1.016668 2.345382 0.101997 -0.026333 321335.000000 0 0 1
9.708400 16.933813 -19.214480 27.389839 1.050230 2.348322 0.119567 -0.034908 -93845.900000 0 0 1
9.598000 15.549913 -19.141880 26.463805 1.017798 2.379399 0.144452 -0.047841 -851664.000000 0 0 1
8.318900 15.101213 -18.880180 25.567791 1.067281 2.401545 0.139086 -0.038533 -541545.000000 0 0 1
7.770900 15.304613 -17.437780 24.468229 1.100969 2.364094 0.133089 -0.039819 -100912.000000 0 1 0
7.379500 16.625613 -17.129780 24.985944 1.153057 2.326192 0.135766 -0.038792 -127026.000000 0 1 0
6.605700 16.780513 -15.936080 24.066149 1.195773 2.294518 0.111385 -0.041122 126796.000000 0 1 0
6.364900 18.166513 -15.402580 24.653065 1.233797 2.245638 0.098853 -0.036824 220759.000000 0 1 0
7.553700 18.935513 -15.230780 25.447764 1.191224 2.212438 0.097274 -0.037002 192413.000000 0 0 1
8.038800 19.611013 -16.384480 26.789276 1.181774 2.228885 0.120798 -0.031119 201528.000000 0 0 1
9.283500 20.494413 -16.070280 27.648838 1.145469 2.191033 0.114701 -0.023661 301466.000000 0 0 1
9.034200 21.670713 -15.337080 28.043940 1.175819 2.149447 0.100721 -0.031839 -18466.700000 0 0 1
9.089500 21.491113 -13.965880 27.194351 1.170670 2.110123 0.102082 -0.036103 -151175.000000 0 0 1
8.639200 22.722913 -13.082880 27.606671 1.207477 2.064514 0.087178 -0.029757 -192975.000000 0 0 1
7.289300 23.051613 -13.363680 27.624241 1.264529 2.075749 0.076836 -0.025005 51638.400000 0 0 1
6.679700 23.951713 -12.438280 27.803125 1.298825 2.034619 0.062556 -0.025502 96045.600000 0 0 1
6.143800 23.364813 -11.077580 26.577689 1.313666 2.000718 0.055535 -0.025024 -947147.000000 0 0 1
7.054800 23.101513 -10.056780 26.164650 1.274409 1.965316 0.049215 -0.022036 -267173.000000 0 0 1
6.441400 22.496013 -8.911180 25.039396 1.291923 1.934659 0.068382 -0.033336 318301.000000 0 0 1
7.482300 22.426613 -7.767080 24.885042 1.248774 1.888218 0.065665 -0.041610 335911.000000 0 1 0
7.738700 23.693313 -7.224280 25.950930 1.255100 1.852906 0.055219 -0.034526 6739.920000 0 0 1
8.704300 23.650313 -6.197380 25.952065 1.218140 1.811927 0.076138 -0.031257 13849.900000 0 0 1
9.033000 24.981913 -5.526680 27.133655 1.223841 1.775915 0.049454 -0.027182 6660.050000 0 0 1
9.825600 25.874513 -6.264780 28.377461 1.207876 1.793396 0.067117 -0.020501 -54157.700000 0 0 1
10.093100 27.016813 -5.487980 29.358079 1.213266 1.758835 0.068128 -0.021235 166053.000000 0 0 1
10.529800 28.178113 -6.414480 30.757573 1.213177 1.780888 0.074071 -0.017696 -514601.000000 0 0 1
11.814700 28.263713 -6.918480 31.405254 1.174856 1.792915 0.076167 -0.018299 -1039080.000000 0 0 1
11.949100 29.315613 -7.827680 32.610715 1.183754 1.813197 0.076358 -0.013248 -497460.000000 0 0 1
13.299100 29.446013 -8.531280 33.417308 1.146577 1.828949 0.079216 -0.015351 198577.000000 0 0 1
14.306100 29.802413 -7.548080 33.909023 1.123251 1.795275 0.074952 -0.013591 -491749.000000 0 0 1
15.386900 30.281613 -8.273080 34.959643 1.100668 1.809709 0.077939 -0.012978 296650.000000 0 0 1
16.711700 30.654913 -7.509280 35.712657 1.071680 1.782647 0.066295 -0.015501 668101.000000 0 0 1
17.571100 29.596113 -7.196980 35.163475 1.035025 1.776925 0.074672 -0.014712 -380101.000000 0 0 1
18.639500 30.106613 -6.413380 35.985699 1.016439 1.749974 0.060003 -0.005660 417263.000000 0 0 1
19.781000 29.076513 -6.196180 35.708881 0.973409 1.745198 0.064428 -0.011603 -306701.000000 0 0 1
19.503100 28.111913 -5.205980 34.608565 0.964266 1.721794 0.084552 -0.021868 -66926.300000 0 0 1
20.456700 27.128413 -4.772680 34.310433 0.924696 1.710352 0.078107 -0.021774 -77805.500000 0 0 1
20.698000 25.863413 -5.720080 33.616107 0.895884 1.741787 0.085353 -0.011115 9942.230000 0 0 1
21.286400 26.337013 -6.921180 34.563735 0.891056 1.772403 0.072497 -0.007201 238776.000000 0 0 1
21.219100 25.360413 -8.025880 34.026688 0.874073 1.808910 0.078998 -0.014525 -830122.000000 0 0 1
21.986800 25.851213 -9.267080 35.179303 0.866004 1.837366 0.082045 -0.016685 1227690.000000 0 0 1
23.411100 26.090813 -9.121580 36.221725 0.839479 1.825363 0.055005 -0.011285 1383170.000000 0 0 1
24.164900 24.888813 -9.136180 35.872903 0.800155 1.828315 0.062821 -0.009799 560880.000000 0 0 1
25.731200 25.121413 -9.236480 37.128057 0.773407 1.822210 0.005592 0.000451 1371920.000000 0 0 1
26.227100 25.385513 -10.550680 37.994761 0.769094 1.852183 0.016858 0.001349 898365.000000 0 0 1
27.667600 25.454413 -10.513180 39.037804 0.743760 1.843470 0.001847 0.014365 1074600.000000 0 0 1
28.251500 25.423213 -11.929880 39.834772 0.732754 1.874948 0.027869 0.000718 -75327.500000 0 0 1
28.171000 26.700213 -12.603180 40.808660 0.758600 1.884765 0.032837 0.007499 -176554.000000 0 0 1
28.720800 26.586113 -13.863280 41.519830 0.746820 1.911229 0.047847 -0.000425 -12991.500000 0 0 1
28.378000 27.779313 -14.787280 42.375285 0.774738 1.927257 0.048507 -0.003828 202000.000000 0 0 1
28.947800 28.988213 -14.304080 43.392376 0.786096 1.906724 0.056246 -0.005766 72501.700000 0 0 1
29.095800 29.939413 -15.311180 44.467586 0.799687 1.922313 0.078118 -0.007067 21905.800000 0 0 1
29.586100 31.286613 -14.718180 45.506200 0.813326 1.900151 0.075749 -0.014258 691478.000000 0 0 1
30.967600 31.317113 -14.347980 46.320820 0.791010 1.885729 0.073104 -0.018846 666621.000000 0 0 1
31.468300 32.634313 -14.079680 47.470935 0.803586 1.871922 0.079940 -0.027910 -54691.900000 0 0 1
16.837200 -31.839731 -27.590998 45.370949 -1.084366 2.224487 0.128500 -0.047349 -171929.000000 0 0 1
18.026000 -32.411331 -27.083598 45.923331 -1.063233 2.201554 0.099181 -0.034987 160118.000000 0 0 1
18.503600 -31.673231 -25.987998 44.955009 -1.042073 2.187181 0.089992 -0.033409 -564379.000000 0 0 1
19.727800 -32.348231 -25.327658 45.575042 -1.023160 2.160043 0.019760 -0.028263 882136.000000 0 0 1
21.025000 -32.021031 -25.852028 46.213899 -0.989796 2.164457 0.026227 -0.025191 937014.000000 0 0 1
21.354900 -32.352031 -27.194438 47.352119 -0.987368 2.182548 0.040306 -0.021390 -1244600.000000 0 0 1
22.806500 -32.101631 -27.568738 48.069601 -0.953093 2.181589 0.039451 -0.005238 -577256.000000 0 0 1
23.021600 -30.789831 -27.953758 47.533361 -0.928768 2.199488 0.047503 -0.021805 942047.000000 0 0 1
24.401200 -30.417431 -27.820948 47.902441 -0.894709 2.190487 0.034904 -0.005682 470320.000000 0 0 1
24.926600 -29.198831 -28.615208 47.882536 -0.864167 2.211317 0.027768 0.005743 19748.900000 0 0 1
25.309000 -29.555931 -29.939938 49.096827 -0.862651 2.226622 0.024049 0.002019 -3782.460000 0 0 1
25.910400 -28.519031 -30.667448 49.246080 -0.833288 2.243035 0.029370 -0.011538 179060.000000 0 0 1
26.283500 -28.862831 -32.154038 50.574377 -0.832137 2.259811 0.048083 0.003672 346663.000000 0 0 1
27.529900 -29.518831 -32.331408 51.716310 -0.820248 2.246144 0.060386 -0.010365 54238.900000 0 0 1
27.524400 -30.040031 -33.636568 52.833841 -0.829072 2.260940 0.058724 -0.015899 -405256.000000 0 0 1
28.775200 -30.782631 33.372510 53.752274 -0.819091 0.900960 0.047791 -0.016336 -800086.000000 0 0 1
29.904300 -29.980731 33.357160 53.905580 -0.786674 0.903573 0.063909 -0.031246 -1265930.000000 0 0 1
31.055800 -30.762131 33.159884 54.866651 -0.780648 0.921819 0.062154 -0.015132 652556.000000 0 0 1
32.278500 -29.743431 33.293129 55.090886 -0.744547 0.921870 0.066057 -0.028856 622312.000000 0 0 1
32.372100 -28.869531 32.167665 54.001494 -0.728268 0.932683 0.072269 -0.020179 -212629.000000 0 0 1
33.579500 -28.156431 32.215681 54.389499 -0.697780 0.936868 0.074108 -0.027353 -189915.000000 0 0 1
33.914800 -27.556731 30.837910 53.484239 -0.682334 0.956260 0.086815 -0.037260 -549438.000000 0 0 1
34.969400 -26.622131 30.809050 53.673032 -0.650693 0.959397 0.083533 -0.045118 172369.000000 0 0 1
35.138100 -26.009031 29.541610 52.762321 -0.637196 0.976532 0.100408 -0.038330 138657.000000 0 0 1
35.839700 -26.798431 28.351490 52.975910 -0.642047 1.006079 0.094931 -0.031150 -163548.000000 0 0 1
35.051600 -27.786631 27.729440 52.627307 -0.670295 1.015845 0.082559 -0.036192 637357.000000 0 0 1
34.229500 -27.277131 26.658400 51.248130 -0.672841 1.023731 0.096097 -0.043147 604240.000000 0 0 1
33.195800 -28.267931 26.057300 50.793897 -0.705394 1.032120 0.095374 -0.030635 417245.000000 0 0 1
32.029000 -27.755631 25.441630 49.431857 -0.714040 1.030161 0.102997 -0.022462 1065360.000000 0 0 1
31.180300 -28.828731 24.925630 49.240165 -0.746231 1.040017 0.092721 -0.008165 1411340.000000 0 0 1
29.831400 -28.511331 24.163670 47.819362 -0.762776 1.041054 0.097980 -0.008290 1074080.000000 0 0 1
28.774000 -28.236631 25.055100 47.465866 -0.775973 1.014723 0.096451 -0.015127 -397547.000000 0 0 1
27.550500 -27.962231 24.428850 46.235107 -0.792815 1.014127 0.087528 -0.007751 -585415.000000 0 0 1
26.426000 -27.866731 25.430090 46.060587 -0.811928 0.985914 0.087454 -0.005829 -655663.000000 0 0 1
26.337200 -26.632831 26.133730 45.671957 -0.790979 0.961604 0.082294 -0.012911 -42027.900000 0 0 1
25.216900 -26.598531 26.983740 45.513692 -0.812056 0.936177 0.080570 -0.015232 -109363.000000 0 0 1
25.049300 -25.303531 27.795160 45.169758 -0.790447 0.907968 0.068041 -0.004254 829582.000000 0 0 1
23.788300 -25.233231 28.533630 44.908432 -0.814865 0.882304 0.071213 -0.001707 1186160.000000 0 0 1
23.632100 -24.202331 29.504970 44.886215 -0.797319 0.853529 0.066683 -0.002003 -170210.000000 0 0 1
23.221900 -22.784331 29.023150 43.597312 -0.775887 0.842352 0.063768 -0.000230 -77192.600000 0 0 1
24.142600 -22.158731 28.126460 43.185325 -0.742577 0.861504 0.070646 -0.003346 235007.000000 0 0 1
23.817300 -20.779431 27.942540 42.188080 -0.717385 0.846868 0.080156 0.003770 230359.000000 0 0 1
24.634700 -19.815231 28.851660 42.801053 -0.677395 0.831068 0.082652 -0.000758 225335.000000 0 0 1
24.098500 -19.824831 30.154530 43.394209 -0.688405 0.802519 0.075546 0.004813 199565.000000 0 0 1
24.621200 -18.698331 30.843040 43.670633 -0.649516 0.786588 0.081216 -0.004783 -76660.300000 0 0 1
24.146600 -18.451131 32.273713 44.329393 -0.652483 0.755333 0.085718 -0.004664 -111040.000000 0 0 1
24.647800 -19.422631 33.153765 45.650025 -0.667385 0.757931 0.080644 -0.002101 161746.000000 0 0 1
24.195100 -19.102131 -33.020338 45.173410 -0.668308 2.390536 0.095109 -0.005620 54036.800000 0 0 1
24.205800 -20.274831 -32.058448 44.997040 -0.697252 2.363790 0.056784 0.002123 -407061.000000 0 0 1
25.425800 -20.550731 -31.456128 45.368402 -0.679759 2.336922 0.040055 0.004115 -551427.000000 0 0 1
25.197800 -21.512531 -30.427418 44.983840 -0.706665 2.313671 0.042588 -0.003475 227586.000000 0 0 1
26.470800 -21.886631 -29.638938 45.367329 -0.690883 2.282745 0.052953 0.003389 404779.000000 0 0 1
27.385700 -22.763531 -30.314378 46.766617 -0.693490 2.276022 0.045411 0.006873 445345.000000 0 0 1
28.492900 -23.074931 -29.459438 47.033566 -0.680717 2.247657 0.053465 -0.001445 467377.000000 0 0 1
29.624300 -23.861131 -30.140918 48.532749 -0.678060 2.240869 0.044968 -0.002911 -133229.000000 0 0 1
30.489800 -23.237131 -31.078518 49.350445 -0.651218 2.252030 0.042838 -0.004347 155232.000000 0 0 1
30.048700 -23.176231 -32.423558 49.913417 -0.656987 2.277849 0.045941 -0.003660 23973.800000 0 0 1
30.226400 -24.429131 -33.258308 51.152055 -0.679724 2.278624 0.052162 -0.007039 -80943.900000 0 0 1
29.155400 -25.298731 -32.982588 50.773165 -0.714692 2.277863 0.063268 -0.016026 -85877.000000 0 0 1
29.267400 -26.593431 -33.510958 51.834116 -0.737566 2.273789 0.072820 -0.027921 -51564.500000 0 0 1
28.774600 -26.721331 32.481986 50.961619 -0.748416 0.879701 0.079390 -0.029042 52300.500000 0 0 1
29.692700 -26.089531 31.596053 50.602674 -0.720894 0.896440 0.078773 -0.035539 -14797.900000 0 0 1
29.553700 -26.326831 30.241440 49.810320 -0.727716 0.918350 0.071365 -0.034733 -499789.000000 0 0 1
30.765300 -25.849831 29.409600 49.796004 -0.698793 0.938992 0.087522 -0.038867 -102803.000000 0 0 1
30.982800 -24.481431 29.299530 49.170488 -0.668713 0.932440 0.076367 -0.035485 244414.000000 0 0 1
31.375600 -23.760131 30.498190 49.790679 -0.648144 0.911541 0.068810 -0.029186 -1628960.000000 0 0 1
31.768000 -22.243531 30.231620 49.172466 -0.610851 0.908654 0.064808 -0.023514 222411.000000 0 0 1
33.041700 -21.982731 29.683070 49.558845 -0.587058 0.928612 0.099800 -0.040262 -252812.000000 0 0 1
34.061100 -22.425231 30.525970 50.940008 -0.582245 0.928228 0.088629 -0.037565 -1784570.000000 0 0 1
35.483500 -21.976731 30.185850 51.509621 -0.554527 0.944654 0.087901 -0.040516 -555830.000000 0 0 1
36.075300 -22.533031 29.079600 51.524634 -0.558320 0.971111 0.105820 -0.046622 78210.500000 0 0 1
37.327800 -21.909331 28.828950 52.004729 -0.530764 0.983212 0.084291 -0.037646 226194.000000 0 0 1
-37.747907 -22.190231 27.457030 51.683647 0.531440 1.010719 0.084535 -0.034522 -222972.000000 0 0 1
-37.259507 -23.511831 27.389220 51.877225 0.562923 1.014597 0.075277 -0.026591 459596.000000 0 0 1
-36.529107 -23.752531 26.164490 50.824590 0.576541 1.030022 0.049746 -0.013455 50471.400000 0 0 1
-36.237207 -25.225331 25.878590 51.177670 0.608115 1.040647 0.044118 -0.013683 871028.000000 0 0 1
-37.456007 -25.987331 25.592460 52.280664 0.606559 1.059256 0.061534 -0.016520 1152680.000000 0 0 1
-37.264807 -27.345331 25.152590 52.622103 0.633059 1.072437 0.048714 -0.005466 -27891.800000 0 0 1
-36.738207 -28.277131 26.255710 53.279023 0.655986 1.055496 0.052296 -0.012628 -1161170.000000 0 0 1
-36.610407 -29.616031 25.789730 53.689304 0.680175 1.069741 0.053847 -0.005317 197285.000000 0 0 1
-35.593407 -30.445631 26.334020 53.733674 0.707605 1.058610 0.058017 -0.019078 1061480.000000 0 0 1
-34.142807 -29.822231 26.234270 52.376843 0.717955 1.046186 0.054849 -0.016645 -462156.000000 0 0 1
-33.732707 -29.823931 24.907540 51.456272 0.723975 1.065516 0.053376 -0.013756 -1100340.000000 0 0 1
-32.583907 -29.112131 24.716400 50.200873 0.729185 1.056009 0.034649 -0.003951 -985504.000000 0 0 1
-32.156807 -29.118631 23.207420 49.198976 0.735856 1.079573 0.029463 -0.004319 -195877.000000 0 0 1
-31.850607 -30.431231 22.870420 49.634435 0.762613 1.091926 0.044997 -0.012381 404128.000000 0 0 1
-31.377507 -30.471431 21.521520 48.746609 0.770749 1.113529 0.036773 -0.004106 -542090.000000 0 0 1
-31.253707 -31.829031 20.754720 49.199998 0.794518 1.135318 0.056111 -0.005744 144777.000000 0 0 1
-30.223907 -32.731631 21.120020 49.304153 0.825210 1.128117 0.080019 -0.020171 -206084.000000 0 0 1
-28.935407 -32.374431 20.692420 48.099250 0.841432 1.126079 0.087302 -0.017009 -495762.000000 0 0 1
-28.027807 -33.622831 20.754920 48.443983 0.875904 1.128040 0.091644 -0.015616 -324062.000000 0 0 1
-28.116207 33.205513 19.611720 47.725745 -0.868202 1.147327 0.082562 -0.018026 543496.000000 0 0 1
-29.181907 32.237613 19.503920 47.657636 -0.835109 1.149164 0.099038 -0.020376 496862.000000 0 0 1
-29.204807 31.085013 20.619120 47.374539 -0.816574 1.120496 0.100552 -0.022585 -13865.200000 0 0 1
-28.134607 30.179413 20.442320 46.046081 -0.820449 1.110790 0.085754 -0.017986 -69778.000000 0 0 1
-28.070507 29.136513 21.413520 45.775852 -0.804030 1.084007 0.084480 -0.024200 106744.000000 0 0 1
-27.104407 27.963213 21.002920 44.246049 -0.800992 1.076191 0.079052 -0.021202 240425.000000 0 0 1
-25.747607 28.310813 21.080320 43.690060 -0.832778 1.067293 0.066179 -0.013975 -284282.000000 0 0 1
-24.895307 27.285713 20.645120 42.314388 -0.831176 1.061116 0.061760 -0.016103 817938.000000 0 0 1
-23.357307 27.605113 20.695820 41.664410 -0.868558 1.050973 0.045588 -0.007684 764352.000000 0 0 1
-22.781307 27.510713 21.995620 41.947999 -0.879161 1.018840 0.057072 -0.012353 -159757.000000 0 0 1
-21.784407 28.457913 22.116620 42.113633 -0.917452 1.017887 0.086969 -0.012415 -659560.000000 0 0 1
-21.205207 28.524713 23.547260 42.635590 -0.931534 0.985686 0.079644 -0.009553 -462989.000000 0 0 1
-20.590807 27.344813 23.941820 41.772370 -0.925374 0.960452 0.081472 -0.027644 162125.000000 0 0 1
-20.304907 27.346013 25.325320 42.443675 -0.932101 0.931438 0.087706 -0.029065 711363.000000 0 0 1
-18.844907 27.765013 25.750960 42.298208 -0.974490 0.916255 0.107697 -0.026632 224762.000000 0 0 1
-18.659807 29.139113 25.791930 43.156691 -1.001221 0.930249 0.087500 -0.019399 403996.000000 0 0 1
-17.405907 29.612013 26.273600 43.245104 -1.039397 0.917823 0.084093 -0.016592 214771.000000 0 0 1
-17.376707 29.781313 27.789260 44.284529 -1.042615 0.892437 0.073633 -0.011099 -320183.000000 0 0 1
-17.487107 28.605313 28.524660 44.019531 -1.022092 0.865841 0.090660 -0.013146 318066.000000 0 0 1
-17.993207 28.732213 29.834510 45.159645 -1.011307 0.849118 0.074175 -0.007378 -446951.000000 0 0 1
-17.660607 27.402813 30.649370 44.745895 -0.998310 0.816241 0.085586 0.001463 -243307.000000 0 0 1
-16.288407 27.275313 30.932210 44.340236 -1.032449 0.798739 0.078488 0.011059 181201.000000 0 0 1
-15.850907 26.075113 31.611850 43.937135 -1.024593 0.767744 0.093564 0.005852 -45198.300000 0 0 1
-16.217607 26.143213 33.113315 45.199226 -1.015557 0.748651 0.093639 0.005998 -457310.000000 0 0 1
-17.582307 25.989813 33.369240 45.805176 -0.976012 0.754661 0.093821 -0.001887 -634618.000000 0 0 1
-17.981507 26.705913 -32.952738 46.069766 -0.978205 2.367820 0.091760 -0.003941 -273230.000000 0 0 1
-19.388407 26.356513 -32.492048 46.111921 -0.936561 2.352704 0.064365 -0.009243 -1285350.000000 0 0 1
-20.421507 26.570813 -33.352128 47.280128 -0.915517 2.353805 0.060450 -0.007869 -350174.000000 0 0 1
-21.553207 25.820413 -32.868828 47.027591 -0.875231 2.344692 0.075090 -0.014895 708143.000000 0 0 1
-22.880807 26.007313 -33.667428 48.305356 -0.849263 2.341961 0.096752 -0.027292 288672.000000 0 0 1
-23.068507 25.136113 32.627512 47.207359 -0.828264 0.807713 0.091662 -0.025672 37403.100000 0 0 1
-23.156207 23.751013 32.871233 46.699449 -0.798078 0.789938 0.088502 -0.025019 -230670.000000 0 0 1
-23.359607 22.880013 31.593865 45.467995 -0.775027 0.802572 0.095722 -0.019786 586902.000000 0 0 1
-24.702407 22.966513 31.115360 45.889381 -0.748999 0.825688 0.097538 -0.020864 293097.000000 0 0 1
-24.878107 22.347613 29.863710 44.835000 -0.731866 0.841855 0.115282 -0.016317 526669.000000 0 0 1
-26.375807 22.083113 29.529510 45.335847 -0.697045 0.861434 0.096275 -0.021587 604388.000000 0 0 1
-26.900807 20.978413 30.294640 45.623595 -0.662329 0.844624 0.108034 -0.017680 603070.000000 0 0 1
-28.178207 20.587813 29.773210 45.872796 -0.630988 0.864476 0.113236 -0.026961 483050.000000 0 0 1
-28.649007 19.207413 30.299590 45.910298 -0.590610 0.850013 0.138723 -0.026812 -632548.000000 0 0 1
-29.117107 19.212913 31.626987 47.087241 -0.583268 0.834339 0.138631 -0.022734 112814.000000 0 0 1
-29.434607 17.900013 32.124972 47.104356 -0.546375 0.820308 0.121645 -0.017428 199678.000000 0 0 1
-30.410307 16.987513 31.322070 46.844791 -0.509430 0.838425 0.105490 -0.020579 587776.000000 0 0 1
-31.813107 17.281613 31.376072 47.908098 -0.497625 0.856717 0.100969 -0.020799 589373.000000 0 0 1
-32.601707 16.222113 30.930510 47.777868 -0.461714 0.866652 0.110583 -0.011874 164647.000000 0 0 1
-34.114407 16.586013 30.968590 48.968788 -0.452537 0.886130 0.085928 -0.014627 115332.000000 0 0 1
-34.607607 16.678713 32.300447 50.191481 -0.449094 0.871676 0.084829 -0.016015 -123454.000000 0 0 1
-35.995007 16.857213 32.292200 51.211252 -0.437985 0.888511 0.113772 -0.018949 -666980.000000 0 0 1
-36.579507 16.932713 33.666750 52.518827 -0.433531 0.874942 0.104123 -0.015120 1017130.000000 0 0 1
37.688800 17.093013 33.708190 53.374702 0.425786 0.887260 0.100062 -0.018538 1144820.000000 0 0 1
37.304200 17.368413 -32.429278 52.392015 0.435742 2.238232 0.086990 -0.021291 -184627.000000 0 0 1
35.807700 17.701013 -32.304538 51.372176 0.459106 2.250848 0.085879 -0.026522 -4875.710000 0 0 1
35.036000 16.504613 -32.207588 50.371145 0.440242 2.264521 0.096234 -0.032427 718940.000000 0 0 1
33.658500 16.859313 -32.012558 49.415938 0.464362 2.275514 0.080515 -0.033439 1003600.000000 0 0 1
32.648400 15.654713 -31.918058 48.267489 0.447109 2.293313 0.086978 -0.032365 632881.000000 0 0 1
32.026000 15.329013 -33.200588 48.609900 0.446416 2.322659 0.094468 -0.036812 -22692.800000 0 0 1
31.346100 14.103813 -33.083028 47.707256 0.422803 2.337075 0.093872 -0.043077 -128159.000000 0 0 1
32.172400 12.806413 -33.315538 48.051978 0.378829 2.336886 0.094445 -0.040847 412069.000000 0 0 1
32.982300 12.471713 -32.174158 47.734183 0.361515 2.310444 0.094901 -0.039598 29580.900000 0 0 1
33.715000 11.313013 -32.448228 48.141178 0.323743 2.310437 0.112111 -0.041544 -139105.000000 0 0 1
17.823700 -20.725187 9.602262 28.972764 -0.860524 1.232984 0.064222 -0.031941 -188092.000000 0 0 1
17.692200 -21.935887 10.342462 30.019387 -0.892079 1.219062 0.064094 -0.030415 208464.000000 0 0 1
18.965700 -22.437687 10.719362 31.273827 -0.869060 1.220945 0.045731 -0.028414 171805.000000 0 0 1
18.920700 -23.873787 11.341562 32.505101 -0.900627 1.214382 0.050967 -0.027727 -70157.800000 0 0 1
18.464500 -24.908487 10.455662 32.721420 -0.932891 1.245557 0.056946 -0.024733 60010.000000 0 0 1
17.160900 -25.246697 10.895562 32.413044 -0.973805 1.227973 0.052996 -0.018952 416353.000000 0 0 1
16.319700 -26.225387 9.980462 32.460948 -1.014151 1.258273 0.082714 -0.026030 354306.000000 0 0 1
16.097900 -25.638737 8.753762 31.513736 -1.010133 1.289318 0.082563 -0.029899 141301.000000 0 0 1
15.354700 -26.421707 7.835762 31.547941 -1.044360 1.319793 0.094093 -0.023933 -112647.000000 0 0 1
15.136100 -25.592127 6.504362 30.436248 -1.036698 1.355431 0.095631 -0.018062 207269.000000 0 0 1
14.398200 -24.358487 6.748562 29.089296 -1.036950 1.336669 0.097260 -0.026216 470322.000000 0 0 1
13.780200 -23.852187 5.582262 28.106625 -1.046910 1.370857 0.117672 -0.021218 99089.900000 0 0 1
12.954200 -22.558987 5.681562 26.627041 -1.049536 1.355767 0.152640 -0.028774 203879.000000 0 0 1
12.203100 -22.184287 4.504362 25.716677 -1.067893 1.394735 0.150609 -0.029458 170915.000000 0 0 1
11.358300 -21.110687 4.842962 24.456622 -1.077185 1.371456 0.161811 -0.027734 -17999.900000 0 1 0
10.497600 -20.702387 3.623062 23.492871 -1.101507 1.415959 0.144216 -0.027973 283360.000000 0 1 0
11.257900 -20.068987 2.610262 23.158541 -1.059577 1.457844 0.126266 -0.031389 174071.000000 0 1 0
10.411000 -19.602387 1.590562 22.252469 -1.082573 1.499257 0.088733 -0.011143 110824.000000 0 1 0
11.303100 -19.143787 0.463462 22.236444 -1.037442 1.549952 0.079541 -0.010219 141303.000000 0 1 0
12.067100 -17.986887 0.773162 21.673504 -0.979880 1.535116 0.068019 -0.008522 -52023.200000 0 1 0
12.893100 -17.644387 -0.315438 21.855340 -0.939749 1.585230 0.075581 -0.017351 -201032.000000 0 1 0
14.080500 -16.718587 0.004562 21.857988 -0.870844 1.570588 0.057821 -0.003801 145552.000000 0 1 0
15.122600 -17.343387 0.752662 23.022871 -0.853695 1.538099 0.068410 -0.014397 -461751.000000 0 1 0
16.144900 -16.421987 0.919262 23.047440 -0.793906 1.530900 0.061986 -0.026706 -755843.000000 0 1 0
17.388800 -16.981087 1.590262 24.356859 -0.773536 1.505460 0.053307 -0.017424 -482693.000000 0 1 0
17.903000 -18.093387 0.863062 25.468273 -0.790687 1.536902 0.064223 -0.017924 -636389.000000 0 0 1
19.148200 -18.487787 1.332362 26.650084 -0.767853 1.520781 0.065908 -0.012900 -191658.000000 0 0 1
19.681100 -19.842387 0.666262 27.955499 -0.789479 1.546961 0.039265 -0.008339 96241.800000 0 0 1
18.912700 -20.974587 0.988662 28.259529 -0.837045 1.535804 0.054602 -0.007274 -96040.300000 0 0 1
19.223300 -22.052887 0.175762 29.255700 -0.853844 1.564789 0.058623 -0.011113 190702.000000 0 0 1
18.229000 -23.245987 0.484362 29.544999 -0.905777 1.554402 0.076575 -0.013358 456853.000000 0 0 1
18.435000 -23.980187 1.646462 30.292068 -0.915397 1.516417 0.056215 -0.000714 -347044.000000 0 0 1
17.395000 -24.895287 1.817062 30.424711 -0.960925 1.511038 0.080770 -0.003092 -542339.000000 0 0 1
17.568100 -25.772007 3.054762 31.339528 -0.972476 1.473168 0.070136 -0.006182 349758.000000 0 0 1
18.608400 -26.722057 2.962862 32.697391 -0.962512 1.480057 0.058164 -0.008192 384397.000000 0 0 1
19.892400 -26.291437 3.399962 33.143732 -0.923077 1.468033 0.057616 0.002587 282675.000000 0 0 1
20.923100 -27.425947 3.587862 34.681860 -0.919094 1.467160 0.066438 0.002263 118492.000000 0 0 1
21.390700 -27.995607 2.374062 35.312210 -0.918349 1.503515 0.056111 0.006874 -520551.000000 0 0 1
22.293300 -29.056047 2.562062 36.712521 -0.916345 1.500952 0.054633 0.008497 -255017.000000 0 0 1
21.789900 -30.487137 2.890462 37.584837 -0.950256 1.493815 0.066849 -0.001085 -94320.500000 0 0 1
21.482000 -30.685287 4.249162 37.697726 -0.960020 1.457840 0.092826 -0.000878 -573854.000000 0 0 1
20.803200 -31.824057 4.573662 38.294413 -0.991829 1.451076 0.086625 -0.021083 -481976.000000 0 0 1
20.700100 -31.997177 6.115562 38.596807 -0.996579 1.411678 0.100957 -0.034081 862308.000000 0 0 1
21.916700 -32.401027 6.796562 39.703419 -0.976072 1.398766 0.076245 -0.045555 736723.000000 0 0 1
21.567900 -33.338937 7.761662 40.458650 -0.996584 1.377758 0.070076 -0.043888 549395.000000 0 0 1
22.758100 33.581304 8.468362 41.440900 0.975193 1.364999 0.079450 -0.046184 489592.000000 0 0 1
23.668100 -33.246507 9.126262 41.818630 -0.952130 1.350791 0.080602 -0.047597 201261.000000 0 0 1
24.670100 33.644662 9.789162 42.853294 0.938099 1.340327 0.103611 -0.046198 664056.000000 0 0 1
25.740100 -33.166827 10.590362 43.298347 -0.910812 1.323699 0.103198 -0.045257 84872.000000 0 0 1
26.502800 -32.429757 9.681162 42.986189 -0.885633 1.343632 0.079127 -0.034864 54730.400000 0 0 1
27.476500 -31.657227 10.390262 43.186752 -0.855980 1.327824 0.074674 -0.032855 529584.000000 0 0 1
28.150300 -30.551447 9.520062 42.619970 -0.826280 1.345525 0.066540 -0.029538 -401749.000000 0 0 1
27.198700 -29.590767 9.196162 41.230476 -0.827495 1.345862 0.045683 -0.032564 -226644.000000 0 0 1
27.527300 -28.887567 8.031562 40.703191 -0.809505 1.372173 0.044607 -0.025170 -70513.600000 0 0 1
26.990100 -27.467997 8.062562 39.344138 -0.794173 1.364410 0.034160 -0.022462 -136362.000000 0 0 1
27.572700 -26.689857 9.100862 39.438914 -0.769130 1.337939 0.039408 -0.036917 132044.000000 0 0 1
26.946100 -25.410067 9.191462 38.160801 -0.756068 1.327543 0.047695 -0.037817 -97494.300000 0 0 1
27.700400 -24.429287 10.144362 38.301570 -0.722731 1.302743 0.067962 -0.053255 20830.900000 0 0 1
28.971900 -24.154287 9.611362 38.925298 -0.694963 1.321298 0.090758 -0.047822 -439100.000000 0 0 1
29.792000 -23.514987 10.590862 39.404114 -0.668186 1.298675 0.071741 -0.048306 1164950.000000 0 0 1
31.293100 -23.367287 10.118662 40.344461 -0.641401 1.317283 0.088710 -0.044988 1139970.000000 0 0 1
31.455700 -22.414887 9.074162 39.676550 -0.619123 1.340051 0.086484 -0.034201 -524989.000000 0 0 1
32.746000 -22.451087 8.524262 40.608064 -0.601005 1.359308 0.078601 -0.040565 -77240.000000 0 0 1
32.855700 -21.573087 7.242062 39.966768 -0.581002 1.388588 0.065122 -0.018299 -102736.000000 0 0 1
32.652400 -20.207687 7.513462 39.127764 -0.554181 1.377572 0.059772 -0.003708 -136877.000000 0 0 1
33.012200 -19.508487 6.343062 38.866706 -0.533737 1.406863 0.054080 -0.008081 -158446.000000 0 0 1
32.604700 -18.072487 6.303462 37.807603 -0.506132 1.403289 0.068747 -0.003905 -163067.000000 0 0 1
33.320100 -17.378687 7.281662 38.278851 -0.480752 1.379403 0.063415 -0.005159 55904.600000 0 0 1
33.006200 -15.989487 7.158362 37.367299 -0.451121 1.378037 0.076699 -0.007706 -17575.300000 0 0 1
33.474600 -15.271787 8.451662 37.751912 -0.428015 1.345009 0.076025 -0.037367 -30680.000000 0 0 1
34.877800 -15.207987 8.495562 38.986130 -0.411181 1.351121 0.081393 -0.036811 -274751.000000 0 0 1
35.372100 -14.850487 9.806862 39.596678 -0.397489 1.320523 0.082516 -0.054830 134635.000000 0 0 1
36.910700 -14.773187 9.802162 40.947884 -0.380714 1.329068 0.094359 -0.060566 -158844.000000 0 0 1
37.424400 -13.651987 9.122262 40.867812 -0.349788 1.345686 0.132436 -0.053363 -768670.000000 0 0 1
-36.992907 -13.911787 8.683162 40.464926 0.359705 1.354530 0.140502 -0.054800 -324641.000000 0 0 1
-36.198407 -12.823387 7.938762 39.214638 0.340458 1.366944 0.161151 -0.059568 15.124200 0 0 1
-36.759907 -12.510187 6.625962 39.391609 0.328027 1.401785 0.191471 -0.070577 578632.000000 0 0 1
-35.875307 -11.819887 5.705062 38.200721 0.318271 1.420891 0.220398 -0.057093 743916.000000 0 0 1
-34.803107 -12.706287 5.001362 37.386088 0.350055 1.436618 0.245473 -0.058292 216257.000000 0 0 1
-33.887207 -13.358987 5.805362 36.885058 0.375513 1.412749 0.208784 -0.057445 -578798.000000 0 0 1
-33.004107 -14.248387 5.195062 36.321843 0.407545 1.427276 0.213012 -0.036718 -522183.000000 0 0 1
-32.280007 -15.005287 6.272262 36.145522 0.435132 1.396385 0.169138 -0.030411 -372390.000000 0 0 1
-33.117107 -15.805587 7.097662 37.375609 0.445294 1.379735 0.128183 -0.040648 -68919.300000 0 0 1
-32.539307 -16.109587 8.348062 37.256079 0.459705 1.344805 0.119459 -0.035894 113196.000000 0 0 1
-33.478307 -16.935087 9.263362 38.644586 0.468319 1.328733 0.066016 -0.029198 27936.800000 0 0 1
-34.563407 -16.148387 9.798662 39.387984 0.437074 1.319383 0.072239 -0.031751 1222180.000000 0 0 1
-35.506007 -16.741687 10.706562 40.688955 0.440603 1.304529 0.082290 -0.023865 117275.000000 0 0 1
-36.245207 -17.990387 10.263762 41.745824 0.460725 1.322386 0.080635 -0.025561 -873352.000000 0 0 1
-35.463007 -19.183087 10.103862 41.565655 0.495855 1.325254 0.094952 -0.028532 -174460.000000 0 0 1
-35.007807 -19.819787 11.256462 41.774136 0.515160 1.297964 0.091892 -0.037953 650949.000000 0 0 1
-36.128007 -20.649987 12.024062 43.315504 0.519259 1.289509 0.093398 -0.034150 735877.000000 0 0 1
-36.482907 -21.764887 11.279262 43.953777 0.537899 1.311277 0.107490 -0.029174 -1127730.000000 0 0 1
-37.792907 -22.084687 11.560162 45.273331 0.528841 1.312595 0.119591 -0.039599 -915970.000000 0 0 1
37.526200 -23.576187 11.514662 45.789078 -0.560940 1.316596 0.132426 -0.041482 -260735.000000 0 0 1
-37.658207 -24.384587 12.570562 46.591497 0.574633 1.297607 0.128359 -0.035983 237213.000000 0 0 1
37.653000 -25.745767 12.507362 47.297220 -0.599746 1.303171 0.132575 -0.033969 -353508.000000 0 0 1
36.335300 -25.974407 13.252362 46.589150 -0.620625 1.282362 0.147378 -0.047540 -154358.000000 0 0 1
35.166900 -25.519017 12.570462 45.232152 -0.627737 1.289179 0.140586 -0.042927 557087.000000 0 0 1
34.065400 -25.166887 13.390962 44.420057 -0.636283 1.264571 0.143303 -0.020435 380662.000000 0 0 1
34.086400 -23.664387 13.770862 43.720962 -0.606855 1.250370 0.139978 -0.027340 -594322.000000 0 0 1
35.151800 -23.311287 14.601062 44.634696 -0.585571 1.237538 0.144626 -0.029703 -364760.000000 0 0 1
35.239600 -21.965287 14.794162 44.081407 -0.557385 1.228544 0.140218 -0.029947 8014.680000 0 0 1
36.560200 -21.501187 15.452062 45.141062 -0.531626 1.221426 0.117622 -0.017823 2383.810000 0 0 1
36.554400 -20.118787 15.895562 44.650404 -0.503134 1.206812 0.125435 0.000211 286169.000000 0 0 1
35.751100 -19.954087 17.061962 44.355577 -0.509071 1.175953 0.139923 -0.007587 78156.200000 0 0 1
35.814000 -18.548987 17.692562 44.042414 -0.477885 1.157406 0.131248 0.000734 130203.000000 0 0 1
35.199100 -17.540287 16.825162 42.775277 -0.462300 1.166536 0.116606 -0.004815 460453.000000 0 0 1
35.047700 -16.236287 17.394662 42.361923 -0.433828 1.147662 0.111442 -0.007290 596966.000000 0 0 1
36.351000 -15.469587 17.854162 43.352905 -0.402346 1.146332 0.084714 -0.011414 662331.000000 0 0 1
36.960000 -15.972587 19.032462 44.535376 -0.407919 1.129230 0.099737 -0.003869 -20424.500000 0 0 1
-37.544107 -15.283487 19.250862 44.874721 0.386596 1.127421 0.074991 -0.012673 -285800.000000 0 0 1
-37.006907 -15.201787 20.681562 45.037012 0.389767 1.093688 0.073408 -0.004148 -61123.800000 0 0 1
-36.226707 -16.352287 21.023762 44.964098 0.424007 1.084259 0.071036 0.005996 140890.000000 0 0 1
-35.816607 -16.225287 22.367062 45.236873 0.425354 1.053602 0.066167 -0.007493 -357970.000000 0 0 1
-34.769007 -17.280287 22.650362 44.950317 0.461247 1.042691 0.065750 0.003508 -987621.000000 0 0 1
-35.307807 -18.594487 22.844762 45.981293 0.484731 1.050857 0.065343 -0.004034 565289.000000 0 0 1
-34.396707 -19.657887 23.202762 45.912243 0.519204 1.040983 0.044397 0.000074 1006080.000000 0 0 1
-33.119307 -19.976187 22.316062 44.653590 0.542739 1.047475 0.023251 0.009967 758621.000000 0 0 1
-32.051107 -19.065787 22.436062 43.521886 0.536628 1.029191 0.038681 0.017897 -46996.300000 0 0 1
-30.869707 -19.637787 21.911662 42.646247 0.566578 1.031187 0.031012 0.015925 41510.100000 0 0 1
-29.663507 -18.687387 21.944462 41.360627 0.562172 1.011530 0.052481 0.016606 104618.000000 0 0 1
-29.160007 -18.346587 23.259462 41.568086 0.561592 0.976952 0.041115 0.008979 554881.000000 0 0 1
-27.888607 -17.715887 23.282862 40.419286 0.565927 0.956928 0.072791 -0.002155 283489.000000 0 0 1
-27.523407 -17.182687 24.703862 40.780675 0.558091 0.920058 0.064991 -0.014546 -200361.000000 0 0 1
-26.382607 -16.330987 24.742362 39.685357 0.554277 0.897632 0.085895 -0.019781 375275.000000 0 0 1
-25.955407 -15.814887 26.004162 40.000128 0.547237 0.863078 0.080911 -0.026713 18836.800000 0 0 1
-25.015707 -16.804087 26.742562 40.290539 0.591508 0.844984 0.068540 -0.020383 -671953.000000 0 0 1
-25.575607 -18.043287 27.064562 41.378284 0.614400 0.857835 0.056535 -0.013377 251358.000000 0 0 1
-24.608707 -18.866787 27.720862 41.593152 0.654086 0.841324 0.064885 -0.018965 288809.000000 0 0 1
-25.299307 -20.112487 28.286362 42.949800 0.671674 0.851851 0.062400 -0.017481 270842.000000 0 0 1
-26.394507 -19.810887 29.150962 44.033167 0.643865 0.847282 0.042466 -0.017867 332902.000000 0 0 1
-26.877407 -21.042287 29.690362 45.240362 0.664226 0.854918 0.038909 -0.014633 -696782.000000 0 0 1
-27.971907 -20.725787 30.686862 46.407642 0.637684 0.848318 0.047762 -0.011707 -1626120.000000 0 0 1
-27.586907 -20.060387 31.892762 46.696946 0.628729 0.818971 0.053765 -0.016625 -259501.000000 0 0 1
-28.523207 -20.031387 32.924062 47.946049 0.612257 0.813871 0.068628 -0.014732 327536.000000 0 0 1
-29.864807 -19.252187 32.609862 48.228171 0.572601 0.828261 0.054063 -0.022792 -143758.000000 0 0 1
-30.706607 -19.898687 31.727262 48.430079 0.574986 0.856462 0.055902 -0.024838 -1128720.000000 0 0 1
-31.924307 -19.224387 31.762062 48.964956 0.542026 0.864962 0.075405 -0.023793 -592497.000000 0 0 1
-32.929507 -19.740487 30.712962 49.166302 0.540035 0.896081 0.066341 -0.008103 -445493.000000 0 0 1
-32.483607 -19.581187 29.367862 47.969562 0.542477 0.911933 0.054385 -0.017987 527092.000000 0 0 1
-33.434507 -20.023287 28.391062 48.216705 0.539596 0.941196 0.058258 -0.021529 620837.000000 0 0 1
-34.558907 -18.983087 28.069162 48.399932 0.502303 0.952139 0.058543 -0.013065 278638.000000 0 0 1
-35.587407 -19.465987 27.222262 48.851199 0.500530 0.979728 0.041832 -0.015473 231241.000000 0 0 1
-36.109907 -18.384887 26.467362 48.398870 0.470930 0.992188 0.088649 -0.015579 548757.000000 0 0 1
-37.325307 -18.835187 25.547562 48.996129 0.467339 1.022282 0.072979 -0.023605 123826.000000 0 0 1
37.256500 -19.240487 26.252062 49.471344 -0.476707 1.011427 0.076105 -0.025272 -551598.000000 0 0 1
36.258400 -19.558787 25.289962 48.340458 -0.494690 1.020238 0.113716 -0.028907 226499.000000 0 0 1
35.015500 -20.261387 25.933562 48.053706 -0.524566 1.000741 0.110917 -0.038447 19903.000000 0 0 1
34.243800 -19.260187 26.570662 47.429871 -0.512346 0.976158 0.109739 -0.047086 39892.200000 0 0 1
32.961500 -19.823987 26.794762 46.876542 -0.541469 0.962338 0.099481 -0.045122 91373.700000 0 0 1
-30.372650 -5.376087 33.097939 45.242389 0.175190 0.750176 0.099017 -0.018522 419927.000000 0 0 1
-31.605130 -5.161887 32.413977 45.565285 0.161895 0.779345 0.098328 -0.011560 492642.000000 0 0 1
-31.547360 -3.946887 31.632444 44.848917 0.124463 0.787934 0.111639 -0.009621 451647.000000 0 0 1
-32.461740 -3.925687 30.338220 44.604744 0.120348 0.822820 0.101570 -0.010567 470011.000000 0 0 1
-32.180090 -5.005987 29.433740 43.897189 0.154325 0.835893 0.082856 -0.008238 -240362.000000 0 0 1
-30.885640 -4.997987 28.889070 42.584986 0.160432 0.825232 0.089949 -0.012021 -73838.400000 0 0 1
-30.571880 -6.134087 27.843840 41.803664 0.198015 0.841879 0.085184 -0.010871 243097.000000 0 0 1
-31.248860 -5.826887 26.590670 41.442824 0.184350 0.874184 0.062346 -0.013054 365752.000000 0 0 1
-30.889900 -6.796687 25.553000 40.661243 0.216578 0.891255 0.070182 -0.014361 346343.000000 0 0 1
-31.498720 -6.431687 24.156840 40.213044 0.201420 0.926393 0.062194 -0.011285 210836.000000 0 0 1
-30.964080 -5.218287 23.707120 39.345042 0.166958 0.924111 0.078857 -0.015738 -29841.200000 0 0 1
-31.591500 -4.791087 22.496600 39.077800 0.150511 0.957352 0.089828 -0.015969 306327.000000 0 0 1
-30.944060 -3.526387 21.870920 38.056635 0.113471 0.958566 0.094112 -0.018038 587315.000000 0 0 1
-29.609200 -3.604387 21.383620 36.700893 0.121136 0.948816 0.108713 -0.017316 267454.000000 0 0 1
-29.292430 -2.442787 20.672520 35.935592 0.083201 0.957867 0.122170 -0.020808 -224247.000000 0 0 1
-27.876190 -2.524687 20.097720 34.458299 0.090321 0.948075 0.114183 -0.019003 -312311.000000 0 0 1
-27.623850 -3.220487 18.916620 33.634613 0.116060 0.973492 0.135853 -0.022920 18978.400000 0 0 1
-26.287560 -3.001587 18.500720 32.285012 0.113690 0.960581 0.139114 -0.021848 160596.000000 0 0 1
-26.038000 -3.705187 17.164320 31.405728 0.141350 0.992576 0.144495 -0.028348 -29203.400000 0 0 1
-26.894920 -3.103087 16.219920 31.560287 0.114870 1.031031 0.137504 -0.019307 291611.000000 0 0 1
-26.733440 -3.739387 15.004820 30.883725 0.138975 1.063462 0.152059 -0.026286 108760.000000 0 0 1
-28.068490 -3.817687 14.225720 31.698360 0.135184 1.105392 0.170595 -0.027626 194270.000000 0 0 1
-28.527080 -2.603187 13.633220 31.724369 0.091001 1.126592 0.163571 -0.029323 -1042610.000000 0 0 1
-29.758250 -2.631487 13.049020 32.599925 0.088199 1.158977 0.161591 -0.036070 -1147360.000000 0 0 1
-29.999180 -1.408987 12.126420 32.388055 0.046933 1.187036 0.164281 -0.028709 -304448.000000 0 0 1
-29.206380 -1.501487 10.957120 31.230203 0.051364 1.212318 0.199055 -0.036537 118835.000000 0 0 1
-29.381330 -0.434787 10.025620 31.047780 0.014797 1.241994 0.198899 -0.026022 -252030.000000 0 0 1
-30.771510 -0.316287 9.381320 32.171339 0.010278 1.274892 0.191358 -0.019239 -223735.000000 0 0 1
-30.976000 -1.231187 8.323220 32.098355 0.039726 1.308495 0.198788 -0.032558 -405045.000000 0 0 1
-32.316300 -1.307287 7.936220 33.302190 0.040431 1.330172 0.195501 -0.034757 -478233.000000 0 0 1
-32.596410 -2.318287 6.866320 33.392316 0.071001 1.363693 0.228023 -0.041116 -174205.000000 0 0 1
-32.140230 -1.884887 5.567420 32.673282 0.058579 1.399564 0.241897 -0.054033 583821.000000 0 0 1
-32.741760 -0.688987 4.987620 33.126635 0.021040 1.419659 0.224717 -0.046873 -8565.330000 0 0 1
-32.162710 -0.356187 3.623420 32.368132 0.011074 1.458617 0.234481 -0.037386 -64642.500000 0 0 1
-32.573390 -1.351687 2.668120 32.710422 0.041473 1.489138 0.208943 -0.052325 414742.000000 0 0 1
-31.900030 -1.197687 1.434820 31.954735 0.037527 1.525880 0.201574 -0.051856 -180279.000000 0 0 1
-32.564140 -1.904887 0.247520 32.620746 0.058430 1.563208 0.174180 -0.051470 820050.000000 0 0 1
-33.858560 -1.356487 -0.044980 33.885752 0.040042 1.572124 0.209056 -0.047521 672624.000000 0 0 1
-34.638313 -2.031887 -0.994280 34.712100 0.058593 1.599444 0.221909 -0.063971 151789.000000 0 0 1
-36.140380 -1.687487 -0.939480 36.191951 0.046659 1.596757 0.211192 -0.051427 -562549.000000 0 0 1
-36.892850 -2.160287 0.080820 36.956133 0.058489 1.568609 0.222826 -0.057179 313716.000000 0 0 1
37.417016 -2.001487 -0.173180 37.470909 -0.053440 1.575418 0.182363 -0.043484 572998.000000 0 0 1
36.531576 -3.034187 0.545820 36.661427 -0.082866 1.555908 0.207720 -0.055758 -428777.000000 0 0 1
36.575546 -3.117487 1.932320 36.758987 -0.085029 1.518205 0.202670 -0.057123 159489.000000 0 0 1
35.878336 -4.272087 2.362820 36.208958 -0.118513 1.505495 0.201060 -0.049459 -92261.100000 0 0 1
35.938706 -4.413087 3.902320 36.418320 -0.122183 1.463438 0.191318 -0.042409 193514.000000 0 0 1
35.135256 -3.440087 4.572920 35.598202 -0.097599 1.441981 0.176168 -0.039689 324094.000000 0 0 1
35.135156 -3.587687 5.970820 35.819009 -0.101758 1.403320 0.154175 -0.044411 68077.800000 0 0 1
34.392466 -2.362987 6.624720 35.104307 -0.068599 1.380943 0.144284 -0.034020 -970841.000000 0 0 1
33.022746 -2.426887 6.578020 33.758879 -0.073359 1.374689 0.174006 -0.033699 -1341410.000000 0 0 1
32.440726 -1.466587 7.446120 33.316607 -0.045177 1.345397 0.173649 -0.025840 289203.000000 0 0 1
30.910776 -1.628087 7.630920 31.880365 -0.052622 1.329089 0.164917 -0.027625 -663094.000000 0 0 1
30.133906 -0.999887 6.652120 30.875602 -0.033169 1.353645 0.211828 -0.030919 994754.000000 0 0 1
28.740206 -0.895587 7.003120 29.594682 -0.031151 1.331896 0.195864 -0.020145 1151470.000000 0 0 1
27.810606 -2.125387 7.018620 28.761226 -0.076275 1.324276 0.245297 -0.035867 -665577.000000 0 0 1
28.275906 -3.174587 7.858120 29.518722 -0.111804 1.301339 0.196960 -0.038513 232581.000000 0 0 1
27.552706 -4.350387 7.607420 28.912806 -0.156600 1.304546 0.214282 -0.051062 -196266.000000 0 0 1
27.860006 -5.338887 8.711120 29.674354 -0.189337 1.272850 0.176881 -0.040928 2210.560000 0 0 1
26.934006 -5.292787 9.795220 29.144478 -0.194037 1.228032 0.180064 -0.036000 780499.000000 0 0 1
27.385006 -6.035487 10.917720 30.092562 -0.216926 1.199521 0.159422 -0.032290 617707.000000 0 0 1
26.228906 -6.065187 11.991320 29.470897 -0.227246 1.151753 0.138558 -0.028944 1936320.000000 0 0 1
25.140506 -7.002187 11.686020 28.594383 -0.271638 1.149786 0.164706 -0.038929 877840.000000 0 0 1
23.961906 -6.711487 12.391720 27.798772 -0.273092 1.108768 0.174989 -0.045379 511954.000000 0 0 1
22.887506 -7.859587 12.259720 27.127694 -0.330784 1.101873 0.163962 -0.044462 333509.000000 0 0 1
23.219306 -8.948887 13.101520 28.122386 -0.367863 1.086173 0.142496 -0.039410 -315802.000000 0 0 1
22.297306 -9.971787 13.122620 27.727415 -0.420539 1.077794 0.200109 -0.061376 -857644.000000 0 0 1
22.686506 -11.080987 14.121120 28.928738 -0.454357 1.060845 0.142494 -0.051708 -222033.000000 0 0 1
22.618606 -10.658387 15.488320 29.412423 -0.440361 1.016211 0.103207 -0.043391 411136.000000 0 0 1
23.124006 -11.664687 16.376520 30.642699 -0.467194 1.006958 0.094181 -0.039803 -36870.900000 0 0 1
22.908306 -11.252187 17.857020 31.149244 -0.456570 0.960301 0.096806 -0.030509 388247.000000 0 0 1
21.524606 -11.148387 18.177020 30.298503 -0.477894 0.927381 0.110203 -0.037238 264728.000000 0 0 1
21.255406 -11.342887 19.557920 31.031687 -0.490202 0.888913 0.127651 -0.030639 81474.200000 0 0 1
21.802906 -10.331987 20.632320 31.746013 -0.442535 0.863319 0.118363 -0.030668 -235161.000000 0 0 1
21.086006 -9.129387 20.903520 31.063202 -0.408593 0.832627 0.114329 -0.025990 66326.400000 0 0 1
21.402906 -7.990687 20.046520 30.394053 -0.357320 0.850571 0.121724 -0.027953 -621762.000000 0 0 1
22.565806 -7.069087 20.570420 31.342141 -0.303582 0.854868 0.102840 -0.025948 1303640.000000 0 0 1
23.880606 -7.637987 20.580520 32.437324 -0.309558 0.883473 0.110975 -0.023178 719185.000000 0 0 1
24.427606 -8.048187 19.322220 32.168765 -0.318270 0.926480 0.123506 -0.029605 -965588.000000 0 0 1
25.779206 -8.765887 19.526920 33.506848 -0.327772 0.948658 0.110028 -0.024896 -439817.000000 0 0 1
25.785006 -10.109287 20.017820 34.172757 -0.373643 0.944950 0.073429 -0.032050 -90086.700000 0 0 1
26.903506 -10.778887 19.473820 34.917227 -0.381067 0.979167 0.072612 -0.033063 116264.000000 0 0 1
26.899106 -12.295187 19.682820 35.526708 -0.428730 0.983600 0.038007 -0.023343 -33718.300000 0 0 1
25.876606 -12.906587 18.935420 34.564850 -0.462667 0.991037 0.073108 -0.027396 37731.800000 0 0 1
25.995306 -14.316287 18.999820 35.237837 -0.503400 1.001324 0.047065 -0.020872 -217552.000000 0 0 1
24.922206 -14.964187 18.131020 34.260431 -0.540740 1.013125 0.085789 -0.019587 -993930.000000 0 0 1
25.055206 -14.576487 16.780820 33.493779 -0.526911 1.046027 0.103484 -0.028261 802041.000000 0 0 1
24.098306 -15.076987 15.786920 32.515700 -0.559063 1.063842 0.108473 -0.023671 379547.000000 0 0 1
23.775606 -16.575987 15.809920 33.015093 -0.608834 1.071430 0.077116 -0.024423 -311953.000000 0 0 1
24.932106 -17.385687 15.678120 34.200519 -0.608926 1.094582 0.116607 -0.032584 98373.100000 0 0 1
24.685706 -18.746687 16.032520 34.897909 -0.649499 1.093463 0.082425 -0.018966 -18228.800000 0 0 1
25.941106 -19.641487 15.952020 36.238046 -0.648066 1.114974 0.073289 -0.014041 45423.800000 0 0 1
26.269706 -20.060087 14.637020 36.148954 -0.652161 1.153918 0.095706 -0.031693 646653.000000 0 0 1
27.525406 -20.752687 14.566020 37.423134 -0.646022 1.171006 0.101447 -0.030855 649355.000000 0 0 1
28.031006 -20.771687 13.105820 37.268791 -0.637733 1.211456 0.102186 -0.049538 -1035870.000000 0 0 1
27.118006 -21.452687 12.320320 36.706870 -0.669282 1.228511 0.100534 -0.043133 -116108.000000 0 0 1
27.163506 -20.967787 10.970620 36.025805 -0.657377 1.261361 0.118490 -0.045133 -417722.000000 0 0 1
25.780506 -20.921687 10.321220 34.768938 -0.681733 1.269402 0.084193 -0.037940 -299115.000000 0 0 1
25.267806 -22.227387 10.121220 35.141967 -0.721470 1.278649 0.059030 -0.034193 171740.000000 0 0 1
23.892106 -22.108587 9.756620 33.982554 -0.746646 1.279591 0.052875 -0.023185 596264.000000 0 0 1
23.599306 -23.098687 8.610020 34.126369 -0.774678 1.315742 0.036860 -0.022872 -277414.000000 0 0 1
23.747306 -24.492387 8.882220 35.252027 -0.800842 1.316088 0.033653 -0.019445 -67308.200000 0 0 1
23.466906 -25.325277 7.704320 35.375442 -0.823467 1.351250 0.034699 -0.008434 664225.000000 0 0 1
21.934106 -25.656157 7.699020 34.621067 -0.863450 1.346542 0.046790 0.002988 1295870.000000 0 0 1
20.978406 -24.637887 7.335820 33.180314 -0.865450 1.347865 0.052852 -0.006329 639341.000000 0 0 1
19.661206 -25.197937 7.345820 32.794209 -0.908202 1.344882 0.063874 -0.024298 986213.000000 0 0 1
18.546306 -24.103087 7.229920 31.260135 -0.914958 1.337401 0.062030 -0.024562 114251.000000 0 0 1
18.388106 -23.534687 5.960620 30.455425 -0.907550 1.373809 0.070167 -0.021617 297347.000000 0 0 1
17.457806 -22.455687 6.132420 29.097069 -0.909968 1.358447 0.081151 -0.017785 248326.000000 0 0 1
16.963706 -21.724287 4.880320 27.991597 -0.907833 1.395551 0.094929 -0.011873 -236731.000000 0 0 1
16.130106 -20.648687 5.234020 26.719722 -0.907644 1.373635 0.122833 -0.018457 54602.300000 0 0 1
15.571306 -20.071987 4.043820 25.723583 -0.911003 1.412939 0.128312 -0.021797 138565.000000 0 0 1
14.998806 -18.665187 4.249920 24.319030 -0.893882 1.395137 0.139192 -0.014782 193558.000000 0 1 0
15.951406 -17.633987 4.495520 24.199474 -0.835455 1.383942 0.107691 -0.015742 -96934.400000 0 1 0
15.327806 -16.435487 4.764020 22.973088 -0.820257 1.361907 0.096774 -0.006397 -483783.000000 0 1 0
16.310506 -15.298787 4.967920 22.907765 -0.753402 1.352193 0.090263 -0.007772 -793381.000000 0 1 0
17.044006 -15.454587 6.149620 23.815126 -0.736530 1.309614 0.129930 -0.018525 77482.000000 0 1 0
17.961506 -14.371887 6.327420 23.857977 -0.674832 1.302373 0.129218 -0.018836 586325.000000 0 1 0
19.402106 -14.702287 5.851420 25.036735 -0.648454 1.334901 0.165204 -0.043833 -281731.000000 0 0 1
20.285306 -13.627587 5.748520 25.104785 -0.591545 1.339766 0.170257 -0.042174 654626.000000 0 0 1
21.582906 -14.059887 5.303420 26.298831 -0.577384 1.367744 0.170612 -0.038601 1154950.000000 0 0 1
22.587006 -12.911487 4.978920 26.489035 -0.519301 1.381710 0.168654 -0.034247 -130681.000000 0 0 1
22.777006 -12.055887 6.116920 26.486848 -0.486813 1.337751 0.207082 -0.049024 389677.000000 0 0 1
23.888306 -11.191487 5.958720 27.044535 -0.438125 1.348644 0.201325 -0.052767 2671.360000 0 0 1
24.237306 -10.454387 7.313920 27.390411 -0.407224 1.300492 0.218374 -0.054236 -6455.530000 0 0 1
24.876406 -11.304187 8.267620 28.547745 -0.426519 1.276980 0.211458 -0.037083 444819.000000 0 0 1
24.722106 -10.707387 9.566120 28.589182 -0.408720 1.229609 0.226189 -0.058651 202688.000000 0 0 1
25.204506 -11.624087 10.729120 29.757361 -0.432121 1.201935 0.190558 -0.048879 395739.000000 0 0 1
24.244206 -12.677287 10.851120 29.431988 -0.481799 1.193203 0.207987 -0.056520 580800.000000 0 0 1
24.606606 -13.660187 11.784220 30.511533 -0.506783 1.174264 0.202639 -0.055107 -330555.000000 0 0 1
23.531906 -14.739887 11.928420 30.220888 -0.559590 1.165047 0.184511 -0.062640 69324.600000 0 0 1
22.428106 -14.244787 12.676820 29.438676 -0.565851 1.125619 0.162196 -0.051812 679634.000000 0 0 1
21.313506 -15.180187 12.634620 29.057482 -0.618889 1.120964 0.130547 -0.050256 508343.000000 0 0 1
20.053006 -14.587487 13.249020 28.115020 -0.628910 1.080096 0.116473 -0.046418 -780535.000000 0 0 1
20.136806 -14.265887 14.623320 28.685327 -0.616374 1.035863 0.114267 -0.054961 -26797.500000 0 0 1
19.739906 -13.010787 15.108420 28.057242 -0.582753 1.002157 0.137656 -0.062773 811663.000000 0 0 1
18.201206 -12.655487 15.270720 26.919141 -0.607572 0.967596 0.166475 -0.058813 825753.000000 0 0 1
17.551206 -12.878187 14.001220 25.882942 -0.633019 0.999237 0.172721 -0.071098 949359.000000 0 0 1
16.123206 -12.723087 14.085520 24.904550 -0.668069 0.969660 0.205721 -0.069049 568616.000000 0 1 0
15.560506 -11.323687 14.018220 23.808942 -0.629089 0.941248 0.170549 -0.065663 -799955.000000 0 1 0
15.961006 -10.405087 14.980720 24.237193 -0.577714 0.904488 0.155687 -0.052849 73496.400000 0 1 0
15.443206 -9.157187 14.636620 23.164139 -0.535226 0.886839 0.140804 -0.046880 -599471.000000 0 1 0
15.885006 -8.144887 15.755620 23.809918 -0.473788 0.847679 0.153238 -0.043658 701441.000000 0 1 0
17.302206 -7.937787 15.751720 24.708126 -0.430126 0.879532 0.150729 -0.053432 970014.000000 0 1 0
18.031506 -8.869487 16.573420 26.047673 -0.457137 0.881139 0.156077 -0.047180 -1215490.000000 0 0 1
19.526206 -8.839187 16.412820 26.996011 -0.425083 0.917292 0.124276 -0.039490 -1077920.000000 0 0 1
20.087706 -7.656987 16.866820 27.324623 -0.364176 0.905521 0.107346 -0.047760 223344.000000 0 0 1
21.284806 -7.385487 16.144020 27.716742 -0.333985 0.949039 0.096221 -0.037270 561233.000000 0 0 1
21.932906 -5.914787 16.385420 28.009268 -0.263410 0.945916 0.085355 -0.030265 -111625.000000 0 0 1
22.800206 -5.840387 17.455420 29.302751 -0.250763 0.932669 0.121297 -0.029750 -145569.000000 0 0 1
23.245606 -4.526687 17.702320 29.567233 -0.192326 0.928902 0.130978 -0.031564 -63248.400000 0 0 1
-5.770700 -32.671331 -6.250338 33.760681 1.395971 1.757007 0.073712 -0.024532 -79389.800000 0 0 1
-6.351600 -31.411931 -6.529738 32.706112 1.371283 1.771796 0.071891 -0.028597 54828.500000 0 0 1
-5.947600 -30.429231 -5.567938 31.501016 1.377773 1.748484 0.098274 -0.037370 -822632.000000 0 0 1
-6.652400 -29.075531 -5.700638 30.366729 1.345871 1.759643 0.101667 -0.040425 624080.000000 0 0 1
-8.044400 -29.024631 -5.436938 30.605586 1.300425 1.749389 0.090625 -0.039696 -247384.000000 0 0 1
-8.934800 -29.684731 -6.262938 31.626545 1.278432 1.770142 0.085599 -0.032985 -1265360.000000 0 0 1
-10.354500 -29.375831 -5.780738 31.679206 1.231911 1.754302 0.103739 -0.024006 -315344.000000 0 0 1
-11.365400 -30.110631 -6.411038 32.816518 1.209875 1.767421 0.089257 -0.029248 105134.000000 0 0 1
-12.690400 -29.696631 -6.078238 32.861545 1.166950 1.756833 0.095418 -0.030248 469277.000000 0 0 1
-13.746400 -30.371031 -6.941338 34.052096 1.145769 1.776080 0.106485 -0.031955 -226237.000000 0 0 1
-13.798500 -29.889331 -8.217338 33.930744 1.138294 1.815408 0.137517 -0.045554 312597.000000 0 0 1
-14.924900 -30.426931 -8.914438 35.043088 1.114765 1.828008 0.151987 -0.046117 609544.000000 0 0 1
-15.218600 -29.747431 -10.264038 34.955199 1.097917 1.868823 0.168863 -0.045523 -193258.000000 0 0 1
-15.668800 -28.398831 -10.122938 33.977622 1.066617 1.873319 0.171462 -0.050661 557492.000000 0 0 1
-14.684300 -27.430731 -9.692738 32.588692 1.079291 1.872792 0.148949 -0.050175 16115.000000 0 0 1
-15.262400 -26.019631 -9.346438 31.580342 1.040308 1.871254 0.139889 -0.037977 -54531.500000 0 0 1
-15.597900 -25.242431 -10.464538 31.463970 1.017302 1.909843 0.154371 -0.047015 71617.400000 0 0 1
-16.193100 -24.082231 -9.961438 30.682252 0.978829 1.901453 0.116913 -0.026384 -487197.000000 0 0 1
-16.851300 -23.163731 -10.964638 30.671617 0.941860 1.936370 0.135279 -0.029571 -754435.000000 0 0 1
-18.080300 -23.700931 -11.355938 31.899667 0.919121 1.934769 0.144602 -0.038710 -809393.000000 0 0 1
-18.527700 -22.903931 -12.418838 31.970194 0.890633 1.969746 0.155457 -0.034296 515547.000000 0 0 1
-20.037100 -23.202031 -12.775838 33.212071 0.858464 1.965652 0.126596 -0.022469 899964.000000 0 0 1
-20.288300 -24.585631 -13.162438 34.486493 0.880872 1.962398 0.162415 -0.029056 48268.900000 0 0 1
-20.409600 -25.425331 -12.090838 34.773375 0.894395 1.925917 0.180912 -0.037991 -1856540.000000 0 0 1
-20.504800 -26.937231 -12.570938 36.112183 0.920161 1.926348 0.174801 -0.044067 -354466.000000 0 0 1
-19.473900 -27.675731 -13.147838 36.304883 0.957628 1.941370 0.174273 -0.049775 -59158.200000 0 0 1
-18.182400 -27.376031 -12.608638 35.199780 0.984523 1.937138 0.199885 -0.057367 -647383.000000 0 0 1
-17.088200 -28.316831 -13.068738 35.561798 1.027833 1.947109 0.167679 -0.053176 -791871.000000 0 0 1
-16.762500 -28.159731 -14.422638 35.804530 1.033866 1.985388 0.179484 -0.057630 214031.000000 0 0 1
-15.857800 -29.096331 -15.033838 36.387946 1.071792 1.996711 0.191056 -0.060130 342553.000000 0 0 1
-16.352300 -30.562331 -15.244238 37.866088 1.079505 1.985133 0.189781 -0.063624 -187861.000000 0 0 1
-16.642500 -31.138031 -14.009138 37.984283 1.079951 1.948529 0.180537 -0.061711 105949.000000 0 0 1
-16.806200 -32.524231 -13.919938 39.166806 1.093856 1.934140 0.172831 -0.054161 -732131.000000 0 0 1
-17.429600 -32.969731 -12.582238 39.358695 1.084489 1.896189 0.215022 -0.063749 1582480.000000 0 0 1
-18.878300 -32.891531 -12.431638 39.909757 1.049747 1.887561 0.230792 -0.063951 1853490.000000 0 0 1
-19.593100 -31.666931 -12.563138 39.300338 1.016723 1.896177 0.222142 -0.063625 -286450.000000 0 0 1
-19.371500 -30.523931 -11.541338 37.949544 1.005300 1.879814 0.231552 -0.059714 -491593.000000 0 0 1
-19.609400 -30.824731 -10.150038 37.917225 1.004213 1.841790 0.229743 -0.062168 305662.000000 0 0 1
-19.200900 -29.711531 -9.360838 36.593373 0.997066 1.829479 0.217746 -0.053069 104992.000000 0 0 1
-19.433800 -29.821531 -7.813038 36.442282 0.993248 1.786869 0.211136 -0.052026 511132.000000 0 0 1
-18.487600 -30.729631 -7.210938 36.580039 1.029186 1.769224 0.215349 -0.047507 565317.000000 0 0 1
-18.850800 -31.031231 -5.903838 36.785123 1.024896 1.731989 0.205817 -0.048411 -20589.200000 0 0 1
-17.785200 -31.948931 -5.294138 36.946928 1.062842 1.714582 0.187136 -0.038203 889914.000000 0 0 1
-16.543900 -31.365131 -4.860738 35.792442 1.085422 1.707021 0.163170 -0.039476 792412.000000 0 0 1
-16.384800 -31.418531 -3.479438 35.604667 1.090096 1.668677 0.140848 -0.035272 -845479.000000 0 0 1
-15.107600 -30.884331 -2.865538 34.500621 1.115852 1.653950 0.127263 -0.032221 102002.000000 0 0 1
-13.965700 -31.701731 -3.234938 34.792318 1.155842 1.663909 0.102352 -0.032601 715781.000000 0 0 1
-12.829400 -31.085531 -2.656338 33.733661 1.179379 1.649622 0.097441 -0.023194 334057.000000 0 0 1
-11.448900 -31.770431 -2.591038 33.869619 1.224919 1.647372 0.085966 -0.024663 -140160.000000 0 0 1
-11.427900 -32.741431 -1.539238 34.712642 1.234982 1.615153 0.090064 -0.017227 236247.000000 0 0 1
-10.165100 -33.393531 -1.431138 34.935732 1.275305 1.611773 0.130059 -0.029250 356733.000000 0 0 1
-9.070200 -32.603831 -0.695038 33.849098 1.299463 1.591331 0.164556 -0.035284 -495709.000000 0 0 1
-9.335600 -32.422931 0.737062 33.748232 1.290448 1.548955 0.161976 -0.033002 200155.000000 0 0 1
-8.247100 -31.853231 1.468362 32.936288 1.317450 1.526200 0.174741 -0.034876 604211.000000 0 0 1
-7.228000 -32.854031 2.050462 33.702163 1.354243 1.509918 0.190788 -0.048118 -89950.100000 0 0 1
-7.807300 -33.536831 3.168262 34.579053 1.342072 1.479044 0.194169 -0.053866 270705.000000 0 0 1
-7.005000 33.160513 3.839762 34.109140 -1.362612 1.457984 0.189113 -0.050676 319592.000000 0 0 1
-5.903800 33.707913 4.777762 34.552934 -1.397409 1.432078 0.201342 -0.052972 549958.000000 0 0 1
-4.764600 -33.293331 4.244062 33.899254 1.428652 1.445271 0.214507 -0.056729 -40394.200000 0 0 1
-3.920600 -32.985431 5.323762 33.641525 1.452493 1.411879 0.207958 -0.063850 -227114.000000 0 0 1
-2.641600 -32.286631 4.838262 32.753830 1.489161 1.422538 0.223968 -0.059223 -239036.000000 0 0 1
-2.835400 -30.918831 4.510762 31.374521 1.479347 1.426525 0.210084 -0.052343 -23414.300000 0 0 1
-3.589800 -30.735931 3.326162 31.123102 1.454528 1.463721 0.200661 -0.064985 53050.700000 0 0 1
-3.623700 -29.277731 2.839462 29.637464 1.447653 1.474843 0.181638 -0.061133 445075.000000 0 0 1
-2.335800 -28.881931 2.376162 29.073494 1.490098 1.488976 0.135869 -0.047368 49028.300000 0 0 1
-2.348400 -27.698231 1.548162 27.840686 1.486213 1.515160 0.122048 -0.044761 101757.000000 0 0 1
-2.481600 -26.352731 2.268162 26.566320 1.476905 1.485315 0.107117 -0.043272 -343596.000000 0 0 1
-2.826500 -25.273731 1.437362 25.471879 1.459424 1.514337 0.103704 -0.051436 -390955.000000 0 0 1
-3.054800 -24.105131 2.196362 24.396991 1.444740 1.480648 0.077048 -0.040967 722950.000000 0 1 0
-4.344100 -24.017731 3.125262 24.606704 1.391860 1.443444 0.076820 -0.029711 646646.000000 0 1 0
-4.293400 -24.877931 4.291462 25.607839 1.399901 1.402418 0.096404 -0.025764 -431484.000000 0 0 1
-5.490800 -24.763731 5.010662 25.855328 1.352599 1.375766 0.088259 -0.024578 -142762.000000 0 0 1
-5.773900 -25.899631 6.002462 27.205852 1.351450 1.348335 0.107562 -0.038562 567299.000000 0 0 1
-4.888200 -25.943831 7.133662 27.347139 1.384565 1.306888 0.090006 -0.032087 605726.000000 0 0 1
-5.545300 -26.895731 7.964662 28.593121 1.367468 1.288511 0.103955 -0.037641 680977.000000 0 0 1
-4.748200 -27.259831 9.253062 29.176411 1.398343 1.248082 0.106871 -0.037610 23521.000000 0 0 1
-4.531000 -26.097231 10.064862 28.335435 1.398890 1.207664 0.094794 -0.040215 384921.000000 0 0 1
-5.691000 -25.521131 10.692562 28.249717 1.351394 1.182619 0.095528 -0.037179 588211.000000 0 0 1
-5.279300 -24.384331 11.642962 27.532257 1.357583 1.134170 0.079156 -0.031752 247325.000000 0 0 1
-4.657400 -24.896331 12.824762 28.390019 1.385862 1.102087 0.079887 -0.031512 -264224.000000 0 0 1
-3.987600 -23.873431 13.502962 27.715910 1.405293 1.061925 0.062332 -0.035317 470178.000000 0 0 1
-2.970800 -24.412731 14.602162 28.601228 1.449701 1.034980 0.049164 -0.035622 280318.000000 0 0 1
-3.540700 -24.890631 15.786162 29.686411 1.429494 1.010114 0.060169 -0.044675 -184741.000000 0 0 1
-2.620400 -25.793531 16.375262 30.664669 1.469552 1.007459 0.083080 -0.040250 129202.000000 0 0 1
-2.997100 -26.364331 17.735462 31.915626 1.457602 0.981594 0.108579 -0.035390 -124099.000000 0 0 1
-2.632400 -25.412831 18.676362 31.647243 1.467579 0.939562 0.111169 -0.028121 -116046.000000 0 0 1
-3.378500 -25.499231 19.888462 32.514243 1.439069 0.912608 0.155510 -0.037866 -79827.000000 0 0 1
-2.920000 -24.500231 21.000162 32.400533 1.452173 0.865654 0.145402 -0.048828 302209.000000 0 0 1
-1.648200 -24.880931 21.545862 32.954536 1.504649 0.858193 0.107283 -0.058851 553968.000000 0 0 1
-1.063200 -23.980731 22.475262 32.883784 1.526490 0.818283 0.124089 -0.055196 340176.000000 0 0 1
-0.594600 -22.579631 21.966662 31.507579 1.544469 0.799331 0.126564 -0.060808 108868.000000 0 0 1
-1.645700 -21.628231 21.799662 30.752463 1.494852 0.782894 0.162709 -0.054429 -31666.800000 0 0 1
-1.090800 -20.375631 21.537062 29.668185 1.517313 0.758409 0.161594 -0.044038 306118.000000 0 0 1
-2.095400 -19.267131 21.061562 28.621713 1.462467 0.743861 0.147436 -0.037103 -495857.000000 0 0 1
-3.001500 -18.726731 21.960562 29.016646 1.411869 0.712353 0.165299 -0.059434 -606715.000000 0 0 1
-4.337700 -19.087531 21.849762 29.335330 1.347338 0.730520 0.174164 -0.065042 -482958.000000 0 0 1
-5.189500 -18.759831 20.610162 28.348562 1.300917 0.756815 0.148999 -0.062932 -686554.000000 0 0 1
-5.148900 -19.696231 19.566362 28.236416 1.315103 0.805227 0.154729 -0.062239 86964.900000 0 0 1
-5.775000 -20.993131 19.783962 29.418826 1.302346 0.833224 0.155968 -0.059573 218129.000000 0 0 1
-5.636700 -21.856431 18.488862 29.177285 1.318399 0.884504 0.118332 -0.055669 7355.030000 0 0 1
-6.169200 -23.126531 18.662162 30.350812 1.310108 0.908560 0.117394 -0.058674 -177037.000000 0 0 1
-6.108300 -23.820531 17.457362 30.157727 1.319775 0.953456 0.093418 -0.044602 46431.100000 0 0 1
-6.925200 -25.135331 17.510962 31.406640 1.301950 0.979357 0.085372 -0.041664 1031190.000000 0 0 1
-8.338300 -24.957931 17.702962 31.714672 1.248361 0.978588 0.110047 -0.041387 619483.000000 0 0 1
-8.971800 -26.259431 17.673562 32.899935 1.241570 1.003693 0.100698 -0.039182 453903.000000 0 0 1
-10.489100 -26.335331 17.957662 33.556646 1.191765 1.006117 0.099840 -0.038894 -350596.000000 0 0 1
-11.300700 -25.876031 16.876862 32.895338 1.159037 1.032065 0.119915 -0.036354 135164.000000 0 0 1
-12.684200 -25.875631 17.163562 33.541394 1.115020 1.033619 0.124841 -0.034907 331050.000000 0 0 1
-13.165300 -24.796031 18.177662 33.445414 1.082701 0.996192 0.120747 -0.042168 -1052510.000000 0 0 1
-13.042400 -23.460531 17.699762 32.152485 1.063412 0.987840 0.119021 -0.034062 63865.800000 0 0 1
-13.201600 -22.474031 18.685962 32.070695 1.039681 0.948812 0.115963 -0.034365 462874.000000 0 0 1
-11.827300 -21.927231 19.203062 31.455462 1.076136 0.914125 0.118873 -0.036041 453552.000000 0 0 1
-11.223200 -22.793831 20.146462 32.425282 1.113264 0.900371 0.123339 -0.041572 -1601060.000000 0 0 1
-9.875200 -22.701931 20.014262 31.835011 1.160491 0.890933 0.137971 -0.053722 -1750070.000000 0 0 1
-9.105800 -23.590431 20.962862 32.846090 1.202421 0.878619 0.134118 -0.062940 -280910.000000 0 0 1
-9.144200 -23.180931 22.337962 33.465751 1.195066 0.839967 0.135383 -0.056339 206417.000000 0 0 1
-8.137400 -23.796531 23.130362 34.168784 1.241304 0.827193 0.138838 -0.062278 77404.500000 0 0 1
-8.102400 -23.490531 24.617462 34.978184 1.238653 0.790071 0.152412 -0.054754 309793.000000 0 0 1
-6.962700 -24.032931 25.266962 35.559532 1.288802 0.780511 0.183605 -0.049907 45971.800000 0 0 1
-6.770600 -23.366331 26.532662 35.997342 1.288761 0.742068 0.197091 -0.058896 -154896.000000 0 0 1
-5.581300 -23.905831 27.358962 36.758026 1.341435 0.731312 0.210010 -0.059445 -454042.000000 0 0 1
-4.419100 -23.545531 26.683962 35.860205 1.385271 0.731594 0.204646 -0.055361 -698264.000000 0 0 1
-3.263500 -23.957831 27.406162 36.547583 1.435411 0.722921 0.201823 -0.049276 -471603.000000 0 0 1
-1.963800 -23.625231 26.718362 35.719447 1.487864 0.725744 0.180817 -0.038722 -668516.000000 0 0 1
-1.710300 -22.232131 26.576862 34.691820 1.494018 0.698070 0.178699 -0.044277 26941.900000 0 0 1
-0.451500 -21.876531 26.027862 34.003471 1.550161 0.699060 0.159948 -0.041699 886806.000000 0 0 1
0.700800 -21.423031 26.984462 34.461552 -1.538096 0.671272 0.122371 -0.026702 664006.000000 0 0 1
1.312900 -22.508831 27.708362 35.722885 -1.512534 0.683056 0.116277 -0.024266 496056.000000 0 0 1
2.308600 -22.045231 28.623862 36.202863 -1.466456 0.658923 0.099885 -0.030720 -4159.230000 0 0 1
2.919800 -23.174831 29.443962 37.583839 -1.445467 0.670645 0.105811 -0.035946 -655040.000000 0 0 1
3.822800 -23.999331 28.718362 37.620819 -1.412836 0.702292 0.098811 -0.031045 122718.000000 0 0 1
4.451500 -24.974531 29.518062 38.921190 -1.394407 0.709932 0.087416 -0.024824 -963679.000000 0 0 1
5.629100 -24.444331 30.390962 39.405871 -1.344460 0.690026 0.076262 -0.030861 4443.190000 0 0 1
6.799200 -24.047031 29.653162 38.778845 -1.295243 0.700262 0.085632 -0.025765 788362.000000 0 0 1
7.479000 -25.174131 29.083662 39.185861 -1.282011 0.734452 0.074462 -0.023055 -1609600.000000 0 0 1
8.729200 -24.851431 28.294662 38.657217 -1.233004 0.749635 0.065449 -0.015578 -634249.000000 0 0 1
8.533900 -24.074931 27.147362 37.274777 -1.230143 0.754953 0.068095 -0.020914 -199177.000000 0 0 1
9.689900 -23.924331 26.347062 36.884081 -1.185967 0.775143 0.067806 -0.015287 -10394.500000 0 0 1
9.534900 -22.866031 25.268762 35.387569 -1.175730 0.775519 0.082163 -0.010095 533074.000000 0 0 1
8.644000 -23.289831 24.202262 34.682625 -1.215406 0.798446 0.075760 -0.010053 382685.000000 0 0 1
8.396300 -22.134531 23.438362 33.313543 -1.208235 0.790390 0.081619 -0.015449 29396.600000 0 0 1
7.691400 -22.429931 22.093862 32.409847 -1.240454 0.820710 0.092404 -0.013040 -512984.000000 0 0 1
8.468800 -23.047431 21.141362 32.401571 -1.218660 0.859945 0.078783 -0.011276 -594375.000000 0 0 1
7.849500 -23.184131 19.890462 31.539643 -1.244338 0.888406 0.085496 -0.006853 -514785.000000 0 0 1
8.542100 -24.197031 19.008162 31.933901 -1.231431 0.933239 0.123326 -0.027569 136715.000000 0 0 1
9.816800 -23.642931 18.706362 31.706241 -1.177246 0.939750 0.126289 -0.029989 -52086.600000 0 0 1
10.554300 -24.516431 17.842062 32.105884 -1.164277 0.981561 0.144592 -0.036400 155677.000000 0 0 1
11.902000 -23.854331 17.469962 31.872971 -1.107993 0.990691 0.121840 -0.038824 73388.300000 0 0 1
11.764300 -22.788131 16.563762 30.529590 -1.094236 0.997329 0.117582 -0.032541 -21244.900000 0 0 1
13.027000 -22.408231 16.051762 30.487548 -1.044204 1.016315 0.109627 -0.037143 280011.000000 0 0 1
-12.907200 22.242313 11.065762 27.995846 -1.044989 1.164441 0.061922 -0.025567 81004.000000 0 0 1
-13.823300 21.164113 10.852162 27.509503 -0.992211 1.165286 0.044264 -0.034952 78587.600000 0 0 1
-13.211500 20.081813 10.158662 26.096386 -0.988899 1.170952 0.074764 -0.042932 -29864.100000 0 0 1
-14.018100 19.473513 8.997962 25.625928 -0.946869 1.212022 0.091328 -0.039687 -716473.000000 0 0 1
-14.181300 20.407813 7.982262 26.101813 -0.963504 1.260005 0.101424 -0.035674 -107521.000000 0 0 1
-14.951300 20.007113 6.870662 25.904284 -0.929026 1.302351 0.099134 -0.032024 555386.000000 0 0 1
-16.484100 19.767813 7.025462 26.680501 -0.875732 1.304336 0.097411 -0.039487 -282143.000000 0 0 1
-16.869000 18.832813 7.975662 26.511303 -0.840349 1.265223 0.092227 -0.044475 1052500.000000 0 0 1
-18.295200 19.030913 8.179462 27.636816 -0.805106 1.270333 0.090935 -0.039305 1243260.000000 0 0 1
-18.913600 18.086013 9.238762 27.752169 -0.763034 1.231417 0.086111 -0.038703 -13798.700000 0 0 1
-19.068700 16.788913 8.711462 26.858379 -0.721905 1.240474 0.090633 -0.038143 330497.000000 0 0 1
-19.700600 15.795213 9.515462 26.984188 -0.675815 1.210415 0.102208 -0.039391 18886.100000 0 0 1
-18.732400 15.261413 10.613162 26.390391 -0.683644 1.156921 0.093803 -0.026977 -435795.000000 0 0 1
-17.751100 14.495613 10.018662 25.011956 -0.684783 1.158674 0.068638 -0.009369 -280700.000000 0 0 1
-16.925500 13.614313 10.782162 24.250301 -0.677398 1.110047 0.070684 -0.022564 308588.000000 0 1 0
-17.688000 12.482513 11.485462 24.507026 -0.614545 1.083023 0.070894 -0.020334 -259129.000000 0 1 0
-18.287400 11.485713 10.638162 24.073244 -0.560802 1.113072 0.060851 -0.023642 189534.000000 0 1 0
-19.009400 10.565913 11.425562 24.567036 -0.507305 1.087075 0.070502 -0.022677 248345.000000 0 1 0
-19.946600 9.594613 10.596962 24.540152 -0.448345 1.124285 0.069337 -0.021619 185199.000000 0 1 0
-19.295900 8.701113 9.703062 23.284985 -0.423628 1.140974 0.052521 -0.023840 346018.000000 0 1 0
-19.018600 9.239013 8.389562 22.747555 -0.452214 1.193066 0.071356 -0.027685 -680919.000000 0 1 0
-20.221100 9.193813 7.412962 23.417325 -0.426726 1.248697 0.095441 -0.032883 87399.500000 0 1 0
-20.650700 7.917913 6.982662 23.192722 -0.366133 1.264980 0.079038 -0.036156 379523.000000 0 1 0
-21.710900 8.052213 6.068862 23.938095 -0.355157 1.314476 0.121862 -0.037251 -157072.000000 0 1 0
-22.156900 6.698713 5.358862 23.759596 -0.293594 1.343294 0.160089 -0.036461 -236532.000000 0 1 0
-22.915300 5.843213 6.180462 24.442836 -0.249671 1.315168 0.163121 -0.036437 92776.200000 0 1 0
-22.827700 4.496413 5.643762 23.941046 -0.194482 1.332821 0.181044 -0.052201 -209616.000000 0 1 0
-24.087100 3.622513 5.903762 25.063228 -0.149274 1.333007 0.230632 -0.044764 -7609.690000 0 0 1
-25.167470 4.126213 5.147062 26.017676 -0.162505 1.371653 0.250061 -0.048414 568762.000000 0 0 1
-26.096140 3.083313 4.829262 26.717731 -0.117607 1.389046 0.255228 -0.048517 -66551.300000 0 0 1
-27.116160 3.326313 3.708762 27.570009 -0.122059 1.435866 0.253998 -0.043323 59585.400000 0 0 1
-26.614180 3.051413 2.399862 26.895818 -0.114155 1.481449 0.236791 -0.035651 718433.000000 0 0 1
-27.734220 3.036413 1.542262 27.942537 -0.109048 1.515574 0.229721 -0.032356 34566.600000 0 0 1
-27.369410 3.064613 0.068662 27.540537 -0.111508 1.568303 0.241162 -0.029221 -740403.000000 0 0 1
-27.057080 4.372613 -0.328738 27.410097 -0.160222 1.582790 0.250848 -0.032097 325999.000000 0 0 1
-27.518210 4.746913 -1.626638 27.971969 -0.170820 1.628982 0.309776 -0.027558 1556660.000000 0 0 1
-29.089320 4.751213 -1.929338 29.537856 -0.161902 1.636160 0.284244 -0.041654 1322150.000000 0 0 1
-29.645160 3.467113 -2.087538 29.920131 -0.116425 1.640623 0.221799 -0.037953 -474630.000000 0 0 1
-31.032780 3.578413 -2.027838 31.304163 -0.114804 1.635620 0.184146 -0.005432 -815123.000000 0 0 1
-31.871240 2.314613 -2.244238 32.033888 -0.072497 1.640912 0.144059 -0.000045 -488806.000000 0 0 1
-32.117020 2.121213 -3.588838 32.386452 -0.065951 1.681837 0.132779 -0.021406 355452.000000 0 0 1
-32.612040 0.815713 -3.798338 32.842624 -0.025007 1.686708 0.148963 -0.034068 -232918.000000 0 0 1
-32.710580 0.430213 -5.291138 33.138547 -0.013151 1.731150 0.151977 -0.026504 -266449.000000 0 0 1
-31.448840 0.278213 -5.906438 31.999890 -0.008846 1.756438 0.171431 -0.044180 232317.000000 0 0 1
-31.433180 -0.314887 -7.205038 32.249908 0.010017 1.796111 0.181613 -0.044224 -375130.000000 0 0 1
-31.819290 0.623313 -8.349738 32.902491 -0.019587 1.827374 0.181125 -0.044281 261697.000000 0 0 1
-33.243450 0.643813 -8.474738 34.312719 -0.019364 1.820364 0.177779 -0.038798 893855.000000 0 0 1
-33.705130 1.717413 -9.297838 35.006215 -0.050910 1.839628 0.193246 -0.030391 -37124.500000 0 0 1
-35.226423 1.928713 -9.137238 36.443243 -0.054697 1.824226 0.184401 -0.025692 -93665.400000 0 0 1
-35.590797 2.429613 -7.864838 36.530310 -0.068159 1.787791 0.148463 -0.021514 456333.000000 0 0 1
-36.978250 2.221313 -7.649338 37.826414 -0.059999 1.774423 0.143422 -0.015363 163875.000000 0 0 1
-37.591320 3.089713 -6.526138 38.278508 -0.082008 1.742124 0.166347 -0.018958 327825.000000 0 0 1
36.717286 2.843113 -6.399038 37.379006 0.077278 1.742837 0.171843 -0.019354 844668.000000 0 0 1
36.212436 3.634413 -5.301938 36.778527 0.100029 1.715459 0.166760 -0.022695 425493.000000 0 0 1
34.757556 3.334913 -4.841038 35.251170 0.095655 1.708562 0.200169 -0.021587 495670.000000 0 0 1
34.735566 2.113313 -4.101238 35.040631 0.060765 1.688108 0.197949 -0.022681 109150.000000 0 0 1
33.447976 1.543713 -4.218138 33.748227 0.046120 1.696113 0.242370 -0.026672 149889.000000 0 0 1
33.238246 0.244313 -3.352138 33.407746 0.007350 1.671306 0.283473 -0.031081 -550384.000000 0 0 1
34.029316 -0.824187 -3.727938 34.242826 -0.024215 1.679880 0.191633 -0.022147 -141691.000000 0 0 1
33.895756 -1.894487 -2.828638 34.066296 -0.055833 1.653925 0.207255 -0.025686 -2584.700000 0 0 1
34.632816 -3.207887 -3.181338 34.926257 -0.092362 1.662010 0.166634 -0.021547 69848.800000 0 0 1
34.255476 -4.173387 -2.228838 34.580667 -0.121234 1.635294 0.176717 -0.034241 107204.000000 0 0 1
34.723926 -5.400887 -2.595338 35.237145 -0.154302 1.644517 0.210550 -0.045068 -248521.000000 0 0 1
34.564806 -6.564387 -1.579838 35.218076 -0.187680 1.615670 0.283563 -0.063177 -139765.000000 0 0 1
35.469696 -6.594387 -0.479838 36.080681 -0.183817 1.584096 0.262197 -0.079752 174555.000000 0 0 1
35.210326 -7.649987 0.456062 36.034669 -0.213940 1.558140 0.274802 -0.082974 1024410.000000 0 0 1
33.953926 -7.532887 1.433462 34.809026 -0.218320 1.529604 0.281204 -0.067910 1888650.000000 0 0 1
32.658896 -7.464687 0.751962 33.509558 -0.224705 1.548354 0.244952 -0.059532 1114740.000000 0 0 1
31.619756 -7.243087 1.680362 32.482224 -0.225183 1.519041 0.285006 -0.065573 -502591.000000 0 0 1
31.101036 -8.476587 2.497962 32.332132 -0.266087 1.493460 0.234661 -0.060381 -954425.000000 0 0 1
30.168006 -9.340987 1.935962 31.640331 -0.300270 1.509572 0.218451 -0.057952 -695214.000000 0 0 1
28.875706 -8.844887 2.147562 30.276236 -0.297235 1.499804 0.227401 -0.058883 -2059690.000000 0 0 1
27.842406 -9.951787 1.854862 29.625633 -0.343281 1.508145 0.160732 -0.052069 167700.000000 0 0 1
26.464606 -9.719287 2.186962 28.277601 -0.351964 1.493380 0.134365 -0.055227 1089190.000000 0 0 1
25.850606 -8.638587 1.529962 27.298714 -0.322506 1.514722 0.148061 -0.054636 -958348.000000 0 0 1
25.219006 -8.908887 0.129762 26.746652 -0.339577 1.565945 0.113971 -0.042474 -707615.000000 0 0 1
26.233406 -9.254887 -0.767938 27.828659 -0.339158 1.598395 0.113404 -0.055298 496807.000000 0 0 1
25.763906 -9.689487 -2.090938 27.605018 -0.359724 1.646614 0.100025 -0.050049 -206888.000000 0 0 1
25.016406 -11.040987 -2.206138 27.433392 -0.415637 1.651301 0.095311 -0.034593 -919675.000000 0 0 1
23.765006 -11.077187 -1.640738 26.271117 -0.436173 1.633291 0.072854 -0.014672 -772963.000000 0 0 1
23.224006 -12.428887 -1.623038 26.390641 -0.491389 1.632336 0.071282 -0.010105 -567320.000000 0 0 1
21.722406 -12.429187 -1.463038 25.069665 -0.519714 1.629188 0.073234 -0.014624 -738915.000000 0 0 1
20.897006 -12.123287 -2.584738 24.296910 -0.525692 1.677379 0.080880 -0.006537 1530240.000000 0 1 0
19.508206 -12.294587 -2.190738 23.163037 -0.562349 1.665517 0.081147 -0.010592 1127500.000000 0 1 0
18.534606 -11.778487 -3.265338 22.201955 -0.566104 1.718406 0.072967 -0.003218 -145271.000000 0 1 0
18.539706 -12.615887 -4.405038 22.853570 -0.597504 1.764761 0.078981 -0.003327 562782.000000 0 1 0
17.658006 -12.197087 -5.456338 22.143752 -0.604484 1.819766 0.078132 0.004575 8685.730000 0 1 0
17.862206 -12.938187 -6.766638 23.070381 -0.626871 1.868477 0.095004 -0.000618 -177360.000000 0 1 0
17.355306 -14.243387 -6.839838 23.470494 -0.687232 1.866510 0.085737 -0.004355 502644.000000 0 1 0
17.834106 -14.890087 -8.028638 24.581071 -0.695675 1.903520 0.100482 -0.010584 97440.900000 0 1 0
16.769306 -15.889287 -8.566738 24.638751 -0.758459 1.925907 0.092556 -0.013407 199535.000000 0 1 0
15.742106 -15.258087 -9.312038 23.818841 -0.769786 1.972463 0.105823 -0.003900 176485.000000 0 1 0
14.976206 -16.241487 -9.952338 24.230594 -0.825907 1.994056 0.088815 -0.004602 -110088.000000 0 1 0
14.417106 -15.771587 -11.352838 24.196753 -0.830235 2.059168 0.088643 -0.018749 111808.000000 0 1 0
13.285806 -14.892987 -11.371538 22.970102 -0.842372 2.088698 0.074283 -0.019513 375795.000000 0 1 0
13.480906 -13.489987 -11.075638 22.054123 -0.785735 2.096940 0.072959 -0.012490 -184797.000000 0 1 0
13.440306 -12.565687 -12.279538 22.120700 -0.751779 2.159298 0.084328 -0.013635 142334.000000 0 1 0
14.658706 -12.586887 -13.017438 23.297233 -0.709502 2.163680 0.105434 -0.015660 405149.000000 0 1 0
14.579906 -11.728187 -14.151738 23.460514 -0.677423 2.218322 0.129498 -0.021846 -340065.000000 0 1 0
15.934906 -11.320087 -14.768438 24.498416 -0.617669 2.217843 0.144427 -0.032778 242217.000000 0 1 0
16.643006 -12.428187 -15.385838 25.849052 -0.641419 2.208334 0.139261 -0.030700 291205.000000 0 0 1
17.816406 -11.956387 -16.005638 26.768638 -0.591058 2.211706 0.134300 -0.021256 -119772.000000 0 0 1
18.874506 -13.052987 -16.252238 28.120503 -0.605044 2.187010 0.112961 -0.019804 -477784.000000 0 0 1
19.732706 -13.263787 -15.164138 28.200334 -0.591805 2.138538 0.108769 -0.031360 -239360.000000 0 0 1
20.666106 -14.275987 -15.455838 29.491943 -0.604520 2.122419 0.093692 -0.029974 -211806.000000 0 0 1
21.735106 -14.384387 -14.328638 29.742819 -0.584629 2.073448 0.091872 -0.030463 -158712.000000 0 0 1
22.750106 -13.427787 -14.524438 30.146842 -0.533204 2.073492 0.082538 -0.018949 -364406.000000 0 0 1
23.521906 -13.312487 -13.355838 30.147650 -0.515015 2.029754 0.096719 -0.025029 483962.000000 0 0 1
24.558506 -12.140687 -13.463638 30.525171 -0.459124 2.027583 0.111940 -0.019868 69837.800000 0 0 1
23.866806 -10.905487 -13.421338 29.473486 -0.428603 2.043584 0.103600 -0.014313 323706.000000 0 0 1
24.641606 -9.754187 -13.736538 29.850384 -0.376917 2.048994 0.117752 -0.015517 -130437.000000 0 0 1
25.676006 -9.328787 -12.654738 30.106909 -0.348498 2.004602 0.119160 -0.021010 -369531.000000 0 0 1
26.786406 -10.146287 -12.536838 31.267091 -0.362085 1.983360 0.127746 -0.034059 -125412.000000 0 0 1
27.678106 -9.826787 -11.472338 31.531854 -0.341156 1.943176 0.137703 -0.027396 851762.000000 0 0 1
29.072006 -10.540887 -11.598538 33.027533 -0.347836 1.929625 0.179975 -0.036336 1091350.000000 0 0 1
29.872606 -10.135287 -12.728338 34.016279 -0.327096 1.954313 0.160630 -0.032875 391035.000000 0 0 1
31.079776 -10.835787 -12.943838 35.368202 -0.335467 1.945475 0.152532 -0.031283 -267514.000000 0 0 1
31.839956 -10.261287 -14.123538 36.311860 -0.311767 1.970289 0.130580 -0.025407 -248290.000000 0 0 1
31.328036 -10.595687 -15.392538 36.478002 -0.326140 2.006411 0.103121 -0.021380 683222.000000 0 0 1
32.129436 -9.891587 -16.377138 37.394583 -0.298658 2.024119 0.083292 -0.019449 333487.000000 0 0 1
31.918016 -10.470987 -17.778738 38.006379 -0.316996 2.057577 0.046974 -0.010178 -116235.000000 0 0 1
30.691506 -10.263487 -18.425538 37.239873 -0.322717 2.088378 0.052837 -0.004849 -143925.000000 0 0 1
30.615006 -8.941287 -18.937738 37.092629 -0.284153 2.106624 0.032020 0.000147 -1120180.000000 0 0 1
29.249506 -8.493487 -19.392438 36.107334 -0.282608 2.137765 0.010566 -0.003412 -797507.000000 0 0 1
28.785006 -9.273487 -20.510438 36.541103 -0.311665 2.166749 0.020495 0.009527 764569.000000 0 0 1
27.519906 -8.803687 -20.984338 35.709839 -0.309615 2.198929 0.054199 0.005823 577378.000000 0 0 1
26.905506 -9.414787 -22.251238 36.161611 -0.336604 2.233598 0.071929 0.003154 120125.000000 0 0 1
26.599306 -10.822587 -22.247838 36.326544 -0.386419 2.229940 0.078250 0.003568 188620.000000 0 0 1
25.984906 -11.264987 -23.447938 36.768479 -0.409065 2.262329 0.094758 -0.005179 -963878.000000 0 0 1
26.238606 -12.751187 -23.887038 37.704745 -0.452361 2.256902 0.088197 0.005845 -564313.000000 0 0 1
27.385806 -13.197687 -24.490838 39.037962 -0.449077 2.248954 0.080883 0.004511 -711350.000000 0 0 1
28.587406 -12.845287 -23.832638 39.373034 -0.422300 2.220944 0.049715 0.013282 -185611.000000 0 0 1
29.926106 -13.386287 -24.420638 40.879482 -0.420616 2.211028 0.049120 0.012471 306978.000000 0 0 1
30.261206 -12.779487 -25.631658 41.665787 -0.399587 2.233401 0.053915 -0.000213 -474176.000000 0 0 1
31.609006 -13.022587 -25.890328 42.883868 -0.390799 2.218970 0.021163 -0.006189 -556322.000000 0 0 1
32.220676 -12.468687 -27.145658 43.937761 -0.369230 2.236764 0.043073 -0.012508 -67005.100000 0 0 1
31.998126 -13.317787 -28.287038 44.737010 -0.394398 2.255310 0.062493 -0.022068 26921.400000 0 0 1
32.727666 -12.829787 -29.366158 45.804747 -0.373605 2.266748 0.071431 -0.028306 -170583.000000 0 0 1
32.756156 -13.698087 -30.610908 46.878898 -0.396083 2.282307 0.073763 -0.034182 -360069.000000 0 0 1
33.536816 -14.857687 -30.477348 47.690016 -0.417039 2.264087 0.084127 -0.031495 -258635.000000 0 0 1
33.566146 -15.729187 -31.576508 48.694654 -0.438216 2.276355 0.077910 -0.034862 414116.000000 0 0 1
32.215536 -16.405687 -32.001708 48.281432 -0.471018 2.295370 0.058302 -0.021875 418796.000000 0 0 1
31.361106 -15.561687 -32.701118 47.906661 -0.460611 2.322112 0.050424 -0.021147 -687706.000000 0 0 1
30.297306 -16.232787 -33.295418 47.854101 -0.491863 2.340287 0.030562 -0.016520 -338493.000000 0 0 1
29.580906 -15.479687 33.032953 46.966230 -0.482113 0.790719 0.057775 -0.020111 91419.800000 0 0 1
28.841706 -14.329087 33.447310 46.431555 -0.461099 0.766479 0.053904 -0.020527 498621.000000 0 0 1
29.704906 -13.195287 33.589600 46.741398 -0.418031 0.768971 0.068369 -0.020682 91857.500000 0 0 1
28.968806 -12.069187 -33.157928 45.654192 -0.394757 2.383697 0.082867 -0.022289 -4518.020000 0 0 1
27.947006 -11.483187 33.535450 45.138954 -0.389860 0.733347 0.101524 -0.031657 -374637.000000 0 0 1
27.399806 -10.426287 -33.186818 44.281167 -0.363605 2.418037 0.064831 -0.034015 -222759.000000 0 0 1
22.016000 -29.266831 8.593662 37.617851 -0.925856 1.340315 0.053953 -0.029712 -93808.600000 0 0 1
22.462500 -28.966031 7.333362 37.381453 -0.911188 1.373339 0.063805 -0.027792 -455256.000000 0 0 1
23.499800 -29.824931 6.977062 38.606301 -0.903462 1.389074 0.058029 -0.026329 -271833.000000 0 0 1
24.239900 -29.358931 5.669462 38.492368 -0.880616 1.422971 0.050064 -0.016093 211019.000000 0 0 1
24.571400 -27.954231 5.741562 37.658442 -0.849713 1.417735 0.044177 -0.002318 41990.800000 0 0 1
25.018800 -27.426931 4.513462 37.397169 -0.831283 1.449811 0.025679 0.007851 -101002.000000 0 0 1
24.979300 -25.877731 4.374062 36.231958 -0.803062 1.449777 0.027812 0.001175 -74623.100000 0 0 1
25.918600 -25.207731 5.178062 36.524182 -0.771495 1.428546 0.026594 0.001946 -125675.000000 0 0 1
25.627600 -23.843231 5.290362 35.401433 -0.749345 1.420795 0.036430 -0.002366 207569.000000 0 0 1
26.677700 -23.031631 6.109162 35.769786 -0.712182 1.399164 0.032583 -0.003514 1236680.000000 0 0 1
27.967200 -22.782131 5.478362 36.485644 -0.683581 1.420075 0.033667 -0.003666 1643220.000000 0 0 1
28.813500 -21.983431 6.382662 36.799829 -0.651741 1.396472 0.051513 -0.011072 588774.000000 0 0 1
28.564100 -20.501831 6.531962 35.761703 -0.622538 1.387113 0.059190 -0.008484 -324367.000000 0 0 1
28.943300 -19.830031 5.355762 35.491251 -0.600679 1.419314 0.064313 -0.000423 91076.800000 0 0 1
28.369600 -18.559431 5.262162 34.307099 -0.579323 1.416804 0.088474 -0.001304 -220328.000000 0 0 1
28.661800 -17.917231 3.897862 34.025274 -0.558690 1.455986 0.115439 -0.002254 -506126.000000 0 0 1
30.016500 -17.665431 3.701462 35.025113 -0.531939 1.464918 0.109123 -0.006515 -461251.000000 0 0 1
30.268800 -16.881731 2.571762 34.753519 -0.508756 1.496729 0.124870 -0.003923 195847.000000 0 0 1
31.400900 -15.865631 2.834062 35.295420 -0.467847 1.490414 0.135575 -0.018090 105376.000000 0 0 1
30.885900 -14.726631 3.553162 34.401125 -0.444922 1.467326 0.143177 -0.018467 194294.000000 0 0 1
31.866900 -13.909931 4.182562 35.021127 -0.411572 1.451081 0.134300 -0.023607 69101.100000 0 0 1
31.354100 -12.717031 5.063762 34.211754 -0.385319 1.422238 0.134856 -0.027555 65782.100000 0 0 1
31.102800 -13.236931 6.361562 34.395784 -0.402367 1.384774 0.115829 -0.026080 -35645.100000 0 0 1
30.692000 -12.230331 7.243662 33.823815 -0.379201 1.354966 0.111006 -0.015802 -254715.000000 0 0 1
30.743900 -12.618631 8.754362 34.366496 -0.389477 1.313222 0.132916 -0.016163 -287474.000000 0 0 1
29.992700 -13.748031 9.135362 34.234854 -0.429800 1.300680 0.097774 -0.013729 -178810.000000 0 0 1
29.602100 -13.868131 10.435162 34.314749 -0.438119 1.261801 0.161553 -0.019469 -235875.000000 0 0 1
30.372600 -14.914931 11.278062 35.667137 -0.456474 1.249072 0.149594 -0.026284 -146722.000000 0 0 1
31.535700 -14.393031 11.882262 36.644888 -0.428167 1.240573 0.097477 -0.011333 -216481.000000 0 0 1
32.041000 -15.412431 12.747762 37.771340 -0.448350 1.226538 0.120768 -0.017745 58104.000000 0 0 1
33.034100 -14.847931 13.782562 38.751411 -0.422415 1.207170 0.109544 -0.017018 -82297.100000 0 0 1
34.204600 -14.379331 13.165162 39.370564 -0.397961 1.229837 0.084561 -0.018669 219171.000000 0 0 1
35.222500 -14.066631 14.117662 40.469779 -0.379959 1.214458 0.061456 -0.014948 176397.000000 0 0 1
36.644500 -13.845531 13.592062 41.463987 -0.361253 1.236818 0.103801 -0.014748 -243659.000000 0 0 1
37.010000 -12.581031 13.081262 41.220648 -0.327681 1.247865 0.122821 -0.030581 -225505.000000 0 0 1
-37.378907 -12.642631 12.639362 41.433950 0.326150 1.260807 0.137786 -0.031050 -271796.000000 0 0 1
-36.619507 -11.287831 12.308662 40.248063 0.299005 1.259997 0.154894 -0.047585 -640383.000000 0 0 1
-35.366807 -11.583231 11.824662 39.048750 0.316507 1.263148 0.134434 -0.046052 -145422.000000 0 0 1
-34.512107 -10.411231 11.559662 37.856374 0.292987 1.260484 0.123540 -0.056383 472742.000000 0 0 1
-33.264207 -10.749431 10.737762 36.569895 0.312561 1.272782 0.136917 -0.049520 -817147.000000 0 0 1
-32.314107 -11.511231 11.428662 36.156939 0.342213 1.249196 0.124838 -0.044722 -127202.000000 0 0 1
-32.520907 -12.920531 11.070362 36.702894 0.378176 1.264404 0.134329 -0.042816 -448860.000000 0 0 1
-31.366807 -13.833931 11.470562 36.150076 0.415376 1.247911 0.089288 -0.034415 201260.000000 0 0 1
-30.198707 -13.630531 10.694962 34.815736 0.423986 1.258560 0.099536 -0.035931 559846.000000 0 0 1
-29.144807 -14.578831 10.943862 34.376303 0.463824 1.246803 0.101418 -0.017085 974726.000000 0 0 1
-27.888407 -14.414231 10.024462 32.954865 0.477040 1.261711 0.105587 -0.016185 212446.000000 0 0 1
-28.124707 -14.622931 8.678962 32.865691 0.479466 1.303553 0.127559 -0.027050 75576.400000 0 0 1
-26.979907 -14.488531 7.860762 31.616839 0.492817 1.319535 0.109796 -0.018421 -84329.000000 0 0 1
-27.278307 -14.537831 6.406862 31.567427 0.489655 1.366418 0.158010 -0.024902 48266.100000 0 0 1
-27.902507 -15.766431 6.029662 32.611149 0.514328 1.384831 0.161550 -0.010521 263156.000000 0 0 1
-28.180007 -15.857331 4.641162 32.666621 0.512553 1.428237 0.173911 -0.004437 -53431.900000 0 0 1
-29.049207 -17.009331 4.126662 33.914644 0.529716 1.448816 0.142902 -0.006405 359575.000000 0 0 1
-30.455007 -16.867531 4.286262 35.076959 0.505795 1.448294 0.105425 -0.021291 131275.000000 0 0 1
-31.078007 -18.039931 3.796062 36.134356 0.525937 1.465548 0.122109 -0.009651 999184.000000 0 0 1
-32.647907 -17.964331 3.971162 37.474967 0.503031 1.464629 0.164503 -0.026926 693212.000000 0 0 1
-33.286807 -17.017631 3.182362 37.519844 0.472601 1.485876 0.221939 -0.031238 -1142520.000000 0 0 1
-34.630107 -17.136131 3.527562 38.798647 0.459506 1.479751 0.218378 -0.029646 -813351.000000 0 0 1
-35.451307 -16.128031 2.677562 39.039440 0.426950 1.502156 0.216261 -0.040216 -28386.900000 0 0 1
-35.594507 -16.398231 1.302662 39.211833 0.431713 1.537569 0.213241 -0.029358 3512.050000 0 0 1
-36.524907 -15.557131 0.668762 39.705672 0.402660 1.553953 0.241015 -0.036930 -16019.300000 0 0 1
-37.051807 -16.098231 -0.648938 40.403101 0.409872 1.586859 0.198546 -0.041270 -118633.000000 0 0 1
-36.011907 -16.088131 -1.606338 39.474874 0.420144 1.611500 0.222629 -0.036846 485285.000000 0 0 1
-36.212007 -17.251631 -2.441738 40.185698 0.444595 1.631595 0.178056 -0.021612 -613520.000000 0 0 1
-35.030907 -17.646531 -3.289938 39.362269 0.466637 1.654475 0.160518 -0.018257 -663156.000000 0 0 1
-35.358507 -18.639631 -4.221138 40.193008 0.485140 1.676012 0.140666 -0.018109 -153374.000000 0 0 1
-34.183707 -19.257831 -4.659938 39.510820 0.513045 1.689012 0.137825 -0.016529 -336512.000000 0 0 1
-34.380207 -20.404131 -5.648338 40.376118 0.535615 1.711150 0.134953 -0.014236 -187184.000000 0 0 1
-34.971207 -21.517231 -5.073838 41.372943 0.551582 1.693742 0.124387 -0.016001 -145509.000000 0 0 1
-35.561007 -22.376731 -6.031738 42.446262 0.561649 1.713382 0.114236 -0.006004 208515.000000 0 0 1
-36.347807 -23.564031 -5.446838 43.658844 0.575174 1.695881 0.115735 -0.015133 244420.000000 0 0 1
-35.488007 -24.488431 -4.777938 43.380993 0.604016 1.681159 0.133639 -0.014821 -51146.300000 0 0 1
-36.036607 -25.765931 -4.776138 44.557062 0.620718 1.678194 0.110016 -0.013580 -21141.100000 0 0 1
-35.103807 -26.834931 -4.180638 44.383201 0.652682 1.665130 0.093049 -0.015306 -464782.000000 0 0 1
-34.060207 -27.256831 -5.021238 43.911791 0.674896 1.685395 0.088653 -0.012470 284292.000000 0 0 1
-33.329707 -28.441631 -4.729538 44.069993 0.706431 1.678322 0.088868 -0.017951 375212.000000 0 0 1
-32.344107 -28.377531 -3.526838 43.172493 0.720167 1.652579 0.114378 -0.028795 -405670.000000 0 0 1
-32.993807 -28.352131 -2.280638 43.561863 0.709878 1.623174 0.105542 -0.027982 45896.100000 0 0 1
-32.050007 -28.249931 -1.231638 42.740829 0.722462 1.599617 0.133376 -0.029391 -107809.000000 0 0 1
-32.628507 -28.240331 0.172962 43.152818 0.713430 1.566788 0.109652 -0.016578 -168294.000000 0 0 1
-33.145307 -29.475031 0.671962 44.360347 0.726854 1.555648 0.109402 -0.013752 68658.500000 0 0 1
-33.940607 -29.181331 1.790062 44.796419 0.710142 1.530826 0.112703 -0.007103 -27938.800000 0 0 1
-34.652607 -30.370331 2.510862 46.146122 0.719635 1.516358 0.085780 -0.009033 -579294.000000 0 0 1
-35.583107 -29.944231 3.469762 46.635327 0.699556 1.496326 0.068990 -0.006310 355002.000000 0 0 1
-36.285207 -31.063231 4.083262 47.939687 0.708016 1.485518 0.066692 -0.004558 814104.000000 0 0 1
-37.279107 -31.919431 3.236462 49.183906 0.708099 1.504945 0.046687 0.006229 -260305.000000 0 0 1
37.686800 -32.882631 3.978262 50.173588 -0.717426 1.491423 0.065131 -0.000070 217003.000000 0 0 1
36.871200 -33.585631 3.029062 49.966541 -0.738800 1.510137 0.059172 0.008116 -383961.000000 0 0 1
35.750700 33.224113 3.719762 48.946817 0.748784 1.494727 0.061269 0.008945 296643.000000 0 0 1
34.815100 33.792413 4.641262 48.739713 0.770493 1.475426 0.055570 0.007104 529753.000000 0 0 1
34.194700 -32.702331 4.221762 47.503087 -0.763093 1.481805 0.058968 0.001756 -1172660.000000 0 0 1
33.139100 -32.695231 3.135462 46.658431 -0.778656 1.503545 0.055987 0.009680 -784513.000000 0 0 1
33.677500 -33.151131 1.914762 47.295220 -0.777522 1.530300 0.058465 0.014323 23207.600000 0 0 1
32.752900 -32.854631 0.879262 46.399917 -0.786949 1.551846 0.049626 0.014946 -244050.000000 0 0 1
33.262800 -33.390631 -0.505438 47.133890 -0.787316 1.581520 0.056399 0.005903 912678.000000 0 0 1
34.378900 -32.771731 -1.128838 47.509677 -0.761469 1.594559 0.040127 0.011158 581480.000000 0 0 1
35.648000 -32.671531 -0.472538 48.357338 -0.741859 1.580568 0.040328 0.010767 436972.000000 0 0 1
36.750500 -32.299831 -1.518338 48.950829 -0.721032 1.601819 0.031142 0.008408 95544.300000 0 0 1
37.279800 -33.461931 -2.205938 50.143299 -0.731481 1.614803 0.018997 0.002254 380753.000000 0 0 1
-37.710207 -33.067531 -3.358438 50.267290 0.719897 1.637658 0.032733 -0.002247 -418058.000000 0 0 1
-37.098407 33.401013 -4.164438 50.092534 -0.733000 1.654027 0.029814 -0.007269 170216.000000 0 0 1
-35.944007 32.789713 -3.613038 48.787201 -0.739539 1.644921 0.041667 -0.003640 320834.000000 0 0 1
-35.304507 31.896613 -4.532038 47.794785 -0.734730 1.665762 0.081197 -0.014067 394206.000000 0 0 1
-34.040207 31.190213 -3.991538 46.341099 -0.741735 1.657037 0.115657 -0.023250 311272.000000 0 0 1
-32.822807 31.905213 -3.918238 45.941614 -0.771223 1.656187 0.143871 -0.027742 -186540.000000 0 0 1
-31.651907 31.202813 -3.686838 44.598784 -0.778253 1.653558 0.187578 -0.038141 82479.800000 0 0 1
-31.232307 31.039813 -2.203738 44.088360 -0.782307 1.620802 0.168868 -0.037855 156332.000000 0 0 1
-32.223107 30.232913 -1.564238 44.213171 -0.753543 1.606183 0.125655 -0.029225 261421.000000 0 0 1
-31.867607 29.987513 -0.201238 43.758837 -0.755012 1.575395 0.110307 -0.028343 -865560.000000 0 0 1
-32.995307 29.485613 0.656462 44.255198 -0.729285 1.555962 0.104434 -0.029674 -854362.000000 0 0 1
-33.289507 28.096613 0.462462 43.564031 -0.701005 1.560180 0.104042 -0.042336 -350966.000000 0 0 1
-34.350307 27.920013 -0.411738 44.267824 -0.682499 1.580098 0.101767 -0.028379 -816421.000000 0 0 1
-34.535307 26.513513 -0.828738 43.546993 -0.654747 1.589828 0.113116 -0.019239 47522.700000 0 0 1
-34.717907 25.619613 0.233762 43.148027 -0.635736 1.565379 0.101389 -0.027846 -114179.000000 0 0 1
-34.852407 24.305813 -0.381738 42.492453 -0.608974 1.579780 0.119957 -0.027392 -353367.000000 0 0 1
-34.855907 23.129913 0.602862 41.836474 -0.585867 1.556386 0.141992 -0.039063 337138.000000 0 0 1
-33.525807 22.875113 1.021062 40.599176 -0.598757 1.545644 0.145530 -0.046315 228534.000000 0 0 1
-33.085607 23.719213 2.045562 40.760799 -0.621981 1.520591 0.128818 -0.044270 -40151.500000 0 0 1
-31.517907 23.741213 2.164462 39.518458 -0.645585 1.515998 0.117294 -0.050313 448954.000000 0 0 1
-30.774407 24.547813 1.340362 39.388524 -0.673318 1.536761 0.124464 -0.046175 -517273.000000 0 0 1
-30.798607 25.955513 1.602462 40.308941 -0.700270 1.531031 0.089256 -0.035327 -164743.000000 0 0 1
-30.034807 26.860713 0.580162 40.297942 -0.729668 1.556399 0.094149 -0.043363 1864160.000000 0 0 1
-28.626507 26.497313 0.433562 39.009902 -0.746792 1.559682 0.103213 -0.039474 1119620.000000 0 0 1
-27.989107 27.225113 -0.550138 39.049962 -0.771562 1.584885 0.116154 -0.035135 107954.000000 0 0 1
-26.761907 26.519713 -1.171638 37.694397 -0.780853 1.601884 0.118515 -0.034329 -102538.000000 0 0 1
-27.158907 25.446013 -2.124138 37.277577 -0.752848 1.627809 0.143225 -0.041013 769608.000000 0 0 1
-26.130107 24.880613 -2.982638 36.203916 -0.760908 1.653274 0.129486 -0.025527 1333230.000000 0 0 1
-25.011107 24.008913 -2.310138 34.746512 -0.764956 1.637331 0.096556 -0.023682 766288.000000 0 0 1
-25.581407 22.754313 -1.898238 34.289509 -0.726976 1.626184 0.101111 -0.027390 -63063.500000 0 0 1
-24.697407 22.032513 -1.114538 33.115491 -0.728432 1.604459 0.090696 -0.037652 -861042.000000 0 0 1
-25.348407 20.703713 -0.749438 32.737549 -0.684881 1.593691 0.111646 -0.044745 383631.000000 0 0 1
-26.343607 20.664213 0.309662 33.482700 -0.665163 1.561548 0.108483 -0.047095 1025290.000000 0 0 1
-27.597607 21.273713 0.063662 34.845413 -0.656714 1.568969 0.097899 -0.049652 249151.000000 0 0 1
-28.508707 20.724013 -1.095938 35.262333 -0.628576 1.601881 0.115177 -0.055758 -478721.000000 0 0 1
-28.876807 19.309213 -0.887338 34.749145 -0.589392 1.596335 0.130449 -0.058734 -146505.000000 0 0 1
-29.762707 18.833313 -1.823538 35.268083 -0.564176 1.622524 0.151827 -0.056829 -735623.000000 0 0 1
-30.046107 17.321313 -1.671338 34.721604 -0.522954 1.618950 0.150869 -0.048161 238332.000000 0 0 1
-30.797907 17.021013 -0.489838 35.191844 -0.504889 1.584716 0.146003 -0.045656 407147.000000 0 0 1
-31.301607 15.686913 -0.330238 35.013981 -0.464570 1.580228 0.158245 -0.058439 693446.000000 0 0 1
-30.312407 14.659813 0.408762 33.673717 -0.450461 1.558657 0.205725 -0.057165 367379.000000 0 0 1
-30.123007 14.878313 1.805262 33.645486 -0.458771 1.517115 0.220193 -0.052175 -2477.300000 0 0 1
-28.935607 14.349913 2.376962 32.385788 -0.460383 1.497335 0.261890 -0.055482 111328.000000 0 0 1
-28.829907 12.801813 2.420662 31.637154 -0.417892 1.494208 0.288816 -0.054243 -475983.000000 0 0 1
-28.314807 12.289913 1.251062 30.892319 -0.409507 1.530288 0.270292 -0.060763 172820.000000 0 0 1
-28.198207 10.895913 1.411962 30.263070 -0.368731 1.524123 0.328011 -0.058359 -212758.000000 0 0 1
-27.911707 10.093113 0.136362 29.680851 -0.346979 1.566202 0.303889 -0.052073 -242785.000000 0 0 1
-28.980407 9.978813 -0.779738 30.660213 -0.331614 1.596231 0.274854 -0.044006 -35617.100000 0 0 1
-28.614807 9.316813 -1.944738 30.156130 -0.314769 1.635330 0.284066 -0.046311 -373945.000000 0 0 1
-29.773707 9.041513 -2.899138 31.251041 -0.294824 1.663699 0.250072 -0.046513 -255035.000000 0 0 1
-29.376307 8.112113 -3.896038 30.723816 -0.269430 1.697947 0.237071 -0.038847 549176.000000 0 0 1
-30.410207 7.927813 -4.868638 31.801486 -0.255020 1.724495 0.205840 -0.046674 246226.000000 0 0 1
-11.433500 18.433413 -20.375038 29.760004 -1.015613 2.324913 0.166381 -0.016025 364233.000000 0 0 1
-11.770400 17.535013 -21.422138 30.082005 -0.979626 2.363316 0.175419 -0.025972 -1068450.000000 0 0 1
-10.728300 16.704113 -21.716838 29.423543 -0.999885 2.401012 0.168750 -0.039809 -966101.000000 0 0 1
-11.101500 15.439413 -22.505238 29.463614 -0.947408 2.440025 0.159863 -0.028697 133152.000000 0 0 1
-10.164600 14.335513 -22.359538 28.438970 -0.954022 2.475479 0.181761 -0.042796 520111.000000 0 0 1
-10.382600 13.210313 -23.182738 28.631279 -0.904683 2.514437 0.157147 -0.041289 -50939.000000 0 0 1
-9.412000 12.061613 -22.824738 27.477936 -0.908167 2.551083 0.132003 -0.034616 648260.000000 0 0 1
-8.023600 12.352013 -23.042438 27.347840 -0.994718 2.572832 0.107941 -0.031185 353516.000000 0 0 1
-7.223400 11.343213 -22.522138 26.231521 -1.003754 2.603311 0.085565 -0.026177 1230350.000000 0 0 1
-5.669600 11.667813 -22.568838 26.031417 -1.118478 2.619915 0.064814 -0.018498 1659060.000000 0 0 1
-5.011900 11.555413 -23.846238 26.968311 -1.161557 2.655643 0.055792 -0.025974 170687.000000 0 0 1
-3.609500 11.703113 -23.759638 26.730353 -1.271631 2.665655 0.054932 -0.020091 22905.800000 0 0 1
-2.899900 11.218313 -25.032238 27.583925 -1.317837 2.708075 0.090997 -0.036127 -377897.000000 0 0 1
-2.877200 9.831813 -25.347528 27.339349 -1.286104 2.757515 0.092100 -0.034718 146641.000000 0 0 1
-2.307900 9.647813 -26.616868 28.405358 -1.335994 2.784843 0.101276 -0.036226 -291834.000000 0 0 1
-2.184600 8.134813 -27.037368 28.319021 -1.308437 2.839589 0.121228 -0.017433 580651.000000 0 0 1
-1.188800 7.259013 -26.428068 27.432632 -1.408468 2.870134 0.124168 -0.022555 668594.000000 0 0 1
-1.306400 7.032213 -25.052338 26.053375 -1.387117 2.863488 0.134433 -0.036508 -255844.000000 0 0 1
-0.256400 6.140513 -24.382038 25.144690 -1.529065 2.894671 0.059626 -0.024104 1495340.000000 0 0 1
1.145200 6.586413 -24.419538 25.318100 1.398644 2.874374 0.091047 -0.001547 1999540.000000 0 0 1
2.025300 5.800713 -23.620938 24.406942 1.234882 2.887119 0.082584 0.011286 335494.000000 0 1 0
2.135400 6.160813 -22.096338 23.038310 1.237145 2.854647 0.071974 -0.001086 -358609.000000 0 1 0
2.775900 7.373113 -21.917938 23.290866 1.210720 2.796526 0.074834 -0.014661 21479.200000 0 1 0
2.390900 7.966713 -20.709838 22.317758 1.279238 2.759680 0.072880 -0.018535 99844.900000 0 1 0
2.979600 9.417413 -20.574038 22.822286 1.264369 2.693994 0.061941 -0.028325 -58672.500000 0 1 0
2.623000 10.141713 -19.446038 22.088071 1.317707 2.647473 0.072138 -0.032920 105660.000000 0 1 0
3.209000 11.418413 -19.509138 22.831652 1.296826 2.595341 0.073702 -0.028206 30880.600000 0 1 0
4.515500 11.655513 -18.706638 22.498423 1.201188 2.552535 0.075869 -0.034019 876186.000000 0 1 0
5.624100 10.864913 -19.189738 22.757919 1.093138 2.574026 0.084663 -0.034118 -371905.000000 0 1 0
6.631400 10.785713 -18.248538 22.210723 1.019542 2.535025 0.085708 -0.026807 -222843.000000 0 1 0
7.870800 10.064613 -18.842338 22.765756 0.907111 2.545724 0.129275 -0.029906 180530.000000 0 1 0
7.564600 8.687713 -19.058738 22.269599 0.854393 2.597928 0.106586 -0.020075 343300.000000 0 1 0
7.111400 8.388713 -20.377538 23.155703 0.867619 2.646706 0.094481 -0.008767 -70188.500000 0 1 0
6.935700 6.903113 -20.504538 22.719881 0.783043 2.696320 0.100511 -0.012099 -195867.000000 0 1 0
8.107800 6.125513 -20.368238 22.762325 0.647017 2.678830 0.096465 -0.018103 70543.900000 0 1 0
7.934700 4.746513 -20.761538 22.727303 0.539093 2.722618 0.080692 -0.002234 -111342.000000 0 1 0
8.193500 4.572113 -22.244038 24.141974 0.508978 2.742424 0.092156 -0.011654 -455748.000000 0 1 0
7.217600 5.118713 -23.096838 24.733761 0.616873 2.775738 0.110708 -0.013134 -75430.700000 0 1 0
7.511400 4.931013 -24.470838 26.068332 0.580911 2.789691 0.097303 -0.013788 -410545.000000 0 0 1
6.447800 5.643913 -25.296688 26.708619 0.719013 2.814984 0.093809 -0.018315 -287756.000000 0 0 1
6.383600 7.092713 -25.392998 27.126763 0.837969 2.782132 0.084330 -0.030251 290072.000000 0 0 1
5.975400 7.796213 -24.164138 26.084323 0.916851 2.755495 0.112081 -0.034074 -785662.000000 0 0 1
5.825100 9.320913 -24.359838 26.724763 1.012233 2.717733 0.125586 -0.044692 493311.000000 0 0 1
4.684900 9.746513 -25.110738 27.340300 1.122728 2.734944 0.121610 -0.049881 1151260.000000 0 0 1
3.453500 9.624013 -24.374938 26.432667 1.226266 2.744404 0.121144 -0.041402 175539.000000 0 0 1
2.144000 9.942113 -25.122138 27.102845 1.358401 2.756913 0.140036 -0.028289 83107.200000 0 0 1
1.939100 11.355413 -25.199228 27.707519 1.401663 2.712810 0.149245 -0.046167 69367.900000 0 0 1
0.878000 11.530113 -26.119468 28.564681 1.494795 2.724813 0.164602 -0.052518 -54370.300000 0 0 1
0.518100 12.957213 -26.527048 29.526972 1.530832 2.686910 0.146599 -0.052869 -104663.000000 0 0 1
-0.137900 13.706413 -25.555348 28.999321 -1.560736 2.649275 0.131495 -0.048809 -63496.100000 0 0 1
-0.642400 14.899013 -26.185088 30.133903 -1.527706 2.623889 0.123236 -0.054937 -73108.600000 0 0 1
-1.107300 15.793513 -24.968438 29.564913 -1.500800 2.576482 0.132979 -0.050889 160013.000000 0 0 1
-2.252000 15.290513 -24.301038 28.799510 -1.424567 2.575122 0.110607 -0.040720 -220136.000000 0 0 1
-2.361400 15.756413 -22.974138 27.958036 -1.422034 2.535248 0.103238 -0.043755 -352585.000000 0 0 1
-3.555100 15.066013 -22.285338 27.134108 -1.339067 2.534489 0.090339 -0.039308 1569800.000000 0 0 1
-4.936100 15.308013 -22.658438 27.786781 -1.258871 2.524284 0.091395 -0.039660 1284780.000000 0 0 1
-5.309000 15.089913 -23.983638 28.828907 -1.232497 2.553374 0.095773 -0.046775 -240886.000000 0 0 1
-6.834800 15.129413 -24.316038 29.442883 -1.146483 2.542542 0.079513 -0.042602 589328.000000 0 0 1
-7.320700 16.334913 -24.867538 30.640113 -1.149471 2.517683 0.092145 -0.044439 -276174.000000 0 0 1
-8.726600 16.274413 -24.901738 31.001720 -1.078597 2.503507 0.111028 -0.039660 -336383.000000 0 0 1
-9.420100 17.604613 -25.337698 32.259257 -1.079470 2.474202 0.125852 -0.035608 -10478.100000 0 0 1
-9.524800 18.636213 -24.385338 32.135261 -1.098315 2.432318 0.132511 -0.033728 318442.000000 0 0 1
-10.554100 19.545913 -24.783938 33.281757 -1.075691 2.410837 0.117896 -0.021896 425453.000000 0 0 1
-10.749500 20.542313 -23.632238 33.106209 -1.088694 2.365750 0.091475 -0.025097 -132708.000000 0 0 1
-10.082800 21.772013 -23.768538 33.773167 -1.137095 2.351486 0.131855 -0.016544 213129.000000 0 0 1
-10.947500 22.858813 -24.103538 34.976473 -1.124156 2.331092 0.107778 -0.028596 126156.000000 0 0 1
-11.178400 23.237713 -25.590488 36.329341 -1.122427 2.352378 0.089926 -0.021483 -37007.200000 0 0 1
-11.780300 22.236513 -26.383268 36.459770 -1.083615 2.379839 0.092531 -0.018845 69877.400000 0 0 1
-11.845600 22.619813 -27.719938 37.687785 -1.088383 2.397223 0.089661 -0.018146 -129566.000000 0 0 1
-12.615000 21.684313 -28.664578 38.092069 -1.043899 2.422658 0.091144 -0.015768 -14342.000000 0 0 1
-11.878700 20.583313 -29.238988 37.678837 -1.047383 2.459104 0.099540 -0.023288 13609.300000 0 0 1
-11.634000 19.539113 -28.296288 36.301609 -1.033750 2.464628 0.107640 -0.020529 -457793.000000 0 0 1
-10.539100 18.609513 -28.818458 35.887187 -1.055503 2.503157 0.082434 -0.023109 -1168170.000000 0 0 1
-9.322600 19.319013 -28.787398 35.900549 -1.121197 2.501207 0.068764 -0.025486 364822.000000 0 0 1
-8.184200 18.534413 -29.249408 35.581364 -1.154977 2.535786 0.062030 -0.029864 1227020.000000 0 0 1
-7.742700 17.209613 -28.557238 34.229170 -1.148021 2.557650 0.089503 -0.045633 -741473.000000 0 0 1
-8.635300 16.136713 -28.806258 34.128616 -1.079438 2.575587 0.073241 -0.034967 387372.000000 0 0 1
-8.211900 15.007413 -28.085038 32.885059 -1.070113 2.594492 0.079163 -0.042899 54252.800000 0 0 1
-9.490800 14.163313 -28.023358 32.802185 -0.980422 2.595025 0.084570 -0.025344 -153080.000000 0 0 1
-10.522100 14.666613 -27.241958 32.679480 -0.948475 2.556409 0.101073 -0.032653 -479621.000000 0 0 1
-11.689600 13.883913 -27.348228 32.822788 -0.870993 2.555681 0.141320 -0.026107 363107.000000 0 0 1
-12.786400 14.229813 -26.300528 32.522260 -0.838775 2.512723 0.129241 -0.025884 328483.000000 0 0 1
-13.378000 15.506113 -26.524388 33.510500 -0.858943 2.484096 0.124154 -0.025348 33219.700000 0 0 1
-14.407300 15.699713 -25.551298 33.270409 -0.828299 2.446491 0.107930 -0.022703 552454.000000 0 0 1
-15.435100 16.821213 -25.831368 34.473977 -0.828344 2.417801 0.084873 -0.018038 11028.800000 0 0 1
-14.880700 18.122413 -26.007458 35.017781 -0.883309 2.407879 0.094139 -0.014668 -821873.000000 0 0 1
-15.815600 19.098713 -26.297958 36.145216 -0.879156 2.385561 0.068695 -0.010470 -523790.000000 0 0 1
-15.268300 20.574613 -26.546838 36.894042 -0.932374 2.373940 0.082888 -0.013475 -235109.000000 0 0 1
-16.336800 21.480413 -26.665768 37.938930 -0.920581 2.350207 0.043350 -0.005985 73116.700000 0 0 1
-15.975800 22.846013 -26.653128 38.568844 -0.960553 2.333742 0.058403 -0.009889 -258645.000000 0 0 1
-15.210600 23.467213 -25.497368 37.844263 -0.995713 2.310061 0.028609 -0.007464 -122432.000000 0 0 1
-14.797400 24.785213 -25.791318 38.709972 -1.032567 2.299993 0.048895 -0.013813 -25990.900000 0 0 1
-14.473400 25.369613 -24.582638 38.175944 -1.052349 2.270420 0.056453 -0.018509 -67117.600000 0 0 1
-13.784800 26.733913 -24.630338 38.876425 -1.094723 2.256935 0.071792 -0.021673 -212737.000000 0 0 1
-14.723700 27.641513 -25.061738 40.111486 -1.081359 2.245674 0.088323 -0.031031 -279762.000000 0 0 1
-15.204100 28.513213 -24.063338 40.289108 -1.080919 2.210885 0.081403 -0.029723 -270736.000000 0 0 1
-16.461400 29.316313 -24.360838 41.519566 -1.059159 2.197813 0.068135 -0.029667 394335.000000 0 0 1
-17.663600 28.557613 -24.485638 41.558231 -1.016867 2.200851 0.055803 -0.026980 455396.000000 0 0 1
-18.786000 29.306713 -24.936838 42.821060 -1.000764 2.192413 0.052267 -0.028659 674988.000000 0 0 1
-20.041500 28.424713 -25.220588 42.961659 -0.956674 2.198205 0.063608 -0.013093 225734.000000 0 0 1
-20.567900 27.798913 -24.059738 42.127059 -0.933803 2.178670 0.067566 -0.019671 -428929.000000 0 0 1
-21.595400 26.914313 -24.377038 42.249042 -0.894608 2.185828 0.067597 -0.034217 -451675.000000 0 0 1
-22.505200 26.504113 -23.202538 41.800835 -0.866813 2.159248 0.075186 -0.032799 119361.000000 0 0 1
-23.309700 27.588913 -22.726738 42.673117 -0.869274 2.132439 0.086332 -0.029362 79770.200000 0 0 1
-23.421000 27.477113 -21.304338 41.921472 -0.864921 2.103886 0.075769 -0.026916 -530476.000000 0 0 1
-24.477500 28.366113 -20.655638 42.783639 -0.858853 2.074637 0.056225 -0.025016 -1040090.000000 0 0 1
-25.721180 27.798613 -20.881538 43.247898 -0.824195 2.074684 0.081735 -0.026676 -465158.000000 0 0 1
-26.776820 28.691313 -20.476038 44.265762 -0.819900 2.051689 0.081734 -0.029662 412723.000000 0 0 1
-28.183440 28.089613 -20.609238 44.811532 -0.783731 2.048689 0.082843 -0.025714 -213631.000000 0 0 1
-28.484820 27.709013 -21.923638 45.385243 -0.771593 2.074939 0.082820 -0.029106 212463.000000 0 0 1
-29.894430 27.477713 -21.921638 46.143904 -0.743300 2.065841 0.084396 -0.015532 168366.000000 0 0 1
-30.377540 27.188213 -23.351838 46.981935 -0.730052 2.090979 0.080333 -0.023743 -87290.500000 0 0 1
-30.196810 25.821813 -23.773338 46.301026 -0.707457 2.109999 0.086934 -0.009737 -66956.600000 0 0 1
-30.398450 25.646513 -25.155008 47.059365 -0.700813 2.134757 0.090729 -0.007634 -144202.000000 0 0 1
-30.653540 24.190913 -25.575188 46.679011 -0.668103 2.150642 0.080153 -0.009411 -72418.800000 0 0 1
-29.622020 23.242613 -25.324368 45.376280 -0.665304 2.162887 0.107248 -0.022324 229574.000000 0 0 1
-29.960910 22.040413 -25.987348 45.373761 -0.634247 2.180640 0.099967 -0.011485 -263983.000000 0 0 1
-28.887390 20.954513 -25.882758 44.085033 -0.627561 2.198280 0.114831 -0.010522 -274387.000000 0 0 1
-28.864660 20.380113 -24.574438 43.039757 -0.614780 2.178484 0.104851 -0.004136 -109622.000000 0 0 1
-28.124110 19.224513 -24.448738 41.931948 -0.599607 2.193283 0.122183 -0.007454 -235287.000000 0 0 1
-29.006670 17.923013 -24.524338 42.000768 -0.553472 2.194323 0.102650 -0.009272 -159888.000000 0 0 1
-29.650280 17.729813 -25.745558 43.085023 -0.538921 2.211241 0.094666 -0.010576 141224.000000 0 0 1
-30.085370 16.376113 -25.805138 42.886032 -0.498473 2.216442 0.066948 -0.007290 125.593000 0 0 1
-30.905860 15.988013 -27.068678 44.085169 -0.477402 2.231926 0.039766 -0.013077 190988.000000 0 0 1
-32.172550 16.558313 -27.312198 45.334390 -0.475316 2.217377 0.032303 -0.013638 92189.100000 0 0 1
-32.766290 15.878113 -28.407568 46.181535 -0.451241 2.233345 0.040766 -0.013034 621198.000000 0 0 1
-34.175420 16.478613 -28.722048 47.586344 -0.449288 2.218777 0.048533 -0.023494 443370.000000 0 0 1
-35.297844 16.078613 -27.980198 47.826260 -0.427429 2.195724 0.028743 -0.016820 -300057.000000 0 0 1
-36.455370 16.654213 -28.521628 49.191870 -0.428526 2.189284 0.044022 -0.018882 900350.000000 0 0 1
-37.768570 16.325413 -27.675868 49.587677 -0.407994 2.162915 0.054200 -0.019343 869001.000000 0 0 1
37.673926 17.129713 -26.540578 49.164561 0.426742 2.141033 0.049136 -0.023889 -169532.000000 0 0 1
36.566576 16.679913 -25.815788 47.768074 0.427958 2.141757 0.046965 -0.015526 -191799.000000 0 0 1
35.960226 17.773013 -24.854638 47.188673 0.459030 2.125519 0.047637 -0.009543 53702.900000 0 0 1
35.250156 18.788513 -25.511508 47.396401 0.489702 2.139166 0.054174 -0.034825 53631.600000 0 0 1
35.089986 19.839913 -24.642538 47.245994 0.514590 2.119497 0.076070 -0.023161 -681400.000000 0 0 1
34.500686 21.054213 -25.348258 47.708610 0.547926 2.130947 0.102946 -0.040414 841470.000000 0 0 1
33.149316 20.978213 -25.834428 46.972122 0.564217 2.153154 0.112617 -0.049943 494500.000000 0 0 1
32.135586 21.213313 -24.903838 45.857406 0.583456 2.144887 0.141747 -0.049779 -466686.000000 0 0 1
30.732506 21.281013 -25.540968 45.273718 0.605647 2.170194 0.102364 -0.049154 40698.100000 0 0 1
30.256606 19.951113 -25.758648 44.463660 0.582953 2.188689 0.118436 -0.056343 -232739.000000 0 0 1
29.064606 19.986013 -26.525858 44.134037 0.602383 2.215585 0.134002 -0.058809 359793.000000 0 0 1
28.446606 18.518913 -26.643088 43.151057 0.577082 2.236277 0.141418 -0.037407 271923.000000 0 0 1
29.232106 17.685813 -27.479798 43.845676 0.544098 2.248158 0.119760 -0.044862 493267.000000 0 0 1
30.271006 16.964413 -26.819798 43.856889 0.510806 2.228789 0.116528 -0.035904 682481.000000 0 0 1
31.317476 16.272513 -27.770768 44.908736 0.479203 2.237479 0.086374 -0.030694 366098.000000 0 0 1
30.827596 15.150313 -28.526418 44.650075 0.456787 2.263849 0.100600 -0.042277 251660.000000 0 0 1
30.105706 14.077113 -27.884338 43.382658 0.437385 2.268883 0.114118 -0.032635 -51029.600000 0 0 1
30.824836 13.168013 -26.847058 42.945682 0.403723 2.246107 0.096556 -0.015314 -374601.000000 0 0 1
30.909066 13.871613 -25.634578 42.484393 0.421845 2.218539 0.102122 -0.020817 -205326.000000 0 0 1
31.635056 13.116213 -24.748038 42.252541 0.393037 2.196561 0.076470 -0.012989 -271752.000000 0 0 1
-15.781600 -30.958731 -22.839538 41.583007 1.099369 2.152265 0.142634 -0.027807 72907.400000 0 0 1
-15.110500 -29.971231 -23.591538 41.026365 1.103821 2.183442 0.148315 -0.050359 135770.000000 0 0 1
-15.281400 -30.072931 -24.995238 41.984096 1.100654 2.208498 0.118158 -0.040478 59419.800000 0 0 1
-14.498600 -28.958531 -25.729978 41.362274 1.106615 2.242172 0.135764 -0.043844 24166.400000 0 0 1
-15.047700 -27.661731 -25.447358 40.486698 1.072579 2.250466 0.132349 -0.026245 344318.000000 0 0 1
-14.260700 -26.655531 -26.097458 39.936979 1.079543 2.282951 0.126165 -0.028163 2973.110000 0 0 1
-14.627600 -25.182831 -25.735038 38.864301 1.044572 2.294516 0.063094 -0.009848 -350172.000000 0 0 1
-14.021200 -24.694531 -24.571138 37.552028 1.054401 2.284083 0.117609 -0.036225 77577.100000 0 0 1
-14.701200 -23.541831 -24.132338 36.779245 1.012577 2.286489 0.071587 -0.029607 -274344.000000 0 0 1
-14.267000 -22.933531 -22.783838 35.335498 1.014284 2.271540 0.102224 -0.025952 -380707.000000 0 0 1
-12.950600 -22.458431 -22.804938 34.527734 1.047725 2.292257 0.152323 -0.044748 -571396.000000 0 0 1
-12.619000 -21.863931 -21.604938 33.227158 1.047340 2.278669 0.113978 -0.033063 -40673.900000 0 0 1
-11.104600 -21.606631 -21.498638 32.439946 1.096056 2.295243 0.153092 -0.048195 -410821.000000 0 0 1
-10.712000 -20.741831 -22.509838 32.429359 1.094080 2.337992 0.172724 -0.049718 -156965.000000 0 0 1
-9.313600 -20.644431 -22.687538 32.057138 1.146992 2.357065 0.208792 -0.054889 -5021.310000 0 0 1
-8.900700 -19.506731 -23.633538 31.910487 1.142725 2.404789 0.260455 -0.047417 -395208.000000 0 0 1
-9.126700 -18.206831 -23.112638 30.805510 1.106126 2.419276 0.174823 -0.040603 -204816.000000 0 0 1
-8.943100 -17.151931 -23.995838 30.821552 1.090172 2.463134 0.174561 -0.036171 -311777.000000 0 0 1
-7.549400 -16.789231 -24.535638 30.673593 1.148227 2.497916 0.210429 -0.045788 -219329.000000 0 0 1
-7.222000 -17.622531 -25.619668 31.923006 1.181856 2.502346 0.215107 -0.056225 -438424.000000 0 0 1
-6.099600 -17.067231 -26.256518 31.904549 1.227556 2.537418 0.206250 -0.053551 -158523.000000 0 0 1
-5.943200 -17.694331 -27.672398 33.379224 1.246754 2.548168 0.208203 -0.048985 91517.400000 0 0 1
-6.987700 -17.418231 -28.580508 34.191639 1.189280 2.560552 0.221931 -0.046681 1810.850000 0 0 1
-6.753900 -18.163231 -29.761088 35.513948 1.214795 2.564425 0.236917 -0.053578 132072.000000 0 0 1
-7.645300 -17.731431 -30.951138 36.480505 1.163709 2.583808 0.239111 -0.052788 169125.000000 0 0 1
-7.252400 -16.551831 -31.687938 36.478567 1.157830 2.623313 0.187392 -0.045685 -38807.500000 0 0 1
-7.539900 -15.312831 -31.006418 35.393938 1.113254 2.638379 0.155451 -0.042859 -85872.500000 0 0 1
-8.043900 -14.263331 -31.992118 35.939429 1.057301 2.668509 0.109677 -0.036276 153681.000000 0 0 1
-7.071100 -13.857731 -32.961258 36.448343 1.098971 2.700599 0.116881 -0.047681 458773.000000 0 0 1
-7.671100 -12.933331 33.554940 36.770244 1.035446 0.421303 0.094238 -0.034785 69252.700000 0 0 1
-8.070900 -11.522031 -33.439008 36.277595 0.959751 2.743375 0.067540 -0.033358 -76558.700000 0 0 1
-7.045100 -10.572931 -33.275388 35.618419 0.983024 2.776858 0.059249 -0.035181 -466554.000000 0 0 1
-6.622600 -10.114931 32.941287 35.089872 0.991100 0.351756 0.036824 -0.028367 -7450.530000 0 0 1
-5.490500 -9.084531 33.157431 34.815077 1.027163 0.309824 0.063002 -0.035592 -54017.500000 0 0 1
-5.491300 -8.242231 32.034408 33.530465 0.983089 0.299845 0.036849 -0.028453 107982.000000 0 0 1
-4.394300 -7.353131 32.216685 33.336065 1.032136 0.259878 0.044844 -0.041278 -612044.000000 0 0 1
-4.167200 -6.439131 30.976450 31.911886 0.996414 0.242724 0.032928 -0.028816 1266390.000000 0 0 1
-5.294100 -5.460231 30.819210 31.743745 0.800845 0.241940 0.019975 -0.015789 1811430.000000 0 0 1
-6.439000 -6.098331 30.256230 31.529190 0.758232 0.285127 0.011930 -0.007622 631396.000000 0 0 1
-7.658100 -5.126531 29.929680 31.316347 0.589910 0.298697 0.009473 -0.006671 813631.000000 0 0 1
-8.732800 -5.853631 29.392520 31.216135 0.590517 0.343502 0.035448 -0.006057 -307842.000000 0 0 1
-9.930700 -5.083431 29.428350 31.472018 0.473115 0.362357 0.039770 -0.013982 423048.000000 0 0 1
-11.056900 -5.677931 28.557200 31.144946 0.474404 0.410521 0.057190 -0.013518 -336277.000000 0 0 1
-10.755900 -5.656731 27.232210 29.820820 0.484167 0.419741 0.059327 -0.014021 -200397.000000 0 0 1
-11.645500 -6.279831 26.356620 29.491107 0.494552 0.465239 0.070829 -0.025268 -245024.000000 0 0 1
-11.174300 -6.059831 24.883480 27.942336 0.496913 0.472288 0.057449 -0.022250 25697.700000 0 0 1
-10.116000 -6.906931 24.511060 27.401300 0.599070 0.463436 0.052366 -0.017723 294034.000000 0 0 1
-9.401500 -6.454031 23.321070 25.959874 0.601601 0.454796 0.057389 -0.027136 245141.000000 0 0 1
-10.168100 -6.666131 21.970820 25.110646 0.580297 0.505442 0.075272 -0.038326 1242370.000000 0 0 1
-11.442200 -5.947531 21.913220 25.426095 0.479353 0.531910 0.060955 -0.029661 892424.000000 0 0 1
-12.055600 -6.154331 20.687620 24.722276 0.472009 0.579383 0.063005 -0.037199 -434575.000000 0 1 0
-13.243100 -5.174631 20.603320 25.033045 0.372500 0.604045 0.070620 -0.034517 -229996.000000 0 0 1
-12.932400 -3.838031 20.401520 24.458117 0.288497 0.584223 0.057732 -0.028322 501822.000000 0 1 0
-14.137700 -3.066131 20.494320 25.085711 0.213569 0.614656 0.079015 -0.025158 771071.000000 0 0 1
-13.929600 -1.619031 20.127420 24.530962 0.115710 0.608528 0.063999 -0.015447 498553.000000 0 1 0
-12.944900 -0.937031 20.935920 24.632524 0.072260 0.554944 0.062378 -0.020427 448472.000000 0 1 0
-12.953600 0.467969 20.695420 24.419566 -0.036111 0.559551 0.065577 -0.024591 62854.800000 0 1 0
-12.374800 1.048969 19.314420 22.962640 -0.084564 0.571439 0.050121 -0.035825 -70206.100000 0 1 0
-13.135400 0.810969 18.150820 22.419828 -0.061661 0.627347 0.055013 -0.031239 -34178.200000 0 1 0
-14.287500 1.652969 17.994520 23.036227 -0.115181 0.674307 0.054430 -0.027137 403836.000000 0 1 0
-15.407300 0.976969 17.184920 23.101101 -0.063325 0.731908 0.075506 -0.022647 -216062.000000 0 1 0
-16.016400 -0.092031 17.883220 24.007147 0.005746 0.730393 0.076243 -0.016799 78650.300000 0 1 0
-16.915300 -0.725031 17.012120 24.001360 0.042836 0.783003 0.089663 -0.022140 -281498.000000 0 1 0
-16.867500 -2.241031 17.169820 24.173074 0.132087 0.780890 0.081939 -0.028730 -306672.000000 0 1 0
-17.508200 -2.727931 18.324720 25.490666 0.154566 0.768607 0.101803 -0.025099 105224.000000 0 0 1
-17.445300 -4.114331 18.440020 25.715765 0.231610 0.771206 0.123788 -0.035933 102232.000000 0 0 1
-18.380500 -4.655831 19.553020 27.236743 0.248085 0.770028 0.124189 -0.034325 408638.000000 0 0 1
-17.857000 -4.322731 20.862720 27.799489 0.237506 0.722021 0.128853 -0.027786 845995.000000 0 0 1
-18.888600 -4.523531 21.841820 29.228525 0.235058 0.726841 0.119503 -0.033738 34924.800000 0 0 1
-18.966900 -5.989731 22.405870 29.960695 0.305888 0.725991 0.135123 -0.037590 662064.000000 0 0 1
-17.739400 -6.376131 23.046890 29.774159 0.345054 0.685572 0.096560 -0.034708 967217.000000 0 0 1
-16.699400 -6.706831 22.132520 28.525428 0.381903 0.682676 0.104455 -0.027090 -792835.000000 0 0 1
-15.505400 -7.380931 22.789280 28.535012 0.444283 0.645760 0.111585 -0.024400 -547220.000000 0 0 1
-15.882800 -8.544131 23.408350 29.550235 0.493544 0.656465 0.120846 -0.033700 31994.800000 0 0 1
-15.545800 -8.544131 24.772910 30.469184 0.502544 0.621428 0.110161 -0.032123 240007.000000 0 0 1
-16.365700 -9.583731 25.616240 31.872807 0.529763 0.637305 0.109696 -0.029200 55360.800000 0 0 1
-16.111000 -10.997531 25.419420 32.041488 0.598959 0.654540 0.114456 -0.035814 41198.500000 0 0 1
-15.123900 -11.460931 26.331140 32.456344 0.648476 0.624460 0.119271 -0.030595 28923.400000 0 0 1
-15.054100 -12.975631 26.200740 32.885738 0.711381 0.648947 0.117935 -0.035045 -31685.000000 0 0 1
-16.193300 -13.548331 26.801910 34.119242 0.696700 0.667234 0.098784 -0.040856 80779.800000 0 0 1
-16.525500 -14.845531 26.481310 34.565037 0.731898 0.697999 0.105910 -0.031533 9996.040000 0 0 1
-15.672200 -15.930231 27.219410 35.217701 0.793563 0.687413 0.108593 -0.028080 -124670.000000 0 0 1
-14.345900 -15.948131 26.758860 34.295544 0.838238 0.675742 0.083568 -0.034021 -439836.000000 0 0 1
-13.600000 -16.860131 27.514210 35.017936 0.892022 0.666941 0.092417 -0.031313 -18624.500000 0 0 1
-12.124400 -16.948331 27.059130 34.153236 0.949826 0.656250 0.106485 -0.035322 -63947.100000 0 0 1
-11.241300 -17.521231 27.993580 34.885540 1.000362 0.639422 0.137032 -0.043725 -250490.000000 0 0 1
-10.046900 -17.845331 27.294080 34.122762 1.058028 0.643703 0.133635 -0.042829 -306408.000000 0 0 1
-9.091400 -18.509631 28.277850 34.998526 1.114237 0.630093 0.176701 -0.054487 -660024.000000 0 0 1
-9.456700 -19.813131 28.687940 36.124608 1.125477 0.653208 0.176316 -0.046679 -57747.800000 0 0 1
-8.702500 -20.282731 29.770120 37.059179 1.165492 0.637959 0.205586 -0.052668 -186241.000000 0 0 1
-9.139100 -21.646831 30.325150 38.363045 1.171307 0.659207 0.175996 -0.052371 -22812.900000 0 0 1
-8.997600 -22.628331 29.310840 38.106739 1.192339 0.693244 0.204507 -0.053057 284211.000000 0 0 1
-9.423600 -23.903031 29.877340 39.405769 1.195263 0.710253 0.161830 -0.046139 -114252.000000 0 0 1
-9.380800 -25.135431 28.937500 39.460971 1.213596 0.747605 0.150272 -0.029263 317384.000000 0 0 1
-10.484300 -25.265831 28.034480 39.169055 1.177461 0.773127 0.123515 -0.031112 588462.000000 0 0 1
-10.087400 -26.251131 27.069470 39.033752 1.203927 0.804476 0.104352 -0.027282 -915476.000000 0 0 1
-11.305500 -26.811531 26.403630 39.291529 1.171753 0.833900 0.089147 -0.024591 -616245.000000 0 0 1
-11.741400 -26.115131 25.247250 38.174392 1.148274 0.848158 0.090826 -0.027097 533636.000000 0 0 1
-12.350500 -24.808231 25.400490 37.592128 1.108879 0.828901 0.077251 -0.016100 -374883.000000 0 0 1
-12.652200 -24.051931 24.095900 36.320600 1.086537 0.845413 0.097081 -0.036510 52068.400000 0 0 1
-13.855200 -24.516631 23.518350 36.689843 1.056408 0.874990 0.081817 -0.025796 98034.300000 0 0 1
-13.872100 -24.085031 22.190520 35.566039 1.048238 0.897042 0.101804 -0.033675 283062.000000 0 0 1
-15.239200 -24.100531 21.449620 35.681298 1.006952 0.925864 0.104171 -0.030184 273065.000000 0 0 1
-15.860300 -25.330631 21.057720 36.559781 1.011384 0.956993 0.106074 -0.025408 943466.000000 0 0 1
-16.761100 -25.176731 19.926520 36.219725 0.983437 0.988245 0.105468 -0.027156 484922.000000 0 0 1
-17.343000 -26.566831 19.465820 37.222229 0.992451 1.020474 0.104935 -0.022486 179837.000000 0 0 1
-16.324900 -27.429231 18.986620 37.139694 1.033940 1.034191 0.109637 -0.029330 168512.000000 0 0 1
-16.752100 -28.738231 18.630420 38.126256 1.043030 1.060254 0.111609 -0.028935 -255057.000000 0 0 1
-15.888400 -29.380931 17.563920 37.738199 1.075065 1.086693 0.121427 -0.035783 -79595.400000 0 0 1
-16.063400 -28.790031 16.295720 36.775661 1.061870 1.111730 0.115606 -0.043066 -634485.000000 0 0 1
-14.925000 -28.967931 15.537320 36.101316 1.095043 1.125882 0.116924 -0.044716 -477316.000000 0 0 1
-15.104800 -28.512631 14.066920 35.199480 1.083627 1.159678 0.106721 -0.042875 -121059.000000 0 0 1
-15.128700 -27.096631 13.871420 33.992960 1.061585 1.150460 0.111032 -0.044624 -222612.000000 0 0 1
-15.343500 -26.690931 12.564320 33.251932 1.049069 1.183321 0.116841 -0.045414 -37075.400000 0 0 1
-14.131600 -26.646231 11.599220 32.315100 1.083171 1.203663 0.106320 -0.043288 232565.000000 0 0 1
-14.447600 -25.916931 10.401020 31.442037 1.062245 1.233645 0.094270 -0.042672 574218.000000 0 0 1
-13.338000 -25.998731 9.495420 30.724571 1.096783 1.256603 0.096547 -0.035541 581923.000000 0 0 1
-13.708200 -25.418231 8.129020 30.001370 1.076201 1.296411 0.098302 -0.037036 256181.000000 0 0 1
-14.599500 -26.201031 7.317120 30.873609 1.062434 1.331517 0.099265 -0.045596 307160.000000 0 0 1
-14.880500 -25.474331 6.158620 30.138007 1.042122 1.364999 0.092156 -0.043556 -29550.900000 0 0 1
-15.879900 -26.193731 5.239820 31.076334 1.025795 1.401376 0.080396 -0.045260 430486.000000 0 0 1
-15.184800 -27.150731 4.429420 31.422287 1.060858 1.429361 0.059059 -0.031254 374114.000000 0 0 1
-16.096400 -27.490131 3.434520 32.040558 1.041082 1.463397 0.113839 -0.032169 -211831.000000 0 0 1
-15.607100 -28.708231 2.607320 32.780211 1.072845 1.491173 0.115864 -0.031146 106807.000000 0 0 1
-14.409200 -28.427031 1.903620 31.927182 1.101657 1.511137 0.068622 -0.015207 -23801.600000 0 0 1
-14.007300 -29.536831 1.125820 32.709270 1.127975 1.536371 0.073342 -0.025283 -488116.000000 0 0 1
-12.669600 -29.303131 0.433520 31.927734 1.162705 1.557218 0.065923 -0.024351 -413166.000000 0 0 1
-12.554900 -28.538331 -0.748180 31.186883 1.156347 1.594789 0.085094 -0.023580 -114681.000000 0 0 1
-12.709100 -27.132431 -0.611780 29.967722 1.132739 1.591212 0.077137 -0.025153 -293058.000000 0 0 1
-12.326600 -26.433231 -1.940080 29.230544 1.134446 1.637217 0.089897 -0.034993 -132082.000000 0 0 1
-10.938100 -26.468931 -2.143180 28.720021 1.178926 1.645489 0.108523 -0.036667 -609131.000000 0 0 1
-10.621500 -25.908331 -3.368180 28.202882 1.181729 1.690509 0.120681 -0.036199 -345654.000000 0 0 1
-9.109200 -25.811731 -3.540880 27.600015 1.231532 1.699444 0.123537 -0.045676 -324522.000000 0 0 1
-8.765700 -25.067831 -4.709780 26.970645 1.234407 1.746322 0.118594 -0.042580 1507400.000000 0 0 1
-7.325100 -25.215631 -4.970380 26.724330 1.288079 1.757873 0.125969 -0.040679 1847620.000000 0 0 1
-6.903300 -24.178731 -5.913480 25.830909 1.292684 1.801775 0.103880 -0.041487 -544944.000000 0 0 1
-7.122800 -24.348331 -7.280980 26.392957 1.286200 1.850289 0.117198 -0.038615 -197481.000000 0 0 1
-6.519900 -23.307231 -8.017080 25.495288 1.298031 1.890677 0.115211 -0.032309 -158802.000000 0 0 1
-6.833800 -23.367531 -9.516380 26.140081 1.286282 1.943412 0.111069 -0.037570 319922.000000 0 0 1
-5.889300 -24.190131 -10.214580 26.910666 1.331984 1.960132 0.097730 -0.039786 324265.000000 0 0 1
-6.137000 -24.133431 -11.612080 27.475911 1.321780 2.007139 0.080290 -0.021767 634861.000000 0 0 1
-7.354500 -24.980931 -12.135080 28.729702 1.284481 2.006875 0.082708 -0.023824 653277.000000 0 0 1
-7.620200 -24.679731 -13.468780 29.130132 1.271319 2.051458 0.100217 -0.025359 148467.000000 0 0 1
-8.762000 -25.405631 -13.915680 30.263260 1.238686 2.048590 0.121316 -0.030689 -466235.000000 0 0 1
-8.978800 -25.467431 -15.425980 31.099353 1.231843 2.089808 0.125693 -0.032489 67790.800000 0 0 1
-7.920200 -25.987931 -16.201280 31.632003 1.274974 2.108517 0.115338 -0.042819 -47095.700000 0 0 1
-6.719700 -25.262831 -16.207280 30.757778 1.310824 2.125784 0.113714 -0.034620 666665.000000 0 0 1
-5.486500 -25.994631 -16.957580 31.517964 1.362786 2.138893 0.114931 -0.026911 1284580.000000 0 0 1
-5.428300 -25.832131 -18.382880 32.166686 1.363672 2.179114 0.180976 -0.041444 -681219.000000 0 0 1
-4.244300 -26.375531 -18.809780 32.672474 1.411246 2.184265 0.163546 -0.040468 -758832.000000 0 0 1
-26.482120 14.596613 -4.501938 30.571740 -0.503754 1.718592 0.186310 -0.051872 -107081.000000 0 0 1
-25.866800 13.582313 -3.740838 29.454447 -0.483515 1.698144 0.195512 -0.053748 498825.000000 0 0 1
-24.531500 13.379513 -4.185038 28.254565 -0.499306 1.719462 0.205453 -0.045682 14800.300000 0 0 1
-23.964500 11.945313 -4.078038 27.085387 -0.462414 1.721933 0.201410 -0.045700 -2468.280000 0 0 1
-24.614800 10.961413 -4.885538 27.384475 -0.418954 1.750162 0.201739 -0.025035 690143.000000 0 0 1
-25.967520 10.662913 -4.534838 28.435446 -0.389632 1.730959 0.226283 -0.036188 184025.000000 0 0 1
-26.570730 9.782213 -5.663638 28.875114 -0.352758 1.768219 0.233936 -0.025960 -133102.000000 0 0 1
-26.837970 10.521413 -6.863138 29.632405 -0.373621 1.804528 0.275705 -0.038894 214939.000000 0 0 1
-27.302640 9.723613 -7.948238 30.052576 -0.342136 1.838459 0.269458 -0.033481 -91861.200000 0 0 1
-27.625020 10.509013 -9.187338 30.951386 -0.363511 1.872169 0.244586 -0.027978 -433108.000000 0 0 1
-26.546890 11.157413 -9.785038 30.413356 -0.397875 1.898358 0.238456 -0.020788 -63123.000000 0 0 1
-26.922030 11.688813 -11.064338 31.366282 -0.409614 1.931301 0.230402 -0.021405 670337.000000 0 0 1
-25.786420 12.609413 -11.685038 30.991562 -0.454804 1.957394 0.208661 -0.017923 549502.000000 0 0 1
-25.678070 13.885313 -11.087738 31.226642 -0.495711 1.933789 0.189543 -0.027257 -199216.000000 0 0 1
-24.625500 14.550213 -11.686838 30.898320 -0.533672 1.958686 0.159657 -0.027789 -591028.000000 0 0 1
-24.562400 16.057713 -11.368338 31.470634 -0.579008 1.940390 0.160116 -0.037793 -128739.000000 0 0 1
-23.864000 16.336513 -10.164038 30.654198 -0.600293 1.908764 0.147708 -0.030461 157977.000000 0 0 1
-23.900700 17.691813 -9.828338 31.318365 -0.637213 1.890010 0.102492 -0.022802 -266572.000000 0 0 1
-22.786500 18.151813 -8.886738 30.457955 -0.672667 1.866874 0.105021 -0.023532 -359389.000000 0 0 1
-22.914200 17.687113 -7.539238 29.912116 -0.657361 1.825591 0.132371 -0.035750 299907.000000 0 0 1
-23.776300 18.564113 -6.808938 30.924107 -0.662912 1.792798 0.131957 -0.033826 -151500.000000 0 0 1
-24.101800 17.932313 -5.441538 30.529903 -0.639665 1.749990 0.140960 -0.029615 90852.500000 0 0 1
-23.059400 17.808713 -4.471038 29.476709 -0.657619 1.723064 0.128120 -0.040265 578152.000000 0 0 1
-23.626100 17.315913 -3.240138 29.470866 -0.632476 1.680963 0.132505 -0.041485 384024.000000 0 0 1
-22.595900 17.024013 -2.102038 28.369179 -0.645681 1.644960 0.135398 -0.055483 113780.000000 0 0 1
-21.884000 18.212013 -1.678238 28.520228 -0.694073 1.629674 0.119497 -0.053138 732500.000000 0 0 1
-20.833600 17.718313 -0.823338 27.361568 -0.704766 1.600892 0.175335 -0.075553 239837.000000 0 0 1
-20.099200 18.826013 -0.138638 27.539351 -0.752701 1.575831 0.134780 -0.057068 -299965.000000 0 0 1
-20.975900 19.503113 0.727862 28.651171 -0.749030 1.545389 0.123950 -0.054002 168292.000000 0 0 1
-20.763200 20.901113 0.598562 29.467360 -0.788708 1.550482 0.135883 -0.051932 104485.000000 0 0 1
-21.764000 21.746713 1.426762 30.799787 -0.785001 1.524456 0.107168 -0.040447 27380.700000 0 0 1
-21.768900 21.493013 2.814262 30.720591 -0.779021 1.479059 0.132082 -0.043273 647048.000000 0 0 1
-23.093300 21.636613 3.329362 31.820248 -0.752843 1.465974 0.114769 -0.035175 518437.000000 0 0 1
-23.192900 21.394113 4.849462 31.923909 -0.745077 1.418299 0.141064 -0.033304 18375.900000 0 0 1
-22.404000 22.355413 5.560762 32.134495 -0.784313 1.396874 0.130009 -0.027810 699919.000000 0 0 1
-21.509100 21.761413 6.508962 31.282057 -0.791229 1.361192 0.123268 -0.029609 42713.700000 0 0 1
-22.117300 21.439613 7.907862 31.801985 -0.769841 1.319500 0.098736 -0.035862 -533304.000000 0 0 1
-23.154400 20.476013 7.809062 31.880634 -0.724087 1.323331 0.109477 -0.027985 483809.000000 0 0 1
-23.620300 20.002713 9.057362 32.250007 -0.702659 1.286118 0.129425 -0.031276 51646.600000 0 0 1
-24.220400 20.982513 10.134462 33.609537 -0.713890 1.264494 0.137528 -0.031972 -272256.000000 0 0 1
-25.491490 21.494113 9.747462 34.739401 -0.700526 1.286390 0.157056 -0.031348 789162.000000 0 0 1
-25.964930 22.602913 10.589362 36.016717 -0.716285 1.272374 0.157254 -0.029134 396484.000000 0 0 1
-27.500900 22.787313 10.751962 37.298336 -0.691940 1.278378 0.158792 -0.026635 263596.000000 0 0 1
-27.963730 23.826513 11.626762 38.533810 -0.705683 1.264291 0.162002 -0.032153 42858.000000 0 0 1
-27.596300 25.155013 11.409562 39.044956 -0.739152 1.274253 0.149249 -0.028296 -406780.000000 0 0 1
-27.831050 26.078813 12.669362 40.189359 -0.752907 1.250085 0.172761 -0.038824 -225455.000000 0 0 1
-27.130410 25.674213 13.800262 39.820492 -0.757828 1.216893 0.136844 -0.033693 -69216.300000 0 0 1
-27.478780 26.424213 14.918162 40.937440 -0.765836 1.197793 0.164802 -0.037472 848690.000000 0 0 1
-26.308500 26.287713 15.995262 40.484929 -0.785003 1.164629 0.130413 -0.037781 814821.000000 0 0 1
-26.095850 24.995913 16.512162 39.729593 -0.763873 1.142179 0.140286 -0.042587 18774.000000 0 0 1
-25.101330 25.026313 17.503562 39.531858 -0.783902 1.112110 0.106974 -0.034688 -242618.000000 0 0 1
-24.641100 23.673713 18.090362 38.663804 -0.765378 1.083896 0.108929 -0.026846 -590802.000000 0 0 1
-23.672500 23.795413 19.078162 38.608098 -0.787988 1.053940 0.106694 -0.035353 -104624.000000 0 0 1
-23.261100 22.556013 19.570762 37.853233 -0.770010 1.027434 0.119482 -0.040799 -498692.000000 0 0 1
-21.785600 22.526613 19.997762 37.174873 -0.802119 1.002808 0.120052 -0.042427 -792223.000000 0 0 1
-20.946000 22.867913 18.880262 36.306207 -0.829235 1.023912 0.123822 -0.047706 890252.000000 0 0 1
-19.565100 22.521613 19.035662 35.388877 -0.855531 1.002853 0.107294 -0.050515 796637.000000 0 0 1
-19.232600 20.972813 19.073462 34.257098 -0.828654 0.980299 0.103955 -0.040270 -819100.000000 0 0 1
-19.584400 20.217413 20.227962 34.662126 -0.801301 0.947672 0.117082 -0.042398 196423.000000 0 0 1
-18.919700 20.615413 21.448162 35.255836 -0.828263 0.916807 0.110667 -0.031262 111586.000000 0 0 1
-19.726800 20.364913 22.793762 36.379004 -0.801313 0.893660 0.100581 -0.026491 -636273.000000 0 0 1
-20.795900 21.222813 22.916562 37.523940 -0.795558 0.913829 0.109454 -0.031239 -700092.000000 0 0 1
-21.415400 20.957213 24.180662 38.503617 -0.774585 0.891803 0.110257 -0.023920 196234.000000 0 0 1
-22.734400 21.751813 24.290362 39.749415 -0.763314 0.913363 0.108767 -0.027206 -378181.000000 0 0 1
-22.356000 23.143113 24.393662 40.378771 -0.802696 0.922134 0.120847 -0.035416 -357881.000000 0 0 1
-23.391300 24.006413 24.618862 41.587849 -0.798375 0.937292 0.110631 -0.039086 -311656.000000 0 0 1
-24.456300 24.206613 23.461862 41.647685 -0.780267 0.972372 0.090746 -0.037902 771687.000000 0 0 1
-25.481090 23.219713 23.344262 41.634068 -0.738997 0.975564 0.073633 -0.035465 266095.000000 0 0 1
-26.116380 23.145413 22.114362 41.313684 -0.725161 1.005958 0.072652 -0.027211 -82392.100000 0 0 1
-27.362970 22.232513 22.062762 41.590651 -0.682319 1.011637 0.094140 -0.017195 67470.300000 0 0 1
-28.538550 22.804013 22.605062 42.958825 -0.674167 1.016667 0.077968 -0.031240 144580.000000 0 0 1
-29.633540 21.979313 22.269962 43.095105 -0.638170 1.027731 0.091606 -0.026586 1147950.000000 0 0 1
-31.082260 22.611013 22.417362 44.496100 -0.628917 1.042798 0.114994 -0.016106 180905.000000 0 0 1
-31.396210 23.524313 21.379462 44.678817 -0.643035 1.071834 0.121924 -0.027278 -349489.000000 0 0 1
-32.752910 23.834413 21.272362 45.753096 -0.629078 1.087232 0.133458 -0.027104 -432065.000000 0 0 1
-33.645470 22.760513 20.660762 45.573300 -0.594766 1.100274 0.135900 -0.038357 -1286520.000000 0 0 1
-33.771640 21.584413 21.468562 45.467678 -0.568695 1.079043 0.123317 -0.035016 96384.700000 0 0 1
-34.336998 20.492213 20.744162 45.047536 -0.538061 1.092244 0.128000 -0.028699 674295.000000 0 0 1
-35.898369 20.470513 20.587862 46.169198 -0.518246 1.108592 0.142602 -0.033613 415239.000000 0 0 1
-36.245580 19.436113 19.716362 45.609643 -0.492213 1.123771 0.123038 -0.019540 1216740.000000 0 0 1
-37.676260 19.395213 19.463462 46.631548 -0.475406 1.140227 0.152073 -0.037470 1416940.000000 0 0 1
37.627036 18.729413 18.150062 45.782196 0.461858 1.163156 0.125352 -0.039201 -19567.900000 0 0 1
37.690566 17.312813 18.224262 45.303819 0.430594 1.156804 0.132277 -0.040442 239562.000000 0 0 1
36.705086 16.719313 17.397862 43.925896 0.427422 1.163560 0.153730 -0.055013 59258.100000 0 0 1
36.810316 15.190313 17.400462 43.457117 0.391376 1.158837 0.166940 -0.067258 -307856.000000 0 0 1
36.022286 14.608713 16.405862 42.192083 0.385279 1.171427 0.197981 -0.071636 -334723.000000 0 0 1
36.425156 13.302613 16.120762 41.995601 0.350155 1.176815 0.192612 -0.072015 183682.000000 0 0 1
35.365016 12.430613 15.386362 40.520916 0.338006 1.181309 0.181965 -0.078763 65291.600000 0 0 1
35.316836 12.823313 14.032262 40.107613 0.348291 1.213369 0.179588 -0.073392 21891.300000 0 0 1
34.416296 12.091913 13.261362 38.814424 0.337870 1.222113 0.184632 -0.060278 -414826.000000 0 0 1
34.380906 12.666813 11.816162 38.498267 0.352995 1.258834 0.183669 -0.056878 -409047.000000 0 0 1
35.634866 12.615413 11.193162 39.424348 0.340251 1.282922 0.180813 -0.048379 -76136.100000 0 0 1
35.633166 12.471413 9.788262 39.000881 0.336670 1.317109 0.183949 -0.041041 479614.000000 0 0 1
37.059656 12.623313 9.129062 40.200820 0.328295 1.341711 0.130628 -0.019109 694812.000000 0 0 1
-37.742300 11.575313 9.453762 40.593629 -0.297586 1.335750 0.198292 -0.044808 1717470.000000 0 0 1
-36.414360 11.664713 8.832262 39.243853 -0.310005 1.343791 0.222516 -0.042338 1708310.000000 0 0 1
-36.243210 11.223413 7.373762 38.651102 -0.300304 1.378842 0.181053 -0.047933 -653059.000000 0 0 1
-36.858410 12.096013 6.472362 39.328710 -0.317101 1.405473 0.165127 -0.048126 9455.610000 0 0 1
-36.401910 11.980813 5.114862 38.662653 -0.317959 1.438113 0.187756 -0.055537 -455508.000000 0 0 1
-37.101070 12.847613 4.058362 39.471773 -0.333363 1.467798 0.190576 -0.062491 521536.000000 0 0 1
37.270266 12.305813 3.859462 39.438575 0.318908 1.472779 0.172345 -0.055587 1019210.000000 0 0 1
36.289326 13.317813 3.893962 38.851541 0.351730 1.470401 0.135992 -0.056545 -7623.000000 0 0 1
35.834556 13.817213 5.334162 38.774787 0.368017 1.432791 0.132529 -0.040896 -1402600.000000 0 0 1
34.900056 14.828613 5.160062 38.269151 0.401776 1.435548 0.113892 -0.029465 -253679.000000 0 0 1
34.466046 15.337313 6.392762 38.262369 0.418686 1.402932 0.089683 -0.023747 -597282.000000 0 0 1
33.219936 14.686413 6.950362 36.980568 0.416262 1.381726 0.145000 -0.035402 -1057480.000000 0 0 1
33.434136 13.472213 7.609362 36.840798 0.383045 1.362752 0.194512 -0.032976 130265.000000 0 0 1
32.227906 12.970413 8.165662 35.686798 0.382624 1.339936 0.200011 -0.034195 83333.500000 0 0 1
31.878406 11.617713 7.539062 34.756891 0.349479 1.352150 0.206004 -0.037925 -236022.000000 0 0 1
31.494666 11.723313 6.190962 34.171305 0.356341 1.388616 0.188321 -0.047141 244299.000000 0 0 1
31.686936 10.522213 5.436062 33.827942 0.320611 1.409399 0.199775 -0.043575 -329663.000000 0 0 1
31.221556 10.615713 3.984362 33.216774 0.327750 1.450557 0.171971 -0.041679 251108.000000 0 0 1
29.810406 10.639713 3.813562 31.881140 0.342820 1.450891 0.163364 -0.038993 429458.000000 0 0 1
29.529406 11.098813 2.522362 31.646987 0.359521 1.491009 0.187780 -0.048386 658049.000000 0 0 1
27.996206 10.969913 2.201362 30.149172 0.373448 1.497716 0.210412 -0.038737 545319.000000 0 0 1
27.576006 9.733213 1.726262 29.294223 0.339309 1.511834 0.194372 -0.034551 -330484.000000 0 0 1
26.181806 9.588513 1.694862 27.933835 0.351058 1.510085 0.184787 -0.036511 -369910.000000 0 0 1
25.815406 8.081113 1.617562 27.099005 0.303372 1.511070 0.202210 -0.038999 -1424.600000 0 0 1
26.160706 7.282813 2.742862 27.293684 0.271513 1.470132 0.209875 -0.033530 -551621.000000 0 0 1
27.510006 6.962513 2.663962 28.502170 0.247885 1.477194 0.254696 -0.036448 -1084110.000000 0 0 1
27.955706 6.195213 3.894362 28.897547 0.218084 1.435621 0.241984 -0.045279 434120.000000 0 0 1
29.387106 6.167513 3.942762 30.285072 0.206869 1.440237 0.249331 -0.040351 832337.000000 0 0 1
29.887706 5.569813 5.123962 30.831036 0.184245 1.403827 0.234285 -0.027415 675266.000000 0 0 1
31.431416 5.706313 5.335062 32.387634 0.179592 1.405317 0.208252 -0.031399 647304.000000 0 0 1
31.898436 6.984213 5.810362 33.166998 0.215550 1.394703 0.221394 -0.037355 1593980.000000 0 0 1
33.273436 6.763513 6.282162 34.530164 0.200538 1.387845 0.213092 -0.036397 1884770.000000 0 0 1
33.788096 7.921513 7.220562 35.447459 0.230288 1.365663 0.179675 -0.045224 87747.400000 0 0 1
33.109176 7.930513 8.452962 35.079383 0.235097 1.327435 0.202068 -0.045049 218054.000000 0 0 1
33.704606 8.865113 9.343362 36.081700 0.257198 1.308861 0.229780 -0.050424 -27369.600000 0 0 1
33.267506 8.744113 10.802462 36.053844 0.257029 1.266502 0.222163 -0.048836 1637540.000000 0 0 1
31.873636 9.143413 11.042862 34.949613 0.279363 1.249323 0.221203 -0.050603 1752170.000000 0 0 1
31.610436 8.902313 12.387062 35.098578 0.274516 1.210104 0.209414 -0.048024 -694708.000000 0 0 1
30.176906 9.359813 12.626262 34.024612 0.300756 1.190612 0.176758 -0.044057 -817969.000000 0 0 1
29.976006 10.776613 12.755762 34.313347 0.345120 1.189910 0.212013 -0.060658 91671.500000 0 0 1
30.081406 11.646713 11.612062 34.283770 0.369400 1.225257 0.215903 -0.061332 -827977.000000 0 0 1
28.887106 11.728113 10.675162 32.954099 0.385667 1.240905 0.172328 -0.043129 -601248.000000 0 0 1
29.024706 12.796413 9.774762 33.192284 0.415244 1.271876 0.145591 -0.025648 1238080.000000 0 0 1
27.867206 12.862313 8.906462 31.958494 0.432423 1.288368 0.139353 -0.028009 833067.000000 0 0 1
28.043306 14.108313 7.959262 32.385512 0.466117 1.322486 0.141282 -0.031714 -142.284000 0 0 1
28.055106 15.314713 8.705762 33.127326 0.499674 1.304876 0.144310 -0.023131 317124.000000 0 0 1
28.160006 16.485913 7.925462 33.579521 0.529643 1.332528 0.140777 -0.019987 -1008010.000000 0 0 1
27.485806 17.667813 8.595862 33.786240 0.571295 1.313549 0.152660 -0.034491 1443220.000000 0 0 1
26.070206 17.889913 8.358062 32.704156 0.601418 1.312364 0.163145 -0.039291 1796680.000000 0 0 1
25.123806 16.876413 8.756862 31.507167 0.591500 1.289155 0.181979 -0.033876 -27957.600000 0 0 1
23.720606 17.482413 8.979062 30.804634 0.635138 1.275018 0.175703 -0.047820 -338029.000000 0 0 1
23.114306 18.011713 7.860262 30.339358 0.661957 1.308729 0.165720 -0.044987 -124925.000000 0 0 1
22.196206 19.027613 8.228862 30.371628 0.708686 1.296428 0.204592 -0.052584 -79806.100000 0 0 1
21.324906 19.546113 7.090862 29.783930 0.741904 1.330411 0.168901 -0.047540 99764.200000 0 0 1
22.116206 20.060213 6.020962 30.459657 0.736689 1.371816 0.111175 -0.030785 25380.200000 0 0 1
21.294806 20.495913 4.970262 29.970898 0.766284 1.404190 0.138361 -0.036586 25982.800000 0 0 1
18.872800 16.773513 32.344003 41.032522 0.726574 0.662832 0.146328 -0.039854 -79085.700000 0 0 1
17.995900 17.492913 31.522287 40.292791 0.771226 0.672397 0.135844 -0.038957 -57797.000000 0 0 1
17.319000 16.681813 30.634440 38.944827 0.766660 0.665495 0.158402 -0.047085 34672.300000 0 0 1
16.771200 17.431613 29.373550 38.051803 0.804705 0.688916 0.162439 -0.053488 632305.000000 0 0 1
17.831600 17.685713 28.427600 37.932557 0.781291 0.723603 0.159661 -0.048206 351049.000000 0 0 1
17.459700 18.018313 27.126590 36.950678 0.801142 0.746412 0.145926 -0.046808 -312490.000000 0 0 1
18.629700 18.525413 26.273390 37.155722 0.782591 0.785386 0.119953 -0.040934 -203416.000000 0 0 1
19.266400 19.709113 26.614160 38.313925 0.796756 0.802885 0.116017 -0.035988 -53768.700000 0 0 1
20.059400 20.171313 25.560450 38.243928 0.788180 0.838804 0.112265 -0.035655 -2672.870000 0 0 1
20.850900 21.527013 25.677360 39.465164 0.801351 0.862378 0.139614 -0.037769 123748.000000 0 0 1
19.963300 22.628513 25.704770 39.639856 0.847892 0.865240 0.112834 -0.044993 18556.900000 0 0 1
20.571800 23.795413 26.165330 40.915097 0.857928 0.876945 0.119830 -0.040413 -606641.000000 0 0 1
19.884500 25.095413 25.905700 41.185901 0.900734 0.890537 0.132779 -0.038947 -275637.000000 0 0 1
19.969200 25.360813 24.502680 40.525561 0.903783 0.921504 0.130303 -0.043324 44146.900000 0 0 1
19.063600 26.394513 24.204870 40.570518 0.945289 0.931523 0.128840 -0.051462 -170517.000000 0 0 1
19.323100 27.223313 22.924060 40.496957 0.953524 0.969067 0.117617 -0.047421 1071460.000000 0 0 1
20.597600 27.930613 22.922580 41.591164 0.935372 0.987066 0.134712 -0.045417 1059710.000000 0 0 1
20.651100 28.858213 21.870320 41.684233 0.949673 1.018473 0.128081 -0.042246 -122103.000000 0 0 1
21.962200 29.657013 21.771620 42.847171 0.933377 1.037793 0.136958 -0.031880 194962.000000 0 0 1
23.070000 28.840413 21.380620 42.674644 0.896105 1.046026 0.146800 -0.035708 642723.000000 0 0 1
24.313800 29.485413 21.132920 43.670937 0.881232 1.065676 0.141123 -0.038830 469921.000000 0 0 1
24.493100 29.992813 19.649520 43.423317 0.885996 1.101217 0.131079 -0.033920 129669.000000 0 0 1
23.474000 30.865813 19.144620 43.246313 0.920598 1.112202 0.103805 -0.030498 474223.000000 0 0 1
23.680200 30.954113 17.714520 42.810200 0.917758 1.144181 0.109824 -0.014733 -121677.000000 0 0 1
22.980200 31.972413 16.797720 42.807572 0.947596 1.167556 0.113846 -0.026305 -95232.200000 0 0 1
23.651000 33.242913 16.938220 44.174250 0.952420 1.177277 0.112917 -0.028987 470610.000000 0 0 1
23.624100 -33.493631 15.863720 43.949733 -0.956501 1.201508 0.103864 -0.032674 -420928.000000 0 0 1
24.546500 -33.774731 14.644720 44.246254 -0.942328 1.233452 0.091973 -0.032694 -177089.000000 0 0 1
24.282100 32.772813 13.801020 43.059794 0.933130 1.244530 0.121375 -0.031341 -38303.000000 0 0 1
23.210000 32.908213 12.895520 42.284146 0.956525 1.260886 0.081339 -0.035579 -532153.000000 0 0 1
22.804000 31.597113 12.224920 40.839303 0.945647 1.266793 0.090723 -0.046158 172788.000000 0 0 1
23.828900 31.093713 11.327820 40.779345 0.916908 1.289311 0.115396 -0.059086 275142.000000 0 0 1
23.380100 30.026413 10.567220 39.495325 0.909209 1.299940 0.101002 -0.057883 -144958.000000 0 0 1
24.515500 29.140613 9.846620 39.333713 0.871385 1.317770 0.096536 -0.058238 1007570.000000 0 0 1
25.527600 28.585613 10.654720 39.778370 0.841850 1.299633 0.113960 -0.053872 -23673.600000 0 0 1
26.470900 29.568713 11.041620 41.193867 0.840621 1.299438 0.113961 -0.052333 205224.000000 0 0 1
27.943900 28.996813 11.218920 41.803599 0.803887 1.299094 0.121624 -0.049990 1336560.000000 0 0 1
28.268300 28.217113 12.380120 41.815902 0.784492 1.270229 0.131504 -0.044111 198394.000000 0 0 1
29.662400 28.009113 12.571520 42.689712 0.756739 1.271879 0.114842 -0.032095 514154.000000 0 0 1
29.985700 26.896113 13.582120 42.509024 0.731136 1.245582 0.108938 -0.045144 31079.100000 0 0 1
31.171100 27.118113 14.306720 43.723126 0.715978 1.237445 0.077847 -0.044071 -159398.000000 0 0 1
31.394700 26.028013 15.176120 43.513208 0.692210 1.214537 0.083430 -0.038517 -9945.020000 0 0 1
32.525200 26.245313 16.194320 44.821436 0.678948 1.201127 0.095209 -0.045142 -209678.000000 0 0 1
33.815400 26.144313 15.657620 45.521066 0.658152 1.219661 0.112382 -0.037128 184337.000000 0 0 1
34.827900 26.086813 16.683920 46.603193 0.642874 1.204672 0.098832 -0.035324 75429.500000 0 0 1
36.279400 26.060213 16.265620 47.538405 0.622916 1.221584 0.121562 -0.047458 -646342.000000 0 0 1
36.674200 27.344013 15.785720 48.392985 0.640674 1.238517 0.116492 -0.033745 449675.000000 0 0 1
-37.624307 27.430613 15.558120 49.092587 -0.629968 1.248322 0.149608 -0.039839 979578.000000 0 0 1
-37.192207 28.715613 14.754120 49.249678 -0.657487 1.266546 0.106413 -0.035985 188837.000000 0 0 1
-37.833707 29.912413 15.129120 50.547325 -0.669001 1.266831 0.098987 -0.036305 72026.300000 0 0 1
-37.582307 30.909113 14.137820 50.672290 -0.688274 1.288039 0.079541 -0.012427 378495.000000 0 0 1
36.909300 31.891013 14.151920 50.789861 0.712587 1.288422 0.062049 -0.017477 -610683.000000 0 0 1
37.078600 33.105413 13.435220 51.490738 0.728848 1.306816 0.024064 -0.018431 384347.000000 0 0 1
35.941500 -33.731431 13.568920 51.124519 -0.753688 1.302168 0.027176 -0.015933 1534390.000000 0 0 1
34.512800 33.487913 13.035220 49.824599 0.770328 1.306094 0.079635 -0.018242 855895.000000 0 0 1
33.950500 32.437813 13.800320 48.941772 0.762617 1.284945 0.066623 -0.026997 826655.000000 0 0 1
32.622400 32.058113 13.343520 47.644445 0.776674 1.286935 0.093809 -0.022094 627621.000000 0 0 1
32.024100 30.921113 14.131420 46.704981 0.767877 1.263411 0.126954 -0.031227 -399606.000000 0 0 1
31.284000 31.371713 15.245720 46.854082 0.786798 1.239375 0.121095 -0.029475 86179.700000 0 0 1
30.907200 30.311713 16.101920 46.187951 0.775671 1.214701 0.117214 -0.030688 142194.000000 0 0 1
29.820300 30.683413 17.158020 46.099022 0.799663 1.189419 0.106727 -0.028681 217079.000000 0 0 1
29.534000 29.620213 18.114120 45.582184 0.786856 1.162120 0.086721 -0.022503 1055850.000000 0 0 1
30.513800 29.542313 19.224020 46.619773 0.769223 1.145756 0.081081 -0.023668 910671.000000 0 0 1
30.265500 28.392213 20.227920 46.165864 0.753473 1.117248 0.068429 -0.020055 607208.000000 0 0 1
29.018700 28.472113 20.945220 45.732356 0.775891 1.095057 0.088154 -0.028668 601543.000000 0 0 1
29.028600 27.621813 22.085720 45.753723 0.760570 1.067051 0.080758 -0.027934 -277604.000000 0 0 1
27.711600 27.584513 22.856040 45.290581 0.783100 1.041816 0.102200 -0.032521 -68123.300000 0 0 1
26.723100 26.651813 22.406850 43.892028 0.784063 1.035031 0.145161 -0.040451 939093.000000 0 0 1
25.518700 26.749113 23.195940 43.643679 0.808934 1.010444 0.167335 -0.047918 794984.000000 0 0 1
25.322800 25.693213 24.338900 43.517439 0.792659 0.977266 0.147697 -0.047302 -495964.000000 0 0 1
26.322400 25.839313 25.309900 44.733990 0.776137 0.969409 0.138878 -0.042778 -338306.000000 0 0 1
26.350500 24.771313 26.227390 44.674856 0.754517 0.943358 0.164960 -0.045481 250876.000000 0 0 1
27.705700 24.750613 27.022880 45.939468 0.729123 0.941930 0.164546 -0.044408 614616.000000 0 0 1
28.060400 25.906113 27.821090 47.249612 0.745500 0.941209 0.199019 -0.051952 260277.000000 0 0 1
28.353600 27.101513 27.119130 47.685070 0.762824 0.965856 0.157045 -0.035308 -699406.000000 0 0 1
28.842200 28.259113 28.004380 49.139549 0.775187 0.964418 0.104369 -0.020356 -352047.000000 0 0 1
30.153700 28.155613 28.497930 50.140963 0.751145 0.966290 0.090147 -0.016745 -552055.000000 0 0 1
30.490800 29.282313 29.189260 51.372713 0.765183 0.966496 0.090473 -0.016472 634642.000000 0 0 1
32.038800 29.264213 29.448470 52.441313 0.740169 0.974537 0.073636 -0.006733 393876.000000 0 0 1
32.650100 29.611113 28.283070 52.371549 0.736627 1.000304 0.064638 -0.012286 36181.600000 0 0 1
34.083200 29.613813 28.364120 53.321344 0.715347 1.009898 0.071857 -0.014267 640445.000000 0 0 1
34.644600 30.174113 27.034470 53.306547 0.716538 1.038920 0.072944 -0.016095 -505604.000000 0 0 1
34.377900 31.564613 26.871780 53.854038 0.742761 1.048382 0.067138 -0.012323 247942.000000 0 0 1
34.586100 32.082213 25.600730 53.673682 0.747858 1.073592 0.067731 -0.022931 -311115.000000 0 0 1
34.391800 33.638313 25.612510 54.500759 0.774323 1.081565 0.062094 -0.026453 13907.100000 0 0 1
35.241100 -33.280531 26.498520 55.242198 -0.756794 1.070508 0.076020 -0.030558 525307.000000 0 0 1
34.954000 -31.921031 26.318990 54.161089 -0.740076 1.063359 0.071990 -0.016031 -139921.000000 0 0 1
36.001200 -31.062431 27.041370 54.700976 -0.711888 1.053711 0.068291 -0.016214 -130475.000000 0 0 1
35.893800 -31.067731 28.464830 55.351742 -0.713450 1.030659 0.083421 -0.025932 -154250.000000 0 0 1
36.779500 -30.174831 29.048180 55.740908 -0.687072 1.022624 0.075188 -0.023741 -596963.000000 0 0 1
36.686900 -30.024431 30.594940 56.422030 -0.685858 0.997682 0.086521 -0.033556 -165504.000000 0 0 1
36.800900 -31.174931 31.395672 57.548856 -0.702822 0.993753 0.086794 -0.029070 1047210.000000 0 0 1
35.507900 -31.811731 31.404929 57.088237 -0.730548 0.988298 0.085286 -0.029924 547196.000000 0 0 1
35.115200 -32.804131 32.522488 58.024999 -0.751385 0.975818 0.083395 -0.023838 -391228.000000 0 0 1
34.660400 -32.116631 33.725720 58.053816 -0.747323 0.950915 0.085147 -0.026823 322166.000000 0 0 1
34.619600 -32.918931 -32.553418 57.809150 -0.760223 2.168951 0.098254 -0.024980 -105219.000000 0 0 1
33.749700 33.465613 -32.582548 57.624751 0.781172 2.171746 0.098185 -0.024128 -411388.000000 0 0 1
34.112000 32.412413 -33.442078 57.728378 0.759855 2.188667 0.107725 -0.021017 279357.000000 0 0 1
33.202700 31.313413 -33.229698 56.454955 0.756123 2.200129 0.115599 -0.012256 542433.000000 0 0 1
33.561300 30.287813 33.122832 56.043149 0.734174 0.938469 0.105910 -0.009319 488018.000000 0 0 1
34.825300 29.643113 33.191804 56.508509 0.705187 0.942982 0.100970 -0.011959 336001.000000 0 0 1
35.252500 29.034113 31.958725 55.741175 0.688969 0.960218 0.091554 -0.006442 703694.000000 0 0 1
36.686200 28.403513 31.898749 56.304236 0.658828 0.968492 0.087584 -0.004911 548502.000000 0 0 1
36.761400 27.166013 32.544387 56.111763 0.636412 0.952077 0.081896 0.003210 512677.000000 0 0 1
-37.580607 26.780213 32.488208 56.435499 -0.619137 0.957373 0.078324 -0.010789 400093.000000 0 0 1
-37.166207 25.506813 33.213355 55.991530 -0.601466 0.935787 0.078631 -0.006801 -128965.000000 0 0 1
-37.605807 24.333513 32.551811 55.370904 -0.574311 0.942353 0.077767 0.001934 186238.000000 0 0 1
-37.350207 23.228913 33.362540 55.205792 -0.556383 0.921871 0.073525 -0.000726 257907.000000 0 0 1
37.720100 21.945713 32.717980 54.542520 0.526933 0.927468 0.078530 -0.008856 317489.000000 0 0 1
-37.159407 21.483413 31.659626 53.335640 -0.524192 0.935281 0.075358 -0.000728 566728.000000 0 0 1
37.820400 20.591613 30.852770 52.974434 0.498578 0.949108 0.066570 0.000660 260715.000000 0 0 1
-36.878307 19.778513 30.020930 51.501994 -0.492278 0.948493 0.071267 -0.019369 225575.000000 0 0 1
-36.206207 20.542613 29.016150 50.742737 -0.516087 0.962063 0.062977 -0.009458 684637.000000 0 0 1
-35.096107 19.830813 28.422340 49.323699 -0.514319 0.956674 0.062987 -0.016304 736881.000000 0 0 1
-35.498307 18.676313 27.442780 48.600830 -0.484323 0.970779 0.090825 -0.017233 -56276.000000 0 0 1
-36.237707 17.605313 28.002960 49.064083 -0.452246 0.963386 0.090653 -0.021024 182971.000000 0 0 1
-36.806707 16.665113 27.125290 48.664577 -0.425158 0.979554 0.107348 -0.029027 -75456.700000 0 0 1
-37.393207 15.462513 27.900620 49.150644 -0.392100 0.967141 0.076537 -0.034407 -455435.000000 0 0 1
-36.366707 14.676513 28.422760 48.433364 -0.383580 0.943642 0.094129 -0.030808 -60996.800000 0 0 1
-36.693307 13.980013 29.650510 49.203580 -0.364017 0.924030 0.096087 -0.046632 310696.000000 0 0 1
-35.714007 12.787213 29.936030 48.323586 -0.343824 0.902702 0.106114 -0.043742 888172.000000 0 0 1
-34.338007 13.079013 30.157560 47.535647 -0.363925 0.883539 0.112187 -0.036010 721073.000000 0 0 1
-33.657107 11.903713 30.614210 47.029024 -0.339946 0.861942 0.099430 -0.033350 859456.000000 0 0 1
-32.091507 12.023113 30.602100 45.944625 -0.358465 0.841876 0.118484 -0.029243 -476009.000000 0 0 1
-31.585507 12.119713 29.303750 44.757586 -0.366386 0.856982 0.109248 -0.028645 662710.000000 0 0 1
-30.237707 12.629913 29.269450 43.937846 -0.395661 0.841754 0.105003 -0.024235 1092850.000000 0 0 1
-29.115307 11.697013 29.770440 43.252749 -0.382012 0.811667 0.100956 -0.023312 -892825.000000 0 0 1
-29.026507 10.617513 28.856050 42.284055 -0.350669 0.819710 0.105228 -0.025815 276162.000000 0 0 1
-27.892907 9.831013 29.229110 41.581293 -0.338861 0.791275 0.084289 -0.018662 224094.000000 0 0 1
-27.558507 8.784913 28.139520 40.354412 -0.308590 0.799159 0.080867 -0.018594 265432.000000 0 0 1
-28.483307 7.699613 28.082360 40.733300 -0.264010 0.810108 0.087747 -0.026228 746033.000000 0 0 1
-29.714607 8.044613 27.417770 41.223874 -0.264391 0.843176 0.097491 -0.027686 187147.000000 0 0 1
-30.701607 6.867013 27.411130 41.726665 -0.220048 0.854068 0.091774 -0.019073 -218148.000000 0 0 1
-31.093607 6.535913 28.712170 42.824284 -0.207185 0.835961 0.089019 -0.018388 -230220.000000 0 0 1
-31.885307 5.391313 28.674870 43.220218 -0.167500 0.845363 0.106029 -0.022431 -119416.000000 0 0 1
-32.579307 4.959613 30.002690 44.566472 -0.151072 0.832252 0.111814 -0.021975 298815.000000 0 0 1
-33.820507 5.568113 30.298450 45.747422 -0.163173 0.846914 0.121749 -0.028172 -122818.000000 0 0 1
-34.577407 4.928413 31.283170 46.888411 -0.141579 0.840375 0.131564 -0.025661 -58893.800000 0 0 1
-36.045807 5.374813 31.351452 48.073926 -0.148020 0.860378 0.139404 -0.027509 -117620.000000 0 0 1
-36.217307 6.779013 31.600805 48.541315 -0.185035 0.861884 0.138991 -0.028454 381339.000000 0 0 1
-37.580507 7.046413 31.933913 49.816877 -0.185350 0.874962 0.149175 -0.032075 672194.000000 0 0 1
-37.744707 8.508213 32.407278 50.470627 -0.221709 0.873560 0.132882 -0.031660 6675.110000 0 0 1
-37.561707 8.579313 -33.679958 51.174466 -0.224554 2.289142 0.132807 -0.033046 98839.100000 0 0 1
-37.792207 9.963613 -33.266638 51.324397 -0.257776 2.275968 0.134191 -0.033927 142073.000000 0 0 1
-37.801007 10.075513 -31.809158 50.420776 -0.260485 2.253476 0.121524 -0.029813 -108179.000000 0 0 1
36.653500 9.593613 -31.401698 49.209584 0.255995 2.262852 0.138925 -0.029746 -67661.700000 0 0 1
36.506100 9.761313 -30.032018 48.269045 0.261276 2.242320 0.114479 -0.025233 1548870.000000 0 0 1
35.032400 9.351413 -29.554988 46.778364 0.260854 2.254681 0.104001 -0.015102 1456310.000000 0 0 1
34.950200 7.945913 -29.316998 46.304864 0.223550 2.256387 0.110276 -0.021115 -534775.000000 0 0 1
33.667100 7.542513 -28.993468 45.066443 0.220393 2.269662 0.121172 -0.029041 -768318.000000 0 0 1
36.604506 6.070613 -19.584138 41.955699 0.164347 2.056444 0.075190 -0.009110 -248554.000000 0 0 1
36.117806 6.836513 -18.486138 41.145731 0.187071 2.036761 0.062030 -0.008006 498385.000000 0 0 1
36.799796 8.070813 -18.428438 41.940081 0.215899 2.025726 0.048029 -0.010357 -10752.200000 0 0 1
-37.511820 8.115513 -17.735038 42.279189 -0.213062 2.003663 0.073486 -0.019522 628757.000000 0 0 1
-36.451910 7.384713 -18.360938 41.477703 -0.199883 2.029371 0.088460 -0.025360 524155.000000 0 0 1
-35.806799 8.219913 -19.314138 41.505780 -0.225653 2.054811 0.077847 -0.017145 -533697.000000 0 0 1
-34.726258 7.634213 -20.248838 40.917107 -0.216397 2.088487 0.062440 -0.010733 -190837.000000 0 0 1
-35.154727 6.690713 -21.209338 41.598756 -0.188073 2.105813 0.061292 -0.005348 30364.800000 0 0 1
-36.026710 7.144813 -22.211338 42.922206 -0.195780 2.114698 0.042483 0.006370 -108922.000000 0 0 1
-36.117110 6.137213 -23.332738 43.434177 -0.168318 2.137907 0.072247 -0.000340 -249459.000000 0 0 1
-34.931679 5.959213 -24.049338 42.826453 -0.168970 2.167058 0.082630 -0.013637 -534789.000000 0 0 1
-34.913512 4.766813 -24.836838 43.110839 -0.135693 2.184765 0.097579 -0.021432 -531727.000000 0 0 1
-33.601760 4.644413 -25.603628 42.499349 -0.137349 2.217360 0.110335 -0.023558 -158737.000000 0 0 1
-32.497020 4.329013 -24.763638 41.085697 -0.132433 2.217716 0.106177 -0.025654 -216503.000000 0 0 1
-31.408910 3.877013 -25.535198 40.664447 -0.122815 2.249711 0.104253 -0.031248 -297246.000000 0 0 1
-30.078580 4.021913 -24.794838 39.187763 -0.132925 2.255856 0.090684 -0.034904 -363198.000000 0 0 1
-29.525810 5.332513 -24.785338 38.916862 -0.178679 2.261240 0.060215 -0.018616 66101.800000 0 0 1
-28.225060 5.343213 -24.230938 37.581143 -0.187093 2.271510 0.080118 -0.029492 394149.000000 0 0 1
-27.606410 6.767613 -24.388438 37.452776 -0.240405 2.279932 0.073515 -0.024907 372493.000000 0 0 1
-28.389360 7.714413 -23.636738 37.738089 -0.265329 2.247641 0.060966 -0.022592 192408.000000 0 0 1
-28.326570 9.064713 -24.157638 38.316512 -0.309710 2.252963 0.046316 -0.019359 -665261.000000 0 0 1
-27.033690 9.779413 -23.790638 37.315571 -0.347103 2.262114 0.098435 -0.014028 -545737.000000 0 0 1
-26.983250 10.216713 -22.436338 36.549505 -0.361951 2.231739 0.065576 -0.012765 -75148.100000 0 0 1
-25.711660 10.758413 -22.182238 35.621407 -0.396289 2.243013 0.118560 -0.018489 -364210.000000 0 0 1
-25.375320 11.040713 -20.691138 34.553255 -0.410391 2.212822 0.144309 -0.042934 -609816.000000 0 0 1
-25.823500 12.281713 -20.046438 34.922104 -0.443940 2.182219 0.135900 -0.040269 390775.000000 0 0 1
-27.206110 12.498813 -19.876838 35.937188 -0.430653 2.156876 0.122931 -0.022695 -83093.700000 0 0 1
-27.950090 11.487613 -18.923138 35.654705 -0.389957 2.130262 0.102690 -0.014499 -606356.000000 0 0 1
-27.474840 11.404313 -17.596038 34.562201 -0.393440 2.104949 0.116648 -0.024617 207582.000000 0 0 1
-28.310560 10.578513 -16.837638 34.596226 -0.357595 2.079093 0.124317 -0.024754 -768350.000000 0 0 1
-27.784710 10.270213 -15.396138 33.384255 -0.354059 2.050121 0.170152 -0.024177 302314.000000 0 0 1
-26.705560 9.359013 -15.337138 32.187045 -0.337077 2.067466 0.198539 -0.026975 817999.000000 0 0 1
-25.407250 9.758813 -15.748838 31.445011 -0.366721 2.095362 0.185121 -0.018630 -542443.000000 0 0 1
-24.354700 8.724413 -15.393438 30.103567 -0.343982 2.107550 0.136751 -0.019399 -728955.000000 0 0 1
-23.024500 9.128513 -15.516138 29.226836 -0.377459 2.130443 0.112842 -0.012985 -578619.000000 0 0 1
-22.099600 8.174013 -15.178938 28.028682 -0.354267 2.143076 0.125975 -0.017710 -1278450.000000 0 0 1
-20.677200 8.675413 -15.181438 27.079244 -0.397257 2.165943 0.145191 -0.029719 -975214.000000 0 0 1
-20.057700 8.831213 -16.440338 27.396832 -0.414750 2.214400 0.147452 -0.043664 -268663.000000 0 0 1
-18.733800 9.225613 -16.236338 26.451576 -0.457596 2.231679 0.142402 -0.046352 -1174350.000000 0 0 1
-18.120400 9.596813 -17.570738 27.003307 -0.487057 2.279287 0.116635 -0.029550 -331661.000000 0 0 1
-17.886000 8.618013 -18.574138 27.187824 -0.449006 2.322903 0.166116 -0.050316 609684.000000 0 0 1
-16.929400 7.597813 -18.213838 26.001447 -0.421851 2.346885 0.171920 -0.048911 -5711.610000 0 0 1
-16.457200 6.703213 -19.424338 26.326364 -0.386794 2.400644 0.160273 -0.047462 278875.000000 0 0 1
-17.422800 5.862813 -20.024138 27.182580 -0.324600 2.398905 0.153546 -0.037104 330684.000000 0 0 1
-18.423000 6.512313 -20.835238 28.564389 -0.339779 2.388260 0.151739 -0.037236 290238.000000 0 0 1
-19.379400 5.558113 -21.541038 29.503730 -0.279308 2.389283 0.152076 -0.025913 -44418.000000 0 0 1
-20.088100 4.742813 -20.592838 29.156321 -0.231855 2.355041 0.168533 -0.031841 521032.000000 0 0 1
-20.877900 3.751913 -21.249338 30.024955 -0.177810 2.357066 0.114411 -0.014307 266949.000000 0 0 1
-21.785600 2.889213 -20.307738 29.922636 -0.131851 2.316753 0.119778 -0.012816 465921.000000 0 0 1
-22.612800 1.874313 -20.885238 30.839017 -0.082698 2.314793 0.127550 -0.013333 828846.000000 0 0 1
-23.384100 1.276013 -19.819838 30.680130 -0.054513 2.273149 0.122158 -0.013191 159874.000000 0 0 1
-24.005000 -0.125687 -20.175438 31.357681 0.005236 2.269724 0.125499 -0.000884 -321983.000000 0 0 1
-23.067500 -1.132787 -20.115538 30.627237 0.049068 2.287345 0.107940 -0.014130 -452753.000000 0 0 1
-23.582300 -2.420087 -20.395238 31.272151 0.102265 2.281260 0.123378 -0.021246 -304931.000000 0 0 1
-23.985500 -2.708087 -21.931238 32.613144 0.112429 2.308332 0.126278 -0.019474 280319.000000 0 0 1
-23.037900 -2.502987 -22.969138 32.628072 0.108222 2.351766 0.081295 -0.020461 -85157.800000 0 0 1
-21.997900 -3.462687 -23.010538 32.021597 0.156129 2.372575 0.060932 -0.031179 37783.500000 0 0 1
-21.143000 -3.394787 -24.288338 32.380155 0.159204 2.419009 0.059521 -0.028562 -458946.000000 0 0 1
-21.808900 -3.753787 -25.429278 33.710047 0.170452 2.425464 0.055229 -0.030802 -420846.000000 0 0 1
-21.023600 -3.713787 -26.571948 34.085956 0.174845 2.464755 0.050370 -0.029983 -280183.000000 0 0 1
-21.897200 -3.877587 -27.842638 35.633349 0.175264 2.467646 0.040753 -0.033070 140340.000000 0 0 1
-22.498000 -5.139187 -27.863268 36.179179 0.224575 2.449867 0.053962 -0.032573 237191.000000 0 0 1
-23.386600 -5.326487 -28.940648 37.588105 0.223938 2.449546 0.041893 -0.029563 -63656.300000 0 0 1
-22.766200 -6.415187 -29.883388 38.111303 0.274664 2.472054 0.049356 -0.025879 281040.000000 0 0 1
-21.576600 -6.092887 -30.568458 37.909149 0.275218 2.508769 0.046138 -0.028850 -447075.000000 0 0 1
-20.789200 -7.204887 -30.718888 37.785597 0.333615 2.520046 0.058881 -0.025417 -774867.000000 0 0 1
-19.489300 -6.890187 -31.472888 37.654352 0.339822 2.560451 0.066592 -0.029710 -602311.000000 0 0 1
-19.624800 -6.473687 -32.849948 38.809284 0.318633 2.580071 0.062330 -0.037119 207054.000000 0 0 1
-20.007700 -7.469787 33.683580 39.883447 0.357319 0.565071 0.072523 -0.033592 -748767.000000 0 0 1
-19.923200 -7.079287 32.219692 38.537758 0.341414 0.580743 0.077816 -0.036833 596286.000000 0 0 1
-18.646000 -6.851987 31.595685 37.321715 0.352159 0.561276 0.093427 -0.039258 602490.000000 0 0 1
-17.908400 -5.756987 32.083704 37.191636 0.311034 0.530293 0.070377 -0.037525 245588.000000 0 0 1
-16.496600 -5.677287 31.407184 35.927436 0.331453 0.507044 0.071382 -0.036450 336755.000000 0 0 1
-16.606100 -5.304687 30.042290 34.733867 0.309197 0.525790 0.086694 -0.036820 -162404.000000 0 0 1
-15.422700 -5.009787 29.353680 33.535000 0.314080 0.504710 0.074673 -0.025283 -317869.000000 0 0 1
-15.673400 -5.105087 27.836480 32.350997 0.314880 0.534640 0.094808 -0.022087 -6813.600000 0 0 1
-16.615400 -4.146187 27.408360 32.318425 0.244545 0.558460 0.091531 -0.030103 -151448.000000 0 0 1
-17.003900 -4.229087 26.034330 31.381590 0.243767 0.592396 0.104387 -0.030968 -67491.500000 0 0 1
-15.983700 -3.850087 24.925850 29.859669 0.236373 0.583088 0.109792 -0.024153 104690.000000 0 0 1
-15.774700 -2.459787 24.865700 29.549869 0.154687 0.570775 0.104175 -0.010671 219238.000000 0 0 1
-14.697300 -2.106887 24.004120 28.224943 0.142382 0.553942 0.108298 -0.011668 204832.000000 0 0 1
-14.502700 -0.583287 24.018450 28.063401 0.040198 0.543578 0.100134 -0.010698 -165727.000000 0 0 1
-15.515600 0.196413 23.424150 28.097389 -0.012658 0.585063 0.097936 -0.015271 7693.260000 0 0 1
-15.672400 1.505213 23.960400 28.670378 -0.095749 0.581354 0.071200 -0.011821 -279799.000000 0 0 1
-16.262100 2.507013 22.993510 28.274415 -0.152959 0.621121 0.079802 -0.021510 -384275.000000 0 0 1
-15.398400 3.018513 22.012420 27.032736 -0.193573 0.619296 0.064905 -0.022518 36312.900000 0 0 1
-16.034000 3.900413 21.129120 26.809366 -0.238624 0.663040 0.078865 -0.021243 835407.000000 0 0 1
-14.920300 4.592213 20.208920 25.536332 -0.298582 0.657735 0.082470 -0.018299 1141890.000000 0 0 1
-14.177400 5.617713 20.857420 25.837751 -0.377264 0.631325 0.054250 -0.018203 -368949.000000 0 0 1
-13.015500 5.824313 20.107020 24.649912 -0.420765 0.616852 0.036457 -0.012059 -53525.300000 0 1 0
-12.045700 6.980213 20.543120 24.816165 -0.525193 0.595600 0.021401 -0.006195 417950.000000 0 1 0
-12.589000 8.270813 20.361220 25.327230 -0.581272 0.636929 0.036545 -0.008400 -9540.930000 0 0 1
-11.574100 9.233613 20.370820 25.183124 -0.673387 0.628505 0.018855 -0.007556 -65349.800000 0 0 1
-12.123000 10.681113 20.316420 25.957855 -0.722253 0.671853 0.016722 -0.003693 -80672.500000 0 0 1
-12.440900 11.152513 19.006420 25.306097 -0.730844 0.721129 0.024875 -0.006446 431726.000000 0 0 1
-13.311700 12.274213 19.157020 26.359991 -0.744871 0.757223 0.017047 -0.002812 -376384.000000 0 0 1
-13.760400 12.879313 17.841820 25.952955 -0.752336 0.812800 0.031802 -0.011285 -660474.000000 0 0 1
-12.912000 13.665213 17.042420 25.375222 -0.813731 0.834408 0.031724 -0.017243 -124716.000000 0 0 1
-12.774600 15.071213 17.360120 26.300298 -0.867688 0.849880 0.055902 -0.031413 -792537.000000 0 0 1
-13.943700 15.935413 16.886320 27.083426 -0.851959 0.897594 0.061587 -0.024033 -479417.000000 0 0 1
-13.916500 16.405113 15.518320 26.525742 -0.867289 0.945881 0.058601 -0.046073 -86959.600000 0 0 1
-14.343600 15.432613 14.614520 25.641541 -0.821955 0.964345 0.081862 -0.048005 -545817.000000 0 0 1
-14.889200 16.056413 13.348220 25.645110 -0.823098 1.023363 0.073430 -0.047415 575880.000000 0 0 1
-16.160500 16.687313 13.584920 26.910560 -0.801435 1.041626 0.062628 -0.038035 451926.000000 0 0 1
-16.515200 17.504313 12.500120 27.118367 -0.814465 1.091735 0.070983 -0.038017 543554.000000 0 0 1
-17.800700 18.329813 12.872020 28.610066 -0.800042 1.104129 0.074984 -0.038963 972503.000000 0 0 1
-19.049800 17.649913 12.862320 28.980228 -0.747272 1.110927 0.084906 -0.037810 -156967.000000 0 0 1
-20.090300 18.545113 13.084020 30.310608 -0.745425 1.124459 0.095894 -0.040720 -667225.000000 0 0 1
-21.504500 17.973313 13.167520 30.965579 -0.696188 1.131579 0.111037 -0.032755 -334977.000000 0 0 1
-21.891700 17.671213 11.875620 30.537660 -0.679122 1.171376 0.116904 -0.033523 -95828.900000 0 0 1
-23.156200 17.027413 11.958820 31.131267 -0.634045 1.176518 0.119776 -0.030485 291150.000000 0 0 1
-23.578000 16.323013 10.627920 30.582929 -0.605538 1.215880 0.119969 -0.025121 204474.000000 0 0 1
-22.877100 15.099013 10.318320 29.288388 -0.583377 1.210768 0.094242 -0.009750 481574.000000 0 0 1
-23.466200 14.433113 9.186320 29.040761 -0.551419 1.248943 0.106557 -0.010303 -88973.600000 0 0 1
-22.767400 13.130313 8.757620 27.702988 -0.523123 1.249154 0.130894 -0.007291 -891287.000000 0 0 1
-22.928200 11.964113 9.510620 27.555295 -0.480941 1.218401 0.127038 -0.006795 405562.000000 0 0 1
-24.217900 11.391013 9.719820 28.473440 -0.439652 1.222428 0.154188 -0.000492 187601.000000 0 0 1
-24.908700 10.868013 8.427320 28.453063 -0.411414 1.270102 0.180674 -0.015737 -483663.000000 0 0 1
-25.394190 12.019413 7.711720 29.134204 -0.442071 1.302907 0.188546 -0.015404 1050650.000000 0 0 1
-26.568090 11.580913 6.962620 29.807030 -0.411063 1.335028 0.246190 -0.029841 669849.000000 0 0 1
-27.153270 12.719813 6.076620 30.594428 -0.438086 1.370848 0.238157 -0.032325 -302997.000000 0 0 1
-26.407560 12.970313 4.918720 29.829215 -0.456550 1.405144 0.234567 -0.036626 1218660.000000 0 0 1
-25.124180 13.624813 5.028320 29.019717 -0.496911 1.396645 0.214745 -0.037682 577906.000000 0 0 1
-25.142000 15.122613 5.344720 29.822469 -0.541513 1.390605 0.191796 -0.039306 309391.000000 0 0 1
-23.790700 15.570913 5.574820 28.974633 -0.579529 1.377186 0.173870 -0.054656 1305120.000000 0 0 1
-23.773800 16.942313 6.003720 29.804030 -0.619163 1.367969 0.156142 -0.051945 -29211.600000 0 0 1
-22.342600 17.520513 6.136020 29.048424 -0.665017 1.357959 0.136369 -0.044984 163517.000000 0 0 1
-21.681900 17.640113 4.892320 28.376279 -0.682971 1.397522 0.147822 -0.062317 647219.000000 0 0 1
-20.367500 18.168113 5.058320 27.757918 -0.728386 1.387543 0.151750 -0.052872 379480.000000 0 0 1
-19.644800 18.431213 3.692020 27.189314 -0.753536 1.434586 0.135647 -0.046682 860021.000000 0 0 1
-18.300100 18.915013 3.865720 26.601037 -0.801920 1.424958 0.125036 -0.046207 785757.000000 0 0 1
-17.950600 20.142013 3.244820 27.174503 -0.842863 1.451104 0.132897 -0.035219 -35199.400000 0 0 1
-18.433900 21.472513 3.859420 28.561734 -0.861395 1.435256 0.123058 -0.050045 -77264.800000 0 0 1
-17.705600 21.784713 5.036020 28.520580 -0.888327 1.393291 0.139152 -0.047650 235868.000000 0 0 1
-18.072500 23.063813 5.539620 29.820163 -0.906144 1.383943 0.123091 -0.042134 -62789.900000 0 0 1
-17.158500 23.509013 6.730920 29.872950 -0.940304 1.343527 0.091566 -0.025163 300243.000000 0 0 1
-17.373800 22.789113 7.888320 29.722352 -0.919424 1.302177 0.089301 -0.027458 -124321.000000 0 0 1
-16.398200 23.192313 8.792720 29.733757 -0.955352 1.270592 0.084163 -0.027378 -592386.000000 0 0 1
-16.656100 22.631213 10.194620 29.891935 -0.936329 1.222764 0.063821 -0.026391 -259815.000000 0 0 1
-17.844800 23.057213 10.828020 31.101736 -0.912152 1.215201 0.069187 -0.017943 -504639.000000 0 0 1
-18.822100 22.079013 10.648320 30.905356 -0.864859 1.219041 0.077255 -0.034212 -470054.000000 0 0 1
-20.260700 22.504213 11.037520 32.229838 -0.837812 1.221259 0.087143 -0.035370 250644.000000 0 0 1
-20.999600 23.421713 10.184920 33.064973 -0.839870 1.257677 0.097863 -0.021201 477577.000000 0 0 1
-20.532000 24.742913 9.920220 33.647965 -0.878139 1.271525 0.069723 -0.019530 343992.000000 0 0 1
-21.769600 25.553613 9.354620 34.848408 -0.865189 1.299026 0.094276 -0.012752 741950.000000 0 0 1
-22.612600 25.938813 10.402420 35.949438 -0.853800 1.277236 0.107048 -0.015228 -679372.000000 0 0 1
-23.634000 26.749413 9.924920 37.048632 -0.847154 1.299595 0.111641 -0.009287 -564036.000000 0 0 1
-24.463700 27.299313 11.101220 38.300943 -0.840124 1.276735 0.113792 -0.027909 -352713.000000 0 0 1
-23.802000 28.282613 11.864220 38.822689 -0.871213 1.260228 0.127005 -0.023932 388249.000000 0 0 1
-24.752100 28.941413 12.662620 40.132453 -0.863263 1.249791 0.122353 -0.029084 -15343.000000 0 0 1
10.467900 -31.871731 27.701510 43.505837 -1.253458 0.880545 0.071657 -0.040223 -758293.000000 0 0 1
11.696600 -32.420731 27.369640 44.011493 -1.224555 0.899662 0.048400 -0.035894 -259577.000000 0 0 1
12.097900 -32.059031 26.045790 43.040956 -1.209955 0.920855 0.056913 -0.031482 -468189.000000 0 0 1
13.506900 -32.579431 25.758910 43.673529 -1.177781 0.939978 0.000801 -0.009506 -449132.000000 0 0 1
13.680900 33.707913 25.534050 44.445227 1.185243 0.958796 0.026141 -0.030606 203019.000000 0 0 1
15.088500 33.516013 25.516790 44.744749 1.147786 0.963956 0.037939 -0.015416 -283551.000000 0 0 1
15.570500 32.103013 25.135920 43.644684 1.119207 0.957065 0.070728 -0.013112 -194651.000000 0 0 1
15.459100 31.894213 23.775280 42.678901 1.119464 0.979939 0.055376 -0.028315 938345.000000 0 0 1
16.595000 31.148513 23.280420 42.280041 1.081278 0.987684 0.073000 -0.029957 265327.000000 0 0 1
16.442500 30.629713 21.826320 41.047818 1.078132 1.010155 0.086029 -0.042454 605172.000000 0 0 1
15.387300 29.650113 21.552920 39.754579 1.092094 0.997803 0.075145 -0.028168 725190.000000 0 0 1
15.438300 28.308613 21.961820 39.013334 1.071525 0.972868 0.088258 -0.026867 -526897.000000 0 0 1
15.083300 27.924513 23.379670 39.419454 1.075550 0.935893 0.100963 -0.042297 -582294.000000 0 0 1
15.998800 28.201213 24.407340 40.583103 1.054761 0.925524 0.096712 -0.037395 -216064.000000 0 0 1
15.517300 27.888913 25.671130 40.958333 1.063055 0.893405 0.073780 -0.039486 -239808.000000 0 0 1
16.590100 28.098013 26.799840 42.225125 1.037438 0.883190 0.084633 -0.039678 449762.000000 0 0 1
16.717700 29.425913 27.294840 43.478433 1.054142 0.892100 0.081606 -0.037916 -837737.000000 0 0 1
17.719000 29.465413 28.199380 44.467725 1.029385 0.883883 0.100559 -0.033965 -901673.000000 0 0 1
17.758300 30.861913 28.826350 45.812371 1.048653 0.890239 0.098746 -0.040517 15999.700000 0 0 1
18.197500 31.918113 28.025080 46.209524 1.052629 0.919172 0.093454 -0.029195 145154.000000 0 0 1
17.741200 33.128113 28.618720 47.236143 1.079128 0.919944 0.092480 -0.011890 171523.000000 0 0 1
18.269700 -33.314231 27.851830 47.109918 -1.069178 0.938239 0.070437 -0.014207 -195233.000000 0 0 1
17.847800 -33.301831 26.483110 46.140124 -1.078811 0.959449 0.090528 -0.014658 -327636.000000 0 0 1
18.028100 -32.111031 25.730580 44.924308 -1.059220 0.960935 0.067151 -0.013579 -179239.000000 0 0 1
19.468200 -31.601331 25.425610 44.990183 -1.018654 0.970197 0.088377 -0.011473 298535.000000 0 0 1
20.077500 -31.000131 26.558830 45.491599 -0.996069 0.947372 0.074199 -0.009803 775931.000000 0 0 1
21.349600 -30.420931 26.199280 45.471318 -0.958859 0.956759 0.079148 -0.013539 1002810.000000 0 0 1
21.928200 -29.523131 27.362110 45.838263 -0.931954 0.931131 0.090945 -0.010762 -405758.000000 0 0 1
21.048300 -28.478031 27.612650 44.905319 -0.934304 0.908527 0.095155 -0.003540 -171043.000000 0 0 1
21.479800 -27.668331 28.635800 45.242982 -0.910655 0.885460 0.107053 -0.001912 -122988.000000 0 0 1
20.266400 -27.149231 29.429350 44.876435 -0.929551 0.855573 0.080961 -0.007250 221119.000000 0 0 1
19.413900 -26.268631 28.704530 43.484371 -0.934338 0.849829 0.097605 -0.001490 78368.000000 0 0 1
18.385600 -25.797231 29.559010 43.327388 -0.951600 0.819995 0.076948 -0.005962 -237607.000000 0 0 1
17.292600 -25.135631 28.708480 41.892849 -0.968189 0.815803 0.100621 -0.000725 -894283.000000 0 0 1
16.736000 -25.974131 27.697070 41.495505 -0.998415 0.839988 0.099538 -0.005333 336641.000000 0 0 1
16.169000 -25.157331 26.636200 40.047660 -0.999559 0.843152 0.096321 -0.023938 608422.000000 0 0 1
14.735600 -24.538131 26.958340 39.319333 -1.029996 0.815334 0.108121 -0.016240 1918770.000000 0 0 1
13.637900 -25.517931 27.090260 39.636339 -1.079975 0.818290 0.086486 -0.009430 1283550.000000 0 0 1
13.291600 -26.127531 25.850070 39.083765 -1.100197 0.848110 0.073598 -0.016864 -705541.000000 0 0 1
12.375900 -27.361731 26.098000 39.786089 -1.146026 0.855345 0.056592 -0.016883 1260400.000000 0 0 1
10.976000 -27.009431 26.232990 39.219278 -1.184805 0.838095 0.058503 -0.027595 667309.000000 0 0 1
10.212700 -28.135931 26.348000 39.876647 -1.222608 0.848995 0.047074 -0.018963 -500823.000000 0 0 1
8.694600 -28.013231 26.565560 39.573554 -1.269849 0.834841 0.045566 -0.035213 357336.000000 0 0 1
7.758000 -27.990831 25.502970 38.653262 -1.300421 0.850259 0.076610 -0.027870 180034.000000 0 0 1
7.830500 -26.800831 24.703790 37.281075 -1.286535 0.846463 0.101949 -0.024825 -106577.000000 0 0 1
6.552200 -26.686331 23.783260 36.341919 -1.330032 0.857367 0.109167 -0.021144 329571.000000 0 0 1
6.329400 -27.615731 22.760110 36.341609 -1.345492 0.894021 0.115087 -0.029223 -154871.000000 0 0 1
5.829200 -28.834531 23.212610 37.473124 -1.371324 0.902758 0.120701 -0.029303 594162.000000 0 0 1
4.336300 -28.976631 23.737000 37.708008 -1.422250 0.889893 0.168199 -0.026123 240020.000000 0 0 1
3.357300 -28.890431 22.683760 36.884705 -1.455107 0.908422 0.175933 -0.026878 310669.000000 0 0 1
2.108900 -28.656831 23.321400 37.007420 -1.497337 0.889009 0.205898 -0.023111 45213.700000 0 0 1
1.780100 -27.193031 23.589450 36.042917 -1.505428 0.857299 0.169752 -0.027377 -823784.000000 0 0 1
2.467600 -26.703331 24.727870 36.477726 -1.478650 0.825908 0.141551 -0.030411 -102982.000000 0 0 1
2.290300 -25.299931 24.887580 35.562953 -1.480516 0.795654 0.118343 -0.021625 145319.000000 0 0 1
3.305700 -24.493031 25.766150 35.703372 -1.436642 0.764581 0.114844 -0.016810 963516.000000 0 0 1
4.581700 -24.213331 25.145640 35.207678 -1.383785 0.775303 0.116314 -0.019448 981138.000000 0 0 1
5.424800 -23.316031 25.882420 35.255715 -1.342199 0.746406 0.100509 -0.014237 260686.000000 0 0 1
4.961700 -21.834931 25.956730 34.280236 -1.347354 0.711792 0.079121 -0.004985 -450031.000000 0 0 1
5.059700 -21.153831 24.736390 32.938946 -1.336021 0.721256 0.078192 -0.012410 108093.000000 0 0 1
4.545700 -19.835731 24.926360 32.178301 -1.345519 0.684662 0.097893 -0.021031 -33671.900000 0 0 1
4.452000 -18.848831 23.725390 30.626670 -1.338852 0.684612 0.106484 -0.023065 -71242.500000 0 0 1
5.639200 -18.229031 23.290100 30.108586 -1.270781 0.686393 0.074787 -0.009233 -390505.000000 0 0 1
5.687100 -18.062131 21.899720 28.951363 -1.265760 0.712957 0.078401 -0.014333 -637214.000000 0 0 1
6.877100 -17.216631 21.501520 28.390531 -1.190768 0.711554 0.076799 -0.006348 216313.000000 0 0 1
8.036500 -18.070431 21.572720 29.266159 -1.152332 0.741995 0.083888 -0.012463 932809.000000 0 0 1
9.246900 -17.450431 21.110820 28.908294 -1.083520 0.752081 0.082148 -0.013238 1469690.000000 0 0 1
10.535400 -17.454731 22.005820 29.998640 -1.027746 0.747250 0.084846 -0.005754 844070.000000 0 0 1
10.345000 -16.751031 23.202640 30.429896 -1.017555 0.703636 0.086307 -0.000261 -687424.000000 0 0 1
11.569300 -16.747731 23.829940 31.340090 -0.966273 0.706920 0.104918 -0.001225 -674335.000000 0 0 1
11.556900 -15.812131 25.058990 31.804692 -0.939639 0.663401 0.125757 -0.015993 23012.200000 0 0 1
11.688900 -14.436631 24.763910 30.956388 -0.890187 0.643566 0.143171 -0.022620 147792.000000 0 0 1
11.727000 -13.699331 25.991800 31.634916 -0.862814 0.606554 0.140461 -0.034255 -35623.400000 0 0 1
11.813900 -12.178731 25.770140 30.854333 -0.800603 0.582265 0.149394 -0.038266 -240539.000000 0 0 1
10.632900 -11.681231 25.222480 29.760431 -0.832344 0.559506 0.157171 -0.030871 -240464.000000 0 0 1
10.737400 -10.269731 25.141930 29.204037 -0.763139 0.533749 0.158957 -0.031371 -182833.000000 0 0 1
9.545300 -9.571031 24.475790 27.960360 -0.786744 0.504586 0.152510 -0.026530 49352.700000 0 0 1
8.384000 -9.496831 25.289310 28.284810 -0.847554 0.464390 0.155071 -0.036495 -26049.500000 0 0 1
7.326100 -8.991231 24.512520 27.117847 -0.887093 0.441935 0.144440 -0.032955 -265906.000000 0 0 1
5.919100 -9.050131 25.111410 27.340877 -0.991590 0.406636 0.135132 -0.029427 -1449490.000000 0 0 1
5.615400 -8.071931 26.114640 27.904538 -0.962982 0.360115 0.148467 -0.028245 -420232.000000 0 0 1
4.383800 -8.217131 26.758030 28.332510 -1.080713 0.334945 0.163259 -0.032582 172681.000000 0 0 1
3.127500 -8.137331 25.835530 27.266684 -1.203863 0.325432 0.131165 -0.023494 -803019.000000 0 0 1
2.982600 -6.915131 25.133490 26.237517 -1.163589 0.291124 0.132516 -0.030017 -336993.000000 0 0 1
2.044800 -7.030131 24.094550 25.182361 -1.287744 0.294998 0.112165 -0.028645 167037.000000 0 0 1
2.037600 -5.679631 23.253980 24.024105 -1.226343 0.253886 0.085253 -0.033994 43117.600000 0 1 0
1.528600 -4.549431 23.994780 24.470052 -1.246650 0.197412 0.083897 -0.031225 277053.000000 0 1 0
2.143500 -3.352531 23.561910 23.895558 -1.001932 0.167304 0.087858 -0.031542 -669186.000000 0 1 0
1.326700 -2.655131 22.394310 22.590153 -1.107410 0.131772 0.063992 -0.035667 781112.000000 0 1 0
0.248900 -1.800031 22.781530 22.853888 -1.433392 0.079596 0.055602 -0.039219 744569.000000 0 1 0
-0.851500 -2.546031 23.339820 23.493713 1.248048 0.114521 0.054814 -0.036257 -324214.000000 0 1 0
-1.930700 -1.555031 23.853290 23.981768 0.678039 0.103558 0.052671 -0.041307 -55726.800000 0 1 0
-1.506100 -0.932031 25.039060 25.101625 0.554156 0.070618 0.077076 -0.037697 -43846.800000 0 0 1
-2.241300 0.220969 25.388870 25.488566 -0.098272 0.088475 0.067910 -0.030912 -460538.000000 0 0 1
-1.724100 1.063969 26.538720 26.615939 -0.552909 0.076192 0.105516 -0.037738 -809054.000000 0 0 1
-1.881300 0.576969 27.870890 27.940271 -0.297579 0.070487 0.134853 -0.039017 409310.000000 0 0 1
-1.061600 -0.567031 28.299140 28.324722 0.490576 0.042504 0.143071 -0.039136 327683.000000 0 0 1
0.424200 -0.226031 28.522640 28.526690 -0.489575 0.016850 0.162987 -0.033445 -511850.000000 0 0 1
1.202700 0.320969 27.473650 27.501836 0.260795 0.045278 0.135042 -0.033641 241741.000000 0 0 1
1.923400 -0.663031 26.701670 26.779064 -0.331962 0.076046 0.128006 -0.035326 505046.000000 0 0 1
3.114200 -1.463031 27.277250 27.493401 -0.439192 0.125477 0.136034 -0.036646 -502566.000000 0 0 1
2.705800 -2.599031 27.971900 28.222394 -0.765274 0.133333 0.166370 -0.042597 -366765.000000 0 0 1
3.694100 -3.558831 28.230520 28.692751 -0.766750 0.179739 0.186317 -0.043425 118360.000000 0 0 1
4.333600 -4.312431 27.012280 27.695495 -0.782950 0.222580 0.178499 -0.040931 395526.000000 0 0 1
5.291600 -3.576331 26.271030 27.036239 -0.594334 0.238485 0.159974 -0.032556 176206.000000 0 0 1
5.914100 -4.365131 25.229760 26.278732 -0.635834 0.283498 0.148995 -0.028366 207952.000000 0 0 1
7.205100 -3.798931 24.550540 25.866472 -0.485214 0.320348 0.135490 -0.031729 970364.000000 0 0 1
8.416700 -3.874831 25.344550 26.985207 -0.431448 0.350499 0.125092 -0.030527 802099.000000 0 0 1
9.074900 -5.122231 25.256240 27.321580 -0.513862 0.391320 0.129128 -0.037403 56055.400000 0 0 1
10.114500 -5.232131 24.093220 26.648857 -0.477384 0.441528 0.113038 -0.040402 -117656.000000 0 0 1
9.430100 -5.117331 22.887940 25.277889 -0.497190 0.438351 0.107097 -0.036288 -421826.000000 0 0 1
10.286500 -4.837031 21.821720 24.604805 -0.439550 0.480230 0.130824 -0.032938 -90701.300000 0 1 0
10.035900 -3.459731 21.168920 23.681474 -0.331977 0.464820 0.132207 -0.045287 1730190.000000 0 1 0
8.730000 -3.320531 20.503520 22.530716 -0.363460 0.427451 0.107044 -0.051275 1257360.000000 0 1 0
8.636000 -2.132031 19.820920 21.725444 -0.242037 0.421841 0.100817 -0.052982 788003.000000 0 1 0
7.173800 -1.550031 19.787720 21.104973 -0.212797 0.355175 0.084158 -0.043280 738033.000000 0 1 0
6.795800 -0.946031 20.947420 22.042511 -0.138319 0.316537 0.092168 -0.039698 489931.000000 0 1 0
5.407300 -0.608031 20.843220 21.541783 -0.111976 0.255363 0.064157 -0.031041 517559.000000 0 1 0
4.861300 0.007969 22.115820 22.643803 0.001639 0.216370 0.066453 -0.036201 -1520980.000000 0 1 0
3.569600 0.410969 22.004220 22.295664 0.114626 0.161866 0.054077 -0.033846 -1627040.000000 0 1 0
3.062900 0.822969 23.247730 23.463069 0.262490 0.135586 0.069448 -0.036034 -633527.000000 0 1 0
1.597900 1.206969 23.294960 23.380873 0.646914 0.085753 0.061941 -0.040147 -716517.000000 0 1 0
1.274700 2.514969 22.960840 23.133312 1.101688 0.122187 0.054277 -0.030841 -435261.000000 0 1 0
-0.107500 2.686969 22.923010 23.080203 -1.530810 0.116777 0.036621 -0.024123 -452708.000000 0 1 0
-0.665000 4.070969 22.507480 22.882344 -1.408875 0.181258 0.046094 -0.022496 -152315.000000 0 1 0
-0.462200 5.185969 23.412960 23.984883 -1.481906 0.218817 0.058100 -0.021388 -306834.000000 0 1 0
-1.295600 6.205969 22.979950 23.838430 -1.364986 0.269186 0.045730 -0.023015 -174895.000000 0 1 0
-1.323600 7.500969 23.737310 24.929427 -1.396137 0.310502 0.064642 -0.018796 1368420.000000 0 1 0
-0.129600 8.266969 23.379840 24.798720 -1.555121 0.339912 0.050354 -0.017477 1166750.000000 0 1 0
-0.205600 9.541969 24.066500 25.889918 -1.549253 0.377551 0.056597 -0.004180 -1235670.000000 0 0 1
0.522400 10.622969 23.272910 25.588058 1.521659 0.428663 0.054157 -0.010829 -284664.000000 0 0 1
1.912600 10.587969 23.180740 25.556014 1.392085 0.434558 0.054567 -0.015227 -251011.000000 0 0 1
2.651600 10.548969 24.423110 26.735745 1.324537 0.418990 0.073780 -0.010757 -1285680.000000 0 0 1
4.008400 11.222969 24.434070 27.185402 1.227757 0.453786 0.067890 -0.012604 797872.000000 0 0 1
5.121400 10.703969 23.622280 26.435125 1.124530 0.465506 0.077802 -0.018627 1148410.000000 0 0 1
4.969400 10.658969 22.219520 25.139921 1.134538 0.486800 0.070478 -0.029227 -631981.000000 0 0 1
6.298900 10.241969 21.550620 24.677992 1.019414 0.508917 0.087963 -0.030243 528820.000000 0 1 0
7.305900 11.251969 21.515420 25.355400 0.994914 0.557550 0.088551 -0.035367 321483.000000 0 0 1
8.538800 10.753969 21.044920 25.128621 0.899716 0.578126 0.109101 -0.041993 527653.000000 0 0 1
9.586300 11.886969 20.750620 25.764033 0.892132 0.634429 0.104091 -0.043742 -186801.000000 0 0 1
9.215400 12.555969 19.587820 25.025160 0.937649 0.671764 0.093200 -0.039262 -22219.800000 0 0 1
9.942600 13.705969 19.217320 25.612776 0.943212 0.722277 0.110413 -0.037573 -484432.000000 0 0 1
11.309800 13.450969 18.585120 25.578249 0.871658 0.757438 0.103723 -0.034233 127542.000000 0 0 1
12.376200 13.133969 19.513420 26.579034 0.815094 0.746359 0.122914 -0.037029 -98033.000000 0 0 1
13.504200 12.845969 18.767220 26.449780 0.760423 0.781949 0.105407 -0.038834 -617685.000000 0 0 1
14.832900 12.775969 19.537920 27.658102 0.711033 0.786385 0.127826 -0.034662 107228.000000 0 0 1
15.403900 13.994969 19.926220 28.813079 0.737510 0.807138 0.135694 -0.036794 -190013.000000 0 0 1
16.634100 13.854969 20.586920 29.874315 0.694498 0.810525 0.148108 -0.040220 -100950.000000 0 0 1
17.374100 15.121969 20.939020 31.128377 0.716204 0.832990 0.151953 -0.038296 -210503.000000 0 0 1
16.872600 15.808969 22.092020 31.979141 0.752864 0.808166 0.153708 -0.040783 561101.000000 0 0 1
17.813700 16.773969 22.587880 33.300244 0.755346 0.825336 0.133759 -0.033746 255562.000000 0 0 1
-21.728500 12.831813 -24.139638 34.921416 -0.533444 2.334022 0.071566 -0.005803 -141771.000000 0 0 1
-21.692800 12.633713 -25.498768 35.782335 -0.527372 2.364005 0.071873 -0.022000 355134.000000 0 0 1
-22.331600 13.672413 -26.313118 37.121630 -0.549375 2.358642 0.085712 -0.016258 328191.000000 0 0 1
-22.154000 13.372513 -27.797448 37.977914 -0.543074 2.391957 0.067015 -0.018441 -219072.000000 0 0 1
-20.832800 13.583013 -28.201888 37.601201 -0.577781 2.418898 0.067425 -0.014299 -540276.000000 0 0 1
-20.876800 14.302013 -29.476328 38.848968 -0.600634 2.432175 0.063262 -0.024786 879935.000000 0 0 1
-19.473200 14.753413 -30.035388 38.716835 -0.648364 2.458732 0.058702 -0.025548 946308.000000 0 0 1
-18.581600 13.698413 -30.393348 38.166451 -0.635261 2.492011 0.053304 -0.018916 510569.000000 0 0 1
-17.195300 14.011013 -30.337748 37.581456 -0.683710 2.510279 0.042613 -0.011763 580887.000000 0 0 1
-16.548900 13.514813 -29.038508 36.052063 -0.684817 2.507248 0.089392 -0.012490 -532439.000000 0 0 1
-17.148600 14.006613 -27.861408 35.588169 -0.684889 2.470084 0.093288 -0.007261 -32565.300000 0 0 1
-17.604400 12.956213 -27.024268 34.757581 -0.634458 2.461488 0.112490 -0.006070 -142273.000000 0 0 1
-18.339800 13.356413 -25.745768 34.315982 -0.629451 2.419245 0.100434 -0.016723 -460889.000000 0 0 1
-17.499400 13.924613 -24.779838 33.379099 -0.672125 2.407406 0.171239 -0.026980 116396.000000 0 0 1
-18.215000 14.345013 -23.624338 33.100982 -0.667096 2.365570 0.148489 -0.029191 -19266.200000 0 0 1
-17.340100 15.053313 -22.552738 32.185514 -0.714921 2.347190 0.158855 -0.027212 3040.110000 0 0 1
-17.003000 16.405213 -22.877138 32.887634 -0.767507 2.340072 0.132995 -0.024674 -245235.000000 0 0 1
-16.226300 16.930213 -21.833738 32.041178 -0.806625 2.320508 0.136946 -0.022321 -520080.000000 0 0 1
-15.928700 18.423013 -21.959538 32.792564 -0.857882 2.304534 0.116164 -0.021762 219822.000000 0 0 1
-17.046900 19.285113 -21.949638 33.827489 -0.846925 2.276895 0.080509 -0.015957 331957.000000 0 0 1
-18.021700 19.231313 -22.975638 34.964340 -0.817857 2.287783 0.070021 -0.014805 -326575.000000 0 0 1
-19.176300 20.202013 -22.783338 35.985168 -0.811440 2.256388 0.047282 -0.011588 -248586.000000 0 0 1
-18.936700 21.495913 -23.163238 36.840311 -0.848610 2.250737 0.042011 -0.009427 864922.000000 0 0 1
-20.220600 22.147413 -23.071138 37.837257 -0.830845 2.226537 0.059473 -0.025613 894014.000000 0 0 1
-20.048800 23.634113 -23.373038 38.817839 -0.867290 2.216951 0.046899 -0.028471 -89014.600000 0 0 1
-19.236100 24.252913 -22.414738 38.218475 -0.900249 2.197514 0.051154 -0.025384 101930.000000 0 0 1
-18.331300 25.194313 -23.002638 38.728689 -0.941788 2.206748 0.051236 -0.013292 116045.000000 0 0 1
-17.156200 25.563913 -22.058538 37.873843 -0.979724 2.192501 0.054686 -0.017222 338153.000000 0 0 1
-16.083600 24.620413 -21.939338 36.690346 -0.992131 2.211749 0.066255 -0.027888 373762.000000 0 0 1
-16.406300 23.352213 -21.321038 35.624138 -0.958355 2.212423 0.076094 -0.016261 -1150690.000000 0 0 1
-15.216400 22.413013 -21.179138 34.386595 -0.974366 2.234340 0.107608 -0.021521 -468140.000000 0 0 1
-14.393800 22.801113 -20.097938 33.630334 -1.007697 2.211318 0.129679 -0.032897 -221646.000000 0 0 1
-13.346400 21.854213 -19.981338 32.480562 -1.022545 2.233408 0.130038 -0.027639 -215832.000000 0 0 1
-12.549000 22.101313 -18.675338 31.539082 -1.054394 2.204500 0.106159 -0.026508 -58546.400000 0 0 1
-13.119000 21.754713 -17.400038 30.791834 -1.028143 2.171334 0.119433 -0.027086 -141648.000000 0 0 1
-14.198800 22.549413 -16.981838 31.598494 -1.008842 2.138178 0.125758 -0.042349 -153298.000000 0 0 1
-14.543000 22.609613 -15.424938 30.993906 -0.999201 2.091714 0.135807 -0.042067 280587.000000 0 0 1
-13.562600 23.234913 -14.631438 30.624897 -1.042436 2.068903 0.129020 -0.055310 48859.500000 0 0 1
-14.157300 23.480413 -13.368038 30.503498 -1.028217 2.024443 0.137585 -0.052589 380732.000000 0 0 1
-13.145600 23.982013 -12.279938 29.979003 -1.069379 1.992832 0.166076 -0.048002 -15054.500000 0 0 1
-12.607700 25.252613 -12.534638 30.883098 -1.107738 1.988731 0.164317 -0.055812 -338063.000000 0 0 1
-11.749900 25.646213 -11.535838 30.477270 -1.141183 1.958978 0.102682 -0.043551 -468004.000000 0 0 1
-11.228700 27.082813 -11.803638 31.605195 -1.177762 1.953545 0.139191 -0.045066 249661.000000 0 0 1
-10.347900 27.158213 -12.929938 31.809289 -1.206756 1.989398 0.132568 -0.047102 285913.000000 0 0 1
-10.319000 28.453513 -13.356238 33.082825 -1.222886 1.986377 0.096920 -0.025318 -318724.000000 0 0 1
-9.527400 28.631913 -14.738238 33.582339 -1.249567 2.025136 0.128817 -0.045018 982695.000000 0 0 1
-8.106300 28.684813 -14.738238 33.252764 -1.295379 2.029982 0.081257 -0.044788 -6508.810000 0 0 1
-7.534400 27.458513 -14.430238 31.921292 -1.302995 2.039866 0.094044 -0.044051 -717801.000000 0 0 1
-6.101000 27.268313 -14.991938 31.710272 -1.350682 2.063238 0.090121 -0.046372 102509.000000 0 0 1
-5.291800 28.253313 -14.433238 32.164751 -1.385643 2.036138 0.066272 -0.037993 -1153880.000000 0 0 1
-4.031800 28.280713 -15.030938 32.279765 -1.429187 2.055161 0.080475 -0.039099 -526955.000000 0 0 1
-3.005000 29.187513 -14.317138 32.648452 -1.468203 2.024752 0.055880 -0.034717 -243524.000000 0 0 1
-3.141600 30.627413 -14.418238 33.996966 -1.468579 2.008768 0.039572 -0.023848 72954.700000 0 0 1
-4.226200 31.207313 -13.681538 34.335720 -1.436192 1.980638 0.022225 -0.020158 339894.000000 0 0 1
-4.282000 32.719113 -13.760438 35.752280 -1.440664 1.965877 0.029488 -0.025590 999898.000000 0 0 1
-3.119600 33.391313 -13.213438 36.045897 -1.477641 1.946119 0.007324 -0.021147 759694.000000 0 0 1
-3.258400 -32.914431 -13.449338 35.705205 1.472122 1.957003 0.030173 -0.019145 431459.000000 0 0 1
-2.489800 -31.994131 -12.463138 34.426056 1.493132 1.941237 0.044986 -0.029608 -208279.000000 0 0 1
-3.043800 -32.121731 -11.230238 34.164142 1.476320 1.905738 0.045849 -0.032346 -187747.000000 0 0 1
-2.391600 -31.296131 -10.303138 33.035167 1.494526 1.887972 0.056656 -0.035683 -122317.000000 0 0 1
-2.772200 -31.421531 -8.798838 32.747783 1.482798 1.842824 0.056547 -0.027954 -287131.000000 0 0 1
-1.885600 -30.596831 -8.126138 31.713652 1.509247 1.829921 0.095696 -0.037728 -152689.000000 0 0 1
-2.024800 -30.828831 -6.758438 31.625830 1.505212 1.786157 0.073669 -0.035061 784038.000000 0 0 1
-0.703800 -30.327931 -6.066338 30.936697 1.547594 1.768164 0.092408 -0.043370 894414.000000 0 0 1
-0.733400 -30.412931 -4.663838 30.777194 1.546686 1.722918 0.095339 -0.049284 -441515.000000 0 0 1
0.485200 -29.918331 -4.181738 30.213059 -1.554580 1.709650 0.087373 -0.047961 -372134.000000 0 0 1
0.668200 -30.124131 -2.673538 30.249919 -1.548618 1.659293 0.081819 -0.038399 -484795.000000 0 0 1
0.874800 -31.391531 -2.163638 31.478165 -1.542936 1.639585 0.096403 -0.044458 -191132.000000 0 0 1
1.999000 -32.147431 -2.552338 32.310490 -1.508694 1.649873 0.098041 -0.043375 852236.000000 0 0 1
3.400800 -31.755931 -1.920238 31.995186 -1.464111 1.630849 0.090889 -0.037955 80560.700000 0 0 1
3.408600 -32.001731 -0.533438 32.187170 -1.464683 1.587370 0.083700 -0.032081 264488.000000 0 0 1
4.649600 -31.732931 0.116062 32.071969 -1.425309 1.567178 0.075272 -0.028451 479088.000000 0 0 1
5.063900 -30.263731 0.277062 30.685718 -1.405007 1.561767 0.043084 -0.026251 -351594.000000 0 0 1
5.296100 -29.630031 -1.006438 30.116446 -1.393923 1.604221 0.057383 -0.035756 -26159.200000 0 0 1
5.108000 -28.222531 -0.854738 28.693789 -1.391744 1.600589 0.064822 -0.030034 -342482.000000 0 0 1
4.536000 -27.476831 -2.099338 27.927742 -1.407187 1.646038 0.053231 -0.023152 220782.000000 0 0 1
3.256600 -28.013631 -2.457138 28.309124 -1.455065 1.657702 0.064508 -0.026989 90913.700000 0 0 1
2.621400 -27.126531 -3.340038 27.456808 -1.474459 1.692745 0.064075 -0.028861 -270778.000000 0 0 1
3.156400 -26.954931 -4.811338 27.562296 -1.454228 1.746258 0.068422 -0.030501 -201239.000000 0 0 1
3.036000 -28.149631 -5.599938 28.861364 -1.463359 1.766064 0.065127 -0.035112 -165173.000000 0 0 1
3.467100 -27.861031 -6.885638 28.907955 -1.446990 1.811300 0.082833 -0.036964 -652388.000000 0 0 1
2.745900 -28.544831 -8.060638 29.787938 -1.474895 1.844813 0.082894 -0.038421 778494.000000 0 0 1
1.438300 -27.971931 -8.324838 29.219866 -1.519422 1.859702 0.090015 -0.039593 672743.000000 0 0 1
1.020700 -28.320131 -9.643538 29.934420 -1.534770 1.898802 0.072624 -0.027890 343621.000000 0 0 1
-0.477800 -28.010631 -9.874138 29.703912 1.553740 1.909663 0.100299 -0.031358 -199991.000000 0 0 1
-0.858000 -26.626031 -9.862738 28.406959 1.538583 1.925374 0.113255 -0.030497 21322.700000 0 0 1
-2.235000 -26.329131 -9.719238 28.154608 1.486112 1.923258 0.130408 -0.034774 458424.000000 0 0 1
-2.955200 -26.682631 -8.365238 28.118912 1.460492 1.872864 0.129223 -0.030938 -241730.000000 0 0 1
-2.565600 -26.103531 -7.091238 27.170983 1.472825 1.834839 0.137513 -0.037622 -804650.000000 0 0 1
-1.393500 -26.708731 -6.647938 27.558905 1.518670 1.814426 0.123195 -0.036150 -295029.000000 0 0 1
-1.058600 -26.438031 -5.164538 26.958535 1.530777 1.763561 0.134618 -0.037585 -316110.000000 0 0 1
-2.054000 -26.969331 -4.347038 27.394534 1.494782 1.730153 0.138063 -0.039959 -257321.000000 0 0 1
-1.792800 -26.809131 -2.976138 27.033332 1.504023 1.681111 0.126688 -0.034154 -695743.000000 0 0 1
-2.954600 -27.261631 -2.124638 27.503460 1.462838 1.648123 0.118581 -0.035428 -34941.700000 0 0 1
-4.068900 -26.369831 -2.181638 26.770945 1.417702 1.652380 0.114528 -0.031539 144248.000000 0 0 1
-4.802800 -26.282731 -0.983038 26.736029 1.390055 1.607573 0.116826 -0.039831 -514636.000000 0 0 1
-5.923800 -25.257831 -1.033638 25.963780 1.340427 1.610618 0.112747 -0.022944 -544877.000000 0 0 1
-5.561500 -23.882131 -0.862738 24.536316 1.342001 1.605965 0.078395 -0.030282 -415681.000000 0 1 0
-6.639500 -23.100531 -0.409738 24.039247 1.290923 1.587842 0.099526 -0.035454 124602.000000 0 1 0
-6.168100 -21.673231 0.033662 22.533876 1.293531 1.569303 0.064425 -0.037507 508610.000000 0 1 0
-5.201900 -21.659331 1.068762 22.300867 1.335092 1.522853 0.048386 -0.035541 85298.600000 0 1 0
-4.444100 -20.464331 1.161562 20.973510 1.356953 1.515386 0.019867 -0.020789 771728.000000 0 1 0
-3.476100 -20.288631 2.417462 20.725732 1.401111 1.453890 0.011326 -0.009527 619673.000000 0 1 0
-4.202100 -19.946731 3.617862 20.703108 1.363166 1.395145 0.010888 -0.013163 349597.000000 0 1 0
-3.379100 -19.769231 4.785562 20.618982 1.401505 1.336565 0.031723 -0.013088 71744.400000 0 1 0
-2.659400 -21.032331 5.381662 21.872212 1.445020 1.322193 0.036174 -0.016755 842797.000000 0 1 0
-1.727400 -21.598031 4.441962 22.117638 1.490987 1.368588 0.018666 -0.012200 53398.000000 0 1 0
-1.023200 -22.708031 4.939062 23.261469 1.525768 1.356840 0.030670 -0.013606 -131724.000000 0 1 0
-0.052000 -23.372731 3.931262 23.701099 1.568572 1.404158 0.043701 -0.016761 577191.000000 0 1 0
1.072600 -22.558831 3.548762 22.861432 -1.523285 1.414937 0.060798 -0.023779 -25242.900000 0 1 0
2.227200 -23.032631 4.174662 23.513620 -1.474398 1.392308 0.072738 -0.018834 -978162.000000 0 1 0
3.318300 -22.029831 4.500562 22.728388 -1.421293 1.371464 0.085273 -0.022335 -521220.000000 0 1 0
3.959300 -21.576531 3.342362 22.189956 -1.389315 1.419596 0.083970 -0.023488 -360455.000000 0 1 0
5.144500 -20.883131 3.694062 21.822400 -1.329259 1.400699 0.078729 -0.022564 368831.000000 0 1 0
5.944300 -20.460831 2.449062 21.447103 -1.288058 1.456356 0.075097 -0.024012 375667.000000 0 1 0
6.629900 -21.533531 1.761162 22.599784 -1.272119 1.492789 0.101120 -0.023467 -3909.240000 0 1 0
6.641700 -21.305931 0.361362 22.320069 -1.268613 1.554606 0.072037 -0.034916 -35959.800000 0 1 0
7.648900 -22.185431 -0.386938 23.470167 -1.238787 1.587283 0.092608 -0.026343 1229120.000000 0 1 0
9.033500 -21.742231 -0.409238 23.547743 -1.177015 1.588176 0.087307 -0.023870 796184.000000 0 1 0
9.759800 -22.628131 -1.234638 24.674083 -1.163591 1.620855 0.087457 -0.020741 -1032720.000000 0 1 0
11.194700 -22.268031 -1.455138 24.966056 -1.104971 1.629114 0.088658 -0.019553 -911933.000000 0 1 0
11.260700 -21.185331 -2.361238 24.108029 -1.082242 1.668898 0.071565 -0.020301 -1018620.000000 0 1 0
12.582900 -20.984331 -2.696338 24.615884 -1.030647 1.680553 0.072301 -0.030462 -874437.000000 0 1 0
12.789700 -19.961531 -3.812438 24.011952 -1.000974 1.730244 0.056813 -0.022258 -215042.000000 0 1 0
12.847100 -18.610931 -3.378838 22.865504 -0.966611 1.719110 0.067949 -0.026765 193924.000000 0 1 0
13.065400 -17.674631 -4.457438 22.426904 -0.934232 1.770883 0.068800 -0.020238 -1665490.000000 0 1 0
13.319500 -16.251631 -3.861438 21.364346 -0.884230 1.752537 0.060020 -0.015525 -117533.000000 0 1 0
14.584900 -16.008631 -3.292838 21.905213 -0.831902 1.721690 0.058273 -0.015163 -307958.000000 0 1 0
15.556000 -16.054131 -4.318038 22.767734 -0.801155 1.761608 0.060827 -0.015723 -759887.000000 0 1 0
16.957300 -15.483531 -3.934938 23.297500 -0.740000 1.740509 0.068634 -0.011815 577754.000000 0 1 0
17.750300 -16.150931 -2.999638 24.185193 -0.738256 1.695144 0.081350 -0.029315 182771.000000 0 1 0
19.136700 -16.033031 -3.211538 25.171121 -0.697378 1.698733 0.063011 -0.006593 91514.000000 0 0 1
20.005000 -16.893831 -2.275838 26.282713 -0.701281 1.657496 0.061011 -0.023995 809399.000000 0 0 1
21.413600 -16.626431 -2.317838 27.209426 -0.660211 1.656085 0.069903 -0.016337 1004570.000000 0 0 1
22.132500 -17.444031 -1.373238 28.213960 -0.667482 1.619488 0.076164 -0.015125 58839.900000 0 0 1
23.654800 -17.465231 -1.591438 29.446842 -0.635995 1.624867 0.107086 -0.020138 -370110.000000 0 0 1
24.195900 -16.334431 -0.940038 29.208541 -0.593812 1.602986 0.106811 -0.025080 247257.000000 0 0 1
25.568000 -16.595031 -0.653238 30.488431 -0.575710 1.592224 0.151445 -0.024098 184781.000000 0 0 1
26.269000 -15.374531 -0.114738 30.437637 -0.529520 1.574566 0.136974 -0.023681 -116806.000000 0 0 1
25.642700 -14.883331 1.062162 29.667993 -0.525892 1.534987 0.111810 -0.026651 4065.130000 0 0 1
26.239800 -13.668131 1.398262 29.619251 -0.480222 1.523571 0.081490 -0.023952 96141.000000 0 0 1
25.437100 -12.750231 2.395262 28.554364 -0.464643 1.486813 0.101814 -0.028349 -309683.000000 0 0 1
25.359100 -13.091731 3.773662 28.787461 -0.476566 1.439331 0.138291 -0.015686 -432911.000000 0 0 1
26.571000 -13.441331 4.384062 30.098296 -0.468328 1.424618 0.155440 -0.005989 -322934.000000 0 0 1
26.303400 -14.180131 5.703962 30.421705 -0.494435 1.382184 0.147767 -0.003041 -62868.900000 0 0 1
25.623800 -15.380431 5.486162 30.384778 -0.540596 1.389244 0.160080 -0.015852 55183.900000 0 0 1
25.182800 -15.946131 6.720962 30.555259 -0.564485 1.349022 0.143669 -0.024317 -300022.000000 0 0 1
24.506200 -17.306331 6.605062 30.719534 -0.614876 1.354092 0.122678 -0.025005 -77157.800000 0 0 1
25.420400 -18.366531 6.381562 32.003914 -0.625675 1.370051 0.108197 -0.022252 53269.300000 0 0 1
24.654300 -19.549631 6.291962 32.087558 -0.670427 1.373430 0.081578 -0.008622 412559.000000 0 0 1
2.458800 22.961113 -2.855438 23.268260 1.464117 1.693825 0.051314 -0.043047 -180132.000000 0 1 0
3.380100 23.921413 -2.505038 24.288563 1.430425 1.674117 0.068565 -0.043529 -713130.000000 0 1 0
4.039000 24.496213 -3.619338 25.089392 1.407384 1.715559 0.095589 -0.040724 11450.900000 0 0 1
5.018600 25.602013 -3.154938 26.279328 1.377227 1.691141 0.077329 -0.032887 -911175.000000 0 0 1
6.030800 25.015813 -2.450138 25.848881 1.334231 1.665726 0.051499 -0.035667 -1117430.000000 0 0 1
6.678600 25.986613 -1.603938 26.878995 1.319239 1.630504 0.046160 -0.031944 100120.000000 0 0 1
7.975000 25.367613 -1.012138 26.610916 1.266202 1.608840 0.027924 -0.042777 -279270.000000 0 0 1
8.995600 25.091713 -1.909238 26.723774 1.226561 1.642301 0.031315 -0.044018 -800347.000000 0 0 1
9.902900 24.194813 -1.290638 26.174838 1.182300 1.620125 0.025288 -0.043694 237631.000000 0 0 1
11.074400 23.969813 -2.299938 26.504415 1.137996 1.657681 0.056430 -0.036850 -326766.000000 0 0 1
12.067200 24.985613 -2.277738 27.840371 1.120869 1.652702 0.056628 -0.029925 294703.000000 0 0 1
13.041200 24.927913 -3.332938 28.329882 1.088796 1.688717 0.087454 -0.028999 1135580.000000 0 0 1
14.096800 23.755013 -3.350738 27.825310 1.035226 1.691510 0.098831 -0.031009 -355425.000000 0 0 1
13.584100 22.444313 -3.485638 26.465537 1.026536 1.702885 0.122939 -0.032531 -289904.000000 0 0 1
13.382800 22.054113 -4.820938 26.243565 1.025380 1.755545 0.158455 -0.042265 138197.000000 0 0 1
12.325200 20.931413 -5.010838 24.802079 1.038625 1.774230 0.157596 -0.045254 242540.000000 0 1 0
10.974400 21.252213 -4.797038 24.394786 1.094124 1.768728 0.129422 -0.038502 -107485.000000 0 1 0
10.151900 20.093413 -4.740338 23.006024 1.102969 1.778331 0.111308 -0.030977 -178119.000000 0 1 0
8.663900 20.457513 -4.714738 22.711269 1.170191 1.779912 0.086151 -0.028255 -420942.000000 0 1 0
8.290800 20.913913 -3.419038 22.755636 1.193376 1.721618 0.095685 -0.032207 343860.000000 0 1 0
6.944400 21.363013 -3.400338 22.719272 1.256504 1.721028 0.080881 -0.028634 257102.000000 0 1 0
6.359600 21.881913 -2.122838 22.886002 1.287955 1.663687 0.057740 -0.037392 -129566.000000 0 1 0
6.035100 20.950613 -1.131138 21.831860 1.290326 1.622631 0.051586 -0.043887 -339272.000000 0 1 0
5.296700 21.579113 -0.165338 22.220272 1.330100 1.578237 0.061477 -0.042780 -478549.000000 0 1 0
4.738000 20.743013 0.999062 21.300689 1.346235 1.523876 0.034338 -0.040584 -375318.000000 0 1 0
3.825600 21.469813 1.814262 21.883319 1.394462 1.487795 0.035736 -0.035972 170407.000000 0 1 0
3.358100 20.626813 2.862562 21.093518 1.409410 1.434668 0.045112 -0.033995 472667.000000 0 1 0
2.360300 21.369513 3.841862 21.840032 1.460790 1.393967 0.023713 -0.022608 90428.700000 0 1 0
1.105600 21.651213 3.293562 21.928177 1.519777 1.420028 0.019386 -0.016090 -735692.000000 0 1 0
0.221300 22.023013 4.299862 22.439940 1.560748 1.377987 0.026017 -0.027890 -417943.000000 0 1 0
-1.156500 22.396413 3.795062 22.745094 -1.519204 1.403160 0.026399 -0.017075 -245517.000000 0 1 0
-2.202600 22.709913 4.708362 23.297216 -1.474110 1.367295 0.037678 -0.028131 606854.000000 0 1 0
-3.421900 22.726613 3.928662 23.316147 -1.421351 1.401493 0.056464 -0.025634 644483.000000 0 1 0
-4.681900 22.926613 4.781362 23.883283 -1.369354 1.369237 0.070962 -0.039596 -216547.000000 0 1 0
-4.838700 24.202413 5.355562 25.255729 -1.373472 1.357121 0.109121 -0.034929 1324190.000000 0 0 1
-6.074500 24.142413 6.167162 25.647408 -1.324302 1.327957 0.121574 -0.034661 1542250.000000 0 0 1
-6.606600 25.503213 6.642462 27.169530 -1.317319 1.323811 0.138776 -0.039128 -334570.000000 0 0 1
-5.918200 26.204913 7.658962 27.935323 -1.348680 1.293072 0.096151 -0.043531 -620727.000000 0 0 1
-6.473300 27.362913 8.237462 29.299973 -1.338495 1.285812 0.135277 -0.033361 -431091.000000 0 0 1
-6.681200 28.712013 7.467462 30.410214 -1.342168 1.322701 0.151094 -0.041376 407324.000000 0 0 1
-7.920300 28.675813 6.776062 30.511448 -1.301314 1.346846 0.144751 -0.049194 -133735.000000 0 0 1
-8.114500 29.870513 6.020962 31.533231 -1.305542 1.378676 0.170404 -0.055532 545742.000000 0 0 1
-9.575500 30.115713 5.508862 32.077935 -1.262948 1.398207 0.178922 -0.056454 1102070.000000 0 0 1
-10.577400 30.564713 6.407462 32.971786 -1.237631 1.375220 0.144683 -0.047644 87208.900000 0 0 1
-11.264500 29.478113 7.033462 32.331373 -1.205789 1.351500 0.125027 -0.041907 -146204.000000 0 0 1
-12.114100 30.108713 8.201562 33.474642 -1.188270 1.323268 0.084207 -0.035660 22759.400000 0 0 1
-11.340400 30.519813 9.292462 33.858729 -1.215032 1.292781 0.097334 -0.031872 -75774.700000 0 0 1
-12.118300 30.714113 10.447762 34.631859 -1.194996 1.264341 0.094328 -0.022500 207096.000000 0 0 1
-11.222400 31.138313 11.681962 35.099929 -1.224882 1.231504 0.087581 -0.030938 361184.000000 0 0 1
-10.777400 32.511813 11.549662 36.146439 -1.250704 1.245569 0.095561 -0.030870 287309.000000 0 0 1
-9.762800 32.787313 12.491362 36.419147 -1.281394 1.220699 0.089211 -0.039932 105166.000000 0 0 1
-9.365300 -33.380231 12.557762 36.873379 1.297264 1.223279 0.108331 -0.045018 73614.600000 0 0 1
-10.430200 -32.566931 13.018562 36.590669 1.260849 1.207038 0.113128 -0.034625 124098.000000 0 0 1
-10.193800 -31.182931 12.831262 35.226837 1.254844 1.197972 0.113010 -0.037646 -195093.000000 0 0 1
-11.337600 -30.339631 13.392662 35.048506 1.213175 1.178709 0.098840 -0.031287 -195177.000000 0 0 1
-11.645100 -30.485931 14.764762 35.818969 1.205918 1.145923 0.090272 -0.032185 525230.000000 0 0 1
-10.674100 -29.857931 15.628562 35.350876 1.227459 1.112860 0.101426 -0.032457 430353.000000 0 0 1
-10.771900 -30.143731 17.084562 36.284441 1.227588 1.080541 0.095031 -0.041189 -940598.000000 0 0 1
-11.830400 -29.585631 17.732462 36.465164 1.190402 1.062963 0.102472 -0.038393 -678093.000000 0 0 1
-12.109200 -30.418831 18.889062 37.798607 1.191944 1.047510 0.092539 -0.042538 -122533.000000 0 0 1
-12.459000 -29.598231 20.141862 37.907474 1.172372 1.010612 0.117853 -0.042665 -390695.000000 0 0 1
-11.326100 -29.077531 20.769862 37.485604 1.199362 0.983544 0.103683 -0.046686 -230128.000000 0 0 1
-11.557900 -28.065631 21.744062 37.337233 1.180145 0.949156 0.105871 -0.050394 -30847.200000 0 0 1
-10.280400 -27.748631 22.556362 37.208368 1.215992 0.919501 0.118960 -0.045403 76982.800000 0 0 1
-9.859000 -28.858331 23.302362 38.379724 1.241593 0.918324 0.097279 -0.029008 -1008900.000000 0 0 1
-8.583300 -28.649931 23.773862 38.205865 1.279714 0.899174 0.115252 -0.021425 -883292.000000 0 0 1
-8.286300 -29.474431 25.062262 39.566676 1.296735 0.884833 0.110763 -0.022602 -26793.000000 0 0 1
-8.051600 -30.883531 24.854662 40.452132 1.315765 0.909144 0.113754 -0.007049 235926.000000 0 0 1
-8.116000 -31.690331 26.028762 41.804820 1.320082 0.898702 0.116731 -0.003803 -317492.000000 0 0 1
-8.326600 -33.223331 25.771562 42.863684 1.325229 0.925738 0.110012 -0.009637 91634.600000 0 0 1
-7.212000 33.809413 25.142862 42.746378 -1.360633 0.941981 0.121669 -0.016400 919721.000000 0 0 1
-7.562500 32.468913 24.727662 41.507577 -1.341961 0.932612 0.101634 -0.015431 -13302.400000 0 0 1
-8.301500 32.293913 23.407762 40.739846 -1.319183 0.958722 0.107844 -0.016806 123258.000000 0 0 1
-8.828600 30.966513 23.240662 39.711428 -1.293063 0.945622 0.098694 -0.011330 723899.000000 0 0 1
-9.740700 30.766813 22.134862 39.133491 -1.264183 0.969606 0.086143 -0.015946 718258.000000 0 0 1
-10.494200 29.381913 22.268362 38.331514 -1.227752 0.950912 0.078098 -0.017033 300493.000000 0 0 1
-9.668400 28.276713 21.940462 37.073364 -1.241337 0.937491 0.058481 -0.012166 306665.000000 0 0 1
-10.310300 27.071813 22.264162 36.535986 -1.206907 0.915523 0.037009 -0.004931 -295149.000000 0 0 1
-9.419200 25.912413 21.875362 35.195255 -1.222144 0.900086 0.053309 -0.017961 -653545.000000 0 0 1
-8.138100 25.948813 22.410062 35.238905 -1.266890 0.881562 0.042649 -0.018723 -641730.000000 0 0 1
-7.501900 24.703013 22.273962 34.097606 -1.275964 0.858939 0.045747 -0.017613 -391260.000000 0 0 1
-6.170100 24.631413 23.033562 34.282964 -1.325350 0.834071 0.059648 -0.019233 -591518.000000 0 0 1
-5.229400 25.366513 22.341762 34.204692 -1.367491 0.859022 0.064035 -0.016836 -943778.000000 0 0 1
-3.985200 25.473113 22.999962 34.550826 -1.415607 0.842385 0.094154 -0.017380 604919.000000 0 0 1
-2.894600 25.788613 21.889662 33.949795 -1.459021 0.870080 0.100443 -0.016973 269219.000000 0 0 1
-2.590700 24.742213 21.022662 32.570556 -1.466469 0.869184 0.079089 -0.011173 47073.200000 0 0 1
-1.754000 25.249913 19.998862 32.258163 -1.501442 0.902101 0.084891 -0.006272 -70070.200000 0 0 1
-1.242000 24.135013 19.042962 30.768097 -1.519381 0.903431 0.056684 -0.002092 -250348.000000 0 0 1
-0.172800 23.352613 19.494862 30.420783 -1.563397 0.875204 0.055682 -0.008875 -299013.000000 0 0 1
0.121500 22.281713 18.656162 29.061003 1.565343 0.873737 0.048064 -0.014503 -494706.000000 0 0 1
1.215600 21.299513 19.046062 28.598941 1.513786 0.842002 0.042338 -0.014753 -418692.000000 0 0 1
2.492500 21.785213 18.704962 28.821583 1.456879 0.864538 0.039300 -0.013608 -70198.700000 0 0 1
3.497100 20.790313 19.019762 28.393981 1.404148 0.836787 0.049108 -0.016065 -752761.000000 0 0 1
4.847900 21.398313 18.914762 28.968227 1.348002 0.859325 0.043370 -0.022426 -1588730.000000 0 0 1
5.895200 20.470313 18.977362 28.529412 1.290396 0.843054 0.067786 -0.031932 -897887.000000 0 0 1
7.097000 21.138413 18.745162 29.130414 1.246882 0.871746 0.111344 -0.032874 -255301.000000 0 0 1
8.275000 20.169913 18.430062 28.547648 1.181473 0.869001 0.113082 -0.026939 92357.400000 0 0 1
8.786900 19.402813 19.510862 28.885160 1.145561 0.829204 0.116741 -0.032778 700623.000000 0 0 1
9.859600 18.495313 19.121962 28.371425 1.081031 0.831204 0.135222 -0.037402 878090.000000 0 0 1
10.439300 17.771413 20.348962 28.963466 1.039678 0.791789 0.150867 -0.035950 -183130.000000 0 0 1
9.487700 16.923713 20.954762 28.557496 1.059839 0.746935 0.126805 -0.033213 154981.000000 0 0 1
9.968700 16.289213 22.122262 29.225125 1.021613 0.712147 0.123985 -0.031010 -131029.000000 0 0 1
8.917000 15.283913 22.634762 28.730529 1.042654 0.663519 0.110117 -0.030448 -507842.000000 0 0 1
7.947800 15.945813 23.396662 29.408166 1.108409 0.650826 0.093895 -0.022148 -1215530.000000 0 0 1
6.726200 15.356913 23.558762 28.915252 1.157973 0.618495 0.089219 -0.026492 -764594.000000 0 0 1
6.686300 13.995713 24.303962 28.831739 1.125115 0.568037 0.095332 -0.019448 -844326.000000 0 0 1
7.266000 14.180913 25.562262 30.121791 1.097295 0.557406 0.107170 -0.025537 65859.200000 0 0 1
7.505600 12.974913 26.294662 30.267006 1.046358 0.518110 0.117322 -0.035753 -500832.000000 0 0 1
8.409800 13.262413 27.513662 31.679929 1.005674 0.518651 0.096779 -0.029193 1873660.000000 0 0 1
9.829100 13.563213 27.284362 32.015752 0.943693 0.550588 0.150166 -0.032795 1962390.000000 0 0 1
10.052200 14.874613 26.795362 32.253562 0.976500 0.590303 0.128784 -0.030881 -54918.300000 0 0 1
11.514500 15.151613 26.303762 32.466028 0.920956 0.626314 0.161161 -0.044770 685045.000000 0 0 1
11.848700 14.353413 25.180162 31.312181 0.880701 0.636527 0.155380 -0.051818 -477898.000000 0 0 1
13.159500 13.879913 25.124462 31.576304 0.812035 0.650676 0.192279 -0.070739 -853692.000000 0 0 1
13.415000 12.774613 24.070662 30.373503 0.760951 0.655917 0.161463 -0.059404 477440.000000 0 0 1
12.714300 11.506013 24.275362 29.720951 0.735552 0.614995 0.165391 -0.049054 626903.000000 0 0 1
11.311500 11.496413 24.077262 28.979856 0.793505 0.590203 0.165678 -0.040003 -210485.000000 0 0 1
10.716900 10.220213 24.535762 28.658477 0.761680 0.543037 0.173415 -0.038061 -277152.000000 0 0 1
11.205900 9.168713 23.704262 27.776420 0.685743 0.548332 0.165351 -0.036934 216944.000000 0 0 1
10.801200 7.892113 24.122562 27.583498 0.631015 0.506333 0.171743 -0.041381 52633.900000 0 0 1
11.278200 6.808613 23.127462 26.616433 0.543133 0.517787 0.150064 -0.037725 1052930.000000 0 0 1
12.687500 6.486313 23.100562 27.141865 0.472596 0.552711 0.163770 -0.030533 1294880.000000 0 0 1
13.065400 5.556013 22.117262 26.282070 0.402079 0.570679 0.172390 -0.043702 -52308.300000 0 0 1
12.857600 4.109213 22.513762 26.250199 0.309335 0.540094 0.155209 -0.043285 235286.000000 0 0 1
13.907000 3.620813 23.371862 27.436451 0.254704 0.551281 0.141892 -0.032230 487447.000000 0 0 1
13.537500 2.426013 24.022462 27.680826 0.177325 0.519963 0.129742 -0.027709 -687015.000000 0 0 1
14.624900 1.692713 24.804662 28.844830 0.115229 0.535655 0.085395 -0.018340 -877850.000000 0 0 1
15.509400 1.055713 23.986362 28.583239 0.067964 0.575030 0.099192 -0.026388 546977.000000 0 0 1
16.846400 1.623713 24.016762 29.380988 0.096087 0.613869 0.086653 -0.025357 995005.000000 0 0 1
17.897700 0.853513 23.178662 29.296868 0.047652 0.658085 0.077290 -0.027053 -67773.400000 0 0 1
18.191000 -0.387587 23.741962 29.912262 -0.021303 0.653896 0.080079 -0.032117 -132064.000000 0 0 1
19.039900 -1.134287 22.905462 29.807123 -0.059504 0.694372 0.093607 -0.026040 -44826.700000 0 0 1
19.256000 -2.602787 23.330362 30.362375 -0.134353 0.694464 0.091648 -0.027763 -324493.000000 0 0 1
18.396000 -3.449187 22.662162 29.391891 -0.185345 0.690332 0.085417 -0.026461 -249121.000000 0 0 1
18.481500 -4.766687 23.093262 29.959737 -0.252416 0.690685 0.102261 -0.025704 76106.900000 0 0 1
17.372000 -5.623887 22.448762 28.937197 -0.313085 0.682854 0.101320 -0.029807 -221714.000000 0 0 1
17.652000 -5.922687 21.104862 28.144031 -0.323722 0.722904 0.094710 -0.027264 354753.000000 0 0 1
16.959400 -7.123687 20.645362 27.651385 -0.397665 0.727814 0.122390 -0.039140 102753.000000 0 0 1
17.550700 -8.453887 21.069062 28.694958 -0.448888 0.746246 0.134061 -0.040446 -90423.700000 0 0 1
17.463700 -8.806887 22.442262 29.769064 -0.467079 0.716851 0.119396 -0.032565 -81992.200000 0 0 1
18.270700 -9.916787 22.726062 30.799919 -0.497275 0.740900 0.112961 -0.029562 114279.000000 0 0 1
17.521700 -11.029487 23.581462 31.380645 -0.561811 0.720516 0.140717 -0.039686 -103049.000000 0 0 1
16.538300 -11.770687 22.946162 30.636429 -0.618550 0.724271 0.156349 -0.034732 -209132.000000 0 0 1
15.982300 -12.732087 23.855662 31.410707 -0.672687 0.708290 0.168449 -0.024206 585009.000000 0 0 1
14.757200 -13.502587 23.259862 30.677613 -0.741032 0.710244 0.179172 -0.035980 437367.000000 0 0 1
15.174600 -14.398087 22.252962 30.541246 -0.759146 0.754491 0.190815 -0.038515 164744.000000 0 0 1
14.045100 -15.097987 21.804362 30.010735 -0.821511 0.757506 0.180589 -0.031002 -265426.000000 0 0 1
14.340200 -16.262887 20.804562 30.049170 -0.848142 0.806055 0.169825 -0.036540 -7646.060000 0 0 1
14.877400 -17.438087 21.440762 31.386783 -0.864473 0.818778 0.189816 -0.045657 446860.000000 0 0 1
15.381800 -18.382687 20.463162 31.516090 -0.874042 0.864142 0.166081 -0.040031 44578.100000 0 0 1
-24.801300 -31.723631 25.502080 47.663921 0.907256 1.006242 0.075787 -0.018903 -290751.000000 0 0 1
-25.218830 -33.077431 25.653060 48.869064 0.919395 1.018158 0.079622 -0.014566 689180.000000 0 0 1
-26.576870 -33.180231 26.083170 49.875741 0.895455 1.020473 0.070886 -0.027206 493537.000000 0 0 1
-26.791790 -33.581331 27.618060 51.071157 0.897387 0.999437 0.059152 -0.030074 -223483.000000 0 0 1
-28.001670 -33.136131 28.183660 51.734084 0.869183 0.994670 0.082462 -0.036297 116915.000000 0 0 1
-27.948730 -33.213131 29.600730 52.539955 0.871260 0.972307 0.064719 -0.031099 -444861.000000 0 0 1
-29.129910 -32.535031 30.278240 53.139926 0.840562 0.964554 0.067594 -0.034038 -683853.000000 0 0 1
-29.135820 -31.193331 30.035210 52.192277 0.819490 0.957615 0.042635 -0.021748 277375.000000 0 0 1
-29.821250 -30.540331 31.087770 52.805949 0.797310 0.941325 0.043667 -0.008284 -137972.000000 0 0 1
-29.895680 -29.043231 30.716340 51.776004 0.770936 0.935701 0.032179 -0.012024 -163589.000000 0 0 1
-30.759240 -28.777331 29.633750 51.501697 0.752122 0.957711 0.030422 0.001947 329166.000000 0 0 1
-31.095440 -27.407731 29.509020 50.881160 0.722447 0.952117 0.026564 -0.001898 64324.200000 0 0 1
-31.876970 -27.081931 28.185590 50.438078 0.704248 0.977839 0.023606 -0.006100 156291.000000 0 0 1
-31.062860 -26.802031 27.061840 49.148686 0.711897 0.987700 0.035034 0.001835 65774.300000 0 0 1
-30.504100 -25.508531 27.080220 48.109496 0.696447 0.972922 0.015077 0.002296 35432.500000 0 0 1
-29.312280 -25.344631 26.090220 46.714663 0.712933 0.978218 0.031906 0.019371 -37862.800000 0 0 1
-29.689120 -25.455331 24.747830 46.280372 0.708772 1.006600 0.018588 0.022819 -403446.000000 0 0 1
-28.695000 -25.054131 23.867530 44.952993 0.717763 1.011082 0.029798 0.023191 -684562.000000 0 0 1
-28.888520 -25.494831 22.422890 44.579357 0.723076 1.043744 0.023405 0.017485 -135690.000000 0 0 1
-29.885140 -24.725031 21.795120 44.491303 0.691188 1.058851 0.006830 0.021387 99977.800000 0 0 1
-30.218790 -25.251031 20.529220 44.409895 0.696079 1.090246 -0.002836 0.015755 -158720.000000 0 0 1
-30.879310 -24.222031 19.613820 43.874145 0.665162 1.107335 -0.002249 0.008600 -34054.000000 0 0 1
-32.152520 -23.803331 20.045520 44.746017 0.637281 1.106287 0.021288 0.011320 -268766.000000 0 0 1
-32.692970 -22.804231 19.265020 44.271936 0.609064 1.120589 0.032914 0.010627 -677881.000000 0 0 1
-34.150776 -22.508531 19.611420 45.359865 0.582741 1.123697 0.073392 0.011373 -888045.000000 0 0 1
-34.989843 -23.576731 19.313120 46.402026 0.592936 1.141520 0.050849 0.010709 298115.000000 0 0 1
-36.353400 -23.122631 19.409220 47.254033 0.566507 1.147528 0.077074 -0.001189 276778.000000 0 0 1
-37.165400 -23.511931 18.222220 47.603857 0.564067 1.177983 0.110916 -0.010542 -654622.000000 0 0 1
-37.366050 -24.900431 18.294820 48.486634 0.587812 1.183899 0.099228 -0.009327 -442435.000000 0 0 1
37.738466 -25.442731 17.154020 48.639334 -0.593190 1.210365 0.115825 -0.005000 -118526.000000 0 0 1
36.953886 -26.740731 17.437020 48.833453 -0.626406 1.205666 0.115148 0.007607 -126114.000000 0 0 1
35.846846 -26.565031 18.304720 48.226135 -0.637762 1.181475 0.127793 -0.010600 -69803.200000 0 0 1
36.043586 -26.557131 19.692920 48.910453 -0.635003 1.156406 0.134189 -0.006600 -134375.000000 0 0 1
34.752506 -26.910931 20.476820 48.489536 -0.658910 1.134822 0.113521 -0.013780 562152.000000 0 0 1
33.685416 -25.979531 20.476920 47.211731 -0.656957 1.122173 0.113991 -0.013543 214769.000000 0 0 1
32.807896 -26.086231 21.590820 47.148839 -0.671759 1.095132 0.129055 -0.011888 67873.000000 0 0 1
31.483886 -25.329831 21.442520 45.745132 -0.677499 1.082934 0.134603 -0.001460 -226975.000000 0 0 1
31.695546 -23.888931 21.311420 45.049587 -0.645865 1.078029 0.121266 0.002242 -181277.000000 0 0 1
32.314686 -23.255831 22.410580 45.687052 -0.623804 1.058106 0.132438 -0.015114 -528655.000000 0 0 1
33.001966 -21.930731 22.009220 45.326510 -0.586521 1.063781 0.119405 -0.011037 57121.800000 0 0 1
32.179416 -20.887831 21.490220 43.973241 -0.575746 1.060184 0.124172 -0.024810 222605.000000 0 0 1
32.994486 -19.776931 21.086120 43.867842 -0.539979 1.069373 0.120990 -0.010542 -531825.000000 0 0 1
32.242416 -18.498631 20.719620 42.556732 -0.520884 1.062293 0.088425 -0.009682 -135520.000000 0 0 1
31.826386 -17.804431 21.894420 42.535659 -0.510049 1.030103 0.090802 -0.017801 318405.000000 0 0 1
30.627706 -18.289731 22.466490 42.158200 -0.538331 1.008761 0.093781 -0.019137 -668875.000000 0 0 1
30.386506 -17.804931 23.950780 42.591023 -0.530024 0.973579 0.080495 -0.026332 -327638.000000 0 0 1
30.127806 -16.437131 24.132630 41.955308 -0.499443 0.957950 0.081416 -0.037012 238150.000000 0 0 1
30.088806 -16.154431 25.521970 42.634175 -0.492724 0.929010 0.089884 -0.040647 -299250.000000 0 0 1
29.980706 -14.625831 25.790350 42.165150 -0.453874 0.912651 0.064883 -0.038474 -298392.000000 0 0 1
28.709806 -14.100931 25.457230 40.879822 -0.456546 0.898565 0.071281 -0.037466 145571.000000 0 0 1
28.394406 -12.861731 26.003220 40.593520 -0.425319 0.875549 0.053173 -0.031847 90542.700000 0 0 1
29.176706 -11.718131 25.324140 40.372105 -0.381908 0.892756 0.077944 -0.038275 -382768.000000 0 0 1
28.847706 -11.802331 23.964110 39.316202 -0.388348 0.915338 0.058350 -0.034443 118936.000000 0 0 1
29.525706 -10.868431 23.126370 39.047652 -0.352708 0.936935 0.074829 -0.028115 546781.000000 0 0 1
30.726206 -11.524431 22.347160 39.702743 -0.358831 0.972952 0.085626 -0.031043 172757.000000 0 0 1
30.290906 -12.458431 21.349520 39.096720 -0.390203 0.993131 0.064368 -0.028413 146491.000000 0 0 1
30.203306 -13.722931 21.856720 39.727506 -0.426467 0.988233 0.070811 -0.033196 -277871.000000 0 0 1
29.582006 -14.787831 20.914220 39.130291 -0.463562 1.006908 0.064687 -0.016681 -170252.000000 0 0 1
30.359906 -15.132131 19.786420 39.270953 -0.462387 1.042754 0.078263 -0.014927 86921.800000 0 0 1
29.593906 -15.984331 18.947420 38.604441 -0.495228 1.057778 0.081700 -0.023316 -155128.000000 0 0 1
30.035006 -16.021131 17.460520 38.257653 -0.490021 1.096859 0.102512 -0.023976 -98677.900000 0 0 1
29.307006 -16.827531 16.546720 37.627920 -0.521219 1.115481 0.100419 -0.027472 1452320.000000 0 0 1
27.944206 -16.361531 16.272720 36.240582 -0.529695 1.105129 0.097369 -0.034389 1051520.000000 0 0 1
27.857306 -15.293831 15.110620 35.188942 -0.502080 1.126953 0.130621 -0.029343 -460743.000000 0 0 1
28.104206 -15.684631 13.787720 35.013644 -0.509032 1.166055 0.147218 -0.033614 565405.000000 0 0 1
27.212806 -16.740331 13.344220 34.624323 -0.551495 1.175155 0.164474 -0.046888 371836.000000 0 0 1
27.565406 -17.241631 11.937620 34.635708 -0.558945 1.218917 0.155773 -0.038018 -272489.000000 0 0 1
27.242506 -16.308531 10.881220 33.563720 -0.539421 1.240635 0.152157 -0.037319 -16941.700000 0 0 1
27.217606 -16.826031 9.556120 33.395102 -0.553697 1.280586 0.140549 -0.038648 47727.500000 0 0 1
28.585706 -17.267431 8.975920 34.581410 -0.543398 1.308231 0.138473 -0.024643 162570.000000 0 0 1
29.101106 -18.406931 9.598620 35.746650 -0.563986 1.298942 0.138299 -0.024428 398664.000000 0 0 1
30.534706 -18.462031 9.528820 36.932551 -0.543813 1.309839 0.111711 -0.004452 1021980.000000 0 0 1
31.181376 -19.502931 10.511720 38.250998 -0.558935 1.292405 0.104159 -0.021388 93714.300000 0 0 1
31.114676 -19.065031 11.818020 38.357061 -0.549730 1.257595 0.116947 -0.038241 165131.000000 0 0 1
31.465436 -20.097031 12.704820 39.438266 -0.568392 1.242802 0.100928 -0.031628 -349746.000000 0 0 1
31.383776 -19.561431 14.148720 39.595167 -0.557374 1.205384 0.110681 -0.016527 -153529.000000 0 0 1
31.718396 -20.508631 15.068120 40.665819 -0.573971 1.191211 0.113465 -0.014927 21682.800000 0 0 1
31.379186 -20.060631 16.361720 40.679087 -0.568815 1.156862 0.119560 -0.022714 79459.500000 0 0 1
30.940956 -21.217931 17.282420 41.306482 -0.601102 1.139119 0.123137 -0.018266 932104.000000 0 0 1
29.621606 -21.707931 16.981020 40.460214 -0.632429 1.137685 0.069835 -0.013405 585878.000000 0 0 1
29.178406 -22.751631 17.849020 41.080453 -0.662266 1.121325 0.109231 -0.019787 312605.000000 0 0 1
27.787606 -23.346331 17.505320 40.294398 -0.698760 1.121385 0.083792 -0.014591 411393.000000 0 0 1
26.742206 -22.658331 18.193520 39.491135 -0.702917 1.092014 0.083563 0.000144 -249723.000000 0 0 1
25.497906 -23.196631 17.835120 38.811318 -0.738174 1.093326 0.079428 -0.014511 -616397.000000 0 0 1
24.370606 -22.548331 18.620320 38.066652 -0.746579 1.059681 0.065045 -0.008099 -522924.000000 0 0 1
23.904506 -21.274331 18.126420 36.777571 -0.727247 1.055416 0.072607 -0.012405 288192.000000 0 0 1
22.757106 -20.764531 18.808820 36.094645 -0.739647 1.022660 0.075157 -0.013524 463923.000000 0 0 1
22.940706 -20.119231 20.186520 36.586269 -0.719967 0.986334 0.059682 -0.012841 -260641.000000 0 0 1
23.182506 -21.184231 21.121420 37.845933 -0.740389 0.978715 0.073727 -0.009047 104071.000000 0 0 1
23.853706 -20.646731 22.289520 38.627834 -0.713456 0.955706 0.043890 -0.005796 363866.000000 0 0 1
24.316506 -21.740231 23.256750 40.060037 -0.729519 0.951396 0.053203 -0.008861 372248.000000 0 0 1
23.224006 -22.477231 23.793830 40.133860 -0.769059 0.936188 0.068956 -0.007698 413365.000000 0 0 1
23.698106 -23.389631 24.765770 41.497210 -0.778847 0.931282 0.070693 -0.002686 -73389.000000 0 0 1
22.495606 -23.988331 25.493650 41.610318 -0.817500 0.911354 0.075195 -0.009787 -203182.000000 0 0 1
21.756506 -24.912031 24.726840 41.296144 -0.852911 0.928833 0.090443 -0.009079 482380.000000 0 0 1
20.824506 -25.625031 25.560490 41.756927 -0.888382 0.912050 0.095242 -0.006454 -68782.200000 0 0 1
19.833506 -26.580531 24.952180 41.503059 -0.929753 0.925778 0.098095 -0.014528 242448.000000 0 0 1
18.770506 -25.902431 24.241910 40.136493 -0.943710 0.922302 0.116215 -0.017252 722582.000000 0 0 1
18.100006 -26.752231 23.332910 39.846164 -0.975962 0.945207 0.104047 -0.019514 2803.320000 0 0 1
17.209706 -25.899431 22.387130 38.316291 -0.984308 0.946814 0.114892 -0.014024 1266720.000000 0 0 1
15.944506 -25.506931 23.021030 37.878736 -1.012122 0.917565 0.100363 -0.016068 1174690.000000 0 0 1
15.145406 -24.943531 21.974320 36.529903 -1.025108 0.925365 0.075557 -0.022092 -215183.000000 0 0 1
13.766806 -24.474531 22.434280 35.941961 -1.058411 0.896714 0.063298 -0.017826 -604910.000000 0 0 1
12.846006 -25.501431 22.639560 36.440260 -1.104164 0.900423 0.062343 -0.014052 -610065.000000 0 0 1
11.591606 -24.992031 22.263120 35.420524 -1.136516 0.891125 0.072441 -0.011800 268666.000000 0 0 1
10.402606 -26.011831 22.192820 35.740046 -1.190360 0.900841 0.077347 -0.017511 370181.000000 0 0 1
10.411406 -26.960331 21.171020 35.825535 -1.202265 0.938563 0.088676 -0.029064 872001.000000 0 0 1
9.141506 -27.645631 21.197220 36.016249 -1.251447 0.941537 0.105872 -0.038111 679060.000000 0 0 1
8.868106 -28.386431 19.848820 35.754838 -1.267997 0.982269 0.120930 -0.041566 -205015.000000 0 0 1
9.431906 -29.650631 19.911420 36.940296 -1.262817 1.001528 0.116416 -0.037270 217256.000000 0 0 1
9.115406 -30.394631 18.739020 36.852071 -1.279430 1.037363 0.121206 -0.039935 -329717.000000 0 0 1
9.663606 -31.791331 18.961520 38.257199 -1.275701 1.052233 0.102889 -0.028156 -658973.000000 0 0 1
9.017306 -32.598231 19.888820 39.236739 -1.300925 1.039220 0.093346 -0.035702 -433412.000000 0 0 1
9.760506 -33.729731 20.176420 40.497533 -1.289116 1.049259 0.068132 -0.029813 -622922.000000 0 0 1
9.081706 32.807213 20.945120 39.968596 1.300738 1.019209 0.081365 -0.036871 -398453.000000 0 0 1
8.274706 31.951713 20.156820 38.674024 1.317388 1.022542 0.072715 -0.033286 24660.600000 0 0 1
8.202206 30.707913 20.839620 38.007130 1.309786 0.990456 0.085920 -0.038094 -243884.000000 0 0 1
7.073206 29.761313 20.373620 36.753917 1.337461 0.983244 0.079397 -0.026384 -139123.000000 0 0 1
5.774006 30.104513 20.794420 37.040907 1.381299 0.974731 0.133212 -0.037310 -611229.000000 0 0 1
4.947706 29.035813 20.454220 35.859913 1.402017 0.963813 0.150271 -0.030713 -331782.000000 0 0 1
3.504306 29.079213 20.968420 36.021597 1.450866 0.949479 0.157354 -0.027157 -148667.000000 0 0 1
3.253706 28.791613 22.323920 36.577329 1.458265 0.914330 0.116041 -0.025485 507858.000000 0 0 1
1.835806 28.694313 22.496380 36.507820 1.506905 0.906879 0.125395 -0.019600 673923.000000 0 0 1
1.443306 28.129613 23.897100 36.938187 1.519532 0.867221 0.121883 -0.021937 -93235.700000 0 0 1
1.303206 29.177913 24.866580 38.358777 1.526162 0.865495 0.129285 -0.031668 -36743.800000 0 0 1
1.123506 28.670313 26.195570 38.851731 1.531629 0.830855 0.133285 -0.033049 812664.000000 0 0 1
2.380406 27.975513 26.882030 38.870802 1.485912 0.807131 0.098096 -0.028525 589870.000000 0 0 1
2.697506 26.651913 26.422920 37.626742 1.469927 0.792260 0.095330 -0.031015 73871.900000 0 0 1
3.694106 26.032913 27.215430 37.842286 1.429836 0.768174 0.066146 -0.024634 40141.000000 0 0 1
4.448306 24.869113 26.561810 36.657741 1.393799 0.760358 0.061307 -0.014601 -1159970.000000 0 0 1
3.583806 23.954413 26.113220 35.616820 1.422288 0.747823 0.076119 -0.010705 -1254350.000000 0 0 1
3.881806 22.594913 26.312320 34.898950 1.400657 0.716731 0.068376 -0.006582 541320.000000 0 0 1
2.651206 21.646313 26.059220 33.980505 1.448925 0.696819 0.071850 -0.002975 498413.000000 0 0 1
2.976506 20.320613 26.398300 33.446333 1.425353 0.661172 0.072975 -0.002432 7783.400000 0 0 1
3.703706 19.677613 25.376190 32.324556 1.384754 0.668030 0.067602 -0.001349 -815631.000000 0 0 1
4.212306 18.292213 25.734510 31.853000 1.344463 0.630191 0.058681 -0.000202 69980.900000 0 0 1
5.382406 18.317413 26.538590 32.692426 1.285000 0.623627 0.061471 -0.003556 -110713.000000 0 0 1
6.524806 18.306113 25.723960 32.239867 1.228407 0.647005 0.087894 -0.013975 -908323.000000 0 0 1
7.874506 17.994313 26.434280 32.932876 1.158293 0.639035 0.077632 -0.019235 516191.000000 0 0 1
8.496506 19.001313 27.234870 34.277962 1.150312 0.652563 0.080329 -0.020899 351234.000000 0 0 1
8.992106 20.162713 26.539840 34.521821 1.151293 0.693858 0.072378 -0.022280 -232951.000000 0 0 1
9.496206 21.224413 27.571870 36.067460 1.150091 0.700604 0.062711 -0.022807 -79571.500000 0 0 1
10.679206 20.766913 28.181840 36.599539 1.095821 0.691947 0.084938 -0.039213 -210341.000000 0 0 1
11.011606 21.657813 29.237320 38.014961 1.100423 0.693364 0.093292 -0.057283 457490.000000 0 0 1
12.229306 21.138313 30.080810 38.745830 1.046308 0.681922 0.120274 -0.062884 600669.000000 0 0 1
13.473706 21.470113 29.495810 38.890993 1.010361 0.709907 0.111554 -0.057653 -564944.000000 0 0 1
14.522806 21.162013 30.365190 39.759118 0.969346 0.701726 0.107627 -0.038875 10840.000000 0 0 1
15.890906 21.010213 29.664200 39.672594 0.923249 0.726167 0.085364 -0.040803 115382.000000 0 0 1
16.345506 22.163213 29.029960 40.014025 0.935339 0.759043 0.071664 -0.043693 139449.000000 0 0 1
17.632306 21.903113 28.469050 40.014140 0.893006 0.779202 0.131339 -0.037271 441307.000000 0 0 1
-8.776100 16.692013 4.427762 19.371327 -1.086749 1.340185 0.032281 -0.020377 -269347.000000 0 1 0
-8.649500 18.051213 4.792262 20.582175 -1.123956 1.335804 0.045129 -0.022494 -643767.000000 0 1 0
-7.326000 18.378313 5.037162 20.415819 -1.191478 1.321494 0.042390 -0.012292 -936180.000000 0 1 0
-7.151900 19.812413 5.641962 21.806263 -1.224373 1.309088 0.048229 -0.012836 -169875.000000 0 1 0
-7.288200 20.988913 4.901662 22.752552 -1.236582 1.353661 0.058961 -0.017416 -685966.000000 0 1 0
-8.588000 21.208113 4.462362 23.312024 -1.186039 1.378189 0.070177 -0.022894 -491041.000000 0 1 0
-8.601800 22.425413 3.452062 24.265343 -1.204530 1.428049 0.122003 -0.034889 526969.000000 0 1 0
-7.923700 22.189113 2.168162 23.660995 -1.227812 1.479033 0.086382 -0.034324 279320.000000 0 1 0
-8.641900 21.350713 1.237262 23.066560 -1.186194 1.517132 0.104332 -0.032923 -782727.000000 0 1 0
-8.011600 21.108513 -0.165838 22.578365 -1.208048 1.578141 0.074757 -0.020777 -162248.000000 0 1 0
-6.723800 20.583613 -0.229638 21.655192 -1.255066 1.581401 0.055691 -0.017113 -821053.000000 0 1 0
-5.701100 21.432413 0.180962 22.178450 -1.310813 1.562637 0.063586 -0.023723 -371275.000000 0 1 0
-4.337900 21.271713 -0.574938 21.717130 -1.369627 1.597273 0.052137 -0.020062 485639.000000 0 1 0
-4.333300 21.725513 -1.932638 22.237592 -1.373923 1.657815 0.049697 -0.018163 241999.000000 0 1 0
-3.006300 21.791813 -2.441338 22.133258 -1.433706 1.681323 0.046813 -0.010063 305973.000000 0 1 0
-2.894700 22.015013 -4.011538 22.563965 -1.440059 1.749532 0.047803 -0.012426 443691.000000 0 1 0
-1.552000 22.293813 -4.389838 22.774843 -1.501293 1.764760 0.071466 -0.019263 200569.000000 0 1 0
-1.426400 22.630813 -5.774638 23.399461 -1.507850 1.820158 0.079880 -0.022845 523994.000000 0 1 0
-0.039000 23.216713 -6.204038 24.031383 -1.569116 1.831918 0.077626 -0.028803 1495240.000000 0 1 0
1.005800 22.204613 -6.123338 23.055406 1.525530 1.839615 0.075198 -0.022124 653227.000000 0 1 0
2.290600 22.680513 -6.476938 23.698170 1.470143 1.847628 0.069650 -0.018346 490685.000000 0 1 0
3.412700 21.610913 -6.537238 22.834482 1.414174 1.861147 0.071810 -0.017710 105904.000000 0 1 0
3.339100 20.863613 -7.700338 22.488556 1.412098 1.920279 0.065308 -0.015113 -230323.000000 0 1 0
4.075000 19.696813 -7.651138 21.519990 1.366788 1.934284 0.056494 -0.020150 -124222.000000 0 1 0
3.818000 18.875013 -8.961838 21.240475 1.371211 2.006361 0.043020 -0.014469 108046.000000 0 1 0
4.230500 19.599713 -10.104238 22.453096 1.358213 2.037579 0.045717 -0.007065 126117.000000 0 1 0
3.454000 19.221313 -11.238138 22.531861 1.392998 2.092971 0.039215 -0.013223 -269633.000000 0 1 0
3.992000 19.589613 -12.631138 23.648143 1.369767 2.134272 0.048454 -0.008105 -79275.400000 0 1 0
3.890100 20.948213 -13.011138 24.964980 1.387187 2.119024 0.088819 -0.014486 -88195.300000 0 1 0
4.299500 21.112613 -14.365838 25.896051 1.369897 2.158859 0.102897 -0.023395 93070.600000 0 0 1
4.515100 22.569413 -14.875638 27.405276 1.373349 2.144566 0.097206 -0.024575 -136904.000000 0 0 1
3.348700 23.363413 -14.868938 27.895308 1.428435 2.132970 0.123973 -0.031673 -260015.000000 0 0 1
3.584300 24.730213 -15.224638 29.261242 1.426863 2.117999 0.107099 -0.027884 515054.000000 0 0 1
2.320700 25.615113 -15.577738 30.069679 1.480444 2.115371 0.108916 -0.030108 588977.000000 0 0 1
1.468700 25.965913 -14.514938 29.783706 1.514294 2.079843 0.122565 -0.032298 -148917.000000 0 0 1
1.828400 27.149013 -13.835438 30.525912 1.503551 2.041188 0.087627 -0.029346 -581729.000000 0 0 1
0.971800 27.238513 -12.536138 30.000596 1.535134 2.001888 0.089480 -0.040253 1627430.000000 0 0 1
-0.473400 27.342113 -12.703538 30.152863 -1.553484 2.005680 0.077290 -0.036257 1685270.000000 0 0 1
-1.192500 26.173013 -13.104338 29.294579 -1.525266 2.034574 0.080950 -0.033387 -385730.000000 0 0 1
-1.185000 24.920813 -12.184838 27.765472 -1.523281 2.025113 0.120408 -0.038348 -461342.000000 0 0 1
-1.931100 25.202113 -11.031838 27.578563 -1.494321 1.982330 0.102556 -0.029410 -144509.000000 0 0 1
-1.940300 24.105713 -10.169938 26.235049 -1.490478 1.968874 0.118090 -0.028342 -562755.000000 0 0 1
-3.090500 24.070813 -9.180738 25.946892 -1.443103 1.932457 0.101981 -0.028239 -466276.000000 0 0 1
-3.047200 24.626413 -7.863838 26.030475 -1.447685 1.877692 0.128823 -0.035934 -20731.300000 0 0 1
-2.549600 26.009113 -7.895238 27.300352 -1.473081 1.864186 0.121407 -0.031233 69858.600000 0 0 1
-2.432200 26.627213 -6.474738 27.510840 -1.479706 1.808377 0.114740 -0.037969 172647.000000 0 0 1
-1.252100 26.167613 -5.844038 26.841470 -1.522984 1.790278 0.108423 -0.039201 -147519.000000 0 0 1
-1.126500 26.459813 -4.441038 26.853557 -1.528248 1.736940 0.119427 -0.045685 -131057.000000 0 0 1
-2.043300 25.762313 -3.366438 26.061557 -1.491648 1.700331 0.098249 -0.037271 -371665.000000 0 0 1
-3.331500 26.295713 -3.327838 26.714003 -1.444774 1.695694 0.097056 -0.038015 -682265.000000 0 0 1
-4.025200 25.923913 -2.151738 26.322642 -1.416757 1.652632 0.098522 -0.031597 123538.000000 0 0 1
-5.164000 24.926613 -2.495838 25.577962 -1.366518 1.668530 0.101711 -0.031217 -307140.000000 0 0 1
-6.308400 25.387813 -3.194038 26.354105 -1.327247 1.692292 0.104688 -0.037615 -83441.300000 0 0 1
-7.118200 24.254113 -3.485338 25.516237 -1.285328 1.707818 0.075524 -0.036622 -864752.000000 0 0 1
-8.463900 24.711913 -3.967138 26.420720 -1.240816 1.721519 0.065686 -0.025931 -1131160.000000 0 0 1
-9.276200 25.097413 -2.886038 26.912028 -1.216761 1.678243 0.097683 -0.038421 5156.180000 0 0 1
-10.484800 25.781013 -3.281738 28.024302 -1.184539 1.688169 0.104674 -0.036539 924823.000000 0 0 1
-11.389300 25.945613 -2.029938 28.407951 -1.157154 1.642314 0.122641 -0.044645 107317.000000 0 0 1
-11.995300 24.779413 -1.391538 27.565249 -1.119963 1.621299 0.128398 -0.038911 496409.000000 0 0 1
-11.070000 23.847513 -0.836538 26.304916 -1.136197 1.602603 0.150254 -0.042119 -114523.000000 0 0 1
-11.774500 22.592913 -0.355438 25.479500 -1.090365 1.584747 0.145955 -0.042129 -92745.200000 0 0 1
-12.505900 22.773113 0.860662 25.995249 -1.068604 1.537682 0.157313 -0.047971 -119102.000000 0 0 1
-13.256900 21.639213 1.115762 25.401690 -1.021139 1.526857 0.151293 -0.046029 84384.400000 0 0 1
-14.246600 21.839913 2.314762 26.178341 -0.992792 1.482258 0.162597 -0.053857 302638.000000 0 0 1
-13.575800 21.832213 3.536362 25.950987 -1.014484 1.434100 0.162381 -0.044560 -60635.600000 0 0 1
-13.384000 23.159613 3.987162 27.044345 -1.046783 1.422826 0.162910 -0.049537 107485.000000 0 0 1
-13.085200 23.149413 5.528062 27.160215 -1.056320 1.365829 0.159599 -0.039917 298949.000000 0 0 1
-11.840600 22.513013 5.812562 26.092555 -1.086609 1.346144 0.133276 -0.038936 454290.000000 0 0 1
-11.777400 22.247613 7.219562 26.187507 -1.083923 1.291492 0.099119 -0.035102 325857.000000 0 0 1
-10.437700 21.590513 7.745262 25.200891 -1.120485 1.258399 0.080696 -0.035677 1070500.000000 0 0 1
-9.459000 22.663913 7.863662 25.786873 -1.175415 1.260912 0.091089 -0.034065 1444990.000000 0 0 1
-8.300700 22.391113 8.703562 25.416836 -1.215788 1.221291 0.075363 -0.033030 778520.000000 0 0 1
-8.534200 22.470213 10.160162 26.095439 -1.207824 1.170875 0.056156 -0.031736 -217809.000000 0 0 1
-9.514100 21.583713 10.679662 25.892662 -1.155619 1.145645 0.067091 -0.032024 -2584.420000 0 0 1
-9.168500 21.029813 11.930662 25.858367 -1.159666 1.091241 0.059683 -0.030835 197937.000000 0 0 1
-10.109900 19.883713 12.479962 25.560156 -1.100411 1.060703 0.068139 -0.036675 240698.000000 0 0 1
-10.229100 18.760413 11.664062 24.344156 -1.071608 1.071131 0.078668 -0.042142 -75987.300000 0 1 0
-10.676900 17.693713 12.454262 24.128247 -1.027859 1.028424 0.076407 -0.043898 -134653.000000 0 1 0
-11.114900 16.522013 11.528462 23.009202 -0.978606 1.046000 0.076155 -0.045466 -85752.200000 0 1 0
-11.467300 15.335313 12.201962 22.705917 -0.928723 1.003456 0.068714 -0.042992 130649.000000 0 1 0
-11.858500 14.298813 11.263462 21.724310 -0.878423 1.025732 0.056884 -0.033787 41087.300000 0 1 0
-12.268800 12.962513 11.898762 21.450658 -0.812885 0.982789 0.048207 -0.036520 713343.000000 0 1 0
-13.456700 13.039013 12.702762 22.637553 -0.769635 0.975038 0.071443 -0.031132 638756.000000 0 1 0
-13.801900 11.731213 13.160062 22.389753 -0.704477 0.942495 0.051498 -0.019696 164973.000000 0 1 0
-14.724500 11.723713 14.405162 23.701583 -0.672422 0.917544 0.066645 -0.024208 -1046.220000 0 1 0
-16.021100 12.178413 14.146962 24.599307 -0.649964 0.958075 0.092525 -0.032240 -569983.000000 0 1 0
-16.807600 12.429513 15.264162 25.884027 -0.636758 0.940092 0.075556 -0.023208 -290132.000000 0 0 1
-17.833900 13.552413 15.097462 27.012021 -0.649822 0.977718 0.078069 -0.021156 447073.000000 0 0 1
-18.926400 13.165413 14.226962 27.091386 -0.607774 1.017908 0.084688 -0.019689 395224.000000 0 0 1
-19.782000 14.269813 14.056562 28.152123 -0.624914 1.047997 0.100107 -0.024578 -497985.000000 0 0 1
-20.987100 13.876113 13.192562 28.408600 -0.584190 1.087855 0.093773 -0.018163 22515.000000 0 0 1
-22.031000 13.301313 14.001662 29.297379 -0.543176 1.072517 0.089589 -0.004844 -28444.600000 0 0 1
-23.131300 13.009613 13.196362 29.638675 -0.512332 1.109353 0.080301 0.002796 -96608.100000 0 0 1
-24.087100 11.987513 13.911062 30.288719 -0.461785 1.093610 0.097660 0.001274 -37123.700000 0 0 1
-24.925200 12.532013 14.878562 31.617852 -0.465873 1.080854 0.089845 -0.005635 -188966.000000 0 0 1
-25.548980 11.554613 15.674462 32.123951 -0.424726 1.061072 0.098081 -0.003252 -175892.000000 0 0 1
-26.421970 12.190413 16.757162 33.578701 -0.432272 1.048304 0.094086 -0.009337 -86397.800000 0 0 1
-27.555350 12.896413 16.300162 34.515360 -0.437737 1.078945 0.105838 -0.005230 137704.000000 0 0 1
-28.247090 13.517913 17.332262 35.791610 -0.446349 1.065285 0.103731 0.002532 -208926.000000 0 0 1
-29.461710 14.357813 16.923462 36.885535 -0.453467 1.094141 0.099150 -0.004764 19883.400000 0 0 1
-29.025730 15.558613 16.330262 36.759229 -0.492053 1.110460 0.104456 -0.010091 -395434.000000 0 0 1
-30.107140 16.437513 16.299862 37.977852 -0.499742 1.127196 0.094711 -0.011118 -204395.000000 0 0 1
-29.845390 17.996313 16.383962 38.510373 -0.542611 1.131345 0.120436 -0.016152 55586.200000 0 0 1
-29.122170 18.439513 17.560062 38.684263 -0.564458 1.099622 0.120592 -0.023185 883398.000000 0 0 1
-29.933400 18.469513 18.770262 39.867958 -0.552840 1.080587 0.102571 -0.032510 -852614.000000 0 0 1
-29.179380 19.060313 19.998062 40.182761 -0.578630 1.049877 0.102117 -0.034762 340133.000000 0 0 1
-28.422230 18.103513 20.724062 39.560676 -0.567146 1.019426 0.111514 -0.025384 165024.000000 0 0 1
-27.337970 17.566213 19.995162 38.154200 -0.571125 1.019183 0.119647 -0.019424 -1327740.000000 0 0 1
-26.803860 16.216213 20.497762 37.437558 -0.544085 0.991400 0.115899 -0.014474 -320097.000000 0 0 1
-27.796140 15.232013 20.389462 37.687794 -0.501299 0.999159 0.124885 -0.012508 -93244.800000 0 0 1
-27.504530 13.989313 20.898462 37.268563 -0.470519 0.975501 0.108706 -0.007761 -579680.000000 0 0 1
-28.786110 13.232413 21.271562 38.160401 -0.430875 0.979515 0.115333 -0.024248 -431647.000000 0 0 1
-29.545780 12.977513 20.123862 38.030761 -0.413865 1.013201 0.116902 -0.025454 -207850.000000 0 0 1
-30.556140 12.055613 20.507562 38.724354 -0.375790 1.012693 0.152288 -0.023860 -89560.400000 0 0 1
-31.509460 11.514613 19.371062 38.738488 -0.350357 1.047143 0.154327 -0.024175 -161048.000000 0 0 1
-31.042650 10.905113 18.163062 37.582768 -0.337828 1.066397 0.166636 -0.032520 -103076.000000 0 0 1
-30.368630 9.678213 18.342662 36.774648 -0.308515 1.048599 0.175147 -0.033929 -38627.400000 0 0 1
-29.517310 9.150413 17.150362 35.343126 -0.300607 1.064144 0.168974 -0.041213 -31697.700000 0 0 1
-30.194950 8.785413 15.960262 35.265400 -0.283139 1.101145 0.174747 -0.035630 368761.000000 0 0 1
-30.922970 9.761113 15.168662 35.799409 -0.305760 1.133256 0.168155 -0.033366 277946.000000 0 0 1
-30.032020 10.800613 14.460362 35.038230 -0.345234 1.145377 0.156122 -0.015285 94630.300000 0 0 1
-29.318960 10.288713 13.354862 33.820281 -0.337497 1.164862 0.160843 -0.021537 617627.000000 0 0 1
-28.292530 11.177213 12.920062 33.050346 -0.376239 1.169165 0.113199 -0.003097 496546.000000 0 0 1
-27.585200 11.072713 11.525862 31.880931 -0.381713 1.200890 0.163072 0.002445 -316627.000000 0 0 1
-26.885690 9.918113 11.260462 30.789727 -0.353411 1.196389 0.165298 -0.001152 147233.000000 0 0 1
-27.667030 8.728613 11.095762 31.060734 -0.305605 1.205498 0.197478 -0.009673 -424898.000000 0 0 1
-27.060370 7.522413 10.356862 29.935179 -0.271140 1.217517 0.221421 -0.022050 -466530.000000 0 0 1
-26.811940 7.747213 8.982062 29.318542 -0.281285 1.259428 0.209076 -0.011984 142055.000000 0 0 1
-26.329800 6.591713 8.372862 28.404469 -0.245310 1.271579 0.263390 -0.046188 -612046.000000 0 0 1
-25.605200 6.968713 7.104862 27.471227 -0.265724 1.309193 0.241988 -0.035130 -129265.000000 0 0 1
-26.467890 7.651513 6.146362 28.228933 -0.281415 1.351305 0.250672 -0.039582 1642660.000000 0 0 1
-25.619480 8.015913 5.047262 27.314602 -0.303234 1.384946 0.239653 -0.038541 930752.000000 0 0 1
-26.574540 8.598613 3.899162 28.201876 -0.312934 1.432093 0.233988 -0.042705 1231840.000000 0 0 1
-27.501430 7.680713 3.221862 28.735038 -0.272345 1.458437 0.274817 -0.037968 1392540.000000 0 0 1
-26.901140 6.612113 2.422762 27.807574 -0.241015 1.483560 0.277090 -0.041056 -173351.000000 0 0 1
-26.046840 6.983913 1.176662 26.992545 -0.261967 1.527190 0.276516 -0.035503 -3206.500000 0 0 1
-24.902700 7.645713 1.677862 26.103958 -0.297888 1.506476 0.249028 -0.036698 512124.000000 0 0 1
-23.768300 7.672313 0.807862 24.988980 -0.312237 1.538462 0.244033 -0.024947 186633.000000 0 1 0
-22.530100 8.246313 1.519862 24.039906 -0.350869 1.507532 0.187132 -0.031857 -374824.000000 0 1 0
-22.617600 9.558713 1.909962 24.628699 -0.399855 1.493168 0.181589 -0.040471 727064.000000 0 1 0
-21.531000 9.900813 2.772162 23.859903 -0.431007 1.454348 0.155969 -0.043329 171732.000000 0 1 0
-21.695400 11.338513 3.343662 24.706929 -0.481582 1.435047 0.141910 -0.059376 -298811.000000 0 1 0
-21.380200 12.436213 2.488062 24.858858 -0.526832 1.470541 0.196656 -0.058532 222089.000000 0 1 0
-21.489000 13.705113 3.154662 25.681884 -0.567732 1.447649 0.177976 -0.063851 -164937.000000 0 0 1
-20.240500 14.298813 3.857062 25.080088 -0.615039 1.416394 0.129618 -0.053756 -225270.000000 0 0 1
-19.906500 13.490413 4.927462 24.546688 -0.595595 1.368685 0.128638 -0.056021 271021.000000 0 1 0
-18.901700 14.222613 5.629962 24.315704 -0.645068 1.337140 0.107912 -0.051525 -27812.100000 0 1 0
-18.244200 13.469313 6.826662 23.682832 -0.635957 1.278394 0.076459 -0.043924 8465.090000 0 1 0
-17.287600 12.493313 6.447462 22.282589 -0.625782 1.277249 0.073526 -0.040223 292261.000000 0 1 0
-16.896400 11.749413 7.587162 21.934039 -0.607618 1.217590 0.060112 -0.032789 -478005.000000 0 1 0
10.903700 -33.228931 -14.216938 37.751475 -1.253728 1.956912 0.063831 -0.009940 350410.000000 0 0 1
12.175200 -32.997731 -13.595438 37.708377 -1.217322 1.939645 0.049648 -0.017726 589835.000000 0 0 1
12.649400 -31.730531 -14.010038 36.920389 -1.191454 1.960016 0.052460 -0.026516 -100994.000000 0 0 1
14.014000 -31.344631 -13.395338 36.855301 -1.150362 1.942773 0.067039 -0.030638 -249501.000000 0 0 1
15.089700 -32.134531 -13.842038 38.104188 -1.131780 1.942570 0.072483 -0.027866 -601843.000000 0 0 1
16.243800 -31.425331 -13.477738 37.855804 -1.093719 1.934811 0.074932 -0.029050 -575022.000000 0 0 1
17.582900 -32.015331 -13.910538 39.085072 -1.068566 1.934678 0.097000 -0.024958 -211280.000000 0 0 1
17.807900 -33.268631 -13.244538 39.991761 -1.079328 1.908352 0.092944 -0.026018 -376889.000000 0 0 1
18.730700 33.570913 -13.904938 40.880223 1.061874 1.917861 0.092824 -0.010286 98554.300000 0 0 1
18.871100 32.176313 -13.289938 39.598687 1.040370 1.913055 0.076493 -0.015260 151383.000000 0 0 1
19.522800 32.196513 -12.014838 39.523556 1.025711 1.879676 0.064615 -0.015674 14616.600000 0 0 1
19.701100 30.929813 -11.415138 38.406927 1.003642 1.872571 0.053494 -0.012339 13337.800000 0 0 1
20.486000 30.792513 -10.103038 38.339620 0.983746 1.837460 0.046210 -0.012138 222350.000000 0 0 1
21.782200 30.245413 -10.231838 38.651517 0.946653 1.838710 0.049568 -0.013536 -221805.000000 0 0 1
22.429400 30.039913 -9.042938 38.564869 0.929441 1.807487 0.044011 -0.012836 -1004730.000000 0 0 1
23.684000 29.209413 -9.166938 38.706000 0.889484 1.809903 0.023547 0.001721 -618131.000000 0 0 1
24.686900 29.874313 -9.919438 40.003911 0.880188 1.821372 0.038698 -0.008874 537220.000000 0 0 1
25.895000 29.086113 -9.860238 40.171847 0.843373 1.818782 0.041597 -0.001232 848893.000000 0 0 1
26.960300 29.566313 -10.887538 41.467615 0.831468 1.836466 0.033247 -0.005330 16263.500000 0 0 1
27.573500 30.779513 -10.480338 42.632309 0.840285 1.819173 0.041225 -0.018635 230892.000000 0 0 1
28.722100 31.062713 -11.264038 43.780472 0.824529 1.831007 0.044138 -0.012511 341839.000000 0 0 1
29.231500 32.530113 -11.037538 45.105610 0.838756 1.818011 0.050508 -0.019310 111952.000000 0 0 1
28.352700 33.469713 -11.642738 45.383374 0.867979 1.830239 0.057497 -0.017439 403952.000000 0 0 1
28.831400 -32.874631 -11.390438 45.185541 -0.850829 1.825627 0.051859 -0.016762 580898.000000 0 0 1
27.700800 -31.901331 -11.860038 43.882682 -0.855758 1.844467 0.050144 -0.009238 607436.000000 0 0 1
26.488000 -32.110331 -11.154438 43.094188 -0.881052 1.832616 0.061936 -0.021303 434488.000000 0 0 1
25.512800 -31.042431 -11.145238 41.698343 -0.882862 1.841368 0.081177 -0.017938 566730.000000 0 0 1
25.967000 -29.691331 -10.564138 40.834560 -0.852213 1.832479 0.065818 -0.023755 -1057670.000000 0 0 1
26.806900 -29.002531 -11.410438 41.109060 -0.824719 1.852055 0.050418 -0.010907 -681835.000000 0 0 1
27.488000 -28.035931 -10.619738 40.674100 -0.795266 1.834951 0.041892 -0.019219 160462.000000 0 0 1
28.398200 -27.064931 -11.454438 40.867743 -0.761364 1.854883 0.067602 -0.006960 573338.000000 0 0 1
29.500800 -27.567931 -12.221038 42.185801 -0.751542 1.864705 0.052481 -0.010702 372347.000000 0 0 1
29.203000 -28.541731 -13.179838 42.908668 -0.773947 1.883004 0.066719 -0.020558 -917097.000000 0 0 1
30.511000 -29.110531 -13.738238 44.351813 -0.761913 1.885733 0.053079 -0.020882 -155295.000000 0 0 1
31.133200 -30.017831 -12.881638 45.125192 -0.767161 1.860287 0.069032 -0.021117 -150852.000000 0 0 1
32.202800 -30.676231 -13.520438 46.484984 -0.761125 1.865918 0.076414 -0.025923 -322149.000000 0 0 1
33.081300 -31.433531 -12.516938 47.319267 -0.759863 1.838503 0.102924 -0.028897 67567.400000 0 0 1
34.133900 -32.162131 -13.146538 48.706850 -0.755665 1.844097 0.095322 -0.026101 453625.000000 0 0 1
35.019500 -32.880031 -12.294838 49.584523 -0.753899 1.821367 0.095569 -0.027692 265016.000000 0 0 1
34.406000 33.614113 -11.499538 49.456251 0.773757 1.805464 0.083171 -0.027778 -180547.000000 0 0 1
33.533700 -33.671131 -10.465638 48.659878 -0.787443 1.787567 0.071446 -0.023595 -98394.500000 0 0 1
33.035700 32.845313 -9.820138 47.608898 0.782508 1.778555 0.060198 -0.020828 -768658.000000 0 0 1
32.361500 33.007313 -8.513338 47.002408 0.795277 1.752927 0.034733 -0.017914 -322690.000000 0 0 1
31.202300 33.793413 -8.748538 46.820030 0.825243 1.758756 0.043381 -0.021983 -324179.000000 0 0 1
30.600500 -33.578031 -7.534438 46.050435 -0.831759 1.735148 0.044620 -0.018316 648762.000000 0 0 1
29.472800 -32.481831 -7.562938 44.507452 -0.833928 1.741550 0.047474 -0.023525 466562.000000 0 0 1
30.021800 -31.193931 -7.714438 43.975929 -0.804543 1.747133 0.039752 -0.024277 278969.000000 0 0 1
29.067200 -30.174031 -7.979438 42.650272 -0.804079 1.758995 0.025953 -0.018801 -78060.600000 0 0 1
28.112700 -29.668731 -6.911738 41.452740 -0.812321 1.738317 0.042818 -0.025723 -371021.000000 0 0 1
27.274100 -28.757231 -7.521438 40.341380 -0.811862 1.758339 0.045210 -0.037078 -779131.000000 0 0 1
26.267700 -28.270931 -6.682838 39.165009 -0.822112 1.742268 0.063663 -0.041690 28837.400000 0 0 1
25.219400 -27.399431 -7.429938 37.973029 -0.826805 1.767730 0.119933 -0.048403 -454849.000000 0 0 1
24.357100 -28.105431 -8.244838 38.094106 -0.856725 1.788956 0.141293 -0.048600 -254041.000000 0 0 1
23.525400 -27.287131 -9.022338 37.140740 -0.859295 1.816174 0.167031 -0.052247 -463468.000000 0 0 1
22.333000 -27.996131 -9.662038 37.093143 -0.897449 1.834316 0.157296 -0.044069 -555476.000000 0 0 1
22.559300 -28.820831 -10.851438 38.174809 -0.906667 1.859027 0.162550 -0.037648 -401765.000000 0 0 1
21.502000 -29.617031 -11.318438 38.309419 -0.942832 1.870721 0.142171 -0.035481 -52615.500000 0 0 1
21.070200 -30.890731 -10.602738 38.866549 -0.972193 1.847097 0.136695 -0.038011 279375.000000 0 0 1
22.111000 -31.865131 -10.622538 40.213446 -0.964181 1.838123 0.112046 -0.027238 -38939.400000 0 0 1
21.817800 -33.150631 -10.126738 40.957680 -0.988719 1.820636 0.085519 -0.023614 -414706.000000 0 0 1
23.074500 33.671213 -10.190638 42.071751 0.970012 1.815450 0.064150 -0.015830 -932481.000000 0 0 1
23.995200 -33.690131 -9.207638 42.374228 -0.951908 1.789837 0.070321 -0.012082 -576012.000000 0 0 1
25.031700 33.023113 -9.385538 42.487649 0.922191 1.793534 0.070719 -0.014243 -720372.000000 0 0 1
26.349000 33.296513 -8.688638 43.340743 0.901356 1.772637 0.063608 -0.018060 -860952.000000 0 0 1
26.362800 33.161113 -7.246938 42.978771 0.899117 1.740222 0.053757 -0.033033 130449.000000 0 0 1
26.557200 31.793813 -6.883638 41.994236 0.874902 1.735458 0.042319 -0.020477 -411107.000000 0 0 1
26.511900 31.599513 -5.362938 41.595326 0.872725 1.700088 0.035838 -0.011019 -28977.300000 0 0 1
27.626200 32.127713 -4.624938 42.623784 0.860590 1.679516 0.050469 -0.013064 1004880.000000 0 0 1
28.795900 31.306513 -4.466838 42.769782 0.827146 1.675426 0.054741 -0.015598 420321.000000 0 0 1
28.661000 29.967213 -3.688338 41.630405 0.807674 1.659510 0.064828 -0.010775 -888589.000000 0 0 1
28.507500 30.231113 -2.303838 41.616168 0.814734 1.626184 0.068122 -0.013423 -30177.700000 0 0 1
28.211900 29.082913 -1.520538 40.546753 0.800599 1.608306 0.063734 -0.017628 -248806.000000 0 0 1
26.832900 28.438613 -1.711538 39.136793 0.814441 1.614542 0.061547 -0.008652 -663614.000000 0 0 1
25.741400 29.206913 -1.287638 38.952811 0.848383 1.603859 0.061849 -0.012282 -663558.000000 0 0 1
24.552300 28.530513 -1.582738 37.673740 0.860202 1.612820 0.061314 -0.007176 -289100.000000 0 0 1
23.260400 29.104513 -1.008038 37.271102 0.896542 1.597846 0.075695 -0.012348 -105390.000000 0 0 1
22.910300 28.746413 0.332262 36.760692 0.897900 1.561758 0.075379 -0.021424 -239279.000000 0 0 1
21.732900 29.437413 0.667262 36.596796 0.934842 1.552563 0.065012 -0.025443 -150100.000000 0 0 1
21.084000 28.779513 1.962862 35.730215 0.938522 1.515833 0.072895 -0.037133 48626.600000 0 0 1
20.380700 27.563313 1.694562 34.321723 0.934105 1.521403 0.088357 -0.033103 310513.000000 0 0 1
19.915100 26.951713 2.880962 33.634892 0.934426 1.485037 0.111884 -0.029156 -23796.800000 0 0 1
19.255700 25.617513 2.511862 32.145737 0.926233 1.492577 0.118472 -0.028925 522012.000000 0 0 1
20.223500 24.755913 1.894462 32.022401 0.885826 1.511601 0.119469 -0.032319 617366.000000 0 0 1
21.013900 23.979713 2.790562 32.006216 0.851219 1.483497 0.104127 -0.020798 117356.000000 0 0 1
21.962100 22.988613 2.082662 31.861382 0.808231 1.505383 0.091914 -0.022737 249867.000000 0 0 1
21.288000 21.870713 1.468562 30.555911 0.798899 1.522716 0.111596 -0.019943 1268740.000000 0 0 1
22.267000 20.821713 1.154162 30.507296 0.751869 1.532955 0.074595 -0.022126 996329.000000 0 0 1
21.964300 20.094713 -0.163938 29.770033 0.740976 1.576303 0.104749 -0.018389 -219355.000000 0 0 1
22.257800 20.988013 -1.254638 30.618303 0.756045 1.611785 0.074949 -0.009776 392961.000000 0 0 1
22.467500 20.203013 -2.440638 30.313479 0.732379 1.651397 0.097941 -0.010629 18530.400000 0 0 1
22.472500 21.001613 -3.736338 30.984532 0.751577 1.691678 0.083561 -0.017968 613268.000000 0 0 1
23.672600 21.775613 -3.930038 32.403927 0.743683 1.692378 0.082393 -0.016802 918335.000000 0 0 1
23.682200 22.545613 -5.119138 33.096176 0.760816 1.726094 0.062627 -0.012307 -83143.200000 0 0 1
24.484600 23.857113 -4.912538 34.536799 0.772419 1.713521 0.054882 -0.010336 4598.300000 0 0 1
23.756100 24.939013 -4.324738 34.713254 0.809686 1.695706 0.067271 -0.015309 294111.000000 0 0 1
24.090400 25.042713 -2.981238 34.876534 0.804778 1.656381 0.062297 -0.008778 54127.600000 0 0 1
22.975800 24.566713 -2.001638 33.695954 0.818849 1.630234 0.070780 -0.010816 -1241610.000000 0 0 1
21.850500 25.403013 -1.985238 33.566331 0.860437 1.629975 0.081997 -0.013323 -7779.880000 0 0 1
20.807500 24.898113 -1.206338 32.470346 0.874659 1.607957 0.079171 -0.012475 -192317.000000 0 0 1
20.047200 23.624613 -1.676638 31.029400 0.867132 1.624857 0.115854 -0.023559 -1008860.000000 0 0 1
19.398300 23.904013 -2.910138 30.921914 0.889078 1.665048 0.102193 -0.019492 122802.000000 0 0 1
18.616300 22.847213 -3.432038 29.670535 0.887086 1.686727 0.114078 -0.021049 189743.000000 0 0 1
17.938200 23.330413 -4.734938 29.807832 0.915323 1.730321 0.120979 -0.028156 25891.100000 0 0 1
17.220500 22.386713 -5.512338 28.776664 0.915102 1.763543 0.135788 -0.036416 226412.000000 0 0 1
16.931500 22.882913 -6.793338 29.265216 0.933778 1.805063 0.127882 -0.034964 -41521.800000 0 0 1
16.225000 21.948913 -7.808738 28.389819 0.934232 1.849442 0.168817 -0.039188 -275737.000000 0 0 1
17.010800 20.935613 -8.393838 28.251084 0.888462 1.872467 0.160132 -0.037902 405176.000000 0 0 1
16.230800 19.964813 -9.131238 27.302237 0.888197 1.911818 0.204455 -0.054224 325746.000000 0 0 1
16.934800 18.536413 -9.264738 26.762314 0.830520 1.924299 0.180414 -0.053406 -580508.000000 0 0 1
18.204200 18.711913 -9.788538 27.880891 0.799150 1.929525 0.159578 -0.046244 -937032.000000 0 0 1
18.931600 17.520113 -9.721738 27.565776 0.746695 1.931224 0.155718 -0.045077 -147574.000000 0 0 1
20.360500 17.854113 -10.224038 28.945643 0.719905 1.931802 0.130256 -0.038421 -522899.000000 0 0 1
20.437200 18.199013 -11.578638 29.714442 0.727533 1.971063 0.129805 -0.038505 382652.000000 0 0 1
21.772100 18.386113 -12.018938 30.927793 0.701281 1.969922 0.115974 -0.020832 220414.000000 0 0 1
21.940100 18.842213 -13.495538 31.914362 0.709582 2.007403 0.117664 -0.024627 31144.300000 0 0 1
21.571900 17.794913 -14.366238 31.438744 0.689748 2.045370 0.105398 -0.019972 424574.000000 0 0 1
22.070700 18.153613 -15.685538 32.599165 0.688323 2.072778 0.107867 -0.024439 322686.000000 0 0 1
22.235800 16.954713 -16.684138 32.561535 0.651451 2.108760 0.096408 -0.015775 178002.000000 0 0 1
23.463000 16.246913 -16.566738 32.998960 0.605640 2.096750 0.108393 -0.019088 295600.000000 0 0 1
23.732000 15.447513 -17.745538 33.417624 0.577018 2.130604 0.106814 -0.024138 47334.900000 0 0 1
24.575000 16.077413 -18.922338 34.935207 0.579335 2.143184 0.124680 -0.022737 58147.800000 0 0 1
25.935400 16.274813 -18.607838 35.829683 0.560405 2.116876 0.144179 -0.027688 221581.000000 0 0 1
26.664000 16.879813 -19.657238 37.179349 0.564372 2.127881 0.160654 -0.033596 215564.000000 0 0 1
28.177700 17.117013 -19.448738 38.278301 0.545892 2.103760 0.140427 -0.036774 245530.000000 0 0 1
28.338900 18.169413 -18.536438 38.429420 0.570127 2.074132 0.127448 -0.039034 355737.000000 0 0 1
29.690500 18.339913 -18.119738 39.321789 0.553335 2.049700 0.117410 -0.043776 297580.000000 0 0 1
29.829300 19.329913 -16.954338 39.381242 0.574980 2.015863 0.118835 -0.037641 188385.000000 0 0 1
29.097800 18.981613 -15.805738 38.168114 0.578017 1.997759 0.093154 -0.035490 -194765.000000 0 0 1
27.802700 19.487713 -15.660038 37.389810 0.611349 2.002955 0.109986 -0.029077 -271404.000000 0 0 1
26.951600 18.973013 -14.483838 36.002021 0.613383 1.984831 0.090241 -0.022985 -192745.000000 0 0 1
27.317700 19.482013 -13.234338 36.068730 0.619507 1.946492 0.068053 -0.024206 403676.000000 0 0 1
26.455100 19.115613 -12.155438 34.828633 0.625712 1.927308 0.073241 -0.021808 -26566.200000 0 0 1
26.928300 19.626013 -10.810438 35.031119 0.629811 1.884512 0.058853 -0.019104 -198279.000000 0 0 1
26.816700 21.039113 -10.747538 35.739184 0.665251 1.876245 0.056588 -0.021038 211760.000000 0 0 1
27.443900 21.610113 -9.603938 36.227065 0.667028 1.839108 0.036339 -0.011613 -96537.200000 0 0 1
26.701000 21.466613 -8.287638 35.248317 0.677153 1.808140 0.049483 -0.012944 -854641.000000 0 0 1
26.878100 20.134613 -7.749438 34.465761 0.642930 1.797580 0.062481 -0.020335 -9013.770000 0 0 1
26.061000 19.873913 -6.644238 33.440904 0.651511 1.770813 0.085627 -0.021482 -658766.000000 0 0 1
24.637800 19.445413 -7.006638 32.159575 0.668152 1.790429 0.128981 -0.027362 -644844.000000 0 0 1
23.926000 20.528813 -7.574938 32.423222 0.709128 1.806603 0.091541 -0.023376 -886110.000000 0 0 1
22.718300 20.164513 -8.158738 31.453040 0.725916 1.833191 0.059515 -0.024207 -749873.000000 0 0 1
21.774400 21.386513 -8.252238 31.616560 0.776411 1.834865 0.116088 -0.034645 -490435.000000 0 0 1
22.213900 22.439413 -9.123238 32.866671 0.790448 1.852074 0.114485 -0.030050 -1091.780000 0 0 1
21.847800 22.367713 -10.494738 32.981517 0.797156 1.894627 0.136822 -0.018240 -21240.300000 0 0 1
20.340000 22.387513 -10.854738 32.136298 0.833282 1.915345 0.128435 -0.035245 84283.300000 0 0 1
19.741100 23.622513 -10.482238 32.520939 0.874669 1.898978 0.125293 -0.039024 521056.000000 0 0 1
18.321700 23.637713 -10.617738 31.735824 0.911421 1.911941 0.134688 -0.032578 453474.000000 0 0 1
17.755400 25.006313 -10.134438 32.299795 0.953366 1.889949 0.118243 -0.031408 -85534.400000 0 0 1
18.118700 26.069813 -10.981138 33.593271 0.963429 1.903802 0.151255 -0.029428 88088.800000 0 0 1
17.772500 27.343813 -10.466238 34.250372 0.994446 1.881344 0.132172 -0.029442 -115338.000000 0 0 1
21.297000 28.488913 32.846961 48.415940 0.928863 0.825169 0.070932 0.001235 199633.000000 0 0 1
19.943300 28.840313 32.714893 47.955846 0.965793 0.820046 0.090160 -0.022987 -147121.000000 0 0 1
19.038400 27.760713 32.972982 47.120435 0.969662 0.795735 0.081407 -0.024540 1240590.000000 0 0 1
17.543300 28.246813 33.136874 46.943607 1.015027 0.787122 0.117882 -0.043281 1026870.000000 0 0 1
16.910200 28.574813 31.907162 46.049341 1.036438 0.805306 0.111249 -0.041180 93372.700000 0 0 1
15.620700 29.126513 32.146108 46.105665 1.078528 0.799275 0.149319 -0.052940 150586.000000 0 0 1
14.707300 29.099513 30.932310 44.943233 1.102827 0.811718 0.142369 -0.052383 -167264.000000 0 0 1
14.212400 27.815313 30.654530 43.765102 1.098422 0.794792 0.121635 -0.051197 -764979.000000 0 0 1
12.824800 27.765913 30.619780 43.278082 1.138099 0.784824 0.132082 -0.039327 -725993.000000 0 0 1
12.185600 26.342913 30.392000 42.025131 1.137534 0.762392 0.096894 -0.039996 80663.800000 0 0 1
12.458700 25.689213 29.173550 40.819737 1.119238 0.774612 0.092298 -0.034973 -259340.000000 0 0 1
13.750600 25.152913 29.198410 40.918153 1.070505 0.776200 0.071413 -0.033610 -578513.000000 0 0 1
13.947200 24.507113 27.800390 39.597786 1.053401 0.792497 0.085028 -0.032835 -222490.000000 0 0 1
13.875800 25.340013 26.700610 39.339251 1.069809 0.824769 0.069606 -0.033909 107793.000000 0 0 1
13.724100 24.696313 25.415750 38.002884 1.063576 0.838223 0.093088 -0.035221 294343.000000 0 0 1
12.397100 23.945613 25.048140 36.803394 1.093074 0.822224 0.101299 -0.035054 110332.000000 0 0 1
12.391100 23.258813 23.838670 35.535812 1.081294 0.835462 0.124440 -0.038411 268822.000000 0 0 1
11.200300 22.543913 23.519320 34.450445 1.109695 0.819345 0.132760 -0.035791 253339.000000 0 0 1
11.280300 22.050013 22.025820 33.144909 1.097929 0.843930 0.149746 -0.039966 -159575.000000 0 0 1
10.816800 23.012713 21.170320 33.087318 1.131406 0.876517 0.151415 -0.044986 -3531.750000 0 0 1
10.871300 22.537013 19.830020 31.926977 1.121348 0.900644 0.163399 -0.041025 -747462.000000 0 0 1
10.469300 23.538613 18.732420 31.852412 1.152299 0.942088 0.132518 -0.046457 468618.000000 0 0 1
9.074700 23.805613 18.681320 31.591916 1.206601 0.938086 0.123840 -0.044668 234821.000000 0 0 1
8.498500 24.624613 19.676520 32.646003 1.238474 0.923886 0.115936 -0.040809 271128.000000 0 0 1
7.070300 25.177213 19.367120 32.541766 1.297026 0.933348 0.111722 -0.033636 583876.000000 0 0 1
7.152900 26.078613 18.232220 32.613983 1.303098 0.977580 0.096291 -0.032861 197687.000000 0 0 1
5.866400 26.507713 17.817120 32.473424 1.352998 0.990026 0.088834 -0.036199 29744.500000 0 0 1
6.035200 27.673813 16.841120 32.952798 1.356075 1.034369 0.102858 -0.038881 537273.000000 0 0 1
6.705400 27.370613 15.604120 32.211821 1.330543 1.065094 0.094376 -0.031699 143200.000000 0 0 1
8.068500 27.735813 15.493720 32.778520 1.287704 1.078468 0.096176 -0.031948 95116.500000 0 0 1
8.810400 27.186113 14.256920 31.936933 1.257399 1.108049 0.081884 -0.026558 -435704.000000 0 0 1
8.500600 27.643113 12.978120 31.699109 1.272462 1.148983 0.121006 -0.031206 -541705.000000 0 0 1
7.344300 27.054913 12.432220 30.667037 1.305725 1.153387 0.103419 -0.035213 6021.490000 0 0 1
6.729700 27.953313 11.349920 30.911119 1.334544 1.194822 0.100736 -0.043567 -398131.000000 0 0 1
7.460200 28.022113 10.168720 30.729404 1.310606 1.233527 0.078550 -0.035691 -394873.000000 0 0 1
7.599900 29.366313 9.846220 31.891800 1.317556 1.256930 0.092390 -0.039196 -96562.200000 0 0 1
7.334700 29.726113 8.392320 31.746979 1.328886 1.303266 0.084600 -0.024256 1006470.000000 0 0 1
5.977800 29.419413 8.013320 31.071679 1.370333 1.309950 0.064830 -0.025114 412929.000000 0 0 1
5.903700 28.248613 7.187220 29.740443 1.364771 1.326715 0.056778 -0.025575 352544.000000 0 0 1
4.438200 27.899313 6.780620 29.052472 1.413039 1.335232 0.065728 -0.032416 544772.000000 0 0 1
3.830900 28.925113 6.060020 29.800366 1.439121 1.366014 0.079643 -0.027056 -545202.000000 0 0 1
2.439400 28.806213 5.937520 29.512756 1.486315 1.368229 0.064487 -0.028906 -151775.000000 0 0 1
1.838000 29.918813 5.054720 30.398418 1.509441 1.403738 0.080932 -0.036454 -414131.000000 0 0 1
2.266700 29.880013 3.721920 30.196122 1.495081 1.447224 0.070750 -0.038906 606964.000000 0 0 1
1.225000 30.337613 2.837120 30.494600 1.530439 1.477625 0.082768 -0.041444 1163320.000000 0 0 1
0.229300 29.208413 2.407420 29.308355 1.562946 1.488563 0.099019 -0.047306 721435.000000 0 0 1
0.977900 28.279913 1.579520 28.340866 1.536231 1.515034 0.104095 -0.052365 472463.000000 0 0 1
0.145200 27.506913 0.748920 27.517490 1.565518 1.543577 0.107392 -0.053652 -43451.200000 0 0 1
-0.197800 28.003913 -0.682280 28.012922 -1.563733 1.595155 0.097184 -0.054699 -381807.000000 0 0 1
-1.118500 29.044113 -0.600080 29.071836 -1.532305 1.591439 0.108372 -0.053707 -570941.000000 0 0 1
-0.972700 29.964313 -1.656980 30.025852 -1.538346 1.626009 0.116095 -0.047948 -595073.000000 0 0 1
-2.178000 30.847313 -2.004880 30.989030 -1.500307 1.635538 0.143123 -0.044679 -54632.800000 0 0 1
-3.347500 30.182013 -2.495480 30.469445 -1.460337 1.652789 0.127111 -0.047665 413445.000000 0 0 1
-3.280900 29.445813 -3.708880 29.859270 -1.459832 1.695330 0.088767 -0.039157 -313842.000000 0 0 1
-4.664400 29.013613 -4.300980 29.699239 -1.411394 1.716125 0.086152 -0.027105 366524.000000 0 0 1
-5.361400 30.066713 -4.949280 30.939412 -1.394334 1.731453 0.066008 -0.026819 525881.000000 0 0 1
-6.342200 29.434613 -5.812580 30.666040 -1.358573 1.761495 0.058697 -0.028027 517351.000000 0 0 1
-7.015500 30.509713 -6.716580 32.018312 -1.344782 1.782139 0.058429 -0.016347 -137683.000000 0 0 1
-7.981200 31.352513 -6.135480 32.929072 -1.321527 1.758216 0.063692 -0.008227 49440.700000 0 0 1
-8.398600 32.370613 -7.069380 34.181416 -1.316942 1.779119 0.066683 -0.022418 189044.000000 0 0 1
-9.570500 33.235313 -6.552980 35.201166 -1.290420 1.758047 0.077466 -0.021342 56121.600000 0 0 1
-10.856700 32.687213 -6.541680 35.058742 -1.250121 1.758488 0.081384 -0.019516 -247412.000000 0 0 1
-11.801200 33.532513 -5.869480 36.029829 -1.232400 1.734432 0.081106 -0.027193 362082.000000 0 0 1
-13.250700 33.061713 -6.060280 36.130111 -1.189612 1.739328 0.118220 -0.024725 -227315.000000 0 0 1
-13.687800 33.211813 -7.384480 36.673028 -1.179871 1.773542 0.121977 -0.028979 1029390.000000 0 0 1
-15.114500 33.030113 -7.491080 37.088445 -1.141642 1.774174 0.163088 -0.038697 661641.000000 0 0 1
-15.831800 33.256913 -8.843680 37.879795 -1.126495 1.806438 0.211078 -0.046092 284936.000000 0 0 1
-17.157600 32.745313 -8.795180 37.999921 -1.088156 1.804367 0.256499 -0.055062 391322.000000 0 0 1
-18.067200 -33.829431 -8.785280 39.345080 1.080268 1.795983 0.252196 -0.057060 227571.000000 0 0 1
-19.560800 33.498813 -9.212880 39.870698 -1.042280 1.803973 0.239506 -0.066495 1557670.000000 0 0 1
-20.345000 32.682813 -8.325380 39.387781 -1.013998 1.783772 0.221691 -0.063777 382328.000000 0 0 1
-20.548600 33.315913 -7.087480 39.779736 -1.018130 1.749921 0.170132 -0.049155 -1275470.000000 0 0 1
-21.408200 32.581513 -6.092280 39.458610 -0.989470 1.725813 0.177699 -0.044579 -857175.000000 0 0 1
-21.398300 33.183113 -4.833080 39.778951 -0.998046 1.692596 0.154654 -0.043052 706221.000000 0 0 1
-22.571100 32.888413 -4.067480 40.095470 -0.969329 1.672416 0.172756 -0.045184 394904.000000 0 0 1
-23.720400 -33.768031 -4.217080 41.481575 0.958427 1.672634 0.187733 -0.053725 -248096.000000 0 0 1
-24.205000 -33.761531 -5.567280 41.913216 0.948791 1.704019 0.197213 -0.053990 6429.870000 0 0 1
-25.258500 -32.843331 -5.759380 41.831169 0.915208 1.708917 0.196202 -0.059395 -42755.300000 0 0 1
-25.841930 -32.833431 -7.155580 42.391531 0.903995 1.740406 0.220748 -0.060302 -406878.000000 0 0 1
-25.054800 -32.107331 -8.061180 41.516338 0.908155 1.766206 0.239743 -0.061895 -272144.000000 0 0 1
-25.381550 -32.177131 -9.407780 42.048748 0.902918 1.796441 0.182162 -0.056492 483202.000000 0 0 1
-26.659190 -31.443031 -9.958380 42.409268 0.867548 1.807826 0.147233 -0.047140 1619330.000000 0 0 1
-27.981980 -31.961931 -9.540580 43.538247 0.851695 1.791720 0.168193 -0.039242 2051900.000000 0 0 1
-29.079080 -31.163331 -9.966680 43.773061 0.819982 1.800501 0.083243 -0.032164 -219326.000000 0 0 1
-29.045530 -29.606431 -9.659980 42.585195 0.794961 1.799627 0.057754 -0.011606 -1347380.000000 0 0 1
-28.112550 -28.767731 -10.306180 41.522466 0.796916 1.821626 0.072469 -0.006025 -146378.000000 0 0 1
-28.249540 -28.602731 -11.713580 41.873150 0.791611 1.854319 0.068709 -0.009146 -694003.000000 0 0 1
-27.002780 -27.935331 -12.283780 40.748302 0.802371 1.877015 0.093019 -0.016693 -188206.000000 0 0 1
-25.896460 -28.828431 -12.231380 40.636335 0.838924 1.876533 0.097262 -0.022672 112317.000000 0 0 1
-24.793400 -28.308231 -12.981280 39.806812 0.851492 1.902979 0.115290 -0.034802 550166.000000 0 0 1
-23.580200 -29.287131 -12.905580 39.753187 0.892930 1.901430 0.134750 -0.049846 136808.000000 0 0 1
-23.525500 -30.356531 -13.813380 40.813939 0.911503 1.916063 0.140933 -0.046484 -212229.000000 0 0 1
-24.418200 -31.373231 -13.464680 41.974108 0.909420 1.897355 0.131267 -0.049448 -116218.000000 0 0 1
-24.258300 -32.574931 -14.414380 43.097165 0.930701 1.911831 0.137885 -0.046827 137765.000000 0 0 1
-25.043680 -33.649031 -13.918680 44.194715 0.930978 1.891190 0.134201 -0.059171 -92695.600000 0 0 1
-24.718100 32.757713 -14.419380 43.496790 -0.924375 1.908694 0.153140 -0.052233 -162271.000000 0 0 1
-25.257490 31.690713 -13.426680 42.690957 -0.897887 1.890735 0.133045 -0.053304 45457.800000 0 0 1
-24.527200 31.505913 -12.232080 41.759189 -0.909306 1.868075 0.150190 -0.050652 169222.000000 0 0 1
-24.767600 32.535613 -11.290580 42.420247 -0.920137 1.840204 0.199322 -0.054654 -214194.000000 0 0 1
-24.053600 32.308813 -9.983880 41.498349 -0.930831 1.813765 0.207363 -0.051845 -127470.000000 0 0 1
-24.655800 31.259513 -9.277080 40.879455 -0.902956 1.799728 0.189901 -0.041656 450626.000000 0 0 1
-23.800600 30.840713 -8.220780 39.814562 -0.913535 1.778769 0.165995 -0.035732 88355.200000 0 0 1
-24.455800 29.706013 -7.433980 39.189252 -0.882032 1.761647 0.157562 -0.025818 -90618.500000 0 0 1
-24.482000 28.594913 -8.292280 38.546067 -0.862733 1.787618 0.154071 -0.007674 -31548.300000 0 0 1
-24.784800 27.325613 -7.758280 37.698360 -0.834118 1.778076 0.151544 -0.014331 226645.000000 0 0 1
-23.690500 26.717613 -6.805280 36.350825 -0.845378 1.759119 0.141679 -0.010190 255016.000000 0 0 1
-23.689500 27.278913 -5.517180 36.548198 -0.855706 1.722332 0.145992 -0.012492 427749.000000 0 0 1
-22.593200 26.908513 -4.703380 35.449155 -0.872353 1.703868 0.111993 -0.015616 -220042.000000 0 0 1
-21.248800 27.610113 -4.708780 35.156827 -0.914867 1.705136 0.097811 -0.020525 -210692.000000 0 0 1
-20.462600 27.423513 -5.862280 34.715031 -0.929751 1.740478 0.108768 -0.031388 -72241.200000 0 0 1
-19.144400 27.895313 -5.759480 34.319501 -0.969328 1.739414 0.110188 -0.032736 -149272.000000 0 0 1
-18.168800 27.476013 -6.852180 33.645044 -0.986546 1.775892 0.130528 -0.034533 -343376.000000 0 0 1
-18.327400 28.099113 -8.154780 34.524690 -0.992847 1.809251 0.161334 -0.039937 181745.000000 0 0 1
-18.473900 29.487013 -8.313880 35.775544 -1.011112 1.805331 0.190046 -0.046982 -119612.000000 0 0 1
-18.384500 29.975413 -9.811280 36.507211 -1.020641 1.842890 0.214693 -0.049739 -283786.000000 0 0 1
-17.099800 30.208913 -10.331180 36.217605 -1.055713 1.860067 0.198743 -0.052576 -64453.600000 0 0 1
-17.142300 30.659413 -11.685280 37.018966 -1.060978 1.891945 0.225724 -0.060675 -727350.000000 0 0 1
-15.756500 31.080213 -12.144780 36.901797 -1.101594 1.906158 0.209517 -0.056527 -469066.000000 0 0 1
-15.657900 31.793513 -13.394780 37.886903 -1.113177 1.932156 0.207546 -0.054912 -235105.000000 0 0 1
-15.810400 30.857913 -14.486180 37.576974 -1.097309 1.966553 0.194808 -0.056002 -204602.000000 0 0 1
-15.240500 31.408013 -15.798980 38.318976 -1.119024 1.995775 0.200524 -0.051221 104020.000000 0 0 1
-13.851200 31.674213 -15.726580 37.979426 -1.158552 1.997730 0.177884 -0.058808 -13479.700000 0 0 1
-13.277000 32.081613 -16.947480 38.635809 -1.178407 2.024889 0.161155 -0.060413 610202.000000 0 0 1
-11.719000 32.185813 -16.889280 38.190435 -1.221612 2.028889 0.160510 -0.055927 586817.000000 0 0 1
-11.075400 30.923713 -17.067280 37.016652 -1.226877 2.049997 0.160540 -0.068506 919443.000000 0 0 1
-9.815000 31.079113 -17.759580 37.116683 -1.264902 2.069719 0.150607 -0.058899 772234.000000 0 0 1
-10.044800 30.883713 -19.293980 37.775116 -1.256342 2.106864 0.135507 -0.059604 -397441.000000 0 0 1
-10.421600 29.613713 -19.726580 37.077213 -1.232414 2.131805 0.125173 -0.063360 87737.700000 0 0 1
-10.487500 29.654813 -21.160080 37.909690 -1.230871 2.162976 0.101537 -0.061563 535889.000000 0 0 1
-11.982900 29.607413 -21.622280 38.570867 -1.186222 2.165889 0.102571 -0.051929 462653.000000 0 0 1
-12.601000 30.861313 -21.470280 39.650710 -1.183146 2.142999 0.113551 -0.050205 24066.900000 0 0 1
-13.901200 30.735413 -20.910280 39.688144 -1.146043 2.125704 0.113298 -0.047406 256071.000000 0 0 1
-14.829300 31.940613 -21.056380 41.030258 -1.136133 2.109696 0.153192 -0.056553 -125770.000000 0 0 1
-15.278000 32.037413 -22.384380 41.962764 -1.125815 2.133452 0.117886 -0.044939 -85197.900000 0 0 1
-16.182600 33.122313 -22.583680 43.231780 -1.116334 2.120443 0.115215 -0.047640 450694.000000 0 0 1
-16.764000 33.168013 -24.021680 44.251439 -1.102817 2.144618 0.090701 -0.035727 -16733.500000 0 0 1
-15.765900 33.395013 -24.978580 44.583853 -1.129714 2.165497 0.114959 -0.033569 -266489.000000 0 0 1
-16.195700 33.167113 -26.291280 45.316548 -1.116548 2.189733 0.117730 -0.032924 144220.000000 0 0 1
-16.920000 -33.363931 -27.011780 46.141896 1.101457 2.196178 0.094983 -0.025796 960839.000000 0 0 1
-18.255500 -32.988931 -26.632880 46.161057 1.065360 2.185793 0.096541 -0.022508 485794.000000 0 0 1
-18.651800 -31.942531 -27.440480 46.056431 1.042286 2.209059 0.066822 -0.012867 137496.000000 0 0 1
-20.145500 -31.561431 -27.328980 46.355563 1.002694 2.201299 0.062895 -0.016554 465443.000000 0 0 1
-21.063700 -32.519231 -27.836280 47.707844 0.996018 2.193796 0.067631 -0.017255 -71010.200000 0 0 1
-22.397300 -32.080131 -27.674680 47.923499 0.961301 2.186430 0.051019 -0.010045 165113.000000 0 0 1
-23.489600 -33.135931 -27.463280 49.030429 0.954131 2.165336 0.032787 -0.000630 -31567.500000 0 0 1
-23.420000 33.835413 -26.224680 48.796162 -0.965342 2.138187 0.060467 -0.008167 -306018.000000 0 0 1
-24.438000 32.858813 -26.288580 48.662171 -0.931322 2.141502 0.047909 -0.013693 213436.000000 0 0 1
-23.940600 31.465213 -26.746580 47.734594 -0.920381 2.165567 0.053066 -0.020024 633830.000000 0 0 1
-23.067900 30.771013 -25.865580 46.346645 -0.927511 2.162878 0.052195 -0.035286 108092.000000 0 0 1
-23.713900 29.561813 -25.579680 45.722750 -0.894727 2.164521 0.058267 -0.037588 121198.000000 0 0 1
33.326326 9.995213 -26.153708 43.526598 0.291383 2.215382 0.057554 -0.009093 -89303.400000 0 0 1
32.646026 8.787513 -25.891808 42.583672 0.262943 2.224363 0.048901 -0.002016 -437190.000000 0 0 1
31.253486 8.943113 -25.822988 41.516098 0.278700 2.242090 0.065265 -0.007363 -137623.000000 0 0 1
30.597506 7.592013 -25.460358 40.522536 0.243213 2.250164 0.057010 0.001556 -113687.000000 0 0 1
30.905376 7.232413 -24.156738 39.887317 0.229881 2.221347 0.041349 0.004531 172659.000000 0 0 1
30.195006 6.066313 -23.747738 38.890791 0.198265 2.227647 0.052718 0.001291 154085.000000 0 0 1
30.449506 5.712413 -22.261638 38.149504 0.185447 2.193873 0.071140 -0.000448 324514.000000 0 0 1
31.773486 5.456613 -21.808838 38.922416 0.170076 2.165563 0.072078 -0.001351 496850.000000 0 0 1
31.759776 5.052513 -20.447238 38.109065 0.157763 2.137134 0.064833 -0.006194 523771.000000 0 0 1
33.158196 4.600613 -19.894538 38.941293 0.137867 2.107011 0.066725 -0.002254 423316.000000 0 0 1
33.505756 3.229213 -20.078538 39.194530 0.096081 2.108633 0.083017 -0.010449 174662.000000 0 0 1
34.509886 2.907513 -19.149538 39.573864 0.084053 2.075895 0.104896 -0.015453 -288639.000000 0 0 1
34.852186 1.398613 -19.070638 39.753242 0.040108 2.071138 0.122391 -0.022984 -330382.000000 0 0 1
33.748356 0.596513 -18.741138 38.607482 0.017673 2.077649 0.103190 -0.022134 -200836.000000 0 0 1
34.013856 -0.762587 -18.736238 38.840321 -0.022416 2.074179 0.102582 -0.026662 692433.000000 0 0 1
32.697736 -1.514487 -18.318838 37.510205 -0.046285 2.081017 0.108091 -0.029859 802239.000000 0 0 1
32.750066 -1.872587 -16.957838 36.927519 -0.057116 2.047913 0.129588 -0.031423 -32567.900000 0 0 1
31.536006 -1.618787 -16.289238 35.531387 -0.051286 2.047043 0.115361 -0.032679 -222589.000000 0 0 1
31.509896 -2.177087 -14.879238 34.914252 -0.068983 2.011046 0.119871 -0.038486 -96944.400000 0 0 1
31.240986 -3.568887 -14.767838 34.739390 -0.113744 2.009873 0.122351 -0.040867 208936.000000 0 0 1
30.463906 -3.747087 -13.599838 33.571503 -0.122386 1.987885 0.110413 -0.028505 -116179.000000 0 0 1
30.122806 -5.204487 -13.348538 33.356463 -0.171087 1.982508 0.114460 -0.029360 -91080.600000 0 0 1
29.409506 -5.865587 -14.359438 33.249325 -0.196862 2.017363 0.095279 -0.031200 312657.000000 0 0 1
29.098906 -7.197687 -13.982538 33.076644 -0.242485 2.007254 0.105805 -0.031876 -333054.000000 0 0 1
28.373206 -8.028887 -15.034938 33.099112 -0.275765 2.042315 0.079275 -0.026829 -199189.000000 0 0 1
27.118006 -7.487487 -15.413838 32.078577 -0.269396 2.072024 0.060339 -0.022581 94172.700000 0 0 1
26.672506 -8.342087 -16.457138 32.432243 -0.303122 2.102998 0.074348 -0.022773 180287.000000 0 0 1
25.251906 -8.083887 -17.029638 31.512165 -0.309821 2.141726 0.059503 -0.020298 102861.000000 0 0 1
25.206006 -6.796487 -17.592938 31.480890 -0.263374 2.163789 0.044604 -0.012639 -330149.000000 0 0 1
23.997606 -6.355087 -18.158738 30.757308 -0.258879 2.202336 0.080606 -0.017590 -137768.000000 0 0 1
23.634006 -6.752187 -19.581138 31.425774 -0.278285 2.243486 0.047211 -0.011581 -360654.000000 0 0 1
24.509406 -6.080987 -20.415138 32.472562 -0.243197 2.250662 0.049209 -0.014863 -93151.700000 0 0 1
24.348306 -6.434287 -21.772138 33.290630 -0.258354 2.283659 0.073275 -0.023807 -66906.600000 0 0 1
25.068006 -5.469687 -22.754038 34.293858 -0.214827 2.296286 0.083335 -0.028552 -77915.500000 0 0 1
24.922506 -5.824487 -24.103938 35.157585 -0.229583 2.326220 0.103734 -0.035337 45638.900000 0 0 1
25.126906 -4.780587 -24.971438 35.746163 -0.188011 2.344203 0.096444 -0.048207 -120019.000000 0 0 1
25.231206 -5.135087 -26.455088 36.916860 -0.200779 2.369730 0.137158 -0.057515 -373550.000000 0 0 1
24.007706 -5.660487 -26.878608 36.481100 -0.231549 2.399094 0.157313 -0.058601 -470999.000000 0 0 1
24.030706 -5.842787 -28.261798 37.554524 -0.238510 2.422728 0.156123 -0.060651 508982.000000 0 0 1
22.774906 -6.594987 -28.835218 37.331756 -0.281863 2.453415 0.132410 -0.066288 584960.000000 0 0 1
22.648306 -7.987687 -28.579208 37.329882 -0.339064 2.442747 0.106545 -0.052279 144486.000000 0 0 1
21.306806 -8.393487 -28.753878 36.758892 -0.375267 2.469032 0.118524 -0.062311 7674.800000 0 0 1
21.028706 -9.865987 -28.342048 36.644452 -0.438679 2.455036 0.138912 -0.043290 204477.000000 0 0 1
19.632406 -10.136587 -28.359898 35.950878 -0.476618 2.479734 0.149613 -0.040986 450438.000000 0 0 1
19.237606 -11.277787 -27.596678 35.480285 -0.530238 2.461959 0.146717 -0.047206 -12229.200000 0 0 1
19.429406 -12.699687 -28.313118 36.611699 -0.578924 2.454881 0.124359 -0.034863 131833.000000 0 0 1
18.308606 -13.071087 -29.095308 36.777647 -0.620015 2.483424 0.133146 -0.034201 605810.000000 0 0 1
18.713606 -14.318687 -29.683408 37.898926 -0.653126 2.470633 0.095118 -0.035659 -93435.200000 0 0 1
17.712506 -14.786887 -30.749248 38.443480 -0.695619 2.497852 0.085589 -0.037484 -501669.000000 0 0 1
16.511706 -15.296687 -30.259948 37.713254 -0.747219 2.502050 0.079118 -0.035603 -6486.300000 0 0 1
15.623806 -15.699087 -31.293968 38.338976 -0.787802 2.525676 0.068066 -0.038397 -451596.000000 0 0 1
14.334006 -16.327787 -30.823478 37.711367 -0.850332 2.527597 0.075828 -0.043319 -464430.000000 0 0 1
14.549006 -17.639487 -30.297988 37.957781 -0.881117 2.495101 0.059195 -0.038626 168110.000000 0 0 1
13.449906 -17.989087 -29.470018 37.053869 -0.928788 2.490347 0.068852 -0.032203 292531.000000 0 0 1
13.795606 -19.121587 -28.501228 36.990186 -0.945807 2.450434 0.067499 -0.028205 276956.000000 0 0 1
14.757606 -18.852087 -27.487738 36.452214 -0.906625 2.425042 0.062080 -0.021697 -40596.600000 0 0 1
14.757006 -19.837987 -26.501618 36.244320 -0.931226 2.390866 0.058233 -0.014884 -91509.900000 0 0 1
15.751706 -19.670587 -25.348588 35.743519 -0.895583 2.359131 0.046288 -0.006866 372271.000000 0 0 1
17.127506 -19.886387 -25.646038 36.695219 -0.859797 2.344645 0.065666 -0.023843 453710.000000 0 0 1
17.911806 -19.836087 -24.491538 36.251049 -0.836331 2.312587 0.077644 -0.024279 103587.000000 0 0 1
19.433306 -20.155687 -24.625538 37.287025 -0.803643 2.292190 0.048209 -0.013648 523951.000000 0 0 1
19.813906 -21.534187 -24.722938 38.308429 -0.826979 2.272298 0.062754 -0.014708 244713.000000 0 0 1
19.414906 -22.306787 -23.608638 37.840443 -0.854601 2.244519 0.052960 -0.013104 -803323.000000 0 0 1
19.974006 -23.747587 -23.565038 38.964340 -0.871494 2.220292 0.036483 -0.013441 -291276.000000 0 0 1
21.332506 -23.787287 -23.174138 39.470895 -0.839750 2.198292 0.052476 -0.017134 154821.000000 0 0 1
21.710806 -25.137817 -23.011838 40.408089 -0.858419 2.176677 0.060251 -0.024593 -158414.000000 0 0 1
21.803206 -25.568067 -21.507938 39.896081 -0.864707 2.140163 0.080006 -0.020548 174079.000000 0 0 1
20.547206 -25.867687 -20.893838 39.088072 -0.899529 2.134751 0.057685 -0.017933 509404.000000 0 0 1
20.733006 -26.131677 -19.555938 38.667257 -0.900090 2.101047 0.076611 -0.025759 77052.100000 0 0 1
19.448206 -26.664327 -18.887138 38.025558 -0.940629 2.090584 0.059886 -0.025171 -431069.000000 0 0 1
19.270706 -27.993537 -19.214038 39.040716 -0.967899 2.085359 0.059022 -0.025183 84062.000000 0 0 1
18.108406 -28.684417 -18.814138 38.790230 -1.007681 2.077185 0.052267 -0.022389 2071590.000000 0 0 1
16.632906 -28.199677 -19.263838 37.986456 -1.037891 2.102641 0.053185 -0.029029 1572520.000000 0 0 1
16.148306 -27.042227 -18.557938 36.557446 -1.032474 2.103237 0.067434 -0.029278 252080.000000 0 0 1
14.888906 -26.727677 -19.158838 36.098605 -1.062549 2.130265 0.060344 -0.018955 463254.000000 0 0 1
13.909406 -25.793957 -18.433538 34.620733 -1.076243 2.132279 0.039013 -0.018976 -280331.000000 0 0 1
13.256606 -26.451897 -17.359538 34.304431 -1.106222 2.101388 0.041345 -0.016671 64050.100000 0 0 1
12.136706 -25.784987 -16.823938 33.093958 -1.130871 2.104086 0.043172 -0.023210 307955.000000 0 0 1
10.726506 -25.898927 -17.422938 33.005623 -1.178136 2.126896 0.050441 -0.024281 -153701.000000 0 0 1
9.907206 -26.887647 -16.813238 33.223234 -1.217766 2.101417 0.061460 -0.013845 921408.000000 0 0 1
8.488106 -26.777507 -17.020538 32.844810 -1.263829 2.115554 0.061505 0.000624 1231400.000000 0 0 1
7.859006 -27.292977 -18.304438 33.789392 -1.290431 2.143280 0.086748 -0.011316 -410169.000000 0 0 1
8.052806 -26.535647 -19.489638 33.894457 -1.276158 2.183412 0.099854 -0.021435 -105456.000000 0 0 1
7.744406 -27.309317 -20.648638 35.101864 -1.294470 2.199688 0.100047 -0.015841 1199.890000 0 0 1
7.521606 -26.375647 -21.869038 35.078542 -1.292998 2.243919 0.108848 -0.011820 507064.000000 0 0 1
6.362306 -25.522437 -21.813138 34.171431 -1.326493 2.263142 0.106263 -0.014501 520019.000000 0 0 1
6.177006 -24.819087 -22.988938 34.389443 -1.326871 2.302971 0.092239 -0.016959 -788521.000000 0 0 1
4.712906 -24.427487 -23.139238 33.975549 -1.380204 2.320000 0.068287 -0.012578 -380774.000000 0 0 1
3.885206 -25.582427 -23.324638 34.836678 -1.420078 2.304389 0.059554 -0.009076 -285721.000000 0 0 1
2.614406 -25.164907 -23.739838 34.694201 -1.467277 2.324384 0.056498 -0.015307 -288358.000000 0 0 1
1.643606 -26.256737 -24.150438 35.712202 -1.508280 2.313459 0.028160 0.000127 34904.400000 0 0 1
2.067006 -26.789097 -25.402478 36.975859 -1.493790 2.328151 0.031986 -0.003967 295005.000000 0 0 1
1.027906 -27.452367 -26.060678 37.866185 -1.533371 2.329844 0.046017 -0.012730 -143756.000000 0 0 1
1.644006 -28.176167 -27.269738 39.245863 -1.512515 2.338999 0.051685 -0.014116 -613636.000000 0 0 1
2.328306 -27.382567 -28.210708 39.383627 -1.485972 2.369290 0.055498 -0.014266 -72219.000000 0 0 1
2.804606 -28.249627 -29.196648 40.722862 -1.471841 2.370227 0.084901 -0.029607 229605.000000 0 0 1
4.199706 -28.859207 -28.880268 41.043407 -1.426287 2.351320 0.102385 -0.035533 -520420.000000 0 0 1
4.248206 -30.078087 -28.172078 41.429513 -1.430485 2.318559 0.086426 -0.035828 1301100.000000 0 0 1
5.545206 -30.726307 -28.378788 42.192545 -1.392247 2.308516 0.119706 -0.045990 1255410.000000 0 0 1
5.671506 -31.803697 -27.301478 42.296712 -1.394323 2.272442 0.148255 -0.062624 -88980.300000 0 0 1
4.639506 -32.769327 -27.230788 42.858717 -1.430150 2.259273 0.119763 -0.067551 134460.000000 0 0 1
5.077006 33.727318 -26.589118 43.246840 1.421387 2.232957 0.136265 -0.072390 227438.000000 0 0 1
3.907606 32.812529 -26.077048 42.094464 1.452266 2.238888 0.168424 -0.069409 269847.000000 0 0 1
3.167006 32.272410 -27.150558 42.292921 1.472976 2.267854 0.137606 -0.068658 -641224.000000 0 0 1
1.891806 31.894413 -26.758158 41.675311 1.511551 2.267982 0.100321 -0.060134 -177685.000000 0 0 1
0.869806 32.144276 -27.940728 42.599241 1.543743 2.286167 0.107427 -0.032890 36538.700000 0 0 1
1.074406 31.254878 -29.042518 42.678913 1.536434 2.319226 0.131566 -0.036575 -92934.600000 0 0 1
0.288006 31.605088 -30.131578 43.667797 1.561684 2.332311 0.122344 -0.033882 -133438.000000 0 0 1
0.248506 30.461998 -31.122848 43.550278 1.562639 2.366908 0.104057 -0.030781 717498.000000 0 0 1
1.502006 30.342118 -31.815768 43.990263 1.521334 2.379287 0.128651 -0.033550 737485.000000 0 0 1
1.412406 29.347558 -32.770498 44.013402 1.522707 2.410668 0.121949 -0.033061 -19836.700000 0 0 1
2.618006 29.283408 33.726810 44.742258 1.481631 0.716967 0.137441 -0.029818 24036.700000 0 0 1
2.698206 30.325578 32.767804 44.728626 1.482055 0.748675 0.136802 -0.030901 -219723.000000 0 0 1
3.641506 29.922578 31.814961 43.827081 1.449694 0.758425 0.110549 -0.032255 -253031.000000 0 0 1
3.044406 29.026228 30.676200 42.341700 1.466294 0.760500 0.103397 -0.025613 58813.700000 0 0 1
2.790206 27.619308 31.046100 41.646990 1.470114 0.729574 0.109905 -0.032069 162497.000000 0 0 1
3.959806 26.801478 31.071030 41.223879 1.424112 0.717101 0.105680 -0.024355 253372.000000 0 0 1
3.701206 25.339538 31.567386 40.648382 1.425758 0.681551 0.091162 -0.024526 262352.000000 0 0 1
2.903906 24.670118 30.571380 39.391074 1.453626 0.682340 0.100861 -0.025007 305588.000000 0 0 1
3.142606 23.290858 30.580670 38.568348 1.436678 0.655250 0.082714 -0.016753 -279308.000000 0 0 1
2.256906 22.595358 29.544340 37.262741 1.471243 0.655299 0.083745 -0.010766 -649170.000000 0 0 1
0.984406 22.382558 30.063380 37.493397 1.526844 0.640443 0.093615 -0.021298 -921286.000000 0 0 1
0.215306 21.769858 29.039140 36.293866 1.560907 0.643315 0.087088 -0.014570 914363.000000 0 0 1
-1.212094 21.233458 29.440770 36.319249 -1.513774 0.625602 0.086269 -0.014094 387673.000000 0 0 1
-2.166194 22.217758 29.649520 37.113545 -1.473605 0.645354 0.094279 -0.021429 -323468.000000 0 0 1
-3.384394 21.597658 30.028280 37.143109 -1.415358 0.629286 0.076252 -0.021228 -387273.000000 0 0 1
-4.445494 22.664358 30.269570 38.074695 -1.377111 0.651781 0.052349 -0.029282 -400493.000000 0 0 1
-4.169394 23.569148 31.318340 39.417344 -1.395707 0.652560 0.072895 -0.028661 384589.000000 0 0 1
-5.260294 24.499198 31.389163 40.164175 -1.359295 0.673696 0.057861 -0.029359 571966.000000 0 0 1
-5.170694 25.472708 32.582865 41.680188 -1.370528 0.673353 0.079618 -0.026245 740087.000000 0 0 1
-6.453494 25.721868 33.190826 42.484033 -1.324975 0.674124 0.064220 -0.023746 655072.000000 0 0 1
-6.400794 26.285748 -32.930858 42.618683 -1.331937 2.453858 0.076451 -0.019947 479806.000000 0 0 1
-7.835294 26.550478 -32.368958 42.591891 -1.283832 2.434078 0.070146 -0.013170 726559.000000 0 0 1
-8.527794 27.708748 -32.855898 43.817896 -1.272231 2.418599 0.079794 -0.017661 191725.000000 0 0 1
-9.729094 28.063568 -32.191768 43.801017 -1.237082 2.396396 0.079328 -0.016785 240817.000000 0 0 1
-9.692694 28.531528 -30.711488 43.025480 -1.243310 2.365702 0.086136 -0.018700 -513570.000000 0 0 1
-9.019994 29.693168 -30.415098 43.452534 -1.275881 2.346140 0.082354 -0.019888 -70573.100000 0 0 1
-9.265094 29.961378 -29.027098 42.732874 -1.270889 2.317562 0.088664 -0.021849 -183767.000000 0 0 1
-8.606294 31.269328 -28.536498 43.199200 -1.302215 2.292386 0.074644 -0.016955 -382932.000000 0 0 1
-7.222694 31.295918 -28.743148 43.101860 -1.343981 2.300791 0.059334 -0.015426 -628440.000000 0 0 1
-6.723294 32.518193 -28.313638 43.638259 -1.366914 2.276837 0.065736 -0.011590 32290.500000 0 0 1
-5.214994 32.708777 -28.592458 43.756016 -1.412690 2.282932 0.075857 -0.014954 -264062.000000 0 0 1
-4.609594 -33.790657 -28.080658 44.176693 1.435217 2.259639 0.089982 -0.014199 71783.200000 0 0 1
-4.346194 -32.755177 -29.050388 43.996773 1.438880 2.291994 0.096930 -0.025403 42537.800000 0 0 1
-3.367994 -33.142117 -30.226988 44.982376 1.469521 2.307667 0.093732 -0.027759 -375991.000000 0 0 1
-3.716794 33.751628 -31.377088 46.233198 -1.461116 2.316747 0.088085 -0.014772 245270.000000 0 0 1
-4.747794 -33.458977 -32.269448 46.726459 1.429838 2.333119 0.116526 -0.022562 338708.000000 0 0 1
-4.262194 -32.504227 -33.328158 46.748874 1.440413 2.364448 0.095088 -0.028902 -370877.000000 0 0 1
-4.096494 -31.220727 -32.825708 45.486725 1.440331 2.376986 0.094483 -0.030033 344606.000000 0 0 1
-3.352294 -30.508297 33.639360 45.536805 1.461354 0.739614 0.104678 -0.044943 243069.000000 0 0 1
35.115046 18.253213 13.139420 41.700007 0.479371 1.250241 0.077667 -0.035957 -339818.000000 0 0 1
36.335606 17.584413 13.030220 42.417856 0.450721 1.258560 0.094278 -0.044215 -447104.000000 0 0 1
36.289316 16.253413 13.463420 41.980372 0.421093 1.244320 0.112195 -0.020110 983.924000 0 0 1
37.711386 15.798213 13.865320 43.173826 0.396713 1.243852 0.087864 -0.038889 140851.000000 0 0 1
-37.073110 15.402313 12.873320 42.158856 -0.393761 1.260488 0.095139 -0.024487 -58011.900000 0 0 1
-37.298260 14.168513 12.221820 41.728646 -0.363034 1.273550 0.137988 -0.044013 -532171.000000 0 0 1
-36.019320 13.340013 12.017820 40.246433 -0.354694 1.267565 0.165080 -0.033298 111784.000000 0 0 1
-35.450369 12.644213 13.139820 39.865520 -0.342608 1.234913 0.141625 -0.031813 202689.000000 0 0 1
-36.257660 11.582113 13.614020 40.424062 -0.309194 1.227301 0.151215 -0.036566 -206935.000000 0 0 1
-35.640458 10.999813 14.853020 40.147856 -0.299358 1.191833 0.187072 -0.055050 -61061.000000 0 0 1
-35.811202 11.763213 16.022620 40.957780 -0.317375 1.168863 0.168858 -0.042079 535994.000000 0 0 1
-34.903000 11.403213 17.082720 40.497803 -0.315779 1.135346 0.154108 -0.046871 356981.000000 0 0 1
-35.056868 12.331113 18.266420 41.408966 -0.338229 1.113947 0.138506 -0.043195 597805.000000 0 0 1
-36.416490 12.238413 18.710620 42.732035 -0.324210 1.117580 0.145199 -0.052627 760432.000000 0 0 1
-36.530010 13.149713 19.764420 43.565915 -0.345529 1.099920 0.159627 -0.047254 235457.000000 0 0 1
-37.851250 13.072313 20.574920 45.021438 -0.332535 1.096174 0.149287 -0.061545 292019.000000 0 0 1
-37.840210 11.863713 21.387620 45.056182 -0.303815 1.076187 0.124169 -0.049062 1649920.000000 0 0 1
36.543026 11.678113 21.985120 44.216700 0.309314 1.050413 0.139794 -0.050766 1694550.000000 0 0 1
36.515076 10.434513 22.855430 44.323815 0.278341 1.029034 0.125703 -0.052618 -7605.620000 0 0 1
37.435406 10.361213 23.926150 45.620445 0.270016 1.018714 0.110995 -0.037642 -428312.000000 0 0 1
37.092676 11.134613 25.012390 46.102775 0.291625 0.997344 0.104402 -0.030796 -1605890.000000 0 0 1
-37.482270 11.554313 25.967820 47.039881 -0.299018 0.985989 0.105066 -0.030280 35150.400000 0 0 1
-36.566240 12.445513 25.390500 46.224001 -0.328057 0.989279 0.126771 -0.035798 -489362.000000 0 0 1
-35.612571 11.868613 24.531400 44.843158 -0.321694 0.991962 0.122169 -0.040137 -1957470.000000 0 0 1
-34.572307 12.835213 24.063320 44.034424 -0.355485 0.992658 0.128401 -0.044059 -720167.000000 0 0 1
-33.636370 13.220513 25.038810 43.967367 -0.374494 0.964916 0.137930 -0.045747 -372512.000000 0 0 1
-34.123661 13.986213 26.096010 45.177873 -0.388985 0.954976 0.118133 -0.038633 -944946.000000 0 0 1
-33.016580 14.347713 27.116090 45.069211 -0.409941 0.925226 0.128847 -0.030975 116711.000000 0 0 1
-32.083070 15.256213 26.588720 44.373815 -0.443874 0.928297 0.130190 -0.032895 -213417.000000 0 0 1
-31.670030 16.181913 27.570900 44.999996 -0.472372 0.911341 0.132469 -0.031518 91611.200000 0 0 1
-31.104470 17.515613 27.028630 44.775346 -0.512862 0.922725 0.130832 -0.021867 73897.500000 0 0 1
-32.093990 18.317513 26.455170 45.447019 -0.518631 0.949475 0.105340 -0.031050 179687.000000 0 0 1
-31.462940 19.426113 25.847000 45.114941 -0.553136 0.960739 0.102172 -0.030822 239855.000000 0 0 1
-32.450990 20.261113 25.007430 45.705044 -0.558139 0.991843 0.097796 -0.021773 189626.000000 0 0 1
-33.444450 21.007013 25.684300 47.111667 -0.560837 0.994193 0.092293 -0.030922 735568.000000 0 0 1
-34.186470 21.898313 24.847080 47.598616 -0.569707 1.021587 0.102721 -0.026522 -58961.800000 0 0 1
-34.434876 23.285713 25.414860 48.722687 -0.594591 1.022045 0.101150 -0.023776 -296408.000000 0 0 1
-35.315046 24.027913 24.620590 49.301791 -0.597442 1.047907 0.117583 -0.028947 -29221.700000 0 0 1
-34.892669 25.399213 24.674580 49.713713 -0.629222 1.051426 0.121411 -0.036841 525102.000000 0 0 1
-35.654778 26.272313 23.639850 50.202990 -0.635033 1.080502 0.134892 -0.034952 342595.000000 0 0 1
-35.368787 25.885313 22.285620 49.169599 -0.631796 1.100400 0.154578 -0.038856 384737.000000 0 0 1
-36.436420 26.422613 21.509820 49.884262 -0.627420 1.124980 0.154489 -0.044944 531965.000000 0 0 1
-36.309370 26.158413 20.014120 49.022423 -0.624307 1.150244 0.184108 -0.055530 67652.000000 0 0 1
-36.552290 24.804913 19.581420 48.319620 -0.596229 1.153546 0.177801 -0.050642 138181.000000 0 0 1
-36.449320 24.793513 18.164320 47.678232 -0.597326 1.179943 0.180934 -0.050099 -288329.000000 0 0 1
-36.786640 23.461213 17.517420 47.016438 -0.567726 1.189008 0.176401 -0.038676 295829.000000 0 0 1
37.578176 23.182713 17.162020 47.371853 0.552768 1.200080 0.151725 -0.046457 -25713.100000 0 0 1
37.549876 22.048013 16.352820 46.513684 0.530929 1.211549 0.140050 -0.045023 -212028.000000 0 0 1
36.505806 22.088613 15.212520 45.299023 0.544140 1.228316 0.131729 -0.028066 472635.000000 0 0 1
35.261606 21.595713 15.689720 44.225818 0.549518 1.208135 0.122628 -0.039667 68492.300000 0 0 1
34.196726 21.703413 14.782420 43.115823 0.565518 1.220843 0.119384 -0.032031 391662.000000 0 0 1
32.896956 20.894713 15.087820 41.790442 0.565870 1.201419 0.102997 -0.042354 735977.000000 0 0 1
32.087276 21.209513 16.194820 41.733787 0.584065 1.172281 0.109748 -0.042905 199809.000000 0 0 1
31.199676 22.299713 16.044720 41.570784 0.620551 1.174547 0.113734 -0.029352 -89049.500000 0 0 1
30.450806 22.914813 17.225520 41.821750 0.645111 1.146281 0.098676 -0.025145 190266.000000 0 0 1
31.278536 23.599613 18.160020 43.186513 0.646374 1.136798 0.047737 -0.018465 -272546.000000 0 0 1
30.582506 24.003413 19.310120 43.408919 0.665449 1.109798 0.045048 -0.004489 -239683.000000 0 0 1
31.464126 24.594413 20.430120 44.858290 0.663461 1.097933 0.045942 -0.003275 -45004.500000 0 0 1
32.261786 25.628013 19.898120 45.755361 0.671303 1.120891 0.067639 -0.012582 -613499.000000 0 0 1
33.244476 25.914913 20.827120 47.016453 0.662131 1.111882 0.079259 -0.022225 -967292.000000 0 0 1
34.157916 27.045213 20.283020 48.058378 0.669702 1.135091 0.100599 -0.029924 341084.000000 0 0 1
35.222926 27.428113 21.146620 49.397727 0.661618 1.128419 0.093505 -0.024654 927465.000000 0 0 1
34.701456 28.388813 22.063720 49.969226 0.685673 1.113475 0.065557 -0.012856 -198034.000000 0 0 1
35.673836 28.479413 23.220250 51.214057 0.673720 1.100224 0.059881 -0.020604 596016.000000 0 0 1
36.919266 29.135413 22.945350 52.329663 0.668100 1.116893 0.100853 -0.022029 623350.000000 0 0 1
37.675976 29.215313 24.138110 53.438395 0.659582 1.102127 0.114843 -0.025991 -413549.000000 0 0 1
-36.837600 30.125413 24.206830 53.390261 -0.685495 1.100227 0.120897 -0.039256 33602.800000 0 0 1
-35.557575 29.615713 23.843100 52.056941 -0.694479 1.095030 0.124485 -0.037706 415367.000000 0 0 1
-34.582830 30.616813 24.098080 52.096822 -0.724644 1.089912 0.113846 -0.034607 -317323.000000 0 0 1
-33.132440 30.169213 23.946520 50.807242 -0.738621 1.080008 0.137546 -0.042385 -275471.000000 0 0 1
-32.609840 30.212313 22.574010 49.857512 -0.747253 1.100926 0.127302 -0.036645 337747.000000 0 0 1
-32.913450 29.078713 21.769820 49.018281 -0.723618 1.110609 0.151787 -0.039099 66509.600000 0 0 1
-32.265670 27.718113 22.295420 48.025546 -0.709730 1.088019 0.139450 -0.032348 -165996.000000 0 0 1
-30.888500 27.511613 22.053220 46.875717 -0.727639 1.080983 0.099057 -0.032746 203872.000000 0 0 1
-30.391850 26.396513 22.787770 46.257139 -0.715159 1.055684 0.091212 -0.035914 95782.000000 0 0 1
-30.017420 26.663013 24.284950 46.922496 -0.726286 1.026806 0.088417 -0.028128 -167387.000000 0 0 1
-31.200240 26.924313 25.044920 48.224700 -0.711966 1.024720 0.078870 -0.029114 648246.000000 0 0 1
-30.878510 27.271213 26.379020 48.918853 -0.723443 1.001261 0.089850 -0.029571 163967.000000 0 0 1
-32.227820 27.477513 27.148280 50.305817 -0.706003 1.000757 0.090643 -0.038660 804579.000000 0 0 1
-32.862030 26.222313 27.429290 50.198493 -0.673491 0.992717 0.072300 -0.033147 242599.000000 0 0 1
-34.004283 26.446313 28.249260 51.514265 -0.661016 0.990374 0.079528 -0.029057 385347.000000 0 0 1
-34.626955 25.227013 28.971240 51.718092 -0.629623 0.976198 0.069794 -0.018181 531808.000000 0 0 1
-33.764110 24.629413 29.972190 51.429129 -0.630222 0.948643 0.069268 -0.017556 328796.000000 0 0 1
-34.387619 23.458213 30.486280 51.596603 -0.598659 0.938674 0.051438 -0.021031 -101997.000000 0 0 1
-33.639020 22.559813 31.467798 51.290849 -0.590751 0.910290 0.067667 -0.033206 -660591.000000 0 0 1
-32.439400 22.061413 30.921870 49.951804 -0.597232 0.903284 0.071999 -0.024829 71354.600000 0 0 1
-31.476510 21.466013 31.757830 49.599599 -0.598522 0.875928 0.084236 -0.025817 380624.000000 0 0 1
-30.701220 22.379313 32.730892 50.146883 -0.629885 0.859653 0.084208 -0.025737 -842927.000000 0 0 1
-31.520910 22.761713 -33.660878 51.426823 -0.625414 2.284369 0.099482 -0.030798 13334.600000 0 0 1
-31.456690 22.167113 -32.356118 50.277457 -0.613865 2.269925 0.088015 -0.020044 373511.000000 0 0 1
-30.174050 22.491113 -31.476198 49.061946 -0.640537 2.267327 0.097747 -0.024602 650265.000000 0 0 1
-30.131350 23.825713 -31.015678 49.371400 -0.669062 2.250049 0.091621 -0.028502 421943.000000 0 0 1
-29.029540 24.045713 -30.145088 48.266312 -0.691772 2.245361 0.118023 -0.027890 170146.000000 0 0 1
-29.255070 25.464013 -29.531218 48.748005 -0.716227 2.221559 0.106266 -0.023451 27926.600000 0 0 1
-29.284770 26.518313 -30.438798 49.873231 -0.735863 2.227265 0.114586 -0.024453 637559.000000 0 0 1
-30.624450 26.790113 -30.885098 51.082839 -0.718714 2.220070 0.086825 -0.022249 342940.000000 0 0 1
-30.748970 28.106113 -31.742068 52.373769 -0.740524 2.221904 0.102969 -0.020356 -97206.900000 0 0 1
-30.634120 29.340913 -30.992258 52.534356 -0.763839 2.201784 0.084913 -0.032626 -468289.000000 0 0 1
-29.366030 29.884213 -31.177648 52.225240 -0.794144 2.210533 0.083668 -0.033062 -683445.000000 0 0 1
-29.210780 31.351913 -30.750338 52.742729 -0.820737 2.193244 0.068458 -0.022935 -19142.800000 0 0 1
-28.882560 31.540513 -29.386618 51.890072 -0.829359 2.172836 0.070651 -0.023132 92148.000000 0 0 1
-29.315760 32.818313 -29.001258 52.702262 -0.841709 2.153502 0.054813 -0.020159 -56290.400000 0 0 1
-28.967570 33.130813 -27.512568 51.900986 -0.852341 2.129512 0.047509 -0.020131 977458.000000 0 0 1
-27.608040 33.575113 -27.315528 51.338389 -0.882619 2.131838 0.043172 -0.011049 782013.000000 0 0 1
-27.279090 -32.740331 -27.485118 50.710056 0.876140 2.143618 0.043617 0.004953 -433704.000000 0 0 1
-27.845910 -31.742331 -26.449328 49.825067 0.850694 2.130392 0.042302 0.008075 21667.200000 0 0 1
-29.210920 -31.395031 -26.564288 50.443902 0.821420 2.125405 0.044627 -0.010372 -200555.000000 0 0 1
-29.657040 -30.642231 -25.457958 49.664817 0.801735 2.109001 0.044138 0.000629 -1191240.000000 0 0 1
-31.150850 -30.614031 -25.409368 50.529500 0.776707 2.097703 0.039783 -0.004478 -1203380.000000 0 0 1
-31.714330 -29.701531 -26.356058 50.819499 0.752637 2.116034 0.039919 -0.008104 -591132.000000 0 0 1
-33.101650 -29.666531 -26.309098 51.652599 0.730726 2.105222 0.050262 -0.010951 -740296.000000 0 0 1
-33.750800 -28.704731 -27.281808 52.032444 0.704779 2.122716 0.065583 -0.024660 233638.000000 0 0 1
-35.167526 -28.597931 -27.253388 52.889921 0.682733 2.112137 0.063994 -0.027472 257505.000000 0 0 1
-35.618123 -27.671831 -28.239858 53.215323 0.660498 2.130189 0.067423 -0.035615 1033260.000000 0 0 1
-37.170610 -27.772731 -28.497038 54.452365 0.641687 2.121561 0.060620 -0.037321 1196070.000000 0 0 1
37.762626 -27.266431 -27.434958 54.056925 -0.625371 2.103100 0.049580 -0.030429 838142.000000 0 0 1
36.351126 -27.363331 -27.718798 53.277463 -0.645259 2.117966 0.049066 -0.030452 1240440.000000 0 0 1
35.313506 -26.722331 -26.774498 51.749401 -0.647786 2.114592 0.055261 -0.028276 142763.000000 0 0 1
35.127306 -27.488931 -25.614438 51.436062 -0.664011 2.092071 0.056218 -0.023146 138707.000000 0 0 1
34.058076 -26.965731 -24.850438 50.046453 -0.669695 2.090413 0.072530 -0.009941 100731.000000 0 0 1
33.832576 -27.696131 -23.501538 49.639110 -0.685994 2.063998 0.065960 0.001066 90233.000000 0 0 1
33.212926 -28.960631 -23.669738 50.020727 -0.717111 2.063714 0.090852 -0.010159 -150616.000000 0 0 1
32.801666 -29.550331 -22.460838 49.534439 -0.733301 2.041416 0.095535 -0.005491 -374985.000000 0 0 1
33.770296 -29.682231 -21.283238 49.743783 -0.721060 2.012917 0.075926 0.000168 -359924.000000 0 0 1
34.983886 -30.352131 -21.531638 51.075783 -0.714625 2.005964 0.060214 -0.005606 782281.000000 0 0 1
36.052916 -30.286731 -20.571638 51.383764 -0.698697 1.982698 0.044663 0.002249 916239.000000 0 0 1
36.933546 -29.039731 -20.601838 51.301351 -0.666313 1.984043 0.034175 0.006415 72760.200000 0 0 1
36.201106 -27.840331 -20.149238 49.915889 -0.655580 1.986314 0.036439 0.017913 428665.000000 0 0 1
36.699356 -26.667831 -20.717138 49.871994 -0.628393 1.999186 0.022968 0.015221 127256.000000 0 0 1
35.755736 -25.481331 -20.458538 48.438855 -0.619166 2.006841 0.036329 0.020764 1459720.000000 0 0 1
34.452056 -25.451731 -21.091138 47.744852 -0.636267 2.028341 0.051897 0.015244 915836.000000 0 0 1
33.494466 -24.674331 -20.413738 46.340291 -0.634914 2.026972 0.061478 0.000563 -92299.100000 0 0 1
32.153746 -24.752531 -21.174838 45.770350 -0.656064 2.051758 0.083848 -0.006523 -85602.300000 0 0 1
31.673026 -26.061631 -21.462838 46.293009 -0.688510 2.052884 0.106817 -0.009992 1152170.000000 0 0 1
30.330406 -25.941231 -22.022138 45.583501 -0.707556 2.075007 0.116304 -0.015489 1432230.000000 0 0 1
29.683806 -27.252831 -22.442038 46.124725 -0.742728 2.078934 0.114378 -0.013211 -66952.100000 0 0 1
29.410906 -28.108931 -21.387638 45.962425 -0.762767 2.054802 0.114480 -0.012368 -349010.000000 0 0 1
28.735606 -29.232731 -21.856838 46.454376 -0.793974 2.060655 0.107305 -0.013405 -125815.000000 0 0 1
28.058606 -30.040231 -20.685038 46.017080 -0.819493 2.037011 0.111112 -0.004372 546946.000000 0 0 1
28.923806 -30.497931 -19.591438 46.373859 -0.811883 2.006962 0.116259 -0.006057 551400.000000 0 0 1
29.848906 -31.518131 -19.988138 47.789910 -0.812592 2.002314 0.117981 -0.000023 359672.000000 0 0 1
30.705406 -31.989231 -18.774238 48.151894 -0.805873 1.971315 0.089373 -0.006987 412998.000000 0 0 1
29.985406 -32.596331 -17.649038 47.677395 -0.827094 1.949995 0.104832 -0.014121 391200.000000 0 0 1
29.254306 -31.699031 -16.806238 46.293549 -0.825485 1.942321 0.087635 -0.018088 -26558.000000 0 0 1
28.482206 -32.328231 -15.664638 45.844645 -0.848560 1.919510 0.089851 -0.015184 -56306.300000 0 0 1
27.289606 -32.991431 -16.073738 45.733163 -0.879705 1.929935 0.105027 -0.017046 -114649.000000 0 0 1
26.778206 -33.570931 -14.945938 45.469339 -0.897484 1.905727 0.096043 -0.008255 -114137.000000 0 0 1
25.230206 -33.660331 -14.856238 44.612655 -0.927581 1.910285 0.094508 -0.010482 230805.000000 0 0 1
24.669406 -32.381031 -14.691638 43.277650 -0.919756 1.917154 0.093683 -0.005629 -365144.000000 0 0 1
23.342606 -32.540831 -14.268638 42.513257 -0.948532 1.913068 0.092918 -0.011398 -420654.000000 0 0 1
-0.350400 -7.427387 -28.832298 29.775666 1.523654 2.889199 0.162993 -0.043600 194016.000000 0 0 1
-0.052500 -8.761787 -28.563758 29.877415 1.564804 2.843954 0.159545 -0.039690 -204232.000000 0 0 1
-0.047800 -9.516387 -29.775558 31.259363 1.565773 2.832245 0.169555 -0.057332 -124809.000000 0 0 1
0.393800 -10.966187 -29.645308 31.611021 -1.534901 2.787079 0.196106 -0.046140 -182654.000000 0 0 1
1.723000 -10.929787 -29.185908 31.212917 -1.414440 2.779221 0.104292 -0.048609 -492899.000000 0 0 1
2.051800 -12.209387 -28.683488 31.241343 -1.404301 2.734122 0.129234 -0.051527 -124152.000000 0 0 1
3.556900 -12.430587 -28.457868 31.257340 -1.292102 2.715138 0.090921 -0.040559 -413793.000000 0 0 1
4.275700 -12.558887 -29.647398 32.480386 -1.242653 2.720832 0.106999 -0.045355 1540790.000000 0 0 1
5.660400 -13.068787 -29.589158 32.838264 -1.162065 2.692998 0.098158 -0.047995 2168200.000000 0 0 1
5.909500 -14.493287 -29.077588 33.022473 -1.183635 2.647795 0.095138 -0.045824 -796128.000000 0 0 1
5.517300 -14.795387 -27.764038 31.940349 -1.213862 2.624473 0.086385 -0.041915 -43008.600000 0 0 1
6.192000 -15.868587 -27.090188 32.000488 -1.198762 2.580277 0.088820 -0.031974 -87384.700000 0 0 1
6.004000 -17.282987 -27.663488 33.166523 -1.236445 2.557257 0.064078 -0.042288 -284617.000000 0 0 1
6.613800 -17.449087 -28.930278 34.426356 -1.208494 2.568730 0.091998 -0.055416 64146.900000 0 0 1
6.251000 -18.717087 -29.477528 35.472934 -1.248470 2.551675 0.081388 -0.050944 -343179.000000 0 0 1
6.785500 -19.080787 -30.867388 36.917680 -1.229124 2.560957 0.097138 -0.061849 -86885.500000 0 0 1
8.183700 -19.271687 -30.907468 37.331521 -1.169223 2.546183 0.101828 -0.053901 -170370.000000 0 0 1
8.514900 -19.943787 -32.117428 38.752901 -1.167279 2.547711 0.105416 -0.046573 -113417.000000 0 0 1
9.928400 -19.571687 -32.587798 39.288531 -1.101339 2.548915 0.093581 -0.040799 -248079.000000 0 0 1
10.002800 -18.271387 -33.069388 39.083040 -1.069908 2.579481 0.108506 -0.046837 403062.000000 0 0 1
11.145700 -18.267387 33.530540 39.777144 -1.022953 0.568035 0.091375 -0.038607 248752.000000 0 0 1
11.548800 -16.833587 33.024230 38.824531 -0.969490 0.553667 0.100726 -0.033997 -35817.900000 0 0 1
10.530700 -16.219087 32.248977 37.602539 -0.994929 0.540158 0.120792 -0.034490 237490.000000 0 0 1
10.950600 -15.026787 31.712378 36.761323 -0.941042 0.530299 0.119454 -0.029234 -253383.000000 0 0 1
9.755900 -14.436487 30.957510 35.524037 -0.976510 0.512640 0.173950 -0.034882 68951.700000 0 0 1
9.634900 -15.159687 29.738720 34.742465 -1.004639 0.543360 0.162361 -0.035327 -76893.700000 0 0 1
8.397500 -14.999187 29.086920 33.786721 -1.060412 0.533764 0.164840 -0.033741 -151509.000000 0 0 1
8.266700 -15.733287 27.744350 32.948803 -1.087014 0.569734 0.118642 -0.016397 -364025.000000 0 0 1
8.423800 -17.145687 27.854220 33.775621 -1.114127 0.601153 0.097982 -0.018874 311905.000000 0 0 1
8.361400 -17.776587 26.582800 33.053976 -1.131140 0.636428 0.078400 -0.011613 47043.300000 0 0 1
7.896400 -19.287687 26.796970 33.947689 -1.182212 0.661029 0.093934 -0.015198 -327866.000000 0 0 1
8.744500 -20.014187 27.618870 35.211304 -1.158877 0.669108 0.099392 -0.009277 142461.000000 0 0 1
8.050300 -21.054887 28.290270 36.172572 -1.205599 0.672781 0.092148 -0.014976 83096.500000 0 0 1
8.602900 -21.152087 29.783910 37.530014 -1.184513 0.654089 0.111196 -0.024664 219296.000000 0 0 1
8.089300 -20.301287 30.815120 37.777648 -1.191616 0.616863 0.118027 -0.027367 187923.000000 0 0 1
8.119300 -18.884187 30.630240 36.888307 -1.164739 0.591059 0.119995 -0.027982 -225439.000000 0 0 1
7.628700 -18.133887 31.867533 37.450963 -1.172584 0.553074 0.121505 -0.032679 230768.000000 0 0 1
6.239700 -18.271587 32.132536 37.487126 -1.241716 0.541063 0.156015 -0.046251 -61904.300000 0 0 1
5.796600 -17.311987 33.029631 37.739396 -1.247698 0.504941 0.156903 -0.045433 -413293.000000 0 0 1
4.313600 -17.426087 33.377590 37.899066 -1.328137 0.493465 0.161037 -0.050211 -345830.000000 0 0 1
4.021000 -18.616687 -33.400488 38.449214 -1.358075 2.623350 0.138406 -0.053883 -48786.000000 0 0 1
3.049500 -18.331787 -32.415428 37.364607 -1.405955 2.621038 0.129111 -0.068964 -156956.000000 0 0 1
2.541600 -19.477387 -31.527478 37.145797 -1.441040 2.584412 0.094199 -0.044974 -394028.000000 0 0 1
1.564200 -20.298687 -32.153128 38.056630 -1.493889 2.577129 0.088264 -0.038326 319235.000000 0 0 1
0.905500 -21.254987 -31.319648 37.861785 -1.528220 2.544920 0.103004 -0.040771 770220.000000 0 0 1
-0.050700 -20.626887 -30.226988 36.594287 1.568338 2.542776 0.116959 -0.048074 360972.000000 0 0 1
-1.133900 -19.846687 -30.782108 36.643074 1.513725 2.568176 0.136186 -0.053802 861829.000000 0 0 1
-1.924700 -19.134187 -29.804008 35.469712 1.470544 2.568571 0.177669 -0.042322 690458.000000 0 0 1
-1.344000 -17.705087 -29.495978 34.428029 1.495031 2.599718 0.166170 -0.047442 205742.000000 0 0 1
-2.353800 -16.829687 -29.037708 33.644721 1.431838 2.612111 0.193965 -0.049725 -293794.000000 0 0 1
-2.082800 -15.492387 -29.435858 33.328994 1.437157 2.653419 0.195020 -0.053182 487093.000000 0 0 1
-3.188800 -14.391987 -29.205208 32.714552 1.352751 2.674161 0.189000 -0.033686 488167.000000 0 0 1
-3.352300 -14.229387 -27.835028 31.440454 1.339425 2.657989 0.178444 -0.039199 532686.000000 0 0 1
-4.371100 -13.227887 -27.590698 30.908415 1.251647 2.674008 0.165287 -0.037182 618555.000000 0 0 1
-4.471400 -12.991587 -26.040268 29.442662 1.239319 2.656089 0.166424 -0.030921 -295546.000000 0 0 1
-4.959300 -14.120187 -25.360328 29.446911 1.233035 2.608466 0.174544 -0.026173 82183.800000 0 0 1
-5.034400 -13.927087 -23.966538 28.172751 1.223929 2.588110 0.144312 -0.019550 -241824.000000 0 0 1
-5.828200 -12.734187 -23.356638 27.233435 1.141573 2.601470 0.117523 -0.019840 -2877.950000 0 0 1
-7.207700 -12.994187 -23.597938 27.886601 1.064362 2.579629 0.105352 -0.018057 540908.000000 0 0 1
-8.084000 -11.958387 -23.091338 27.231672 0.976352 2.582919 0.071806 -0.018024 867486.000000 0 0 1
-9.591100 -12.256487 -23.322238 28.038143 0.906797 2.553146 0.096728 -0.024268 226307.000000 0 0 1
-10.161500 -13.191987 -22.457638 27.957649 0.914443 2.503567 0.081243 -0.021734 -762393.000000 0 0 1
-11.239200 -13.778887 -23.105738 29.155660 0.886566 2.485687 0.080447 -0.018419 9126.590000 0 0 1
-12.158900 -14.776187 -22.339238 29.414556 0.882264 2.433282 0.081902 -0.017973 657996.000000 0 0 1
-11.472100 -16.031187 -22.181338 29.675239 0.949670 2.415041 0.100884 -0.024966 354469.000000 0 0 1
-12.319400 -17.041687 -21.606338 30.149968 0.944867 2.369753 0.101197 -0.029403 673556.000000 0 0 1
-13.042900 -17.977687 -22.616438 31.698860 0.943157 2.365246 0.101728 -0.025550 -524140.000000 0 0 1
-14.176000 -17.502587 -23.223938 32.351984 0.890025 2.371508 0.069168 -0.018192 -1210330.000000 0 0 1
-14.756200 -18.448387 -24.104838 33.751024 0.896138 2.366271 0.033029 -0.016904 -444511.000000 0 0 1
-15.885600 -17.809787 -24.867338 34.466292 0.842442 2.376759 0.041006 -0.025101 -850533.000000 0 0 1
-16.967600 -17.410187 -24.100538 34.232295 0.798272 2.351852 0.053172 -0.016785 -710991.000000 0 0 1
-18.072800 -16.922087 -24.814038 35.053097 0.752528 2.357315 0.047628 -0.018998 370951.000000 0 0 1
-18.780700 -15.697987 -24.152738 34.387443 0.696226 2.349519 0.049249 -0.019403 129146.000000 0 0 1
-19.659100 -15.919787 -23.063238 34.232043 0.680683 2.310044 0.054277 -0.013635 74391.600000 0 0 1
-20.116100 -14.634087 -22.670238 33.656406 0.628933 2.309836 0.063986 -0.015605 245840.000000 0 0 1
-20.936400 -14.646587 -21.344938 33.293569 0.610441 2.266744 0.061166 -0.019553 272264.000000 0 0 1
-20.099300 -14.678687 -20.189738 32.047952 0.630779 2.252331 0.074323 -0.016180 422361.000000 0 0 1
-20.743200 -14.367287 -18.954938 31.559293 0.605760 2.215065 0.072585 -0.020505 -58098.600000 0 0 1
-21.343200 -13.004687 -18.550138 31.124937 0.547239 2.209294 0.071910 -0.023848 52126.400000 0 0 1
-22.506800 -12.646587 -19.281638 32.222256 0.511934 2.212293 0.076019 -0.030665 427012.000000 0 0 1
-23.229700 -11.761387 -18.368538 31.864595 0.468681 2.185181 0.083084 -0.031632 1200820.000000 0 0 1
-24.751500 -11.455587 -18.625738 33.027040 0.433467 2.169963 0.099032 -0.037157 874931.000000 0 0 1
-25.044800 -10.625087 -19.736238 33.610320 0.401229 2.198401 0.096956 -0.038411 -34882.700000 0 0 1
-26.415710 -10.334587 -19.892538 34.645440 0.372922 2.182392 0.105105 -0.040844 -248652.000000 0 0 1
-26.691140 -9.512287 -21.155238 35.361627 0.342350 2.212117 0.107035 -0.029175 -234176.000000 0 0 1
-26.674080 -10.228687 -22.368338 36.283263 0.366175 2.235076 0.100348 -0.029312 331000.000000 0 0 1
-27.350480 -9.448787 -23.336738 37.174342 0.332634 2.249475 0.101278 -0.026074 -394069.000000 0 0 1
-27.397140 -9.951387 -24.738638 38.231317 0.348410 2.274542 0.086089 -0.018400 72981.300000 0 0 1
-26.396230 -9.650887 -25.680088 38.070560 0.350518 2.311137 0.075294 -0.021344 300279.000000 0 0 1
-25.140720 -10.331587 -25.633108 37.361126 0.389911 2.326898 0.056911 -0.011148 399464.000000 0 0 1
-24.271800 -9.865087 -26.810258 37.486400 0.386048 2.367706 0.058558 -0.016028 -209969.000000 0 0 1
-24.363100 -10.642087 -28.020838 38.626183 0.411833 2.382465 0.074902 -0.007935 30495.800000 0 0 1
-23.399100 -10.182987 -28.960828 38.599750 0.410467 2.419290 0.075503 -0.003385 185904.000000 0 0 1
-23.841300 -10.354487 -30.447968 40.033758 0.409729 2.434967 0.067776 -0.005105 -205948.000000 0 0 1
-24.931200 -9.586187 -30.837618 40.797285 0.367078 2.427785 0.058899 -0.017726 -368913.000000 0 0 1
-24.620000 -8.845187 -31.984878 41.320869 0.344908 2.456027 0.058573 -0.021145 -763308.000000 0 0 1
-25.792810 -8.003187 -32.483038 42.242962 0.300868 2.448005 0.058074 -0.024657 -696990.000000 0 0 1
-26.753520 -8.601587 -33.368178 43.625376 0.311074 2.441651 0.081886 -0.023382 596052.000000 0 0 1
-27.754830 -9.354487 -32.747078 43.934134 0.325083 2.411882 0.078766 -0.023567 -751501.000000 0 0 1
-28.748270 -8.633687 -31.799628 43.728937 0.291751 2.385028 0.085676 -0.019180 -587498.000000 0 0 1
-30.092230 -8.602687 -32.258498 44.946182 0.278450 2.371310 0.089612 -0.017100 321246.000000 0 0 1
-31.007180 -8.101487 -31.310508 44.804322 0.255565 2.344554 0.095229 -0.011822 157232.000000 0 0 1
-32.445900 -8.578087 -31.592658 46.091388 0.258467 2.325998 0.082852 -0.010798 -91696.000000 0 0 1
-32.646840 -9.966187 -31.404438 46.382969 0.296287 2.314568 0.073037 -0.013326 339300.000000 0 0 1
-34.035923 -10.249787 -31.285168 47.352550 0.292508 2.292529 0.053012 -0.015576 216158.000000 0 0 1
-34.192205 -11.746987 -31.147758 47.720870 0.330924 2.281949 0.055887 -0.021461 -799406.000000 0 0 1
-35.473884 -12.305587 -31.244388 48.847065 0.333903 2.264822 0.067344 -0.020756 -451483.000000 0 0 1
-35.428426 -13.758687 -31.159438 49.146571 0.370425 2.257525 0.068370 -0.023560 423577.000000 0 0 1
-36.807030 -14.484187 -31.055808 50.289287 0.374905 2.236412 0.065071 -0.039368 486855.000000 0 0 1
-37.397150 -14.270587 -29.778298 49.889313 0.364541 2.210412 0.094291 -0.046768 230609.000000 0 0 1
37.755066 -15.520687 -29.231988 50.208026 -0.390029 2.192250 0.092085 -0.046143 232980.000000 0 0 1
37.777146 -15.554787 -27.706798 49.363254 -0.390596 2.166733 0.099240 -0.037787 255150.000000 0 0 1
-36.631340 -15.602587 -27.133948 48.182434 0.402663 2.168989 0.112997 -0.049794 169978.000000 0 0 1
-36.590240 -15.890487 -25.762938 47.487706 0.409706 2.144228 0.121952 -0.045793 -386128.000000 0 0 1
-35.333659 -15.409387 -25.057338 45.975938 0.411244 2.147197 0.152594 -0.047389 917303.000000 0 0 1
-34.136866 -16.203387 -25.267118 45.456602 0.443170 2.160183 0.145602 -0.045689 654102.000000 0 0 1
-32.911080 -15.700587 -24.825038 44.112698 0.445128 2.168522 0.138694 -0.032175 375123.000000 0 0 1
-31.749080 -16.712187 -25.106138 43.790632 0.484531 2.181351 0.130131 -0.040066 301289.000000 0 0 1
-31.727270 -17.838587 -24.213138 43.716255 0.512198 2.157802 0.147772 -0.043919 164863.000000 0 0 1
-32.593510 -18.874287 -24.658938 45.018206 0.524896 2.150475 0.137761 -0.048719 51736.700000 0 0 1
-32.364460 -20.199187 -23.858738 44.996720 0.557964 2.129671 0.129112 -0.053497 338944.000000 0 0 1
-31.145950 -20.820187 -24.259238 44.632511 0.589251 2.145437 0.110535 -0.044601 261770.000000 0 0 1
-30.894590 -21.956587 -23.532938 44.613525 0.617867 2.126433 0.110133 -0.042048 -1072080.000000 0 0 1
-29.564260 -22.698087 -23.749638 44.196085 0.654767 2.138111 0.099574 -0.041303 755557.000000 0 0 1
-28.355910 -22.013887 -23.342138 42.819672 0.660148 2.147336 0.104093 -0.039739 727219.000000 0 0 1
-28.255280 -21.766187 -21.937138 41.873211 0.656392 2.122213 0.125884 -0.032957 -855912.000000 0 0 1
-27.993040 -22.962687 -20.991838 41.851554 0.686997 2.096219 0.098760 -0.036254 -267131.000000 0 0 1
-28.018640 -22.577387 -19.664838 41.005956 0.678267 2.070950 0.105232 -0.033047 61208.300000 0 0 1
-27.773880 -23.702387 -18.802238 41.069645 0.706468 2.046331 0.093754 -0.001641 -22900.900000 0 0 1
-27.964080 -23.144387 -17.368338 40.240671 0.691373 2.017075 0.095013 0.002537 329716.000000 0 0 1
-29.251600 -22.587287 -17.133038 40.735521 0.657541 2.004894 0.108449 -0.007414 115406.000000 0 0 1
-29.219570 -21.688687 -16.056138 39.774137 0.638533 1.986335 0.098046 -0.021724 -235557.000000 0 0 1
-30.531530 -21.005087 -15.665038 40.234083 0.602613 1.970719 0.113270 -0.004202 -279421.000000 0 0 1
-31.244730 -20.286987 -16.657138 40.807539 0.575878 1.991264 0.129746 -0.008713 -453185.000000 0 0 1
-32.336650 -19.705787 -16.036038 41.123369 0.547299 1.971373 0.136892 -0.013513 -203656.000000 0 0 1
-33.400760 -19.001087 -16.954738 42.001372 0.517224 1.986322 0.156023 -0.043240 437392.000000 0 0 1
-34.328002 -19.887487 -17.594238 43.399091 0.525088 1.988219 0.098014 -0.032861 -215001.000000 0 0 1
-35.001183 -19.118787 -18.577738 43.997081 0.499946 2.006722 0.101732 -0.032811 -294502.000000 0 0 1
-36.368120 -19.761687 -18.872938 45.490133 0.497746 1.998607 0.066099 -0.019494 153642.000000 0 0 1
-37.471050 -19.624187 -18.006038 45.971793 0.482440 1.973249 0.063574 -0.007569 346872.000000 0 0 1
-37.267120 -20.321487 -16.761338 45.637085 0.499222 1.946873 0.093800 -0.017478 -860843.000000 0 0 1
-37.539780 -21.856287 -16.815638 46.580018 0.527241 1.940142 0.077824 0.021975 -413420.000000 0 0 1
36.801196 -22.140887 -16.827638 46.127175 -0.541621 1.944225 0.064587 -0.003186 -355426.000000 0 0 1
36.544286 -23.515187 -16.911938 46.631132 -0.571772 1.941933 0.072376 0.000926 739563.000000 0 0 1
35.110716 -23.821287 -16.352638 45.471143 -0.596124 1.938664 0.051698 -0.005691 387781.000000 0 0 1
34.029516 -23.439787 -17.135938 44.733343 -0.603175 1.963912 0.058320 -0.006366 -559603.000000 0 0 1
32.834386 -23.874887 -16.525538 43.831502 -0.628703 1.957378 0.074932 -0.010858 925971.000000 0 0 1
31.594806 -23.928787 -17.515838 43.331550 -0.648198 1.986931 0.079757 -0.027243 808876.000000 0 0 1
31.003776 -22.661187 -17.816438 42.334253 -0.631176 2.005180 0.060383 -0.032322 484641.000000 0 0 1
29.807806 -22.803987 -18.582038 41.878625 -0.653054 2.030533 0.092706 -0.038503 175426.000000 0 0 1
35.782266 29.338413 -17.907138 49.616314 0.686767 1.940042 0.080788 -0.012009 -593142.000000 0 0 1
34.914606 29.618713 -18.908838 49.536270 0.703517 1.962450 0.061574 -0.013415 -658476.000000 0 0 1
35.328826 28.859213 -20.071038 49.838005 0.684946 1.985289 0.065538 -0.009352 231819.000000 0 0 1
34.499996 29.097913 -21.375438 49.938439 0.700660 2.013115 0.087362 -0.013557 -566606.000000 0 0 1
33.216226 28.529313 -21.329938 48.705294 0.709637 2.024101 0.073299 -0.014868 -295801.000000 0 0 1
32.459416 28.678613 -22.488938 48.803984 0.723636 2.049694 0.103048 -0.007084 706.139000 0 0 1
31.656556 29.978913 -22.533338 49.077735 0.758186 2.047818 0.092330 -0.002506 -708100.000000 0 0 1
32.462886 31.114113 -22.751638 50.394088 0.764187 2.039213 0.101179 -0.018131 -43374.100000 0 0 1
31.621086 32.236313 -22.671838 50.528064 0.795032 2.036104 0.091722 -0.008419 160612.000000 0 0 1
32.352386 33.523913 -22.161838 51.591440 0.803180 2.014807 0.080053 -0.004153 182387.000000 0 0 1
32.522486 33.561813 -20.743638 51.131262 0.801124 1.988534 0.087070 -0.007963 -283917.000000 0 0 1
33.726336 33.036513 -20.256338 51.373108 0.775066 1.976101 0.089846 -0.003572 -662383.000000 0 0 1
33.794896 33.112113 -18.748438 50.892150 0.775194 1.948079 0.072029 -0.006118 -103978.000000 0 0 1
33.989356 -33.247531 -18.265938 50.934460 -0.774366 1.937582 0.074486 -0.004554 68573.800000 0 0 1
33.890246 -33.127131 -16.883338 50.309072 -0.774012 1.913030 0.066594 -0.025993 -675740.000000 0 0 1
34.085506 -31.627231 -16.627538 49.381966 -0.748006 1.914220 0.070530 0.003341 1126330.000000 0 0 1
35.399486 -31.129531 -17.000938 50.111907 -0.721304 1.916926 0.075176 -0.004509 655039.000000 0 0 1
36.366286 -31.383331 -16.037438 50.642074 -0.711981 1.893026 0.083709 -0.010160 -360411.000000 0 0 1
37.725056 -30.659531 -16.276038 51.264960 -0.682443 1.893876 0.078752 -0.001843 501426.000000 0 0 1
-37.187840 -31.276931 -17.279038 51.572736 0.699277 1.912446 0.080211 -0.004463 -305094.000000 0 0 1
-35.985340 -30.555931 -17.454438 50.331571 0.703984 1.924942 0.070778 0.005297 128405.000000 0 0 1
-35.013143 -31.119131 -18.502438 50.365273 0.726584 1.946971 0.082165 -0.000322 -566822.000000 0 0 1
-34.534433 -32.413131 -17.988838 50.663956 0.753723 1.933777 0.085705 -0.014124 -89872.800000 0 0 1
-33.834750 -33.190731 -18.915238 51.031375 0.775790 1.950515 0.103597 -0.010834 -67616.000000 0 0 1
-32.409560 -32.720031 -19.247638 49.914443 0.790165 1.966668 0.082046 -0.013955 -1342380.000000 0 0 1
-32.407990 -31.592731 -20.159338 49.545711 0.772661 1.989836 0.083490 -0.006697 904004.000000 0 0 1
-31.109840 -30.976231 -20.358038 48.392136 0.783246 2.005001 0.091409 -0.008389 1498120.000000 0 0 1
-29.999910 -31.827431 -21.039138 48.534785 0.814948 2.019154 0.083988 -0.001501 -428742.000000 0 0 1
-30.492070 -32.305031 -22.257238 49.686679 0.814260 2.035269 0.080420 0.004103 -65619.400000 0 0 1
-29.651180 -33.247431 -22.910138 50.094497 0.842511 2.045796 0.076690 -0.003637 -373727.000000 0 0 1
-30.421840 33.594113 -23.962438 51.266473 -0.834912 2.057155 0.081744 -0.011921 -164857.000000 0 0 1
-31.282000 32.528813 -23.528438 50.894741 -0.804935 2.051379 0.094592 -0.031110 342964.000000 0 0 1
-31.926710 31.801713 -24.573338 51.327505 -0.783437 2.070033 0.074210 -0.024919 225009.000000 0 0 1
-32.915670 32.556513 -25.465738 52.838165 -0.779913 2.073684 0.083617 -0.036636 -867737.000000 0 0 1
-32.370730 33.508813 -26.363778 53.532733 -0.802672 2.085733 0.072744 -0.029537 -699110.000000 0 0 1
-33.326940 -33.462031 -27.119218 54.459568 0.787421 2.092052 0.074143 -0.032512 186504.000000 0 0 1
-32.723500 -32.582331 -28.291878 54.155943 0.783237 2.120477 0.069124 -0.033964 80921.400000 0 0 1
-32.515040 -33.268831 -29.518378 55.094261 0.796856 2.136227 0.076762 -0.034147 -131185.000000 0 0 1
-33.627800 -33.454531 -30.371818 56.324790 0.782815 2.140315 0.092419 -0.033833 -162841.000000 0 0 1
-33.427130 33.239913 -31.495998 56.694469 -0.782590 2.159808 0.116072 -0.031260 301150.000000 0 0 1
-32.570120 33.731613 -32.529818 57.068586 -0.802915 2.177318 0.087455 -0.033365 194745.000000 0 0 1
-32.900370 33.129513 33.715860 57.591304 -0.788868 0.945382 0.093663 -0.043957 -154154.000000 0 0 1
-31.942280 33.666813 32.615053 56.723058 -0.811677 0.958207 0.089027 -0.046137 903487.000000 0 0 1
-30.573370 33.272013 32.592948 55.714075 -0.827641 0.945912 0.098291 -0.047035 449357.000000 0 0 1
-30.365990 31.883513 32.289873 54.601169 -0.809771 0.938031 0.098772 -0.054153 -694311.000000 0 0 1
-28.870690 31.528513 32.295548 53.577666 -0.829374 0.923816 0.098474 -0.047433 -415919.000000 0 0 1
-28.410730 31.398813 33.615330 54.065197 -0.835317 0.899814 0.105341 -0.055633 795176.000000 0 0 1
-27.007030 31.067513 33.642060 53.163505 -0.855203 0.885628 0.104224 -0.051921 791109.000000 0 0 1
-26.527200 29.596913 33.490290 51.973735 -0.840039 0.870598 0.108547 -0.054376 -396945.000000 0 0 1
-26.514020 28.886313 -32.731958 51.076349 -0.828193 2.266393 0.111897 -0.048491 162210.000000 0 0 1
-26.426070 27.475913 -32.958788 50.393896 -0.804873 2.283687 0.104909 -0.043127 -284445.000000 0 0 1
-26.443140 26.638813 -31.614418 49.074815 -0.789084 2.270784 0.121663 -0.033972 -66330.200000 0 0 1
-25.308890 26.620913 -30.742398 47.898935 -0.810658 2.267663 0.118423 -0.037556 245637.000000 0 0 1
-25.068050 27.822413 -30.009448 47.990216 -0.837428 2.246343 0.102443 -0.041730 -298283.000000 0 0 1
-23.714700 27.830213 -29.298678 46.854246 -0.865072 2.246332 0.112070 -0.040991 -391713.000000 0 0 1
-22.604300 27.856013 -30.190238 46.886697 -0.889101 2.270378 0.110539 -0.027243 693048.000000 0 0 1
-21.304400 27.724713 -29.618338 45.823391 -0.915606 2.273599 0.077606 -0.032973 762945.000000 0 0 1
-20.802300 28.875513 -28.660288 45.694016 -0.946501 2.248777 0.063901 -0.021201 -796758.000000 0 0 1
-20.592700 30.060613 -29.434968 46.841404 -0.970182 2.250286 0.062760 -0.012349 155638.000000 0 0 1
-20.346500 31.164913 -28.555008 46.910770 -0.992409 2.225229 0.071733 -0.018472 -132751.000000 0 0 1
-19.887900 32.433813 -29.306248 48.024338 -1.020739 2.227157 0.074176 -0.010412 -248323.000000 0 0 1
-18.611400 32.399313 -29.877848 47.841253 -1.049384 2.245314 0.067471 -0.012065 -497064.000000 0 0 1
-18.435100 33.587413 -30.649788 49.065026 -1.068822 2.245514 0.071861 -0.003146 -1371040.000000 0 0 1
-17.049200 33.678313 -31.175488 48.957278 -1.102172 2.261124 0.061307 -0.003452 -1507750.000000 0 0 1
-16.140700 -33.517431 -30.195088 47.913294 1.122008 2.252611 0.074868 -0.009354 -192397.000000 0 0 1
-14.816900 -33.360131 -30.646588 47.661853 1.152818 2.269206 0.096332 -0.014838 749086.000000 0 0 1
-13.925300 32.984513 -30.575648 47.082506 -1.171319 2.277599 0.105397 -0.021662 -68548.400000 0 0 1
-13.754000 32.556613 -29.276118 45.893319 -1.171076 2.262586 0.111365 -0.020800 -153692.000000 0 0 1
-12.993600 31.386713 -29.140808 44.756520 -1.178293 2.279824 0.101552 -0.017471 -105488.000000 0 0 1
-12.931200 30.622613 -27.795428 43.330661 -1.171235 2.267213 0.077252 -0.026349 132084.000000 0 0 1
-11.896100 31.143113 -26.970718 42.881585 -1.205919 2.251009 0.088485 -0.017350 147174.000000 0 0 1
-11.864700 30.522713 -25.681538 41.616686 -1.200054 2.235845 0.065503 -0.022667 82671.700000 0 0 1
-10.648600 31.011813 -24.858238 41.146777 -1.240038 2.219477 0.076379 -0.020024 1258480.000000 0 0 1
-9.424600 30.368013 -25.271028 40.616058 -1.269875 2.242337 0.081463 -0.014152 1444970.000000 0 0 1
-8.198100 30.852713 -24.681438 40.351854 -1.311080 2.228948 0.094408 -0.018528 1935810.000000 0 0 1
-6.904900 30.103813 -25.195828 39.859089 -1.345327 2.255086 0.084690 -0.027096 619069.000000 0 0 1
-6.862000 28.787413 -24.730438 38.566783 -1.336795 2.266905 0.090707 -0.042015 398738.000000 0 0 1
-5.701000 28.130813 -25.246348 38.225936 -1.370844 2.292215 0.090190 -0.047358 274024.000000 0 0 1
-5.299800 26.818613 -24.557638 36.747837 -1.375694 2.302683 0.108730 -0.046070 -748803.000000 0 0 1
-6.232900 25.841913 -24.716138 36.297948 -1.334123 2.319820 0.109478 -0.041634 -632297.000000 0 0 1
-5.732700 24.688213 -24.105638 34.977900 -1.342636 2.331136 0.109061 -0.049754 -228960.000000 0 0 1
-6.702600 23.518713 -24.216138 34.416218 -1.293166 2.351284 0.107490 -0.048772 -178581.000000 0 0 1
-6.703000 23.015613 -25.572378 35.051322 -1.287398 2.388489 0.120307 -0.050788 -338284.000000 0 0 1
-7.444600 21.854013 -25.620468 34.488090 -1.242474 2.408157 0.108876 -0.051409 -781782.000000 0 0 1
-7.196000 20.878613 -26.797618 34.724793 -1.238888 2.452329 0.089255 -0.044680 71642.200000 0 0 1
-5.978000 20.152813 -26.725358 34.001723 -1.282431 2.475109 0.119000 -0.056027 -204226.000000 0 0 1
-5.853400 19.104313 -25.739008 32.584254 -1.273486 2.481478 0.112708 -0.050985 -436667.000000 0 0 1
-4.640800 18.217513 -26.032238 32.110625 -1.321358 2.516151 0.122943 -0.064859 -141421.000000 0 0 1
-4.670700 17.523113 -27.336148 32.804572 -1.310307 2.555852 0.125855 -0.062583 33882.500000 0 0 1
-3.584200 16.632713 -27.556678 32.386172 -1.358551 2.588450 0.123320 -0.062948 -146106.000000 0 0 1
-3.314000 16.427313 -29.076848 33.560428 -1.371731 2.618749 0.119480 -0.054289 58168.600000 0 0 1
-2.622400 17.576713 -29.576668 34.505031 -1.422691 2.600545 0.137319 -0.060925 159203.000000 0 0 1
-2.441900 17.523213 -30.958318 35.657304 -1.432336 2.622396 0.123992 -0.055275 -202756.000000 0 0 1
-1.488900 18.650313 -31.379948 36.534260 -1.491133 2.603950 0.134376 -0.043493 407950.000000 0 0 1
-0.133800 18.455013 -30.958648 36.042244 -1.563546 2.604021 0.159891 -0.049491 634625.000000 0 0 1
0.809400 19.402513 -31.461968 36.972532 1.529104 2.588598 0.156630 -0.030380 581051.000000 0 0 1
0.909200 20.737613 -30.701918 37.060532 1.526981 2.547088 0.148911 -0.035634 -56613.100000 0 0 1
1.756500 20.746713 -29.560218 36.156851 1.486334 2.527949 0.182758 -0.061473 -233372.000000 0 0 1
1.578400 21.903713 -28.761228 36.186631 1.498860 2.489479 0.189117 -0.068603 -190304.000000 0 0 1
2.710100 22.096413 -27.758608 35.582811 1.448757 2.465643 0.193473 -0.066465 -814157.000000 0 0 1
3.830000 22.622713 -28.352458 36.473524 1.403088 2.461228 0.167293 -0.063682 -1425200.000000 0 0 1
4.977400 22.593513 -27.565858 35.987746 1.353958 2.443359 0.139996 -0.064373 -343497.000000 0 0 1
5.509900 23.968513 -27.069498 36.573301 1.344841 2.404080 0.147884 -0.057103 -482151.000000 0 0 1
6.062200 24.623713 -28.161448 37.896500 1.329403 2.408509 0.135387 -0.060653 -177696.000000 0 0 1
6.362900 25.968613 -27.881318 38.629306 1.330508 2.377147 0.130265 -0.065963 -241742.000000 0 0 1
7.127000 26.630513 -29.018258 40.025463 1.309299 2.381823 0.140453 -0.057884 -218988.000000 0 0 1
8.526100 26.523613 -28.984458 40.203175 1.259776 2.375968 0.126991 -0.048552 -289136.000000 0 0 1
9.256700 27.291113 -29.902248 41.528735 1.243790 2.374653 0.138327 -0.044625 280979.000000 0 0 1
10.762500 27.005113 -29.700928 41.560230 1.191553 2.366917 0.132391 -0.047944 409482.000000 0 0 1
11.685800 27.891813 -30.313018 42.818106 1.174045 2.357386 0.137839 -0.046082 506243.000000 0 0 1
13.019300 27.762813 -29.819158 42.772166 1.132298 2.342228 0.129151 -0.054092 1013510.000000 0 0 1
14.024000 28.644713 -30.669368 44.247060 1.115516 2.336631 0.138923 -0.052833 98515.600000 0 0 1
13.891300 30.073013 -30.448458 44.994032 1.138075 2.314098 0.144054 -0.048568 150230.000000 0 0 1
14.660100 30.840613 -31.348518 46.355060 1.127062 2.313483 0.181767 -0.055808 -14210.400000 0 0 1
14.136300 32.281013 -31.439288 47.226345 1.158039 2.299248 0.178231 -0.056778 598471.000000 0 0 1
12.937700 32.370713 -32.225858 47.473709 1.190572 2.316944 0.162826 -0.058490 647164.000000 0 0 1
12.146300 33.454813 -31.763428 47.704009 1.222529 2.299421 0.163407 -0.050347 947945.000000 0 0 1
10.748900 33.619313 -32.504458 47.982673 1.261344 2.315047 0.128941 -0.047655 993253.000000 0 0 1
10.817300 -33.420331 33.703990 48.681531 -1.257764 0.806075 0.106376 -0.035385 1050070.000000 0 0 1
9.503600 -32.972931 33.279050 47.801964 -1.290178 0.800726 0.113838 -0.037366 1088400.000000 0 0 1
9.544100 -32.216531 31.918411 46.344144 -1.282785 0.811066 0.108687 -0.028171 18453.200000 0 0 1
9.717200 -30.855731 32.075193 45.555660 -1.265705 0.789658 0.086436 -0.036450 -120056.000000 0 0 1
10.207000 -30.293731 30.910240 44.467246 -1.245808 0.802204 0.109493 -0.031968 -239391.000000 0 0 1
9.960900 -28.761431 30.896780 43.371079 -1.237396 0.777910 0.100340 -0.042082 297101.000000 0 0 1
8.620500 -28.269131 30.835360 42.711547 -1.274810 0.764188 0.071220 -0.035042 248528.000000 0 0 1
8.046800 -28.058531 32.114524 43.397867 -1.291506 0.737722 0.077003 -0.042653 672859.000000 0 0 1
6.477100 -28.168431 32.151423 43.233406 -1.344783 0.732252 0.080284 -0.042320 1103450.000000 0 0 1
5.917800 -29.496531 31.887847 43.839486 -1.372798 0.756304 0.124025 -0.046324 182138.000000 0 0 1
6.036200 -30.103531 30.577320 43.331638 -1.372906 0.787445 0.114426 -0.044208 -581572.000000 0 0 1
5.520600 -29.320831 29.369940 41.866234 -1.384693 0.793270 0.104156 -0.045596 -76419.200000 0 0 1
4.119000 -29.275331 29.220110 41.567127 -1.431015 0.791243 0.160644 -0.045123 121098.000000 0 0 1
3.647900 -28.486731 28.135110 40.204297 -1.443433 0.795674 0.185777 -0.034167 2566.040000 0 0 1
2.245200 -28.917131 27.658830 40.078078 -1.493309 0.809136 0.171676 -0.031966 -56106.200000 0 0 1
2.166100 -30.097931 26.912520 40.433417 -1.498952 0.842498 0.185333 -0.040749 29006.200000 0 0 1
1.842000 -31.229231 27.698620 41.783626 -1.511881 0.846103 0.234266 -0.049924 -488715.000000 0 0 1
2.053300 -32.534831 26.892310 42.260237 -1.507769 0.881039 0.247363 -0.056648 41231.000000 0 0 1
3.433700 -32.841831 26.842600 42.554687 -1.466622 0.888240 0.197983 -0.046754 535464.000000 0 0 1
4.170900 -32.288831 25.724080 41.493293 -1.442333 0.902108 0.195659 -0.056873 777219.000000 0 0 1
5.721000 -32.304531 25.944540 41.826209 -1.395518 0.901679 0.185234 -0.042033 657864.000000 0 0 1
6.437500 -31.813431 24.857940 40.883408 -1.371141 0.917232 0.134875 -0.040423 -146178.000000 0 0 1
7.832800 -31.725031 25.023110 41.158066 -1.328741 0.917288 0.104655 -0.040644 -12819.600000 0 0 1
8.604700 -31.506531 23.676510 40.339553 -1.304190 0.943534 0.094113 -0.026498 334338.000000 0 0 1
9.925800 -31.030731 23.894220 40.402494 -1.261211 0.937997 0.074510 -0.003143 414172.000000 0 0 1
10.608100 -30.807831 22.677260 39.697763 -1.239180 0.962771 0.072430 -0.010041 363552.000000 0 0 1
11.828900 -29.839431 22.660120 39.291164 -1.193381 0.956085 0.025852 -0.010585 -130030.000000 0 0 1
12.843900 -30.237931 23.523730 40.406239 -1.169128 0.949388 0.021055 -0.007475 -770751.000000 0 0 1
13.908900 -29.336831 23.377870 40.007899 -1.128074 0.946740 0.025124 -0.004924 18855.000000 0 0 1
15.169100 -29.805231 24.165160 41.260252 -1.100022 0.945082 0.066839 -0.011160 65625.200000 0 0 1
15.027700 -29.619931 25.581620 41.923638 -1.101285 0.914489 0.059823 -0.013177 54669.100000 0 0 1
16.162700 -29.018131 26.154240 42.276815 -1.062605 0.903782 0.075858 -0.007946 -144347.000000 0 0 1
-11.206000 -13.581987 24.827340 30.437504 0.880959 0.616888 0.084248 -0.042622 -1129060.000000 0 0 1
-9.841800 -13.649087 24.704650 29.891108 0.946076 0.597956 0.093604 -0.037620 -1675380.000000 0 0 1
-9.304400 -14.012987 25.934970 30.912107 0.984653 0.575371 0.092431 -0.034915 -775201.000000 0 0 1
-7.774100 -13.993487 25.976400 30.512746 1.063701 0.552282 0.105670 -0.029990 -418736.000000 0 0 1
-7.219800 -15.138687 25.369810 30.412705 1.125790 0.584144 0.121852 -0.039225 1623.760000 0 0 1
-7.026700 -15.078687 23.979700 29.185053 1.134715 0.606508 0.147034 -0.046184 -689199.000000 0 0 1
-6.587900 -16.410087 23.434380 29.357479 1.189037 0.646425 0.156371 -0.042445 491532.000000 0 0 1
-7.639100 -17.378187 23.259200 30.022452 1.156642 0.684513 0.166956 -0.055934 409829.000000 0 0 1
-7.552700 -18.423387 24.246170 31.374213 1.181740 0.687546 0.170181 -0.056754 -383370.000000 0 0 1
-8.386100 -19.711387 23.870450 32.072790 1.168549 0.731372 0.172661 -0.054691 1265890.000000 0 0 1
-9.747200 -19.312587 23.614180 32.025200 1.103390 0.741639 0.139775 -0.053083 688360.000000 0 0 1
-10.548700 -20.432087 23.233840 32.688784 1.094209 0.780220 0.117243 -0.045997 -373768.000000 0 0 1
-12.061300 -20.267587 23.235000 33.107632 1.033985 0.792872 0.105147 -0.043314 -523243.000000 0 0 1
-12.481600 -20.173087 24.552970 34.140769 1.016722 0.768191 0.108088 -0.042798 413774.000000 0 0 1
-13.897600 -19.971487 24.664630 34.646033 0.962846 0.778591 0.081842 -0.030115 603806.000000 0 0 1
-14.303500 -20.005487 26.145790 35.894456 0.950088 0.754802 0.084634 -0.030757 -600117.000000 0 0 1
-14.035200 -21.326887 26.669520 36.919998 0.988749 0.763588 0.074370 -0.026990 9018.510000 0 0 1
-13.107300 -21.235187 27.724140 37.300971 1.017794 0.732873 0.092910 -0.026999 -86286.900000 0 0 1
-12.676100 -22.561987 28.374930 38.403951 1.058913 0.739428 0.101462 -0.022470 -274281.000000 0 0 1
-13.644400 -23.283987 29.099420 39.687403 1.040735 0.747758 0.061857 -0.013870 -343356.000000 0 0 1
-13.164800 -24.555587 29.496730 40.575188 1.078670 0.756905 0.073993 -0.014931 -280131.000000 0 0 1
-14.059400 -25.346867 30.493880 42.071453 1.064367 0.760035 0.062259 -0.017934 161613.000000 0 0 1
-14.182200 -24.739587 31.740989 42.669338 1.050271 0.731935 0.086974 -0.016615 175049.000000 0 0 1
-15.323500 -25.209337 32.446169 43.852870 1.024625 0.737894 0.076921 -0.016620 133056.000000 0 0 1
-15.302800 -24.682387 -33.538808 44.364936 1.015809 2.427940 0.073601 -0.015962 36299.100000 0 0 1
-15.425200 -23.301187 -33.265668 43.445216 0.986037 2.442913 0.083047 -0.020623 -113184.000000 0 0 1
-16.668400 -22.729587 -33.604898 43.860676 0.938046 2.443662 0.078488 -0.024505 -592147.000000 0 0 1
-16.718200 -21.215787 -33.391528 42.948830 0.903411 2.461433 0.063963 -0.018931 -93707.700000 0 0 1
-17.033800 -20.798487 -32.091018 41.863598 0.884582 2.444266 0.062585 -0.022423 131794.000000 0 0 1
-16.996700 -19.402887 -31.939528 41.054760 0.851407 2.462231 0.052120 -0.032224 -374283.000000 0 0 1
-17.128900 -18.901187 -30.519238 39.775344 0.834548 2.445402 0.055886 -0.027809 277816.000000 0 0 1
-18.340600 -19.198087 -29.813118 39.922001 0.808237 2.414010 0.052063 -0.025269 282741.000000 0 0 1
-18.357500 -18.963687 -28.424848 38.789061 0.801639 2.393233 0.041694 -0.022812 -293007.000000 0 0 1
-17.573500 -19.939487 -27.528958 38.265580 0.848386 2.373761 0.037688 -0.014003 73402.600000 0 0 1
-16.173200 -19.720287 -27.563238 37.552553 0.883901 2.394976 0.038590 -0.023500 -262633.000000 0 0 1
-15.546800 -20.877887 -27.126358 37.595591 0.930725 2.376806 0.034330 -0.015071 -80834.900000 0 0 1
-14.012900 -20.981587 -27.224468 37.118190 0.981963 2.394185 0.137384 -0.028963 -626194.000000 0 0 1
-13.340300 -20.027387 -26.425228 35.740069 0.983184 2.402934 0.136725 -0.035959 325961.000000 0 0 1
-11.924300 -20.156387 -26.462178 35.337172 1.036584 2.417119 0.125743 -0.043127 299722.000000 0 0 1
-11.296900 -21.321187 -25.734758 35.277340 1.083560 2.388384 0.182950 -0.061158 -1191340.000000 0 0 1
-11.371400 -22.554987 -26.367118 36.513848 1.103823 2.377648 0.196997 -0.060437 232848.000000 0 0 1
-10.896100 -23.470387 -25.363778 36.234035 1.136156 2.346192 0.263154 -0.063773 -59303.900000 0 0 1
-10.907500 -24.897887 -25.875068 37.528622 1.157891 2.331561 0.255119 -0.061042 -521589.000000 0 0 1
-9.811100 -25.243157 -26.685598 38.020992 1.200101 2.348809 0.259376 -0.063521 -29107.200000 0 0 1
-9.875100 -26.560327 -27.238028 39.304946 1.214835 2.336428 0.240256 -0.052151 -82842.200000 0 0 1
-9.742200 -27.886847 -26.410598 39.624568 1.234703 2.300328 0.241035 -0.044728 -223005.000000 0 0 1
-10.941500 -28.116807 -25.723358 39.647981 1.199683 2.276794 0.200887 -0.049848 55642.400000 0 0 1
-10.712300 -29.208527 -24.836138 39.808607 1.219276 2.244505 0.185917 -0.055026 541382.000000 0 0 1
-11.637400 -29.295347 -23.520538 39.330168 1.192668 2.211835 0.196292 -0.061367 333658.000000 0 0 1
-11.444700 -28.280227 -22.516438 37.917574 1.186254 2.206602 0.191998 -0.066364 15989.000000 0 0 1
-12.045800 -27.018867 -22.855038 37.382793 1.151416 2.228598 0.183533 -0.063281 -39645.900000 0 0 1
-11.839100 -25.934417 -21.830138 35.907008 1.142549 2.224289 0.194885 -0.063958 47725.800000 0 0 1
-12.530200 -26.126937 -20.593338 35.548675 1.123610 2.188666 0.125967 -0.050968 284049.000000 0 0 1
-12.658800 -24.964487 -19.793938 34.282223 1.101507 2.186315 0.110938 -0.041822 -77765.700000 0 0 1
-13.318800 -25.109567 -18.408638 33.863827 1.083104 2.145526 0.143062 -0.043783 -50204.300000 0 0 1
-14.622700 -25.641587 -18.345338 34.754363 1.052522 2.126872 0.170542 -0.049328 18928.000000 0 0 1
-15.040200 -25.686847 -17.009338 34.283222 1.041091 2.089946 0.155212 -0.050440 -326982.000000 0 0 1
-16.519400 -25.961297 -16.727838 35.024279 1.004106 2.068725 0.154323 -0.049492 -226597.000000 0 0 1
-17.404300 -24.799687 -16.827538 34.656892 0.958867 2.077785 0.135396 -0.033468 1833450.000000 0 0 1
-18.750800 -25.122847 -16.370538 35.365866 0.929626 2.052050 0.133248 -0.026955 1160900.000000 0 0 1
-19.693800 -25.902647 -17.288238 36.846656 0.920735 2.059174 0.119535 -0.016680 -1117630.000000 0 0 1
-19.493000 -27.243267 -17.470338 37.780754 0.949732 2.051512 0.116649 -0.037177 -33139.800000 0 0 1
-19.961000 -28.025827 -16.383038 38.108955 0.951905 2.015178 0.124068 -0.045757 120842.000000 0 0 1
-21.462300 -28.409437 -16.326638 39.169957 0.923808 2.000735 0.112666 -0.036020 177626.000000 0 0 1
-21.757600 -29.330287 -17.315038 40.416203 0.932555 2.013538 0.089642 -0.027350 -74525.600000 0 0 1
-23.031300 -29.924417 -17.131638 41.465703 0.914838 1.996709 0.094408 -0.021471 461614.000000 0 0 1
-23.626400 -30.925097 -18.194038 42.960347 0.918403 2.008110 0.073342 -0.018232 154597.000000 0 0 1
-23.135100 -32.244087 -18.107438 43.621019 0.948422 1.998858 0.082403 -0.029139 -138626.000000 0 0 1
-23.338900 -32.980467 -19.269238 44.762920 0.954949 2.015813 0.062262 -0.008701 3785.010000 0 0 1
-22.679000 33.290750 -19.060138 44.563437 -0.972772 2.012752 0.049335 -0.018381 -85164.100000 0 0 1
-23.345900 32.379626 -18.246238 43.890733 -0.946111 1.999530 0.062133 -0.022703 13590.100000 0 0 1
-22.558000 31.191678 -18.100638 42.537245 -0.944665 2.010338 0.063847 -0.024074 295640.000000 0 0 1
-23.444400 29.974938 -17.802838 42.012830 -0.907045 2.008375 0.087265 -0.040891 -25204.400000 0 0 1
-24.110000 29.997468 -16.558838 41.896722 -0.893782 1.977114 0.082175 -0.044633 302470.000000 0 0 1
-24.880900 28.820708 -16.262838 41.402564 -0.858632 1.974468 0.088813 -0.026149 32712.700000 0 0 1
-24.120600 27.484458 -16.032438 39.927908 -0.850491 1.983988 0.099797 -0.022889 -295312.000000 0 0 1
-23.460900 27.111358 -17.227738 39.777312 -0.857456 2.018731 0.075081 -0.013005 57044.600000 0 0 1
-22.921000 25.803008 -17.067038 38.502614 -0.844479 2.030039 0.084417 -0.016989 -483765.000000 0 0 1
-21.879400 25.398318 -18.098438 38.096406 -0.859692 2.065839 0.088695 -0.014285 -940420.000000 0 0 1
-21.396700 24.054368 -17.967838 36.868341 -0.843805 2.079850 0.100324 -0.027357 422723.000000 0 0 1
-20.495700 23.564848 -18.963738 36.537640 -0.854943 2.116499 0.094221 -0.019410 1229280.000000 0 0 1
-19.077400 24.257288 -18.884638 36.180005 -0.904366 2.119947 0.083489 -0.027059 -173958.000000 0 0 1
-18.300200 24.032468 -17.711838 35.016654 -0.919990 2.101119 0.105459 -0.031980 284339.000000 0 0 1
-17.100100 24.789368 -17.748638 34.956263 -0.966938 2.103354 0.123507 -0.041966 49807.500000 0 0 1
-17.080300 26.179658 -17.146138 35.652506 -0.992717 2.072504 0.133971 -0.053695 -323146.000000 0 0 1
-17.926400 27.044868 -17.892038 37.052743 -0.985448 2.074737 0.108121 -0.036447 98434.200000 0 0 1
-17.923000 28.307938 -17.243238 37.681594 -1.006362 2.046095 0.127962 -0.044967 -268421.000000 0 0 1
-18.989300 29.337258 -17.686638 39.167402 -0.996338 2.039315 0.111541 -0.038980 -197343.000000 0 0 1
-19.080800 29.872868 -19.028438 40.231165 -1.002382 2.063464 0.081277 -0.041031 64778.200000 0 0 1
-19.536600 28.904328 -19.970838 40.199170 -0.976425 2.090701 0.065598 -0.032268 -212303.000000 0 0 1
-19.894600 29.542458 -21.309738 41.504902 -0.978130 2.109970 0.062651 -0.031422 644418.000000 0 0 1
-20.958900 30.529598 -21.310638 42.725580 -0.969181 2.092986 0.069383 -0.024756 781616.000000 0 0 1
-21.228400 30.769298 -22.703238 43.735931 -0.966867 2.116592 0.062017 -0.024743 44858.300000 0 0 1
-21.997500 32.042568 -23.050738 45.187971 -0.969182 2.106106 0.055371 -0.025110 -545460.000000 0 0 1
-21.155700 33.106877 -22.880038 45.465647 -1.002184 2.098138 0.039155 -0.022496 -515755.000000 0 0 1
-21.588600 -33.511447 -23.674438 46.363388 0.998498 2.106711 0.045120 -0.012701 -521095.000000 0 0 1
-20.655100 -32.306037 -23.674038 45.064102 1.001939 2.123913 0.057406 -0.016410 -221175.000000 0 0 1
-20.603200 -31.644567 -22.428038 43.919100 0.993661 2.106757 0.065100 -0.021593 -225280.000000 0 0 1
-19.850200 -32.199307 -21.409538 43.464861 1.018348 2.085838 0.078199 -0.033738 -633168.000000 0 0 1
-19.528100 -31.178937 -20.282938 42.010360 1.011246 2.074655 0.111628 -0.038466 861753.000000 0 0 1
-18.505200 -30.179177 -20.608838 40.962780 1.020744 2.097991 0.124297 -0.044882 936717.000000 0 0 1
-18.136300 -29.473817 -19.443938 39.695063 1.019177 2.082694 0.124754 -0.046827 -539323.000000 0 0 1
-16.804000 -28.760677 -19.470238 38.582912 1.042023 2.099754 0.146423 -0.049721 -835115.000000 0 0 1
-15.633500 -29.505827 -19.582538 38.710153 1.083559 2.101194 0.159183 -0.060559 -725251.000000 0 0 1
-14.584000 -28.589207 -19.742838 37.680439 1.099083 2.122284 0.140839 -0.060047 155322.000000 0 0 1
-13.148400 -29.154787 -20.028738 37.736354 1.147123 2.130287 0.189824 -0.068758 846498.000000 0 0 1
-12.370700 -29.540027 -18.900938 37.187268 1.174208 2.103964 0.173313 -0.052653 389987.000000 0 0 1
-11.674100 -28.481277 -18.186438 35.752123 1.181796 2.104449 0.143964 -0.043408 33653.200000 0 0 1
-10.591400 -29.060797 -17.260538 35.420811 1.221301 2.079791 0.135227 -0.023041 -72171.500000 0 0 1
-11.134100 -29.862267 -16.222238 35.761490 1.213913 2.041623 0.160564 -0.040982 107774.000000 0 0 1
-11.750700 -31.114237 -16.485238 37.120584 1.209693 2.030965 0.166186 -0.041944 157045.000000 0 0 1
-12.677600 -31.736667 -15.416638 37.491470 1.190754 1.994571 0.180140 -0.054918 191749.000000 0 0 1
-12.019500 -32.207727 -14.235638 37.208325 1.213616 1.963397 0.167778 -0.044602 52705.500000 0 0 1
-12.977500 -32.854397 -13.415838 37.786395 1.194607 1.933758 0.178044 -0.041757 52141.500000 0 0 1
-12.444400 -33.584177 -12.145438 37.818933 1.215938 1.897737 0.155219 -0.036254 -93032.100000 0 0 1
-11.891900 -32.622867 -11.248738 36.499354 1.221239 1.884086 0.130620 -0.028617 -12677.900000 0 0 1
-11.586700 -33.167787 -10.028438 36.536602 1.234713 1.848842 0.128885 -0.027411 -896233.000000 0 0 1
-10.492500 -32.378947 -9.358638 35.299757 1.257421 1.839124 0.107227 -0.031465 -268596.000000 0 0 1
-9.270800 -32.649977 -10.036538 35.393514 1.294133 1.858311 0.064058 -0.021439 -514437.000000 0 0 1
-8.175300 -32.010127 -9.426738 34.356181 1.320744 1.848744 0.060166 -0.028601 -151941.000000 0 0 1
-6.863300 -32.568517 -10.008138 34.755949 1.363101 1.862887 0.045343 -0.030713 -254706.000000 0 0 1
-6.464000 -33.724147 -9.309038 35.577515 1.381420 1.835533 0.034690 -0.009815 -648908.000000 0 0 1
-5.302700 33.425203 -9.851438 35.247889 -1.413464 1.854059 0.022597 -0.008297 -601973.000000 0 0 1
-4.630800 32.307683 -9.049038 33.869098 -1.428432 1.841258 0.029662 -0.016714 -141824.000000 0 0 1
-4.137700 32.857482 -7.834938 34.031176 -1.445527 1.803109 0.043640 -0.023538 220182.000000 0 0 1
-3.313200 31.876697 -7.183838 32.843700 -1.467230 1.791307 0.062580 -0.033303 94764.200000 0 0 1
-2.838500 32.400553 -5.806338 33.038863 -1.483413 1.747456 0.084102 -0.038561 61612.200000 0 0 1
-1.815300 33.417838 -5.969138 33.995262 -1.516528 1.747299 0.081359 -0.032288 400550.000000 0 0 1
-1.448700 -33.715297 -4.744538 34.078301 1.527854 1.710475 0.094034 -0.039614 566985.000000 0 0 1
-0.438200 33.133991 -3.839138 33.358542 -1.557572 1.686139 0.112204 -0.043143 341752.000000 0 0 1
0.921700 33.240112 -4.245238 33.522777 1.543075 1.697775 0.116156 -0.042954 205607.000000 0 0 1
1.717000 32.260188 -3.615438 32.507525 1.517623 1.682245 0.110167 -0.045279 -599794.000000 0 0 1
3.162800 32.139743 -4.030438 32.545519 1.472704 1.694955 0.120610 -0.035978 -425179.000000 0 0 1
3.895200 33.360696 -3.927738 33.816205 1.454562 1.687209 0.116626 -0.033745 309251.000000 0 0 1
5.293400 33.119977 -4.073338 33.786758 1.412312 1.691651 0.110415 -0.021984 456319.000000 0 0 1
6.202200 -33.424667 -3.622338 34.187673 -1.387326 1.676950 0.096277 -0.015939 -275708.000000 0 0 1
6.081300 -32.254817 -4.346238 33.109594 -1.384445 1.702445 0.095662 -0.016492 -329521.000000 0 0 1
6.713400 -31.135877 -3.777538 32.074637 -1.358431 1.688844 0.081211 -0.026767 -79529.000000 0 0 1
6.440200 -29.763907 -4.437438 30.774294 -1.357705 1.715494 0.073716 -0.022871 213548.000000 0 0 1
7.257800 -29.617507 -5.601338 31.003989 -1.330481 1.752459 0.065383 -0.021264 64962.300000 0 0 1
6.953400 -28.480157 -6.384238 30.003793 -1.331332 1.785217 0.055453 -0.013549 -197515.000000 0 0 1
7.474000 -27.093827 -5.875338 28.713337 -1.301634 1.776872 0.042812 -0.009877 323572.000000 0 0 1
6.721600 -26.462647 -4.849338 27.730266 -1.322053 1.746575 0.044257 -0.020118 -85834.600000 0 0 1
7.361700 -25.272397 -4.433338 26.693504 -1.287346 1.737653 0.038692 -0.021867 -10813.500000 0 0 1
6.493700 -24.578287 -3.372438 25.644369 -1.312494 1.702686 0.046737 -0.025680 380866.000000 0 0 1
5.264500 -24.120687 -3.916438 24.997219 -1.355910 1.728119 0.034976 -0.030361 164616.000000 0 1 0
4.504800 -23.472187 -2.883838 24.073913 -1.381181 1.690876 0.045936 -0.031115 226044.000000 0 1 0
3.142900 -22.881087 -3.284338 23.328284 -1.434293 1.712053 0.052949 -0.031275 407243.000000 0 1 0
2.204400 -23.874387 -3.703338 24.260265 -1.478724 1.724046 0.070273 -0.031930 -548515.000000 0 1 0
1.088600 -23.290387 -4.296938 23.708455 -1.524090 1.753044 0.091344 -0.038453 -78399.100000 0 1 0
-15.359300 23.011313 17.912720 32.958977 -0.982240 0.996213 0.044935 -0.026731 -38619.000000 0 0 1
-15.490900 22.239913 19.089620 33.151099 -0.962399 0.957169 0.055828 -0.032446 349454.000000 0 0 1
-15.229200 23.121413 20.202620 34.273520 -0.988356 0.940415 0.060106 -0.025609 -949790.000000 0 0 1
-15.228100 22.448213 21.642420 34.701753 -0.974738 0.897368 0.087324 -0.025653 43388.500000 0 0 1
-14.165400 21.544613 22.050020 33.926867 -0.989173 0.863307 0.082773 -0.025101 2426820.000000 0 0 1
-12.796300 22.074013 21.946720 33.655102 -1.045437 0.860436 0.054253 -0.026067 1424910.000000 0 0 1
-12.481800 23.282313 22.895470 34.958032 -1.078682 0.856691 0.080137 -0.013056 -879593.000000 0 0 1
-12.393700 22.874413 24.249210 35.564966 -1.074259 0.820537 0.067473 -0.008315 79202.400000 0 0 1
-12.270900 24.033313 25.031330 36.806829 -1.098722 0.822934 0.094272 -0.010000 -28081.700000 0 0 1
-11.784800 23.591213 26.434670 37.339238 -1.107515 0.784191 0.091190 -0.011307 -1068190.000000 0 0 1
-10.455400 23.266813 26.448120 36.744565 -1.148467 0.767306 0.050143 -0.008796 -1284960.000000 0 0 1
-10.039100 22.486113 27.604630 36.992221 -1.150892 0.728419 0.040157 -0.011229 594271.000000 0 0 1
-8.494300 22.245613 27.804110 36.607226 -1.206041 0.708213 0.045862 -0.020941 1256640.000000 0 0 1
-7.659800 23.356713 28.082960 37.321056 -1.253900 0.718993 0.053865 -0.020641 92440.400000 0 0 1
-7.470400 24.270513 27.008790 37.072085 -1.272201 0.754597 0.049986 -0.011605 -632847.000000 0 0 1
-6.421600 25.319513 27.404260 37.859057 -1.322411 0.761431 0.062169 -0.024651 807436.000000 0 0 1
-5.050700 24.924413 27.302920 37.312001 -1.370863 0.749916 0.067097 -0.027751 -88921.900000 0 0 1
-4.160100 25.798513 27.881670 38.213313 -1.410919 0.753012 0.083854 -0.025971 521667.000000 0 0 1
-2.683300 25.267913 27.895270 37.733455 -1.464999 0.738808 0.076879 -0.032385 271704.000000 0 0 1
-2.005000 25.353113 26.674920 36.855824 -1.491878 0.761555 0.076535 -0.030606 -1608200.000000 0 0 1
-0.747300 24.889013 26.932650 36.679546 -1.540780 0.746207 0.092221 -0.022168 -1174070.000000 0 0 1
0.157500 24.874613 25.703180 35.769046 1.564465 0.769028 0.091279 -0.024474 -177012.000000 0 0 1
-0.300400 23.912013 24.803460 34.454118 -1.558234 0.767141 0.080385 -0.011486 -9144.910000 0 0 1
0.440600 23.984313 23.591420 33.645156 1.552428 0.793741 0.083023 -0.007249 147748.000000 0 0 1
0.248900 22.767413 22.697510 32.149557 1.559864 0.786966 0.037706 -0.012403 325982.000000 0 0 1
0.783500 21.572813 23.272400 31.742791 1.534493 0.747846 0.067498 -0.008343 92999.500000 0 0 1
0.277800 20.560013 22.459040 30.449956 1.557285 0.741328 0.064204 -0.010260 565821.000000 0 0 1
1.079900 19.183913 22.698420 29.738981 1.514564 0.702460 0.069415 -0.006770 797130.000000 0 0 1
2.363100 19.206713 22.083620 29.362704 1.448376 0.719557 0.060600 -0.015035 -85765.400000 0 0 1
2.979900 17.965813 22.269020 28.767334 1.406428 0.685492 0.054428 -0.011062 -1199340.000000 0 0 1
4.338400 17.836313 21.651520 28.385632 1.332196 0.703221 0.062241 -0.022064 -804691.000000 0 0 1
5.317800 18.573613 22.370540 29.558403 1.291947 0.712354 0.059723 -0.011016 -974674.000000 0 0 1
6.454100 18.781413 21.590020 29.334721 1.239796 0.743671 0.082212 -0.027188 -748639.000000 0 0 1
7.617700 19.186013 22.507170 30.540222 1.192840 0.742223 0.100164 -0.029861 -687836.000000 0 0 1
7.432900 20.371913 23.389610 31.895716 1.220945 0.747611 0.077493 -0.023738 -85302.300000 0 0 1
7.274300 21.589213 22.698450 32.159434 1.245802 0.787230 0.089217 -0.032652 -570122.000000 0 0 1
5.913000 22.259013 22.819510 32.421556 1.311148 0.790011 0.065182 -0.023052 -422654.000000 0 0 1
5.801100 23.484313 22.127320 32.783899 1.328624 0.829907 0.066243 -0.026643 369512.000000 0 0 1
4.568300 24.051513 22.570180 33.298013 1.383094 0.825998 0.048295 -0.024109 -148764.000000 0 0 1
4.298100 25.459813 22.051320 33.954918 1.403554 0.863963 0.052837 -0.015235 -44731.300000 0 0 1
4.078900 25.518213 20.631920 33.068002 1.412294 0.897042 0.048662 -0.018948 290605.000000 0 0 1
2.857700 24.884013 20.243520 32.205290 1.456456 0.891073 0.060120 -0.021024 -231718.000000 0 0 1
2.487900 25.312113 18.848520 31.656902 1.472822 0.933033 0.064859 -0.022366 -397216.000000 0 0 1
1.866700 26.586413 18.823020 32.628638 1.500699 0.955885 0.113146 -0.026811 177274.000000 0 0 1
1.630700 26.978313 17.482220 32.188765 1.510425 0.996653 0.119607 -0.021519 -193149.000000 0 0 1
0.807000 28.254713 17.521820 33.256492 1.542242 1.015884 0.136753 -0.016534 -164402.000000 0 0 1
1.550800 29.425913 17.751820 34.400821 1.518143 1.028588 0.164020 -0.026433 341884.000000 0 0 1
0.633400 30.484413 17.919920 35.366993 1.550021 1.039461 0.146040 -0.034303 348409.000000 0 0 1
1.390600 31.756013 18.399720 36.727753 1.527034 1.046070 0.159304 -0.034798 -163129.000000 0 0 1
1.713400 31.676913 19.764620 37.376500 1.516759 1.013613 0.186307 -0.036532 73421.800000 0 0 1
2.588800 32.717213 20.146920 38.509951 1.491834 1.020240 0.201033 -0.039392 -326591.000000 0 0 1
2.705200 32.520813 21.676120 39.176212 1.487804 0.984478 0.194396 -0.050283 399485.000000 0 0 1
1.565000 32.861013 22.468960 39.839046 1.523207 0.971583 0.199723 -0.037829 463649.000000 0 0 1
1.877600 32.577313 23.838430 40.411353 1.513225 0.939868 0.213625 -0.055709 -215480.000000 0 0 1
0.663400 32.336913 24.737110 40.719046 1.550284 0.917878 0.218169 -0.035630 164560.000000 0 0 1
-0.182700 33.512813 24.908190 41.755957 -1.565345 0.931640 0.213760 -0.027100 1292160.000000 0 0 1
-1.382800 33.366413 25.687850 42.131880 -1.529377 0.915113 0.199964 -0.027763 497765.000000 0 0 1
-1.226900 33.278913 27.215370 43.007764 -1.533946 0.885631 0.200893 -0.038230 -923788.000000 0 0 1
-0.534000 32.231313 27.790990 42.561507 -1.554230 0.859309 0.208329 -0.052960 37988.500000 0 0 1
-0.120400 32.660313 29.096220 43.741292 -1.567110 0.843050 0.202123 -0.060186 -92088.400000 0 0 1
1.036400 31.901513 29.862390 43.709759 1.538320 0.818664 0.161870 -0.051960 1261040.000000 0 0 1
2.385600 32.070213 29.406490 43.576729 1.496546 0.830074 0.153868 -0.049282 609914.000000 0 0 1
2.783600 31.839413 28.098630 42.556195 1.483592 0.849616 0.149415 -0.051019 -1137030.000000 0 0 1
4.301100 31.784713 27.904910 42.514133 1.436294 0.854802 0.119462 -0.042999 -347503.000000 0 0 1
4.791800 30.510313 28.249530 41.855424 1.415014 0.829925 0.097991 -0.034914 -1302250.000000 0 0 1
6.151700 30.452613 28.089290 41.883330 1.371470 0.835704 0.092084 -0.039239 -1130460.000000 0 0 1
6.831500 29.289013 28.878290 41.694980 1.341649 0.805697 0.105085 -0.023981 119212.000000 0 0 1
6.790300 29.417313 30.283310 42.761728 1.343943 0.783869 0.118490 -0.034978 -353672.000000 0 0 1
7.734800 28.629113 30.906740 42.833163 1.306924 0.764742 0.092932 -0.028856 -384853.000000 0 0 1
7.604000 28.602713 32.454704 43.923159 1.310958 0.739364 0.127745 -0.044860 403505.000000 0 0 1
6.412100 27.975913 32.960650 43.705506 1.345487 0.716433 0.120576 -0.047574 483539.000000 0 0 1
6.275800 27.912313 -33.135828 43.777460 1.349634 2.429376 0.135200 -0.045397 -73825.900000 0 0 1
6.401000 26.394713 -32.814398 42.596225 1.332879 2.450201 0.109840 -0.035503 349347.000000 0 0 1
7.741100 25.921413 -32.919668 42.609258 1.280590 2.453713 0.102813 -0.034617 433507.000000 0 0 1
7.787900 24.536613 -32.659988 41.585714 1.263454 2.474083 0.097504 -0.042608 1407210.000000 0 0 1
9.316700 24.106313 -32.786478 41.747675 1.201996 2.474055 0.120530 -0.053205 1206350.000000 0 0 1
9.711000 23.878813 33.261387 42.081126 1.184546 0.659317 0.097948 -0.042245 364214.000000 0 0 1
10.885700 23.106613 33.041186 41.762831 1.130529 0.658089 0.113258 -0.054305 94192.900000 0 0 1
10.856300 21.653513 33.517050 41.353676 1.106058 0.625795 0.101185 -0.054565 -863351.000000 0 0 1
10.072200 20.883813 32.660167 40.053332 1.121411 0.617347 0.084200 -0.053066 73320.900000 0 0 1
9.663100 19.609213 33.163140 39.720154 1.112938 0.582809 0.077945 -0.035648 -311686.000000 0 0 1
8.347100 19.629313 -33.535218 39.744118 1.168725 2.575081 0.094327 -0.041962 -779087.000000 0 0 1
8.517100 20.140313 -32.236578 38.953436 1.170716 2.545556 0.100384 -0.046480 185376.000000 0 0 1
7.361800 20.872513 -31.897618 38.824167 1.231715 2.534994 0.116855 -0.045225 -48804.300000 0 0 1
7.397300 21.422413 -30.445878 37.955123 1.238309 2.501691 0.131540 -0.056357 599897.000000 0 0 1
8.504200 22.337213 -30.348718 38.630522 1.207021 2.474486 0.135115 -0.053682 579340.000000 0 0 1
8.536800 23.022113 -29.123528 38.092972 1.215705 2.441121 0.103182 -0.048440 -1312990.000000 0 0 1
9.938300 23.261213 -28.646458 38.216141 1.167023 2.418240 0.104873 -0.052496 -788373.000000 0 0 1
10.687700 22.143913 -28.274298 37.470198 1.121127 2.425812 0.107925 -0.044119 -842768.000000 0 0 1
12.068500 22.299613 -28.291858 37.991455 1.074736 2.410867 0.106837 -0.046791 -179017.000000 0 0 1
12.813100 20.920613 -28.216868 37.390363 1.021263 2.425926 0.108644 -0.056244 108540.000000 0 0 1
12.868900 20.130113 -29.411938 37.893168 1.001990 2.459382 0.109842 -0.056595 86638.400000 0 0 1
11.580000 19.649413 -29.756638 37.492044 1.038259 2.487629 0.123816 -0.047258 195877.000000 0 0 1
11.686000 18.665013 -30.925938 37.965234 1.011413 2.522811 0.122193 -0.041284 7254.160000 0 0 1
12.188100 17.336813 -30.574758 37.201219 0.958047 2.535491 0.128824 -0.038118 419013.000000 0 0 1
12.000200 16.485413 -31.732398 37.718944 0.941571 2.570453 0.113115 -0.028301 -68479.800000 0 0 1
13.149700 16.519413 -32.760988 38.975479 0.898490 2.569101 0.101023 -0.012218 -203486.000000 0 0 1
13.297500 17.783613 -33.438968 40.140316 0.928744 2.555398 0.105393 -0.020403 -197792.000000 0 0 1
13.937800 17.731513 32.777422 39.787287 0.904622 0.602685 0.122405 -0.032494 -180498.000000 0 0 1
13.165900 17.017713 31.642754 38.264963 0.912325 0.597156 0.136547 -0.045215 -535106.000000 0 0 1
13.592600 17.389513 30.312790 37.496923 0.907342 0.629355 0.121698 -0.037018 623588.000000 0 0 1
12.650400 17.064813 29.255610 36.154270 0.932877 0.628027 0.111057 -0.037472 163988.000000 0 0 1
11.269700 17.703913 29.221610 35.976898 1.003923 0.622827 0.087313 -0.033247 -481894.000000 0 0 1
10.396100 17.097313 30.159520 36.193835 1.024475 0.585786 0.089592 -0.028523 -293988.000000 0 0 1
9.081300 17.612113 30.040730 35.987526 1.094725 0.583110 0.088520 -0.022054 107527.000000 0 0 1
8.155500 16.717813 30.880480 36.049986 1.116930 0.542149 0.097536 -0.023586 -145737.000000 0 0 1
8.582200 16.693613 32.237271 37.303787 1.095932 0.527273 0.110182 -0.023455 29516.200000 0 0 1
7.809100 15.785613 32.977356 37.385474 1.111400 0.490516 0.135617 -0.027495 -134188.000000 0 0 1
7.848200 15.798413 -32.969018 37.391714 1.109735 2.650292 0.139333 -0.030673 54563.700000 0 0 1
6.976300 16.710313 -32.291048 37.021820 1.175308 2.630512 0.135112 -0.031142 299819.000000 0 0 1
6.955200 16.350913 -30.918648 35.660762 1.168612 2.619990 0.134850 -0.047528 -59085.600000 0 0 1
6.291700 17.488413 -30.111708 35.385662 1.225450 2.588603 0.138738 -0.054457 -489058.000000 0 0 1
6.158100 17.318113 -28.742958 34.117399 1.229153 2.572652 0.136993 -0.062383 379610.000000 0 0 1
5.414000 18.409613 -28.166908 34.082253 1.284775 2.543550 0.152829 -0.063558 1623090.000000 0 0 1
3.838900 18.396313 -28.357458 34.019214 1.365071 2.556339 0.182779 -0.071984 -34535.000000 0 0 1
3.202500 17.484813 -27.515838 32.758145 1.389645 2.568023 0.193665 -0.073884 870882.000000 0 0 1
1.795300 17.293113 -27.796808 32.786238 1.467351 2.582656 0.191471 -0.072469 1595380.000000 0 0 1
0.781800 18.466613 -27.635398 33.246688 1.528486 2.552100 0.186343 -0.076668 -597627.000000 0 0 1
0.451400 18.665013 -26.325668 32.274251 1.546617 2.524711 0.197917 -0.079260 36609.600000 0 0 1
-0.348000 19.842613 -26.180728 32.852411 -1.553260 2.492975 0.220709 -0.073993 4690.340000 0 0 1
-0.724900 20.297513 -24.774238 32.035565 -1.535098 2.454882 0.181663 -0.071982 138594.000000 0 0 1
-1.862700 19.589513 -24.306638 31.273493 -1.475995 2.461045 0.162113 -0.064568 201279.000000 0 0 1
-2.244700 20.121313 -23.044438 30.674942 -1.459697 2.420745 0.141303 -0.053386 -177729.000000 0 0 1
-3.247300 19.346113 -22.205938 29.629727 -1.404494 2.418024 0.114798 -0.049574 847070.000000 0 0 1
-4.627500 19.486813 -22.612238 30.207002 -1.337647 2.416708 0.108925 -0.037974 593067.000000 0 0 1
-5.430800 18.565813 -21.946638 29.254708 -1.286220 2.419148 0.090620 -0.035260 205918.000000 0 0 1
-6.947300 18.836313 -22.213638 29.941900 -1.217450 2.406683 0.149920 -0.031591 636597.000000 0 0 1
-7.637600 19.655313 -21.268838 29.950422 -1.200176 2.360486 0.090893 -0.014882 215021.000000 0 0 1
-7.468400 21.072613 -21.438138 30.974599 -1.230196 2.335218 0.086605 -0.027765 -413125.000000 0 0 1
-8.046300 21.945813 -20.343138 30.987174 -1.219372 2.286968 0.082591 -0.033009 35657.900000 0 0 1
-7.364300 21.886813 -19.071838 29.949967 -1.246224 2.261124 0.092648 -0.033678 144092.000000 0 0 1
-7.506800 23.122713 -18.429038 30.506415 -1.256881 2.219437 0.094633 -0.033738 -207325.000000 0 0 1
-6.866800 23.436413 -17.030838 29.773610 -1.285777 2.179752 0.122344 -0.037904 339778.000000 0 0 1
-5.492100 23.748913 -17.181838 29.822636 -1.343535 2.184787 0.121780 -0.042833 -22368.900000 0 0 1
-4.808800 23.819413 -15.940238 29.061662 -1.371588 2.151362 0.116452 -0.031100 654259.000000 0 0 1
-3.277700 24.105013 -15.976838 29.104198 -1.435649 2.151907 0.114430 -0.032391 557129.000000 0 0 1
-2.965600 25.425513 -16.279138 30.335818 -1.454682 2.137236 0.089260 -0.040060 258396.000000 0 0 1
-1.592600 25.568713 -16.638038 30.547009 -1.508590 2.146792 0.093089 -0.047180 479070.000000 0 0 1
-1.205200 27.007513 -17.033338 31.952979 -1.526201 2.133027 0.074166 -0.055549 -637356.000000 0 0 1
-1.923600 27.607413 -18.032638 33.030979 -1.501232 2.148296 0.071897 -0.056999 -575812.000000 0 0 1
-1.291100 28.743413 -18.548038 34.232740 -1.525908 2.143399 0.087533 -0.056896 -1127480.000000 0 0 1
-2.190100 29.562213 -19.469338 35.465140 -1.496847 2.151929 0.129669 -0.053602 -45272.500000 0 0 1
-3.214600 30.284013 -18.834738 35.807855 -1.465044 2.124680 0.107634 -0.049868 -26895.100000 0 0 1
-4.391300 29.558913 -18.495838 35.144116 -1.423314 2.125023 0.057670 -0.050267 7386.940000 0 0 1
-5.332200 30.444813 -17.604538 35.570195 -1.397412 2.088544 0.087283 -0.034915 282376.000000 0 0 1
-5.745300 31.656513 -18.207538 36.968334 -1.391262 2.085776 0.138086 -0.041378 16229.300000 0 0 1
-6.350900 32.505613 -17.263738 37.349504 -1.377848 2.051295 0.142738 -0.061400 -349922.000000 0 0 1
-6.871500 -33.828931 -17.702738 38.794343 1.370398 2.044654 0.151521 -0.040673 -418683.000000 0 0 1
-8.157700 33.734613 -18.243038 39.209446 -1.333531 2.054738 0.142198 -0.061368 -405116.000000 0 0 1
-8.737500 -32.640231 -18.353638 38.452369 1.309238 2.068385 0.179975 -0.060406 122414.000000 0 0 1
29.766900 -20.144187 -26.537558 44.677719 -0.594938 2.206790 0.075072 -0.004445 50150.900000 0 0 1
29.575300 -21.211887 -25.664838 44.534553 -0.622187 2.184979 0.077845 -0.006202 -249192.000000 0 0 1
28.259800 -21.717187 -25.630488 43.899595 -0.655226 2.194251 0.058677 -0.008651 -340666.000000 0 0 1
28.087100 -23.067287 -24.912038 44.063529 -0.687581 2.171674 0.078117 -0.002583 156017.000000 0 0 1
28.601400 -24.229487 -25.586078 45.384529 -0.702833 2.169730 0.080769 0.012436 140849.000000 0 0 1
30.010500 -24.256287 -25.723608 46.375657 -0.679757 2.158774 0.085339 0.003507 -28183.100000 0 0 1
30.643600 -25.509207 -26.378168 47.807506 -0.694216 2.155267 0.083406 0.000420 -130250.000000 0 0 1
30.499800 -26.683237 -25.570348 47.917383 -0.718754 2.133688 0.101025 -0.003132 -220779.000000 0 0 1
30.560500 -27.916897 -26.302618 49.042074 -0.740222 2.136876 0.090963 0.000089 181535.000000 0 0 1
29.363500 -28.193267 -27.253438 48.988012 -0.765069 2.160757 0.079152 -0.005271 -164159.000000 0 0 1
29.362400 -27.518837 -28.513568 49.319980 -0.752999 2.187236 0.054735 -0.006953 223433.000000 0 0 1
30.300900 -27.978047 -29.508248 50.711462 -0.745562 2.191841 0.042792 -0.009170 87375.300000 0 0 1
30.419600 -29.446247 -29.982548 51.878577 -0.769141 2.186995 0.056348 -0.008011 -260672.000000 0 0 1
31.114700 -30.401737 -29.163638 52.372779 -0.773809 2.161382 0.069881 -0.008214 480973.000000 0 0 1
32.486400 -30.313607 -28.808568 52.954835 -0.750813 2.146019 0.074176 -0.010730 332344.000000 0 0 1
33.553300 -30.178877 -29.880998 54.124510 -0.732501 2.155652 0.066666 -0.016749 -721231.000000 0 0 1
33.528800 -28.831027 -30.333988 53.624242 -0.710207 2.172050 0.073012 -0.022236 -876261.000000 0 0 1
34.637100 -28.410087 -31.043518 54.502860 -0.686950 2.176786 0.058147 -0.021483 -770478.000000 0 0 1
34.487500 -27.005607 -31.732748 54.089350 -0.664323 2.197740 0.049950 -0.019601 -49693.700000 0 0 1
34.433000 -25.819387 -30.949608 53.010852 -0.643401 2.194241 0.050328 -0.012451 -638818.000000 0 0 1
33.329700 -25.621277 -30.125768 51.719248 -0.655376 2.192581 0.060505 -0.013277 -597549.000000 0 0 1
33.233900 -24.273387 -29.373538 50.561785 -0.630826 2.190684 0.053665 -0.012519 -508249.000000 0 0 1
34.125600 -24.212587 -28.317678 50.524220 -0.617083 2.165758 0.059306 -0.015178 -52406.500000 0 0 1
33.799500 -23.024087 -27.620828 49.350024 -0.597994 2.164811 0.052533 -0.010196 -399738.000000 0 0 1
34.685100 -22.721587 -26.450938 49.183115 -0.579940 2.138628 0.059361 -0.013477 -682757.000000 0 0 1
34.340500 -23.357187 -25.224588 48.591233 -0.597289 2.116615 0.061844 -0.011870 -59682.400000 0 0 1
33.407200 -22.704487 -24.408638 47.194452 -0.596923 2.114364 0.075943 -0.006383 -136814.000000 0 0 1
33.878200 -21.318487 -23.856038 46.597434 -0.561663 2.108262 0.089946 -0.006749 -295012.000000 0 0 1
34.043100 -20.287887 -24.782938 46.741042 -0.537434 2.129654 0.087406 -0.016952 84458.200000 0 0 1
34.201100 -19.064187 -24.153138 46.005788 -0.508518 2.123514 0.073223 -0.026594 -144066.000000 0 0 1
34.065200 -17.905787 -25.131928 45.963778 -0.483943 2.149306 0.061381 -0.036445 611659.000000 0 0 1
32.727000 -17.605887 -25.545398 45.095356 -0.493554 2.173019 0.079538 -0.019971 704637.000000 0 0 1
32.814300 -16.728587 -26.623748 45.447199 -0.471453 2.196684 0.091169 -0.014610 951522.000000 0 0 1
31.492400 -16.722287 -27.519348 45.041322 -0.488135 2.228094 0.053688 0.000027 821648.000000 0 0 1
30.374900 -16.305387 -26.767248 43.646142 -0.492656 2.231001 0.051579 -0.000737 -58727.400000 0 0 1
29.268800 -16.050587 -27.637848 43.337451 -0.501603 2.262352 0.020212 -0.004181 404656.000000 0 0 1
27.959600 -15.814487 -26.839918 41.859508 -0.514756 2.266845 0.005879 -0.003783 -38197.400000 0 0 1
27.371100 -16.901487 -26.201658 41.489327 -0.553183 2.254318 0.046666 0.005939 -75692.700000 0 0 1
27.867500 -17.056687 -24.905038 41.082710 -0.549243 2.222092 0.059074 0.009874 12559.300000 0 0 1
26.915300 -17.966587 -24.051638 40.320130 -0.588595 2.209951 0.064786 0.006015 281812.000000 0 0 1
27.038200 -17.629387 -22.696838 39.458915 -0.577792 2.183647 0.067281 -0.000716 290220.000000 0 0 1
26.184200 -18.422087 -21.847938 38.759747 -0.613109 2.169626 0.082056 -0.018475 328179.000000 0 0 1
25.940100 -17.803687 -20.462038 37.530721 -0.601498 2.147433 0.088653 -0.026969 -142719.000000 0 0 1
25.183200 -16.603787 -20.359738 36.392283 -0.582899 2.164521 0.095822 -0.035371 260088.000000 0 0 1
25.682400 -15.514787 -21.131638 36.699324 -0.543430 2.184384 0.091573 -0.021665 102064.000000 0 0 1
26.995300 -14.789987 -20.747338 37.120641 -0.501208 2.163875 0.087327 -0.020918 71414.500000 0 0 1
26.876300 -14.069587 -19.507138 36.066844 -0.482266 2.142256 0.098206 -0.031428 4376.110000 0 0 1
27.968400 -13.228387 -19.226438 36.426330 -0.441796 2.126825 0.085435 -0.018389 -322398.000000 0 0 1
27.860800 -12.409287 -17.918638 35.373608 -0.419025 2.101980 0.087613 -0.021832 138294.000000 0 0 1
28.350900 -13.204387 -16.805038 35.504065 -0.435873 2.063860 0.094972 -0.023269 474846.000000 0 0 1
28.092200 -12.440687 -15.611838 34.462616 -0.416894 2.040933 0.085164 -0.013457 68227.200000 0 0 1
28.653000 -13.147087 -14.364638 34.643659 -0.430179 1.998343 0.106664 -0.029254 6342.390000 0 0 1
27.843000 -14.192987 -13.832638 34.176240 -0.471418 1.987496 0.139038 -0.038858 461115.000000 0 0 1
28.367500 -14.510487 -12.597938 34.263352 -0.472819 1.947309 0.154457 -0.036843 -246838.000000 0 0 1
27.566400 -15.666787 -12.022938 33.910259 -0.516806 1.933231 0.155552 -0.058750 401834.000000 0 0 1
26.244800 -15.255187 -11.623838 32.505751 -0.526530 1.936486 0.140191 -0.048144 634579.000000 0 0 1
25.495400 -16.428887 -11.483138 32.431253 -0.572419 1.932723 0.113212 -0.047845 -1211760.000000 0 0 1
24.082000 -16.127787 -11.045438 31.016930 -0.590102 1.934898 0.120949 -0.049691 -1121690.000000 0 0 1
23.975600 -15.559187 -9.694238 30.181053 -0.575643 1.897796 0.105088 -0.035130 154745.000000 0 0 1
22.610500 -15.533187 -9.352238 28.982390 -0.601941 1.899363 0.107597 -0.028210 -198417.000000 0 0 1
22.274400 -15.335887 -7.845238 28.158233 -0.602965 1.853146 0.087137 -0.018532 -279775.000000 0 0 1
22.457600 -13.972387 -7.443838 27.476938 -0.556560 1.845137 0.099664 -0.013728 242896.000000 0 0 1
22.113000 -13.693987 -6.091538 26.713608 -0.554471 1.800852 0.089420 -0.011540 -41068.800000 0 0 1
23.008500 -14.270187 -4.940338 27.521559 -0.555150 1.751283 0.090056 -0.012565 185913.000000 0 0 1
24.405500 -14.065287 -4.993938 28.607694 -0.522823 1.746262 0.122619 -0.019633 515491.000000 0 0 1
25.074800 -14.793987 -3.929838 29.377734 -0.533030 1.704968 0.131477 -0.029816 -426121.000000 0 0 1
26.579600 -14.619287 -3.841238 30.577014 -0.502858 1.696754 0.132118 -0.025339 -651699.000000 0 0 1
27.027000 -13.371987 -3.278538 30.331791 -0.459450 1.679097 0.141163 -0.037581 230095.000000 0 0 1
28.350000 -13.139287 -3.722538 31.467771 -0.433996 1.689371 0.136621 -0.046938 -125389.000000 0 0 1
29.045100 -11.994187 -2.985138 31.565636 -0.391620 1.665507 0.185706 -0.054953 -951596.000000 0 0 1
29.404800 -12.339287 -1.656138 31.931850 -0.397318 1.622684 0.206998 -0.064878 480813.000000 0 0 1
29.905700 -11.230387 -0.908938 31.957763 -0.359232 1.599242 0.205880 -0.054739 81492.700000 0 0 1
31.255700 -10.548087 -1.248238 33.011195 -0.325475 1.608618 0.250389 -0.062077 -392744.000000 0 0 1
31.331900 -9.934387 -2.521638 32.965719 -0.307042 1.647364 0.236792 -0.063050 -1120580.000000 0 0 1
32.512800 -10.180987 -3.157638 34.215571 -0.303466 1.663214 0.275963 -0.063425 -1310720.000000 0 0 1
32.397700 -9.829187 -4.671138 34.176650 -0.294565 1.707902 0.242106 -0.057012 -544515.000000 0 0 1
31.615900 -10.665587 -5.470738 33.811963 -0.325360 1.733310 0.243958 -0.053678 264264.000000 0 0 1
32.085700 -10.814087 -6.766538 34.528577 -0.325081 1.768042 0.220833 -0.044626 -265342.000000 0 0 1
31.015900 -11.518187 -7.622538 33.952286 -0.355579 1.797234 0.211369 -0.035235 17044.500000 0 0 1
30.935500 -12.902387 -7.567038 34.361851 -0.395138 1.792832 0.201364 -0.032977 -333820.000000 0 0 1
29.698600 -13.364187 -7.986738 33.532019 -0.422849 1.811290 0.195610 -0.030764 -524965.000000 0 0 1
29.700400 -14.861787 -8.117138 34.188805 -0.463960 1.810506 0.185758 -0.027544 100365.000000 0 0 1
30.383200 -15.260087 -9.291238 35.246790 -0.465449 1.837554 0.204327 -0.045828 375832.000000 0 0 1
30.746100 -16.623887 -9.304338 36.169697 -0.495662 1.830963 0.176578 -0.039275 -60371.800000 0 0 1
30.920800 -17.213587 -10.731238 36.980575 -0.507972 1.865217 0.147282 -0.048443 370354.000000 0 0 1
32.192800 -16.968787 -11.360938 38.123313 -0.485091 1.873398 0.158658 -0.039420 1123850.000000 0 0 1
32.253500 -17.642487 -12.615838 38.867788 -0.500533 1.901368 0.138127 -0.033189 64718.600000 0 0 1
31.646900 -16.802087 -13.811838 38.400563 -0.488079 1.938719 0.127686 -0.044518 210578.000000 0 0 1
32.534400 -15.791787 -14.264038 38.875834 -0.451889 1.946484 0.135319 -0.039207 60378.900000 0 0 1
32.068200 -15.201187 -15.377838 38.677169 -0.442654 1.979690 0.112432 -0.041728 -1155980.000000 0 0 1
32.894700 -14.063387 -16.048838 39.209761 -0.404009 1.992491 0.104455 -0.018653 909308.000000 0 0 1
34.051200 -14.495187 -16.797938 40.641916 -0.402453 1.996889 0.060588 -0.029446 844307.000000 0 0 1
35.159500 -14.990087 -16.073038 41.463667 -0.403010 1.968868 0.088327 -0.026764 -948901.000000 0 0 1
36.329000 -15.145887 -17.043538 42.891448 -0.394998 1.979439 0.089474 -0.033251 -886129.000000 0 0 1
37.577500 -15.424287 -16.487938 43.838673 -0.389496 1.956385 0.117406 -0.038389 643346.000000 0 0 1
-37.117207 -15.639587 -17.523438 43.924419 0.398781 1.981163 0.128414 -0.039268 1059230.000000 0 0 1
-35.671507 -15.540187 -16.966438 42.447778 0.410854 1.981987 0.148984 -0.044797 252112.000000 0 0 1
-35.212407 -16.575087 -16.106338 42.119606 0.439948 1.963184 0.145879 -0.045339 117574.000000 0 0 1
-35.386007 -16.212787 -14.762338 41.628723 0.429627 1.933303 0.132760 -0.042111 -38494.000000 0 0 1
-34.701607 -17.280387 -13.862438 41.170140 0.462023 1.914218 0.132654 -0.040962 -185931.000000 0 0 1
-33.304607 -17.224787 -13.793638 39.951903 0.477304 1.923308 0.145301 -0.044931 -235363.000000 0 0 1
-32.776107 -17.950987 -12.667938 39.458684 0.501064 1.897627 0.137982 -0.023640 1045980.000000 0 0 1
-31.220807 -17.836287 -12.467338 38.056621 0.519045 1.904558 0.175458 -0.030130 675597.000000 0 0 1
-30.747507 -16.577887 -12.057738 36.954358 0.494484 1.903170 0.167363 -0.051363 293034.000000 0 0 1
-29.424507 -16.761387 -11.567038 35.784662 0.517797 1.899948 0.166534 -0.043452 220779.000000 0 0 1
-29.252807 -16.288087 -10.093438 34.970072 0.508052 1.863593 0.185420 -0.046010 14555.500000 0 0 1
-29.973407 -17.249887 -9.348238 35.823920 0.522215 1.834802 0.189001 -0.042829 378064.000000 0 0 1
-30.653907 -16.594887 -8.242238 35.818804 0.496188 1.802986 0.188807 -0.045407 538520.000000 0 0 1
-31.639407 -17.512987 -7.393238 36.910930 0.505540 1.772460 0.178255 -0.026115 935186.000000 0 0 1
-32.882307 -17.871087 -7.984938 38.267232 0.497829 1.781004 0.135950 -0.020503 171787.000000 0 0 1
-32.854307 -18.662987 -9.161738 38.879943 0.516598 1.808675 0.131628 -0.021897 -264620.000000 0 0 1
-34.148607 -19.433687 -9.530738 40.430564 0.517383 1.808767 0.097789 -0.007680 981743.000000 0 0 1
-35.309307 -18.724887 -10.001138 41.199409 0.487601 1.815996 0.108882 -0.008091 842078.000000 0 0 1
-36.365607 -19.590687 -10.364338 42.587227 0.494138 1.816632 0.101112 -0.022329 211442.000000 0 0 1
-37.586607 -18.787687 -10.890438 43.408891 0.463528 1.824386 0.101122 -0.043191 -9355.120000 0 0 1
-37.571507 -18.417887 -12.242138 43.597094 0.455784 1.855426 0.093416 -0.048241 -689789.000000 0 0 1
36.994700 -17.716787 -12.518538 42.885967 -0.446626 1.867012 0.099213 -0.046562 -965066.000000 0 0 1
36.563700 -17.693987 -13.975538 42.956920 -0.450703 1.902166 0.094161 -0.047508 -212631.000000 0 0 1
35.923000 -18.878887 -14.350738 43.044372 -0.483868 1.910698 0.081412 -0.042714 323129.000000 0 0 1
35.306600 -18.830387 -15.670638 42.973345 -0.489962 1.944063 0.072060 -0.033319 163196.000000 0 0 1
34.099500 -19.787487 -15.798138 42.472364 -0.525798 1.951919 0.086169 -0.046894 -973377.000000 0 0 1
33.009900 -19.416787 -15.017338 41.136183 -0.531706 1.944498 0.093597 -0.043098 506065.000000 0 0 1
31.874900 -20.287487 -15.335138 40.776928 -0.566806 1.956352 0.115863 -0.051776 1120470.000000 0 0 1
30.962500 -19.828787 -16.494338 40.297895 -0.569606 1.992494 0.122805 -0.054014 -890253.000000 0 0 1
30.173300 -18.697787 -16.309838 39.064640 -0.554764 2.001499 0.111936 -0.055494 -24884.800000 0 0 1
29.639900 -18.369687 -17.592438 39.057175 -0.554824 2.038041 0.097040 -0.053702 -351508.000000 0 0 1
28.697000 -17.161287 -17.484438 37.732388 -0.538960 2.052602 0.099954 -0.039840 -142767.000000 0 0 1
27.543800 -17.498987 -16.731538 36.671785 -0.565982 2.044574 0.126305 -0.056663 488116.000000 0 0 1
26.961500 -16.321587 -16.077538 35.380841 -0.544356 2.042510 0.102199 -0.046704 -307287.000000 0 0 1
25.602100 -16.496787 -15.295038 34.081515 -0.572395 2.036194 0.095464 -0.048257 1290000.000000 0 0 1
24.557900 -16.959187 -16.176538 33.946794 -0.604376 2.067496 0.097997 -0.047652 462117.000000 0 0 1
24.043200 -15.902287 -16.961438 33.446204 -0.584351 2.102643 0.096170 -0.037742 -1440500.000000 0 0 1
22.944000 -16.449287 -17.865738 33.409441 -0.622000 2.135010 0.094598 -0.040138 -1840350.000000 0 0 1
21.780900 -16.739187 -17.260138 32.442570 -0.655253 2.131782 0.090729 -0.024686 -1624850.000000 0 0 1
20.919900 -17.283487 -18.269938 32.713174 -0.690498 2.163359 0.087061 -0.027531 1049280.000000 0 0 1
19.404500 -17.456287 -17.888538 31.642635 -0.732594 2.171630 0.076749 -0.015252 721308.000000 0 0 1
18.696700 -16.250587 -17.850238 30.533247 -0.715518 2.195204 0.082041 -0.015224 339647.000000 0 0 1
17.347700 -16.568587 -17.507538 29.698058 -0.762431 2.201258 0.087843 -0.016569 452363.000000 0 0 1
16.302900 -15.476587 -17.278738 28.352497 -0.759403 2.226132 0.100353 -0.021135 -41202.300000 0 0 1
15.758100 -15.018187 -18.513538 28.576472 -0.761361 2.275567 0.098786 -0.017220 -469044.000000 0 0 1
14.560200 -14.345387 -18.405838 27.505716 -0.777967 2.303880 0.110484 -0.018064 -605753.000000 0 0 1
13.898300 -14.078387 -19.758038 27.959681 -0.791835 2.355565 0.096476 -0.015382 -45852.100000 0 0 1
14.114500 -12.782187 -20.270138 27.811543 -0.735904 2.387421 0.112403 -0.026419 202752.000000 0 0 1
13.329200 -12.437587 -21.417438 28.125927 -0.750809 2.436396 0.122042 -0.026723 254639.000000 0 0 1
13.646800 -10.996987 -21.886938 28.039382 -0.678285 2.466387 0.129666 -0.033258 -123398.000000 0 0 1
14.897600 -10.732787 -22.495438 29.037492 -0.624311 2.457042 0.120223 -0.031059 -65962.900000 0 0 1
14.849100 -9.512187 -23.157538 29.107543 -0.569732 2.490770 0.114136 -0.042261 366915.000000 0 0 1
16.309100 -8.991387 -23.290338 29.820658 -0.503849 2.467083 0.108811 -0.036216 273849.000000 0 0 1
16.936200 -9.517587 -24.453438 31.231234 -0.511985 2.470239 0.158432 -0.038374 -611890.000000 0 0 1
18.188100 -8.908087 -24.484038 31.774662 -0.455435 2.450504 0.135249 -0.046540 -947510.000000 0 0 1
22.148000 5.648113 -6.998438 23.904251 0.249695 1.867918 0.202795 0.010219 -180914.000000 0 1 0
21.730500 6.873413 -7.521738 24.000729 0.306345 1.889564 0.198689 0.003365 525184.000000 0 1 0
21.854200 7.861613 -6.471838 24.110075 0.345317 1.842558 0.210811 0.009158 -85516.400000 0 1 0
21.269500 9.293513 -6.825538 24.193986 0.411941 1.856797 0.163065 0.027390 -96997.300000 0 1 0
19.866100 9.468613 -6.891338 23.060943 0.444771 1.874264 0.047988 -0.009461 705265.000000 0 1 0
19.368700 10.758513 -6.545238 23.102647 0.507025 1.858041 0.051520 -0.010922 -550669.000000 0 1 0
19.239000 11.060313 -5.065638 22.762476 0.521752 1.795219 0.101263 -0.016031 -885977.000000 0 1 0
20.334100 11.303313 -4.202738 23.641140 0.507346 1.749518 0.126174 -0.004997 -201786.000000 0 1 0
20.889300 12.549413 -4.544238 24.789125 0.540977 1.755155 0.178500 -0.016968 -273868.000000 0 1 0
21.897200 13.026713 -3.470338 25.714312 0.536663 1.706167 0.158479 -0.025812 -255120.000000 0 0 1
23.082000 12.274313 -3.428238 26.366462 0.488739 1.701188 0.150973 -0.047194 202191.000000 0 0 1
23.796100 12.712013 -2.251538 27.072478 0.490636 1.654060 0.136413 -0.050393 471218.000000 0 0 1
24.786400 11.612513 -1.669338 27.422669 0.438134 1.631708 0.148008 -0.048250 602448.000000 0 0 1
25.899600 11.430313 -2.564338 28.425643 0.415622 1.661131 0.146410 -0.023848 266322.000000 0 0 1
26.702800 10.430613 -2.014838 28.738420 0.372393 1.640963 0.186349 -0.031532 -191866.000000 0 0 1
28.167700 10.368013 -2.503838 30.119499 0.352692 1.654023 0.199466 -0.034790 266104.000000 0 0 1
28.939600 11.450613 -1.948338 31.183537 0.376770 1.633317 0.163951 -0.038553 98411.000000 0 0 1
30.305000 11.172413 -2.111138 32.367773 0.353206 1.636066 0.149633 -0.039023 -227423.000000 0 0 1
31.318500 12.156013 -1.501738 33.628445 0.370242 1.615468 0.115923 -0.028891 -389013.000000 0 0 1
31.336800 12.104213 -0.111138 33.593442 0.368607 1.574105 0.160548 -0.046858 163241.000000 0 0 1
32.192600 13.039213 0.496462 34.736595 0.384842 1.556504 0.134001 -0.037417 766040.000000 0 0 1
33.720700 12.647213 0.564462 36.018831 0.358821 1.555124 0.135335 -0.036801 704319.000000 0 0 1
34.605900 13.755713 0.694062 37.246069 0.378346 1.552161 0.127180 -0.045708 301466.000000 0 0 1
35.542300 13.781413 -0.362838 38.122357 0.369899 1.580314 0.143114 -0.035907 -342978.000000 0 0 1
35.290400 14.943613 -1.355938 38.347913 0.400554 1.606163 0.100378 -0.015066 -84462.100000 0 0 1
34.140800 14.779813 -2.156938 37.265124 0.408549 1.628710 0.096417 -0.005825 -32593.400000 0 0 1
34.024400 15.891413 -3.045438 37.675874 0.436950 1.651717 0.061474 0.009125 -246018.000000 0 0 1
32.757700 15.818513 -3.895538 36.585072 0.449870 1.677477 0.072873 -0.006234 -750709.000000 0 0 1
32.679000 14.646813 -4.721138 36.121120 0.421358 1.701874 0.053115 -0.007830 -60421.200000 0 0 1
31.528500 14.601513 -5.497138 35.177678 0.433712 1.727707 0.053747 -0.015361 -834335.000000 0 0 1
30.193900 14.158413 -4.911538 33.708388 0.438473 1.717024 0.069688 -0.021658 -786638.000000 0 0 1
29.230300 13.938413 -5.900938 32.916726 0.444955 1.751039 0.105028 -0.038438 33417.400000 0 0 1
28.072200 13.293213 -5.406938 31.527653 0.442254 1.743147 0.111067 -0.023491 277393.000000 0 0 1
26.914300 13.127213 -6.427338 30.627013 0.453793 1.782227 0.102467 -0.025890 -149275.000000 0 0 1
27.258000 12.301213 -7.594838 30.854497 0.423925 1.819502 0.102698 -0.012553 151638.000000 0 0 1
26.298600 12.110313 -8.620538 30.209100 0.431545 1.860181 0.122645 -0.004778 -160365.000000 0 0 1
25.667900 13.274813 -9.410838 30.391210 0.477294 1.885628 0.129938 -0.003878 166443.000000 0 0 1
24.729000 14.109813 -8.737238 29.781699 0.518504 1.868553 0.135745 -0.023583 27904.000000 0 0 1
24.507500 15.269013 -9.510838 30.400927 0.557185 1.888985 0.126503 -0.025834 -824158.000000 0 0 1
23.505800 16.200413 -8.792138 29.871018 0.603447 1.869558 0.125109 -0.017349 1321080.000000 0 0 1
22.106900 15.836813 -8.688738 28.548447 0.621631 1.880053 0.153247 -0.037388 1352070.000000 0 0 1
21.862100 14.553513 -8.112838 27.487712 0.587330 1.870403 0.177330 -0.044040 -1751830.000000 0 0 1
20.426300 14.024313 -8.153338 26.084325 0.601663 1.888700 0.197578 -0.043174 -482612.000000 0 0 1
19.541200 14.679813 -7.297138 25.506933 0.644284 1.860934 0.251224 -0.070559 -738924.000000 0 0 1
18.235900 14.316713 -7.593138 24.396149 0.665579 1.887297 0.257801 -0.072138 -607661.000000 0 1 0
17.207700 14.688113 -6.478538 23.533318 0.706568 1.849690 0.240505 -0.049865 37737.200000 0 1 0
17.229600 13.793313 -5.404238 22.722684 0.675082 1.810932 0.212904 -0.048489 88854.200000 0 1 0
16.450100 14.340513 -4.421238 22.266644 0.716991 1.770684 0.180219 -0.037980 -542114.000000 0 1 0
16.349700 13.495413 -3.155138 21.433473 0.690052 1.718539 0.131419 -0.023030 298426.000000 0 1 0
17.629400 13.170113 -2.610738 22.159954 0.641613 1.688884 0.128375 -0.020571 922528.000000 0 1 0
17.415600 12.364213 -1.458038 21.408007 0.617373 1.638956 0.117205 -0.023836 65025.300000 0 1 0
17.199800 13.072613 -0.171838 21.604533 0.649899 1.578750 0.120325 -0.026415 -538370.000000 0 1 0
16.023000 13.814013 -0.080838 21.155851 0.711498 1.574617 0.110740 -0.030203 -166623.000000 0 1 0
16.005400 14.642213 1.106662 21.720772 0.740948 1.519825 0.096250 -0.022753 -592749.000000 0 1 0
14.767000 15.527113 1.224662 21.462882 0.810484 1.513706 0.099010 -0.018139 -484784.000000 0 1 0
14.755800 16.645213 0.417562 22.247946 0.845496 1.552027 0.120815 -0.014879 465238.000000 0 1 0
13.750800 17.534813 0.922662 22.302589 0.905764 1.529414 0.095267 -0.020410 351484.000000 0 1 0
13.738800 18.897013 0.181662 23.364176 0.942155 1.563021 0.096128 -0.023073 -270721.000000 0 1 0
13.119100 18.756313 -1.076538 22.914384 0.960440 1.617795 0.099127 -0.029814 -133108.000000 0 1 0
12.765700 20.065413 -1.543538 23.832046 1.004181 1.635609 0.105191 -0.030266 -1185960.000000 0 1 0
11.311400 20.387513 -1.418238 23.358293 1.064260 1.631550 0.089788 -0.030907 -1509960.000000 0 1 0
10.937000 20.264813 -0.076038 23.027948 1.075892 1.574098 0.076907 -0.032880 381446.000000 0 1 0
9.503100 20.189013 -0.158738 22.314353 1.130857 1.577910 0.066528 -0.031390 1211370.000000 0 1 0
8.635800 20.308713 1.142162 22.098086 1.168734 1.519087 0.027593 -0.031337 133250.000000 0 1 0
8.565800 21.611213 1.699562 23.308925 1.193433 1.497817 0.024258 -0.030792 61311.000000 0 1 0
7.567600 21.752813 2.682162 23.187226 1.236002 1.454863 0.025410 -0.030303 -360274.000000 0 1 0
7.307700 23.206813 3.245762 24.545746 1.265731 1.438175 0.031857 -0.022654 -17734.700000 0 1 0
7.909000 23.457113 4.464162 25.153870 1.245598 1.392377 0.050971 -0.027119 -122897.000000 0 0 1
7.621100 24.758913 4.943362 26.372747 1.272188 1.382239 0.048390 -0.023456 -47598.500000 0 0 1
8.085900 25.122313 6.399162 27.156245 1.259406 1.332917 0.059112 -0.028190 34151.500000 0 0 1
7.255100 24.590213 7.407262 26.686749 1.283896 1.289540 0.054123 -0.026485 -257092.000000 0 0 1
7.627800 24.905213 8.744762 27.475877 1.273594 1.246892 0.064424 -0.022257 52400.400000 0 0 1
7.057500 23.908513 9.808962 26.788823 1.283760 1.195919 0.064944 -0.026028 -355361.000000 0 0 1
5.752500 24.091013 10.247362 26.804414 1.336403 1.178511 0.075320 -0.023165 -731348.000000 0 0 1
5.255100 22.968113 10.915362 25.967199 1.345868 1.136963 0.080877 -0.027612 52492.400000 0 0 1
3.839500 23.196613 11.511962 26.179188 1.406764 1.115490 0.047691 -0.020149 484093.000000 0 0 1
2.858100 23.269813 10.469962 25.676313 1.448584 1.150789 0.041175 -0.016504 -1454620.000000 0 0 1
1.635400 23.513013 10.987762 26.005139 1.501355 1.134569 0.050378 -0.016369 -1717280.000000 0 0 1
0.648600 24.037913 9.968062 26.030832 1.543821 1.177827 0.053049 -0.016792 -789039.000000 0 0 1
0.975200 25.328713 9.477262 27.061286 1.532314 1.212996 0.058965 -0.024419 38133.900000 0 0 1
0.042700 25.807413 8.533262 27.181629 1.569142 1.251462 0.048478 -0.014792 690907.000000 0 0 1
-1.345700 26.318913 9.012162 27.851663 -1.519710 1.241289 0.060226 -0.023598 487873.000000 0 0 1
-2.172400 25.414913 9.677362 27.281651 -1.485526 1.208181 0.055847 -0.015814 1494870.000000 0 0 1
-3.610500 25.714513 9.657862 27.704624 -1.431301 1.214718 0.076149 -0.025799 1264370.000000 0 0 1
-4.385600 24.552313 10.313562 26.989241 -1.394038 1.178690 0.077018 -0.031962 -154191.000000 0 0 1
-4.619100 24.589713 11.683662 27.613367 -1.385113 1.133915 0.056277 -0.022305 142643.000000 0 0 1
-5.514300 25.616513 12.096662 28.860743 -1.358768 1.138300 0.075262 -0.018020 -124245.000000 0 0 1
-6.035900 25.515813 13.552062 29.515203 -1.338511 1.093752 0.046301 -0.018195 329015.000000 0 0 1
-7.003200 24.487013 13.803162 28.968706 -1.292236 1.074144 0.048428 -0.020048 265470.000000 0 0 1
-7.457000 24.539813 15.121462 29.773611 -1.275790 1.038073 0.036011 -0.010641 -463745.000000 0 0 1
-8.706000 23.731813 15.444862 29.623254 -1.219191 1.022333 0.035170 -0.017084 16445.000000 0 0 1
-9.935200 24.308013 15.014062 30.249128 -1.182794 1.051411 0.042134 -0.016257 81263.100000 0 0 1
-10.991100 23.387313 15.199962 29.980152 -1.131468 1.039095 0.042071 -0.020943 514728.000000 0 0 1
-12.384000 24.027213 14.903962 30.867434 -1.094892 1.066904 0.046887 -0.020535 488171.000000 0 0 1
-12.944300 24.883013 15.933662 32.258345 -1.091115 1.054182 0.051962 -0.025356 156824.000000 0 0 1
-13.944200 25.653513 15.292762 32.960765 -1.072912 1.088326 0.040655 -0.015188 -90235.000000 0 0 1
-14.752400 26.598713 16.232362 34.476288 -1.064407 1.080569 0.045823 -0.014784 -74933.700000 0 0 1
-15.754900 25.949913 16.985662 34.786888 -1.025153 1.060681 0.051444 -0.022294 -83464.800000 0 0 1
-16.434200 26.978013 17.667562 36.194459 -1.023661 1.060852 0.066902 -0.018662 -717885.000000 0 0 1
-17.665200 26.555213 18.437762 36.840056 -0.983792 1.046642 0.061214 -0.031090 -216941.000000 0 0 1
-18.881200 26.594113 17.699362 37.108139 -0.953406 1.073596 0.052831 -0.026446 -435299.000000 0 0 1
-19.920000 26.123613 18.484362 37.695108 -0.919325 1.058288 0.064065 -0.022414 -688313.000000 0 0 1
-21.261700 26.201613 17.721262 38.113351 -0.889103 1.087205 0.073863 -0.028412 -299593.000000 0 0 1
-21.748800 27.512513 17.561362 39.221807 -0.901871 1.106555 0.051293 -0.022585 154863.000000 0 0 1
-22.635800 27.619913 16.473062 39.326846 -0.884250 1.138589 0.064334 -0.025520 -474260.000000 0 0 1
-23.389300 28.964213 16.433662 40.694597 -0.891484 1.155098 0.061630 -0.027806 243711.000000 0 0 1
-24.613200 28.825013 17.155862 41.605464 -0.864052 1.145768 0.060888 -0.030967 568987.000000 0 0 1
-25.505700 29.913613 16.996162 42.827964 -0.864769 1.162717 0.076832 -0.030857 -83046.500000 0 0 1
-26.899280 29.766913 17.619862 43.818945 -0.835961 1.156980 0.084827 -0.024522 -688618.000000 0 0 1
-27.797300 29.151413 16.756162 43.626411 -0.809171 1.176582 0.121823 -0.024131 896201.000000 0 0 1
-29.191350 29.154313 17.140862 44.675699 -0.784763 1.177026 0.161939 -0.031251 1502560.000000 0 0 1
-29.750260 28.151013 18.217262 44.826623 -0.757785 1.152293 0.137267 -0.031833 -414240.000000 0 0 1
-29.694240 26.781513 17.767062 43.756895 -0.733869 1.152679 0.155842 -0.034750 178711.000000 0 0 1
-29.952170 25.918913 18.829362 43.857353 -0.713335 1.127043 0.148965 -0.035269 -100999.000000 0 0 1
-30.046580 24.506413 18.209262 42.836182 -0.684189 1.131734 0.133846 -0.035181 40950.800000 0 0 1
-31.266730 24.233913 17.545762 43.275221 -0.659354 1.153330 0.157189 -0.039560 -5390.690000 0 0 1
-31.194190 23.023313 16.850662 42.274049 -0.635818 1.160801 0.154577 -0.031946 -575708.000000 0 0 1
-32.054740 21.841113 17.300662 42.471796 -0.598112 1.151252 0.141905 -0.019466 -1103550.000000 0 0 1
-33.304150 21.720813 16.744162 43.143100 -0.577917 1.172219 0.152730 -0.021339 -885539.000000 0 0 1
-33.588940 20.389913 16.445862 42.596148 -0.545582 1.174409 0.110958 -0.022813 156780.000000 0 0 1
-35.052793 20.098213 16.018962 43.465430 -0.520608 1.193353 0.107331 -0.024838 -5998.350000 0 0 1
-35.320074 20.325713 14.625162 43.295931 -0.522189 1.226223 0.100268 -0.024969 352028.000000 0 0 1
-36.469570 19.663513 14.113762 43.770785 -0.494495 1.242483 0.112967 -0.030838 179109.000000 0 0 1
-36.674240 19.797013 12.593062 43.537419 -0.494984 1.277356 0.122263 -0.031542 66349.900000 0 0 1
-37.099560 21.114013 12.197662 44.395516 -0.517402 1.292467 0.132897 -0.038511 8559.190000 0 0 1
-37.267690 21.363413 10.804462 44.294611 -0.520512 1.324388 0.106296 -0.035048 -91906.000000 0 0 1
-36.031590 21.179013 9.899262 42.951385 -0.531393 1.338230 0.125625 -0.031976 -133359.000000 0 0 1
-35.878412 19.836313 9.483162 42.079332 -0.505049 1.343480 0.157020 -0.032810 -278308.000000 0 0 1
-34.595840 19.595813 8.965762 40.758471 -0.515363 1.349010 0.176265 -0.032461 -241150.000000 0 0 1
-33.779780 18.569213 9.757562 39.763039 -0.502623 1.322872 0.120867 -0.031478 -204009.000000 0 0 1
-33.255970 19.080513 10.963362 39.877573 -0.520892 1.292284 0.124637 -0.034564 -162744.000000 0 0 1
-32.617740 18.063813 11.659362 39.066086 -0.505759 1.267726 0.115645 -0.036681 -179552.000000 0 0 1
-32.131200 18.613513 13.032262 39.353739 -0.525058 1.233267 0.088895 -0.012912 338890.000000 0 0 1
-31.030020 19.511313 12.924862 38.866509 -0.561319 1.231795 0.123043 -0.018395 155820.000000 0 0 1
-31.387010 20.807613 13.313862 39.941959 -0.585416 1.230963 0.154140 -0.027163 -481768.000000 0 0 1
-30.179900 21.712813 13.357262 39.505558 -0.623658 1.225887 0.148389 -0.030570 -533505.000000 0 0 1
-29.324610 21.405513 14.431762 39.069227 -0.630545 1.192444 0.144614 -0.022739 -504015.000000 0 0 1
-28.371990 22.405813 14.616162 38.995160 -0.668439 1.186594 0.161312 -0.027062 -461678.000000 0 0 1
-27.650720 22.181413 15.984962 38.885684 -0.676081 1.147163 0.131452 -0.032373 56529.100000 0 0 1
-26.806440 21.001513 16.005662 37.627517 -0.664568 1.131424 0.135422 -0.031533 466023.000000 0 0 1
-26.467380 20.734413 17.351162 37.835181 -0.664534 1.094379 0.115283 -0.029064 -420951.000000 0 0 1
-25.320960 19.713313 17.407562 36.507382 -0.661516 1.073759 0.126749 -0.034535 -151398.000000 0 0 1
-24.811200 19.604313 18.751162 36.763172 -0.668700 1.035550 0.123256 -0.040560 203203.000000 0 0 1
-23.799400 18.618513 18.758662 35.566106 -0.663861 1.015223 0.107155 -0.039309 -396330.000000 0 0 1
-23.209700 18.448413 20.164862 35.856042 -0.671598 0.973530 0.104168 -0.041395 -57916.000000 0 0 1
-24.039400 17.838213 21.160962 36.658981 -0.638388 0.955454 0.110200 -0.026939 85615.400000 0 0 1
-23.579900 18.067613 22.443862 37.231402 -0.653807 0.923765 0.112018 -0.029894 -320999.000000 0 0 1
-24.236800 17.215913 23.493562 37.891392 -0.617619 0.902023 0.124951 -0.023179 -334882.000000 0 0 1
-23.809400 15.890613 23.434862 36.994484 -0.588517 0.884768 0.116586 -0.025662 235203.000000 0 0 1
-24.616600 15.081413 24.284262 37.724679 -0.549671 0.871442 0.127533 -0.022589 343997.000000 0 0 1
22.369300 24.326413 32.833886 46.585664 0.827286 0.788646 0.104152 -0.019158 -116362.000000 0 0 1
23.143400 23.283713 32.316111 46.066032 0.788420 0.793272 0.134380 -0.036079 -165658.000000 0 0 1
22.777200 22.001613 32.825050 45.610917 0.768080 0.767462 0.133851 -0.036060 69416.000000 0 0 1
21.621300 21.198413 32.188187 44.191999 0.775523 0.754854 0.115030 -0.041267 -11554.600000 0 0 1
21.877800 20.776713 30.861190 43.159275 0.759590 0.774096 0.134757 -0.040735 116844.000000 0 0 1
21.030700 19.690413 30.464010 41.929210 0.752496 0.757497 0.138890 -0.047350 101106.000000 0 0 1
21.420000 19.106513 29.109390 40.880703 0.728374 0.778373 0.150254 -0.043191 489752.000000 0 0 1
22.587600 18.282313 29.235640 41.220933 0.680444 0.782373 0.146660 -0.040859 63878.900000 0 0 1
22.831400 17.734113 27.988140 40.238136 0.660398 0.801594 0.127892 -0.047331 350959.000000 0 0 1
24.040300 16.727913 27.974850 40.501251 0.607920 0.808318 0.143059 -0.044834 1322790.000000 0 0 1
25.314600 17.356013 28.191250 41.675014 0.601005 0.827858 0.155772 -0.042147 -82258.800000 0 0 1
26.321200 16.433213 28.385330 42.054525 0.558120 0.829879 0.137887 -0.023941 1094900.000000 0 0 1
27.765700 17.042313 28.694900 43.413959 0.550498 0.848699 0.111349 -0.030315 1088190.000000 0 0 1
28.737000 16.978913 27.722660 43.389452 0.533656 0.877695 0.131885 -0.019907 74146.100000 0 0 1
29.992200 17.576313 28.010910 44.643812 0.530084 0.892547 0.118263 -0.009433 489003.000000 0 0 1
31.055200 17.546313 26.917500 44.686132 0.514290 0.924332 0.110697 -0.001001 -148244.000000 0 0 1
30.888100 18.511813 25.879410 44.345302 0.539918 0.947655 0.128309 -0.012248 863491.000000 0 0 1
32.069000 18.672413 25.057130 44.776551 0.527271 0.976889 0.125725 -0.015029 599543.000000 0 0 1
32.159300 19.920213 24.142060 44.876213 0.554579 1.002769 0.133741 -0.021007 359427.000000 0 0 1
31.240000 19.734313 23.050200 43.551033 0.563403 1.013058 0.134542 -0.022938 693672.000000 0 0 1
31.443200 20.762213 22.124320 43.694735 0.583588 1.039863 0.109431 -0.030064 224495.000000 0 0 1
32.067700 20.266713 20.744120 43.236507 0.563616 1.070390 0.125988 -0.024112 39564.800000 0 0 1
31.178500 19.425813 20.017920 41.835131 0.557197 1.071856 0.135100 -0.040088 273548.000000 0 0 1
31.629600 18.992513 18.731320 41.376437 0.540762 1.101000 0.140338 -0.042299 565319.000000 0 0 1
32.892100 18.045813 18.755020 41.943920 0.501796 1.107225 0.152971 -0.058683 542508.000000 0 0 1
32.595200 16.756513 19.303820 41.423004 0.474847 1.086013 0.170648 -0.051691 583772.000000 0 0 1
33.786200 16.065813 19.679020 42.271521 0.443868 1.086553 0.152982 -0.043835 -574691.000000 0 0 1
33.666000 14.532713 19.623720 41.589538 0.407509 1.079417 0.168125 -0.042653 -81885.500000 0 0 1
32.755100 14.027213 20.563120 41.140019 0.404616 1.047391 0.144833 -0.052807 586846.000000 0 0 1
31.373600 14.191513 20.275920 39.960165 0.424798 1.038628 0.141040 -0.038242 -232940.000000 0 0 1
30.426700 14.027413 21.484620 39.801272 0.431983 1.000600 0.119021 -0.038155 -32612.300000 0 0 1
30.460400 12.748013 22.044220 39.702587 0.396362 0.982152 0.131490 -0.032374 -84517.200000 0 0 1
29.731200 12.726213 23.241450 39.825441 0.404445 0.947662 0.132286 -0.022546 -188678.000000 0 0 1
29.036300 11.389213 23.488540 39.045261 0.373799 0.925329 0.127236 -0.027290 440978.000000 0 0 1
27.907900 11.110713 22.650990 37.621353 0.378885 0.924695 0.139227 -0.018174 549670.000000 0 0 1
27.403600 9.782013 22.793030 36.961700 0.342863 0.906296 0.121514 -0.022164 195011.000000 0 0 1
26.419300 9.370613 21.643520 35.415106 0.340845 0.913299 0.112498 -0.038361 355705.000000 0 0 1
25.095600 9.864813 21.665520 34.590439 0.374535 0.893942 0.110830 -0.026890 853555.000000 0 0 1
24.209600 9.318613 20.655320 33.159969 0.367434 0.898353 0.122509 -0.021979 632817.000000 0 0 1
22.717500 9.428713 21.031820 32.362369 0.393406 0.863363 0.082719 -0.020428 -44609.900000 0 0 1
22.253000 8.712113 22.176820 32.602274 0.373160 0.822729 0.060543 -0.019044 658679.000000 0 0 1
20.836600 8.808813 22.320220 31.779731 0.399969 0.792115 0.092189 -0.018930 558820.000000 0 0 1
20.273000 8.199913 23.642410 32.205538 0.384358 0.746441 0.085711 -0.018065 -82014.200000 0 0 1
20.387600 6.761913 23.617840 31.924600 0.320251 0.738022 0.066403 -0.014086 136727.000000 0 0 1
19.907400 6.303513 24.820720 32.436199 0.306654 0.699418 0.082836 -0.015297 -342165.000000 0 0 1
19.897500 4.750813 25.041220 32.334864 0.234376 0.684976 0.073048 -0.016527 637421.000000 0 0 1
21.238200 4.230313 24.982340 33.061670 0.196611 0.714183 0.066613 -0.015173 917523.000000 0 0 1
21.214000 2.781413 25.177080 33.040209 0.130369 0.704380 0.064308 -0.017361 -324496.000000 0 0 1
22.602600 2.181413 24.951760 33.737611 0.096214 0.738346 0.067246 -0.018982 -213342.000000 0 0 1
23.510700 2.491913 26.010930 35.150123 0.105596 0.737733 0.063936 -0.029266 496187.000000 0 0 1
24.818800 2.531313 25.445080 35.634709 0.101640 0.775525 0.075338 -0.026114 108554.000000 0 0 1
25.909900 3.039113 26.391910 37.109191 0.116762 0.779598 0.069913 -0.028445 -930323.000000 0 0 1
26.162100 2.139413 27.439460 37.973103 0.081594 0.763236 0.078988 -0.032782 -253587.000000 0 0 1
26.952800 2.512213 28.512060 39.315420 0.092939 0.759452 0.089687 -0.021301 1328770.000000 0 0 1
28.481600 2.861013 28.211590 40.190556 0.100115 0.792671 0.086143 -0.026451 481407.000000 0 0 1
28.688400 3.975113 27.347060 39.833246 0.137685 0.814079 0.110915 -0.026228 169988.000000 0 0 1
30.050700 4.279513 27.080790 40.678348 0.141459 0.842325 0.116669 -0.023187 261241.000000 0 0 1
30.853200 3.339313 26.190210 40.607857 0.107813 0.869833 0.132012 -0.017828 -638892.000000 0 0 1
30.608000 3.462513 24.808280 39.551099 0.112646 0.892784 0.128486 -0.017830 62467.500000 0 0 1
31.186200 2.393913 24.089510 39.479291 0.076612 0.914507 0.129017 -0.005231 -266035.000000 0 0 1
30.769000 2.328713 22.591340 38.242946 0.075540 0.938830 0.136958 -0.014567 386158.000000 0 0 1
31.436000 3.351713 21.835620 38.422004 0.106219 0.966345 0.153108 -0.027210 -220097.000000 0 0 1
32.779400 3.073613 21.540420 39.343689 0.093493 0.991430 0.139148 -0.027157 -457105.000000 0 0 1
33.567000 4.352913 21.182920 39.930032 0.128959 1.011605 0.151865 -0.031851 -231516.000000 0 0 1
33.084100 4.831113 19.922220 38.920331 0.145000 1.033434 0.146005 -0.035240 212998.000000 0 0 1
33.595900 6.113813 19.550620 39.348316 0.180011 1.050819 0.157102 -0.029008 1557760.000000 0 0 1
35.153400 6.198013 19.127120 40.497205 0.174520 1.078890 0.126642 -0.030301 1851480.000000 0 0 1
36.021000 6.055513 20.247620 41.762996 0.166553 1.064637 0.112468 -0.032344 216948.000000 0 0 1
36.230300 7.166913 21.069320 42.519590 0.195294 1.052363 0.110489 -0.037071 -336411.000000 0 0 1
37.000800 6.834313 22.412190 43.795814 0.182649 1.033584 0.128978 -0.038350 346255.000000 0 0 1
36.272700 6.087513 23.397410 43.591345 0.166277 1.004222 0.137723 -0.022989 310931.000000 0 0 1
37.084900 5.795613 24.490880 44.818324 0.155026 0.992679 0.147567 -0.024585 -222369.000000 0 0 1
36.315300 4.910913 25.448130 44.615305 0.134414 0.963816 0.142202 -0.017923 -19795.100000 0 0 1
36.071100 3.604513 24.902660 43.980214 0.099597 0.968879 0.152254 -0.017721 279357.000000 0 0 1
35.150600 2.802013 25.619620 43.586476 0.079546 0.942474 0.137876 -0.018861 -4381.670000 0 0 1
35.095200 1.379013 25.006580 43.115007 0.039273 0.952071 0.123805 -0.011690 161393.000000 0 0 1
34.353200 1.210513 23.766030 41.790332 0.035223 0.965876 0.141452 -0.015129 261834.000000 0 0 1
34.453800 -0.181887 23.433610 41.668111 -0.005279 0.973526 0.126748 -0.009478 -274807.000000 0 0 1
33.389900 -0.864487 22.565240 40.309091 -0.025885 0.976646 0.136986 -0.007049 265799.000000 0 0 1
32.156100 -1.136887 23.241550 39.692278 -0.035341 0.945246 0.132017 0.001841 746308.000000 0 0 1
31.219100 -1.669387 22.271420 38.385351 -0.053422 0.951814 0.131534 -0.012866 1724470.000000 0 0 1
29.716700 -1.891087 22.729950 37.460767 -0.063551 0.918810 0.110634 0.002211 1195920.000000 0 0 1
29.037900 -0.648187 22.687130 36.855470 -0.022318 0.907687 0.125903 -0.005021 991752.000000 0 0 1
27.600000 -0.814787 22.692950 35.740647 -0.029513 0.882873 0.119171 -0.004685 1447200.000000 0 0 1
26.800900 0.533313 22.659130 35.099983 0.019896 0.869041 0.112830 -0.009451 117923.000000 0 0 1
26.858300 1.135413 21.393720 34.356203 0.042249 0.898603 0.122153 -0.017278 403493.000000 0 0 1
26.044400 2.316013 21.426120 33.804634 0.088692 0.884312 0.102567 -0.018638 218620.000000 0 0 1
26.275900 3.290413 20.255420 33.339643 0.124577 0.917827 0.106442 -0.024442 -17115.900000 0 0 1
25.799700 2.824213 19.003320 32.167171 0.109033 0.938787 0.108476 -0.025448 185941.000000 0 0 1
24.774000 3.629213 18.480120 31.119722 0.145458 0.934974 0.113738 -0.021152 -136002.000000 0 0 1
24.465400 3.468113 16.983020 29.983438 0.140818 0.968649 0.131219 -0.030363 924648.000000 0 0 1
25.645600 3.882713 16.237920 30.601345 0.150258 1.011455 0.134242 -0.022436 1204980.000000 0 0 1
25.355900 4.148613 14.892320 29.697034 0.162178 1.045494 0.110298 -0.018002 -977000.000000 0 0 1
25.262700 2.837313 14.056620 29.048975 0.111844 1.065698 0.100277 -0.012400 -653997.000000 0 0 1
24.039600 2.189013 14.164320 27.987892 0.090808 1.040154 0.132530 -0.011195 -371745.000000 0 0 1
24.019100 0.982113 13.384920 27.514320 0.040866 1.062750 0.130403 -0.006087 385840.000000 0 0 1
22.693900 0.129313 13.452820 26.381967 0.005698 1.035699 0.213889 -0.027561 332843.000000 0 0 1
21.503500 0.636013 12.897420 25.082832 0.029569 1.030730 0.237279 -0.021293 554252.000000 0 0 1
21.411100 0.603013 11.424820 24.276024 0.028156 1.080801 0.232610 -0.018081 -1028970.000000 0 1 0
21.200800 -0.749787 10.687720 23.754230 -0.035351 1.104110 0.250850 -0.018961 -498088.000000 0 1 0
22.157900 -1.741287 10.861720 24.738261 -0.078424 1.116238 0.242168 -0.042225 -481509.000000 0 1 0
23.392300 -1.529887 10.250020 25.585214 -0.065308 1.158600 0.258020 -0.032674 -724971.000000 0 0 1
24.584200 -2.274187 10.883120 26.981422 -0.092244 1.155615 0.247533 -0.046437 -96267.300000 0 0 1
24.924900 -1.705787 12.152120 27.781907 -0.068331 1.118078 0.205209 -0.044710 -487832.000000 0 0 1
25.675300 -2.630687 12.833020 28.824086 -0.102104 1.109378 0.112063 -0.023595 -319375.000000 0 0 1
26.116400 -2.081187 14.259920 29.828560 -0.079521 1.072349 0.125648 -0.034104 -281797.000000 0 0 1
27.008500 -1.030487 14.064020 30.468305 -0.038136 1.091004 0.079185 -0.021816 -370055.000000 0 0 1
27.267300 -0.402887 15.298420 31.268349 -0.014774 1.059553 0.090239 -0.026609 -113848.000000 0 0 1
28.429500 0.596813 15.243220 32.263732 0.020990 1.078720 0.140659 -0.026054 -860757.000000 0 0 1
29.646000 0.044313 14.949620 33.202084 0.001495 1.103738 0.172600 -0.031613 -1021560.000000 0 0 1
30.735200 0.926813 14.987020 34.207050 0.030146 1.117283 0.173324 -0.035077 2213.740000 0 0 1
32.063100 0.311313 15.478720 35.605197 0.009709 1.121056 0.186929 -0.039231 259436.000000 0 0 1
32.752100 -0.498687 14.488020 35.816916 -0.015225 1.154362 0.202092 -0.041265 -215087.000000 0 0 1
34.114700 -0.576387 14.747420 37.170302 -0.016894 1.162820 0.157823 -0.042238 -652760.000000 0 0 1
34.809700 -1.640087 13.904920 37.520020 -0.047081 1.191141 0.139446 -0.047899 -198740.000000 0 0 1
34.753200 -1.322587 12.523320 36.964411 -0.038038 1.225162 0.159685 -0.046046 165110.000000 0 0 1
35.473400 -2.150187 11.631520 37.393551 -0.060540 1.254491 0.151268 -0.044960 -68776.500000 0 0 1
35.317300 -1.822687 10.123820 36.784855 -0.051563 1.291981 0.181235 -0.040762 -12105.700000 0 0 1
35.851600 -0.599887 9.685820 37.141785 -0.016731 1.306967 0.145769 -0.031858 318399.000000 0 0 1
34.871200 0.368613 9.889920 36.248406 0.010570 1.294455 0.161797 -0.034313 -291995.000000 0 0 1
35.368700 1.769713 9.485320 36.661262 0.049994 1.309090 0.176819 -0.040325 -136312.000000 0 0 1
35.604600 1.901713 8.103620 36.564637 0.053361 1.347316 0.164281 -0.034373 462737.000000 0 0 1
35.910600 3.197613 7.611720 36.847445 0.088809 1.362724 0.168586 -0.029159 -20455.400000 0 0 1
36.024100 3.287413 6.058220 36.677580 0.091004 1.404861 0.134492 -0.024093 -90585.100000 0 0 1
36.403200 4.606613 5.739520 37.139681 0.125875 1.415636 0.124376 -0.014385 216209.000000 0 0 1
36.797900 4.640013 4.395520 37.348839 0.125433 1.452835 0.148778 0.001956 -280193.000000 0 0 1
37.224700 6.054113 3.995320 37.924835 0.161225 1.465252 0.175109 -0.020767 719037.000000 0 0 1
36.128600 7.021813 3.995020 37.020829 0.191963 1.462673 0.170871 -0.027434 1095130.000000 0 0 1
36.551600 8.282113 3.472020 37.638647 0.222824 1.478419 0.158458 -0.036291 -1248920.000000 0 0 1
35.453800 9.316213 3.246620 36.800873 0.256961 1.482460 0.185967 -0.045160 -96579.600000 0 0 1
34.597500 9.042613 2.139320 35.823631 0.255647 1.511043 0.210805 -0.044927 307000.000000 0 0 1
33.636600 8.024513 2.320920 34.658337 0.234188 1.503780 0.220929 -0.031758 -619029.000000 0 0 1
32.542100 8.093013 1.214820 33.555341 0.243749 1.534585 0.262908 -0.037602 109646.000000 0 0 1
32.955600 7.590913 0.000620 33.818538 0.226389 1.570778 0.285579 -0.040606 736188.000000 0 0 1
31.809000 7.417213 -0.859280 32.673627 0.229086 1.597098 0.289987 -0.042095 494038.000000 0 0 1
32.146900 7.312213 -2.382980 33.054050 0.223657 1.642952 0.258352 -0.025415 -190569.000000 0 0 1
31.083000 6.780613 -3.155380 31.970080 0.214781 1.669655 0.292400 -0.030268 588323.000000 0 0 1
31.498300 6.602013 -4.452880 32.489346 0.206608 1.708286 0.243655 -0.026287 89518.100000 0 0 1
30.488500 5.752513 -5.322680 31.479691 0.186486 1.740695 0.284888 -0.018261 220144.000000 0 0 1
30.477600 4.385913 -5.027580 31.199309 0.142925 1.732646 0.295160 -0.019109 989685.000000 0 0 1
29.202800 3.922313 -5.460380 29.966711 0.133514 1.754035 0.286926 -0.022242 265848.000000 0 0 1
29.139100 2.358313 -5.291880 29.709473 0.080757 1.749873 0.317669 -0.017749 -181903.000000 0 0 1
28.987800 2.006713 -3.951480 29.324625 0.069116 1.705957 0.350823 -0.028397 342097.000000 0 0 1
29.213700 0.635113 -3.762080 29.461786 0.021737 1.698839 0.304249 -0.025692 -41826.300000 0 0 1
29.170000 0.177913 -2.286380 29.260008 0.006099 1.649016 0.303406 -0.029056 1176530.000000 0 0 1
30.524600 0.285213 -1.781580 30.577877 0.009343 1.629093 0.284863 -0.029461 970095.000000 0 0 1
30.608900 0.183913 -0.334580 30.611281 0.006008 1.581726 0.293111 -0.022373 314202.000000 0 0 1
31.954500 0.626513 0.327320 31.962317 0.019604 1.560555 0.323538 -0.024294 404715.000000 0 0 1
33.037700 -0.169987 -0.099380 33.038286 -0.005145 1.573804 0.257105 -0.021325 -131457.000000 0 0 1
34.247500 0.357113 0.397620 34.251670 0.010427 1.559187 0.167282 -0.026306 -39740.500000 0 0 1
-3.152500 -21.293387 -8.257538 23.055011 1.423813 1.937100 0.093822 -0.015122 114274.000000 0 1 0
-3.678300 -21.863287 -7.095638 23.278344 1.404116 1.880543 0.093600 -0.018536 245709.000000 0 1 0
-2.942500 -23.072587 -6.730838 24.213772 1.443949 1.852482 0.093375 -0.019922 404684.000000 0 1 0
-3.409500 -23.565387 -5.364638 24.407611 1.427111 1.792399 0.101288 -0.025909 -427158.000000 0 1 0
-2.965100 -22.699787 -4.362038 23.304496 1.440909 1.759083 0.098523 -0.032019 -34096.600000 0 1 0
-3.154700 -23.351687 -3.164838 23.775399 1.436514 1.704307 0.091035 -0.034484 -203856.000000 0 1 0
-2.574700 -22.640787 -1.926838 22.868035 1.457563 1.655155 0.073738 -0.036897 1560330.000000 0 1 0
-1.128100 -22.825787 -1.855238 22.928826 1.521414 1.651798 0.074227 -0.033455 920164.000000 0 1 0
-0.700700 -22.529587 -0.568638 22.547652 1.539705 1.596018 0.042924 -0.034053 -467319.000000 0 1 0
0.783500 -22.313387 -0.300638 22.329162 -1.535697 1.584261 0.049216 -0.035217 -427247.000000 0 1 0
1.243300 -21.106587 -0.912838 21.162870 -1.511959 1.613944 0.041658 -0.036021 -1182160.000000 0 1 0
2.293900 -20.641987 -0.171538 20.769762 -1.460123 1.579055 0.034366 -0.036231 -657342.000000 0 1 0
3.176100 -19.568887 -0.925838 19.846564 -1.409896 1.617463 0.038833 -0.038488 258668.000000 0 1 0
3.983400 -20.221187 -1.841538 20.691910 -1.376295 1.659912 0.032328 -0.023920 27532.600000 0 1 0
5.000500 -19.356887 -2.397638 20.135609 -1.317991 1.690154 0.039918 -0.016766 583018.000000 0 1 0
5.830800 -19.972287 -3.580038 21.111777 -1.286746 1.741195 0.032980 -0.011430 -900449.000000 0 1 0
6.759900 -20.910287 -3.140338 22.199055 -1.258120 1.712735 0.046911 -0.020016 -349152.000000 0 1 0
7.782200 -21.252187 -4.041538 22.990261 -1.219778 1.747508 0.037802 -0.018519 481645.000000 0 1 0
8.808900 -20.199587 -4.542938 22.500185 -1.159567 1.774101 0.055425 -0.026306 -623611.000000 0 1 0
8.458600 -19.410987 -5.616038 21.906031 -1.159844 1.830061 0.032003 -0.015528 -176207.000000 0 1 0
9.574100 -18.597587 -5.931838 21.742133 -1.095376 1.847126 0.048636 -0.027375 7606.550000 0 1 0
9.540000 -17.932787 -7.356038 21.603420 -1.081888 1.918249 0.037361 0.002129 457049.000000 0 1 0
10.756800 -17.185187 -7.546938 21.633207 -1.011525 1.927150 0.049474 -0.010831 866610.000000 0 1 0
10.674700 -16.232987 -8.633438 21.260182 -0.989102 1.988962 0.052589 -0.000774 -143513.000000 0 1 0
10.873400 -16.702087 -10.037038 22.314405 -0.993704 2.037339 0.047361 0.011617 -867521.000000 0 1 0
9.847000 -17.384787 -10.647038 22.639648 -1.055438 2.060408 0.035865 0.005849 -645446.000000 0 1 0
9.023300 -16.561787 -11.460238 22.069204 -1.071934 2.116812 0.020818 -0.008940 24859.400000 0 1 0
8.700400 -17.267587 -12.719638 23.144237 -1.104068 2.152659 0.028431 -0.011078 28666.200000 0 1 0
7.733800 -18.308387 -12.571138 23.516849 -1.171114 2.134782 0.025054 0.002196 219457.000000 0 1 0
7.381300 -18.744787 -13.880038 24.464384 -1.195665 2.174089 0.034716 0.002428 94145.100000 0 1 0
6.104400 -19.597787 -13.839538 24.756207 -1.268837 2.164015 0.033767 0.015049 69478.700000 0 1 0
6.476200 -20.647587 -12.924938 25.205516 -1.266860 2.109219 0.039742 -0.000822 -332562.000000 0 0 1
5.417400 -21.475187 -12.558338 25.460631 -1.323689 2.086613 0.082277 -0.009059 -319291.000000 0 0 1
5.683200 -23.008387 -12.390438 26.743365 -1.328638 2.052522 0.042209 -0.005728 -289464.000000 0 0 1
5.967300 -23.641687 -13.659638 27.948591 -1.323555 2.081443 0.054945 -0.013587 40969.000000 0 0 1
5.473800 -25.024417 -13.771638 29.083362 -1.355450 2.064083 0.045040 -0.012495 742142.000000 0 0 1
3.955700 -25.128457 -14.112538 29.090387 -1.414659 2.077305 0.072459 -0.022966 408512.000000 0 0 1
3.128800 -24.594487 -13.073938 28.028664 -1.444261 2.056068 0.087442 -0.026673 602106.000000 0 0 1
1.710800 -24.656287 -13.277538 28.056235 -1.501521 2.063770 0.102126 -0.037544 995942.000000 0 0 1
1.003600 -26.004707 -12.943938 29.065401 -1.532222 2.032348 0.100874 -0.029256 -548328.000000 0 0 1
1.305200 -27.013977 -13.869938 30.394632 -1.522518 2.044661 0.088328 -0.025979 39437.700000 0 0 1
0.940400 -28.287717 -13.371038 31.302778 -1.537564 2.012137 0.071758 -0.022236 1324890.000000 0 0 1
-0.536900 -28.812337 -13.623738 31.875465 1.552164 2.012417 0.070295 -0.023560 1343070.000000 0 0 1
-1.606800 -28.064297 -13.112638 31.018186 1.513605 2.007263 0.081951 -0.028265 -16520.700000 0 0 1
-2.866000 -28.451497 -13.613438 31.670607 1.470402 2.015117 0.089180 -0.017354 605916.000000 0 0 1
-4.115900 -27.609077 -13.164538 30.862709 1.422808 2.011473 0.071234 -0.027089 759020.000000 0 0 1
-4.617800 -27.589857 -11.814438 30.366186 1.404960 1.970413 0.081099 -0.031228 145755.000000 0 0 1
-5.097800 -28.858647 -11.372938 31.434898 1.395953 1.940987 0.071115 -0.034237 -490197.000000 0 0 1
-5.588200 -28.932787 -9.887338 31.082046 1.380001 1.894526 0.075045 -0.035982 561872.000000 0 0 1
-6.964300 -28.615257 -9.662438 30.995114 1.332061 1.887821 0.077608 -0.037594 353885.000000 0 0 1
-7.097800 -27.227887 -9.318638 29.640742 1.315790 1.890606 0.082956 -0.033764 -498423.000000 0 0 1
-8.475800 -26.848457 -8.733938 29.478136 1.265008 1.871597 0.080721 -0.033775 518660.000000 0 0 1
-9.686900 -26.944657 -9.465038 30.156882 1.225674 1.890052 0.098288 -0.035199 329551.000000 0 0 1
-10.000800 -28.267907 -9.913838 31.581241 1.230752 1.890110 0.101670 -0.044379 -907465.000000 0 0 1
-11.385600 -28.447127 -10.566638 32.411800 1.190085 1.902878 0.114635 -0.048889 -309141.000000 0 0 1
-11.462800 -27.869747 -11.848838 32.380759 1.180588 1.945420 0.132050 -0.055317 48914.800000 0 0 1
-11.999100 -28.682637 -12.923538 33.670312 1.174580 1.964732 0.151402 -0.055418 -168148.000000 0 0 1
-12.124200 -27.811227 -14.189638 33.493379 1.159691 2.008273 0.159966 -0.050274 -168884.000000 0 0 1
-13.106000 -26.820077 -14.408038 33.146272 1.116259 2.020480 0.146876 -0.061563 -238675.000000 0 0 1
-13.369100 -25.883257 -13.340138 32.041147 1.094024 2.000217 0.155358 -0.054463 13154.400000 0 0 1
-14.348000 -24.680987 -13.579438 31.613563 1.044212 2.014785 0.169994 -0.047200 14597.700000 0 0 1
-14.018600 -23.888287 -14.695538 31.354908 1.040110 2.058597 0.172882 -0.045546 -83578.400000 0 0 1
-14.818600 -22.738987 -14.761438 30.895833 0.993239 2.068923 0.180632 -0.043552 -360134.000000 0 0 1
-14.732200 -22.004087 -16.129638 31.006173 0.980820 2.117890 0.166767 -0.032209 -126192.000000 0 0 1
-13.438900 -21.533287 -16.449238 30.246718 1.012845 2.145797 0.151185 -0.033907 219420.000000 0 0 1
-13.420000 -20.820187 -17.655538 30.418656 0.998250 2.190038 0.119448 -0.028893 -71661.500000 0 0 1
-13.493700 -19.265587 -17.530238 29.335167 0.959799 2.211281 0.119687 -0.020248 917234.000000 0 0 1
-12.270900 -18.629387 -17.078238 28.094399 0.988340 2.224194 0.108871 -0.012629 1023240.000000 0 0 1
-12.470200 -17.213787 -17.104138 27.283180 0.943861 2.248379 0.112398 -0.007141 185968.000000 0 0 1
-11.194400 -16.376187 -17.351638 26.354761 0.971177 2.289470 0.102770 -0.015055 91147.100000 0 0 1
-10.332400 -16.207987 -16.264338 25.179079 1.003267 2.273059 0.117358 -0.015185 -485340.000000 0 0 1
-9.166500 -15.533687 -16.592038 24.507466 1.037685 2.314502 0.090162 -0.013315 -893841.000000 0 1 0
-8.464900 -14.876487 -15.403938 23.027065 1.053474 2.303591 0.078231 -0.018480 -170263.000000 0 1 0
-7.819600 -15.657287 -14.400538 22.664339 1.107611 2.259301 0.065975 -0.014316 1587870.000000 0 1 0
-6.631700 -16.422987 -14.790838 23.075156 1.187013 2.266578 0.052789 -0.009578 726745.000000 0 1 0
-6.238200 -17.329987 -13.618438 22.906450 1.225271 2.207470 0.052551 -0.010613 -639521.000000 0 1 0
-5.670200 -16.600187 -12.538338 21.562173 1.241647 2.191364 0.046604 -0.018051 312115.000000 0 1 0
-5.362700 -17.414187 -11.431238 21.510129 1.272062 2.131090 0.042034 -0.022792 -228906.000000 0 1 0
-4.285000 -18.522287 -11.603938 22.273027 1.343453 2.118802 0.054086 -0.022456 265185.000000 0 1 0
-2.963800 -17.982287 -11.731038 21.674040 1.407447 2.142717 0.055426 -0.017618 24170.400000 0 1 0
-1.995000 -18.947387 -11.368938 22.186398 1.465891 2.108807 0.059561 -0.013957 738580.000000 0 1 0
-0.589200 -18.476287 -11.880738 21.974355 1.538918 2.142022 0.049881 -0.008197 26292.600000 0 1 0
-0.408200 -18.450887 -13.266138 22.728666 1.548676 2.194043 0.055535 0.003648 780543.000000 0 1 0
0.867000 -17.862287 -13.628438 22.484379 -1.522296 2.221981 0.063590 -0.004359 1441830.000000 0 1 0
2.103400 -18.780487 -13.799538 23.399962 -1.459262 2.201514 0.073098 -0.013391 -8799.120000 0 1 0
2.167700 -19.583687 -14.971438 24.745983 -1.460556 2.220568 0.094997 -0.009654 -76394.700000 0 1 0
1.391100 -20.743087 -14.812838 25.527064 -1.503833 2.189868 0.102618 -0.016184 -642522.000000 0 0 1
1.640000 -21.867987 -15.890938 27.081735 -1.495941 2.197869 0.121518 -0.015210 539597.000000 0 0 1
2.935200 -22.452887 -15.952638 27.698993 -1.440806 2.184536 0.098015 -0.016170 609208.000000 0 0 1
3.975500 -21.609087 -16.459438 27.453057 -1.388857 2.213733 0.092533 -0.018233 313098.000000 0 0 1
5.356100 -22.309787 -16.604638 28.321871 -1.335177 2.197260 0.102494 -0.014656 383055.000000 0 0 1
5.516600 -23.010487 -17.813138 29.617955 -1.335495 2.216087 0.094447 -0.021346 1315710.000000 0 0 1
6.947900 -23.232587 -17.931138 30.158782 -1.280204 2.207512 0.088451 -0.027164 1494440.000000 0 0 1
7.418700 -23.212987 -19.411638 31.155923 -1.261463 2.243430 0.095413 -0.017884 -147368.000000 0 0 1
7.418700 -21.913187 -20.004538 30.584415 -1.244359 2.283757 0.100397 -0.031996 7298.850000 0 0 1
7.791300 -21.941287 -21.343638 31.585999 -1.229587 2.312752 0.078478 -0.024875 -140588.000000 0 0 1
8.062500 -20.629587 -22.071538 31.268779 -1.198227 2.354440 0.065258 -0.029418 407899.000000 0 0 1
6.876000 -19.837787 -22.229438 30.577199 -1.237144 2.384730 0.097934 -0.034381 414050.000000 0 0 1
7.066200 -18.524287 -22.725338 30.158272 -1.206378 2.424220 0.104594 -0.034077 575544.000000 0 0 1
5.738200 -17.765587 -23.075638 29.682117 -1.258379 2.461359 0.107829 -0.035599 -776198.000000 0 0 1
4.943700 -18.161287 -24.164138 30.629693 -1.305025 2.479833 0.098499 -0.037246 -65737.700000 0 0 1
3.965600 -17.182587 -24.453138 30.148354 -1.343976 2.516816 0.109097 -0.041700 -62875.100000 0 0 1
2.745900 -17.193487 -23.526838 29.268893 -1.412428 2.504481 0.122343 -0.032789 -1136540.000000 0 0 1
2.991500 -16.557187 -22.272538 27.913356 -1.392048 2.494628 0.126000 -0.032910 -180756.000000 0 0 1
1.747400 -16.151387 -21.744638 27.143139 -1.463027 2.499944 0.109605 -0.028679 371014.000000 0 0 1
1.988400 -15.454787 -20.427138 25.691869 -1.442840 2.489939 0.101208 -0.024640 210906.000000 0 0 1
2.630200 -14.187687 -20.597238 25.148651 -1.387491 2.530497 0.097321 -0.021875 -48730.600000 0 0 1
2.638400 -13.521587 -19.345738 23.749780 -1.378093 2.522775 0.090827 -0.019809 548704.000000 0 1 0
3.756200 -12.424687 -19.230638 23.201279 -1.277215 2.547865 0.089134 -0.023934 1902630.000000 0 1 0
5.133000 -12.905987 -19.087238 23.605822 -1.192255 2.512534 0.084366 -0.031183 2302470.000000 0 1 0
6.143600 -11.980287 -19.601638 23.780145 -1.096954 2.539736 0.079183 -0.017920 1149750.000000 0 1 0
6.604600 -10.855187 -18.609738 22.533934 -1.024203 2.542511 0.079144 -0.015247 -256867.000000 0 1 0
5.603300 -9.838287 -18.352938 21.564304 -1.053075 2.588834 0.052798 -0.007422 467237.000000 0 1 0
5.599000 -8.651587 -19.147938 21.744937 -0.996417 2.647860 0.069084 -0.017286 -573173.000000 0 1 0
4.927400 -8.709187 -20.507738 22.818776 -1.055926 2.687643 0.093693 -0.028802 -89017.200000 0 1 0
3.547300 -8.970987 -20.268938 22.447534 -1.194245 2.697375 0.085589 -0.029894 -168304.000000 0 1 0
3.057300 -9.493687 -21.509538 23.709437 -1.259248 2.707410 0.089535 -0.022929 404724.000000 0 1 0
1.520600 -9.272987 -21.617638 23.571652 -1.408261 2.731549 0.087212 -0.022220 482707.000000 0 1 0
1.197200 -7.994987 -22.084138 23.517276 -1.422157 2.790682 0.085858 -0.012973 880575.000000 0 1 0
-0.200700 -7.656287 -21.862338 23.165078 1.544589 2.804629 0.076030 -0.022090 1537670.000000 0 1 0
-0.677800 -6.515187 -22.813838 23.735591 1.467135 2.861992 0.082974 -0.022923 -3683.590000 0 1 0
-0.730200 -6.986687 -24.135038 25.136568 1.466661 2.858358 0.096472 -0.018246 -430688.000000 0 0 1
-1.459800 -6.176087 -25.028438 25.820492 1.338693 2.893264 0.125853 -0.031792 -50884.500000 0 0 1
-0.783900 -4.842987 -25.525078 25.992280 1.410325 2.951704 0.118748 -0.026548 -259636.000000 0 0 1
-1.472500 -4.307687 -26.640738 27.026901 1.241418 2.972346 0.120574 -0.026558 -168897.000000 0 0 1
-1.142800 -3.026987 -27.109368 27.301767 1.209803 3.022804 0.100900 -0.022196 -756283.000000 0 0 1
-1.564200 -1.876487 -26.106838 26.220887 0.875913 3.048290 0.093921 -0.026745 1148560.000000 0 0 1
-3.001600 -1.787887 -25.962868 26.196883 0.537211 3.007830 0.085801 -0.031999 831347.000000 0 0 1
-3.603700 -1.028987 -26.994618 27.253530 0.278135 3.003642 0.099945 -0.027271 -1451540.000000 0 0 1
-5.088700 -1.052787 -26.733948 27.234302 0.204009 2.949610 0.086627 -0.037091 -1080790.000000 0 0 1
-5.523400 0.043313 -25.932408 26.514140 -0.007842 2.931730 0.085327 -0.030751 -122717.000000 0 0 1
-6.929400 -0.046387 -25.917788 26.828166 0.006694 2.880337 0.107633 -0.045066 -70629.900000 0 0 1
-7.753100 1.103113 -25.252028 26.438464 -0.141332 2.840877 0.094875 -0.043137 -1014320.000000 0 0 1
-7.965400 2.302313 -25.983568 27.274422 -0.281371 2.832703 0.106593 -0.045304 221923.000000 0 0 1
-8.870500 2.300313 -27.082888 28.591258 -0.253733 2.815320 0.125366 -0.055962 -1079.400000 0 0 1
-10.315300 1.874713 -26.717308 28.700776 -0.179779 2.767642 0.124018 -0.056180 -794035.000000 0 0 1
-11.327200 2.488013 -27.528328 29.871467 -0.216216 2.742874 0.130978 -0.070630 309586.000000 0 0 1
-12.554900 1.988113 -27.025198 29.865356 -0.157050 2.701944 0.093824 -0.044361 433404.000000 0 0 1
-13.813300 2.369613 -27.894728 31.217594 -0.169892 2.676005 0.072040 -0.033991 -437764.000000 0 0 1
-14.958200 1.684013 -27.474378 31.327705 -0.112109 2.640378 0.050713 -0.032331 -745983.000000 0 0 1
-16.054100 2.023313 -28.266098 32.569929 -0.125370 2.621672 0.052446 -0.027978 27082.200000 0 0 1
-16.909300 3.226513 -27.663118 32.581942 -0.188546 2.584947 0.055337 -0.014076 -3730.170000 0 0 1
-16.205800 4.491613 -27.753038 32.450481 -0.270374 2.596815 0.081969 -0.015863 212052.000000 0 0 1
-16.129000 5.118813 -29.024388 33.597054 -0.307313 2.613752 0.069478 -0.013432 -139619.000000 0 0 1
-17.420900 5.590413 -29.762368 34.936214 -0.310522 2.590410 0.056108 -0.007071 -17348.900000 0 0 1
-18.135800 6.511013 -28.985258 34.805829 -0.344683 2.554889 0.065843 0.000670 82089.300000 0 0 1
-18.942800 7.275213 -29.877338 36.116669 -0.366692 2.544983 0.051438 0.007004 -74378.000000 0 0 1
-19.913500 8.286713 -29.220498 36.318792 -0.394338 2.505724 0.049790 -0.001042 116842.000000 0 0 1
-19.231700 9.323313 -28.472618 35.601579 -0.451405 2.497687 0.049308 -0.002143 714416.000000 0 0 1
-20.118400 10.402313 -28.276618 36.228791 -0.477198 2.466264 0.072448 -0.002394 -25358.300000 0 0 1
-9.117700 24.851013 30.755770 40.578599 -1.219151 0.710661 0.054281 -0.008185 -751965.000000 0 0 1
-9.833100 26.034313 30.529640 41.310220 -1.209663 0.739162 0.060829 -0.003995 -2603.300000 0 0 1
-9.601200 27.046813 31.515611 42.625660 -1.229688 0.738680 0.073701 -0.014857 -280377.000000 0 0 1
-8.224500 27.718613 31.357685 42.652882 -1.282357 0.744859 0.074107 -0.020775 -327025.000000 0 0 1
-8.048600 28.426013 30.177180 42.231273 -1.294876 0.774788 0.083653 -0.003823 1139020.000000 0 0 1
-6.646900 28.717513 29.985180 42.047448 -1.343344 0.776847 0.091265 -0.004463 1087640.000000 0 0 1
-6.557700 29.801613 28.904700 42.031194 -1.354203 0.812485 0.109534 -0.016181 -236156.000000 0 0 1
-7.074300 31.019713 29.357790 43.291433 -1.346573 0.825563 0.104698 -0.020786 343394.000000 0 0 1
-6.733300 32.111613 28.498020 43.458373 -1.364107 0.855615 0.102588 -0.011522 -282376.000000 0 0 1
-7.103300 33.414813 29.233310 44.962129 -1.361335 0.862980 0.119421 -0.016060 -317297.000000 0 0 1
-6.288800 33.757713 30.352170 45.829973 -1.386615 0.846942 0.140018 -0.028924 -127559.000000 0 0 1
-6.860800 -33.050031 31.274570 46.016018 1.366115 0.823517 0.129116 -0.035530 -193291.000000 0 0 1
-7.948600 -33.667931 32.177150 47.244882 1.338953 0.821571 0.068009 -0.026348 -49119.600000 0 0 1
-7.462600 33.183113 33.191469 47.523500 -1.349585 0.797606 0.072591 -0.023116 9739.680000 0 0 1
-7.355700 31.835813 32.808430 46.303547 -1.343730 0.783353 0.083401 -0.020562 -238071.000000 0 0 1
-7.199000 30.888113 -33.447208 46.093567 -1.341817 2.382756 0.082651 -0.025991 890279.000000 0 0 1
-5.824600 30.755013 -33.028598 45.504781 -1.383626 2.383032 0.098491 -0.027238 801298.000000 0 0 1
-5.821200 30.270713 -31.702428 44.218168 -1.380811 2.370221 0.087893 -0.025883 -492669.000000 0 0 1
-4.458600 29.891913 -31.096298 43.363410 -1.422731 2.370442 0.090326 -0.027646 162814.000000 0 0 1
-3.825700 28.694513 -31.546118 42.815519 -1.438253 2.399109 0.104895 -0.018890 253734.000000 0 0 1
-3.221700 28.824313 -32.822978 43.801464 -1.459488 2.417888 0.099912 -0.028147 -405038.000000 0 0 1
-2.352500 27.594913 -33.236258 43.262713 -1.485751 2.446888 0.107134 -0.032055 10530.300000 0 0 1
-1.243700 27.351113 -32.346678 42.378506 -1.525356 2.439172 0.132426 -0.021269 1071110.000000 0 0 1
-0.554500 26.077313 -32.581308 41.735781 -1.549536 2.466512 0.142752 -0.023623 669837.000000 0 0 1
0.099800 25.821513 33.496600 42.294004 1.566931 0.656728 0.123378 -0.022705 -382218.000000 0 0 1
-0.863400 25.274813 32.592995 41.253666 -1.536649 0.659885 0.124236 -0.023338 115766.000000 0 0 1
-0.537200 25.166513 31.183700 40.075743 -1.549454 0.679131 0.120177 -0.024194 -47812.000000 0 0 1
-0.233100 26.541913 30.480460 40.417644 -1.562014 0.716457 0.103285 -0.027227 370417.000000 0 0 1
-1.340600 27.468813 30.489090 41.059926 -1.522031 0.733925 0.112303 -0.029277 531734.000000 0 0 1
-1.028900 28.719913 29.888390 41.463332 -1.534986 0.765784 0.112165 -0.024296 -49798.000000 0 0 1
-2.283900 29.603113 29.732360 42.018731 -1.493798 0.784704 0.125893 -0.027330 147316.000000 0 0 1
-2.773600 30.074913 31.009980 43.287552 -1.478833 0.772208 0.124279 -0.033397 195069.000000 0 0 1
-3.679200 31.154413 30.972350 44.084243 -1.453245 0.791791 0.134225 -0.034468 -36306.400000 0 0 1
-3.289700 32.180513 32.073000 45.553100 -1.468924 0.789670 0.122643 -0.020079 695043.000000 0 0 1
-1.981700 32.737913 31.901760 45.753911 -1.510338 0.799247 0.199590 -0.045493 421234.000000 0 0 1
-1.422600 33.016213 33.201167 46.844548 -1.527735 0.783069 0.150851 -0.033828 -168636.000000 0 0 1
0.091500 33.261213 33.073143 46.905751 1.568045 0.788235 0.160504 -0.056030 -126219.000000 0 0 1
0.438400 -33.252331 32.335623 46.384289 -1.557613 0.799417 0.185390 -0.067943 -251647.000000 0 0 1
1.832000 -33.057431 32.384621 46.313212 -1.515434 0.796445 0.163057 -0.063664 -35943.900000 0 0 1
2.239200 -31.655531 31.747448 44.888608 -1.500178 0.785196 0.172676 -0.064565 62697.800000 0 0 1
1.874900 -30.666231 32.652525 44.834366 -1.509733 0.754970 0.158059 -0.048565 25732.800000 0 0 1
2.186200 -29.396331 32.175584 43.637048 -1.496563 0.741664 0.158461 -0.057064 -24696.000000 0 0 1
1.848500 -28.250131 33.128728 43.577512 -1.505456 0.707136 0.162993 -0.052401 113317.000000 0 0 1
0.473000 -28.021331 33.365660 43.573915 -1.553918 0.698628 0.152717 -0.050437 44719.900000 0 0 1
0.206900 -27.221831 -32.980618 42.764379 -1.563196 2.451547 0.125516 -0.036004 -410237.000000 0 0 1
-1.291900 -27.032431 -32.764458 42.496248 1.523042 2.451201 0.158586 -0.036845 -394495.000000 0 0 1
-1.605700 -26.436331 -31.525258 41.174019 1.510132 2.442862 0.156302 -0.034199 440829.000000 0 0 1
-3.020100 -26.398131 -31.361878 41.104133 1.456886 2.438716 0.186477 -0.049696 415712.000000 0 0 1
-3.404900 -25.709231 -30.025078 39.674466 1.439124 2.429178 0.195390 -0.056217 -68806.100000 0 0 1
-3.864000 -26.594731 -29.013728 39.547524 1.426514 2.394463 0.182589 -0.051327 -48511.900000 0 0 1
-4.021100 -25.885931 -27.728938 38.146359 1.416689 2.384607 0.200901 -0.046125 -46684.100000 0 0 1
-2.781900 -25.418231 -26.914468 37.124306 1.461785 2.381805 0.187013 -0.050314 207652.000000 0 0 1
-2.042800 -24.359631 -27.558458 36.837933 1.487132 2.415991 0.193222 -0.049129 550736.000000 0 0 1
-1.026900 -23.884431 -26.656478 35.806262 1.527828 2.410528 0.155385 -0.044095 361858.000000 0 0 1
0.002500 -22.894331 -27.299588 35.628892 -1.570687 2.443735 0.096946 -0.030152 1019160.000000 0 0 1
0.784900 -23.300031 -28.447458 36.779959 -1.537122 2.455062 0.059396 -0.031725 741313.000000 0 0 1
1.667200 -24.427431 -28.378828 37.481153 -1.502651 2.429734 0.042013 -0.015202 117373.000000 0 0 1
2.481300 -24.582231 -29.688168 38.624219 -1.470198 2.447511 0.045885 -0.024578 -144354.000000 0 0 1
3.538200 -23.684331 -29.766028 38.203179 -1.422503 2.464106 0.072323 -0.030936 -351339.000000 0 0 1
4.414500 -23.879531 -30.842418 39.255249 -1.387995 2.474605 0.089822 -0.034616 -630132.000000 0 0 1
5.492200 -22.799531 -30.990778 38.864009 -1.334409 2.493797 0.100360 -0.042835 -60277.900000 0 0 1
6.690200 -22.791131 -30.214448 38.433154 -1.285273 2.475360 0.071542 -0.039683 1561730.000000 0 0 1
7.575500 -23.972931 -30.270458 39.349591 -1.264724 2.448494 0.082750 -0.036320 364360.000000 0 0 1
8.260100 -24.275031 -31.630728 40.718661 -1.242815 2.460383 0.088180 -0.028256 -205815.000000 0 0 1
7.363000 -24.838931 -32.614038 41.651672 -1.282618 2.470301 0.066675 -0.033541 326568.000000 0 0 1
7.608700 -24.457431 33.519210 42.185255 -1.269188 0.652494 0.089811 -0.028089 -137644.000000 0 0 1
7.169800 -23.014131 33.108307 40.953831 -1.268787 0.629316 0.090744 -0.022160 1258900.000000 0 0 1
5.732600 -22.837631 33.272539 40.761280 -1.324862 0.615858 0.100024 -0.029803 1283710.000000 0 0 1
5.306400 -21.684631 32.617010 39.525314 -1.330805 0.600208 0.120372 -0.034267 -202209.000000 0 0 1
3.823800 -21.412631 32.917068 39.454475 -1.394082 0.583925 0.102875 -0.041986 371389.000000 0 0 1
2.827800 -22.268431 32.351242 39.376165 -1.444485 0.606594 0.104175 -0.043026 231358.000000 0 0 1
2.411500 -23.316031 33.191589 40.634151 -1.467736 0.614885 0.093696 -0.032668 563757.000000 0 0 1
0.933200 -23.635531 32.753537 40.401775 -1.531334 0.625457 0.114319 -0.042506 706336.000000 0 0 1
0.808100 -24.610931 31.760766 40.188273 -1.537973 0.659499 0.133525 -0.041464 409830.000000 0 0 1
-0.529900 -24.843931 31.311450 39.973850 1.549470 0.670842 0.164003 -0.053021 480206.000000 0 0 1
-0.668800 -26.198231 30.518790 40.226747 1.545273 0.709529 0.173843 -0.048800 1334060.000000 0 0 1
-2.048200 -26.328731 30.075000 40.023779 1.493159 0.720572 0.191019 -0.045651 1311240.000000 0 0 1
-2.255700 -27.622131 29.480000 40.461596 1.489314 0.754532 0.206237 -0.050213 -274716.000000 0 0 1
-3.432900 -27.546231 28.506880 39.789721 1.446812 0.772113 0.215220 -0.046159 775117.000000 0 0 1
-4.695600 -27.773331 29.185820 40.561296 1.403311 0.767644 0.203506 -0.043385 921325.000000 0 0 1
-5.735400 -28.076531 28.270570 40.254336 1.369291 0.792175 0.172219 -0.030874 846390.000000 0 0 1
-7.025300 -28.574731 29.040980 41.343061 1.329721 0.791978 0.122892 -0.020649 781225.000000 0 0 1
-8.013500 -29.194031 28.227400 41.391953 1.302903 0.820366 0.115492 -0.018593 884287.000000 0 0 1
-9.291300 -29.362431 28.871100 42.213991 1.264331 0.817671 0.088696 -0.016906 738589.000000 0 0 1
-9.564700 -30.446731 30.010820 43.807948 1.266413 0.816118 0.057633 -0.007924 -477793.000000 0 0 1
-9.678700 -31.780831 29.586190 44.486415 1.275175 0.843221 0.072704 -0.007520 -407238.000000 0 0 1
-10.871200 -32.156531 28.979590 44.632300 1.244788 0.864137 0.064903 -0.008479 -722164.000000 0 0 1
-10.871800 -33.676131 28.575660 45.484571 1.258525 0.891495 0.079598 -0.005191 -263217.000000 0 0 1
-10.826400 33.167413 29.724640 45.834948 -1.255284 0.865165 0.079646 -0.009371 355798.000000 0 0 1
-10.562300 31.812013 29.306880 44.524820 -1.250226 0.852352 0.081972 -0.013664 -12270.300000 0 0 1
-11.043800 30.799513 30.435430 44.686586 -1.226507 0.821551 0.080028 -0.005978 924768.000000 0 0 1
-12.472900 30.632513 30.427730 44.941861 -1.184117 0.827054 0.068808 0.001791 681324.000000 0 0 1
-12.833500 29.327613 30.906700 44.497548 -1.158309 0.802973 0.073966 -0.003167 130716.000000 0 0 1
-12.810000 29.120513 32.424221 45.424999 -1.156377 0.775892 0.078690 -0.009041 -636432.000000 0 0 1
-13.826000 29.845713 33.041715 46.622739 -1.136979 0.783137 0.080407 -0.002359 -145640.000000 0 0 1
-13.910800 29.641913 -33.012558 46.497122 -1.132013 2.360282 0.089556 -0.011258 -740039.000000 0 0 1
-15.234600 30.041613 -32.388878 46.729338 -1.101472 2.336600 0.082227 -0.008324 -608980.000000 0 0 1
-15.491900 29.387413 -31.183328 45.563351 -1.085657 2.324570 0.067019 -0.008245 -280243.000000 0 0 1
-16.637000 29.878213 -30.536288 45.847162 -1.062727 2.299691 0.069177 -0.009050 -171696.000000 0 0 1
-16.772300 29.392413 -29.082808 44.621001 -1.052250 2.280718 0.087831 -0.013484 -43151.600000 0 0 1
-16.932200 27.950013 -28.959218 43.663932 -1.026121 2.295922 0.074550 -0.015102 187847.000000 0 0 1
-17.181600 27.544413 -27.636108 42.633984 -1.013076 2.276038 0.067211 -0.017365 -426673.000000 0 0 1
-17.810700 26.193213 -27.388278 41.873897 -0.973638 2.283743 0.050265 -0.026447 -50853.100000 0 0 1
-19.152100 26.156013 -27.841728 42.732912 -0.938768 2.280394 0.054709 -0.028089 -283961.000000 0 0 1
-19.618800 24.864313 -27.634388 42.033211 -0.902778 2.288215 0.036297 -0.024896 408325.000000 0 0 1
-21.124600 24.720313 -28.043338 42.939160 -0.863670 2.282460 0.052635 -0.026635 946376.000000 0 0 1
-22.040100 25.175913 -27.015358 43.004909 -0.851715 2.250024 0.065857 -0.031363 -218666.000000 0 0 1
-23.300400 24.645213 -27.246498 43.504791 -0.813440 2.247578 0.098559 -0.034106 -474767.000000 0 0 1
-24.280900 24.856513 -26.061178 43.434933 -0.797112 2.214304 0.107289 -0.034001 -146517.000000 0 0 1
-24.816000 26.175813 -25.911838 44.412053 -0.812059 2.193756 0.084781 -0.032527 1877710.000000 0 0 1
-26.162010 26.290113 -25.327618 44.912238 -0.787840 2.169940 0.097165 -0.036360 1822900.000000 0 0 1
-26.368920 25.839113 -23.829438 43.941118 -0.775251 2.143973 0.104045 -0.023460 -412280.000000 0 0 1
-25.957030 24.516413 -23.476738 42.731478 -0.756864 2.152444 0.096068 -0.013447 -363401.000000 0 0 1
-26.949310 23.526413 -23.522938 42.814554 -0.717689 2.152460 0.107347 -0.002928 106078.000000 0 0 1
-27.956740 23.409613 -22.298438 42.741194 -0.697105 2.119649 0.084270 -0.008288 357145.000000 0 0 1
-27.458660 23.176813 -20.966038 41.601892 -0.701037 2.098983 0.090457 -0.007325 194837.000000 0 0 1
-26.622300 24.247813 -20.484938 41.428686 -0.738755 2.088013 0.094441 -0.002812 377947.000000 0 0 1
-25.735730 23.787813 -19.280438 39.999040 -0.746085 2.073758 0.091838 -0.001436 370708.000000 0 0 1
-26.423270 23.603913 -18.052538 39.764659 -0.729101 2.042028 0.086148 0.006925 313101.000000 0 0 1
-25.402580 23.327913 -17.124938 38.506443 -0.742850 2.031668 0.115935 -0.008752 94594.400000 0 0 1
-25.903540 23.440113 -15.625138 38.269796 -0.735516 1.991375 0.113191 -0.015172 33750.500000 0 0 1
-26.164940 24.756313 -15.191138 39.092836 -0.757742 1.969899 0.110320 -0.014626 85738.000000 0 0 1
-26.456650 24.769913 -13.822938 38.788872 -0.752483 1.935169 0.083454 -0.023377 59237.700000 0 0 1
-26.600530 26.139713 -13.134338 39.539647 -0.776661 1.909412 0.086008 -0.020011 369078.000000 0 0 1
-25.347680 26.789913 -12.987038 39.100735 -0.813053 1.909371 0.096312 -0.020933 253814.000000 0 0 1
-25.448580 27.794113 -11.958538 39.536687 -0.829423 1.878076 0.111477 -0.017381 -854015.000000 0 0 1
-24.106300 28.305213 -11.523738 38.924226 -0.865342 1.871357 0.122245 -0.021184 -1090880.000000 0 0 1
-23.276600 27.307513 -10.981038 37.524440 -0.864917 1.867780 0.124794 -0.023318 -585826.000000 0 0 1
-22.087300 27.913813 -10.597438 37.139406 -0.901403 1.860160 0.117638 -0.029077 -397949.000000 0 0 1
-21.032900 27.003113 -9.908138 35.633162 -0.909050 1.852570 0.166054 -0.022915 351427.000000 0 0 1
-20.573700 25.989313 -10.841538 34.874926 -0.901185 1.886904 0.162191 -0.029263 937135.000000 0 0 1
-19.559300 25.081613 -10.302838 33.433546 -0.908478 1.884053 0.157153 -0.017693 700724.000000 0 0 1
-19.108900 24.044913 -11.285338 32.721045 -0.899285 1.922924 0.139621 -0.031701 -535189.000000 0 0 1
-18.565300 22.916313 -10.661038 31.360573 -0.889906 1.917660 0.099188 -0.027299 85097.000000 0 0 1
-18.147300 22.071013 -11.707038 30.878939 -0.882651 1.959649 0.127622 -0.025961 -56369.000000 0 0 1
-17.497700 20.789313 -11.220538 29.398393 -0.871159 1.962401 0.091335 -0.013067 -270135.000000 0 0 1
-18.456400 19.808913 -10.938638 29.200780 -0.820729 1.954763 0.093270 -0.012421 175948.000000 0 0 1
-17.870500 18.561713 -10.527938 27.833962 -0.804368 1.958691 0.117253 -0.031401 303753.000000 0 0 1
-19.020500 17.491113 -10.377438 27.846179 -0.743535 1.952681 0.108943 -0.025917 762119.000000 0 0 1
-19.511500 16.936013 -11.597238 28.320013 -0.714853 1.992710 0.110084 -0.025043 374707.000000 0 0 1
-20.459600 17.758413 -12.264938 29.738615 -0.714837 1.995910 0.124254 -0.024375 -298158.000000 0 0 1
-21.252900 17.065013 -13.407338 30.375272 -0.676537 2.027943 0.128512 -0.027596 334998.000000 0 0 1
-20.449700 16.852713 -14.561838 30.236589 -0.689268 2.073272 0.115588 -0.033055 610748.000000 0 0 1
-21.291800 16.631213 -15.699938 31.247817 -0.663115 2.097207 0.131035 -0.030627 99666.200000 0 0 1
-20.496800 16.397213 -16.969438 31.256188 -0.674734 2.144700 0.130637 -0.040225 -101580.000000 0 0 1
-19.798300 17.589713 -17.383738 31.679095 -0.726395 2.151658 0.114662 -0.040310 486550.000000 0 0 1
-19.072700 17.407213 -18.586838 31.815869 -0.739775 2.194691 0.108349 -0.027831 -546450.000000 0 0 1
-18.430500 18.707813 -19.031738 32.432587 -0.792865 2.197909 0.077373 -0.022261 -279419.000000 0 0 1
-17.226300 19.068613 -18.370738 31.588629 -0.836114 2.191443 0.094923 -0.023151 497873.000000 0 0 1
-16.964000 20.454613 -18.560638 32.413975 -0.878414 2.180485 0.110936 -0.027407 -125506.000000 0 0 1
34.770716 29.979213 2.467362 45.976557 0.711533 1.517105 0.085241 -0.009907 164465.000000 0 0 1
35.769916 29.947113 1.456962 46.673753 0.697025 1.539575 0.096870 -0.013903 267895.000000 0 0 1
35.654796 31.029313 0.531062 47.269068 0.716145 1.559561 0.071921 -0.001844 -209765.000000 0 0 1
36.829706 31.013913 -0.460038 48.150822 0.699884 1.580351 0.042524 0.000249 677392.000000 0 0 1
-37.701350 31.567213 0.167662 49.172237 -0.697073 1.567387 0.029153 0.003844 607186.000000 0 0 1
-36.561660 31.423213 -0.665338 48.214272 -0.709959 1.584596 0.035057 0.003569 78074.900000 0 0 1
-35.531296 32.495713 -0.244938 48.150850 -0.740805 1.575883 0.046419 -0.003972 -183691.000000 0 0 1
-34.937918 32.321913 1.020062 47.606772 -0.746524 1.549368 0.036967 -0.004571 -67278.700000 0 0 1
-34.549329 33.492013 1.629162 48.145875 -0.769860 1.536952 0.038479 -0.006137 -225006.000000 0 0 1
-33.748680 33.259113 2.922162 47.472951 -0.778092 1.509203 0.059058 -0.008451 -293157.000000 0 0 1
-33.463660 -33.257331 3.655862 47.320524 0.782306 1.493462 0.081077 -0.001459 107300.000000 0 0 1
-32.660160 -33.535831 4.797562 47.056930 0.798626 1.468667 0.101279 -0.020895 -450850.000000 0 0 1
-32.442740 -32.248231 5.578262 46.082500 0.782391 1.449449 0.122962 -0.020929 -32992.000000 0 0 1
-33.545180 -31.610531 6.191262 46.506306 0.755714 1.437273 0.107938 -0.015449 -74760.200000 0 0 1
-34.054121 -32.254331 7.359462 47.478277 0.758262 1.415162 0.093736 -0.028694 -1418290.000000 0 0 1
-35.137948 -31.417431 8.114262 47.828565 0.729555 1.400319 0.096729 -0.027434 -447522.000000 0 0 1
-36.389270 -31.305231 7.554362 48.592848 0.710436 1.414701 0.073892 -0.023098 -727904.000000 0 0 1
-37.061210 -32.565331 7.347262 49.880020 0.720916 1.422960 0.060456 -0.014846 -1237000.000000 0 0 1
37.114376 -32.522831 7.247062 49.877163 -0.719558 1.424982 0.066366 -0.014155 46940.200000 0 0 1
36.405736 -32.156931 8.410962 49.296959 -0.723508 1.399339 0.058273 -0.008607 840814.000000 0 0 1
34.993256 -32.108731 8.186662 48.192531 -0.742437 1.400094 0.043340 0.006441 440357.000000 0 0 1
34.138686 -31.980331 9.435562 47.720240 -0.752766 1.371758 0.046470 -0.003068 -565518.000000 0 0 1
32.761326 -31.994431 9.142862 46.696253 -0.773556 1.373729 0.049386 -0.009580 954111.000000 0 0 1
31.873306 -31.843231 10.328362 46.223090 -0.784926 1.345448 0.063668 -0.008489 969287.000000 0 0 1
31.764536 -30.335831 10.849662 45.243382 -0.762396 1.328630 0.078312 -0.020156 -679215.000000 0 0 1
31.063396 -29.385431 10.061862 43.928114 -0.757647 1.339692 0.070792 -0.033294 14909.300000 0 0 1
31.774646 -28.764731 9.017662 43.799043 -0.735721 1.363426 0.062779 -0.026589 -168896.000000 0 0 1
30.989256 -27.493331 8.699862 42.330897 -0.725692 1.363801 0.057140 -0.027829 6249.370000 0 0 1
31.203876 -26.945231 7.382062 41.883436 -0.712292 1.393618 0.066891 -0.035510 -465621.000000 0 0 1
30.625006 -25.685131 7.173462 40.608811 -0.697896 1.393217 0.045403 -0.034706 -4796.420000 0 0 1
30.756066 -25.261031 5.705762 40.207102 -0.687615 1.428406 0.040134 -0.020334 -55002.400000 0 0 1
32.052516 -24.847931 5.382762 40.911583 -0.659451 1.438843 0.070340 -0.029215 -693708.000000 0 0 1
32.176906 -24.488531 4.040762 40.637042 -0.650542 1.471196 0.060459 -0.024202 -403835.000000 0 0 1
33.624726 -24.191231 3.614762 41.580096 -0.623659 1.483752 0.072628 -0.027555 -424035.000000 0 0 1
34.396716 -25.334931 3.717862 42.881410 -0.634838 1.483986 0.076834 -0.017567 -744441.000000 0 0 1
35.744006 -24.898231 3.713662 43.718957 -0.608421 1.485750 0.089282 -0.025850 558790.000000 0 0 1
36.786176 -26.063031 3.917762 45.253212 -0.616408 1.484114 0.089096 -0.023412 363614.000000 0 0 1
36.864506 -26.381731 5.284462 45.638943 -0.621146 1.454748 0.071159 -0.006960 -234871.000000 0 0 1
37.366346 -27.695431 5.419162 46.825720 -0.637837 1.454806 0.060114 -0.008466 -999499.000000 0 0 1
36.489606 -28.674431 6.175462 46.817205 -0.666037 1.438505 0.075445 -0.010898 874847.000000 0 0 1
35.237846 -29.172831 5.651662 46.094481 -0.691513 1.447877 0.064912 -0.006787 911180.000000 0 0 1
34.210276 -28.184631 5.633062 44.681627 -0.689124 1.444389 0.061988 -0.015487 -720289.000000 0 0 1
32.836716 -28.797731 5.336162 44.000385 -0.719960 1.449222 0.046867 -0.004424 -1089430.000000 0 0 1
32.633096 -29.137031 3.976462 43.928326 -0.728860 1.480151 0.037551 -0.005975 42640.700000 0 0 1
31.298806 -28.805231 3.654062 42.693194 -0.743934 1.485103 0.037144 -0.005275 852615.000000 0 0 1
30.100106 -29.687631 4.156262 42.481129 -0.778499 1.472802 0.034119 -0.006881 104725.000000 0 0 1
30.125106 -30.924331 3.424762 43.307797 -0.798489 1.491634 0.043931 0.002510 -835663.000000 0 0 1
29.091806 -31.758531 3.786562 43.235119 -0.829194 1.483103 0.049003 0.003175 -709572.000000 0 0 1
29.169406 -33.111331 3.013362 44.230022 -0.848607 1.502614 0.053371 0.000668 -252523.000000 0 0 1
28.875806 -33.054731 1.666062 43.922696 -0.852774 1.532856 0.051486 -0.003800 157599.000000 0 0 1
29.150606 33.431313 0.944162 44.365549 0.853693 1.549513 0.053318 -0.003428 -103320.000000 0 0 1
28.758106 33.514313 -0.512638 44.164473 0.861628 1.582404 0.053253 -0.002068 -473560.000000 0 0 1
29.781806 -33.509431 -1.198538 44.847235 -0.844227 1.597524 0.050798 -0.000442 -152519.000000 0 0 1
29.618306 -33.524531 -2.617138 44.810575 -0.847183 1.629234 0.062326 -0.004967 -220419.000000 0 0 1
30.624606 -32.747931 -3.474238 44.970700 -0.818891 1.648129 0.046981 -0.003284 66712.300000 0 0 1
30.397306 -31.351931 -3.515338 43.809787 -0.800857 1.651124 0.039555 -0.002135 42628.600000 0 0 1
31.490136 -30.787131 -4.196038 44.238929 -0.774110 1.665789 0.036292 -0.004360 35533.700000 0 0 1
31.672496 -29.304431 -3.938838 43.329103 -0.746582 1.661827 0.043217 -0.000675 -238966.000000 0 0 1
30.639806 -28.553931 -4.558038 42.129567 -0.750175 1.679199 0.041802 -0.021005 187240.000000 0 0 1
30.870066 -27.121031 -4.596438 41.347776 -0.720840 1.682192 0.054365 -0.018979 484614.000000 0 0 1
31.912756 -26.665231 -5.719838 41.978270 -0.696055 1.707479 0.084429 -0.022816 769454.000000 0 0 1
33.245456 -27.028031 -5.366138 43.180670 -0.682608 1.695390 0.077350 -0.018217 252438.000000 0 0 1
34.219886 -26.638731 -6.332938 43.826119 -0.661467 1.715805 0.086967 -0.023604 253169.000000 0 0 1
34.397226 -27.505931 -7.631238 44.698783 -0.674531 1.742363 0.099677 -0.015394 -96789.100000 0 0 1
33.236196 -27.511431 -8.480638 43.970954 -0.691437 1.764882 0.103971 -0.020298 456794.000000 0 0 1
33.181996 -28.556331 -9.444638 44.785155 -0.710614 1.783279 0.098259 -0.012326 114930.000000 0 0 1
33.168966 -30.037531 -8.869738 45.619139 -0.735896 1.766473 0.098458 -0.006044 -107422.000000 0 0 1
34.437006 -30.391331 -8.381138 46.688156 -0.723073 1.751288 0.095526 -0.003895 -585150.000000 0 0 1
34.424056 -31.713031 -7.873638 47.462893 -0.744430 1.737457 0.085283 -0.012795 512442.000000 0 0 1
35.742186 -32.135631 -7.158638 48.594740 -0.732315 1.718647 0.067053 -0.010837 161368.000000 0 0 1
35.664906 -33.369731 -6.398738 49.259196 -0.752164 1.701064 0.049124 -0.013603 -264357.000000 0 0 1
34.919876 -33.296631 -5.194738 48.528844 -0.761607 1.678046 0.041286 -0.006689 -246123.000000 0 0 1
34.795566 32.985213 -4.486438 48.154790 0.758696 1.664099 0.015348 -0.002260 241519.000000 0 0 1
33.749356 32.260313 -5.156438 46.971648 0.762844 1.680796 0.035962 -0.013165 527270.000000 0 0 1
33.698336 30.920113 -4.706438 45.975883 0.742430 1.673344 0.033433 -0.007457 875609.000000 0 0 1
32.365626 30.218813 -5.182538 44.582162 0.751109 1.687307 0.051142 -0.020400 674222.000000 0 0 1
32.179656 30.069013 -6.597238 44.533127 0.751505 1.719486 0.026983 -0.012668 -47475.500000 0 0 1
30.873726 29.643013 -6.930938 43.358195 0.765064 1.731338 0.015355 -0.006185 146926.000000 0 0 1
30.500806 29.378413 -8.441238 43.181534 0.766656 1.767546 0.024120 -0.008195 -63491.300000 0 0 1
31.144446 28.152613 -8.853238 42.906013 0.734986 1.778630 0.039077 -0.014257 346960.000000 0 0 1
31.422826 28.158013 -10.237538 43.417449 0.730657 1.808831 0.023210 -0.013049 -118537.000000 0 0 1
32.700586 28.867113 -10.717438 44.916612 0.723214 1.811728 0.057173 -0.010317 -48051.600000 0 0 1
33.902176 28.154813 -10.332338 45.263763 0.693047 1.801096 0.044890 -0.015845 987025.000000 0 0 1
35.129316 28.718513 -10.751338 46.630603 0.685326 1.803454 0.075686 -0.012980 294303.000000 0 0 1
35.535496 30.112613 -10.167438 47.675127 0.702980 1.785712 0.081572 -0.026010 -937106.000000 0 0 1
36.306196 30.129713 -8.974938 48.025920 0.692696 1.758778 0.049574 -0.020560 289789.000000 0 0 1
36.263156 31.456813 -8.544438 48.760179 0.714543 1.746940 0.050699 -0.017550 -513540.000000 0 0 1
37.261776 31.754413 -7.367438 49.508200 0.705769 1.720164 0.058476 -0.016353 618644.000000 0 0 1
-37.069420 31.836013 -7.667338 49.461720 -0.709593 1.726440 0.074849 -0.018837 188453.000000 0 0 1
-36.428640 30.598513 -7.982938 48.239425 -0.698635 1.737047 0.082469 -0.016767 -675117.000000 0 0 1
-34.970377 30.785313 -8.439938 47.348657 -0.721838 1.750005 0.135941 -0.021160 -521854.000000 0 0 1
-34.089886 31.199913 -7.423138 46.804465 -0.741163 1.730068 0.114564 -0.019651 498129.000000 0 0 1
-32.721870 31.271313 -7.809238 45.930382 -0.762735 1.741650 0.155435 -0.030861 547311.000000 0 0 1
-32.282830 32.562513 -8.665038 46.664561 -0.789711 1.757568 0.110599 -0.028629 -357024.000000 0 0 1
-32.406130 33.805913 -8.044038 47.515299 -0.806536 1.740909 0.086330 -0.015877 157673.000000 0 0 1
-31.364470 -33.566931 -7.145938 46.492293 0.819305 1.725110 0.131092 -0.029604 47074.300000 0 0 1
-31.675630 -32.166731 -6.522838 45.613502 0.793090 1.714291 0.104935 -0.025878 469163.000000 0 0 1
-32.723340 -32.125831 -5.537738 46.190395 0.776185 1.690975 0.092418 -0.023374 166724.000000 0 0 1
-32.447490 -32.560231 -4.254138 46.163903 0.787132 1.663080 0.119237 -0.027825 -141276.000000 0 0 1
-33.581010 -32.505631 -3.187338 46.845058 0.769127 1.638889 0.099369 -0.025150 -104659.000000 0 0 1
-34.146029 -31.279831 -2.888138 46.397419 0.741618 1.633084 0.075327 -0.026221 -91435.100000 0 0 1
-34.917260 -31.282331 -1.722138 46.912312 0.730545 1.607514 0.081018 -0.022151 -309078.000000 0 0 1
-35.759047 -30.007231 -1.571838 46.707752 0.698162 1.604455 0.097096 -0.014378 43877.900000 0 0 1
-36.713540 -30.071531 -0.515638 47.459951 0.686271 1.581661 0.068357 -0.003536 -171056.000000 0 0 1
-37.384550 -28.873331 -0.448038 47.238486 0.657642 1.580281 0.081194 -0.008307 -690626.000000 0 0 1
37.326696 -28.704331 0.713962 47.092787 -0.655552 1.555635 0.078366 -0.005003 386310.000000 0 0 1
36.075006 -29.380631 0.499162 46.528236 -0.683479 1.560068 0.041457 0.004108 619826.000000 0 0 1
35.036736 -29.286731 1.442662 45.687709 -0.696243 1.539214 0.052924 0.001688 80653.600000 0 0 1
34.323326 -27.958131 1.413262 44.291592 -0.683551 1.538883 0.043960 0.001820 -1464850.000000 0 0 1
33.316176 -27.898231 0.458862 43.456754 -0.697121 1.560237 0.037778 -0.000256 -435603.000000 0 0 1
32.755096 -26.630831 0.242062 42.215591 -0.682635 1.565062 0.042238 -0.002811 -808790.000000 0 0 1
31.444376 -26.693231 -0.521738 41.249844 -0.703857 1.583445 0.033630 -0.007143 -201197.000000 0 0 1
30.397606 -27.244431 0.295962 40.821086 -0.730750 1.563546 0.031955 -0.000070 269831.000000 0 0 1
30.149206 -28.651931 0.267562 41.593021 -0.759940 1.564363 0.034180 -0.001023 -339346.000000 0 0 1
29.585606 -29.293131 -1.029738 41.646801 -0.780431 1.595524 0.034886 -0.002471 -328894.000000 0 0 1
28.279406 -28.875931 -1.369938 40.440338 -0.795835 1.604678 0.045016 -0.002643 -3737.350000 0 0 1
27.911506 -29.383631 -2.660838 40.614407 -0.811086 1.636358 0.049215 -0.004420 -337895.000000 0 0 1
26.414406 -29.707731 -2.670038 39.842179 -0.844012 1.637862 0.052089 -0.015243 214397.000000 0 0 1
25.555206 -28.587231 -3.004638 38.462010 -0.841341 1.648996 0.071960 -0.010444 331767.000000 0 0 1
24.269706 -29.077931 -3.341538 38.022501 -0.875285 1.658793 0.063249 -0.011544 424094.000000 0 0 1
23.166606 -28.000431 -3.576838 36.517250 -0.879590 1.668903 0.059462 -0.012784 281775.000000 0 0 1
23.337406 -27.290231 -4.798238 36.227260 -0.863317 1.703635 0.077218 -0.017096 225637.000000 0 0 1
22.679106 -25.996931 -4.768938 34.827074 -0.853454 1.708160 0.096902 -0.023990 133496.000000 0 0 1
22.013306 -25.548931 -6.066038 34.265586 -0.859599 1.748764 0.104969 -0.043758 506604.000000 0 0 1
20.752906 -26.171331 -6.363838 34.001767 -0.900361 1.759069 0.108749 -0.039508 219732.000000 0 0 1
20.262506 -25.607131 -7.610838 33.529378 -0.901393 1.799782 0.139249 -0.045742 99170.600000 0 0 1
18.743906 -25.909631 -7.607438 32.871205 -0.944515 1.804345 0.117741 -0.036286 150836.000000 0 0 1
18.104006 -25.119331 -6.597338 31.658501 -0.946299 1.780726 0.097366 -0.034474 -73258.300000 0 0 1
16.701806 -25.257931 -6.696038 31.012100 -0.986553 1.788427 0.083221 -0.028702 -193501.000000 0 0 1
15.904306 -24.335231 -5.792038 29.642843 -0.991929 1.767456 0.071833 -0.020547 -297478.000000 0 0 1
15.882306 -24.765231 -4.468338 29.757862 -1.000551 1.721523 0.051574 -0.017489 -121572.000000 0 0 1
15.222206 -23.782731 -3.735938 28.483172 -1.001446 1.702338 0.065493 -0.020025 -23069.800000 0 0 1
14.939306 -24.172031 -2.218838 28.502512 -1.017217 1.648722 0.082200 -0.027691 261902.000000 0 0 1
14.225606 -25.360531 -1.905438 29.140266 -1.059597 1.636232 0.063573 -0.017662 140603.000000 0 0 1
15.124106 -26.409231 -1.834038 30.488519 -1.050705 1.630988 0.074800 -0.019470 -44711.700000 0 0 1
14.354006 -27.752031 -1.842338 31.298673 -1.093465 1.629694 0.067194 -0.015048 367553.000000 0 0 1
13.485006 -28.048831 -0.754438 31.131198 -1.122652 1.595033 0.086546 -0.026433 95712.500000 0 0 1
12.828306 -29.303631 -0.929038 32.002052 -1.158158 1.599831 0.071465 -0.021777 -157412.000000 0 0 1
13.665306 -30.587431 -0.595438 33.506508 -1.150638 1.588568 0.062328 -0.020409 1078070.000000 0 0 1
14.743306 -30.829531 -1.566038 34.209320 -1.124724 1.616590 0.049203 -0.017413 755035.000000 0 0 1
15.305106 -32.141731 -1.397738 35.627108 -1.126389 1.610039 0.047779 -0.018117 -801020.000000 0 0 1
16.682506 -32.266131 -2.031338 36.380428 -1.093619 1.626661 0.043127 -0.015230 -465412.000000 0 0 1
17.693606 -31.818931 -1.139638 36.425360 -1.063304 1.602088 0.054594 -0.006186 28703.000000 0 0 1
18.909506 -31.514731 -1.783438 36.795766 -1.030361 1.619284 0.059283 -0.015674 -194333.000000 0 0 1
19.749806 -30.475531 -1.039038 36.330324 -0.995790 1.599400 0.067732 -0.012299 -474397.000000 0 0 1
19.355406 -29.146431 -1.190038 35.008033 -0.984590 1.604796 0.065185 -0.005129 60251.300000 0 0 1
20.078206 -28.182631 -0.436038 34.606144 -0.951775 1.583397 0.057601 -0.002976 -51403.000000 0 0 1
19.650506 -26.751331 -0.857438 33.204086 -0.937249 1.596622 0.049647 0.002736 -117988.000000 0 0 1
19.972806 -26.356431 -2.176838 33.140807 -0.922324 1.636528 0.040297 -0.001633 -50390.500000 0 0 1
18.895306 -25.905731 -2.971138 32.201975 -0.940619 1.663193 0.062299 -0.009224 -88938.300000 0 0 1
33.668976 -28.704031 13.764062 46.335416 -0.705965 1.269192 0.080168 -0.044985 471875.000000 0 0 1
34.540266 -28.960731 14.901362 47.474251 -0.697758 1.251516 0.099685 -0.042357 157225.000000 0 0 1
33.964486 -29.695831 15.926062 47.844207 -0.718445 1.231447 0.101135 -0.034516 -605715.000000 0 0 1
34.870276 -30.365031 16.970162 49.254012 -0.716446 1.219044 0.097034 -0.022866 -487877.000000 0 0 1
34.169536 -30.907231 18.070862 49.491112 -0.735310 1.197020 0.092226 -0.020863 840117.000000 0 0 1
35.058946 -31.328031 19.145862 50.765532 -0.729258 1.184087 0.073901 -0.015403 570545.000000 0 0 1
35.902496 -32.620431 18.903262 52.061647 -0.737537 1.199210 0.055369 -0.006996 -426485.000000 0 0 1
36.939026 -32.497731 17.969562 52.378424 -0.721523 1.220611 0.057269 -0.000843 -20681.700000 0 0 1
37.438666 33.833613 17.740162 53.489068 0.734860 1.232734 0.054986 -0.002283 -215617.000000 0 0 1
-37.115340 33.816813 16.713262 52.919358 -0.738929 1.249470 0.052180 -0.002727 62040.700000 0 0 1
-35.973220 -33.244131 17.287062 51.943116 0.745991 1.231517 0.057799 -0.005380 21905.900000 0 0 1
-34.883637 -33.133731 16.412562 50.833891 0.759677 1.242040 0.076534 -0.005984 -109752.000000 0 0 1
-33.706470 -32.288731 17.014262 49.680715 0.763919 1.221249 0.065678 -0.013314 447053.000000 0 0 1
-32.552140 -32.174131 16.203362 48.552708 0.779558 1.230542 0.079058 -0.018048 137038.000000 0 0 1
-32.749260 -31.261731 15.116262 47.731659 0.762164 1.248556 0.077921 -0.022041 73471.700000 0 0 1
-31.566190 -31.206331 14.038762 46.554767 0.779665 1.264475 0.074292 -0.032667 599036.000000 0 0 1
-30.373410 -30.810131 14.643462 45.675368 0.792536 1.244435 0.061400 -0.032548 -759594.000000 0 0 1
-29.344150 -30.683331 13.685462 44.607598 0.807704 1.258971 0.056437 -0.024688 579495.000000 0 0 1
-27.969660 -30.449031 14.405662 43.783199 0.827814 1.235528 0.065895 -0.033290 563796.000000 0 0 1
-26.885090 -30.269331 13.523462 42.684008 0.844541 1.248414 0.074078 -0.027185 -531778.000000 0 0 1
-25.742470 -29.867231 14.237562 41.921766 0.859436 1.224281 0.065715 -0.033572 -140115.000000 0 0 1
-24.493400 -29.718931 13.341662 40.757103 0.881491 1.237303 0.083758 -0.034554 -164162.000000 0 0 1
-23.888100 -30.935031 13.031862 41.200084 0.913237 1.248963 0.097566 -0.035707 634504.000000 0 0 1
-22.641500 -30.782231 12.325062 40.150846 0.936615 1.258790 0.081455 -0.043918 767789.000000 0 0 1
-22.122600 -32.139431 11.843562 40.775268 0.967944 1.276089 0.075500 -0.044934 234095.000000 0 0 1
-22.858400 -32.753331 10.735562 41.358669 0.961484 1.308217 0.079366 -0.039005 324968.000000 0 0 1
-22.801500 33.496113 10.741362 41.919862 -0.973127 1.311671 0.091575 -0.027524 -69822.400000 0 0 1
-23.849400 32.981713 9.755162 41.853918 -0.944728 1.335556 0.088940 -0.021202 -141090.000000 0 0 1
-23.440800 33.181113 8.454562 41.496229 -0.955755 1.365617 0.092459 -0.021577 -771747.000000 0 0 1
-24.543100 33.242413 7.626162 42.018807 -0.934821 1.388291 0.102102 -0.021121 -965593.000000 0 0 1
-24.238400 33.576413 6.138862 41.863602 -0.945531 1.423626 0.105677 -0.027545 -105766.000000 0 0 1
-23.453400 32.665413 5.355462 40.568118 -0.948099 1.438398 0.098376 -0.028744 713749.000000 0 0 1
-22.086400 32.427913 5.658962 39.640919 -0.972873 1.427551 0.097960 -0.027346 354880.000000 0 0 1
-21.031600 33.555413 5.489562 39.980361 -1.010924 1.433055 0.106716 -0.032055 -325157.000000 0 0 1
-21.084200 -32.974931 6.359162 39.652598 1.001908 1.409729 0.113619 -0.038969 -191360.000000 0 0 1
-20.681900 -33.218431 7.669562 39.875147 1.013922 1.377251 0.098928 -0.036544 -410000.000000 0 0 1
-20.833400 -31.916231 8.488062 39.047709 0.992489 1.351670 0.093169 -0.041864 -550784.000000 0 0 1
-19.858500 -30.975831 8.139362 37.684365 1.000706 1.353093 0.106702 -0.056368 -422913.000000 0 0 1
-19.878500 -29.782731 8.918962 36.901406 0.982251 1.326682 0.105948 -0.050876 482950.000000 0 0 1
-19.074000 -29.872931 10.287762 36.905928 1.002545 1.288297 0.091061 -0.043094 524555.000000 0 0 1
-17.747300 -30.330231 10.125062 36.570568 1.041378 1.290268 0.085185 -0.046474 -334934.000000 0 0 1
-16.955200 -30.106831 11.262062 36.341906 1.057900 1.255717 0.106569 -0.049675 -314683.000000 0 0 1
-15.637700 -30.891231 11.286362 36.416862 1.102187 1.255686 0.104967 -0.046726 2519.500000 0 0 1
-14.712500 -30.248531 10.425062 35.215241 1.118098 1.270254 0.107406 -0.047771 -1357.500000 0 0 1
-13.542500 -31.015531 10.168562 35.337829 1.159111 1.278917 0.091745 -0.039644 431214.000000 0 0 1
-12.446000 -30.301531 9.342162 34.064082 1.181067 1.292984 0.102523 -0.029535 -8715.180000 0 0 1
-11.530100 -29.629331 10.155462 33.376247 1.199683 1.261622 0.108712 -0.035455 -127469.000000 0 0 1
-10.574000 -28.838131 9.454962 32.137884 1.219351 1.272178 0.125621 -0.037739 398665.000000 0 0 1
-9.499900 -28.200431 10.341962 31.503470 1.245865 1.236314 0.140104 -0.030520 102465.000000 0 0 1
-10.013800 -27.225431 11.244862 31.111850 1.218344 1.200992 0.114197 -0.036493 -222070.000000 0 0 1
-9.095300 -26.968731 12.293962 31.002878 1.245522 1.163049 0.105275 -0.021599 258539.000000 0 0 1
-9.320600 -25.582431 13.003462 30.173240 1.221408 1.125240 0.096026 -0.027592 51278.400000 0 0 1
-9.006200 -24.424631 12.235762 28.764355 1.217530 1.131415 0.081512 -0.027423 -458371.000000 0 0 1
-9.761300 -24.105831 11.111062 28.281262 1.186043 1.167038 0.077717 -0.027273 -179742.000000 0 0 1
-9.170700 -22.840131 10.465762 26.745196 1.188983 1.168738 0.074422 -0.026233 522718.000000 0 0 1
-8.011000 -23.038431 9.649462 26.230851 1.236151 1.194082 0.055817 -0.031834 -85889.500000 0 0 1
-7.552800 -21.767131 9.349662 24.865015 1.236813 1.185303 0.054707 -0.022912 914910.000000 0 1 0
-6.166700 -21.820831 8.592962 24.249038 1.295373 1.208564 0.048089 -0.027933 1135990.000000 0 1 0
-4.997500 -22.196131 9.269962 24.567773 1.349337 1.183893 0.048771 -0.025356 413225.000000 0 1 0
-3.953400 -22.641931 8.373962 24.462413 1.397934 1.221412 0.050141 -0.026142 1607990.000000 0 1 0
-2.714200 -23.376231 9.013762 25.200456 1.455205 1.205011 0.055079 -0.028778 581958.000000 0 0 1
-1.938900 -22.651331 9.903062 24.797435 1.485407 1.159980 0.051827 -0.022373 -523953.000000 0 1 0
-1.000900 -23.584631 10.448862 25.815022 1.528383 1.154081 0.068992 -0.034631 607863.000000 0 0 1
-0.071300 -23.002431 11.545962 25.737641 1.567697 1.105596 0.075616 -0.030818 183425.000000 0 0 1
-0.783400 -22.818431 12.768862 26.159862 1.536478 1.060875 0.068140 -0.027647 -156951.000000 0 0 1
0.028700 -22.681231 13.913162 26.608554 -1.569531 1.020567 0.099158 -0.032433 -35494.200000 0 0 1
0.857300 -21.361031 14.057762 25.586115 -1.530684 0.989115 0.082578 -0.028580 713315.000000 0 0 1
2.000500 -21.186431 13.205862 25.045192 -1.476652 1.015399 0.086576 -0.033060 306007.000000 0 0 1
2.380800 -19.829231 13.122262 23.896870 -1.451303 0.989485 0.067738 -0.029325 702569.000000 0 1 0
3.893000 -19.725931 12.705262 23.784270 -1.375946 1.007250 0.075298 -0.026010 872756.000000 0 1 0
4.118900 -20.170831 11.390462 23.528077 -1.369365 1.065437 0.081393 -0.020906 -968579.000000 0 1 0
5.505300 -20.169131 11.242362 23.738005 -1.304331 1.077421 0.116578 -0.029316 -286901.000000 0 1 0
5.962300 -20.773331 9.895862 23.769905 -1.291293 1.141403 0.128931 -0.037157 -276788.000000 0 1 0
5.906600 -19.873331 8.749862 22.503273 -1.281899 1.171439 0.112015 -0.036427 -328553.000000 0 1 0
6.192900 -20.500031 7.506562 22.692549 -1.277421 1.233651 0.118757 -0.043056 -152273.000000 0 1 0
7.576100 -21.139031 7.232462 23.591618 -1.226663 1.259210 0.126346 -0.023398 584130.000000 0 1 0
8.723500 -20.342931 6.873162 23.177029 -1.165693 1.269718 0.139386 -0.035915 545226.000000 0 1 0
9.246000 -19.514731 7.860462 22.980429 -1.128331 1.221698 0.138063 -0.020351 -19991.800000 0 1 0
10.154400 -20.149931 8.952862 24.275199 -1.104000 1.193071 0.112807 -0.015116 456935.000000 0 1 0
9.385900 -20.435831 10.131662 24.665135 -1.140247 1.147499 0.124781 -0.021014 180764.000000 0 1 0
10.083300 -19.913931 11.244562 24.993554 -1.102086 1.104145 0.106437 -0.012579 363820.000000 0 1 0
9.260200 -20.111031 12.524562 25.437561 -1.139283 1.055992 0.130112 -0.029907 99534.900000 0 0 1
9.252200 -21.433731 12.949162 26.696232 -1.163294 1.064369 0.122959 -0.035535 -176427.000000 0 0 1
8.487300 -21.552131 14.135162 27.135427 -1.195643 1.022878 0.159737 -0.041556 266230.000000 0 0 1
8.763900 -22.943831 14.846162 28.699022 -1.205927 1.027097 0.163994 -0.040401 218265.000000 0 0 1
8.347800 -24.022031 14.036562 29.047699 -1.236345 1.066462 0.173318 -0.041822 -161581.000000 0 0 1
8.569100 -25.220531 14.704362 30.425695 -1.243267 1.066390 0.183814 -0.047574 208701.000000 0 0 1
8.465900 -26.477031 13.716562 30.997560 -1.261325 1.112407 0.193373 -0.050784 182946.000000 0 0 1
9.727400 -26.766931 13.153162 31.370314 -1.222224 1.138137 0.170806 -0.038204 -123263.000000 0 0 1
9.711600 -27.847231 12.213762 31.921144 -1.235239 1.178163 0.154309 -0.044067 -152007.000000 0 0 1
11.073200 -28.193931 11.576462 32.427272 -1.196555 1.205745 0.125303 -0.040494 -71342.000000 0 0 1
11.982800 -28.806731 12.463762 33.597033 -1.176597 1.190734 0.095105 -0.037845 432253.000000 0 0 1
13.218800 -29.087931 11.817262 34.065996 -1.144254 1.216540 0.121631 -0.034103 869926.000000 0 0 1
14.249200 -29.910031 12.714562 35.486755 -1.126205 1.204360 0.096811 -0.038092 -56894.000000 0 0 1
15.021000 -29.080331 13.553162 35.425758 -1.094009 1.178210 0.084535 -0.030978 1291490.000000 0 0 1
16.210000 -29.703331 14.150162 36.678046 -1.071237 1.174728 0.074632 -0.026811 1428550.000000 0 0 1
17.423500 -29.800431 13.206562 36.960213 -1.041723 1.205401 0.097563 -0.025107 -938489.000000 0 0 1
18.044100 -28.544331 13.111062 36.225244 -1.007077 1.200457 0.084481 -0.026299 631597.000000 0 0 1
19.398200 -28.821331 12.697662 36.989051 -0.978387 1.220388 0.080650 -0.027541 785206.000000 0 0 1
20.213000 -27.471931 12.562462 36.346772 -0.936465 1.217888 0.053899 -0.028647 -167434.000000 0 0 1
21.494900 -27.665631 12.034662 37.043906 -0.910267 1.239916 0.046554 -0.034942 -448083.000000 0 0 1
22.143500 -26.425931 11.799662 36.440313 -0.873342 1.241045 0.043295 -0.027367 688228.000000 0 0 1
23.563000 -26.733331 11.202862 37.354920 -0.848348 1.266205 0.047304 -0.030472 890493.000000 0 0 1
24.469500 -27.372031 12.119262 38.663433 -0.841328 1.251967 0.056264 -0.039196 -341110.000000 0 0 1
25.530700 -27.955131 11.453862 39.553722 -0.830696 1.277011 0.039725 -0.047002 -1229830.000000 0 0 1
26.586100 -28.611831 12.387262 40.974405 -0.822081 1.263674 0.056912 -0.044684 -591602.000000 0 0 1
27.572300 -27.782131 12.876562 41.205393 -0.789189 1.252976 0.056713 -0.051445 -268849.000000 0 0 1
28.686600 -27.755231 11.987762 41.677096 -0.768898 1.279041 0.048557 -0.048918 1043040.000000 0 0 1
30.075500 -27.172731 12.559862 42.433986 -0.734737 1.270309 0.091376 -0.061344 1408370.000000 0 0 1
30.240400 -25.816831 12.814462 41.775603 -0.706650 1.259025 0.105045 -0.060120 -423676.000000 0 0 1
29.480500 -25.332531 13.865162 41.268386 -0.709867 1.228156 0.111641 -0.057257 -424382.000000 0 0 1
30.290700 -25.050931 15.171362 42.133667 -0.690999 1.202446 0.120238 -0.040741 176432.000000 0 0 1
30.654700 -26.286531 15.794462 43.360781 -0.708834 1.197962 0.122990 -0.045226 -129903.000000 0 0 1
31.271700 -26.038531 17.029762 44.112777 -0.694338 1.174450 0.133744 -0.023811 -87618.700000 0 0 1
31.671200 -27.270131 17.824662 45.436148 -0.710868 1.167664 0.127597 -0.009822 -485555.000000 0 0 1
30.585500 -28.011831 18.301762 45.333100 -0.741505 1.155220 0.096033 -0.019164 -606031.000000 0 0 1
30.807600 -28.999931 19.285862 46.497835 -0.755183 1.143107 0.123155 -0.024219 -384438.000000 0 0 1
29.560200 -29.809531 19.653662 46.353856 -0.789598 1.132948 0.098294 -0.014495 -872220.000000 0 0 1
28.600900 -29.103031 20.466662 45.649558 -0.794100 1.105886 0.101688 -0.016724 1234420.000000 0 0 1
27.463300 -29.889231 20.879762 45.646067 -0.827672 1.095696 0.122562 -0.021394 903875.000000 0 0 1
26.535100 -30.447331 19.766862 44.965324 -0.853947 1.115640 0.119509 -0.029492 -1466320.000000 0 0 1
27.008900 -31.608031 19.112162 45.758311 -0.863699 1.139910 0.098817 -0.020454 123932.000000 0 0 1
26.405900 -31.934431 17.858662 45.122181 -0.879879 1.163874 0.107786 -0.021076 -338094.000000 0 0 1
26.706800 -30.916731 16.756962 44.157595 -0.858328 1.181561 0.099489 -0.024688 872243.000000 0 0 1
28.086700 -31.023531 16.346362 44.928006 -0.835041 1.198415 0.108516 -0.032705 907738.000000 0 0 1
28.573400 -29.947431 15.632562 44.245506 -0.808873 1.209685 0.104776 -0.050593 -1718260.000000 0 0 1
30.042200 -30.046431 15.386662 45.189281 -0.785469 1.223354 0.131496 -0.043907 -1403770.000000 0 0 1
30.474700 -30.949531 14.385262 45.754962 -0.793128 1.250974 0.150038 -0.041461 238071.000000 0 0 1
30.722700 -32.265331 14.869562 46.968497 -0.809884 1.248668 0.164057 -0.043745 37861.000000 0 0 1
29.679500 -33.344231 14.414762 46.909443 -0.843481 1.258453 0.152466 -0.043117 273127.000000 0 0 1
29.847300 -33.557931 13.001762 46.755127 -0.843854 1.288999 0.150096 -0.039462 465429.000000 0 0 1
29.105300 32.985713 12.536762 45.742170 0.847813 1.293169 0.123943 -0.046183 -121072.000000 0 0 1
29.398900 32.761913 11.045062 45.383165 0.839447 1.324954 0.127424 -0.048453 91734.400000 0 0 1
30.698300 32.228413 10.856462 45.813961 0.809709 1.331552 0.112997 -0.033417 304039.000000 0 0 1
30.816000 31.536513 9.598062 45.125384 0.796953 1.356461 0.113486 -0.036493 -328630.000000 0 0 1
32.218000 30.960213 9.375962 45.655700 0.765492 1.363962 0.090486 -0.028733 -206472.000000 0 0 1
32.550800 29.963113 10.352062 45.436856 0.744028 1.340944 0.090885 -0.025478 302217.000000 0 0 1
33.928800 29.640213 10.258162 46.205363 0.718037 1.346918 0.089173 -0.021834 216009.000000 0 0 1
34.449800 28.729013 11.421462 46.288170 0.695095 1.321474 0.083070 -0.023507 111988.000000 0 0 1
34.136300 27.360513 11.279662 45.178705 0.675660 1.318459 0.087499 -0.033741 122758.000000 0 0 1
34.627800 26.680113 12.409762 45.441337 0.656482 1.294188 0.097208 -0.041698 -95934.900000 0 0 1
34.392800 25.166413 12.260862 44.345707 0.631709 1.290663 0.096604 -0.046432 75177.100000 0 0 1
35.254500 24.515713 11.331962 44.410734 0.607627 1.312780 0.105046 -0.040128 -74764.400000 0 0 1
35.228300 23.109413 11.363862 43.637317 0.580575 1.307343 0.105248 -0.041073 -452278.000000 0 0 1
33.997900 22.335613 10.888762 42.110592 0.581260 1.309249 0.091632 -0.036327 743023.000000 0 0 1
32.780100 22.606413 11.602362 41.475290 0.603738 1.287271 0.102737 -0.041502 861786.000000 0 0 1
31.584000 22.406913 10.878362 40.223843 0.617033 1.296940 0.099596 -0.039896 665345.000000 0 0 1
30.287200 22.222013 11.718262 39.350349 0.632994 1.268416 0.102448 -0.038052 431584.000000 0 0 1
29.889200 23.396713 12.466562 39.952292 0.664153 1.253461 0.113158 -0.037895 228390.000000 0 0 1
28.581900 23.112613 12.939062 38.968413 0.679990 1.232331 0.153232 -0.028095 -144912.000000 0 0 1
24.698300 9.223213 24.831200 36.216877 0.357398 0.815334 0.070150 -0.025653 -565130.000000 0 0 1
24.675300 8.057713 25.538980 36.414787 0.315633 0.793527 0.075890 -0.028457 385496.000000 0 0 1
23.349000 7.687413 25.884120 35.696776 0.318062 0.759601 0.041794 -0.022871 -242365.000000 0 0 1
23.355600 6.393713 26.803300 36.121746 0.267208 0.734708 0.057342 -0.021133 -92171.800000 0 0 1
23.854600 6.361613 28.140010 37.434907 0.260618 0.720153 0.044182 -0.015785 453159.000000 0 0 1
25.229600 6.656813 28.338220 38.521430 0.257970 0.744173 0.046833 -0.018086 78439.800000 0 0 1
25.569900 6.559313 29.825620 39.829788 0.251110 0.724506 0.060530 -0.028815 -395057.000000 0 0 1
25.151600 7.592513 30.634480 40.357411 0.293171 0.708898 0.083551 -0.032361 17059.100000 0 0 1
25.350200 7.240913 31.963077 41.433100 0.278227 0.689698 0.074501 -0.030094 65102.500000 0 0 1
25.444500 8.417513 32.960770 42.481637 0.319486 0.682683 0.134370 -0.032037 974453.000000 0 0 1
26.671200 9.174513 32.868362 43.311128 0.331307 0.709190 0.099388 -0.037862 522395.000000 0 0 1
26.784300 9.941713 -33.335828 43.903460 0.355415 2.433031 0.118715 -0.036700 369521.000000 0 0 1
28.093500 10.776113 -33.316778 44.892951 0.366272 2.407051 0.109732 -0.040269 46470.300000 0 0 1
28.096600 11.989713 33.380670 45.248661 0.403337 0.741115 0.118367 -0.048566 317742.000000 0 0 1
27.314100 12.957813 -33.381038 45.036193 0.442959 2.405660 0.100382 -0.039231 -80879.300000 0 0 1
27.121700 14.319913 33.310411 45.279466 0.485786 0.744152 0.093866 -0.038184 -266260.000000 0 0 1
28.316300 15.045813 33.081274 46.071250 0.488410 0.769806 0.084720 -0.039805 88972.900000 0 0 1
28.120000 16.423613 32.869747 46.269750 0.528612 0.780739 0.096148 -0.036246 -103271.000000 0 0 1
28.435600 17.298013 -33.345408 47.113914 0.546516 2.357121 0.088080 -0.045686 -121983.000000 0 0 1
27.662100 16.945213 -32.195078 45.703994 0.549617 2.352410 0.099333 -0.047856 286245.000000 0 0 1
28.489000 16.307913 -31.267428 45.334570 0.519900 2.331876 0.095333 -0.050555 -303268.000000 0 0 1
27.722500 15.644313 -30.108778 43.815751 0.513770 2.328380 0.100267 -0.033166 -322283.000000 0 0 1
27.041600 14.506413 -30.535918 43.291182 0.492379 2.353729 0.106977 -0.021527 -244814.000000 0 0 1
26.162400 14.022113 -29.555518 41.888178 0.492003 2.354040 0.140104 -0.027616 -201887.000000 0 0 1
25.382400 12.797513 -30.069148 41.378693 0.466993 2.384276 0.136840 -0.023578 -597315.000000 0 0 1
24.375800 13.174813 -30.971038 41.556715 0.495511 2.411738 0.139206 -0.032852 156084.000000 0 0 1
23.623200 12.151113 -31.637808 41.311694 0.475079 2.443130 0.123696 -0.025276 1298130.000000 0 0 1
22.375400 11.709713 -30.758568 39.797807 0.482137 2.454149 0.113116 -0.017053 5954.080000 0 0 1
21.252200 12.508913 -30.621668 39.316860 0.531990 2.463616 0.146671 -0.022313 -114850.000000 0 0 1
20.349200 11.897313 -29.715928 37.929835 0.529062 2.470986 0.139484 -0.008049 247232.000000 0 0 1
19.169200 12.744213 -29.147688 37.141095 0.586728 2.473142 0.102626 0.012506 -202701.000000 0 0 1
18.208100 12.894113 -30.132138 37.493184 0.616177 2.504233 0.075707 0.013356 -160674.000000 0 0 1
17.075900 13.575313 -29.569788 36.745719 0.671684 2.505990 0.066568 0.004088 -649018.000000 0 0 1
16.107100 14.016613 -30.661968 37.363892 0.716113 2.533311 0.065067 0.002960 -405886.000000 0 0 1
15.394500 13.014313 -31.398788 37.312825 0.701810 2.570852 0.062382 -0.005671 -16249.300000 0 0 1
14.178300 12.791213 -30.723328 36.174055 0.734012 2.585491 0.062426 -0.011069 -1026050.000000 0 0 1
13.239300 11.811213 -31.381648 36.049850 0.728452 2.627028 0.079008 -0.016189 -382544.000000 0 0 1
12.430300 12.405013 -32.338838 36.799418 0.784380 2.644110 0.097659 -0.014943 -215231.000000 0 0 1
11.584000 11.566013 -33.082268 36.910679 0.784621 2.682103 0.106223 -0.014671 449861.000000 0 0 1
10.916600 12.281013 33.157808 37.005887 0.844147 0.460086 0.124723 -0.021704 473532.000000 0 0 1
11.924900 12.425713 32.177116 36.496142 0.805962 0.491432 0.104387 -0.011718 444971.000000 0 0 1
11.331500 12.913113 30.993950 35.436935 0.850542 0.506139 0.125059 -0.033255 -359269.000000 0 0 1
12.230800 13.029713 29.758330 34.712017 0.817015 0.540810 0.128475 -0.035420 -413965.000000 0 0 1
12.677400 11.759313 29.387170 34.096975 0.747846 0.531850 0.119087 -0.034993 30977.000000 0 0 1
12.700200 11.590813 27.952490 32.817430 0.739759 0.551466 0.148320 -0.031774 -153222.000000 0 0 1
13.318700 10.232113 27.548150 32.264291 0.655080 0.547501 0.155537 -0.037535 -346465.000000 0 0 1
12.590400 9.091213 27.932230 31.959002 0.625388 0.507418 0.154876 -0.043941 38359.200000 0 0 1
13.098100 7.881013 27.400890 31.376414 0.541662 0.508870 0.119380 -0.041940 -366866.000000 0 0 1
12.221100 6.658713 27.679380 30.981314 0.498884 0.465891 0.127170 -0.037471 -813040.000000 0 0 1
10.992000 6.643413 27.049370 29.943738 0.543638 0.443303 0.136462 -0.042337 119619.000000 0 0 1
10.028100 5.582113 27.331150 29.643120 0.507932 0.397565 0.128022 -0.040143 1183000.000000 0 0 1
10.575700 4.144313 27.030450 29.320062 0.373479 0.397815 0.116556 -0.034819 -316876.000000 0 0 1
11.560800 3.596313 27.858700 30.375858 0.301589 0.409970 0.109296 -0.032284 35746.000000 0 0 1
12.063100 2.374513 27.344100 29.980936 0.194356 0.422542 0.070463 -0.026893 -170238.000000 0 0 1
12.372900 1.310813 28.424410 31.028277 0.105549 0.412601 0.065804 -0.018642 295627.000000 0 0 1
11.204700 0.817613 29.084860 31.179206 0.072841 0.368611 0.046579 -0.016698 462793.000000 0 0 1
11.497200 -0.283487 29.928250 32.061911 -0.024652 0.366878 0.048767 -0.023872 683544.000000 0 0 1
10.360600 -0.345887 31.010540 32.697328 -0.033372 0.322607 0.065224 -0.021390 574225.000000 0 0 1
10.654700 0.823913 31.787288 33.535551 0.077175 0.324318 0.051359 -0.022118 59018.600000 0 0 1
9.550400 1.167313 32.577029 33.968156 0.121623 0.287181 0.064815 -0.021415 -392886.000000 0 0 1
9.693900 2.425013 33.438930 34.900064 0.245128 0.290385 0.068442 -0.030244 -295216.000000 0 0 1
9.643700 3.686313 32.851156 34.435277 0.365112 0.304499 0.057861 -0.027964 -367402.000000 0 0 1
10.642400 3.986013 31.931661 33.893657 0.358368 0.341918 0.066309 -0.028753 -751603.000000 0 0 1
10.614200 5.349313 31.237340 33.422265 0.466824 0.363588 0.078461 -0.039469 -94306.000000 0 0 1
11.253200 6.313313 32.027484 34.529005 0.511267 0.382986 0.082294 -0.041873 -49915.500000 0 0 1
11.582700 7.526813 31.265960 34.181459 0.576257 0.416018 0.097044 -0.035678 -261750.000000 0 0 1
11.549600 8.761913 32.184866 35.299150 0.649004 0.423212 0.126440 -0.043493 629283.000000 0 0 1
10.280700 9.136313 32.740256 35.511821 0.726529 0.397701 0.134548 -0.043444 591156.000000 0 0 1
9.632800 8.243613 33.627740 35.938460 0.707843 0.360549 0.121437 -0.049126 -787426.000000 0 0 1
8.281900 8.732613 -33.334378 35.440502 0.811882 2.795110 0.128192 -0.053451 -587028.000000 0 0 1
7.558200 7.731613 -32.677218 34.419541 0.796739 2.822052 0.130409 -0.046800 -835228.000000 0 0 1
6.270400 8.159213 -32.383358 33.979002 0.915557 2.833918 0.124102 -0.052423 -516716.000000 0 0 1
5.739500 7.426713 -31.142338 32.526038 0.912851 2.848859 0.123766 -0.036033 -638327.000000 0 0 1
6.452300 7.809513 -30.004418 31.668372 0.880277 2.815986 0.127354 -0.039769 -11172.600000 0 0 1
6.039200 7.333113 -28.705188 30.236308 0.881859 2.821994 0.126364 -0.036294 1524430.000000 0 0 1
4.569500 7.803113 -28.233988 29.646703 1.041033 2.831641 0.111901 -0.033803 1040380.000000 0 0 1
3.525000 7.200213 -28.919218 30.009830 1.115528 2.871170 0.107149 -0.030563 -1268420.000000 0 0 1
2.363700 7.642913 -28.287768 29.397262 1.270860 2.865980 0.144703 -0.021465 -384808.000000 0 0 1
1.079000 6.871913 -28.690198 29.521431 1.415052 2.903727 0.145523 -0.034354 44632.900000 0 0 1
0.640700 7.386813 -29.956308 30.860264 1.484277 2.898957 0.122625 -0.037640 -105521.000000 0 0 1
0.202500 6.467813 -30.882908 31.553568 1.539498 2.935048 0.152164 -0.035425 -660575.000000 0 0 1
-0.200800 7.169313 -32.181198 32.970728 -1.542795 2.922309 0.158002 -0.047161 137644.000000 0 0 1
0.788000 7.920013 -32.908278 33.857087 1.471628 2.904292 0.113554 -0.038869 498609.000000 0 0 1
1.914700 7.201213 -33.412468 34.233267 1.310923 2.922170 0.124836 -0.047596 264262.000000 0 0 1
1.773300 6.677213 32.626295 33.349736 1.311214 0.208669 0.156388 -0.057554 253833.000000 0 0 1
0.667300 5.771713 32.547076 33.061611 1.455692 0.176655 0.155123 -0.050564 26773.000000 0 0 1
0.346700 5.458213 31.222530 31.697929 1.507363 0.173409 0.166868 -0.045345 114615.000000 0 0 1
1.318900 4.532913 30.441650 30.805533 1.287653 0.153854 0.175920 -0.041654 234580.000000 0 0 1
0.902400 4.212213 29.106430 29.423483 1.359752 0.146935 0.149372 -0.041461 57607.200000 0 0 1
1.902700 3.457513 28.453190 28.725576 1.067716 0.137821 0.128423 -0.031754 -208144.000000 0 0 1
1.833200 3.623913 26.918200 27.222838 1.102470 0.149743 0.119379 -0.024296 10255.400000 0 0 1
2.405700 4.836713 26.517750 27.062377 1.109244 0.200961 0.115428 -0.027985 -69529.500000 0 0 1
2.291600 5.104713 25.114200 25.729994 1.148842 0.219221 0.085328 -0.027783 -342769.000000 0 0 1
2.491900 6.622113 24.705190 25.698412 1.210887 0.278929 0.078357 -0.019316 450324.000000 0 0 1
3.853100 7.037713 24.777440 26.044142 1.069880 0.313165 0.082346 -0.015283 77345.100000 0 0 1
4.476900 6.903313 23.530990 24.928014 0.995466 0.336374 0.094296 -0.026264 -626155.000000 0 1 0
5.988200 7.187213 23.495860 25.289722 0.876152 0.378912 0.101163 -0.028904 372051.000000 0 0 1
6.965700 6.462313 24.245560 26.040923 0.747928 0.373500 0.120302 -0.030533 448421.000000 0 0 1
6.948400 5.060113 24.228130 25.707729 0.629430 0.340926 0.120421 -0.033180 -919445.000000 0 0 1
7.267000 4.297013 22.924750 24.429854 0.534002 0.352852 0.107916 -0.035159 350952.000000 0 1 0
6.245900 4.388413 21.945120 23.234839 0.612474 0.334751 0.093912 -0.039914 441804.000000 0 1 0
5.028900 3.684913 22.167420 23.027439 0.632368 0.274162 0.080702 -0.030576 479166.000000 0 1 0
3.847600 3.868513 21.174220 21.865887 0.788109 0.252192 0.040345 -0.022577 143462.000000 0 1 0
3.303600 5.175313 21.266620 22.135193 1.002663 0.281065 0.030831 -0.028454 -209274.000000 0 1 0
2.176300 5.185713 20.407720 21.168442 1.173447 0.268901 0.022174 -0.026472 -473916.000000 0 1 0
1.552100 6.581113 20.419820 21.510210 1.339187 0.319768 0.020419 -0.028396 -344358.000000 0 1 0
2.295000 7.606013 19.714320 21.254950 1.277749 0.383083 0.016004 -0.027381 -92942.400000 0 1 0
1.867200 8.941213 20.013020 21.998925 1.364924 0.428170 0.035698 -0.026404 195348.000000 0 1 0
2.851900 10.028913 19.537520 22.145590 1.293742 0.490217 0.045878 -0.034300 -1176340.000000 0 1 0
2.814100 10.209213 18.107420 20.976794 1.301832 0.529198 0.041069 -0.037859 -293107.000000 0 1 0
3.742700 11.183313 17.687020 21.258057 1.247845 0.588066 0.046903 -0.037956 699901.000000 0 1 0
5.268600 10.933413 17.957520 21.674183 1.121749 0.594335 0.056135 -0.036797 -248888.000000 0 1 0
5.694900 9.949713 17.045920 20.542446 1.050942 0.592065 0.055519 -0.036253 -532765.000000 0 1 0
7.021100 9.643613 17.389320 21.087522 0.941487 0.601255 0.054484 -0.029096 -334377.000000 0 1 0
7.282400 8.170613 17.903620 20.984087 0.842813 0.548707 0.070188 -0.030794 -91739.200000 0 1 0
6.610200 7.851213 19.159020 21.734865 0.871004 0.491792 0.079212 -0.034638 225144.000000 0 1 0
6.751000 6.518213 19.625420 21.753626 0.767857 0.446028 0.074398 -0.040768 1134770.000000 0 1 0
8.223800 6.039413 20.039520 22.487503 0.633431 0.470944 0.100121 -0.032928 1511890.000000 0 1 0
9.115100 6.137513 18.913120 21.873734 0.592605 0.526343 0.103865 -0.032711 344577.000000 0 1 0
10.446900 5.686213 19.216420 22.599592 0.498454 0.554242 0.110122 -0.030659 814140.000000 0 1 0
10.781300 4.183613 19.140420 22.362798 0.370157 0.543499 0.122821 -0.030761 -352528.000000 0 1 0
10.274800 3.406713 20.238020 22.951137 0.320154 0.491158 0.136077 -0.033908 205811.000000 0 1 0
10.483900 2.046213 20.073320 22.738455 0.192754 0.489024 0.135429 -0.047280 46793.300000 0 1 0
9.596200 1.235813 21.043220 23.160989 0.128077 0.430965 0.141211 -0.042743 23644.000000 0 1 0
9.950900 1.378113 22.416110 24.564234 0.137616 0.421318 0.125519 -0.033889 -424078.000000 0 1 0
9.197100 0.582613 23.213360 24.975712 0.063263 0.377911 0.127418 -0.043149 -837692.000000 0 1 0
9.726400 0.513813 24.716880 26.566728 0.052778 0.375376 0.118372 -0.036023 818107.000000 0 0 1
11.080700 0.047213 24.823470 27.184349 0.004261 0.419843 0.103196 -0.038414 764664.000000 0 0 1
11.304700 -1.329387 24.541230 27.052458 -0.117058 0.434283 0.098580 -0.040124 774940.000000 0 0 1
12.808500 -1.802087 24.714370 27.894539 -0.139777 0.482165 0.080548 -0.036530 1196330.000000 0 0 1
12.894000 -3.190887 24.471260 27.843843 -0.242597 0.497297 0.092613 -0.029411 951020.000000 0 0 1
14.241600 -3.635487 24.734960 28.772525 -0.249935 0.536167 0.094853 -0.028463 818705.000000 0 0 1
14.415800 -5.173587 24.896440 29.230361 -0.344566 0.551514 0.101484 -0.029213 -170641.000000 0 0 1
14.109500 -5.772887 23.652190 28.139480 -0.388368 0.572528 0.120032 -0.041875 251528.000000 0 0 1
13.664500 -7.103487 23.869070 28.406172 -0.479401 0.573001 0.135043 -0.048385 24396.000000 0 0 1
13.593700 -7.994887 22.628970 27.582190 -0.531647 0.608652 0.160460 -0.053760 6925.560000 0 0 1
12.822600 -9.127687 22.891070 27.780116 -0.618631 0.602345 0.155282 -0.043271 -166793.000000 0 0 1
12.789400 -9.933887 21.726220 27.097592 -0.660389 0.640534 0.149889 -0.040613 280655.000000 0 0 1
12.068000 -11.322087 21.848420 27.407658 -0.753519 0.648212 0.158026 -0.034543 -321087.000000 0 0 1
10.674100 -11.277487 21.875020 26.826007 -0.812878 0.617306 0.134290 -0.029681 -735108.000000 0 0 1
10.167900 -12.591987 22.142020 27.426509 -0.891505 0.631197 0.125240 -0.026951 -395405.000000 0 0 1
8.679400 -12.479387 22.476460 27.134081 -0.963098 0.594644 0.099014 -0.019527 -74460.700000 0 0 1
7.933400 -11.930087 21.348520 25.710409 -0.983955 0.591069 0.093524 -0.019171 -166693.000000 0 0 1
6.582000 -11.823487 21.708020 25.580377 -1.062832 0.557425 0.074247 -0.018811 137896.000000 0 0 1
5.712300 -10.742487 21.026420 24.292833 -1.082074 0.524569 0.062085 -0.020502 271624.000000 0 1 0
6.007100 -9.428087 21.523920 24.253932 -1.003508 0.479034 0.073593 -0.017945 -167409.000000 0 1 0
5.080200 -8.416587 21.123420 23.299061 -1.027739 0.435590 0.053815 -0.015857 88204.500000 0 1 0
5.514800 -7.033487 21.484420 23.269363 -0.905840 0.394231 0.075145 -0.029940 -136830.000000 0 1 0
4.643500 -5.985487 21.112720 22.430673 -0.910991 0.344503 0.050628 -0.029546 -311484.000000 0 1 0
5.108600 -4.742387 21.571620 22.669866 -0.748240 0.312543 0.084249 -0.042229 -39904.400000 0 1 0
-8.655300 -15.104387 -20.556438 26.937407 1.050442 2.438922 0.097672 -0.014337 39357.600000 0 0 1
-7.817700 -14.851087 -19.449238 25.689377 1.086248 2.429648 0.071544 -0.010774 128642.000000 0 0 1
-7.044100 -13.669187 -19.587938 24.902878 1.094962 2.476036 0.082955 -0.020402 248496.000000 0 1 0
-6.302900 -13.298787 -18.268438 23.458903 1.128209 2.463455 0.064284 -0.027207 295827.000000 0 1 0
-5.355000 -14.301887 -17.899338 23.528840 1.212529 2.435249 0.059881 -0.018059 358042.000000 0 1 0
-4.611400 -13.855787 -16.757138 22.227225 1.249513 2.424777 0.054722 -0.020221 261510.000000 0 1 0
-3.488200 -14.847787 -16.371338 22.375098 1.340050 2.391575 0.047196 -0.005267 462986.000000 0 1 0
-2.235700 -14.654487 -17.057238 22.598711 1.419403 2.426127 0.046749 -0.016590 355715.000000 0 1 0
-1.369000 -15.594387 -16.416238 22.683737 1.483233 2.379946 0.052497 -0.010545 -783794.000000 0 1 0
-0.051700 -15.681887 -17.164138 23.249342 1.567500 2.401288 0.064620 -0.007266 -590543.000000 0 1 0
-0.058500 -16.475487 -18.355738 24.665324 1.567246 2.410121 0.095791 -0.023144 -264158.000000 0 1 0
-0.272400 -17.902087 -18.254938 25.569546 1.555581 2.365895 0.091215 -0.015017 -299679.000000 0 0 1
-0.544200 -18.475287 -19.607138 26.945728 1.541349 2.385690 0.111402 -0.033920 256282.000000 0 0 1
-1.884000 -18.212887 -20.027438 27.135899 1.467720 2.400961 0.134428 -0.036720 333174.000000 0 0 1
-2.035700 -18.466887 -21.409838 28.346978 1.461004 2.426874 0.148892 -0.044154 -171949.000000 0 0 1
-3.445100 -18.128987 -21.951638 28.677575 1.383003 2.442558 0.152527 -0.043360 227103.000000 0 0 1
-3.762600 -16.771487 -22.082138 27.983223 1.350105 2.480172 0.127995 -0.043048 -197686.000000 0 0 1
-3.926800 -15.998187 -20.856838 26.577612 1.330102 2.473092 0.104991 -0.032414 -516000.000000 0 0 1
-2.808800 -15.001787 -20.556438 25.602932 1.385708 2.502930 0.107044 -0.020015 -32990.600000 0 0 1
-2.887800 -13.909387 -21.441838 25.720864 1.366089 2.556455 0.097948 -0.020053 -366153.000000 0 0 1
-1.935200 -12.977887 -21.047638 24.802694 1.422772 2.584135 0.082355 -0.013657 -243466.000000 0 1 0
-1.851800 -11.715687 -21.993138 24.987689 1.414032 2.646993 0.093828 -0.021982 831473.000000 0 1 0
-3.064300 -10.952287 -22.154138 24.902778 1.297986 2.667320 0.095842 -0.022064 665395.000000 0 1 0
-2.996100 -10.408387 -23.423238 25.806186 1.290519 2.708471 0.117112 -0.016013 -27803.800000 0 0 1
-3.879800 -9.169087 -23.654238 25.664138 1.170503 2.743197 0.093471 -0.015956 4167.280000 0 0 1
-5.267700 -9.416687 -23.634838 25.981306 1.060764 2.713324 0.101627 -0.021720 204861.000000 0 0 1
-6.008300 -8.210287 -23.692138 25.784218 0.939044 2.735983 0.087798 -0.023993 376891.000000 0 0 1
-7.531000 -8.352087 -23.325938 25.895419 0.837048 2.692346 0.067034 -0.028141 737906.000000 0 0 1
-8.417400 -8.767987 -24.313638 27.182407 0.805796 2.678024 0.075472 -0.021137 35605.700000 0 0 1
-8.848800 -7.757887 -25.182258 27.796262 0.719801 2.704434 0.070047 -0.025727 -463025.000000 0 0 1
-9.728100 -8.122487 -26.380298 29.266549 0.695692 2.693744 0.057273 -0.029012 99101.200000 0 0 1
-10.551000 -7.096587 -26.903588 29.757154 0.592098 2.700077 0.069305 -0.038511 41438.900000 0 0 1
-11.122200 -7.611387 -28.096628 31.161789 0.600140 2.694337 0.061306 -0.032047 154353.000000 0 0 1
-12.085800 -6.687087 -28.923578 32.052411 0.505374 2.696066 0.051874 -0.037864 478157.000000 0 0 1
-11.497300 -5.434387 -29.328378 31.966768 0.441543 2.732456 0.034605 -0.026481 -9283.220000 0 0 1
-12.247100 -4.919287 -30.410808 33.151291 0.381945 2.732128 0.050853 -0.026970 33404.600000 0 0 1
-11.613100 -3.656587 -31.136868 33.432608 0.305040 2.768851 0.053228 -0.030290 -325746.000000 0 0 1
-10.459900 -4.021587 -31.845638 33.759848 0.367053 2.803229 0.048676 -0.024360 -194739.000000 0 0 1
-10.103300 -3.065987 -32.844178 34.499522 0.294632 2.830561 0.052302 -0.027651 -115030.000000 0 0 1
-9.001500 -3.576687 33.672070 35.037523 0.378214 0.280096 0.045326 -0.026347 -168309.000000 0 0 1
-7.692400 -3.528587 -33.279648 34.338884 0.430074 2.892569 0.045699 -0.032547 85072.600000 0 0 1
-6.732900 -3.819287 33.137960 34.030036 0.515996 0.229476 0.035397 -0.028876 991814.000000 0 0 1
-5.259200 -3.703987 33.646450 34.255836 0.613597 0.188903 0.091836 -0.043897 469047.000000 0 0 1
-4.897600 -2.346887 33.701040 34.135824 0.446862 0.159775 0.128459 -0.054800 -80597.800000 0 0 1
-3.493000 -2.179787 -33.722308 33.972733 0.557912 3.020098 0.142266 -0.054845 137393.000000 0 0 1
-3.202500 -0.789287 -33.170208 33.333792 0.241644 3.042482 0.152571 -0.056824 -39668.400000 0 0 1
-3.678100 -0.656587 -31.822558 32.041141 0.176652 3.024719 0.158141 -0.054238 95390.000000 0 0 1
-3.966400 0.691513 -31.512178 31.768348 -0.172608 3.014514 0.185277 -0.060538 -615592.000000 0 0 1
-4.516200 0.921713 -30.062648 30.413951 -0.201326 2.989454 0.179486 -0.067943 197663.000000 0 0 1
-5.750100 0.286313 -29.859328 30.409293 -0.049752 2.951119 0.153878 -0.064542 -382861.000000 0 0 1
-6.868200 1.067713 -30.199658 30.989217 -0.154223 2.915374 0.146372 -0.067321 -915661.000000 0 0 1
-8.130800 0.242013 -30.392388 31.462132 -0.029756 2.880076 0.122182 -0.066723 -719435.000000 0 0 1
-8.583800 -0.281987 -29.199658 30.436511 0.032839 2.855532 0.119050 -0.046776 35334.800000 0 0 1
-9.757500 -1.062687 -29.377098 30.973408 0.108482 2.819143 0.066547 -0.036739 205734.000000 0 0 1
-9.940400 -2.101987 -28.313518 30.081310 0.208389 2.797058 0.066990 -0.037651 15491.500000 0 0 1
-10.563700 -1.544687 -27.145188 29.169146 0.145197 2.766881 0.068261 -0.034406 302176.000000 0 0 1
-10.619500 -2.469987 -26.030858 28.221981 0.228527 2.744945 0.062066 -0.035584 127409.000000 0 0 1
-11.414800 -1.828587 -24.845138 27.402961 0.158845 2.706092 0.067361 -0.031517 240671.000000 0 0 1
-10.778600 -0.731887 -24.197838 26.499986 0.067798 2.721685 0.065684 -0.032600 81766.400000 0 0 1
-11.684800 -0.022287 -23.372538 26.130645 0.001907 2.677995 0.085470 -0.045597 21065.800000 0 0 1
-11.130400 1.271513 -22.724438 25.335798 -0.113745 2.683573 0.091428 -0.045668 4230.380000 0 0 1
-10.810900 2.331813 -23.585738 26.049951 -0.212436 2.703127 0.078148 -0.048375 -507087.000000 0 0 1
-10.023300 3.228713 -22.924438 25.227386 -0.311626 2.710985 0.071679 -0.043707 -761116.000000 0 0 1
-9.705000 4.508413 -23.809838 26.104046 -0.434884 2.719205 0.097347 -0.047264 -146558.000000 0 0 1
-10.806400 5.398713 -23.939638 26.814747 -0.463315 2.674273 0.114853 -0.044896 157882.000000 0 0 1
-11.465100 5.060913 -25.164498 28.112512 -0.415695 2.679531 0.103921 -0.040460 666842.000000 0 0 1
-12.987700 5.335313 -25.417218 29.037578 -0.389780 2.636897 0.106715 -0.023416 863840.000000 0 0 1
-13.248400 6.694413 -25.692588 29.672283 -0.467878 2.617700 0.094587 -0.023619 -170845.000000 0 0 1
-14.608300 6.928813 -25.972928 30.594181 -0.442882 2.584791 0.110716 -0.025609 -22438.100000 0 0 1
-14.936700 8.433613 -26.223408 31.335252 -0.514001 2.562329 0.121107 -0.015377 -70108.600000 0 0 1
-14.933300 9.187413 -25.011638 30.544952 -0.551543 2.530196 0.163137 -0.027679 222293.000000 0 0 1
-15.088100 10.593313 -25.196968 31.221087 -0.612132 2.509935 0.143997 -0.025074 -3196.280000 0 0 1
-14.851200 11.469113 -23.917838 30.400028 -0.657601 2.476355 0.152653 -0.032205 671279.000000 0 0 1
-15.926200 11.311813 -22.977038 30.158668 -0.617582 2.436994 0.175088 -0.032255 536646.000000 0 0 1
-15.547700 11.870013 -21.754338 29.255417 -0.652059 2.409235 0.162201 -0.031568 10557.400000 0 0 1
-16.581800 11.756013 -20.605838 28.944093 -0.616721 2.363023 0.161100 -0.034002 95093.700000 0 0 1
-17.817200 12.387013 -20.861838 30.101612 -0.607516 2.336504 0.136003 -0.030973 178156.000000 0 0 1
-18.427600 12.762113 -19.625438 29.792714 -0.605711 2.289930 0.117967 -0.024405 61402.400000 0 0 1
-19.890100 13.255813 -19.707538 30.979344 -0.587855 2.260296 0.111282 -0.028704 4752.870000 0 0 1
-20.108800 14.466213 -20.392938 32.085933 -0.623626 2.259546 0.093291 -0.031338 729024.000000 0 0 1
-21.473000 14.892413 -20.306038 33.093941 -0.606378 2.231393 0.073044 -0.030047 738868.000000 0 0 1
-21.856500 16.238213 -21.084538 34.437537 -0.638972 2.229705 0.081459 -0.024654 93149.400000 0 0 1
-21.694900 16.032813 -22.480838 35.115636 -0.636432 2.265548 0.085730 -0.020351 201599.000000 0 0 1
-22.000500 17.254513 -23.157938 36.304688 -0.665081 2.262535 0.078675 -0.006966 -32497.400000 0 0 1
-21.572700 17.218613 -24.658738 37.012368 -0.673622 2.299938 0.072819 0.001139 -74853.000000 0 0 1
-20.184400 17.103113 -24.887638 36.322459 -0.702950 2.325655 0.068348 -0.009368 -4053.700000 0 0 1
-19.921800 16.748413 -26.219808 36.944090 -0.699075 2.359891 0.045568 -0.012973 45491.600000 0 0 1
-19.349200 17.874713 -27.128168 37.813152 -0.745808 2.370898 0.025785 0.000581 -282579.000000 0 0 1
-20.292600 18.909713 -27.253208 38.885785 -0.750137 2.347389 0.030668 -0.004583 572695.000000 0 0 1
-19.635100 20.185513 -27.263878 39.195805 -0.799220 2.340025 0.010214 -0.001930 -782474.000000 0 0 1
-20.674000 21.310413 -27.339128 40.360574 -0.800555 2.314981 0.063832 -0.012755 -202229.000000 0 0 1
-21.499700 21.559013 -26.224888 40.184237 -0.786776 2.281829 0.089520 -0.011717 199473.000000 0 0 1
-22.582900 20.633313 -26.277018 40.326204 -0.740316 2.280503 0.123870 -0.016574 -1112540.000000 0 0 1
-23.575900 20.855313 -25.130008 40.277593 -0.724243 2.244546 0.146155 -0.001068 71944.900000 0 0 1
-23.084100 20.550213 -23.786238 38.999642 -0.727392 2.226742 0.117904 -0.001988 585117.000000 0 0 1
-24.094300 20.944413 -22.853338 39.261671 -0.715575 2.192078 0.109850 -0.010517 566573.000000 0 0 1
-23.721600 20.343413 -21.469438 37.914451 -0.708884 2.172758 0.108391 -0.012074 467865.000000 0 0 1
-22.701100 21.037113 -20.754938 37.264830 -0.747372 2.161515 0.106234 -0.014389 342314.000000 0 0 1
-21.837600 20.235913 -19.947638 35.836870 -0.747348 2.161112 0.091272 -0.012469 43464.100000 0 0 1
-22.423400 19.539413 -18.678338 35.120904 -0.716779 2.131556 0.103194 -0.026213 -1271570.000000 0 0 1
-23.312400 18.496113 -18.981738 35.297034 -0.670705 2.138588 0.127030 -0.032688 231745.000000 0 0 1
-24.058600 18.071813 -17.808338 34.964891 -0.644242 2.105191 0.125661 -0.033760 831040.000000 0 0 1
-25.253240 19.030713 -17.446038 36.114518 -0.645798 2.074960 0.117915 -0.028346 -469021.000000 0 0 1
-26.387550 18.967213 -18.276638 37.283958 -0.623228 2.083117 0.115733 -0.022654 -359623.000000 0 0 1
-27.344660 19.830013 -17.763438 38.164114 -0.627431 2.054938 0.098051 -0.017523 -794669.000000 0 0 1
-28.761760 19.728613 -18.424038 39.444926 -0.601222 2.056785 0.058196 0.004842 508851.000000 0 0 1
-29.478270 18.550513 -18.099038 39.251308 -0.561682 2.050038 0.044841 -0.002288 230415.000000 0 0 1
-29.970060 18.535913 -16.765138 39.023768 -0.553898 2.014861 0.052688 0.001329 -901912.000000 0 0 1
-30.922750 17.387613 -16.360338 39.066690 -0.512231 2.002897 0.043664 0.001215 -22796.900000 0 0 1
-30.349530 16.101613 -16.579638 38.147613 -0.487779 2.020410 0.076199 -0.014985 660804.000000 0 0 1
-31.264580 15.081713 -16.175138 38.295785 -0.449460 2.006859 0.072801 -0.010672 415603.000000 0 0 1
-30.486910 14.073513 -15.321438 36.908833 -0.432479 1.998866 0.135121 -0.008642 -113887.000000 0 0 1
-29.815770 14.658813 -14.205238 36.133776 -0.456942 1.974829 0.163730 -0.012082 -88455.400000 0 0 1
-30.416700 14.623413 -12.947738 36.147805 -0.448145 1.937124 0.121038 -0.002460 -277056.000000 0 0 1
-29.628100 15.511113 -11.970938 35.520731 -0.482292 1.914539 0.157499 -0.011599 29651.900000 0 0 1
-29.784770 16.919013 -12.054838 36.313974 -0.516590 1.909178 0.166289 -0.010182 324949.000000 0 0 1
-30.850880 17.521313 -11.293038 37.233130 -0.516509 1.878957 0.105538 -0.006509 494427.000000 0 0 1
-30.774070 19.093313 -11.355638 37.954559 -0.555310 1.874640 0.190745 -0.012425 -816928.000000 0 0 1
-29.709300 19.536813 -10.593038 37.101780 -0.581699 1.860338 0.121027 -0.023013 -419675.000000 0 0 1
-29.397810 20.894013 -10.819338 37.654337 -0.617893 1.862238 0.081762 -0.023509 -592315.000000 0 0 1
-27.974910 21.306313 -10.475238 36.691759 -0.650898 1.860317 0.144279 -0.024566 -475977.000000 0 0 1
-27.751300 22.710613 -10.332338 37.318411 -0.685838 1.851331 0.161508 -0.029969 233647.000000 0 0 1
-26.430270 23.014913 -9.883938 36.413427 -0.716434 1.845682 0.145227 -0.008560 9234.410000 0 0 1
-26.268600 24.487913 -9.420438 37.127374 -0.750330 1.827334 0.187091 -0.001143 19352.400000 0 0 1
-26.726760 24.717213 -8.105338 37.295534 -0.746355 1.789872 0.156440 -0.007712 -29452.100000 0 0 1
-28.129980 24.715813 -7.963738 38.283003 -0.720882 1.780349 0.199512 -0.021000 -327526.000000 0 0 1
-28.583500 24.297213 -6.543838 38.081398 -0.704519 1.743492 0.194474 -0.021113 -44631.100000 0 0 1
-28.605880 22.893513 -6.325638 37.180950 -0.674929 1.741759 0.207773 -0.037956 233674.000000 0 0 1
-29.011200 22.504313 -5.018538 37.057787 -0.659754 1.706638 0.159992 -0.033403 -451934.000000 0 0 1
-29.116460 20.978413 -4.850038 36.213049 -0.624352 1.705131 0.173763 -0.038496 134088.000000 0 0 1
-27.960570 20.135013 -4.825238 34.792171 -0.624103 1.709932 0.175135 -0.035394 385506.000000 0 0 1
-27.119420 20.110813 -5.967638 34.285864 -0.638081 1.745743 0.176314 -0.030259 -463853.000000 0 0 1
-27.644950 19.429413 -7.249838 34.558726 -0.612616 1.782149 0.189734 -0.033062 -436318.000000 0 0 1
-27.637750 18.031613 -7.085338 33.751835 -0.578079 1.782294 0.178031 -0.033553 293569.000000 0 0 1
-28.057400 17.361113 -8.237538 34.007102 -0.554108 1.815460 0.155844 -0.034755 -160133.000000 0 0 1
-27.856090 15.801913 -8.212538 33.062184 -0.516005 1.821821 0.197522 -0.034036 538006.000000 0 0 1
-28.889900 15.096713 -7.515638 33.451785 -0.481532 1.797401 0.171687 -0.025124 493431.000000 0 0 1
-28.593700 13.697713 -7.608938 32.605567 -0.446745 1.806331 0.192610 -0.037822 146707.000000 0 0 1
-29.619820 12.768813 -6.902638 32.985190 -0.407018 1.781619 0.159645 -0.032962 -262785.000000 0 0 1
-30.875530 12.798913 -7.528138 34.260523 -0.392971 1.792336 0.171341 -0.028245 -160854.000000 0 0 1
-31.830020 12.032913 -6.797938 34.700910 -0.361430 1.767972 0.181845 -0.037666 -36384.800000 0 0 1
-32.282550 10.727113 -7.449738 34.824311 -0.320810 1.786386 0.144620 -0.026085 182259.000000 0 0 1
-31.227060 9.776213 -7.656638 33.605472 -0.303403 1.800654 0.182641 -0.022658 515396.000000 0 0 1
-31.728650 8.679313 -8.406238 33.951474 -0.267016 1.820994 0.137685 -0.013925 234806.000000 0 0 1
-30.727710 7.507113 -8.647038 32.792075 -0.239617 1.837645 0.206198 -0.019888 29315.100000 0 0 1
-29.815090 7.713113 -9.692938 32.285984 -0.253148 1.875721 0.216701 -0.042987 84.566800 0 0 1
-28.801370 6.744313 -9.632038 31.109176 -0.230022 1.885590 0.243733 -0.053120 -76193.000000 0 0 1
-27.781960 6.702613 -10.810838 30.555467 -0.236734 1.932438 0.225233 -0.048336 695.435000 0 0 1
-27.024110 7.876913 -10.937538 30.198974 -0.283620 1.941405 0.256692 -0.046457 802630.000000 0 0 1
-26.068630 7.806013 -12.026338 29.751305 -0.290944 1.986932 0.227460 -0.031798 521884.000000 0 0 1
-33.449350 25.448013 -33.064998 53.476673 -0.650373 2.237383 0.081367 -0.013614 -184935.000000 0 0 1
-33.492720 26.833413 -33.349538 54.350585 -0.675455 2.231409 0.082654 -0.025246 215362.000000 0 0 1
-33.388340 27.082013 32.689371 54.007515 -0.681486 0.920686 0.068375 -0.030079 -130472.000000 0 0 1
-33.642050 28.516613 32.229943 54.623750 -0.703127 0.939694 0.088422 -0.040463 -44573.000000 0 0 1
-33.535070 28.782513 30.860840 53.901999 -0.709282 0.961201 0.102003 -0.043755 172677.000000 0 0 1
-33.601230 30.188513 30.676560 54.602567 -0.731950 0.974218 0.108898 -0.047142 -44364.600000 0 0 1
-33.256670 30.641813 29.256830 53.859901 -0.744499 0.996550 0.101205 -0.052887 -409658.000000 0 0 1
-31.903000 30.659213 28.923440 52.861651 -0.765520 0.991837 0.105082 -0.048867 -411613.000000 0 0 1
-31.581220 31.513213 27.846200 52.591510 -0.784320 1.012808 0.079443 -0.045774 -136997.000000 0 0 1
-30.088670 31.453313 27.474530 51.473185 -0.807569 1.007751 0.097612 -0.043397 -324485.000000 0 0 1
-29.783170 30.195813 26.893740 50.220490 -0.792278 1.005681 0.126655 -0.042303 411762.000000 0 0 1
-28.715850 30.235713 25.936170 49.106856 -0.811174 1.014367 0.094046 -0.031890 194919.000000 0 0 1
-29.078710 30.749513 24.499010 48.900976 -0.813318 1.046051 0.098077 -0.027257 -147394.000000 0 0 1
-29.074930 32.132513 24.414960 49.738720 -0.835311 1.057715 0.083043 -0.029831 389442.000000 0 0 1
-30.226200 32.694313 23.779080 50.477579 -0.824604 1.080279 0.093696 -0.032391 217776.000000 0 0 1
-30.468760 -33.537631 24.284380 51.408649 0.833308 1.078808 0.089713 -0.018138 -174091.000000 0 0 1
-30.851160 -33.541131 25.634340 52.286910 0.827149 1.058405 0.097031 -0.033237 59600.200000 0 0 1
-30.991100 -32.220031 26.119190 51.776354 0.804837 1.042038 0.079136 -0.027967 -172518.000000 0 0 1
-31.446010 -32.335331 27.568500 52.862533 0.799341 1.022173 0.082564 -0.029540 679082.000000 0 0 1
-32.768120 -32.864231 27.822450 54.110037 0.786863 1.030742 0.072416 -0.032628 848126.000000 0 0 1
-33.046810 -32.647631 29.196570 54.867105 0.779322 1.009679 0.069778 -0.035071 3723.140000 0 0 1
-34.519809 -32.963931 29.522230 56.123080 0.762347 1.016875 0.092047 -0.035854 41056.900000 0 0 1
-34.795673 -32.984531 30.867340 57.022021 0.758684 0.998786 0.102177 -0.040177 -709281.000000 0 0 1
-36.155740 -33.108831 31.146870 58.082354 0.741437 1.004804 0.101054 -0.038817 -520665.000000 0 0 1
-36.543320 -33.383031 32.604811 59.269847 0.740234 0.988303 0.121986 -0.018499 -74171.700000 0 0 1
-36.237840 32.960513 33.050625 59.092473 -0.738072 0.977251 0.116398 -0.020166 -58803.600000 0 0 1
-37.211080 32.420913 -33.545128 59.674582 -0.716714 2.167760 0.123137 -0.019962 90613.500000 0 0 1
-36.941710 30.990613 -33.195188 58.540828 -0.698018 2.173708 0.115772 -0.021758 742445.000000 0 0 1
-35.811969 30.745413 -32.338728 57.215128 -0.709422 2.171488 0.122631 -0.022013 213931.000000 0 0 1
-35.449120 29.362213 -32.193528 56.171193 -0.691756 2.181120 0.113177 -0.020715 209778.000000 0 0 1
-34.532496 29.148513 -30.956278 54.776092 -0.701053 2.171402 0.097219 -0.018289 -180888.000000 0 0 1
-35.055101 29.463913 -29.692468 54.576781 -0.698955 2.146052 0.114931 -0.027308 -488426.000000 0 0 1
-35.281420 30.838013 -29.368018 55.301376 -0.718296 2.130640 0.107932 -0.024010 -76864.900000 0 0 1
-36.256120 31.193413 -28.237498 55.541800 -0.710479 2.104123 0.096716 -0.021951 371686.000000 0 0 1
-35.777710 31.023213 -26.876808 54.450410 -0.714344 2.087022 0.077685 -0.030514 372959.000000 0 0 1
-36.957280 30.772513 -26.106788 54.720677 -0.694335 2.068139 0.106144 -0.027080 739839.000000 0 0 1
-36.663220 30.603413 -24.597838 53.719775 -0.695554 2.046419 0.102944 -0.033826 -74454.400000 0 0 1
-36.396750 31.822813 -23.890638 53.927521 -0.718451 2.029754 0.098330 -0.032152 -42746.500000 0 0 1
-36.211080 31.659913 -22.493638 53.099493 -0.718442 2.008227 0.094656 -0.033361 337887.000000 0 0 1
-37.483880 31.216813 -21.670138 53.377201 -0.694427 1.988849 0.076912 -0.020160 1895160.000000 0 0 1
37.144396 32.202213 -21.473438 53.645105 0.714251 1.982626 0.085175 -0.024631 1134760.000000 0 0 1
37.558826 33.324913 -20.726038 54.321119 0.725739 1.962265 0.090971 -0.028215 -382978.000000 0 0 1
37.786846 33.143213 -19.217738 53.811149 0.720024 1.935993 0.094862 -0.024847 4877.940000 0 0 1
-36.793040 32.337513 -18.988438 52.535734 -0.721036 1.940607 0.091238 -0.030921 -242760.000000 0 0 1
-36.635900 32.001513 -17.606238 51.732636 -0.717981 1.918066 0.092960 -0.027620 384958.000000 0 0 1
-35.245568 31.356513 -17.320638 50.254209 -0.727072 1.922673 0.109002 -0.033934 330075.000000 0 0 1
-34.951306 31.076013 -15.998638 49.429433 -0.726773 1.900398 0.091056 -0.018734 449202.000000 0 0 1
-33.653140 30.485513 -15.889738 48.108047 -0.736051 1.907410 0.105045 -0.019586 307117.000000 0 0 1
-33.446880 30.159613 -14.393838 47.280849 -0.733763 1.880139 0.120073 -0.021133 49813.500000 0 0 1
-34.556734 29.537213 -13.763138 47.497777 -0.707243 1.864776 0.098968 -0.006495 374006.000000 0 0 1
-34.214109 29.284513 -12.470238 46.730021 -0.707920 1.840927 0.138180 -0.004317 32864.000000 0 0 1
-35.410882 28.601413 -11.769038 47.015760 -0.679419 1.823808 0.129367 -0.013527 29170.200000 0 0 1
-35.018869 27.927413 -10.606238 46.029924 -0.673212 1.803306 0.153232 -0.008683 101198.000000 0 0 1
-36.073290 27.376813 -9.861638 46.346781 -0.649187 1.785215 0.179598 -0.024958 100050.000000 0 0 1
-35.431743 26.513013 -8.750238 45.110032 -0.642402 1.766009 0.186467 -0.018004 511807.000000 0 0 1
-34.851716 27.296413 -7.693838 44.932521 -0.664423 1.742875 0.187857 -0.022146 1142060.000000 0 0 1
-33.746940 26.660813 -7.006338 43.574576 -0.668627 1.732287 0.185486 -0.027372 760637.000000 0 0 1
-33.134570 27.488513 -5.829638 43.445400 -0.692532 1.705385 0.194426 -0.035369 -60871.000000 0 0 1
-32.113010 26.781313 -5.171338 42.133442 -0.695114 1.693844 0.212736 -0.031808 68149.700000 0 0 1
-31.840370 27.328313 -3.902938 42.141177 -0.709288 1.663545 0.201708 -0.028145 107043.000000 0 0 1
-30.877390 26.401913 -3.113538 40.745164 -0.707422 1.647286 0.204080 -0.032740 741753.000000 0 0 1
-31.524560 25.149913 -2.703238 40.418109 -0.673391 1.637728 0.188257 -0.033974 711160.000000 0 0 1
-30.506710 24.409313 -2.088138 39.125877 -0.674820 1.624191 0.174424 -0.039000 546365.000000 0 0 1
-31.160660 23.131613 -1.468638 38.835746 -0.638577 1.608622 0.168963 -0.043947 259929.000000 0 0 1
-31.569980 22.221113 -2.529238 38.688998 -0.613318 1.636217 0.166365 -0.041563 -89033.800000 0 0 1
-32.386670 21.193013 -2.062838 38.759457 -0.579444 1.624043 0.131756 -0.044208 -107638.000000 0 0 1
-33.107640 20.388313 -3.186038 39.012178 -0.551970 1.652555 0.181706 -0.035066 -451464.000000 0 0 1
-32.188000 19.587413 -3.820538 37.872558 -0.546669 1.671847 0.167067 -0.039012 -722091.000000 0 0 1
-32.660960 18.910213 -4.902438 38.057435 -0.524824 1.699972 0.160619 -0.032268 -259379.000000 0 0 1
-31.720760 17.776013 -5.366538 36.755857 -0.510786 1.717325 0.147667 -0.038946 -18600.700000 0 0 1
-31.514430 16.712213 -4.459638 35.949211 -0.487596 1.695171 0.187796 -0.043886 59480.600000 0 0 1
-30.761100 15.647613 -4.978338 34.869427 -0.470569 1.714057 0.179280 -0.046149 -257717.000000 0 0 1
-30.443020 14.511013 -3.954738 33.955661 -0.444803 1.687529 0.181834 -0.044285 -45532.900000 0 0 1
-31.598850 13.822213 -3.513338 34.668205 -0.412350 1.672312 0.175767 -0.045174 307713.000000 0 0 1
-31.284340 12.657213 -2.795538 33.863402 -0.384454 1.653444 0.173152 -0.053496 -559429.000000 0 0 1
-32.501060 11.960513 -2.200038 34.701772 -0.352623 1.634237 0.160970 -0.044522 -506427.000000 0 0 1
-33.309510 11.399813 -3.217938 35.352996 -0.329744 1.661946 0.150066 -0.021535 -401379.000000 0 0 1
-34.235314 10.578013 -2.623638 35.928186 -0.299674 1.643886 0.155471 -0.022941 -726212.000000 0 0 1
-35.266077 9.908313 -3.549038 36.803078 -0.273898 1.667380 0.116332 -0.014144 98613.200000 0 0 1
-34.663048 9.021013 -4.534338 36.103543 -0.254601 1.696721 0.101023 -0.015326 157084.000000 0 0 1
-35.667569 8.396413 -5.264438 37.018773 -0.231198 1.713490 0.120153 -0.011981 -304012.000000 0 0 1
-35.131412 7.508113 -6.441338 36.497654 -0.210548 1.748212 0.130540 -0.023386 -240137.000000 0 0 1
-34.496803 6.363813 -5.974038 35.583939 -0.182425 1.739481 0.116147 -0.015096 136726.000000 0 0 1
-34.182194 5.500213 -7.024738 35.327351 -0.159541 1.770978 0.110254 -0.019024 -368062.000000 0 0 1
-33.066110 4.507313 -6.664738 34.030902 -0.135477 1.767914 0.129830 -0.025304 127504.000000 0 0 1
-31.793360 5.100113 -6.400838 32.829859 -0.159059 1.767023 0.156873 -0.030578 1272740.000000 0 0 1
-30.847570 4.010313 -6.171338 31.713414 -0.129279 1.766643 0.162288 -0.034667 337106.000000 0 0 1
-29.401650 4.336813 -5.808938 30.282152 -0.146446 1.763820 0.227805 -0.036692 70777.200000 0 0 1
-28.578510 4.906513 -6.831938 29.790611 -0.170028 1.802188 0.226168 -0.032056 296240.000000 0 0 1
-27.218630 4.806613 -6.494338 28.392495 -0.174791 1.801574 0.262462 -0.039726 244234.000000 0 0 1
-26.174570 5.101413 -7.608738 27.731308 -0.192487 1.848735 0.261667 -0.047681 131454.000000 0 0 1
-26.235150 4.157913 -8.655438 27.937215 -0.157179 1.885797 0.244876 -0.054465 155088.000000 0 0 1
-25.105880 4.316713 -9.465538 27.176012 -0.170275 1.926558 0.238193 -0.052980 -422800.000000 0 0 1
-25.258100 3.600113 -10.793438 27.702541 -0.141579 1.971014 0.212395 -0.063423 14612.700000 0 0 1
-26.250610 4.090313 -11.677338 29.020431 -0.154575 1.984915 0.240349 -0.047299 395970.000000 0 0 1
-26.607250 3.292213 -12.793738 29.706299 -0.123108 2.016036 0.224836 -0.049661 -226210.000000 0 0 1
-27.302120 4.149413 -13.828938 30.884672 -0.150827 2.035056 0.203999 -0.042416 -417571.000000 0 0 1
-26.474050 4.997813 -14.621738 30.653690 -0.186586 2.068032 0.178567 -0.034531 187477.000000 0 0 1
-27.129840 6.012013 -15.345638 31.743679 -0.218077 2.075358 0.172232 -0.040448 -162944.000000 0 0 1
-28.082540 5.616513 -16.516438 33.060052 -0.197396 2.093921 0.145613 -0.017340 458186.000000 0 0 1
-29.275960 4.980513 -16.088138 33.774481 -0.168510 2.067284 0.176070 -0.040235 159921.000000 0 0 1
-30.079690 4.552313 -17.165238 34.930742 -0.150202 2.084502 0.164558 -0.024529 1194430.000000 0 0 1
-31.578400 4.132113 -16.865338 36.037610 -0.130113 2.057814 0.168508 -0.027002 1239940.000000 0 0 1
-31.820520 2.912113 -16.105838 35.783012 -0.091263 2.037671 0.177301 -0.036970 49255.700000 0 0 1
-31.832330 1.713413 -16.879438 36.071436 -0.053774 2.057760 0.193723 -0.034661 -16110.100000 0 0 1
-32.010590 0.495913 -15.943438 35.764746 -0.015491 2.032849 0.187400 -0.029860 -162396.000000 0 0 1
-31.790620 -0.712287 -16.545538 35.845582 0.022402 2.050570 0.178665 -0.016669 306663.000000 0 0 1
-32.189720 -1.827887 -15.755738 35.885409 0.056724 2.025345 0.170035 -0.026056 -103875.000000 0 0 1
-31.827890 -3.138787 -16.520338 35.997058 0.098300 2.047593 0.158741 -0.016244 87146.000000 0 0 1
-32.850920 -3.575987 -17.401338 37.346716 0.108428 2.055493 0.171777 -0.023520 315336.000000 0 0 1
-32.406730 -4.513187 -18.382638 37.529807 0.138377 2.082673 0.170756 -0.027561 -133010.000000 0 0 1
-33.510790 -4.766587 -19.401438 39.014218 0.141293 2.091270 0.189109 -0.033497 -148761.000000 0 0 1
-33.141300 -5.829187 -20.259038 39.277905 0.174108 2.112723 0.180714 -0.032746 -199459.000000 0 0 1
-34.069634 -6.014987 -21.263338 40.608492 0.174749 2.121889 0.180899 -0.035010 -698508.000000 0 0 1
-33.827220 -7.248687 -22.195338 41.103009 0.211093 2.141225 0.173257 -0.031728 -227559.000000 0 0 1
-32.620920 -7.028487 -22.874938 40.457223 0.212215 2.171727 0.169560 -0.029026 -202588.000000 0 0 1
-32.263010 -8.052387 -23.781038 40.881298 0.244589 2.191625 0.151261 -0.022440 -455477.000000 0 0 1
-31.111890 -7.502187 -24.622938 40.379718 0.236619 2.226585 0.137224 -0.016000 -715631.000000 0 0 1
-31.239660 -6.345087 -25.409618 40.765490 0.200384 2.243767 0.143657 -0.023648 -178026.000000 0 0 1
-31.204310 -6.495787 -26.809768 41.649345 0.205238 2.270122 0.119863 -0.021365 -44670.200000 0 0 1
-32.575190 -6.776487 -27.459498 43.140327 0.205101 2.260769 0.138387 -0.018007 -197281.000000 0 0 1
-33.111070 -8.041287 -27.228668 43.616575 0.238246 2.244997 0.118881 -0.017309 -480859.000000 0 0 1
-34.395906 -8.166587 -27.769548 44.954636 0.233113 2.236641 0.102127 -0.019189 -100433.000000 0 0 1
-35.279182 -9.263387 -27.154938 45.473308 0.256777 2.210755 0.094602 -0.024538 -505774.000000 0 0 1
-34.884749 -10.584287 -27.493748 45.660476 0.294580 2.216968 0.104653 -0.013057 -172717.000000 0 0 1
-35.692829 -11.606987 -26.944668 46.202980 0.314405 2.193435 0.093411 -0.013276 86275.100000 0 0 1
-36.971800 -11.861687 -27.807028 47.758187 0.310456 2.192285 0.066183 -0.003997 87818.300000 0 0 1
37.846426 -10.744787 -27.713238 48.123030 -0.276626 2.184480 0.066344 -0.015352 -296981.000000 0 0 1
36.945066 -10.748687 -28.793058 48.057386 -0.283122 2.213222 0.068669 -0.019072 -130570.000000 0 0 1
36.064206 -9.487487 -28.722328 47.070283 -0.257243 2.227110 0.072335 -0.008028 131859.000000 0 0 1
35.072216 -9.464487 -27.697808 45.681566 -0.263579 2.222226 0.058250 -0.008055 394324.000000 0 0 1
34.335156 -8.251587 -27.559078 44.793911 -0.235852 2.233489 0.015315 -0.000464 817496.000000 0 0 1
32.898406 -8.503487 -26.994928 43.397472 -0.252941 2.242141 0.021382 -0.001096 543398.000000 0 0 1
32.987766 -9.030387 -25.672408 42.764625 -0.267203 2.214696 0.007384 0.009596 -132759.000000 0 0 1
31.720116 -9.132887 -25.077438 41.454231 -0.280339 2.220490 -0.007144 0.014528 -280133.000000 0 0 1
31.761626 -9.261287 -23.525638 40.595911 -0.283721 2.188921 -0.018136 0.018040 -95438.800000 0 0 1
32.389096 -10.481187 -23.158538 41.173131 -0.312967 2.168163 -0.026533 0.012741 216217.000000 0 0 1
32.399456 -10.629587 -21.773338 40.457275 -0.317014 2.139074 -0.009042 0.002187 70854.000000 0 0 1
33.345006 -11.780287 -21.321338 41.294843 -0.339598 2.113344 0.030656 0.004264 18975.000000 0 0 1
34.703486 -11.550787 -21.593538 42.473916 -0.321309 2.104117 0.045304 -0.004514 49272.600000 0 0 1
35.551416 -12.376387 -20.808238 43.012334 -0.335005 2.075758 0.089519 -0.007603 515016.000000 0 0 1
37.079046 -12.296187 -21.101438 44.399578 -0.320209 2.066058 0.122231 -0.028569 -207315.000000 0 0 1
37.717926 -11.047387 -21.107238 44.611682 -0.284926 2.063639 0.148599 -0.021865 188979.000000 0 0 1
37.623426 -10.279287 -22.264838 44.910009 -0.266706 2.089513 0.134806 -0.022806 -474613.000000 0 0 1
-37.384990 -10.894887 -23.533038 45.498791 0.283571 2.114400 0.100867 -0.020483 -135480.000000 0 0 1
37.757396 -12.027287 -24.142938 46.402134 -0.308379 2.117996 0.111852 -0.012811 128430.000000 0 0 1
36.495106 -11.771187 -24.738638 45.633911 -0.312007 2.143743 0.130956 -0.017387 -399031.000000 0 0 1
36.051656 -12.970987 -25.585438 46.071499 -0.345369 2.159570 0.099091 -0.029928 -278969.000000 0 0 1
35.776466 -14.185187 -24.941838 45.861425 -0.377481 2.145817 0.098609 -0.042923 909946.000000 0 0 1
34.836776 -14.159187 -23.831438 44.519894 -0.386049 2.135658 0.060542 -0.026572 122648.000000 0 0 1
-30.931550 8.258713 -19.042938 37.250512 -0.260913 2.107392 0.104763 -0.021335 236271.000000 0 0 1
-29.828420 7.430113 -19.384338 36.341351 -0.244127 2.133407 0.096852 -0.023387 299851.000000 0 0 1
-28.906060 8.188713 -20.159338 36.180302 -0.276054 2.161795 0.120282 -0.029867 621578.000000 0 0 1
-27.520500 7.552713 -20.478638 35.125433 -0.267845 2.193230 0.104797 -0.026918 185941.000000 0 0 1
-26.582140 7.542413 -19.439138 33.784290 -0.276473 2.183877 0.110770 -0.019875 361532.000000 0 0 1
-25.491230 6.670413 -19.782738 32.949264 -0.255936 2.214798 0.130046 -0.034419 207769.000000 0 0 1
-24.144100 7.155413 -19.233238 31.686826 -0.288117 2.223050 0.090158 -0.030176 -381696.000000 0 0 1
-23.591100 8.233913 -19.872238 31.925588 -0.335807 2.242672 0.080372 -0.023849 -838726.000000 0 0 1
-22.366800 8.562213 -19.286438 30.749828 -0.365599 2.248755 0.069407 -0.018840 -457515.000000 0 0 1
-21.661000 9.624913 -20.098538 31.077148 -0.418140 2.274086 0.093802 -0.015435 -316680.000000 0 0 1
-21.050100 9.154213 -21.285238 31.304436 -0.410207 2.318481 0.140983 -0.027154 61415.700000 0 0 1
-20.536900 10.216713 -22.086038 31.842402 -0.461630 2.337277 0.121742 -0.023218 385149.000000 0 0 1
-19.368700 9.771313 -23.005438 31.620805 -0.467233 2.385528 0.160863 -0.020855 331431.000000 0 0 1
-19.874400 8.801513 -23.884038 32.294051 -0.416898 2.403243 0.153132 -0.022462 1073640.000000 0 0 1
-18.788200 8.201113 -24.643938 32.055864 -0.411574 2.447729 0.133019 -0.013852 870303.000000 0 0 1
-19.285700 7.165613 -25.675858 32.901884 -0.355743 2.466064 0.104089 -0.006703 102092.000000 0 0 1
-19.885500 5.986213 -25.070938 32.554874 -0.292405 2.449815 0.129257 -0.012718 513072.000000 0 0 1
-20.304200 5.074713 -26.084108 33.442398 -0.244917 2.465416 0.113943 -0.015165 -377033.000000 0 0 1
-20.625400 3.638113 -25.536768 33.026800 -0.174594 2.454689 0.102041 -0.004769 758029.000000 0 0 1
-19.515300 2.778813 -25.185488 31.982457 -0.141441 2.477503 0.094446 -0.004528 731261.000000 0 0 1
-18.631900 3.253413 -24.195038 30.710459 -0.172872 2.478096 0.101434 -0.014868 -217639.000000 0 0 1
-17.638100 2.193913 -23.645338 29.580701 -0.123749 2.497009 0.088904 -0.016950 17152.400000 0 0 1
-18.072400 1.367013 -22.546938 28.928270 -0.075497 2.464517 0.088450 -0.015229 185334.000000 0 0 1
-19.229500 0.563913 -22.767038 29.806538 -0.029317 2.440018 0.068226 -0.009950 171187.000000 0 0 1
-19.712100 -0.144687 -21.500238 29.169300 0.007340 2.399542 0.095277 -0.018259 -378671.000000 0 0 1
-18.944300 -1.205587 -21.101838 28.383579 0.063553 2.409014 0.090374 -0.023886 -102934.000000 0 0 1
-19.566700 -1.816787 -19.990638 28.031805 0.092585 2.364765 0.088019 -0.022532 -19771.400000 0 0 1
-19.052700 -3.236687 -19.785438 27.657641 0.168274 2.367949 0.065067 -0.033347 -139801.000000 0 0 1
-19.510700 -4.059087 -20.810838 28.813792 0.205118 2.377850 0.069265 -0.036365 325487.000000 0 0 1
-19.425400 -5.377087 -20.439438 28.705921 0.270045 2.363180 0.080295 -0.032829 -392097.000000 0 0 1
-19.469300 -6.468787 -21.556938 29.759040 0.320780 2.380935 0.058271 -0.038497 14190.800000 0 0 1
-18.285300 -6.522987 -22.341738 29.598223 0.342661 2.426197 0.053447 -0.034667 245479.000000 0 0 1
-18.369600 -7.441487 -23.393638 30.660728 0.384893 2.438713 0.075618 -0.037763 343752.000000 0 0 1
-17.087700 -7.581487 -24.287038 30.648469 0.417587 2.485593 0.059473 -0.035130 -198215.000000 0 0 1
-17.133600 -8.319287 -25.502318 31.829845 0.452024 2.500107 0.081165 -0.056160 855759.000000 0 0 1
-15.870800 -8.468487 -26.200948 31.781870 0.490156 2.539936 0.088945 -0.054282 860836.000000 0 0 1
-14.730500 -9.284587 -25.607298 30.966513 0.562399 2.544431 0.076992 -0.046320 -373875.000000 0 0 1
-14.027100 -8.657687 -24.520538 29.546098 0.552979 2.549739 0.085206 -0.040996 -50346.600000 0 0 1
-12.984000 -9.486787 -24.103038 28.974814 0.631003 2.553250 0.067144 -0.027174 -441298.000000 0 0 1
-12.120200 -8.821387 -23.046138 27.492556 0.629158 2.564896 0.085693 -0.035054 -267471.000000 0 0 1
-12.818000 -8.566787 -21.851738 26.743026 0.589160 2.527160 0.084852 -0.030082 127025.000000 0 0 1
-11.940200 -7.967787 -20.921138 25.372190 0.588446 2.540237 0.088209 -0.030682 -974915.000000 0 0 1
-12.537400 -7.775887 -19.549938 24.491854 0.555151 2.495134 0.079428 -0.023791 111388.000000 0 1 0
-13.609000 -6.865287 -19.384438 24.659552 0.467215 2.475242 0.073861 -0.016700 1415470.000000 0 1 0
-14.864800 -7.244987 -20.020338 25.966634 0.453511 2.451210 0.076621 -0.020732 492426.000000 0 0 1
-16.039300 -6.292187 -19.692838 26.165983 0.373849 2.422817 0.059364 -0.011650 -259748.000000 0 0 1
-16.234100 -6.027587 -18.267238 25.170813 0.355516 2.382893 0.053282 -0.011459 374174.000000 0 0 1
-15.550600 -4.842887 -17.950138 24.238032 0.301908 2.404726 0.055675 -0.012246 -733380.000000 0 1 0
-15.324100 -4.582687 -16.416038 22.919760 0.290586 2.369195 0.084393 -0.008767 265424.000000 0 1 0
-16.374600 -4.161487 -15.530338 22.948571 0.248874 2.314129 0.111182 -0.024559 384520.000000 0 1 0
-16.880200 -2.848787 -15.680538 23.214996 0.167190 2.312369 0.066815 -0.029306 155690.000000 0 1 0
-18.113400 -2.614887 -14.767538 23.516230 0.143372 2.249741 0.070373 -0.033439 -196629.000000 0 1 0
-17.727500 -2.447787 -13.423438 22.370620 0.137211 2.214357 0.079941 -0.035056 942589.000000 0 1 0
-18.673300 -1.796387 -12.555538 22.573451 0.095906 2.160612 0.088880 -0.038617 11735.600000 0 1 0
-18.107900 -0.474987 -12.085738 21.775829 0.026225 2.159168 0.073598 -0.029539 -54916.200000 0 1 0
-17.680900 0.372713 -13.166238 22.047743 -0.021077 2.210764 0.086159 -0.028190 766187.000000 0 1 0
-16.902500 1.402113 -12.529538 21.086720 -0.082764 2.207056 0.076373 -0.022446 -836114.000000 0 1 0
-16.429700 2.369813 -13.646338 21.488918 -0.143252 2.258858 0.078609 -0.014489 579980.000000 0 1 0
-15.622600 1.773313 -14.707038 21.529219 -0.113026 2.322823 0.067425 -0.024258 653411.000000 0 1 0
-14.410700 1.145213 -14.331638 20.356219 -0.079303 2.351870 0.067176 -0.020435 -499313.000000 0 1 0
-13.777400 0.153913 -15.316838 20.602087 -0.011171 2.409026 0.064843 -0.019783 17520.400000 0 1 0
-13.318600 0.739213 -16.475638 21.198543 -0.055445 2.461010 0.066827 -0.026583 135672.000000 0 1 0
-12.856300 -0.176187 -17.495338 21.711802 0.013703 2.507819 0.039245 -0.017843 47917.800000 0 1 0
-12.237600 0.601113 -18.664038 22.326364 -0.049081 2.560684 0.060181 -0.024200 793559.000000 0 1 0
-10.940700 1.179713 -18.408338 21.446621 -0.107413 2.602808 0.027486 -0.014397 516519.000000 0 1 0
-10.672700 2.162613 -19.395338 22.243259 -0.199923 2.629998 0.037062 -0.016548 639057.000000 0 1 0
-9.220100 2.701113 -19.177238 21.449306 -0.284985 2.677153 0.026802 -0.018498 -80647.300000 0 1 0
-8.254700 1.720613 -19.461138 21.209349 -0.205498 2.732730 0.033312 -0.011398 908624.000000 0 1 0
-6.857300 2.090013 -19.324438 20.611275 -0.295842 2.786362 0.031571 -0.005380 1675230.000000 0 1 0
-6.359900 3.235913 -20.289438 21.507691 -0.470662 2.803405 0.031828 -0.001303 -1021740.000000 0 1 0
-6.303800 2.753213 -21.614138 22.682351 -0.411785 2.833473 0.031401 -0.003789 202233.000000 0 1 0
-6.168600 3.821513 -22.537538 23.676913 -0.554642 2.830103 0.042813 -0.002528 -393951.000000 0 1 0
-5.501000 3.335013 -23.848838 24.701223 -0.545007 2.878123 0.067327 -0.019949 -485607.000000 0 1 0
-4.205200 2.847113 -23.632138 24.171631 -0.595154 2.929920 0.076798 -0.025749 -462620.000000 0 1 0
-3.708500 2.264513 -24.795338 25.173196 -0.548197 2.968111 0.119967 -0.032709 -307055.000000 0 0 1
-2.292300 1.680613 -24.715238 24.878145 -0.632633 3.027091 0.105542 -0.027707 -803004.000000 0 1 0
-1.265900 2.657613 -24.670338 24.845342 -1.126264 3.022832 0.119949 -0.026911 699792.000000 0 1 0
0.037500 2.131413 -24.967638 25.058477 1.553204 3.056419 0.111096 -0.020937 831021.000000 0 0 1
0.696300 1.323713 -23.837138 23.884016 1.086550 3.078929 0.099728 -0.014653 -1188190.000000 0 1 0
0.321500 -0.013387 -23.873638 23.875807 -0.041615 3.128115 0.091333 -0.017831 -56790.900000 0 1 0
0.933900 -0.781687 -22.866938 22.899347 -0.696906 3.088384 0.084454 -0.011488 -132712.000000 0 1 0
0.273600 -2.172087 -22.703138 22.808448 -1.445495 3.045460 0.088860 -0.023045 -593450.000000 0 1 0
-0.869200 -2.196587 -21.938638 22.065456 1.193998 3.034328 0.080267 -0.024130 -1206170.000000 0 1 0
-1.980300 -2.771487 -22.560938 22.816631 0.950388 2.991743 0.087389 -0.028619 -705850.000000 0 1 0
-3.120000 -1.823887 -22.812538 23.097032 0.529003 2.984477 0.096601 -0.027785 -2262450.000000 0 1 0
-3.665500 -1.422187 -21.583138 21.938331 0.370112 2.961402 0.068456 -0.022718 51682.100000 0 1 0
-4.550800 -0.286387 -21.644638 22.119724 0.062848 2.933962 0.044646 -0.019651 671443.000000 0 1 0
-5.876800 -0.665687 -22.369238 23.137907 0.112793 2.883109 0.054428 -0.012307 -941512.000000 0 1 0
-6.716200 -1.556087 -21.644838 22.716245 0.227674 2.833241 0.064297 -0.008521 743858.000000 0 1 0
-8.081400 -1.114787 -21.787538 23.264750 0.137080 2.783321 0.043336 -0.002299 1517400.000000 0 1 0
-9.156800 -2.271987 -21.539338 23.514932 0.243209 2.728754 0.050372 -0.011323 533937.000000 0 1 0
-9.268000 -3.177387 -22.647038 24.675493 0.330277 2.733287 0.087647 -0.014099 56251.700000 0 1 0
-9.691600 -4.454287 -22.179638 24.611057 0.430811 2.693341 0.073764 -0.015484 -257604.000000 0 1 0
-10.566100 -5.288487 -23.165638 26.004949 0.464059 2.669935 0.076667 -0.025330 -1350670.000000 0 0 1
-11.867900 -4.917487 -23.066238 26.402274 0.392817 2.633442 0.076144 -0.029940 -1611450.000000 0 0 1
-12.682100 -5.412787 -24.094738 27.761310 0.403399 2.621806 0.066618 -0.042432 -99007.900000 0 0 1
-14.200300 -5.315587 -23.882438 28.289130 0.358182 2.575917 0.062709 -0.048396 -373939.000000 0 0 1
-14.615800 -3.962287 -23.738838 28.157659 0.264733 2.573760 0.066372 -0.044050 280334.000000 0 0 1
-15.983000 -3.906887 -23.322838 28.542510 0.239739 2.527205 0.069826 -0.044229 864512.000000 0 0 1
-16.590000 -2.472287 -23.679438 29.018203 0.147934 2.525288 0.066160 -0.039934 44948.800000 0 0 1
-17.047800 -2.329487 -25.011938 30.358707 0.135803 2.539020 0.049251 -0.036770 2448.840000 0 0 1
-17.307400 -1.028387 -25.433668 30.781085 0.059349 2.543260 0.059104 -0.031637 -774534.000000 0 0 1
-18.624400 -0.866087 -26.171658 32.133691 0.046469 2.522597 0.059431 -0.025700 -842294.000000 0 0 1
-18.843600 -1.493987 -27.410338 33.296245 0.079118 2.537867 0.062347 -0.034595 -119489.000000 0 0 1
-18.324200 -0.748187 -28.454338 33.852407 0.040808 2.569078 0.052459 -0.033164 -523101.000000 0 0 1
-18.495900 -1.599687 -29.755628 35.072136 0.086274 2.583775 0.047341 -0.031309 -255748.000000 0 0 1
-19.812100 -1.863787 -30.147088 36.122568 0.093797 2.558162 0.043955 -0.032426 -488034.000000 0 0 1
-19.869600 -2.634287 -31.335308 37.197339 0.131810 2.572532 0.047833 -0.038843 -378790.000000 0 0 1
-21.295300 -3.175687 -31.609468 38.245696 0.148035 2.543630 0.019403 -0.035864 732924.000000 0 0 1
-22.310800 -2.197087 -31.900728 38.990454 0.098160 2.529013 0.023316 -0.031071 628743.000000 0 0 1
-22.820500 -1.486687 -30.798958 38.360935 0.065055 2.502895 0.021012 -0.017175 -464609.000000 0 0 1
-23.970200 -0.515687 -31.234928 39.375845 0.021510 2.486926 0.033166 -0.020293 115278.000000 0 0 1
-23.546000 0.550513 -32.082118 39.799240 -0.023376 2.508326 0.032570 -0.022391 216941.000000 0 0 1
-24.668200 1.334113 -32.395908 40.740580 -0.054030 2.490093 0.031320 -0.026723 -414828.000000 0 0 1
-24.463600 2.620513 -33.293808 41.398219 -0.106712 2.505180 0.040010 -0.025610 -520104.000000 0 0 1
-23.790700 3.680613 -32.615408 40.537750 -0.153491 2.505745 0.039141 -0.021335 862895.000000 0 0 1
-24.534000 4.518313 -31.646748 40.297010 -0.182125 2.474037 0.040093 -0.022378 221852.000000 0 0 1
-25.806150 5.276713 -32.124348 41.542446 -0.201695 2.454810 0.040535 -0.024607 293184.000000 0 0 1
-26.929950 4.416313 -32.208178 42.214841 -0.162546 2.438674 0.054703 -0.031512 466545.000000 0 0 1
-28.100390 5.111513 -32.657808 43.385389 -0.179934 2.423007 0.074777 -0.037637 644829.000000 0 0 1
-29.061910 4.078713 -33.328258 44.407244 -0.139435 2.419636 0.101137 -0.036680 68246.900000 0 0 1
-28.528260 3.756613 32.859053 43.677124 -0.130927 0.719224 0.103310 -0.029145 738263.000000 0 0 1
-29.425490 2.975213 32.051121 43.611762 -0.100768 0.745249 0.109758 -0.029430 287452.000000 0 0 1
-29.385430 1.406313 32.206550 43.620444 -0.047821 0.740196 0.113630 -0.014304 -218471.000000 0 0 1
-29.721980 0.916313 33.482850 44.780989 -0.030820 0.726201 0.127550 -0.010633 239691.000000 0 0 1
-29.946960 -0.473987 33.260934 44.758629 0.015826 0.733079 0.114814 -0.000201 -677109.000000 0 0 1
-29.928240 -1.277387 -32.846728 44.454908 0.042656 2.402199 0.074396 -0.002792 360055.000000 0 0 1
-28.618920 -1.579087 -32.377038 43.241285 0.055120 2.416975 0.096614 -0.016284 872183.000000 0 0 1
-27.814630 -0.488087 -31.894738 42.322172 0.017546 2.424345 0.092804 -0.019364 -575991.000000 0 0 1
-27.878630 0.017313 -30.396788 41.245401 -0.000621 2.399379 0.112367 -0.020734 -357528.000000 0 0 1
-27.262340 -0.960387 -29.529588 40.201419 0.035213 2.395786 0.090748 -0.025215 596437.000000 0 0 1
-27.341530 -0.546087 -28.159118 39.252942 0.019970 2.370825 0.101760 -0.031024 -37851.300000 0 0 1
-26.304030 -1.253987 -27.247118 37.893007 0.047637 2.373236 0.096257 -0.027620 77501.900000 0 0 1
-26.535490 -2.633387 -27.079858 38.005075 0.098916 2.363898 0.090144 -0.022469 519798.000000 0 0 1
-25.512480 -3.103687 -26.193318 36.696178 0.121059 2.365689 0.102187 -0.025027 361840.000000 0 0 1
-25.769160 -4.554087 -25.671778 36.658281 0.174920 2.346613 0.097250 -0.032695 -406648.000000 0 0 1
-26.757610 -4.447087 -24.702438 36.687283 0.164694 2.309492 0.112919 -0.027830 -454401.000000 0 0 1
-26.999420 -5.679587 -24.059538 36.607209 0.207337 2.287941 0.109492 -0.029381 -258230.000000 0 0 1
-28.058080 -5.373187 -23.012838 36.684026 0.189211 2.248911 0.119396 -0.027143 -264536.000000 0 0 1
-28.425620 -6.499087 -22.252938 36.680339 0.224771 2.222664 0.125912 -0.033450 -666138.000000 0 0 1
-29.532090 -6.220587 -21.484538 37.046261 0.207603 2.189449 0.149677 -0.030810 -778884.000000 0 0 1
-29.963860 -7.316087 -20.497638 37.033920 0.239478 2.157337 0.150354 -0.038003 128164.000000 0 0 1
-29.064860 -7.636687 -19.410738 35.775157 0.256939 2.144297 0.143448 -0.041825 402572.000000 0 0 1
-29.494050 -8.714187 -18.621438 35.952664 0.287283 2.115241 0.147627 -0.041096 -243701.000000 0 0 1
-30.156860 -8.166387 -17.317038 35.721225 0.264455 2.076911 0.149792 -0.044432 -279949.000000 0 0 1
-29.233780 -7.623487 -16.421138 34.385829 0.255095 2.068667 0.126970 -0.045106 343718.000000 0 0 1
-29.845800 -6.882787 -15.327838 34.250360 0.226649 2.034790 0.137628 -0.040401 -193118.000000 0 0 1
-28.785580 -6.124187 -14.536638 32.824216 0.209626 2.029586 0.138048 -0.030979 -382186.000000 0 0 1
-28.296360 -5.038587 -15.217238 32.521312 0.176218 2.057727 0.150058 -0.024274 -98713.900000 0 0 1
-27.175030 -4.525687 -14.550638 31.155821 0.165024 2.056723 0.141767 -0.039748 -251348.000000 0 0 1
-14.470100 21.478113 -4.590038 26.301361 -0.977931 1.746212 0.088979 -0.026375 -28059.600000 0 0 1
-14.623600 20.964813 -5.894538 26.232016 -0.961730 1.797439 0.115649 -0.033520 -210111.000000 0 0 1
-15.390900 19.805913 -5.879438 25.762799 -0.910184 1.801039 0.093943 -0.033049 -103882.000000 0 0 1
-15.587400 19.109113 -7.240938 25.701293 -0.886552 1.856398 0.113967 -0.034366 1104060.000000 0 0 1
-14.326700 18.532613 -7.724838 24.665466 -0.912704 1.889341 0.095876 -0.031737 1303380.000000 0 1 0
-14.421800 17.528513 -8.715438 24.314522 -0.882329 1.937399 0.082845 -0.038406 -444834.000000 0 1 0
-15.052700 16.169913 -8.340738 23.613932 -0.821165 1.931799 0.086284 -0.033726 -688174.000000 0 1 0
-16.430100 16.242213 -8.183938 24.509886 -0.779648 1.911238 0.086516 -0.028111 -751776.000000 0 1 0
-16.850400 15.130713 -7.403738 23.826242 -0.731678 1.886767 0.096089 -0.020484 711387.000000 0 1 0
-18.311000 15.217613 -6.844938 24.773406 -0.693398 1.850740 0.121376 -0.019491 1698030.000000 0 1 0
-19.405700 14.962513 -7.772238 25.707308 -0.656829 1.877938 0.119291 -0.022848 1652760.000000 0 0 1
-20.690800 15.312013 -7.208438 26.730667 -0.637096 1.843846 0.121365 -0.029367 1157950.000000 0 0 1
-21.843800 14.651813 -8.028238 27.500543 -0.590827 1.867041 0.128175 -0.021157 96998.400000 0 0 1
-22.138200 13.305413 -7.660138 26.940892 -0.541166 1.859105 0.173335 -0.030620 244243.000000 0 0 1
-23.147700 12.744813 -8.477538 27.750945 -0.503293 1.881246 0.198921 -0.033959 150224.000000 0 0 1
-23.482100 11.296213 -8.090638 27.285012 -0.448378 1.871846 0.208904 -0.034761 1032410.000000 0 0 1
-22.367100 10.355413 -8.272238 25.999071 -0.433592 1.894599 0.198812 -0.031133 1071160.000000 0 0 1
-22.491700 9.279113 -7.324938 25.409314 -0.391284 1.863224 0.213953 -0.042753 567157.000000 0 0 1
-21.212900 8.373213 -7.122538 23.892015 -0.375949 1.873512 0.166177 -0.019298 475393.000000 0 1 0
-20.870400 7.376113 -8.070738 23.560931 -0.339722 1.920423 0.157836 -0.015206 -787620.000000 0 1 0
-19.939600 6.542013 -7.602738 22.320108 -0.317026 1.918376 0.110571 -0.005359 -1340980.000000 0 1 0
-19.533700 5.367913 -8.475138 21.959233 -0.268183 1.967032 0.088203 -0.016127 -607477.000000 0 1 0
-20.532300 4.431313 -8.738738 22.750328 -0.212561 1.965045 0.118923 -0.017266 250781.000000 0 1 0
-19.983900 3.384513 -9.560938 22.410327 -0.167770 2.011561 0.095034 -0.023996 -427713.000000 0 1 0
-20.876700 2.139113 -9.748938 23.139884 -0.102108 2.005680 0.085589 -0.022478 -69076.500000 0 1 0
-20.784300 1.260513 -8.625338 22.538245 -0.060573 1.963511 0.094569 -0.031348 764074.000000 0 1 0
-21.732100 0.163313 -8.571838 23.362090 -0.007515 1.946484 0.115226 -0.025077 448942.000000 0 1 0
-21.466400 -0.957487 -9.537038 23.509109 0.044574 1.988513 0.077139 -0.039582 -677377.000000 0 1 0
-20.549600 -1.884587 -9.107138 22.556101 0.091453 1.986414 0.064237 -0.023261 -95373.200000 0 1 0
-20.825800 -3.212087 -9.523238 23.124090 0.153030 1.995260 0.076141 -0.017345 -169991.000000 0 1 0
-21.815300 -3.986587 -8.623438 23.794199 0.180748 1.941657 0.098468 -0.026940 181293.000000 0 1 0
-21.301400 -4.192387 -7.301938 22.905110 0.194329 1.895250 0.088161 -0.021462 671723.000000 0 1 0
-22.199200 -4.979887 -6.497738 23.660608 0.220674 1.848994 0.110444 -0.021887 58671.900000 0 1 0
-22.270500 -6.493987 -6.758338 24.162413 0.283729 1.854283 0.118733 -0.032607 372973.000000 0 1 0
-21.136700 -7.125387 -6.137738 23.134456 0.325145 1.839319 0.101935 -0.032147 739887.000000 0 1 0
-21.295200 -8.527387 -5.932238 23.693740 0.380883 1.823860 0.121669 -0.039313 -46981.300000 0 1 0
-20.039200 -9.259387 -5.396238 22.724990 0.432841 1.810545 0.100965 -0.044628 810798.000000 0 1 0
-18.990900 -9.581187 -6.337238 22.194910 0.467253 1.860352 0.080870 -0.026821 1084380.000000 0 1 0
-17.963700 -10.335687 -5.715538 21.498566 0.522109 1.839889 0.070680 -0.015791 581581.000000 0 1 0
-17.046500 -11.300287 -6.569238 21.481028 0.585397 1.881592 0.053907 -0.017712 -395413.000000 0 1 0
-16.065000 -10.737587 -7.339138 20.669856 0.589190 1.933780 0.074213 -0.033593 -265207.000000 0 1 0
-16.428500 -10.400487 -8.685938 21.295804 0.564386 1.990917 0.067399 -0.031405 -530055.000000 0 1 0
-15.564800 -11.064087 -9.755438 21.444011 0.617964 2.043085 0.073103 -0.017953 67453.900000 0 1 0
-15.932400 -12.414687 -9.978538 22.528583 0.661935 2.029658 0.103775 -0.023183 258224.000000 0 1 0
-14.987000 -13.050787 -10.822638 22.628803 0.716450 2.069478 0.108671 -0.008645 243054.000000 0 1 0
-15.442500 -14.430487 -11.421138 24.023991 0.751534 2.066221 0.134414 -0.013708 116027.000000 0 1 0
-16.399700 -14.365987 -12.454638 25.108759 0.719391 2.089814 0.140478 -0.019892 118036.000000 0 0 1
-16.675300 -15.588787 -13.073838 26.305915 0.751735 2.090926 0.127806 -0.012252 -231469.000000 0 0 1
-17.007400 -15.330787 -14.535638 27.121384 0.733598 2.136426 0.134271 -0.018754 -116987.000000 0 0 1
-17.538000 -16.421487 -15.199138 28.429922 0.752532 2.134852 0.133277 -0.009749 209108.000000 0 0 1
-17.759200 -16.245287 -16.595038 29.235147 0.740907 2.174433 0.120873 -0.012140 -157980.000000 0 0 1
-18.136000 -17.510087 -17.350938 30.603475 0.767841 2.173607 0.126826 -0.025641 -282687.000000 0 0 1
-19.469200 -17.861987 -17.121938 31.484299 0.742372 2.145784 0.067193 -0.018668 -606724.000000 0 0 1
-20.272700 -18.002087 -18.289838 32.704368 0.726144 2.164274 0.062401 -0.014330 1006320.000000 0 0 1
-21.784400 -17.835087 -17.862638 33.342529 0.686045 2.136170 0.059586 -0.018974 673995.000000 0 0 1
-22.125000 -16.547987 -17.303138 32.599848 0.642176 2.130309 0.045005 -0.008624 -104232.000000 0 0 1
-21.997200 -16.520387 -15.924438 31.786597 0.644155 2.095527 0.045075 -0.010980 -490262.000000 0 0 1
-22.041900 -15.092387 -15.420938 30.845273 0.600393 2.094332 0.057570 -0.019259 -901641.000000 0 0 1
-23.260000 -14.447587 -15.450638 31.440143 0.555815 2.084528 0.062575 -0.018801 -577852.000000 0 0 1
-23.218700 -13.134387 -14.881738 30.546461 0.514803 2.079658 0.075334 -0.030126 45993.400000 0 0 1
-24.643900 -12.590887 -14.609038 31.293390 0.472340 2.056512 0.097352 -0.038460 -164152.000000 0 0 1
-25.326010 -13.222287 -13.568438 31.628123 0.481158 2.014181 0.108816 -0.039987 753367.000000 0 0 1
-26.429300 -12.394687 -13.150838 32.016882 0.438521 1.994070 0.120181 -0.039912 253412.000000 0 0 1
-27.218770 -12.966287 -11.962838 32.436022 0.444568 1.948528 0.145060 -0.041608 315700.000000 0 0 1
-28.293940 -12.145687 -11.494738 32.866301 0.405480 1.928092 0.148496 -0.049730 896425.000000 0 0 1
-28.990170 -12.589487 -10.327738 33.250373 0.409694 1.886626 0.167281 -0.044696 -272553.000000 0 0 1
-29.863840 -11.640387 -9.627738 33.467012 0.371667 1.862598 0.159659 -0.042410 -254067.000000 0 0 1
-29.088310 -10.640987 -8.894738 32.225406 0.350695 1.850443 0.168984 -0.043325 650138.000000 0 0 1
-29.930650 -9.627387 -8.437238 32.553301 0.311205 1.832972 0.180728 -0.043787 -278315.000000 0 0 1
-29.104070 -8.441987 -7.886238 31.313045 0.282315 1.825389 0.189958 -0.034305 184521.000000 0 0 1
-28.446910 -8.859287 -6.711438 30.541072 0.301912 1.792356 0.200577 -0.035240 460993.000000 0 0 1
-27.547360 -7.989387 -5.983238 29.299940 0.282279 1.776449 0.185837 -0.036334 691916.000000 0 0 1
-28.197160 -6.714987 -5.313538 29.468705 0.233789 1.752099 0.204009 -0.042497 -473899.000000 0 0 1
-28.953150 -6.857387 -4.121238 30.038197 0.232559 1.708430 0.227136 -0.045566 727121.000000 0 0 1
-28.190060 -7.259387 -2.958038 29.259668 0.252040 1.672065 0.202534 -0.035816 -110352.000000 0 0 1
-27.304370 -6.157487 -2.334638 28.087254 0.221803 1.654013 0.204688 -0.039923 -111466.000000 0 0 1
-27.966190 -5.024287 -1.898738 28.477297 0.177759 1.637521 0.240022 -0.054477 404718.000000 0 0 1
-26.936900 -4.196287 -1.415938 27.298540 0.154540 1.622688 0.195339 -0.049836 426219.000000 0 0 1
-27.633860 -2.914587 -0.850538 27.800152 0.105083 1.601396 0.225473 -0.055843 326316.000000 0 0 1
-28.513040 -3.166787 0.233262 28.689308 0.110611 1.562666 0.216444 -0.045991 431977.000000 0 0 1
-27.837910 -3.492687 1.458362 28.094037 0.124813 1.518863 0.198404 -0.050736 -291472.000000 0 0 1
-28.752420 -3.435487 2.667162 29.079512 0.118921 1.478948 0.218687 -0.039090 -431323.000000 0 0 1
-29.624280 -4.524987 2.756762 30.094405 0.151574 1.479064 0.210323 -0.045032 -353402.000000 0 0 1
-30.500440 -4.357087 3.852962 31.050062 0.141893 1.446387 0.250851 -0.056823 -28349.700000 0 0 1
-31.570320 -5.469887 3.811562 32.266589 0.171557 1.452393 0.229853 -0.061666 -65279.600000 0 0 1
-31.002830 -6.735787 4.004062 31.977786 0.213939 1.445253 0.225194 -0.057801 -63693.800000 0 0 1
-31.978680 -7.719187 3.768262 33.112258 0.236855 1.456747 0.292608 -0.075102 -299471.000000 0 0 1
-31.565490 -9.171487 3.623262 33.069992 0.282769 1.461013 0.258900 -0.052583 -266123.000000 0 0 1
-31.185490 -9.743587 4.851562 33.030440 0.302830 1.423381 0.210230 -0.046538 183690.000000 0 0 1
-30.802480 -11.144987 4.804562 33.107210 0.347167 1.425161 0.179917 -0.038182 -30581.100000 0 0 1
-30.446660 -11.584787 6.232762 33.167058 0.363579 1.381752 0.157545 -0.049338 -202288.000000 0 0 1
-29.309050 -11.044487 6.858262 32.063014 0.360373 1.355231 0.113855 -0.036286 92781.100000 0 0 1
-29.303690 -11.230987 8.290462 32.458791 0.365994 1.312519 0.144543 -0.048951 -340117.000000 0 0 1
-30.222380 -10.350687 9.095962 33.215441 0.329964 1.293405 0.146179 -0.057214 -198854.000000 0 0 1
-29.451310 -9.137287 9.313762 32.212045 0.300834 1.277469 0.119256 -0.029750 1062020.000000 0 0 1
-30.134750 -8.355287 10.270562 32.915018 0.270470 1.253465 0.113121 -0.028354 121421.000000 0 0 1
-29.292510 -7.128087 10.714262 31.994627 0.238702 1.229322 0.144168 -0.019169 145454.000000 0 0 1
-29.281770 -5.974687 9.801362 31.451322 0.201278 1.253882 0.125622 -0.025081 422524.000000 0 0 1
-28.301620 -5.038487 10.234662 30.514199 0.176182 1.228760 0.138364 -0.033536 123120.000000 0 0 1
-28.128980 -3.847787 9.193062 29.842208 0.135947 1.257648 0.161520 -0.042693 139626.000000 0 0 1
-27.334520 -4.203887 8.056462 28.805472 0.152598 1.287330 0.151188 -0.029486 370576.000000 0 0 1
-27.419450 -3.250487 7.041862 28.495258 0.117996 1.321085 0.167404 -0.048156 -284851.000000 0 0 1
-26.686100 -3.746187 5.816562 27.568356 0.139468 1.358212 0.135328 -0.036736 219671.000000 0 0 1
-25.274910 -3.512387 5.864562 26.183030 0.138083 1.344897 0.165722 -0.052279 669385.000000 0 0 1
-24.698800 -4.067587 4.711062 25.470966 0.163223 1.384767 0.170917 -0.024872 309551.000000 0 0 1
-23.153200 -3.822187 4.708662 23.934312 0.163607 1.372772 0.164691 -0.021485 629499.000000 0 1 0
-22.736400 -2.470487 4.595662 23.327394 0.108233 1.372492 0.130812 -0.021511 577298.000000 0 1 0
-21.314700 -2.387687 4.515762 21.918248 0.111556 1.363283 0.126633 -0.024145 502438.000000 0 1 0
-20.780900 -0.940787 4.768962 21.341834 0.045241 1.345438 0.112525 -0.033140 -160108.000000 0 1 0
-20.867100 0.073013 3.750762 21.201637 -0.003499 1.392951 0.117838 -0.028165 968590.000000 0 1 0
-22.167300 0.660313 3.699562 22.483593 -0.029779 1.405500 0.103519 -0.046783 305086.000000 0 1 0
-22.257000 1.893913 2.710162 22.501243 -0.084888 1.450058 0.146929 -0.035081 -627526.000000 0 1 0
-21.581600 3.010213 3.162362 22.018796 -0.138586 1.426677 0.121078 -0.045178 135351.000000 0 1 0
-21.520000 4.105713 2.271162 22.025564 -0.188520 1.467498 0.136941 -0.031764 196446.000000 0 1 0
-20.421300 4.001513 1.162262 20.842084 -0.193496 1.515002 0.093277 -0.014370 -714488.000000 0 1 0
-20.560600 4.878513 0.050862 21.131511 -0.232967 1.568389 0.109705 -0.007131 770491.000000 0 1 0
-21.623500 4.541013 -0.846038 22.111362 -0.206996 1.609068 0.161897 -0.020089 386357.000000 0 1 0
-21.250900 3.334713 -1.786538 21.585013 -0.155652 1.653659 0.147604 -0.018517 -141100.000000 0 1 0
-21.170700 2.117713 -1.049038 21.302200 -0.099699 1.620062 0.105525 -0.017414 320858.000000 0 1 0
-20.672100 1.067513 -1.821938 20.779672 -0.051594 1.658588 0.086232 -0.008559 -283074.000000 0 1 0
-19.897700 0.039513 -0.985538 19.922131 -0.001986 1.620286 0.080941 -0.008609 16800.800000 0 1 0
-20.747300 -0.691487 -0.124238 20.759192 0.033317 1.576781 0.098744 -0.016779 653370.000000 0 1 0
-19.936500 -1.402087 0.764962 20.000376 0.070212 1.532540 0.075798 -0.015286 -13719.700000 0 1 0
-19.063900 -2.584387 0.208862 19.239412 0.134743 1.559940 0.032776 -0.011885 248394.000000 0 1 0
-18.185800 -3.162287 1.163862 18.495350 0.172166 1.507827 0.027244 -0.009123 892660.000000 0 1 0
-17.431700 -4.332887 0.841362 17.981823 0.243626 1.523990 0.011238 -0.004513 -189788.000000 0 1 0
-18.292600 -5.573487 0.578462 19.131586 0.295750 1.540556 0.007384 -0.009712 -61.713800 0 1 0
-19.129300 -5.754087 1.747762 20.052290 0.292190 1.483525 0.048653 -0.012625 142156.000000 0 1 0
-19.990900 -6.782187 1.481962 21.162003 0.327078 1.500710 0.053311 -0.020303 -977060.000000 0 1 0
-20.716800 -7.346487 2.704662 22.146600 0.340780 1.448365 0.083238 -0.018928 352622.000000 0 1 0
-19.882300 -8.009287 3.723962 21.755975 0.382948 1.398780 0.073286 -0.016085 1240200.000000 0 1 0
-20.718300 -8.627587 4.684362 22.926545 0.394584 1.365027 0.078257 -0.020613 -268345.000000 0 1 0
-19.945200 -9.370987 5.746662 22.773900 0.439227 1.315703 0.075577 -0.010004 -316507.000000 0 1 0
-19.413800 -10.564087 5.121062 22.687460 0.498343 1.343112 0.092804 -0.014289 354291.000000 0 1 0
-18.402900 -11.177187 5.901362 22.325374 0.545814 1.303283 0.106729 -0.021505 173200.000000 0 1 0
-17.970600 -12.525887 5.301462 22.537653 0.608724 1.333344 0.086620 -0.014371 1279820.000000 0 1 0
-19.091000 -13.470387 5.366562 23.973268 0.614467 1.345027 0.134221 -0.017983 1242570.000000 0 1 0
-18.566400 -14.662187 4.918962 24.163756 0.668439 1.365796 0.124016 -0.017638 319874.000000 0 1 0
-19.401400 -15.953987 5.245662 25.660495 0.688198 1.364919 0.137997 -0.023523 285857.000000 0 0 1
-18.841300 -17.192187 4.820162 25.957655 0.739664 1.384019 0.143693 -0.026842 19532.500000 0 0 1
-19.648000 -18.228387 5.301362 27.320733 0.747936 1.375516 0.145653 -0.027849 218105.000000 0 0 1
-19.001100 -19.604587 4.967862 27.749978 0.801029 1.390804 0.158862 -0.038720 -425835.000000 0 0 1
-18.927900 -20.040687 3.590462 27.799028 0.813946 1.441277 0.149580 -0.040097 4596.810000 0 0 1
-18.082900 -21.140087 3.456462 28.032868 0.863185 1.447181 0.139353 -0.036905 832135.000000 0 0 1
-16.537900 -20.819487 3.501262 26.818128 0.899512 1.439867 0.140063 -0.040783 637133.000000 0 0 1
-15.750900 -22.008387 3.589362 27.300979 0.949626 1.438941 0.118657 -0.041860 105566.000000 0 0 1
-14.378600 -21.731687 3.800462 26.333512 0.986280 1.425970 0.107645 -0.037268 279432.000000 0 0 1
-13.546500 -22.985287 4.152162 27.001325 1.038241 1.416408 0.118023 -0.035432 -95525.300000 0 0 1
-13.462300 -23.860887 3.071762 27.568300 1.057117 1.459141 0.107285 -0.034126 67929.400000 0 0 1
-12.699400 -25.036367 3.311362 28.267641 1.101375 1.453384 0.086550 -0.034945 -36339.500000 0 0 1
19.417300 19.195913 -24.020638 36.366271 0.779665 2.292307 0.071208 -0.013966 237257.000000 0 0 1
18.683500 19.702813 -25.146698 37.008519 0.811946 2.317856 0.053348 -0.020472 443808.000000 0 0 1
19.439400 19.539913 -26.344938 38.128129 0.787977 2.333610 0.069830 -0.024470 200107.000000 0 0 1
18.513000 19.724613 -27.550538 38.611186 0.817074 2.365331 0.062819 -0.028366 29221.300000 0 0 1
18.169800 21.081613 -27.789678 39.329916 0.859446 2.355448 0.064094 -0.023504 -273385.000000 0 0 1
17.145800 21.101513 -28.717888 39.547053 0.888456 2.383531 0.061011 -0.026094 -465657.000000 0 0 1
16.594100 22.496013 -29.137948 40.378890 0.935249 2.376926 0.087957 -0.032026 133018.000000 0 0 1
15.850800 23.272113 -28.162778 39.824379 0.972863 2.356290 0.083201 -0.034084 640903.000000 0 0 1
15.911800 24.649913 -28.415068 40.843845 0.997583 2.340190 0.092697 -0.032380 241317.000000 0 0 1
15.064600 25.567113 -27.414628 40.400263 1.038343 2.316618 0.090015 -0.035036 612725.000000 0 0 1
13.692100 25.214313 -27.405438 39.677364 1.073321 2.333263 0.097579 -0.041614 -200384.000000 0 0 1
12.993900 25.929813 -26.465838 39.263689 1.106255 2.310479 0.085989 -0.035077 -74237.600000 0 0 1
11.550100 25.414813 -26.096208 38.214259 1.144237 2.322510 0.104779 -0.038622 823613.000000 0 0 1
10.848900 26.173713 -25.179118 37.904484 1.177856 2.297324 0.096029 -0.042659 -201634.000000 0 0 1
10.364400 27.433013 -25.664978 38.970272 1.209567 2.289724 0.121664 -0.052731 -427489.000000 0 0 1
9.862800 28.259913 -24.511738 38.687502 1.235010 2.256972 0.142631 -0.058273 97162.300000 0 0 1
10.960100 28.697813 -23.743338 38.825692 1.205978 2.228798 0.136860 -0.047492 -116923.000000 0 0 1
10.536600 29.697113 -22.845638 38.921224 1.229850 2.198109 0.160494 -0.054669 -39681.300000 0 0 1
11.576900 30.167313 -21.797138 38.977001 1.204371 2.164254 0.125169 -0.050664 592437.000000 0 0 1
12.584100 31.064513 -22.315838 40.266117 1.185905 2.158209 0.119443 -0.058534 897603.000000 0 0 1
13.509400 31.519213 -21.300638 40.369318 1.165873 2.126621 0.087039 -0.036212 78614.300000 0 0 1
14.778900 32.156913 -21.834738 41.584116 1.139998 2.123598 0.085931 -0.024701 -849661.000000 0 0 1
15.735200 31.257013 -22.227038 41.456467 1.104422 2.136670 0.083477 -0.027302 -203273.000000 0 0 1
16.933100 31.879613 -22.718638 42.651801 1.082534 2.132529 0.062104 -0.023518 612445.000000 0 0 1
18.060500 30.903313 -23.100938 42.601054 1.041912 2.143923 0.027804 -0.013635 -167014.000000 0 0 1
18.899400 30.596113 -22.050338 42.184439 1.017459 2.120826 0.037929 -0.003007 -536320.000000 0 0 1
19.977900 29.792013 -22.456538 42.319932 0.980090 2.130149 0.046437 -0.008524 -35722.500000 0 0 1
20.942400 29.336313 -21.345838 41.890908 0.950820 2.105467 0.061359 -0.005678 -212677.000000 0 0 1
21.828800 30.313813 -20.883038 42.796321 0.946711 2.080551 0.053894 0.000356 -61769.200000 0 0 1
22.739800 29.634613 -20.042238 42.391038 0.916290 2.063255 0.081448 0.005778 54522.600000 0 0 1
23.488800 30.521413 -19.009738 42.949395 0.914879 2.029301 0.083630 -0.011078 408792.000000 0 0 1
24.720000 31.108513 -19.449638 44.239195 0.899334 2.026002 0.090497 -0.009934 636326.000000 0 0 1
25.312600 31.816413 -18.345738 44.604685 0.898754 1.994672 0.112759 -0.010673 -269846.000000 0 0 1
26.647000 32.490413 -18.622038 45.961613 0.883889 1.987956 0.106580 -0.014640 -208754.000000 0 0 1
27.654000 31.547813 -18.947838 46.032910 0.851075 1.995022 0.109402 -0.016001 -5831.400000 0 0 1
28.932500 32.150513 -18.857138 47.184073 0.838032 1.981932 0.111782 -0.014132 37203.000000 0 0 1
30.134100 31.318113 -19.275138 47.543865 0.804663 1.988232 0.107512 -0.015510 -226918.000000 0 0 1
30.390200 30.292913 -18.412638 46.693148 0.783795 1.976138 0.103592 -0.008695 -441052.000000 0 0 1
31.660500 29.732713 -18.609638 47.251879 0.754008 1.975601 0.085998 -0.011537 -359298.000000 0 0 1
32.088000 28.654813 -17.616038 46.487233 0.728938 1.959451 0.074007 -0.017514 -367914.000000 0 0 1
32.436300 29.155713 -16.342638 46.575219 0.732185 1.929314 0.056337 -0.000886 -18099.200000 0 0 1
32.702500 28.043913 -15.509338 45.787052 0.708859 1.916361 0.069586 -0.006485 -210422.000000 0 0 1
33.199800 28.481813 -14.102538 45.960004 0.709057 1.882671 0.070736 -0.001896 171863.000000 0 0 1
34.459200 29.131213 -14.137238 47.285574 0.701807 1.874415 0.069444 -0.008953 -37661.800000 0 0 1
34.396800 30.545213 -14.432738 48.212590 0.726159 1.874814 0.082418 -0.018208 1237600.000000 0 0 1
35.850800 31.236413 -14.550138 49.726249 0.716724 1.867746 0.086641 -0.018226 1905340.000000 0 0 1
36.526100 31.213113 -13.298938 49.852544 0.707125 1.840832 0.090009 -0.016960 -96282.800000 0 0 1
-37.837607 31.596013 -13.507138 51.111988 -0.695746 1.838239 0.094609 -0.026743 297516.000000 0 0 1
-37.104307 31.976813 -12.187138 50.475464 -0.711310 1.814653 0.086654 -0.019817 -71154.100000 0 0 1
-37.462807 33.270713 -11.621538 51.434059 -0.726201 1.798715 0.099282 -0.033551 673981.000000 0 0 1
-36.577007 33.704813 -10.582638 50.851589 -0.744554 1.780437 0.076788 -0.019170 286593.000000 0 0 1
-37.215307 -32.734131 -9.859538 50.534275 0.721423 1.767162 0.080986 -0.008797 21625.700000 0 0 1
-36.417807 -32.058631 -8.919738 49.331270 0.721824 1.752609 0.073691 -0.007705 -242264.000000 0 0 1
-36.119607 -32.766731 -7.802438 49.387880 0.736764 1.729444 0.057289 -0.009127 -143968.000000 0 0 1
-35.877707 -31.808931 -6.605038 48.400873 0.725358 1.707689 0.063860 -0.019193 -466742.000000 0 0 1
-36.967907 -30.966231 -6.414538 48.648534 0.697281 1.703036 0.060368 -0.006891 -586944.000000 0 0 1
-36.756807 -29.983431 -5.411138 47.742532 0.684256 1.684380 0.089037 -0.008181 589349.000000 0 0 1
37.601600 -29.274131 -4.999938 47.915075 -0.661514 1.675337 0.084113 -0.012588 444097.000000 0 0 1
36.803400 -30.147331 -4.236738 47.762975 -0.686306 1.659616 0.049963 -0.006967 864317.000000 0 0 1
35.573700 -29.559231 -3.730038 46.402042 -0.693318 1.651268 0.049008 -0.000091 866224.000000 0 0 1
35.702600 -28.496531 -2.586038 45.753858 -0.673620 1.627347 0.038888 -0.001296 -766231.000000 0 0 1
36.354200 -27.331131 -3.081138 45.586314 -0.644653 1.638437 0.069660 -0.011140 187759.000000 0 0 1
35.765400 -26.218931 -2.490338 44.416190 -0.632585 1.626894 0.064216 -0.004760 -221331.000000 0 0 1
36.188700 -24.808531 -2.920638 43.972893 -0.600950 1.637264 0.081705 -0.018788 -339967.000000 0 0 1
35.701000 -24.591131 -4.225538 43.556174 -0.603175 1.667963 0.091104 -0.027872 371263.000000 0 0 1
35.381400 -23.238531 -4.403538 42.558947 -0.581141 1.674451 0.105925 -0.031408 -347099.000000 0 0 1
35.191900 -22.861131 -5.912938 42.379995 -0.576103 1.710775 0.101996 -0.026699 -739256.000000 0 0 1
36.327200 -22.911531 -6.708138 43.469562 -0.562687 1.725734 0.101257 -0.025318 -257410.000000 0 0 1
36.035900 -22.564031 -8.041138 43.271024 -0.559429 1.757715 0.082243 -0.025287 -665003.000000 0 0 1
37.286000 -22.482331 -8.886138 44.437197 -0.542600 1.772124 0.082123 -0.025687 -253080.000000 0 0 1
-37.637907 -23.682231 -9.000038 45.370263 0.561623 1.770490 0.068308 -0.007988 1318660.000000 0 0 1
-36.332907 -23.323531 -9.529838 44.214082 0.570688 1.788040 0.091321 -0.005114 994361.000000 0 0 1
-35.478807 -24.450631 -10.059638 44.246756 0.603415 1.800155 0.105816 -0.012235 -283206.000000 0 0 1
-34.999207 -25.458831 -9.177338 44.241610 0.628887 1.779750 0.107161 -0.014294 -230148.000000 0 0 1
-35.995707 -26.396831 -8.846038 45.505340 0.632748 1.766438 0.093009 -0.010712 -75511.900000 0 0 1
-35.418607 -27.780131 -8.495938 45.808235 0.665117 1.757344 0.085630 -0.003241 16853.700000 0 0 1
-34.785507 -28.457031 -9.565838 45.949313 0.685663 1.780513 0.087311 -0.005318 408895.000000 0 0 1
-34.135507 -29.644731 -9.045238 46.107041 0.715104 1.768256 0.089938 -0.012856 325466.000000 0 0 1
-33.472707 -30.634931 -10.062538 46.477691 0.741161 1.789027 0.083009 -0.010967 589694.000000 0 0 1
-32.253407 -30.266331 -10.718638 45.510683 0.753626 1.808549 0.050501 0.013398 705849.000000 0 0 1
-31.952007 -31.130931 -11.839238 46.154449 0.772383 1.830210 0.045217 0.005264 -463724.000000 0 0 1
-31.942507 -30.514731 -13.237638 46.116240 0.762542 1.861941 0.024952 0.014486 -196364.000000 0 0 1
-30.925407 -29.559131 -13.427138 44.837608 0.762813 1.874925 0.020099 0.011288 -85880.500000 0 0 1
-31.218207 -28.800931 -14.588038 44.909698 0.745145 1.901629 0.019558 0.023056 169006.000000 0 0 1
-30.103807 -27.806231 -15.047538 43.656089 0.745744 1.922698 0.043393 0.004091 -330603.000000 0 0 1
-28.969007 -28.533231 -15.374238 43.470862 0.777820 1.932286 0.064316 -0.005084 -1213100.000000 0 0 1
-27.919007 -27.691031 -15.712038 42.345393 0.781299 1.950930 0.082124 0.007304 -248825.000000 0 0 1
-26.638207 -28.373231 -16.253338 42.175885 0.816927 1.966406 0.088156 -0.003619 -31810.100000 0 0 1
-26.684907 -28.888031 -17.597738 43.084603 0.825021 1.991547 0.084208 -0.001684 -110428.000000 0 0 1
-26.958907 -28.043531 -18.695538 43.159535 0.805115 2.018806 0.068474 0.009612 61480.000000 0 0 1
-25.752907 -27.234931 -19.228238 42.126937 0.813360 2.044781 0.076636 0.000013 10675.600000 0 0 1
-25.446107 -26.119031 -18.412338 40.849998 0.798447 2.038380 0.085822 -0.002139 865439.000000 0 0 1
-24.061807 -25.714231 -18.513438 39.786174 0.818583 2.054796 0.074987 -0.011399 1216050.000000 0 0 1
-23.631607 -24.683531 -17.460138 38.374288 0.807167 2.043164 0.086655 -0.010448 -37732.500000 0 0 1
-23.805307 -25.170831 -16.161838 38.229156 0.813272 2.007287 0.102259 -0.016487 148877.000000 0 0 1
-23.273607 -24.263831 -15.215038 36.903816 0.806226 1.995761 0.113245 -0.019003 -171095.000000 0 0 1
-23.946307 -24.435531 -13.869738 36.917346 0.795510 1.955945 0.110378 -0.016484 191152.000000 0 0 1
-25.355907 -24.301131 -13.907138 37.774005 0.764160 1.947833 0.089584 -0.002996 250011.000000 0 0 1
-25.938707 -24.199131 -12.616538 37.650916 0.750716 1.912500 0.090680 -0.008070 971928.000000 0 0 1
-27.487207 -23.921431 -12.603638 38.556881 0.716148 1.903801 0.090139 0.015210 371376.000000 0 0 1
-28.299607 -25.053131 -12.785738 39.899903 0.724624 1.896996 0.093059 0.004797 -24227.900000 0 0 1
-29.632607 -24.950131 -12.361738 40.662182 0.699821 1.879696 0.066928 0.016998 -274003.000000 0 0 1
-30.620707 -24.143531 -13.236738 41.179473 0.667671 1.898046 0.082319 0.013972 -1046480.000000 0 0 1
-30.678107 -22.757931 -13.012038 40.353225 0.638252 1.899117 0.090588 0.013583 219287.000000 0 0 1
-31.051607 -22.171831 -11.736938 39.919270 0.620081 1.869223 0.099581 0.011422 413218.000000 0 0 1
-32.474507 -22.580331 -11.130138 41.089475 0.607581 1.845099 0.061420 0.010176 1172810.000000 0 0 1
-33.610207 -21.989531 -11.743138 41.845989 0.579358 1.855244 0.096763 -0.008532 346010.000000 0 0 1
-33.852607 -22.319931 -13.123338 42.619248 0.582904 1.883803 0.091336 -0.001223 -555553.000000 0 0 1
-35.278707 -21.814131 -13.576338 43.643561 0.553794 1.887118 0.061194 -0.015511 783409.000000 0 0 1
-36.213807 -22.714831 -13.030838 44.690112 0.560210 1.866677 0.083747 -0.007326 699522.000000 0 0 1
-37.601607 -22.377831 -13.247038 45.717963 0.536831 1.864768 0.098893 -0.028503 1203860.000000 0 0 1
37.153000 -23.474131 -12.709138 45.748251 -0.563491 1.852306 0.099454 -0.005766 -215840.000000 0 0 1
37.137200 -24.684631 -13.409338 46.565148 -0.586631 1.862902 0.094139 0.006142 442192.000000 0 0 1
36.255000 -25.687331 -12.870738 46.259268 -0.616420 1.852748 0.095136 -0.001135 534529.000000 0 0 1
35.903300 -26.943631 -13.731638 46.942136 -0.643789 1.867660 0.084582 -0.007454 560656.000000 0 0 1
35.148800 -26.638031 -14.921838 46.558394 -0.648515 1.897051 0.080588 -0.008289 78701.600000 0 0 1
34.774200 -27.865731 -15.482038 47.174543 -0.675554 1.905179 0.069506 0.010719 -87482.800000 0 0 1
34.147800 -27.683031 -16.879938 47.088797 -0.681221 1.937425 0.064642 -0.002856 -665300.000000 0 0 1
32.790400 -27.401531 -16.812538 45.920754 -0.696108 1.945633 0.109675 -0.008933 -930282.000000 0 0 1
32.150600 -27.480831 -18.055438 45.987564 -0.707247 1.974270 0.101426 -0.012051 -177351.000000 0 0 1
30.631500 -27.622431 -17.891238 44.959803 -0.733790 1.980065 0.100335 -0.018910 -257659.000000 0 0 1
29.985600 -26.538631 -17.282038 43.613117 -0.724491 1.978234 0.085604 -0.021795 -818143.000000 0 0 1
28.652400 -26.868131 -17.044538 42.817903 -0.753272 1.980209 0.113252 -0.025045 -248365.000000 0 0 1
27.920800 -25.917531 -16.039538 41.334686 -0.748206 1.969301 0.102746 -0.033927 220044.000000 0 0 1
27.782400 -24.608231 -16.538238 40.631762 -0.724886 1.989994 0.104586 -0.039501 -185791.000000 0 0 1
27.431900 -23.695731 -15.499938 39.423913 -0.712452 1.974863 0.114584 -0.046181 -17583.100000 0 0 1
27.035300 -22.300331 -16.005838 38.527900 -0.689717 1.999217 0.127765 -0.049066 975461.000000 0 0 1
25.638300 -21.997331 -16.195638 37.463365 -0.709113 2.017845 0.125477 -0.054568 760686.000000 0 0 1
25.410100 -20.597731 -16.392438 36.587590 -0.681178 2.035360 0.133306 -0.051606 157973.000000 0 0 1
23.905700 -20.227131 -16.482338 35.387664 -0.702238 2.055295 0.130018 -0.053772 94371.800000 0 0 1
23.379900 -20.248531 -15.198438 34.461794 -0.713747 2.027534 0.138541 -0.051924 38078.000000 0 0 1
21.996000 -19.931731 -15.159438 33.330264 -0.736204 2.042972 0.128900 -0.050025 358334.000000 0 0 1
21.663200 -18.677731 -14.298938 31.978297 -0.711527 2.034367 0.112094 -0.038982 -100751.000000 0 0 1
21.454900 -18.975831 -12.908738 31.417040 -0.724158 1.994219 0.116504 -0.046375 84928.100000 0 0 1
20.937300 -17.809631 -12.282038 30.106510 -0.704852 1.991007 0.100133 -0.051360 461612.000000 0 0 1
19.908100 -18.009531 -11.098838 29.049266 -0.735369 1.962831 0.108124 -0.034821 668809.000000 0 0 1
20.521800 -18.672631 -9.986738 29.488072 -0.738254 1.916300 0.118278 -0.047059 -91202.200000 0 0 1
19.685100 -18.579531 -8.863538 28.482704 -0.756514 1.887241 0.100324 -0.040468 -124514.000000 0 0 1
20.225300 -19.250531 -7.583438 28.933618 -0.760710 1.835992 0.101621 -0.041864 483855.000000 0 0 1
21.294800 -18.485031 -7.006538 29.056092 -0.714882 1.814335 0.099365 -0.040068 1070330.000000 0 0 1
22.138200 -19.300031 -6.117738 30.000297 -0.717013 1.776159 0.106370 -0.033943 926385.000000 0 0 1
23.477600 -18.594631 -5.715438 30.489740 -0.669854 1.759366 0.107045 -0.027652 374048.000000 0 0 1
24.380700 -18.673031 -6.825638 31.459338 -0.653596 1.789503 0.101514 -0.038167 402494.000000 0 0 1
25.216200 -17.524231 -6.811238 31.453909 -0.607335 1.789072 0.122941 -0.027948 -472393.000000 0 0 1
26.276400 -17.364131 -7.914838 32.474712 -0.583948 1.816999 0.140355 -0.036195 340405.000000 0 0 1
27.408900 -18.197231 -7.645638 33.776364 -0.586096 1.799136 0.159243 -0.050263 436653.000000 0 0 1
27.440500 -19.321731 -8.549038 34.632303 -0.613494 1.820226 0.160930 -0.060028 350763.000000 0 0 1
28.644700 -20.314331 -8.438338 36.116429 -0.616862 1.806619 0.156996 -0.061523 616296.000000 0 0 1
29.925000 -19.901131 -8.860138 37.014358 -0.586871 1.812514 0.132142 -0.039107 43359.600000 0 0 1
30.901800 -20.845431 -8.490238 38.230059 -0.593454 1.794746 0.115861 -0.040096 -9130.670000 0 0 1
-31.142410 29.697913 3.777062 43.198171 -0.761660 1.483249 0.099631 -0.036587 107207.000000 0 0 1
-30.611910 30.642413 2.867162 43.408146 -0.785896 1.504697 0.115957 -0.033708 -178438.000000 0 0 1
-29.645660 31.414413 3.554362 43.340097 -0.814357 1.488693 0.104545 -0.019762 -192911.000000 0 0 1
-28.996540 32.498313 2.685662 43.636596 -0.842281 1.509211 0.122322 -0.026988 -522913.000000 0 0 1
-27.944970 31.979113 1.895262 42.510905 -0.852618 1.526199 0.127004 -0.035309 -132813.000000 0 0 1
-27.356530 32.926813 1.042062 42.821031 -0.877538 1.546459 0.145124 -0.046677 53423.400000 0 0 1
-26.283230 -33.832531 1.678062 42.874984 0.910324 1.531648 0.151275 -0.034995 -743560.000000 0 0 1
-24.972680 33.379913 1.519162 41.715240 -0.928490 1.534371 0.140099 -0.038924 -362433.000000 0 0 1
-24.044400 -33.529831 2.273662 41.322540 0.948683 1.515746 0.131128 -0.031815 881778.000000 0 0 1
-22.531800 33.769813 2.183662 40.655266 -0.982413 1.517059 0.119155 -0.039827 672722.000000 0 0 1
-22.051900 -33.570631 0.901862 40.175701 0.989599 1.548347 0.125738 -0.034154 -475096.000000 0 0 1
-20.719600 33.682413 0.740062 39.551921 -1.019314 1.552084 0.113432 -0.034119 -824867.000000 0 0 1
-20.147200 -33.336931 -0.544038 38.955829 1.027184 1.584762 0.116586 -0.036924 -147702.000000 0 0 1
-19.731900 -31.967331 -0.507638 37.570146 1.017788 1.584308 0.126626 -0.037192 132452.000000 0 0 1
-18.661700 -31.704031 0.353062 36.790343 1.038785 1.561200 0.133946 -0.028339 -735986.000000 0 0 1
-18.302900 -30.231331 0.517062 35.343980 1.026395 1.556166 0.142093 -0.038371 -348669.000000 0 0 1
-17.454700 -29.730031 -0.478038 34.478542 1.039911 1.584662 0.131205 -0.030181 -42802.800000 0 0 1
-17.468300 -28.341231 -0.498238 33.295873 1.018437 1.585761 0.114857 -0.033783 411979.000000 0 0 1
-16.489300 -27.660931 -1.543338 32.239821 1.033233 1.618685 0.100688 -0.034332 148445.000000 0 0 1
-16.903500 -27.893031 -2.809538 32.735959 1.025968 1.656726 0.095608 -0.030320 -246711.000000 0 0 1
-15.989300 -27.387231 -3.763438 31.935586 1.042356 1.688915 0.086458 -0.021013 -216512.000000 0 0 1
-16.484100 -27.393731 -5.218538 32.394062 1.029093 1.732597 0.129985 -0.033872 -209529.000000 0 0 1
-17.418400 -26.336731 -5.272338 32.012836 0.986468 1.736245 0.127571 -0.032729 -692243.000000 0 0 1
-18.069100 -26.401231 -6.494938 32.645086 0.970615 1.771089 0.141237 -0.037993 -177989.000000 0 0 1
-18.800100 -25.081631 -6.692538 32.051865 0.927579 1.781148 0.113819 -0.033695 -382567.000000 0 0 1
-17.848600 -24.063431 -6.664438 30.692605 0.932608 1.789675 0.083417 -0.016967 -53033.100000 0 0 1
-18.362500 -22.745831 -6.857238 30.026255 0.891626 1.801204 0.065770 -0.015588 162002.000000 0 0 1
-17.228500 -21.706731 -6.632938 28.495601 0.899912 1.805722 0.079267 -0.010384 363159.000000 0 0 1
-16.286500 -21.794931 -7.687838 28.273167 0.929051 1.846177 0.102217 -0.017692 -698403.000000 0 0 1
-15.171000 -21.002831 -7.421138 26.950908 0.945240 1.849758 0.136299 -0.045323 270636.000000 0 0 1
-14.141600 -20.954731 -8.607138 26.705214 0.977140 1.898956 0.131190 -0.039006 507348.000000 0 0 1
-14.678200 -20.185231 -9.630138 26.751312 0.942064 1.939051 0.145361 -0.036906 82055.000000 0 0 1
-13.700100 -20.033431 -10.638538 26.499238 0.970984 1.983913 0.135339 -0.030384 228391.000000 0 0 1
-14.225100 -19.154231 -11.796138 26.615539 0.932009 2.029967 0.156058 -0.031303 125673.000000 0 0 1
-15.364700 -19.777131 -12.352638 27.924839 0.910305 2.029017 0.130542 -0.015959 -306456.000000 0 0 1
-15.753900 -19.112831 -13.535638 28.225861 0.881438 2.070935 0.151469 -0.028060 -594631.000000 0 0 1
-17.077100 -19.569331 -14.092438 29.549668 0.853301 2.067929 0.161986 -0.031104 -846561.000000 0 0 1
-18.243100 -19.129431 -13.429938 29.649774 0.809110 2.040871 0.146689 -0.025648 -43423.900000 0 0 1
-19.334700 -19.567931 -14.208938 30.961726 0.791393 2.047575 0.106021 -0.016888 -629899.000000 0 0 1
-20.702100 -19.148031 -13.637938 31.324390 0.746420 2.021254 0.072867 -0.004597 187490.000000 0 0 1
-21.700300 -19.944931 -14.295038 32.757464 0.743273 2.022379 0.079937 -0.012749 -187580.000000 0 0 1
-23.010000 -19.598631 -13.933238 33.282151 0.705506 2.002744 0.067444 -0.007805 -1541830.000000 0 0 1
-23.970400 -20.418931 -14.674738 34.739902 0.705561 2.006907 0.075482 -0.012039 -1336860.000000 0 0 1
-24.123400 -20.026331 -16.082038 35.236690 0.692864 2.044742 0.078601 -0.020595 267485.000000 0 0 1
-25.013180 -20.804731 -16.849438 36.638772 0.693804 2.048656 0.094518 -0.023720 -379112.000000 0 0 1
-25.274690 -20.145031 -18.190138 37.087914 0.672936 2.083414 0.098610 -0.020101 -403308.000000 0 0 1
-24.189800 -19.934631 -19.051838 36.681174 0.689260 2.116933 0.083161 -0.024565 -301026.000000 0 0 1
-24.585800 -19.722931 -20.382438 37.535309 0.676086 2.144826 0.102062 -0.030990 -190863.000000 0 0 1
-23.667100 -18.785631 -21.207238 36.915830 0.670915 2.182759 0.072473 -0.027626 548906.000000 0 0 1
-22.339100 -19.296031 -21.383938 36.450584 0.712439 2.197719 0.049348 -0.011550 386740.000000 0 0 1
-21.592800 -18.416031 -22.190038 36.024950 0.706163 2.234404 0.046393 -0.017235 581462.000000 0 0 1
-20.121000 -18.923831 -22.362238 35.539214 0.754746 2.251355 0.045871 -0.013344 509367.000000 0 0 1
-19.976000 -20.014631 -23.232238 36.597308 0.786364 2.258555 0.036873 -0.000960 889517.000000 0 0 1
-18.601000 -20.414731 -23.414038 36.207398 0.831852 2.274000 0.037888 -0.001321 925156.000000 0 0 1
-18.506000 -21.909631 -23.913638 37.341212 0.869416 2.265827 0.042512 0.000748 -47289.000000 0 0 1
-18.801900 -21.995731 -25.315388 38.447270 0.863524 2.289546 0.041793 -0.004552 132479.000000 0 0 1
-18.761000 -23.365431 -25.636768 39.435547 0.894266 2.278503 0.053431 -0.008425 -70805.500000 0 0 1
-18.857500 -23.647931 -27.184268 40.667117 0.897626 2.302930 0.050999 -0.002658 468002.000000 0 0 1
-17.573500 -23.506031 -27.779398 40.411092 0.928822 2.328727 0.053186 -0.007837 529689.000000 0 0 1
-17.745300 -23.786731 -29.152818 41.600374 0.929849 2.347290 0.069711 -0.008271 525438.000000 0 0 1
-16.387000 -23.661031 -29.900708 41.502175 0.965072 2.375264 0.053431 -0.017662 645484.000000 0 0 1
-15.422500 -24.636231 -29.527808 41.432944 1.011472 2.364086 0.060534 -0.015572 838809.000000 0 0 1
-14.094600 -24.249131 -29.937028 41.023210 1.044284 2.388765 0.079874 -0.021722 1365540.000000 0 0 1
-13.042800 -25.366831 -29.597958 41.105108 1.095879 2.374679 0.119998 -0.032736 -210341.000000 0 0 1
-13.180500 -26.569531 -30.347458 42.433876 1.110293 2.367664 0.098074 -0.025885 158217.000000 0 0 1
-12.338900 -27.663231 -30.024408 42.649360 1.151241 2.351786 0.114113 -0.029580 -391733.000000 0 0 1
-10.965700 -27.675731 -30.699858 42.762998 1.193552 2.371587 0.136010 -0.030533 -655225.000000 0 0 1
-10.220000 -26.545431 -30.349088 41.595378 1.203287 2.388572 0.184913 -0.050914 -397498.000000 0 0 1
-9.075300 -26.520631 -31.191468 41.935816 1.241089 2.409520 0.164061 -0.045843 -235424.000000 0 0 1
-8.070500 -25.442331 -30.720948 40.696706 1.263628 2.426261 0.246029 -0.056928 -203703.000000 0 0 1
-8.479200 -24.060331 -30.806818 39.998205 1.231972 2.449959 0.259829 -0.055544 335000.000000 0 0 1
-9.162900 -23.710631 -29.561778 38.987838 1.202028 2.431392 0.233032 -0.040508 286786.000000 0 0 1
-9.283100 -22.180231 -29.422918 37.997983 1.174418 2.456449 0.239159 -0.051374 364876.000000 0 0 1
-10.141500 -21.681731 -30.447928 38.730141 1.133285 2.475361 0.200793 -0.045849 532149.000000 0 0 1
-10.725500 -20.375131 -30.175668 37.957256 1.086251 2.489789 0.192929 -0.047475 435503.000000 0 0 1
-11.541400 -19.798831 -31.343628 38.828091 1.043020 2.510259 0.162266 -0.041036 -267411.000000 0 0 1
-12.364500 -18.737231 -31.041858 38.308768 0.987500 2.515472 0.139042 -0.034612 61310.300000 0 0 1
-13.095300 -18.326131 -32.199478 39.295552 0.950359 2.531191 0.116919 -0.028907 -84253.000000 0 0 1
-13.898600 -17.004131 -32.150188 38.935154 0.885556 2.542303 0.125588 -0.032595 -48661.000000 0 0 1
-13.291900 -15.712831 -32.258988 38.264997 0.868672 2.573710 0.132752 -0.034114 -385651.000000 0 0 1
-12.534900 -15.246031 -31.201668 36.920310 0.882680 2.577564 0.115877 -0.033280 16735.400000 0 0 1
-11.954700 -13.806531 -31.497548 36.409212 0.857159 2.616143 0.087551 -0.032796 29186.400000 0 0 1
-11.062700 -13.603431 -32.581508 36.999883 0.888041 2.647890 0.088405 -0.036746 -25441.600000 0 0 1
-11.557500 -13.661931 33.521850 37.999193 0.868650 0.490340 0.093146 -0.033181 -273598.000000 0 0 1
-12.121400 -12.290131 33.045934 37.282831 0.792310 0.481377 0.085173 -0.024707 -826087.000000 0 0 1
-13.285000 -11.823731 33.594510 38.011616 0.727266 0.486882 0.062498 -0.017484 -491784.000000 0 0 1
-14.053800 -11.038631 32.597902 37.175044 0.665809 0.501472 0.073931 -0.023568 629324.000000 0 0 1
-15.173100 -10.277231 33.321334 38.028355 0.595350 0.502828 0.090318 -0.026588 -52115.600000 0 0 1
-14.738400 -9.199231 -33.307208 37.566161 0.558000 2.660799 0.063912 -0.021329 135117.000000 0 0 1
-15.791500 -8.762031 -32.458068 37.143921 0.506565 2.633854 0.077977 -0.024766 520057.000000 0 0 1
-15.296400 -7.613331 -31.514908 35.848739 0.461822 2.644783 0.064757 -0.035121 40670.700000 0 0 1
-14.978400 -6.288631 -31.947588 35.840588 0.397498 2.671177 0.065350 -0.036336 366400.000000 0 0 1
-16.025200 -5.327931 -31.791618 35.998623 0.320975 2.653298 0.064034 -0.027529 92979.000000 0 0 1
-16.305100 -4.786431 -30.381918 34.811308 0.285533 2.631624 0.057254 -0.041286 -194027.000000 0 0 1
-16.917100 -5.786331 -29.592328 34.574207 0.329566 2.598100 0.056918 -0.045789 -73541.400000 0 0 1
-17.313600 -5.354231 -28.251188 33.564240 0.299921 2.571230 0.065974 -0.049332 -44440.000000 0 0 1
-16.261300 -4.697831 -27.340848 32.156205 0.281239 2.587258 0.067222 -0.050329 -22164.500000 0 0 1
-15.917000 -3.409031 -27.864438 32.270719 0.210988 2.612883 0.063426 -0.046880 103334.000000 0 0 1
-14.694200 -2.866031 -27.360798 31.188891 0.192627 2.640922 0.062704 -0.045460 409018.000000 0 0 1
-14.417300 -1.610031 -28.154288 31.671986 0.111213 2.665808 0.061717 -0.033476 -96714.900000 0 0 1
-14.264400 -1.986031 -29.500508 32.828302 0.138341 2.687434 0.064291 -0.040100 54608.800000 0 0 1
-14.040500 -0.947031 -30.395228 33.494812 0.067348 2.707997 0.075433 -0.045127 -146591.000000 0 0 1
-14.228000 -1.247031 -31.897278 34.948926 0.087423 2.720597 0.059226 -0.046375 -189776.000000 0 0 1
-15.529600 -1.653031 -32.267878 35.848528 0.106045 2.690835 0.043245 -0.045383 149644.000000 0 0 1
-15.660700 -1.489031 -33.664588 37.158838 0.094796 2.704449 0.045805 -0.038902 245323.000000 0 0 1
-17.094900 -1.718031 33.239597 37.417350 0.100163 0.477063 0.036005 -0.035617 373027.000000 0 0 1
-16.988200 -1.850031 31.828949 36.126217 0.108473 0.492722 0.056606 -0.038072 330060.000000 0 0 1
-18.283800 -1.997031 31.289080 36.294518 0.108793 0.531420 0.050183 -0.032869 84723.700000 0 0 1
-18.246400 -1.892031 29.731950 34.935652 0.103324 0.552817 0.071518 -0.025664 -3430.660000 0 0 1
-17.825600 -0.618031 29.311280 34.311589 0.034657 0.546656 0.082134 -0.012346 11757.200000 0 0 1
-17.809000 -0.551031 27.907950 33.110690 0.030931 0.568205 0.093029 -0.017800 15180.800000 0 0 1
-17.145300 0.807969 27.419580 32.348841 -0.047090 0.559309 0.082884 -0.019203 69118.100000 0 0 1
-17.837400 2.006969 27.705070 33.011690 -0.112043 0.574893 0.072944 -0.015361 259195.000000 0 0 1
-19.079600 2.181969 27.029260 33.156795 -0.113867 0.617730 0.080366 -0.023701 219164.000000 0 0 1
-18.989900 2.980969 25.733300 32.120169 -0.155706 0.641570 0.092670 -0.029153 -417729.000000 0 0 1
-18.741800 4.330969 25.977430 32.323973 -0.227100 0.637379 0.085886 -0.023192 -24587.400000 0 0 1
-19.208100 5.111969 24.922900 31.878430 -0.260107 0.673232 0.093533 -0.023946 -698583.000000 0 0 1
-18.922000 6.646969 25.045730 32.086023 -0.337817 0.675202 0.091173 -0.025823 359699.000000 0 0 1
-17.578300 7.112969 25.148380 31.496540 -0.384504 0.646082 0.073976 -0.027216 -42518.600000 0 0 1
-16.942900 7.064969 23.908310 30.142710 -0.395064 0.654799 0.073541 -0.021830 -799427.000000 0 0 1
-15.746800 8.004969 23.932980 29.746072 -0.470309 0.635835 0.056871 -0.022739 -119260.000000 0 0 1
-14.554200 7.542969 24.547030 29.517416 -0.478155 0.588793 0.045348 -0.023407 359955.000000 0 0 1
-13.447800 8.217969 23.945620 28.666550 -0.548542 0.582089 0.047507 -0.014969 -159337.000000 0 0 1
-12.123500 8.062969 24.678770 28.653664 -0.586896 0.533017 0.036781 -0.005917 -374223.000000 0 0 1
-11.052600 8.717969 24.008970 27.831522 -0.667856 0.530303 0.030930 -0.008646 -37918.500000 0 0 1
-9.875800 8.755969 24.773460 28.069962 -0.725367 0.489515 0.041574 -0.017254 -286908.000000 0 0 1
-9.622200 9.963969 25.699200 29.194457 -0.802846 0.494351 0.054248 -0.023866 -167874.000000 0 0 1
-10.611800 10.205969 26.738680 30.524238 -0.765906 0.503329 0.046654 -0.025260 781648.000000 0 0 1
-10.612100 11.521969 27.249320 31.430843 -0.826482 0.521724 0.065457 -0.024926 -389677.000000 0 0 1
-11.266700 12.590969 26.286870 31.248529 -0.840848 0.571262 0.054399 -0.026902 410230.000000 0 0 1
-12.677000 12.600969 26.094590 31.629391 -0.782390 0.600575 0.055093 -0.026999 428757.000000 0 0 1
-13.098000 11.653969 25.135690 30.645971 -0.727124 0.609043 0.048349 -0.018488 -393823.000000 0 0 1
-14.614100 11.667969 24.854090 31.103685 -0.673768 0.645046 0.029074 -0.018955 86558.400000 0 0 1
-15.037800 12.914969 24.278990 31.343280 -0.709600 0.684689 0.035144 -0.020464 -60829.300000 0 0 1
-16.164800 12.823969 23.427710 31.218785 -0.670659 0.722074 0.040768 -0.010138 3410.400000 0 0 1
-15.934200 12.232969 21.957720 29.760473 -0.654744 0.740969 0.029600 -0.001376 -294155.000000 0 0 1
-16.237400 10.877969 21.883520 29.340618 -0.590260 0.728996 0.036219 -0.003005 -1817.050000 0 0 1
-16.115900 10.342969 20.593320 28.120883 -0.570580 0.749082 0.053351 -0.007665 -73010.800000 0 0 1
-16.403200 8.822969 20.401120 27.624545 -0.493491 0.739932 0.061925 -0.014444 -16028.200000 0 0 1
-17.774900 8.544969 20.466020 28.422202 -0.448115 0.766891 0.078227 -0.013384 -509539.000000 0 0 1
-18.060500 7.175969 20.428820 28.195973 -0.378202 0.760444 0.079004 -0.011286 202418.000000 0 0 1
-19.555400 6.896969 20.712020 29.308184 -0.339068 0.785977 0.110086 -0.023257 245395.000000 0 0 1
-20.015200 7.337969 21.983720 30.622508 -0.351403 0.770024 0.091356 -0.022539 335628.000000 0 0 1
-21.436200 7.415969 22.020920 31.613735 -0.333067 0.800202 0.083365 -0.022336 335888.000000 0 0 1
-22.021300 8.226969 23.229420 33.048853 -0.357535 0.791356 0.086010 -0.021897 -744451.000000 0 0 1
-21.985100 9.633969 23.178870 33.367919 -0.413002 0.802870 0.083792 -0.023490 1063460.000000 0 0 1
-20.686100 10.268969 23.076290 32.647843 -0.460779 0.785797 0.086073 -0.025539 1101730.000000 0 0 1
-19.803900 10.080969 24.318560 32.942568 -0.470853 0.740382 0.074772 -0.027731 -280565.000000 0 0 1
-20.510000 10.710969 25.389920 34.351609 -0.481274 0.739035 0.060215 -0.021287 597564.000000 0 0 1
-19.922700 10.273969 26.586370 34.775041 -0.476122 0.700493 0.060721 -0.021504 -100960.000000 0 0 1
-32.660890 -14.127787 20.008320 40.824760 0.408256 1.058589 0.099905 -0.025599 -275633.000000 0 0 1
-31.689300 -15.080087 19.690920 40.241187 0.444160 1.059484 0.096612 -0.013854 -323047.000000 0 0 1
-31.929710 -15.862887 18.509520 40.171382 0.461090 1.091941 0.082014 0.002309 -73862.400000 0 0 1
-31.481900 -15.272187 17.182720 38.981991 0.451665 1.114322 0.093959 0.007019 -190287.000000 0 0 1
-32.440250 -14.397587 16.627620 39.193598 0.417702 1.132670 0.090918 -0.006093 -359912.000000 0 0 1
-32.082070 -13.892687 15.401220 38.202926 0.408657 1.155848 0.088664 -0.006929 -402969.000000 0 0 1
-33.206730 -12.930687 14.943020 38.641732 0.371335 1.173738 0.093324 -0.009643 239733.000000 0 0 1
-34.504812 -13.449087 14.722620 39.852422 0.371660 1.192402 0.112583 -0.019555 405349.000000 0 0 1
-35.315288 -13.749187 15.843020 41.075674 0.371272 1.174826 0.116735 -0.025438 -430737.000000 0 0 1
-36.049640 -12.472187 16.376420 41.512879 0.333082 1.165283 0.110891 -0.022348 -571935.000000 0 0 1
-37.165720 -12.736987 17.183120 42.881012 0.330164 1.158498 0.078833 -0.022199 -183032.000000 0 0 1
-37.588880 -11.550587 17.744220 43.141596 0.298129 1.146914 0.075183 -0.016234 85284.300000 0 0 1
37.095686 -11.611087 18.916820 43.229080 -0.303344 1.117874 0.067858 -0.008250 375383.000000 0 0 1
37.656756 -12.243787 20.067420 44.391924 -0.314360 1.101733 0.068456 -0.008907 -9532.680000 0 0 1
37.077826 -11.769887 21.244820 44.324235 -0.307377 1.070934 0.056828 -0.012984 -912877.000000 0 0 1
37.841846 -12.210287 22.510460 45.692639 -0.312120 1.055664 0.053856 -0.019375 681011.000000 0 0 1
-36.602150 -11.572087 22.681120 44.587709 0.306215 1.037139 0.061020 -0.015339 910848.000000 0 0 1
-35.497148 -12.151087 21.955820 43.471307 0.329809 1.041339 0.059515 -0.019688 -342771.000000 0 0 1
-34.317051 -11.200587 21.900420 42.222524 0.315484 1.025478 0.074529 -0.021458 -670323.000000 0 0 1
-34.546580 -10.044387 21.137520 41.727098 0.282948 1.039599 0.091561 -0.021267 -550151.000000 0 0 1
-33.337110 -9.409887 20.891120 40.451796 0.275107 1.028102 0.110265 -0.029334 -801080.000000 0 0 1
-33.516480 -8.049087 20.111920 39.907789 0.235690 1.042619 0.099529 -0.019319 58838.900000 0 0 1
-33.859250 -8.185187 18.724520 39.548120 0.237191 1.077580 0.105080 -0.021484 593567.000000 0 0 1
-35.222168 -8.486987 18.458120 40.661189 0.236449 1.099604 0.096514 -0.023990 -152023.000000 0 0 1
-35.702435 -8.353387 16.982820 40.408652 0.229838 1.137046 0.097744 -0.020513 386068.000000 0 0 1
-37.110140 -8.566887 16.927120 41.678309 0.226876 1.152573 0.015880 -0.025344 477908.000000 0 0 1
-37.625120 -8.293087 15.646820 41.584227 0.216945 1.185031 0.040707 -0.018755 546452.000000 0 0 1
36.522796 -8.277887 15.580720 40.561027 -0.222884 1.176531 0.090667 -0.037178 465468.000000 0 0 1
36.026396 -9.581587 15.653820 40.432043 -0.259943 1.173243 0.100599 -0.015048 -159032.000000 0 0 1
34.647566 -9.523787 15.925620 39.303711 -0.268251 1.153606 0.086240 -0.015381 -93701.100000 0 0 1
33.745936 -10.783987 15.912120 38.836557 -0.309307 1.148649 0.081666 -0.008584 387962.000000 0 0 1
33.986846 -11.686887 16.951320 39.737090 -0.331199 1.130081 0.054715 -0.012940 -462941.000000 0 0 1
32.797146 -12.359787 17.161420 39.024755 -0.360396 1.115468 0.079738 -0.007046 -465887.000000 0 0 1
32.678396 -12.708887 18.648920 39.713670 -0.370908 1.081976 0.068468 -0.011901 -305513.000000 0 0 1
33.704096 -13.505787 19.138420 41.044506 -0.381124 1.085710 0.076223 -0.009222 -485570.000000 0 0 1
33.590706 -13.624787 20.531320 41.659398 -0.385335 1.055448 0.083333 -0.009684 -14732.700000 0 0 1
34.243146 -14.957887 20.947420 42.838369 -0.411835 1.059868 0.087708 -0.009514 221433.000000 0 0 1
34.459496 -14.978787 22.321920 43.704566 -0.410039 1.034744 0.081070 -0.020847 -256558.000000 0 0 1
35.126486 -16.188087 22.657940 44.825288 -0.431841 1.040867 0.089150 -0.019200 -51884.100000 0 0 1
35.695346 -16.049487 24.065500 45.944445 -0.422541 1.019496 0.105982 -0.025866 834195.000000 0 0 1
36.886946 -15.227787 24.130260 46.634770 -0.391512 1.026951 0.090109 -0.016085 866361.000000 0 0 1
37.313176 -15.055287 25.475990 47.623113 -0.383507 1.006348 0.090283 -0.018585 -189580.000000 0 0 1
-37.264070 -14.042087 25.685710 47.387201 0.360371 0.997935 0.068041 -0.012741 -230840.000000 0 0 1
-35.993150 -14.474687 25.257350 46.292085 0.382359 0.993681 0.034995 -0.014822 -302413.000000 0 0 1
-35.068037 -13.444887 25.517460 45.405649 0.366110 0.974008 0.049734 -0.018254 -260560.000000 0 0 1
-33.620550 -13.897187 25.278820 44.300022 0.391965 0.963526 0.044998 -0.015724 -668055.000000 0 0 1
-33.264490 -14.050287 23.854720 43.277992 0.399650 0.986998 0.045925 -0.011335 -205123.000000 0 0 1
-31.925230 -14.407887 23.640680 42.257417 0.423935 0.977081 0.054006 -0.020077 -136397.000000 0 0 1
-31.496100 -15.864187 24.072250 42.698361 0.466593 0.971848 0.058154 -0.016795 -719340.000000 0 0 1
-31.276140 -15.899487 25.462380 43.351164 0.470312 0.943014 0.056995 -0.020790 19127.900000 0 0 1
-31.209400 -17.244087 25.916390 44.079978 0.504782 0.942286 0.060926 -0.023059 -224078.000000 0 0 1
-30.901090 -17.311087 27.434990 44.802118 0.510648 0.911755 0.052150 -0.020516 -212525.000000 0 0 1
-29.676730 -16.668387 27.702500 43.885897 0.511755 0.887646 0.047663 -0.022056 3286.110000 0 0 1
-29.024640 -17.321387 28.801170 44.406842 0.538050 0.865085 0.057146 -0.020999 460240.000000 0 0 1
-27.809570 -16.542587 29.380930 43.706618 0.536626 0.833579 0.054101 -0.025596 38283.000000 0 0 1
-28.109360 -15.331687 30.056430 43.915667 0.499328 0.816999 0.065047 -0.030652 -160278.000000 0 0 1
-27.354580 -14.265087 29.542090 42.714176 0.480690 0.807063 0.057120 -0.028048 -452874.000000 0 0 1
-27.202920 -12.967587 30.396060 42.802776 0.444833 0.781096 0.073572 -0.020075 171188.000000 0 0 1
-26.445720 -13.169687 31.602639 43.261341 0.462038 0.751735 0.073822 -0.020210 444794.000000 0 0 1
-26.047150 -11.917487 32.155641 43.063509 0.429102 0.727705 0.072100 -0.016251 -21751.600000 0 0 1
-25.302580 -12.029187 33.526360 43.691404 0.443786 0.696107 0.079824 -0.015702 116453.000000 0 0 1
-23.958400 -12.468487 33.421480 42.970495 0.479852 0.679674 0.054339 -0.014719 269696.000000 0 0 1
-23.879700 -13.869287 33.638570 43.521841 0.526181 0.687378 0.055883 -0.012837 -267143.000000 0 0 1
-23.784000 -14.282587 -32.290698 42.571823 0.540796 2.431804 0.051107 -0.013424 -327710.000000 0 0 1
-22.554500 -13.956387 -31.629868 41.278745 0.554118 2.443782 0.041219 -0.009176 500079.000000 0 0 1
-22.505100 -14.743187 -30.491528 40.664166 0.579955 2.418613 0.039007 -0.008335 -19222.600000 0 0 1
-21.137900 -14.919287 -29.790838 39.457445 0.614613 2.426468 0.036620 -0.009020 158589.000000 0 0 1
-20.810100 -13.859187 -28.856148 38.181339 0.587530 2.427619 0.034729 -0.010228 104309.000000 0 0 1
-21.223200 -14.220387 -27.568938 37.585768 0.590334 2.394245 0.038951 -0.011181 -170937.000000 0 0 1
-21.003100 -13.124987 -26.584838 36.333857 0.558533 2.391583 0.043121 -0.004892 565195.000000 0 0 1
-19.682600 -13.049487 -26.044738 35.157108 0.585457 2.405072 0.038355 -0.015318 306167.000000 0 0 1
-19.326400 -11.759787 -25.544308 34.122046 0.546634 2.416768 0.049592 -0.017474 62801.100000 0 0 1
-17.922700 -11.676687 -24.937738 32.855121 0.577431 2.432605 0.066969 -0.023336 -572874.000000 0 0 1
-17.939300 -12.284287 -23.618238 32.102077 0.600431 2.397530 0.081386 -0.022772 954825.000000 0 0 1
-16.622100 -12.341687 -23.026938 30.965325 0.638675 2.409289 0.088082 -0.026433 1373090.000000 0 0 1
-15.603200 -13.369887 -23.657138 31.334868 0.708468 2.426417 0.065482 -0.019736 20721.000000 0 0 1
-14.811400 -12.787187 -24.689838 31.503616 0.712184 2.471420 0.063543 -0.030042 122966.000000 0 0 1
-14.223300 -13.731287 -25.554898 32.309493 0.767800 2.483141 0.081627 -0.036494 -4858.330000 0 0 1
-13.193400 -13.116487 -26.523348 32.397470 0.782475 2.529915 0.089691 -0.033265 24892.500000 0 0 1
-13.768700 -12.352787 -27.546698 33.181155 0.731246 2.550247 0.093752 -0.038756 198515.000000 0 0 1
-12.795200 -11.661587 -28.332188 33.202751 0.739080 2.593094 0.088694 -0.039104 194730.000000 0 0 1
-13.565200 -10.578187 -29.175428 33.869135 0.662304 2.608848 0.066086 -0.031801 273528.000000 0 0 1
-12.855700 -9.587287 -29.929018 33.954841 0.640783 2.649690 0.058880 -0.025548 50704.100000 0 0 1
-12.196100 -10.112087 -31.077028 34.882386 0.692249 2.670139 0.072375 -0.023646 -364493.000000 0 0 1
-11.498600 -9.100787 -31.947178 35.152017 0.669517 2.711265 0.048624 -0.011922 -299938.000000 0 0 1
-10.414100 -8.537587 -31.245968 34.024321 0.686704 2.734668 0.046585 -0.010226 -238201.000000 0 0 1
-9.808300 -7.455087 -31.965108 34.257105 0.649921 2.773719 0.038186 -0.011840 195058.000000 0 0 1
-8.305700 -7.259387 -31.647618 33.514998 0.718277 2.806203 0.056184 -0.014029 101031.000000 0 0 1
-7.798100 -7.046087 -30.313588 32.083817 0.734781 2.807856 0.060497 -0.015855 88529.900000 0 0 1
-8.087400 -5.810287 -29.653428 31.280845 0.622993 2.817607 0.076330 -0.018913 44936.200000 0 0 1
-7.219400 -4.594087 -30.152798 31.343526 0.566722 2.865069 0.066585 -0.023309 -228190.000000 0 0 1
-5.866900 -4.663387 -29.835528 30.762419 0.671601 2.895490 0.099003 -0.031562 -542017.000000 0 0 1
-5.199200 -3.446787 -30.203188 30.840632 0.585422 2.937923 0.118231 -0.040902 -333223.000000 0 0 1
-3.731600 -3.447187 -29.793888 30.223893 0.745800 2.972707 0.124959 -0.022313 -1030090.000000 0 0 1
-2.891700 -4.131187 -30.647478 31.059565 0.960092 2.978516 0.148350 -0.033884 417322.000000 0 0 1
-1.469200 -4.012787 -30.576788 30.873953 1.219825 3.002736 0.166576 -0.033275 928459.000000 0 0 1
-0.851400 -2.656887 -31.052388 31.177472 1.260685 3.051986 0.159978 -0.033131 653772.000000 0 0 1
0.600000 -2.671287 -30.940518 31.061414 -1.349852 3.053335 0.148384 -0.026496 1208680.000000 0 0 1
1.085700 -1.465087 -31.474358 31.527138 -0.933049 3.083721 0.116035 -0.018817 4424.500000 0 0 1
1.504800 -0.359387 -30.595918 30.635009 -0.234436 3.091069 0.113378 -0.033702 -561302.000000 0 0 1
0.407700 0.174213 -29.932348 29.935632 0.403824 3.126782 0.130329 -0.031307 -387964.000000 0 0 1
0.806100 1.475913 -29.467718 29.515666 1.070898 3.084585 0.155448 -0.051394 470966.000000 0 0 1
-0.210700 2.077713 -28.454588 28.531121 -1.469732 3.068331 0.139689 -0.042790 -177138.000000 0 0 1
-1.362200 2.606013 -29.013078 29.161715 -1.089143 3.040585 0.110754 -0.062242 -807687.000000 0 0 1
-1.778100 3.708813 -28.251598 28.549426 -1.123743 2.997023 0.146463 -0.057065 -361326.000000 0 0 1
-3.136800 4.251313 -28.687548 29.169995 -0.935121 2.959467 0.173287 -0.059541 -278518.000000 0 0 1
-3.004400 4.649013 -30.074058 30.579221 -0.997066 2.959574 0.176131 -0.064789 -99148.100000 0 0 1
-4.218700 5.146113 -30.573448 31.289226 -0.884108 2.927285 0.196237 -0.057573 -382753.000000 0 0 1
-4.072500 5.661213 -32.036478 32.786743 -0.947189 2.927252 0.194959 -0.054341 -82681.400000 0 0 1
-3.917200 4.719313 -33.071338 33.635246 -0.878007 2.958222 0.221886 -0.059207 69300.300000 0 0 1
-2.751500 3.925413 -33.065768 33.411445 -0.959436 2.997621 0.202405 -0.063344 -369771.000000 0 0 1
-2.423200 3.146213 33.093955 33.331373 -0.914495 0.119427 0.188083 -0.054704 12536.300000 0 0 1
-3.412300 2.236213 32.602503 32.856775 -0.580119 0.124489 0.175950 -0.065638 172469.000000 0 0 1
-3.188900 1.777013 31.255550 31.468020 -0.508392 0.116272 0.162601 -0.049143 -71128.600000 0 0 1
-3.113400 2.799313 30.140670 30.430074 -0.732327 0.138026 0.152868 -0.042447 309421.000000 0 0 1
-4.157700 3.767113 30.278400 30.793817 -0.736151 0.183219 0.128633 -0.038872 324618.000000 0 0 1
-3.990600 4.645513 29.143260 29.779780 -0.861088 0.207127 0.113130 -0.039134 -636527.000000 0 0 1
-5.131600 5.568913 28.843810 29.821327 -0.826244 0.256748 0.118574 -0.031333 -646019.000000 0 0 1
-5.000400 6.254313 27.582140 28.720984 -0.896353 0.282548 0.108788 -0.019555 802131.000000 0 0 1
-6.297700 6.790613 27.225800 28.757915 -0.823041 0.327891 0.093207 -0.011158 868270.000000 0 0 1
-6.305600 7.536713 25.942720 27.741438 -0.874103 0.362082 0.088422 -0.016761 -218242.000000 0 0 1
-5.415200 8.615613 25.945380 27.869624 -1.009660 0.373775 0.098937 -0.014317 -268228.000000 0 0 1
-5.561300 9.447713 24.766910 27.084815 -1.038772 0.416722 0.096704 -0.016719 305833.000000 0 0 1
-4.605200 10.678213 24.788780 27.380938 -1.163626 0.438641 0.086188 -0.012880 -380257.000000 0 0 1
-4.918700 11.559613 23.696760 26.820789 -1.168496 0.487467 0.098095 -0.016561 230034.000000 0 0 1
-4.241300 12.805613 23.752990 27.316239 -1.250961 0.516494 0.091994 -0.011745 -815972.000000 0 0 1
-2.711400 12.842413 23.631710 27.032148 -1.362723 0.506995 0.069314 -0.004604 -507260.000000 0 0 1
-1.917200 12.247713 24.636320 27.579529 -1.415521 0.466200 0.069602 0.003672 -112125.000000 0 0 1
-1.926200 13.032913 25.828000 28.994011 -1.424063 0.471683 0.086674 0.006668 -1205770.000000 0 0 1
-1.056400 12.514913 26.953640 29.736136 -1.486585 0.436050 0.076677 0.006805 -597230.000000 0 0 1
0.286500 12.886513 26.807220 29.745107 1.548567 0.448194 0.068727 0.014364 -685499.000000 0 0 1
0.926300 12.421513 28.001600 30.647050 1.496362 0.418548 0.075920 -0.001701 -30029.100000 0 0 1
2.451400 12.597713 28.048480 30.845243 1.378607 0.429127 0.079243 0.002013 -61190.600000 0 0 1
2.914100 13.907113 28.226670 31.601340 1.364245 0.466359 0.075499 0.005897 -104943.000000 0 0 1
4.294200 14.029813 27.957750 31.573907 1.273774 0.483292 0.092806 -0.001341 95406.200000 0 0 1
4.937700 15.391613 28.336100 32.622342 1.260364 0.518406 0.086913 -0.005413 -62155.100000 0 0 1
5.036200 15.822913 29.671970 34.002260 1.262650 0.510200 0.096400 -0.000677 356637.000000 0 0 1
4.012000 16.730813 30.092520 34.663757 1.335443 0.519381 0.069887 -0.000707 269561.000000 0 0 1
4.158300 18.147913 29.593940 34.963403 1.345551 0.561559 0.076420 -0.002922 765778.000000 0 0 1
5.280300 18.873113 30.164810 35.972097 1.297993 0.576159 0.114487 -0.006783 792917.000000 0 0 1
5.560600 19.995413 29.315990 35.918855 1.299556 0.616040 0.086668 -0.010321 552457.000000 0 0 1
6.596900 20.998113 29.963620 37.178736 1.266394 0.633544 0.097223 -0.009553 339527.000000 0 0 1
6.070200 21.861113 30.967160 38.389069 1.299948 0.632307 0.090422 -0.034508 -59798.100000 0 0 1
7.018500 22.762713 31.507792 39.498626 1.271712 0.647336 0.082417 -0.034032 -31433.100000 0 0 1
7.392100 24.073413 30.713480 39.717631 1.272871 0.686773 0.082632 -0.024069 6328.570000 0 0 1
8.095600 23.846513 29.514400 38.798128 1.243517 0.706379 0.067686 -0.020944 167361.000000 0 0 1
8.439800 25.040113 28.830160 39.107744 1.245703 0.741882 0.073746 -0.020487 167112.000000 0 0 1
8.890100 24.745513 27.372320 37.955477 1.225895 0.765308 0.089626 -0.023593 49025.600000 0 0 1
7.831400 24.153413 26.640950 36.802968 1.257256 0.761386 0.079952 -0.021932 396616.000000 0 0 1
8.136100 24.110913 25.270790 35.862865 1.245350 0.788866 0.089206 -0.025400 -202277.000000 0 0 1
31.120186 2.606413 7.467462 32.109537 0.083558 1.336085 0.192601 0.001793 137927.000000 0 0 1
30.602206 3.651913 8.255562 31.905890 0.118773 1.309071 0.181735 -0.018403 -216737.000000 0 0 1
29.205006 3.614213 8.383462 30.598649 0.123127 1.293266 0.162738 -0.008268 -260563.000000 0 0 1
28.664906 4.461813 9.528662 30.534898 0.154415 1.253438 0.139949 -0.019768 -389554.000000 0 0 1
28.517806 5.857113 9.384162 30.588127 0.202567 1.258977 0.162795 -0.017218 -11911.900000 0 0 1
29.643406 6.651313 9.077162 31.707513 0.220722 1.280456 0.201152 -0.033906 -97975.100000 0 0 1
29.246606 8.085013 8.757062 31.581918 0.269707 1.289833 0.246959 -0.044936 194914.000000 0 0 1
28.201006 8.154413 7.809962 30.377404 0.281476 1.310779 0.179627 -0.039385 34730.500000 0 0 1
28.412206 9.234913 6.864062 30.653750 0.314262 1.344959 0.214474 -0.069284 -508944.000000 0 0 1
27.402506 9.352613 5.746362 29.519305 0.328908 1.374881 0.181478 -0.051129 819052.000000 0 0 1
26.087806 9.834413 6.148762 28.549896 0.360500 1.353727 0.156009 -0.041589 989399.000000 0 0 1
25.314906 10.028313 4.996162 27.683446 0.377177 1.389327 0.183695 -0.041636 762749.000000 0 0 1
23.884306 10.655413 5.252962 26.675673 0.419628 1.372581 0.125512 -0.038389 810999.000000 0 0 1
23.874506 12.001613 5.654162 27.313006 0.465802 1.362275 0.108046 -0.034471 679403.000000 0 0 1
22.590906 12.376113 6.171362 26.487788 0.501180 1.335646 0.110420 -0.029518 453511.000000 0 0 1
22.453506 13.920713 6.399062 27.182608 0.554981 1.333156 0.101787 -0.015801 -177643.000000 0 0 1
22.333906 14.689113 5.224662 27.237300 0.581772 1.377780 0.101260 -0.028462 339543.000000 0 0 1
22.269206 16.068613 5.542062 28.014859 0.625051 1.371657 0.124440 -0.030165 -252153.000000 0 0 1
21.828706 16.814313 4.299862 27.887315 0.656357 1.415992 0.113156 -0.035250 81859.800000 0 0 1
20.424806 16.940813 4.151262 26.858831 0.692426 1.415616 0.117872 -0.027448 176571.000000 0 0 1
20.053606 17.400213 2.889062 26.706951 0.714672 1.462408 0.137975 -0.028761 468472.000000 0 0 1
18.505506 17.274113 2.701862 25.458767 0.750996 1.464469 0.107623 -0.028224 614310.000000 0 0 1
17.805706 18.092113 3.630362 25.642684 0.793376 1.428744 0.122264 -0.034537 -255145.000000 0 0 1
16.422106 17.953913 3.473262 24.578285 0.829929 1.429007 0.082689 -0.039913 -662926.000000 0 1 0
15.569806 19.025113 4.227962 24.944928 0.884947 1.400482 0.120171 -0.044668 -1010670.000000 0 1 0
14.274606 18.545513 4.219862 23.780405 0.914802 1.392400 0.127016 -0.049030 -1298990.000000 0 1 0
13.467606 19.698913 4.108162 24.213645 0.971113 1.400309 0.100614 -0.048026 1522440.000000 0 1 0
11.895006 19.458213 3.888962 23.135195 1.022102 1.401897 0.085694 -0.039186 2027020.000000 0 1 0
11.300406 18.947713 5.090762 22.641353 1.033028 1.344014 0.071385 -0.044031 -165017.000000 0 1 0
9.892906 18.918313 5.028462 21.933025 1.088975 1.339474 0.054421 -0.035204 164334.000000 0 1 0
9.216906 18.640313 6.391662 21.754677 1.111590 1.272590 0.040483 -0.020937 -410012.000000 0 1 0
9.195906 19.665613 7.340762 22.916977 1.133392 1.244729 0.058640 -0.019710 -104177.000000 0 1 0
8.600806 19.215113 8.545962 22.720649 1.149935 1.185178 0.060527 -0.006100 -116920.000000 0 1 0
7.486106 20.185213 9.044662 23.351457 1.215651 1.173065 0.063776 0.001421 482896.000000 0 1 0
6.367106 20.279513 8.196462 22.781147 1.266575 1.202752 0.051215 -0.009358 -54186.300000 0 1 0
6.559206 21.370513 7.329562 23.525401 1.272996 1.253963 0.057902 -0.013294 -150091.000000 0 1 0
5.425106 21.315113 6.223262 22.858145 1.321569 1.295060 0.044604 -0.020790 1043540.000000 0 1 0
4.102106 21.595913 6.657762 22.968163 1.383084 1.276706 0.045167 -0.021053 241120.000000 0 1 0
3.736506 22.825013 7.273062 24.245415 1.408533 1.266128 0.049030 -0.024996 -559930.000000 0 1 0
3.749006 24.073413 6.397362 25.189492 1.416305 1.314014 0.071671 -0.028649 -325770.000000 0 0 1
2.724206 24.098713 5.440162 24.854871 1.458231 1.350133 0.032520 -0.017494 -85355.900000 0 1 0
2.755406 25.282113 4.670562 25.857139 1.462238 1.389170 0.044201 -0.022431 -253196.000000 0 0 1
1.348806 25.614713 4.159362 25.985248 1.518187 1.410039 0.048771 -0.026666 -213956.000000 0 0 1
0.415806 26.043013 5.150062 26.550604 1.554832 1.375587 0.046583 -0.031424 48311.000000 0 0 1
-0.775194 26.289313 4.397462 26.665832 -1.541318 1.405130 0.069129 -0.030348 112407.000000 0 0 1
-1.825594 27.068213 5.218262 27.627002 -1.503454 1.380772 0.090569 -0.034736 211547.000000 0 0 1
-2.969494 27.344513 4.432262 27.860101 -1.462625 1.411028 0.120183 -0.036064 -75035.400000 0 0 1
-3.889594 28.239413 4.993462 28.940077 -1.433921 1.397384 0.134666 -0.045692 324.171000 0 0 1
-4.914494 28.738213 3.937662 29.420101 -1.401426 1.436551 0.147214 -0.054926 149838.000000 0 0 1
-4.280594 29.437013 2.871862 29.884926 -1.426393 1.474550 0.159587 -0.052607 -183782.000000 0 0 1
-5.194494 29.939113 1.966862 30.449989 -1.399005 1.506158 0.182603 -0.059863 -794396.000000 0 0 1
-4.431594 30.620213 0.836362 30.950541 -1.427067 1.543771 0.158937 -0.056636 -27482.800000 0 0 1
-3.760394 31.866313 0.940362 32.101196 -1.453334 1.541498 0.164619 -0.057591 507221.000000 0 0 1
-2.667494 31.822113 1.879962 31.989009 -1.487167 1.511993 0.175648 -0.054254 104206.000000 0 0 1
-1.768894 33.106813 1.717862 33.198511 -1.517417 1.519028 0.170486 -0.059669 -142604.000000 0 0 1
-0.935494 33.069813 0.561762 33.087811 -1.542515 1.553818 0.119191 -0.055094 -63358.800000 0 0 1
-0.122694 -33.485431 0.351062 33.487496 1.567132 1.560313 0.110239 -0.053692 876337.000000 0 0 1
1.252606 -33.610731 1.120262 33.652716 -1.533546 1.537501 0.074751 -0.040048 62527.200000 0 0 1
1.113806 -33.444831 2.519962 33.558121 -1.537506 1.495633 0.082106 -0.043099 472981.000000 0 0 1
2.278006 33.723013 3.187162 33.949800 1.503348 1.476779 0.049259 -0.031312 477535.000000 0 0 1
2.180406 -33.787931 4.676562 34.179653 -1.506354 1.433543 0.043528 -0.031760 101681.000000 0 0 1
1.158606 33.068313 5.236362 33.500376 1.535774 1.413845 0.108457 -0.051842 312981.000000 0 0 1
0.554706 33.652813 6.399162 34.260309 1.554315 1.382912 0.120111 -0.035084 18181.500000 0 0 1
1.397406 33.620613 7.715662 34.522888 1.529256 1.345399 0.079096 -0.025681 -181880.000000 0 0 1
1.588406 32.262413 8.036362 33.286175 1.521602 1.326955 0.088043 -0.032437 240605.000000 0 0 1
2.522906 32.172013 9.095362 33.528034 1.492537 1.296078 0.097552 -0.025355 -222233.000000 0 0 1
3.183906 30.787513 9.363062 32.336901 1.467747 1.277043 0.099979 -0.027512 213025.000000 0 0 1
2.432906 29.809113 10.069562 31.557857 1.489361 1.246035 0.124575 -0.032953 271958.000000 0 0 1
3.199806 28.625013 10.040462 30.503131 1.459475 1.235381 0.090865 -0.032617 58455.500000 0 0 1
2.780906 27.603813 11.085662 29.876342 1.470392 1.190655 0.080915 -0.030783 -389210.000000 0 0 1
3.045706 28.105713 12.385062 30.864173 1.462851 1.157886 0.101623 -0.032460 -135803.000000 0 0 1
2.843306 27.146613 13.448462 30.428344 1.466438 1.113001 0.108733 -0.026518 735315.000000 0 0 1
1.333306 26.767213 13.786262 30.138388 1.521026 1.095691 0.086268 -0.022936 1192260.000000 0 0 1
0.537606 27.771713 14.402862 31.288968 1.551441 1.092443 0.106752 -0.019433 80566.100000 0 0 1
0.239606 28.890513 13.573862 31.921292 1.562503 1.131581 0.128539 -0.027571 -772306.000000 0 0 1
-0.572794 29.948213 14.325162 33.202919 -1.551673 1.124705 0.154372 -0.025447 343022.000000 0 0 1
-1.911194 29.644313 14.687062 33.138312 -1.506415 1.111626 0.129365 -0.024984 206967.000000 0 0 1
-2.624894 30.800713 15.093162 34.400255 -1.485780 1.116588 0.146805 -0.029851 830613.000000 0 0 1
-3.920294 30.405713 15.906262 34.538171 -1.442571 1.092191 0.135061 -0.020608 1071070.000000 0 0 1
-4.900394 29.696413 15.151362 33.696507 -1.407254 1.104432 0.111047 -0.028878 140348.000000 0 0 1
-6.085994 29.537113 15.893162 34.089191 -1.367594 1.085780 0.096632 -0.022619 -320422.000000 0 0 1
-7.186494 28.757013 15.126062 33.277759 -1.325908 1.098941 0.077745 -0.025873 -656960.000000 0 0 1
-8.335894 28.659313 15.878262 33.807729 -1.287744 1.081887 0.071896 -0.028575 -544069.000000 0 0 1
-9.344294 27.872313 15.207262 33.097469 -1.247319 1.093399 0.072293 -0.026474 423861.000000 0 0 1
-10.542094 27.665213 16.148362 33.723424 -1.206724 1.071455 0.061982 -0.026669 -237504.000000 0 0 1
-11.155694 28.860313 16.607962 35.116828 -1.201946 1.078178 0.053641 -0.029900 95769.000000 0 0 1
-11.698994 28.640013 17.894462 35.739734 -1.182997 1.046403 0.070131 -0.023564 -80342.800000 0 0 1
-12.560194 29.824313 18.445062 37.248737 -1.172200 1.052747 0.072732 -0.023052 120928.000000 0 0 1
-13.841094 29.889713 17.817662 37.449164 -1.137125 1.074943 0.079436 -0.017619 448777.000000 0 0 1
-14.559394 31.041013 18.207962 38.820746 -1.132224 1.082608 0.082601 -0.015811 184327.000000 0 0 1
-15.591694 30.770713 19.321462 39.538040 -1.101799 1.060220 0.077495 -0.013344 -393203.000000 0 0 1
-14.981294 30.710713 20.582062 39.889953 -1.116940 1.028655 0.068947 -0.017387 348776.000000 0 0 1
-15.892994 30.204113 21.564462 40.372041 -1.086420 1.007302 0.074235 -0.016953 365760.000000 0 0 1
-15.336694 30.264313 23.015062 40.997999 -1.101757 0.974756 0.065229 -0.007137 175978.000000 0 0 1
-14.165794 29.481413 23.257462 40.133938 -1.122871 0.952686 0.060676 -0.009866 865214.000000 0 0 1
-13.744794 29.339213 24.649962 40.710311 -1.132682 0.920406 0.065811 -0.000827 291083.000000 0 0 1
-13.178494 30.583313 25.410262 41.889058 -1.163935 0.919009 0.058669 0.004697 -168513.000000 0 0 1
-14.240494 31.467113 25.712562 43.059339 -1.145822 0.930862 0.065918 -0.005389 556274.000000 0 0 1
-13.849894 32.709913 26.212462 44.145794 -1.170268 0.935060 0.070835 -0.007528 427117.000000 0 0 1
-15.144694 33.280813 26.905962 45.397192 -1.143744 0.936415 0.087998 -0.017202 433735.000000 0 0 1
-15.536294 32.589113 28.032562 45.708328 -1.125935 0.910574 0.067424 -0.018550 -48583.400000 0 0 1
-14.875394 32.779213 29.265062 46.391788 -1.144782 0.888181 0.069848 -0.008581 -707443.000000 0 0 1
-15.592594 32.141413 30.406662 46.912307 -1.119120 0.865631 0.068292 -0.015345 535219.000000 0 0 1
-16.944594 32.590213 30.632662 47.828874 -1.091333 0.875694 0.065121 -0.014239 651939.000000 0 0 1
-17.455594 31.856913 31.713162 48.221212 -1.069538 0.853088 0.051287 -0.012082 549281.000000 0 0 1
-18.910294 32.297613 32.066762 49.285010 -1.041106 0.862370 0.054237 -0.012294 546188.000000 0 0 1
-18.894794 33.612613 32.613062 50.501810 -1.058685 0.868752 0.056807 -0.018343 242115.000000 0 0 1
-20.251794 -33.634231 32.665462 51.072782 1.028821 0.876836 0.076808 -0.018092 336473.000000 0 0 1
-20.554294 -32.157831 32.815162 50.333289 1.002073 0.860633 0.076821 -0.018805 -289854.000000 0 0 1
-20.423194 -31.651731 -33.339597 50.303754 0.997769 2.295302 0.075805 -0.014351 214858.000000 0 0 1
-21.374694 -32.055631 -32.352897 50.310546 0.982701 2.269289 0.074586 -0.012777 255527.000000 0 0 1
-21.157694 -31.174131 -31.085897 48.844728 0.974513 2.260648 0.086460 -0.014407 55160.400000 0 0 1
-21.269394 -29.753031 -31.278697 48.124701 0.950164 2.278316 0.098902 -0.011721 -15871.600000 0 0 1
-20.700594 -28.954931 -30.281797 46.732108 0.950124 2.275735 0.080801 -0.004023 -57690.300000 0 0 1
-21.150794 -27.471131 -30.460897 46.150681 0.914663 2.291657 0.089570 -0.015315 362492.000000 0 0 1
-22.392994 -27.245131 -29.816697 46.182018 0.882839 2.272650 0.088759 -0.010056 -155080.000000 0 0 1
-22.860894 -25.980131 -29.965597 45.776901 0.849177 2.284451 0.086506 -0.010874 491825.000000 0 0 1
-24.165294 -25.645231 -29.150797 45.731918 0.815101 2.261952 0.090350 -0.016051 539374.000000 0 0 1
-24.080394 -25.805131 -27.726197 44.883317 0.819958 2.236661 0.081994 -0.017613 72470.300000 0 0 1
-23.205894 -24.897631 -27.057597 43.480100 0.820552 2.242472 0.084617 -0.019282 -64648.900000 0 0 1
-23.046594 -25.246531 -25.569097 42.688541 0.830921 2.213009 0.077935 -0.015943 722911.000000 0 0 1
-24.187594 -24.886231 -24.752897 42.627106 0.799634 2.190365 0.074600 -0.020853 775599.000000 0 0 1
-24.060194 -25.324431 -23.451097 42.073432 0.810992 2.162029 0.071166 -0.007689 207676.000000 0 0 1
-25.341894 -25.025331 -22.545197 42.151687 0.779113 2.135137 0.067802 -0.011446 1832900.000000 0 0 1
-26.575894 -25.730631 -22.765697 43.435245 0.769240 2.122489 0.070623 -0.012207 472882.000000 0 0 1
-26.494794 -27.100731 -22.874297 44.268016 0.796703 2.113815 0.067831 0.003685 -1699720.000000 0 0 1
-27.887094 -27.758431 -22.981197 45.567049 0.783086 2.099412 0.053761 0.002614 366302.000000 0 0 1
-28.640194 -27.579531 -21.779597 45.334778 0.766534 2.071926 0.064290 0.008032 -179973.000000 0 0 1
-29.532294 -26.482631 -21.961697 45.340956 0.731008 2.076437 0.053562 0.004466 -475215.000000 0 0 1
-30.222594 -26.101231 -20.655097 44.959009 0.712356 2.048139 0.054316 0.013162 -108678.000000 0 0 1
-30.950594 -27.088431 -19.988397 45.730279 0.718952 2.023161 0.079931 0.018317 -340899.000000 0 0 1
-31.695094 -26.545031 -18.985597 45.493632 0.697199 2.001295 0.086915 0.019256 -854029.000000 0 0 1
-32.594394 -27.445131 -18.086597 46.289899 0.699843 1.972215 0.065449 0.010589 218411.000000 0 0 1
-33.748994 -28.017131 -18.754197 47.704027 0.692864 1.974837 0.070540 0.023422 1194990.000000 0 0 1
-34.851394 -27.133631 -18.957197 48.064841 0.661526 1.976221 0.057096 0.025292 -69775.400000 0 0 1
-35.613094 -26.637931 -17.706197 47.868374 0.642208 1.949691 0.067515 0.022533 -484298.000000 0 0 1
-34.812294 -25.739531 -16.895897 46.474623 0.636670 1.942873 0.058066 0.032924 210566.000000 0 0 1
-35.557594 -25.084731 -15.925197 46.337869 0.614386 1.921624 0.056880 0.024371 -217277.000000 0 0 1
-35.373994 -25.659531 -14.486497 46.039001 0.627556 1.890892 0.077966 0.022450 196440.000000 0 0 1
-35.851194 -27.002431 -14.310997 47.108853 0.645534 1.879460 0.087234 0.016508 340762.000000 0 0 1
-35.143594 -27.566131 -13.211197 46.577887 0.665147 1.858381 0.079458 0.002266 136114.000000 0 0 1
-35.569794 -28.975531 -12.696497 47.602444 0.683587 1.840784 0.105779 -0.003377 -198787.000000 0 0 1
-35.311394 -30.010231 -13.632297 48.304741 0.704421 1.856898 0.103406 -0.000639 243394.000000 0 0 1
-35.888194 -31.192831 -13.172597 49.340374 0.715517 1.841048 0.079338 -0.013559 -428827.000000 0 0 1
-35.612794 -32.446431 -14.030997 50.178789 0.738908 1.854195 0.078094 -0.004164 -1217850.000000 0 0 1
-34.280394 -32.770831 -13.934597 49.429200 0.762888 1.856581 0.060666 -0.002270 -967319.000000 0 0 1
-33.796894 -33.371231 -15.099897 49.838499 0.779061 1.878611 0.099826 -0.029929 848233.000000 0 0 1
-32.299994 33.814613 -15.132497 49.149874 -0.808303 1.883765 0.084226 -0.022199 1034450.000000 0 0 1
-31.916194 33.258213 -16.380597 48.919077 -0.805986 1.912243 0.097926 -0.026650 -674867.000000 0 0 1
-30.585994 32.836413 -16.272497 47.733921 -0.820866 1.918670 0.092261 -0.029299 -514263.000000 0 0 1
9.641300 18.874013 -8.796238 22.946826 1.098527 1.964197 0.103293 -0.043922 -550916.000000 0 1 0
8.437200 19.529213 -9.140738 23.154473 1.162987 1.976616 0.089290 -0.033862 130099.000000 0 1 0
8.236200 19.889113 -10.513738 23.957264 1.178189 2.025119 0.090714 -0.026848 8588.940000 0 1 0
8.142800 18.867613 -11.662838 23.628665 1.163369 2.087007 0.084759 -0.012702 539472.000000 0 1 0
9.342200 18.108713 -11.856138 23.574779 1.094514 2.097766 0.108676 -0.036723 494076.000000 0 1 0
9.097500 17.271113 -12.989438 23.447417 1.085981 2.157936 0.096850 -0.029133 136316.000000 0 1 0
10.374600 16.583313 -13.537238 23.788556 1.011762 2.176165 0.121176 -0.037698 64277.100000 0 1 0
10.192400 15.505213 -14.439238 23.511449 0.989269 2.232088 0.128595 -0.042077 -110326.000000 0 1 0
11.403900 14.949913 -14.907038 23.995179 0.919149 2.241135 0.165814 -0.058707 -352375.000000 0 1 0
11.233900 13.620713 -15.672438 23.608254 0.881136 2.296757 0.158107 -0.055233 -367223.000000 0 1 0
11.327200 12.447613 -14.840538 22.438585 0.832489 2.293460 0.148562 -0.047975 1053600.000000 0 1 0
12.632400 12.202013 -14.274438 22.632416 0.768070 2.253261 0.177797 -0.046488 1251530.000000 0 1 0
13.667600 11.505313 -15.260738 23.496077 0.699711 2.277725 0.188801 -0.045980 429343.000000 0 1 0
14.331700 12.383513 -16.178138 24.909460 0.712603 2.277694 0.153709 -0.041826 933238.000000 0 1 0
15.446200 11.715713 -16.786938 25.644577 0.648910 2.284450 0.157527 -0.045436 606252.000000 0 0 1
16.219400 12.398913 -17.956038 27.188624 0.652685 2.292181 0.117821 -0.032753 11898.200000 0 0 1
17.021100 13.447313 -17.498938 27.870431 0.668637 2.249607 0.089319 -0.028319 -80487.100000 0 0 1
17.838400 14.028613 -18.493038 29.274613 0.666410 2.254552 0.054290 -0.010786 -654856.000000 0 0 1
19.033700 14.780313 -17.961538 30.055885 0.660268 2.211307 0.062466 -0.009683 -996876.000000 0 0 1
18.916400 16.078013 -17.355538 30.291045 0.704466 2.180908 0.072912 -0.014611 292528.000000 0 0 1
18.349200 17.069813 -18.242838 30.997948 0.749292 2.200020 0.068120 -0.010614 158820.000000 0 0 1
17.996100 18.446213 -17.581138 31.196455 0.797749 2.169488 0.076885 -0.006215 400909.000000 0 0 1
19.092500 19.358513 -17.580438 32.378193 0.792316 2.144768 0.092142 -0.014499 451718.000000 0 0 1
18.808800 20.527913 -16.802638 32.519145 0.829073 2.113788 0.080432 -0.006274 -318713.000000 0 0 1
19.672400 21.742713 -17.206638 33.997313 0.835346 2.101474 0.095470 -0.012853 2075040.000000 0 0 1
21.006300 21.941613 -16.598638 34.615225 0.807173 2.070902 0.105996 -0.014541 1487340.000000 0 0 1
20.969600 22.191713 -15.229138 34.119245 0.813706 2.033479 0.103151 -0.013093 -882124.000000 0 0 1
22.142600 22.929313 -14.588838 35.055418 0.802851 2.000020 0.087957 -0.021543 -1023210.000000 0 0 1
23.206300 22.068813 -14.344038 35.090117 0.760280 1.991910 0.101089 -0.024380 -1551690.000000 0 0 1
24.074800 22.843913 -13.621438 35.874558 0.759170 1.960264 0.078173 -0.024440 -43098.500000 0 0 1
25.567300 22.363213 -13.820238 36.671503 0.718649 1.957207 0.075522 -0.016784 755945.000000 0 0 1
26.120900 22.700013 -15.067638 37.744214 0.715442 1.981445 0.103081 -0.015999 -400498.000000 0 0 1
27.307500 23.426913 -14.967838 38.968654 0.709059 1.965029 0.092663 -0.011473 -474007.000000 0 0 1
27.782600 23.840713 -16.383138 40.108100 0.709187 1.991579 0.112801 -0.017267 -144662.000000 0 0 1
28.451700 22.839713 -17.144438 40.312324 0.676418 2.010079 0.117818 -0.030560 73681.700000 0 0 1
28.493400 23.123113 -18.522738 41.105280 0.681729 2.038253 0.106857 -0.026137 -541166.000000 0 0 1
29.206800 22.071113 -19.322838 41.394967 0.647129 2.056456 0.106859 -0.031293 1616830.000000 0 0 1
30.657000 22.038213 -19.146938 42.333671 0.623274 2.040123 0.113416 -0.019211 1474770.000000 0 0 1
31.323500 21.195213 -20.105638 42.832644 0.594886 2.059407 0.125024 -0.027477 -282609.000000 0 0 1
32.799600 21.548613 -20.195938 44.136520 0.581265 2.046067 0.131999 -0.025456 -1002530.000000 0 0 1
33.044300 22.771513 -20.841538 45.219877 0.603387 2.049798 0.117165 -0.017764 -465849.000000 0 0 1
34.399800 23.108013 -20.864938 46.396898 0.591513 2.037232 0.101824 -0.016185 -387824.000000 0 0 1
34.603800 24.580513 -21.401638 47.535826 0.617633 2.037809 0.093096 -0.013255 -37239.600000 0 0 1
34.579300 24.775413 -22.848038 48.286457 0.621702 2.063690 0.092916 -0.012048 261251.000000 0 0 1
33.357200 24.507513 -23.509138 47.602527 0.633637 2.087323 0.108669 -0.022176 -176433.000000 0 0 1
33.525100 24.788813 -25.010138 48.620208 0.636689 2.111102 0.110019 -0.028037 -251969.000000 0 0 1
33.402600 26.135013 -25.441858 49.457666 0.663932 2.111124 0.107071 -0.022768 939563.000000 0 0 1
32.032300 26.598413 -25.538158 48.844051 0.692982 2.120988 0.108617 -0.020243 1096050.000000 0 0 1
31.459300 26.370713 -26.925108 49.092398 0.697632 2.151315 0.117131 -0.023299 -173190.000000 0 0 1
31.002700 25.042313 -27.205458 48.253723 0.679446 2.169776 0.115569 -0.037280 -7848.140000 0 0 1
30.777400 24.788613 -28.603218 48.783888 0.678035 2.197311 0.117297 -0.042729 -193344.000000 0 0 1
30.041200 23.474313 -28.954868 47.873808 0.663299 2.220332 0.115590 -0.054519 1570360.000000 0 0 1
28.606800 23.556213 -28.721888 46.884870 0.688876 2.230148 0.109854 -0.047765 1431340.000000 0 0 1
27.882400 22.450613 -29.302448 46.261125 0.677897 2.256754 0.118059 -0.063285 645562.000000 0 0 1
26.383200 22.511013 -28.879188 45.131214 0.706368 2.265157 0.116698 -0.048402 256898.000000 0 0 1
26.169500 22.256813 -27.479688 43.992519 0.704777 2.245473 0.120634 -0.030762 546708.000000 0 0 1
24.800900 22.099013 -27.125388 42.886335 0.727852 2.255566 0.105800 -0.035949 121322.000000 0 0 1
24.533000 22.593513 -25.662828 42.082249 0.744266 2.226637 0.122457 -0.032381 -290239.000000 0 0 1
25.045100 21.642013 -24.728038 41.317183 0.712636 2.212415 0.117286 -0.040543 352237.000000 0 0 1
25.273000 22.092513 -23.468138 40.957993 0.718351 2.180934 0.126604 -0.033652 -194862.000000 0 0 1
25.979600 20.981213 -22.663438 40.358176 0.679360 2.167063 0.124726 -0.028770 96445.400000 0 0 1
27.310600 20.610313 -23.001838 41.227884 0.646479 2.162673 0.122634 -0.032664 477052.000000 0 0 1
27.873800 19.593713 -22.212338 40.672476 0.612699 2.148530 0.141088 -0.036749 -141494.000000 0 0 1
29.172200 19.144713 -22.888038 41.730080 0.580767 2.151339 0.154832 -0.038440 -425947.000000 0 0 1
30.069000 18.491913 -22.030038 41.610313 0.551363 2.128733 0.146815 -0.034371 -19931.700000 0 0 1
31.179600 18.029013 -22.789538 42.621307 0.524259 2.134947 0.132607 -0.022841 936436.000000 0 0 1
32.452800 17.583813 -21.983938 42.961241 0.496547 2.107977 0.108118 -0.017420 531060.000000 0 0 1
33.209200 18.610913 -21.422838 43.682434 0.510804 2.083371 0.098332 -0.019967 796820.000000 0 0 1
34.415300 18.079113 -20.807038 44.093084 0.483699 2.062228 0.090348 -0.017369 850036.000000 0 0 1
35.144200 19.058113 -19.881138 44.649593 0.496899 2.032272 0.067100 -0.025748 -525065.000000 0 0 1
34.555000 19.280513 -18.624538 43.733964 0.508939 2.010708 0.094517 -0.030846 101522.000000 0 0 1
35.258700 20.177313 -17.755538 44.334625 0.519776 1.982847 0.079648 -0.029272 -17015.600000 0 0 1
34.523500 20.332513 -16.392138 43.289552 0.532253 1.959147 0.085729 -0.031559 181727.000000 0 0 1
34.711100 19.169113 -15.554138 42.593973 0.504567 1.944614 0.085320 -0.030543 349145.000000 0 0 1
34.617700 19.413813 -14.154338 42.138184 0.511102 1.913360 0.089161 -0.031229 -223709.000000 0 0 1
35.005300 18.259213 -13.175438 41.621654 0.480788 1.892889 0.090956 -0.027870 -708424.000000 0 0 1
36.398900 18.100013 -13.169738 42.730930 0.461460 1.884098 0.058131 -0.016978 -127522.000000 0 0 1
36.873800 17.161413 -12.209338 42.464799 0.435594 1.862429 0.047819 -0.013936 106601.000000 0 0 1
36.695800 17.624013 -10.762138 42.107139 0.447742 1.829254 0.063310 -0.016078 -1052260.000000 0 0 1
37.419700 18.760313 -10.445838 43.142772 0.464726 1.815349 0.046231 -0.003122 -31886.600000 0 0 1
37.131300 19.280413 -9.144838 42.826345 0.478928 1.785986 0.039548 -0.003574 -45017.600000 0 0 1
35.901500 20.244913 -9.141538 42.217791 0.513454 1.789058 0.035122 -0.005078 327925.000000 0 0 1
34.729400 19.577213 -9.545438 40.994071 0.513306 1.805803 0.054277 -0.024433 -155239.000000 0 0 1
33.570700 20.395513 -9.559038 40.427021 0.545945 1.809509 0.037114 -0.010233 148876.000000 0 0 1
32.265800 19.685513 -9.909738 39.074342 0.547816 1.827209 0.032555 -0.012369 -202364.000000 0 0 1
32.161900 19.512913 -11.328138 39.286999 0.545338 1.863292 0.058294 -0.020953 -574639.000000 0 0 1
30.861800 19.213113 -11.709738 38.193093 0.556838 1.882408 0.059205 -0.025047 -571372.000000 0 0 1
30.735100 18.343613 -12.978338 38.073242 0.538085 1.918647 0.097255 -0.026214 22141.400000 0 0 1
31.329800 17.026313 -12.933838 37.930672 0.497804 1.918762 0.095007 -0.029534 394089.000000 0 0 1
31.060000 16.261613 -14.077738 37.780238 0.482313 1.952629 0.098702 -0.035004 -551420.000000 0 0 1
32.354800 15.762813 -14.693638 38.874186 0.453344 1.958409 0.107094 -0.037282 -661978.000000 0 0 1
33.072000 14.839913 -13.965838 38.846169 0.421785 1.938546 0.091195 -0.034551 132219.000000 0 0 1
34.266100 14.518313 -14.679738 40.005521 0.400763 1.946517 0.100006 -0.033593 456838.000000 0 0 1
35.153000 13.432513 -14.003438 40.152984 0.364994 1.927036 0.085572 -0.039874 -28009.500000 0 0 1
35.661100 13.865613 -12.756138 40.332224 0.370828 1.892598 0.068492 -0.027019 262191.000000 0 0 1
36.430800 12.884913 -12.056438 40.479400 0.339951 1.873227 0.067076 -0.015904 -322064.000000 0 0 1
37.320700 13.381013 -10.931738 41.126501 0.344264 1.839838 0.081770 -0.013962 724944.000000 0 0 1
-37.121707 13.872213 -11.418138 41.241160 -0.357626 1.851324 0.068200 -0.015857 709824.000000 0 0 1
-36.260107 14.319113 -10.396438 40.347469 -0.376102 1.831409 0.067419 -0.006478 709931.000000 0 0 1
-34.821507 14.758713 -10.930938 39.368037 -0.400887 1.852154 0.094207 -0.017637 1583950.000000 0 0 1
-33.916107 13.847213 -11.528738 38.405200 -0.387622 1.875685 0.119770 -0.009822 300452.000000 0 0 1
-33.558207 12.777913 -10.708738 37.471394 -0.363819 1.860621 0.138865 -0.005811 -952080.000000 0 0 1
-32.501007 11.799913 -11.224738 36.353104 -0.348265 1.884696 0.184925 -0.008700 -211700.000000 0 0 1
-32.863807 11.012013 -12.324038 36.785543 -0.323322 1.912427 0.156910 -0.007108 67677.500000 0 0 1
-32.039607 9.853713 -12.366538 35.729026 -0.298367 1.924229 0.224990 -0.018951 -185374.000000 0 0 1
-32.106107 8.864713 -13.602238 35.977856 -0.269395 1.958510 0.213312 -0.035261 747586.000000 0 0 1
-33.347007 8.144113 -13.799938 36.997131 -0.239534 1.953037 0.170102 -0.038491 1079570.000000 0 0 1
-33.190607 7.270813 -14.912338 37.106050 -0.215656 1.984370 0.179759 -0.048996 -770510.000000 0 0 1
-34.491807 6.914913 -15.580238 38.473947 -0.197857 1.987727 0.187867 -0.048263 -960532.000000 0 0 1
-35.369707 6.077813 -14.872738 38.847835 -0.170175 1.963671 0.195813 -0.051615 -601366.000000 0 0 1
-36.295207 5.542713 -15.715338 39.937896 -0.151541 1.975226 0.135949 -0.056774 -1444250.000000 0 0 1
-37.279907 4.690213 -14.992638 40.454527 -0.125153 1.950456 0.132008 -0.055614 -674807.000000 0 0 1
37.547600 3.876113 -15.742738 40.898414 0.102868 1.965921 0.136761 -0.047249 45948.400000 0 0 1
36.418400 3.598413 -14.938838 39.527425 0.098488 1.958362 0.146901 -0.041975 132382.000000 0 0 1
35.637100 2.383413 -15.539138 38.950589 0.066781 1.981162 0.146768 -0.030916 341028.000000 0 0 1
36.424800 1.169613 -15.610938 39.646380 0.032099 1.975509 0.156314 -0.033253 720391.000000 0 0 1
35.635300 0.003913 -15.294738 38.778907 0.000110 1.976221 0.144126 -0.038618 438065.000000 0 0 1
35.204200 -0.141987 -13.811438 37.816817 -0.004033 1.944665 0.150053 -0.042817 -94097.200000 0 0 1
36.247500 -0.517187 -12.939038 38.491134 -0.014267 1.913629 0.178066 -0.042241 71344.000000 0 0 1
35.956300 -0.434587 -11.584638 37.778939 -0.012086 1.882460 0.174411 -0.039090 -484066.000000 0 0 1
35.888300 1.029613 -10.983338 37.545491 0.028682 1.867672 0.158822 -0.033599 -283709.000000 0 0 1
34.975900 1.888913 -11.611038 36.901189 0.053954 1.890886 0.143775 -0.029332 70204.700000 0 0 1
34.768500 3.105913 -10.901938 36.569762 0.089095 1.873512 0.136992 -0.028748 -1008680.000000 0 0 1
33.561700 3.915013 -11.303638 35.629865 0.116126 1.893626 0.131056 -0.026610 -966489.000000 0 0 1
33.592200 4.511513 -12.577738 36.152305 0.133504 1.926137 0.123709 -0.032022 160292.000000 0 0 1
32.454700 5.311013 -12.746938 35.270368 0.162206 1.940572 0.128892 -0.033495 -259966.000000 0 0 1
32.547900 6.221013 -13.979338 35.965104 0.188856 1.970008 0.077376 -0.030497 -249490.000000 0 0 1
32.618100 5.566413 -15.235738 36.428740 0.169026 2.002297 0.063089 -0.015526 264733.000000 0 0 1
33.137800 6.316213 -16.351738 37.488500 0.188345 2.022146 0.066685 -0.012391 -87276.200000 0 0 1
32.109600 7.412613 -16.933338 37.050117 0.226879 2.045459 0.089453 -0.019101 486105.000000 0 0 1
30.998700 6.818513 -17.516538 36.252457 0.216513 2.075082 0.062516 -0.008551 116940.000000 0 0 1
29.985100 6.300313 -16.648238 34.870675 0.207102 2.068522 0.058549 -0.008757 -177380.000000 0 0 1
28.604900 5.990313 -17.323838 33.974101 0.206432 2.105880 0.055116 -0.009078 501059.000000 0 0 1
28.624900 4.941413 -18.285938 34.324597 0.170942 2.132626 0.058744 -0.008920 471752.000000 0 0 1
27.736200 5.343713 -19.343038 34.234561 0.190330 2.171248 0.062253 -0.010256 435687.000000 0 0 1
27.055400 4.173913 -20.107038 33.966295 0.153066 2.204298 0.056444 0.004902 -60915.200000 0 0 1
26.111000 3.380913 -19.443438 32.730142 0.128766 2.206884 0.067604 -0.006196 147437.000000 0 0 1
25.666400 2.260813 -20.218838 32.751745 0.087858 2.236148 0.077436 -0.011748 187460.000000 0 0 1
24.561300 1.481513 -19.423638 31.348525 0.060246 2.239033 0.090297 -0.011454 641816.000000 0 0 1
23.382200 2.268913 -19.259138 30.377453 0.096733 2.257504 0.094973 -0.022855 -226290.000000 0 0 1
22.399700 1.544713 -18.611638 29.163775 0.068852 2.262924 0.112284 -0.033379 557961.000000 0 0 1
20.987100 2.230813 -18.442738 28.028012 0.105897 2.288971 0.138268 -0.046898 -463500.000000 0 0 1
20.227500 2.271413 -19.630838 28.278629 0.111825 2.338095 0.134140 -0.030542 -66809.900000 0 0 1
18.973200 2.889713 -19.557338 27.401136 0.151143 2.365623 0.133053 -0.027033 158186.000000 0 0 1
17.925100 2.111913 -18.704038 25.992507 0.117278 2.374013 0.172507 -0.042337 -1406900.000000 0 0 1
18.145700 2.139713 -17.306738 25.166803 0.117376 2.329087 0.185728 -0.046674 -147606.000000 0 0 1
17.059500 1.749713 -16.473738 23.779657 0.102208 2.336114 0.161134 -0.035354 566725.000000 0 1 0
16.011600 2.885613 -16.192838 22.954435 0.178306 2.353832 0.154358 -0.029965 319802.000000 0 1 0
15.187200 3.107213 -17.337138 23.256874 0.201809 2.412025 0.135986 -0.023607 504594.000000 0 1 0
14.194000 4.106613 -17.028538 22.545621 0.281630 2.426897 0.133459 -0.026210 452879.000000 0 1 0
-20.822000 -21.733587 -16.614938 34.379655 0.806816 2.075192 0.108437 -0.033748 -197627.000000 0 0 1
-20.546600 -22.235687 -17.910838 35.176508 0.824859 2.105017 0.111474 -0.028859 467225.000000 0 0 1
-21.537700 -21.900287 -18.892138 36.061170 0.793745 2.122209 0.110147 -0.022893 123488.000000 0 0 1
-21.254200 -22.566987 -20.235238 37.019924 0.815347 2.149100 0.085221 -0.015638 -129348.000000 0 0 1
-21.491900 -23.967987 -20.239838 38.026533 0.839812 2.132059 0.072239 -0.008613 360018.000000 0 0 1
-20.881500 -24.584087 -21.383938 38.699964 0.866656 2.156225 0.069469 -0.009405 -15600.000000 0 0 1
-20.766900 -26.110407 -21.183838 39.519267 0.898897 2.136533 0.068504 -0.000162 -111766.000000 0 0 1
-22.036500 -26.713107 -21.274138 40.642175 0.881037 2.121691 0.067478 0.006381 -186377.000000 0 0 1
-21.952300 -28.101997 -21.175238 41.473081 0.907646 2.106653 0.087120 -0.009178 143187.000000 0 0 1
-23.281700 -28.898507 -21.200038 42.738775 0.892628 2.089826 0.079220 -0.004654 163592.000000 0 0 1
-24.067600 -29.048227 -22.370338 43.857507 0.878894 2.106061 0.044862 0.000171 79082.300000 0 0 1
-23.493300 -29.821057 -23.443638 44.618771 0.903533 2.124006 0.039244 -0.003266 -240752.000000 0 0 1
-23.817000 -29.195437 -24.849138 45.134274 0.886508 2.153832 0.037016 0.000284 -239927.000000 0 0 1
-25.115450 -29.494787 -25.276958 46.256382 0.865420 2.148920 0.048538 0.001959 -248129.000000 0 0 1
-25.492260 -28.804787 -26.523728 46.723434 0.846330 2.174475 0.049256 0.001090 -113444.000000 0 0 1
-24.823900 -29.044107 -27.894148 47.306127 0.863582 2.201424 0.066063 -0.011674 -275908.000000 0 0 1
-25.184530 -30.302567 -28.525658 48.643800 0.877376 2.197427 0.051822 -0.001680 119888.000000 0 0 1
-24.815100 -30.406127 -29.914718 49.347868 0.886302 2.222071 0.093490 -0.008696 -149923.000000 0 0 1
-25.485780 -31.597927 -30.573458 50.820176 0.892065 2.216300 0.070314 -0.010284 -144480.000000 0 0 1
-24.801600 -32.836897 -30.427948 51.178523 0.923914 2.207496 0.059107 -0.016667 101602.000000 0 0 1
-25.460730 33.731518 -31.049338 52.441639 -0.924227 2.204426 0.073015 -0.017291 -141596.000000 0 0 1
-24.582000 32.505320 -30.866348 51.123400 -0.923310 2.219008 0.081289 -0.018385 432674.000000 0 0 1
-23.384400 32.550410 -31.642898 51.064982 -0.947824 2.239105 0.094105 -0.033825 327690.000000 0 0 1
-22.890600 31.200788 -31.634538 49.982124 -0.937839 2.256111 0.096954 -0.029373 496548.000000 0 0 1
-21.785500 30.865818 -32.688598 49.958495 -0.956180 2.284073 0.082263 -0.020098 655204.000000 0 0 1
-22.383900 30.693588 33.477320 50.634635 -0.940695 0.848440 0.079191 -0.017530 389034.000000 0 0 1
-22.101400 29.450178 32.926621 49.395822 -0.926996 0.841175 0.068202 -0.011440 -42064.800000 0 0 1
-22.077300 29.475738 31.359095 48.369610 -0.927936 0.865418 0.073924 -0.010680 -72480.200000 0 0 1
-21.094600 30.342748 30.841160 48.133582 -0.963292 0.875333 0.066782 -0.009593 169111.000000 0 0 1
-21.049600 30.294138 29.431170 47.191252 -0.963541 0.897384 0.087656 -0.010664 -403816.000000 0 0 1
-20.535800 31.637718 28.872240 47.500216 -0.995059 0.917466 0.072455 -0.027852 -628924.000000 0 0 1
-21.522500 32.590410 28.999760 48.645030 -0.987149 0.932098 0.071268 -0.025246 -368274.000000 0 0 1
-21.193100 -33.819157 28.454660 49.015820 1.011004 0.951429 0.068107 -0.037256 -754981.000000 0 0 1
-22.234400 -32.743887 28.679660 48.877946 0.974277 0.943744 0.082360 -0.036190 -453069.000000 0 0 1
-22.323700 -32.321767 30.015710 49.436698 0.966359 0.918322 0.072342 -0.026351 -89888.500000 0 0 1
-23.410200 -31.437147 30.169110 49.462176 0.930717 0.914808 0.091274 -0.028855 -121051.000000 0 0 1
-23.228900 -29.970707 29.769920 48.208643 0.911453 0.905207 0.101380 -0.024620 -358562.000000 0 0 1
-22.926300 -29.817847 28.329380 47.087929 0.915322 0.925260 0.093090 -0.019186 126790.000000 0 0 1
-23.175200 -28.485397 27.928920 46.136020 0.887828 0.920578 0.092822 -0.025666 1025000.000000 0 0 1
-24.659400 -28.238077 27.425760 46.450483 0.852948 0.939205 0.088272 -0.015889 474040.000000 0 0 1
-25.640570 -28.448607 28.441660 47.704194 0.837267 0.932026 0.098258 -0.011499 381149.000000 0 0 1
-26.610190 -29.460447 28.192580 48.691290 0.836188 0.953287 0.085596 -0.020796 814545.000000 0 0 1
-27.683790 -29.146057 27.076550 48.466736 0.811123 0.978024 0.065269 0.002794 -48933.300000 0 0 1
-27.081220 -29.157007 25.808210 47.429814 0.822292 0.995439 0.072179 -0.004566 668015.000000 0 0 1
-28.116920 -29.255837 24.808320 47.559625 0.805247 1.022041 0.067883 0.001477 380213.000000 0 0 1
-27.661340 -29.471047 23.399100 46.703429 0.817063 1.046026 0.058685 0.006104 -899573.000000 0 0 1
-26.778430 -28.473427 22.997400 45.350863 0.816066 1.038980 0.042272 0.003484 42517.400000 0 0 1
-26.358770 -28.623857 21.627020 44.517839 0.826571 1.063512 0.068808 -0.000245 84239.700000 0 0 1
-25.088790 -29.507997 21.487020 44.292904 0.866165 1.064305 0.070902 -0.005296 -565339.000000 0 0 1
-25.249560 -30.901697 21.733220 45.439939 0.885719 1.072096 0.063477 -0.016656 125522.000000 0 0 1
-24.187600 -31.681597 21.238320 45.164475 0.918737 1.081229 0.065670 -0.003167 325937.000000 0 0 1
-23.157700 -32.288887 22.252120 45.541280 0.948618 1.060295 0.062490 -0.002007 359773.000000 0 0 1
-22.376300 -31.310107 22.912290 44.788332 0.950294 1.033787 0.089725 -0.015346 390196.000000 0 0 1
-21.542600 -31.993497 23.863770 45.355782 0.978186 1.016734 0.088725 -0.022658 -272602.000000 0 0 1
-20.908200 -31.125757 24.918700 45.021186 0.979294 0.984250 0.092731 -0.019028 -381612.000000 0 0 1
-19.675400 -30.578387 24.441870 43.812831 0.999046 0.978979 0.103292 -0.017909 563711.000000 0 0 1
-18.992700 -29.837267 25.459520 43.579494 1.003940 0.946892 0.110636 -0.016664 110130.000000 0 0 1
-18.051300 -30.661857 26.355960 44.279065 1.038711 0.933252 0.094426 -0.028422 -585626.000000 0 0 1
-18.766900 -31.612427 27.140220 45.696101 1.035055 0.934863 0.088195 -0.028740 174093.000000 0 0 1
-17.974500 -32.191287 28.144070 46.383729 1.061553 0.918811 0.087687 -0.027324 -464836.000000 0 0 1
-18.085000 -31.579517 29.556270 46.881833 1.050706 0.888674 0.097697 -0.027410 -38891.700000 0 0 1
-17.712600 -30.234627 29.638240 45.894381 1.040855 0.868736 0.104008 -0.020024 241297.000000 0 0 1
-18.352100 -29.610287 30.755750 46.470258 1.015954 0.847529 0.101017 -0.015941 198204.000000 0 0 1
-18.216900 -28.039027 30.850230 45.494826 0.994633 0.825616 0.097161 -0.016375 -297859.000000 0 0 1
-19.121100 -27.315717 30.049100 44.885558 0.960068 0.837314 0.102183 -0.022680 -35544.800000 0 0 1
-18.900600 -27.237607 28.627930 43.802720 0.964166 0.858511 0.109024 -0.018176 -321825.000000 0 0 1
-17.546800 -26.758197 28.079730 42.571852 0.990387 0.850531 0.098769 -0.022344 -249984.000000 0 0 1
-17.150000 -25.426267 28.122580 41.611261 0.977391 0.828692 0.086136 -0.016180 5502.050000 0 0 1
-16.074600 -25.239807 27.220060 40.452099 1.003703 0.832679 0.069577 -0.006504 -89598.100000 0 0 1
-16.008400 -23.849187 26.621420 39.163154 0.979638 0.823365 0.073436 -0.005701 -96547.700000 0 0 1
-17.061200 -23.620187 25.686100 38.842934 0.945251 0.848271 0.106873 -0.015074 203478.000000 0 0 1
-16.828800 -22.495087 24.884640 37.529759 0.928506 0.845891 0.094237 -0.018440 -190526.000000 0 0 1
-17.567700 -21.208087 25.322840 37.411940 0.879007 0.827301 0.090797 -0.015518 -462329.000000 0 0 1
-17.278100 -20.013887 24.570000 36.093952 0.858628 0.822047 0.083928 -0.014530 229014.000000 0 0 1
-17.974000 -18.864387 25.075730 36.162440 0.809564 0.804573 0.088783 -0.012763 41119.400000 0 0 1
-17.579500 -17.648487 24.183430 34.718096 0.787356 0.800197 0.082946 -0.020723 567683.000000 0 0 1
-16.174800 -17.425887 24.208620 33.931446 0.822615 0.776377 0.087760 -0.027996 32854.900000 0 0 1
-15.823100 -16.465887 23.214600 32.563992 0.805303 0.777183 0.091448 -0.021979 -439808.000000 0 0 1
-14.383600 -15.970287 23.162690 31.598232 0.837624 0.748019 0.105262 -0.033015 -800586.000000 0 0 1
-13.470700 -16.990687 22.783560 31.452088 0.900444 0.760648 0.082588 -0.034164 -908222.000000 0 0 1
-12.179700 -16.567487 23.030930 30.874755 0.936863 0.728841 0.080046 -0.037314 -865941.000000 0 0 1
-11.424000 -15.867787 21.838320 29.312227 0.946807 0.730225 0.102602 -0.039815 -183757.000000 0 0 1
-11.057000 -16.664687 20.721420 28.798373 0.984990 0.767665 0.138069 -0.042262 -179777.000000 0 0 1
-9.883800 -17.386587 20.992820 28.994507 1.053881 0.761173 0.126842 -0.045524 -672713.000000 0 0 1
-9.606900 -18.509287 20.006520 28.898912 1.092040 0.806134 0.128178 -0.041767 625.559000 0 0 1
-9.120900 -18.023887 18.760120 27.567978 1.102324 0.822346 0.129565 -0.039246 -71915.800000 0 0 1
-8.909600 -19.139587 17.938620 27.703770 1.135122 0.866477 0.114681 -0.040044 15457.400000 0 0 1
-8.433200 -18.743387 16.521820 26.370513 1.148001 0.893708 0.105863 -0.039925 425828.000000 0 0 1
-7.235200 -17.973787 16.505720 25.452779 1.188101 0.865205 0.110133 -0.036675 71798.400000 0 0 1
-7.003400 -17.590487 15.135320 24.239446 1.191898 0.896422 0.113943 -0.034845 -285746.000000 0 1 0
-5.882800 -16.566687 15.121420 23.188786 1.229587 0.860444 0.090280 -0.036893 -410577.000000 0 1 0
-6.212200 -15.310587 15.676920 22.776552 1.185347 0.811664 0.106689 -0.043582 -807486.000000 0 1 0
-5.087100 -14.520887 15.908520 22.131782 1.233828 0.768709 0.070038 -0.022670 -748291.000000 0 1 0
-5.248200 -13.401687 16.989720 22.266554 1.197546 0.702831 0.049832 -0.014018 -514615.000000 0 1 0
-5.116100 -13.886787 18.342520 23.568313 1.217811 0.678890 0.065016 -0.012215 6330.190000 0 1 0
-6.139000 -14.730187 18.863620 24.708337 1.175923 0.702156 0.113640 -0.034137 601531.000000 0 1 0
-7.541100 -14.110687 19.107220 24.921187 1.079990 0.697102 0.141343 -0.047927 204387.000000 0 1 0
-7.341800 -13.029487 20.024420 24.992938 1.057666 0.641493 0.123917 -0.050769 -338603.000000 0 1 0
-8.536900 -12.787487 20.707520 25.791469 0.982149 0.638681 0.125998 -0.038893 -63230.800000 0 0 1
-8.447700 -11.746687 21.855920 26.211249 0.947329 0.584773 0.118947 -0.031592 -864815.000000 0 0 1
-8.100800 -10.485287 21.385620 25.157682 0.912995 0.554691 0.100159 -0.029210 22282.100000 0 0 1
-7.599800 -9.685087 22.434610 25.590420 0.905460 0.501879 0.084137 -0.032068 937518.000000 0 0 1
-6.103600 -9.934987 22.876400 25.676596 1.019889 0.471377 0.082931 -0.029491 572881.000000 0 0 1
-5.993000 -11.133787 23.557350 26.736230 1.077002 0.492609 0.089841 -0.022472 315802.000000 0 0 1
-4.624100 -11.512587 23.743240 26.789241 1.188863 0.481508 0.080262 -0.010217 425027.000000 0 0 1
-4.459400 -12.716287 24.643580 28.087297 1.233512 0.500397 0.096619 -0.018355 262640.000000 0 0 1
-3.145000 -13.169487 25.015840 28.445012 1.336377 0.496100 0.095910 -0.008031 717099.000000 0 0 1
-3.201200 -14.290487 25.893700 29.748099 1.350425 0.514717 0.097142 0.001375 69687.100000 0 0 1
-2.813800 -15.611987 25.183980 29.763811 1.392477 0.562119 0.119670 -0.038743 529114.000000 0 0 1
-1.446300 -15.867487 24.854930 29.523490 1.479899 0.570058 0.135105 -0.036932 459184.000000 0 0 1
-1.286300 -17.129687 24.232950 29.703815 1.495845 0.616652 0.140170 -0.041467 -204293.000000 0 0 1
0.158600 -17.688687 24.199300 29.975339 -1.561830 0.631222 0.147409 -0.046417 421298.000000 0 0 1
0.678900 -18.025287 25.477960 31.216956 -1.533150 0.616066 0.145844 -0.045989 95430.000000 0 0 1
1.157800 -16.959587 26.346700 31.354692 -1.502634 0.572998 0.147738 -0.043812 -89514.400000 0 0 1
1.808900 -17.502987 27.642510 32.767897 -1.467814 0.566871 0.123342 -0.023995 517684.000000 0 0 1
3.068600 -18.174787 27.474820 33.084814 -1.403535 0.590907 0.123575 -0.031593 1050050.000000 0 0 1
3.955200 -18.308087 28.597310 34.185316 -1.358030 0.579863 0.129431 -0.036402 561225.000000 0 0 1
4.672700 -17.011787 29.013300 33.955951 -1.302733 0.546326 0.154140 -0.038744 -836695.000000 0 0 1
3.870500 -15.976587 29.542990 33.808584 -1.333115 0.507770 0.159484 -0.043404 -487315.000000 0 0 1
4.599500 -14.984287 30.157070 33.987250 -1.272971 0.479327 0.189302 -0.057803 -366533.000000 0 0 1
3.667200 -13.873587 30.682030 33.871991 -1.312377 0.437478 0.197860 -0.058973 120181.000000 0 0 1
3.088000 -14.344187 31.867440 35.083118 -1.358754 0.431496 0.187315 -0.063426 -1144270.000000 0 0 1
2.034900 -13.574487 32.256865 35.055854 -1.421998 0.402317 0.186846 -0.066033 -795885.000000 0 0 1
1.189400 -14.215287 33.387210 36.306953 -1.487320 0.403782 0.173542 -0.060015 147037.000000 0 0 1
1.923000 -14.328087 -32.871178 35.909697 -1.437382 2.727258 0.188472 -0.057043 -21633.100000 0 0 1
1.234500 -15.075187 -31.886928 35.292513 -1.489089 2.698673 0.181054 -0.071420 226463.000000 0 0 1
2.167700 -15.217887 -30.681708 34.316909 -1.429304 2.677146 0.145707 -0.055355 301882.000000 0 0 1
1.615900 -16.079687 -29.692458 33.805466 -1.470639 2.643160 0.149319 -0.050876 -312029.000000 0 0 1
2.428200 -16.099687 -28.566808 32.880976 -1.421102 2.623559 0.113724 -0.048646 -201753.000000 0 0 1
2.175400 -17.441087 -27.765708 32.861199 -1.446709 2.577247 0.133046 -0.049819 -102438.000000 0 0 1
2.743900 -18.546087 -28.451118 34.072752 -1.423912 2.558949 0.106320 -0.042155 -38031.600000 0 0 1
2.549100 -19.670887 -27.671228 34.046124 -1.441927 2.519665 0.100561 -0.045955 -516434.000000 0 0 1
3.596800 -20.810287 -27.851258 34.952791 -1.399650 2.492818 0.070098 -0.038602 12361.600000 0 0 1
4.865300 -20.484087 -27.320748 34.491916 -1.337601 2.485024 0.075217 -0.033463 -213065.000000 0 0 1
5.041400 -20.542387 -25.901208 33.440663 -1.330138 2.456787 0.086630 -0.034296 -582153.000000 0 0 1
6.543200 -20.835687 -25.567058 33.624601 -1.266511 2.434675 0.071451 -0.030383 459846.000000 0 0 1
6.820100 -22.262087 -25.689408 34.670736 -1.273520 2.405286 0.076162 -0.023722 123620.000000 0 0 1
6.794100 -22.820787 -26.996758 35.996848 -1.281437 2.418822 0.069328 -0.024855 -494547.000000 0 0 1
5.940800 -24.147487 -27.079228 36.765185 -1.329566 2.398745 0.061200 -0.021401 28719.800000 0 0 1
6.352200 -25.128387 -26.214908 36.864721 -1.323194 2.361873 0.087257 -0.015270 -363231.000000 0 0 1
5.597800 -26.299487 -26.308588 37.618349 -1.361078 2.345291 0.103066 -0.019344 -133268.000000 0 0 1
6.090000 -27.423127 -25.334348 37.827836 -1.352267 2.304638 0.127224 -0.025109 -275559.000000 0 0 1
7.356900 -27.912657 -25.674498 38.631855 -1.313089 2.297747 0.157665 -0.035438 -462481.000000 0 0 1
7.543700 -29.224157 -25.198218 39.318049 -1.318178 2.266443 0.171501 -0.044276 313302.000000 0 0 1
9.019600 -29.684537 -25.394848 40.092683 -1.275813 2.256740 0.166282 -0.048186 308268.000000 0 0 1
9.390600 -29.695737 -26.769648 41.068653 -1.264519 2.280787 0.169638 -0.048584 704618.000000 0 0 1
10.790100 -30.025797 -26.800338 41.668128 -1.225807 2.269448 0.200451 -0.051867 919635.000000 0 0 1
11.426500 -29.952957 -28.213208 42.705148 -1.206355 2.292482 0.187232 -0.051073 -64139.500000 0 0 1
10.920100 -30.939357 -29.061818 43.830146 -1.231494 2.295690 0.191928 -0.066572 92718.700000 0 0 1
11.400100 -30.771627 -30.366708 44.710091 -1.215999 2.317457 0.174211 -0.060642 -224895.000000 0 0 1
-36.173150 -5.461987 -5.283838 36.962806 0.149864 1.714238 0.252503 -0.049428 -39415.200000 0 0 1
-35.354664 -5.114687 -4.177438 35.966141 0.143671 1.687208 0.269669 -0.072948 797089.000000 0 0 1
-34.387089 -4.058987 -4.386638 34.902577 0.117494 1.696812 0.256242 -0.074157 388189.000000 0 0 1
-34.905768 -2.708687 -4.987238 35.364137 0.077445 1.712293 0.259224 -0.046199 -495670.000000 0 0 1
-35.855334 -2.047387 -4.190138 36.157351 0.057039 1.686943 0.193210 -0.039900 193976.000000 0 0 1
-36.529040 -1.065687 -4.951638 36.878519 0.029165 1.705472 0.169021 -0.036491 194187.000000 0 0 1
-37.602730 -0.268587 -4.156038 37.832659 0.007143 1.680872 0.169688 -0.030630 592574.000000 0 0 1
-36.997960 0.604313 -3.168738 37.138325 -0.016332 1.656223 0.149781 -0.021751 947865.000000 0 0 1
37.680006 1.459313 -2.644338 37.800859 0.038710 1.640808 0.153958 -0.018466 4973.710000 0 0 1
-37.466000 2.604913 -1.744838 37.596957 -0.069416 1.617222 0.136849 -0.016491 489900.000000 0 0 1
-36.761710 3.701013 -2.377138 37.023933 -0.100338 1.635046 0.160082 -0.033960 531955.000000 0 0 1
-35.523233 3.315313 -2.949338 35.799302 -0.093058 1.653275 0.110235 -0.009422 -1108080.000000 0 0 1
-34.670263 4.505913 -3.315338 35.118683 -0.129240 1.665341 0.085565 -0.012750 -758161.000000 0 0 1
-34.152109 5.093113 -2.148938 34.596594 -0.148039 1.632950 0.097200 -0.014380 133404.000000 0 0 1
-33.849520 6.423813 -2.394938 34.536808 -0.187545 1.640197 0.128863 -0.033175 -218814.000000 0 0 1
-33.402450 7.252913 -1.146038 34.200027 -0.213818 1.604312 0.151475 -0.038302 -755203.000000 0 0 1
-32.036220 7.222913 -0.882138 32.852215 -0.221753 1.597651 0.188119 -0.025555 -510233.000000 0 0 1
-31.605030 7.609713 0.367462 32.510317 -0.236278 1.559493 0.214384 -0.039689 -165851.000000 0 0 1
-31.721100 9.089813 0.898862 33.010011 -0.279076 1.543563 0.241828 -0.053595 -283038.000000 0 0 1
-33.089870 9.408213 1.055262 34.417547 -0.277013 1.540131 0.194456 -0.047042 172185.000000 0 0 1
-33.214390 10.680013 1.565562 34.924338 -0.311106 1.525954 0.219222 -0.044596 -369795.000000 0 0 1
-34.637174 11.223913 1.689062 36.449458 -0.313366 1.524440 0.198582 -0.048864 -783304.000000 0 0 1
-35.302754 11.518513 0.480762 37.137471 -0.315387 1.557851 0.153893 -0.041010 498328.000000 0 0 1
-36.605040 12.054213 0.661462 38.544397 -0.318120 1.553634 0.147971 -0.023078 305693.000000 0 0 1
-37.760540 11.040213 0.609762 39.346112 -0.284446 1.555298 0.154118 -0.044040 -312511.000000 0 0 1
37.614886 10.506613 -0.724438 39.061405 0.272379 1.589344 0.155606 -0.038619 332181.000000 0 0 1
36.590936 9.516513 -0.705938 37.814798 0.254442 1.589466 0.161710 -0.035540 376567.000000 0 0 1
36.459346 8.641413 -1.944038 37.519824 0.232721 1.622633 0.161623 -0.045261 -12135.700000 0 0 1
35.857516 9.196313 -3.068638 37.144989 0.251057 1.653503 0.145455 -0.046330 66739.700000 0 0 1
35.485756 8.296813 -4.054538 36.667633 0.229681 1.681598 0.138120 -0.047408 -11409.600000 0 0 1
34.670366 8.909313 -5.232738 36.177226 0.251530 1.715947 0.125319 -0.045118 1242530.000000 0 0 1
33.320146 9.305713 -4.895438 34.939859 0.272343 1.711369 0.173348 -0.040176 1428810.000000 0 0 1
32.556916 9.994513 -5.890238 34.562089 0.297853 1.742057 0.141153 -0.021010 -5990.040000 0 0 1
31.091226 10.249413 -5.499938 33.195845 0.318437 1.737245 0.199564 -0.026413 20531.700000 0 0 1
30.213606 9.159913 -5.778738 32.096103 0.294364 1.751828 0.228659 -0.023471 518121.000000 0 0 1
28.955106 9.603213 -6.240138 31.137746 0.320243 1.772567 0.238837 -0.019339 -293536.000000 0 0 1
28.013306 8.455913 -6.607838 29.998522 0.293156 1.792890 0.266128 -0.014899 -281471.000000 0 0 1
28.308306 7.783313 -7.813238 30.380699 0.268318 1.830897 0.247277 -0.017798 -506921.000000 0 0 1
27.289206 6.910013 -8.073638 29.285366 0.248001 1.850102 0.280561 -0.009964 -683345.000000 0 0 1
27.731106 5.876513 -9.150438 29.787215 0.208821 1.883039 0.260943 -0.026206 -131573.000000 0 0 1
28.725206 5.004313 -8.670338 30.419655 0.172482 1.859828 0.244940 -0.023695 247274.000000 0 0 1
28.978406 3.977313 -9.608238 30.787746 0.136399 1.888178 0.224994 -0.022793 -48190.500000 0 0 1
29.923506 2.871513 -9.049238 31.393479 0.095669 1.863197 0.196519 -0.020767 -876590.000000 0 0 1
31.287056 3.052813 -9.244138 32.766654 0.097266 1.856800 0.175425 -0.009645 284001.000000 0 0 1
32.171726 2.417013 -8.283138 33.308742 0.074988 1.822111 0.167677 -0.017640 440717.000000 0 0 1
32.295286 0.894713 -8.354638 33.370436 0.027697 1.823849 0.156087 -0.022830 -529645.000000 0 0 1
31.121106 0.257613 -7.816638 32.088774 0.008278 1.816866 0.199156 -0.020494 842019.000000 0 0 1
31.246026 -1.112987 -7.525138 32.158678 -0.035605 1.806986 0.194309 -0.019724 -115336.000000 0 0 1
31.330836 -2.096687 -8.713138 32.587362 -0.066821 1.841467 0.172530 -0.009744 549332.000000 0 0 1
32.587016 -2.152387 -9.400238 33.983980 -0.065955 1.851059 0.154627 -0.011083 779849.000000 0 0 1
32.413446 -3.075887 -10.485338 34.205773 -0.094612 1.882349 0.132603 -0.031008 579376.000000 0 0 1
33.690146 -3.220787 -11.407138 35.714454 -0.095311 1.895891 0.158135 -0.031187 744890.000000 0 0 1
34.760636 -3.785487 -10.664138 36.556198 -0.108474 1.866820 0.182434 -0.016383 -169847.000000 0 0 1
35.905536 -4.074087 -11.402338 37.892203 -0.112984 1.876448 0.194207 -0.035657 -485400.000000 0 0 1
37.127466 -4.386887 -10.534638 38.841629 -0.117612 1.845457 0.210981 -0.039344 -486063.000000 0 0 1
36.879916 -5.531487 -9.777338 38.552846 -0.148877 1.827205 0.219295 -0.040888 382742.000000 0 0 1
-37.712990 -5.952187 -9.027538 39.232571 0.156537 1.802980 0.228709 -0.046913 -78079.100000 0 0 1
37.662146 -7.201987 -8.210438 39.213737 -0.188945 1.781734 0.233410 -0.043846 -282566.000000 0 0 1
37.026416 -6.998387 -6.992538 38.325298 -0.186807 1.754276 0.251317 -0.044389 382744.000000 0 0 1
36.641636 -8.251387 -6.447138 38.108535 -0.221497 1.740792 0.261174 -0.049057 -768995.000000 0 0 1
36.131506 -8.062887 -4.971338 37.352511 -0.219557 1.704285 0.257009 -0.056866 -43363.600000 0 0 1
37.149386 -7.715087 -4.021938 38.154625 -0.204767 1.676404 0.299560 -0.058888 1717090.000000 0 0 1
-37.693690 -8.783187 -3.465338 38.858297 0.228930 1.660094 0.328952 -0.070189 1118600.000000 0 0 1
-36.770390 -9.658987 -4.387738 38.270222 0.256880 1.685701 0.301694 -0.065957 -610888.000000 0 0 1
-37.475400 -10.450787 -5.321238 39.267546 0.271961 1.706727 0.265062 -0.057645 527747.000000 0 0 1
-36.612650 -11.340587 -6.045538 38.802624 0.300373 1.727236 0.218023 -0.045712 195142.000000 0 0 1
-37.293860 -11.764887 -7.388538 39.797425 0.305583 1.757533 0.198861 -0.043208 138520.000000 0 0 1
-37.279950 -10.750187 -8.289138 39.674564 0.280747 1.781275 0.185380 -0.047085 230540.000000 0 0 1
-37.765770 -11.268087 -9.472838 40.533416 0.289959 1.806682 0.200386 -0.030974 -354481.000000 0 0 1
-37.723230 -10.276887 -10.681838 40.530953 0.265974 1.837494 0.201551 -0.031273 -839185.000000 0 0 1
37.135676 -9.183887 -10.793738 39.748044 -0.242442 1.845804 0.205352 -0.037581 -31384.700000 0 0 1
37.062506 -8.657787 -12.068938 39.928009 -0.229484 1.877867 0.192946 -0.038996 -549760.000000 0 0 1
35.741036 -7.922787 -12.262838 38.607893 -0.218145 1.894020 0.193340 -0.041094 -565576.000000 0 0 1
35.635816 -7.358287 -13.540738 38.825344 -0.203624 1.927044 0.194839 -0.038575 650896.000000 0 0 1
34.451626 -6.600887 -13.751938 37.677607 -0.189304 1.944418 0.169739 -0.041553 212527.000000 0 0 1
34.713206 -5.598987 -14.896038 38.187004 -0.159915 1.971516 0.158819 -0.047280 -159409.000000 0 0 1
35.789426 -4.717387 -14.710138 38.981084 -0.131054 1.957747 0.157862 -0.031591 37322.900000 0 0 1
36.263496 -4.300387 -15.987538 39.863967 -0.118036 1.983462 0.167823 -0.039556 367306.000000 0 0 1
37.625476 -3.544787 -15.824538 40.971429 -0.093935 1.967341 0.167705 -0.032943 -142586.000000 0 0 1
-37.438970 -3.393087 -17.039838 41.274031 0.090383 1.996373 0.176540 -0.036994 276568.000000 0 0 1
-36.067790 -3.024487 -16.953738 39.968266 0.083660 2.008853 0.199378 -0.032351 214465.000000 0 0 1
-35.835974 -1.534787 -16.697838 39.565015 0.042802 2.006486 0.193593 -0.029586 -774935.000000 0 0 1
-36.284320 -0.632487 -17.686138 40.370180 0.017430 2.024279 0.172417 -0.040061 100286.000000 0 0 1
-36.342380 0.586313 -17.030638 40.139195 -0.016132 2.008973 0.181667 -0.035782 112467.000000 0 0 1
-36.637010 1.790713 -17.999338 40.858945 -0.048838 2.026978 0.152016 -0.037603 413077.000000 0 0 1
-35.490363 2.071913 -18.783638 40.208006 -0.058313 2.056874 0.141581 -0.028142 491239.000000 0 0 1
-35.742965 3.320113 -19.454138 40.829477 -0.092623 2.067435 0.120164 -0.023054 -146307.000000 0 0 1
-34.794675 3.639613 -20.596338 40.597110 -0.104224 2.102886 0.116755 -0.017185 -65556.700000 0 0 1
-33.438450 3.846413 -20.230538 39.270848 -0.114526 2.111984 0.127218 -0.018533 324792.000000 0 0 1
-32.700940 4.174713 -21.399538 39.302926 -0.126977 2.146562 0.115269 -0.019442 -675317.000000 0 0 1
-31.344600 4.770113 -21.048938 38.056481 -0.151024 2.156874 0.131122 -0.021655 -745187.000000 0 0 1
-30.474830 3.761713 -20.665738 37.012680 -0.122815 2.163182 0.132840 -0.012872 -1918450.000000 0 0 1
-29.193470 4.184813 -20.585238 35.965586 -0.142378 2.180177 0.102400 -0.002308 -1719110.000000 0 0 1
-28.096490 3.162413 -20.337138 34.828334 -0.112084 2.194352 0.135178 -0.006398 22750.300000 0 0 1
-27.341410 3.415113 -19.141338 33.550060 -0.124263 2.177948 0.136621 -0.005182 61157.400000 0 0 1
-26.694150 2.299813 -18.640538 32.639492 -0.085942 2.178646 0.131179 -0.006393 -449784.000000 0 0 1
-25.841720 2.593013 -17.392138 31.257074 -0.100007 2.160870 0.139270 -0.016226 -450620.000000 0 0 1
-24.699300 3.348713 -17.648338 30.540680 -0.134758 2.186905 0.124936 -0.017132 -440613.000000 0 0 1
-24.054300 3.670913 -16.440338 29.366132 -0.151441 2.164989 0.136887 -0.028960 -563524.000000 0 0 1
-22.858400 4.579013 -16.577438 28.605686 -0.197704 2.188930 0.124660 -0.032500 -31293.800000 0 0 1
-21.673900 4.036813 -17.161738 27.938845 -0.184142 2.232245 0.132943 -0.039065 431845.000000 0 0 1
-20.593900 4.949613 -17.086838 27.213369 -0.235870 2.249628 0.122756 -0.035965 -72226.400000 0 0 1
-19.300800 4.281313 -17.583338 26.457973 -0.218286 2.297723 0.151000 -0.047904 -99635.000000 0 0 1
-18.665300 3.306013 -16.735638 25.286454 -0.175303 2.294070 0.158816 -0.044598 416870.000000 0 0 1
-17.629600 2.561913 -17.347238 24.865496 -0.144309 2.342899 0.127035 -0.046652 -502149.000000 0 1 0
-17.463200 1.097813 -16.916238 24.337783 -0.062782 2.339301 0.127643 -0.046285 72161.200000 0 1 0
-18.508100 0.159913 -17.217038 25.278484 -0.008640 2.320053 0.098852 -0.041517 420383.000000 0 0 1
-19.695600 0.347413 -16.459338 25.669967 -0.017637 2.266845 0.117136 -0.036321 266779.000000 0 0 1
-20.829700 -0.626587 -16.963138 26.870376 0.030072 2.254018 0.107405 -0.032291 156650.000000 0 0 1
-20.600400 -1.993887 -16.729438 26.612519 0.096488 2.250587 0.081997 -0.036076 439342.000000 0 0 1
-21.735700 -2.773787 -17.093838 27.790895 0.126928 2.233294 0.101736 -0.023804 23282.300000 0 0 1
-21.956200 -3.948487 -16.115038 27.520170 0.177933 2.196382 0.117437 -0.032555 -94356.300000 0 0 1
-22.442000 -3.554787 -14.829138 27.132697 0.157094 2.149025 0.109943 -0.031123 458919.000000 0 0 1
-22.991100 -4.705387 -14.173238 27.415544 0.201873 2.114113 0.114416 -0.042525 37014.600000 0 0 1
-23.537100 -4.353787 -12.782438 27.135609 0.182908 2.061286 0.129143 -0.043054 -289429.000000 0 0 1
-24.615000 -3.462787 -12.745238 27.934392 0.139761 2.044580 0.126237 -0.037141 107416.000000 0 0 1
-24.797600 -2.962587 -11.428938 27.464860 0.118907 1.999981 0.148835 -0.048165 -360790.000000 0 0 1
-25.638330 -1.693287 -11.354138 28.091060 0.065949 1.986890 0.180491 -0.043710 -332335.000000 0 0 1
-25.814060 -1.260387 -10.019838 27.719153 0.048787 1.940648 0.181042 -0.047265 767643.000000 0 0 1
-26.475700 0.026413 -9.890838 28.262910 -0.000998 1.928323 0.195925 -0.047619 27442.400000 0 0 1
-26.614680 0.319013 -8.405638 27.912322 -0.011986 1.876689 0.220615 -0.049725 162858.000000 0 0 1
-25.338440 0.632213 -7.882338 26.543691 -0.024946 1.872301 0.198129 -0.042082 611972.000000 0 0 1
-25.523530 0.811113 -6.469138 26.343087 -0.031768 1.818907 0.193474 -0.047010 -210112.000000 0 0 1
-24.292600 1.259113 -5.674138 24.978223 -0.051785 1.799960 0.141639 -0.037160 -401972.000000 0 1 0
-24.118700 2.661813 -5.704138 24.926575 -0.109918 1.801680 0.190819 -0.037873 932056.000000 0 1 0
-22.825300 2.998013 -5.191738 23.599503 -0.130598 1.792604 0.179484 -0.025084 416303.000000 0 1 0
-22.554600 4.511313 -5.305038 23.605198 -0.197412 1.797473 0.187311 -0.026309 -198033.000000 0 1 0
-23.055200 5.323813 -4.262938 24.042834 -0.226938 1.749045 0.203740 -0.026682 685672.000000 0 1 0
-22.522700 6.661613 -4.408638 23.897389 -0.287575 1.756341 0.185375 -0.026829 -388558.000000 0 1 0
-22.993000 7.758213 -3.463838 24.512570 -0.325421 1.712580 0.199872 -0.023981 -434960.000000 0 1 0
-22.417600 7.731513 -2.149738 23.810638 -0.332112 1.661204 0.172868 -0.028759 1409540.000000 0 1 0
-21.000100 7.944113 -1.997738 22.541165 -0.361651 1.659539 0.179930 -0.024400 543445.000000 0 1 0
-20.340300 9.293013 -2.141338 22.464934 -0.428558 1.666260 0.145458 -0.029865 -592375.000000 0 1 0
-20.376800 9.691613 -3.467538 22.829042 -0.443954 1.723278 0.126058 -0.029124 340437.000000 0 1 0
-19.959900 11.032113 -3.565838 23.082902 -0.504924 1.725897 0.122978 -0.020002 -159822.000000 0 1 0
-19.864200 11.544813 -5.061338 23.526290 -0.526471 1.787627 0.110703 -0.020972 805196.000000 0 1 0
-18.781700 11.069113 -5.921638 22.590780 -0.532556 1.836021 0.085731 -0.014816 928234.000000 0 1 0
-18.906100 11.454113 -7.271438 23.270392 -0.544704 1.888595 0.093317 -0.014717 79636.500000 0 1 0
-17.572700 11.412413 -8.063138 22.451218 -0.575981 1.938143 0.065060 0.000981 -136133.000000 0 1 0
-16.994800 10.121213 -8.367938 21.477537 -0.537139 1.971008 0.029714 0.003083 625561.000000 0 1 0
-17.705800 9.339813 -9.317138 22.080230 -0.485405 2.006411 0.054343 -0.003245 -296052.000000 0 1 0
-18.006100 9.848213 -10.745238 23.166076 -0.500489 2.053116 0.072077 -0.009032 443335.000000 0 1 0
-16.821800 9.939513 -11.538938 22.691716 -0.533680 2.104248 0.055563 -0.010693 640649.000000 0 1 0
-17.060600 10.616013 -12.747238 23.796132 -0.556622 2.136115 0.076457 -0.021074 421643.000000 0 1 0
-15.895300 10.349313 -13.763138 23.434864 -0.577143 2.198507 0.050460 -0.012462 306802.000000 0 1 0
-16.058800 9.143213 -14.535138 23.510714 -0.517584 2.237291 0.070373 -0.020775 280892.000000 0 1 0
-15.700400 7.960413 -13.761838 22.344103 -0.469248 2.234330 0.053807 -0.015824 -537054.000000 0 1 0
-15.670700 6.644313 -14.510038 22.366469 -0.401020 2.276725 0.061775 -0.021816 73051.800000 0 1 0
-14.570200 6.413313 -15.373138 22.130402 -0.414646 2.338746 0.068046 -0.021580 569179.000000 0 1 0
-14.775800 5.157913 -16.030338 22.403127 -0.335854 2.368193 0.075274 -0.027982 107724.000000 0 1 0
33.267426 -15.665487 27.284900 45.788589 -0.440094 0.932425 0.086848 -0.023873 139.507000 0 0 1
32.445286 -14.562787 27.700870 45.078926 -0.421890 0.909048 0.109126 -0.027529 -120756.000000 0 0 1
31.677196 -14.792187 28.856420 45.331518 -0.436873 0.880761 0.108038 -0.026312 -341901.000000 0 0 1
32.358496 -14.777687 30.209020 46.669446 -0.428400 0.866763 0.102216 -0.039530 -253500.000000 0 0 1
33.009836 -13.576287 30.520360 46.962296 -0.390193 0.863356 0.086261 -0.032186 2738.850000 0 0 1
33.157326 -13.479987 31.921319 47.959243 -0.386137 0.842509 0.071432 -0.029968 -317620.000000 0 0 1
33.607056 -12.133887 32.426651 48.250939 -0.346486 0.833834 0.070834 -0.022011 -168605.000000 0 0 1
33.653426 -12.006987 -33.590478 49.041218 -0.342705 2.325323 0.057742 -0.033512 102577.000000 0 0 1
34.094786 -10.704287 -33.262948 48.820692 -0.304211 2.320373 0.074610 -0.021700 -127880.000000 0 0 1
33.648346 -10.269187 -31.857858 47.461464 -0.296213 2.306672 0.084490 -0.020254 1058240.000000 0 0 1
32.241636 -10.446887 -31.577778 46.322960 -0.313344 2.320863 0.125932 -0.026782 1067300.000000 0 0 1
31.734506 -9.736587 -30.463268 45.054309 -0.297696 2.313315 0.086681 -0.021215 -693878.000000 0 0 1
30.235006 -9.830787 -30.265598 43.895403 -0.314364 2.331586 0.086819 -0.010821 -647530.000000 0 0 1
29.813106 -9.549787 -28.927778 42.624360 -0.309995 2.316743 0.079608 -0.015658 260999.000000 0 0 1
28.689006 -10.303387 -28.518428 41.743498 -0.344795 2.322908 0.114748 -0.016144 -497192.000000 0 0 1
28.225206 -10.181387 -27.031888 40.386209 -0.346193 2.304109 0.110309 -0.014689 -576153.000000 0 0 1
27.450306 -9.009587 -26.662768 39.314058 -0.317136 2.316106 0.098554 -0.021563 955709.000000 0 0 1
26.174906 -8.850887 -27.278558 38.827615 -0.326074 2.349779 0.103332 -0.027804 452823.000000 0 0 1
25.078706 -9.933587 -27.084928 38.225790 -0.377137 2.358239 0.103599 -0.009680 -665692.000000 0 0 1
25.457606 -11.088487 -27.805328 39.296063 -0.410787 2.356872 0.088025 -0.018779 -414515.000000 0 0 1
24.653806 -12.181887 -27.493498 38.885743 -0.458931 2.356090 0.096305 -0.031549 -249108.000000 0 0 1
25.185906 -13.489287 -28.045428 40.035444 -0.491712 2.346915 0.075889 -0.011352 -44964.200000 0 0 1
25.379806 -13.388787 -29.436968 41.108749 -0.485434 2.368960 0.082666 -0.020781 536340.000000 0 0 1
26.491106 -14.198887 -29.843518 42.355905 -0.492021 2.352641 0.082263 -0.011010 363767.000000 0 0 1
26.663606 -14.332987 -31.349488 43.579500 -0.493233 2.373681 0.099873 -0.020780 31284.200000 0 0 1
25.565706 -15.026387 -31.942018 43.585435 -0.531368 2.393312 0.103317 -0.017700 203859.000000 0 0 1
25.602106 -15.289587 -33.315228 44.711785 -0.538358 2.411497 0.096413 -0.018920 -88446.700000 0 0 1
25.675006 -14.126587 33.174152 44.263877 -0.503003 0.723545 0.077983 -0.027335 -162793.000000 0 0 1
24.586306 -13.235887 33.168814 43.357184 -0.493850 0.699735 0.095675 -0.026031 -142221.000000 0 0 1
24.766906 -12.362387 32.048748 42.347969 -0.462967 0.712400 0.078360 -0.017578 -811724.000000 0 0 1
23.840206 -11.133187 32.144359 41.539898 -0.436894 0.685948 0.099756 -0.023947 -987129.000000 0 0 1
22.508306 -11.452287 32.091115 40.836484 -0.470665 0.666736 0.083295 -0.026150 -1003770.000000 0 0 1
21.991406 -11.800387 30.817560 39.655934 -0.492490 0.680714 0.073784 -0.017253 -159254.000000 0 0 1
20.430206 -11.896987 30.706840 38.753602 -0.527321 0.656127 0.083693 -0.014397 1016130.000000 0 0 1
19.612206 -10.780587 30.913290 38.164004 -0.502603 0.626624 0.082220 -0.024696 -274549.000000 0 0 1
18.587106 -10.967387 31.838856 38.463968 -0.533074 0.595696 0.063595 -0.015503 -49882.700000 0 0 1
17.763906 -9.686387 32.140629 37.978975 -0.499216 0.561844 0.074697 -0.020927 -766686.000000 0 0 1
16.990006 -9.286987 31.014860 36.562686 -0.500240 0.558095 0.111449 -0.030725 143511.000000 0 0 1
16.049506 -8.254687 31.243970 36.082020 -0.475043 0.523819 0.112008 -0.025425 422141.000000 0 0 1
14.890706 -8.572887 32.220250 36.515367 -0.522376 0.489910 0.110873 -0.027567 -1404990.000000 0 0 1
14.065606 -9.588987 31.709498 35.990030 -0.598361 0.492691 0.108806 -0.030437 -200387.000000 0 0 1
12.797506 -9.715387 32.316011 36.090019 -0.649339 0.461405 0.106153 -0.033569 921360.000000 0 0 1
11.647906 -8.782087 31.777464 34.965783 -0.646032 0.430359 0.153900 -0.038243 248778.000000 0 0 1
11.982306 -7.449287 32.139809 35.100354 -0.556216 0.413662 0.135666 -0.036903 588425.000000 0 0 1
10.940106 -6.586887 31.654465 34.133242 -0.541952 0.383450 0.171021 -0.040474 583915.000000 0 0 1
11.223506 -5.055087 31.742433 34.045603 -0.423188 0.369936 0.154687 -0.041318 12969.900000 0 0 1
11.354006 -4.567487 33.066843 35.258921 -0.382470 0.354474 0.135818 -0.040788 291520.000000 0 0 1
11.887306 -3.265887 33.026065 35.251880 -0.268122 0.357257 0.091068 -0.033733 -456018.000000 0 0 1
11.535006 -2.572387 -33.179778 35.221744 -0.219417 2.799413 0.081131 -0.038434 -117178.000000 0 0 1
10.161806 -2.221587 -33.127788 34.722444 -0.215235 2.837350 0.093104 -0.023861 11961.300000 0 0 1
9.963306 -1.377287 -31.962078 33.507295 -0.137365 2.836717 0.101911 -0.019471 398735.000000 0 0 1
8.472606 -1.146187 -31.609958 32.745813 -0.134465 2.877436 0.100677 -0.015110 352907.000000 0 0 1
7.713406 -0.262587 -32.419118 33.325138 -0.034030 2.907878 0.100984 -0.015621 -517899.000000 0 0 1
6.469606 0.007613 -31.854138 32.504492 0.001177 2.941217 0.120660 -0.012291 -382627.000000 0 0 1
5.637206 0.989913 -32.724778 33.221516 0.173831 2.968447 0.148173 -0.018522 200802.000000 0 0 1
6.297506 2.253913 -32.811208 33.486028 0.343700 2.940494 0.114756 -0.025538 392009.000000 0 0 1
5.599006 3.069813 33.711080 34.310488 0.501520 0.187196 0.138322 -0.025489 -46375.100000 0 0 1
6.459906 4.270413 33.388260 34.274520 0.584114 0.227903 0.105763 -0.031432 -396667.000000 0 0 1
5.953806 5.032013 32.335527 33.261919 0.701687 0.236566 0.139155 -0.047251 -303813.000000 0 0 1
6.809306 6.068113 31.932273 33.209317 0.727904 0.278221 0.123589 -0.052640 -408148.000000 0 0 1
6.114006 7.182513 31.163530 32.559717 0.865586 0.293908 0.149761 -0.053696 874194.000000 0 0 1
4.929906 7.748313 31.819804 33.118579 1.004144 0.280980 0.155796 -0.058117 1211760.000000 0 0 1
4.513206 9.041113 31.359662 32.947522 1.107799 0.311723 0.158809 -0.058432 143320.000000 0 0 1
3.928706 9.158713 29.895080 31.512420 1.165578 0.321773 0.148724 -0.050335 -394446.000000 0 0 1
2.704906 8.508813 29.765260 31.075507 1.263004 0.291421 0.143928 -0.047590 -728815.000000 0 0 1
2.513606 8.334513 28.354030 29.660300 1.277881 0.297886 0.108296 -0.021790 -255384.000000 0 0 1
1.212506 7.628613 27.978640 29.025338 1.413173 0.269371 0.111408 -0.029100 -650444.000000 0 0 1
0.069506 8.360213 28.265470 29.476004 1.562483 0.287585 0.101920 -0.012637 -275155.000000 0 0 1
-1.052394 8.057613 27.414350 28.593343 -1.440923 0.288165 0.093616 -0.014750 414551.000000 0 0 1
-2.397094 8.432613 28.007480 29.347470 -1.293837 0.303352 0.092931 -0.011229 -465379.000000 0 0 1
-2.743194 9.812313 27.930080 29.730388 -1.298190 0.349788 0.097019 -0.004973 515961.000000 0 0 1
-4.056094 9.902913 28.510470 30.452693 -1.182054 0.359077 0.095039 0.005570 628401.000000 0 0 1
-4.356194 11.224713 29.239490 31.621487 -1.200600 0.390624 0.088085 0.007693 -59652.100000 0 0 1
-4.244194 12.509613 28.552060 31.459875 -1.243708 0.433334 0.069252 0.001745 -771593.000000 0 0 1
-5.417994 12.860213 27.935580 31.227174 -1.172065 0.463279 0.061188 -0.010623 -876840.000000 0 0 1
-5.619094 14.336013 27.514580 31.530107 -1.197243 0.510204 0.045278 -0.010067 -213168.000000 0 0 1
-4.802694 14.769213 26.480970 30.699142 -1.256399 0.530417 0.043092 0.001707 -309262.000000 0 0 1
-5.272394 16.011113 25.959090 30.952032 -1.252684 0.575927 0.053329 0.000846 112592.000000 0 0 1
-4.222094 16.841313 25.189270 30.593386 -1.325160 0.603496 0.073916 0.002257 -302078.000000 0 0 1
-3.911694 16.257413 23.965580 29.222489 -1.334675 0.609198 0.058374 0.006239 567205.000000 0 0 1
-2.912394 16.988613 23.208930 28.909332 -1.401015 0.638790 0.063547 0.002313 715950.000000 0 0 1
-3.067994 16.564713 21.736020 27.500125 -1.387659 0.659339 0.066648 -0.002463 -135308.000000 0 0 1
-2.253494 15.486813 21.390420 26.504145 -1.426300 0.631641 0.061435 -0.009007 -167313.000000 0 0 1
-2.374994 15.256613 20.050020 25.306287 -1.416366 0.656237 0.063773 -0.017078 180551.000000 0 0 1
-1.383094 14.115313 19.667020 24.247612 -1.473123 0.624781 0.057519 -0.025108 4073.280000 0 1 0
-1.828794 12.769313 19.911420 23.724766 -1.428546 0.574862 0.060957 -0.019011 120341.000000 0 1 0
-1.326494 11.870013 18.924920 22.378771 -1.459506 0.562988 0.053296 -0.026907 -55731.400000 0 1 0
-2.180094 10.582913 18.894720 21.766059 -1.367637 0.519471 0.038704 -0.023182 -342408.000000 0 1 0
-2.204194 9.712913 20.021420 22.361942 -1.347641 0.461614 0.055552 -0.027499 -136686.000000 0 1 0
-2.994494 10.116013 21.129220 23.616619 -1.282999 0.463091 0.072827 -0.017702 679043.000000 0 1 0
-4.552494 10.151513 20.987820 23.754305 -1.149228 0.487434 0.060595 -0.012186 57435.800000 0 1 0
-5.159494 8.941813 20.785020 23.207617 -1.047455 0.460991 0.048943 -0.018230 -548859.000000 0 1 0
-6.528894 9.197613 20.549120 23.441179 -0.953492 0.501994 0.046280 -0.012982 -66377.200000 0 1 0
-7.402894 7.954413 20.702520 23.380973 -0.821295 0.483350 0.044742 -0.016466 -206886.000000 0 1 0
-7.349594 7.379413 21.950620 24.296132 -0.787423 0.443019 0.049990 -0.028822 53155.900000 0 1 0
-8.015794 6.126713 21.878420 24.092631 -0.652610 0.432082 0.046052 -0.023195 193375.000000 0 1 0
-7.880194 5.240313 23.128590 24.989799 -0.586846 0.388387 0.049557 -0.028099 -222326.000000 0 1 0
-8.625194 5.695813 24.203080 26.317777 -0.583630 0.403614 0.043586 -0.024428 -341362.000000 0 0 1
-8.733094 4.729713 25.269280 27.150942 -0.496360 0.374485 0.054694 -0.017064 -393701.000000 0 0 1
-9.724294 5.043313 26.391190 28.574321 -0.478441 0.393434 0.061733 -0.018318 -497554.000000 0 0 1
-9.486694 6.290113 27.057780 29.354495 -0.585492 0.398203 0.061652 -0.014537 360497.000000 0 0 1
-10.402094 6.590013 28.144970 30.720859 -0.564708 0.412424 0.068853 -0.021225 591739.000000 0 0 1
-9.913094 7.833413 28.953180 31.589847 -0.668742 0.411469 0.081673 -0.019466 635157.000000 0 0 1
-8.781494 7.539513 29.776640 31.946944 -0.709447 0.370724 0.084372 -0.017052 310491.000000 0 0 1
-8.340794 8.681513 30.507050 32.796610 -0.805412 0.375869 0.093870 -0.020920 245849.000000 0 0 1
-7.354394 8.268813 31.632054 33.511897 -0.843861 0.336533 0.117433 -0.022870 522461.000000 0 0 1
-6.044194 7.983513 31.174510 32.743226 -0.922777 0.310796 0.110675 -0.020835 -13156.000000 0 0 1
-5.192794 7.620813 32.274248 33.565890 -0.972665 0.278317 0.140360 -0.025987 516406.000000 0 0 1
-3.699394 7.514413 31.879100 32.961022 -1.113322 0.256926 0.117616 -0.024969 209902.000000 0 0 1
-3.166794 8.786113 31.622237 32.972568 -1.224859 0.287179 0.099738 -0.022674 297149.000000 0 0 1
-1.738894 8.795513 31.769146 33.010051 -1.375611 0.275062 0.102157 -0.025214 813801.000000 0 0 1
-1.134094 10.088513 31.252840 32.860376 -1.458852 0.314084 0.094950 -0.019829 -232140.000000 0 0 1
-1.523494 11.221613 32.074424 34.014913 -1.435857 0.339408 0.096232 -0.029138 99618.000000 0 0 1
-1.391094 12.461913 31.404236 33.815093 -1.459629 0.379892 0.086758 -0.022662 -215787.000000 0 0 1
-1.563794 13.666113 32.368040 35.169562 -1.456863 0.401841 0.082792 -0.030379 329666.000000 0 0 1
-0.377894 13.950913 33.111920 35.932855 -1.543716 0.398886 0.131174 -0.035842 127633.000000 0 0 1
-0.581094 15.089213 -33.531108 36.774410 -1.532305 2.718456 0.134065 -0.043723 94002.200000 0 0 1
0.685406 15.446913 -32.739318 36.206904 1.526454 2.700366 0.126337 -0.048265 -45527.700000 0 0 1
1.760206 15.898813 -33.535668 37.155237 1.460532 2.696527 0.136246 -0.038275 338861.000000 0 0 1
2.881406 16.185713 -32.694598 36.595308 1.394620 2.675675 0.148851 -0.039364 807970.000000 0 0 1
3.947806 17.128313 -33.331698 37.682442 1.344268 2.656307 0.140502 -0.025697 409891.000000 0 0 1
3.409106 18.459013 -33.499218 38.399932 1.388169 2.630840 0.125868 -0.023306 40974.000000 0 0 1
4.394906 19.289213 33.401810 38.820998 1.346778 0.534731 0.105840 -0.008347 -75472.100000 0 0 1
4.052406 20.776913 33.321942 39.477259 1.378171 0.565950 0.107052 -0.022706 -97846.100000 0 0 1
4.181806 21.536013 -32.926478 39.565646 1.379006 2.553858 0.126512 -0.042729 209639.000000 0 0 1
3.545906 22.797613 -33.092318 40.341122 1.416494 2.532753 0.113731 -0.030994 233847.000000 0 0 1
3.850206 23.639713 -31.824978 39.830759 1.409344 2.496435 0.128511 -0.035965 25476.500000 0 0 1
3.339006 24.955713 -31.819558 40.576112 1.437789 2.472193 0.132375 -0.038627 2698.440000 0 0 1
3.246006 25.360413 -30.444178 39.755944 1.443494 2.443045 0.147800 -0.045441 92216.900000 0 0 1
2.918406 26.853213 -30.181448 40.503481 1.462541 2.411566 0.146071 -0.045771 711304.000000 0 0 1
4.096806 27.663613 -30.125008 41.104446 1.423771 2.393355 0.138438 -0.039765 626377.000000 0 0 1
3.706406 28.930913 -29.581788 41.542958 1.443378 2.363248 0.138992 -0.037004 -193131.000000 0 0 1
4.826406 29.970913 -29.546178 42.361852 1.411131 2.342659 0.172824 -0.049923 -177707.000000 0 0 1
5.847006 29.666013 -28.628348 41.639430 1.376196 2.328878 0.155627 -0.065017 -278162.000000 0 0 1
6.618806 30.839513 -28.374088 42.426089 1.359382 2.303375 0.183838 -0.076571 -989302.000000 0 0 1
7.597306 30.556413 -27.234698 41.631025 1.327105 2.283911 0.183218 -0.080285 371749.000000 0 0 1
8.791306 29.815113 -27.607328 41.573942 1.284061 2.297024 0.183216 -0.068777 672478.000000 0 0 1
9.962506 30.511113 -27.936218 42.551285 1.255190 2.287006 0.202161 -0.075734 -267653.000000 0 0 1
9.964306 31.637813 -28.947918 44.025227 1.265682 2.288332 0.215706 -0.076494 -1512890.000000 0 0 1
9.463506 32.749613 -28.259348 44.279633 1.289493 2.262957 0.220525 -0.076144 50393.500000 0 0 1
9.358906 -33.748631 -29.031538 45.490543 -1.300282 2.262939 0.197883 -0.070477 -250322.000000 0 0 1
8.075206 -33.514631 -29.861638 45.608737 -1.334357 2.284628 0.157574 -0.050028 -267825.000000 0 0 1
7.791606 33.310713 -30.917488 46.110778 1.341020 2.305685 0.133935 -0.045047 -158024.000000 0 0 1
6.466306 33.480913 -31.352758 46.322566 1.380011 2.314252 0.129919 -0.034860 -232683.000000 0 0 1
6.138006 32.775113 -32.676028 46.686251 1.385664 2.346063 0.137862 -0.056895 -33851.300000 0 0 1
6.498406 33.403313 33.564900 47.797627 1.378653 0.792272 0.142966 -0.046437 143093.000000 0 0 1
5.952306 32.709013 32.458912 46.463862 1.390789 0.797380 0.156265 -0.050143 -68486.600000 0 0 1
6.018606 33.498213 31.153120 46.139688 1.393024 0.829572 0.128490 -0.058208 -200594.000000 0 0 1
7.275306 33.563313 30.524020 45.947164 1.357335 0.844201 0.134250 -0.055467 -132560.000000 0 0 1
7.266406 -33.719131 29.179400 45.179839 -1.358544 0.868660 0.104529 -0.062233 -203178.000000 0 0 1
19.213500 -21.432887 28.814700 40.728542 -0.839946 0.784868 0.090931 0.002383 303987.000000 0 0 1
17.952900 -20.775787 28.680770 39.705497 -0.858158 0.763620 0.102785 0.007586 805137.000000 0 0 1
16.778300 -21.516487 29.008610 39.824239 -0.908502 0.754789 0.105272 0.006364 535007.000000 0 0 1
16.429000 -21.809287 30.477640 40.919966 -0.925185 0.730545 0.089752 0.007711 -444638.000000 0 0 1
17.216100 -22.852887 31.036580 42.212769 -0.925158 0.744773 0.092776 -0.002424 217189.000000 0 0 1
16.939100 -22.928487 32.423541 43.173309 -0.934515 0.721208 0.089648 -0.004861 52578.100000 0 0 1
17.772700 -23.927887 33.258004 44.659909 -0.931944 0.730719 0.084289 -0.014414 -84844.000000 0 0 1
17.402000 -25.311267 33.102744 45.158405 -0.968495 0.748021 0.110369 -0.022376 -187768.000000 0 0 1
18.203400 -26.196017 -33.640658 46.360424 -0.963507 2.382750 0.106359 -0.027027 -70554.400000 0 0 1
17.715500 -27.628587 33.558190 46.939641 -1.000631 0.774284 0.111185 -0.017169 158764.000000 0 0 1
18.141500 -28.098407 32.292259 46.491122 -0.997491 0.802947 0.111557 -0.021055 166473.000000 0 0 1
17.623400 -29.380747 31.986454 46.871588 -1.030503 0.819718 0.124814 -0.025565 -85499.100000 0 0 1
18.366800 -30.124237 30.850440 46.867458 -1.023274 0.852306 0.129656 -0.023911 -106025.000000 0 0 1
19.601400 -30.653217 31.254730 47.965537 -1.001869 0.861094 0.112351 -0.030497 278630.000000 0 0 1
20.399000 -31.194167 30.156500 47.943819 -0.991659 0.890534 0.088804 -0.014986 997608.000000 0 0 1
21.866200 -31.652537 30.486600 49.086114 -0.966258 0.900671 0.085191 -0.017827 893333.000000 0 0 1
22.763400 -30.538617 30.522450 48.809830 -0.930248 0.895237 0.074926 -0.016257 13510.500000 0 0 1
24.038700 -31.001977 30.144370 49.473879 -0.911241 0.915620 0.078669 -0.024457 -51147.600000 0 0 1
25.091000 -29.861117 29.966020 49.185434 -0.871986 0.915687 0.071366 -0.024180 288239.000000 0 0 1
26.299400 -30.299937 29.393300 49.736412 -0.855963 0.938521 0.063551 -0.025973 103381.000000 0 0 1
27.110600 -29.240787 28.895700 49.243982 -0.823182 0.943712 0.065833 -0.028727 -225096.000000 0 0 1
28.338600 -29.630777 28.091260 49.700886 -0.807685 0.970113 0.080968 -0.027602 197787.000000 0 0 1
29.330400 -30.291377 28.908840 51.122998 -0.801515 0.969786 0.085179 -0.026859 -299032.000000 0 0 1
30.631400 -30.019787 28.521250 51.506621 -0.775314 0.983948 0.093195 -0.042097 -456665.000000 0 0 1
31.619500 -30.961727 29.253720 53.049048 -0.774888 0.986699 0.089325 -0.038487 171988.000000 0 0 1
31.247100 -32.317197 28.882550 53.432052 -0.802231 0.999709 0.063391 -0.033377 249786.000000 0 0 1
32.124300 -33.271027 29.441970 54.824825 -0.802932 1.003897 0.083171 -0.028516 -849171.000000 0 0 1
31.417700 33.053133 29.514580 54.320272 0.810760 0.996381 0.068497 -0.015040 870144.000000 0 0 1
30.377600 32.710270 30.487770 54.057973 0.822356 0.971595 0.082865 -0.012911 762721.000000 0 0 1
29.361000 33.659639 30.613370 54.149959 0.853503 0.969946 0.064150 -0.012231 -135791.000000 0 0 1
28.117700 33.563250 29.623260 52.864301 0.873456 0.975971 0.069963 -0.006419 725347.000000 0 0 1
27.516600 32.279178 29.764190 51.817136 0.864878 0.958915 0.061405 0.001088 373635.000000 0 0 1
26.260200 32.208210 29.079310 50.720540 0.886780 0.960239 0.065130 -0.000990 584078.000000 0 0 1
25.460000 30.907158 29.226250 49.574567 0.881736 0.940306 0.081313 -0.014842 -132729.000000 0 0 1
26.042400 29.762608 28.573160 48.789803 0.851964 0.945129 0.089884 -0.017824 61168.600000 0 0 1
25.161700 28.662418 28.595660 47.669247 0.850347 0.927450 0.125059 -0.041444 61814.700000 0 0 1
24.410700 28.437428 27.211330 46.314426 0.861446 0.942788 0.129965 -0.045268 -178097.000000 0 0 1
23.403400 29.392968 27.032000 46.286010 0.898362 0.947123 0.146747 -0.047744 -492870.000000 0 0 1
22.609100 28.909228 25.983200 44.967116 0.907083 0.954733 0.154174 -0.047073 198657.000000 0 0 1
21.227000 29.562818 25.716690 44.563369 0.948072 0.955646 0.151118 -0.044523 287674.000000 0 0 1
21.334700 30.861638 25.163780 45.175502 0.965932 0.980000 0.154495 -0.046675 472258.000000 0 0 1
20.052900 31.233038 24.648520 44.555258 1.000036 0.984581 0.120889 -0.040545 159030.000000 0 0 1
20.065600 32.623979 23.978430 45.187580 1.019379 1.011438 0.129544 -0.041665 235144.000000 0 0 1
20.800300 32.664553 22.728560 44.902260 1.003767 1.040048 0.130514 -0.038364 140573.000000 0 0 1
22.121300 33.113630 22.829740 45.902739 0.981842 1.050254 0.132265 -0.027316 -646455.000000 0 0 1
22.669300 33.386663 21.465320 45.709150 0.974309 1.081951 0.130436 -0.028590 -360660.000000 0 0 1
22.128400 -33.154267 20.816520 44.968867 -0.982260 1.089521 0.111053 -0.023424 464883.000000 0 0 1
22.807800 -32.846467 19.588320 44.528512 -0.963855 1.115303 0.120323 -0.026996 100495.000000 0 0 1
22.550400 -31.427637 18.947220 43.072196 -0.948399 1.115315 0.107108 -0.022815 -347162.000000 0 0 1
23.242000 -30.392067 19.604820 42.990897 -0.917929 1.097275 0.100176 -0.017453 53728.800000 0 0 1
23.092700 -29.088367 19.050120 41.741022 -0.899798 1.096864 0.104766 -0.023006 -245819.000000 0 0 1
23.664500 -28.799077 17.655820 41.244677 -0.882957 1.128435 0.082980 -0.026155 -426961.000000 0 0 1
23.091000 -29.504167 16.585920 40.972953 -0.906734 1.154034 0.076224 -0.035262 190146.000000 0 0 1
23.605900 -28.915407 15.422620 40.388073 -0.886148 1.178988 0.067979 -0.029953 -266836.000000 0 0 1
23.167500 -29.567727 14.089720 40.118621 -0.906173 1.211942 0.065186 -0.046129 -663520.000000 0 0 1
23.768000 -30.743027 13.665820 41.192307 -0.912663 1.232631 0.085954 -0.035157 -258260.000000 0 0 1
23.606000 -30.959297 12.259420 40.816843 -0.919353 1.265735 0.073215 -0.043767 547779.000000 0 0 1
22.165100 -31.160587 11.613620 39.964359 -0.952514 1.275943 0.081337 -0.030665 710973.000000 0 0 1
21.666900 -32.412877 11.960020 40.781015 -0.981549 1.273146 0.084472 -0.033932 -950317.000000 0 0 1
20.429600 -32.619547 11.357520 40.129748 -1.011263 1.283855 0.083105 -0.030882 -550730.000000 0 0 1
19.469100 -33.410397 12.257120 40.565225 -1.043175 1.263840 0.087306 -0.026447 -415211.000000 0 0 1
19.117900 -32.761937 13.425820 40.237933 -1.042568 1.230612 0.082955 -0.021513 161413.000000 0 0 1
19.688900 -33.360067 14.576520 41.388667 -1.037619 1.210890 0.065269 -0.024416 -729963.000000 0 0 1
19.790900 -32.268567 15.687520 40.976071 -1.020642 1.177921 0.073753 -0.028173 260786.000000 0 0 1
18.534500 -31.794587 16.153420 40.191497 -1.043012 1.157193 0.104323 -0.037965 719443.000000 0 0 1
17.576900 -32.686587 16.752220 40.718512 -1.077414 1.146790 0.087327 -0.022608 -1227.610000 0 0 1
17.928900 -33.354457 18.106920 41.974109 -1.077580 1.124771 0.068206 -0.017327 -55391.100000 0 0 1
18.651200 33.086562 17.871320 41.975849 1.057489 1.131003 0.071686 -0.016631 326716.000000 0 0 1
19.011400 32.513286 19.117220 42.237604 1.041683 1.101105 0.079274 -0.020828 -61618.300000 0 0 1
19.851800 31.242978 18.904120 41.564208 1.004753 1.098629 0.094491 -0.023774 -356082.000000 0 0 1
19.163700 30.078618 18.530120 40.191243 1.003529 1.091620 0.076220 -0.026008 400073.000000 0 0 1
20.057100 28.974548 18.211020 39.666774 0.965303 1.093814 0.077068 -0.029852 528497.000000 0 0 1
19.278700 27.665698 18.058120 38.251207 0.962191 1.079133 0.090041 -0.034685 279694.000000 0 0 1
18.815200 27.138538 19.317620 38.258103 0.964580 1.041497 0.098882 -0.042484 36889.700000 0 0 1
18.046200 25.970658 19.128220 36.959832 0.963522 1.026822 0.107407 -0.044044 -412314.000000 0 0 1
17.891600 25.071078 20.341420 36.911267 0.950978 0.987127 0.118063 -0.045805 -86089.700000 0 0 1
16.762000 25.325378 21.164120 37.017015 0.986125 0.962171 0.112652 -0.040970 98952.300000 0 0 1
15.799100 24.305458 20.874420 35.722657 0.994405 0.946721 0.109733 -0.039431 -140085.000000 0 0 1
14.462600 24.610998 21.578620 35.784143 1.039509 0.923513 0.120248 -0.049571 -82048.500000 0 0 1
13.770800 25.728378 21.039920 35.975861 1.079357 0.946120 0.112046 -0.046031 177818.000000 0 0 1
12.450300 25.825298 21.554420 35.868496 1.121573 0.926133 0.105551 -0.042866 312115.000000 0 0 1
11.552000 26.779668 20.715320 35.773227 1.163541 0.953205 0.076397 -0.037179 -92188.000000 0 0 1
11.798600 28.132948 21.087720 37.085869 1.173689 0.965971 0.071766 -0.035526 12876.800000 0 0 1
11.416900 29.057328 20.125520 37.144454 1.196417 0.998198 0.062567 -0.035323 -231934.000000 0 0 1
12.213600 30.385568 20.222320 38.488920 1.188607 1.017604 0.048534 -0.028887 -35100.500000 0 0 1
11.823700 31.207648 21.337820 39.610854 1.208635 1.001919 0.045545 -0.023826 -70623.900000 0 0 1
12.377800 30.853588 22.580510 40.187476 1.189274 0.974140 0.047338 -0.025315 -313775.000000 0 0 1
11.904800 31.779254 23.717750 41.402620 1.212368 0.960810 0.033162 -0.024339 -673581.000000 0 0 1
10.541800 31.788644 23.997990 41.201347 1.250587 0.949049 0.042752 -0.029894 -670121.000000 0 0 1
10.294900 32.172430 25.321230 42.216287 1.261101 0.927548 0.051611 -0.026872 394215.000000 0 0 1
8.838100 31.901646 25.868230 42.011812 1.300533 0.907475 0.138284 -0.042190 726984.000000 0 0 1
7.747500 32.607165 25.319620 42.003978 1.337521 0.923802 0.117742 -0.034410 324513.000000 0 0 1
7.174300 32.098428 24.104310 40.777413 1.350901 0.938351 0.117451 -0.047072 -729818.000000 0 0 1
6.126200 31.054998 24.252390 39.876329 1.376028 0.917018 0.109207 -0.033231 -1074740.000000 0 0 1
6.684100 29.887238 24.806910 39.412016 1.350773 0.889983 0.088608 -0.041713 -225422.000000 0 0 1
5.976000 28.744788 24.443090 38.202619 1.365818 0.876522 0.086198 -0.034474 -139153.000000 0 0 1
6.942700 27.503698 24.458090 37.454675 1.323534 0.859251 0.081209 -0.042136 884067.000000 0 0 1
7.925800 27.457018 23.386950 36.927707 1.289773 0.884964 0.072016 -0.038399 1044120.000000 0 0 1
9.113600 28.209418 23.565210 37.870148 1.258312 0.899165 0.096043 -0.045245 406358.000000 0 0 1
10.248400 27.731018 24.553380 38.430555 1.216800 0.877725 0.094960 -0.051517 -538098.000000 0 0 1
9.932900 27.608068 25.926860 39.154438 1.225433 0.847087 0.100363 -0.046629 98038.900000 0 0 1
11.058200 27.489788 26.778940 39.938501 1.188338 0.835908 0.081844 -0.033678 865915.000000 0 0 1
12.177900 28.640668 26.759800 41.044805 1.168760 0.860622 0.070562 -0.027003 133611.000000 0 0 1
11.831200 29.883608 27.289300 42.162937 1.193821 0.866846 0.088196 -0.034908 916482.000000 0 0 1
13.019200 30.702578 27.428290 43.179381 1.169737 0.882506 0.085610 -0.028326 562072.000000 0 0 1
12.689200 31.998553 28.190650 44.493100 1.193263 0.884604 0.065526 -0.031749 -129351.000000 0 0 1
12.465200 31.837248 29.578450 45.209250 1.197614 0.857597 0.092699 -0.043334 768978.000000 0 0 1
11.094900 31.607178 29.929330 44.920767 1.233209 0.841602 0.135188 -0.049805 462739.000000 0 0 1
10.963900 31.471118 31.436947 45.813972 1.235566 0.814562 0.159799 -0.046477 -40361.100000 0 0 1
11.148400 30.159108 31.982604 45.351357 1.216722 0.788065 0.149771 -0.047226 224269.000000 0 0 1
11.179900 30.112958 33.391980 46.333624 1.215304 0.766005 0.181354 -0.043604 -117522.000000 0 0 1
11.304900 28.650588 -33.485948 45.496875 1.194973 2.397947 0.152751 -0.043241 625033.000000 0 0 1
12.524000 27.939728 33.667530 45.508038 1.149398 0.738001 0.167578 -0.044301 714558.000000 0 0 1
12.469600 26.575408 -33.263448 44.364402 1.132078 2.418523 0.165402 -0.050472 -306460.000000 0 0 1
13.700500 25.743478 -33.626708 44.510514 1.081727 2.427180 0.146889 -0.054456 -155631.000000 0 0 1
13.591200 24.372668 -33.238628 43.399932 1.062106 2.443187 0.129781 -0.049243 -145609.000000 0 0 1
14.041700 24.083338 -31.927448 42.385592 1.042936 2.423804 0.131012 -0.046889 -181363.000000 0 0 1
14.199600 22.582058 -31.733908 41.456229 1.009469 2.442583 0.114682 -0.064856 393293.000000 0 0 1
15.367800 22.083558 -32.406878 42.119574 0.962832 2.448701 0.108510 -0.042567 472263.000000 0 0 1
15.293300 20.662658 -32.460358 41.406585 0.933634 2.471786 0.106537 -0.040411 995828.000000 0 0 1
16.602000 20.017158 -33.086838 42.083867 0.878391 2.475451 0.130528 -0.047661 1797820.000000 0 0 1
17.766700 20.121358 -32.242328 41.953455 0.847466 2.447331 0.125797 -0.049580 116834.000000 0 0 1
18.924200 19.650358 -32.844618 42.696965 0.804221 2.448462 0.134384 -0.047653 -36927.200000 0 0 1
20.218800 19.832058 -31.990868 42.726175 0.775742 2.416958 0.113084 -0.036961 168373.000000 0 0 1
20.664800 21.163258 -31.976688 43.559454 0.797314 2.395126 0.100897 -0.033490 -82441.700000 0 0 1
21.645000 21.416758 -30.976278 43.436314 0.780098 2.364767 0.077203 -0.022390 111138.000000 0 0 1
21.173100 21.865558 -29.607618 42.461910 0.801486 2.342385 0.069783 -0.027927 -412250.000000 0 0 1
20.657100 23.154438 -29.608988 42.889812 0.842338 2.332769 0.063436 -0.020308 -202561.000000 0 0 1
20.304500 23.569948 -28.273908 42.038423 0.859688 2.308477 0.072465 -0.016212 -118400.000000 0 0 1
21.491900 23.952278 -27.336168 42.224157 0.839486 2.274972 0.052516 -0.006909 155981.000000 0 0 1
22.251900 25.074468 -27.813958 43.560214 0.844968 2.263367 0.062539 -0.010310 -37017.400000 0 0 1
21.573200 26.336508 -27.922548 44.030481 0.884495 2.257723 0.051064 -0.005143 -642040.000000 0 0 1
22.374600 27.439078 -28.629228 45.531949 0.886718 2.250770 0.049337 -0.004433 -98039.500000 0 0 1
22.603200 27.336358 -30.033568 46.477912 0.879894 2.273378 0.050458 -0.000957 181646.000000 0 0 1
23.197900 26.181758 -30.667478 46.520116 0.845752 2.290591 0.049157 -0.005522 -75424.600000 0 0 1
24.602500 25.701388 -30.269838 46.713033 0.807240 2.275746 0.068041 -0.010928 70503.900000 0 0 1
25.645700 26.586188 -30.662778 48.007638 0.803402 2.263612 0.064158 -0.002509 968475.000000 0 0 1
26.973400 26.041808 -30.512268 48.339824 0.767828 2.253900 0.090086 -0.016399 780637.000000 0 0 1
28.040300 27.060908 -30.915618 49.742603 0.767626 2.241467 0.072784 0.001554 -352338.000000 0 0 1
28.093000 28.243248 -30.106318 49.932836 0.788065 2.217973 0.053000 0.005316 762075.000000 0 0 1
29.354300 28.933548 -30.274808 51.140875 0.778180 2.204320 0.054962 0.001945 1133010.000000 0 0 1
29.500000 30.117378 -29.248328 51.310536 0.795753 2.177334 0.042527 0.008708 116486.000000 0 0 1
29.937000 29.778548 -27.944308 50.634674 0.782745 2.155414 0.071640 -0.002945 130375.000000 0 0 1
28.885000 30.021218 -27.015718 49.653457 0.804684 2.146095 0.060179 0.002766 -36846.600000 0 0 1
29.215400 30.267588 -25.539228 49.212993 0.803085 2.116422 0.098849 -0.005336 -160166.000000 0 0 1
29.683100 29.152138 -24.762838 48.416234 0.776374 2.107676 0.086437 0.002464 420713.000000 0 0 1
28.628100 28.228448 -24.503938 47.083504 0.778369 2.118157 0.084741 -0.004770 297070.000000 0 0 1
27.674100 28.493108 -23.319038 46.059641 0.799979 2.101661 0.085196 -0.007878 140909.000000 0 0 1
26.975400 29.739318 -23.471438 46.508146 0.834093 2.099800 0.114145 -0.000701 228544.000000 0 0 1
26.386400 30.060748 -22.173138 45.733344 0.850400 2.076971 0.084125 -0.001790 342599.000000 0 0 1
4.030100 -25.819757 -19.647938 32.694694 -1.415960 2.215488 0.097755 -0.020567 -58151.200000 0 0 1
3.850200 -26.975907 -18.899338 33.161854 -1.429026 2.177195 0.115251 -0.011637 179431.000000 0 0 1
3.594200 -26.703467 -17.538838 32.149716 -1.437004 2.147825 0.101086 -0.018926 -158037.000000 0 0 1
3.359800 -27.904497 -16.593838 32.639005 -1.450970 2.104128 0.084891 -0.020003 -577833.000000 0 0 1
4.457100 -28.717377 -16.344138 33.341930 -1.416819 2.083113 0.077267 -0.017589 -623563.000000 0 0 1
4.380100 -29.571147 -15.240638 33.554658 -1.423745 2.042274 0.071278 -0.022391 -754532.000000 0 0 1
5.767800 -29.954787 -14.791838 33.902142 -1.380574 2.022290 0.104233 -0.024778 -1158120.000000 0 0 1
6.545100 -28.938837 -14.210638 32.897368 -1.348368 2.017471 0.073131 -0.017638 824277.000000 0 0 1
7.969200 -29.187297 -14.206438 33.424981 -1.304256 2.009785 0.079197 -0.015014 1381720.000000 0 0 1
8.513100 -30.312697 -13.298838 34.178817 -1.297006 1.970446 0.080925 -0.023500 -1010090.000000 0 0 1
8.585200 -29.825247 -11.966938 33.263473 -1.290523 1.938809 0.066299 -0.015122 -212160.000000 0 0 1
8.916600 -30.789027 -11.027338 33.897966 -1.288905 1.902136 0.062192 -0.013124 1077460.000000 0 0 1
10.365600 -31.427577 -10.952438 34.858201 -1.252207 1.890410 0.071003 -0.016405 1418340.000000 0 0 1
11.462200 -30.713187 -10.391538 34.389910 -1.213604 1.877763 0.053399 -0.019610 173988.000000 0 0 1
12.532600 -31.573787 -10.092038 35.437541 -1.192939 1.859577 0.058916 -0.017394 183388.000000 0 0 1
13.583200 -30.979847 -9.117438 35.034011 -1.157586 1.834073 0.062203 -0.010061 -86740.500000 0 0 1
14.576900 -30.141657 -9.618538 34.835639 -1.120344 1.850543 0.072844 -0.023070 -298183.000000 0 0 1
15.579600 -29.983987 -8.647838 34.879055 -1.091594 1.821347 0.062047 -0.018425 -139940.000000 0 0 1
16.754300 -29.128127 -9.195538 34.838373 -1.048817 1.837910 0.076258 -0.028770 71590.500000 0 0 1
16.438600 -27.739097 -9.401638 33.586841 -1.035825 1.854507 0.103780 -0.031694 135431.000000 0 0 1
16.035800 -27.372677 -10.705238 33.481524 -1.040859 1.896247 0.091898 -0.028433 -11144.900000 0 0 1
15.938700 -25.821157 -10.750938 32.192499 -1.017773 1.911296 0.094086 -0.024738 -277602.000000 0 0 1
14.885900 -25.436117 -9.863038 31.078378 -1.041310 1.893741 0.059589 -0.018445 109139.000000 0 0 1
14.262500 -24.238787 -10.085338 29.877278 -1.038938 1.915119 0.037111 -0.008954 265599.000000 0 0 1
13.496000 -24.038887 -11.430238 29.843935 -1.059225 1.963838 0.020701 -0.002748 15096.600000 0 0 1
14.403100 -23.605487 -12.439138 30.321617 -1.022940 1.993513 0.021122 -0.009316 53832.300000 0 0 1
13.763300 -23.592187 -13.692138 30.553140 -1.042684 2.035482 0.023137 -0.012258 398063.000000 0 0 1
14.691100 -23.050487 -14.816938 31.091719 -1.003369 2.067529 0.042606 -0.012414 52218.800000 0 0 1
15.580600 -23.897487 -15.463238 32.449294 -0.993033 2.067506 0.052239 -0.021776 -166195.000000 0 0 1
16.130800 -23.287887 -16.641038 32.855023 -0.965007 2.101916 0.051504 -0.028252 -142813.000000 0 0 1
17.262800 -24.137887 -17.283638 34.341898 -0.949959 2.098188 0.056139 -0.032969 609995.000000 0 0 1
18.514500 -24.272887 -16.627238 34.762405 -0.919176 2.069527 0.107765 -0.038311 198833.000000 0 0 1
19.407000 -23.206787 -16.892738 34.648971 -0.874331 2.080066 0.128926 -0.044372 775741.000000 0 0 1
20.862900 -23.321987 -16.295038 35.280362 -0.840995 2.050902 0.127832 -0.039328 1199450.000000 0 0 1
21.702000 -24.232787 -16.974338 36.692409 -0.840438 2.051735 0.145752 -0.035054 791854.000000 0 0 1
23.022500 -24.345787 -16.375238 37.294789 -0.813327 2.025366 0.155549 -0.022765 1137120.000000 0 0 1
23.857800 -25.372797 -17.149138 38.820953 -0.816162 2.028344 0.143895 -0.018331 -338774.000000 0 0 1
24.192300 -24.807487 -18.403538 39.234793 -0.797952 2.059024 0.155435 -0.014394 -161950.000000 0 0 1
24.725300 -25.863267 -19.241138 40.625982 -0.807889 2.064189 0.137093 -0.022504 -128506.000000 0 0 1
26.136600 -25.491447 -19.735538 41.502135 -0.772903 2.066364 0.128408 -0.028140 -93805.900000 0 0 1
26.203000 -24.420987 -20.674438 41.357154 -0.750212 2.094280 0.129231 -0.025571 -138900.000000 0 0 1
26.217100 -23.130087 -20.122538 40.339234 -0.722923 2.093048 0.136168 -0.023495 -505813.000000 0 0 1
25.198000 -22.162087 -20.738638 39.448554 -0.721383 2.124350 0.160250 -0.037664 -419401.000000 0 0 1
25.390700 -21.687287 -22.065838 40.024084 -0.706894 2.154735 0.136070 -0.024226 -237255.000000 0 0 1
24.771500 -22.531387 -22.984538 40.615017 -0.738077 2.172336 0.096971 -0.024812 -312162.000000 0 0 1
23.975900 -21.717387 -23.992438 40.275622 -0.736011 2.208941 0.076443 -0.017953 -371685.000000 0 0 1
24.796900 -20.968587 -24.790038 40.854790 -0.701942 2.222805 0.057132 -0.002251 -197548.000000 0 0 1
23.986100 -20.102487 -25.547338 40.399374 -0.697538 2.255405 0.050110 -0.001799 304352.000000 0 0 1
24.782800 -19.504287 -26.753198 41.356233 -0.666769 2.274304 0.056514 0.000521 -228488.000000 0 0 1
24.090500 -18.544587 -27.462568 40.968848 -0.656046 2.305447 0.047040 0.003117 -235881.000000 0 0 1
24.767700 -18.054387 -28.593068 41.916147 -0.629892 2.321494 0.061980 0.000618 -113281.000000 0 0 1
23.932000 -16.916987 -29.267338 41.418621 -0.615327 2.355510 0.100572 -0.007638 -300543.000000 0 0 1
22.821200 -17.459087 -29.936778 41.495031 -0.653056 2.376697 0.097410 -0.013704 -330052.000000 0 0 1
21.989400 -16.343487 -30.238538 40.804564 -0.639163 2.405441 0.108025 -0.030810 -867139.000000 0 0 1
20.736400 -16.824587 -30.930588 40.862774 -0.681627 2.429411 0.089589 -0.026911 -1198820.000000 0 0 1
20.905400 -17.403587 -32.211098 42.160117 -0.694242 2.440315 0.084073 -0.023474 -686691.000000 0 0 1
19.772200 -18.109187 -32.558708 42.177625 -0.741526 2.452688 0.085816 -0.032438 -646649.000000 0 0 1
19.849600 -18.934287 33.598780 43.375014 -0.761802 0.684696 0.086276 -0.006534 -259154.000000 0 0 1
20.758100 -19.974987 -33.706028 44.339544 -0.766175 2.434386 0.079097 0.001870 -198704.000000 0 0 1
20.701200 -20.825287 32.598879 43.873901 -0.788386 0.733235 0.071980 -0.004457 16615.000000 0 0 1
21.537000 -22.094187 32.855508 45.071941 -0.798168 0.753999 0.063711 -0.011114 -14053.100000 0 0 1
21.031000 -23.081287 -33.696928 45.940524 -0.831844 2.394239 0.071839 -0.009532 -65636.900000 0 0 1
21.270900 -22.824287 -32.314358 44.917892 -0.820612 2.373748 0.074012 -0.001948 -38475.800000 0 0 1
20.422500 -23.763187 -31.388738 44.351104 -0.860860 2.357080 0.080445 -0.010282 -69889.300000 0 0 1
20.653300 -25.172057 -31.354968 45.203156 -0.883689 2.337334 0.098594 -0.027513 -1025840.000000 0 0 1
21.759400 -25.659357 -30.709858 45.551833 -0.867459 2.310642 0.080903 -0.028097 -860434.000000 0 0 1
21.778900 -27.196187 -30.721608 46.451806 -0.895563 2.293434 0.075007 -0.034076 -87398.900000 0 0 1
20.707400 -27.718867 -29.979718 45.781170 -0.929185 2.284778 0.083468 -0.040474 -116240.000000 0 0 1
20.608300 -29.144737 -30.143578 46.719942 -0.955320 2.272078 0.086081 -0.035485 388253.000000 0 0 1
19.347000 -29.788337 -29.472878 46.155194 -0.994785 2.263422 0.122862 -0.030973 1411580.000000 0 0 1
18.096800 -29.845667 -30.186838 46.146540 -1.025724 2.283857 0.141739 -0.036859 736114.000000 0 0 1
18.059700 -30.880467 -31.230538 47.487920 -1.041609 2.288494 0.155083 -0.038462 -698577.000000 0 0 1
16.618400 -31.308297 -31.543358 47.448542 -1.082814 2.298010 0.175000 -0.046048 156496.000000 0 0 1
15.914000 -30.333827 -32.331398 47.103246 -1.087640 2.327316 0.174679 -0.043446 -25383.900000 0 0 1
14.700600 -30.797267 -32.857608 47.373006 -1.125445 2.337262 0.120692 -0.036794 217160.000000 0 0 1
13.736800 -29.766747 -33.544468 46.904054 -1.138436 2.367667 0.119345 -0.030625 900840.000000 0 0 1
12.909300 -28.985727 -32.625548 45.510974 -1.151801 2.370102 0.138135 -0.043023 195284.000000 0 0 1
12.085400 -28.162667 -33.426818 45.349144 -1.165434 2.399564 0.112821 -0.039035 -128923.000000 0 0 1
11.035000 -27.494067 -32.514368 43.987260 -1.189119 2.402644 0.131070 -0.039887 375346.000000 0 0 1
10.062800 -28.401097 -31.962828 43.926127 -1.230287 2.385686 0.137637 -0.045085 203883.000000 0 0 1
9.248800 -27.694997 -31.042508 42.616786 -1.248489 2.386795 0.105879 -0.046341 183126.000000 0 0 1
8.192000 -28.603507 -30.346188 42.498948 -1.291864 2.366056 0.093166 -0.044673 454970.000000 0 0 1
7.048000 -28.935727 -31.121188 43.075271 -1.331874 2.378185 0.081804 -0.037478 151004.000000 0 0 1
7.157600 -30.270587 -31.637348 44.367347 -1.338607 2.364674 0.091849 -0.039763 -331820.000000 0 0 1
5.894500 -30.810037 -32.301708 45.026702 -1.381763 2.370845 0.129761 -0.051231 -263947.000000 0 0 1
4.849100 -31.105417 -31.424258 44.480836 -1.416149 2.355291 0.143277 -0.060507 -666021.000000 0 0 1
3.737100 -31.645957 -32.046818 45.193263 -1.453250 2.359026 0.166156 -0.067067 -670682.000000 0 0 1
2.633500 -32.207607 -31.112488 44.858134 -1.489211 2.337236 0.154911 -0.061734 207653.000000 0 0 1
1.661900 -31.273077 -30.711248 43.862832 -1.517705 2.346426 0.122372 -0.047195 183253.000000 0 0 1
0.436300 -31.339777 -31.433108 44.389326 -1.556876 2.357633 0.092172 -0.014214 -209980.000000 0 0 1
-0.529300 -30.317087 -30.866738 43.268481 1.553339 2.365102 0.060257 0.002294 -523196.000000 0 0 1
-1.184000 -30.621227 -29.669998 42.654076 1.532150 2.340045 0.032554 -0.004342 272498.000000 0 0 1
-1.912400 -29.477797 -29.161608 41.509001 1.506011 2.349753 0.092819 -0.013440 521632.000000 0 0 1
-2.602100 -29.702247 -27.810138 40.772518 1.483413 2.321400 0.103665 -0.022564 -179024.000000 0 0 1
-1.649400 -29.488617 -26.799678 39.881347 1.514921 2.307683 0.080211 -0.016646 -147308.000000 0 0 1
-2.189500 -29.488137 -25.497688 39.044542 1.496682 2.282389 0.105717 -0.024112 -326896.000000 0 0 1
-1.219900 -29.875167 -24.364338 38.569868 1.529986 2.254532 0.060479 -0.021612 -120534.000000 0 0 1
-1.790600 -30.005637 -23.063138 37.887370 1.511192 2.225254 0.123240 -0.034462 318801.000000 0 0 1
-0.742500 -30.358977 -22.143838 37.584150 1.546344 2.200840 0.103911 -0.025914 628809.000000 0 0 1
-1.059500 -30.181017 -20.627438 36.571950 1.535706 2.170047 0.063028 -0.015077 99048.300000 0 0 1
-1.146000 -28.861397 -20.118038 35.199844 1.531110 2.179175 0.046014 -0.014528 964072.000000 0 0 1
0.137700 -28.360577 -19.664438 34.511323 -1.565941 2.177055 0.077350 -0.018606 1010080.000000 0 0 1
0.000900 -26.997657 -18.995038 33.010376 -1.570763 2.183922 0.092177 -0.025243 243664.000000 0 0 1
-0.701700 -26.964207 -17.717938 32.272065 1.544779 2.151985 0.085051 -0.023751 448328.000000 0 0 1
-0.507200 -25.756407 -17.126638 30.934956 1.551107 2.157518 0.102196 -0.028315 -403488.000000 0 0 1
-1.419700 -25.620207 -15.935138 30.204953 1.515440 2.126530 0.091714 -0.024794 -345987.000000 0 0 1
-1.352100 -24.406187 -15.222238 28.795949 1.515453 2.127775 0.083153 -0.023174 -107641.000000 0 0 1
-2.284500 -24.541187 -14.187538 28.438970 1.477975 2.093098 0.092251 -0.021466 -229004.000000 0 0 1
-2.203200 -23.315787 -13.213038 26.889857 1.476582 2.084466 0.092225 -0.017222 -234053.000000 0 0 1
-1.144600 -23.465487 -12.318538 26.527072 1.522057 2.053726 0.113021 -0.030140 -535203.000000 0 0 1
-0.990400 -22.358187 -11.482538 25.153888 1.526528 2.044844 0.110361 -0.023911 386912.000000 0 0 1
0.145300 -22.495487 -10.422338 24.793007 -1.564337 2.004654 0.105616 -0.031936 453988.000000 0 1 0
0.613700 -21.272987 -9.966438 23.499925 -1.541956 2.008770 0.089949 -0.022838 -600544.000000 0 1 0
1.923200 -21.246987 -9.480938 23.345692 -1.480526 1.988990 0.074811 -0.023337 -6172.440000 0 1 0
2.332800 -19.750087 -9.267838 21.940846 -1.453225 2.006889 0.071352 -0.019705 -932569.000000 0 1 0
2.649100 -19.138587 -10.504438 21.991964 -1.433254 2.068773 0.060940 -0.007460 -51644.800000 0 1 0
3.500300 -18.017887 -10.458638 21.125327 -1.378918 2.088718 0.038990 -0.005253 -307346.000000 0 1 0
4.970000 -18.242687 -10.051238 21.413171 -1.304814 2.059402 0.051263 -0.019508 -499023.000000 0 1 0
5.126300 -18.723987 -8.740238 21.289866 -1.303562 1.993837 0.053319 -0.019869 458695.000000 0 1 0
6.368600 -19.468887 -8.676538 22.245875 -1.254651 1.971460 0.039514 -0.000225 523710.000000 0 1 0
6.440600 -20.564387 -7.580738 22.843882 -1.267281 1.909060 0.036756 -0.012195 -552578.000000 0 1 0
5.463800 -21.497187 -7.922338 23.553038 -1.321903 1.913847 0.075842 -0.029591 -37367.800000 0 1 0
5.487700 -22.598687 -6.996738 24.285177 -1.332575 1.863046 0.077933 -0.023294 50546.100000 0 1 0
4.557600 -23.749287 -7.423338 25.296369 -1.381197 1.868635 0.094490 -0.026024 197889.000000 0 0 1
5.161300 -24.504887 -8.460338 26.433044 -1.363207 1.896596 0.080224 -0.020686 -115209.000000 0 0 1
4.200500 -25.026207 -9.332838 27.038068 -1.404502 1.923221 0.084748 -0.018940 21133.500000 0 0 1
4.786500 -26.056327 -10.367638 28.448738 -1.389124 1.943819 0.044346 -0.018220 181191.000000 0 0 1
5.191400 -27.268687 -9.694838 29.402752 -1.382668 1.906809 0.069241 -0.023377 92651.400000 0 0 1
5.964600 -28.030057 -10.641838 30.569744 -1.361131 1.926358 0.092170 -0.015653 280188.000000 0 0 1
5.489800 -29.498967 -10.734038 31.867641 -1.386800 1.914346 0.089314 -0.024493 1284760.000000 0 0 1
4.082100 -29.732317 -11.041938 31.978096 -1.434354 1.923351 0.092395 -0.023047 1338160.000000 0 0 1
3.852400 -31.119997 -11.046738 33.246438 -1.447631 1.909504 0.101318 -0.023312 -623659.000000 0 0 1
2.426100 -31.520257 -11.373938 33.597307 -1.493978 1.916158 0.089081 -0.029865 -640807.000000 0 0 1
2.084500 -31.451797 -12.737938 33.997290 -1.504617 1.954843 0.090031 -0.034019 554128.000000 0 0 1
1.172300 -32.494517 -13.116938 35.061688 -1.534735 1.954234 0.086860 -0.031277 76403.200000 0 0 1
0.939200 -32.503347 -14.683238 35.678385 -1.541909 1.994944 0.080728 -0.019421 203708.000000 0 0 1
-0.006000 -31.495567 -15.044938 34.904454 1.570606 2.016433 0.075611 -0.017388 207388.000000 0 0 1
-0.346900 -31.603157 -16.399838 35.606664 1.559820 2.049449 0.062251 -0.016967 415647.000000 0 0 1
-1.566300 -30.691187 -16.792638 35.019922 1.519806 2.070900 0.066424 -0.010340 853938.000000 0 0 1
-2.783800 -31.005927 -16.126038 35.059466 1.481254 2.048749 0.071017 -0.017005 -159096.000000 0 0 1
-3.865100 -30.711197 -16.975538 35.302769 1.445601 2.072427 0.084767 -0.007246 -272697.000000 0 0 1
-5.198900 -30.634067 -16.232038 35.056436 1.402688 2.052202 0.086418 -0.008860 -430481.000000 0 0 1
-5.427500 -29.431777 -15.493138 33.700513 1.388436 2.048488 0.084459 -0.008485 680870.000000 0 0 1
-6.809600 -29.082587 -15.287338 33.553990 1.340793 2.043847 0.093836 -0.015750 1004830.000000 0 0 1
-7.561800 -29.766637 -14.111938 33.799117 1.322023 2.001515 0.074994 -0.023541 -142025.000000 0 0 1
-7.917100 -31.127197 -14.367138 35.185189 1.321731 1.991419 0.073948 -0.018248 -245682.000000 0 0 1
-8.386600 -31.782397 -13.239838 35.436551 1.312801 1.953706 0.080977 -0.020175 -5542.160000 0 0 1
-8.950300 -33.185547 -13.523538 36.936086 1.307360 1.945647 0.107313 -0.030792 -409065.000000 0 0 1
-8.000800 33.465433 -13.762338 37.058736 -1.336125 1.951276 0.089649 -0.020562 -41533.800000 0 0 1
-8.536300 32.157713 -14.015138 36.102784 -1.311329 1.969475 0.118612 -0.035143 -241888.000000 0 0 1
-8.141500 -21.231387 -3.415638 22.993964 1.204625 1.719893 0.123375 -0.051424 80976.900000 0 1 0
-7.875100 -20.460487 -4.565338 22.393996 1.203381 1.776100 0.096927 -0.039560 -365946.000000 0 1 0
-6.649400 -20.813987 -5.134238 22.445422 1.261576 1.801583 0.098904 -0.030210 -72267.500000 0 1 0
-6.198300 -19.902987 -6.277038 21.770370 1.268891 1.863278 0.084416 -0.027175 -283754.000000 0 1 0
-7.146200 -20.022287 -7.288138 22.473921 1.227977 1.901061 0.087663 -0.033810 -187384.000000 0 1 0
-7.136800 -18.888287 -8.135538 21.768975 1.209536 1.953815 0.060796 -0.036890 -298786.000000 0 1 0
-7.988100 -18.973887 -9.382438 22.624064 1.172314 1.998421 0.065936 -0.038390 44742.200000 0 1 0
-7.407100 -19.863987 -10.345338 23.589598 1.213876 2.024787 0.083915 -0.030893 -236176.000000 0 1 0
-8.371200 -20.129287 -11.298338 24.554381 1.176683 2.048944 0.103290 -0.034410 -226602.000000 0 1 0
-7.878500 -21.099787 -12.433438 25.726682 1.213436 2.075205 0.095163 -0.023835 -344683.000000 0 0 1
-7.138100 -20.412187 -13.431438 25.456107 1.234391 2.126606 0.092652 -0.013012 5484.330000 0 0 1
-6.652200 -21.341787 -14.400038 26.591065 1.268642 2.143060 0.072827 -0.009391 -437646.000000 0 0 1
-5.406500 -20.931887 -15.153938 26.401060 1.318031 2.182166 0.060637 0.000700 -407537.000000 0 0 1
-4.165300 -21.000787 -14.449138 25.829448 1.374997 2.164465 0.059374 -0.004099 915868.000000 0 0 1
-3.083400 -20.348487 -15.152338 25.557027 1.420411 2.205431 0.073574 -0.002275 561946.000000 0 0 1
-2.979000 -18.827887 -15.298938 24.442203 1.413874 2.247111 0.072860 0.001427 -378625.000000 0 1 0
-4.009500 -18.143387 -16.032038 24.541492 1.353302 2.282682 0.071156 -0.001025 296660.000000 0 1 0
-3.957300 -18.296587 -17.458138 25.597107 1.357791 2.321339 0.114560 -0.017633 -60728.700000 0 0 1
-5.310500 -17.872787 -18.118938 25.998728 1.281977 2.341885 0.095937 -0.011377 -121157.000000 0 0 1
-6.337800 -18.673987 -17.664038 26.474587 1.243603 2.301250 0.074049 -0.012750 -1528070.000000 0 0 1
-7.470600 -18.494187 -18.433238 27.159328 1.186895 2.316798 0.059390 -0.015853 -191421.000000 0 0 1
-8.620100 -19.484887 -18.031838 27.912616 1.154281 2.273142 0.102546 -0.023120 350142.000000 0 0 1
-8.274600 -20.767987 -18.460538 28.992581 1.191644 2.261050 0.118977 -0.022409 264656.000000 0 0 1
-9.210300 -21.734987 -18.058938 29.721449 1.169981 2.223840 0.146859 -0.025527 -93383.200000 0 0 1
-8.871600 -23.162087 -18.583338 30.992386 1.205011 2.213810 0.159881 -0.035543 -413471.000000 0 0 1
-8.996100 -23.133987 -20.004438 31.879284 1.199922 2.249142 0.156558 -0.037849 151759.000000 0 0 1
-8.436100 -24.211687 -20.764338 32.992898 1.235520 2.251523 0.178010 -0.055805 -108261.000000 0 0 1
-6.904200 -24.245187 -20.918838 32.758127 1.293374 2.263454 0.173374 -0.044905 -131428.000000 0 0 1
-6.136800 -23.229287 -21.585338 32.298404 1.312513 2.302731 0.199983 -0.058187 564589.000000 0 0 1
-6.049500 -21.946287 -20.932838 30.926036 1.301826 2.314296 0.163381 -0.055562 138782.000000 0 0 1
-5.069500 -21.841187 -19.669838 29.826830 1.342727 2.290907 0.165419 -0.036641 540780.000000 0 0 1
-3.725700 -22.216487 -19.862738 30.033007 1.404643 2.293432 0.147103 -0.042119 285346.000000 0 0 1
-2.979800 -22.014087 -18.635138 28.995993 1.436255 2.268787 0.087690 -0.033780 640887.000000 0 0 1
-1.526000 -22.540887 -18.653738 29.298160 1.503200 2.260990 0.105518 -0.032861 1232260.000000 0 0 1
-0.529900 -21.738887 -19.371138 29.122174 1.546425 2.298515 0.130391 -0.039258 612013.000000 0 0 1
0.786500 -22.225187 -19.268038 29.425071 -1.535423 2.284737 0.101840 -0.038296 588300.000000 0 0 1
1.793300 -21.302387 -20.051338 29.309790 -1.486811 2.324189 0.093604 -0.035027 386175.000000 0 0 1
1.502100 -21.364987 -21.429838 30.297804 -1.500605 2.356477 0.093745 -0.043785 -430702.000000 0 0 1
2.471000 -20.733787 -22.217738 30.489730 -1.452178 2.387212 0.093989 -0.038577 -327564.000000 0 0 1
2.241000 -20.867487 -23.775438 31.713492 -1.463814 2.418397 0.130403 -0.051807 63587.800000 0 0 1
1.439100 -19.971987 -24.515438 31.653720 -1.498865 2.456702 0.144256 -0.053479 355645.000000 0 0 1
0.035000 -19.994987 -24.237038 31.420292 -1.569046 2.451806 0.166260 -0.053361 498680.000000 0 0 1
-0.784600 -18.969087 -25.046438 31.428744 1.529458 2.492988 0.192656 -0.053767 -4347.440000 0 0 1
-0.630800 -17.662687 -24.544038 30.245301 1.535098 2.517510 0.143365 -0.046121 -493042.000000 0 0 1
-1.370400 -16.678887 -25.169008 30.224861 1.488817 2.554808 0.176309 -0.051580 -131922.000000 0 0 1
-0.814000 -15.269887 -24.856538 29.183549 1.517539 2.590077 0.147954 -0.033775 598008.000000 0 0 1
0.522700 -15.002987 -25.255068 29.379947 -1.535971 2.605287 0.135659 -0.042476 64466.300000 0 0 1
1.120400 -13.798887 -24.757738 28.365651 -1.489779 2.631721 0.113753 -0.038259 406256.000000 0 0 1
0.577800 -12.455887 -25.355018 28.255264 -1.524442 2.684537 0.122571 -0.028015 8396.720000 0 0 1
1.382300 -11.340187 -25.046138 27.528524 -1.449501 2.713658 0.090588 -0.018699 130922.000000 0 0 1
0.944800 -10.210587 -25.800738 27.763768 -1.478528 2.763296 0.093081 -0.022669 -307560.000000 0 0 1
1.764000 -8.928387 -25.464078 27.041580 -1.375736 2.798337 0.099960 -0.020454 718707.000000 0 0 1
3.130000 -8.904787 -25.860018 27.528761 -1.232789 2.791619 0.088688 -0.026423 -179799.000000 0 0 1
3.315700 -8.861787 -27.276948 28.871388 -1.212765 2.807702 0.102439 -0.035065 -454055.000000 0 0 1
4.741900 -8.636987 -27.835108 29.527553 -1.068704 2.801376 0.110993 -0.036373 -1269580.000000 0 0 1
4.827300 -7.264487 -28.173878 29.493101 -0.984291 2.841368 0.104974 -0.022129 595326.000000 0 0 1
6.137300 -6.823787 -28.525038 29.965118 -0.838314 2.830310 0.115387 -0.033252 56774.900000 0 0 1
7.268500 -6.968887 -27.494668 29.280595 -0.764357 2.790526 0.122597 -0.030594 -843455.000000 0 0 1
7.677000 -8.264487 -27.121718 29.373894 -0.822234 2.747453 0.089860 -0.035391 41123.300000 0 0 1
8.403200 -8.989387 -28.120738 30.695256 -0.819089 2.729105 0.081451 -0.037097 -500139.000000 0 0 1
8.892500 -10.373687 -27.711228 30.896636 -0.862127 2.683508 0.099952 -0.034293 216380.000000 0 0 1
7.842400 -11.338287 -27.566158 30.821309 -0.965680 2.677854 0.093217 -0.042487 371089.000000 0 0 1
8.209700 -12.376887 -26.728318 30.577598 -0.985122 2.634406 0.105169 -0.039376 492846.000000 0 0 1
9.420000 -13.297587 -27.129418 31.647552 -0.954456 2.600674 0.104540 -0.044286 181787.000000 0 0 1
9.088500 -14.136587 -28.177188 32.808503 -0.999424 2.603793 0.111737 -0.052395 -550459.000000 0 0 1
10.044200 -15.099987 -28.517308 33.795450 -0.983824 2.575161 0.101765 -0.055758 -237751.000000 0 0 1
9.650200 -15.906587 -29.767858 35.103721 -1.025480 2.582991 0.107774 -0.058409 188.668000 0 0 1
9.677000 -15.007387 -30.857838 35.652099 -0.998074 2.616997 0.127710 -0.061287 262418.000000 0 0 1
9.210000 -15.545887 -32.087928 36.825722 -1.035954 2.628734 0.149392 -0.055719 178584.000000 0 0 1
7.825500 -14.967887 -32.556058 36.676600 -1.089060 2.663018 0.149059 -0.051079 485311.000000 0 0 1
7.832400 -13.665087 -33.100958 36.657257 -1.050339 2.697463 0.155119 -0.050264 374915.000000 0 0 1
6.542300 -13.316587 -33.604408 36.734036 -1.114141 2.725816 0.204466 -0.067536 512510.000000 0 0 1
6.458100 -12.038187 32.910829 35.633519 -1.078402 0.393450 0.224891 -0.060164 -226851.000000 0 0 1
7.034200 -12.329087 31.651167 34.688366 -1.052323 0.421581 0.215474 -0.049398 194584.000000 0 0 1
6.975600 -11.220687 30.744120 33.462871 -1.014593 0.405885 0.224521 -0.056023 -58475.900000 0 0 1
7.629300 -11.391087 29.370790 32.413059 -0.980655 0.436728 0.224737 -0.049516 78499.300000 0 0 1
6.768000 -12.057587 28.457520 31.638927 -1.059314 0.452295 0.210244 -0.048273 538936.000000 0 0 1
7.390400 -12.077087 27.143090 30.614072 -1.021647 0.480808 0.163493 -0.039190 90963.400000 0 0 1
6.567500 -12.669387 25.993180 29.652839 -1.092557 0.502081 0.145224 -0.042783 -297974.000000 0 0 1
6.442000 -14.019287 26.102030 30.320880 -1.140062 0.533839 0.133919 -0.029490 -326020.000000 0 0 1
6.043900 -14.622887 24.927880 29.525527 -1.178862 0.565572 0.089502 -0.020263 444954.000000 0 0 1
4.522800 -14.963487 24.787730 29.305174 -1.277271 0.562643 0.115712 -0.028066 492674.000000 0 0 1
3.759300 -13.799587 24.591900 28.448594 -1.304829 0.526775 0.103689 -0.033608 250010.000000 0 0 1
2.359700 -14.073787 24.608920 28.447120 -1.404675 0.525494 0.105721 -0.033720 595179.000000 0 0 1
1.432000 -12.859987 24.645200 27.835513 -1.459900 0.483471 0.112033 -0.032235 -692896.000000 0 0 1
1.511700 -11.994787 23.516810 26.442400 -1.445428 0.474853 0.067466 -0.021402 -46345.100000 0 0 1
0.469600 -11.022987 23.467350 25.931512 -1.528220 0.439477 0.069828 -0.013644 452866.000000 0 0 1
-0.875600 -11.618587 22.998750 25.781791 1.495576 0.468926 0.075215 -0.012548 -934605.000000 0 0 1
-0.794200 -12.245787 21.683820 24.915419 1.506032 0.514991 0.068746 -0.015221 79802.600000 0 1 0
-1.869000 -13.156587 21.454820 25.236843 1.429682 0.554547 0.080983 -0.025467 412127.000000 0 0 1
-2.081000 -13.521187 19.976820 24.212113 1.418088 0.600461 0.097225 -0.034943 411086.000000 0 1 0
-1.079600 -14.484187 19.598820 24.394076 1.496397 0.637770 0.114552 -0.045565 -97000.700000 0 1 0
-1.201600 -15.147987 18.397020 23.861176 1.491638 0.690383 0.117023 -0.047371 -281328.000000 0 1 0
-2.425700 -16.055187 18.261320 24.436220 1.420845 0.726799 0.104510 -0.053581 -104036.000000 0 1 0
-2.244400 -17.070787 17.295020 24.404238 1.440070 0.783158 0.081345 -0.044486 -609577.000000 0 1 0
-3.237700 -18.030587 17.475020 25.317210 1.393123 0.808972 0.100965 -0.033984 -250653.000000 0 0 1
-2.842600 -19.410587 16.890820 25.887276 1.425384 0.859949 0.098867 -0.036906 -350356.000000 0 0 1
-1.808900 -20.018387 17.577320 26.701500 1.480679 0.852252 0.091846 -0.035196 -741671.000000 0 0 1
-1.830900 -21.368387 17.236220 27.514495 1.485322 0.893817 0.089847 -0.043934 341976.000000 0 0 1
-0.753200 -22.256687 17.941720 28.597775 1.536968 0.892610 0.106143 -0.031835 416892.000000 0 0 1
0.507100 -22.273887 17.319420 28.219594 -1.548034 0.910011 0.122333 -0.037560 -523824.000000 0 0 1
1.292100 -23.343187 17.848820 29.413505 -1.515500 0.918738 0.145952 -0.026308 155803.000000 0 0 1
2.656900 -23.386887 17.137120 29.115056 -1.457675 0.941470 0.144579 -0.035602 -262773.000000 0 0 1
3.458900 -22.262587 17.336620 28.427894 -1.416660 0.914931 0.136971 -0.038036 320473.000000 0 0 1
4.569700 -22.190387 16.414920 27.977581 -1.367704 0.943798 0.134746 -0.040357 755008.000000 0 0 1
5.497900 -20.998887 16.704620 27.390226 -1.314726 0.914893 0.118573 -0.031414 -1129230.000000 0 0 1
6.324700 -21.189487 17.797320 28.385574 -1.280732 0.893120 0.128139 -0.020459 -388373.000000 0 0 1
6.959800 -20.015587 18.304320 28.001976 -1.236155 0.858360 0.116125 -0.017365 1490660.000000 0 0 1
7.966200 -19.199987 17.318620 27.056135 -1.177506 0.876168 0.107894 -0.025567 746154.000000 0 0 1
7.221000 -18.518687 16.323020 25.720140 -1.199001 0.883254 0.107743 -0.025641 718246.000000 0 0 1
8.139000 -17.907487 15.408120 24.986628 -1.144204 0.906310 0.123804 -0.034234 710842.000000 0 1 0
7.315000 -16.907587 14.587120 23.498081 -1.162467 0.901060 0.082115 -0.021238 553532.000000 0 1 0
6.317400 -17.440587 13.698420 23.059279 -1.223273 0.934709 0.083098 -0.026310 618226.000000 0 1 0
5.752600 -16.461787 12.818420 21.642429 -1.234610 0.936908 0.059275 -0.021729 212248.000000 0 1 0
6.481100 -16.369787 11.447720 21.000592 -1.193814 0.994271 0.070449 -0.028800 1105330.000000 0 1 0
7.856100 -15.940587 11.490920 21.162747 -1.112896 0.996816 0.075553 -0.018878 479179.000000 0 1 0
8.508800 -16.358787 10.361520 21.151139 -1.091170 1.058844 0.077714 -0.012867 429194.000000 0 1 0
9.998200 -15.902587 10.217420 21.383450 -1.009530 1.072626 0.079419 -0.009990 691905.000000 0 1 0
10.648000 -16.536087 9.132920 21.684840 -0.998704 1.136066 0.087851 -0.005260 156188.000000 0 1 0
11.957500 -15.993887 8.947420 21.882471 -0.928814 1.149564 0.094278 -0.004510 732977.000000 0 1 0
12.863300 -16.852387 7.996120 22.658450 -0.918842 1.210130 0.097980 -0.016351 242652.000000 0 1 0
13.230400 -18.057987 8.563920 23.968210 -0.938484 1.205417 0.102858 -0.027028 -34689.500000 0 1 0
13.959500 -18.877287 7.641820 24.690423 -0.934058 1.256123 0.103191 -0.027482 212258.000000 0 1 0
14.466400 -20.153887 8.389620 26.188578 -0.948226 1.244693 0.094484 -0.027489 -419629.000000 0 0 1
13.495400 -20.988087 8.940620 26.505854 -0.999356 1.226741 0.089761 -0.025909 -130935.000000 0 0 1
14.163000 -22.147087 9.465020 27.940484 -1.001840 1.225201 0.070043 -0.016486 268660.000000 0 0 1
13.172000 -23.045887 10.184920 28.431445 -1.051555 1.204428 0.089566 -0.021124 60617.900000 0 0 1
12.799500 -22.485787 11.451720 28.294517 -1.053312 1.154110 0.091191 -0.027046 -212579.000000 0 0 1
11.886600 -23.153187 12.311520 28.791229 -1.096495 1.128945 0.129449 -0.031953 -12673.200000 0 0 1
12.269800 -24.558287 12.773420 30.278998 -1.107453 1.135303 0.118326 -0.026128 -334255.000000 0 0 1
13.393500 -24.641887 13.602520 31.171092 -1.072937 1.119222 0.088072 -0.026894 -282589.000000 0 0 1
13.575400 -26.023207 14.019320 32.527529 -1.089967 1.125197 0.088014 -0.041804 -911762.000000 0 0 1
14.820800 -26.244577 14.811120 33.582781 -1.056723 1.114047 0.070766 -0.027627 -944254.000000 0 0 1
14.758500 -25.447377 15.974920 33.475071 -1.045241 1.073310 0.071764 -0.021516 267301.000000 0 0 1
15.708800 -25.928907 16.901720 34.709404 -1.026093 1.062203 0.083056 -0.026709 -282935.000000 0 0 1
15.666100 -25.215037 18.302320 34.874055 -1.014862 1.018302 0.099867 -0.022982 -24873.300000 0 0 1
16.143000 -23.897987 18.414720 34.217132 -0.976706 1.002529 0.086496 -0.025222 -30515.900000 0 0 1
17.529200 -23.741287 18.638220 34.904223 -0.934798 1.007493 0.098978 -0.027583 18644.100000 0 0 1
17.941800 -22.325187 19.060620 34.403915 -0.893829 0.983605 0.112393 -0.040320 -187766.000000 0 0 1
18.045300 -21.316987 18.020520 33.238320 -0.868325 0.997790 0.090117 -0.033695 284207.000000 0 0 1
16.783200 -20.745087 17.698620 32.019925 -0.890579 0.985150 0.099105 -0.031480 -281392.000000 0 0 1
16.792900 -19.593987 16.638220 30.704335 -0.862227 0.998118 0.090334 -0.026198 71028.500000 0 0 1
17.598100 -18.456587 16.956220 30.624371 -0.809204 0.984015 0.093769 -0.029445 418596.000000 0 0 1
18.972900 -18.675987 16.658120 31.404719 -0.777512 1.011684 0.079321 -0.025268 248008.000000 0 0 1
19.856700 -17.384087 16.829720 31.300711 -0.719100 1.003115 0.080966 -0.027205 -2372.390000 0 0 1
20.170900 -17.199887 18.164920 32.135115 -0.706064 0.970039 0.088763 -0.022647 -575762.000000 0 0 1
20.912000 -16.082087 18.242420 32.073839 -0.655573 0.965795 0.094109 -0.027370 -754916.000000 0 0 1
21.685000 -15.847187 19.554320 33.222643 -0.631093 0.941490 0.089974 -0.014876 -583604.000000 0 0 1
22.722600 -16.756987 19.750820 34.455886 -0.635426 0.960366 0.079944 -0.019946 -479899.000000 0 0 1
23.194900 -16.644887 21.093320 35.496250 -0.622447 0.934475 0.075605 -0.014409 129975.000000 0 0 1
35.918836 -1.702087 -7.690738 36.772372 -0.047352 1.781496 0.187364 -0.028155 429599.000000 0 0 1
37.223726 -1.212787 -7.971638 38.087054 -0.032569 1.781656 0.191820 -0.026932 1380830.000000 0 0 1
-37.469940 -2.256387 -8.003938 38.381646 0.060146 1.780874 0.215621 -0.031293 1341340.000000 0 0 1
-36.034920 -1.872787 -8.494538 37.069934 0.051925 1.802000 0.195547 -0.035072 860010.000000 0 0 1
-35.140073 -2.989287 -8.487338 36.273896 0.084863 1.806965 0.226673 -0.030939 -677792.000000 0 0 1
-33.909250 -2.647787 -8.997238 35.182358 0.077926 1.829401 0.239478 -0.038575 -1197530.000000 0 0 1
-32.837330 -3.686587 -8.664538 34.160729 0.111800 1.827238 0.219540 -0.039526 -461792.000000 0 0 1
-32.432820 -3.741687 -7.297838 33.453647 0.114860 1.790712 0.250508 -0.050869 433906.000000 0 0 1
-31.322090 -4.610987 -7.132738 32.453205 0.146162 1.792391 0.242021 -0.056420 33102.700000 0 0 1
-30.796030 -4.487587 -5.690138 31.637187 0.144701 1.751636 0.259252 -0.072504 -804164.000000 0 0 1
-30.208600 -3.260087 -5.430838 30.865542 0.107503 1.747669 0.233941 -0.065993 296023.000000 0 0 1
-30.105650 -3.116187 -4.049138 30.536148 0.103141 1.703790 0.247639 -0.070669 -141100.000000 0 0 1
-29.699800 -1.636987 -3.682338 29.971945 0.055062 1.693967 0.236865 -0.060034 -806311.000000 0 0 1
-28.347660 -1.307587 -3.695538 28.617418 0.046094 1.700294 0.198184 -0.046356 -185628.000000 0 0 1
-28.152050 0.054913 -3.358138 28.351685 -0.001951 1.689521 0.231057 -0.061557 -64066.100000 0 0 1
-26.693350 0.392513 -2.983438 26.862426 -0.014703 1.682090 0.224237 -0.037564 -186222.000000 0 0 1
-26.382930 0.171613 -1.638738 26.434332 -0.006505 1.632829 0.213946 -0.042230 -29886.000000 0 0 1
-25.040110 0.465613 -1.354838 25.081059 -0.018593 1.624841 0.186520 -0.037896 -519741.000000 0 0 1
-24.610500 -0.049187 -0.056938 24.610615 0.001999 1.573110 0.172276 -0.038967 -217630.000000 0 1 0
-24.507200 -1.472187 -0.104938 24.551603 0.060000 1.575071 0.158619 -0.040259 17950.600000 0 1 0
-23.603700 -1.955787 0.849262 23.699810 0.082670 1.534955 0.121164 -0.031410 -363061.000000 0 1 0
-23.300400 -3.480487 0.742662 23.570617 0.148278 1.539283 0.099160 -0.016158 -239375.000000 0 1 0
-24.413100 -4.267787 1.099162 24.807693 0.173067 1.526475 0.113096 -0.030684 16375.300000 0 1 0
-24.204400 -5.634687 1.106962 24.876255 0.228722 1.526283 0.082583 -0.019170 330157.000000 0 1 0
-25.501950 -6.488087 1.362062 26.349572 0.249130 1.519081 0.140144 -0.026175 533797.000000 0 0 1
-25.865930 -6.455887 2.742762 26.800141 0.244593 1.468276 0.140202 -0.030528 -263776.000000 0 0 1
-27.031960 -7.214387 2.855362 28.123431 0.260805 1.469091 0.188672 -0.029449 -302973.000000 0 0 1
-27.585620 -7.464187 4.264362 28.894036 0.264255 1.422669 0.168002 -0.043151 -231075.000000 0 0 1
-26.646170 -8.182687 4.999562 28.319081 0.297946 1.393322 0.184429 -0.023906 -342915.000000 0 0 1
-27.037950 -8.531987 6.343462 29.053142 0.305667 1.350683 0.136614 -0.028695 -202696.000000 0 0 1
-26.561340 -7.629787 7.558962 28.650591 0.279720 1.303803 0.123191 -0.011184 535838.000000 0 0 1
-25.144640 -7.517087 7.646662 27.335526 0.290497 1.287280 0.162909 -0.021635 310873.000000 0 0 1
-24.843700 -6.238487 8.183562 26.890497 0.246023 1.261562 0.147524 -0.029117 -293968.000000 0 0 1
-23.478000 -5.661587 7.760962 25.367353 0.236627 1.259868 0.190663 -0.038321 606372.000000 0 0 1
-22.399600 -6.361687 8.420062 24.761070 0.276722 1.223824 0.187216 -0.046457 103209.000000 0 1 0
-21.144500 -5.970087 7.958062 23.367982 0.275184 1.223290 0.160704 -0.032354 -74102.500000 0 1 0
-19.975100 -6.590887 8.772362 22.790321 0.318707 1.175679 0.187570 -0.037742 169174.000000 0 1 0
-19.730500 -5.872987 9.980662 22.877898 0.289309 1.119361 0.156244 -0.025937 337735.000000 0 1 0
-18.418300 -6.088787 10.451762 22.035118 0.319274 1.076602 0.137107 -0.045148 -156725.000000 0 1 0
-17.899200 -5.248487 11.661562 21.998182 0.285229 1.012060 0.105939 -0.026298 119985.000000 0 1 0
-18.861700 -5.132987 12.697262 23.309478 0.265704 0.994735 0.125832 -0.036609 299165.000000 0 1 0
-19.506800 -3.877387 12.725062 23.610942 0.196214 1.001609 0.154892 -0.031340 -371072.000000 0 1 0
-20.816300 -3.891787 13.501362 25.114759 0.184825 1.003224 0.159020 -0.041399 -836881.000000 0 0 1
-20.603400 -4.032087 14.865262 25.724188 0.193258 0.954679 0.161443 -0.042929 288139.000000 0 0 1
-21.816800 -3.864087 15.557662 27.072953 0.175297 0.958611 0.142867 -0.030566 -68392.000000 0 0 1
-21.651600 -4.745987 16.825962 27.828568 0.215785 0.921496 0.132937 -0.027475 349020.000000 0 0 1
-22.595500 -4.400387 17.857262 29.134204 0.192339 0.911031 0.116790 -0.026227 854965.000000 0 0 1
-22.493500 -5.260787 19.042462 29.937414 0.229751 0.881395 0.128433 -0.024829 -377108.000000 0 0 1
-23.274600 -4.789487 20.264262 31.229577 0.202949 0.864684 0.135515 -0.028524 -317979.000000 0 0 1
-22.975400 -3.481987 20.698362 31.119374 0.150408 0.843131 0.133930 -0.034163 195535.000000 0 0 1
-23.690200 -3.316287 21.883062 32.420545 0.139082 0.829865 0.130213 -0.029638 -190842.000000 0 0 1
-23.831400 -1.876187 22.239962 32.650752 0.078565 0.821468 0.118217 -0.018782 708096.000000 0 0 1
-24.957580 -1.306787 21.529062 32.986194 0.052313 0.859695 0.116777 -0.022245 689375.000000 0 0 1
-24.950700 0.095413 21.556062 32.972873 -0.003824 0.858265 0.107313 -0.032094 -500964.000000 0 0 1
-26.189580 0.804013 20.982462 33.567905 -0.030690 0.895569 0.123268 -0.031235 -312283.000000 0 0 1
-27.214890 0.654613 21.945462 34.966871 -0.024049 0.892320 0.124710 -0.031463 283315.000000 0 0 1
-28.363830 1.426313 21.564962 35.659344 -0.050244 0.921345 0.094701 -0.021549 121509.000000 0 0 1
-29.508940 1.475713 22.558362 37.173041 -0.049967 0.918708 0.085449 -0.017590 -807597.000000 0 0 1
-29.163950 2.288013 23.708562 37.654573 -0.078293 0.889716 0.082292 -0.015697 194052.000000 0 0 1
-30.206070 2.303513 24.644162 39.051857 -0.076113 0.887874 0.081612 -0.014024 -246488.000000 0 0 1
-29.827870 3.166313 25.893562 39.625799 -0.105757 0.858660 0.106336 -0.016851 18811.600000 0 0 1
-28.680870 2.714813 26.572262 39.192443 -0.094375 0.825765 0.089502 -0.022509 109335.000000 0 0 1
-28.349720 3.562613 27.635262 39.750554 -0.125011 0.802075 0.086946 -0.026002 131866.000000 0 0 1
-27.010770 3.225713 28.352362 39.291772 -0.118860 0.764707 0.097616 -0.030891 160508.000000 0 0 1
-27.111900 2.271713 29.438762 40.085615 -0.083595 0.746018 0.090851 -0.028719 254597.000000 0 0 1
-25.811830 2.029713 29.925362 39.571424 -0.078474 0.713254 0.071605 -0.032486 -33354.200000 0 0 1
-25.820970 0.877913 30.937862 40.306879 -0.033987 0.695774 0.087360 -0.031763 -94267.000000 0 0 1
-26.172860 -0.363887 30.405562 40.120434 0.013902 0.710774 0.084592 -0.028783 -63059.100000 0 0 1
-26.676130 -1.264987 31.335962 41.172304 0.047385 0.705799 0.099367 -0.027176 -310003.000000 0 0 1
-27.674170 -2.292987 30.723962 41.413516 0.082668 0.734923 0.084842 -0.015234 1045050.000000 0 0 1
-29.026410 -1.970887 30.361262 42.050245 0.067796 0.764074 0.106904 -0.013039 913168.000000 0 0 1
-29.125640 -0.988887 29.300662 41.325653 0.033939 0.782691 0.096643 -0.008185 -1220020.000000 0 0 1
-30.552880 -0.851987 28.813562 42.005068 0.027878 0.814882 0.098299 -0.010607 -198805.000000 0 0 1
-31.406010 -0.305787 29.810962 43.302707 0.009736 0.811472 0.117814 -0.007185 -929895.000000 0 0 1
-32.693890 -0.030887 29.394362 43.964985 0.000945 0.838491 0.116463 -0.016869 -451983.000000 0 0 1
-33.742660 0.232013 30.486962 45.476101 -0.006876 0.836055 0.130594 -0.015187 62308.800000 0 0 1
-34.079697 -0.946787 31.226962 46.232514 0.027774 0.829245 0.133658 -0.021801 -131089.000000 0 0 1
-34.830677 -0.671987 32.373362 47.556936 0.019291 0.822040 0.153061 -0.022269 -53901.500000 0 0 1
-35.149190 -1.936187 33.240762 48.416553 0.055029 0.814052 0.154190 -0.029204 382194.000000 0 0 1
-36.283530 -2.616487 32.714262 48.924058 0.071988 0.838372 0.088056 -0.024322 288941.000000 0 0 1
-36.325620 -3.914787 33.259962 49.407502 0.107355 0.832301 0.085197 -0.018339 347237.000000 0 0 1
-37.540290 -4.708087 32.678562 49.993278 0.124763 0.858387 0.073867 -0.019794 737053.000000 0 0 1
36.941266 -4.225687 33.209762 49.853805 -0.113894 0.841771 0.069408 -0.027155 268716.000000 0 0 1
35.806906 -4.887087 32.644462 48.699887 -0.135646 0.836158 0.060383 -0.020924 210146.000000 0 0 1
34.480516 -4.380387 33.287062 48.126108 -0.126363 0.807007 0.082141 -0.025895 -179342.000000 0 0 1
34.212666 -4.919787 -32.899497 47.718840 -0.142821 2.331518 0.075329 -0.024345 22911.500000 0 0 1
33.846416 -6.296687 -32.845497 47.582085 -0.183934 2.332688 0.073603 -0.023391 408895.000000 0 0 1
32.378996 -6.578887 -33.355497 46.949657 -0.200455 2.360937 0.068117 -0.016879 422850.000000 0 0 1
31.381806 -6.079987 -32.501597 45.586597 -0.191371 2.364512 0.095288 -0.021356 -111734.000000 0 0 1
30.118406 -6.585487 -32.938797 45.115977 -0.215265 2.389252 0.110177 -0.022827 -199438.000000 0 0 1
29.081406 -6.367887 -31.849297 43.596512 -0.215565 2.389919 0.113031 -0.043307 -696452.000000 0 0 1
27.817306 -6.806487 -32.253197 43.132349 -0.239970 2.415498 0.101138 -0.044149 -271363.000000 0 0 1
26.765306 -6.550887 -31.337397 41.729225 -0.240034 2.420326 0.108185 -0.054958 138397.000000 0 0 1
25.441406 -7.137287 -31.888597 41.413629 -0.273508 2.449641 0.112312 -0.064427 -61412.500000 0 0 1
25.221606 -8.583887 -31.903297 41.564803 -0.328042 2.445815 0.110767 -0.059082 -11568.900000 0 0 1
24.911906 -9.163987 -30.681297 40.569985 -0.352493 2.428368 0.128207 -0.054151 -451837.000000 0 0 1
24.478106 -10.638687 -30.716397 40.692215 -0.409991 2.426217 0.129198 -0.045874 765346.000000 0 0 1
23.181906 -10.846287 -31.319597 40.447001 -0.437621 2.456463 0.139657 -0.063354 881225.000000 0 0 1
23.072706 -12.228387 -31.593597 40.988274 -0.487354 2.450886 0.118478 -0.045641 -232299.000000 0 0 1
21.819506 -12.598087 -32.420897 41.059922 -0.523619 2.480952 0.103155 -0.039530 1079750.000000 0 0 1
20.526506 -12.476487 -31.793897 39.847861 -0.546152 2.494570 0.102658 -0.039519 557331.000000 0 0 1
20.000406 -11.189487 -32.071597 39.418374 -0.510079 2.521149 0.106327 -0.053567 764929.000000 0 0 1
18.480606 -11.038687 -31.650197 38.276891 -0.538441 2.544324 0.106482 -0.054674 1645810.000000 0 0 1
17.494106 -11.736587 -32.455697 38.693197 -0.590919 2.565864 0.074793 -0.037249 -775225.000000 0 0 1
16.285206 -11.417187 -31.892597 37.585873 -0.611449 2.583990 0.101907 -0.042534 -1441920.000000 0 0 1
15.115606 -11.670587 -32.823297 37.974373 -0.657489 2.614660 0.086792 -0.035596 -916054.000000 0 0 1
14.834706 -13.059187 -32.998597 38.464507 -0.721831 2.601960 0.103868 -0.030118 960852.000000 0 0 1
13.534906 -13.321987 -33.554597 38.556193 -0.777470 2.626562 0.093558 -0.029950 1316800.000000 0 0 1
12.241106 -13.265687 -32.682697 37.336066 -0.825546 2.636987 0.083169 -0.031448 135336.000000 0 0 1
11.973006 -11.973387 -32.207297 36.387152 -0.785414 2.657566 0.159086 -0.035264 -577253.000000 0 0 1
11.028406 -12.056387 -31.173497 35.196152 -0.829899 2.658812 0.146382 -0.039797 332762.000000 0 0 1
9.792506 -11.149487 -31.515197 34.834062 -0.850105 2.701527 0.150740 -0.035453 297512.000000 0 0 1
10.106806 -9.777087 -31.611297 34.597876 -0.768817 2.723038 0.144912 -0.039252 -795058.000000 0 0 1
9.008106 -9.046787 -31.960497 34.416038 -0.787541 2.761557 0.129293 -0.034653 -810364.000000 0 0 1
9.351206 -7.568687 -32.078697 34.260369 -0.680435 2.782798 0.144112 -0.028986 -78833.400000 0 0 1
9.538706 -6.891487 -30.846797 33.015215 -0.625652 2.777145 0.150150 -0.036650 167720.000000 0 0 1
9.819106 -5.550187 -31.194197 33.170730 -0.514471 2.794640 0.123532 -0.034819 -36870.500000 0 0 1
9.842506 -4.534687 -30.026797 31.922513 -0.431737 2.795234 0.118142 -0.025629 -215158.000000 0 0 1
8.529706 -4.188087 -29.656597 31.141768 -0.456422 2.831513 0.131555 -0.025846 -345765.000000 0 0 1
8.413806 -3.324887 -28.543197 29.942630 -0.376336 2.834654 0.129322 -0.025569 -598886.000000 0 0 1
6.958406 -2.974987 -28.344297 29.337163 -0.404019 2.880687 0.129406 -0.024819 -1476800.000000 0 0 1
6.381706 -2.132387 -29.319797 30.081950 -0.322477 2.916011 0.119895 -0.018143 1141360.000000 0 0 1
5.069506 -1.560587 -29.047397 29.527726 -0.298632 2.960975 0.139540 -0.026629 1133340.000000 0 0 1
3.919006 -2.574687 -29.065597 29.441409 -0.581263 2.981643 0.131552 -0.030787 -1076910.000000 0 0 1
3.833706 -3.543687 -28.034797 28.516747 -0.746107 2.957482 0.134530 -0.030731 -680217.000000 0 0 1
2.542506 -4.039587 -27.907997 28.313228 -1.009041 2.972201 0.121047 -0.029676 -364445.000000 0 0 1
2.581506 -5.087387 -26.771097 27.372200 -1.101220 2.931635 0.091644 -0.025529 -66273.600000 0 0 1
2.855906 -4.685087 -25.396997 25.982950 -1.023367 2.928817 0.098265 -0.031822 95821.600000 0 0 1
2.849306 -5.804287 -24.550297 25.387504 -1.114458 2.884066 0.086339 -0.036109 -109798.000000 0 0 1
2.980406 -5.428387 -23.064197 23.881109 -1.068690 2.879279 0.114583 -0.040831 51841.300000 0 1 0
4.179506 -4.752887 -22.743897 23.608114 -0.849501 2.870180 0.109935 -0.042493 84453.700000 0 1 0
4.105006 -4.221987 -21.466397 22.259435 -0.799446 2.873859 0.097447 -0.037039 43058.400000 0 1 0
4.888206 -2.923487 -21.214297 21.965603 -0.538999 2.879293 0.097152 -0.033233 723399.000000 0 1 0
6.294006 -3.102987 -20.984197 22.126445 -0.458037 2.818873 0.095883 -0.030728 504256.000000 0 1 0
6.885506 -1.844687 -20.713497 21.905753 -0.261762 2.810148 0.092848 -0.016864 -161901.000000 0 1 0
8.376906 -2.030987 -20.406497 22.152259 -0.237861 2.741931 0.114309 -0.024339 -1079260.000000 0 1 0
9.129706 -2.467987 -21.474097 23.464427 -0.264015 2.726742 0.119539 -0.037702 275987.000000 0 1 0
10.378106 -3.123087 -21.253397 23.857193 -0.292310 2.670029 0.103752 -0.035162 1508440.000000 0 1 0
11.559506 -2.366887 -20.510697 23.662481 -0.201965 2.619550 0.103393 -0.029750 7834.450000 0 1 0
11.353006 -2.066187 -19.162697 22.368926 -0.180024 2.599568 0.097703 -0.025462 434141.000000 0 1 0
12.490406 -1.526287 -18.470297 22.349310 -0.121594 2.543546 0.106835 -0.027022 556724.000000 0 1 0
12.843506 0.001413 -18.611597 22.612987 0.000110 2.537555 0.088797 -0.024456 75492.900000 0 1 0
13.223706 0.433213 -19.874097 23.875381 0.032749 2.554238 0.092758 -0.029595 183123.000000 0 1 0
13.672406 1.806113 -19.851997 24.172268 0.131339 2.534433 0.126283 -0.037116 81833.500000 0 1 0
14.301506 2.409113 -21.113097 25.614445 0.166885 2.539700 0.113753 -0.034089 -105098.000000 0 0 1
15.665006 2.191713 -21.442897 26.645710 0.139009 2.506035 0.129836 -0.034766 369699.000000 0 0 1
16.004206 3.338813 -22.226597 27.591736 0.205671 2.507404 0.118422 -0.034370 312412.000000 0 0 1
17.334506 3.110513 -23.008797 28.975250 0.177551 2.488296 0.101203 -0.026819 316447.000000 0 0 1
17.245006 2.149213 -24.073497 29.690783 0.123989 2.516326 0.079580 -0.019481 252402.000000 0 0 1
18.427406 1.370213 -24.200297 30.448336 0.074221 2.489472 0.101371 -0.019737 126875.000000 0 0 1
10.250700 26.507213 3.208862 28.600804 1.201796 1.458365 0.046654 -0.022814 -125508.000000 0 0 1
10.183900 27.092613 4.516462 29.293684 1.211244 1.416000 0.061163 -0.022927 485605.000000 0 0 1
11.495700 27.278713 5.054062 30.030365 1.171965 1.401693 0.065076 -0.018042 392194.000000 0 0 1
11.557500 27.929413 6.479262 30.912922 1.178441 1.359633 0.061382 -0.024476 -130308.000000 0 0 1
11.288700 26.955513 7.443762 30.156990 1.174197 1.321385 0.065590 -0.029116 81636.700000 0 0 1
11.135100 27.594913 8.698862 31.002256 1.187259 1.286390 0.061651 -0.022653 -392038.000000 0 0 1
10.908500 26.588613 9.855562 30.382262 1.181468 1.240434 0.072046 -0.021523 169579.000000 0 0 1
12.004300 25.809613 10.320062 30.277764 1.135449 1.222979 0.074521 -0.021624 594736.000000 0 0 1
12.716900 24.993913 9.332062 29.555078 1.100134 1.249548 0.077346 -0.030578 -367517.000000 0 0 1
14.007700 24.360213 9.810562 29.763783 1.048944 1.234902 0.083760 -0.029446 -769000.000000 0 0 1
15.038400 25.292813 9.966862 31.067961 1.034378 1.244213 0.091191 -0.031125 -488235.000000 0 0 1
16.182100 24.686713 10.548562 31.345914 0.990566 1.227576 0.087448 -0.030330 98643.300000 0 0 1
17.272800 25.764813 10.779762 32.838673 0.980212 1.236331 0.077326 -0.034493 -795791.000000 0 0 1
17.865400 26.199513 9.574962 33.125019 0.972323 1.277556 0.067673 -0.039658 -749626.000000 0 0 1
19.224700 26.004713 9.408662 33.680218 0.934193 1.287676 0.080732 -0.044458 -204032.000000 0 0 1
20.217300 26.757113 10.388862 35.108557 0.923730 1.270392 0.071745 -0.044127 -510826.000000 0 0 1
20.358700 28.185613 10.259862 36.251486 0.945255 1.283856 0.075086 -0.056753 172209.000000 0 0 1
19.325800 28.927513 10.892462 36.454537 0.981818 1.267366 0.063455 -0.038860 95248.400000 0 0 1
19.648100 30.396313 11.081962 37.852260 0.996958 1.273675 0.060318 -0.030549 -978538.000000 0 0 1
19.879800 31.211413 9.926162 38.313019 1.003657 1.308726 0.081447 -0.049290 -409350.000000 0 0 1
18.940300 31.250713 8.898462 37.610167 1.025921 1.331934 0.092927 -0.045111 -379038.000000 0 0 1
17.565700 31.877713 9.220662 37.546811 1.067160 1.322681 0.085091 -0.043352 -349499.000000 0 0 1
17.600200 33.228913 9.719062 38.837969 1.083699 1.317862 0.082117 -0.042406 -620746.000000 0 0 1
16.314000 33.763213 9.702362 38.732893 1.120688 1.317606 0.107659 -0.036023 -265321.000000 0 0 1
16.268700 -32.427131 10.199862 37.685894 -1.105789 1.296723 0.109736 -0.038259 -195558.000000 0 0 1
16.853700 -31.607931 9.246662 36.994720 -1.080934 1.318172 0.112126 -0.036967 -110778.000000 0 0 1
16.664100 -30.238131 9.406362 35.784304 -1.067112 1.304808 0.106707 -0.023537 -147479.000000 0 0 1
17.465500 -29.503231 8.304862 35.276835 -1.036290 1.333146 0.084346 -0.021311 196161.000000 0 0 1
16.926300 -29.774931 7.047462 34.967312 -1.053880 1.367862 0.083854 -0.029997 141567.000000 0 0 1
17.780300 -29.206131 6.069862 34.727228 -1.023941 1.395107 0.075255 -0.010242 238271.000000 0 0 1
17.280400 -29.394931 4.642562 34.412608 -1.039344 1.435475 0.084963 -0.014821 105874.000000 0 0 1
17.610500 -30.663831 4.053262 35.592544 -1.049482 1.456669 0.087036 -0.026545 -58865.100000 0 0 1
17.388000 -30.717631 2.623862 35.394916 -1.055707 1.496597 0.085936 -0.026555 -100789.000000 0 0 1
17.615500 -32.052831 2.026462 36.630539 -1.068278 1.515446 0.083758 -0.027171 -587789.000000 0 0 1
18.920400 -32.540631 1.975262 37.693181 -1.044136 1.518369 0.087114 -0.021624 -484208.000000 0 0 1
19.039000 33.790013 1.438462 38.811309 1.057685 1.533725 0.097048 -0.026148 -324984.000000 0 0 1
20.485300 33.277013 1.517662 39.106399 1.018986 1.531978 0.090362 -0.028919 -62025.100000 0 0 1
20.867200 33.077013 2.891062 39.215903 1.007989 1.497008 0.091087 -0.047281 1182910.000000 0 0 1
22.235200 32.595413 2.977262 39.569296 0.972146 1.495483 0.072349 -0.033476 1218800.000000 0 0 1
22.733000 32.560613 4.454362 39.960282 0.961296 1.459094 0.064112 -0.032595 -135249.000000 0 0 1
22.148500 31.474613 5.173162 38.832575 0.957595 1.437182 0.075985 -0.042451 475599.000000 0 0 1
22.999000 30.314113 5.203962 38.405477 0.921757 1.434878 0.058951 -0.047045 151088.000000 0 0 1
22.405800 29.196313 6.089862 37.303230 0.916240 1.406809 0.072393 -0.047030 -176451.000000 0 0 1
21.226000 28.724513 5.502662 36.137515 0.934404 1.417932 0.076886 -0.040856 -1160560.000000 0 0 1
20.402700 28.263313 6.493162 35.457667 0.945537 1.386633 0.076463 -0.045358 2510.410000 0 0 1
18.886500 28.383113 6.103262 34.634532 0.983662 1.393652 0.101517 -0.038910 428082.000000 0 0 1
18.356300 29.688413 5.970362 35.411874 1.017031 1.401389 0.094794 -0.048578 101248.000000 0 0 1
18.766400 30.467613 4.834962 36.108587 1.018734 1.436492 0.101476 -0.047952 -513324.000000 0 0 1
18.549700 31.902213 5.102762 37.254271 1.044125 1.433393 0.113017 -0.050244 902168.000000 0 0 1
17.215600 32.422213 5.259962 37.084282 1.082672 1.428478 0.115399 -0.046666 679013.000000 0 0 1
17.300900 33.835713 5.265962 38.365440 1.098133 1.433104 0.120990 -0.050128 250297.000000 0 0 1
15.892800 -33.258731 5.557062 37.277409 -1.125022 1.421165 0.106513 -0.046416 606034.000000 0 0 1
15.025100 -33.167431 4.422362 36.679550 -1.145444 1.449935 0.086935 -0.031940 -133840.000000 0 0 1
13.903700 -32.352231 4.689362 35.524215 -1.164901 1.438405 0.069052 -0.024584 -231173.000000 0 0 1
13.135500 -32.123831 3.427062 34.874441 -1.182639 1.472369 0.062547 -0.018551 -844830.000000 0 0 1
11.917800 -31.477331 3.577062 33.847477 -1.208860 1.464917 0.068706 -0.028235 -606468.000000 0 0 1
11.256900 -31.292931 2.367862 33.340248 -1.225483 1.499715 0.063720 -0.013633 128537.000000 0 0 1
10.286500 -30.028531 2.265862 31.822302 -1.240767 1.499532 0.078738 -0.020112 532681.000000 0 0 1
10.034100 -29.596031 0.944262 31.264994 -1.243923 1.540590 0.084674 -0.011697 -459973.000000 0 0 1
8.999300 -30.299131 0.337062 31.609150 -1.282080 1.560133 0.067044 -0.012782 -686638.000000 0 0 1
9.446900 -30.782231 -1.003038 32.214838 -1.273026 1.601937 0.074825 -0.017968 -820622.000000 0 0 1
10.444700 -31.721331 -1.022838 33.412285 -1.252712 1.601414 0.075188 -0.018083 -855676.000000 0 0 1
10.528700 -32.446831 -2.256838 34.186894 -1.257025 1.636859 0.073440 -0.003380 -95410.200000 0 0 1
11.837600 -33.250631 -2.220738 35.364741 -1.228776 1.633633 0.058965 -0.003521 -258833.000000 0 0 1
11.880400 33.391613 -1.183738 35.461880 1.228973 1.604183 0.056863 -0.008413 874607.000000 0 0 1
13.150700 32.698113 -1.160138 35.262635 1.188408 1.603702 0.057737 -0.013194 791495.000000 0 0 1
13.157300 31.718513 0.070462 34.339243 1.177584 1.568744 0.056988 -0.023618 -501539.000000 0 0 1
13.337500 32.319613 1.387162 34.991006 1.179411 1.531143 0.062109 -0.023771 561294.000000 0 0 1
14.599200 32.930313 1.706762 36.061825 1.153498 1.523450 0.072132 -0.021131 827631.000000 0 0 1
15.817200 31.961413 1.770262 35.705036 1.111250 1.521196 0.091244 -0.033187 -549367.000000 0 0 1
16.449100 31.548213 0.608562 35.584168 1.090179 1.553693 0.088073 -0.034588 313023.000000 0 0 1
17.377600 30.485913 0.862162 35.101499 1.052712 1.546232 0.099429 -0.035367 250356.000000 0 0 1
18.068100 29.832313 -0.343638 34.878951 1.026229 1.580649 0.093166 -0.026224 950008.000000 0 0 1
19.129300 30.547013 -1.060138 36.057926 1.011317 1.600202 0.075610 -0.020380 1052340.000000 0 0 1
18.720200 31.696113 -1.800838 36.855563 1.037306 1.619678 0.071135 -0.019844 -712543.000000 0 0 1
19.931500 32.316913 -2.433238 38.046921 1.018151 1.634794 0.073108 -0.021492 -862322.000000 0 0 1
20.905000 32.804813 -1.593538 38.932174 1.003434 1.611739 0.071588 -0.021412 -470135.000000 0 0 1
21.750100 33.763913 -2.177338 40.222002 0.998522 1.624956 0.076712 -0.021807 -397024.000000 0 0 1
22.821500 -33.290831 -1.224638 40.380689 -0.969855 1.601128 0.076997 -0.021024 459572.000000 0 0 1
23.895900 33.573913 -0.651638 41.214637 0.952234 1.586608 0.065951 -0.016089 1704920.000000 0 0 1
24.815800 32.950513 -1.579838 41.280215 0.925299 1.609077 0.075069 -0.014943 436777.000000 0 0 1
25.550600 -33.801931 -2.601238 42.451975 -0.923535 1.632110 0.061797 -0.012772 -705490.000000 0 0 1
24.690500 -33.452131 -3.696738 41.741248 -0.934965 1.659476 0.062520 -0.022301 248709.000000 0 0 1
25.317600 -32.576531 -4.625038 41.516289 -0.910130 1.682431 0.056097 -0.017431 -206781.000000 0 0 1
24.428800 -32.104531 -5.775438 40.753195 -0.920347 1.712992 0.061488 -0.024947 281518.000000 0 0 1
23.249900 -31.406731 -5.364838 39.442643 -0.933543 1.707235 0.079048 -0.027719 579588.000000 0 0 1
22.585100 -30.847931 -6.496638 38.779994 -0.938822 1.739115 0.084366 -0.035207 415516.000000 0 0 1
21.503800 -29.744931 -6.265038 37.234729 -0.944840 1.739858 0.104365 -0.035881 314275.000000 0 0 1
20.281500 -30.225731 -5.769238 36.854012 -0.979799 1.727986 0.081917 -0.028550 -312894.000000 0 0 1
19.483400 -29.105031 -5.393338 35.437181 -0.980892 1.723584 0.097311 -0.033531 1041410.000000 0 0 1
18.142800 -29.396431 -4.620138 34.851930 -1.017842 1.703752 0.076745 -0.019169 1203540.000000 0 0 1
17.111000 -30.009931 -5.400438 34.964940 -1.052594 1.725870 0.069208 -0.023311 58953.500000 0 0 1
15.946900 -30.084331 -4.601838 34.359097 -1.083381 1.705134 0.041604 -0.015304 -324640.000000 0 0 1
14.929500 -31.082931 -5.072938 34.853598 -1.123023 1.716865 0.034316 -0.011042 -573479.000000 0 0 1
15.395800 -32.388531 -5.001138 36.208549 -1.127065 1.709360 0.024752 -0.003171 -386732.000000 0 0 1
14.327600 -33.248631 -5.299438 36.590103 -1.163920 1.716140 0.045630 -0.003804 -229735.000000 0 0 1
14.710200 32.939113 -5.288038 36.460095 1.150784 1.716346 0.038362 0.001210 -250683.000000 0 0 1
14.891900 32.415413 -4.001038 35.896184 1.140146 1.682490 0.037426 -0.009684 -116651.000000 0 0 1
15.322500 31.089413 -3.933938 34.882753 1.112883 1.683813 0.056499 -0.012470 -397907.000000 0 0 1
14.268300 30.058713 -4.272638 33.546476 1.127608 1.698508 0.056363 -0.012724 240426.000000 0 0 1
13.259500 29.730813 -3.283838 32.718789 1.151286 1.671331 0.053675 -0.017982 406749.000000 0 0 1
13.580900 28.715613 -2.341338 31.851360 1.129026 1.644371 0.056238 -0.018549 -681223.000000 0 0 1
12.385900 28.031113 -1.706038 30.693067 1.154730 1.626409 0.053679 -0.015304 -516793.000000 0 0 1
11.591600 28.849213 -0.885138 31.103469 1.188740 1.599258 0.046171 -0.016888 -405419.000000 0 0 1
10.645200 28.047313 -0.210738 30.000274 1.208048 1.577821 0.038368 -0.014587 -442741.000000 0 0 1
9.562400 28.956213 0.367662 30.496507 1.251835 1.558740 0.043943 -0.008731 52332.300000 0 0 1
8.557400 28.242313 1.109162 29.531129 1.276590 1.533228 0.045839 -0.017232 307629.000000 0 0 1
7.330600 28.949413 0.948062 29.878170 1.322788 1.539060 0.056012 -0.014392 98806.900000 0 0 1
6.167300 28.233013 1.661962 28.946515 1.355732 1.513350 0.039350 -0.024517 1481.970000 0 0 1
5.765300 27.058413 0.987662 27.683422 1.360867 1.535112 0.055064 -0.032234 -270003.000000 0 0 1
4.505400 26.640413 1.458862 27.058058 1.403263 1.516854 0.052066 -0.038855 -122148.000000 0 0 1
3.918300 25.484513 0.697062 25.793398 1.418239 1.543768 0.062264 -0.042305 188861.000000 0 0 1
2.727100 24.926013 1.267662 25.106775 1.461822 1.520284 0.071010 -0.046098 530220.000000 0 0 1
2.351300 23.727713 0.637362 23.852447 1.472024 1.544072 0.067906 -0.046478 -964493.000000 0 1 0
0.866700 23.439513 0.640862 23.464285 1.533837 1.543481 0.059943 -0.035189 -695807.000000 0 1 0
0.018300 24.264413 -0.176538 24.265062 1.570042 1.578072 0.064315 -0.045960 252104.000000 0 1 0
-1.349400 23.918713 -0.096938 23.956943 -1.514440 1.574843 0.049238 -0.029280 122323.000000 0 1 0
-2.119900 24.723313 0.999562 24.834156 -1.485261 1.530536 0.081987 -0.041389 -567520.000000 0 1 0
-3.509100 24.637413 0.770962 24.897998 -1.429318 1.539827 0.082747 -0.023462 -247343.000000 0 1 0
-4.210400 25.356813 1.744062 25.763098 -1.406251 1.503048 0.088172 -0.030867 179528.000000 0 0 1
-5.735500 25.414613 1.468162 26.095096 -1.348837 1.514505 0.104705 -0.039073 343976.000000 0 0 1
-6.055600 26.395513 0.446562 27.084919 -1.345281 1.554308 0.129949 -0.041328 -126952.000000 0 0 1
-7.401100 26.313213 0.032262 27.334274 -1.296611 1.569616 0.136433 -0.036904 -16011.900000 0 0 1
-7.687100 27.451013 -1.034238 28.525765 -1.297760 1.607061 0.137456 -0.038807 -82416.400000 0 0 1
-7.596100 28.766913 -0.494038 29.757018 -1.312632 1.587400 0.160007 -0.048865 -61344.400000 0 0 1
-7.689400 29.669113 -1.587138 30.690425 -1.317204 1.622534 0.154875 -0.051072 62353.800000 0 0 1
-7.435200 31.106813 -1.027138 31.999548 -1.336177 1.602900 0.143819 -0.050172 -619800.000000 0 0 1
-7.735500 32.243213 -1.856938 33.210104 -1.335336 1.626740 0.130951 -0.032893 -474092.000000 0 0 1
-7.120200 32.399113 -3.078838 33.314847 -1.354470 1.663345 0.097511 -0.027876 -173050.000000 0 0 1
-5.585300 32.632513 -3.128738 33.254556 -1.401281 1.665020 0.137339 -0.037903 96997.300000 0 0 1
-5.047900 -33.807831 -2.652038 34.285333 1.422580 1.648226 0.151702 -0.050232 192996.000000 0 0 1
-4.784600 33.814713 -1.251638 34.174462 -1.430235 1.607429 0.159939 -0.056226 -264527.000000 0 0 1
-4.369800 -32.446431 -0.760938 32.748207 1.436924 1.594034 0.156548 -0.058016 570660.000000 0 0 1
-5.483200 -31.557031 -0.679838 32.037071 1.398759 1.592018 0.158448 -0.045667 428698.000000 0 0 1
-5.056700 -30.315331 -1.083538 30.753270 1.405515 1.606037 0.159796 -0.049678 -83266.400000 0 0 1
-6.309600 -29.576031 -1.558938 30.281727 1.360612 1.622300 0.164862 -0.045853 -24722.400000 0 0 1
-7.137600 -29.241831 -0.449038 30.103682 1.331389 1.585713 0.172780 -0.036204 -254124.000000 0 0 1
-8.070600 -28.262831 -0.887238 29.405942 1.292644 1.600973 0.135476 -0.026070 -23477.900000 0 0 1
-8.588900 -27.648931 0.429862 28.955438 1.269606 1.555950 0.124696 -0.021901 197400.000000 0 0 1
-7.530200 -26.987231 1.126862 28.040763 1.298689 1.530599 0.146299 -0.034484 162720.000000 0 0 1
-7.832300 -26.570331 2.441962 27.808103 1.284139 1.482868 0.121523 -0.023096 79785.500000 0 0 1
-8.716700 -25.287631 2.549862 26.869071 1.238849 1.475754 0.104895 -0.020711 385500.000000 0 0 1
-8.031900 -24.051731 2.483662 25.478732 1.248497 1.473161 0.105792 -0.032328 -509673.000000 0 0 1
-8.891800 -23.005631 2.922262 24.836723 1.201977 1.452864 0.102616 -0.039005 171972.000000 0 1 0
-8.125200 -21.752131 3.349562 23.460470 1.213310 1.427532 0.054280 -0.016591 314311.000000 0 1 0
-7.535100 -21.895731 4.638862 23.616093 1.239355 1.373083 0.057818 -0.015438 -519813.000000 0 1 0
-6.768800 -20.852631 5.115962 22.512707 1.256925 1.341546 0.027554 -0.003864 -514823.000000 0 1 0
-7.572100 -19.548531 5.480362 21.668321 1.201243 1.315099 0.034268 -0.019384 438595.000000 0 1 0
-8.392800 -19.680331 6.626662 22.397928 1.167693 1.270440 0.047392 -0.022165 268002.000000 0 1 0
-9.020500 -18.515331 7.166362 21.806964 1.117448 1.235947 0.032715 -0.025306 -449284.000000 0 1 0
-28.045170 28.339913 -4.998338 40.182902 -0.790625 1.695509 0.236896 -0.024361 -51352.800000 0 0 1
-27.609560 29.264713 -4.026138 40.434157 -0.814492 1.670534 0.213835 -0.043330 1436620.000000 0 0 1
-26.180370 29.002813 -3.897738 39.265345 -0.836500 1.670227 0.192690 -0.025728 1406470.000000 0 0 1
-25.363620 30.087113 -3.166838 39.478811 -0.870377 1.651099 0.160125 -0.032013 -235611.000000 0 0 1
-25.520590 30.209913 -1.814238 39.588266 -0.869343 1.616640 0.130920 -0.042392 270296.000000 0 0 1
-24.719900 31.278913 -1.313938 39.889476 -0.901995 1.603742 0.120435 -0.048098 594439.000000 0 0 1
-23.326300 30.964213 -0.681638 38.773231 -0.925167 1.588377 0.099792 -0.040428 388303.000000 0 0 1
-22.430000 30.495213 -1.677838 37.892982 -0.936624 1.615089 0.104978 -0.038880 -730548.000000 0 0 1
-21.166400 30.466813 -1.104638 37.114194 -0.963612 1.600564 0.076174 -0.028280 -1137390.000000 0 0 1
-20.142500 29.599513 -1.805938 35.848472 -0.973277 1.621195 0.096630 -0.031019 -153834.000000 0 0 1
-18.873600 29.691613 -1.179538 35.202216 -1.004572 1.604310 0.093691 -0.025820 -332551.000000 0 0 1
-17.893000 28.977313 -1.851138 34.106757 -1.017621 1.625098 0.095836 -0.022320 163118.000000 0 0 1
-16.464700 29.196313 -1.263438 33.542620 -1.057321 1.608472 0.113199 -0.030966 201073.000000 0 0 1
-16.131700 28.400413 -0.194138 32.662714 -1.054232 1.576740 0.108711 -0.037961 957284.000000 0 0 1
-14.925200 28.930513 0.415562 32.556242 -1.094511 1.558032 0.118354 -0.047764 900161.000000 0 0 1
-14.429300 28.178813 1.653062 31.701464 -1.097546 1.518628 0.121982 -0.044278 10615.100000 0 0 1
-15.384400 28.254013 2.723662 32.286024 -1.072183 1.486336 0.108704 -0.045081 330176.000000 0 0 1
-14.908200 27.720513 3.967062 31.724105 -1.077365 1.445419 0.120457 -0.046036 360985.000000 0 0 1
-13.678700 28.397613 4.619462 31.857035 -1.121908 1.425277 0.119412 -0.044882 18034.000000 0 0 1
-13.998800 29.613613 5.248662 33.173498 -1.129214 1.411910 0.097284 -0.035239 -277709.000000 0 0 1
-14.087500 30.685913 4.374162 34.047265 -1.140411 1.441967 0.097558 -0.032463 -54699.500000 0 0 1
-13.840600 32.026013 5.108962 35.260874 -1.162870 1.425394 0.107322 -0.036544 -46523.300000 0 0 1
-14.917200 32.386613 5.966562 36.152668 -1.139164 1.405000 0.105145 -0.044577 -16008.900000 0 0 1
-14.773200 33.606713 6.656862 37.309147 -1.156632 1.391411 0.094261 -0.041434 -370123.000000 0 0 1
-15.962500 -33.546431 7.492962 37.898667 1.126669 1.371775 0.088475 -0.038877 53764.200000 0 0 1
-16.123300 33.395113 8.676262 38.085062 -1.121000 1.340966 0.074075 -0.041327 341272.000000 0 0 1
-17.219600 -33.764531 9.450762 39.062451 1.099188 1.326432 0.079358 -0.036761 -130623.000000 0 0 1
-17.524300 33.138813 10.723062 38.990590 -1.084363 1.292189 0.078189 -0.027307 99733.400000 0 0 1
-16.711400 33.383613 11.835862 39.164067 -1.106679 1.263784 0.083055 -0.031571 -519759.000000 0 0 1
-15.348500 33.066613 11.768462 38.307624 -1.136222 1.258537 0.089154 -0.030895 -445541.000000 0 0 1
-14.670600 33.059013 13.163962 38.489151 -1.153135 1.221733 0.080606 -0.027307 -409862.000000 0 0 1
-15.071300 32.010813 14.087462 38.082710 -1.130765 1.191876 0.067672 -0.019325 -234045.000000 0 0 1
-14.335300 30.837713 14.235362 36.866121 -1.135652 1.174357 0.063607 -0.018738 -687059.000000 0 0 1
-14.999700 29.634113 13.567762 35.878348 -1.102230 1.182988 0.062320 -0.022205 -42297.600000 0 0 1
-14.805400 29.658313 12.176662 35.314112 -1.107790 1.218760 0.066572 -0.018604 182784.000000 0 0 1
-15.974500 29.245913 11.496762 35.251718 -1.070865 1.238586 0.048806 -0.017751 54846.200000 0 0 1
-15.815000 29.104613 9.984662 34.596043 -1.073046 1.278025 0.060493 -0.018026 179898.000000 0 0 1
-15.090200 27.906913 9.677762 33.168796 -1.075095 1.274716 0.049592 -0.017507 253147.000000 0 0 1
-15.333300 27.578613 8.352562 32.641313 -1.063370 1.312029 0.060566 -0.022904 -219522.000000 0 0 1
-14.392100 26.468913 7.890562 31.144773 -1.072775 1.314654 0.067688 -0.027357 1793880.000000 0 0 1
-12.994900 26.881813 7.671462 30.827758 -1.120510 1.319304 0.078836 -0.025027 1932230.000000 0 0 1
-12.149700 25.748613 7.476662 29.436487 -1.129914 1.313990 0.091674 -0.035635 -313594.000000 0 0 1
-10.876800 26.141013 6.746162 29.106151 -1.176504 1.336891 0.134238 -0.042764 -522538.000000 0 0 1
-11.115000 26.452713 5.388062 29.194528 -1.173012 1.385175 0.142667 -0.043014 417685.000000 0 0 1
-9.908300 26.307113 4.657362 28.494379 -1.210589 1.406611 0.159330 -0.039264 213226.000000 0 0 1
-10.077300 26.603713 3.114462 28.618340 -1.208704 1.461753 0.165226 -0.041106 68041.400000 0 0 1
-10.157500 27.968413 2.898562 29.896632 -1.222431 1.473691 0.159044 -0.033534 292928.000000 0 0 1
-10.730500 28.352413 1.626662 30.358673 -1.208988 1.517189 0.165701 -0.044294 242198.000000 0 0 1
-10.293000 29.853513 1.352662 31.607085 -1.238776 1.527987 0.184700 -0.049100 539728.000000 0 0 1
-11.076700 30.784113 2.104762 32.783913 -1.225401 1.506551 0.148991 -0.051324 275320.000000 0 0 1
-10.551400 32.056313 1.884962 33.800774 -1.252814 1.515001 0.138223 -0.046206 -218766.000000 0 0 1
-11.326400 33.100813 2.696762 35.088797 -1.241106 1.493865 0.121620 -0.044996 25803.100000 0 0 1
-12.668800 33.303813 2.322862 35.707676 -1.207299 1.505698 0.119181 -0.044006 -232564.000000 0 0 1
-12.843100 -33.507331 1.153562 35.902885 1.204776 1.538661 0.113167 -0.032345 -329208.000000 0 0 1
-14.348400 -33.452731 0.808062 36.408993 1.165614 1.548600 0.109864 -0.029661 262860.000000 0 0 1
-14.868900 32.974013 0.299562 36.172634 -1.147171 1.562515 0.096918 -0.026733 210742.000000 0 0 1
-15.599300 33.036713 -0.946538 36.546662 -1.129651 1.596699 0.113205 -0.032927 -285503.000000 0 0 1
-14.790400 33.066513 -2.247538 36.293273 -1.150196 1.632763 0.114703 -0.029921 -319863.000000 0 0 1
-14.243100 31.846913 -2.672838 34.989082 -1.150243 1.647261 0.110872 -0.028715 -306115.000000 0 0 1
-12.901800 31.726813 -2.282638 34.325757 -1.184568 1.637345 0.132533 -0.020210 -745843.000000 0 0 1
-12.387600 30.263513 -2.438638 32.791460 -1.182277 1.645233 0.110695 -0.026076 26049.300000 0 0 1
-12.253900 29.682213 -3.761438 32.331722 -1.179273 1.687399 0.095399 -0.029396 -853862.000000 0 0 1
-10.960500 29.840313 -4.243238 32.071513 -1.218789 1.703491 0.078039 -0.028065 -519112.000000 0 0 1
-10.753400 29.145913 -5.607938 31.568479 -1.217340 1.749388 0.071250 -0.022334 58839.600000 0 0 1
-11.095600 27.779213 -5.627438 30.437889 -1.190789 1.756749 0.070123 -0.019694 -20991.300000 0 0 1
-10.934600 27.201913 -6.920738 30.123183 -1.188585 1.802615 0.058893 -0.017933 13035.400000 0 0 1
-11.513800 25.805513 -7.152738 29.148821 -1.151127 1.818715 0.087678 -0.021887 109038.000000 0 0 1
-10.815100 24.814213 -6.396838 27.814225 -1.159778 1.802858 0.056965 -0.013553 -34212.800000 0 0 1
-11.295100 23.572813 -6.730638 26.991819 -1.123961 1.822814 0.079050 -0.018140 -222302.000000 0 0 1
-10.811100 22.429613 -5.825538 25.571553 -1.121651 1.800628 0.062015 -0.022058 -25420.600000 0 0 1
-9.412100 22.197513 -5.886738 24.818761 -1.169759 1.810268 0.072258 -0.024789 165692.000000 0 1 0
-9.073300 20.913213 -5.413138 23.430521 -1.161449 1.803932 0.072554 -0.022815 -336871.000000 0 1 0
-8.872300 20.717313 -3.912238 22.874230 -1.166172 1.742674 0.085307 -0.037012 256601.000000 0 1 0
-10.030300 20.659813 -3.072338 23.170543 -1.118817 1.703785 0.096359 -0.035089 -21885.000000 0 1 0
-10.752100 19.497313 -3.144038 22.486393 -1.066828 1.711076 0.092078 -0.031167 -388914.000000 0 1 0
-12.011700 19.410713 -2.246938 22.936989 -1.016655 1.668915 0.084965 -0.029254 -162882.000000 0 1 0
-11.854000 19.295213 -0.861038 22.661950 -1.019893 1.608800 0.090230 -0.035970 -51744.600000 0 1 0
-11.344900 18.046413 -0.485738 21.321720 -1.009576 1.593580 0.068307 -0.030373 -332982.000000 0 1 0
-11.156200 17.893213 1.068562 21.113259 -1.013285 1.520164 0.071145 -0.037918 -601858.000000 0 1 0
-12.302100 18.116213 1.834662 21.975096 -0.974259 1.487211 0.092531 -0.039543 -419224.000000 0 1 0
-12.095700 18.175413 3.225862 22.069386 -0.983603 1.424102 0.090049 -0.038260 409862.000000 0 1 0
-13.460000 18.222613 3.996962 23.004585 -0.934604 1.396164 0.096200 -0.040253 540939.000000 0 1 0
-14.102100 16.952913 3.982562 22.408286 -0.876940 1.392120 0.072506 -0.038701 -31016.400000 0 1 0
-15.229000 17.087813 4.829662 23.393192 -0.842853 1.362845 0.093126 -0.046482 -51330.700000 0 1 0
-15.671400 15.716113 5.368262 22.834343 -0.786823 1.333479 0.070017 -0.041761 -625815.000000 0 1 0
-14.993300 15.201213 6.503862 22.319860 -0.792284 1.275113 0.069873 -0.033845 88553.200000 0 1 0
-15.205700 15.940613 7.720762 23.343664 -0.808989 1.233705 0.062452 -0.029397 -361002.000000 0 1 0
-14.143800 15.678413 8.859462 22.898685 -0.836812 1.173531 0.056342 -0.024721 1137080.000000 0 1 0
-12.870500 16.291813 8.669562 22.499650 -0.902184 1.175242 0.055178 -0.031363 711141.000000 0 1 0
-12.032500 15.756913 7.615662 21.238166 -0.918627 1.204046 0.051803 -0.032170 -461672.000000 0 1 0
-10.881700 16.700613 7.285262 21.222557 -0.993315 1.220390 0.067977 -0.045822 -207244.000000 0 1 0
-9.884600 16.893113 8.271762 21.248638 -1.041385 1.170942 0.063958 -0.042034 211926.000000 0 1 0
-9.189000 18.132213 8.135562 21.895256 -1.101741 1.190100 0.058838 -0.039767 155992.000000 0 1 0
-8.052200 18.351013 9.169062 22.037906 -1.157306 1.141690 0.058878 -0.031876 631941.000000 0 1 0
-6.884100 17.517313 8.915062 20.826076 -1.196349 1.128438 0.041566 -0.023589 1454850.000000 0 1 0
-5.732900 18.045013 9.611962 21.233899 -1.263181 1.101038 0.039910 -0.019435 864074.000000 0 1 0
-4.902400 19.133513 8.903062 21.665396 -1.319972 1.147317 0.028926 -0.014208 -1194550.000000 0 1 0
-5.412800 20.419513 8.910362 22.927047 -1.311676 1.171641 0.046482 -0.018695 -72401.300000 0 1 0
-4.670800 21.364313 8.163262 23.342860 -1.355557 1.213533 0.038791 -0.021675 1252290.000000 0 1 0
-3.207000 21.835313 8.602762 23.686985 -1.424967 1.199112 0.034110 -0.017363 2701270.000000 0 1 0
-2.135000 20.901113 8.199362 22.553144 -1.469002 1.198713 0.026734 -0.005761 1695220.000000 0 1 0
-0.845200 21.505813 8.025062 22.969893 -1.531516 1.213894 0.025218 -0.009463 1453410.000000 0 1 0
0.342000 20.539013 7.671162 21.927488 1.554147 1.213394 0.022294 -0.011400 1001090.000000 0 1 0
0.752600 19.709513 8.785362 21.591987 1.532630 1.151760 0.018482 -0.017955 -352483.000000 0 1 0
2.136000 19.689413 9.043062 21.771827 1.462734 1.142462 0.015221 0.000113 13681.000000 0 1 0
2.630200 18.873713 10.258762 21.642024 1.432330 1.076945 0.006900 -0.022429 -553241.000000 0 1 0
4.009500 18.956813 10.491162 22.034095 1.362361 1.074544 0.028812 -0.000992 -240295.000000 0 1 0
4.435600 18.167813 11.579062 21.995878 1.331335 1.016412 0.026577 -0.015180 427519.000000 0 1 0
5.960100 18.216413 11.888262 22.554185 1.254591 1.015615 0.059285 -0.016131 232335.000000 0 1 0
6.778800 17.493713 11.015362 21.755926 1.201113 1.039890 0.057767 -0.020088 -565248.000000 0 1 0
7.666400 16.701213 11.725262 21.798761 1.140456 1.002868 0.059594 -0.023264 295638.000000 0 1 0
8.884800 16.114513 10.909762 21.392524 1.066914 1.035635 0.071564 -0.029494 123623.000000 0 1 0
9.814700 17.027613 10.530962 22.297289 1.047911 1.078900 0.084436 -0.042168 -1488790.000000 0 1 0
10.990900 16.439913 10.127562 22.217969 0.981491 1.097495 0.085397 -0.039661 -223359.000000 0 1 0
12.055900 17.416613 9.519962 23.223109 0.965320 1.148414 0.088003 -0.033178 595217.000000 0 1 0
13.177800 16.816313 8.885462 23.138587 0.906116 1.176660 0.096887 -0.035873 -157432.000000 0 1 0
14.010000 17.771813 8.326462 24.113220 0.903214 1.218231 0.112076 -0.037648 -178586.000000 0 1 0
15.054400 17.320913 7.290362 24.079002 0.855292 1.263200 0.110730 -0.042550 -270706.000000 0 1 0
16.113800 16.654213 7.904862 24.484775 0.801889 1.242059 0.127804 -0.045456 -134884.000000 0 1 0
17.192600 16.488713 6.989462 24.825707 0.764503 1.285396 0.139455 -0.036086 395235.000000 0 1 0
18.612300 16.441513 7.594762 25.969626 0.723550 1.274011 0.137270 -0.037559 -112170.000000 0 0 1
18.953500 15.265713 8.213362 25.685336 0.678043 1.245311 0.145781 -0.032819 -759186.000000 0 0 1
20.065500 15.588813 8.959362 26.942634 0.660494 1.231806 0.141314 -0.030938 -905269.000000 0 0 1
20.358800 14.525413 10.021062 26.942346 0.619710 1.189693 0.132034 -0.027165 -58619.200000 0 0 1
20.992400 13.372713 9.535662 26.654064 0.567201 1.204932 0.148025 -0.030764 70180.100000 0 0 1
21.228900 12.446813 10.569362 26.782471 0.530296 1.165123 0.139480 -0.028345 20773.700000 0 0 1
22.109200 11.339413 9.890762 26.743713 0.473900 1.191965 0.125860 -0.024510 -765228.000000 0 0 1
23.479100 11.637213 9.890262 28.009108 0.460155 1.209904 0.132005 -0.025897 192428.000000 0 0 1
24.246000 10.825813 9.009062 28.039792 0.419939 1.243699 0.136397 -0.027351 -303691.000000 0 0 1
24.353800 9.320213 9.179262 27.644760 0.365505 1.232327 0.145986 -0.031309 -1188720.000000 0 0 1
23.255200 8.444113 9.068062 26.350277 0.348303 1.219479 0.144308 -0.032348 38445.300000 0 0 1
23.406700 7.164813 9.630362 26.304981 0.297045 1.195977 0.138416 -0.021656 -248365.000000 0 0 1
24.353100 6.162713 8.934262 26.662212 0.247853 1.229095 0.139384 -0.027062 -41362.600000 0 0 1
23.952700 5.866813 7.646062 25.818861 0.240204 1.270145 0.130339 -0.016805 100261.000000 0 0 1
24.937700 5.242413 6.871162 26.392890 0.207203 1.307421 0.139299 -0.022754 -312023.000000 0 0 1
24.441900 5.075713 5.425362 25.546113 0.204754 1.356791 0.150814 -0.026382 -277278.000000 0 0 1
23.551000 4.007613 5.277462 24.465530 0.168553 1.353377 0.134798 -0.018616 400251.000000 0 1 0
23.243700 3.662713 3.944762 23.858881 0.156294 1.404696 0.167026 -0.025899 285287.000000 0 1 0
22.274800 2.441813 3.664462 22.705890 0.109186 1.408699 0.160038 -0.020001 70102.900000 0 1 0
22.862600 1.211913 3.911162 23.226373 0.052959 1.401597 0.191799 -0.021426 -52242.000000 0 1 0
22.085900 0.206413 3.473962 22.358398 0.009346 1.414788 0.193963 -0.017654 -454876.000000 0 1 0
22.874100 -1.154687 3.629862 23.189084 -0.050437 1.413617 0.224640 -0.026175 38133.600000 0 1 0
23.176900 -1.589587 4.955962 23.754095 -0.068478 1.360616 0.228154 -0.029671 601597.000000 0 1 0
23.184600 -2.958187 5.066862 23.915468 -0.126907 1.357313 0.210987 -0.033119 -332638.000000 0 1 0
23.092300 -3.443087 6.583462 24.258011 -0.148011 1.295956 0.230634 -0.043576 -71562.900000 0 1 0
23.199200 -4.830987 6.723562 24.632247 -0.205305 1.294330 0.211289 -0.039681 394637.000000 0 1 0
23.471800 -5.127387 8.113162 25.358211 -0.215070 1.245128 0.258824 -0.049651 10468.200000 0 0 1
22.907100 -6.503787 8.645862 25.333483 -0.276640 1.222516 0.236210 -0.047622 -137928.000000 0 0 1
21.505900 -6.492587 8.697262 24.089412 -0.293197 1.201413 0.240707 -0.050013 123087.000000 0 1 0
21.080800 -7.793387 9.076562 24.238832 -0.354108 1.186978 0.224044 -0.052861 -151062.000000 0 1 0
-28.024860 -32.362931 5.159562 43.120450 0.857112 1.450854 0.115036 -0.033971 342671.000000 0 0 1
-29.005660 -33.347431 5.452262 44.532086 0.854918 1.448054 0.115520 -0.042875 252650.000000 0 0 1
-28.868400 -33.772331 6.790662 44.945166 0.863525 1.419128 0.100537 -0.021798 -120296.000000 0 0 1
-29.782940 32.723713 7.116262 44.816360 -0.832411 1.411334 0.112535 -0.030209 -687322.000000 0 0 1
-31.149770 32.984613 7.215362 45.938593 -0.814000 1.413078 0.111176 -0.029763 -904671.000000 0 0 1
-31.720270 31.707513 7.463562 45.466985 -0.785197 1.405897 0.132552 -0.038742 -343193.000000 0 0 1
-33.248050 31.748013 7.576362 46.591528 -0.762323 1.407459 0.115999 -0.035244 -411748.000000 0 0 1
-33.907950 32.053913 6.371562 47.093516 -0.757298 1.435084 0.104129 -0.029127 -1035240.000000 0 0 1
-35.268983 31.860913 6.500162 47.971565 -0.734673 1.434878 0.082583 -0.023003 -1299740.000000 0 0 1
-35.982190 31.763213 5.199062 48.276806 -0.723202 1.462894 0.068172 -0.014084 -760002.000000 0 0 1
-35.854257 30.483613 4.598962 47.285610 -0.704615 1.473383 0.074224 -0.023236 275288.000000 0 0 1
-36.394630 30.392213 3.295062 47.530129 -0.695765 1.501415 0.071808 0.000286 -83652.400000 0 0 1
-35.975650 29.068913 2.683562 46.329803 -0.679610 1.512841 0.076856 -0.014438 -290541.000000 0 0 1
-36.471330 27.980913 3.390562 46.093224 -0.654420 1.497171 0.114008 -0.028666 -40978.300000 0 0 1
-35.917218 26.770413 2.925962 44.891679 -0.640510 1.505572 0.099030 -0.029195 -560572.000000 0 0 1
-36.436850 25.501613 3.468262 44.609474 -0.610649 1.492971 0.130422 -0.033173 -855084.000000 0 0 1
-37.771410 25.157213 3.272562 45.500269 -0.587568 1.498810 0.144794 -0.034688 -721276.000000 0 0 1
37.561566 24.202313 4.291362 44.889186 0.572384 1.475051 0.161372 -0.039782 983348.000000 0 0 1
36.026306 23.857813 4.277962 43.421089 0.584927 1.472114 0.171940 -0.048114 732081.000000 0 0 1
35.457656 23.101613 3.212262 42.441118 0.577448 1.495036 0.158261 -0.053168 70506.100000 0 0 1
35.915776 21.766613 3.065062 42.108467 0.544853 1.497942 0.150302 -0.050533 -191611.000000 0 0 1
34.917286 20.856113 2.269262 40.735045 0.538432 1.515060 0.160594 -0.045483 459271.000000 0 0 1
33.607306 20.718913 2.785062 39.578794 0.552464 1.500371 0.144646 -0.058431 280168.000000 0 0 1
33.361426 19.846813 3.940262 39.018027 0.536663 1.469638 0.121761 -0.042791 -360165.000000 0 0 1
33.548426 18.294813 3.636662 38.385185 0.499247 1.475913 0.137591 -0.048496 -376166.000000 0 0 1
32.690626 17.835013 2.604462 37.330255 0.499435 1.500971 0.106892 -0.050107 305530.000000 0 0 1
32.662846 16.419513 2.459562 36.640297 0.465803 1.503619 0.116832 -0.043365 -38332.900000 0 0 1
31.923566 15.619613 3.574662 35.719247 0.455036 1.470552 0.132715 -0.051128 364325.000000 0 0 1
30.496906 15.704113 3.507162 34.481598 0.475529 1.468909 0.103257 -0.050688 327433.000000 0 0 1
29.961306 14.558913 4.093262 33.561833 0.452323 1.448530 0.114130 -0.049817 1246720.000000 0 0 1
28.374006 14.651113 4.162062 32.203449 0.476647 1.441191 0.115168 -0.044567 1486840.000000 0 0 1
27.709106 14.204413 2.994062 31.281373 0.473697 1.474936 0.127032 -0.049659 1609130.000000 0 0 1
26.260406 14.340813 2.971762 30.068243 0.499844 1.471801 0.097721 -0.037849 1504820.000000 0 0 1
25.617406 13.854613 1.649462 29.170576 0.495774 1.514221 0.103476 -0.033387 -522943.000000 0 0 1
26.048306 14.499313 0.445762 29.815148 0.507920 1.555845 0.109656 -0.034579 532884.000000 0 0 1
27.210706 13.894613 -0.106038 30.553135 0.472116 1.574267 0.117201 -0.032840 -614590.000000 0 0 1
27.765306 14.555913 -1.414738 31.381337 0.482858 1.615894 0.127776 -0.034420 209423.000000 0 0 1
28.346606 15.870613 -1.319238 32.513794 0.510395 1.611382 0.063954 -0.018320 639927.000000 0 0 1
29.460206 15.953813 -0.442238 33.505574 0.496323 1.583996 0.080233 -0.027719 -450237.000000 0 0 1
30.029906 17.366713 -0.209338 34.690659 0.524321 1.576831 0.084032 -0.023118 -156101.000000 0 0 1
30.972896 17.809313 -1.150338 35.746541 0.521832 1.602982 0.087864 -0.019708 -135172.000000 0 0 1
31.523476 19.012113 -0.796238 36.821515 0.542703 1.592422 0.070721 -0.014188 -170335.000000 0 0 1
32.461106 19.578213 -1.866738 37.954111 0.542717 1.620000 0.059165 -0.011447 100280.000000 0 0 1
32.995676 20.934413 -1.694338 39.113106 0.565373 1.614129 0.032509 -0.004503 491375.000000 0 0 1
32.109456 21.943213 -2.137038 38.949823 0.599490 1.625690 0.049776 -0.008322 -596430.000000 0 0 1
32.761756 23.318913 -2.342738 40.281420 0.618583 1.628988 0.062783 -0.015701 -43624.400000 0 0 1
33.154676 24.041413 -1.167138 40.970530 0.627393 1.599287 0.064161 -0.014667 255719.000000 0 0 1
34.355846 23.556813 -0.601138 41.660641 0.601044 1.585226 0.090057 -0.008708 -358632.000000 0 0 1
35.050296 24.566413 0.327362 42.803494 0.611323 1.563148 0.116363 -0.034553 55301.900000 0 0 1
35.577656 25.770213 -0.183638 43.930709 0.626873 1.574977 0.132674 -0.026413 259455.000000 0 0 1
36.697926 26.185413 0.609762 45.086422 0.619755 1.557272 0.133798 -0.031041 631678.000000 0 0 1
37.409856 27.409313 -0.060438 46.376410 0.632321 1.572100 0.086478 -0.024139 9625.900000 0 0 1
37.811006 27.165013 -1.404838 46.578790 0.622996 1.600961 0.083436 -0.024376 346583.000000 0 0 1
36.699496 27.306413 -2.271538 45.800143 0.639685 1.620413 0.068677 -0.023088 -38472.100000 0 0 1
36.994506 27.052413 -3.723938 45.981456 0.631396 1.651873 0.081117 -0.018506 -384277.000000 0 0 1
37.681686 28.092413 -4.330838 47.200099 0.640627 1.662680 0.078041 -0.017649 -60796.600000 0 0 1
-37.692820 27.781113 -5.677738 47.167528 -0.635155 1.691463 0.089286 -0.016160 351326.000000 0 0 1
36.829396 28.013213 -6.684738 46.752864 0.650264 1.714268 0.053989 -0.000753 338329.000000 0 0 1
35.793886 27.110313 -6.441738 45.361518 0.648221 1.713287 0.055154 0.003327 -973319.000000 0 0 1
34.671616 27.239513 -7.257638 44.685404 0.665925 1.733935 0.035803 -0.003880 -143396.000000 0 0 1
33.477976 26.428013 -6.715438 43.177678 0.668253 1.726961 0.031996 0.003542 -772379.000000 0 0 1
33.653606 25.003213 -6.706138 42.458193 0.638979 1.729407 0.021714 0.003862 111386.000000 0 0 1
34.534976 24.455313 -5.704638 42.699764 0.616163 1.704796 0.036932 -0.008234 565179.000000 0 0 1
35.022856 22.971413 -5.866738 42.293083 0.580510 1.709961 0.040054 -0.013924 416576.000000 0 0 1
33.946616 22.121913 -5.502938 40.890514 0.577547 1.705783 0.021938 -0.006432 416746.000000 0 0 1
34.242906 20.818213 -5.840838 40.498025 0.546250 1.715526 0.027778 -0.007750 111863.000000 0 0 1
33.181806 19.876013 -5.225238 39.030645 0.539686 1.705075 0.045962 -0.012116 -110925.000000 0 0 1
31.959726 19.895013 -5.903838 38.106311 0.556801 1.726354 0.027739 -0.018077 -303339.000000 0 0 1
31.172896 18.779213 -5.497138 36.805255 0.542198 1.720715 0.057603 -0.019234 364414.000000 0 0 1
29.899606 18.393113 -6.284338 35.662108 0.551494 1.747940 0.026707 -0.019137 339482.000000 0 0 1
30.222106 17.807913 -7.470638 35.865135 0.532466 1.780631 0.025351 -0.022772 1356410.000000 0 0 1
28.922006 17.486813 -8.032238 34.738853 0.543809 1.804125 0.047050 -0.029704 1049050.000000 0 0 1
29.036606 16.514913 -9.244838 34.660264 0.517133 1.840792 0.057226 -0.033391 -65370.400000 0 0 1
28.005506 16.505213 -10.231438 34.079507 0.532556 1.875722 0.076826 -0.027636 337423.000000 0 0 1
28.300206 15.560813 -11.260538 34.202928 0.502727 1.906281 0.085261 -0.016847 -154032.000000 0 0 1
27.370806 15.570213 -12.500738 33.880098 0.517209 1.948697 0.096906 -0.011367 -326236.000000 0 0 1
26.030306 15.270813 -12.189538 32.547802 0.530549 1.954667 0.076622 -0.010775 130059.000000 0 0 1
25.139406 15.371913 -13.298038 32.328366 0.548808 1.994723 0.077785 -0.018746 -195009.000000 0 0 1
24.983706 14.127813 -14.230738 32.035833 0.514651 2.031092 0.082088 -0.024808 -825359.000000 0 0 1
26.113706 13.571913 -14.856638 32.967289 0.479302 2.038287 0.103136 -0.031436 -165629.000000 0 0 1
26.664606 14.354413 -15.874738 34.191486 0.493841 2.053628 0.118616 -0.037458 232644.000000 0 0 1
28.112006 13.980613 -16.361038 35.403757 0.461500 2.051189 0.136166 -0.037890 705731.000000 0 0 1
28.264306 12.726213 -17.027138 35.365957 0.423068 2.073111 0.129009 -0.045490 -249902.000000 0 0 1
29.611406 12.547713 -17.378338 36.555261 0.400808 2.066214 0.121473 -0.026620 -71465.400000 0 0 1
29.878506 11.101513 -17.803838 36.509525 0.355747 2.080191 0.089011 -0.027392 -113794.000000 0 0 1
29.249706 10.867213 -19.077438 36.573081 0.355727 2.119551 0.100974 -0.027506 122385.000000 0 0 1
29.514506 9.649413 -19.761338 36.806626 0.315984 2.137550 0.089719 -0.013759 859298.000000 0 0 1
31.047946 9.383313 -20.066738 38.140471 0.293492 2.124836 0.094033 -0.009840 488886.000000 0 0 1
31.535696 10.340113 -20.997838 39.272475 0.316840 2.134914 0.085833 -0.011508 241851.000000 0 0 1
32.031856 9.801413 -22.260938 40.220105 0.296943 2.157331 0.061880 0.001356 748758.000000 0 0 1
33.387946 9.015613 -22.205638 41.098985 0.263736 2.141586 0.062692 0.006363 782778.000000 0 0 1
34.569536 9.702313 -21.864338 42.038518 0.273621 2.117767 0.066081 -0.000755 -27759.200000 0 0 1
35.814866 9.069713 -21.900638 42.948833 0.248025 2.105893 0.031641 0.001780 -18885.600000 0 0 1
36.919976 10.131413 -21.744038 44.028779 0.267823 2.087319 0.059728 -0.003427 -343974.000000 0 0 1
36.884536 10.768713 -20.496838 43.549450 0.284062 2.060831 0.042400 -0.009957 711367.000000 0 0 1
37.850466 11.828913 -20.300738 44.549983 0.302900 2.043937 0.016539 -0.001486 277302.000000 0 0 1
37.541026 12.465213 -18.902438 43.840761 0.320588 2.016576 0.022561 -0.009037 -122746.000000 0 0 1
-37.805800 11.598613 -17.870638 43.395461 -0.297679 1.995235 0.027472 -0.010196 250005.000000 0 0 1
37.709436 12.221213 -16.604038 42.977363 0.313408 1.967461 0.037187 -0.013218 -288336.000000 0 0 1
-37.722240 11.281013 -15.446738 42.294567 -0.290589 1.944663 0.050134 -0.015501 -957153.000000 0 0 1
36.971106 10.386413 -15.243038 41.316951 0.273874 1.948653 0.027910 -0.014114 -415526.000000 0 0 1
37.436916 9.294413 -14.428638 41.183667 0.243349 1.928740 0.026499 -0.023399 668457.000000 0 0 1
36.420466 8.075013 -14.412738 39.992289 0.218187 1.939480 0.085485 -0.022420 1318340.000000 0 0 1
35.272656 8.150013 -13.523138 38.645288 0.227073 1.928293 0.106201 -0.024400 1333430.000000 0 0 1
35.524996 7.868413 -12.157838 38.363398 0.217971 1.893269 0.105397 -0.024324 -321833.000000 0 0 1
34.515896 8.673913 -11.297838 37.339322 0.246204 1.878186 0.123787 -0.028929 -85710.700000 0 0 1
34.747636 10.080513 -11.280138 37.897975 0.282356 1.873021 0.131953 -0.036779 128456.000000 0 0 1
33.943646 10.820113 -10.390738 37.110826 0.308584 1.854582 0.109154 -0.027893 -475603.000000 0 0 1
34.225216 10.572613 -8.885738 36.906665 0.299614 1.813948 0.117469 -0.021736 -63142.100000 0 0 1
35.447846 11.095913 -8.404738 38.082919 0.303359 1.793324 0.118915 -0.020672 174830.000000 0 0 1
35.392536 12.457913 -7.921438 38.348147 0.338449 1.778861 0.108752 -0.022497 -311590.000000 0 0 1
35.286786 12.597513 -6.411738 38.012695 0.342901 1.740280 0.088727 -0.017769 373404.000000 0 0 1
36.463306 12.190413 -5.697138 38.866904 0.322638 1.717907 0.112467 -0.019169 629112.000000 0 0 1
36.283046 12.335813 -4.324738 38.565983 0.327728 1.683171 0.106381 -0.022463 -188925.000000 0 0 1
37.611826 12.388513 -3.551838 39.758525 0.318187 1.660251 0.123765 -0.020465 -195181.000000 0 0 1
-37.523840 13.694113 -3.667138 40.112532 -0.349926 1.662345 0.131711 -0.020671 706169.000000 0 0 1
-36.237970 13.627913 -3.019738 38.833353 -0.359706 1.648636 0.141975 -0.034671 570547.000000 0 0 1
-35.461580 14.951613 -3.000538 38.601524 -0.399012 1.648606 0.127803 -0.036014 112919.000000 0 0 1
-35.938569 15.953913 -2.101938 39.376722 -0.417788 1.624202 0.161761 -0.032478 351433.000000 0 0 1
-35.071385 17.071413 -2.220838 39.068751 -0.453001 1.627671 0.154682 -0.038932 165877.000000 0 0 1
-35.423888 18.231813 -1.297738 39.861448 -0.475319 1.603358 0.167486 -0.029994 372412.000000 0 0 1
-36.545170 18.983913 -1.775838 41.220044 -0.479098 1.613892 0.151506 -0.028185 654796.000000 0 0 1
-37.449820 19.326013 -0.743938 42.148989 -0.476406 1.588447 0.151532 -0.032277 -196401.000000 0 0 1
37.269726 20.391013 -1.161738 42.499124 0.500629 1.598135 0.136848 -0.032195 -230924.000000 0 0 1
-37.795400 21.606813 -1.472438 43.560472 -0.519334 1.604605 0.136736 -0.028502 696990.000000 0 0 1
37.248386 22.189913 -2.625838 43.436500 0.537273 1.631286 0.095370 -0.017536 465241.000000 0 0 1
-37.595150 23.402813 -3.042938 44.388585 -0.556796 1.639402 0.117509 -0.035209 1091530.000000 0 0 1
-36.263950 23.097213 -3.508538 43.137747 -0.567125 1.652220 0.150194 -0.030423 820089.000000 0 0 1
-35.666962 24.279013 -4.015838 43.332778 -0.597665 1.663604 0.167632 -0.030018 -6029.710000 0 0 1
-34.228382 24.080313 -4.528638 42.094563 -0.613084 1.678587 0.189450 -0.044284 -12680.800000 0 0 1
-34.130745 23.206913 -5.670738 41.660843 -0.597137 1.707337 0.154318 -0.023915 -979393.000000 0 0 1
-32.830390 23.179913 -6.151238 40.656865 -0.614775 1.722676 0.186713 -0.017952 -708542.000000 0 0 1
-32.728700 22.386213 -7.467238 40.349350 -0.599902 1.756934 0.171776 -0.027440 94825.800000 0 0 1
-33.490020 22.920313 -8.555538 41.474323 -0.600174 1.778573 0.162423 -0.029900 374370.000000 0 0 1
-33.253760 22.237013 -9.820638 41.191531 -0.589414 1.811529 0.119892 -0.022197 46070.500000 0 0 1
-34.237325 22.658513 -10.950738 42.491427 -0.584631 1.831454 0.105975 -0.010089 10674.400000 0 0 1
-33.961596 23.889013 -11.529638 43.093010 -0.613013 1.841648 0.116734 -0.009499 62250.000000 0 0 1
-34.391137 23.929513 -12.875238 43.830853 -0.607905 1.868942 0.073283 -0.001568 -718245.000000 0 0 1
-34.270778 25.417413 -13.464038 44.741608 -0.638145 1.876463 0.085194 -0.002194 789810.000000 0 0 1
-32.950320 25.963713 -13.449638 44.053726 -0.667360 1.881051 0.092398 0.000455 502494.000000 0 0 1
-31.919210 25.366813 -14.222838 43.181018 -0.671513 1.906440 0.095721 -0.003003 -302798.000000 0 0 1
-30.553700 25.787913 -13.640938 42.244766 -0.701012 1.899591 0.096732 -0.013660 -309030.000000 0 0 1
-30.045490 25.154313 -12.426138 41.108148 -0.697020 1.877879 0.093128 -0.023536 406502.000000 0 0 1
-30.885540 25.180913 -11.256638 41.409019 -0.684000 1.846101 0.134912 -0.020570 -32421.600000 0 0 1
-31.229820 26.583413 -10.719538 42.389716 -0.705201 1.826453 0.161820 -0.011893 1227190.000000 0 0 1
-30.070240 27.278913 -10.147638 41.848931 -0.736764 1.815720 0.177757 -0.009273 1015260.000000 0 0 1
-30.231400 28.697313 -10.187038 42.909779 -0.759371 1.810491 0.150769 -0.016625 -291089.000000 0 0 1
-29.088910 29.444713 -9.525538 42.472246 -0.791477 1.796997 0.157339 -0.015189 -258837.000000 0 0 1
-29.318170 30.855913 -9.411538 43.591508 -0.810948 1.788413 0.130545 -0.035717 336161.000000 0 0 1
-28.097570 31.460113 -9.009538 43.132168 -0.841797 1.781228 0.174208 -0.023278 418649.000000 0 0 1
36.050816 -24.520387 33.603020 55.046105 -0.597287 0.914165 0.073804 -0.031465 -172162.000000 0 0 1
35.692816 -23.182387 33.683500 54.276868 -0.576022 0.901306 0.071076 -0.028252 -656780.000000 0 0 1
34.618876 -23.080287 -32.924548 53.058384 -0.588023 2.240220 0.050526 -0.016376 -553187.000000 0 0 1
34.083266 -21.621387 -32.742078 51.973042 -0.565309 2.252326 0.042220 -0.008176 226302.000000 0 0 1
33.596326 -21.060387 33.490750 51.902634 -0.559940 0.869431 0.034261 -0.008946 -22837.400000 0 0 1
33.173536 -19.773687 33.707960 51.261182 -0.537523 0.853204 0.032346 -0.008467 -76000.100000 0 0 1
32.950846 -19.122587 32.332142 49.967980 -0.525836 0.867078 0.044979 -0.018955 -33707.300000 0 0 1
34.123406 -18.684687 31.691997 50.178751 -0.500970 0.887204 0.080724 -0.029285 -11500.700000 0 0 1
33.881136 -18.573087 30.310020 49.107925 -0.501448 0.905602 0.091776 -0.026298 332038.000000 0 0 1
35.184506 -18.357887 29.488900 49.442459 -0.480904 0.931752 0.085316 -0.024819 432307.000000 0 0 1
35.989066 -17.246087 29.861330 49.843148 -0.446872 0.928412 0.091061 -0.028640 -77892.200000 0 0 1
37.324976 -17.430287 29.489250 50.661471 -0.436890 0.949507 0.086031 -0.020433 -205965.000000 0 0 1
-37.497570 -16.217087 29.916540 50.636559 0.408192 0.938735 0.066530 -0.021669 -741542.000000 0 0 1
-36.159510 -16.378087 29.610500 49.523062 0.425296 0.929901 0.066310 -0.014125 -781116.000000 0 0 1
-35.375743 -15.213187 29.842360 48.718074 0.406137 0.911511 0.057576 -0.019680 447427.000000 0 0 1
-33.875070 -15.625387 29.793130 47.742054 0.432182 0.896889 0.068154 -0.022154 105918.000000 0 0 1
-33.024550 -14.635787 30.300830 47.148356 0.417167 0.872818 0.060561 -0.021919 40856.200000 0 0 1
-31.764760 -15.170787 30.706030 46.712023 0.445566 0.853503 0.063453 -0.026769 540759.000000 0 0 1
-30.839020 -14.070187 31.284830 46.127605 0.428036 0.825454 0.061548 -0.028711 -161613.000000 0 0 1
-31.306690 -13.653987 32.563072 47.189977 0.411265 0.809249 0.082552 -0.031012 373277.000000 0 0 1
-30.584440 -12.505087 32.986471 46.689319 0.388130 0.786242 0.076927 -0.024329 73086.100000 0 0 1
-30.904870 -12.041787 -33.024348 46.805162 0.371544 2.354024 0.071428 -0.018256 -308934.000000 0 0 1
-30.484190 -12.933087 -31.995588 46.046371 0.401240 2.339016 0.088748 -0.020609 221950.000000 0 0 1
-30.704030 -12.405987 -30.703048 45.158866 0.383994 2.318409 0.097390 -0.014953 -570571.000000 0 0 1
-30.799580 -13.580587 -29.715518 44.900540 0.415289 2.294024 0.103101 -0.013464 -208085.000000 0 0 1
-31.992460 -14.307187 -29.799698 46.002556 0.420527 2.275468 0.105443 -0.017702 -360255.000000 0 0 1
-32.294400 -14.961587 -28.576678 45.644320 0.433849 2.247303 0.118057 -0.020405 292364.000000 0 0 1
-33.622230 -15.750687 -28.595828 46.864271 0.438099 2.227089 0.105492 -0.030976 65416.700000 0 0 1
-33.462790 -16.981387 -29.255628 47.581694 0.469606 2.232993 0.108324 -0.026906 -181712.000000 0 0 1
-34.641274 -17.723687 -29.211538 48.656561 0.472912 2.214750 0.101771 -0.030871 -417941.000000 0 0 1
-34.484816 -19.130887 -29.888188 49.482292 0.506492 2.219329 0.096989 -0.031834 1528000.000000 0 0 1
-35.785955 -19.785187 -30.003988 50.718118 0.505048 2.203817 0.072730 -0.036574 1512970.000000 0 0 1
-35.546355 -21.017987 -30.679288 51.444318 0.533986 2.209754 0.070454 -0.036827 472587.000000 0 0 1
-36.876160 -21.777987 -30.947128 52.838023 0.533457 2.196537 0.096408 -0.040802 479002.000000 0 0 1
-37.568240 -22.243287 -29.768008 52.841942 0.534573 2.169220 0.063527 -0.033826 161638.000000 0 0 1
37.162856 -23.215187 -30.103958 53.162685 -0.558375 2.172759 0.063260 -0.028694 -19815.800000 0 0 1
37.702616 -24.666587 -30.306918 54.299513 -0.579351 2.162943 0.053423 -0.022331 131023.000000 0 0 1
-37.358860 -24.799487 -31.567548 54.838026 0.586028 2.184196 0.072027 -0.025890 -343795.000000 0 0 1
-36.480410 -25.887287 -31.632018 54.786463 0.617154 2.186299 0.064707 -0.023228 11470.600000 0 0 1
-36.838730 -26.832437 -32.799908 56.150741 0.629517 2.194617 0.076446 -0.028559 -127486.000000 0 0 1
37.666746 -27.514297 -32.595978 56.906222 -0.630882 2.180716 0.079962 -0.026705 -587053.000000 0 0 1
37.596166 -28.710877 -33.347028 57.877547 -0.652190 2.184825 0.079230 -0.027063 -69347.400000 0 0 1
-37.511990 -29.884517 -32.591178 57.986366 0.672705 2.167657 0.077646 -0.033997 167391.000000 0 0 1
37.435886 -30.279547 -31.436568 57.502646 -0.680106 2.149212 0.084552 -0.036790 332599.000000 0 0 1
-37.635060 -31.393587 -30.797818 57.883164 0.695225 2.131838 0.085623 -0.037524 -50749.000000 0 0 1
37.415306 -31.848217 -29.525048 57.323141 -0.705195 2.111878 0.068336 -0.035328 -49117.600000 0 0 1
36.514466 -32.929827 -29.738258 57.463412 -0.733825 2.114742 0.100174 -0.030246 108494.000000 0 0 1
36.101336 -33.499797 -28.537398 56.920347 -0.748038 2.095962 0.118824 -0.028717 245448.000000 0 0 1
34.839526 33.247539 -28.603718 56.012178 0.762021 2.106760 0.115539 -0.034429 149428.000000 0 0 1
33.724986 -33.734277 -29.120658 55.887287 -0.785536 2.118889 0.114865 -0.027214 -436732.000000 0 0 1
32.581626 33.212894 -28.707968 54.669975 0.794992 2.123645 0.089471 -0.018973 394978.000000 0 0 1
31.232146 33.607931 -29.357808 54.468531 0.822022 2.140030 0.047806 0.002517 377219.000000 0 0 1
31.169226 33.022562 -30.659308 54.790541 0.814262 2.164667 0.064126 0.011191 381953.000000 0 0 1
30.011706 33.543500 -31.341338 54.846589 0.840912 2.179051 0.046673 0.017463 450921.000000 0 0 1
29.866206 33.137750 -32.796898 55.369100 0.837278 2.204747 0.048045 0.007957 -137613.000000 0 0 1
29.615106 31.788122 -32.944888 54.524351 0.820773 2.219587 0.031775 0.019429 -58446.200000 0 0 1
29.387206 31.303158 33.188635 54.267680 0.816957 0.912749 0.044940 0.012708 46659.600000 0 0 1
29.269006 29.747268 33.179809 53.314861 0.793502 0.899072 0.059784 0.000694 585339.000000 0 0 1
30.517406 29.079968 33.349800 53.750961 0.761284 0.901480 0.069928 0.006092 58176.800000 0 0 1
30.282106 27.755978 33.729370 53.151394 0.741900 0.883318 0.072050 -0.000504 570666.000000 0 0 1
31.578596 27.021468 -33.259668 53.231316 0.707788 2.245690 0.102393 -0.008050 435083.000000 0 0 1
32.102386 27.379848 -32.016898 52.965093 0.706170 2.219923 0.105749 -0.012543 23492.100000 0 0 1
33.143986 26.423388 -31.758338 52.965189 0.673050 2.213807 0.102945 -0.008082 223744.000000 0 0 1
33.696986 26.472428 -30.329128 52.498879 0.665900 2.186717 0.109195 -0.021220 -100650.000000 0 0 1
34.720686 27.439678 -30.112728 53.527921 0.668797 2.168277 0.082313 -0.014761 237257.000000 0 0 1
34.391226 28.886188 -30.239728 54.144339 0.698618 2.163375 0.114833 -0.022987 -335266.000000 0 0 1
33.580106 29.473598 -29.072928 53.306206 0.720363 2.147656 0.129325 -0.010059 351085.000000 0 0 1
34.328306 29.755548 -27.881038 53.302697 0.714163 2.121245 0.110454 -0.015737 554209.000000 0 0 1
33.424436 30.201398 -26.849688 52.442570 0.734785 2.108288 0.109153 -0.010950 608446.000000 0 0 1
34.100946 30.695068 -25.522218 52.501860 0.732883 2.078441 0.123597 -0.013400 385224.000000 0 0 1
34.907126 31.870479 -25.739808 53.821674 0.739955 2.069449 0.112849 -0.018993 426382.000000 0 0 1
35.519686 32.302185 -24.509738 53.905533 0.737993 2.042809 0.101114 -0.027202 115962.000000 0 0 1
35.742906 33.811488 -24.661738 55.036110 0.757637 2.035436 0.110618 -0.023113 16705.400000 0 0 1
34.513866 -33.157797 -24.732338 53.873324 -0.765362 2.047759 0.104046 -0.014192 330460.000000 0 0 1
34.665966 -31.740157 -24.656638 53.076516 -0.741367 2.053921 0.090388 -0.021133 -622711.000000 0 0 1
35.044086 -30.918497 -25.964498 53.462104 -0.722935 2.077916 0.083611 -0.025959 1280230.000000 0 0 1
36.394846 -31.173297 -26.426348 54.723954 -0.708273 2.074763 0.104337 -0.031256 1534930.000000 0 0 1
37.420976 -30.445097 -25.695248 54.657837 -0.682969 2.060213 0.106633 -0.029293 524643.000000 0 0 1
-36.850040 -30.889327 -26.070758 54.696987 0.697629 2.067625 0.074732 -0.025677 -380385.000000 0 0 1
-36.510900 -32.235217 -25.901638 55.163846 0.723283 2.059566 0.070528 -0.022856 -181153.000000 0 0 1
-36.360320 -32.763407 -24.544538 54.753521 0.733409 2.035629 0.080241 -0.014363 -836740.000000 0 0 1
-35.248847 -32.181217 -23.703738 53.291455 0.739936 2.031741 0.068722 -0.014757 -694473.000000 0 0 1
-35.226859 -30.753947 -23.603738 52.381994 0.717711 2.038242 0.031264 -0.013782 -396866.000000 0 0 1
-34.504501 -30.268047 -22.482838 51.109620 0.720086 2.026277 0.071918 -0.018801 -138314.000000 0 0 1
-34.258433 -28.772987 -22.532938 50.092498 0.698590 2.037368 0.079942 -0.000863 351234.000000 0 0 1
-35.442190 -27.963167 -22.434538 50.412261 0.667985 2.031995 0.055250 0.011033 133044.000000 0 0 1
-35.821399 -27.682137 -23.764838 51.129648 0.657923 2.054200 0.056705 -0.003126 -288549.000000 0 0 1
-37.071350 -26.802177 -23.960938 51.640762 0.625989 2.053294 0.057682 -0.008087 -93636.000000 0 0 1
-36.984410 -25.415677 -23.462538 50.638858 0.602083 2.052546 0.052352 0.000151 -262754.000000 0 0 1
37.814036 -24.491587 -24.028038 51.059630 -0.574746 2.060753 0.053578 -0.003673 78721.500000 0 0 1
-37.559270 -24.058287 -25.493718 51.375380 0.569698 2.090041 0.057470 -0.015448 -261727.000000 0 0 1
-36.296250 -23.460687 -25.545688 50.203623 0.573817 2.104635 0.060235 -0.021882 -468026.000000 0 0 1
-36.014300 -22.846487 -26.770108 50.355044 0.565311 2.131317 0.058660 -0.030606 396379.000000 0 0 1
-34.876247 -21.767487 -26.665858 49.002491 0.557977 2.146200 0.077636 -0.038833 281614.000000 0 0 1
-35.178989 -20.576987 -25.938748 48.309340 0.529259 2.137591 0.088255 -0.031315 -209461.000000 0 0 1
-36.247480 -19.845987 -26.504878 49.094313 0.500932 2.141087 0.102527 -0.031336 -124232.000000 0 0 1
-37.435900 -19.661387 -25.555198 49.407337 0.483605 2.114413 0.090399 -0.030619 -215790.000000 0 0 1
-37.110050 -18.956387 -24.359838 48.269060 0.472262 2.099793 0.090520 -0.040334 -97932.400000 0 0 1
-36.396260 -19.625087 -23.343238 47.484088 0.494518 2.084724 0.076267 -0.037544 245089.000000 0 0 1
-37.239890 -20.780887 -22.725838 48.323063 0.508986 2.060415 0.066879 -0.020590 440505.000000 0 0 1
37.436956 -20.519387 -21.811438 47.940690 -0.501387 2.043132 0.068957 -0.021007 -178940.000000 0 0 1
36.759796 -21.714587 -21.517938 47.810329 -0.533565 2.037639 0.060635 0.000446 -341702.000000 0 0 1
35.811336 -21.629987 -20.311138 46.506456 -0.543354 2.022766 0.063918 -0.010092 -215416.000000 0 0 1
34.608896 -21.025287 -20.727938 45.491601 -0.545924 2.043891 0.075272 -0.005320 -309239.000000 0 0 1
33.607876 -21.152887 -19.738238 44.345597 -0.561759 2.032083 0.060638 -0.010506 618473.000000 0 0 1
32.212096 -20.606787 -20.184038 43.239498 -0.569116 2.056461 0.060842 -0.020683 57448.200000 0 0 1
31.537446 -21.365587 -21.164038 43.577693 -0.595443 2.077917 0.065667 -0.014538 654852.000000 0 0 1
30.359406 -20.694587 -21.652938 42.647499 -0.598306 2.103331 0.091266 -0.018970 641239.000000 0 0 1
30.612106 -19.512387 -22.655138 42.791232 -0.567472 2.128730 0.074954 -0.020553 -435884.000000 0 0 1
30.894016 -18.312187 -21.951438 42.090879 -0.535066 2.119433 0.083777 -0.022508 -11830.200000 0 0 1
30.927756 -17.238987 -22.869438 42.151156 -0.508503 2.144275 0.073069 -0.018255 -259866.000000 0 0 1
31.456716 -15.934787 -22.235738 41.687774 -0.468884 2.133397 0.062765 -0.021628 -701091.000000 0 0 1
30.654706 -15.509087 -21.171138 40.354180 -0.468379 2.123080 0.050463 -0.026160 -190896.000000 0 0 1
31.239996 -15.168487 -19.908738 40.029717 -0.452019 2.091337 0.031169 -0.019815 -317119.000000 0 0 1
32.200576 -16.199087 -19.242838 40.860425 -0.466099 2.061153 0.055293 -0.026691 42622.500000 0 0 1
33.421006 -16.203587 -19.962138 42.166418 -0.451440 2.063958 0.050990 -0.027335 -309630.000000 0 0 1
34.361786 -17.036087 -19.314138 42.941781 -0.460271 2.037310 0.050402 -0.025825 -763652.000000 0 0 1
35.540816 -17.323587 -20.190738 44.395069 -0.453539 2.042940 0.065660 -0.039359 -686055.000000 0 0 1
36.438416 -16.273587 -20.484238 44.857461 -0.420027 2.045024 0.072192 -0.039446 111219.000000 0 0 1
37.398686 -16.729287 -21.402838 46.223503 -0.420625 2.052206 0.090338 -0.034546 199492.000000 0 0 1
-37.322920 -15.649687 -21.976438 46.052979 0.397037 2.068261 0.115235 -0.040930 338195.000000 0 0 1
-36.153470 -15.346287 -21.249438 44.655577 0.401427 2.066729 0.145773 -0.039536 -191863.000000 0 0 1
-35.649007 -14.097087 -21.669538 44.035764 0.376570 2.085285 0.165284 -0.039311 -595057.000000 0 0 1
-34.276022 -13.897987 -20.997038 42.530875 0.385215 2.087123 0.168603 -0.038314 -412152.000000 0 0 1
-33.241210 -14.727487 -21.424838 42.200718 0.417059 2.103297 0.177075 -0.047134 -171097.000000 0 0 1
-33.035350 -15.802887 -20.593438 42.013751 0.446189 2.083069 0.160068 -0.049507 -334532.000000 0 0 1
-31.899240 -16.749087 -21.034438 41.719792 0.483496 2.099233 0.129548 -0.053883 43009.300000 0 0 1
-31.775050 -17.842387 -20.161838 41.647381 0.511646 2.076140 0.145486 -0.067248 15499.700000 0 0 1
-30.811150 -18.746687 -20.625338 41.547200 0.546601 2.090279 0.136849 -0.063701 -448903.000000 0 0 1
-31.000660 -20.117887 -19.926738 41.986250 0.575637 2.065308 0.123912 -0.025048 248339.000000 0 0 1
-32.126720 -20.831887 -20.430938 43.399504 0.575270 2.060953 0.112932 -0.030383 461481.000000 0 0 1
-32.156730 -22.100687 -19.797038 43.754067 0.602138 2.040320 0.096168 -0.008416 605380.000000 0 0 1
-33.264890 -23.032887 -20.411038 45.317516 0.605613 2.038010 0.071994 -0.015317 326551.000000 0 0 1
-32.857800 -23.608587 -21.609838 45.869222 0.623040 2.061355 0.072270 -0.021965 -41270.700000 0 0 1
-33.774130 -24.523387 -22.162138 47.257261 0.628029 2.058918 0.065694 -0.012400 -173632.000000 0 0 1
-33.552850 -24.854687 -23.654138 47.990285 0.637563 2.086209 0.066385 -0.015680 -142463.000000 0 0 1
-32.338710 -25.515977 -23.930338 47.639462 0.668012 2.097078 0.066284 -0.023103 -159322.000000 0 0 1
-32.209990 -25.805567 -25.245958 48.381496 0.675452 2.119768 0.062101 -0.019018 513996.000000 0 0 1
-30.772370 -26.325557 -25.606028 47.912863 0.707675 2.134628 0.065396 -0.026595 450519.000000 0 0 1
-29.875530 -25.244077 -25.696718 46.798847 0.701570 2.152070 0.075499 -0.028848 -745076.000000 0 0 1
-28.617770 -25.709117 -26.064568 46.468238 0.731909 2.166283 0.062538 -0.020770 287303.000000 0 0 1
-27.432100 -24.676887 -26.199928 45.253786 0.732573 2.188243 0.076080 -0.031271 748255.000000 0 0 1
-27.398020 -23.926587 -27.364368 45.518587 0.717864 2.215760 0.087793 -0.035406 -420124.000000 0 0 1
-26.368710 -22.989487 -27.302318 44.376142 0.717042 2.233496 0.107857 -0.032075 -376308.000000 0 0 1
-26.267140 -22.133587 -28.602448 44.698528 0.700202 2.265160 0.086659 -0.027448 -105690.000000 0 0 1
-25.669540 -22.826287 -29.633248 45.366222 0.726836 2.282600 0.078666 -0.015501 -113525.000000 0 0 1
-25.518060 -22.064087 -30.807728 45.684915 0.712936 2.310884 0.069994 -0.012759 -43567.900000 0 0 1
-25.123920 -23.001887 -31.988528 46.728622 0.741333 2.324796 0.065175 -0.030729 713773.000000 0 0 1
-26.258550 -23.654587 -32.560478 48.054507 0.733276 2.315255 0.036213 -0.029764 504892.000000 0 0 1
-25.742520 -24.585487 -33.533228 48.903997 0.762412 2.326354 0.081093 -0.011143 520452.000000 0 0 1
-20.016200 -15.182487 -11.680138 27.705267 0.648925 2.005989 0.061592 0.000067 -273744.000000 0 0 1
-20.467400 -14.575287 -10.529938 27.243955 0.618815 1.967636 0.077483 -0.004521 7172.880000 0 0 1
-19.727200 -15.008587 -9.410138 26.513597 0.650382 1.933622 0.072623 -0.012628 -303243.000000 0 0 1
-20.095600 -14.331787 -8.076238 25.970346 0.619517 1.887020 0.117953 -0.028600 390116.000000 0 0 1
-21.278000 -14.901287 -7.447538 27.023461 0.610937 1.850005 0.135518 -0.029045 1048850.000000 0 0 1
-21.419900 -14.347687 -6.177038 26.510829 0.590189 1.805958 0.125004 -0.034232 237039.000000 0 0 1
-22.678400 -14.798387 -5.369838 27.606833 0.578153 1.766555 0.139560 -0.033618 229390.000000 0 0 1
-22.644500 -16.092987 -4.859038 28.202267 0.617858 1.743953 0.100458 -0.039321 343371.000000 0 0 1
-22.185000 -16.173087 -3.505138 27.677228 0.629932 1.697781 0.114829 -0.043699 -90621.200000 0 0 1
-22.244500 -17.656087 -2.935438 28.551217 0.670905 1.673791 0.084800 -0.031130 -800067.000000 0 0 1
-23.503500 -18.213987 -2.845838 29.870766 0.659277 1.666213 0.081676 -0.027752 -596948.000000 0 0 1
-23.406200 -19.312487 -1.914038 30.405360 0.689860 1.633789 0.075242 -0.025184 -430667.000000 0 0 1
-24.610200 -20.239487 -1.916938 31.921363 0.688252 1.630884 0.088589 -0.042532 -667725.000000 0 0 1
-24.661400 -21.169887 -2.993938 32.639124 0.709363 1.662654 0.079570 -0.039733 211074.000000 0 0 1
-25.808420 -22.023087 -2.991338 34.059345 0.706424 1.658737 0.097299 -0.033304 366311.000000 0 0 1
-25.684470 -23.060687 -4.123638 34.763367 0.731624 1.689697 0.111772 -0.037907 -163839.000000 0 0 1
-24.593500 -23.928887 -3.894038 34.533975 0.771702 1.683796 0.122782 -0.036815 -408836.000000 0 0 1
-24.134100 -24.606587 -5.018038 34.829867 0.795092 1.715372 0.121824 -0.037305 871121.000000 0 0 1
-22.612500 -24.319787 -5.302138 33.628706 0.821760 1.729124 0.100077 -0.030992 642818.000000 0 0 1
-22.177600 -23.052887 -5.758738 32.502994 0.804747 1.748912 0.067997 -0.024648 109933.000000 0 0 1
-22.195100 -22.034887 -4.790038 31.640215 0.781776 1.722771 0.065860 -0.022383 -767000.000000 0 0 1
-22.040100 -20.689887 -5.505538 30.726998 0.753810 1.750945 0.063973 -0.010917 317197.000000 0 0 1
-20.780300 -20.423187 -6.103538 29.768786 0.776731 1.777292 0.040784 -0.003498 453261.000000 0 0 1
-20.907500 -19.169687 -6.694738 29.144811 0.742064 1.802572 0.028191 -0.012277 392839.000000 0 0 1
-19.694200 -18.908987 -7.633038 28.349155 0.765060 1.843412 0.039833 -0.016099 -22642.500000 0 0 1
-19.640500 -19.723687 -8.778638 29.186256 0.787511 1.876307 0.037091 -0.011716 421279.000000 0 0 1
-18.418600 -19.837087 -9.519238 28.694438 0.822460 1.908949 0.082816 -0.010850 13762.500000 0 0 1
-18.139300 -18.607287 -10.435638 28.002998 0.798133 1.952672 0.087701 -0.010498 -51607.400000 0 0 1
-17.677800 -17.455487 -9.717638 26.676415 0.779071 1.943654 0.102929 -0.010184 338529.000000 0 0 1
-16.370700 -17.540587 -9.174838 25.687539 0.819883 1.936033 0.135035 -0.017927 -574818.000000 0 0 1
-16.065100 -16.329487 -8.338738 24.377739 0.793559 1.919908 0.112860 -0.017721 14744.800000 0 1 0
-16.770200 -16.320387 -7.084638 24.449678 0.771806 1.864777 0.102293 -0.017407 463696.000000 0 1 0
-16.977900 -14.983887 -6.639638 23.597685 0.723091 1.856016 0.120014 -0.015720 -467070.000000 0 1 0
-17.627600 -15.186087 -5.250238 23.851929 0.711130 1.792732 0.125992 -0.030516 -188544.000000 0 1 0
-18.106300 -13.982387 -4.682838 23.351108 0.657583 1.772706 0.115218 -0.022282 280807.000000 0 1 0
-18.375300 -14.283287 -3.300438 23.506528 0.660751 1.711667 0.089268 -0.017679 -129348.000000 0 1 0
-19.102900 -13.126187 -2.492238 23.311560 0.602036 1.677911 0.101166 -0.018930 970911.000000 0 1 0
-20.447400 -13.040987 -3.018438 24.439200 0.567738 1.694621 0.135195 -0.038924 1264240.000000 0 1 0
-21.226800 -12.072587 -2.268538 24.524899 0.517119 1.663428 0.146315 -0.023013 -191710.000000 0 1 0
-22.699200 -12.030587 -2.652738 25.826841 0.487359 1.673690 0.131724 -0.021850 -546733.000000 0 0 1
-23.041900 -11.683487 -4.021538 26.145856 0.469275 1.725221 0.172581 -0.036621 222232.000000 0 0 1
-24.399000 -11.354687 -4.216338 27.240001 0.435566 1.726206 0.170215 -0.030648 -234260.000000 0 0 1
-24.769300 -11.173687 -5.686238 27.761535 0.423777 1.777081 0.185378 -0.041072 -71782.400000 0 0 1
-25.184920 -12.431687 -6.246338 28.772275 0.458528 1.789635 0.189251 -0.041784 186098.000000 0 0 1
-25.632960 -12.206687 -7.601238 29.390997 0.444436 1.832395 0.206775 -0.042381 217937.000000 0 0 1
-24.556900 -12.221887 -8.750838 28.792239 0.461803 1.879612 0.193351 -0.047604 -36082.200000 0 0 1
-23.651500 -11.168587 -8.587738 27.529621 0.441173 1.888036 0.195538 -0.045288 -140146.000000 0 0 1
-22.555600 -11.387887 -9.459438 26.979993 0.467545 1.929018 0.150108 -0.042968 -79890.600000 0 0 1
-21.312300 -10.570687 -9.044738 25.451146 0.460434 1.934113 0.155435 -0.051105 -247363.000000 0 0 1
-21.276000 -9.260987 -9.625938 25.121560 0.410544 1.964027 0.151890 -0.049376 -682489.000000 0 0 1
-20.063900 -8.671887 -9.390438 23.789537 0.407965 1.976570 0.149346 -0.037128 -1203970.000000 0 1 0
-19.845800 -7.352387 -10.150138 23.472083 0.354798 2.017987 0.118841 -0.041620 -121400.000000 0 1 0
-19.495700 -7.471087 -11.517638 23.844401 0.365955 2.074912 0.121728 -0.034255 373006.000000 0 1 0
-19.502100 -6.170987 -12.056338 23.743805 0.306458 2.103388 0.129044 -0.050614 -117108.000000 0 1 0
-18.938800 -6.078187 -13.517238 24.048664 0.310554 2.167693 0.148838 -0.041777 102959.000000 0 1 0
-19.774100 -6.718287 -14.467638 25.405963 0.327516 2.176643 0.153546 -0.049210 680766.000000 0 0 1
-19.161500 -6.656687 -15.773838 25.696080 0.334356 2.231739 0.148698 -0.048021 208079.000000 0 0 1
-19.839400 -7.590387 -16.827138 27.099232 0.365410 2.240744 0.128365 -0.045623 92241.700000 0 0 1
-21.064400 -7.105087 -17.353438 28.201650 0.325319 2.233606 0.118570 -0.049021 418869.000000 0 0 1
-21.567900 -7.960587 -18.356038 29.419201 0.353583 2.244580 0.119486 -0.052672 -649997.000000 0 0 1
-22.914800 -7.551287 -18.941738 30.674084 0.318330 2.236377 0.110619 -0.049610 -1152460.000000 0 0 1
-23.050500 -6.222087 -19.490738 30.820915 0.263649 2.255427 0.110715 -0.047488 809545.000000 0 0 1
-24.193700 -6.130487 -20.373138 32.217740 0.248168 2.255389 0.100242 -0.042957 1233210.000000 0 0 1
-25.607270 -6.097387 -19.722538 32.892080 0.233759 2.213815 0.135083 -0.041211 -411248.000000 0 0 1
-25.943710 -4.778787 -19.425638 32.760774 0.182156 2.205519 0.134705 -0.029609 -545414.000000 0 0 1
-27.104500 -4.674087 -18.681838 33.249242 0.170767 2.167444 0.154481 -0.023156 -817712.000000 0 0 1
-27.102200 -3.211587 -18.201538 32.804566 0.117949 2.158976 0.147270 -0.022521 9245.400000 0 0 1
-27.381160 -2.161887 -19.127438 33.470294 0.078792 2.179099 0.148603 -0.014827 -479104.000000 0 0 1
-28.684290 -2.115487 -19.619138 34.816295 0.073617 2.169418 0.166572 -0.013291 -529451.000000 0 0 1
-28.964760 -0.779887 -20.334238 35.398401 0.026919 2.182716 0.168718 -0.014872 24224.300000 0 0 1
-28.317370 -0.630387 -21.588938 35.613945 0.022258 2.222062 0.159874 -0.014631 -64001.500000 0 0 1
-28.715210 -1.531287 -22.573638 36.557862 0.053276 2.236327 0.167321 -0.009383 -40986.100000 0 0 1
-28.090270 -1.331187 -24.004038 36.973358 0.047354 2.277362 0.169521 -0.018083 -411497.000000 0 0 1
-28.363550 -0.161487 -24.755338 37.647627 0.005693 2.288364 0.159145 -0.014305 225668.000000 0 0 1
-27.920530 1.118313 -24.217138 36.976701 -0.040032 2.284886 0.146033 -0.009902 -212043.000000 0 0 1
-26.487410 1.313713 -23.682138 35.554921 -0.049557 2.299726 0.138217 -0.014955 229334.000000 0 0 1
-25.523350 1.132113 -24.741838 35.565175 -0.044327 2.340157 0.116816 -0.017712 -359846.000000 0 0 1
-24.252400 0.911013 -24.248538 34.307441 -0.037546 2.355762 0.095585 -0.016644 -603251.000000 0 0 1
-23.217500 0.181513 -25.105038 34.195734 -0.007818 2.395221 0.085782 -0.008731 -9189.420000 0 0 1
-23.067000 0.906513 -26.317518 35.007428 -0.039279 2.421538 0.056382 -0.005841 909162.000000 0 0 1
-21.981900 0.364113 -27.116698 34.909194 -0.016563 2.460330 0.032497 -0.014215 592891.000000 0 0 1
-21.868000 0.865613 -28.554868 35.976926 -0.039563 2.487663 0.035982 0.000715 -409969.000000 0 0 1
-21.581100 2.252713 -28.650758 35.940013 -0.104007 2.493411 0.041849 -0.004430 156743.000000 0 0 1
-21.472600 2.785013 -29.935908 36.945737 -0.128981 2.515404 0.038856 -0.005865 248852.000000 0 0 1
-20.676700 2.018513 -31.091218 37.393371 -0.097314 2.552533 0.024831 -0.002117 -40642.300000 0 0 1
-19.284700 2.035313 -30.885208 36.468319 -0.105151 2.580934 0.011578 -0.000429 -190805.000000 0 0 1
-18.689900 1.718313 -32.135268 37.214788 -0.091680 2.612981 0.017906 -0.001941 552373.000000 0 0 1
-17.150000 1.452713 -32.124398 36.444613 -0.084505 2.649737 0.024741 -0.021612 271332.000000 0 0 1
-16.399500 2.593013 -31.924858 35.984217 -0.156817 2.662017 0.035267 -0.017404 -1876250.000000 0 0 1
-15.073900 2.379613 -32.139288 35.578349 -0.156571 2.698286 0.052928 -0.030089 -1325540.000000 0 0 1
-14.318000 3.638213 -32.602948 35.793770 -0.248834 2.716148 0.072589 -0.024266 -344154.000000 0 0 1
-14.115900 4.615313 -31.633268 34.946007 -0.316002 2.702656 0.078490 -0.034652 277635.000000 0 0 1
-13.675500 5.890713 -32.208988 35.484345 -0.406730 2.708556 0.098513 -0.021357 -87240.100000 0 0 1
-13.303200 7.014913 -31.225388 34.658462 -0.485256 2.692740 0.104958 -0.025946 -141627.000000 0 0 1
-12.136800 6.815613 -30.444588 33.475774 -0.511680 2.712759 0.139408 -0.043757 223260.000000 0 0 1
-12.198000 5.858013 -29.390348 32.355836 -0.447718 2.710112 0.133199 -0.047263 -269964.000000 0 0 1
-10.794600 5.251813 -29.141068 31.516770 -0.452807 2.750836 0.156102 -0.063494 11225.800000 0 0 1
-10.193300 4.432113 -30.181258 32.162950 -0.410147 2.788726 0.135970 -0.064919 164933.000000 0 0 1
-10.899000 3.284513 -30.618728 32.666233 -0.292703 2.785656 0.135434 -0.058058 -529654.000000 0 0 1
-10.420800 2.622313 -31.908258 33.669074 -0.246524 2.816754 0.122045 -0.071763 87894.800000 0 0 1
-11.151800 1.355013 -31.976438 33.892349 -0.120914 2.803746 0.126654 -0.065985 555078.000000 0 0 1
-10.847400 0.640913 -33.104778 34.842549 -0.059016 2.824433 0.110497 -0.055421 -268952.000000 0 0 1
-11.339000 1.093313 32.959048 34.872154 -0.096123 0.332775 0.108937 -0.046705 -508098.000000 0 0 1
-12.730000 1.079713 32.843315 35.240631 -0.084614 0.370979 0.072342 -0.043325 -579905.000000 0 0 1
-13.192000 1.224613 31.509582 34.181608 -0.092565 0.398024 0.071298 -0.032514 -1296680.000000 0 0 1
-14.645500 0.969513 31.275340 34.548192 -0.066102 0.438788 0.069627 -0.017902 -1498150.000000 0 0 1
-15.462500 2.053013 31.580408 35.222521 -0.132002 0.458772 0.068315 -0.012006 -996651.000000 0 0 1
-16.754200 1.727413 31.167030 35.426981 -0.102740 0.495452 0.060475 -0.004419 -467231.000000 0 0 1
-17.578900 3.003613 30.837940 35.623279 -0.169230 0.524313 0.057487 -0.007381 -194412.000000 0 0 1
-18.113500 3.739413 31.921814 36.892877 -0.203583 0.525134 0.045635 -0.012964 1085140.000000 0 0 1
-17.188600 4.721513 32.528118 37.092036 -0.268077 0.501303 0.042388 -0.004721 553362.000000 0 0 1
-17.763500 5.349913 -33.667168 38.440106 -0.292534 2.637958 0.031539 0.000333 -172240.000000 0 0 1
-19.040000 5.909313 33.667790 39.127506 -0.300937 0.534618 0.030223 -0.001176 -169790.000000 0 0 1
-20.006900 5.284113 -32.943428 38.903308 -0.258218 2.580742 0.025146 0.006703 -112490.000000 0 0 1
-21.387200 5.928013 -32.957108 39.733168 -0.270388 2.548938 0.024420 0.001555 -676982.000000 0 0 1
-21.347000 7.340413 -32.710268 39.743399 -0.331196 2.537533 0.027097 -0.005593 205830.000000 0 0 1
-21.112200 8.164813 33.602990 40.516048 -0.369018 0.592809 0.025281 -0.013252 -304763.000000 0 0 1
-21.103300 9.656013 -33.410038 40.679461 -0.429123 2.534482 0.030058 -0.007369 67112.000000 0 0 1
-19.984700 9.941813 -32.557138 39.473981 -0.461623 2.540600 0.033378 -0.003627 716480.000000 0 0 1
-19.822700 11.346813 -32.263958 39.530401 -0.519889 2.525566 0.044057 -0.015333 -207176.000000 0 0 1
-18.999600 12.133013 -33.279128 40.195711 -0.568314 2.546198 0.029946 -0.020760 -739908.000000 0 0 1
-19.650800 12.286413 32.974544 40.304224 -0.558770 0.612625 0.037840 -0.021349 -38235.700000 0 0 1
-18.762400 12.441413 31.875236 39.023674 -0.585532 0.614923 0.043492 -0.019678 -42342.200000 0 0 1
-19.377900 12.055713 30.554090 38.136540 -0.556538 0.641538 0.057598 -0.019483 -398306.000000 0 0 1
-19.645900 10.683313 30.397780 37.737510 -0.498066 0.634268 0.049255 -0.014104 36355.500000 0 0 1
-18.516400 9.898513 30.095600 36.695815 -0.490928 0.609146 0.047400 -0.028503 -20872.100000 0 0 1
-18.793900 8.397513 30.289030 36.621773 -0.420207 0.596909 0.044436 -0.005578 -14297.200000 0 0 1
-19.603300 7.843313 29.281610 36.100134 -0.380594 0.624729 0.048935 -0.012354 113579.000000 0 0 1
-19.789400 6.482313 29.584190 36.178240 -0.316550 0.613333 0.052323 -0.010916 -153878.000000 0 0 1
-20.427900 5.670513 28.433400 35.467056 -0.270769 0.640688 0.068692 -0.021504 682065.000000 0 0 1
-21.812300 6.023313 28.284210 36.222276 -0.269429 0.674769 0.081693 -0.023168 726680.000000 0 0 1
-22.497300 5.027813 27.518090 35.897809 -0.219872 0.697318 0.084098 -0.025552 -655877.000000 0 0 1
-23.940700 5.255313 27.160190 36.584852 -0.216086 0.734167 0.087432 -0.020292 -969388.000000 0 0 1
-24.223400 6.160413 26.157770 36.179452 -0.249037 0.762660 0.091133 -0.030758 434108.000000 0 0 1
-25.594930 6.534613 26.097570 37.133338 -0.249969 0.791461 0.093697 -0.026729 97337.000000 0 0 1
-26.061050 7.165913 24.792340 36.676816 -0.268335 0.828519 0.093722 -0.025295 -192712.000000 0 0 1
-26.080800 6.384213 23.617990 35.759975 -0.240065 0.849367 0.086999 -0.021930 551477.000000 0 0 1
-27.166910 5.471713 23.462980 36.311047 -0.198752 0.868246 0.087932 -0.020893 125151.000000 0 0 1
-27.066630 4.770113 22.081020 35.255183 -0.174445 0.893973 0.100322 -0.024490 -104336.000000 0 0 1
-27.600000 5.551313 21.045420 35.149492 -0.198486 0.928869 0.090261 -0.016473 37452.300000 0 0 1
-27.654940 4.760713 19.864520 34.381089 -0.170476 0.954797 0.099702 -0.024287 -532210.000000 0 0 1
-28.544970 5.246213 18.728120 34.540998 -0.181759 0.997743 0.123032 -0.029870 -108302.000000 0 0 1
-29.915400 5.218013 19.079120 35.863236 -0.172688 1.009840 0.131876 -0.031347 165547.000000 0 0 1
-30.689510 5.758113 18.039220 36.061273 -0.185469 1.046923 0.135593 -0.030175 -426733.000000 0 0 1
-32.215960 5.817813 18.118520 37.416518 -0.178662 1.065304 0.134036 -0.033038 -130211.000000 0 0 1
-32.609410 6.903313 19.007220 38.370611 -0.208617 1.052548 0.150473 -0.041122 414902.000000 0 0 1
-33.923120 6.726513 19.527620 39.715891 -0.195748 1.056775 0.157446 -0.034657 223926.000000 0 0 1
-34.629356 7.985813 20.011920 40.785322 -0.226646 1.057944 0.165733 -0.032559 -236814.000000 0 0 1
-34.057933 8.535613 21.185720 41.007734 -0.245562 1.027889 0.139678 -0.017683 -40665.400000 0 0 1
-34.658450 9.744913 21.509320 41.938316 -0.274093 1.032260 0.143585 -0.018887 105771.000000 0 0 1
0.564500 32.930513 12.207562 35.124947 1.553656 1.215843 0.152272 -0.044957 155536.000000 0 0 1
-0.094000 32.839213 13.468962 35.494164 -1.567934 1.181573 0.171421 -0.044944 35119.200000 0 0 1
0.170600 -33.732131 14.295462 36.636676 -1.565739 1.169953 0.152096 -0.050211 -95176.400000 0 0 1
-0.278400 -33.793131 15.794162 37.302933 1.562558 1.133598 0.177100 -0.057914 699533.000000 0 0 1
-1.685900 -33.701931 16.038662 37.361760 1.520814 1.127101 0.162601 -0.051710 475728.000000 0 0 1
-1.961500 -33.757831 17.423962 38.039888 1.512757 1.095002 0.161512 -0.057939 185433.000000 0 0 1
-3.427400 -33.456031 17.814962 38.058192 1.468708 1.083659 0.154532 -0.046632 -354182.000000 0 0 1
-4.305600 33.146613 17.742962 37.842421 -1.441624 1.082792 0.166410 -0.041200 -411209.000000 0 0 1
-5.175900 33.333713 18.853462 38.644267 -1.416751 1.061146 0.127807 -0.029326 383653.000000 0 0 1
-6.328600 32.251613 18.966362 37.946549 -1.377032 1.047408 0.117343 -0.029822 335258.000000 0 0 1
-7.184000 32.340513 17.868062 37.640222 -1.352209 1.076166 0.105697 -0.030849 -37528.900000 0 0 1
-8.257900 31.411913 18.028562 37.147412 -1.313723 1.064062 0.085428 -0.029324 190846.000000 0 0 1
-9.353800 31.487913 16.959862 36.967813 -1.282039 1.094182 0.077482 -0.041166 -70019.000000 0 0 1
-10.176200 32.647213 16.995062 38.186748 -1.268639 1.109565 0.084001 -0.032780 -39801.900000 0 0 1
-11.143800 32.620413 15.986062 37.997761 -1.241606 1.136568 0.084946 -0.034700 -224957.000000 0 0 1
-12.072000 33.825613 15.860762 39.261547 -1.227997 1.154936 0.086781 -0.037171 -155669.000000 0 0 1
-13.130200 -33.813931 16.792362 39.972084 1.200410 1.137238 0.084565 -0.032254 -56400.400000 0 0 1
-14.063100 -32.806431 16.453362 39.303255 1.165822 1.138865 0.072938 -0.029656 -297355.000000 0 0 1
-15.373100 -32.895631 17.221262 40.187394 1.133625 1.127938 0.092281 -0.027847 -533573.000000 0 0 1
-15.329500 -32.639231 18.585262 40.567536 1.131710 1.094904 0.087439 -0.017752 123209.000000 0 0 1
-16.526200 -32.914931 19.301862 41.582086 1.105480 1.088080 0.091676 -0.025231 218525.000000 0 0 1
-16.341900 -32.592931 20.783662 41.968053 1.106034 1.052702 0.091637 -0.032361 33315.500000 0 0 1
-16.222300 -31.201131 21.115462 41.018732 1.091335 1.030050 0.094057 -0.022434 95782.500000 0 0 1
-16.289500 -30.895731 22.487862 41.540317 1.085594 0.998754 0.096986 -0.025168 184114.000000 0 0 1
-15.617200 -29.528331 22.756762 40.418925 1.084306 0.972758 0.110410 -0.033259 -94351.800000 0 0 1
-15.558900 -29.084731 24.134462 40.871423 1.079581 0.939122 0.118675 -0.046685 -243276.000000 0 0 1
-15.387000 -27.673531 24.330362 39.931825 1.063344 0.915622 0.098624 -0.020236 615617.000000 0 0 1
-16.523500 -26.699231 23.781162 39.388052 1.016613 0.922580 0.108855 -0.015056 643436.000000 0 0 1
-17.751800 -26.743731 24.474662 40.365364 0.984799 0.919361 0.115689 -0.012463 203925.000000 0 0 1
-18.713100 -25.973631 23.768562 39.871721 0.946467 0.932129 0.108933 -0.002092 50554.200000 0 0 1
-19.797200 -25.316331 24.727262 40.549763 0.907132 0.914988 0.105439 -0.004410 1270910.000000 0 0 1
-20.712000 -26.191931 25.451962 41.985790 0.901704 0.919517 0.121624 -0.010702 886072.000000 0 0 1
-21.588800 -26.919631 24.613662 42.386026 0.894854 0.951205 0.102471 -0.012273 -1199840.000000 0 0 1
-23.052600 -26.528431 24.590562 42.893773 0.855388 0.960281 0.077763 -0.004620 -686798.000000 0 0 1
-23.317500 -25.315931 23.879162 41.890531 0.826467 0.964245 0.095513 -0.001252 777492.000000 0 0 1
-24.593900 -25.360731 23.216562 42.273341 0.800748 0.989388 0.078159 0.005496 604000.000000 0 0 1
-25.100180 -23.974431 22.718762 41.484148 0.762463 0.991244 0.077823 0.013207 -217775.000000 0 0 1
-25.622760 -23.240031 23.783562 41.979551 0.736673 0.968482 0.070366 0.011730 20896.100000 0 0 1
-25.944960 -21.929031 23.381462 41.239740 0.701709 0.967980 0.053691 0.010584 -215793.000000 0 0 1
-26.515720 -21.128231 24.521162 41.842239 0.672798 0.944635 0.053888 0.010632 191749.000000 0 0 1
-27.769010 -21.637631 24.957662 43.153098 0.661929 0.954090 0.037201 0.014640 429226.000000 0 0 1
-28.235810 -20.879531 26.091562 43.749119 0.636728 0.931799 0.029700 0.004036 -413324.000000 0 0 1
-29.576520 -21.384231 26.666962 45.201579 0.626005 0.939791 0.027822 0.004165 438741.000000 0 0 1
-30.733430 -20.890031 25.966162 45.334079 0.596983 0.960911 0.035044 0.004709 793187.000000 0 0 1
-31.241590 -21.795331 25.016962 45.573258 0.609139 0.989701 0.028336 0.008342 -184216.000000 0 0 1
-32.634520 -22.334831 25.442862 47.023354 0.600174 0.999089 0.031537 0.002933 261379.000000 0 0 1
-33.379090 -23.199031 24.573662 47.499722 0.607374 1.027053 0.016084 0.001396 398199.000000 0 0 1
-32.827800 -24.492731 24.385462 47.667695 0.640999 1.033783 0.016491 0.004582 -584028.000000 0 0 1
-33.101990 -25.103431 22.984862 47.478710 0.648834 1.065452 0.003705 0.013854 -158441.000000 0 0 1
-34.434530 -25.448731 22.706662 48.466146 0.636454 1.083198 0.019909 0.005564 -379636.000000 0 0 1
-34.642200 -26.029131 21.437362 48.344164 0.644378 1.111372 0.029702 0.014389 470160.000000 0 0 1
-36.110420 -26.523331 21.228662 49.579286 0.633511 1.128323 0.059830 -0.001216 278609.000000 0 0 1
-36.531950 -27.622331 22.022462 50.818947 0.647403 1.122588 0.048461 0.003818 565350.000000 0 0 1
-35.797817 -28.892331 21.923962 50.959892 0.679054 1.126060 0.024006 0.008354 -224825.000000 0 0 1
-36.168070 -29.759631 20.774662 51.238184 0.688499 1.153322 0.044268 0.001284 -123559.000000 0 0 1
-35.801705 -29.285231 19.511462 50.200438 0.685611 1.171607 0.036036 0.004036 508167.000000 0 0 1
-36.462320 -30.169531 18.612862 50.854105 0.691236 1.196084 0.043956 0.000023 -29736.900000 0 0 1
-36.627450 -29.672531 17.183662 50.172776 0.680880 1.221231 0.053493 -0.001788 1202720.000000 0 0 1
-35.361250 -29.584531 16.441962 48.948959 0.696685 1.228236 0.041248 -0.002729 1458600.000000 0 0 1
-35.532205 -28.894931 15.185562 48.249932 0.682740 1.250627 0.040094 -0.012189 -150422.000000 0 0 1
-36.366120 -29.656331 14.131662 49.007107 0.684117 1.278283 0.046989 -0.021348 476.385000 0 0 1
-35.747219 -30.864531 13.701162 49.175246 0.712228 1.288440 0.062852 -0.027282 -96811.300000 0 0 1
-36.422300 -31.579431 12.703862 49.852107 0.714301 1.313123 0.080823 -0.026669 -186021.000000 0 0 1
-36.762210 -30.969631 11.334362 49.386698 0.700084 1.339230 0.087158 -0.029278 -265043.000000 0 0 1
37.774846 -30.208231 11.420862 49.698212 -0.674553 1.338920 0.089271 -0.032209 -191167.000000 0 0 1
37.579846 -29.546131 10.181362 48.876158 -0.666284 1.360950 0.081857 -0.023894 -608566.000000 0 0 1
36.423326 -28.581931 10.237462 47.417203 -0.665351 1.353181 0.114137 -0.018614 -568741.000000 0 0 1
36.472376 -27.591531 9.233162 46.655955 -0.647651 1.371582 0.135063 -0.057145 586045.000000 0 0 1
35.267226 -26.831131 9.288762 45.276572 -0.650374 1.364173 0.116134 -0.051697 281977.000000 0 0 1
35.189476 -25.651731 8.228362 44.317226 -0.629899 1.384043 0.104591 -0.052792 -89023.900000 0 0 1
36.155486 -24.651431 8.384562 44.555730 -0.598418 1.381486 0.116982 -0.057162 -128537.000000 0 0 1
36.092336 -23.788831 7.278962 43.835471 -0.582753 1.403972 0.104373 -0.048317 406664.000000 0 0 1
36.822026 -22.400831 7.468362 43.742831 -0.546540 1.399222 0.117959 -0.053003 51863.700000 0 0 1
36.039356 -21.630431 8.326462 42.849046 -0.540559 1.375231 0.098347 -0.050194 -162834.000000 0 0 1
36.423186 -20.285331 8.126762 42.475727 -0.508152 1.378282 0.109225 -0.037424 -84689.300000 0 0 1
35.648226 -19.333431 9.010862 41.542427 -0.496943 1.352151 0.088988 -0.023861 -60010.200000 0 0 1
36.022636 -19.366131 10.371962 42.193067 -0.493281 1.322429 0.070499 -0.032321 -243139.000000 0 0 1
35.333766 -18.359231 11.046662 41.322695 -0.479200 1.300179 0.063629 -0.027580 -140990.000000 0 0 1
35.753726 -18.173831 12.494962 42.008822 -0.470270 1.268790 0.061347 -0.032729 42956.100000 0 0 1
36.988466 -17.510031 12.691062 42.846364 -0.442135 1.270085 0.057039 -0.028580 356586.000000 0 0 1
37.442186 -17.740731 14.027162 43.742566 -0.442482 1.244354 0.073211 -0.013575 -266296.000000 0 0 1
-36.937700 -17.074331 14.377562 43.158322 0.432992 1.231169 0.094769 -0.018738 -968175.000000 0 0 1
-35.803004 -17.551331 13.777962 42.186924 0.455793 1.238099 0.082968 -0.017925 -274572.000000 0 0 1
-34.622745 -16.980031 14.345562 41.144272 0.455962 1.214650 0.088090 -0.018022 1841190.000000 0 0 1
-33.303460 -17.119331 13.435962 39.783376 0.474817 1.226294 0.087898 -0.020234 1372670.000000 0 0 1
-32.597600 -18.375531 13.426062 39.755790 0.513307 1.226310 0.088085 -0.023418 539686.000000 0 0 1
-31.502000 -18.278731 12.524962 38.514448 0.525764 1.239571 0.080429 -0.021901 471538.000000 0 0 1
-30.779480 -19.655431 12.235762 38.515273 0.568311 1.247508 0.056268 -0.014560 -102601.000000 0 0 1
-31.474430 -20.499231 11.369662 39.244458 0.577287 1.276869 0.070154 -0.015716 -98767.200000 0 0 1
-30.608060 -21.520631 10.920962 38.977665 0.612806 1.286809 0.066331 -0.021649 -83242.000000 0 0 1
-31.209830 -22.230831 9.703962 39.527588 0.618935 1.322762 0.071402 -0.019118 725936.000000 0 0 1
-32.067160 -23.335531 10.011962 40.903413 0.629081 1.323513 0.066893 -0.016884 217235.000000 0 0 1
-33.448120 -23.108531 10.172062 41.907658 0.604577 1.325622 0.076334 -0.023594 336328.000000 0 0 1
-34.349404 -24.373131 10.429262 43.390098 0.617117 1.328059 0.108146 -0.037600 459235.000000 0 0 1
-34.631756 -25.057031 9.207262 43.726274 0.626342 1.358643 0.110110 -0.033805 -315750.000000 0 0 1
-35.393860 -26.218431 9.334962 45.025248 0.637563 1.361954 0.123659 -0.032747 -82262.400000 0 0 1
-35.523772 -26.932531 7.966862 45.285434 0.648700 1.393950 0.122743 -0.031430 -284592.000000 0 0 1
-34.308429 -27.382031 7.456762 44.524681 0.673590 1.402529 0.107546 -0.031414 -531673.000000 0 0 1
-34.479472 -27.931531 6.205262 44.805242 0.680864 1.431856 0.110206 -0.030260 870411.000000 0 0 1
-33.084370 -28.188531 5.511362 43.812601 0.705665 1.444668 0.119462 -0.021919 1015060.000000 0 0 1
-32.538090 -27.058831 4.840262 42.595021 0.693717 1.456916 0.125327 -0.011884 -18820.100000 0 0 1
-31.272450 -27.433431 4.313462 41.823023 0.720097 1.467477 0.138604 -0.017327 393437.000000 0 0 1
-30.429780 -26.330931 3.686462 40.408903 0.713311 1.479440 0.120321 -0.013085 -42455.100000 0 0 1
-30.963430 -25.901831 2.458662 40.443589 0.696622 1.509966 0.134500 -0.011486 -70058.700000 0 0 1
-30.187210 -24.915731 1.767062 39.181422 0.690022 1.525682 0.122683 -0.029607 -35490.200000 0 0 1
-30.706170 -24.499431 0.391562 39.284149 0.673439 1.560829 0.130937 -0.029254 -392126.000000 0 0 1
-30.403430 -25.411431 -0.649438 39.629928 0.696197 1.587185 0.132279 -0.036476 -137944.000000 0 0 1
-30.639160 -24.891631 -1.973338 39.525252 0.682264 1.620743 0.140100 -0.029966 475037.000000 0 0 1
-32.117720 -24.597031 -2.382238 40.524523 0.653562 1.629615 0.138760 -0.022271 345215.000000 0 0 1
-32.688100 -23.506431 -1.714238 40.298918 0.623439 1.613347 0.136767 -0.012279 -699850.000000 0 0 1
-34.055963 -23.430431 -2.009338 41.386365 0.602625 1.619366 0.137350 -0.007982 -566824.000000 0 0 1
-34.686473 -22.113131 -1.683438 41.170086 0.567548 1.611698 0.141007 -0.006801 -440109.000000 0 0 1
-34.893261 -21.889531 -0.258538 41.191724 0.560272 1.577073 0.145254 -0.022853 210114.000000 0 0 1
-35.370413 -20.583231 -0.014738 40.923536 0.527029 1.571156 0.154013 -0.018148 -413519.000000 0 0 1
-35.670854 -20.307731 1.437962 41.071663 0.517547 1.535778 0.142440 -0.021788 -1062640.000000 0 0 1
-36.808680 -20.936731 1.864262 42.387512 0.517161 1.526801 0.124120 -0.026352 -622537.000000 0 0 1
-37.027990 -20.693431 3.262262 42.543302 0.509619 1.494040 0.115112 -0.024551 -779017.000000 0 0 1
37.485896 -21.414431 3.870062 43.344523 -0.519024 1.481391 0.139014 -0.028055 1229600.000000 0 0 1
36.186576 -21.205031 3.259862 42.068377 -0.530056 1.493229 0.094328 -0.025304 1311060.000000 0 0 1
35.424836 -20.064531 3.636762 40.874570 -0.515345 1.481705 0.078409 -0.029393 -425605.000000 0 0 1
34.189316 -19.774831 2.802562 39.595551 -0.524380 1.499957 0.060737 -0.014216 388300.000000 0 0 1
33.144116 -20.757331 3.013662 39.223480 -0.559516 1.493887 0.063091 -0.022132 1009610.000000 0 0 1
31.888766 -20.275731 2.490662 37.870861 -0.566347 1.504982 0.083242 -0.022371 1633830.000000 0 0 1
30.640006 -21.217431 2.709462 37.367507 -0.605658 1.498224 0.070254 -0.008551 667113.000000 0 0 1
30.479906 -22.280131 1.837962 37.799564 -0.631215 1.522153 0.053825 -0.020056 254873.000000 0 0 1
29.290706 -22.988631 2.177862 37.298334 -0.665431 1.512373 0.050607 -0.009704 343067.000000 0 0 1
28.833306 -24.134831 1.246562 37.621849 -0.696926 1.537656 0.044398 -0.007794 27637.400000 0 0 1
28.325106 -23.659831 0.021062 36.906635 -0.695895 1.570226 0.057121 -0.015747 -166961.000000 0 0 1
27.828406 -24.681031 -0.728638 37.203554 -0.725531 1.590383 0.051794 -0.009189 312371.000000 0 0 1
26.898406 -24.233831 -1.947338 36.257344 -0.733334 1.624531 0.041595 -0.013229 606336.000000 0 0 1
27.615506 -23.502931 -2.958238 36.383446 -0.705119 1.652193 0.065170 -0.031210 566627.000000 0 0 1
28.228606 -24.351831 -3.978138 37.492552 -0.711801 1.677101 0.068237 -0.030353 -153065.000000 0 0 1
27.274506 -24.997831 -5.022138 37.336472 -0.741872 1.705716 0.066938 -0.032449 110584.000000 0 0 1
26.622706 -24.177231 -5.980538 36.456465 -0.737296 1.735587 0.070230 -0.047076 1093520.000000 0 0 1
25.393006 -23.582331 -5.510438 35.089828 -0.748444 1.728487 0.090842 -0.042595 172783.000000 0 0 1
24.787606 -22.554731 -6.470938 34.132307 -0.738269 1.761535 0.106209 -0.052280 -417822.000000 0 0 1
24.305406 -23.202031 -7.583638 34.447040 -0.762177 1.792768 0.119949 -0.066843 437280.000000 0 0 1
23.240706 -22.550631 -8.291638 33.427723 -0.770329 1.821460 0.118324 -0.065014 279765.000000 0 0 1
23.527306 -21.167031 -9.029338 32.910580 -0.732638 1.848720 0.124331 -0.051706 -181088.000000 0 0 1
24.236906 -21.399431 -10.245538 33.916579 -0.723302 1.877671 0.127576 -0.054093 167974.000000 0 0 1
24.057606 -20.321431 -11.186338 33.419503 -0.701408 1.912110 0.120825 -0.052264 459041.000000 0 0 1
25.025806 -20.354031 -12.448838 34.576743 -0.682811 1.939102 0.097999 -0.045480 1491840.000000 0 0 1
26.418606 -20.125931 -12.139838 35.360593 -0.651016 1.921241 0.129300 -0.052279 662096.000000 0 0 1
27.095206 -19.840431 -13.302938 36.121477 -0.632043 1.947958 0.128074 -0.052760 86862.300000 0 0 1
28.643506 -20.012131 -13.247938 37.369021 -0.609827 1.933193 0.096408 -0.052243 352733.000000 0 0 1
28.934206 -21.376331 -13.453338 38.407397 -0.636289 1.928666 0.074780 -0.036641 150932.000000 0 0 1
29.621406 -21.932331 -12.339838 38.868065 -0.637343 1.893867 0.104636 -0.047445 -245334.000000 0 0 1
29.805006 -23.416931 -12.519938 39.917915 -0.665943 1.889823 0.081441 -0.032995 -1165050.000000 0 0 1
30.853476 -23.726331 -13.330038 41.140803 -0.655551 1.900762 0.062597 -0.029637 -729059.000000 0 0 1
31.044046 -25.069631 -13.376838 42.085140 -0.679328 1.894259 0.049149 -0.022707 -112900.000000 0 0 1
-3.545800 -8.965887 -27.270408 28.924643 1.194195 2.801755 0.100942 -0.023528 116981.000000 0 0 1
-3.645000 -7.603987 -26.847638 28.140759 1.123802 2.837263 0.104285 -0.015584 -628991.000000 0 0 1
-4.658400 -6.911787 -27.489508 28.725364 0.977748 2.847194 0.098168 -0.010216 -349659.000000 0 0 1
-4.855600 -5.528687 -26.749228 27.742827 0.850125 2.873151 0.088146 -0.019337 -58671.100000 0 0 1
-5.543300 -5.608587 -25.520358 26.710917 0.791252 2.841902 0.078546 -0.015094 149946.000000 0 0 1
-5.521600 -4.384387 -24.779838 25.763371 0.671098 2.864389 0.077013 -0.017400 38195.800000 0 0 1
-6.104900 -4.513987 -23.354238 24.557409 0.636685 2.827269 0.065075 -0.020559 -238643.000000 0 1 0
-5.362400 -5.390687 -22.543338 23.791111 0.788029 2.816287 0.070339 -0.026835 257861.000000 0 1 0
-5.720600 -5.305587 -21.215038 22.604256 0.747777 2.789177 0.060635 -0.025352 8397.010000 0 1 0
-4.931100 -6.372087 -20.384638 21.919232 0.912199 2.765178 0.055228 -0.032042 -340228.000000 0 1 0
-5.472000 -7.658687 -20.453538 22.515450 0.950416 2.710291 0.055097 -0.025730 7034.550000 0 1 0
-4.728400 -8.652087 -19.780338 22.101542 1.070641 2.679173 0.059243 -0.028124 -1671450.000000 0 1 0
-5.394600 -10.018687 -19.898438 22.922121 1.076861 2.622136 0.067009 -0.021851 1090780.000000 0 1 0
-6.600900 -10.266987 -19.125038 22.688102 0.999411 2.573548 0.069843 -0.020132 435497.000000 0 1 0
-7.657800 -9.432787 -19.445938 22.929542 0.888885 2.583135 0.055875 -0.023126 -2587830.000000 0 1 0
-8.749000 -9.504487 -18.408538 22.488987 0.826763 2.529692 0.048136 -0.014255 -839028.000000 0 1 0
-9.469700 -10.734187 -18.445438 23.348066 0.847903 2.481638 0.076333 -0.015475 280919.000000 0 1 0
-10.206400 -10.832787 -17.220538 22.761081 0.815162 2.428861 0.082793 -0.018577 -337380.000000 0 1 0
-10.994800 -12.146187 -17.225338 23.772416 0.835112 2.381241 0.094273 -0.010174 -149695.000000 0 1 0
-12.223200 -12.257787 -17.914338 24.911513 0.786811 2.373330 0.111233 -0.026536 164912.000000 0 1 0
-12.108900 -12.169887 -19.328338 25.851814 0.787910 2.415326 0.108993 -0.026439 -1041530.000000 0 0 1
-13.362900 -11.564087 -20.026038 26.708377 0.713360 2.418562 0.103869 -0.020093 844769.000000 0 0 1
-14.478500 -12.440687 -20.192938 27.787631 0.709841 2.384285 0.102024 -0.018199 672719.000000 0 0 1
-15.121800 -12.932487 -18.984138 27.501192 0.707518 2.332703 0.102927 -0.014382 -582991.000000 0 0 1
-16.291500 -13.881087 -19.348738 28.852577 0.705680 2.305823 0.104961 -0.011156 188288.000000 0 0 1
-15.865400 -15.226087 -19.674038 29.506142 0.764839 2.300673 0.117560 -0.011988 -222553.000000 0 0 1
-16.687700 -15.885787 -20.621138 30.920364 0.760785 2.300852 0.108889 -0.012976 -70899.200000 0 0 1
-16.349500 -17.292087 -21.040038 31.764849 0.813409 2.294772 0.072641 -0.010018 -474538.000000 0 0 1
-16.497000 -18.305487 -19.995538 31.734263 0.837316 2.252469 0.094660 -0.011994 61707.200000 0 0 1
-16.302500 -19.633987 -20.497038 32.732148 0.877839 2.247473 0.078914 -0.011948 101943.000000 0 0 1
-17.054300 -20.723687 -19.655438 33.266449 0.882225 2.202907 0.092552 -0.017061 204945.000000 0 0 1
-16.851400 -22.033687 -20.214338 34.323061 0.917889 2.200547 0.084181 -0.014416 68011.000000 0 0 1
-17.613400 -22.982287 -19.533438 34.928106 0.916888 2.164274 0.095050 -0.011307 -149045.000000 0 0 1
-17.197800 -24.414087 -20.033938 35.960682 0.957109 2.161694 0.099630 -0.017262 77014.100000 0 0 1
-17.409900 -24.591887 -21.424138 36.971059 0.954753 2.188892 0.059082 -0.009996 317426.000000 0 0 1
-16.751900 -25.813157 -21.767738 37.693231 0.995147 2.186456 0.066142 -0.011803 -65525.100000 0 0 1
-16.949200 -26.261207 -23.232438 38.944481 0.997656 2.209995 0.068446 -0.017442 -43576.600000 0 0 1
-18.230500 -26.700267 -23.668638 40.068190 0.971719 2.202734 0.081586 -0.012962 99657.400000 0 0 1
-18.407400 -28.097457 -23.517838 41.004734 0.990825 2.181617 0.091098 -0.019869 297448.000000 0 0 1
-19.685200 -28.594817 -24.278638 42.362990 0.967886 2.181092 0.091666 -0.019108 304825.000000 0 0 1
-19.731800 -28.738607 -25.699488 43.309527 0.969123 2.206062 0.089945 -0.018550 -96774.000000 0 0 1
-19.441900 -27.573577 -26.509198 42.907193 0.956661 2.236772 0.087884 -0.018459 131517.000000 0 0 1
-18.010400 -27.465817 -27.078618 42.567560 0.990397 2.260272 0.103129 -0.023371 -96623.300000 0 0 1
-17.858100 -28.090957 -28.344308 43.719714 1.004522 2.276170 0.109986 -0.011137 800696.000000 0 0 1
-16.548700 -27.833127 -28.897178 43.400338 1.034380 2.299400 0.070950 -0.004406 817064.000000 0 0 1
-16.569200 -27.987227 -30.457628 44.558842 1.036260 2.323394 0.088967 -0.009828 19451.600000 0 0 1
-16.817000 -29.290727 -30.926408 45.795206 1.049608 2.312195 0.072889 -0.008600 99997.100000 0 0 1
-17.327700 -29.236757 -32.215138 46.827901 1.035785 2.329454 0.069625 -0.009583 -151106.000000 0 0 1
-17.346800 -30.631457 -32.864868 48.159082 1.055520 2.321869 0.071164 -0.012687 -125750.000000 0 0 1
-16.098500 -30.976987 -33.410028 48.321480 1.091519 2.334237 0.077998 -0.013794 -442651.000000 0 0 1
-16.255500 -32.094217 33.183031 48.942759 1.101968 0.825762 0.071271 -0.016225 -630661.000000 0 0 1
-14.994000 -32.623577 32.531680 48.450264 1.139983 0.834640 0.055485 -0.016530 -267727.000000 0 0 1
-14.159600 -33.374957 33.418240 49.306803 1.169554 0.826083 0.071841 -0.018076 720094.000000 0 0 1
-12.982000 33.830568 32.738080 48.834635 -1.204389 0.836067 0.073546 -0.018301 349225.000000 0 0 1
-12.086200 32.888835 33.530470 48.497878 -1.218629 0.807399 0.080637 -0.018574 -3619.440000 0 0 1
-11.180100 33.597335 -33.079878 48.456722 -1.249555 2.322205 0.084683 -0.021066 51057.900000 0 0 1
-10.477200 32.701154 -32.236378 47.099058 -1.260738 2.324629 0.083748 -0.024610 -111049.000000 0 0 1
-9.457400 33.515640 -31.419128 46.903115 -1.295768 2.304834 0.079480 -0.028754 -228608.000000 0 0 1
-10.035100 -33.537537 -30.305268 46.302040 1.280055 2.284334 0.114969 -0.030072 -218625.000000 0 0 1
-9.310100 -32.446387 -29.865758 45.071160 1.291366 2.295129 0.119395 -0.034700 -199553.000000 0 0 1
-10.325500 -31.401317 -29.292838 44.167058 1.253110 2.295920 0.133386 -0.041017 818969.000000 0 0 1
-10.772400 -31.652297 -27.926368 43.563684 1.242757 2.266658 0.157991 -0.041061 244418.000000 0 0 1
-11.382700 -32.870177 -27.509528 44.348490 1.237428 2.239926 0.133186 -0.037225 -189636.000000 0 0 1
-11.845200 -32.994407 -26.046618 43.673401 1.226121 2.209799 0.140478 -0.032258 224463.000000 0 0 1
-10.806600 -32.947527 -25.081438 42.794867 1.253859 2.197015 0.149196 -0.052427 -164903.000000 0 0 1
-11.290300 -33.214757 -23.786838 42.385193 1.243131 2.166639 0.148030 -0.057831 227706.000000 0 0 1
-10.173700 -33.162707 -22.738238 41.476461 1.273130 2.151031 0.158056 -0.066966 111385.000000 0 0 1
-9.360700 33.396844 -22.518938 41.353047 -1.297522 2.146653 0.127036 -0.055800 339460.000000 0 0 1
-8.327800 33.717288 -21.562538 40.879711 -1.328654 2.126408 0.143637 -0.053764 985633.000000 0 0 1
-7.304100 32.635040 -21.086238 39.535113 -1.350613 2.133358 0.139308 -0.045204 463847.000000 0 0 1
-6.239500 32.358887 -21.989038 39.617505 -1.380312 2.159199 0.116387 -0.058502 93682.600000 0 0 1
-5.620800 31.100478 -21.710538 38.342934 -1.391996 2.172709 0.097144 -0.043207 -721966.000000 0 0 1
-4.234900 30.985238 -22.298738 38.409023 -1.434963 2.190212 0.103122 -0.050478 -924361.000000 0 0 1
-4.040400 31.239368 -23.693438 39.415758 -1.442174 2.215693 0.116307 -0.048696 196451.000000 0 0 1
-2.811800 30.723778 -24.201038 39.211567 -1.479532 2.235964 0.106026 -0.050980 288781.000000 0 0 1
-2.611000 31.037868 -25.699158 40.380853 -1.486871 2.260644 0.102500 -0.014103 200937.000000 0 0 1
-1.763400 32.144045 -26.088368 41.436121 -1.515992 2.251840 0.108555 -0.036959 514237.000000 0 0 1
-2.304700 33.448526 -25.826758 42.321826 -1.502002 2.227168 0.111389 -0.027803 127124.000000 0 0 1
-1.414200 -33.146927 -26.489948 42.455107 1.528158 2.244586 0.032078 -0.004140 343268.000000 0 0 1
-0.152300 -32.940497 -25.884568 41.894038 1.566173 2.236812 0.092718 -0.022881 -269091.000000 0 0 1
0.621800 -32.033797 -26.586688 41.634154 -1.551388 2.263446 0.057767 -0.003911 -477510.000000 0 0 1
1.937000 -31.663307 -25.895418 40.949843 -1.509698 2.255404 0.082388 -0.005723 -555470.000000 0 0 1
1.865200 -30.920487 -24.676038 39.603817 -1.510547 2.243461 0.070379 -0.000140 1088980.000000 0 0 1
3.198100 -30.448637 -24.350838 39.119185 -1.466147 2.242701 0.054502 -0.003672 926522.000000 0 0 1
3.363300 -29.758727 -22.965438 37.739965 -1.458255 2.224988 0.063947 -0.011415 -225569.000000 0 0 1
3.365500 -30.634417 -21.851738 37.779526 -1.461375 2.187564 0.076960 -0.011570 438436.000000 0 0 1
3.698900 -29.839437 -20.730038 36.521341 -1.447465 2.174402 0.075291 -0.009702 -334300.000000 0 0 1
3.775600 -30.467427 -19.343038 36.285980 -1.447502 2.133024 0.077949 -0.001930 676872.000000 0 0 1
2.580100 -31.022887 -18.727638 36.329064 -1.487820 2.112388 0.085063 -0.007986 966310.000000 0 0 1
2.217400 -32.326747 -19.080438 37.603172 -1.502310 2.102979 0.098158 -0.006418 -457674.000000 0 0 1
2.995000 -33.387517 -18.298238 38.190599 -1.481332 2.070459 0.061039 -0.018091 689662.000000 0 0 1
4.364700 -33.537637 -18.721438 38.656383 -1.441380 2.076364 0.064227 -0.009952 629219.000000 0 0 1
4.927300 33.184006 -17.842338 37.997441 1.423389 2.059596 0.066890 -0.029943 572183.000000 0 0 1
6.043900 32.300948 -18.525838 37.723821 1.385823 2.084138 0.093515 -0.033840 -319930.000000 0 0 1
7.235400 32.923536 -18.759238 38.577445 1.354471 2.078618 0.138500 -0.030057 -951711.000000 0 0 1
8.176100 32.018034 -19.367738 38.302903 1.320780 2.100928 0.122712 -0.041347 1013080.000000 0 0 1
9.572100 32.692463 -19.591338 39.296855 1.285965 2.092718 0.118151 -0.044924 1270370.000000 0 0 1
10.414600 32.935893 -18.397238 39.136879 1.264537 2.060171 0.102534 -0.032324 -121801.000000 0 0 1
11.596600 33.547984 -18.765038 40.150654 1.237982 2.057105 0.102650 -0.024181 -573188.000000 0 0 1
12.468900 33.792398 -17.491038 40.041679 1.217309 2.022858 0.068932 -0.018689 928410.000000 0 0 1
13.343800 32.649969 -17.090538 39.193928 1.182819 2.022002 0.058933 -0.019683 1119000.000000 0 0 1
14.056300 32.917844 -15.878438 39.157232 1.167223 1.988327 0.047653 -0.026233 -30794.400000 0 0 1
15.159800 31.941125 -15.487238 38.599346 1.127661 1.983656 0.052571 -0.020208 208275.000000 0 0 1
14.696900 30.733508 -14.863738 37.168240 1.124737 1.982209 0.066884 -0.014533 604030.000000 0 0 1
15.839100 29.857628 -14.816738 36.903804 1.083057 1.983946 0.075917 -0.015231 825520.000000 0 0 1
15.635600 28.617428 -13.934538 35.462664 1.070747 1.974618 0.087106 -0.021080 -318909.000000 0 0 1
15.530000 28.904798 -12.605638 35.150681 1.077771 1.937582 0.083726 -0.020511 -4916.630000 0 0 1
14.275000 28.696588 -11.979238 34.216544 1.109194 1.928475 0.101918 -0.023253 226836.000000 0 0 1
13.817100 27.204318 -11.769138 32.703207 1.100848 1.938933 0.109345 -0.024011 -626774.000000 0 0 1
13.051200 26.695538 -12.827938 32.365747 1.116076 1.978327 0.099508 -0.026791 180363.000000 0 0 1
12.478000 25.372678 -12.651438 30.976316 1.113739 1.991522 0.125381 -0.026765 716450.000000 0 0 1
11.538700 25.133528 -11.405238 29.915134 1.140404 1.961948 0.117209 -0.030951 -388954.000000 0 0 1
10.329700 25.838378 -11.439838 30.086448 1.190479 1.960844 0.093600 -0.022222 -498253.000000 0 0 1
9.669100 25.817608 -10.225538 29.404115 1.212450 1.925976 0.073946 -0.008188 -386319.000000 0 0 1
8.629900 26.944558 -10.244638 30.090480 1.260836 1.918204 0.076427 -0.012691 -526671.000000 0 0 1
9.143800 28.209648 -10.451438 31.442421 1.257345 1.909643 0.077266 -0.014189 -191148.000000 0 0 1
8.184700 29.225728 -10.261038 32.037812 1.297740 1.896820 0.072938 -0.020636 -24070.900000 0 0 1
8.812700 30.575298 -10.562238 33.527204 1.290173 1.891290 0.091465 -0.026291 -180594.000000 0 0 1
9.801500 30.992668 -9.643238 33.905853 1.264497 1.859190 0.070308 -0.023485 -255114.000000 0 0 1
10.198700 32.339769 -9.949138 35.339206 1.265307 1.856187 0.086090 -0.023891 -293513.000000 0 0 1
11.286300 32.521850 -10.986638 36.135267 1.236763 1.879729 0.066406 -0.021185 76233.800000 0 0 1
12.624700 32.261399 -10.521438 36.206098 1.197790 1.865649 0.061506 -0.022692 362321.000000 0 0 1
13.524800 32.574726 -11.545038 37.112274 1.177261 1.887130 0.073496 -0.018121 -796542.000000 0 0 1
14.999200 32.492707 -11.204338 37.500522 1.138323 1.874208 0.082027 -0.027229 -549097.000000 0 0 1
15.394200 33.474644 -10.302238 38.257931 1.139760 1.843446 0.073964 -0.019904 -567266.000000 0 0 1
16.790500 33.494463 -10.240238 38.841504 1.106116 1.837592 0.064620 -0.020423 -234818.000000 0 0 1
17.442600 -33.229487 -9.202538 38.641038 -1.087417 1.811262 0.074093 -0.024517 79122.500000 0 0 1
17.228000 -33.607997 -7.860038 38.575661 -1.097107 1.775990 0.058799 -0.022035 165947.000000 0 0 1
17.937700 -32.762057 -6.969538 37.995893 -1.069863 1.755270 0.055774 -0.022200 -1170500.000000 0 0 1
18.216500 -33.519657 -5.645838 38.565318 -1.072990 1.717721 0.060826 -0.017761 -38055.400000 0 0 1
19.311800 33.280984 -5.800638 38.912940 1.045014 1.720421 0.062911 -0.024030 386235.000000 0 0 1
20.622200 33.821198 -5.968338 40.059576 1.023244 1.720340 0.074554 -0.028193 9240.430000 0 0 1
21.618200 32.901245 -6.750538 39.942562 0.989472 1.740618 0.067143 -0.021373 430460.000000 0 0 1
21.899500 31.629878 -6.233538 38.972994 0.965211 1.731431 0.072698 -0.015613 -64312.600000 0 0 1
22.758600 31.561978 -5.116238 39.246506 0.946065 1.701530 0.064725 -0.016846 -504324.000000 0 0 1
23.107200 30.161418 -4.636038 38.277234 0.917059 1.692212 0.053601 -0.022008 -234486.000000 0 0 1
23.809200 29.467388 -5.637538 38.301263 0.891206 1.718522 0.048047 -0.016268 59582.800000 0 0 1
24.378800 28.258708 -5.123138 37.671302 0.858975 1.707215 0.057910 -0.013144 111756.000000 0 0 1
25.383400 27.579378 -6.073938 37.971460 0.826837 1.731447 0.030047 -0.004081 -479642.000000 0 0 1
26.656100 28.171958 -6.101738 39.261152 0.813039 1.726843 0.033416 -0.001326 64899.600000 0 0 1
27.628300 27.378128 -6.807038 39.486967 0.780850 1.744049 0.011738 0.001950 335695.000000 0 0 1
28.357000 26.368368 -5.934338 39.174311 0.749076 1.722867 0.008450 0.002458 -668839.000000 0 0 1
29.409000 26.959208 -5.173938 40.230061 0.741965 1.699762 0.027196 -0.004246 172065.000000 0 0 1
30.142800 25.925488 -4.548638 40.017614 0.710322 1.684708 0.031378 -0.008209 -387075.000000 0 0 1
31.394000 26.503098 -3.854038 41.265615 0.701122 1.664329 0.041640 -0.012708 -397117.000000 0 0 1
31.165200 27.252798 -2.712438 41.489059 0.718525 1.636220 0.061422 -0.021607 89257.200000 0 0 1
32.337100 27.471468 -1.938738 42.475031 0.704224 1.616456 0.067718 -0.031981 317317.000000 0 0 1
32.173800 28.545628 -0.872738 43.020552 0.725716 1.591084 0.082400 -0.015358 155614.000000 0 0 1
32.365900 29.853888 -1.425738 44.054952 0.745047 1.603165 0.050574 0.000284 -16460.300000 0 0 1
31.602400 30.859488 -0.781138 44.177255 0.773505 1.588479 0.077928 -0.007266 57907.300000 0 0 1
34.557616 22.547013 18.780920 45.335633 0.578094 1.143662 0.140527 -0.027971 70231.500000 0 0 1
34.705406 22.104313 20.118820 45.802105 0.567120 1.116027 0.140106 -0.032493 447675.000000 0 0 1
35.598416 22.954413 20.871820 47.220601 0.572722 1.112962 0.151718 -0.037693 327676.000000 0 0 1
35.419406 22.911213 22.360920 47.743783 0.574161 1.083371 0.110137 -0.021035 120162.000000 0 0 1
34.141706 23.311013 22.838280 47.229720 0.599070 1.066082 0.097461 -0.019523 514044.000000 0 0 1
34.137186 23.319213 24.275510 47.941981 0.599295 1.039847 0.096003 -0.014371 438020.000000 0 0 1
32.963106 24.210413 24.855120 47.859038 0.633488 1.024718 0.080430 -0.017915 798125.000000 0 0 1
33.106326 25.617013 24.668800 48.588166 0.658547 1.038269 0.061468 -0.022241 97061.700000 0 0 1
31.911056 26.185113 25.140030 48.332151 0.687156 1.023768 0.072379 -0.021057 -503.812000 0 0 1
31.869856 27.741913 25.260570 49.228019 0.716261 1.031964 0.054633 -0.013880 -188222.000000 0 0 1
31.973226 28.523913 24.085690 49.153040 0.728444 1.058690 0.046988 -0.014132 302733.000000 0 0 1
31.527816 29.824613 24.389180 49.782958 0.757644 1.058810 0.043085 -0.015118 -106490.000000 0 0 1
31.659326 30.827513 23.260970 49.937173 0.772087 1.086253 0.049034 -0.014136 -447319.000000 0 0 1
33.003936 31.110913 23.032390 50.868848 0.755881 1.100916 0.039911 -0.023277 -643793.000000 0 0 1
33.142166 31.762213 21.763620 50.802525 0.764140 1.128079 0.049101 -0.013458 150207.000000 0 0 1
34.626896 32.021513 21.435020 51.805978 0.746327 1.144221 0.031510 -0.028196 41011.100000 0 0 1
35.191146 33.010513 22.217420 53.119907 0.753436 1.139278 0.045380 0.000749 1271200.000000 0 0 1
36.603636 33.236913 21.925820 54.085674 0.737230 1.153390 0.037721 0.003675 1553930.000000 0 0 1
37.186336 -33.246531 22.735170 54.818276 -0.729519 1.143143 0.043602 0.003564 -194728.000000 0 0 1
36.684856 -31.983131 22.400820 53.577011 -0.717034 1.139438 0.043536 0.006410 208422.000000 0 0 1
36.964556 -31.033631 23.396340 53.636307 -0.698397 1.119421 0.052911 0.010851 -126718.000000 0 0 1
35.966796 -29.824631 23.265170 52.195663 -0.692310 1.108807 0.065184 0.003524 1815740.000000 0 0 1
34.567706 -30.054431 23.576700 51.517531 -0.715670 1.095452 0.077684 -0.001362 1654120.000000 0 0 1
33.755946 -30.402631 22.464040 50.679552 -0.733180 1.111568 0.084954 0.000904 -318141.000000 0 0 1
32.969686 -31.708031 22.491980 50.973411 -0.765894 1.113806 0.079241 -0.001038 -281349.000000 0 0 1
32.108056 -31.727931 23.587520 50.930934 -0.779444 1.089276 0.104516 -0.016137 176872.000000 0 0 1
31.326006 -32.925731 23.666030 51.239667 -0.810291 1.090695 0.100659 -0.015158 341125.000000 0 0 1
30.565406 -33.172931 24.995190 51.569826 -0.826285 1.064792 0.086324 -0.030692 314766.000000 0 0 1
29.803106 33.291513 24.927410 51.165670 0.840630 1.061927 0.092044 -0.037859 468344.000000 0 0 1
29.062006 33.063213 26.136290 51.194550 0.849715 1.034997 0.089620 -0.027982 -364300.000000 0 0 1
28.655706 31.555013 26.289310 50.079898 0.833514 1.018143 0.084883 -0.025627 382807.000000 0 0 1
27.847306 30.988313 25.245320 48.714210 0.838734 1.026013 0.082131 -0.022472 953352.000000 0 0 1
26.517606 31.529113 25.180900 48.284016 0.871520 1.022169 0.092125 -0.026403 137585.000000 0 0 1
25.851106 31.271113 23.800310 47.038463 0.879999 1.040284 0.124393 -0.040324 61062.700000 0 0 1
26.192106 32.150613 22.694010 47.272682 0.887175 1.070066 0.115845 -0.044173 -224662.000000 0 0 1
27.491406 31.940213 22.218320 47.640407 0.860115 1.085607 0.096355 -0.030746 -341320.000000 0 0 1
27.993306 32.991413 21.153420 48.161455 0.867172 1.116067 0.114997 -0.034957 1527620.000000 0 0 1
29.389906 32.879513 20.748820 48.737486 0.841380 1.131032 0.108092 -0.030724 1503570.000000 0 0 1
29.504806 33.662713 19.537120 48.840669 0.851127 1.159260 0.096786 -0.034969 -297878.000000 0 0 1
30.912076 -33.553131 19.134220 49.472088 -0.826344 1.173672 0.108506 -0.039523 245598.000000 0 0 1
31.755386 33.001013 18.757420 49.490527 0.804631 1.182070 0.102358 -0.041522 397129.000000 0 0 1
32.844296 33.433313 17.962320 50.191425 0.794285 1.204804 0.106675 -0.032098 -389773.000000 0 0 1
33.672296 32.317613 17.329020 49.785004 0.764872 1.215277 0.078681 -0.028856 -330492.000000 0 0 1
34.539086 31.722213 18.275220 50.331213 0.742912 1.199204 0.045427 -0.030101 403236.000000 0 0 1
35.401536 30.740913 17.646020 50.096452 0.715051 1.210832 0.058432 -0.030579 736951.000000 0 0 1
36.317886 29.993413 18.672320 50.668030 0.690310 1.193377 0.069664 -0.040971 81120.100000 0 0 1
37.374956 30.772813 19.177120 52.073173 0.688820 1.193646 0.079768 -0.038261 -131301.000000 0 0 1
-37.473950 29.945313 19.947920 51.951307 -0.674190 1.176701 0.107155 -0.037557 -202812.000000 0 0 1
-36.321310 30.799613 20.468020 51.834290 -0.703318 1.164865 0.128370 -0.037004 -403895.000000 0 0 1
-35.482319 31.338913 19.459120 51.183785 -0.723470 1.180804 0.131047 -0.040721 187333.000000 0 0 1
-34.453296 32.212513 19.944720 51.210033 -0.751799 1.170741 0.117096 -0.032328 249571.000000 0 0 1
-34.717349 33.543913 20.682220 52.518975 -0.768209 1.166029 0.088684 -0.021960 -469347.000000 0 0 1
-34.652593 33.249413 22.094420 52.862928 -0.764736 1.139601 0.094126 -0.020534 212913.000000 0 0 1
-34.407945 -33.200131 22.857930 52.996607 0.767535 1.124853 0.074942 -0.012153 73099.700000 0 0 1
-34.352529 -33.401731 24.429330 53.782563 0.771366 1.099295 0.084300 -0.017161 -599048.000000 0 0 1
-35.664087 -33.663431 24.801280 54.956867 0.756548 1.102590 0.078207 -0.015462 -751456.000000 0 0 1
-35.728623 33.604613 26.133430 55.576620 -0.754773 1.081252 0.081489 -0.015098 397818.000000 0 0 1
-37.130620 33.248613 26.691140 56.538219 -0.730296 1.079136 0.067482 -0.023124 456646.000000 0 0 1
-37.042200 32.656613 27.972110 56.754013 -0.722559 1.055416 0.091608 -0.032292 1187460.000000 0 0 1
37.299056 32.542913 28.460980 57.098933 0.717405 1.048986 0.107305 -0.033189 1207030.000000 0 0 1
37.352666 31.609913 29.665210 57.222661 0.702316 1.025797 0.107199 -0.026874 699.010000 0 0 1
37.377596 30.175613 29.486370 56.365755 0.679187 1.020282 0.096431 -0.022573 255549.000000 0 0 1
-37.335040 29.731913 28.579680 55.629938 -0.672514 1.031250 0.093036 -0.025381 -255693.000000 0 0 1
-37.572180 28.284013 28.164540 54.816927 -0.645285 1.031196 0.097974 -0.018128 -566844.000000 0 0 1
36.992726 28.160013 27.353030 53.941046 0.650650 1.038990 0.088401 -0.014811 -94800.900000 0 0 1
36.697956 26.979013 26.707140 52.800364 0.633938 1.040472 0.096226 -0.024427 -214864.000000 0 0 1
36.384026 25.769913 27.609840 52.442245 0.616258 1.016340 0.081562 -0.023959 -130015.000000 0 0 1
37.542606 25.299513 28.321130 53.400366 0.592985 1.011778 0.065893 -0.014620 548996.000000 0 0 1
37.572606 23.938513 28.667910 52.977375 0.567272 0.999010 0.065021 -0.010624 -317284.000000 0 0 1
-37.639930 23.092613 27.495090 52.019353 -0.550297 1.013899 0.078105 -0.021076 -408142.000000 0 0 1
37.227966 22.922013 26.346530 51.043901 0.551898 1.028441 0.071446 -0.013485 125169.000000 0 0 1
37.774526 22.113513 25.282350 50.548190 0.529621 1.047009 0.075174 -0.032163 -475711.000000 0 0 1
37.441596 20.602813 25.471670 49.750930 0.503047 1.033304 0.076330 -0.029182 -31503.400000 0 0 1
36.068366 20.269213 25.306300 48.499246 0.511984 1.021851 0.105707 -0.013532 626082.000000 0 0 1
35.717646 18.950213 25.758450 47.941199 0.487793 1.003573 0.099542 -0.006418 -324482.000000 0 0 1
35.781456 18.822413 27.315520 48.792761 0.484261 0.976619 0.092995 0.003271 401990.000000 0 0 1
34.622466 19.316713 28.039970 48.560174 0.508907 0.955222 0.087772 -0.010949 1021170.000000 0 0 1
34.291956 20.714013 28.088220 48.928077 0.543391 0.959326 0.095634 -0.024527 -817198.000000 0 0 1
33.115546 20.995413 29.029530 48.786888 0.565048 0.933497 0.100021 -0.019935 281428.000000 0 0 1
31.808546 20.831513 28.457760 47.492943 0.579814 0.928295 0.122013 -0.026714 825773.000000 0 0 1
31.312536 21.781313 27.529550 47.040160 0.607774 0.945626 0.121592 -0.014091 -391174.000000 0 0 1
31.104436 23.213813 28.087290 47.908903 0.641141 0.944356 0.128894 -0.012601 -124173.000000 0 0 1
32.359916 23.903013 28.065870 49.053148 0.636205 0.961669 0.107795 -0.023501 492279.000000 0 0 1
32.415816 25.088513 28.831000 50.114321 0.658659 0.957820 0.091535 -0.017846 58891.600000 0 0 1
32.579166 24.872013 30.355750 51.004810 0.652043 0.933338 0.098330 -0.024464 1108830.000000 0 0 1
33.992836 24.779913 30.667500 52.058165 0.629908 0.940851 0.070811 -0.003239 1455060.000000 0 0 1
34.458136 24.759613 32.085172 53.196427 0.623062 0.923358 0.088394 0.002552 415896.000000 0 0 1
34.099246 23.407513 32.823805 52.802201 0.601576 0.899965 0.096766 0.003491 -195360.000000 0 0 1
34.475096 23.508613 -33.323038 53.400487 0.598476 2.244675 0.109104 -0.012258 194799.000000 0 0 1
34.152516 22.337013 -32.611168 52.238155 0.579208 2.245004 0.093071 -0.018698 35912.800000 0 0 1
34.653866 22.285813 -31.136858 51.643507 0.571508 2.217951 0.101889 -0.029378 350322.000000 0 0 1
33.844686 23.162713 -30.284378 50.981542 0.600167 2.206851 0.082884 -0.035985 680308.000000 0 0 1
34.171616 23.147613 -28.843208 50.353173 0.595392 2.180736 0.102335 -0.051157 -605518.000000 0 0 1
35.511196 23.730713 -28.411248 51.297084 0.589105 2.157786 0.096758 -0.020958 -462436.000000 0 0 1
35.921366 23.172313 -27.224448 50.680087 0.572912 2.137889 0.093246 -0.026492 -17051.800000 0 0 1
36.975436 23.988613 -26.675328 51.519022 0.575511 2.115046 0.093599 -0.015566 286514.000000 0 0 1
37.648096 23.256513 -25.508638 51.077737 0.553357 2.093712 0.068943 -0.014230 119858.000000 0 0 1
-37.123810 22.246713 -25.990788 50.483805 -0.539873 2.111611 0.048735 -0.007194 722612.000000 0 0 1
-37.120900 21.103413 -25.107638 49.534925 -0.516939 2.102343 0.022523 -0.009308 -561461.000000 0 0 1
-36.169790 20.048913 -25.705078 48.692543 -0.506139 2.126929 0.030425 0.000215 -398794.000000 0 0 1
-34.864399 20.307913 -25.238358 47.591096 -0.527440 2.129771 0.036175 -0.000871 -964980.000000 0 0 1
-34.154188 19.178213 -25.597888 46.792781 -0.511644 2.149630 0.013664 0.002546 -217958.000000 0 0 1
-32.696700 19.365713 -25.097638 45.541152 -0.534726 2.154476 0.031358 -0.002537 -76269.900000 0 0 1
-32.791730 19.377813 -23.683138 44.851848 -0.533728 2.127076 0.036791 -0.000976 -428114.000000 0 0 1
-31.634850 19.751413 -23.020938 43.827453 -0.558136 2.123820 0.055813 -0.002183 -868734.000000 0 0 1
-31.956540 20.030513 -21.500138 43.413107 -0.559896 2.088914 0.048441 -0.007325 345381.000000 0 0 1
-32.577440 18.971013 -20.769138 43.041214 -0.527330 2.074350 0.024181 -0.003775 200045.000000 0 0 1
-32.874040 19.424213 -19.481038 42.866227 -0.533678 2.042564 0.021247 -0.001627 -548020.000000 0 0 1
-33.718550 18.372313 -18.703038 42.711663 -0.498898 2.024047 0.022348 0.001952 573766.000000 0 0 1
-34.488752 18.902913 -17.602138 43.088623 -0.501375 1.991617 0.020506 0.001550 722927.000000 0 0 1
-35.548227 19.826713 -17.881238 44.457999 -0.508767 1.984721 0.014034 0.001924 -404550.000000 0 0 1
-36.601330 19.675713 -16.775738 44.813128 -0.493249 1.954491 0.024763 -0.004538 -450983.000000 0 0 1
-36.133750 20.210413 -15.575938 44.234812 -0.509972 1.930631 0.026383 -0.000682 -52967.400000 0 0 1
-37.162160 20.116913 -14.626238 44.717370 -0.496161 1.904010 0.041339 -0.003252 -409652.000000 0 0 1
-36.968980 21.168713 -13.453238 44.674484 -0.520034 1.876683 0.033904 -0.000789 -86709.200000 0 0 1
-37.383090 22.519313 -13.746438 45.755650 -0.542177 1.875941 0.063169 -0.004836 -575879.000000 0 0 1
37.010026 22.847113 -13.459738 45.529080 0.553059 1.870911 0.061963 -0.004432 -778298.000000 0 0 1
36.526536 24.242413 -13.913838 45.994318 0.585941 1.878123 0.080844 -0.014061 -34798.000000 0 0 1
36.790186 25.357113 -13.064838 46.553099 0.603465 1.855261 0.084660 -0.008321 -107126.000000 0 0 1
36.497906 26.618113 -13.599838 47.176018 0.630124 1.863225 0.087843 -0.001782 190637.000000 0 0 1
37.670236 27.332513 -14.349338 48.703352 0.627684 1.869862 0.102821 0.001730 473490.000000 0 0 1
-37.613930 26.761013 -15.578138 48.719996 -0.618380 1.896260 0.098015 0.002312 -45944.900000 0 0 1
-36.467110 27.437413 -16.026738 48.368565 -0.645028 1.908526 0.109291 -0.006307 -472056.000000 0 0 1
-36.094390 27.270913 -17.530838 48.516368 -0.647040 1.940499 0.107477 -0.011944 -26275.500000 0 0 1
-35.490817 26.024513 -17.889738 47.507011 -0.632711 1.956888 0.100269 -0.013443 1239480.000000 0 0 1
-34.052772 26.091813 -17.799838 46.445756 -0.653799 1.964097 0.091896 -0.005317 863753.000000 0 0 1
-33.325260 24.846513 -18.331638 45.430949 -0.640664 1.986141 0.072196 -0.002564 -98145.200000 0 0 1
-33.562470 24.821913 -19.771138 46.189444 -0.636795 2.013124 0.067373 -0.004170 392889.000000 0 0 1
-32.633080 23.987613 -20.420138 45.357530 -0.633878 2.037790 0.053048 -0.002510 -56507.300000 0 0 1
-32.679590 24.118113 -21.948338 46.166747 -0.635788 2.066231 0.051254 -0.003568 -792044.000000 0 0 1
-33.770390 23.444313 -22.453338 46.842582 -0.606841 2.070694 0.066943 -0.003484 -421337.000000 0 0 1
-33.776080 23.282113 -23.835838 47.444995 -0.603514 2.097156 0.050894 -0.003130 -387926.000000 0 0 1
-34.719159 24.224413 -24.575738 48.951089 -0.609197 2.096760 0.048573 0.002184 -676852.000000 0 0 1
-34.171546 25.515213 -24.742338 49.304198 -0.641373 2.096510 0.051729 -0.000137 121284.000000 0 0 1
-34.943647 26.221413 -25.702498 50.687665 -0.643752 2.102585 0.076555 -0.007410 69983.100000 0 0 1
-34.236528 27.490513 -26.144168 51.101719 -0.676542 2.107854 0.078434 -0.014730 -62010.400000 0 0 1
-32.922630 27.345313 -26.607528 50.394705 -0.693119 2.127020 0.069290 -0.017579 -422621.000000 0 0 1
-32.463270 28.592513 -27.127458 51.061676 -0.722086 2.130893 0.077270 -0.024319 20110.900000 0 0 1
-31.074820 28.673413 -27.780848 50.592337 -0.745228 2.152097 0.083647 -0.025105 741480.000000 0 0 1
-30.009690 28.444713 -26.789808 49.268418 -0.758632 2.145698 0.072023 -0.025077 73740.700000 0 0 1
-28.768570 28.410613 -27.399948 48.842100 -0.779138 2.166378 0.095728 -0.028411 -343784.000000 0 0 1
-27.890970 29.725113 -27.278848 49.047162 -0.817221 2.160574 0.075858 -0.033831 -206318.000000 0 0 1
-27.308010 29.983713 -25.985968 48.166597 -0.832067 2.140642 0.057777 -0.030953 266589.000000 0 0 1
-28.124500 30.159013 -24.800938 48.121099 -0.820291 2.112254 0.069111 -0.022990 -8391.480000 0 0 1
-27.315560 30.465413 -23.519138 47.195668 -0.839858 2.092471 0.033923 -0.019112 251727.000000 0 0 1
-26.674750 31.730813 -23.560638 47.681133 -0.871751 2.087629 0.023251 -0.018760 206064.000000 0 0 1
-25.826440 31.961213 -22.435638 46.817540 -0.891163 2.070556 0.027765 0.000580 260402.000000 0 0 1
-25.523500 33.476513 -22.358238 47.665678 -0.919387 2.059027 0.023328 0.017668 -370567.000000 0 0 1
-26.683440 -33.473431 -22.097838 48.174589 0.897794 2.047332 0.004968 0.007750 -434386.000000 0 0 1
-26.393330 -32.101331 -22.151738 47.093554 0.882672 2.060515 0.014571 0.016699 -354374.000000 0 0 1
17.450200 8.284313 -25.144678 31.707951 0.443236 2.486528 0.060620 -0.008073 -576382.000000 0 0 1
16.149700 7.805213 -25.099238 30.849731 0.450202 2.521108 0.047659 -0.008861 -587559.000000 0 0 1
16.084000 6.444213 -25.468548 30.803732 0.381075 2.544192 0.047747 -0.010210 375503.000000 0 0 1
14.688900 5.754313 -25.305448 29.820154 0.373370 2.584134 0.054104 -0.022273 387011.000000 0 0 1
14.158100 5.899713 -23.980738 28.466370 0.394822 2.572562 0.077716 -0.038406 342142.000000 0 0 1
12.817000 5.446613 -24.114238 27.846680 0.401830 2.617872 0.084760 -0.031530 204381.000000 0 0 1
11.961100 5.697013 -22.825038 26.391405 0.444504 2.615680 0.097257 -0.035407 -64007.100000 0 0 1
12.272300 4.721013 -21.795538 25.454721 0.367238 2.598757 0.088075 -0.021123 148752.000000 0 0 1
11.833200 4.932113 -20.488438 24.168708 0.394907 2.582479 0.119580 -0.027747 -502334.000000 0 1 0
12.009000 6.365413 -19.859938 24.065571 0.487400 2.541428 0.115368 -0.033586 -327459.000000 0 1 0
11.602700 6.434013 -18.482738 22.751501 0.506312 2.519009 0.115309 -0.030729 117115.000000 0 1 0
11.732900 7.729313 -17.929838 22.778989 0.582518 2.476925 0.116517 -0.030264 325833.000000 0 1 0
13.179600 8.135013 -17.541238 23.400328 0.553002 2.418277 0.120586 -0.022092 210237.000000 0 1 0
13.541600 7.539513 -16.288238 22.483903 0.508024 2.381018 0.138364 -0.032211 3946.440000 0 1 0
14.888200 7.880913 -16.048938 23.266622 0.486843 2.331987 0.130945 -0.030465 -142101.000000 0 1 0
15.435300 7.622913 -14.614138 22.581637 0.458725 2.274662 0.122470 -0.036435 214458.000000 0 1 0
16.677300 8.232713 -14.307438 23.465138 0.458553 2.226518 0.103700 -0.039258 462264.000000 0 1 0
17.079300 8.101113 -12.958538 22.918426 0.442896 2.171739 0.082434 -0.041037 -230860.000000 0 1 0
17.906900 9.310313 -12.499238 23.739628 0.479463 2.125291 0.124936 -0.044058 -701265.000000 0 1 0
17.195600 10.441413 -12.184838 23.519822 0.545707 2.115386 0.166056 -0.050873 36131.900000 0 1 0
18.015700 11.449613 -11.672138 24.328952 0.566139 2.071181 0.217626 -0.072385 -575056.000000 0 1 0
17.158300 12.726213 -11.360638 24.195616 0.638164 2.059558 0.225151 -0.070097 -355806.000000 0 1 0
16.321900 12.568713 -10.175838 22.976611 0.656211 2.029603 0.254676 -0.058499 335156.000000 0 1 0
15.337300 13.513913 -10.013138 22.762284 0.722282 2.026284 0.131809 -0.049300 -410263.000000 0 1 0
14.252300 13.625413 -11.123238 22.638603 0.762915 2.084423 0.118908 -0.059269 -1163780.000000 0 1 0
13.304900 14.661413 -10.946938 22.623281 0.833865 2.075878 0.155582 -0.058836 -67712.800000 0 1 0
13.758800 15.959913 -11.252638 23.888183 0.859328 2.061282 0.196678 -0.054908 -234725.000000 0 1 0
13.172600 17.039413 -10.375838 23.906422 0.912695 2.019745 0.191093 -0.043651 45879.500000 0 1 0
13.633400 16.800613 -9.051038 23.453176 0.889093 1.967001 0.204983 -0.034357 308972.000000 0 1 0
12.975800 17.570713 -8.061038 23.282648 0.934702 1.924341 0.191174 -0.007660 -216488.000000 0 1 0
13.418900 17.166313 -6.613038 22.770188 0.907314 1.865468 0.177553 -0.011535 628145.000000 0 1 0
14.700100 17.718013 -6.303438 23.869526 0.878224 1.838045 0.239567 -0.014876 694389.000000 0 1 0
14.999400 17.551313 -4.931138 23.608192 0.863636 1.781220 0.222372 -0.019652 -121787.000000 0 1 0
16.113700 18.480613 -4.408738 24.912273 0.853711 1.748704 0.197686 -0.021997 771677.000000 0 1 0
17.458600 18.131713 -4.783338 25.621125 0.804309 1.758593 0.218623 -0.044609 960733.000000 0 0 1
18.118400 19.265713 -5.235538 26.960248 0.816078 1.766233 0.129732 -0.034597 -48875.400000 0 0 1
19.381100 19.060913 -6.132838 27.866775 0.777069 1.792690 0.130916 -0.014547 1088800.000000 0 0 1
20.557500 18.626413 -5.424338 28.266190 0.736155 1.763896 0.122788 -0.023249 775914.000000 0 0 1
20.731100 17.223213 -5.491038 27.505801 0.693236 1.771779 0.178107 -0.047248 -569942.000000 0 0 1
21.838300 16.708213 -4.605438 27.879845 0.653087 1.736746 0.158738 -0.047526 173356.000000 0 0 1
23.194100 16.958013 -4.962038 29.157543 0.631318 1.741809 0.102480 -0.046138 330601.000000 0 0 1
24.078900 16.235213 -4.160838 29.337487 0.593235 1.713103 0.103543 -0.051400 927175.000000 0 0 1
25.605500 16.576713 -4.419138 30.821386 0.574537 1.714671 0.101704 -0.045409 1080860.000000 0 0 1
25.959000 17.840913 -3.953738 31.745864 0.602133 1.695664 0.094137 -0.039819 -240200.000000 0 0 1
27.336200 17.887313 -3.698138 32.877044 0.579424 1.683519 0.077694 -0.030081 -427598.000000 0 0 1
27.814600 19.183713 -2.982838 33.919967 0.603779 1.658848 0.088961 -0.023209 -119944.000000 0 0 1
27.893900 20.282613 -3.880638 34.706100 0.628706 1.682845 0.078640 -0.027885 95463.800000 0 0 1
27.952500 21.534613 -3.212638 35.431665 0.656430 1.661592 0.100769 -0.022618 -192890.000000 0 0 1
27.910600 22.715913 -4.249338 36.236324 0.683148 1.688334 0.069659 -0.020673 186730.000000 0 0 1
29.133200 23.070213 -4.898638 37.482992 0.669775 1.701861 0.039746 -0.003100 441673.000000 0 0 1
29.532100 22.220113 -5.945838 37.433025 0.645039 1.730311 0.027449 -0.000519 305977.000000 0 0 1
30.606000 22.805113 -6.904538 38.787537 0.640370 1.749759 0.012610 0.006487 416041.000000 0 0 1
29.980700 23.834713 -7.654338 39.057967 0.671686 1.768047 -0.003511 0.010382 905640.000000 0 0 1
30.928400 24.732313 -8.261438 40.453734 0.674536 1.776463 0.009188 0.006463 -106367.000000 0 0 1
31.825300 24.354313 -9.450938 41.174051 0.653190 1.802398 0.019381 -0.003193 115403.000000 0 0 1
31.160200 24.175913 -10.692038 40.862605 0.659846 1.835536 0.018990 0.006948 116107.000000 0 0 1
31.926800 23.252413 -11.412238 41.112461 0.629470 1.852077 0.020686 -0.003693 -331276.000000 0 0 1
31.288900 22.750313 -12.663138 40.705369 0.628687 1.887139 0.041206 0.000054 -335836.000000 0 0 1
31.355800 23.597913 -13.834538 41.610601 0.645154 1.909724 0.057682 -0.010825 160105.000000 0 0 1
31.217600 22.739013 -14.964938 41.419206 0.629536 1.940463 0.075318 -0.017171 -165213.000000 0 0 1
31.594000 23.416413 -16.335338 42.583477 0.637824 1.964496 0.081441 -0.016233 -411204.000000 0 0 1
32.974000 23.657513 -16.415638 43.777115 0.622348 1.955174 0.077875 -0.009721 -425105.000000 0 0 1
33.293900 24.452713 -17.490138 44.858933 0.633475 1.971311 0.099389 -0.011594 492527.000000 0 0 1
34.770700 24.959913 -17.479338 46.233387 0.622601 1.958504 0.096054 -0.008212 344674.000000 0 0 1
35.709800 23.978213 -17.792238 46.547913 0.591324 1.963010 0.093893 -0.004035 -1881870.000000 0 0 1
36.967900 24.504413 -17.729638 47.764338 0.585360 1.951086 0.091319 -0.002124 -1453760.000000 0 0 1
-37.657107 23.425213 -17.773138 47.777429 -0.556487 1.951958 0.068203 -0.012743 -232410.000000 0 0 1
-37.729607 22.610213 -18.895938 47.872763 -0.539882 1.976550 0.056652 -0.006957 240528.000000 0 0 1
-36.626307 22.877613 -19.751338 47.486702 -0.558328 1.999766 0.072493 0.004266 170918.000000 0 0 1
-36.702407 21.983113 -21.002738 47.659615 -0.539651 2.027155 0.059244 -0.000829 17745.400000 0 0 1
-36.295307 20.672413 -20.819038 46.670444 -0.517738 2.033184 0.044795 -0.000071 43176.100000 0 0 1
-36.141707 20.083913 -22.055738 46.861947 -0.507208 2.060828 0.028505 0.004955 -26208.200000 0 0 1
-36.044507 18.538313 -21.990638 46.113595 -0.475036 2.067898 0.022421 -0.000883 339745.000000 0 0 1
-37.295307 17.874913 -21.862238 46.780443 -0.446935 2.057073 0.021866 -0.004504 225519.000000 0 0 1
-37.142407 16.478313 -21.801138 46.112719 -0.417563 2.063238 0.020433 -0.007992 37284.200000 0 0 1
37.296200 15.668313 -21.410438 45.770180 0.397717 2.057575 0.024540 -0.006998 380166.000000 0 0 1
36.556300 15.472513 -22.636638 45.696598 0.400389 2.089055 0.054655 0.003715 1015090.000000 0 0 1
35.375400 14.643813 -22.555338 44.436510 0.392478 2.103177 0.076451 0.002101 606168.000000 0 0 1
35.598300 13.349713 -23.321038 44.601845 0.358779 2.121013 0.050406 -0.001244 -131652.000000 0 0 1
35.713500 13.599113 -24.704238 45.504828 0.363832 2.144674 0.064267 -0.005155 192860.000000 0 0 1
36.245500 12.496113 -25.386068 45.981970 0.332002 2.155662 0.051932 0.000998 -160273.000000 0 0 1
36.266800 12.746013 -26.871628 46.902303 0.337967 2.180870 0.059247 -0.012522 -80758.000000 0 0 1
35.065600 12.353213 -27.505348 46.246539 0.338712 2.207757 0.061691 -0.012163 340447.000000 0 0 1
34.400300 13.402913 -28.198998 46.456455 0.371523 2.223075 0.070082 -0.012123 -127054.000000 0 0 1
34.957700 13.580813 -29.628858 47.794859 0.370547 2.239434 0.085163 -0.035722 -331265.000000 0 0 1
36.349600 13.757513 -29.704868 48.917704 0.361816 2.223381 0.082879 -0.025113 -498815.000000 0 0 1
36.760300 13.664113 -31.004788 49.993245 0.355882 2.239768 0.100392 -0.033229 275459.000000 0 0 1
-37.422407 13.992813 -31.175148 50.676673 -0.357819 2.233407 0.093999 -0.031006 488404.000000 0 0 1
-36.459307 13.095713 -30.760768 49.467197 -0.344836 2.241889 0.097408 -0.025942 -294445.000000 0 0 1
-36.329107 12.951113 -29.377898 48.482948 -0.342448 2.221747 0.073506 -0.023465 -906923.000000 0 0 1
-35.210507 11.975013 -28.987538 47.153559 -0.327826 2.232862 0.069629 -0.024447 -195217.000000 0 0 1
-35.427407 10.690613 -29.474798 47.309133 -0.293072 2.243401 0.074700 -0.028098 613834.000000 0 0 1
-34.483107 9.717713 -28.987098 46.084384 -0.274687 2.251063 0.077832 -0.030257 298636.000000 0 0 1
-34.715207 8.322513 -29.618398 46.385982 -0.235296 2.263371 0.087499 -0.026623 -589863.000000 0 0 1
-34.647107 8.345113 -31.018938 47.246560 -0.236358 2.287010 0.094481 -0.032286 286060.000000 0 0 1
-35.046007 7.104013 -31.698008 47.785493 -0.199996 2.296069 0.101144 -0.031161 50227.600000 0 0 1
-36.494507 6.580513 -31.497258 48.654182 -0.178398 2.274925 0.122072 -0.020473 -138660.000000 0 0 1
-36.685307 6.044413 -30.202178 47.901130 -0.163297 2.253007 0.119108 -0.025553 763463.000000 0 0 1
37.673800 5.585213 -30.079588 48.531345 0.147180 2.239280 0.104083 -0.009296 541024.000000 0 0 1
37.544500 4.998013 -28.602608 47.462394 0.132344 2.217598 0.101589 -0.020061 107849.000000 0 0 1
-37.285807 3.899013 -28.395038 47.028841 -0.104192 2.219030 0.109386 -0.019483 453565.000000 0 0 1
-37.562007 3.194213 -27.171528 46.469337 -0.084834 2.195331 0.110854 -0.014636 -304989.000000 0 0 1
-36.838307 1.892613 -27.066908 45.752162 -0.051331 2.203836 0.147271 -0.021977 207946.000000 0 0 1
-35.424107 1.914513 -26.940338 44.545645 -0.053993 2.220287 0.145526 -0.020491 767156.000000 0 0 1
-34.809607 0.623513 -26.717798 43.885513 -0.017910 2.225352 0.162116 -0.021900 1290830.000000 0 0 1
-33.451907 0.570413 -25.908398 42.315488 -0.017050 2.229722 0.150833 -0.023745 659969.000000 0 0 1
-33.655107 0.670913 -24.505338 41.636858 -0.019932 2.200059 0.146624 -0.017642 -461590.000000 0 0 1
-32.531607 0.677713 -23.692338 40.250362 -0.020829 2.200152 0.166820 -0.015106 -704783.000000 0 0 1
-32.773507 0.494513 -22.164938 39.568065 -0.015088 2.165390 0.152551 -0.007528 -476554.000000 0 0 1
-33.025307 -0.888387 -21.868038 39.619076 0.026894 2.155506 0.166648 -0.016169 258847.000000 0 0 1
-33.510907 -1.187087 -20.565038 39.335872 0.035409 2.120936 0.170092 -0.016054 -676303.000000 0 0 1
-35.009307 -0.975387 -20.446338 40.554355 0.027854 2.099218 0.166594 -0.020145 -1285190.000000 0 0 1
-35.788307 -2.147787 -20.675538 41.387121 0.059942 2.093892 0.165641 -0.027279 -227755.000000 0 0 1
-37.098107 -1.744987 -20.375638 42.361316 0.047002 2.072587 0.156340 -0.034543 -236260.000000 0 0 1
37.538300 -2.836787 -20.171238 42.708900 -0.075427 2.062690 0.155115 -0.043494 117209.000000 0 0 1
37.126100 -3.667687 -21.283738 42.951097 -0.098470 2.089246 0.135721 -0.036389 -78270.900000 0 0 1
-37.711507 -4.671787 -21.592938 43.706273 0.123254 2.087534 0.118641 -0.028088 -464146.000000 0 0 1
37.229400 -5.538487 -22.599938 43.902850 -0.147683 2.111537 0.103560 -0.032609 -392763.000000 0 0 1
36.142100 -6.251287 -22.089738 42.816895 -0.171270 2.112868 0.117105 -0.026583 -67289.000000 0 0 1
35.630700 -7.085887 -23.131638 43.067729 -0.196309 2.137791 0.115887 -0.022410 -38895.900000 0 0 1
34.368800 -6.551687 -23.855038 42.346214 -0.188369 2.169211 0.087364 -0.018387 -561323.000000 0 0 1
34.526400 -5.467187 -24.694238 42.799157 -0.157044 2.185822 0.082938 -0.016638 1484360.000000 0 0 1
33.191800 -5.045287 -25.122358 41.931890 -0.150849 2.213202 0.046636 -0.012159 1438360.000000 0 0 1
33.142300 -3.896587 -26.182598 42.416080 -0.117034 2.236077 0.071387 -0.038805 -130522.000000 0 0 1
33.451200 -4.224487 -27.507998 43.514584 -0.125623 2.255129 0.075250 -0.040466 306002.000000 0 0 1
33.347000 -3.093487 -28.350298 43.878599 -0.092502 2.273270 0.073626 -0.041999 -232403.000000 0 0 1
32.957600 -3.575187 -29.756318 44.546872 -0.108056 2.302284 0.087162 -0.039337 144207.000000 0 0 1
32.469600 -2.523887 -30.586698 44.678754 -0.077575 2.324840 0.093876 -0.053274 -201021.000000 0 0 1
31.674500 -2.981287 -31.617078 44.853112 -0.093846 2.353082 0.099753 -0.053412 -877688.000000 0 0 1
31.206300 -1.879987 -32.607428 45.173132 -0.060171 2.377243 0.104939 -0.051122 -180.888000 0 0 1
30.221700 -0.892987 -32.172868 44.150221 -0.029539 2.387238 0.098824 -0.050596 1739750.000000 0 0 1
28.956500 -1.369587 -31.643348 42.914521 -0.047263 2.399947 0.096407 -0.061557 742279.000000 0 0 1
27.997600 -1.891187 -32.727818 43.110930 -0.067446 2.432808 0.098812 -0.052121 -1000050.000000 0 0 1
28.480900 -3.033187 -33.352308 43.962920 -0.106099 2.432029 0.108797 -0.046091 -363241.000000 0 0 1
27.810200 -3.261887 32.883646 43.190060 -0.116758 0.705372 0.099179 -0.041198 -333859.000000 0 0 1
28.251100 -4.535487 32.113321 43.011169 -0.159184 0.727818 0.086722 -0.036565 1306280.000000 0 0 1
29.674300 -4.687087 31.825929 43.765542 -0.156657 0.756575 0.089883 -0.023668 1498150.000000 0 0 1
30.196200 -4.096787 30.616450 43.196773 -0.134849 0.783047 0.105869 -0.035687 61115.400000 0 0 1
30.672600 -2.642287 30.766410 43.524270 -0.085933 0.785720 0.081228 -0.031727 -382744.000000 0 0 1
31.921400 -2.522587 31.417489 44.859758 -0.078861 0.794910 0.084520 -0.030878 83936.300000 0 0 1
32.343900 -1.160887 31.334620 45.048129 -0.035877 0.801568 0.084951 -0.027171 -425254.000000 0 0 1
33.816900 -1.004687 31.713394 46.371667 -0.029701 0.817707 0.086299 -0.029946 -24811.400000 0 0 1
34.758800 -1.515887 30.781290 46.453847 -0.043584 0.846484 0.093134 -0.022031 25295.600000 0 0 1
36.095800 -1.393787 31.198300 47.730319 -0.038594 0.858416 0.090884 -0.020488 537122.000000 0 0 1
37.150400 -2.032787 30.212300 47.927732 -0.054663 0.888764 0.099250 -0.016542 380830.000000 0 0 1
37.419500 -1.249887 29.054550 47.391435 -0.033390 0.910848 0.104883 -0.009583 121433.000000 0 0 1
-37.261307 -1.769587 28.238460 46.786184 0.047456 0.922833 0.098486 -0.007282 239058.000000 0 0 1
-36.872607 -1.020187 26.921870 45.666366 0.027661 0.940315 0.107394 -0.005582 141229.000000 0 0 1
37.813900 -1.033487 25.950220 45.873446 -0.027324 0.969525 0.103294 -0.017073 75789.800000 0 0 1
-37.381007 -0.570387 24.714510 44.815980 0.015258 0.986675 0.113034 -0.021667 -106796.000000 0 0 1
-27.771150 15.014913 11.661562 33.655259 -0.495649 1.216958 0.122677 -0.015938 92558.400000 0 0 1
-28.890150 14.227213 12.046262 34.382653 -0.457597 1.212842 0.085892 0.003810 721726.000000 0 0 1
-29.865420 15.110313 12.623262 35.771660 -0.468394 1.210144 0.106309 -0.007413 684265.000000 0 0 1
-31.164750 14.436413 13.176062 36.786686 -0.433800 1.204484 0.118893 -0.008023 422179.000000 0 0 1
-32.028620 15.403513 13.714162 38.094343 -0.448275 1.202523 0.111873 -0.015029 -711507.000000 0 0 1
-33.190280 14.769013 14.187462 39.000032 -0.418672 1.198473 0.127512 -0.026543 21470.800000 0 0 1
-34.185866 15.726313 14.872462 40.462087 -0.431158 1.194407 0.121473 -0.023288 117925.000000 0 0 1
-33.659580 16.156813 16.103762 40.661297 -0.447525 1.163589 0.108324 -0.012532 454621.000000 0 0 1
-34.724880 16.258513 17.037362 41.957458 -0.437893 1.152655 0.111660 -0.028268 357721.000000 0 0 1
-34.189383 16.645713 18.459662 42.269999 -0.453087 1.118860 0.136498 -0.013963 313970.000000 0 0 1
-33.555350 15.462713 18.981262 41.537276 -0.431809 1.096211 0.124977 -0.020532 879323.000000 0 0 1
-32.318410 15.654813 19.695862 40.957048 -0.451084 1.069126 0.121801 -0.017868 966574.000000 0 0 1
-32.562980 15.955113 21.172462 41.990314 -0.455597 1.042315 0.128369 -0.035288 -114603.000000 0 0 1
-33.266760 17.192713 21.347562 43.104351 -0.477008 1.052670 0.125789 -0.029128 296616.000000 0 0 1
-33.530570 17.558213 22.656162 44.112262 -0.482386 1.031418 0.115027 -0.040354 -1210550.000000 0 0 1
-34.402370 16.696713 23.587562 44.929683 -0.451848 1.018095 0.103570 -0.044051 -353471.000000 0 0 1
-35.728261 16.377613 23.287962 45.684396 -0.429812 1.035893 0.128291 -0.032398 -422142.000000 0 0 1
-36.607700 17.432313 23.027862 46.629301 -0.444421 1.054285 0.115718 -0.035974 -1313770.000000 0 0 1
37.692396 16.822713 22.896162 47.201214 0.419786 1.064347 0.075365 -0.042129 -53307.800000 0 0 1
37.174206 16.416713 24.201062 47.298218 0.415860 1.033669 0.084992 -0.036491 -126932.000000 0 0 1
36.288726 15.323113 24.054262 46.154923 0.399544 1.022583 0.106259 -0.035239 175605.000000 0 0 1
35.871566 14.787013 25.450562 46.402113 0.390997 0.990253 0.112225 -0.028048 -727953.000000 0 0 1
34.843986 15.564613 26.022862 46.190366 0.420102 0.972322 0.091276 -0.023556 135281.000000 0 0 1
34.339036 15.006213 27.259562 46.340474 0.411992 0.941909 0.096787 -0.016817 -85285.200000 0 0 1
33.400736 13.816513 27.201862 45.237667 0.392226 0.925657 0.100500 -0.018285 -565331.000000 0 0 1
34.066666 12.674313 26.713562 45.108650 0.356177 0.937004 0.089985 -0.020949 74027.500000 0 0 1
33.256356 11.521813 26.871762 44.281249 0.333513 0.918714 0.096829 -0.019330 -161094.000000 0 0 1
33.966966 10.285313 26.364262 44.211048 0.294027 0.931878 0.100310 -0.027021 -399722.000000 0 0 1
34.924866 9.872913 27.322462 45.428379 0.275501 0.925494 0.092797 -0.021540 -281209.000000 0 0 1
35.483726 8.636313 26.966562 45.396874 0.238746 0.934752 0.109354 -0.017919 67863.600000 0 0 1
36.530306 8.137113 28.010462 46.746784 0.219172 0.928300 0.115455 -0.024473 635330.000000 0 0 1
37.756636 8.867913 28.036362 47.856463 0.230689 0.944877 0.113827 -0.027085 -115709.000000 0 0 1
-36.907850 7.986713 28.296662 47.187690 -0.213110 0.927718 0.116721 -0.028980 747076.000000 0 0 1
-35.471149 8.580813 28.601862 46.367006 -0.237350 0.906052 0.130292 -0.030426 1378730.000000 0 0 1
-34.844386 9.150513 27.414462 45.270474 -0.256812 0.920314 0.116754 -0.031736 282773.000000 0 0 1
-33.601090 9.704213 27.825262 44.692843 -0.281156 0.898750 0.112575 -0.023331 259366.000000 0 0 1
-32.740160 10.323813 26.723562 43.504574 -0.305457 0.909336 0.115232 -0.032233 -144209.000000 0 0 1
-32.253770 9.440213 25.751462 42.338648 -0.284733 0.916973 0.107183 -0.025146 230730.000000 0 0 1
-31.437180 10.180513 24.845662 41.343029 -0.313179 0.926090 0.113962 -0.021883 373795.000000 0 0 1
-30.872790 9.363513 23.632662 39.991340 -0.294476 0.938567 0.118490 -0.022181 1338460.000000 0 0 1
-29.652460 9.941513 23.082862 38.870562 -0.323491 0.934974 0.120105 -0.033178 789794.000000 0 0 1
-29.113700 9.003913 22.214162 37.711364 -0.299937 0.940904 0.107222 -0.011950 73011.100000 0 0 1
-27.832960 9.558013 21.521462 36.458231 -0.330789 0.939360 0.093180 -0.013369 -858219.000000 0 0 1
-26.742370 9.723713 22.414362 36.223039 -0.348745 0.903598 0.093973 -0.018774 561359.000000 0 0 1
-25.534250 10.283713 21.929362 35.194454 -0.382868 0.898107 0.079791 -0.001683 264548.000000 0 0 1
-24.842400 9.565813 20.812262 33.790529 -0.367561 0.907243 0.071231 0.000340 -1703990.000000 0 0 1
-25.517720 9.589713 19.579962 33.563247 -0.359477 0.947918 0.071315 -0.004712 15070.500000 0 0 1
-24.894500 8.813413 18.570262 32.284160 -0.340261 0.957932 0.081366 -0.018557 -110690.000000 0 0 1
-24.883200 7.250413 18.624862 31.915946 -0.283528 0.947691 0.083726 -0.012369 -5153.380000 0 0 1
-23.793000 6.845113 19.456362 31.488291 -0.280129 0.904738 0.099221 -0.010460 664307.000000 0 0 1
-23.802900 5.481213 19.858962 31.480154 -0.226330 0.888160 0.117998 -0.019043 -256388.000000 0 0 1
-23.634300 4.358013 18.835162 30.534173 -0.182345 0.906056 0.112209 -0.028390 -741029.000000 0 0 1
-24.836500 4.259713 18.137662 31.047893 -0.169858 0.946923 0.133437 -0.033439 42687.900000 0 0 1
-24.843800 3.351613 17.010362 30.295216 -0.134098 0.974615 0.133947 -0.030575 -157062.000000 0 0 1
-24.860200 1.823113 17.260262 30.319465 -0.073204 0.965167 0.132046 -0.022451 -126008.000000 0 0 1
-23.590300 1.271113 17.546062 29.427577 -0.053831 0.931980 0.113013 -0.022681 373993.000000 0 0 1
-23.714900 -0.033687 18.091262 29.827695 0.001420 0.919113 0.127844 -0.027722 -343313.000000 0 0 1
-22.447900 -0.913687 18.213662 28.921973 0.040680 0.889563 0.130523 -0.021440 -184998.000000 0 0 1
-21.526200 -0.366487 19.143962 28.809771 0.017024 0.843978 0.119558 -0.019251 282276.000000 0 0 1
-20.498700 -1.328287 19.377962 28.239449 0.064708 0.814542 0.122779 -0.022202 799136.000000 0 0 1
-19.399900 -0.820887 20.383462 28.151652 0.042289 0.761127 0.123504 -0.019380 589787.000000 0 0 1
-19.917800 -0.796087 21.665762 29.440750 0.039947 0.743786 0.126068 -0.025269 233815.000000 0 0 1
-18.856500 -0.707187 22.622162 29.458953 0.037486 0.695207 0.126031 -0.026970 238160.000000 0 0 1
-19.339700 -0.777687 24.099762 30.909987 0.040190 0.676649 0.124721 -0.023515 372355.000000 0 0 1
-20.150800 0.258113 24.644162 31.834825 -0.012808 0.685463 0.120698 -0.031903 6346.490000 0 0 1
-21.522200 0.123213 24.339262 32.490305 -0.005725 0.724058 0.144618 -0.034450 -148017.000000 0 0 1
-22.390700 1.170213 25.117862 33.669271 -0.052216 0.728735 0.119060 -0.037661 -82280.300000 0 0 1
-22.162700 2.530013 24.648262 33.243391 -0.113664 0.735570 0.111863 -0.038796 -279946.000000 0 0 1
-23.303300 3.156313 24.177062 33.727384 -0.134626 0.771540 0.107935 -0.036401 -834767.000000 0 0 1
-22.781700 4.362613 23.286162 32.867668 -0.189206 0.783451 0.114913 -0.032600 373153.000000 0 0 1
-22.172000 4.051113 22.042962 31.526200 -0.180720 0.796525 0.131100 -0.034975 -495545.000000 0 0 1
-20.914600 3.492413 22.149062 30.662655 -0.165458 0.763607 0.114514 -0.027020 -1557590.000000 0 0 1
-20.430700 2.747113 20.907662 29.361377 -0.133658 0.778339 0.109045 -0.023999 -123429.000000 0 0 1
-19.881100 3.586913 19.901662 28.358424 -0.178498 0.792889 0.100793 -0.022276 199582.000000 0 0 1
-19.496600 2.813413 18.822662 27.245648 -0.143313 0.808132 0.109479 -0.023140 34862.400000 0 0 1
-18.953400 3.650513 17.620262 26.134867 -0.190275 0.830908 0.093143 -0.016681 -230311.000000 0 0 1
-17.565200 3.863513 17.628362 25.183767 -0.216505 0.795414 0.092881 -0.031443 -31592.300000 0 0 1
-17.130600 4.566613 16.455362 24.188641 -0.260518 0.822634 0.095276 -0.027998 539206.000000 0 1 0
-15.605700 4.871913 16.263262 23.060076 -0.302601 0.788012 0.083867 -0.023173 476254.000000 0 1 0
-15.048500 5.763413 17.207162 23.574578 -0.365756 0.752616 0.080071 -0.027788 88044.500000 0 1 0
-15.508000 7.155013 17.214962 24.249684 -0.432274 0.781434 0.081418 -0.037998 -705597.000000 0 1 0
-15.104300 8.173513 16.084362 23.529830 -0.496014 0.818149 0.037535 -0.024454 -52942.000000 0 1 0
-15.722500 7.965713 14.844862 23.043861 -0.468949 0.870819 0.073105 -0.026861 -892262.000000 0 1 0
-17.089100 8.127913 14.757762 23.997747 -0.443954 0.908455 0.071960 -0.012146 -822676.000000 0 1 0
-17.683500 7.557513 13.409462 23.444314 -0.403882 0.961890 0.079716 -0.018589 96511.100000 0 1 0
-17.463900 6.116813 13.317362 22.798143 -0.336902 0.946973 0.074640 -0.023371 697940.000000 0 1 0
-18.248000 5.476313 12.292962 22.673695 -0.291553 0.997781 0.084422 -0.027146 390194.000000 0 1 0
-17.744600 4.036913 12.115762 21.862278 -0.223694 0.983412 0.076244 -0.029505 157569.000000 0 1 0
-17.969900 3.319713 13.305762 22.604891 -0.182678 0.941442 0.081506 -0.023743 354404.000000 0 1 0
-17.558000 1.974113 13.121662 22.008146 -0.111964 0.932014 0.065660 -0.029233 -418285.000000 0 1 0
-18.328000 1.054313 14.088562 23.141191 -0.057461 0.916238 0.070943 -0.035194 493106.000000 0 1 0
-19.721100 0.941613 13.800962 24.088897 -0.047710 0.960735 0.095264 -0.029401 561233.000000 0 1 0
-20.405000 0.317113 14.868162 25.249294 -0.015540 0.941155 0.115093 -0.031064 1566350.000000 0 0 1
-21.945500 0.154013 14.432962 26.266692 -0.007018 0.989057 0.124723 -0.033243 1403290.000000 0 0 1
-22.254000 -0.812287 13.478162 26.030005 0.036485 1.026527 0.143510 -0.038681 -1374020.000000 0 0 1
-23.587000 -0.975187 13.263462 27.077980 0.041321 1.058908 0.176737 -0.039756 -1610930.000000 0 0 1
-23.930300 -1.961787 12.189362 26.927466 0.081796 1.101034 0.186386 -0.048889 -275753.000000 0 0 1
-23.707400 -3.299487 12.539262 27.021483 0.138287 1.088237 0.162471 -0.038572 235226.000000 0 0 1
-24.158200 -4.137687 11.459662 27.056662 0.169629 1.133443 0.188067 -0.043624 22498.500000 0 0 1
-24.228000 -5.640287 11.856062 27.556760 0.228726 1.126036 0.165704 -0.042431 -31881.400000 0 0 1
-25.090700 -5.839887 12.947062 28.831821 0.228680 1.105089 0.135274 -0.034886 75258.800000 0 0 1
-25.264060 -7.241087 13.080162 29.356374 0.279133 1.108991 0.143823 -0.040816 -241054.000000 0 0 1
-26.253300 -7.829687 14.094962 30.809215 0.289838 1.095624 0.139115 -0.027937 850763.000000 0 0 1
-27.595130 -7.334287 13.872762 31.744866 0.259776 1.118527 0.134446 -0.031329 1092900.000000 0 0 1
-28.441280 -7.626487 14.982762 33.038657 0.261985 1.100117 0.130107 -0.016719 -644655.000000 0 0 1
-29.876480 -7.115987 14.799962 34.092231 0.233824 1.121740 0.135462 -0.029983 -249294.000000 0 0 1
-30.701070 -7.786187 13.835162 34.562872 0.248376 1.158963 0.121462 -0.027013 357447.000000 0 0 1
-31.003110 -9.183387 13.982962 35.228549 0.287975 1.162636 0.122837 -0.032364 -446487.000000 0 0 1
-31.641380 -9.691687 15.297362 36.457030 0.297225 1.137792 0.118756 -0.028311 -105712.000000 0 0 1
-30.629220 -9.774187 16.299062 36.046404 0.308898 1.101601 0.121992 -0.015145 396130.000000 0 0 1
-31.056370 -10.295487 17.535162 37.121114 0.320108 1.078811 0.121248 -0.008654 -600696.000000 0 0 1
-29.879920 -10.442487 18.460962 36.642356 0.336213 1.042787 0.150648 -0.015776 -645316.000000 0 0 1
-28.976570 -11.414287 18.086462 36.014548 0.375249 1.044657 0.146835 -0.011443 -380636.000000 0 0 1
-27.729320 -11.320587 18.744262 35.332962 0.387601 1.011602 0.140042 -0.019520 810693.000000 0 0 1
-26.634710 -12.357487 18.252562 34.572696 0.434404 1.014615 0.124163 -0.008750 326756.000000 0 0 1
-26.009190 -12.001587 17.084162 33.352431 0.432324 1.033015 0.109406 -0.003591 505196.000000 0 0 1
-25.020530 -12.990087 16.676362 32.754699 0.478871 1.036624 0.099850 -0.006578 541151.000000 0 0 1
-24.683600 -12.647587 15.203262 31.628796 0.473509 1.069369 0.088950 -0.003857 427311.000000 0 0 1
-23.591400 -11.721487 14.984662 30.306559 0.461128 1.053610 0.102291 -0.010257 637554.000000 0 0 1
-23.210700 -11.613387 13.616062 29.308778 0.463925 1.087644 0.094274 -0.005281 -49745.100000 0 0 1
-21.841900 -11.027387 13.266162 27.832767 0.467538 1.073970 0.126257 -0.027190 -553297.000000 0 0 1
-21.661200 -9.614887 13.475262 27.262361 0.417750 1.053789 0.147562 -0.039097 448292.000000 0 0 1
-20.337200 -9.103987 13.355862 25.978132 0.420900 1.030816 0.158214 -0.045327 -128080.000000 0 0 1
-19.612600 -9.061587 12.022762 24.724750 0.432812 1.062987 0.150761 -0.033417 -480473.000000 0 1 0
-18.991800 -10.232987 11.496462 24.445268 0.494212 1.081172 0.132364 -0.039474 283808.000000 0 1 0
-18.647200 -10.051687 10.188762 23.506709 0.494394 1.122489 0.138170 -0.033156 -187328.000000 0 1 0
-17.894500 -11.380687 9.765762 23.347447 0.566462 1.139246 0.089020 -0.020147 990945.000000 0 1 0
-16.491500 -11.485487 10.024762 22.458447 0.608339 1.108092 0.103633 -0.025892 854529.000000 0 1 0
-16.042700 -11.668687 11.347462 22.853695 0.628848 1.051204 0.117385 -0.021157 -709722.000000 0 1 0
-14.563700 -12.031487 11.361962 22.044324 0.690471 1.029305 0.103733 -0.018216 -442770.000000 0 1 0
-14.304500 -13.347287 10.899562 22.395742 0.750795 1.062511 0.103779 -0.024755 542299.000000 0 1 0
-12.916500 -13.682487 10.868462 21.729470 0.814188 1.047000 0.094340 -0.023904 607689.000000 0 1 0
-12.560500 -15.186887 10.663462 22.407970 0.879770 1.074834 0.097143 -0.024072 -29648.500000 0 1 0
-12.763100 -15.840587 9.445262 22.428417 0.892576 1.136106 0.085521 -0.022717 -2063.510000 0 1 0
-12.476200 -17.205987 9.614162 23.326673 0.943417 1.145980 0.091630 -0.027616 -23755.400000 0 1 0
-12.945500 -18.037987 8.423262 23.746711 0.948303 1.208189 0.103438 -0.024565 257087.000000 0 1 0
-12.157100 -17.846187 7.221462 22.769079 0.972789 1.248062 0.079039 -0.024917 -18520.300000 0 1 0
-12.502700 -18.653287 6.137262 23.279360 0.980305 1.304007 0.059240 -0.028474 -536771.000000 0 1 0
-11.644100 -18.515287 4.870862 22.408173 1.009404 1.351677 0.054740 -0.019541 -559101.000000 0 1 0
-12.009900 -19.308787 3.770762 23.049633 1.014363 1.406465 0.074166 -0.028929 88980.700000 0 1 0
-11.123700 -19.170387 2.670062 22.324195 1.045022 1.450905 0.081009 -0.034709 -72441.300000 0 1 0
-11.547500 -19.988187 1.472562 23.130949 1.046923 1.507091 0.106198 -0.037032 36272.100000 0 1 0
-11.154000 -21.360787 1.538462 24.146673 1.089569 1.507040 0.082085 -0.041858 -448996.000000 0 1 0
-11.832800 -22.133087 0.565862 25.103962 1.079837 1.548254 0.115130 -0.042836 -426425.000000 0 0 1
-11.187100 -22.407887 -0.746638 25.056378 1.107750 1.600599 0.138394 -0.035888 -401230.000000 0 0 1
-11.013900 -21.306987 -1.659238 24.042603 1.093708 1.639864 0.134115 -0.051273 158732.000000 0 1 0
-12.086500 -21.072087 -2.574438 24.428346 1.050031 1.676380 0.140657 -0.045679 378732.000000 0 1 0
-13.151700 -20.062187 -2.128038 24.082921 0.990532 1.659275 0.145378 -0.047121 -128035.000000 0 1 0
-13.880600 -20.298887 -0.969238 24.610065 0.971018 1.610190 0.131587 -0.043324 1037250.000000 0 1 0
-14.967900 -19.303987 -0.827838 24.441098 0.911250 1.604674 0.143753 -0.034720 1382340.000000 0 1 0
26.830600 -19.423987 -4.162838 33.384151 -0.626619 1.695817 0.115978 -0.031939 -557609.000000 0 0 1
25.721100 -19.475787 -3.333438 32.434442 -0.648088 1.673753 0.104164 -0.028770 -261318.000000 0 0 1
25.776700 -20.687987 -2.572338 33.151892 -0.676315 1.648467 0.091544 -0.030301 -854233.000000 0 0 1
24.501200 -20.945587 -1.798238 32.284053 -0.707320 1.626526 0.071587 -0.023206 -801571.000000 0 0 1
23.533900 -21.498687 -2.654638 31.985701 -0.740235 1.653886 0.079991 -0.025974 -369558.000000 0 0 1
22.246400 -21.374987 -2.071738 30.920615 -0.765424 1.637848 0.048399 -0.016984 216762.000000 0 0 1
21.251000 -22.298387 -2.838738 30.933501 -0.809444 1.662695 0.069805 -0.030577 -47811.300000 0 0 1
20.778700 -21.696287 -4.043738 30.312292 -0.806998 1.704598 0.088334 -0.035559 -923844.000000 0 0 1
19.924200 -22.604887 -4.602438 30.481750 -0.848347 1.722366 0.094911 -0.039633 -659255.000000 0 0 1
18.841100 -21.950087 -5.493138 29.444319 -0.861468 1.758456 0.082273 -0.020918 -133166.000000 0 0 1
17.739500 -21.295887 -4.909138 28.147900 -0.876254 1.746098 0.073983 -0.021311 76782.300000 0 0 1
18.064600 -20.174287 -4.095838 27.388091 -0.840514 1.720908 0.073568 -0.028674 -1263940.000000 0 0 1
16.988200 -19.616087 -3.195138 26.145720 -0.857067 1.693308 0.091687 -0.015559 -666225.000000 0 0 1
16.685300 -20.524187 -2.179238 26.540357 -0.888204 1.652999 0.102622 -0.025328 200311.000000 0 0 1
15.985500 -19.818987 -1.174538 25.489370 -0.892059 1.616892 0.116923 -0.021049 -251407.000000 0 0 1
15.722100 -20.520487 0.192662 25.851729 -0.917029 1.563344 0.114872 -0.025084 -322755.000000 0 0 1
14.874800 -21.630587 0.065162 26.251594 -0.968391 1.568314 0.134000 -0.035316 -226263.000000 0 0 1
14.389400 -22.011587 1.301962 26.329829 -0.991811 1.521328 0.126200 -0.023309 238013.000000 0 0 1
13.453300 -23.273787 1.352162 26.916329 -1.046677 1.520539 0.132865 -0.028939 106501.000000 0 0 1
13.999300 -24.506687 1.741662 28.277049 -1.051789 1.509165 0.111135 -0.029296 -255681.000000 0 0 1
13.166900 -25.596997 1.415162 28.819719 -1.095701 1.521673 0.080771 -0.026398 -319.678000 0 0 1
13.515300 -26.873117 2.194062 30.160266 -1.104807 1.497985 0.083767 -0.024037 112414.000000 0 0 1
12.886300 -26.858327 3.458562 29.989800 -1.123449 1.455215 0.103109 -0.030665 171237.000000 0 0 1
13.040500 -28.120187 4.006662 31.254646 -1.136574 1.442248 0.089569 -0.026133 -17845.800000 0 0 1
12.528100 -28.283737 5.437162 31.408371 -1.153826 1.396808 0.093571 -0.027704 -93602.700000 0 0 1
13.090100 -29.428007 6.046062 32.770614 -1.152260 1.385237 0.084010 -0.028537 -17715.500000 0 0 1
12.654000 -29.571147 7.359462 32.996032 -1.166457 1.345864 0.088246 -0.030810 -589398.000000 0 0 1
13.370700 -30.674197 8.106762 34.429661 -1.159735 1.333106 0.095552 -0.027873 -435001.000000 0 0 1
12.798600 -30.971507 9.333262 34.787184 -1.178930 1.299173 0.086363 -0.026842 13435.000000 0 0 1
11.924900 -32.094617 9.372362 35.498012 -1.215050 1.303603 0.082318 -0.026831 338402.000000 0 0 1
11.595800 -32.539427 10.809162 36.195509 -1.228466 1.267537 0.076163 -0.021772 557947.000000 0 0 1
12.797500 -33.048517 11.416562 37.233296 -1.201344 1.259154 0.065747 -0.027001 696502.000000 0 0 1
12.738500 -33.416797 12.746362 37.966056 -1.206601 1.228416 0.075871 -0.016375 298396.000000 0 0 1
11.740800 33.125396 13.195862 37.540232 1.230176 1.211610 0.067390 -0.013344 376110.000000 0 0 1
12.092500 31.912751 12.572962 36.369377 1.208590 1.217810 0.072698 -0.025243 243481.000000 0 0 1
11.072400 30.938548 12.689062 35.225049 1.227116 1.202284 0.051718 -0.016748 83041.800000 0 0 1
11.316400 29.831838 11.589262 33.945698 1.208226 1.222384 0.066679 -0.024011 -310180.000000 0 0 1
10.956700 30.165848 10.254562 33.692487 1.222397 1.261532 0.094875 -0.025391 25774.500000 0 0 1
11.661400 31.203348 9.559662 34.655797 1.213146 1.291327 0.054181 -0.018567 -184801.000000 0 0 1
10.995000 31.688688 8.235062 34.538083 1.236824 1.330043 0.058211 -0.014038 175367.000000 0 0 1
9.823300 32.433164 8.501562 34.938287 1.276701 1.324998 0.054726 -0.014190 113455.000000 0 0 1
9.039300 32.815588 7.367762 34.826077 1.302005 1.357627 0.050253 -0.023928 -63470.600000 0 0 1
9.489400 -33.699737 6.447762 35.599081 -1.296317 1.388670 0.060711 -0.011919 -421238.000000 0 0 1
9.026600 -32.439817 6.840462 34.360051 -1.299405 1.370375 0.065273 -0.008444 -127126.000000 0 0 1
9.639100 -31.312357 6.260962 33.355293 -1.272165 1.381971 0.076718 -0.027076 -185359.000000 0 0 1
8.979900 -30.010057 6.718862 32.037247 -1.280046 1.359507 0.075444 -0.023960 -59035.000000 0 0 1
9.365700 -29.766127 8.064262 32.229970 -1.265960 1.317899 0.079297 -0.018899 -74668.700000 0 0 1
8.776100 -28.636917 8.654762 31.176880 -1.273423 1.289499 0.105038 -0.017873 -377117.000000 0 0 1
9.281900 -27.245797 8.226862 29.936071 -1.242455 1.292400 0.116591 -0.027340 849934.000000 0 0 1
10.580800 -26.892507 8.800462 30.209409 -1.195951 1.275195 0.119768 -0.024616 1902940.000000 0 0 1
11.377500 -25.878927 8.119562 29.412474 -1.156588 1.291106 0.101372 -0.036261 664024.000000 0 0 1
10.572700 -24.680987 7.530162 27.886133 -1.166071 1.297370 0.140864 -0.037466 -290571.000000 0 0 1
10.146800 -24.976057 6.211262 27.664792 -1.184904 1.344347 0.138583 -0.033149 -50060.900000 0 0 1
9.185200 -24.047587 5.720062 26.369934 -1.205938 1.352142 0.130893 -0.033640 697627.000000 0 0 1
8.512900 -24.409087 4.328862 26.210914 -1.235227 1.404881 0.122072 -0.028829 381204.000000 0 0 1
7.845200 -25.656947 4.141562 27.147350 -1.274052 1.417640 0.106193 -0.024681 -10811.900000 0 0 1
8.548500 -26.878797 4.377162 28.543057 -1.262873 1.416836 0.114577 -0.024977 -146852.000000 0 0 1
7.676800 -28.036757 3.882662 29.326917 -1.303535 1.438014 0.107547 -0.027334 92771.800000 0 0 1
6.506200 -28.245237 4.656762 29.356592 -1.344399 1.411496 0.093949 -0.016575 -325451.000000 0 0 1
5.548000 -29.041837 4.032662 29.840760 -1.382036 1.435242 0.067768 -0.016466 -157910.000000 0 0 1
5.722800 -30.578847 4.104162 31.379300 -1.385788 1.439629 0.054253 -0.012781 91060.900000 0 0 1
6.784600 -31.100647 3.306262 32.003318 -1.356011 1.467302 0.057815 -0.015400 138734.000000 0 0 1
7.019100 -32.512217 3.550862 33.450271 -1.358169 1.464442 0.056715 -0.015390 -14853.300000 0 0 1
8.042800 -33.357197 2.775362 34.425163 -1.334201 1.490089 0.062757 -0.014115 -25346.200000 0 0 1
7.804600 -33.443797 1.371662 34.369765 -1.341535 1.530877 0.067960 -0.013737 -58471.400000 0 0 1
8.709900 33.273669 0.846662 34.405177 1.314775 1.546185 0.059301 -0.011099 -26404.700000 0 0 1
8.150500 32.647551 -0.450338 33.652579 1.326146 1.584179 0.074564 -0.010052 1095400.000000 0 0 1
6.985300 31.828195 -0.342738 32.587511 1.354753 1.581314 0.069512 -0.010090 -258326.000000 0 0 1
5.726600 32.404106 -0.259438 32.907253 1.395878 1.578680 0.077703 -0.021372 -249342.000000 0 0 1
4.573500 31.364588 -0.135938 31.696573 1.426000 1.575085 0.076055 -0.025347 292859.000000 0 0 1
4.497600 30.461638 -1.250938 30.817278 1.424207 1.611400 0.086822 -0.021625 636590.000000 0 0 1
3.421600 29.535318 -0.958138 29.748283 1.455463 1.603010 0.095584 -0.037291 737940.000000 0 0 1
3.205800 28.473478 -2.036038 28.725625 1.458680 1.641735 0.101049 -0.027060 -215051.000000 0 0 1
2.525900 29.015048 -3.142638 29.293845 1.483960 1.678283 0.109104 -0.038601 -158847.000000 0 0 1
2.242300 28.055878 -4.125338 28.446065 1.491043 1.716333 0.118861 -0.044269 -75238.100000 0 0 1
1.859000 28.718268 -5.484538 29.296330 1.506154 1.759117 0.136195 -0.047739 996792.000000 0 0 1
0.508600 29.229088 -5.417638 29.731281 1.553398 1.754040 0.132622 -0.049681 976406.000000 0 0 1
0.143400 30.245948 -6.428538 30.921902 1.566055 1.780220 0.124132 -0.042911 -72043.000000 0 0 1
0.113900 29.837328 -7.909638 30.868130 1.566979 1.829926 0.104171 -0.034063 -62109.800000 0 0 1
-0.973100 28.983088 -8.318538 30.168931 -1.537234 1.850147 0.085071 -0.027799 601631.000000 0 0 1
-1.039600 28.719308 -9.702338 30.331745 -1.534613 1.896393 0.090674 -0.027965 -204763.000000 0 0 1
-1.305200 29.877358 -10.661038 31.749296 -1.527139 1.913238 0.062834 -0.026987 -202769.000000 0 0 1
-0.165400 30.661098 -10.974938 32.566540 -1.565402 1.914525 0.073999 -0.021257 100318.000000 0 0 1
-0.509900 31.958981 -11.393438 33.932976 -1.554843 1.913211 0.063331 -0.024034 -111741.000000 0 0 1
-0.532800 32.907735 -10.119538 34.432658 -1.554607 1.869094 0.059540 -0.030918 21460.200000 0 0 1
0.697800 33.150683 -9.481638 34.487043 1.549750 1.849317 0.070139 -0.038034 -119466.000000 0 0 1
0.437300 -33.771307 -8.317638 34.783265 -1.557848 1.812264 0.088745 -0.039307 3379.210000 0 0 1
1.667900 -33.592117 -7.402338 34.438450 -1.521186 1.787431 0.109397 -0.042466 228222.000000 0 0 1
2.673700 -32.778727 -8.021038 33.851598 -1.489408 1.810019 0.102201 -0.034962 -383959.000000 0 0 1
3.565500 -32.430207 -7.019338 33.372177 -1.461292 1.782714 0.110821 -0.037460 -202658.000000 0 0 1
4.814200 -31.566347 -7.579738 32.818641 -1.419452 1.803859 0.083279 -0.032669 1579750.000000 0 0 1
5.809900 -32.276737 -8.324138 33.835395 -1.392701 1.819367 0.098954 -0.024105 474035.000000 0 0 1
6.546800 -33.148517 -7.461238 34.602815 -1.375807 1.788128 0.113265 -0.018877 -1248410.000000 0 0 1
6.915100 33.183440 -8.233538 34.881950 1.365347 1.809085 0.117851 -0.016183 171221.000000 0 0 1
5.957000 32.171878 -8.520138 33.809885 1.387708 1.825544 0.113781 -0.019877 104196.000000 0 0 1
4.747200 32.529720 -9.182838 34.132728 1.425885 1.843185 0.120714 -0.029007 899198.000000 0 0 1
3.841600 31.252588 -9.444738 32.873777 1.448489 1.862206 0.114621 -0.036742 466625.000000 0 0 1
4.507100 30.418468 -10.345838 32.444314 1.423697 1.895344 0.101058 -0.024600 -178110.000000 0 0 1
3.838000 29.220018 -10.505738 31.287541 1.440196 1.913230 0.074529 -0.028609 112951.000000 0 0 1
4.608600 28.248778 -11.453838 30.828932 1.409078 1.951452 0.073950 -0.026868 100646.000000 0 0 1
4.574200 28.692808 -12.777338 31.740524 1.412707 1.985104 0.071380 -0.023607 274087.000000 0 0 1
5.639200 28.083628 -13.497138 31.664862 1.372631 2.011139 0.073369 -0.030175 -1560.270000 0 0 1
5.704000 28.587318 -14.915638 32.745177 1.373854 2.043737 0.079375 -0.026159 -711137.000000 0 0 1
4.633500 28.144648 -15.662938 32.541023 1.407628 2.072967 0.075216 -0.024202 -580858.000000 0 0 1
4.351100 29.014908 -16.728938 33.773574 1.421945 2.089007 0.109474 -0.026740 349700.000000 0 0 1
3.215700 28.374038 -17.584838 33.535851 1.457945 2.122759 0.095400 -0.030105 366051.000000 0 0 1
3.665100 27.297268 -18.375638 33.109483 1.437328 2.159155 0.108821 -0.024345 321792.000000 0 0 1
2.557900 26.727928 -19.059938 32.927287 1.475386 2.188113 0.112055 -0.035140 471084.000000 0 0 1
3.025700 25.537338 -19.935438 32.538165 1.452865 2.230242 0.124408 -0.035626 284752.000000 0 0 1
3.328000 24.343198 -19.197438 31.180258 1.434927 2.234060 0.118064 -0.043528 -3345.570000 0 0 1
4.225200 23.533598 -19.913838 31.116611 1.393150 2.265261 0.129735 -0.035492 35587.600000 0 0 1
4.687300 22.290358 -19.122838 29.740776 1.363532 2.269184 0.128991 -0.032584 385409.000000 0 0 1
3.714100 21.256958 -18.965938 28.729072 1.397819 2.291835 0.130226 -0.028310 293878.000000 0 0 1
4.314700 20.179758 -18.224638 27.531377 1.360155 2.294225 0.117321 -0.023336 448394.000000 0 0 1
3.292800 19.082158 -17.861338 26.343855 1.399920 2.315845 0.100450 -0.028883 280644.000000 0 0 1
2.375400 19.315558 -16.797038 25.707466 1.448432 2.282852 0.112526 -0.025334 -204443.000000 0 0 1
1.554700 18.237058 -16.425938 24.593064 1.485752 2.302192 0.082754 -0.013739 -193647.000000 0 1 0
2.143200 17.063958 -15.608538 23.224953 1.445853 2.307782 0.062341 -0.009137 -342771.000000 0 1 0
3.237000 16.339558 -16.089938 23.159133 1.375221 2.338876 0.069084 -0.021599 -90551.100000 0 1 0
2.809200 15.208258 -16.880738 22.894148 1.388140 2.399918 0.076203 -0.030126 -223568.000000 0 1 0
2.988000 15.495458 -18.445538 24.274992 1.380304 2.433890 0.076103 -0.030684 681586.000000 0 1 0
4.365100 15.474958 -18.910138 24.821800 1.295864 2.436939 0.099764 -0.035442 1035930.000000 0 1 0
4.420700 16.191658 -20.128538 26.208213 1.304269 2.446546 0.115965 -0.035105 -312716.000000 0 0 1
4.760400 15.230558 -21.316438 26.627464 1.267861 2.498998 0.127131 -0.040385 247515.000000 0 0 1
3.844200 14.195558 -21.640438 26.164868 1.306336 2.544689 0.109349 -0.037982 1025350.000000 0 0 1
2.512200 14.605558 -22.072538 26.586282 1.400460 2.550304 0.107756 -0.040854 1423070.000000 0 0 1
1.621200 13.464158 -22.630838 26.383076 1.450965 2.601729 0.111224 -0.030946 317211.000000 0 0 1
1.002000 12.592058 -21.677438 25.089345 1.491390 2.613976 0.100792 -0.024968 283095.000000 0 0 1
0.036000 11.799958 -22.354638 25.277859 1.567746 2.655910 0.068757 -0.017484 77597.000000 0 0 1
-0.579100 10.677158 -21.444538 23.962581 -1.516612 2.679043 0.044220 -0.011813 -210786.000000 0 1 0
-1.473800 11.322858 -20.485038 23.452420 -1.441362 2.633085 0.041533 -0.013098 260621.000000 0 1 0
-1.956500 10.406658 -19.568238 22.249548 -1.384961 2.645584 0.026187 -0.007712 341388.000000 0 1 0
-3.040000 9.382658 -20.055238 22.349238 -1.257467 2.684539 0.033972 -0.009173 -280965.000000 0 1 0
-2.557800 8.331158 -20.876738 22.622748 -1.272915 2.746136 0.038607 -0.004654 -135085.000000 0 1 0
-3.565300 7.356858 -21.127438 22.653992 -1.119526 2.772387 0.041908 -0.000376 -74090.400000 0 1 0
-3.059000 6.030058 -21.686338 22.715993 -1.101332 2.839355 0.045456 -0.014684 -218912.000000 0 1 0
-2.141300 5.249758 -20.969038 21.722009 -1.183511 2.877524 0.043812 -0.004856 169933.000000 0 1 0
-1.704000 4.087158 -21.759538 22.205539 -1.175793 2.940830 0.069125 -0.008857 39657.900000 0 1 0
-0.903200 3.082858 -20.926938 21.172070 -1.285797 2.989274 0.065572 -0.012605 171217.000000 0 1 0
0.481900 3.353358 -20.785438 21.059717 1.428067 2.980024 0.064779 -0.013349 -112153.000000 0 1 0
1.102900 2.259158 -20.214138 20.369869 1.116641 3.017860 0.060080 -0.002772 -121.936000 0 1 0
2.644100 2.265358 -20.342938 20.638756 0.708405 2.972079 0.049187 -0.005781 246201.000000 0 1 0
3.166700 1.776158 -21.573538 21.876935 0.511163 2.974856 0.075730 -0.003288 -283290.000000 0 1 0
4.565000 1.728258 -21.452938 22.001242 0.361913 2.917871 0.090006 -0.003972 -322382.000000 0 1 0
5.391900 1.432858 -22.704638 23.380040 0.259740 2.900644 0.091741 0.001532 1174340.000000 0 1 0
6.811900 1.322358 -22.388638 23.439320 0.191740 2.841045 0.090954 -0.014670 1302690.000000 0 1 0
7.419800 0.929158 -23.621338 24.776690 0.124578 2.835006 0.089785 -0.013040 -87987.500000 0 1 0
8.942900 0.700058 -23.519338 25.171905 0.078122 2.777224 0.086690 -0.024071 401397.000000 0 0 1
9.632100 1.885858 -23.058238 25.060251 0.193343 2.739163 0.078799 -0.040007 96248.900000 0 0 1
11.028900 1.693458 -23.011438 25.574024 0.152357 2.690101 0.082375 -0.035769 -41647.000000 0 0 1
13.211300 -20.488087 22.306820 33.043825 -0.998065 0.829740 0.097879 -0.010399 -293172.000000 0 0 1
12.367500 -21.579687 22.033320 33.228078 -1.050385 0.845852 0.085383 -0.004662 944261.000000 0 0 1
11.242800 -21.233287 21.128620 31.994869 -1.083836 0.849478 0.082186 0.007527 995381.000000 0 0 1
11.411600 -20.829287 19.626120 30.810200 -1.069595 0.880195 0.119833 -0.028126 -327394.000000 0 0 1
11.865100 -19.478587 19.438920 29.967775 -1.023687 0.864973 0.134040 -0.029908 120221.000000 0 0 1
12.162800 -19.212387 18.109220 29.068770 -1.006414 0.898252 0.128213 -0.037868 37136.100000 0 0 1
12.272500 -17.677887 17.947320 28.021924 -0.963954 0.875681 0.146763 -0.047014 -201209.000000 0 0 1
11.007000 -17.097387 18.093020 27.218230 -0.998804 0.843652 0.163338 -0.047662 -399994.000000 0 0 1
11.042100 -15.733987 17.678820 26.115647 -0.958864 0.827194 0.178829 -0.043964 816633.000000 0 0 1
9.844700 -14.883087 18.259020 25.530692 -0.986401 0.773916 0.143280 -0.037033 993163.000000 0 0 1
8.566200 -15.371187 17.911120 25.108990 -1.062374 0.776551 0.117401 -0.028754 -112877.000000 0 0 1
7.528500 -14.453087 18.201920 24.431126 -1.090575 0.730217 0.095304 -0.022383 370592.000000 0 1 0
6.101000 -14.943287 17.905220 24.106450 -1.183175 0.733619 0.050458 -0.012726 6535.210000 0 1 0
5.689500 -14.837387 16.548720 22.942942 -1.204632 0.765120 0.036720 -0.020840 656602.000000 0 1 0
4.286600 -15.091687 16.364320 22.669912 -1.294048 0.764322 0.010445 -0.015057 800725.000000 0 1 0
3.786600 -16.570287 16.324920 23.567261 -1.346136 0.805577 0.001714 -0.009744 -997074.000000 0 1 0
2.410700 -16.528987 16.162420 23.243122 -1.425971 0.801871 -0.001762 -0.008184 -1184710.000000 0 1 0
1.893700 -17.805487 16.064820 24.056182 -1.464840 0.839541 0.014151 -0.016051 302210.000000 0 1 0
0.417500 -17.839887 15.601920 23.703497 -1.547398 0.852355 0.028481 -0.010507 -91536.800000 0 1 0
0.348800 -17.415187 14.226720 22.490219 -1.550771 0.885925 0.031359 -0.017402 278974.000000 0 1 0
-1.015200 -17.401187 13.811420 22.239318 1.512522 0.900732 0.036337 -0.022560 352466.000000 0 1 0
-1.515800 -18.697187 13.187520 22.930180 1.489902 0.958050 0.031846 -0.002913 -179976.000000 0 1 0
-2.925700 -18.737787 13.073120 23.034124 1.415908 0.967264 0.040793 -0.012334 33423.100000 0 1 0
-3.313000 -19.940587 12.455220 23.743115 1.406157 1.018572 0.056932 -0.020305 182773.000000 0 1 0
-4.844800 -20.112987 12.340320 24.089164 1.334420 1.032963 0.056730 -0.021847 281823.000000 0 1 0
-5.420400 -20.702287 13.490920 25.297635 1.314719 1.008314 0.062757 -0.025685 801628.000000 0 0 1
-6.816300 -21.001487 13.293120 25.772688 1.256960 1.028875 0.077134 -0.024809 731599.000000 0 0 1
-7.399700 -21.894387 14.397120 27.228603 1.244876 1.013669 0.080124 -0.025085 -1172520.000000 0 0 1
-8.760200 -21.733887 14.397120 27.502364 1.187649 1.019858 0.081141 -0.025975 -1392910.000000 0 0 1
-9.498200 -22.572987 15.275020 28.863156 1.172508 1.013113 0.086139 -0.023167 490854.000000 0 0 1
-10.965200 -22.075287 15.338420 29.031380 1.109777 1.014153 0.104205 -0.031772 92185.500000 0 0 1
-11.087600 -20.727187 15.822220 28.335381 1.079597 0.978351 0.097630 -0.030301 -1088760.000000 0 0 1
-12.288500 -20.089987 15.609320 28.253596 1.021838 0.985469 0.113370 -0.032250 -775474.000000 0 0 1
-12.590300 -18.970587 16.661120 28.213326 0.984868 0.939068 0.117389 -0.033194 -386018.000000 0 0 1
-12.996600 -19.406887 17.935120 29.448386 0.980703 0.915952 0.110953 -0.034935 -119156.000000 0 0 1
-13.340700 -18.326087 18.711720 29.392996 0.941549 0.880709 0.113126 -0.032831 -184570.000000 0 0 1
-14.017100 -18.728887 20.041320 30.804299 0.928306 0.862420 0.099767 -0.031435 245801.000000 0 0 1
-15.297200 -19.327587 19.895220 31.676170 0.901278 0.891711 0.089616 -0.020935 178587.000000 0 0 1
-15.771700 -19.749787 21.140620 32.950363 0.896924 0.874227 0.095831 -0.015498 374029.000000 0 0 1
-17.201600 -20.359687 20.962720 33.909402 0.869279 0.904348 0.108927 -0.018506 -247308.000000 0 0 1
-17.255500 -21.464587 20.141420 34.119754 0.893678 0.939347 0.124666 -0.023472 348114.000000 0 0 1
-18.572800 -21.758687 19.720720 34.746168 0.864227 0.967251 0.104946 -0.014416 741836.000000 0 0 1
-19.612800 -22.356087 20.747420 36.261715 0.850670 0.961662 0.104132 -0.014115 -28230.600000 0 0 1
-20.230000 -21.424587 21.580220 36.523578 0.814069 0.938675 0.118125 -0.012608 367369.000000 0 0 1
-21.021500 -21.974387 22.657740 37.922953 0.807557 0.930457 0.089790 -0.010830 419060.000000 0 0 1
-21.564800 -20.838787 23.581440 38.149443 0.768278 0.904431 0.083469 -0.001675 -136056.000000 0 0 1
-22.576400 -20.055887 23.015060 37.968743 0.726345 0.919575 0.077513 0.011685 -67843.200000 0 0 1
-22.749300 -18.933287 23.864770 38.020090 0.694103 0.892216 0.081433 -0.000954 -69946.300000 0 0 1
-23.598000 -17.818087 23.244550 37.611952 0.646737 0.904588 0.084516 -0.003612 -275858.000000 0 0 1
-23.103200 -17.277487 22.067820 36.321593 0.642117 0.917802 0.085256 0.005647 -74972.300000 0 0 1
-24.021200 -16.322787 21.518720 36.145633 0.596846 0.933115 0.086513 -0.002121 192390.000000 0 0 1
-23.735400 -15.823587 20.042420 34.863358 0.588002 0.958333 0.085897 0.005016 -463204.000000 0 0 1
-22.632200 -14.963387 20.029320 33.723777 0.584177 0.934870 0.101134 0.004663 -707903.000000 0 0 1
-22.148000 -14.954087 18.717420 32.626683 0.593880 0.959799 0.094528 0.007460 241167.000000 0 0 1
-20.884200 -14.046387 18.607820 31.300188 0.592088 0.934158 0.091597 -0.007328 221621.000000 0 0 1
-20.497500 -13.931187 17.252920 30.197496 0.596939 0.962663 0.090745 -0.006009 -67972.000000 0 0 1
-19.786400 -12.742287 16.995320 29.029441 0.572140 0.945360 0.102675 -0.021236 -564294.000000 0 0 1
-19.287900 -12.680087 15.516220 27.812961 0.581568 0.978970 0.103692 -0.023335 74600.300000 0 0 1
-18.694500 -11.503187 15.038820 26.607776 0.551611 0.970116 0.103391 -0.031879 646814.000000 0 0 1
-17.540000 -11.004387 15.735220 26.006640 0.560315 0.920972 0.137371 -0.048822 25416.200000 0 0 1
-16.922400 -9.777087 14.980120 24.624440 0.523906 0.916824 0.127780 -0.054949 78975.100000 0 1 0
-17.743800 -8.635387 15.004520 24.790078 0.452927 0.920700 0.153389 -0.058397 84349.500000 0 1 0
-16.975200 -7.591287 14.490020 23.574260 0.420522 0.908849 0.132150 -0.055974 -750081.000000 0 1 0
-17.134400 -6.316887 15.317920 23.835466 0.353207 0.872841 0.135254 -0.051175 574868.000000 0 1 0
-16.222500 -6.179987 16.419420 23.894751 0.363978 0.813229 0.119207 -0.044210 980757.000000 0 1 0
-14.831800 -6.110187 16.090620 22.720580 0.390779 0.783857 0.117401 -0.048199 -553048.000000 0 1 0
-13.926200 -6.042787 17.271920 22.995077 0.409397 0.721049 0.105483 -0.045415 -563429.000000 0 1 0
-13.982600 -7.233387 18.088420 23.979699 0.477402 0.716175 0.092806 -0.046618 133784.000000 0 1 0
-13.579900 -8.489287 17.458720 23.691530 0.558697 0.742296 0.107819 -0.047815 -922151.000000 0 1 0
-13.819300 -9.658987 18.348820 24.918834 0.610020 0.743146 0.107116 -0.045140 613613.000000 0 1 0
-15.189100 -10.033487 18.444620 25.914931 0.583771 0.778828 0.117147 -0.046375 527818.000000 0 0 1
-15.986300 -9.227887 19.310120 26.713226 0.523514 0.762853 0.104533 -0.045557 -1357540.000000 0 0 1
-17.396500 -9.719287 19.668520 27.999169 0.509492 0.791937 0.103155 -0.031356 231667.000000 0 0 1
-18.382800 -9.689987 18.648120 27.920881 0.485109 0.839424 0.104683 -0.027651 141282.000000 0 0 1
-18.843900 -8.400187 18.437820 27.669639 0.419337 0.841486 0.104801 -0.034604 -850470.000000 0 0 1
-20.009300 -8.389987 17.413420 27.820697 0.397037 0.894491 0.131264 -0.046266 -105898.000000 0 0 1
-21.304900 -8.575987 17.912920 29.125917 0.382691 0.908389 0.131419 -0.037150 35106.200000 0 0 1
-22.255900 -8.648287 16.857420 29.228250 0.370626 0.956050 0.144612 -0.036231 1625530.000000 0 0 1
-23.746800 -8.887387 17.365820 30.732196 0.358118 0.970279 0.132550 -0.024290 1173910.000000 0 0 1
-24.440700 -7.935687 18.134220 31.451119 0.313953 0.956254 0.141533 -0.025088 -614175.000000 0 0 1
-25.749660 -8.289087 18.344020 32.684202 0.311435 0.974901 0.145989 -0.017562 -1294510.000000 0 0 1
-26.565610 -7.200087 19.050320 33.473685 0.264672 0.965369 0.140727 -0.020151 -266994.000000 0 0 1
-26.421160 -7.153487 20.462320 34.175381 0.264409 0.928864 0.152164 -0.027355 116402.000000 0 0 1
-27.101170 -6.070887 20.995120 34.815574 0.220370 0.923492 0.139878 -0.025422 -751535.000000 0 0 1
-27.104680 -6.013587 22.540440 35.761689 0.218329 0.888862 0.139087 -0.027651 566411.000000 0 0 1
-25.958310 -5.638087 23.327950 35.352725 0.213876 0.850160 0.141500 -0.032246 336791.000000 0 0 1
-24.939800 -6.612787 23.328450 34.784180 0.259186 0.835695 0.150768 -0.033802 128840.000000 0 0 1
-23.842400 -6.210087 24.396860 34.673218 0.254803 0.790313 0.147032 -0.030230 250208.000000 0 0 1
-23.046700 -5.096987 24.155640 33.773135 0.217656 0.773840 0.134109 -0.032612 161845.000000 0 0 1
-22.273600 -4.803187 25.336060 34.074915 0.212392 0.732448 0.135826 -0.034230 150854.000000 0 0 1
-21.451700 -3.527987 25.243550 33.314546 0.163003 0.710963 0.125695 -0.035282 -431583.000000 0 0 1
-20.619300 -3.258087 26.349310 33.616318 0.156716 0.669995 0.118459 -0.034926 -144830.000000 0 0 1
-21.214000 -2.973987 27.621100 34.954307 0.139282 0.659651 0.106739 -0.035793 -752354.000000 0 0 1
-22.017300 -1.735887 27.897020 35.581155 0.078679 0.669650 0.112789 -0.037411 -765640.000000 0 0 1
-23.210000 -1.841387 27.184460 35.792314 0.079170 0.708244 0.114610 -0.039048 -811035.000000 0 0 1
-24.116300 -0.913287 27.797360 36.811999 0.037852 0.714964 0.101129 -0.038766 43558.400000 0 0 1
-25.451320 -0.783287 27.049740 37.149316 0.030766 0.755198 0.112068 -0.040541 -892322.000000 0 0 1
-25.408530 -0.163687 25.778650 36.196119 0.006442 0.778178 0.109707 -0.039844 718882.000000 0 0 1
-26.690670 0.193713 25.235580 36.732328 -0.007258 0.813426 0.108754 -0.034010 461567.000000 0 0 1
-27.662360 -0.942187 24.895200 37.227206 0.034047 0.838288 0.113416 -0.026801 -803660.000000 0 0 1
-28.527770 -1.304787 25.957950 38.592115 0.045706 0.833048 0.097263 -0.021437 160061.000000 0 0 1
-29.286440 -2.474287 25.778480 39.094088 0.084286 0.850781 0.091264 -0.027779 124636.000000 0 0 1
-28.491060 -3.837787 25.727430 38.579396 0.133895 0.840796 0.114313 -0.026406 308713.000000 0 0 1
-27.782200 -4.131787 26.937960 38.917554 0.147639 0.806291 0.101127 -0.023545 -135183.000000 0 0 1
-27.032920 -5.296687 26.811100 38.440458 0.193484 0.798934 0.110945 -0.028109 -142447.000000 0 0 1
-26.358100 -5.727887 28.106760 38.955720 0.213983 0.764822 0.086969 -0.021904 150675.000000 0 0 1
-27.373200 -6.256487 28.956710 40.335181 0.224703 0.770012 0.103051 -0.015859 267926.000000 0 0 1
-26.959360 -7.034087 30.074340 40.996969 0.255224 0.747229 0.097091 -0.012894 -355698.000000 0 0 1
-28.055490 -7.623887 31.024490 42.517681 0.265336 0.752936 0.080807 -0.014350 37532.100000 0 0 1
-28.962250 -8.413887 30.295490 42.748359 0.282730 0.783151 0.065375 -0.014729 -48168.100000 0 0 1
-30.059190 -8.849287 31.063500 44.122623 0.286307 0.789745 0.078478 -0.009306 -143254.000000 0 0 1
-31.162780 -9.473287 30.197570 44.415710 0.295117 0.823191 0.050126 -0.015904 -522453.000000 0 0 1
-30.866340 -10.793087 29.769980 44.220735 0.336382 0.832251 0.053831 -0.023415 255205.000000 0 0 1
-31.844910 -11.324487 28.904970 44.472909 0.341667 0.863284 0.034678 -0.019126 -317212.000000 0 0 1
-31.317610 -12.518087 28.147770 43.929400 0.380260 0.875321 0.044048 -0.019067 344609.000000 0 0 1
-30.308680 -12.093987 27.201660 42.483067 0.379667 0.875915 0.059157 -0.022594 112262.000000 0 0 1
-29.519880 -13.219487 26.861520 42.044256 0.421037 0.877746 0.067915 -0.026797 -682694.000000 0 0 1
-28.301020 -12.715087 26.067500 40.523274 0.422255 0.872032 0.095146 -0.029493 -239448.000000 0 0 1
-27.316690 -12.019187 26.839540 40.137555 0.414502 0.838352 0.087730 -0.035307 286976.000000 0 0 1
-27.651370 -10.755787 27.456210 40.424358 0.370969 0.824125 0.089954 -0.042075 -965121.000000 0 0 1
-27.717360 -9.526187 26.469870 39.492459 0.331043 0.836249 0.101501 -0.037197 -282287.000000 0 0 1
-26.517120 -9.131187 25.863380 38.150369 0.331633 0.825850 0.116446 -0.032351 -242915.000000 0 0 1
-26.082680 -9.841187 24.686020 37.236471 0.360792 0.846040 0.105532 -0.034595 -26328.800000 0 0 1
-26.969870 -9.732587 23.417870 37.020181 0.346325 0.885929 0.120384 -0.027879 -321366.000000 0 0 1
-28.149230 -10.487887 23.452990 38.110598 0.356649 0.907912 0.104199 -0.025788 -850946.000000 0 0 1
-28.808780 -10.378287 22.257220 37.855495 0.345775 0.942271 0.135266 -0.020868 -166291.000000 0 0 1
-30.082310 -11.291587 22.228620 39.071177 0.359083 0.965597 0.125227 -0.031182 -95448.300000 0 0 1
-31.217470 -10.856487 22.893410 40.205746 0.334686 0.965013 0.101765 -0.027274 -689619.000000 0 0 1
-31.157320 -10.768087 24.306900 40.957975 0.332753 0.935446 0.106097 -0.027717 -1228050.000000 0 0 1
-32.529750 -10.442387 24.871900 42.259195 0.310619 0.941525 0.050330 -0.020748 -1261630.000000 0 0 1
-33.009830 -9.184787 24.561010 42.157472 0.271380 0.948870 0.054034 -0.019577 698218.000000 0 0 1
-34.398844 -8.901087 24.835940 43.351283 0.253207 0.960757 0.050120 -0.012244 893177.000000 0 0 1
-34.836432 -9.028787 26.337830 44.595710 0.253597 0.939005 0.028628 -0.009605 -891384.000000 0 0 1
-34.875959 -10.325987 26.816400 45.189356 0.287854 0.935491 0.019146 -0.020298 228285.000000 0 0 1
-35.456142 -10.194887 28.141140 46.400404 0.279982 0.919164 0.037718 -0.021067 -314179.000000 0 0 1
-36.003850 -11.534187 28.776080 47.511867 0.310029 0.920200 0.054806 -0.012778 1425520.000000 0 0 1
-37.251680 -12.037787 28.213690 48.255656 0.312555 0.946322 0.049184 -0.018526 1200900.000000 0 0 1
37.263426 -11.465887 28.679070 48.399572 -0.298504 0.936578 0.063410 -0.018607 115404.000000 0 0 1
35.966546 -12.116387 28.107780 47.227604 -0.324939 0.933337 0.081398 -0.027747 460857.000000 0 0 1
35.724236 -11.835187 26.744550 46.168860 -0.319913 0.952955 0.081029 -0.021769 -425548.000000 0 0 1
34.627386 -12.489687 26.178760 45.170517 -0.346165 0.952615 0.099198 -0.018522 -280990.000000 0 0 1
34.365646 -12.056387 24.680350 43.994020 -0.337411 0.975211 0.087979 -0.022043 124594.000000 0 0 1
33.977286 -10.696387 24.552490 43.263073 -0.304988 0.967310 0.094098 -0.035393 109786.000000 0 0 1
33.984856 -10.226087 23.219630 42.411019 -0.292283 0.991434 0.083721 -0.031682 -380961.000000 0 0 1
33.572886 -8.818587 22.886730 41.577741 -0.256867 0.987886 0.093983 -0.011846 1453420.000000 0 0 1
32.171196 -8.421387 22.984880 40.425368 -0.256023 0.966023 0.112078 -0.023238 998764.000000 0 0 1
31.906946 -7.072087 22.676710 39.778145 -0.218121 0.964194 0.122539 -0.013574 7810.860000 0 0 1
30.384306 -6.922887 22.481390 38.425842 -0.224020 0.945843 0.113412 -0.001132 123342.000000 0 0 1
29.985706 -7.729887 21.374320 37.626524 -0.252293 0.966643 0.104628 -0.002529 -619265.000000 0 0 1
28.595906 -7.815687 21.239720 36.468295 -0.266799 0.949099 0.096370 -0.023118 -740529.000000 0 0 1
15.605300 -17.047787 24.862520 33.945505 -0.829546 0.748920 0.126137 -0.007928 92492.200000 0 0 1
15.077600 -18.347987 24.976150 34.464340 -0.882929 0.760204 0.126197 -0.000572 201221.000000 0 0 1
16.111200 -19.282987 25.215220 35.597917 -0.874773 0.783661 0.115465 -0.003131 -912998.000000 0 0 1
15.611200 -20.682287 25.366460 36.261879 -0.924224 0.796049 0.110898 -0.015091 366401.000000 0 0 1
14.797100 -21.111987 26.503990 36.974743 -0.959476 0.771575 0.104338 -0.014287 -811477.000000 0 0 1
13.579000 -20.526287 26.446640 36.126756 -0.986350 0.749468 0.101849 -0.009071 -2144140.000000 0 0 1
12.659100 -20.562587 27.687350 36.737748 -1.018958 0.717201 0.096815 -0.006830 371134.000000 0 0 1
13.255100 -19.893387 28.790970 37.421444 -0.983043 0.692941 0.098665 -0.005473 -336404.000000 0 0 1
12.372100 -19.059087 29.446500 37.194274 -0.995023 0.657219 0.090264 -0.007386 -201669.000000 0 0 1
12.240800 -17.599187 28.895000 35.979016 -0.963075 0.638305 0.106124 -0.009182 -255047.000000 0 0 1
13.360400 -16.816687 29.090890 36.160491 -0.899435 0.635974 0.095314 -0.003175 -870537.000000 0 0 1
13.034100 -15.495687 28.797580 35.203760 -0.871466 0.612826 0.108544 -0.012506 -293359.000000 0 0 1
14.084400 -14.476687 29.187080 35.494090 -0.799132 0.605341 0.099531 -0.011115 -266441.000000 0 0 1
13.689900 -13.140087 28.841850 34.524304 -0.764909 0.581923 0.140162 -0.022544 303178.000000 0 0 1
14.652000 -12.194987 29.302340 34.957488 -0.694133 0.576771 0.126258 -0.016775 124018.000000 0 0 1
14.420700 -10.693487 28.872010 33.998533 -0.638063 0.556302 0.122337 -0.018238 -21531.000000 0 0 1
14.546400 -10.453987 27.427290 32.758813 -0.623143 0.578563 0.166610 -0.033233 -389012.000000 0 0 1
15.873200 -10.354287 27.013850 32.998755 -0.577999 0.611771 0.147690 -0.030043 -803887.000000 0 0 1
16.045100 -9.131687 26.145670 32.006703 -0.517409 0.614813 0.136538 -0.026737 -53025.900000 0 0 1
16.187800 -7.877287 26.783710 32.271716 -0.452885 0.591789 0.129541 -0.032178 482841.000000 0 0 1
17.375500 -7.684587 27.567400 33.480180 -0.416403 0.603429 0.121348 -0.035827 -44558.000000 0 0 1
17.873000 -6.281987 27.499610 33.393653 -0.337992 0.603247 0.105617 -0.037210 416778.000000 0 0 1
19.288800 -6.253087 27.282350 33.992433 -0.313492 0.639154 0.093159 -0.046012 644022.000000 0 0 1
19.749600 -4.951587 26.935310 33.765009 -0.245655 0.647277 0.094085 -0.044142 -1390150.000000 0 0 1
21.233100 -4.933087 26.773950 34.525705 -0.228280 0.683323 0.093040 -0.041173 -2054360.000000 0 0 1
21.731000 -5.742987 25.755810 34.184500 -0.258369 0.717525 0.096916 -0.039458 1724120.000000 0 0 1
23.164900 -5.629787 25.469610 34.885644 -0.238409 0.752345 0.091878 -0.032864 1825120.000000 0 0 1
24.197300 -6.051987 26.527770 36.412339 -0.245082 0.754611 0.080621 -0.032680 -733274.000000 0 0 1
24.429400 -4.947687 27.285230 36.956176 -0.199827 0.740230 0.086043 -0.031557 33928.200000 0 0 1
25.539000 -5.099587 28.154130 38.352332 -0.197086 0.746468 0.096688 -0.042928 174204.000000 0 0 1
26.174000 -3.795187 28.755370 39.068568 -0.143995 0.743619 0.105657 -0.043564 -295893.000000 0 0 1
26.872000 -3.090687 27.797490 38.786044 -0.114512 0.771755 0.087950 -0.027273 -311420.000000 0 0 1
27.375700 -1.890587 28.299910 39.419388 -0.068951 0.769989 0.070783 -0.032839 -206283.000000 0 0 1
28.287300 -1.011087 27.394340 39.390906 -0.035728 0.801753 0.079435 -0.025525 -241304.000000 0 0 1
29.634800 -1.364987 27.373670 40.365857 -0.046028 0.825569 0.102354 -0.024475 -917478.000000 0 0 1
30.261800 -0.558587 26.407850 40.167936 -0.018456 0.853385 0.107820 -0.007869 -246510.000000 0 0 1
31.787500 -0.537587 26.557710 41.425187 -0.016910 0.874865 0.108567 -0.009829 -231643.000000 0 0 1
32.208700 0.298413 27.629010 42.436442 0.009265 0.861806 0.105112 -0.010997 -79156.000000 0 0 1
33.585500 0.245613 27.914320 43.672135 0.007313 0.877366 0.110678 -0.012312 -34463.700000 0 0 1
33.956100 1.379513 28.948040 44.642007 0.040604 0.865252 0.118491 -0.019468 -44560.200000 0 0 1
33.747700 2.650813 28.451030 44.219851 0.078387 0.871866 0.116252 -0.018350 276371.000000 0 0 1
34.019100 3.644113 29.465450 45.152979 0.106713 0.859826 0.109106 -0.019846 63422.500000 0 0 1
34.023200 5.060713 28.792500 44.857519 0.147660 0.873868 0.110918 -0.019028 -270076.000000 0 0 1
34.089300 6.182813 29.658330 45.606185 0.179421 0.862799 0.129995 -0.023998 -355595.000000 0 0 1
32.967000 6.611313 30.353150 45.297310 0.197918 0.836470 0.119095 -0.022349 -774571.000000 0 0 1
33.379200 7.450913 31.593295 46.559890 0.219620 0.825007 0.105373 -0.026516 21678.300000 0 0 1
34.018600 6.646013 32.557775 47.554636 0.192934 0.816688 0.114079 -0.022662 160372.000000 0 0 1
34.216000 7.492213 33.691530 48.600279 0.215566 0.804825 0.115699 -0.034670 -127090.000000 0 0 1
34.428400 6.809713 -32.406558 47.768943 0.195273 2.316382 0.130854 -0.030677 423135.000000 0 0 1
33.266800 6.129213 -31.907148 46.500681 0.182201 2.327001 0.106085 -0.025349 503460.000000 0 0 1
33.028300 4.836913 -32.415248 46.529696 0.145414 2.341524 0.118818 -0.026097 -258665.000000 0 0 1
33.744700 3.726313 -31.637768 46.406234 0.109981 2.320958 0.121587 -0.032860 -114026.000000 0 0 1
33.546600 2.399513 -32.124788 46.509505 0.071406 2.333273 0.115297 -0.036390 29939.000000 0 0 1
34.166100 1.500813 -31.262098 46.334583 0.043899 2.311359 0.096993 -0.041648 -234571.000000 0 0 1
34.293800 0.062213 -31.720358 46.714556 0.001814 2.317230 0.086239 -0.049101 -1035530.000000 0 0 1
35.340700 0.041913 -32.701858 48.149542 0.001186 2.317431 0.094048 -0.040375 216749.000000 0 0 1
36.131400 -1.143387 -32.582088 48.665983 -0.031635 2.304338 0.091882 -0.033833 380118.000000 0 0 1
37.048600 -1.196487 -31.330548 48.534870 -0.032284 2.272509 0.100998 -0.039526 -1238320.000000 0 0 1
36.377800 -1.206587 -30.065828 47.209683 -0.033156 2.261211 0.079748 -0.041898 -647631.000000 0 0 1
37.168700 -1.120387 -28.895758 47.092806 -0.030134 2.231398 0.085469 -0.038735 -434337.000000 0 0 1
36.403500 -0.980687 -27.572748 45.677489 -0.026933 2.218855 0.087940 -0.044890 -400513.000000 0 0 1
35.751000 0.256313 -27.482628 45.094285 0.007169 2.226161 0.084582 -0.035059 6737.470000 0 0 1
34.928000 0.300513 -26.357468 43.758103 0.008604 2.217232 0.090808 -0.026696 -301792.000000 0 0 1
34.113100 1.603013 -26.217538 43.053833 0.046957 2.225530 0.066258 -0.015487 818487.000000 0 0 1
33.027700 1.762813 -27.181628 42.810949 0.053323 2.258704 0.081008 -0.028592 1162270.000000 0 0 1
32.412200 3.033613 -26.972318 42.275991 0.093323 2.262702 0.073926 -0.014560 487230.000000 0 0 1
31.341800 3.402113 -28.059888 42.204740 0.108125 2.298091 0.103025 -0.025107 615.157000 0 0 1
30.541700 4.538213 -27.868618 41.593878 0.147511 2.305028 0.087019 -0.022028 335407.000000 0 0 1
29.787800 4.881813 -29.032398 41.881085 0.162442 2.336730 0.081181 -0.028248 -646636.000000 0 0 1
28.615300 5.801713 -28.761918 40.984670 0.200037 2.348679 0.068484 -0.024675 -927209.000000 0 0 1
27.606700 5.082913 -28.105308 39.722465 0.182080 2.356810 0.088605 -0.024486 43933.800000 0 0 1
26.706200 5.992113 -27.462098 38.772327 0.220716 2.357871 0.101979 -0.032323 1018080.000000 0 0 1
25.243000 5.504813 -27.141348 37.472187 0.214711 2.380824 0.113963 -0.027630 485145.000000 0 0 1
24.435600 5.362413 -28.255108 37.738643 0.216026 2.416903 0.115653 -0.026223 232601.000000 0 0 1
23.184000 4.803813 -27.846898 36.551665 0.204313 2.436961 0.111997 -0.021321 322215.000000 0 0 1
22.236900 4.358613 -28.995628 36.799778 0.193554 2.478235 0.098221 -0.023060 -177236.000000 0 0 1
22.564700 3.196113 -29.703868 37.439292 0.140706 2.487150 0.090984 -0.029354 451504.000000 0 0 1
21.603600 2.756013 -30.687368 37.630117 0.126887 2.524389 0.059084 -0.029025 97893.200000 0 0 1
21.716800 3.417513 -32.083378 38.892698 0.156087 2.540858 0.069423 -0.021226 338099.000000 0 0 1
22.942200 3.211013 -32.794458 40.151359 0.139058 2.526588 0.079658 -0.028229 230648.000000 0 0 1
23.011700 3.723913 33.374850 40.709784 0.160436 0.609693 0.065712 -0.024500 192306.000000 0 0 1
24.410000 3.491913 32.734247 40.982588 0.142089 0.645606 0.052659 -0.024498 424992.000000 0 0 1
24.744800 2.143513 32.424002 40.843796 0.086409 0.653676 0.084340 -0.035080 -819554.000000 0 0 1
26.035600 2.006713 31.936808 41.253352 0.076924 0.685405 0.082345 -0.034948 -851143.000000 0 0 1
26.482100 0.515613 31.743491 41.342674 0.019468 0.695374 0.075924 -0.037359 -226796.000000 0 0 1
25.963900 -0.262887 30.644910 40.165952 -0.010125 0.702921 0.074649 -0.037213 782000.000000 0 0 1
24.554000 -0.523487 30.687760 39.305363 -0.021317 0.674927 0.086883 -0.039115 694396.000000 0 0 1
24.023800 -1.687687 31.611224 39.739914 -0.070135 0.651042 0.084396 -0.050531 -204406.000000 0 0 1
24.015100 -3.005587 31.079030 39.391175 -0.124507 0.661642 0.079952 -0.053074 93744.300000 0 0 1
23.719500 -3.836987 32.161814 40.146226 -0.160376 0.641638 0.105917 -0.057234 -146092.000000 0 0 1
23.940500 -5.355187 31.953360 40.284523 -0.220065 0.654763 0.101367 -0.049784 839041.000000 0 0 1
25.318300 -5.749687 31.874061 41.109987 -0.223309 0.683549 0.084247 -0.041020 609164.000000 0 0 1
25.218900 -7.180187 31.656033 41.105382 -0.277375 0.691769 0.099417 -0.048008 72678.900000 0 0 1
26.614900 -7.753387 31.348296 41.847145 -0.283472 0.724072 0.085050 -0.037421 45373.400000 0 0 1
26.919200 -7.309387 30.026410 40.983604 -0.265138 0.748597 0.103685 -0.040846 429282.000000 0 0 1
28.251600 -7.699987 29.662260 41.680839 -0.266087 0.778949 0.102993 -0.025917 726778.000000 0 0 1
28.454000 -7.616787 28.131820 40.731374 -0.261555 0.808385 0.088561 -0.031304 12791.100000 0 0 1
27.589600 -8.454087 27.397300 39.790321 -0.297339 0.811320 0.069137 -0.030071 -203596.000000 0 0 1
27.824100 -8.195587 26.042360 38.981441 -0.286449 0.839183 0.089228 -0.028997 68126.700000 0 0 1
27.030200 -9.066287 25.060570 37.958681 -0.323621 0.849703 0.052867 -0.030381 -514958.000000 0 0 1
25.710400 -8.637087 24.842700 36.780208 -0.324092 0.829240 0.057425 -0.032568 -724420.000000 0 0 1
25.219600 -9.307687 23.743820 35.866841 -0.353558 0.847313 0.067798 -0.033606 804601.000000 0 0 1
23.682600 -8.996887 23.572140 34.604267 -0.363055 0.821407 0.064808 -0.028210 873520.000000 0 0 1
22.835300 -9.300987 24.679920 34.886355 -0.386790 0.784930 0.055302 -0.021269 215236.000000 0 0 1
21.605700 -8.653387 24.325510 33.666271 -0.380949 0.763315 0.079977 -0.021012 267837.000000 0 0 1
20.527400 -8.613787 25.418740 33.788812 -0.397308 0.719276 0.086887 -0.030450 -354853.000000 0 0 1
19.929700 -9.841587 25.813130 34.064167 -0.458687 0.710893 0.108731 -0.023102 222064.000000 0 0 1
20.757400 -10.839487 26.416780 35.301705 -0.481248 0.725279 0.081911 -0.018752 -407015.000000 0 0 1
19.950400 -11.936887 27.125530 35.725371 -0.539189 0.708592 0.088084 -0.019606 -183086.000000 0 0 1
19.031300 -12.557187 26.283030 34.794698 -0.583246 0.714571 0.116480 -0.020350 84824.100000 0 0 1
18.183600 -13.569387 26.805760 35.118661 -0.641092 0.702404 0.108793 -0.015920 -119682.000000 0 0 1
18.832800 -14.903987 27.261740 36.331882 -0.669465 0.722200 0.111167 -0.004312 -674475.000000 0 0 1
17.921100 -15.863687 27.732910 36.632454 -0.724576 0.711997 0.094441 -0.002767 -102940.000000 0 0 1
18.479300 -16.944087 28.470990 37.936577 -0.742086 0.721994 0.084426 0.005500 39563.900000 0 0 1
19.234100 -17.991387 27.589600 38.142190 -0.752027 0.762176 0.090236 0.003033 89290.400000 0 0 1
20.533300 -17.679887 27.157950 38.363382 -0.710866 0.784257 0.102894 -0.000605 -129095.000000 0 0 1
20.898100 -18.621087 26.161130 38.312925 -0.727844 0.819170 0.091334 0.006834 -167368.000000 0 0 1
22.010900 -18.063887 25.254220 38.059944 -0.687224 0.845258 0.089434 -0.010104 135393.000000 0 0 1
23.204400 -17.881987 25.999570 39.168703 -0.656574 0.844929 0.063658 -0.009104 -24841.100000 0 0 1
24.201100 -17.205587 25.235380 38.968575 -0.618032 0.866388 0.043605 -0.013256 -270625.000000 0 0 1
25.506200 -17.170587 26.060210 40.305457 -0.592507 0.867720 0.056127 -0.017159 -275720.000000 0 0 1
26.114900 -18.380187 26.324320 41.385856 -0.613285 0.881401 0.061401 -0.015356 -534890.000000 0 0 1
27.145100 -18.719587 25.453830 41.655454 -0.603720 0.913402 0.048017 -0.026635 -624279.000000 0 0 1
27.791600 -20.118787 25.820660 42.940017 -0.626597 0.925645 0.053352 -0.033447 408972.000000 0 0 1
28.560100 -20.084787 27.037180 44.159790 -0.612901 0.911883 0.051419 -0.021164 125552.000000 0 0 1
29.001800 -21.358087 27.444400 45.282087 -0.634766 0.919678 0.067471 -0.030370 61187.000000 0 0 1
27.988900 -22.277587 28.193140 45.546927 -0.672263 0.903339 0.079244 -0.018053 215350.000000 0 0 1
27.803000 -21.939387 29.579740 46.144388 -0.668060 0.874962 0.076563 -0.014796 -168881.000000 0 0 1
27.182300 -22.986887 30.319700 46.760652 -0.701967 0.865313 0.077242 -0.010735 35985.500000 0 0 1
26.619300 -22.623187 31.743136 47.201932 -0.704424 0.833219 0.073490 -0.007614 39283.900000 0 0 1
26.268000 -23.823987 32.374212 48.017494 -0.736646 0.830892 0.070899 -0.010850 -67839.400000 0 0 1
25.927800 -23.639987 -33.682248 48.637369 -0.739276 2.335770 0.064754 -0.001890 -121129.000000 0 0 1
25.593500 -24.999167 -32.999108 48.671621 -0.773651 2.315828 0.060956 -0.010441 530536.000000 0 0 1
24.320100 -25.572117 -33.264388 48.496597 -0.810487 2.326652 0.077795 -0.017950 38246.400000 0 0 1
24.069300 -25.999477 32.858087 48.321402 -0.823930 0.823047 0.079507 -0.018137 -276786.000000 0 0 1
22.886700 -26.991007 32.795952 48.248212 -0.867501 0.823396 0.091899 -0.013644 67217.700000 0 0 1
23.014800 -28.310517 33.243288 49.358713 -0.888214 0.831857 0.088429 -0.021598 187471.000000 0 0 1
21.729000 -28.856277 33.521710 49.280211 -0.925373 0.822725 0.114400 -0.023416 94216.700000 0 0 1
21.654800 -30.361547 33.710880 50.271039 -0.951246 0.835803 0.088503 -0.019649 -35624.100000 0 0 1
22.283700 -31.022527 -32.641418 50.243633 -0.947889 2.277937 0.058698 -0.017434 -429080.000000 0 0 1
23.620700 -31.289777 -32.912978 51.188394 -0.924166 2.269176 0.044183 0.002520 -931882.000000 0 0 1
24.283800 -32.186187 -31.779348 51.337905 -0.924435 2.238295 0.036094 0.007752 -572431.000000 0 0 1
25.530600 -32.679047 -32.249068 52.533171 -0.907592 2.231763 0.028831 0.020278 203740.000000 0 0 1
26.238300 -33.324097 -31.204928 52.656351 -0.903806 2.205097 0.024813 0.036959 26534.400000 0 0 1
26.958900 -32.399917 -30.192458 51.847097 -0.876806 2.192396 0.026637 0.026694 -971228.000000 0 0 1
27.191300 -33.070527 -28.961708 51.689526 -0.882652 2.165546 0.045399 0.024848 -230556.000000 0 0 1
27.667700 -32.175577 -28.013088 50.847836 -0.860584 2.154263 0.056391 0.014931 -329884.000000 0 0 1
27.512000 -32.794517 -26.587788 50.391477 -0.872770 2.126598 0.071911 0.008286 -11246.900000 0 0 1
28.270200 33.744918 -26.205788 51.231504 0.873450 2.107746 0.071016 0.026631 -390357.000000 0 0 1
29.412500 -33.540657 -25.492108 51.380136 -0.850879 2.089952 0.070737 0.007836 -58527.400000 0 0 1
-27.819540 -30.330131 9.027162 42.134705 0.828546 1.354877 0.093990 -0.017172 43166.200000 0 0 1
-27.833770 -31.496431 9.748362 43.148285 0.847053 1.342902 0.099375 -0.025857 -187518.000000 0 0 1
-26.634930 -31.558431 10.476062 42.604014 0.869803 1.322355 0.085937 -0.026609 -189833.000000 0 0 1
-26.495180 -32.614831 11.650862 43.605784 0.888560 1.300324 0.085230 -0.024663 -110613.000000 0 0 1
-26.611000 33.693513 11.322762 44.402738 -0.902308 1.312947 0.097433 -0.009185 21710.500000 0 0 1
-27.964310 33.308813 11.175262 44.903966 -0.872402 1.319283 0.081657 -0.024406 -63068.300000 0 0 1
-28.040350 31.896713 10.724262 43.802641 -0.849650 1.323451 0.093538 -0.022049 29521.900000 0 0 1
-27.449960 31.656813 9.481262 42.959847 -0.856452 1.348264 0.126556 -0.041045 17077.100000 0 0 1
-27.573980 30.238913 9.174462 41.939087 -0.831461 1.350256 0.137800 -0.037624 57009.000000 0 0 1
-27.058560 29.916813 7.754262 41.076879 -0.835523 1.380882 0.116775 -0.026920 339979.000000 0 0 1
-25.647830 29.780613 7.699762 40.049750 -0.859821 1.377337 0.105881 -0.017205 358900.000000 0 0 1
-25.156180 29.530813 6.392762 39.316278 -0.865222 1.407473 0.104198 -0.011280 580180.000000 0 0 1
-23.775800 28.790813 6.288362 37.864800 -0.880513 1.403949 0.119234 -0.012226 388786.000000 0 0 1
-23.721600 27.408513 6.672462 36.857328 -0.857382 1.388758 0.114559 -0.006687 126298.000000 0 0 1
-24.280500 26.601113 5.660062 36.458171 -0.830975 1.414918 0.088138 -0.009520 -307148.000000 0 0 1
-24.460200 25.162413 6.065162 35.612282 -0.799548 1.399651 0.106209 -0.006620 110206.000000 0 0 1
-25.690130 25.084413 6.796162 36.543103 -0.773469 1.383731 0.112968 -0.008358 724512.000000 0 0 1
-26.060510 23.786313 7.199762 36.010769 -0.739806 1.369506 0.115132 -0.023570 123166.000000 0 0 1
-26.562480 22.800213 6.037062 35.522686 -0.709328 1.400018 0.103929 -0.037211 410215.000000 0 0 1
-27.905970 23.136913 5.640562 36.686181 -0.692236 1.416432 0.102748 -0.037167 875818.000000 0 0 1
-28.305530 22.617213 4.354362 36.492490 -0.674154 1.451189 0.094777 -0.034402 26667.500000 0 0 1
-27.943870 23.515913 3.159562 36.658435 -0.699563 1.484500 0.084553 -0.032989 -938021.000000 0 0 1
-26.562690 23.641513 3.039062 35.689404 -0.727278 1.485540 0.087465 -0.030227 -373833.000000 0 0 1
-26.258840 24.588113 1.992162 36.028748 -0.752552 1.515474 0.086680 -0.038215 -766103.000000 0 0 1
-24.781500 24.850213 1.810262 35.141612 -0.786783 1.519260 0.077754 -0.025727 -851922.000000 0 0 1
-24.394900 25.588413 0.675262 35.360063 -0.809272 1.551698 0.073649 -0.028134 -1019190.000000 0 0 1
-23.007900 25.607113 0.648662 34.431214 -0.838813 1.551956 0.093859 -0.027091 -1303020.000000 0 0 1
-22.368600 26.407713 -0.488438 34.611561 -0.868019 1.584909 0.106774 -0.027965 85691.700000 0 0 1
-21.955800 25.637913 -1.628538 33.793667 -0.862610 1.619006 0.098130 -0.025398 -278151.000000 0 0 1
-20.750500 24.949313 -1.495738 32.485208 -0.877019 1.616856 0.093877 -0.032049 -789058.000000 0 0 1
-20.464900 23.828513 -2.491438 31.509006 -0.861192 1.649950 0.096083 -0.041807 174073.000000 0 0 1
-21.375800 22.746013 -2.274238 31.296615 -0.816443 1.643528 0.091768 -0.030663 415363.000000 0 0 1
-21.044400 21.637413 -3.097138 30.341996 -0.799291 1.673049 0.096864 -0.027183 193681.000000 0 0 1
-22.213900 21.266213 -4.044738 31.017239 -0.763606 1.701572 0.086569 -0.019503 205736.000000 0 0 1
-22.279900 22.164813 -5.100838 31.838522 -0.782809 1.731699 0.081983 -0.018118 -308321.000000 0 0 1
-23.481900 21.967513 -5.781238 32.670996 -0.752090 1.748686 0.109666 -0.012921 -177787.000000 0 0 1
-23.464100 22.664713 -7.143538 33.395859 -0.768070 1.786367 0.136115 -0.011838 -2297.250000 0 0 1
-23.060300 21.755413 -8.136738 32.730444 -0.756290 1.822029 0.104617 -0.017322 97181.700000 0 0 1
-22.704900 22.480213 -9.235938 33.259210 -0.780426 1.852191 0.111893 -0.020042 -280270.000000 0 0 1
-22.272400 21.704013 -10.490038 32.820191 -0.772474 1.896126 0.102813 -0.015313 -565926.000000 0 0 1
-23.331100 21.145813 -11.162238 33.407802 -0.736305 1.911468 0.087364 -0.016015 -562369.000000 0 0 1
-22.882100 20.601313 -12.413238 33.197788 -0.732994 1.954026 0.072657 -0.010149 217920.000000 0 0 1
-23.982700 20.192213 -13.432138 34.107444 -0.699802 1.975578 0.072233 -0.026344 409118.000000 0 0 1
-24.834400 19.120813 -13.027538 33.942152 -0.656136 1.964722 0.089067 -0.016351 438741.000000 0 0 1
-26.176320 19.385113 -13.416738 35.227705 -0.637432 1.961520 0.103573 -0.033306 258493.000000 0 0 1
-26.987570 18.098913 -13.605338 35.227899 -0.590748 1.967315 0.173771 -0.037520 -527265.000000 0 0 1
-26.451170 17.327113 -14.644138 34.847440 -0.579924 2.004501 0.163194 -0.033557 -166436.000000 0 0 1
-27.066410 16.104613 -14.873138 34.830437 -0.536738 2.011986 0.166287 -0.033428 -494915.000000 0 0 1
-26.535800 15.451413 -16.145738 34.692647 -0.527292 2.054876 0.170630 -0.026503 -303742.000000 0 0 1
-25.264220 14.899813 -15.994038 33.408001 -0.532856 2.070025 0.171709 -0.022503 -369888.000000 0 0 1
-24.822300 14.401813 -17.250938 33.483633 -0.525731 2.112043 0.166028 -0.034788 348934.000000 0 0 1
-23.808900 13.206713 -17.158638 32.182291 -0.506442 2.133140 0.165738 -0.033204 216648.000000 0 0 1
-22.571200 13.560313 -16.597938 31.126078 -0.540992 2.133232 0.156035 -0.042852 -577922.000000 0 0 1
-21.809200 12.411213 -16.497138 30.030568 -0.517375 2.152376 0.138715 -0.028012 -269218.000000 0 0 1
-20.559400 12.549313 -15.584838 28.689046 -0.548026 2.145079 0.136345 -0.037764 -560514.000000 0 0 1
-19.548600 13.283413 -16.190038 28.648110 -0.596840 2.171393 0.109694 -0.027848 -663854.000000 0 0 1
-18.520900 13.336113 -15.225938 27.435467 -0.624061 2.159127 0.092542 -0.020021 -500038.000000 0 0 1
-17.545800 14.463913 -15.601638 27.576639 -0.689414 2.172146 0.079250 -0.016106 -543890.000000 0 0 1
-16.887700 14.376313 -16.819438 27.834624 -0.705242 2.219637 0.103333 -0.029839 -104741.000000 0 0 1
-16.130700 15.536513 -17.069538 28.159401 -0.766637 2.222039 0.095997 -0.024998 -377327.000000 0 0 1
-15.454100 15.376913 -18.429738 28.547048 -0.782895 2.272594 0.126234 -0.027702 181611.000000 0 0 1
-14.413500 14.394013 -18.430838 27.470573 -0.784722 2.306259 0.124482 -0.021987 -70835.800000 0 0 1
-13.532800 14.620013 -19.481338 27.864027 -0.823997 2.345015 0.161564 -0.026801 -132819.000000 0 0 1
-12.288500 13.724513 -19.500938 26.826407 -0.840546 2.384638 0.145221 -0.020950 61024.700000 0 0 1
-12.681800 12.401813 -19.856638 26.625535 -0.774236 2.412493 0.159979 -0.025843 -485259.000000 0 0 1
-11.622100 11.535413 -19.694238 25.612536 -0.781655 2.447962 0.126417 -0.018161 -611240.000000 0 0 1
-11.703800 10.209013 -20.412938 25.649385 -0.717288 2.491198 0.135807 -0.031003 -109925.000000 0 0 1
-11.520900 10.180813 -21.824538 26.696265 -0.723726 2.527875 0.150379 -0.040102 -291347.000000 0 0 1
-11.754800 8.904913 -22.329938 26.760025 -0.648319 2.557933 0.133517 -0.027320 -30503.500000 0 0 1
-11.299600 8.716213 -23.773538 27.727864 -0.657040 2.600969 0.123530 -0.026858 95282.500000 0 0 1
-9.921800 8.847213 -24.060838 27.488893 -0.728207 2.636838 0.124347 -0.019741 -65102.300000 0 0 1
-9.753800 8.434413 -25.447268 28.527871 -0.712984 2.672578 0.084200 -0.033454 -548544.000000 0 0 1
-9.851400 9.466113 -26.597888 29.901589 -0.765456 2.667077 0.138084 -0.037520 -275276.000000 0 0 1
-8.674300 10.109113 -27.031248 30.135130 -0.861637 2.683734 0.107795 -0.043106 18498.400000 0 0 1
-8.318600 11.240213 -26.281978 29.770520 -0.933678 2.652626 0.083378 -0.032802 -107776.000000 0 0 1
-6.822500 11.581213 -26.471488 29.688562 -1.038430 2.671749 0.076259 -0.034206 -64248.400000 0 0 1
-6.529000 12.262713 -27.677068 30.968082 -1.081545 2.676386 0.090468 -0.054399 500108.000000 0 0 1
-5.125500 12.499913 -27.716848 30.834109 -1.181662 2.688054 0.108624 -0.052495 34635.000000 0 0 1
-4.589700 12.850013 -29.085918 32.127540 -1.227744 2.702945 0.111273 -0.048340 262913.000000 0 0 1
-3.174600 13.036813 -29.067178 32.014644 -1.331935 2.709124 0.130737 -0.058512 722477.000000 0 0 1
-2.547200 13.063613 -30.341848 33.132672 -1.378228 2.728212 0.126833 -0.056102 -264537.000000 0 0 1
-1.077200 12.672213 -30.260438 32.824373 -1.485995 2.743725 0.157003 -0.067056 -744419.000000 0 0 1
-0.814200 11.351713 -29.786378 31.886559 -1.499194 2.776627 0.131485 -0.041684 531583.000000 0 0 1
0.567100 11.000013 -29.866728 31.833054 1.519287 2.788275 0.144746 -0.050797 923951.000000 0 0 1
1.220100 10.557513 -31.244728 33.002769 1.455740 2.813723 0.159120 -0.051150 18758.900000 0 0 1
1.386700 11.626413 -32.183628 34.247370 1.452086 2.792666 0.160931 -0.062275 13027.700000 0 0 1
1.447600 10.983313 -33.468948 35.254776 1.439752 2.821941 0.176742 -0.053995 -17886.300000 0 0 1
1.974100 11.865813 32.825646 34.960230 1.405938 0.351252 0.159137 -0.053782 -1118810.000000 0 0 1
3.353400 11.879813 32.726158 34.976802 1.295677 0.360691 0.167193 -0.062498 -1143290.000000 0 0 1
3.747200 12.773513 31.676242 34.359693 1.285445 0.397837 0.153139 -0.046063 -966494.000000 0 0 1
5.222700 13.042613 31.618560 34.599418 1.189916 0.418138 0.149139 -0.039312 -992646.000000 0 0 1
5.947500 11.890813 31.244950 33.956017 1.107008 0.402309 0.152664 -0.052134 1194020.000000 0 0 1
7.387400 12.120713 31.138070 34.220824 1.023431 0.427715 0.134472 -0.036074 1545340.000000 0 0 1
8.044800 10.814513 30.709620 33.537342 0.931218 0.413589 0.109567 -0.033850 -230244.000000 0 0 1
7.802200 10.627013 29.340770 32.166575 0.937494 0.422295 0.112872 -0.039471 -98971.200000 0 0 1
8.742600 9.727513 28.846300 31.672806 0.838672 0.425677 0.122414 -0.039480 186671.000000 0 0 1
8.106000 8.872913 27.688310 30.184075 0.830536 0.409512 0.112649 -0.035898 549742.000000 0 0 1
7.144900 7.968513 28.203280 30.165739 0.839840 0.362695 0.111073 -0.037154 -183783.000000 0 0 1
6.498500 7.262313 27.204450 28.897298 0.840848 0.343984 0.129888 -0.039175 382577.000000 0 0 1
5.611600 6.034613 27.734560 28.932896 0.821704 0.288814 0.142350 -0.040467 578373.000000 0 0 1
6.297900 4.856813 28.099680 29.203497 0.656919 0.275819 0.104826 -0.032536 -214002.000000 0 0 1
5.401000 3.992013 28.754700 29.528626 0.636505 0.229454 0.127630 -0.034796 -457415.000000 0 0 1
5.992100 2.715913 29.461490 30.187098 0.425553 0.219699 0.125576 -0.024101 -13564.200000 0 0 1
6.375100 1.628013 28.656780 29.402438 0.250027 0.225692 0.119270 -0.021594 -140794.000000 0 0 1
7.766600 1.444813 28.796060 29.860018 0.183927 0.267750 0.111575 -0.015196 -171515.000000 0 0 1
8.141900 0.088113 28.159540 29.313103 0.010822 0.281475 0.111055 -0.023066 -361988.000000 0 0 1
7.858300 -1.062087 28.915740 29.983344 -0.134341 0.267656 0.092391 -0.031214 -118681.000000 0 0 1
7.988900 -2.233087 28.164960 29.361100 -0.272567 0.286421 0.118216 -0.030755 -219028.000000 0 0 1
8.985600 -3.253187 28.771210 30.316774 -0.347364 0.320686 0.101131 -0.026621 856454.000000 0 0 1
10.344800 -2.793487 28.729090 30.662340 -0.263747 0.356997 0.064531 -0.023661 338853.000000 0 0 1
11.163100 -3.701487 28.048720 30.414577 -0.320174 0.397031 0.096279 -0.027319 305232.000000 0 0 1
12.703100 -3.397987 28.134100 31.055477 -0.261373 0.437224 0.069884 -0.027388 707285.000000 0 0 1
13.568900 -4.334187 27.578260 31.039663 -0.309177 0.476764 0.096825 -0.037456 -30004.200000 0 0 1
13.928000 -5.416187 28.466040 32.150268 -0.370875 0.483430 0.117090 -0.040207 -441592.000000 0 0 1
13.322600 -6.809087 28.151510 31.880446 -0.472483 0.488509 0.133269 -0.033509 -937391.000000 0 0 1
11.942700 -6.797387 28.212180 31.380881 -0.517439 0.453260 0.132846 -0.030383 -1090250.000000 0 0 1
11.338100 -8.051587 28.072170 31.327740 -0.617496 0.459937 0.161606 -0.033995 870658.000000 0 0 1
9.793900 -8.005087 27.800650 30.543052 -0.685234 0.427001 0.186083 -0.035956 864306.000000 0 0 1
9.078800 -7.449887 28.893950 31.189514 -0.687165 0.386061 0.220732 -0.039516 -583919.000000 0 0 1
7.716600 -7.364387 28.589370 30.514459 -0.762048 0.357106 0.228350 -0.040231 -262266.000000 0 0 1
6.860900 -6.991387 29.846200 31.412531 -0.794818 0.317122 0.205642 -0.052225 63236.800000 0 0 1
6.664900 -8.070487 30.707010 32.441858 -0.880499 0.328509 0.232103 -0.065561 174005.000000 0 0 1
5.969400 -7.647187 31.917202 33.358972 -0.907997 0.295076 0.226537 -0.055199 78982.800000 0 0 1
6.668200 -6.766987 32.989383 34.330109 -0.792751 0.280396 0.199758 -0.033182 -410312.000000 0 0 1
6.880400 -5.498787 32.551022 33.721590 -0.674250 0.264255 0.196030 -0.031549 -163663.000000 0 0 1
7.299900 -4.591087 33.543570 34.634343 -0.561417 0.251637 0.153079 -0.017351 91884.800000 0 0 1
7.527700 -3.254087 32.843111 33.851519 -0.408022 0.244697 0.138576 -0.031735 370827.000000 0 0 1
6.291100 -2.754987 32.366808 33.087431 -0.412761 0.209088 0.173668 -0.043613 299937.000000 0 0 1
6.617000 -1.482087 31.895242 32.608093 -0.220345 0.209482 0.132364 -0.022339 -10400.400000 0 0 1
5.400700 -0.711387 31.371966 31.841387 -0.130967 0.171923 0.183386 -0.045484 -912422.000000 0 0 1
4.391300 -0.456487 32.250563 32.551354 -0.103581 0.136050 0.164369 -0.038770 -1307900.000000 0 0 1
3.419900 0.257013 31.555963 31.741780 0.075011 0.108256 0.170317 -0.040306 -561123.000000 0 0 1
2.218500 0.731813 32.364995 32.449194 0.318629 0.072054 0.156951 -0.039716 -256382.000000 0 0 1
2.484200 1.920813 33.184164 33.332410 0.658192 0.094348 0.148739 -0.032166 783618.000000 0 0 1
1.363400 2.411213 -33.493008 33.607357 1.056175 3.059077 0.125284 -0.037058 921471.000000 0 0 1
1.890900 3.509613 -32.510898 32.754410 1.076610 3.019579 0.117259 -0.034752 223931.000000 0 0 1
2.795400 3.058813 -31.531748 31.802858 0.830363 3.010927 0.101560 -0.012041 -263020.000000 0 0 1
3.423800 4.100413 -30.849778 31.308858 0.875082 2.970135 0.095003 -0.023427 -407877.000000 0 0 1
4.375700 3.592013 -29.762268 30.295906 0.687356 2.953624 0.097121 -0.016174 -288172.000000 0 0 1
3.782100 2.812313 -28.699308 29.083736 0.639383 2.978822 0.098767 -0.022259 -88181.700000 0 0 1
4.433300 2.899013 -27.472438 27.978443 0.579124 2.951118 0.104139 -0.024717 -386288.000000 0 0 1
3.963700 1.923413 -26.358288 26.723955 0.451784 2.975976 0.089246 -0.023329 -147697.000000 0 0 1
4.269000 0.544213 -26.545448 26.892031 0.126796 2.980871 0.114557 -0.020948 208602.000000 0 0 1
3.838800 -0.248287 -25.417398 25.706851 -0.064588 2.991387 0.120111 -0.016331 -328117.000000 0 0 1
4.515000 -1.618287 -25.379148 25.828381 -0.344160 2.954811 0.130126 -0.028320 104022.000000 0 0 1
5.880500 -1.515187 -25.007938 25.734666 -0.252178 2.903378 0.117596 -0.032908 -7478.600000 0 0 1
6.335300 -2.806187 -24.690138 25.643979 -0.416971 2.867993 0.118182 -0.033715 -58419.400000 0 0 1
7.827000 -2.911387 -24.328738 25.722084 -0.356109 2.810940 0.134007 -0.041543 -179074.000000 0 0 1
8.699000 -2.886487 -25.404318 27.007106 -0.320386 2.795346 0.117736 -0.040213 -1229640.000000 0 0 1
10.005300 -3.180887 -25.045638 27.157100 -0.307815 2.744657 0.121105 -0.033319 -479579.000000 0 0 1
-30.479120 -3.906987 16.974320 35.105112 0.127490 1.066115 0.136215 -0.023725 -193351.000000 0 0 1
-31.805890 -3.777487 17.389420 36.445521 0.118213 1.073405 0.125110 -0.010626 -231184.000000 0 0 1
-32.504490 -4.878087 17.976520 37.463221 0.148963 1.070319 0.123753 -0.026561 444552.000000 0 0 1
-33.923310 -4.610987 18.502820 38.915377 0.135096 1.075306 0.111228 -0.025735 491673.000000 0 0 1
-34.934512 -4.456687 17.486220 39.319844 0.126887 1.109938 0.103035 -0.029056 641608.000000 0 0 1
-36.217730 -4.306687 18.065020 40.701554 0.118355 1.110916 0.113085 -0.018769 -475555.000000 0 0 1
-37.282970 -4.422187 17.019720 41.221918 0.118060 1.145182 0.096379 -0.022291 -557279.000000 0 0 1
37.088716 -4.456687 17.444620 41.228021 -0.119589 1.133904 0.106195 -0.018791 -325302.000000 0 0 1
36.142376 -4.388487 16.433120 39.944682 -0.120831 1.146810 0.100112 -0.029989 736380.000000 0 0 1
34.684416 -4.805687 16.857020 38.862096 -0.137678 1.122129 0.090354 -0.021339 725990.000000 0 0 1
34.053556 -3.938487 17.772720 38.613805 -0.115144 1.092499 0.098497 -0.025318 441013.000000 0 0 1
32.768196 -4.477887 18.062520 37.683694 -0.135812 1.070917 0.132873 -0.027897 202547.000000 0 0 1
32.051196 -3.838987 19.283420 37.601427 -0.119209 1.032310 0.145212 -0.032246 -144008.000000 0 0 1
31.025486 -2.937487 18.988220 36.493316 -0.094398 1.023570 0.148231 -0.026756 77398.100000 0 0 1
31.531066 -1.621587 18.695320 36.692679 -0.051383 1.036180 0.164804 -0.026807 -260823.000000 0 0 1
30.426406 -0.583387 18.618620 35.675756 -0.019171 1.021738 0.148002 -0.013726 -480276.000000 0 0 1
30.934956 0.699113 18.395920 35.998197 0.022596 1.034421 0.161888 -0.022705 372714.000000 0 0 1
30.026306 1.744013 18.751920 35.443690 0.058018 1.013301 0.143453 -0.028612 337761.000000 0 0 1
30.575306 3.139813 18.283520 35.763038 0.102332 1.034169 0.154246 -0.027581 197655.000000 0 0 1
30.372406 3.431113 16.885820 34.919715 0.112491 1.066078 0.163957 -0.015599 19249.600000 0 0 1
29.133406 4.047013 16.600120 33.774216 0.138030 1.056982 0.169788 -0.024505 133096.000000 0 0 1
28.922906 4.215413 15.061720 32.880992 0.144728 1.094976 0.161690 -0.019956 -430212.000000 0 0 1
28.556206 5.501313 14.599120 32.540063 0.190317 1.105541 0.188452 -0.034710 165008.000000 0 0 1
28.167206 5.480613 13.218420 31.593595 0.192173 1.139125 0.148796 -0.025254 -160156.000000 0 0 1
27.439806 6.807113 12.754120 31.015276 0.243166 1.147004 0.162230 -0.014868 232409.000000 0 0 1
26.115206 6.900613 13.257520 30.089604 0.258333 1.114528 0.108042 -0.020398 146213.000000 0 0 1
25.569106 8.093013 12.752920 29.697021 0.306539 1.126930 0.151182 -0.031300 -536761.000000 0 0 1
24.173806 8.472113 13.274320 28.850601 0.337090 1.092682 0.142531 -0.035003 572913.000000 0 0 1
23.044406 7.626713 12.927720 27.501588 0.319611 1.081424 0.137910 -0.015245 1302670.000000 0 0 1
23.009006 6.320013 13.483020 27.407093 0.268065 1.056464 0.143257 -0.016320 -1211110.000000 0 0 1
21.648506 5.591513 13.410720 26.072404 0.252762 1.030530 0.157374 -0.017686 -293974.000000 0 0 1
21.362706 5.341113 12.102120 25.126759 0.244998 1.068268 0.154439 -0.031076 447456.000000 0 0 1
20.179506 4.586913 11.959620 23.901564 0.223508 1.046771 0.138472 -0.022864 -208578.000000 0 1 0
20.043206 4.274213 10.473920 23.015256 0.210103 1.098328 0.163903 -0.024660 -157590.000000 0 1 0
20.972206 3.323913 10.001120 23.471349 0.157184 1.130620 0.160068 -0.027802 256402.000000 0 1 0
20.913206 3.098613 8.586620 22.818713 0.147095 1.185000 0.192814 -0.030738 -9043.980000 0 1 0
22.205206 2.601113 7.886920 23.707393 0.116608 1.231655 0.201515 -0.027388 -688596.000000 0 1 0
22.603306 1.254413 8.091120 24.040575 0.055440 1.227534 0.223989 -0.028228 930883.000000 0 1 0
23.469206 0.703113 7.084320 24.525203 0.029950 1.277762 0.220168 -0.017434 210309.000000 0 1 0
24.952006 1.163013 6.929720 25.922504 0.046576 1.300181 0.185418 -0.017085 -132634.000000 0 0 1
25.724406 0.724113 8.015420 26.953968 0.028141 1.268855 0.161295 -0.005110 70764.500000 0 0 1
25.643506 1.508313 9.209420 27.288786 0.058751 1.226558 0.163581 -0.016213 -561849.000000 0 0 1
26.468306 0.870513 10.383620 28.445537 0.032877 1.197126 0.126340 -0.015138 484965.000000 0 0 1
27.871006 1.074613 10.242120 29.712772 0.038538 1.218873 0.152417 -0.034211 427085.000000 0 0 1
28.584106 0.442213 11.298120 30.739131 0.015469 1.194425 0.121338 -0.020000 -127648.000000 0 0 1
30.091806 0.706713 11.237520 32.129396 0.023481 1.213483 0.179430 -0.025719 -200347.000000 0 0 1
30.405106 2.028313 11.667720 32.630051 0.066611 1.205125 0.182497 -0.025677 314926.000000 0 0 1
31.798826 2.250313 11.777320 33.984328 0.070649 1.216904 0.179656 -0.029889 142829.000000 0 0 1
32.315486 3.732013 11.701720 34.570925 0.114977 1.225491 0.178998 -0.037418 32764.600000 0 0 1
33.719666 3.808113 11.577120 35.854530 0.112458 1.242013 0.173824 -0.039671 65057.000000 0 0 1
34.214656 5.049313 12.126120 36.649435 0.146520 1.233573 0.163105 -0.039913 -626592.000000 0 0 1
35.653006 5.116613 11.645320 37.854063 0.142538 1.258087 0.192354 -0.035021 -1348280.000000 0 0 1
36.523046 4.200713 12.205520 38.736980 0.114512 1.250248 0.186615 -0.040273 -412208.000000 0 0 1
37.785186 4.385213 11.602620 39.768973 0.115540 1.274740 0.172547 -0.027153 8535.620000 0 0 1
-36.780140 3.580513 12.275120 38.939406 -0.097043 1.250091 0.158939 -0.019916 -297144.000000 0 0 1
-36.641850 2.242313 11.922220 38.597830 -0.061119 1.256778 0.138955 -0.019848 -135639.000000 0 0 1
-37.667480 1.353313 12.250020 39.632481 -0.035912 1.256560 0.156862 -0.018792 -561286.000000 0 0 1
37.778166 1.114013 13.758320 40.220918 0.029480 1.221679 0.165122 -0.017752 -10906.700000 0 0 1
-37.019840 0.217813 14.383920 39.716661 -0.005884 1.200209 0.136762 -0.023346 392697.000000 0 0 1
-37.408490 0.025313 15.695720 40.567862 -0.000677 1.173529 0.148488 -0.029683 -164462.000000 0 0 1
-36.351850 -0.770187 16.488420 39.923905 0.021184 1.145055 0.121264 -0.022316 -1012100.000000 0 0 1
-35.251947 -0.039787 16.821020 39.059546 0.001129 1.125583 0.118029 -0.023869 -1381300.000000 0 0 1
-34.263140 -0.782787 17.438520 38.453576 0.022842 1.100113 0.109686 -0.015446 -329726.000000 0 0 1
-34.134173 -0.684887 19.007620 39.075574 0.020062 1.062795 0.089299 -0.019471 -214156.000000 0 0 1
-34.970030 -1.618287 19.667520 40.153869 0.046243 1.058932 0.093567 -0.024664 101472.000000 0 0 1
-34.750663 -1.568787 21.078820 40.674149 0.045113 1.026009 0.079065 -0.023919 1618.490000 0 0 1
-35.671868 -2.461187 21.916520 41.938926 0.068886 1.020920 0.085054 -0.012811 -179788.000000 0 0 1
-35.250913 -3.823687 21.836120 41.642090 0.108048 1.018814 0.090724 -0.018680 497992.000000 0 0 1
-36.112970 -4.811787 22.434710 42.785700 0.132462 1.018844 0.085042 -0.018058 322437.000000 0 0 1
-36.314170 -4.706187 23.977570 43.769750 0.128878 0.991050 0.083732 -0.020381 -86254.800000 0 0 1
-35.055842 -4.857187 24.569210 43.083064 0.137679 0.963955 0.087083 -0.019845 -578533.000000 0 0 1
-35.105574 -4.560787 25.942060 43.888411 0.129193 0.938385 0.086107 -0.026614 269283.000000 0 0 1
-33.887300 -3.828787 26.588620 43.243074 0.112509 0.908583 0.094795 -0.025203 270403.000000 0 0 1
-33.891320 -2.391187 26.466090 43.067311 0.070438 0.909008 0.101788 -0.022913 248469.000000 0 0 1
-33.227210 -2.053987 25.215080 41.762024 0.061738 0.922562 0.090624 -0.016334 52502.300000 0 0 1
-33.041570 -0.530687 24.841610 41.341657 0.016060 0.926188 0.093492 -0.015100 667615.000000 0 0 1
-34.247207 0.118913 24.395390 42.047835 -0.003472 0.951844 0.099142 -0.025284 506185.000000 0 0 1
-34.045586 1.457413 23.991670 41.675247 -0.042782 0.957359 0.112055 -0.020903 513742.000000 0 0 1
-35.395563 2.200613 23.675590 42.640617 -0.062092 0.982150 0.123577 -0.015781 544098.000000 0 0 1
-36.066270 1.750013 22.533330 42.562770 -0.048484 1.012887 0.126917 -0.018169 559474.000000 0 0 1
-37.168190 2.572513 22.068720 43.302663 -0.069103 1.036031 0.136118 -0.015837 996992.000000 0 0 1
-36.801260 4.023813 21.469220 42.795458 -0.108906 1.045268 0.131039 -0.012761 79800.700000 0 0 1
-36.041460 3.976713 20.266120 41.539340 -0.109893 1.061139 0.124896 -0.014566 531597.000000 0 0 1
-36.877470 3.511113 19.206120 41.727099 -0.094924 1.092487 0.162448 -0.026527 261455.000000 0 0 1
-36.041390 2.821213 18.131120 40.443523 -0.078118 1.105926 0.158563 -0.025228 -80299.600000 0 0 1
-35.211940 3.665713 17.365420 39.431916 -0.103731 1.114763 0.151215 -0.028573 131491.000000 0 0 1
-34.679336 3.025513 16.207320 38.399054 -0.087022 1.135062 0.159226 -0.025628 83183.200000 0 0 1
-33.727130 3.972313 15.424320 37.298904 -0.117238 1.144466 0.157073 -0.028914 -104499.000000 0 0 1
-34.411922 5.099813 14.996420 37.882464 -0.147128 1.163784 0.177335 -0.037300 216879.000000 0 0 1
-33.526660 6.113913 14.509920 37.039907 -0.180378 1.168277 0.197515 -0.035211 36183.500000 0 0 1
-34.235661 7.177113 13.638420 37.544613 -0.206646 1.199033 0.210306 -0.044960 -687590.000000 0 0 1
-33.360980 7.956213 12.918820 36.649042 -0.234115 1.210554 0.229833 -0.036230 -768478.000000 0 0 1
-33.885770 8.964913 12.128320 37.090582 -0.258637 1.237678 0.208297 -0.038877 -1166040.000000 0 0 1
-32.848470 9.811013 11.445520 36.142467 -0.290241 1.248571 0.235127 -0.039457 -557281.000000 0 0 1
-33.257760 11.035313 10.919520 36.702761 -0.320380 1.268710 0.206551 -0.023594 -527814.000000 0 0 1
-32.185540 11.647813 10.266920 35.735000 -0.347233 1.279382 0.207984 -0.036119 -278424.000000 0 0 1
-32.368690 13.099413 9.776320 36.261594 -0.384546 1.297813 0.181529 -0.026426 67595.800000 0 0 1
-31.329070 13.559713 8.935120 35.287574 -0.408472 1.314801 0.175955 -0.021589 243915.000000 0 0 1
-31.562580 14.974313 8.788120 36.023015 -0.442985 1.324351 0.149263 -0.016773 -6062.560000 0 0 1
-30.560990 15.672413 7.859720 35.233136 -0.473854 1.345826 0.151404 -0.014745 401816.000000 0 0 1
-29.212250 15.618913 8.320720 34.154654 -0.490997 1.324701 0.182463 -0.012950 559397.000000 0 0 1
-28.309150 16.369513 7.534620 33.558001 -0.524267 1.344340 0.142428 -0.032339 12385.000000 0 0 1
-26.899160 16.509113 8.137820 32.593554 -0.550462 1.318451 0.143114 -0.021504 -389400.000000 0 0 1
-26.966590 17.090513 9.465820 33.299916 -0.564878 1.282562 0.130465 -0.024299 310446.000000 0 0 1
-27.400980 18.442013 9.597120 34.395149 -0.592403 1.288017 0.124308 -0.034950 -278147.000000 0 0 1
-27.454930 18.849513 11.072720 35.095334 -0.601650 1.249809 0.134731 -0.022376 305282.000000 0 0 1
-26.203920 19.037813 11.737420 34.450701 -0.628307 1.223133 0.129652 -0.020570 559861.000000 0 0 1
-26.358310 19.455813 13.051520 35.265158 -0.635860 1.191683 0.125700 -0.027029 104424.000000 0 0 1
-26.858360 18.446113 14.105120 35.504718 -0.601807 1.162251 0.109584 -0.025462 585032.000000 0 0 1
-25.834050 17.467313 14.408520 34.352739 -0.594529 1.137981 0.120080 -0.029607 752865.000000 0 0 1
-26.222960 16.584413 15.416420 34.646103 -0.563931 1.109657 0.123590 -0.023269 -684023.000000 0 0 1
-25.098390 15.656313 15.844120 33.557197 -0.557734 1.079065 0.112171 -0.018592 -228323.000000 0 0 1
-23.999100 16.311113 16.473820 33.367589 -0.596941 1.054449 0.102735 -0.023835 -487692.000000 0 0 1
-22.828800 15.597313 16.567120 32.231968 -0.599382 1.030959 0.085308 -0.039930 -794991.000000 0 0 1
-22.825500 14.305913 17.468020 32.105986 -0.559858 0.995512 0.110643 -0.021328 -756476.000000 0 0 1
-22.857800 14.670613 18.821520 33.044751 -0.570604 0.964806 0.104844 -0.014630 103967.000000 0 0 1
-23.020900 13.559813 19.641820 33.160692 -0.532308 0.936858 0.097484 -0.014677 -752842.000000 0 0 1
-22.836200 13.798213 21.222320 34.092076 -0.543521 0.898863 0.096959 -0.013763 -206813.000000 0 0 1
-21.557400 14.103713 21.712920 33.691054 -0.579350 0.870465 0.092977 -0.014308 -362099.000000 0 0 1
-20.935500 15.256813 21.130020 33.429677 -0.629764 0.886570 0.090961 -0.001777 -435896.000000 0 0 1
-19.463900 15.251613 21.663120 32.874700 -0.664651 0.851361 0.087881 -0.013522 624348.000000 0 0 1
-18.482700 14.552013 20.918320 31.479317 -0.666968 0.843958 0.069334 -0.009017 114225.000000 0 0 1
-17.944000 15.443413 19.942720 30.954778 -0.710642 0.870750 0.071296 -0.020544 -1162880.000000 0 0 1
-16.685600 14.901413 19.192820 29.475850 -0.728973 0.861715 0.080103 -0.013574 996612.000000 0 0 1
-15.588200 14.614413 20.085520 29.325777 -0.753168 0.816316 0.061002 -0.006989 311325.000000 0 0 1
-14.905900 15.687613 20.648920 29.910951 -0.810944 0.808828 0.058003 -0.013083 -1670930.000000 0 0 1
-13.946700 15.291113 21.710120 29.994298 -0.831348 0.761491 0.027273 -0.012739 -39420.300000 0 0 1
-12.668600 14.855113 21.191220 28.813810 -0.864673 0.744460 0.021129 -0.002997 565347.000000 0 0 1
-12.018300 14.233613 22.299120 29.056601 -0.869585 0.695962 0.037921 -0.002851 5489.350000 0 0 1
-10.710000 13.536813 21.860820 27.853992 -0.901459 0.668365 0.037205 -0.007290 -960496.000000 0 0 1
-10.150100 12.626913 22.801860 27.971205 -0.893714 0.617738 0.043767 -0.003980 627043.000000 0 0 1
-8.927100 11.977113 22.420680 26.941256 -0.930280 0.587721 0.052348 0.005214 333135.000000 0 0 1
-7.749000 12.942613 22.564670 27.142634 -1.031319 0.589288 0.056292 0.007175 -1556610.000000 0 0 1
-7.437900 13.842113 21.523720 26.649522 -1.077726 0.630626 0.046942 0.001569 -55904.700000 0 0 1
-6.732600 15.007113 21.961620 27.438187 -1.149085 0.642828 0.044847 0.007105 180489.000000 0 0 1
-7.626900 16.193613 22.457580 28.718385 -1.130631 0.672939 0.062823 -0.010200 490569.000000 0 0 1
-8.502300 16.717713 21.471720 28.509750 -1.100308 0.717980 0.026792 -0.008590 -447658.000000 0 0 1
-7.863100 17.520513 20.517920 28.103057 -1.148946 0.752334 0.042256 -0.014595 -838332.000000 0 0 1
-8.709700 17.666013 19.195620 27.503068 -1.112748 0.798273 0.034954 -0.020059 1190260.000000 0 0 1
-9.958400 18.350313 19.298720 28.431397 -1.073588 0.824694 0.024099 -0.017767 1327690.000000 0 0 1
-10.991800 17.696013 20.120620 28.962181 -1.014974 0.802765 0.017287 -0.014432 -664980.000000 0 0 1
-12.200700 18.571113 20.358620 30.136635 -0.989536 0.829094 0.024734 -0.015188 -698770.000000 0 0 1
-13.042400 18.446613 19.225820 29.665028 -0.955365 0.865713 0.033776 -0.019444 -310830.000000 0 0 1
-14.215100 19.181613 19.495520 30.823346 -0.933029 0.886030 0.044736 -0.021937 558573.000000 0 0 1
-15.255800 19.342713 18.298220 30.687210 -0.902977 0.931935 0.066244 -0.023562 410300.000000 0 0 1
-16.024800 18.181713 18.050520 30.219037 -0.848370 0.930638 0.078803 -0.025420 -426238.000000 0 0 1
-16.860100 18.538413 17.006720 30.284720 -0.832775 0.974525 0.093339 -0.035181 -944185.000000 0 0 1
-17.658900 17.296313 16.470620 29.703208 -0.775026 0.983027 0.087750 -0.039704 646924.000000 0 0 1
-18.731800 16.781813 17.249220 30.496642 -0.730545 0.969623 0.093034 -0.033746 46902.400000 0 0 1
-19.894500 17.561613 17.252420 31.651973 -0.723195 0.994328 0.096759 -0.032016 -807763.000000 0 0 1
35.825226 -9.522587 12.077062 38.986945 -0.259799 1.255843 0.091362 -0.046959 -1333500.000000 0 0 1
34.599936 -9.830487 11.540862 37.775462 -0.276824 1.260320 0.091403 -0.033433 -1050280.000000 0 0 1
34.175386 -10.977887 12.215462 37.916863 -0.310811 1.242781 0.094940 -0.034371 731415.000000 0 0 1
32.623786 -11.238987 12.233862 36.610021 -0.331769 1.230075 0.115204 -0.024967 608100.000000 0 0 1
31.880336 -10.231487 12.902062 35.881783 -0.310550 1.202988 0.127478 -0.019218 4740.720000 0 0 1
30.480006 -10.291187 12.839462 34.638000 -0.325619 1.191060 0.128212 -0.025920 276274.000000 0 0 1
29.741606 -11.340487 13.725062 34.663339 -0.364283 1.163691 0.115849 -0.014191 -982449.000000 0 0 1
29.772506 -10.966187 15.075562 35.127367 -0.352913 1.127224 0.122887 -0.012925 317455.000000 0 0 1
28.785506 -11.539287 15.936662 34.867430 -0.381257 1.096104 0.124976 -0.019722 482046.000000 0 0 1
27.311006 -11.174487 15.665162 33.408943 -0.388375 1.082761 0.121331 -0.029972 -442166.000000 0 0 1
27.149106 -9.839187 16.059662 33.042341 -0.347690 1.063252 0.120185 -0.024853 -275289.000000 0 0 1
26.320706 -9.111987 15.177762 31.720219 -0.333277 1.071864 0.128436 -0.028131 202207.000000 0 0 1
25.958706 -7.659887 15.613862 31.246135 -0.286937 1.047538 0.153132 -0.045492 361148.000000 0 0 1
27.082106 -6.790487 15.512762 31.940522 -0.245672 1.063659 0.134312 -0.036522 247745.000000 0 0 1
26.848806 -5.490087 16.017862 31.742264 -0.201701 1.041852 0.152624 -0.036755 392692.000000 0 0 1
28.186406 -4.703387 15.941162 32.721797 -0.165344 1.061947 0.154426 -0.032279 347328.000000 0 0 1
28.543806 -4.271887 14.671562 32.376729 -0.148558 1.100499 0.167426 -0.034495 1027740.000000 0 0 1
29.834506 -3.613587 14.595362 33.409285 -0.120534 1.118685 0.160771 -0.031385 1059840.000000 0 0 1
30.187706 -3.139287 13.167462 33.083754 -0.103620 1.161456 0.169589 -0.036674 22614.500000 0 0 1
30.626506 -4.171287 12.315662 33.272482 -0.135366 1.191631 0.150506 -0.038633 132720.000000 0 0 1
30.851416 -3.627987 11.054162 32.972210 -0.117058 1.228918 0.157496 -0.040942 -162417.000000 0 0 1
31.438486 -4.521787 9.971362 33.290434 -0.142850 1.266600 0.154926 -0.033437 -963657.000000 0 0 1
32.793596 -4.737787 10.132962 34.648860 -0.143480 1.274011 0.158498 -0.039326 -571016.000000 0 0 1
33.278476 -5.593687 9.073762 34.943947 -0.166531 1.308120 0.154945 -0.041312 -501568.000000 0 0 1
34.685066 -6.128987 9.243862 36.415207 -0.174898 1.314142 0.133941 -0.041203 -427815.000000 0 0 1
35.766186 -5.223987 9.200062 37.298140 -0.145034 1.321561 0.124838 -0.042550 490895.000000 0 0 1
36.963276 -5.851787 8.805262 38.445544 -0.157010 1.339713 0.146897 -0.050705 555349.000000 0 0 1
-37.460440 -5.094787 8.380362 38.723015 0.135175 1.352652 0.151155 -0.049375 428772.000000 0 0 1
-37.528700 -4.457487 7.142162 38.461448 0.118222 1.384016 0.167649 -0.045560 -169099.000000 0 0 1
-36.356310 -3.768087 6.787762 37.175980 0.103275 1.387182 0.175838 -0.038484 -202478.000000 0 0 1
-36.357360 -3.226087 5.326762 36.886850 0.088501 1.425882 0.179781 -0.041816 -145295.000000 0 0 1
-36.169110 -4.237487 4.358362 36.676370 0.116626 1.451682 0.217532 -0.066511 52368.800000 0 0 1
-36.046180 -3.587487 3.067662 36.353923 0.099198 1.486313 0.236524 -0.057448 -286875.000000 0 0 1
-35.519020 -4.568387 1.995562 35.867161 0.127916 1.515130 0.337834 -0.076716 13310.000000 0 0 1
-36.314090 -5.702087 1.690862 36.797907 0.155750 1.524830 0.306621 -0.065849 -5886.260000 0 0 1
-36.927980 -5.818187 0.386762 37.385513 0.156270 1.560451 0.267888 -0.062126 -424926.000000 0 0 1
-36.068700 -5.773387 -0.894438 36.538790 0.158720 1.595278 0.316220 -0.070299 -775731.000000 0 0 1
-35.263842 -6.945887 -0.914238 35.953021 0.194480 1.596228 0.330233 -0.088370 98989.500000 0 0 1
-34.260152 -7.057887 -1.893938 35.030826 0.203166 1.624888 0.292562 -0.079860 489297.000000 0 0 1
-33.006790 -6.146787 -1.641838 33.614384 0.184119 1.619659 0.291043 -0.080788 -301471.000000 0 0 1
-32.273010 -6.560287 -0.517938 32.937104 0.200542 1.586522 0.315241 -0.078717 264826.000000 0 0 1
-30.969260 -5.952187 -0.470738 31.539582 0.189881 1.585722 0.288841 -0.075746 556480.000000 0 0 1
-30.045420 -6.899287 0.320262 30.829045 0.225716 1.560408 0.243234 -0.068804 -544310.000000 0 0 1
-29.817500 -8.108987 -0.389338 30.902922 0.265532 1.583395 0.222763 -0.047382 492729.000000 0 0 1
-29.012230 -8.992187 0.393662 30.376371 0.300555 1.557836 0.264782 -0.060127 65529.700000 0 0 1
-28.654540 -10.312287 -0.308338 30.455230 0.345452 1.580921 0.197816 -0.036246 -132779.000000 0 0 1
-27.925510 -10.251687 -1.504138 29.785796 0.351834 1.621316 0.174384 -0.035477 83549.700000 0 0 1
-27.263640 -11.428387 -1.900038 29.623036 0.396931 1.634981 0.164499 -0.017624 -387957.000000 0 0 1
-28.053520 -12.518387 -2.647138 30.833705 0.419716 1.656754 0.169911 -0.020049 -253954.000000 0 0 1
-28.988190 -13.207287 -1.831038 31.907684 0.427509 1.628213 0.215709 -0.035808 471605.000000 0 0 1
-29.344490 -14.459787 -2.397338 32.801399 0.457839 1.643948 0.181292 -0.028800 231113.000000 0 0 1
-30.389900 -15.372287 -1.644238 34.096287 0.468305 1.619038 0.211939 -0.026513 363392.000000 0 0 1
-29.829210 -16.083787 -0.563438 33.893767 0.494510 1.587421 0.187073 -0.018466 924811.000000 0 0 1
-30.833420 -16.679187 0.307362 35.056947 0.495865 1.562029 0.181188 -0.017157 769267.000000 0 0 1
-31.335280 -18.107587 -0.047438 36.190976 0.523985 1.572107 0.185961 -0.013608 18369.600000 0 0 1
-30.496890 -19.184287 0.342062 36.030739 0.561511 1.561303 0.190068 -0.022365 287190.000000 0 0 1
-31.072100 -20.481387 0.097962 37.215215 0.582785 1.568164 0.169211 -0.016540 27576.500000 0 0 1
-31.971910 -21.086687 1.172062 38.317426 0.583051 1.540203 0.162363 -0.014632 -522294.000000 0 0 1
-31.220650 -21.415987 2.300962 37.929776 0.601238 1.510095 0.157232 -0.015976 337962.000000 0 0 1
-32.053350 -22.026287 3.312762 39.032665 0.602067 1.485823 0.133288 -0.019858 746073.000000 0 0 1
-31.321060 -22.133687 4.700862 38.639449 0.615189 1.448835 0.128400 -0.023191 424068.000000 0 0 1
-31.250820 -20.869987 5.392262 37.963754 0.588802 1.428277 0.109727 -0.024192 -144803.000000 0 0 1
-30.401780 -20.813087 6.508962 37.414161 0.600316 1.395936 0.106172 -0.023493 116624.000000 0 0 1
-29.983180 -19.401787 7.027862 36.397957 0.574326 1.376492 0.116882 -0.020605 -374269.000000 0 0 1
-28.908960 -19.529187 7.880962 35.766279 0.594121 1.348627 0.108898 -0.027803 -665023.000000 0 0 1
-28.273870 -18.282687 8.203662 34.654992 0.574001 1.331804 0.124739 -0.025490 376525.000000 0 0 1
-27.334110 -18.574587 9.397262 34.358076 0.596861 1.293757 0.125324 -0.024848 -7706.770000 0 0 1
-28.044650 -18.904387 10.588262 35.439943 0.593119 1.267397 0.098981 -0.026373 -2200.850000 0 0 1
-27.205350 -19.277487 11.667162 35.325278 0.616469 1.234198 0.093623 -0.018224 -144599.000000 0 0 1
-26.505320 -18.067487 12.346062 34.371374 0.598308 1.203390 0.077075 -0.015964 -373337.000000 0 0 1
-25.290940 -17.661487 11.740162 33.005926 0.609606 1.207135 0.089451 -0.014798 371429.000000 0 0 1
-24.552800 -16.680887 12.471262 32.196651 0.596758 1.173045 0.089340 -0.010852 406720.000000 0 0 1
-23.828300 -17.041687 13.755762 32.363992 0.620846 1.131798 0.081730 -0.011196 -897575.000000 0 0 1
-24.733800 -17.296587 14.785862 33.608846 0.610263 1.115265 0.076235 -0.007653 -208554.000000 0 0 1
-24.103200 -17.546687 16.048562 33.858630 0.629260 1.076983 0.089014 -0.007992 -35230.600000 0 0 1
-25.066920 -17.995787 17.142562 35.299664 0.622645 1.063713 0.073389 0.000624 28852.500000 0 0 1
-25.835280 -17.002687 17.814662 35.691949 0.582062 1.048210 0.093895 0.007201 255748.000000 0 0 1
-26.829080 -17.597987 18.638462 37.106346 0.580532 1.044541 0.070715 0.014338 -29776.400000 0 0 1
-27.748170 -16.527587 19.255662 37.601896 0.537199 1.033177 0.090229 0.006238 -41729.200000 0 0 1
-27.073340 -15.764187 20.216962 37.285398 0.527286 0.997717 0.103114 -0.004051 211895.000000 0 0 1
-27.945800 -14.753387 20.659362 37.754992 0.485740 0.991786 0.103730 -0.013657 317704.000000 0 0 1
-27.244970 -13.974087 21.799262 37.586850 0.473918 0.952104 0.099680 -0.019008 -416232.000000 0 0 1
-26.129240 -13.281287 21.365862 36.271612 0.470259 0.940911 0.099872 -0.013349 -192480.000000 0 0 1
-25.274640 -12.894487 22.465462 36.190775 0.471754 0.901096 0.107021 -0.022481 -120078.000000 0 0 1
-23.969100 -12.276287 22.007462 34.778634 0.473337 0.885649 0.111221 -0.015464 -763756.000000 0 0 1
-24.211000 -10.995687 21.424362 34.147927 0.426309 0.892588 0.131528 -0.016687 208426.000000 0 0 1
-23.114700 -10.433587 20.744962 32.764349 0.424004 0.885172 0.124586 -0.023908 -686259.000000 0 0 1
-22.842800 -9.047987 21.226462 32.468789 0.377138 0.858267 0.142003 -0.025981 -114382.000000 0 0 1
-22.305000 -8.960787 22.532962 32.947581 0.382005 0.817697 0.145664 -0.027560 -231131.000000 0 0 1
-20.915500 -9.041587 22.628062 32.112889 0.408030 0.788879 0.110293 -0.014148 -489002.000000 0 0 1
-20.313600 -9.032487 24.062362 32.760119 0.418398 0.745864 0.107947 -0.024262 200816.000000 0 0 1
-20.800200 -10.140487 24.716562 33.858326 0.453613 0.752475 0.115373 -0.015266 -63985.700000 0 0 1
-20.180800 -10.266987 25.978862 34.461239 0.470623 0.716883 0.123539 -0.025615 -358212.000000 0 0 1
-20.457200 -11.631187 26.736862 35.617992 0.516982 0.721742 0.114469 -0.032342 908762.000000 0 0 1
-21.771500 -11.818687 27.265762 36.838856 0.497338 0.737524 0.107792 -0.025276 21194.700000 0 0 1
-22.755500 -12.344787 26.448362 37.009761 0.497064 0.774698 0.110718 -0.023268 1049940.000000 0 0 1
-24.032700 -12.887187 27.276062 38.569856 0.492214 0.785286 0.097655 -0.023147 1205170.000000 0 0 1
-23.892600 -14.103987 27.994662 39.414209 0.533262 0.780917 0.084761 -0.023309 7928.580000 0 0 1
-23.239300 -13.926687 29.244762 39.865697 0.539885 0.747218 0.093365 -0.019939 240708.000000 0 0 1
-23.773800 -15.026987 30.203162 41.270266 0.563676 0.749781 0.071740 -0.026363 -35408.700000 0 0 1
-23.400200 -16.395987 29.825862 41.303508 0.611180 0.763942 0.064187 -0.025142 -133488.000000 0 0 1
-23.444000 -17.333487 30.873262 42.464446 0.636655 0.756798 0.065615 -0.029322 -563092.000000 0 0 1
-24.776400 -17.711387 31.514562 43.826143 0.620622 0.768317 0.059702 -0.022457 -384166.000000 0 0 1
-25.330190 -16.735587 32.388962 44.393054 0.583859 0.753066 0.067997 -0.012819 -460005.000000 0 0 1
-26.572800 -17.169787 32.875462 45.625774 0.573658 0.766207 0.068951 -0.019793 -364145.000000 0 0 1
-27.346650 -15.990287 33.564262 46.152879 0.529113 0.756503 0.074604 -0.021728 266560.000000 0 0 1
-26.820670 -15.654387 -32.591797 45.018145 0.528325 2.380337 0.083711 -0.014342 304052.000000 0 0 1
-27.483070 -14.476687 -32.153397 44.707209 0.484817 2.373446 0.080489 -0.016532 68346.500000 0 0 1
-26.894200 -13.977087 -30.782697 43.199900 0.479288 2.363942 0.075767 -0.009783 -120184.000000 0 0 1
-27.256110 -14.879287 -29.724897 42.986722 0.499695 2.334346 0.092002 -0.004100 294976.000000 0 0 1
-26.491490 -14.640087 -28.556897 41.612829 0.504863 2.327120 0.107059 0.008375 -29658.000000 0 0 1
-26.949520 -15.601887 -27.440997 41.505468 0.524783 2.293136 0.098513 0.003649 664445.000000 0 0 1
-28.212460 -15.347487 -26.807797 41.834749 0.498223 2.266339 0.112118 -0.006283 563541.000000 0 0 1
-28.432170 -14.197187 -25.995097 41.057198 0.463116 2.256404 0.118388 -0.004604 -280005.000000 0 0 1
-27.453490 -13.963987 -24.820297 39.556721 0.470537 2.249084 0.115589 -0.011927 179516.000000 0 0 1
-26.165920 -13.427187 -25.145997 38.694520 0.474117 2.278196 0.085837 0.000653 1007060.000000 0 0 1
-25.160410 -13.708887 -24.169597 37.485320 0.498888 2.271525 0.077924 -0.006300 534680.000000 0 0 1
-24.593400 -15.173887 -24.085997 37.619376 0.552819 2.265627 0.071021 -0.002003 -386047.000000 0 0 1
-23.678100 -15.594387 -25.096197 37.863656 0.582397 2.295354 0.059144 0.001232 343970.000000 0 0 1
-23.576800 -16.981087 -25.269297 38.506625 0.624185 2.286611 0.066683 -0.006442 -80096.100000 0 0 1
-22.639100 -17.390987 -26.433097 38.906091 0.655037 2.317751 0.045634 -0.004724 -34552.800000 0 0 1
-23.138000 -17.335387 -27.750797 40.074798 0.643000 2.335710 0.050475 -0.005362 790880.000000 0 0 1
-24.109400 -18.406287 -28.029097 41.299938 0.652053 2.316749 0.072068 -0.005633 861060.000000 0 0 1
-24.754400 -18.232787 -29.415097 42.549533 0.634836 2.334103 0.069603 -0.008772 335296.000000 0 0 1
-23.832200 -18.769587 -30.366697 42.923274 0.667117 2.356701 0.061925 -0.018184 579694.000000 0 0 1
-24.286900 -18.479487 -31.645297 43.963278 0.650430 2.374328 0.062220 -0.015764 -408286.000000 0 0 1
-23.279000 -18.866487 -32.735297 44.378552 0.681081 2.400361 0.061622 -0.024313 -1212840.000000 0 0 1
-22.152300 -18.048087 -32.673297 43.405094 0.683657 2.423030 0.061138 -0.018039 1059080.000000 0 0 1
-20.855400 -18.649587 -32.349697 42.769822 0.729620 2.428538 0.055852 -0.026044 1605260.000000 0 0 1
-20.393700 -19.700787 -33.412997 43.822966 0.768118 2.437894 0.061411 -0.025280 -1672250.000000 0 0 1
-20.083800 -19.143987 32.792262 42.955601 0.761445 0.702237 0.070278 -0.029886 40026.700000 0 0 1
-20.205000 -20.091487 31.743362 42.656194 0.782581 0.731508 0.072621 -0.032794 -771260.000000 0 0 1
-21.606900 -20.510587 31.329362 43.232756 0.759374 0.760245 0.078560 -0.030476 -943190.000000 0 0 1
-22.264600 -21.341787 32.260962 44.631311 0.764239 0.762904 0.068426 -0.029008 -202634.000000 0 0 1
-23.565900 -21.723487 31.857662 45.190399 0.744740 0.788422 0.064389 -0.015835 187172.000000 0 0 1
-23.673400 -22.864587 30.865462 45.120904 0.768020 0.817480 0.082901 -0.013462 -539549.000000 0 0 1
-23.203900 -24.017987 31.514262 45.917680 0.802636 0.814378 0.080598 -0.011464 82337.300000 0 0 1
-22.983200 -25.116057 30.636962 45.800297 0.829712 0.838035 0.096573 -0.004373 -133311.000000 0 0 1
-22.423100 -26.389337 31.365262 46.722288 0.866475 0.834818 0.107544 -0.006769 -113563.000000 0 0 1
-23.394700 -27.066947 32.102262 48.067524 0.858043 0.839470 0.095667 -0.010554 -372847.000000 0 0 1
-22.829700 -28.119217 32.816862 48.875679 0.888848 0.834652 0.093243 -0.015854 -1049400.000000 0 0 1
-23.773500 -28.927327 33.656262 50.345938 0.882882 0.838606 0.096687 -0.018630 -262395.000000 0 0 1
-24.765000 -29.687917 32.974562 50.813378 0.875560 0.864613 0.084169 -0.022914 1222080.000000 0 0 1
-25.991760 -29.036657 32.582862 50.797066 0.840675 0.874433 0.081908 -0.018279 704256.000000 0 0 1
-27.136280 -28.918887 33.625962 51.994086 0.817188 0.867511 0.067600 -0.022318 -91785.100000 0 0 1
-28.209030 -28.115177 33.171262 51.831893 0.783732 0.876327 0.055362 -0.010002 44342.100000 0 0 1
-29.080970 -27.824807 -33.213097 52.182684 0.763327 2.260719 0.048231 -0.003574 593789.000000 0 0 1
-30.382680 -27.020337 -33.565797 52.724459 0.726891 2.260912 0.043215 -0.010249 355621.000000 0 0 1
-31.405330 -27.748247 33.253462 53.498156 0.723653 0.900036 0.038365 -0.017705 282111.000000 0 0 1
-32.417790 -26.830877 32.770462 53.335844 0.691380 0.909149 0.045016 -0.020071 373993.000000 0 0 1
